LAMMPS (24 Dec 2020)
OMP_NUM_THREADS environment is not set. Defaulting to 1 thread. (src/comm.cpp:94)
  using 1 OpenMP thread(s) per MPI task
# Simple rigid body system
# needed variables:


units		lj
atom_style	full
dimension 	3
boundary	p p f
pair_style	lj/cut/opt 2.5


variable 	sigma		equal 1.0
variable 	epsilon 	equal 1.0

region		box block 0 80 0 80 0 160
create_box 	3 box
Created orthogonal box = (0.0000000 0.0000000 0.0000000) to (80.000000 80.000000 160.00000)
  2 by 3 by 8 MPI processor grid

lattice 	sc 1.0
Lattice spacing in x,y,z = 1.0000000 1.0000000 1.0000000

region		create block EDGE EDGE EDGE EDGE 2 82
create_atoms 	1 region create
Created 518400 atoms
  create_atoms CPU = 0.010 seconds

mass		1 1.0
mass		2 1.0
mass		3 1.0

group		solvent type 1
518400 atoms in group solvent

velocity 	solvent create ${startTemp} 563435 loop geom
velocity 	solvent create 1.0 563435 loop geom


neighbor 	0.4 bin

pair_coeff	1 1 1.0 1.0
pair_coeff	2 2 0.0 0.0
pair_coeff	3 3 0.0 0.0
pair_coeff	2 3 0.0 0.0
pair_coeff	1 2*3 0.0 0.0

pair_modify 	shift yes


balance 	1.05 shift z 10 1.05
Balancing ...
Neighbor list info ...
  update every 1 steps, delay 10 steps, check yes
  max neighbors/atom: 2000, page size: 100000
  master list distance cutoff = 2.9
  ghost atom cutoff = 2.9
  binsize = 1.45, bins = 56 56 111
  1 neighbor lists, perpetual/occasional/extra = 1 0 0
  (1) pair lj/cut/opt, perpetual
      attributes: half, newton on
      pair build: half/bin/newton
      stencil: half/bin/3d/newton
      bin: standard
 rebalancing time: 0.034 seconds
  iteration count = 4
  initial/final maximal load/proc = 21600.000 12960.000
  initial/final imbalance factor  = 2.0000000 1.2000000
  x cuts: 0.0000000 0.50000000 1.0000000
  y cuts: 0.0000000 0.33333333 0.66666667 1.0000000
  z cuts: 0.0000000 0.070312500 0.13281250 0.20312500 0.26562500 0.32031250 0.39843750 0.46875000 1.0000000


####################### WALLS ###########################


variable       epsilonWall equal 2*${epsilon}
variable       epsilonWall equal 2*1

variable       cutoffTop   equal   0.7147*${sigma}
variable       cutoffTop   equal   0.7147*1

variable       cutoffLow   equal   3*${sigma}
variable       cutoffLow   equal   3*1


fix            topWall all wall/lj93 zhi EDGE                ${epsilonWall} ${sigma} ${cutoffTop} units box
fix            topWall all wall/lj93 zhi EDGE                2 ${sigma} ${cutoffTop} units box
fix            topWall all wall/lj93 zhi EDGE                2 1 ${cutoffTop} units box
fix            topWall all wall/lj93 zhi EDGE                2 1 0.7147 units box

fix            lowWall all wall/lj93 zlo EDGE                ${epsilonWall} ${sigma} ${cutoffLow} units box
fix            lowWall all wall/lj93 zlo EDGE                2 ${sigma} ${cutoffLow} units box
fix            lowWall all wall/lj93 zlo EDGE                2 1 ${cutoffLow} units box
fix            lowWall all wall/lj93 zlo EDGE                2 1 3 units box


###################### COMPUTES ##########################

compute        bin1 solvent chunk/atom bin/1d z upper 1.0


######################	FIXES ############################


fix 		peclet solvent ave/chunk 1000 1 1000 bin1 density/number norm 		 none ave one file density.profile

fix 		 temp solvent ave/chunk 1000 1 1000 bin1 temp norm 		 none ave one file temp.profile

fix 		2 solvent nve


## Thermostat


region		regthermo block EDGE EDGE EDGE EDGE 0 20

group 		thermo dynamic solvent region regthermo every 1000
dynamic group thermo defined

fix 		3 thermo langevin ${startTemp} ${temp} 10 156453
fix 		3 thermo langevin 1.0 ${temp} 10 156453
fix 		3 thermo langevin 1.0 1.2 10 156453



#### Load balancing


fix 		bal all balance 1000 1.05 shift z 10 1.05


############### Diagnostics and computes ###################
#compute 	com cube	  rigid/local	1 mol x y z
#compute 	quat cube	  rigid/local	1 mol quatw quati quatj quatk

thermo 		1000
thermo_style 	custom step temp epair evdwl etotal press pe ke atoms

dump		1 all custom 100000 dump.lammpstrj id mol type x y z
dump 		2 all image 10000 image.*.png type type
dump 		3 all movie 1000 movie.avi type type

#dump 		com cube local 1000 dump.*.xyz c_com[*]
#dump		quat cube      local 1000 dump.*.quat c_quat[*]


restart 	1000000 restart.dat
timestep 	0.005
timer 		full
New timer settings: style=full  mode=nosync  timeout=off

run		3000000
Per MPI rank memory allocation (min/avg/max) = 19.50 | 19.91 | 20.25 Mbytes
Step Temp E_pair E_vdwl TotEng Press PotEng KinEng Atoms 
       0            1   -3.2990042   -3.2990042   -1.7990071    9.0186765   -3.2990042    1.4999971   518400 
    1000    1.7051989   -4.5577369   -4.5577369   -1.9999435    3.7136486   -4.5577369    2.5577934   518400 
    2000    1.6565693   -4.6252709   -4.6252709   -2.1404218     1.336946   -4.6252709    2.4848491   518400 
    3000    1.5239137   -4.4096278   -4.4096278   -2.1237616   0.15512612   -4.4096278    2.2858662   518400 
    4000     1.426389   -4.1998404   -4.1998404    -2.060261 0.0066048874   -4.1998404    2.1395793   518400 
    5000    1.4298718   -4.1524778   -4.1524778   -2.0076743   0.13792231   -4.1524778    2.1448035   518400 
    6000    1.4372214   -4.1281222   -4.1281222   -1.9722943   0.20324733   -4.1281222    2.1558279   518400 
    7000    1.4439412   -4.1143831   -4.1143831   -1.9484755   0.25528694   -4.1143831    2.1659076   518400 
    8000    1.4546663   -4.1159845   -4.1159845   -1.9339893   0.32117012   -4.1159845    2.1819952   518400 
    9000    1.4574015   -4.1105843   -4.1105843   -1.9244863    1.2745239   -4.1105843    2.1860981   518400 
   10000    1.4479746   -4.0869452   -4.0869452   -1.9149876    2.6917029   -4.0869452    2.1719576   518400 
   11000    1.4623829   -4.0980617   -4.0980617   -1.9044916    1.7979084   -4.0980617    2.1935701   518400 
   12000    1.4032079   -3.9998398   -3.9998398   -1.8950321   0.99996065   -3.9998398    2.1048077   518400 
   13000    1.3260214   -3.8783923   -3.8783923    -1.889364   0.90123336   -3.8783923    1.9890282   518400 
   14000    1.2576513   -3.7703229   -3.7703229   -1.8838496   0.58045558   -3.7703229    1.8864733   518400 
   15000     1.195879   -3.6719739   -3.6719739   -1.8781589   0.38343633   -3.6719739     1.793815   518400 
   16000    1.1242788   -3.5608258   -3.5608258   -1.8744108   0.18725308   -3.5608258     1.686415   518400 
   17000    1.0607324   -3.4706583   -3.4706583   -1.8795627  0.034027999   -3.4706583    1.5910955   518400 
   18000    1.0419477    -3.466757    -3.466757   -1.9038384  0.033827907    -3.466757    1.5629186   518400 
   19000    1.0413077   -3.5216608   -3.5216608   -1.9597023   0.11883339   -3.5216608    1.5619585   518400 
   20000    1.0422269   -3.5946993   -3.5946993   -2.0313619   0.19853247   -3.5946993    1.5633373   518400 
   21000    1.0375281   -3.6503606   -3.6503606   -2.0940714   0.23282625   -3.6503606    1.5562891   518400 
   22000    1.0265991   -3.6739598   -3.6739598   -2.1340641   0.21822371   -3.6739598    1.5398957   518400 
   23000     1.011648    -3.671986    -3.671986    -2.154517   0.17350026    -3.671986     1.517469   518400 
   24000   0.99562642   -3.6531653   -3.6531653   -2.1597286   0.13270645   -3.6531653    1.4934367   518400 
   25000   0.98450402    -3.633463    -3.633463   -2.1567098   0.10156163    -3.633463    1.4767532   518400 
   26000   0.97593016   -3.6150275   -3.6150275   -2.1511351  0.090104073   -3.6150275    1.4638924   518400 
   27000   0.97465902    -3.605728    -3.605728   -2.1437423  0.097306458    -3.605728    1.4619857   518400 
   28000   0.97999825   -3.6056404   -3.6056404   -2.1356459   0.10792154   -3.6056404    1.4699945   518400 
   29000   0.98413528   -3.6058759   -3.6058759   -2.1296758   0.12799789   -3.6058759    1.4762001   518400 
   30000   0.98768076   -3.6039696   -3.6039696   -2.1224514    0.1319211   -3.6039696    1.4815183   518400 
   31000   0.98883952   -3.6006108   -3.6006108   -2.1173544   0.12536211   -3.6006108    1.4832564   518400 
   32000   0.98852659   -3.5954994   -3.5954994   -2.1127124   0.10836639   -3.5954994     1.482787   518400 
   33000   0.98218386   -3.5847669   -3.5847669    -2.111494  0.096736978   -3.5847669    1.4732729   518400 
   34000   0.98127139    -3.583529    -3.583529   -2.1116247    0.0926067    -3.583529    1.4719042   518400 
   35000   0.98151509   -3.5880037   -3.5880037   -2.1157339   0.09159944   -3.5880037    1.4722698   518400 
   36000   0.98123258   -3.5955367   -3.5955367   -2.1236906  0.098425096   -3.5955367     1.471846   518400 
   37000    0.9808625   -3.6033391   -3.6033391   -2.1320482   0.10324998   -3.6033391    1.4712909   518400 
   38000   0.97953883   -3.6090254   -3.6090254   -2.1397199   0.10574421   -3.6090254    1.4693054   518400 
   39000   0.97681115   -3.6099067   -3.6099067   -2.1446928   0.10692303   -3.6099067    1.4652139   518400 
   40000    0.9752269   -3.6113242   -3.6113242   -2.1484867  0.099106143   -3.6113242    1.4628375   518400 
   41000   0.97247401   -3.6078448   -3.6078448   -2.1491366  0.095940974   -3.6078448    1.4587082   518400 
   42000   0.97160028    -3.604967    -3.604967   -2.1475694  0.090842828    -3.604967    1.4573976   518400 
   43000   0.96937811   -3.5987754   -3.5987754    -2.144711  0.076174909   -3.5987754    1.4540644   518400 
   44000   0.96537731   -3.5911074   -3.5911074   -2.1430442  0.071631636   -3.5911074    1.4480632   518400 
   45000   0.96514503   -3.5889938   -3.5889938   -2.1412791  0.076935511   -3.5889938    1.4477148   518400 
   46000    0.9639393   -3.5845585   -3.5845585   -2.1386524  0.068971379   -3.5845585    1.4459062   518400 
   47000   0.96405145   -3.5833437   -3.5833437   -2.1372694  0.067249963   -3.5833437    1.4460744   518400 
   48000    0.9597549   -3.5761367   -3.5761367   -2.1365071  0.064796846   -3.5761367    1.4396296   518400 
   49000   0.95865327   -3.5721967   -3.5721967   -2.1342196  0.061450345   -3.5721967    1.4379771   518400 
   50000   0.95757225   -3.5688169   -3.5688169   -2.1324613  0.052276385   -3.5688169    1.4363556   518400 
   51000   0.95515319   -3.5632147   -3.5632147   -2.1304877   0.04863523   -3.5632147     1.432727   518400 
   52000   0.95356089   -3.5609981   -3.5609981   -2.1306596  0.046240641   -3.5609981    1.4303386   518400 
   53000   0.95162252   -3.5562792   -3.5562792   -2.1288482  0.049756553   -3.5562792     1.427431   518400 
   54000   0.95272606   -3.5567674   -3.5567674   -2.1276811  0.037775079   -3.5567674    1.4290863   518400 
   55000   0.95148848   -3.5531296   -3.5531296   -2.1258996  0.041417374   -3.5531296      1.42723   518400 
   56000   0.95039494    -3.549881    -3.549881   -2.1242913  0.046734875    -3.549881    1.4255897   518400 
   57000   0.95003567   -3.5457231   -3.5457231   -2.1206723    0.0443301   -3.5457231    1.4250508   518400 
   58000   0.94926906   -3.5430734   -3.5430734   -2.1191725   0.04277688   -3.5430734    1.4239008   518400 
   59000   0.94946628   -3.5426136   -3.5426136   -2.1184169  0.036141518   -3.5426136    1.4241967   518400 
   60000   0.94836879   -3.5394584   -3.5394584   -2.1169079  0.029208689   -3.5394584    1.4225504   518400 
   61000   0.94807217   -3.5362737   -3.5362737   -2.1141682   0.03918245   -3.5362737    1.4221055   518400 
   62000     0.947171   -3.5340863   -3.5340863   -2.1133326  0.036154193   -3.5340863    1.4207538   518400 
   63000   0.94654086   -3.5322982   -3.5322982   -2.1124897   0.03897459   -3.5322982    1.4198085   518400 
   64000   0.94721954   -3.5310607   -3.5310607   -2.1102342  0.044309005   -3.5310607    1.4208266   518400 
   65000   0.94854097   -3.5320963   -3.5320963   -2.1092876   0.03900662   -3.5320963    1.4228087   518400 
   66000    0.9466924   -3.5283835   -3.5283835   -2.1083476  0.041260738   -3.5283835    1.4200359   518400 
   67000   0.94643444   -3.5265112   -3.5265112   -2.1068623  0.034097789   -3.5265112    1.4196489   518400 
   68000   0.94706169   -3.5284325   -3.5284325   -2.1078427  0.033573168   -3.5284325    1.4205898   518400 
   69000    0.9461424   -3.5239422   -3.5239422   -2.1047313  0.036091324   -3.5239422    1.4192109   518400 
   70000   0.94835806   -3.5257236   -3.5257236   -2.1031893  0.041152479   -3.5257236    1.4225343   518400 
   71000   0.95062301   -3.5284871   -3.5284871   -2.1025554  0.037497009   -3.5284871    1.4259318   518400 
   72000   0.94865923   -3.5255754   -3.5255754   -2.1025893  0.035248575   -3.5255754    1.4229861   518400 
   73000   0.94872524   -3.5248952   -3.5248952   -2.1018101  0.038240223   -3.5248952    1.4230851   518400 
   74000   0.94716215   -3.5215217   -3.5215217   -2.1007812  0.036967812   -3.5215217    1.4207405   518400 
   75000   0.94834411   -3.5226552   -3.5226552   -2.1001418  0.038276766   -3.5226552    1.4225134   518400 
   76000   0.94832954   -3.5215594   -3.5215594   -2.0990679   0.03994212   -3.5215594    1.4224916   518400 
   77000   0.94895226   -3.5214508   -3.5214508   -2.0980251  0.039817581   -3.5214508    1.4234256   518400 
   78000   0.95059182   -3.5235729   -3.5235729    -2.097688  0.037991762   -3.5235729     1.425885   518400 
   79000   0.95117206   -3.5257599   -3.5257599   -2.0990046  0.041493574   -3.5257599    1.4267553   518400 
   80000   0.95240208   -3.5261195   -3.5261195   -2.0975192  0.041528687   -3.5261195    1.4286004   518400 
   81000   0.94983147   -3.5225865   -3.5225865   -2.0978421   0.04503555   -3.5225865    1.4247445   518400 
   82000   0.95000578   -3.5218115   -3.5218115   -2.0968056  0.042838874   -3.5218115    1.4250059   518400 
   83000   0.94974762   -3.5215316   -3.5215316   -2.0969129  0.041377042   -3.5215316    1.4246187   518400 
   84000   0.95022454   -3.5227475   -3.5227475   -2.0974134  0.041327369   -3.5227475    1.4253341   518400 
   85000    0.9510893   -3.5235113   -3.5235113   -2.0968801  0.050784804   -3.5235113    1.4266312   518400 
   86000    0.9536512   -3.5282781   -3.5282781   -2.0978041  0.047798561   -3.5282781     1.430474   518400 
   87000   0.95577567   -3.5321248   -3.5321248    -2.098464  0.057468703   -3.5321248    1.4336607   518400 
   88000   0.95841437   -3.5349534   -3.5349534   -2.0973346  0.061997596   -3.5349534    1.4376188   518400 
   89000   0.96013406   -3.5383575   -3.5383575   -2.0981592  0.063842609   -3.5383575    1.4401983   518400 
   90000   0.96235148   -3.5399225   -3.5399225   -2.0963981  0.072322888   -3.5399225    1.4435244   518400 
   91000   0.96219895   -3.5409449   -3.5409449   -2.0976493  0.080126696   -3.5409449    1.4432956   518400 
   92000   0.96344205   -3.5425936   -3.5425936   -2.0974333  0.077303253   -3.5425936    1.4451603   518400 
   93000   0.96474539   -3.5432524   -3.5432524   -2.0961371  0.082090772   -3.5432524    1.4471153   518400 
   94000   0.96198566   -3.5410843   -3.5410843   -2.0981086  0.077020704   -3.5410843    1.4429757   518400 
   95000    0.9617763   -3.5389626   -3.5389626   -2.0963009  0.074555637   -3.5389626    1.4426617   518400 
   96000    0.9579739   -3.5346626   -3.5346626   -2.0977045  0.066033261   -3.5346626    1.4369581   518400 
   97000   0.95597734   -3.5300052   -3.5300052    -2.096042  0.059162993   -3.5300052    1.4339632   518400 
   98000   0.95529031   -3.5279192   -3.5279192   -2.0949865  0.055591176   -3.5279192    1.4329327   518400 
   99000   0.95498309   -3.5270458   -3.5270458    -2.094574  0.049034749   -3.5270458    1.4324719   518400 
  100000   0.95512537   -3.5277481   -3.5277481   -2.0950628  0.052575253   -3.5277481    1.4326853   518400 
  101000   0.95540752   -3.5284499   -3.5284499   -2.0953413  0.043992599   -3.5284499    1.4331085   518400 
  102000   0.95725983   -3.5299942   -3.5299942   -2.0941073  0.049828455   -3.5299942     1.435887   518400 
  103000   0.95605496   -3.5289768   -3.5289768   -2.0948972  0.049198474   -3.5289768    1.4340797   518400 
  104000   0.95481025   -3.5287868   -3.5287868   -2.0965742  0.047174288   -3.5287868    1.4322126   518400 
  105000   0.95557058   -3.5297074   -3.5297074   -2.0963543  0.047159422   -3.5297074    1.4333531   518400 
  106000   0.95427786   -3.5282602   -3.5282602   -2.0968462  0.042822981   -3.5282602     1.431414   518400 
  107000   0.95525473   -3.5292794   -3.5292794   -2.0964001  0.046664141   -3.5292794    1.4328793   518400 
  108000   0.95610263   -3.5305044   -3.5305044   -2.0963532  0.042148728   -3.5305044    1.4341512   518400 
  109000   0.95454277   -3.5298171   -3.5298171   -2.0980057  0.054928453   -3.5298171    1.4318114   518400 
  110000   0.95609793   -3.5333797   -3.5333797   -2.0992355  0.044228958   -3.5333797    1.4341441   518400 
  111000   0.95331207   -3.5314171   -3.5314171   -2.1014518  0.050796483   -3.5314171    1.4299653   518400 
  112000   0.95360102   -3.5317289   -3.5317289   -2.1013301  0.047589537   -3.5317289    1.4303988   518400 
  113000   0.95534574   -3.5350538   -3.5350538    -2.102038  0.049398278   -3.5350538    1.4330158   518400 
  114000   0.95726989   -3.5386584   -3.5386584   -2.1027564  0.050089367   -3.5386584    1.4359021   518400 
  115000    0.9569609   -3.5391186   -3.5391186     -2.10368  0.051392901   -3.5391186    1.4354386   518400 
  116000    0.9564877   -3.5399156   -3.5399156   -2.1051868  0.052244003   -3.5399156    1.4347288   518400 
  117000   0.95585327   -3.5387039   -3.5387039   -2.1049268  0.047280858   -3.5387039    1.4337771   518400 
  118000   0.95500327   -3.5377003   -3.5377003   -2.1051981  0.046592932   -3.5377003    1.4325021   518400 
  119000   0.95510002   -3.5392671   -3.5392671   -2.1066198  0.049886153   -3.5392671    1.4326473   518400 
  120000   0.95494164   -3.5393287   -3.5393287    -2.106919  0.046508936   -3.5393287    1.4324097   518400 
  121000   0.95478543   -3.5386332   -3.5386332   -2.1064578  0.052092255   -3.5386332    1.4321754   518400 
  122000   0.95517804   -3.5391595   -3.5391595   -2.1063952  0.051469421   -3.5391595    1.4327643   518400 
  123000   0.95601408   -3.5408357   -3.5408357   -2.1068174  0.050579314   -3.5408357    1.4340183   518400 
  124000   0.95583068   -3.5401116   -3.5401116   -2.1063684  0.050824845   -3.5401116    1.4337433   518400 
  125000   0.95578472   -3.5403613   -3.5403613    -2.106687  0.051776795   -3.5403613    1.4336743   518400 
  126000   0.95636555   -3.5414883   -3.5414883   -2.1069427  0.055104955   -3.5414883    1.4345456   518400 
  127000   0.95478983   -3.5392409   -3.5392409   -2.1070589  0.049587198   -3.5392409     1.432182   518400 
  128000   0.95495293   -3.5382357   -3.5382357   -2.1058091  0.049772575   -3.5382357    1.4324266   518400 
  129000   0.95487501   -3.5376929   -3.5376929   -2.1053831   0.04954588   -3.5376929    1.4323098   518400 
  130000   0.95505894   -3.5372584   -3.5372584   -2.1046727  0.045629988   -3.5372584    1.4325857   518400 
  131000   0.95399758   -3.5360183   -3.5360183   -2.1050247   0.05179938   -3.5360183    1.4309936   518400 
  132000   0.95582844   -3.5379254   -3.5379254   -2.1041855  0.054722923   -3.5379254    1.4337399   518400 
  133000   0.95628997   -3.5376602   -3.5376602    -2.103228  0.048515056   -3.5376602    1.4344322   518400 
  134000   0.95616291   -3.5383942   -3.5383942   -2.1041526  0.045486858   -3.5383942    1.4342416   518400 
  135000   0.95612045   -3.5376062   -3.5376062   -2.1034283  0.047372728   -3.5376062    1.4341779   518400 
  136000   0.95558939    -3.536155    -3.536155   -2.1027737  0.048762397    -3.536155    1.4333813   518400 
  137000   0.95651011   -3.5366761   -3.5366761   -2.1019137  0.047350657   -3.5366761    1.4347624   518400 
  138000    0.9537281   -3.5330331   -3.5330331   -2.1024437  0.046420082   -3.5330331    1.4305894   518400 
  139000   0.95366243   -3.5318511   -3.5318511   -2.1013602  0.051740172   -3.5318511    1.4304909   518400 
  140000   0.95431384   -3.5340141   -3.5340141   -2.1025461  0.046799982   -3.5340141     1.431468   518400 
  141000   0.95485289   -3.5344633   -3.5344633   -2.1021867  0.048091874   -3.5344633    1.4322766   518400 
  142000   0.95463271   -3.5345076   -3.5345076   -2.1025613  0.052057588   -3.5345076    1.4319463   518400 
  143000   0.95678992   -3.5368825   -3.5368825   -2.1017004  0.058434124   -3.5368825    1.4351821   518400 
  144000   0.95730255   -3.5367636   -3.5367636   -2.1008126   0.04906739   -3.5367636    1.4359511   518400 
  145000   0.95768328   -3.5378675   -3.5378675   -2.1013454  0.053370815   -3.5378675    1.4365221   518400 
  146000   0.95720684   -3.5367293   -3.5367293   -2.1009218  0.054166219   -3.5367293    1.4358075   518400 
  147000   0.95647007   -3.5349771   -3.5349771   -2.1002748  0.044758797   -3.5349771    1.4347023   518400 
  148000   0.95597747   -3.5353875   -3.5353875    -2.101424  0.052820983   -3.5353875    1.4339634   518400 
  149000   0.95523148   -3.5342497   -3.5342497   -2.1014053  0.053612338   -3.5342497    1.4328445   518400 
  150000   0.95537921   -3.5348787   -3.5348787   -2.1018126  0.054199506   -3.5348787    1.4330661   518400 
  151000   0.95691128   -3.5369569   -3.5369569   -2.1015928  0.056216094   -3.5369569    1.4353641   518400 
  152000   0.95917905   -3.5398559   -3.5398559     -2.10109  0.053024169   -3.5398559    1.4387658   518400 
  153000   0.96113353   -3.5416702   -3.5416702   -2.0999727  0.057998813   -3.5416702    1.4416975   518400 
  154000   0.96079196   -3.5410526   -3.5410526   -2.0998674  0.060929045   -3.5410526    1.4411852   518400 
  155000   0.96283818   -3.5423685   -3.5423685    -2.098114  0.065709864   -3.5423685    1.4442545   518400 
  156000   0.96074912   -3.5400309   -3.5400309     -2.09891  0.060089297   -3.5400309    1.4411209   518400 
  157000   0.96085268   -3.5403289   -3.5403289   -2.0990527  0.060309986   -3.5403289    1.4412762   518400 
  158000   0.96022856   -3.5385342   -3.5385342   -2.0981942  0.067499936   -3.5385342    1.4403401   518400 
  159000   0.96114351   -3.5380951   -3.5380951   -2.0963826   0.05993078   -3.5380951    1.4417125   518400 
  160000   0.96118884   -3.5374577   -3.5374577   -2.0956773  0.061468609   -3.5374577    1.4417805   518400 
  161000   0.96151611   -3.5377359   -3.5377359   -2.0954645  0.063008076   -3.5377359    1.4422714   518400 
  162000   0.96064528   -3.5358666   -3.5358666   -2.0949015  0.062031017   -3.5358666    1.4409651   518400 
  163000   0.95924283   -3.5349851   -3.5349851   -2.0961236  0.055832732   -3.5349851    1.4388615   518400 
  164000   0.95917215   -3.5326273   -3.5326273   -2.0938718   0.06076053   -3.5326273    1.4387554   518400 
  165000   0.95897102   -3.5314799   -3.5314799   -2.0930261  0.052790126   -3.5314799    1.4384538   518400 
  166000   0.95887287    -3.529621    -3.529621   -2.0913145  0.057712007    -3.529621    1.4383065   518400 
  167000   0.95784913   -3.5283569   -3.5283569   -2.0915859  0.056958179   -3.5283569    1.4367709   518400 
  168000   0.95919445   -3.5288417   -3.5288417   -2.0900528  0.055169661   -3.5288417    1.4387889   518400 
  169000   0.96003068   -3.5310978   -3.5310978   -2.0910545  0.053349123   -3.5310978    1.4400432   518400 
  170000   0.95922859    -3.528834    -3.528834   -2.0899939  0.049094403    -3.528834    1.4388401   518400 
  171000   0.95850361   -3.5287826   -3.5287826     -2.09103  0.053164707   -3.5287826    1.4377526   518400 
  172000   0.95804991   -3.5287079   -3.5287079   -2.0916358  0.055173422   -3.5287079    1.4370721   518400 
  173000   0.95975133   -3.5309786   -3.5309786   -2.0913544  0.050566254   -3.5309786    1.4396242   518400 
  174000   0.95810178    -3.527527    -3.527527   -2.0903771  0.054117078    -3.527527    1.4371499   518400 
  175000   0.95880105   -3.5277521   -3.5277521   -2.0895533   0.05576886   -3.5277521    1.4381988   518400 
  176000   0.95847037   -3.5268514   -3.5268514   -2.0891486  0.048201057   -3.5268514    1.4377028   518400 
  177000   0.95711344   -3.5264048   -3.5264048   -2.0907374  0.044414817   -3.5264048    1.4356674   518400 
  178000   0.95673151   -3.5273274   -3.5273274   -2.0922329  0.055368268   -3.5273274    1.4350945   518400 
  179000   0.95859319    -3.531215    -3.531215    -2.093328  0.050015222    -3.531215     1.437887   518400 
  180000   0.95890036   -3.5317216   -3.5317216   -2.0933738  0.047560995   -3.5317216    1.4383478   518400 
  181000   0.95799047   -3.5320426   -3.5320426   -2.0950597  0.046224531   -3.5320426    1.4369829   518400 
  182000   0.95821546   -3.5309218   -3.5309218   -2.0936013  0.053122007   -3.5309218    1.4373204   518400 
  183000   0.95821197   -3.5307496   -3.5307496   -2.0934345  0.053670821   -3.5307496    1.4373152   518400 
  184000   0.95802682   -3.5293239   -3.5293239   -2.0922865  0.050933409   -3.5293239    1.4370375   518400 
  185000   0.95871964   -3.5307263   -3.5307263   -2.0926496  0.040772155   -3.5307263    1.4380767   518400 
  186000   0.95738448   -3.5287069   -3.5287069   -2.0926329  0.050833538   -3.5287069     1.436074   518400 
  187000   0.95615316   -3.5284515   -3.5284515   -2.0942245  0.046229209   -3.5284515     1.434227   518400 
  188000   0.95721815   -3.5290256   -3.5290256   -2.0932011  0.051181105   -3.5290256    1.4358245   518400 
  189000   0.95575303   -3.5271709   -3.5271709   -2.0935441  0.050384765   -3.5271709    1.4336268   518400 
  190000   0.95886117   -3.5312007   -3.5312007   -2.0929118  0.047291962   -3.5312007     1.438289   518400 
  191000   0.95870183   -3.5305508   -3.5305508   -2.0925009   0.05399984   -3.5305508      1.43805   518400 
  192000   0.95772068   -3.5289304   -3.5289304   -2.0923522  0.052505071   -3.5289304    1.4365783   518400 
  193000   0.95826444   -3.5304399   -3.5304399    -2.093046  0.054916998   -3.5304399    1.4373939   518400 
  194000   0.95803547   -3.5304708   -3.5304708   -2.0934204  0.057297849   -3.5304708    1.4370504   518400 
  195000    0.9581047   -3.5295358   -3.5295358   -2.0923816  0.053461067   -3.5295358    1.4371543   518400 
  196000   0.95794127   -3.5299591   -3.5299591     -2.09305  0.050532748   -3.5299591    1.4369091   518400 
  197000   0.95778758   -3.5303995   -3.5303995   -2.0937209  0.048168297   -3.5303995    1.4366786   518400 
  198000   0.95832804   -3.5300233   -3.5300233    -2.092534  0.055902359   -3.5300233    1.4374893   518400 
  199000   0.95718848   -3.5300589   -3.5300589   -2.0942789  0.051975367   -3.5300589    1.4357799   518400 
  200000    0.9572534   -3.5299047   -3.5299047   -2.0940274  0.049456151   -3.5299047    1.4358773   518400 
  201000   0.95867332   -3.5312228   -3.5312228   -2.0932156  0.051670177   -3.5312228    1.4380072   518400 
  202000   0.95850868   -3.5299398   -3.5299398   -2.0921796  0.049701139   -3.5299398    1.4377602   518400 
  203000   0.96024121   -3.5318828   -3.5318828   -2.0915237   0.05613995   -3.5318828     1.440359   518400 
  204000   0.96039857   -3.5318557   -3.5318557   -2.0912606  0.059716425   -3.5318557    1.4405951   518400 
  205000   0.95938946   -3.5304303   -3.5304303   -2.0913489  0.055025409   -3.5304303    1.4390814   518400 
  206000   0.95965587   -3.5306247   -3.5306247   -2.0911437  0.052193622   -3.5306247     1.439481   518400 
  207000   0.95899316   -3.5275484   -3.5275484   -2.0890615  0.049072107   -3.5275484     1.438487   518400 
  208000   0.95859542   -3.5276671   -3.5276671   -2.0897767  0.053379959   -3.5276671    1.4378904   518400 
  209000   0.96120779    -3.530083    -3.530083   -2.0882741  0.052075397    -3.530083    1.4418089   518400 
  210000   0.96008808   -3.5284651   -3.5284651   -2.0883358  0.049287975   -3.5284651    1.4401293   518400 
  211000   0.96104814   -3.5290883   -3.5290883   -2.0875189  0.050764372   -3.5290883    1.4415694   518400 
  212000   0.96009527   -3.5276981   -3.5276981    -2.087558  0.066738658   -3.5276981    1.4401401   518400 
  213000   0.96123247    -3.528884    -3.528884   -2.0870381  0.054730348    -3.528884    1.4418459   518400 
  214000   0.96204561   -3.5295256   -3.5295256   -2.0864599  0.062140054   -3.5295256    1.4430656   518400 
  215000   0.96073113   -3.5263743   -3.5263743   -2.0852804  0.055688392   -3.5263743    1.4410939   518400 
  216000   0.96054408   -3.5253192   -3.5253192   -2.0845059   0.05605691   -3.5253192    1.4408133   518400 
  217000   0.96034187    -3.524764    -3.524764    -2.084254  0.059541163    -3.524764      1.44051   518400 
  218000   0.96215541    -3.526903    -3.526903   -2.0836727  0.056592239    -3.526903    1.4432303   518400 
  219000   0.96058268   -3.5239302   -3.5239302   -2.0830589  0.054074315   -3.5239302    1.4408712   518400 
  220000   0.96070494   -3.5249405   -3.5249405   -2.0838859  0.054578608   -3.5249405    1.4410546   518400 
  221000   0.96130206    -3.525414    -3.525414   -2.0834637  0.056405792    -3.525414    1.4419503   518400 
  222000    0.9607355    -3.524724    -3.524724   -2.0836235  0.054412091    -3.524724    1.4411005   518400 
  223000   0.96089849   -3.5245652   -3.5245652   -2.0832203  0.059198419   -3.5245652    1.4413449   518400 
  224000   0.96067228   -3.5235882   -3.5235882   -2.0825825  0.058776404   -3.5235882    1.4410056   518400 
  225000   0.95991297   -3.5231194   -3.5231194   -2.0832527  0.047255373   -3.5231194    1.4398667   518400 
  226000   0.95950535   -3.5217331   -3.5217331   -2.0824779  0.050570883   -3.5217331    1.4392552   518400 
  227000   0.96058482   -3.5227546   -3.5227546   -2.0818801  0.052409109   -3.5227546    1.4408744   518400 
  228000   0.96066003   -3.5221175   -3.5221175   -2.0811302  0.050724674   -3.5221175    1.4409873   518400 
  229000   0.96005723   -3.5215944   -3.5215944   -2.0815114  0.051180447   -3.5215944    1.4400831   518400 
  230000    0.9606183   -3.5235839   -3.5235839   -2.0826592  0.053674874   -3.5235839    1.4409247   518400 
  231000   0.95920322   -3.5210754   -3.5210754   -2.0822733  0.053165968   -3.5210754    1.4388021   518400 
  232000   0.96068371   -3.5227431   -3.5227431   -2.0817203    0.0520235   -3.5227431    1.4410228   518400 
  233000   0.96122992   -3.5235966   -3.5235966   -2.0817545  0.053244994   -3.5235966    1.4418421   518400 
  234000   0.96251925   -3.5244792   -3.5244792   -2.0807031  0.052441615   -3.5244792    1.4437761   518400 
  235000   0.96194114   -3.5246908   -3.5246908   -2.0817819  0.050911819   -3.5246908    1.4429089   518400 
  236000   0.96140792   -3.5229383   -3.5229383   -2.0808292  0.051258405   -3.5229383    1.4421091   518400 
  237000   0.96039638   -3.5205279   -3.5205279   -2.0799361  0.054846499   -3.5205279    1.4405918   518400 
  238000   0.96157904   -3.5207062   -3.5207062   -2.0783404  0.056805847   -3.5207062    1.4423658   518400 
  239000   0.96213572   -3.5210897   -3.5210897   -2.0778889     0.049672   -3.5210897    1.4432008   518400 
  240000   0.95908976   -3.5182341   -3.5182341   -2.0796022   0.04262654   -3.5182341    1.4386319   518400 
  241000   0.96066706   -3.5187637   -3.5187637   -2.0777658  0.057573646   -3.5187637    1.4409978   518400 
  242000   0.95918865   -3.5156696   -3.5156696   -2.0768894  0.049683998   -3.5156696    1.4387802   518400 
  243000   0.95942338      -3.5152      -3.5152   -2.0760677  0.048943668      -3.5152    1.4391323   518400 
  244000   0.96098189   -3.5165228   -3.5165228   -2.0750527  0.054813127   -3.5165228      1.44147   518400 
  245000     0.961511   -3.5156512   -3.5156512   -2.0733875  0.055511677   -3.5156512    1.4422637   518400 
  246000   0.95986462   -3.5132751   -3.5132751    -2.073481  0.053308887   -3.5132751    1.4397942   518400 
  247000   0.95952828   -3.5130547   -3.5130547    -2.073765  0.050144196   -3.5130547    1.4392896   518400 
  248000   0.95961831   -3.5120505   -3.5120505   -2.0726258  0.051018358   -3.5120505    1.4394247   518400 
  249000   0.96120931   -3.5130413   -3.5130413   -2.0712301  0.047188044   -3.5130413    1.4418112   518400 
  250000   0.96043337    -3.512331    -3.512331   -2.0716837  0.057831586    -3.512331    1.4406473   518400 
  251000   0.96167253   -3.5140374   -3.5140374   -2.0715314   0.04756285   -3.5140374     1.442506   518400 
  252000   0.96278291   -3.5156637   -3.5156637   -2.0714921  0.051035262   -3.5156637    1.4441716   518400 
  253000    0.9621758   -3.5150583   -3.5150583   -2.0717974  0.051799141   -3.5150583    1.4432609   518400 
  254000   0.96239218   -3.5156772   -3.5156772   -2.0720918  0.051447729   -3.5156772    1.4435855   518400 
  255000   0.96101379   -3.5138675   -3.5138675   -2.0723496  0.053802657   -3.5138675    1.4415179   518400 
  256000   0.96267588   -3.5145606   -3.5145606   -2.0705496  0.054652184   -3.5145606     1.444011   518400 
  257000   0.96073239   -3.5115592   -3.5115592   -2.0704634   0.05418213   -3.5115592    1.4410958   518400 
  258000   0.96171017   -3.5131272   -3.5131272   -2.0705648  0.054108799   -3.5131272    1.4425625   518400 
  259000   0.96272298   -3.5140974   -3.5140974   -2.0700157  0.049262919   -3.5140974    1.4440817   518400 
  260000   0.96319167   -3.5121286   -3.5121286   -2.0673439  0.056442685   -3.5121286    1.4447847   518400 
  261000   0.96216258   -3.5114775   -3.5114775   -2.0682364  0.050911906   -3.5114775    1.4432411   518400 
  262000   0.96157304   -3.5111501   -3.5111501   -2.0687933  0.054659614   -3.5111501    1.4423568   518400 
  263000   0.96221854   -3.5120295   -3.5120295   -2.0687045  0.057205733   -3.5120295     1.443325   518400 
  264000     0.963436   -3.5120543   -3.5120543   -2.0669031  0.059931533   -3.5120543    1.4451512   518400 
  265000   0.96331515   -3.5123335   -3.5123335   -2.0673636  0.055855241   -3.5123335    1.4449699   518400 
  266000   0.96237648   -3.5117921   -3.5117921   -2.0682302  0.051771226   -3.5117921    1.4435619   518400 
  267000   0.96288364   -3.5121726   -3.5121726   -2.0678499  0.056325447   -3.5121726    1.4443227   518400 
  268000   0.96219739   -3.5098649   -3.5098649   -2.0665716  0.055274981   -3.5098649    1.4432933   518400 
  269000   0.96366423   -3.5123122   -3.5123122   -2.0668187  0.054900364   -3.5123122    1.4454936   518400 
  270000   0.96421291   -3.5129192   -3.5129192   -2.0666026  0.057442147   -3.5129192    1.4463166   518400 
  271000   0.96396343   -3.5133404   -3.5133404    -2.067398   0.05195111   -3.5133404    1.4459424   518400 
  272000   0.96298793   -3.5122328   -3.5122328   -2.0677537  0.054267642   -3.5122328    1.4444791   518400 
  273000   0.96212717   -3.5100684   -3.5100684   -2.0668805  0.060585679   -3.5100684     1.443188   518400 
  274000   0.96341726   -3.5122744   -3.5122744   -2.0671513  0.056118398   -3.5122744    1.4451231   518400 
  275000   0.96244828   -3.5103458   -3.5103458   -2.0666761   0.05532803   -3.5103458    1.4436696   518400 
  276000    0.9625402   -3.5100925   -3.5100925    -2.066285  0.055611829   -3.5100925    1.4438075   518400 
  277000   0.96111096   -3.5075218   -3.5075218   -2.0658582  0.061676834   -3.5075218    1.4416637   518400 
  278000   0.96161353   -3.5077133   -3.5077133   -2.0652958  0.054631871   -3.5077133    1.4424175   518400 
  279000   0.96265248   -3.5088767   -3.5088767   -2.0649007   0.05158554   -3.5088767    1.4439759   518400 
  280000   0.96186805   -3.5083729   -3.5083729   -2.0655736   0.05415885   -3.5083729    1.4427993   518400 
  281000   0.96261492   -3.5093548   -3.5093548   -2.0654352  0.052180472   -3.5093548    1.4439196   518400 
  282000   0.96179364   -3.5082173   -3.5082173   -2.0655296  0.057386395   -3.5082173    1.4426877   518400 
  283000   0.96237844   -3.5084557   -3.5084557   -2.0648908  0.058574738   -3.5084557    1.4435649   518400 
  284000    0.9626832   -3.5098248   -3.5098248   -2.0658028  0.053746821   -3.5098248     1.444022   518400 
  285000   0.96299837   -3.5090143   -3.5090143   -2.0645196  0.057271756   -3.5090143    1.4444948   518400 
  286000   0.96482936   -3.5115951   -3.5115951   -2.0643539  0.052103462   -3.5115951    1.4472413   518400 
  287000   0.96403267    -3.509821    -3.509821   -2.0637748  0.057253277    -3.509821    1.4460462   518400 
  288000   0.96206009   -3.5068322   -3.5068322   -2.0637448  0.060240315   -3.5068322    1.4430874   518400 
  289000   0.96490977   -3.5098919   -3.5098919     -2.06253  0.052166783   -3.5098919    1.4473619   518400 
  290000   0.96344241   -3.5074954   -3.5074954   -2.0623346  0.053229877   -3.5074954    1.4451608   518400 
  291000   0.96235908   -3.5057907   -3.5057907   -2.0622549  0.053955433   -3.5057907    1.4435358   518400 
  292000   0.96236093   -3.5038148   -3.5038148   -2.0602762  0.052095717   -3.5038148    1.4435386   518400 
  293000   0.96266836   -3.5032504   -3.5032504   -2.0592506  0.047629178   -3.5032504    1.4439998   518400 
  294000   0.96212037   -3.5030074   -3.5030074   -2.0598297  0.049262648   -3.5030074    1.4431778   518400 
  295000   0.96085304   -3.5011675   -3.5011675   -2.0598907  0.051624351   -3.5011675    1.4412768   518400 
  296000   0.96316459   -3.5042021   -3.5042021    -2.059458  0.052701003   -3.5042021    1.4447441   518400 
  297000   0.96501959   -3.5057526   -3.5057526   -2.0582261  0.048365702   -3.5057526    1.4475266   518400 
  298000   0.96495164   -3.5046678   -3.5046678   -2.0572431  0.053427958   -3.5046678    1.4474247   518400 
  299000   0.96339768   -3.5018647   -3.5018647    -2.056771  0.055927757   -3.5018647    1.4450937   518400 
  300000   0.96461542   -3.5039391   -3.5039391   -2.0570187  0.051268103   -3.5039391    1.4469203   518400 
  301000   0.96229493    -3.499516    -3.499516   -2.0560764  0.050999629    -3.499516    1.4434396   518400 
  302000   0.96345573   -3.5012076   -3.5012076   -2.0560268  0.046775587   -3.5012076    1.4451808   518400 
  303000   0.96342772   -3.4999313   -3.4999313   -2.0547925  0.051686053   -3.4999313    1.4451388   518400 
  304000   0.96361225   -3.5000921   -3.5000921   -2.0546765  0.054380495   -3.5000921    1.4454156   518400 
  305000   0.96471527   -3.5006152   -3.5006152   -2.0535451  0.052327014   -3.5006152    1.4470701   518400 
  306000   0.96566021   -3.5005568   -3.5005568   -2.0520693  0.055774994   -3.5005568    1.4484875   518400 
  307000   0.96552296   -3.4999646   -3.4999646    -2.051683  0.055100972   -3.4999646    1.4482816   518400 
  308000   0.96383174   -3.4975299   -3.4975299   -2.0517851  0.050696987   -3.4975299    1.4457448   518400 
  309000   0.96502251   -3.5001094   -3.5001094   -2.0525785  0.052457618   -3.5001094     1.447531   518400 
  310000   0.96460369   -3.4977386   -3.4977386   -2.0508358  0.055921172   -3.4977386    1.4469027   518400 
  311000   0.96529346   -3.4989261   -3.4989261   -2.0509887  0.053279655   -3.4989261    1.4479374   518400 
  312000   0.96578659     -3.49864     -3.49864   -2.0499629  0.054757895     -3.49864    1.4486771   518400 
  313000   0.96379348   -3.4951313   -3.4951313   -2.0494438   0.05629313   -3.4951313    1.4456874   518400 
  314000   0.96378388   -3.4950131   -3.4950131   -2.0493401   0.05103873   -3.4950131     1.445673   518400 
  315000   0.96414992   -3.4969696   -3.4969696   -2.0507475  0.054925195   -3.4969696    1.4462221   518400 
  316000   0.96394649   -3.4958465   -3.4958465   -2.0499295   0.05467252   -3.4958465     1.445917   518400 
  317000   0.96571504   -3.4981552   -3.4981552   -2.0495854  0.054409885   -3.4981552    1.4485698   518400 
  318000   0.96423214   -3.4944561   -3.4944561   -2.0481107  0.054315254   -3.4944561    1.4463454   518400 
  319000   0.96570071   -3.4966223   -3.4966223    -2.048074  0.056012921   -3.4966223    1.4485483   518400 
  320000   0.96555957   -3.4979185   -3.4979185    -2.049582  0.053632035   -3.4979185    1.4483366   518400 
  321000   0.96533128   -3.4965027   -3.4965027   -2.0485086  0.059340686   -3.4965027    1.4479941   518400 
  322000   0.96638484   -3.4974609   -3.4974609   -2.0478864  0.054990183   -3.4974609    1.4495745   518400 
  323000   0.96563753   -3.4968411   -3.4968411   -2.0483876  0.047873028   -3.4968411    1.4484535   518400 
  324000   0.96551958   -3.4952112   -3.4952112   -2.0469346  0.057715917   -3.4952112    1.4482766   518400 
  325000   0.96625387   -3.4963281   -3.4963281   -2.0469501  0.057780255   -3.4963281     1.449378   518400 
  326000   0.96620404   -3.4953034   -3.4953034   -2.0460002  0.053522733   -3.4953034    1.4493033   518400 
  327000   0.96560689   -3.4938628   -3.4938628   -2.0454552  0.057759963   -3.4938628    1.4484075   518400 
  328000   0.96748129   -3.4961288   -3.4961288   -2.0449096  0.057601937   -3.4961288    1.4512191   518400 
  329000   0.96647814   -3.4950426   -3.4950426   -2.0453282  0.052026102   -3.4950426    1.4497144   518400 
  330000   0.96533498   -3.4932671   -3.4932671   -2.0452674  0.057078582   -3.4932671    1.4479997   518400 
  331000   0.96583169   -3.4935133   -3.4935133   -2.0447686  0.055527055   -3.4935133    1.4487447   518400 
  332000   0.96639875   -3.4941466   -3.4941466   -2.0445513  0.058168213   -3.4941466    1.4495953   518400 
  333000   0.96674671   -3.4941494   -3.4941494   -2.0440321  0.057155999   -3.4941494    1.4501173   518400 
  334000   0.96581434   -3.4931429   -3.4931429   -2.0444242  0.054802698   -3.4931429    1.4487187   518400 
  335000   0.96594298   -3.4925699   -3.4925699   -2.0436583  0.058947388   -3.4925699    1.4489117   518400 
  336000   0.96642423   -3.4928676   -3.4928676    -2.043234  0.055791224   -3.4928676    1.4496335   518400 
  337000   0.96840221   -3.4938327   -3.4938327   -2.0412321  0.057529135   -3.4938327    1.4526005   518400 
  338000   0.96781509   -3.4928172   -3.4928172   -2.0410974  0.056673835   -3.4928172    1.4517198   518400 
  339000   0.96732092    -3.492409    -3.492409   -2.0414304  0.058968474    -3.492409    1.4509786   518400 
  340000   0.96762748   -3.4919578   -3.4919578   -2.0405194  0.055644899   -3.4919578    1.4514384   518400 
  341000    0.9669756   -3.4902526   -3.4902526    -2.039792  0.058266081   -3.4902526    1.4504606   518400 
  342000   0.96643953   -3.4882926   -3.4882926   -2.0386361  0.060179519   -3.4882926    1.4496565   518400 
  343000   0.96718384   -3.4889614   -3.4889614   -2.0381885  0.055380541   -3.4889614     1.450773   518400 
  344000   0.96677063   -3.4878008   -3.4878008   -2.0376476  0.056123447   -3.4878008    1.4501531   518400 
  345000   0.96706989   -3.4869659   -3.4869659   -2.0363639  0.053275406   -3.4869659     1.450602   518400 
  346000   0.96575987   -3.4847153   -3.4847153   -2.0360783  0.049050363   -3.4847153     1.448637   518400 
  347000   0.96595727   -3.4846951   -3.4846951    -2.035762  0.062721456   -3.4846951    1.4489331   518400 
  348000   0.96778688   -3.4867711   -3.4867711   -2.0350935  0.055117042   -3.4867711    1.4516775   518400 
  349000   0.96680197    -3.486654    -3.486654   -2.0364538  0.051450091    -3.486654    1.4502002   518400 
  350000   0.96567724   -3.4846357   -3.4846357   -2.0361226  0.053751903   -3.4846357    1.4485131   518400 
  351000   0.96588311   -3.4841567   -3.4841567   -2.0353348  0.055668216   -3.4841567    1.4488219   518400 
  352000   0.96655023    -3.484621    -3.484621   -2.0347985  0.058417831    -3.484621    1.4498225   518400 
  353000   0.96671018   -3.4846849   -3.4846849   -2.0346224  0.055804229   -3.4846849    1.4500625   518400 
  354000   0.96576345   -3.4840645   -3.4840645   -2.0354221  0.054096101   -3.4840645    1.4486424   518400 
  355000   0.96648885   -3.4849954   -3.4849954    -2.035265  0.057313737   -3.4849954    1.4497305   518400 
  356000   0.96766578   -3.4869526   -3.4869526   -2.0354568  0.052867178   -3.4869526    1.4514959   518400 
  357000   0.96646675   -3.4849923   -3.4849923    -2.035295  0.054016114   -3.4849923    1.4496973   518400 
  358000   0.96566233   -3.4832703   -3.4832703   -2.0347796  0.057104989   -3.4832703    1.4484907   518400 
  359000   0.96641288   -3.4842607   -3.4842607   -2.0346442  0.051552341   -3.4842607    1.4496165   518400 
  360000    0.9675147   -3.4850209   -3.4850209   -2.0337517  0.056790554   -3.4850209    1.4512693   518400 
  361000   0.96799284   -3.4858084   -3.4858084    -2.033822  0.058649086   -3.4858084    1.4519865   518400 
  362000   0.96696648   -3.4841004   -3.4841004   -2.0336534    0.0544909   -3.4841004    1.4504469   518400 
  363000    0.9672088   -3.4837852   -3.4837852   -2.0329748  0.049239682   -3.4837852    1.4508104   518400 
  364000   0.96747739   -3.4830575   -3.4830575   -2.0318442  0.055653443   -3.4830575    1.4512133   518400 
  365000   0.96654284   -3.4830026   -3.4830026   -2.0331911  0.053669161   -3.4830026    1.4498115   518400 
  366000   0.96751884   -3.4843908   -3.4843908   -2.0331153  0.049796807   -3.4843908    1.4512755   518400 
  367000   0.96977792   -3.4869408   -3.4869408   -2.0322767  0.051368568   -3.4869408    1.4546641   518400 
  368000   0.96901955   -3.4835897   -3.4835897   -2.0300631  0.059859133   -3.4835897    1.4535265   518400 
  369000    0.9695326   -3.4847928   -3.4847928   -2.0304967  0.056086207   -3.4847928    1.4542961   518400 
  370000    0.9681558   -3.4832502   -3.4832502   -2.0310193  0.057636336   -3.4832502    1.4522309   518400 
  371000   0.97012522   -3.4868495   -3.4868495   -2.0316645  0.057525998   -3.4868495     1.455185   518400 
  372000   0.96935921   -3.4846917   -3.4846917   -2.0306557  0.058404115   -3.4846917     1.454036   518400 
  373000   0.96833786   -3.4829781   -3.4829781   -2.0304741  0.054558343   -3.4829781     1.452504   518400 
  374000   0.96903231   -3.4851295   -3.4851295   -2.0315838  0.054930846   -3.4851295    1.4535457   518400 
  375000   0.96830834   -3.4832096   -3.4832096   -2.0307499  0.058951593   -3.4832096    1.4524597   518400 
  376000   0.96889999   -3.4836077   -3.4836077   -2.0302606  0.052754175   -3.4836077    1.4533472   518400 
  377000   0.96744614    -3.480444    -3.480444   -2.0292776  0.054986589    -3.480444    1.4511664   518400 
  378000   0.96749182   -3.4803503   -3.4803503   -2.0291154  0.053099618   -3.4803503    1.4512349   518400 
  379000   0.96729908   -3.4791449   -3.4791449    -2.028199  0.059224792   -3.4791449    1.4509458   518400 
  380000   0.96897918    -3.481163    -3.481163    -2.027697  0.054989503    -3.481163     1.453466   518400 
  381000   0.97035394   -3.4818344   -3.4818344   -2.0263063   0.05949775   -3.4818344    1.4555281   518400 
  382000   0.96978942   -3.4809408   -3.4809408   -2.0262595   0.06088428   -3.4809408    1.4546813   518400 
  383000   0.96993165    -3.479357    -3.479357   -2.0244624  0.059897519    -3.479357    1.4548947   518400 
  384000    0.9707404   -3.4801756   -3.4801756   -2.0240678  0.059236539   -3.4801756    1.4561078   518400 
  385000   0.97062206   -3.4787872   -3.4787872   -2.0228569  0.059931547   -3.4787872    1.4559303   518400 
  386000   0.96909311   -3.4770832   -3.4770832   -2.0234464  0.053296729   -3.4770832    1.4536369   518400 
  387000   0.96825517   -3.4747138   -3.4747138   -2.0223339  0.050581968   -3.4747138    1.4523799   518400 
  388000   0.96884589    -3.474351    -3.474351    -2.021085  0.055817126    -3.474351     1.453266   518400 
  389000   0.96885971   -3.4755505   -3.4755505   -2.0222637  0.055308197   -3.4755505    1.4532868   518400 
  390000   0.96843246   -3.4752181   -3.4752181   -2.0225723  0.051240872   -3.4752181    1.4526459   518400 
  391000   0.96828663   -3.4748557   -3.4748557   -2.0224285  0.046164307   -3.4748557    1.4524271   518400 
  392000   0.96960139   -3.4766178   -3.4766178   -2.0222185  0.055863129   -3.4766178    1.4543993   518400 
  393000   0.97060652   -3.4776542   -3.4776542   -2.0217473  0.056178089   -3.4776542     1.455907   518400 
  394000   0.97024062   -3.4767373   -3.4767373   -2.0213792  0.060656632   -3.4767373    1.4553581   518400 
  395000   0.97128904   -3.4776104   -3.4776104   -2.0206796  0.059962852   -3.4776104    1.4569307   518400 
  396000   0.96930459   -3.4746807   -3.4746807   -2.0207266  0.056477718   -3.4746807    1.4539541   518400 
  397000   0.97028156   -3.4758747   -3.4758747   -2.0204552  0.058598668   -3.4758747    1.4554195   518400 
  398000   0.97090597   -3.4769922   -3.4769922   -2.0206361  0.057578935   -3.4769922    1.4563562   518400 
  399000   0.96883537   -3.4735069   -3.4735069   -2.0202566  0.054244173   -3.4735069    1.4532502   518400 
  400000   0.96905875   -3.4726421   -3.4726421   -2.0190567  0.052642581   -3.4726421    1.4535853   518400 
  401000   0.96904431    -3.472437    -3.472437   -2.0188733  0.053932327    -3.472437    1.4535637   518400 
  402000   0.96872618   -3.4706177   -3.4706177   -2.0175313   0.05344651   -3.4706177    1.4530865   518400 
  403000   0.96805755   -3.4695394   -3.4695394   -2.0174558  0.049436036   -3.4695394    1.4520835   518400 
  404000   0.96923706   -3.4707153   -3.4707153   -2.0168625  0.055448573   -3.4707153    1.4538528   518400 
  405000   0.96962875   -3.4721311   -3.4721311   -2.0176908  0.052419242   -3.4721311    1.4544403   518400 
  406000     0.970307   -3.4724912   -3.4724912   -2.0170335  0.054559032   -3.4724912    1.4554577   518400 
  407000   0.97064763   -3.4726119   -3.4726119   -2.0166433  0.057500587   -3.4726119    1.4559686   518400 
  408000    0.9706737   -3.4722544   -3.4722544   -2.0162467  0.056203628   -3.4722544    1.4560077   518400 
  409000   0.97023108   -3.4706272   -3.4706272   -2.0152834  0.058236592   -3.4706272    1.4553438   518400 
  410000   0.97214907   -3.4731091   -3.4731091   -2.0148883   0.05579148   -3.4731091    1.4582208   518400 
  411000   0.97071751   -3.4703056   -3.4703056   -2.0142321  0.056339054   -3.4703056    1.4560735   518400 
  412000   0.97033766     -3.46938     -3.46938   -2.0138763  0.061872259     -3.46938    1.4555037   518400 
  413000   0.97154868    -3.471677    -3.471677   -2.0143568  0.056338526    -3.471677    1.4573202   518400 
  414000   0.97041567   -3.4706072   -3.4706072   -2.0149865  0.052928899   -3.4706072    1.4556207   518400 
  415000   0.97056812   -3.4714175   -3.4714175   -2.0155681  0.061692516   -3.4714175    1.4558494   518400 
  416000   0.97257754   -3.4737476   -3.4737476   -2.0148841  0.055166326   -3.4737476    1.4588635   518400 
  417000   0.97114396   -3.4717973   -3.4717973   -2.0150842   0.05578344   -3.4717973    1.4567131   518400 
  418000   0.96969601   -3.4693208   -3.4693208   -2.0147796  0.055326933   -3.4693208    1.4545412   518400 
  419000   0.96906773   -3.4682869   -3.4682869   -2.0146881  0.057819142   -3.4682869    1.4535988   518400 
  420000    0.9699697   -3.4701427   -3.4701427   -2.0151909  0.061931884   -3.4701427    1.4549517   518400 
  421000   0.96991038   -3.4693219   -3.4693219   -2.0144591  0.057688948   -3.4693219    1.4548628   518400 
  422000   0.97109787   -3.4704464   -3.4704464   -2.0138024  0.056553791   -3.4704464     1.456644   518400 
  423000   0.97151321   -3.4703608   -3.4703608   -2.0130938  0.050632853   -3.4703608     1.457267   518400 
  424000   0.97104481    -3.469113    -3.469113   -2.0125486  0.057184596    -3.469113    1.4565644   518400 
  425000   0.97164522   -3.4692061   -3.4692061   -2.0117411  0.059897635   -3.4692061     1.457465   518400 
  426000   0.97129336   -3.4683483   -3.4683483   -2.0114111  0.060721917   -3.4683483    1.4569372   518400 
  427000   0.97177235   -3.4676985   -3.4676985   -2.0100427  0.057300073   -3.4676985    1.4576557   518400 
  428000   0.97294382    -3.468281    -3.468281    -2.008868  0.057884061    -3.468281    1.4594129   518400 
  429000   0.97336999   -3.4672911   -3.4672911   -2.0072389   0.06092418   -3.4672911    1.4600522   518400 
  430000   0.97334355   -3.4664738   -3.4664738   -2.0064613  0.062209395   -3.4664738    1.4600125   518400 
  431000   0.97193136   -3.4656296   -3.4656296   -2.0077354  0.059222159   -3.4656296    1.4578942   518400 
  432000   0.97215654   -3.4657013   -3.4657013   -2.0074693   0.05871172   -3.4657013     1.458232   518400 
  433000   0.97186946   -3.4640303   -3.4640303   -2.0062289  0.056767955   -3.4640303    1.4578014   518400 
  434000   0.97219687   -3.4640378   -3.4640378   -2.0057453  0.054236034   -3.4640378    1.4582925   518400 
  435000    0.9727857   -3.4640372   -3.4640372   -2.0048615  0.057984943   -3.4640372    1.4591757   518400 
  436000   0.97094248   -3.4619158   -3.4619158   -2.0055049   0.05600977   -3.4619158    1.4564109   518400 
  437000   0.97163234   -3.4624539   -3.4624539   -2.0050082  0.064011772   -3.4624539    1.4574457   518400 
  438000   0.97192426   -3.4622691   -3.4622691   -2.0043855  0.055662034   -3.4622691    1.4578836   518400 
  439000   0.97301438   -3.4620291   -3.4620291   -2.0025103  0.054694692   -3.4620291    1.4595188   518400 
  440000   0.97386969   -3.4627477   -3.4627477    -2.001946  0.065428633   -3.4627477    1.4608017   518400 
  441000   0.97292094   -3.4615712   -3.4615712   -2.0021926  0.058549502   -3.4615712    1.4593786   518400 
  442000    0.9746904   -3.4624353   -3.4624353   -2.0004025  0.061881722   -3.4624353    1.4620328   518400 
  443000   0.97342399   -3.4607116   -3.4607116   -2.0005784  0.062647812   -3.4607116    1.4601332   518400 
  444000   0.97338405   -3.4603069   -3.4603069   -2.0002337  0.062369382   -3.4603069    1.4600733   518400 
  445000   0.97289229   -3.4599652   -3.4599652   -2.0006296  0.057695459   -3.4599652    1.4593356   518400 
  446000    0.9738171   -3.4608141   -3.4608141   -2.0000913  0.057715815   -3.4608141    1.4607228   518400 
  447000   0.97258332   -3.4587796   -3.4587796   -1.9999074  0.056556207   -3.4587796    1.4588722   518400 
  448000   0.97190801    -3.456187    -3.456187   -1.9983278  0.058931547    -3.456187    1.4578592   518400 
  449000   0.97178688   -3.4563878   -3.4563878   -1.9987103    0.0511667   -3.4563878    1.4576775   518400 
  450000   0.97200504    -3.455605    -3.455605   -1.9976003  0.058834185    -3.455605    1.4580047   518400 
  451000   0.97451199   -3.4591818   -3.4591818   -1.9974166  0.057700044   -3.4591818    1.4617652   518400 
  452000   0.97531828   -3.4601764   -3.4601764   -1.9972018  0.059045145   -3.4601764    1.4629746   518400 
  453000   0.97294215   -3.4566166   -3.4566166   -1.9972061  0.063130242   -3.4566166    1.4594104   518400 
  454000   0.97341957   -3.4591968   -3.4591968   -1.9990703  0.058910373   -3.4591968    1.4601265   518400 
  455000   0.97540585   -3.4602133   -3.4602133   -1.9971073  0.055760899   -3.4602133     1.463106   518400 
  456000   0.97339544   -3.4574013   -3.4574013    -1.997311  0.055750003   -3.4574013    1.4600903   518400 
  457000   0.97378108   -3.4577622   -3.4577622   -1.9970934  0.061267444   -3.4577622    1.4606688   518400 
  458000   0.97523049   -3.4590164   -3.4590164   -1.9961735  0.057894108   -3.4590164    1.4628429   518400 
  459000   0.97356332   -3.4559859   -3.4559859   -1.9956438  0.057261119   -3.4559859    1.4603422   518400 
  460000   0.97324731   -3.4551371   -3.4551371    -1.995269  0.053519335   -3.4551371    1.4598681   518400 
  461000   0.97271907   -3.4550012   -3.4550012   -1.9959255  0.061849511   -3.4550012    1.4590758   518400 
  462000   0.97640133    -3.459478    -3.459478   -1.9948788  0.058440674    -3.459478    1.4645992   518400 
  463000   0.97378842   -3.4550062   -3.4550062   -1.9943264  0.059580648   -3.4550062    1.4606798   518400 
  464000   0.97448817   -3.4547858   -3.4547858   -1.9930563  0.058202806   -3.4547858    1.4617294   518400 
  465000   0.97541197   -3.4556481   -3.4556481   -1.9925329  0.055992694   -3.4556481    1.4631151   518400 
  466000   0.97406685   -3.4528079   -3.4528079   -1.9917105  0.060971968   -3.4528079    1.4610975   518400 
  467000    0.9762065    -3.454071    -3.454071    -1.989764  0.063597226    -3.454071    1.4643069   518400 
  468000   0.97516505   -3.4533886   -3.4533886   -1.9906439  0.055693757   -3.4533886    1.4627448   518400 
  469000   0.97506967   -3.4525807   -3.4525807   -1.9899791  0.055359713   -3.4525807    1.4626017   518400 
  470000   0.97449944   -3.4519923   -3.4519923    -1.990246  0.058973239   -3.4519923    1.4617463   518400 
  471000   0.97501756   -3.4517914   -3.4517914   -1.9892678  0.064774534   -3.4517914    1.4625235   518400 
  472000   0.97600158    -3.453651    -3.453651   -1.9896515  0.060685658    -3.453651    1.4639995   518400 
  473000   0.97432144   -3.4514099   -3.4514099   -1.9899305  0.058435739   -3.4514099    1.4614793   518400 
  474000   0.97521657   -3.4528278   -3.4528278   -1.9900058  0.053022462   -3.4528278     1.462822   518400 
  475000    0.9747657   -3.4517161   -3.4517161   -1.9895704  0.056147713   -3.4517161    1.4621457   518400 
  476000   0.97439641   -3.4501747   -3.4501747   -1.9885829  0.058425803   -3.4501747    1.4615918   518400 
  477000   0.97432439   -3.4489673   -3.4489673   -1.9874836  0.059045478   -3.4489673    1.4614838   518400 
  478000   0.97703422   -3.4516019   -3.4516019   -1.9860534  0.054969985   -3.4516019    1.4655485   518400 
  479000   0.97578454   -3.4488704   -3.4488704   -1.9851964  0.064316161   -3.4488704     1.463674   518400 
  480000   0.97673797   -3.4508295   -3.4508295   -1.9857254  0.062549645   -3.4508295    1.4651041   518400 
  481000   0.97632721   -3.4507391   -3.4507391   -1.9862511  0.055569844   -3.4507391     1.464488   518400 
  482000   0.97439431   -3.4482655   -3.4482655   -1.9866768   0.06411388   -3.4482655    1.4615886   518400 
  483000   0.97511178   -3.4494109   -3.4494109    -1.986746  0.060660042   -3.4494109    1.4626648   518400 
  484000   0.97638658   -3.4509788   -3.4509788   -1.9864018  0.055990562   -3.4509788     1.464577   518400 
  485000   0.97418639   -3.4482405   -3.4482405   -1.9869637  0.054726364   -3.4482405    1.4612768   518400 
  486000   0.97526844   -3.4489265   -3.4489265   -1.9860267  0.062912195   -3.4489265    1.4628998   518400 
  487000   0.97628143   -3.4491993   -3.4491993     -1.98478  0.058406095   -3.4491993    1.4644193   518400 
  488000   0.97726707   -3.4486963   -3.4486963   -1.9827985   0.06124911   -3.4486963    1.4658978   518400 
  489000   0.97604371   -3.4464697   -3.4464697   -1.9824069  0.063340851   -3.4464697    1.4640627   518400 
  490000   0.97697255   -3.4480494   -3.4480494   -1.9825934  0.059548072   -3.4480494     1.465456   518400 
  491000   0.97675379   -3.4471258   -3.4471258    -1.981998  0.062518021   -3.4471258    1.4651279   518400 
  492000   0.97950351   -3.4495677   -3.4495677   -1.9803153  0.064319198   -3.4495677    1.4692524   518400 
  493000    0.9774394   -3.4459667   -3.4459667   -1.9798104  0.064378144   -3.4459667    1.4661563   518400 
  494000   0.97780927   -3.4460919   -3.4460919   -1.9793809  0.063313781   -3.4460919    1.4667111   518400 
  495000   0.97772349    -3.446149    -3.446149   -1.9795666  0.053314077    -3.446149    1.4665824   518400 
  496000   0.97615516   -3.4420866   -3.4420866   -1.9778567   0.06422084   -3.4420866    1.4642299   518400 
  497000   0.97705455   -3.4429996   -3.4429996   -1.9774206  0.060726223   -3.4429996     1.465579   518400 
  498000   0.97584412   -3.4413622   -3.4413622   -1.9775989  0.052252286   -3.4413622    1.4637634   518400 
  499000   0.97689794   -3.4420625   -3.4420625   -1.9767184  0.055828582   -3.4420625    1.4653441   518400 
  500000   0.97731368   -3.4409728   -3.4409728   -1.9750051  0.063483659   -3.4409728    1.4659677   518400 
  501000   0.97734252   -3.4420243   -3.4420243   -1.9760133  0.062071892   -3.4420243     1.466011   518400 
  502000   0.97759701   -3.4421246   -3.4421246   -1.9757319  0.066079952   -3.4421246    1.4663927   518400 
  503000   0.97794289   -3.4428668   -3.4428668   -1.9759553  0.063883357   -3.4428668    1.4669115   518400 
  504000   0.97826763   -3.4430207   -3.4430207   -1.9756221  0.064231514   -3.4430207    1.4673986   518400 
  505000   0.97864256   -3.4428544   -3.4428544   -1.9748934  0.062745481   -3.4428544     1.467961   518400 
  506000   0.97930931   -3.4420469   -3.4420469   -1.9730858  0.064862724   -3.4420469    1.4689611   518400 
  507000   0.97882593   -3.4411005   -3.4411005   -1.9728645  0.062162405   -3.4411005    1.4682361   518400 
  508000   0.97742066   -3.4383944   -3.4383944   -1.9722662   0.05782799   -3.4383944    1.4661282   518400 
  509000   0.97557796   -3.4357224   -3.4357224   -1.9723583  0.062570821   -3.4357224    1.4633641   518400 
  510000   0.97646982   -3.4359322   -3.4359322   -1.9712303  0.056123859   -3.4359322    1.4647019   518400 
  511000    0.9775159   -3.4381708   -3.4381708   -1.9718997   0.06169806   -3.4381708     1.466271   518400 
  512000   0.97759834   -3.4358849   -3.4358849   -1.9694903  0.062893455   -3.4358849    1.4663947   518400 
  513000   0.97857366   -3.4358043   -3.4358043   -1.9679466  0.067375197   -3.4358043    1.4678577   518400 
  514000   0.97906619   -3.4368441   -3.4368441   -1.9682476  0.063831185   -3.4368441    1.4685965   518400 
  515000   0.98044935   -3.4378807   -3.4378807   -1.9672095  0.068616426   -3.4378807    1.4706712   518400 
  516000   0.97888821   -3.4347538   -3.4347538   -1.9664243  0.060560708   -3.4347538    1.4683295   518400 
  517000    0.9775951   -3.4333342   -3.4333342   -1.9669444  0.064031178   -3.4333342    1.4663898   518400 
  518000   0.97839534   -3.4345159   -3.4345159   -1.9669258  0.066545234   -3.4345159    1.4675902   518400 
  519000   0.97848652   -3.4348295   -3.4348295   -1.9671026  0.061113742   -3.4348295    1.4677269   518400 
  520000   0.97885535   -3.4337327   -3.4337327   -1.9654525  0.063422608   -3.4337327    1.4682802   518400 
  521000   0.97781253   -3.4318284   -3.4318284   -1.9651125   0.06832991   -3.4318284     1.466716   518400 
  522000   0.97953209    -3.436149    -3.436149   -1.9668537  0.062053525    -3.436149    1.4692953   518400 
  523000   0.97807904   -3.4334232   -3.4334232   -1.9663074   0.06419923   -3.4334232    1.4671157   518400 
  524000   0.97907106   -3.4355783   -3.4355783   -1.9669745  0.064198681   -3.4355783    1.4686038   518400 
  525000   0.97935137   -3.4357942   -3.4357942     -1.96677  0.066957385   -3.4357942    1.4690242   518400 
  526000    0.9800489   -3.4357488   -3.4357488   -1.9656783  0.069059638   -3.4357488    1.4700705   518400 
  527000   0.98047316   -3.4354198   -3.4354198   -1.9647129  0.073171088   -3.4354198    1.4707069   518400 
  528000   0.98046715   -3.4355855   -3.4355855   -1.9648876  0.066490192   -3.4355855    1.4706979   518400 
  529000   0.97997304   -3.4343437   -3.4343437    -1.964387  0.064008366   -3.4343437    1.4699567   518400 
  530000   0.97749371    -3.429635    -3.429635   -1.9633972  0.065173931    -3.429635    1.4662377   518400 
  531000   0.98007949   -3.4318751   -3.4318751   -1.9617587  0.061570282   -3.4318751    1.4701164   518400 
  532000   0.98024095   -3.4311956   -3.4311956    -1.960837  0.064815751   -3.4311956    1.4703586   518400 
  533000   0.97934035   -3.4305619   -3.4305619   -1.9615542  0.058927914   -3.4305619    1.4690077   518400 
  534000   0.97902084     -3.42891     -3.42891   -1.9603816  0.068232186     -3.42891    1.4685284   518400 
  535000   0.98028712   -3.4317231   -3.4317231   -1.9612953  0.060835372   -3.4317231    1.4704278   518400 
  536000   0.98152482   -3.4321094   -3.4321094    -1.959825  0.064743586   -3.4321094    1.4722844   518400 
  537000   0.97926311   -3.4278653   -3.4278653   -1.9589735  0.063883891   -3.4278653    1.4688918   518400 
  538000    0.9803867   -3.4291205   -3.4291205   -1.9585433  0.064075687   -3.4291205    1.4705772   518400 
  539000   0.98105992   -3.4298079   -3.4298079   -1.9582209  0.066647124   -3.4298079     1.471587   518400 
  540000   0.98187803   -3.4297419   -3.4297419   -1.9569277  0.056860035   -3.4297419    1.4728142   518400 
  541000   0.98026781   -3.4278291   -3.4278291   -1.9574302  0.061338614   -3.4278291    1.4703989   518400 
  542000   0.97926909   -3.4259297   -3.4259297   -1.9570289  0.061110613   -3.4259297    1.4689008   518400 
  543000   0.97915394   -3.4247448   -3.4247448   -1.9560167  0.062421573   -3.4247448    1.4687281   518400 
  544000   0.97887171   -3.4250977   -3.4250977    -1.956793  0.061817472   -3.4250977    1.4683047   518400 
  545000   0.97965466   -3.4249638   -3.4249638   -1.9554846   0.05760638   -3.4249638    1.4694792   518400 
  546000   0.97909604   -3.4229807   -3.4229807   -1.9543395  0.066312237   -3.4229807    1.4686412   518400 
  547000   0.97956367   -3.4255979   -3.4255979   -1.9562552  0.060918693   -3.4255979    1.4693427   518400 
  548000   0.98008255   -3.4247655   -3.4247655   -1.9546445  0.060588555   -3.4247655     1.470121   518400 
  549000   0.98168261   -3.4252287   -3.4252287   -1.9527076  0.062474055   -3.4252287    1.4725211   518400 
  550000   0.98234153   -3.4264327   -3.4264327   -1.9529232  0.062179363   -3.4264327    1.4735095   518400 
  551000   0.98119381   -3.4244317   -3.4244317   -1.9526438  0.065724133   -3.4244317    1.4717879   518400 
  552000   0.98049207   -3.4226724   -3.4226724   -1.9519371  0.062892394   -3.4226724    1.4707353   518400 
  553000   0.98050072   -3.4218861   -3.4218861   -1.9511379  0.064425354   -3.4218861    1.4707482   518400 
  554000   0.98123605   -3.4236147   -3.4236147   -1.9517634  0.055808823   -3.4236147    1.4718512   518400 
  555000   0.98271375   -3.4246613   -3.4246613   -1.9505935  0.064820589   -3.4246613    1.4740678   518400 
  556000   0.98070087   -3.4221146   -3.4221146   -1.9510661  0.065279698   -3.4221146    1.4710485   518400 
  557000   0.98053871   -3.4227584   -3.4227584   -1.9519531  0.062287081   -3.4227584    1.4708052   518400 
  558000   0.97976495   -3.4214671   -3.4214671   -1.9518225  0.065183226   -3.4214671    1.4696446   518400 
  559000   0.98081637   -3.4230192   -3.4230192   -1.9517974   0.06454535   -3.4230192    1.4712217   518400 
  560000   0.97974842   -3.4216989   -3.4216989   -1.9520791  0.063943401   -3.4216989    1.4696198   518400 
  561000   0.98000033   -3.4207692   -3.4207692   -1.9507715  0.060404962   -3.4207692    1.4699977   518400 
  562000    0.9809444   -3.4213535   -3.4213535   -1.9499397  0.063684746   -3.4213535    1.4714138   518400 
  563000   0.98073295   -3.4204924   -3.4204924   -1.9493958  0.064201491   -3.4204924    1.4710966   518400 
  564000   0.97991257   -3.4183104   -3.4183104   -1.9484444  0.066651526   -3.4183104     1.469866   518400 
  565000   0.98071003   -3.4193773   -3.4193773   -1.9483151  0.056931214   -3.4193773    1.4710622   518400 
  566000   0.97900952   -3.4165498   -3.4165498   -1.9480384  0.063318057   -3.4165498    1.4685114   518400 
  567000    0.9797878   -3.4175236   -3.4175236   -1.9478447   0.06004812   -3.4175236    1.4696789   518400 
  568000   0.98020308   -3.4168807   -3.4168807    -1.946579  0.068586783   -3.4168807    1.4703018   518400 
  569000   0.98163113   -3.4179863   -3.4179863   -1.9455425  0.063175953   -3.4179863    1.4724439   518400 
  570000   0.98175637   -3.4189262   -3.4189262   -1.9462945  0.068312945   -3.4189262    1.4726317   518400 
  571000   0.98088131   -3.4175356   -3.4175356   -1.9462164  0.062959798   -3.4175356    1.4713191   518400 
  572000   0.98188688   -3.4183074   -3.4183074   -1.9454799  0.058145923   -3.4183074    1.4728275   518400 
  573000   0.98265695   -3.4196002   -3.4196002   -1.9456176  0.068766498   -3.4196002    1.4739826   518400 
  574000   0.98157794   -3.4180848   -3.4180848   -1.9457207  0.063437245   -3.4180848    1.4723641   518400 
  575000   0.98256333   -3.4174715   -3.4174715   -1.9436293    0.0627171   -3.4174715    1.4738422   518400 
  576000   0.98255151   -3.4165638   -3.4165638   -1.9427394  0.066660007   -3.4165638    1.4738244   518400 
  577000   0.98315964   -3.4158656   -3.4158656   -1.9411289  0.065950701   -3.4158656    1.4747366   518400 
  578000   0.98156986   -3.4132944   -3.4132944   -1.9409424  0.069482977   -3.4132944     1.472352   518400 
  579000   0.98240386   -3.4144805   -3.4144805   -1.9408775  0.061206668   -3.4144805     1.473603   518400 
  580000   0.98230862   -3.4138243   -3.4138243   -1.9403643  0.063711965   -3.4138243    1.4734601   518400 
  581000   0.98211695   -3.4139816   -3.4139816    -1.940809  0.062891408   -3.4139816    1.4731726   518400 
  582000   0.98364658   -3.4153787   -3.4153787   -1.9399117  0.065095602   -3.4153787     1.475467   518400 
  583000   0.98158694   -3.4121775   -3.4121775   -1.9397999  0.068491861   -3.4121775    1.4723776   518400 
  584000   0.98272223   -3.4143567   -3.4143567   -1.9402761  0.067025297   -3.4143567    1.4740805   518400 
  585000   0.98452098   -3.4165159   -3.4165159   -1.9397373  0.070213688   -3.4165159    1.4767786   518400 
  586000   0.98397915   -3.4150913   -3.4150913   -1.9391254  0.069847198   -3.4150913    1.4759659   518400 
  587000   0.98396905   -3.4147175   -3.4147175   -1.9387667  0.070990241   -3.4147175    1.4759507   518400 
  588000   0.98422088   -3.4143216   -3.4143216   -1.9379932  0.060422332   -3.4143216    1.4763285   518400 
  589000   0.98230862   -3.4110854   -3.4110854   -1.9376253  0.060016761   -3.4110854    1.4734601   518400 
  590000   0.98167287   -3.4100737   -3.4100737   -1.9375672  0.063134887   -3.4100737    1.4725065   518400 
  591000   0.98316658    -3.411931    -3.411931    -1.937184  0.061730444    -3.411931     1.474747   518400 
  592000   0.98275097   -3.4094852   -3.4094852   -1.9353616  0.062427857   -3.4094852    1.4741236   518400 
  593000   0.98285435   -3.4090979   -3.4090979   -1.9348192  0.063769516   -3.4090979    1.4742787   518400 
  594000   0.98130559   -3.4053682   -3.4053682   -1.9334127  0.065558822   -3.4053682    1.4719555   518400 
  595000    0.9811265   -3.4058176   -3.4058176   -1.9341307  0.060844751   -3.4058176    1.4716869   518400 
  596000   0.98218121   -3.4065818   -3.4065818   -1.9333128  0.067286017   -3.4065818     1.473269   518400 
  597000   0.98305627   -3.4072599   -3.4072599   -1.9326783  0.063778908   -3.4072599    1.4745816   518400 
  598000    0.9846157   -3.4099582   -3.4099582   -1.9330375  0.064009147   -3.4099582    1.4769207   518400 
  599000    0.9834885   -3.4084491   -3.4084491   -1.9332192  0.068826362   -3.4084491    1.4752299   518400 
  600000   0.98223011   -3.4072333   -3.4072333    -1.933891  0.069747997   -3.4072333    1.4733423   518400 
  601000   0.98350708   -3.4081236   -3.4081236   -1.9328658  0.067070957   -3.4081236    1.4752578   518400 
  602000    0.9843516   -3.4080566   -3.4080566   -1.9315321  0.070459878   -3.4080566    1.4765245   518400 
  603000   0.98489981   -3.4094325   -3.4094325   -1.9320856  0.068364926   -3.4094325    1.4773469   518400 
  604000   0.98305838   -3.4067509   -3.4067509   -1.9321662  0.071719163   -3.4067509    1.4745847   518400 
  605000   0.98546502    -3.409387    -3.409387   -1.9311923  0.066493879    -3.409387    1.4781947   518400 
  606000   0.98470925   -3.4071716   -3.4071716   -1.9301106  0.064354808   -3.4071716     1.477061   518400 
  607000   0.98343844   -3.4055666   -3.4055666   -1.9304118  0.061987315   -3.4055666    1.4751548   518400 
  608000    0.9830066   -3.4045047   -3.4045047   -1.9299976  0.068625634   -3.4045047    1.4745071   518400 
  609000   0.98306899   -3.4049441   -3.4049441   -1.9303435  0.062810332   -3.4049441    1.4746006   518400 
  610000   0.98377238   -3.4051847   -3.4051847    -1.929529  0.069207899   -3.4051847    1.4756557   518400 
  611000   0.98393828   -3.4058601   -3.4058601   -1.9299555   0.06136709   -3.4058601    1.4759046   518400 
  612000   0.98534463   -3.4070513   -3.4070513   -1.9290372  0.064362276   -3.4070513    1.4780141   518400 
  613000   0.98555474   -3.4061866   -3.4061866   -1.9278573  0.068264156   -3.4061866    1.4783293   518400 
  614000   0.98463609   -3.4053904   -3.4053904   -1.9284391  0.071160779   -3.4053904    1.4769513   518400 
  615000   0.98626847   -3.4079783   -3.4079783   -1.9285784  0.073762022   -3.4079783    1.4793998   518400 
  616000    0.9870142   -3.4087589   -3.4087589   -1.9282405  0.068429463   -3.4087589    1.4805184   518400 
  617000   0.98587623   -3.4063446   -3.4063446   -1.9275331  0.072581897   -3.4063446    1.4788115   518400 
  618000   0.98340031   -3.4035203   -3.4035203   -1.9284226  0.064842149   -3.4035203    1.4750976   518400 
  619000   0.98520658   -3.4055205   -3.4055205   -1.9277135  0.064680593   -3.4055205     1.477807   518400 
  620000   0.98516633   -3.4028785   -3.4028785   -1.9251319  0.064335937   -3.4028785    1.4777466   518400 
  621000   0.98440863   -3.4011002   -3.4011002   -1.9244901  0.061379368   -3.4011002    1.4766101   518400 
  622000   0.98494467   -3.4019869   -3.4019869   -1.9245727  0.064213268   -3.4019869    1.4774142   518400 
  623000   0.98435282   -3.4000469   -3.4000469   -1.9235205  0.062866502   -3.4000469    1.4765264   518400 
  624000   0.98333295   -3.3974556   -3.3974556    -1.922459  0.061836242   -3.3974556    1.4749966   518400 
  625000   0.98454511   -3.3989004   -3.3989004   -1.9220856  0.066525705   -3.3989004    1.4768148   518400 
  626000   0.98626131   -3.4010954   -3.4010954   -1.9217063  0.070202529   -3.4010954    1.4793891   518400 
  627000   0.98559405   -3.3992815   -3.3992815   -1.9208933  0.069182569   -3.3992815    1.4783882   518400 
  628000   0.98819274   -3.4016612   -3.4016612   -1.9193749  0.069865496   -3.4016612    1.4822863   518400 
  629000   0.98644502   -3.3997133   -3.3997133   -1.9200487  0.072385566   -3.3997133    1.4796647   518400 
  630000   0.98519283   -3.3979552   -3.3979552   -1.9201688  0.072789502   -3.3979552    1.4777864   518400 
  631000   0.98691397   -3.3982613   -3.3982613   -1.9178932  0.067272069   -3.3982613    1.4803681   518400 
  632000   0.98586457   -3.3972927   -3.3972927   -1.9184987   0.06681389   -3.3972927     1.478794   518400 
  633000    0.9854371   -3.3961395   -3.3961395   -1.9179867  0.067088195   -3.3961395    1.4781528   518400 
  634000   0.98514041   -3.3944351   -3.3944351   -1.9167274  0.065672156   -3.3944351    1.4777078   518400 
  635000   0.98539801   -3.3952889   -3.3952889   -1.9171947  0.063229892   -3.3952889    1.4780942   518400 
  636000   0.98481816    -3.394245    -3.394245   -1.9170206  0.065522979    -3.394245    1.4772244   518400 
  637000   0.98737296   -3.3973084   -3.3973084   -1.9162518  0.067306019   -3.3973084    1.4810566   518400 
  638000   0.98765947   -3.3966576   -3.3966576   -1.9151712  0.069516572   -3.3966576    1.4814863   518400 
  639000    0.9868275   -3.3963934   -3.3963934    -1.916155  0.069702003   -3.3963934    1.4802384   518400 
  640000   0.98765297   -3.3969725   -3.3969725   -1.9154959  0.066906043   -3.3969725    1.4814766   518400 
  641000   0.98906109   -3.3984463   -3.3984463   -1.9148575   0.06539418   -3.3984463    1.4835888   518400 
  642000   0.98742213   -3.3955286   -3.3955286   -1.9143982  0.073354724   -3.3955286    1.4811303   518400 
  643000   0.98831845   -3.3973639   -3.3973639   -1.9148891  0.068197636   -3.3973639    1.4824748   518400 
  644000   0.98835957   -3.3954431   -3.3954431   -1.9129066  0.072433508   -3.3954431    1.4825365   518400 
  645000   0.98681783   -3.3928875   -3.3928875   -1.9126636  0.076388481   -3.3928875    1.4802239   518400 
  646000   0.98638046   -3.3922624   -3.3922624   -1.9126946  0.070421752   -3.3922624    1.4795678   518400 
  647000   0.98748033   -3.3934329   -3.3934329   -1.9122153  0.065608223   -3.3934329    1.4812176   518400 
  648000   0.98794435   -3.3943587   -3.3943587   -1.9124451  0.066634402   -3.3943587    1.4819137   518400 
  649000   0.98649858   -3.3921708   -3.3921708   -1.9124258  0.073558958   -3.3921708     1.479745   518400 
  650000   0.98555055   -3.3910866   -3.3910866   -1.9127637   0.06718709   -3.3910866     1.478323   518400 
  651000   0.98619006   -3.3929257   -3.3929257   -1.9136434  0.063932207   -3.3929257    1.4792822   518400 
  652000   0.98478753   -3.3903907   -3.3903907   -1.9132123  0.069237578   -3.3903907    1.4771785   518400 
  653000   0.98597087    -3.391344    -3.391344   -1.9123905  0.063442048    -3.391344    1.4789535   518400 
  654000   0.98882536   -3.3944171   -3.3944171   -1.9111819  0.067557026   -3.3944171    1.4832352   518400 
  655000   0.98834119   -3.3929206   -3.3929206   -1.9104117  0.071552751   -3.3929206    1.4825089   518400 
  656000   0.98834706   -3.3935479   -3.3935479   -1.9110302  0.072631225   -3.3935479    1.4825177   518400 
  657000   0.98838617   -3.3945072   -3.3945072   -1.9119308  0.064565847   -3.3945072    1.4825764   518400 
  658000   0.98834632   -3.3928758   -3.3928758   -1.9103592  0.071460463   -3.3928758    1.4825166   518400 
  659000   0.98843583   -3.3937716   -3.3937716   -1.9111207  0.069547721   -3.3937716    1.4826509   518400 
  660000   0.98865367    -3.392914    -3.392914   -1.9099364  0.075469696    -3.392914    1.4829776   518400 
  661000    0.9869247   -3.3909192   -3.3909192    -1.910535  0.070929741   -3.3909192    1.4803842   518400 
  662000   0.98873528   -3.3924992   -3.3924992   -1.9093991  0.066937409   -3.3924992    1.4831001   518400 
  663000   0.98816434   -3.3903988   -3.3903988   -1.9081552  0.066973651   -3.3903988    1.4822437   518400 
  664000   0.98684984   -3.3890645   -3.3890645   -1.9087926   0.06809306   -3.3890645    1.4802719   518400 
  665000    0.9902761   -3.3932025   -3.3932025   -1.9077912    0.0674203   -3.3932025    1.4854113   518400 
  666000   0.98954418    -3.391452    -3.391452   -1.9071386  0.070318292    -3.391452    1.4843134   518400 
  667000   0.98842477   -3.3903627   -3.3903627   -1.9077284  0.071017306   -3.3903627    1.4826343   518400 
  668000   0.98675385   -3.3874906   -3.3874906   -1.9073627  0.069718629   -3.3874906    1.4801279   518400 
  669000   0.98940271   -3.3910548   -3.3910548   -1.9069536  0.069268095   -3.3910548    1.4841012   518400 
  670000   0.98968087   -3.3911829   -3.3911829   -1.9066645  0.072578671   -3.3911829    1.4845184   518400 
  671000   0.99017427   -3.3916393   -3.3916393   -1.9063808   0.06764528   -3.3916393    1.4852585   518400 
  672000   0.98922407   -3.3904079   -3.3904079   -1.9065747   0.06963468   -3.3904079    1.4838332   518400 
  673000   0.98821043   -3.3872437   -3.3872437   -1.9049309  0.066138706   -3.3872437    1.4823128   518400 
  674000   0.98735874   -3.3861908   -3.3861908   -1.9051556  0.064326212   -3.3861908    1.4810353   518400 
  675000   0.98908482   -3.3875268   -3.3875268   -1.9039024  0.070725052   -3.3875268    1.4836244   518400 
  676000   0.98870731    -3.387461    -3.387461   -1.9044029  0.072440784    -3.387461    1.4830581   518400 
  677000   0.98771111   -3.3863085   -3.3863085   -1.9047446  0.075497267   -3.3863085    1.4815638   518400 
  678000   0.98908649    -3.387851    -3.387851   -1.9042241  0.070112578    -3.387851    1.4836269   518400 
  679000   0.99071351   -3.3882872   -3.3882872   -1.9022198  0.065595161   -3.3882872    1.4860674   518400 
  680000   0.98814441   -3.3855817   -3.3855817    -1.903368  0.068470135   -3.3855817    1.4822138   518400 
  681000    0.9888627   -3.3863246   -3.3863246   -1.9030334  0.067844033   -3.3863246    1.4832912   518400 
  682000   0.99018263   -3.3869156   -3.3869156   -1.9016445  0.074396629   -3.3869156    1.4852711   518400 
  683000   0.98858725   -3.3847407   -3.3847407   -1.9018627  0.069938109   -3.3847407     1.482878   518400 
  684000   0.98880105   -3.3850082   -3.3850082   -1.9018095  0.069131844   -3.3850082    1.4831987   518400 
  685000   0.98966484   -3.3854387   -3.3854387   -1.9009443  0.072330238   -3.3854387    1.4844944   518400 
  686000   0.98932425   -3.3831979   -3.3831979   -1.8992144  0.066613434   -3.3831979    1.4839835   518400 
  687000   0.98940313   -3.3821861   -3.3821861   -1.8980842  0.072714465   -3.3821861    1.4841018   518400 
  688000   0.99075489   -3.3847553   -3.3847553   -1.8986258  0.065460849   -3.3847553    1.4861295   518400 
  689000   0.98918624   -3.3820021   -3.3820021   -1.8982257  0.073936405   -3.3820021    1.4837765   518400 
  690000   0.98892988   -3.3805651   -3.3805651   -1.8971732  0.070051647   -3.3805651     1.483392   518400 
  691000   0.98843344   -3.3800713   -3.3800713    -1.897424  0.070300678   -3.3800713    1.4826473   518400 
  692000   0.98954183   -3.3818624   -3.3818624   -1.8975525  0.064135221   -3.3818624    1.4843099   518400 
  693000   0.98945454    -3.381076    -3.381076    -1.896897  0.068555819    -3.381076    1.4841789   518400 
  694000   0.99020152   -3.3808355   -3.3808355   -1.8955361  0.072418571   -3.3808355    1.4852994   518400 
  695000   0.99011896   -3.3801875   -3.3801875   -1.8950119  0.071617491   -3.3801875    1.4851756   518400 
  696000   0.99106767   -3.3813816   -3.3813816    -1.894783  0.070342704   -3.3813816    1.4865986   518400 
  697000   0.99190285   -3.3808348   -3.3808348   -1.8929834  0.073661619   -3.3808348    1.4878514   518400 
  698000     0.993185   -3.3828066   -3.3828066    -1.893032  0.071687761   -3.3828066    1.4897746   518400 
  699000   0.99368817   -3.3829176   -3.3829176   -1.8923882  0.073387928   -3.3829176    1.4905294   518400 
  700000   0.99170778   -3.3806181   -3.3806181   -1.8930594  0.074256134   -3.3806181    1.4875588   518400 
  701000   0.99202369   -3.3793496   -3.3793496    -1.891317  0.075762129   -3.3793496    1.4880327   518400 
  702000   0.99282755   -3.3801053   -3.3801053   -1.8908669  0.073201623   -3.3801053    1.4892385   518400 
  703000   0.99154273    -3.379122    -3.379122   -1.8918107  0.069772013    -3.379122    1.4873112   518400 
  704000   0.99163799   -3.3766672   -3.3766672   -1.8892131  0.075182622   -3.3766672    1.4874541   518400 
  705000   0.99039312   -3.3750366   -3.3750366   -1.8894498  0.070962269   -3.3750366    1.4855868   518400 
  706000   0.99188998   -3.3775255   -3.3775255   -1.8896934  0.069367074   -3.3775255    1.4878321   518400 
  707000   0.99195515   -3.3765497   -3.3765497   -1.8886199  0.071947804   -3.3765497    1.4879298   518400 
  708000   0.98972636   -3.3730544   -3.3730544   -1.8884677  0.069982505   -3.3730544    1.4845867   518400 
  709000   0.99167351   -3.3759869   -3.3759869   -1.8884795    0.0690898   -3.3759869    1.4875074   518400 
  710000   0.99087423   -3.3745883   -3.3745883   -1.8882798  0.073743672   -3.3745883    1.4863085   518400 
  711000   0.99121608   -3.3750905   -3.3750905   -1.8882693  0.073489885   -3.3750905    1.4868213   518400 
  712000   0.99226619   -3.3772713   -3.3772713   -1.8888749   0.07413269   -3.3772713    1.4883964   518400 
  713000   0.99129669     -3.37538     -3.37538   -1.8884378  0.072830097     -3.37538    1.4869422   518400 
  714000   0.98969452   -3.3728291   -3.3728291   -1.8882902  0.070880979   -3.3728291    1.4845389   518400 
  715000   0.99099621    -3.374772    -3.374772   -1.8882806  0.068249745    -3.374772    1.4864914   518400 
  716000   0.99120222   -3.3740317   -3.3740317   -1.8872312  0.075291347   -3.3740317    1.4868005   518400 
  717000    0.9925388   -3.3758946   -3.3758946   -1.8870893  0.072887181   -3.3758946    1.4888053   518400 
  718000   0.99175759   -3.3740999   -3.3740999   -1.8864663     0.070766   -3.3740999    1.4876335   518400 
  719000   0.99296074   -3.3763614   -3.3763614   -1.8869232  0.069314434   -3.3763614    1.4894382   518400 
  720000   0.99127234   -3.3735254   -3.3735254   -1.8866198  0.069090983   -3.3735254    1.4869056   518400 
  721000   0.98973098   -3.3702671   -3.3702671   -1.8856735  0.065687594   -3.3702671    1.4845936   518400 
  722000   0.99102465   -3.3715875   -3.3715875   -1.8850534  0.068528914   -3.3715875    1.4865341   518400 
  723000   0.99127521   -3.3721529   -3.3721529    -1.885243  0.070175182   -3.3721529    1.4869099   518400 
  724000   0.99088773   -3.3719999   -3.3719999   -1.8856712  0.068585007   -3.3719999    1.4863287   518400 
  725000   0.99145453   -3.3733102   -3.3733102   -1.8861312  0.068552369   -3.3733102    1.4871789   518400 
  726000   0.99211422    -3.373707    -3.373707   -1.8855385  0.064554357    -3.373707    1.4881685   518400 
  727000   0.99262786   -3.3739083   -3.3739083   -1.8849694  0.069330662   -3.3739083    1.4889389   518400 
  728000   0.99391243   -3.3758531   -3.3758531   -1.8849873  0.071902094   -3.3758531    1.4908658   518400 
  729000   0.99398288   -3.3752446   -3.3752446   -1.8842731  0.075274834   -3.3752446    1.4909714   518400 
  730000   0.99217736   -3.3722577   -3.3722577   -1.8839946  0.071633032   -3.3722577    1.4882632   518400 
  731000   0.99302514   -3.3737647   -3.3737647   -1.8842298  0.073398192   -3.3737647    1.4895348   518400 
  732000   0.99052948   -3.3699314   -3.3699314     -1.88414  0.075279793   -3.3699314    1.4857914   518400 
  733000   0.99089793   -3.3712245   -3.3712245   -1.8848805  0.071203385   -3.3712245     1.486344   518400 
  734000    0.9897428    -3.368966    -3.368966   -1.8843546  0.070998296    -3.368966    1.4846113   518400 
  735000   0.99157472   -3.3698037   -3.3698037   -1.8824445  0.065415466   -3.3698037    1.4873592   518400 
  736000   0.99121512   -3.3693017   -3.3693017   -1.8824819  0.069549476   -3.3693017    1.4868198   518400 
  737000    0.9911733   -3.3691692   -3.3691692   -1.8824122  0.073138703   -3.3691692    1.4867571   518400 
  738000   0.99094772   -3.3680706   -3.3680706   -1.8816519  0.071057682   -3.3680706    1.4864187   518400 
  739000   0.99196829   -3.3697643   -3.3697643   -1.8818147  0.073583978   -3.3697643    1.4879496   518400 
  740000   0.99095615    -3.369063    -3.369063   -1.8826316  0.069254825    -3.369063    1.4864314   518400 
  741000   0.99177049   -3.3697889   -3.3697889    -1.882136  0.076063135   -3.3697889    1.4876529   518400 
  742000   0.99232773   -3.3692646   -3.3692646   -1.8807759  0.072273507   -3.3692646    1.4884887   518400 
  743000   0.99341872   -3.3696434   -3.3696434   -1.8795182  0.075878256   -3.3696434    1.4901252   518400 
  744000   0.99445221   -3.3710442   -3.3710442   -1.8793688  0.074501747   -3.3710442    1.4916754   518400 
  745000   0.99421318   -3.3705221   -3.3705221   -1.8792052  0.075361034   -3.3705221    1.4913169   518400 
  746000   0.99117778    -3.366056    -3.366056   -1.8792922  0.073525766    -3.366056    1.4867638   518400 
  747000   0.99279767   -3.3673134   -3.3673134   -1.8781198  0.074709376   -3.3673134    1.4891936   518400 
  748000   0.99295475   -3.3672819   -3.3672819   -1.8778526  0.073145588   -3.3672819    1.4894293   518400 
  749000   0.99398725   -3.3690187   -3.3690187   -1.8780407  0.067900863   -3.3690187     1.490978   518400 
  750000   0.99207627   -3.3661929   -3.3661929   -1.8780814  0.067575183   -3.3661929    1.4881115   518400 
  751000   0.99212546    -3.366363    -3.366363   -1.8781777  0.069089577    -3.366363    1.4881853   518400 
  752000   0.99308341   -3.3686863   -3.3686863   -1.8790641  0.070797659   -3.3686863    1.4896222   518400 
  753000    0.9925888   -3.3676525   -3.3676525   -1.8787722  0.074652978   -3.3676525    1.4888803   518400 
  754000   0.99372125   -3.3699533   -3.3699533   -1.8793743  0.072667686   -3.3699533     1.490579   518400 
  755000   0.99381266   -3.3698515   -3.3698515   -1.8791353  0.073478168   -3.3698515    1.4907161   518400 
  756000   0.99240959   -3.3671746   -3.3671746    -1.878563  0.071116107   -3.3671746    1.4886115   518400 
  757000   0.99375758   -3.3692234   -3.3692234   -1.8785899  0.074643283   -3.3692234    1.4906335   518400 
  758000   0.99198097   -3.3659637   -3.3659637   -1.8779951  0.076100768   -3.3659637    1.4879686   518400 
  759000   0.99253135   -3.3665971   -3.3665971   -1.8778029  0.070489717   -3.3665971    1.4887942   518400 
  760000   0.99260739   -3.3653645   -3.3653645   -1.8764563  0.067126396   -3.3653645    1.4889082   518400 
  761000   0.99236292   -3.3651463   -3.3651463   -1.8766048  0.070555394   -3.3651463    1.4885415   518400 
  762000   0.99381811   -3.3655603   -3.3655603    -1.874836  0.071528183   -3.3655603    1.4907243   518400 
  763000   0.99421046   -3.3662817   -3.3662817   -1.8749689  0.076111873   -3.3662817    1.4913128   518400 
  764000   0.99419464   -3.3654368   -3.3654368   -1.8741477  0.071531066   -3.3654368    1.4912891   518400 
  765000   0.99380836   -3.3650941   -3.3650941   -1.8743845  0.072648798   -3.3650941    1.4907097   518400 
  766000   0.99412675    -3.365531    -3.365531   -1.8743437  0.075192269    -3.365531    1.4911872   518400 
  767000   0.99401682   -3.3646866   -3.3646866   -1.8736642  0.078252996   -3.3646866    1.4910224   518400 
  768000   0.99595383   -3.3658511   -3.3658511   -1.8719233  0.076785635   -3.3658511    1.4939279   518400 
  769000   0.99503563   -3.3645593   -3.3645593   -1.8720088  0.077609748   -3.3645593    1.4925506   518400 
  770000   0.99394023   -3.3622871   -3.3622871   -1.8713796  0.079144744   -3.3622871    1.4909075   518400 
  771000   0.99617504   -3.3649905   -3.3649905   -1.8707309  0.070233093   -3.3649905    1.4942597   518400 
  772000   0.99487385   -3.3632129   -3.3632129    -1.870905  0.068414191   -3.3632129    1.4923079   518400 
  773000   0.99418153    -3.360671    -3.360671   -1.8694016  0.070128202    -3.360671    1.4912694   518400 
  774000   0.99343236   -3.3602902   -3.3602902   -1.8701445  0.069740394   -3.3602902    1.4901457   518400 
  775000   0.99388192    -3.359656    -3.359656    -1.868836  0.070897782    -3.359656      1.49082   518400 
  776000    0.9929344     -3.35848     -3.35848   -1.8690813  0.071100099     -3.35848    1.4893987   518400 
  777000   0.99288118   -3.3587177   -3.3587177   -1.8693988  0.071132885   -3.3587177    1.4893189   518400 
  778000   0.99361457   -3.3587688   -3.3587688   -1.8683498  0.072168643   -3.3587688     1.490419   518400 
  779000   0.99455442   -3.3602799   -3.3602799   -1.8684512  0.065014495   -3.3602799    1.4918288   518400 
  780000   0.99294015   -3.3578457   -3.3578457   -1.8684384  0.072029504   -3.3578457    1.4894074   518400 
  781000   0.99385755   -3.3602377   -3.3602377   -1.8694543  0.076946041   -3.3602377    1.4907835   518400 
  782000   0.99579685   -3.3617883   -3.3617883   -1.8680959  0.073261729   -3.3617883    1.4936924   518400 
  783000    0.9943551   -3.3596908   -3.3596908    -1.868161    0.0728923   -3.3596908    1.4915298   518400 
  784000    0.9943036    -3.357278    -3.357278   -1.8658255  0.078359303    -3.357278    1.4914525   518400 
  785000   0.99477988   -3.3582636   -3.3582636   -1.8660967  0.072455434   -3.3582636    1.4921669   518400 
  786000   0.99576448   -3.3576413   -3.3576413   -1.8639975  0.075644024   -3.3576413    1.4936438   518400 
  787000   0.99483764   -3.3564545   -3.3564545   -1.8642009  0.070870595   -3.3564545    1.4922536   518400 
  788000   0.99512232   -3.3562963   -3.3562963   -1.8636157  0.073845625   -3.3562963    1.4926806   518400 
  789000   0.99565943    -3.356715    -3.356715   -1.8632288  0.071349591    -3.356715    1.4934863   518400 
  790000   0.99487954   -3.3552118   -3.3552118   -1.8628954  0.070937997   -3.3552118    1.4923164   518400 
  791000   0.99395462   -3.3533573   -3.3533573   -1.8624282   0.07173724   -3.3533573    1.4909291   518400 
  792000   0.99348663   -3.3516218   -3.3516218   -1.8613948  0.073754848   -3.3516218    1.4902271   518400 
  793000    0.9948466   -3.3530597   -3.3530597   -1.8607926  0.075341991   -3.3530597     1.492267   518400 
  794000   0.99530492   -3.3530165   -3.3530165    -1.860062  0.072560497   -3.3530165    1.4929545   518400 
  795000   0.99523306   -3.3520575   -3.3520575   -1.8592108  0.069336627   -3.3520575    1.4928467   518400 
  796000   0.99519429   -3.3515212   -3.3515212   -1.8587327  0.072227218   -3.3515212    1.4927885   518400 
  797000   0.99664311   -3.3523639   -3.3523639   -1.8574021  0.075821396   -3.3523639    1.4949618   518400 
  798000   0.99720381   -3.3536078   -3.3536078   -1.8578049  0.079045422   -3.3536078    1.4958028   518400 
  799000   0.99827655   -3.3551018   -3.3551018   -1.8576899   0.07343855   -3.3551018    1.4974119   518400 
  800000    0.9970103   -3.3523739   -3.3523739   -1.8568613  0.081083179   -3.3523739    1.4955126   518400 
  801000   0.99594197   -3.3509839   -3.3509839   -1.8570738  0.077703851   -3.3509839    1.4939101   518400 
  802000   0.99794649   -3.3526011   -3.3526011   -1.8556843  0.078405999   -3.3526011    1.4969168   518400 
  803000   0.99641826   -3.3510355   -3.3510355    -1.856411  0.077554517   -3.3510355    1.4946245   518400 
  804000   0.99525302   -3.3485953   -3.3485953   -1.8557187  0.076037823   -3.3485953    1.4928767   518400 
  805000   0.99565929    -3.348952    -3.348952   -1.8554659  0.072792186    -3.348952     1.493486   518400 
  806000   0.99490026   -3.3472065   -3.3472065    -1.854859  0.076794901   -3.3472065    1.4923475   518400 
  807000   0.99649908   -3.3500156   -3.3500156   -1.8552699  0.068926117   -3.3500156    1.4947457   518400 
  808000   0.99637844   -3.3500208   -3.3500208    -1.855456   0.07658198   -3.3500208    1.4945648   518400 
  809000   0.99518864   -3.3481848   -3.3481848   -1.8554047  0.078493131   -3.3481848    1.4927801   518400 
  810000    0.9972223   -3.3515646   -3.3515646   -1.8557341   0.07437221   -3.3515646    1.4958306   518400 
  811000   0.99749545   -3.3524764   -3.3524764   -1.8562361  0.072364232   -3.3524764    1.4962403   518400 
  812000   0.99525735    -3.348515    -3.348515   -1.8556319  0.077216926    -3.348515    1.4928831   518400 
  813000   0.99590706   -3.3489989   -3.3489989   -1.8551412  0.078072933   -3.3489989    1.4938577   518400 
  814000    0.9984223    -3.352713    -3.352713   -1.8550825  0.075482356    -3.352713    1.4976306   518400 
  815000    0.9974051   -3.3511685   -3.3511685   -1.8550637  0.072678239   -3.3511685    1.4961048   518400 
  816000   0.99569563   -3.3480957   -3.3480957   -1.8545552  0.071180224   -3.3480957    1.4935406   518400 
  817000   0.99728638   -3.3513365   -3.3513365   -1.8554098  0.073309896   -3.3513365    1.4959267   518400 
  818000   0.99703753   -3.3498151   -3.3498151   -1.8542617  0.081563897   -3.3498151    1.4955534   518400 
  819000   0.99660029   -3.3486769   -3.3486769   -1.8537793  0.080947966   -3.3486769    1.4948975   518400 
  820000   0.99671502   -3.3500965   -3.3500965   -1.8550268  0.074430646   -3.3500965    1.4950696   518400 
  821000   0.99677036   -3.3490537   -3.3490537    -1.853901  0.072929066   -3.3490537    1.4951527   518400 
  822000   0.99656001    -3.348428    -3.348428   -1.8535909  0.077810985    -3.348428    1.4948371   518400 
  823000   0.99685029   -3.3492589   -3.3492589   -1.8539864  0.077712411   -3.3492589    1.4952726   518400 
  824000     0.997838   -3.3504264   -3.3504264   -1.8536723  0.080423147   -3.3504264    1.4967541   518400 
  825000   0.99751224   -3.3492507   -3.3492507   -1.8529852  0.079838332   -3.3492507    1.4962655   518400 
  826000   0.99716563   -3.3476269   -3.3476269   -1.8518813  0.077967772   -3.3476269    1.4957456   518400 
  827000   0.99589443   -3.3459654   -3.3459654   -1.8521266  0.077902447   -3.3459654    1.4938388   518400 
  828000   0.99731875   -3.3474763   -3.3474763   -1.8515011  0.074870024   -3.3474763    1.4959752   518400 
  829000   0.99651313   -3.3474576   -3.3474576   -1.8526908  0.072955664   -3.3474576    1.4947668   518400 
  830000   0.99658646   -3.3457505   -3.3457505   -1.8508737  0.076599306   -3.3457505    1.4948768   518400 
  831000   0.99793825   -3.3463139   -3.3463139   -1.8494094  0.075612064   -3.3463139    1.4969045   518400 
  832000   0.99816816   -3.3475085   -3.3475085   -1.8502591  0.076552507   -3.3475085    1.4972494   518400 
  833000   0.99812735   -3.3471099   -3.3471099   -1.8499218  0.072138237   -3.3471099    1.4971881   518400 
  834000   0.99856885   -3.3476308   -3.3476308   -1.8497804  0.079775255   -3.3476308    1.4978504   518400 
  835000   0.99758142   -3.3461847   -3.3461847   -1.8498154  0.078716869   -3.3461847    1.4963692   518400 
  836000   0.99901181   -3.3479096   -3.3479096   -1.8493948  0.068412201   -3.3479096    1.4985148   518400 
  837000    0.9984948   -3.3469887   -3.3469887   -1.8492493  0.078747421   -3.3469887    1.4977393   518400 
  838000   0.99951467   -3.3471088   -3.3471088   -1.8478397  0.077197065   -3.3471088    1.4992691   518400 
  839000   0.99792729   -3.3444648   -3.3444648   -1.8475768  0.079022564   -3.3444648     1.496888   518400 
  840000   0.99729387   -3.3432253   -3.3432253   -1.8472874  0.073310327   -3.3432253    1.4959379   518400 
  841000    0.9969115   -3.3422282   -3.3422282   -1.8468639  0.077230358   -3.3422282    1.4953644   518400 
  842000   0.99588555   -3.3398029   -3.3398029   -1.8459775  0.064861941   -3.3398029    1.4938254   518400 
  843000   0.99641743   -3.3396482   -3.3396482    -1.845025  0.068089932   -3.3396482    1.4946233   518400 
  844000   0.99528484   -3.3384045   -3.3384045   -1.8454801  0.073396241   -3.3384045    1.4929244   518400 
  845000   0.99622812   -3.3393925   -3.3393925   -1.8450532   0.06584241   -3.3393925    1.4943393   518400 
  846000   0.99624598   -3.3397544   -3.3397544   -1.8453883  0.072174956   -3.3397544    1.4943661   518400 
  847000   0.99712601   -3.3407764   -3.3407764   -1.8450903    0.0743577   -3.3407764    1.4956861   518400 
  848000    0.9962927   -3.3384997   -3.3384997   -1.8440635   0.08010125   -3.3384997    1.4944362   518400 
  849000   0.99879321   -3.3424303   -3.3424303   -1.8442433  0.077823022   -3.3424303    1.4981869   518400 
  850000   0.99879933   -3.3428291   -3.3428291    -1.844633  0.080276447   -3.3428291    1.4981961   518400 
  851000   0.99919112     -3.34338     -3.34338   -1.8445962  0.076283069     -3.34338    1.4987838   518400 
  852000   0.99877411   -3.3422242   -3.3422242    -1.844066    0.0804747   -3.3422242    1.4981583   518400 
  853000   0.99689896   -3.3405004   -3.3405004   -1.8451549  0.081144915   -3.3405004    1.4953456   518400 
  854000   0.99770572    -3.341646    -3.341646   -1.8450903  0.075295303    -3.341646    1.4965557   518400 
  855000    0.9969306   -3.3401312   -3.3401312   -1.8447382  0.074126333   -3.3401312     1.495393   518400 
  856000   0.99652804   -3.3399524   -3.3399524   -1.8451632  0.077310019   -3.3399524    1.4947892   518400 
  857000   0.99739873   -3.3403409   -3.3403409   -1.8442457  0.075358444   -3.3403409    1.4960952   518400 
  858000   0.99710998   -3.3394087   -3.3394087   -1.8437466  0.075896448   -3.3394087    1.4956621   518400 
  859000   0.99702359   -3.3409059   -3.3409059   -1.8453734  0.072705377   -3.3409059    1.4955325   518400 
  860000   0.99789478   -3.3420367   -3.3420367   -1.8451974  0.070967632   -3.3420367    1.4968393   518400 
  861000   0.99784192   -3.3400768   -3.3400768   -1.8433168  0.066392782   -3.3400768      1.49676   518400 
  862000   0.99727414   -3.3383165   -3.3383165   -1.8424082  0.067907692   -3.3383165    1.4959083   518400 
  863000   0.99962788   -3.3406947   -3.3406947   -1.8412557  0.071340884   -3.3406947    1.4994389   518400 
  864000   0.99877213   -3.3399999   -3.3399999   -1.8418446  0.074148414   -3.3399999    1.4981553   518400 
  865000   0.99972083   -3.3403167   -3.3403167   -1.8407384  0.077557194   -3.3403167    1.4995784   518400 
  866000   0.99911848   -3.3395174   -3.3395174   -1.8408425  0.080667516   -3.3395174    1.4986748   518400 
  867000   0.99833529   -3.3381243   -3.3381243   -1.8406243  0.077455299   -3.3381243       1.4975   518400 
  868000   0.99999094    -3.340032    -3.340032   -1.8400485  0.078135258    -3.340032    1.4999835   518400 
  869000    1.0005506    -3.340917    -3.340917    -1.840094  0.073275705    -3.340917     1.500823   518400 
  870000   0.99863482   -3.3390356   -3.3390356   -1.8410863  0.073485051   -3.3390356    1.4979493   518400 
  871000   0.99852267   -3.3376725   -3.3376725   -1.8398914  0.073774353   -3.3376725    1.4977811   518400 
  872000   0.99875218   -3.3370387   -3.3370387   -1.8389133  0.078824705   -3.3370387    1.4981254   518400 
  873000   0.99836472   -3.3361751   -3.3361751   -1.8386309  0.080014963   -3.3361751    1.4975442   518400 
  874000   0.99882247   -3.3367399   -3.3367399   -1.8385091  0.079579559   -3.3367399    1.4982308   518400 
  875000   0.99830469   -3.3357535   -3.3357535   -1.8382994  0.076122126   -3.3357535    1.4974542   518400 
  876000    0.9980794    -3.334899    -3.334899   -1.8377828  0.076076412    -3.334899    1.4971162   518400 
  877000   0.99908659   -3.3366334   -3.3366334   -1.8380064  0.070957883   -3.3366334     1.498627   518400 
  878000   0.99934525   -3.3361055   -3.3361055   -1.8370905  0.074646655   -3.3361055     1.499015   518400 
  879000   0.99869926   -3.3355839   -3.3355839   -1.8375379  0.075689655   -3.3355839     1.498046   518400 
  880000   0.99847193   -3.3336822   -3.3336822   -1.8359772  0.080855664   -3.3336822     1.497705   518400 
  881000   0.99959588   -3.3341482   -3.3341482   -1.8347573  0.077389093   -3.3341482    1.4993909   518400 
  882000    1.0009186   -3.3361853   -3.3361853   -1.8348103  0.075558368   -3.3361853    1.5013749   518400 
  883000    1.0012109   -3.3367472   -3.3367472   -1.8349337  0.078427494   -3.3367472    1.5018135   518400 
  884000   0.99883705   -3.3336295   -3.3336295   -1.8353768  0.075403549   -3.3336295    1.4982527   518400 
  885000    1.0018249   -3.3374027   -3.3374027   -1.8346682  0.077110108   -3.3374027    1.5027345   518400 
  886000    1.0023191   -3.3370384   -3.3370384   -1.8335626  0.081184484   -3.3370384    1.5034758   518400 
  887000    1.0017081   -3.3362338   -3.3362338   -1.8336745  0.077160637   -3.3362338    1.5025592   518400 
  888000   0.99902369   -3.3319307   -3.3319307   -1.8333981  0.075592198   -3.3319307    1.4985326   518400 
  889000    1.0002802   -3.3331048   -3.3331048   -1.8326874  0.082794192   -3.3331048    1.5004174   518400 
  890000   0.99955003   -3.3309044   -3.3309044   -1.8315823  0.080665862   -3.3309044    1.4993222   518400 
  891000   0.99895828   -3.3306293   -3.3306293   -1.8321948  0.074784441   -3.3306293    1.4984345   518400 
  892000   0.99802909   -3.3292756   -3.3292756   -1.8322349   0.07752331   -3.3292756    1.4970407   518400 
  893000    1.0012277    -3.333935    -3.333935   -1.8320964  0.070788446    -3.333935    1.5018386   518400 
  894000   0.99875875   -3.3305223   -3.3305223    -1.832387  0.073064035   -3.3305223    1.4981352   518400 
  895000    1.0003093    -3.331329    -3.331329    -1.830868  0.064040173    -3.331329    1.5004611   518400 
  896000   0.99831407   -3.3290449   -3.3290449   -1.8315767  0.070111453   -3.3290449    1.4974682   518400 
  897000   0.99928101   -3.3300877   -3.3300877    -1.831169  0.074458705   -3.3300877    1.4989186   518400 
  898000   0.99820296   -3.3277225   -3.3277225    -1.830421  0.079879328   -3.3277225    1.4973016   518400 
  899000    1.0012628   -3.3326097   -3.3326097   -1.8307184  0.080480093   -3.3326097    1.5018913   518400 
  900000    1.0006029   -3.3320577   -3.3320577   -1.8311563  0.079706448   -3.3320577    1.5009014   518400 
  901000   0.99975422   -3.3294831   -3.3294831   -1.8298547   0.07842222   -3.3294831    1.4996284   518400 
  902000    1.0005065   -3.3304086   -3.3304086   -1.8296517  0.078605571   -3.3304086    1.5007569   518400 
  903000    1.0006343    -3.329382    -3.329382   -1.8284334  0.080083596    -3.329382    1.5009486   518400 
  904000    1.0003009   -3.3288359   -3.3288359   -1.8283874  0.073290571   -3.3288359    1.5004485   518400 
  905000    1.0003087   -3.3285936   -3.3285936   -1.8281334  0.075551966   -3.3285936    1.5004601   518400 
  906000   0.99985666   -3.3260667   -3.3260667   -1.8262846  0.071227917   -3.3260667    1.4997821   518400 
  907000    1.0005874   -3.3268156   -3.3268156   -1.8259374  0.075294909   -3.3268156    1.5008782   518400 
  908000     1.000546   -3.3269176   -3.3269176   -1.8261015  0.075252358   -3.3269176    1.5008161   518400 
  909000   0.99995239   -3.3263853   -3.3263853   -1.8264597  0.080139344   -3.3263853    1.4999257   518400 
  910000    1.0007191   -3.3281793   -3.3281793   -1.8271036  0.078330388   -3.3281793    1.5010757   518400 
  911000    1.0029084   -3.3312788   -3.3312788    -1.826919  0.073660994   -3.3312788    1.5043598   518400 
  912000    1.0020655   -3.3292428   -3.3292428   -1.8261475  0.079689231   -3.3292428    1.5030954   518400 
  913000    1.0009064   -3.3267945   -3.3267945   -1.8254379  0.081220734   -3.3267945    1.5013566   518400 
  914000    1.0020819   -3.3297351   -3.3297351   -1.8266151  0.078037329   -3.3297351      1.50312   518400 
  915000    1.0007152   -3.3263558   -3.3263558   -1.8252859  0.077849262   -3.3263558    1.5010698   518400 
  916000    1.0017471   -3.3273605   -3.3273605   -1.8247428  0.078798479   -3.3273605    1.5026177   518400 
  917000    1.0005813   -3.3256525   -3.3256525   -1.8247833  0.079138961   -3.3256525    1.5008691   518400 
  918000    1.0015288   -3.3269595   -3.3269595   -1.8246691  0.071339551   -3.3269595    1.5022903   518400 
  919000    1.0002243   -3.3244482   -3.3244482   -1.8241147  0.070633457   -3.3244482    1.5003335   518400 
  920000   0.99976947   -3.3248403   -3.3248403    -1.825189  0.076154077   -3.3248403    1.4996513   518400 
  921000    1.0006483   -3.3250871   -3.3250871   -1.8241176   0.07672259   -3.3250871    1.5009695   518400 
  922000    1.0024173   -3.3257745   -3.3257745   -1.8221515  0.076512329   -3.3257745    1.5036231   518400 
  923000    1.0013479   -3.3242809   -3.3242809   -1.8222621  0.076839226   -3.3242809    1.5020189   518400 
  924000    1.0022487   -3.3257315   -3.3257315   -1.8223614  0.075611728   -3.3257315    1.5033701   518400 
  925000    1.0031902   -3.3258842   -3.3258842   -1.8211019  0.078709045   -3.3258842    1.5047823   518400 
  926000    1.0014211   -3.3228629   -3.3228629   -1.8207342  0.077691568   -3.3228629    1.5021287   518400 
  927000    1.0031841   -3.3247072   -3.3247072    -1.819934  0.078713896   -3.3247072    1.5047732   518400 
  928000     1.003111   -3.3251998   -3.3251998   -1.8205363  0.078134022   -3.3251998    1.5046636   518400 
  929000    1.0017539   -3.3233288   -3.3233288   -1.8207009   0.07588705   -3.3233288    1.5026279   518400 
  930000    1.0021554   -3.3232739   -3.3232739   -1.8200437  0.073798827   -3.3232739    1.5032302   518400 
  931000    1.0026454   -3.3236001   -3.3236001   -1.8196348  0.081025207   -3.3236001    1.5039653   518400 
  932000    1.0028633    -3.321781    -3.321781   -1.8174889  0.083313352    -3.321781    1.5042921   518400 
  933000    1.0016638   -3.3201069   -3.3201069   -1.8176142  0.075819303   -3.3201069    1.5024928   518400 
  934000     1.000786   -3.3190563   -3.3190563   -1.8178802  0.082595655   -3.3190563    1.5011761   518400 
  935000    1.0015135   -3.3192928   -3.3192928   -1.8170255  0.075503758   -3.3192928    1.5022673   518400 
  936000    1.0018048   -3.3182378   -3.3182378   -1.8155335  0.077684022   -3.3182378    1.5027043   518400 
  937000     1.002109   -3.3191717   -3.3191717   -1.8160111  0.080426083   -3.3191717    1.5031607   518400 
  938000    1.0025188   -3.3202861   -3.3202861   -1.8165108  0.083865398   -3.3202861    1.5037753   518400 
  939000    1.0037569   -3.3230696   -3.3230696   -1.8174372  0.081455279   -3.3230696    1.5056324   518400 
  940000    1.0046833   -3.3244525   -3.3244525   -1.8174305  0.082800633   -3.3244525    1.5070221   518400 
  941000    1.0046519   -3.3243261   -3.3243261   -1.8173511  0.080432882   -3.3243261     1.506975   518400 
  942000     1.003883   -3.3230249   -3.3230249   -1.8172034   0.07776032   -3.3230249    1.5058215   518400 
  943000    1.0034982   -3.3209327   -3.3209327   -1.8156883  0.085806457   -3.3209327    1.5052443   518400 
  944000    1.0030926   -3.3196026   -3.3196026   -1.8149666  0.080970727   -3.3196026     1.504636   518400 
  945000    1.0047279   -3.3212192   -3.3212192   -1.8141302  0.074695233   -3.3212192     1.507089   518400 
  946000     1.002152   -3.3177253   -3.3177253   -1.8145002  0.081999531   -3.3177253    1.5032251   518400 
  947000    1.0035648   -3.3202492   -3.3202492   -1.8149049  0.073186819   -3.3202492    1.5053442   518400 
  948000    1.0022868   -3.3175168   -3.3175168   -1.8140896  0.077034616   -3.3175168    1.5034272   518400 
  949000    1.0023635   -3.3177431   -3.3177431   -1.8142007  0.075299343   -3.3177431    1.5035424   518400 
  950000     1.002946   -3.3174511   -3.3174511   -1.8130349  0.076391382   -3.3174511    1.5044162   518400 
  951000    1.0036811   -3.3175743   -3.3175743   -1.8120556  0.077011328   -3.3175743    1.5055188   518400 
  952000    1.0020888   -3.3152164   -3.3152164    -1.812086  0.078745893   -3.3152164    1.5031304   518400 
  953000    1.0042207   -3.3186142   -3.3186142    -1.812286  0.083026884   -3.3186142    1.5063281   518400 
  954000    1.0030796   -3.3153663   -3.3153663   -1.8107499  0.082959623   -3.3153663    1.5046164   518400 
  955000    1.0037966   -3.3168498   -3.3168498   -1.8111578  0.079119146   -3.3168498     1.505692   518400 
  956000    1.0039213    -3.316461    -3.316461   -1.8105819  0.080821368    -3.316461    1.5058791   518400 
  957000    1.0035428   -3.3160825   -3.3160825   -1.8107712  0.079832138   -3.3160825    1.5053113   518400 
  958000    1.0037471   -3.3160597   -3.3160597   -1.8104419  0.076613587   -3.3160597    1.5056178   518400 
  959000    1.0034687   -3.3165997   -3.3165997   -1.8113995  0.075170255   -3.3165997    1.5052002   518400 
  960000    1.0031814   -3.3150363   -3.3150363   -1.8102671  0.083815885   -3.3150363    1.5047692   518400 
  961000    1.0026469   -3.3145973   -3.3145973   -1.8106298  0.079971654   -3.3145973    1.5039674   518400 
  962000    1.0019836   -3.3140058   -3.3140058   -1.8110333  0.075580141   -3.3140058    1.5029725   518400 
  963000    1.0038025    -3.315197    -3.315197   -1.8094962  0.074354668    -3.315197    1.5057009   518400 
  964000    1.0044143   -3.3152416   -3.3152416   -1.8086231  0.073257482   -3.3152416    1.5066185   518400 
  965000     1.003224   -3.3138478   -3.3138478   -1.8090147  0.073464513   -3.3138478    1.5048331   518400 
  966000    1.0045605   -3.3151667   -3.3151667   -1.8083289  0.074099074   -3.3151667    1.5068378   518400 
  967000    1.0045446   -3.3145911   -3.3145911   -1.8077771  0.079553678   -3.3145911     1.506814   518400 
  968000    1.0051301   -3.3161593   -3.3161593    -1.808467  0.078855029   -3.3161593    1.5076923   518400 
  969000    1.0030252   -3.3137728   -3.3137728   -1.8092379   0.08645837   -3.3137728    1.5045349   518400 
  970000    1.0046604   -3.3161052   -3.3161052   -1.8091175   0.08373759   -3.3161052    1.5069878   518400 
  971000      1.00494   -3.3153215   -3.3153215   -1.8079144  0.077828616   -3.3153215    1.5074071   518400 
  972000    1.0047831   -3.3149509   -3.3149509   -1.8077792  0.076289014   -3.3149509    1.5071717   518400 
  973000      1.00605   -3.3163397   -3.3163397   -1.8072676  0.079506097   -3.3163397     1.509072   518400 
  974000     1.004188   -3.3145818   -3.3145818   -1.8083027  0.075487694   -3.3145818    1.5062791   518400 
  975000    1.0041563   -3.3135758   -3.3135758   -1.8073442  0.081086179   -3.3135758    1.5062316   518400 
  976000    1.0025741   -3.3115011   -3.3115011   -1.8076429  0.083526397   -3.3115011    1.5038582   518400 
  977000    1.0055942   -3.3143658   -3.3143658   -1.8059774  0.085034585   -3.3143658    1.5083884   518400 
  978000      1.00582   -3.3143533   -3.3143533   -1.8056262  0.077856063   -3.3143533    1.5087271   518400 
  979000    1.0037271   -3.3128646   -3.3128646   -1.8072768  0.084222653   -3.3128646    1.5055877   518400 
  980000    1.0070686   -3.3169787   -3.3169787   -1.8063788  0.082553846   -3.3169787       1.5106   518400 
  981000    1.0061689    -3.315483    -3.315483   -1.8062326  0.083648327    -3.315483    1.5092504   518400 
  982000    1.0050417   -3.3138811   -3.3138811   -1.8063214  0.082407141   -3.3138811    1.5075597   518400 
  983000    1.0055542   -3.3138011   -3.3138011   -1.8054727  0.082828244   -3.3138011    1.5083284   518400 
  984000    1.0048049   -3.3128022   -3.3128022   -1.8055978  0.080518084   -3.3128022    1.5072044   518400 
  985000    1.0049611   -3.3132748   -3.3132748   -1.8058361   0.08144003   -3.3132748    1.5074387   518400 
  986000     1.005703   -3.3130361   -3.3130361   -1.8044844  0.090199272   -3.3130361    1.5085516   518400 
  987000    1.0066316   -3.3143428   -3.3143428   -1.8043983  0.082498101   -3.3143428    1.5099444   518400 
  988000    1.0054261   -3.3126472   -3.3126472   -1.8045108  0.084210778   -3.3126472    1.5081363   518400 
  989000    1.0062319   -3.3140536   -3.3140536   -1.8047086  0.081469741   -3.3140536     1.509345   518400 
  990000    1.0057322   -3.3126366   -3.3126366   -1.8040412  0.084852098   -3.3126366    1.5085954   518400 
  991000    1.0055069   -3.3132321   -3.3132321   -1.8049746  0.081132189   -3.3132321    1.5082575   518400 
  992000    1.0052051   -3.3115851   -3.3115851   -1.8037803   0.07759113   -3.3115851    1.5078048   518400 
  993000    1.0056349    -3.312239    -3.312239   -1.8037896  0.082389141    -3.312239    1.5084494   518400 
  994000    1.0052884   -3.3116017   -3.3116017    -1.803672  0.076805456   -3.3116017    1.5079297   518400 
  995000    1.0043557   -3.3101284   -3.3101284   -1.8035977  0.086357916   -3.3101284    1.5065307   518400 
  996000    1.0059453   -3.3121648   -3.3121648   -1.8032497  0.078754941   -3.3121648    1.5089151   518400 
  997000    1.0039295   -3.3100978   -3.3100978   -1.8042065   0.07955743   -3.3100978    1.5058914   518400 
  998000    1.0042785   -3.3107558   -3.3107558    -1.804341  0.080828174   -3.3107558    1.5064148   518400 
  999000    1.0059271   -3.3121373   -3.3121373   -1.8032495   0.08177963   -3.3121373    1.5088878   518400 
 1000000    1.0041145   -3.3090094   -3.3090094   -1.8028405  0.083930402   -3.3090094    1.5061688   518400 
 1001000    1.0065817   -3.3119876   -3.3119876   -1.8021179  0.081765173   -3.3119876    1.5098696   518400 
 1002000    1.0055359   -3.3111989   -3.3111989    -1.802898  0.083555236   -3.3111989    1.5083009   518400 
 1003000    1.0055999    -3.310475    -3.310475   -1.8020781  0.081590216    -3.310475    1.5083969   518400 
 1004000    1.0056723   -3.3108177   -3.3108177   -1.8023122   0.08487169   -3.3108177    1.5085055   518400 
 1005000    1.0044551   -3.3087996   -3.3087996   -1.8021199  0.085951148   -3.3087996    1.5066797   518400 
 1006000    1.0048353   -3.3086168   -3.3086168   -1.8013668  0.087724154   -3.3086168      1.50725   518400 
 1007000    1.0049944   -3.3077167   -3.3077167   -1.8002279  0.082274501   -3.3077167    1.5074887   518400 
 1008000     1.004983   -3.3080263   -3.3080263   -1.8005547  0.076995142   -3.3080263    1.5074716   518400 
 1009000      1.00403   -3.3068794   -3.3068794   -1.8008373  0.080720784   -3.3068794    1.5060421   518400 
 1010000    1.0052022    -3.309345    -3.309345   -1.8015446    0.0795265    -3.309345    1.5078004   518400 
 1011000    1.0037163   -3.3057508   -3.3057508   -1.8001792   0.08179944   -3.3057508    1.5055716   518400 
 1012000    1.0042471   -3.3057238   -3.3057238    -1.799356  0.081423294   -3.3057238    1.5063678   518400 
 1013000    1.0042515   -3.3056576   -3.3056576   -1.7992832  0.082058157   -3.3056576    1.5063743   518400 
 1014000    1.0039887   -3.3056268   -3.3056268   -1.7996467  0.078337375   -3.3056268    1.5059801   518400 
 1015000    1.0038886   -3.3053935   -3.3053935   -1.7995634  0.083375584   -3.3053935      1.50583   518400 
 1016000    1.0040675   -3.3052479   -3.3052479   -1.7991496  0.080522589   -3.3052479    1.5060984   518400 
 1017000     1.002087   -3.3022931   -3.3022931   -1.7991655  0.080355721   -3.3022931    1.5031275   518400 
 1018000    1.0048199   -3.3058536   -3.3058536   -1.7986266  0.078169012   -3.3058536     1.507227   518400 
 1019000    1.0058683   -3.3074973   -3.3074973   -1.7986978  0.074383243   -3.3074973    1.5087995   518400 
 1020000    1.0040753   -3.3057961   -3.3057961    -1.799686  0.082689873   -3.3057961    1.5061101   518400 
 1021000    1.0048335   -3.3066067   -3.3066067   -1.7993593  0.080734809   -3.3066067    1.5072474   518400 
 1022000    1.0039362   -3.3045462   -3.3045462   -1.7986448  0.082980396   -3.3045462    1.5059014   518400 
 1023000    1.0053054   -3.3067531   -3.3067531    -1.798798  0.079579194   -3.3067531    1.5079551   518400 
 1024000     1.005569   -3.3067942   -3.3067942   -1.7984435  0.084293144   -3.3067942    1.5083506   518400 
 1025000    1.0061876   -3.3064144   -3.3064144   -1.7971359  0.079714062   -3.3064144    1.5092785   518400 
 1026000     1.006504   -3.3078763   -3.3078763   -1.7981231  0.078311049   -3.3078763    1.5097531   518400 
 1027000    1.0043004   -3.3048407   -3.3048407   -1.7983931  0.079562923   -3.3048407    1.5064476   518400 
 1028000    1.0044541   -3.3042405   -3.3042405   -1.7975623  0.084435613   -3.3042405    1.5066782   518400 
 1029000    1.0038662   -3.3029797   -3.3029797   -1.7971832   0.08106405   -3.3029797    1.5057965   518400 
 1030000     1.005923   -3.3059392   -3.3059392   -1.7970577  0.078294538   -3.3059392    1.5088815   518400 
 1031000    1.0062067   -3.3053662   -3.3053662    -1.796059  0.077343105   -3.3053662    1.5093072   518400 
 1032000     1.005501    -3.304222    -3.304222   -1.7959734   0.08029987    -3.304222    1.5082486   518400 
 1033000    1.0055537   -3.3032601   -3.3032601   -1.7949324   0.08014534   -3.3032601    1.5083277   518400 
 1034000    1.0065766   -3.3044382   -3.3044382   -1.7945762  0.078981207   -3.3044382     1.509862   518400 
 1035000    1.0054346   -3.3017917   -3.3017917   -1.7936427  0.083505047   -3.3017917     1.508149   518400 
 1036000    1.0066543    -3.301956    -3.301956   -1.7919775  0.080250111    -3.301956    1.5099785   518400 
 1037000    1.0080335   -3.3042986   -3.3042986   -1.7922514  0.084017463   -3.3042986    1.5120473   518400 
 1038000    1.0069151   -3.3027364   -3.3027364   -1.7923666  0.084990729   -3.3027364    1.5103698   518400 
 1039000    1.0069644   -3.3022677   -3.3022677    -1.791824  0.085114011   -3.3022677    1.5104438   518400 
 1040000     1.007949   -3.3040125   -3.3040125    -1.792092  0.089520144   -3.3040125    1.5119205   518400 
 1041000    1.0084316   -3.3049928   -3.3049928   -1.7923483  0.083244221   -3.3049928    1.5126444   518400 
 1042000    1.0083512   -3.3048833   -3.3048833   -1.7923595  0.085308326   -3.3048833    1.5125238   518400 
 1043000    1.0069325   -3.3039161   -3.3039161   -1.7935202  0.088504671   -3.3039161    1.5103959   518400 
 1044000    1.0092106   -3.3076446   -3.3076446   -1.7938316  0.080544614   -3.3076446     1.513813   518400 
 1045000    1.0077291   -3.3047207   -3.3047207     -1.79313  0.080799067   -3.3047207    1.5115907   518400 
 1046000    1.0074968   -3.3047534   -3.3047534   -1.7935112  0.077684197   -3.3047534    1.5112422   518400 
 1047000    1.0050395   -3.3013678   -3.3013678   -1.7938114  0.080322807   -3.3013678    1.5075563   518400 
 1048000    1.0068487   -3.3029335   -3.3029335   -1.7926633  0.079337235   -3.3029335    1.5102702   518400 
 1049000    1.0046807   -3.2997104   -3.2997104   -1.7926923  0.080392716   -3.2997104    1.5070181   518400 
 1050000    1.0056173   -3.2999774   -3.2999774   -1.7915543  0.079274657   -3.2999774    1.5084231   518400 
 1051000    1.0057094   -3.2994016   -3.2994016   -1.7908404   0.07805199   -3.2994016    1.5085612   518400 
 1052000    1.0056094   -3.3002943   -3.3002943   -1.7918831  0.082475865   -3.3002943    1.5084112   518400 
 1053000    1.0072755   -3.3018567   -3.3018567   -1.7909464  0.076906531   -3.3018567    1.5109103   518400 
 1054000    1.0074359   -3.3023828   -3.3023828   -1.7912319  0.082299632   -3.3023828    1.5111509   518400 
 1055000    1.0062996   -3.2993965   -3.2993965     -1.78995  0.082265983   -3.2993965    1.5094466   518400 
 1056000    1.0077825   -3.3011575   -3.3011575   -1.7894867  0.085372836   -3.3011575    1.5116708   518400 
 1057000    1.0092136   -3.3019847   -3.3019847   -1.7881671  0.083613756   -3.3019847    1.5138175   518400 
 1058000    1.0100711   -3.3031797   -3.3031797    -1.788076  0.083584491   -3.3031797    1.5151037   518400 
 1059000    1.0096998   -3.3017093   -3.3017093   -1.7871625  0.085334257   -3.3017093    1.5145468   518400 
 1060000    1.0085217   -3.3007123   -3.3007123   -1.7879326   0.08066767   -3.3007123    1.5127797   518400 
 1061000    1.0092376   -3.3010823   -3.3010823   -1.7872288  0.082738247   -3.3010823    1.5138534   518400 
 1062000    1.0082618    -3.299099    -3.299099   -1.7867092  0.083908626    -3.299099    1.5123898   518400 
 1063000     1.008788   -3.2995502   -3.2995502   -1.7863712  0.081226913   -3.2995502     1.513179   518400 
 1064000    1.0085695   -3.2992914   -3.2992914   -1.7864401   0.07995918   -3.2992914    1.5128513   518400 
 1065000    1.0074444    -3.297493    -3.297493   -1.7863294   0.08162715    -3.297493    1.5111636   518400 
 1066000    1.0076225   -3.2970035   -3.2970035   -1.7855726   0.08926647   -3.2970035    1.5114309   518400 
 1067000    1.0056306   -3.2951084   -3.2951084   -1.7866654  0.079449035   -3.2951084    1.5084429   518400 
 1068000    1.0062898   -3.2950483   -3.2950483   -1.7856165  0.083012589   -3.2950483    1.5094317   518400 
 1069000     1.007703   -3.2955341   -3.2955341   -1.7839825  0.086065499   -3.2955341    1.5115516   518400 
 1070000    1.0076301   -3.2965456   -3.2965456   -1.7851033  0.077424138   -3.2965456    1.5114423   518400 
 1071000     1.008105   -3.2968694   -3.2968694   -1.7847148  0.082814677   -3.2968694    1.5121546   518400 
 1072000    1.0098994   -3.2986673   -3.2986673   -1.7838212  0.085798599   -3.2986673    1.5148461   518400 
 1073000    1.0093248   -3.2972254   -3.2972254   -1.7832411   0.08408433   -3.2972254    1.5139843   518400 
 1074000    1.0093933   -3.2974922   -3.2974922   -1.7834052  0.084185126   -3.2974922     1.514087   518400 
 1075000    1.0100462   -3.2981171   -3.2981171   -1.7830507  0.084058298   -3.2981171    1.5150664   518400 
 1076000    1.0087809   -3.2962253   -3.2962253   -1.7830569  0.088156963   -3.2962253    1.5131684   518400 
 1077000    1.0095795   -3.2964708   -3.2964708   -1.7821044  0.078370404   -3.2964708    1.5143664   518400 
 1078000    1.0086363   -3.2952542   -3.2952542   -1.7823027  0.084668004   -3.2952542    1.5129515   518400 
 1079000    1.0092211   -3.2957227   -3.2957227    -1.781894  0.086305404   -3.2957227    1.5138287   518400 
 1080000    1.0084236   -3.2943282   -3.2943282   -1.7816958  0.086049983   -3.2943282    1.5126325   518400 
 1081000    1.0082134   -3.2934739   -3.2934739   -1.7811567  0.084802541   -3.2934739    1.5123171   518400 
 1082000    1.0074063     -3.29155     -3.29155   -1.7804434  0.082890296     -3.29155    1.5111066   518400 
 1083000    1.0083878   -3.2939609   -3.2939609   -1.7813821    0.0813546   -3.2939609    1.5125788   518400 
 1084000    1.0082389   -3.2937424   -3.2937424   -1.7813869  0.075773905   -3.2937424    1.5123555   518400 
 1085000    1.0084456   -3.2934816   -3.2934816   -1.7808161  0.079412094   -3.2934816    1.5126655   518400 
 1086000    1.0089667   -3.2935014   -3.2935014   -1.7800543  0.080287024   -3.2935014    1.5134471   518400 
 1087000     1.009112   -3.2938443   -3.2938443   -1.7801792  0.082360485   -3.2938443    1.5136651   518400 
 1088000    1.0084105   -3.2934068   -3.2934068   -1.7807939  0.082706628   -3.2934068    1.5126129   518400 
 1089000    1.0084061   -3.2929606   -3.2929606   -1.7803543   0.08207736   -3.2929606    1.5126063   518400 
 1090000    1.0097926   -3.2955627   -3.2955627   -1.7808767  0.076771164   -3.2955627     1.514686   518400 
 1091000    1.0091573   -3.2944547   -3.2944547   -1.7807216  0.084838906   -3.2944547    1.5137331   518400 
 1092000    1.0095468    -3.295001    -3.295001   -1.7806837  0.083029328    -3.295001    1.5143173   518400 
 1093000    1.0100073   -3.2946905   -3.2946905   -1.7796824  0.085265712   -3.2946905    1.5150081   518400 
 1094000     1.009348   -3.2934208   -3.2934208   -1.7794017  0.086135322   -3.2934208    1.5140191   518400 
 1095000    1.0100458   -3.2932454   -3.2932454   -1.7781797  0.089979962   -3.2932454    1.5150657   518400 
 1096000    1.0118103   -3.2949988   -3.2949988   -1.7772863   0.08394498   -3.2949988    1.5177125   518400 
 1097000    1.0105035   -3.2922325   -3.2922325   -1.7764802  0.085134416   -3.2922325    1.5157523   518400 
 1098000    1.0094882     -3.29058     -3.29058   -1.7763507  0.089013864     -3.29058    1.5142294   518400 
 1099000     1.008279   -3.2894711   -3.2894711   -1.7770556  0.086225882   -3.2894711    1.5124155   518400 
 1100000    1.0080886   -3.2891359   -3.2891359   -1.7770058   0.07854396   -3.2891359      1.51213   518400 
 1101000    1.0077815   -3.2882382   -3.2882382   -1.7765689  0.083511312   -3.2882382    1.5116693   518400 
 1102000    1.0100909    -3.290525    -3.290525   -1.7753915  0.085149208    -3.290525    1.5151335   518400 
 1103000    1.0109588   -3.2919591   -3.2919591   -1.7755239   0.08556813   -3.2919591    1.5164352   518400 
 1104000    1.0101903   -3.2911149   -3.2911149   -1.7758323  0.082460927   -3.2911149    1.5152826   518400 
 1105000    1.0116946   -3.2921825   -3.2921825   -1.7746435  0.089882729   -3.2921825     1.517539   518400 
 1106000    1.0097551   -3.2905588   -3.2905588   -1.7759291  0.086441033   -3.2905588    1.5146297   518400 
 1107000     1.010243   -3.2904989   -3.2904989   -1.7751374  0.087205602   -3.2904989    1.5153615   518400 
 1108000    1.0103598   -3.2908263   -3.2908263   -1.7752896  0.083244515   -3.2908263    1.5155368   518400 
 1109000    1.0100449   -3.2908144   -3.2908144   -1.7757501  0.081626972   -3.2908144    1.5150644   518400 
 1110000     1.008692   -3.2879927   -3.2879927   -1.7749575  0.086447439   -3.2879927    1.5130351   518400 
 1111000    1.0097141   -3.2892452   -3.2892452    -1.774677  0.085712744   -3.2892452    1.5145682   518400 
 1112000    1.0096889   -3.2894413   -3.2894413   -1.7749109  0.080064635   -3.2894413    1.5145304   518400 
 1113000    1.0102257   -3.2896653   -3.2896653   -1.7743297  0.082117885   -3.2896653    1.5153356   518400 
 1114000    1.0095435   -3.2890078   -3.2890078   -1.7746955  0.087208435   -3.2890078    1.5143123   518400 
 1115000    1.0090943   -3.2886063   -3.2886063   -1.7749677  0.090407922   -3.2886063    1.5136386   518400 
 1116000    1.0091948   -3.2882702   -3.2882702    -1.774481   0.08346346   -3.2882702    1.5137892   518400 
 1117000    1.0094291   -3.2880945   -3.2880945   -1.7739538  0.079103612   -3.2880945    1.5141407   518400 
 1118000     1.009271   -3.2873617   -3.2873617   -1.7734582   0.08153673   -3.2873617    1.5139035   518400 
 1119000    1.0098825   -3.2881984   -3.2881984   -1.7733776   0.08471897   -3.2881984    1.5148208   518400 
 1120000    1.0094372   -3.2869597   -3.2869597   -1.7728068   0.08213583   -3.2869597    1.5141529   518400 
 1121000    1.0105667   -3.2882958   -3.2882958   -1.7724486   0.08330989   -3.2882958    1.5158471   518400 
 1122000    1.0110012    -3.286901    -3.286901   -1.7704021  0.086184081    -3.286901    1.5164989   518400 
 1123000    1.0099722   -3.2856454   -3.2856454     -1.77069  0.091001761   -3.2856454    1.5149554   518400 
 1124000     1.010535   -3.2857774   -3.2857774   -1.7699778  0.084211492   -3.2857774    1.5157996   518400 
 1125000    1.0107546   -3.2861607   -3.2861607   -1.7700317  0.087858508   -3.2861607    1.5161289   518400 
 1126000    1.0114983   -3.2870105   -3.2870105    -1.769766  0.084535214   -3.2870105    1.5172445   518400 
 1127000    1.0119817   -3.2885582   -3.2885582   -1.7705886  0.087810012   -3.2885582    1.5179696   518400 
 1128000    1.0124037   -3.2887244   -3.2887244   -1.7701217   0.08381736   -3.2887244    1.5186026   518400 
 1129000    1.0112801   -3.2875007   -3.2875007   -1.7705834  0.084596718   -3.2875007    1.5169173   518400 
 1130000    1.0110657   -3.2879591   -3.2879591   -1.7713635  0.080963787   -3.2879591    1.5165956   518400 
 1131000    1.0101648   -3.2858548   -3.2858548   -1.7706105  0.082711875   -3.2858548    1.5152443   518400 
 1132000     1.010845   -3.2866162   -3.2866162   -1.7703516  0.084678108   -3.2866162    1.5162646   518400 
 1133000     1.010514   -3.2869496   -3.2869496   -1.7711815  0.082407461   -3.2869496    1.5157681   518400 
 1134000    1.0088876   -3.2831627   -3.2831627   -1.7698343  0.081951305   -3.2831627    1.5133284   518400 
 1135000    1.0111153   -3.2855017   -3.2855017   -1.7688317  0.084026169   -3.2855017    1.5166701   518400 
 1136000    1.0111865    -3.285374    -3.285374   -1.7685973  0.078057223    -3.285374    1.5167768   518400 
 1137000    1.0077185   -3.2814025   -3.2814025   -1.7698276  0.075931178   -3.2814025    1.5115748   518400 
 1138000    1.0092906   -3.2827466   -3.2827466   -1.7688136   0.08232261   -3.2827466    1.5139329   518400 
 1139000    1.0072173   -3.2795281   -3.2795281   -1.7687051  0.080342116   -3.2795281    1.5108231   518400 
 1140000    1.0093137   -3.2819622   -3.2819622   -1.7679946  0.084775876   -3.2819622    1.5139676   518400 
 1141000    1.0097271   -3.2816623   -3.2816623   -1.7670746  0.082856074   -3.2816623    1.5145878   518400 
 1142000    1.0096584   -3.2815166   -3.2815166   -1.7670319  0.082861083   -3.2815166    1.5144847   518400 
 1143000    1.0109489   -3.2818244   -3.2818244    -1.765404  0.083391258   -3.2818244    1.5164204   518400 
 1144000     1.012031   -3.2829932   -3.2829932   -1.7649495  0.084627632   -3.2829932    1.5180436   518400 
 1145000    1.0120921    -3.281584    -3.281584   -1.7634487  0.088544892    -3.281584    1.5181353   518400 
 1146000    1.0123243   -3.2820783   -3.2820783   -1.7635949  0.084894487   -3.2820783    1.5184835   518400 
 1147000    1.0126239   -3.2821316   -3.2821316   -1.7631987  0.088909327   -3.2821316    1.5189329   518400 
 1148000    1.0118244   -3.2823561   -3.2823561   -1.7646224  0.082652078   -3.2823561    1.5177337   518400 
 1149000    1.0109597   -3.2813327   -3.2813327    -1.764896   0.08683504   -3.2813327    1.5164367   518400 
 1150000    1.0112207   -3.2813954   -3.2813954   -1.7645673  0.085242352   -3.2813954    1.5168281   518400 
 1151000    1.0109551   -3.2806383   -3.2806383   -1.7642086   0.08019991   -3.2806383    1.5164297   518400 
 1152000    1.0104975   -3.2801875   -3.2801875   -1.7644442  0.076926675   -3.2801875    1.5157433   518400 
 1153000    1.0094838   -3.2777092   -3.2777092   -1.7634865  0.082491536   -3.2777092    1.5142227   518400 
 1154000    1.0102849   -3.2786919   -3.2786919   -1.7632675  0.077193955   -3.2786919    1.5154244   518400 
 1155000     1.009379   -3.2782634   -3.2782634   -1.7641977   0.07545006   -3.2782634    1.5140656   518400 
 1156000    1.0094772   -3.2777547   -3.2777547   -1.7635418  0.085166676   -3.2777547    1.5142129   518400 
 1157000     1.011172   -3.2803057   -3.2803057   -1.7635506  0.078476812   -3.2803057    1.5167551   518400 
 1158000    1.0105567   -3.2786685   -3.2786685   -1.7628364  0.083885205   -3.2786685    1.5158321   518400 
 1159000    1.0122818   -3.2810011   -3.2810011   -1.7625813   0.08609565   -3.2810011    1.5184198   518400 
 1160000    1.0116854   -3.2792189   -3.2792189   -1.7616938  0.087648039   -3.2792189    1.5175251   518400 
 1161000    1.0121615   -3.2808029   -3.2808029   -1.7625635  0.083612615   -3.2808029    1.5182394   518400 
 1162000    1.0120711   -3.2801723   -3.2801723   -1.7620685  0.087476713   -3.2801723    1.5181038   518400 
 1163000      1.01185   -3.2797286   -3.2797286   -1.7619566  0.081551391   -3.2797286     1.517772   518400 
 1164000    1.0118848   -3.2800522   -3.2800522   -1.7622279  0.085163442   -3.2800522    1.5178243   518400 
 1165000    1.0128845    -3.280234    -3.280234   -1.7609102  0.087743227    -3.280234    1.5193238   518400 
 1166000    1.0136044    -3.281332    -3.281332   -1.7609283  0.087682679    -3.281332    1.5204037   518400 
 1167000    1.0141335   -3.2818891   -3.2818891   -1.7606917  0.087987981   -3.2818891    1.5211973   518400 
 1168000    1.0142675   -3.2804706   -3.2804706   -1.7590723  0.088831188   -3.2804706    1.5213984   518400 
 1169000    1.0125505   -3.2779263   -3.2779263   -1.7591035   0.08497667   -3.2779263    1.5188228   518400 
 1170000    1.0134775   -3.2782056   -3.2782056   -1.7579922  0.087023413   -3.2782056    1.5202134   518400 
 1171000    1.0132929   -3.2783703   -3.2783703   -1.7584338  0.086743003   -3.2783703    1.5199364   518400 
 1172000    1.0132179   -3.2779526   -3.2779526   -1.7581287  0.086369359   -3.2779526    1.5198239   518400 
 1173000    1.0108462   -3.2742874   -3.2742874   -1.7580211  0.085771609   -3.2742874    1.5162663   518400 
 1174000    1.0111497   -3.2740933   -3.2740933   -1.7573716   0.08519508   -3.2740933    1.5167217   518400 
 1175000    1.0126513   -3.2753917   -3.2753917   -1.7564176  0.084006683   -3.2753917    1.5189741   518400 
 1176000    1.0123522   -3.2745735   -3.2745735   -1.7560481  0.084776494   -3.2745735    1.5185254   518400 
 1177000    1.0139414   -3.2753123   -3.2753123    -1.754403  0.086109416   -3.2753123    1.5209092   518400 
 1178000    1.0136572   -3.2763608   -3.2763608    -1.755878  0.090521724   -3.2763608    1.5204829   518400 
 1179000    1.0123362   -3.2735969   -3.2735969   -1.7550955  0.089229185   -3.2735969    1.5185014   518400 
 1180000     1.014204   -3.2762721   -3.2762721    -1.754969  0.087585503   -3.2762721    1.5213031   518400 
 1181000    1.0135055   -3.2756307   -3.2756307   -1.7553754   0.08112238   -3.2756307    1.5202553   518400 
 1182000    1.0140353   -3.2753982   -3.2753982   -1.7543481  0.086079595   -3.2753982    1.5210501   518400 
 1183000    1.0142889   -3.2761168   -3.2761168   -1.7546864   0.08816939   -3.2761168    1.5214305   518400 
 1184000     1.014717   -3.2756949   -3.2756949   -1.7536224  0.086544542   -3.2756949    1.5220725   518400 
 1185000    1.0140776   -3.2736957   -3.2736957   -1.7525822  0.092235242   -3.2736957    1.5211135   518400 
 1186000    1.0145226   -3.2743739   -3.2743739   -1.7525929  0.088779734   -3.2743739     1.521781   518400 
 1187000    1.0153322   -3.2761161   -3.2761161   -1.7531207  0.085714597   -3.2761161    1.5229954   518400 
 1188000    1.0127063   -3.2719543   -3.2719543   -1.7528977  0.085849029   -3.2719543    1.5190566   518400 
 1189000    1.0147939   -3.2739468   -3.2739468   -1.7517589  0.091538007   -3.2739468    1.5221879   518400 
 1190000    1.0125554   -3.2702491   -3.2702491   -1.7514189  0.084563086   -3.2702491    1.5188302   518400 
 1191000    1.0131216     -3.27085     -3.27085   -1.7511705  0.086852033     -3.27085    1.5196795   518400 
 1192000    1.0143545   -3.2725311   -3.2725311   -1.7510022  0.082669665   -3.2725311    1.5215288   518400 
 1193000    1.0129042   -3.2708619   -3.2708619   -1.7515085  0.086695464   -3.2708619    1.5193534   518400 
 1194000    1.0143536   -3.2728262   -3.2728262   -1.7512988  0.082050459   -3.2728262    1.5215275   518400 
 1195000    1.0139273   -3.2713987   -3.2713987   -1.7505108  0.086201535   -3.2713987    1.5208879   518400 
 1196000    1.0125549    -3.269503    -3.269503   -1.7506736  0.085350883    -3.269503    1.5188294   518400 
 1197000    1.0149247   -3.2724392   -3.2724392   -1.7500551  0.084925112   -3.2724392    1.5223841   518400 
 1198000    1.0138837   -3.2705094   -3.2705094   -1.7496869  0.089454971   -3.2705094    1.5208226   518400 
 1199000    1.0127752   -3.2695065   -3.2695065   -1.7503467  0.080730792   -3.2695065    1.5191598   518400 
 1200000    1.0126611   -3.2677526   -3.2677526   -1.7487639  0.083962889   -3.2677526    1.5189887   518400 
 1201000    1.0149032   -3.2703776   -3.2703776   -1.7480257  0.088137773   -3.2703776    1.5223519   518400 
 1202000    1.0151248   -3.2699438   -3.2699438   -1.7472595  0.081754251   -3.2699438    1.5226843   518400 
 1203000    1.0141803   -3.2694863   -3.2694863   -1.7482188  0.089719227   -3.2694863    1.5212675   518400 
 1204000    1.0111877   -3.2643602   -3.2643602   -1.7475815  0.088856547   -3.2643602    1.5167786   518400 
 1205000    1.0139716   -3.2681907   -3.2681907   -1.7472362  0.083195315   -3.2681907    1.5209545   518400 
 1206000    1.0152468   -3.2702355   -3.2702355   -1.7473683  0.089448384   -3.2702355    1.5228672   518400 
 1207000    1.0163306   -3.2717593   -3.2717593   -1.7472663   0.08714353   -3.2717593     1.524493   518400 
 1208000    1.0160637   -3.2705308   -3.2705308   -1.7464381  0.088445697   -3.2705308    1.5240927   518400 
 1209000    1.0157316   -3.2704008   -3.2704008   -1.7468064  0.091782446   -3.2704008    1.5235944   518400 
 1210000    1.0158588   -3.2705303   -3.2705303   -1.7467449  0.083929282   -3.2705303    1.5237853   518400 
 1211000    1.0144663   -3.2678227   -3.2678227   -1.7461262  0.086198172   -3.2678227    1.5216965   518400 
 1212000     1.015277   -3.2686251   -3.2686251   -1.7457125  0.089291173   -3.2686251    1.5229126   518400 
 1213000    1.0155704   -3.2694883   -3.2694883   -1.7461356  0.089286345   -3.2694883    1.5233527   518400 
 1214000     1.014416   -3.2669503   -3.2669503   -1.7453292  0.085316378   -3.2669503    1.5216211   518400 
 1215000    1.0146996   -3.2674393   -3.2674393   -1.7453928  0.086769651   -3.2674393    1.5220465   518400 
 1216000    1.0141644   -3.2662025   -3.2662025   -1.7449589  0.087328802   -3.2662025    1.5212436   518400 
 1217000    1.0142284   -3.2667658   -3.2667658   -1.7454262  0.082833369   -3.2667658    1.5213396   518400 
 1218000    1.0141392   -3.2673584   -3.2673584   -1.7461526  0.082895151   -3.2673584    1.5212058   518400 
 1219000    1.0135962    -3.267038    -3.267038   -1.7466465  0.086663539    -3.267038    1.5203914   518400 
 1220000    1.0141225   -3.2668968   -3.2668968    -1.745716  0.090602801   -3.2668968    1.5211808   518400 
 1221000    1.0141981   -3.2668446   -3.2668446   -1.7455503  0.084887374   -3.2668446    1.5212942   518400 
 1222000    1.0147129   -3.2669613   -3.2669613   -1.7448949  0.088715405   -3.2669613    1.5220665   518400 
 1223000     1.015144   -3.2675448   -3.2675448   -1.7448316  0.082341836   -3.2675448    1.5227131   518400 
 1224000    1.0150283    -3.266721    -3.266721   -1.7441814  0.087909852    -3.266721    1.5225396   518400 
 1225000    1.0150149   -3.2668234   -3.2668234    -1.744304  0.088842755   -3.2668234    1.5225194   518400 
 1226000    1.0173095   -3.2711695   -3.2711695   -1.7452082  0.085031261   -3.2711695    1.5259612   518400 
 1227000    1.0173447   -3.2706291   -3.2706291    -1.744615  0.085059745   -3.2706291    1.5260141   518400 
 1228000    1.0172166   -3.2703726   -3.2703726   -1.7445507  0.085869377   -3.2703726    1.5258219   518400 
 1229000    1.0161982   -3.2685267   -3.2685267   -1.7442323  0.087256832   -3.2685267    1.5242944   518400 
 1230000    1.0158928   -3.2675335   -3.2675335   -1.7436972  0.089878256   -3.2675335    1.5238363   518400 
 1231000    1.0156649   -3.2663381   -3.2663381   -1.7428437  0.091839572   -3.2663381    1.5234943   518400 
 1232000    1.0159603   -3.2666246   -3.2666246   -1.7426871  0.084490763   -3.2666246    1.5239375   518400 
 1233000     1.014645   -3.2639646   -3.2639646       -1.742  0.086508879   -3.2639646    1.5219646   518400 
 1234000    1.0151835   -3.2647184   -3.2647184   -1.7419462  0.088001601   -3.2647184    1.5227723   518400 
 1235000    1.0158415   -3.2654364   -3.2654364   -1.7416771  0.082887503   -3.2654364    1.5237593   518400 
 1236000    1.0151874   -3.2649913   -3.2649913   -1.7422131  0.088335091   -3.2649913    1.5227781   518400 
 1237000    1.0148863   -3.2645306   -3.2645306   -1.7422041  0.082762851   -3.2645306    1.5223266   518400 
 1238000    1.0162277   -3.2655822   -3.2655822   -1.7412436  0.079424378   -3.2655822    1.5243386   518400 
 1239000    1.0162692   -3.2653822   -3.2653822   -1.7409813  0.093568115   -3.2653822    1.5244009   518400 
 1240000    1.0157138   -3.2649384   -3.2649384   -1.7413707  0.082096984   -3.2649384    1.5235677   518400 
 1241000    1.0168019   -3.2669654   -3.2669654   -1.7417656  0.082456047   -3.2669654    1.5251999   518400 
 1242000    1.0161201   -3.2648877   -3.2648877   -1.7407104  0.092579788   -3.2648877    1.5241773   518400 
 1243000    1.0154811   -3.2643758   -3.2643758    -1.741157  0.087522785   -3.2643758    1.5232187   518400 
 1244000    1.0142303   -3.2615955   -3.2615955    -1.740253  0.089112288   -3.2615955    1.5213424   518400 
 1245000    1.0156626   -3.2638513   -3.2638513   -1.7403605  0.089022454   -3.2638513    1.5234909   518400 
 1246000    1.0167426   -3.2646848   -3.2646848   -1.7395738  0.087905413   -3.2646848    1.5251109   518400 
 1247000    1.0157702   -3.2624196   -3.2624196   -1.7387672  0.086053005   -3.2624196    1.5236524   518400 
 1248000    1.0159968   -3.2625646   -3.2625646   -1.7385724  0.086404382   -3.2625646    1.5239922   518400 
 1249000    1.0150342   -3.2613777   -3.2613777   -1.7388292  0.084615025   -3.2613777    1.5225484   518400 
 1250000    1.0152214    -3.261266    -3.261266   -1.7384369  0.085377089    -3.261266    1.5228291   518400 
 1251000    1.0151462   -3.2612202   -3.2612202   -1.7385038  0.087265751   -3.2612202    1.5227164   518400 
 1252000     1.014761   -3.2610669   -3.2610669   -1.7389283  0.092692049   -3.2610669    1.5221386   518400 
 1253000    1.0159273    -3.262523    -3.262523    -1.738635  0.085804381    -3.262523     1.523888   518400 
 1254000    1.0157239   -3.2620084   -3.2620084   -1.7384255   0.08651185   -3.2620084    1.5235829   518400 
 1255000    1.0152069   -3.2613902   -3.2613902   -1.7385828   0.08688368   -3.2613902    1.5228074   518400 
 1256000    1.0168796   -3.2634444   -3.2634444    -1.738128  0.084929522   -3.2634444    1.5253164   518400 
 1257000     1.016487   -3.2631714   -3.2631714   -1.7384439  0.085688948   -3.2631714    1.5247275   518400 
 1258000    1.0154329   -3.2614339   -3.2614339   -1.7382875  0.092300507   -3.2614339    1.5231464   518400 
 1259000    1.0167099   -3.2623705   -3.2623705   -1.7373086  0.084655413   -3.2623705    1.5250619   518400 
 1260000     1.017055   -3.2624879   -3.2624879   -1.7369083  0.085304042   -3.2624879    1.5255796   518400 
 1261000    1.0170316   -3.2619795   -3.2619795   -1.7364351  0.088616227   -3.2619795    1.5255444   518400 
 1262000    1.0178185   -3.2629141   -3.2629141   -1.7361892  0.089259279   -3.2629141    1.5267248   518400 
 1263000    1.0178972   -3.2634226   -3.2634226   -1.7365797  0.090267839   -3.2634226    1.5268429   518400 
 1264000    1.0182239   -3.2637374   -3.2637374   -1.7364045  0.093023588   -3.2637374    1.5273329   518400 
 1265000    1.0178813    -3.263146    -3.263146    -1.736327  0.096224972    -3.263146     1.526819   518400 
 1266000    1.0189292   -3.2644594   -3.2644594   -1.7360686  0.089255135   -3.2644594    1.5283909   518400 
 1267000    1.0185414   -3.2640174   -3.2640174   -1.7362082  0.091455684   -3.2640174    1.5278092   518400 
 1268000    1.0186586   -3.2639191   -3.2639191   -1.7359341  0.091927568   -3.2639191    1.5279849   518400 
 1269000    1.0193757   -3.2641181   -3.2641181   -1.7350575  0.091384799   -3.2641181    1.5290606   518400 
 1270000    1.0172312   -3.2608658   -3.2608658    -1.735022  0.090005824   -3.2608658    1.5258438   518400 
 1271000    1.0177552   -3.2616802   -3.2616802   -1.7350503  0.090165447   -3.2616802    1.5266299   518400 
 1272000       1.0178   -3.2616611   -3.2616611   -1.7349641   0.08689273   -3.2616611     1.526697   518400 
 1273000    1.0162835   -3.2602328   -3.2602328   -1.7358104   0.08752207   -3.2602328    1.5244224   518400 
 1274000    1.0168777   -3.2603485   -3.2603485   -1.7350349  0.087891977   -3.2603485    1.5253136   518400 
 1275000    1.0168866   -3.2596958   -3.2596958   -1.7343689  0.092276386   -3.2596958    1.5253269   518400 
 1276000    1.0173968   -3.2595562   -3.2595562   -1.7334639  0.090558512   -3.2595562    1.5260923   518400 
 1277000    1.0179585   -3.2604823   -3.2604823   -1.7335474  0.086156554   -3.2604823    1.5269348   518400 
 1278000    1.0186321   -3.2606793   -3.2606793    -1.732734   0.09127564   -3.2606793    1.5279453   518400 
 1279000    1.0186426   -3.2593835   -3.2593835   -1.7314225  0.083995777   -3.2593835     1.527961   518400 
 1280000    1.0168529   -3.2578473   -3.2578473   -1.7325709  0.087911302   -3.2578473    1.5252764   518400 
 1281000    1.0164425   -3.2587119   -3.2587119    -1.734051  0.087473192   -3.2587119    1.5246609   518400 
 1282000    1.0182324   -3.2593692   -3.2593692   -1.7320236  0.090150875   -3.2593692    1.5273456   518400 
 1283000      1.01634   -3.2576181   -3.2576181   -1.7331111  0.092213394   -3.2576181     1.524507   518400 
 1284000     1.017234   -3.2579331   -3.2579331    -1.732085  0.090161737   -3.2579331     1.525848   518400 
 1285000     1.018142   -3.2599425   -3.2599425   -1.7327325  0.083857489   -3.2599425      1.52721   518400 
 1286000    1.0168964   -3.2581564   -3.2581564   -1.7328147  0.086376803   -3.2581564    1.5253417   518400 
 1287000    1.0165666    -3.258173    -3.258173   -1.7333261  0.085180244    -3.258173    1.5248469   518400 
 1288000    1.0161624   -3.2559888   -3.2559888   -1.7317481  0.087595531   -3.2559888    1.5242406   518400 
 1289000    1.0164904   -3.2569128   -3.2569128   -1.7321801  0.087861438   -3.2569128    1.5247327   518400 
 1290000    1.0178732   -3.2580312   -3.2580312   -1.7312244  0.087644623   -3.2580312    1.5268068   518400 
 1291000    1.0165795   -3.2564387   -3.2564387   -1.7315723  0.094353392   -3.2564387    1.5248664   518400 
 1292000    1.0165444   -3.2554685   -3.2554685   -1.7306549  0.086475098   -3.2554685    1.5248136   518400 
 1293000      1.01747   -3.2565978   -3.2565978   -1.7303958  0.086694698   -3.2565978     1.526202   518400 
 1294000    1.0169826    -3.255972    -3.255972    -1.730501  0.083093964    -3.255972     1.525471   518400 
 1295000    1.0170899   -3.2577954   -3.2577954   -1.7321635  0.087977526   -3.2577954    1.5256319   518400 
 1296000    1.0172464   -3.2571171   -3.2571171   -1.7312504  0.091199571   -3.2571171    1.5258667   518400 
 1297000    1.0191481   -3.2595793   -3.2595793   -1.7308601  0.086841578   -3.2595793    1.5287191   518400 
 1298000    1.0176763    -3.257694    -3.257694   -1.7311824  0.085583668    -3.257694    1.5265116   518400 
 1299000    1.0183095   -3.2571689   -3.2571689   -1.7297077  0.089784297   -3.2571689    1.5274613   518400 
 1300000    1.0208296   -3.2594222   -3.2594222   -1.7281807  0.093851103   -3.2594222    1.5312415   518400 
 1301000    1.0187042   -3.2568171   -3.2568171   -1.7287637  0.091684057   -3.2568171    1.5280534   518400 
 1302000    1.0177202   -3.2563205   -3.2563205   -1.7297431  0.094233105   -3.2563205    1.5265773   518400 
 1303000    1.0176999   -3.2553337   -3.2553337   -1.7287868  0.093554034   -3.2553337    1.5265469   518400 
 1304000     1.018321    -3.255895    -3.255895   -1.7284165  0.089274315    -3.255895    1.5274785   518400 
 1305000    1.0169683   -3.2540626   -3.2540626   -1.7286132  0.090881377   -3.2540626    1.5254495   518400 
 1306000    1.0186171    -3.256111    -3.256111   -1.7281883  0.085554354    -3.256111    1.5279227   518400 
 1307000    1.0182733   -3.2550217   -3.2550217   -1.7276147  0.087545826   -3.2550217    1.5274069   518400 
 1308000      1.01936   -3.2565629   -3.2565629   -1.7275259  0.086659169   -3.2565629     1.529037   518400 
 1309000    1.0194597   -3.2556095   -3.2556095   -1.7264229  0.089242499   -3.2556095    1.5291866   518400 
 1310000    1.0176691   -3.2538836   -3.2538836   -1.7273828  0.092267208   -3.2538836    1.5265008   518400 
 1311000    1.0189567    -3.256293    -3.256293   -1.7278609  0.089510166    -3.256293    1.5284322   518400 
 1312000    1.0174591   -3.2536143   -3.2536143   -1.7274286  0.087685335   -3.2536143    1.5261857   518400 
 1313000    1.0184911   -3.2553567   -3.2553567   -1.7276229  0.094993709   -3.2553567    1.5277338   518400 
 1314000    1.0185979   -3.2551651   -3.2551651   -1.7272712  0.095544058   -3.2551651     1.527894   518400 
 1315000    1.0198466   -3.2566895   -3.2566895   -1.7269225  0.091495561   -3.2566895     1.529767   518400 
 1316000    1.0194115   -3.2563236   -3.2563236   -1.7272093  0.089368247   -3.2563236    1.5291143   518400 
 1317000    1.0201677   -3.2575764   -3.2575764   -1.7273279  0.091725604   -3.2575764    1.5302485   518400 
 1318000    1.0202007    -3.255895    -3.255895   -1.7255969  0.089357872    -3.255895    1.5302981   518400 
 1319000    1.0192692   -3.2549818   -3.2549818    -1.726081  0.094447517   -3.2549818    1.5289009   518400 
 1320000    1.0188882   -3.2544238   -3.2544238   -1.7260945  0.089978043   -3.2544238    1.5283294   518400 
 1321000    1.0195777   -3.2555119   -3.2555119   -1.7261482  0.086895968   -3.2555119    1.5293636   518400 
 1322000    1.0180326   -3.2532118   -3.2532118   -1.7261659  0.092487566   -3.2532118    1.5270459   518400 
 1323000    1.0188746   -3.2537711   -3.2537711   -1.7254622  0.089434493   -3.2537711    1.5283089   518400 
 1324000    1.0181246   -3.2528865   -3.2528865   -1.7257025   0.08886752   -3.2528865     1.527184   518400 
 1325000    1.0187457   -3.2535768   -3.2535768   -1.7254612  0.094015695   -3.2535768    1.5281156   518400 
 1326000    1.0182401   -3.2525196   -3.2525196   -1.7251624  0.089303842   -3.2525196    1.5273572   518400 
 1327000    1.0197439   -3.2543499   -3.2543499    -1.724737  0.089847169   -3.2543499    1.5296129   518400 
 1328000    1.0192626   -3.2530271   -3.2530271   -1.7241363  0.086981009   -3.2530271    1.5288909   518400 
 1329000    1.0205338   -3.2552029   -3.2552029   -1.7244053  0.094712767   -3.2552029    1.5307977   518400 
 1330000    1.0202568   -3.2547731   -3.2547731   -1.7243909  0.096609929   -3.2547731    1.5303822   518400 
 1331000    1.0187087   -3.2516397   -3.2516397   -1.7235796  0.098789461   -3.2516397    1.5280601   518400 
 1332000    1.0204753   -3.2545284   -3.2545284   -1.7238183   0.08991516   -3.2545284    1.5307101   518400 
 1333000    1.0200861    -3.254044    -3.254044   -1.7239178  0.097520097    -3.254044    1.5301262   518400 
 1334000    1.0198158   -3.2532838   -3.2532838    -1.723563  0.098807611   -3.2532838    1.5297208   518400 
 1335000    1.0187718   -3.2513446   -3.2513446   -1.7231898  0.092175778   -3.2513446    1.5281548   518400 
 1336000    1.0199728   -3.2531352   -3.2531352   -1.7231789  0.090839215   -3.2531352    1.5299563   518400 
 1337000    1.0173414   -3.2495439   -3.2495439   -1.7235348  0.090843224   -3.2495439    1.5260092   518400 
 1338000    1.0180624   -3.2510051   -3.2510051   -1.7239145  0.091322778   -3.2510051    1.5270906   518400 
 1339000    1.0189785    -3.251601    -3.251601   -1.7231362  0.088706125    -3.251601    1.5284648   518400 
 1340000    1.0190781   -3.2528185   -3.2528185   -1.7242043  0.088296707   -3.2528185    1.5286142   518400 
 1341000    1.0179399   -3.2498718   -3.2498718   -1.7229648  0.088234076   -3.2498718     1.526907   518400 
 1342000     1.019613   -3.2511288   -3.2511288   -1.7217122  0.091132031   -3.2511288    1.5294165   518400 
 1343000    1.0182712    -3.250146    -3.250146   -1.7227422  0.087472515    -3.250146    1.5274039   518400 
 1344000     1.018088   -3.2491073   -3.2491073   -1.7219783  0.088304582   -3.2491073     1.527129   518400 
 1345000    1.0195245   -3.2519227   -3.2519227   -1.7226389  0.089073802   -3.2519227    1.5292839   518400 
 1346000    1.0192906   -3.2499026   -3.2499026   -1.7209697  0.091453422   -3.2499026    1.5289329   518400 
 1347000    1.0184553   -3.2496183   -3.2496183   -1.7219383  0.095702728   -3.2496183      1.52768   518400 
 1348000    1.0198705   -3.2514167   -3.2514167   -1.7216139  0.094591398   -3.2514167    1.5298028   518400 
 1349000    1.0206198    -3.251577    -3.251577   -1.7206502  0.089954958    -3.251577    1.5309268   518400 
 1350000    1.0191315   -3.2493245   -3.2493245   -1.7206302  0.088063127   -3.2493245    1.5286944   518400 
 1351000    1.0210788   -3.2524112   -3.2524112   -1.7207959  0.084609633   -3.2524112    1.5316153   518400 
 1352000    1.0201954   -3.2504937   -3.2504937   -1.7202037  0.090382736   -3.2504937    1.5302901   518400 
 1353000    1.0196695   -3.2494896   -3.2494896   -1.7199884  0.089619475   -3.2494896    1.5295012   518400 
 1354000    1.0194371   -3.2494572   -3.2494572   -1.7203045  0.090677235   -3.2494572    1.5291527   518400 
 1355000    1.0199436   -3.2488641   -3.2488641   -1.7189516  0.096149983   -3.2488641    1.5299125   518400 
 1356000    1.0202684   -3.2499371   -3.2499371   -1.7195374  0.089978146   -3.2499371    1.5303997   518400 
 1357000     1.019261    -3.249355    -3.249355   -1.7204665  0.093668002    -3.249355    1.5288885   518400 
 1358000    1.0187662   -3.2482625   -3.2482625   -1.7201162  0.093733958   -3.2482625    1.5281463   518400 
 1359000    1.0184889   -3.2479919   -3.2479919   -1.7202615  0.091291909   -3.2479919    1.5277304   518400 
 1360000    1.0203677   -3.2502617   -3.2502617   -1.7197131  0.088608269   -3.2502617    1.5305486   518400 
 1361000    1.0199877   -3.2496002   -3.2496002   -1.7196216  0.088441525   -3.2496002    1.5299786   518400 
 1362000    1.0188811    -3.247556    -3.247556   -1.7192373   0.09037863    -3.247556    1.5283187   518400 
 1363000    1.0198559   -3.2485256   -3.2485256   -1.7187448   0.08102787   -3.2485256    1.5297808   518400 
 1364000    1.0217406   -3.2507083   -3.2507083   -1.7181003  0.081457024   -3.2507083     1.532608   518400 
 1365000    1.0202603   -3.2479035   -3.2479035    -1.717516  0.091398842   -3.2479035    1.5303875   518400 
 1366000    1.0219081   -3.2500678   -3.2500678   -1.7172086  0.085298945   -3.2500678    1.5328592   518400 
 1367000    1.0203827   -3.2469777   -3.2469777   -1.7164067  0.094753943   -3.2469777     1.530571   518400 
 1368000    1.0202637   -3.2470197   -3.2470197   -1.7166272  0.094313286   -3.2470197    1.5303926   518400 
 1369000    1.0191566   -3.2456427   -3.2456427   -1.7169108  0.090203503   -3.2456427    1.5287319   518400 
 1370000    1.0203748   -3.2469225   -3.2469225   -1.7163632  0.090784667   -3.2469225    1.5305592   518400 
 1371000     1.020226   -3.2466188   -3.2466188   -1.7162827  0.093457613   -3.2466188    1.5303361   518400 
 1372000    1.0200721   -3.2458567   -3.2458567   -1.7157515   0.09400988   -3.2458567    1.5301051   518400 
 1373000    1.0208088    -3.245653    -3.245653   -1.7144428  0.092342762    -3.245653    1.5312102   518400 
 1374000    1.0192782   -3.2447585   -3.2447585   -1.7158441  0.086756434   -3.2447585    1.5289143   518400 
 1375000    1.0200485   -3.2461473   -3.2461473   -1.7160776  0.088595193   -3.2461473    1.5300698   518400 
 1376000    1.0184851   -3.2432036   -3.2432036   -1.7154789   0.09244614   -3.2432036    1.5277247   518400 
 1377000    1.0206424   -3.2463346   -3.2463346   -1.7153739  0.083013273   -3.2463346    1.5309607   518400 
 1378000    1.0198106   -3.2454376   -3.2454376   -1.7157246  0.088482092   -3.2454376     1.529713   518400 
 1379000    1.0207461   -3.2449764   -3.2449764   -1.7138601  0.091735151   -3.2449764    1.5311163   518400 
 1380000    1.0199503   -3.2453954   -3.2453954   -1.7154729   0.09297108   -3.2453954    1.5299225   518400 
 1381000    1.0194563    -3.244589    -3.244589   -1.7154075  0.093025699    -3.244589    1.5291815   518400 
 1382000    1.0214466   -3.2479094   -3.2479094   -1.7157425  0.090901604   -3.2479094     1.532167   518400 
 1383000    1.0218859   -3.2482088   -3.2482088   -1.7153829  0.092620006   -3.2482088    1.5328258   518400 
 1384000    1.0201811   -3.2449313   -3.2449313   -1.7146626  0.095738014   -3.2449313    1.5302687   518400 
 1385000    1.0205038   -3.2453629   -3.2453629   -1.7146102  0.090438543   -3.2453629    1.5307527   518400 
 1386000    1.0218157   -3.2467829   -3.2467829   -1.7140623  0.091500867   -3.2467829    1.5327206   518400 
 1387000    1.0201769   -3.2434449   -3.2434449   -1.7131825  0.091170815   -3.2434449    1.5302624   518400 
 1388000    1.0213541   -3.2446977   -3.2446977   -1.7126695  0.090283647   -3.2446977    1.5320281   518400 
 1389000    1.0212486   -3.2450019   -3.2450019   -1.7131319  0.089379744   -3.2450019      1.53187   518400 
 1390000    1.0208572   -3.2439646   -3.2439646   -1.7126817  0.088371155   -3.2439646    1.5312829   518400 
 1391000    1.0203847   -3.2424982   -3.2424982   -1.7119241  0.090656871   -3.2424982    1.5305741   518400 
 1392000     1.019476   -3.2426619   -3.2426619   -1.7134508  0.084672636   -3.2426619    1.5292111   518400 
 1393000    1.0187263   -3.2410237   -3.2410237   -1.7129372  0.090216185   -3.2410237    1.5280864   518400 
 1394000    1.0207176   -3.2429122   -3.2429122   -1.7118388  0.085705239   -3.2429122    1.5310734   518400 
 1395000    1.0207779   -3.2426681   -3.2426681   -1.7115042  0.088639454   -3.2426681    1.5311639   518400 
 1396000    1.0203757   -3.2411632   -3.2411632   -1.7106026  0.089401255   -3.2411632    1.5305606   518400 
 1397000    1.0217936   -3.2422636   -3.2422636   -1.7095761  0.087558364   -3.2422636    1.5326875   518400 
 1398000    1.0215544   -3.2418088   -3.2418088   -1.7094802  0.095657823   -3.2418088    1.5323286   518400 
 1399000    1.0215129   -3.2417464   -3.2417464   -1.7094799   0.08973448   -3.2417464    1.5322664   518400 
 1400000    1.0219499   -3.2427064   -3.2427064   -1.7097844  0.092730066   -3.2427064    1.5329219   518400 
 1401000    1.0209904   -3.2397378   -3.2397378   -1.7082552  0.093066829   -3.2397378    1.5314826   518400 
 1402000    1.0207423   -3.2398295   -3.2398295    -1.708719   0.09207675   -3.2398295    1.5311105   518400 
 1403000    1.0222688   -3.2423324   -3.2423324   -1.7089321  0.091132338   -3.2423324    1.5334003   518400 
 1404000     1.022088   -3.2426496   -3.2426496   -1.7095207  0.089294812   -3.2426496     1.533129   518400 
 1405000    1.0219877   -3.2420566   -3.2420566    -1.709078  0.096999893   -3.2420566    1.5329787   518400 
 1406000    1.0234315   -3.2434936   -3.2434936   -1.7083494  0.092273674   -3.2434936    1.5351442   518400 
 1407000    1.0225783   -3.2421668   -3.2421668   -1.7083022  0.095555623   -3.2421668    1.5338645   518400 
 1408000    1.0222018   -3.2435651   -3.2435651   -1.7102654  0.090962878   -3.2435651    1.5332997   518400 
 1409000    1.0223515   -3.2413358   -3.2413358   -1.7078114   0.10116247   -3.2413358    1.5335244   518400 
 1410000    1.0224119   -3.2410079   -3.2410079    -1.707393  0.096369545   -3.2410079    1.5336149   518400 
 1411000    1.0241939   -3.2426266   -3.2426266   -1.7063387  0.092498215   -3.2426266    1.5362879   518400 
 1412000    1.0242057   -3.2433617   -3.2433617   -1.7070562  0.097008346   -3.2433617    1.5363055   518400 
 1413000    1.0219352   -3.2394518   -3.2394518    -1.706552  0.098651477   -3.2394518    1.5328998   518400 
 1414000    1.0234692    -3.240916    -3.240916   -1.7057152  0.095184112    -3.240916    1.5352009   518400 
 1415000    1.0229122   -3.2405253   -3.2405253     -1.70616  0.087277649   -3.2405253    1.5343653   518400 
 1416000    1.0217102   -3.2384616   -3.2384616   -1.7058992  0.092781472   -3.2384616    1.5325624   518400 
 1417000    1.0235828   -3.2401309   -3.2401309   -1.7047596  0.091166277   -3.2401309    1.5353713   518400 
 1418000    1.0236716   -3.2398014   -3.2398014    -1.704297   0.09473774   -3.2398014    1.5355044   518400 
 1419000    1.0221684   -3.2374964   -3.2374964   -1.7042468  0.097528893   -3.2374964    1.5332496   518400 
 1420000    1.0238942   -3.2396169   -3.2396169   -1.7037786  0.094332813   -3.2396169    1.5358383   518400 
 1421000    1.0245788   -3.2401577   -3.2401577   -1.7032924  0.091634982   -3.2401577    1.5368653   518400 
 1422000    1.0240876   -3.2393161   -3.2393161   -1.7031877  0.094428191   -3.2393161    1.5361284   518400 
 1423000    1.0245148   -3.2392878   -3.2392878   -1.7025186   0.09380349   -3.2392878    1.5367692   518400 
 1424000    1.0242439   -3.2392536   -3.2392536   -1.7028906  0.095868526   -3.2392536    1.5363629   518400 
 1425000    1.0248318   -3.2404178   -3.2404178   -1.7031731  0.095178982   -3.2404178    1.5372447   518400 
 1426000    1.0242838   -3.2396734   -3.2396734   -1.7032507  0.097291122   -3.2396734    1.5364227   518400 
 1427000      1.02305   -3.2370478   -3.2370478   -1.7024758  0.098055226   -3.2370478     1.534572   518400 
 1428000    1.0234602   -3.2377206   -3.2377206   -1.7025332  0.091635923   -3.2377206    1.5351874   518400 
 1429000    1.0235724   -3.2380238   -3.2380238   -1.7026681  0.092541075   -3.2380238    1.5353557   518400 
 1430000    1.0239349   -3.2376488   -3.2376488   -1.7017494  0.087022421   -3.2376488    1.5358993   518400 
 1431000     1.023132   -3.2360733   -3.2360733   -1.7013783  0.093516496   -3.2360733     1.534695   518400 
 1432000    1.0231411   -3.2361216   -3.2361216    -1.701413    0.0939284   -3.2361216    1.5347087   518400 
 1433000     1.025249   -3.2391521   -3.2391521   -1.7012816  0.090001976   -3.2391521    1.5378705   518400 
 1434000    1.0237199    -3.237446    -3.237446    -1.701869  0.090206704    -3.237446     1.535577   518400 
 1435000    1.0240235   -3.2383092   -3.2383092   -1.7022769    0.0856356   -3.2383092    1.5360323   518400 
 1436000    1.0236192   -3.2370449   -3.2370449    -1.701619  0.089843803   -3.2370449    1.5354259   518400 
 1437000     1.021812   -3.2348972   -3.2348972   -1.7021822  0.086207878   -3.2348972     1.532715   518400 
 1438000    1.0233776   -3.2370379   -3.2370379   -1.7019744   0.09283019   -3.2370379    1.5350635   518400 
 1439000     1.021757   -3.2350496   -3.2350496    -1.702417  0.094882212   -3.2350496    1.5326326   518400 
 1440000    1.0233989   -3.2370706   -3.2370706   -1.7019752  0.095618709   -3.2370706    1.5350954   518400 
 1441000    1.0228325   -3.2353738   -3.2353738    -1.701128  0.092927499   -3.2353738    1.5342458   518400 
 1442000    1.0217969   -3.2344974   -3.2344974   -1.7018049  0.090025844   -3.2344974    1.5326925   518400 
 1443000    1.0243044   -3.2373149   -3.2373149   -1.7008613  0.086692098   -3.2373149    1.5364536   518400 
 1444000    1.0231326   -3.2352179   -3.2352179    -1.700522  0.093997509   -3.2352179    1.5346959   518400 
 1445000    1.0232882   -3.2352327   -3.2352327   -1.7003034  0.098925674   -3.2352327    1.5349293   518400 
 1446000       1.0227   -3.2346973   -3.2346973   -1.7006504  0.094265486   -3.2346973     1.534047   518400 
 1447000    1.0226706   -3.2344228   -3.2344228   -1.7004199  0.093536873   -3.2344228    1.5340029   518400 
 1448000    1.0252148   -3.2374451   -3.2374451   -1.6996258  0.093757836   -3.2374451    1.5378192   518400 
 1449000    1.0251094   -3.2377703   -3.2377703   -1.7001092  0.087894153   -3.2377703    1.5376611   518400 
 1450000    1.0241899   -3.2349353   -3.2349353   -1.6986534  0.095135153   -3.2349353    1.5362819   518400 
 1451000    1.0262568   -3.2375083   -3.2375083    -1.698126   0.08766413   -3.2375083    1.5393823   518400 
 1452000    1.0238595   -3.2336249   -3.2336249   -1.6978386  0.097513404   -3.2336249    1.5357863   518400 
 1453000    1.0249587   -3.2346849   -3.2346849   -1.6972497  0.096388455   -3.2346849    1.5374352   518400 
 1454000    1.0247115   -3.2346064   -3.2346064   -1.6975422  0.097631838   -3.2346064    1.5370643   518400 
 1455000    1.0246161   -3.2336176   -3.2336176   -1.6966964   0.10282494   -3.2336176    1.5369212   518400 
 1456000    1.0255385   -3.2361848   -3.2361848     -1.69788  0.092131203   -3.2361848    1.5383048   518400 
 1457000    1.0254869   -3.2367141   -3.2367141   -1.6984867  0.099731522   -3.2367141    1.5382274   518400 
 1458000     1.025074   -3.2349889   -3.2349889   -1.6973808  0.090309935   -3.2349889    1.5376081   518400 
 1459000    1.0239382    -3.232663    -3.232663   -1.6967587  0.092771777    -3.232663    1.5359043   518400 
 1460000    1.0245756    -3.233081    -3.233081   -1.6962206  0.093170011    -3.233081    1.5368604   518400 
 1461000    1.0246446    -3.232264    -3.232264   -1.6953001  0.095405878    -3.232264    1.5369639   518400 
 1462000    1.0247166   -3.2322009   -3.2322009    -1.695129  0.092541757   -3.2322009    1.5370719   518400 
 1463000    1.0243929   -3.2319289   -3.2319289   -1.6953424  0.094197618   -3.2319289    1.5365865   518400 
 1464000     1.025041   -3.2320218   -3.2320218   -1.6944633  0.091647116   -3.2320218    1.5375585   518400 
 1465000    1.0242521   -3.2305747   -3.2305747   -1.6941996  0.097866564   -3.2305747    1.5363751   518400 
 1466000    1.0266747   -3.2326421   -3.2326421    -1.692633  0.098238949   -3.2326421    1.5400091   518400 
 1467000    1.0249174   -3.2310791   -3.2310791   -1.6937059  0.096308681   -3.2310791    1.5373732   518400 
 1468000    1.0261828   -3.2325311   -3.2325311   -1.6932598  0.095608194   -3.2325311    1.5392713   518400 
 1469000    1.0262685   -3.2315776   -3.2315776   -1.6921779  0.092050063   -3.2315776    1.5393997   518400 
 1470000    1.0250299   -3.2299634   -3.2299634   -1.6924216  0.094168158   -3.2299634    1.5375419   518400 
 1471000    1.0253894   -3.2306255   -3.2306255   -1.6925444    0.0971574   -3.2306255    1.5380811   518400 
 1472000     1.025175   -3.2297961   -3.2297961   -1.6920366  0.092612885   -3.2297961    1.5377595   518400 
 1473000    1.0256404   -3.2307173   -3.2307173   -1.6922596  0.099500771   -3.2307173    1.5384577   518400 
 1474000    1.0250902   -3.2304303   -3.2304303   -1.6927979  0.091961478   -3.2304303    1.5376324   518400 
 1475000    1.0249072   -3.2288855   -3.2288855   -1.6915277   0.10237064   -3.2288855    1.5373578   518400 
 1476000      1.02582   -3.2295704   -3.2295704   -1.6908434  0.093339496   -3.2295704     1.538727   518400 
 1477000    1.0241226   -3.2269412   -3.2269412   -1.6907603   0.10099412   -3.2269412     1.536181   518400 
 1478000    1.0269773    -3.230601    -3.230601    -1.690138  0.092129932    -3.230601     1.540463   518400 
 1479000    1.0250589   -3.2287562   -3.2287562   -1.6911707  0.099084539   -3.2287562    1.5375854   518400 
 1480000    1.0261358   -3.2306915   -3.2306915   -1.6914908  0.093708766   -3.2306915    1.5392008   518400 
 1481000    1.0264277   -3.2312495   -3.2312495   -1.6916109   0.10010322   -3.2312495    1.5396386   518400 
 1482000     1.026174   -3.2294656   -3.2294656   -1.6902076   0.09821845   -3.2294656     1.539258   518400 
 1483000    1.0274462   -3.2310828   -3.2310828   -1.6899166  0.092473627   -3.2310828    1.5411663   518400 
 1484000    1.0257152   -3.2282887   -3.2282887   -1.6897189   0.09708384   -3.2282887    1.5385698   518400 
 1485000    1.0257057   -3.2290662   -3.2290662   -1.6905107  0.092050958   -3.2290662    1.5385555   518400 
 1486000    1.0264343   -3.2297515   -3.2297515    -1.690103   0.10033495   -3.2297515    1.5396485   518400 
 1487000    1.0272075   -3.2307999   -3.2307999   -1.6899916  0.089304188   -3.2307999    1.5408083   518400 
 1488000    1.0262429   -3.2284897   -3.2284897   -1.6891283   0.10108955   -3.2284897    1.5393613   518400 
 1489000    1.0279744   -3.2303411   -3.2303411   -1.6883825  0.092213155   -3.2303411    1.5419586   518400 
 1490000    1.0249622   -3.2253375   -3.2253375   -1.6878972  0.093856328   -3.2253375    1.5374404   518400 
 1491000    1.0266914   -3.2279176   -3.2279176   -1.6878835  0.092001175   -3.2279176    1.5400341   518400 
 1492000    1.0267594   -3.2282179   -3.2282179   -1.6880817  0.095045966   -3.2282179    1.5401362   518400 
 1493000    1.0262021   -3.2271037   -3.2271037   -1.6878035  0.093974249   -3.2271037    1.5393002   518400 
 1494000    1.0279765   -3.2289854   -3.2289854   -1.6870237  0.094816347   -3.2289854    1.5419617   518400 
 1495000    1.0254016   -3.2253775   -3.2253775   -1.6872781  0.098463568   -3.2253775    1.5380994   518400 
 1496000    1.0251282   -3.2248024   -3.2248024   -1.6871131  0.096826184   -3.2248024    1.5376893   518400 
 1497000    1.0265862   -3.2263421   -3.2263421   -1.6864659  0.093405777   -3.2263421    1.5398763   518400 
 1498000    1.0256304   -3.2246511   -3.2246511   -1.6862084  0.097253129   -3.2246511    1.5384426   518400 
 1499000    1.0256389   -3.2259933   -3.2259933   -1.6875379  0.095246703   -3.2259933    1.5384553   518400 
 1500000    1.0267888   -3.2268214   -3.2268214   -1.6866412  0.089744013   -3.2268214    1.5401802   518400 
 1501000    1.0263633   -3.2268057   -3.2268057   -1.6872638  0.093256704   -3.2268057    1.5395419   518400 
 1502000    1.0263185   -3.2262473   -3.2262473   -1.6867725  0.087966585   -3.2262473    1.5394748   518400 
 1503000    1.0259463   -3.2253409   -3.2253409   -1.6864245  0.093761915   -3.2253409    1.5389164   518400 
 1504000    1.0272665    -3.226597    -3.226597   -1.6857002  0.092048502    -3.226597    1.5408967   518400 
 1505000    1.0272439   -3.2262267   -3.2262267   -1.6853639  0.094219288   -3.2262267    1.5408628   518400 
 1506000    1.0267091   -3.2255584   -3.2255584   -1.6854977  0.092965395   -3.2255584    1.5400607   518400 
 1507000    1.0269562   -3.2263048   -3.2263048   -1.6858734  0.092708186   -3.2263048    1.5404314   518400 
 1508000    1.0269673   -3.2266352   -3.2266352   -1.6861872   0.10147937   -3.2266352     1.540448   518400 
 1509000    1.0278513   -3.2272386   -3.2272386   -1.6854647  0.084830195   -3.2272386    1.5417739   518400 
 1510000    1.0266936   -3.2249376   -3.2249376   -1.6849001   0.09528793   -3.2249376    1.5400375   518400 
 1511000    1.0264199    -3.224538    -3.224538    -1.684911  0.093605826    -3.224538    1.5396269   518400 
 1512000    1.0265303    -3.223424    -3.223424   -1.6836316  0.098023365    -3.223424    1.5397924   518400 
 1513000    1.0263452   -3.2232944   -3.2232944   -1.6837796  0.098447281   -3.2232944    1.5395148   518400 
 1514000    1.0281211   -3.2261417   -3.2261417    -1.683963  0.095271791   -3.2261417    1.5421787   518400 
 1515000    1.0288637    -3.226219    -3.226219   -1.6829264  0.092187716    -3.226219    1.5432925   518400 
 1516000    1.0263048   -3.2222325   -3.2222325   -1.6827782   0.10038921   -3.2222325    1.5394543   518400 
 1517000    1.0274846   -3.2240428   -3.2240428   -1.6828188  0.093186501   -3.2240428     1.541224   518400 
 1518000    1.0260591   -3.2223537   -3.2223537   -1.6832681  0.094981906   -3.2223537    1.5390857   518400 
 1519000    1.0276175   -3.2232311   -3.2232311   -1.6818077  0.099515996   -3.2232311    1.5414233   518400 
 1520000    1.0262203   -3.2201373   -3.2201373   -1.6808099   0.09729253   -3.2201373    1.5393274   518400 
 1521000    1.0260406   -3.2207746   -3.2207746   -1.6817167  0.090694578   -3.2207746    1.5390579   518400 
 1522000      1.02598   -3.2211191   -3.2211191   -1.6821521  0.089246487   -3.2211191    1.5389671   518400 
 1523000    1.0271665    -3.223187    -3.223187   -1.6824402  0.092088885    -3.223187    1.5407468   518400 
 1524000    1.0265062    -3.221895    -3.221895   -1.6821387  0.094125185    -3.221895    1.5397563   518400 
 1525000    1.0249107   -3.2188254   -3.2188254   -1.6814623  0.094614344   -3.2188254     1.537363   518400 
 1526000    1.0266572   -3.2211946   -3.2211946   -1.6812117  0.094752104   -3.2211946    1.5399829   518400 
 1527000    1.0271953   -3.2215282   -3.2215282   -1.6807382  0.087584276   -3.2215282      1.54079   518400 
 1528000    1.0268221   -3.2218175   -3.2218175   -1.6815872  0.091801604   -3.2218175    1.5402302   518400 
 1529000    1.0275907   -3.2233346   -3.2233346   -1.6819516   0.10133012   -3.2233346     1.541383   518400 
 1530000    1.0278859    -3.223064    -3.223064   -1.6812382  0.094219591    -3.223064    1.5418258   518400 
 1531000    1.0274439   -3.2219774   -3.2219774   -1.6808145  0.096189908   -3.2219774    1.5411628   518400 
 1532000    1.0283377   -3.2230499   -3.2230499   -1.6805463  0.092589599   -3.2230499    1.5425036   518400 
 1533000    1.0288667   -3.2227828   -3.2227828   -1.6794857  0.094933069   -3.2227828    1.5432971   518400 
 1534000    1.0285442   -3.2223331   -3.2223331   -1.6795198  0.095016238   -3.2223331    1.5428133   518400 
 1535000    1.0284503   -3.2210277   -3.2210277   -1.6783552  0.097781177   -3.2210277    1.5426724   518400 
 1536000    1.0282255   -3.2206869   -3.2206869   -1.6783516  0.095614327   -3.2206869    1.5423353   518400 
 1537000    1.0295332   -3.2219026   -3.2219026   -1.6776058  0.098780543   -3.2219026    1.5442968   518400 
 1538000    1.0293429   -3.2202919   -3.2202919   -1.6762806  0.098110763   -3.2202919    1.5440113   518400 
 1539000    1.0283772   -3.2194794   -3.2194794   -1.6769165   0.09736641   -3.2194794    1.5425628   518400 
 1540000    1.0290031   -3.2196079   -3.2196079   -1.6761063   0.10068146   -3.2196079    1.5435016   518400 
 1541000    1.0301056   -3.2212179   -3.2212179   -1.6760625   0.10046915   -3.2212179    1.5451554   518400 
 1542000    1.0289145   -3.2196584   -3.2196584   -1.6762897   0.10094431   -3.2196584    1.5433687   518400 
 1543000    1.0287136   -3.2195013   -3.2195013   -1.6764339  0.096179872   -3.2195013    1.5430674   518400 
 1544000    1.0288878   -3.2194671   -3.2194671   -1.6761384  0.093236153   -3.2194671    1.5433287   518400 
 1545000      1.02854   -3.2187947   -3.2187947   -1.6759876  0.099927574   -3.2187947    1.5428071   518400 
 1546000     1.027866   -3.2174085   -3.2174085   -1.6756125  0.096750649   -3.2174085    1.5417961   518400 
 1547000    1.0291007   -3.2200389   -3.2200389   -1.6763908  0.096007324   -3.2200389     1.543648   518400 
 1548000    1.0287946   -3.2195424   -3.2195424   -1.6763535  0.096740304   -3.2195424     1.543189   518400 
 1549000    1.0284831    -3.219007    -3.219007   -1.6762853   0.10643638    -3.219007    1.5427217   518400 
 1550000     1.029245   -3.2203505   -3.2203505    -1.676486     0.102949   -3.2203505    1.5438645   518400 
 1551000     1.028854   -3.2199495   -3.2199495   -1.6766715    0.0972553   -3.2199495     1.543278   518400 
 1552000    1.0289987   -3.2190864   -3.2190864   -1.6755914   0.10175113   -3.2190864     1.543495   518400 
 1553000    1.0287212   -3.2188279   -3.2188279   -1.6757491   0.10413351   -3.2188279    1.5430788   518400 
 1554000    1.0289708   -3.2185125   -3.2185125   -1.6750594  0.099774878   -3.2185125    1.5434532   518400 
 1555000    1.0306186   -3.2204513   -3.2204513   -1.6745263  0.093910641   -3.2204513     1.545925   518400 
 1556000    1.0302295   -3.2196525   -3.2196525   -1.6743113  0.093577907   -3.2196525    1.5453412   518400 
 1557000    1.0291569   -3.2172638   -3.2172638   -1.6735315  0.099622157   -3.2172638    1.5437324   518400 
 1558000     1.028932   -3.2167611   -3.2167611   -1.6733661  0.096083763   -3.2167611     1.543395   518400 
 1559000    1.0271164    -3.214117    -3.214117   -1.6734454   0.10538913    -3.214117    1.5406717   518400 
 1560000    1.0288629   -3.2179196   -3.2179196   -1.6746282  0.091918916   -3.2179196    1.5432914   518400 
 1561000     1.027694   -3.2159936   -3.2159936   -1.6744555  0.092427822   -3.2159936     1.541538   518400 
 1562000    1.0277825   -3.2163573   -3.2163573   -1.6746864  0.095179132   -3.2163573    1.5416708   518400 
 1563000    1.0276811   -3.2155901   -3.2155901   -1.6740714  0.095332116   -3.2155901    1.5415187   518400 
 1564000    1.0289241    -3.217891    -3.217891   -1.6745078  0.096057612    -3.217891    1.5433831   518400 
 1565000    1.0282852   -3.2161346   -3.2161346   -1.6737098  0.093982744   -3.2161346    1.5424248   518400 
 1566000    1.0291124   -3.2173649   -3.2173649   -1.6736993  0.095722939   -3.2173649    1.5436657   518400 
 1567000    1.0275542   -3.2154077   -3.2154077   -1.6740793  0.093829124   -3.2154077    1.5413284   518400 
 1568000    1.0299273   -3.2183776   -3.2183776   -1.6734895  0.094711057   -3.2183776     1.544888   518400 
 1569000    1.0285679    -3.214617    -3.214617   -1.6717682  0.095928069    -3.214617    1.5428488   518400 
 1570000    1.0287095   -3.2156862   -3.2156862   -1.6726249  0.095420334   -3.2156862    1.5430613   518400 
 1571000    1.0293414   -3.2154112   -3.2154112   -1.6714021  0.092057753   -3.2154112    1.5440091   518400 
 1572000    1.0292347    -3.215231    -3.215231   -1.6713819  0.092093099    -3.215231    1.5438491   518400 
 1573000    1.0287971   -3.2149884   -3.2149884   -1.6717958  0.096017412   -3.2149884    1.5431926   518400 
 1574000    1.0284209   -3.2148255   -3.2148255    -1.672197  0.094834126   -3.2148255    1.5426284   518400 
 1575000    1.0287784   -3.2161597   -3.2161597   -1.6729951  0.091396967   -3.2161597    1.5431646   518400 
 1576000     1.029478   -3.2160861   -3.2160861    -1.671872   0.10130847   -3.2160861    1.5442141   518400 
 1577000    1.0285385   -3.2142376   -3.2142376   -1.6714328  0.093986476   -3.2142376    1.5428047   518400 
 1578000     1.028588   -3.2148692   -3.2148692   -1.6719901  0.094616005   -3.2148692     1.542879   518400 
 1579000    1.0280632   -3.2135355   -3.2135355   -1.6714437  0.099056452   -3.2135355    1.5420918   518400 
 1580000    1.0284632   -3.2131744   -3.2131744   -1.6704826  0.093218098   -3.2131744    1.5426918   518400 
 1581000     1.028676   -3.2122476   -3.2122476   -1.6692366  0.097421729   -3.2122476     1.543011   518400 
 1582000    1.0287761   -3.2125008   -3.2125008   -1.6693397  0.096088995   -3.2125008    1.5431612   518400 
 1583000    1.0289634    -3.212483    -3.212483   -1.6690408  0.096693544    -3.212483    1.5434421   518400 
 1584000    1.0280684    -3.210764    -3.210764   -1.6686644  0.090264451    -3.210764    1.5420996   518400 
 1585000    1.0295662   -3.2131273   -3.2131273    -1.668781  0.095506825   -3.2131273    1.5443463   518400 
 1586000    1.0304631   -3.2134255   -3.2134255   -1.6677339  0.092834569   -3.2134255    1.5456916   518400 
 1587000    1.0304974   -3.2136444   -3.2136444   -1.6679012  0.088121273   -3.2136444    1.5457432   518400 
 1588000    1.0291228   -3.2116371   -3.2116371    -1.667956  0.093823775   -3.2116371    1.5436812   518400 
 1589000    1.0285511   -3.2101411   -3.2101411   -1.6673175  0.097211461   -3.2101411    1.5428236   518400 
 1590000    1.0292239   -3.2115846   -3.2115846   -1.6677517   0.10052321   -3.2115846    1.5438329   518400 
 1591000    1.0291823   -3.2117635   -3.2117635   -1.6679931  0.093905941   -3.2117635    1.5437704   518400 
 1592000    1.0291098    -3.212239    -3.212239   -1.6685773   0.10215203    -3.212239    1.5436617   518400 
 1593000    1.0300527   -3.2130051   -3.2130051   -1.6679291   0.09664149   -3.2130051     1.545076   518400 
 1594000    1.0308195   -3.2139572   -3.2139572    -1.667731   0.09995882   -3.2139572    1.5462263   518400 
 1595000    1.0285526   -3.2105995   -3.2105995   -1.6677735  0.097963573   -3.2105995     1.542826   518400 
 1596000    1.0281965   -3.2100951   -3.2100951   -1.6678033   0.10072806   -3.2100951    1.5422918   518400 
 1597000    1.0284292   -3.2088191   -3.2088191   -1.6661783   0.09485068   -3.2088191    1.5426408   518400 
 1598000    1.0288327   -3.2092059   -3.2092059   -1.6659597  0.096258217   -3.2092059    1.5432461   518400 
 1599000    1.0300257   -3.2107531   -3.2107531   -1.6657175  0.089951854   -3.2107531    1.5450356   518400 
 1600000    1.0290945   -3.2086075   -3.2086075   -1.6649688  0.096157299   -3.2086075    1.5436387   518400 
 1601000    1.0294952   -3.2080323   -3.2080323   -1.6637926   0.10134492   -3.2080323    1.5442398   518400 
 1602000    1.0301133   -3.2083052   -3.2083052   -1.6631383  0.099181968   -3.2083052    1.5451669   518400 
 1603000    1.0312036   -3.2115422   -3.2115422   -1.6647397  0.099504976   -3.2115422    1.5468025   518400 
 1604000    1.0311005   -3.2109364   -3.2109364   -1.6642886  0.099204093   -3.2109364    1.5466478   518400 
 1605000     1.031448   -3.2106511   -3.2106511    -1.663482   0.10733129   -3.2106511    1.5471691   518400 
 1606000    1.0333304   -3.2121471   -3.2121471   -1.6621545   0.10184652   -3.2121471    1.5499925   518400 
 1607000    1.0316571   -3.2101955   -3.2101955   -1.6627129  0.099107924   -3.2101955    1.5474826   518400 
 1608000    1.0323533   -3.2110058   -3.2110058   -1.6624789  0.094769351   -3.2110058    1.5485269   518400 
 1609000    1.0319667   -3.2090532   -3.2090532   -1.6611061   0.10213304   -3.2090532    1.5479471   518400 
 1610000    1.0324716   -3.2098071   -3.2098071   -1.6611027  0.094965778   -3.2098071    1.5487044   518400 
 1611000     1.032342   -3.2089466   -3.2089466   -1.6604365   0.10371284   -3.2089466    1.5485101   518400 
 1612000    1.0317924   -3.2084809   -3.2084809   -1.6607954   0.10357844   -3.2084809    1.5476856   518400 
 1613000    1.0310367   -3.2071602   -3.2071602   -1.6606082  0.098863019   -3.2071602     1.546552   518400 
 1614000    1.0314316   -3.2082905   -3.2082905    -1.661146  0.098769002   -3.2082905    1.5471445   518400 
 1615000    1.0309262   -3.2071808   -3.2071808   -1.6607944   0.10052756   -3.2071808    1.5463863   518400 
 1616000    1.0314604   -3.2080259   -3.2080259   -1.6608382  0.091116723   -3.2080259    1.5471876   518400 
 1617000    1.0311243   -3.2075171   -3.2075171   -1.6608335  0.095537262   -3.2075171    1.5466835   518400 
 1618000    1.0323556   -3.2098233   -3.2098233   -1.6612928   0.10602614   -3.2098233    1.5485304   518400 
 1619000    1.0333389   -3.2116886   -3.2116886   -1.6616832  0.096604072   -3.2116886    1.5500054   518400 
 1620000    1.0323286   -3.2098847   -3.2098847   -1.6613948   0.10427573   -3.2098847    1.5484898   518400 
 1621000    1.0330278   -3.2100116   -3.2100116   -1.6604729   0.10570453   -3.2100116    1.5495387   518400 
 1622000    1.0321678   -3.2095772   -3.2095772   -1.6613284   0.10241066   -3.2095772    1.5482488   518400 
 1623000    1.0321665   -3.2081435   -3.2081435   -1.6598968   0.10178553   -3.2081435    1.5482467   518400 
 1624000    1.0327394   -3.2099538   -3.2099538   -1.6608477  0.098184302   -3.2099538    1.5491061   518400 
 1625000    1.0330917   -3.2099288   -3.2099288   -1.6602943  0.097835492   -3.2099288    1.5496346   518400 
 1626000    1.0327407    -3.209207    -3.209207   -1.6600989    0.0986712    -3.209207    1.5491081   518400 
 1627000    1.0320807   -3.2082644   -3.2082644   -1.6601463   0.09257659   -3.2082644    1.5481181   518400 
 1628000    1.0306748   -3.2065508   -3.2065508   -1.6605416  0.099377775   -3.2065508    1.5460092   518400 
 1629000    1.0327392   -3.2096809   -3.2096809   -1.6605751   0.10142003   -3.2096809    1.5491058   518400 
 1630000    1.0305949   -3.2061483   -3.2061483   -1.6602589   0.09653258   -3.2061483    1.5458894   518400 
 1631000    1.0304726   -3.2049605   -3.2049605   -1.6592547  0.098396324   -3.2049605    1.5457059   518400 
 1632000    1.0327654   -3.2082793   -3.2082793   -1.6591342  0.099874564   -3.2082793    1.5491451   518400 
 1633000    1.0317731   -3.2065478   -3.2065478   -1.6588911   0.10026861   -3.2065478    1.5476567   518400 
 1634000    1.0316836   -3.2069091   -3.2069091   -1.6593866  0.099214638   -3.2069091    1.5475225   518400 
 1635000    1.0308292    -3.205826    -3.205826   -1.6595851   0.10142818    -3.205826    1.5462409   518400 
 1636000    1.0319536   -3.2070706   -3.2070706   -1.6591432  0.098641095   -3.2070706    1.5479274   518400 
 1637000    1.0317686    -3.206837    -3.206837   -1.6591871  0.093489463    -3.206837    1.5476499   518400 
 1638000    1.0321517   -3.2070112   -3.2070112   -1.6587867   0.10274259   -3.2070112    1.5482246   518400 
 1639000     1.032119   -3.2073105   -3.2073105    -1.659135  0.090249825   -3.2073105    1.5481755   518400 
 1640000    1.0325778   -3.2076642   -3.2076642   -1.6588006  0.090859902   -3.2076642    1.5488636   518400 
 1641000    1.0312382   -3.2053306   -3.2053306   -1.6584764  0.097558167   -3.2053306    1.5468543   518400 
 1642000    1.0320269   -3.2061409   -3.2061409   -1.6581036   0.09767001   -3.2061409    1.5480373   518400 
 1643000    1.0327737   -3.2070855   -3.2070855    -1.657928  0.094960867   -3.2070855    1.5491575   518400 
 1644000     1.032043   -3.2047436   -3.2047436   -1.6566822   0.10135142   -3.2047436    1.5480615   518400 
 1645000    1.0312883    -3.203628    -3.203628   -1.6566986  0.097920015    -3.203628    1.5469294   518400 
 1646000    1.0304484   -3.2031053   -3.2031053   -1.6574357   0.10023094   -3.2031053    1.5456696   518400 
 1647000    1.0319424   -3.2056735   -3.2056735   -1.6577629  0.095822355   -3.2056735    1.5479106   518400 
 1648000    1.0325968   -3.2064377   -3.2064377   -1.6575455  0.096503714   -3.2064377    1.5488922   518400 
 1649000     1.031933   -3.2057207   -3.2057207   -1.6578242   0.10033557   -3.2057207    1.5478966   518400 
 1650000    1.0307194   -3.2031336   -3.2031336   -1.6570576  0.096856298   -3.2031336     1.546076   518400 
 1651000    1.0325089   -3.2061674   -3.2061674    -1.657407  0.090024251   -3.2061674    1.5487604   518400 
 1652000     1.031635   -3.2035001   -3.2035001   -1.6560505  0.096788493   -3.2035001    1.5474496   518400 
 1653000    1.0313755   -3.2018269   -3.2018269   -1.6547666  0.098770246   -3.2018269    1.5470603   518400 
 1654000    1.0326262   -3.2021894   -3.2021894    -1.653253  0.094738737   -3.2021894    1.5489364   518400 
 1655000    1.0323326   -3.2019315   -3.2019315   -1.6534355  0.096804378   -3.2019315     1.548496   518400 
 1656000     1.031589   -3.2009506   -3.2009506   -1.6535701  0.090877586   -3.2009506    1.5473806   518400 
 1657000    1.0333553   -3.2034249   -3.2034249    -1.653395  0.095090304   -3.2034249    1.5500299   518400 
 1658000    1.0339991   -3.2038781   -3.2038781   -1.6528825   0.09941518   -3.2038781    1.5509956   518400 
 1659000    1.0334235    -3.203128    -3.203128   -1.6529957  0.097686381    -3.203128    1.5501323   518400 
 1660000    1.0341765   -3.2047492   -3.2047492   -1.6534875  0.095061956   -3.2047492    1.5512618   518400 
 1661000    1.0335232   -3.2032606   -3.2032606   -1.6529788   0.10203456   -3.2032606    1.5502818   518400 
 1662000    1.0345042   -3.2038193   -3.2038193    -1.652066  0.096075668   -3.2038193    1.5517533   518400 
 1663000    1.0342708   -3.2045417   -3.2045417   -1.6531385   0.10308672   -3.2045417    1.5514032   518400 
 1664000    1.0333539   -3.2033585   -3.2033585   -1.6533307    0.1004128   -3.2033585    1.5500278   518400 
 1665000    1.0333258   -3.2036494   -3.2036494   -1.6536638  0.097919302   -3.2036494    1.5499856   518400 
 1666000    1.0327597   -3.2016213   -3.2016213   -1.6524847  0.098437424   -3.2016213    1.5491366   518400 
 1667000    1.0331576   -3.2017836   -3.2017836   -1.6520502  0.099880033   -3.2017836    1.5497334   518400 
 1668000    1.0328474    -3.201082    -3.201082   -1.6518139  0.098887767    -3.201082    1.5492681   518400 
 1669000    1.0337162   -3.2021811   -3.2021811   -1.6516099   0.10061393   -3.2021811    1.5505713   518400 
 1670000    1.0332437   -3.2009678   -3.2009678   -1.6511052   0.10167901   -3.2009678    1.5498626   518400 
 1671000    1.0332894   -3.1996329   -3.1996329   -1.6497017    0.1035279   -3.1996329    1.5499311   518400 
 1672000    1.0346433   -3.2021501   -3.2021501   -1.6501882  0.096945706   -3.2021501    1.5519619   518400 
 1673000    1.0334175   -3.2003677   -3.2003677   -1.6502443  0.096584384   -3.2003677    1.5501233   518400 
 1674000    1.0337268   -3.1996163   -3.1996163   -1.6490291    0.1032665   -3.1996163    1.5505872   518400 
 1675000    1.0354278   -3.2013099   -3.2013099   -1.6481712  0.099737377   -3.2013099    1.5531387   518400 
 1676000     1.034902   -3.1995394   -3.1995394   -1.6471894   0.10539737   -3.1995394      1.55235   518400 
 1677000    1.0358161   -3.2007543   -3.2007543   -1.6470331   0.10235861   -3.2007543    1.5537211   518400 
 1678000    1.0364847   -3.2028533   -3.2028533   -1.6481293   0.10659239   -3.2028533    1.5547241   518400 
 1679000    1.0350575   -3.2009965   -3.2009965   -1.6484133   0.10358297   -3.2009965    1.5525832   518400 
 1680000    1.0371224   -3.2034654   -3.2034654   -1.6477848   0.10777319   -3.2034654    1.5556806   518400 
 1681000    1.0362469   -3.2023538   -3.2023538   -1.6479865   0.10625836   -3.2023538    1.5543673   518400 
 1682000    1.0343936   -3.1991246   -3.1991246   -1.6475372   0.11181257   -3.1991246    1.5515873   518400 
 1683000    1.0354514    -3.200362    -3.200362   -1.6471879  0.099396416    -3.200362     1.553174   518400 
 1684000    1.0354328   -3.2005081   -3.2005081   -1.6473619  0.099891672   -3.2005081    1.5531462   518400 
 1685000    1.0346927   -3.1984136   -3.1984136   -1.6463775  0.099489183   -3.1984136    1.5520361   518400 
 1686000    1.0339539   -3.1974313   -3.1974313   -1.6465035   0.10124573   -3.1974313    1.5509278   518400 
 1687000    1.0341584   -3.1978198   -3.1978198   -1.6465852   0.10478344   -3.1978198    1.5512345   518400 
 1688000    1.0317392   -3.1936504   -3.1936504   -1.6460446   0.10005888   -3.1936504    1.5476059   518400 
 1689000    1.0328054   -3.1953601   -3.1953601   -1.6461551  0.099335281   -3.1953601    1.5492051   518400 
 1690000     1.032838   -3.1947478   -3.1947478   -1.6454938   0.10184286   -3.1947478    1.5492541   518400 
 1691000    1.0338492   -3.1958099   -3.1958099   -1.6450391  0.097254137   -3.1958099    1.5507708   518400 
 1692000    1.0334505   -3.1955796   -3.1955796   -1.6454069  0.098818178   -3.1955796    1.5501727   518400 
 1693000    1.0347372   -3.1966172   -3.1966172   -1.6445143   0.10663549   -3.1966172    1.5521029   518400 
 1694000    1.0346377   -3.1968118   -3.1968118   -1.6448584   0.10146967   -3.1968118    1.5519535   518400 
 1695000     1.034368   -3.1957366   -3.1957366   -1.6441875   0.10041182   -3.1957366    1.5515491   518400 
 1696000    1.0353255   -3.1979483   -3.1979483   -1.6449631   0.10294595   -3.1979483    1.5529852   518400 
 1697000    1.0356824   -3.1974631   -3.1974631   -1.6439425  0.096346104   -3.1974631    1.5535206   518400 
 1698000    1.0368037   -3.1992293   -3.1992293   -1.6440266   0.10398796   -3.1992293    1.5552026   518400 
 1699000    1.0352571   -3.1972356   -3.1972356   -1.6443529   0.10049748   -3.1972356    1.5528827   518400 
 1700000    1.0344721   -3.1952085   -3.1952085   -1.6435033   0.09974568   -3.1952085    1.5517051   518400 
 1701000    1.0358961   -3.1960443   -3.1960443   -1.6422032   0.10162149   -3.1960443    1.5538411   518400 
 1702000    1.0359789   -3.1963782   -3.1963782   -1.6424128    0.1039587   -3.1963782    1.5539654   518400 
 1703000    1.0358669   -3.1963809   -3.1963809   -1.6425835   0.10422418   -3.1963809    1.5537973   518400 
 1704000    1.0352095   -3.1956208   -3.1956208   -1.6428095  0.097737715   -3.1956208    1.5528113   518400 
 1705000     1.037195   -3.1970626   -3.1970626   -1.6412732  0.096716073   -3.1970626    1.5557895   518400 
 1706000    1.0360354   -3.1947685   -3.1947685   -1.6407184   0.10111351   -3.1947685    1.5540502   518400 
 1707000    1.0369433   -3.1957164   -3.1957164   -1.6403045   0.10109019   -3.1957164     1.555412   518400 
 1708000    1.0364931   -3.1965126   -3.1965126   -1.6417759   0.10127198   -3.1965126    1.5547367   518400 
 1709000    1.0341243   -3.1933442   -3.1933442   -1.6421607   0.10419388   -3.1933442    1.5511834   518400 
 1710000    1.0352187    -3.193662    -3.193662   -1.6408369   0.10406431    -3.193662    1.5528251   518400 
 1711000    1.0374465   -3.1960316   -3.1960316   -1.6398649    0.1031097   -3.1960316    1.5561667   518400 
 1712000    1.0369414   -3.1949611   -3.1949611   -1.6395521    0.1062026   -3.1949611     1.555409   518400 
 1713000    1.0378042    -3.196019    -3.196019   -1.6393157   0.11247019    -3.196019    1.5567033   518400 
 1714000    1.0377805   -3.1951437   -3.1951437   -1.6384759   0.10662448   -3.1951437    1.5566678   518400 
 1715000    1.0366032   -3.1936059   -3.1936059   -1.6387041    0.1079182   -3.1936059    1.5549018   518400 
 1716000    1.0381496   -3.1950054   -3.1950054    -1.637784        0.103   -3.1950054    1.5572214   518400 
 1717000    1.0377597   -3.1949252   -3.1949252   -1.6382887   0.10608249   -3.1949252    1.5566365   518400 
 1718000    1.0367967   -3.1937055   -3.1937055   -1.6385135   0.10428182   -3.1937055     1.555192   518400 
 1719000     1.036991   -3.1933532   -3.1933532   -1.6378696   0.11095902   -3.1933532    1.5554836   518400 
 1720000    1.0390594   -3.1967723   -3.1967723   -1.6381863   0.10641518   -3.1967723    1.5585861   518400 
 1721000    1.0395293   -3.1973091   -3.1973091   -1.6380181    0.1054002   -3.1973091     1.559291   518400 
 1722000    1.0374289    -3.193625    -3.193625   -1.6374847   0.10551268    -3.193625    1.5561403   518400 
 1723000    1.0370124   -3.1937374   -3.1937374   -1.6382218   0.10597772   -3.1937374    1.5555156   518400 
 1724000    1.0361611    -3.192312    -3.192312   -1.6380734   0.10690908    -3.192312    1.5542387   518400 
 1725000    1.0361823   -3.1926428   -3.1926428   -1.6383724   0.10775963   -3.1926428    1.5542704   518400 
 1726000    1.0381389   -3.1949141   -3.1949141   -1.6377088  0.098144221   -3.1949141    1.5572053   518400 
 1727000    1.0386624   -3.1951479   -3.1951479   -1.6371574  0.099669984   -3.1951479    1.5579906   518400 
 1728000    1.0380911   -3.1948122   -3.1948122   -1.6376786   0.10202422   -3.1948122    1.5571336   518400 
 1729000    1.0381682   -3.1924155   -3.1924155   -1.6351662   0.09956527   -3.1924155    1.5572493   518400 
 1730000    1.0372136   -3.1915439   -3.1915439   -1.6357265   0.10450909   -3.1915439    1.5558174   518400 
 1731000    1.0373346   -3.1907282   -3.1907282   -1.6347293    0.1030986   -3.1907282    1.5559989   518400 
 1732000    1.0363119   -3.1898749   -3.1898749     -1.63541   0.10254834   -3.1898749    1.5544649   518400 
 1733000    1.0376042   -3.1926515   -3.1926515   -1.6362482   0.10359933   -3.1926515    1.5564033   518400 
 1734000    1.0357686   -3.1907566   -3.1907566   -1.6371067   0.10041737   -3.1907566    1.5536498   518400 
 1735000    1.0368489   -3.1912552   -3.1912552   -1.6359849     0.104123   -3.1912552    1.5552703   518400 
 1736000    1.0366093   -3.1898457   -3.1898457   -1.6349347  0.099610774   -3.1898457     1.554911   518400 
 1737000    1.0365559   -3.1898056   -3.1898056   -1.6349748   0.10302848   -3.1898056    1.5548308   518400 
 1738000    1.0359136   -3.1892486   -3.1892486   -1.6353812    0.1055104   -3.1892486    1.5538675   518400 
 1739000    1.0358209   -3.1892705   -3.1892705   -1.6355422   0.10151033   -3.1892705    1.5537283   518400 
 1740000    1.0348608   -3.1875024   -3.1875024   -1.6352142   0.10382062   -3.1875024    1.5522882   518400 
 1741000    1.0367086   -3.1902351   -3.1902351   -1.6351752   0.10114526   -3.1902351    1.5550599   518400 
 1742000    1.0364099    -3.189518    -3.189518   -1.6349061   0.10378703    -3.189518    1.5546118   518400 
 1743000    1.0366723   -3.1895131   -3.1895131   -1.6345077  0.098046215   -3.1895131    1.5550054   518400 
 1744000    1.0371507   -3.1899362   -3.1899362   -1.6342132  0.099933278   -3.1899362     1.555723   518400 
 1745000    1.0352676   -3.1864493   -3.1864493   -1.6335508   0.10266929   -3.1864493    1.5528985   518400 
 1746000    1.0363091   -3.1880425   -3.1880425   -1.6335819   0.10196489   -3.1880425    1.5544606   518400 
 1747000    1.0361168   -3.1887144   -3.1887144   -1.6345421  0.095198292   -3.1887144    1.5541723   518400 
 1748000    1.0360942   -3.1877059   -3.1877059   -1.6335676   0.10066031   -3.1877059    1.5541384   518400 
 1749000     1.035878   -3.1875936   -3.1875936   -1.6337795  0.099777118   -3.1875936     1.553814   518400 
 1750000    1.0362581   -3.1874625   -3.1874625   -1.6330784   0.10126218   -3.1874625    1.5543841   518400 
 1751000    1.0355499   -3.1861972   -3.1861972   -1.6328754  0.097380676   -3.1861972    1.5533218   518400 
 1752000    1.0356958   -3.1867657   -3.1867657   -1.6332249   0.10064737   -3.1867657    1.5535407   518400 
 1753000     1.036968   -3.1881385   -3.1881385   -1.6326895   0.10161636   -3.1881385     1.555449   518400 
 1754000    1.0366995   -3.1871753   -3.1871753    -1.632129  0.098470545   -3.1871753    1.5550462   518400 
 1755000    1.0376386   -3.1878441   -3.1878441   -1.6313892  0.099224104   -3.1878441    1.5564549   518400 
 1756000    1.0367806   -3.1868527   -3.1868527   -1.6316848  0.094087172   -3.1868527    1.5551679   518400 
 1757000    1.0366606   -3.1855069   -3.1855069    -1.630519   0.10647743   -3.1855069    1.5549879   518400 
 1758000     1.036877   -3.1858115   -3.1858115    -1.630499  0.098812286   -3.1858115    1.5553125   518400 
 1759000    1.0365303    -3.184688    -3.184688   -1.6298955   0.10774949    -3.184688    1.5547924   518400 
 1760000    1.0376643   -3.1864257   -3.1864257   -1.6299323   0.10070874   -3.1864257    1.5564934   518400 
 1761000    1.0373783   -3.1856224   -3.1856224   -1.6295578   0.10624197   -3.1856224    1.5560645   518400 
 1762000    1.0388741   -3.1876916   -3.1876916   -1.6293834   0.11092323   -3.1876916    1.5583082   518400 
 1763000    1.0385657   -3.1862667   -3.1862667   -1.6284211  0.098689638   -3.1862667    1.5578455   518400 
 1764000    1.0395646   -3.1866516   -3.1866516   -1.6273077   0.10301082   -3.1866516    1.5593439   518400 
 1765000    1.0374077   -3.1837424   -3.1837424   -1.6276338   0.10957467   -3.1837424    1.5561086   518400 
 1766000    1.0377114    -3.184767    -3.184767   -1.6282029   0.10430982    -3.184767    1.5565641   518400 
 1767000    1.0392283   -3.1861598   -3.1861598   -1.6273203   0.11097544   -3.1861598    1.5588395   518400 
 1768000    1.0386715   -3.1852642   -3.1852642   -1.6272599   0.10502039   -3.1852642    1.5580043   518400 
 1769000    1.0388348   -3.1847332   -3.1847332    -1.626484   0.10369053   -3.1847332    1.5582492   518400 
 1770000    1.0383849   -3.1847989   -3.1847989   -1.6272246   0.10824671   -3.1847989    1.5575743   518400 
 1771000    1.0394095   -3.1858571   -3.1858571   -1.6267458   0.10503452   -3.1858571    1.5591113   518400 
 1772000    1.0401049    -3.187223    -3.187223   -1.6270687   0.10405452    -3.187223    1.5601544   518400 
 1773000    1.0393708   -3.1842232   -3.1842232   -1.6251701   0.10508307   -3.1842232    1.5590531   518400 
 1774000    1.0404228   -3.1864306   -3.1864306   -1.6257993   0.10380581   -3.1864306    1.5606312   518400 
 1775000    1.0391176   -3.1830665   -3.1830665   -1.6243931   0.10193168   -3.1830665    1.5586735   518400 
 1776000    1.0404566   -3.1834189   -3.1834189   -1.6227369   0.10688414   -3.1834189     1.560682   518400 
 1777000    1.0403601   -3.1841051   -3.1841051   -1.6235679   0.10906659   -3.1841051    1.5605372   518400 
 1778000    1.0409003   -3.1853135   -3.1853135   -1.6239661    0.1107124   -3.1853135    1.5613475   518400 
 1779000     1.041877   -3.1853003   -3.1853003   -1.6224879   0.11130522   -3.1853003    1.5628124   518400 
 1780000    1.0411285   -3.1839595   -3.1839595   -1.6222697   0.10754256   -3.1839595    1.5616898   518400 
 1781000    1.0402839   -3.1824093   -3.1824093   -1.6219864   0.10708653   -3.1824093    1.5604229   518400 
 1782000     1.040918   -3.1826233   -3.1826233   -1.6212493   0.10878443   -3.1826233     1.561374   518400 
 1783000    1.0404097   -3.1821832   -3.1821832   -1.6215716   0.10471606   -3.1821832    1.5606116   518400 
 1784000    1.0414344   -3.1831453   -3.1831453   -1.6209968   0.11371548   -3.1831453    1.5621485   518400 
 1785000    1.0410608     -3.18256     -3.18256   -1.6209718   0.10823661     -3.18256    1.5615882   518400 
 1786000    1.0403934   -3.1811798   -3.1811798   -1.6205927   0.10663951   -3.1811798    1.5605871   518400 
 1787000    1.0419773   -3.1825195   -3.1825195   -1.6195566   0.10633226   -3.1825195     1.562963   518400 
 1788000    1.0410013   -3.1808835   -3.1808835   -1.6193845   0.11034062   -3.1808835    1.5614989   518400 
 1789000    1.0407603   -3.1806526   -3.1806526   -1.6195152   0.11043063   -3.1806526    1.5611374   518400 
 1790000    1.0419498   -3.1811869   -3.1811869   -1.6182652    0.1107231   -3.1811869    1.5629217   518400 
 1791000    1.0427991   -3.1838571   -3.1838571   -1.6196615   0.11130394   -3.1838571    1.5641956   518400 
 1792000    1.0423393   -3.1831545   -3.1831545   -1.6196486   0.10771768   -3.1831545    1.5635059   518400 
 1793000    1.0417249   -3.1823871   -3.1823871   -1.6198028   0.11224551   -3.1823871    1.5625843   518400 
 1794000    1.0413542    -3.180673    -3.180673   -1.6186448   0.11223194    -3.180673    1.5620283   518400 
 1795000    1.0423593   -3.1820616   -3.1820616   -1.6185256   0.10250125   -3.1820616     1.563536   518400 
 1796000    1.0411287   -3.1803145   -3.1803145   -1.6186245   0.10729583   -3.1803145      1.56169   518400 
 1797000    1.0423064   -3.1817293   -3.1817293   -1.6182727   0.10889596   -3.1817293    1.5634566   518400 
 1798000    1.0402971   -3.1798948   -3.1798948   -1.6194522   0.10626741   -3.1798948    1.5604426   518400 
 1799000    1.0402309   -3.1785599   -3.1785599   -1.6182166   0.10119931   -3.1785599    1.5603433   518400 
 1800000     1.040601   -3.1785198   -3.1785198   -1.6176213    0.1048401   -3.1785198    1.5608985   518400 
 1801000    1.0411889   -3.1787042   -3.1787042   -1.6169238   0.10426736   -3.1787042    1.5617804   518400 
 1802000    1.0412862   -3.1788308   -3.1788308   -1.6169045   0.10721208   -3.1788308    1.5619263   518400 
 1803000    1.0389741   -3.1763679   -3.1763679   -1.6179097   0.11042771   -3.1763679    1.5584582   518400 
 1804000    1.0408625   -3.1785542   -3.1785542   -1.6172634   0.10549063   -3.1785542    1.5612908   518400 
 1805000    1.0415998   -3.1792719   -3.1792719   -1.6168753   0.10670481   -3.1792719    1.5623966   518400 
 1806000    1.0431749   -3.1806299   -3.1806299   -1.6158705   0.10537893   -3.1806299    1.5647593   518400 
 1807000    1.0414715   -3.1785854   -3.1785854   -1.6163812   0.10417523   -3.1785854    1.5622042   518400 
 1808000    1.0411579   -3.1787466   -3.1787466   -1.6170127   0.10641114   -3.1787466    1.5617339   518400 
 1809000    1.0414194   -3.1793055   -3.1793055   -1.6171794   0.11046686   -3.1793055    1.5621261   518400 
 1810000    1.0421932   -3.1802843   -3.1802843   -1.6169975   0.10747776   -3.1802843    1.5632867   518400 
 1811000    1.0422654   -3.1794395   -3.1794395   -1.6160444   0.10735212   -3.1794395     1.563395   518400 
 1812000    1.0415054   -3.1776924   -3.1776924   -1.6154373   0.10897811   -3.1776924    1.5622551   518400 
 1813000    1.0420825   -3.1786086   -3.1786086   -1.6154879    0.1026971   -3.1786086    1.5631207   518400 
 1814000    1.0416362    -3.177564    -3.177564   -1.6151127   0.10718303    -3.177564    1.5624513   518400 
 1815000    1.0409079   -3.1753673   -3.1753673   -1.6140084   0.10445008   -3.1753673    1.5613589   518400 
 1816000    1.0411922   -3.1757162   -3.1757162   -1.6139309   0.11124651   -3.1757162    1.5617853   518400 
 1817000    1.0429525   -3.1776061   -3.1776061   -1.6131803   0.10897928   -3.1776061    1.5644257   518400 
 1818000    1.0422578    -3.177557    -3.177557   -1.6141734     0.106213    -3.177557    1.5633837   518400 
 1819000     1.041713   -3.1765863   -3.1765863   -1.6140198    0.1105922   -3.1765863    1.5625665   518400 
 1820000    1.0416593   -3.1770974   -3.1770974   -1.6146114   0.10533863   -3.1770974     1.562486   518400 
 1821000    1.0420085   -3.1780251   -3.1780251   -1.6150154   0.10394093   -3.1780251    1.5630097   518400 
 1822000    1.0417115   -3.1767858   -3.1767858   -1.6142216   0.10131273   -3.1767858    1.5625642   518400 
 1823000    1.0420942   -3.1773536   -3.1773536   -1.6142153   0.11006786   -3.1773536    1.5631383   518400 
 1824000    1.0427715   -3.1779506   -3.1779506   -1.6137964   0.11339568   -3.1779506    1.5641542   518400 
 1825000    1.0424139   -3.1769482   -3.1769482   -1.6133304    0.1093846   -3.1769482    1.5636178   518400 
 1826000     1.043355   -3.1779247   -3.1779247   -1.6128952   0.10527095   -3.1779247    1.5650295   518400 
 1827000    1.0424598    -3.176308    -3.176308   -1.6126212   0.10900666    -3.176308    1.5636868   518400 
 1828000    1.0430841   -3.1768682   -3.1768682   -1.6122451   0.11059705   -3.1768682    1.5646232   518400 
 1829000     1.043596   -3.1764858   -3.1764858   -1.6110948   0.10814849   -3.1764858    1.5653909   518400 
 1830000     1.043892   -3.1765777   -3.1765777   -1.6107427   0.10588317   -3.1765777     1.565835   518400 
 1831000    1.0440085   -3.1782918   -3.1782918    -1.612282   0.10650676   -3.1782918    1.5660098   518400 
 1832000     1.043756   -3.1767243   -3.1767243   -1.6110933   0.11331849   -3.1767243     1.565631   518400 
 1833000    1.0439104   -3.1762735   -3.1762735   -1.6104109   0.11250453   -3.1762735    1.5658626   518400 
 1834000    1.0443865   -3.1766034   -3.1766034   -1.6100266   0.11318222   -3.1766034    1.5665768   518400 
 1835000    1.0433156   -3.1751015   -3.1751015   -1.6101311    0.1136734   -3.1751015    1.5649705   518400 
 1836000     1.042974   -3.1742038   -3.1742038   -1.6097458   0.10633141   -3.1742038     1.564458   518400 
 1837000    1.0442845   -3.1766859   -3.1766859   -1.6102621   0.10510064   -3.1766859    1.5664238   518400 
 1838000    1.0441253   -3.1754613   -3.1754613   -1.6092763   0.10592084   -3.1754613     1.566185   518400 
 1839000    1.0443271   -3.1759745   -3.1759745   -1.6094868    0.1106286   -3.1759745    1.5664876   518400 
 1840000    1.0430641   -3.1740212   -3.1740212   -1.6094281   0.11440369   -3.1740212    1.5645931   518400 
 1841000    1.0435247   -3.1740658   -3.1740658   -1.6087818   0.10987335   -3.1740658     1.565284   518400 
 1842000    1.0446704   -3.1749558   -3.1749558   -1.6079533   0.11276071   -3.1749558    1.5670026   518400 
 1843000    1.0431063   -3.1725567   -3.1725567   -1.6079003   0.10409259   -3.1725567    1.5646564   518400 
 1844000     1.045026   -3.1751707   -3.1751707   -1.6076348    0.1126739   -3.1751707     1.567536   518400 
 1845000    1.0435855   -3.1733255   -3.1733255   -1.6079503   0.11460765   -3.1733255    1.5653752   518400 
 1846000    1.0452774   -3.1760291   -3.1760291    -1.608116   0.10712718   -3.1760291    1.5679131   518400 
 1847000    1.0458694   -3.1752416   -3.1752416   -1.6064405   0.10955334   -3.1752416    1.5688011   518400 
 1848000    1.0447867   -3.1733723   -3.1733723   -1.6061953    0.1056225   -3.1733723     1.567177   518400 
 1849000    1.0450236    -3.173426    -3.173426   -1.6058936   0.10961418    -3.173426    1.5675324   518400 
 1850000    1.0438809   -3.1719791   -3.1719791   -1.6061608   0.10893138   -3.1719791    1.5658183   518400 
 1851000    1.0434726   -3.1702819   -3.1702819   -1.6050761   0.11295272   -3.1702819    1.5652058   518400 
 1852000    1.0454092   -3.1737014   -3.1737014   -1.6055906   0.10631593   -3.1737014    1.5681108   518400 
 1853000    1.0446663   -3.1730964   -3.1730964      -1.6061   0.10556708   -3.1730964    1.5669964   518400 
 1854000    1.0439532   -3.1718637   -3.1718637    -1.605937   0.10736839   -3.1718637    1.5659268   518400 
 1855000    1.0440506   -3.1721829   -3.1721829     -1.60611   0.11576932   -3.1721829    1.5660729   518400 
 1856000    1.0434822   -3.1720728   -3.1720728   -1.6068525    0.1070237   -3.1720728    1.5652203   518400 
 1857000    1.0440049    -3.172153    -3.172153   -1.6061487   0.10659168    -3.172153    1.5660044   518400 
 1858000    1.0438236   -3.1713972   -3.1713972   -1.6056648   0.11079215   -3.1713972    1.5657324   518400 
 1859000    1.0456212   -3.1733317   -3.1733317    -1.604903   0.10922869   -3.1733317    1.5684287   518400 
 1860000    1.0457187   -3.1728278   -3.1728278   -1.6042527   0.10947449   -3.1728278    1.5685751   518400 
 1861000    1.0449843   -3.1709049   -3.1709049   -1.6034314   0.11212448   -3.1709049    1.5674734   518400 
 1862000    1.0455116   -3.1708519   -3.1708519   -1.6025875   0.11468642   -3.1708519    1.5682644   518400 
 1863000    1.0451983   -3.1704402   -3.1704402   -1.6026458   0.11416346   -3.1704402    1.5677944   518400 
 1864000    1.0456246   -3.1709508   -3.1709508   -1.6025169   0.11545722   -3.1709508    1.5684339   518400 
 1865000    1.0469738   -3.1732398   -3.1732398    -1.602782   0.11125997   -3.1732398    1.5704577   518400 
 1866000    1.0462145    -3.172418    -3.172418   -1.6030992   0.10988391    -3.172418    1.5693188   518400 
 1867000    1.0466507   -3.1722578   -3.1722578   -1.6022847   0.11059795   -3.1722578     1.569973   518400 
 1868000    1.0460502   -3.1713532   -3.1713532   -1.6022809   0.11053845   -3.1713532    1.5690723   518400 
 1869000    1.0435535   -3.1680483   -3.1680483    -1.602721   0.11412478   -3.1680483    1.5653273   518400 
 1870000    1.0456054   -3.1705217   -3.1705217   -1.6021166   0.10848103   -3.1705217    1.5684051   518400 
 1871000    1.0452438   -3.1712503   -3.1712503   -1.6033876   0.11652423   -3.1712503    1.5678627   518400 
 1872000    1.0438885   -3.1689515   -3.1689515   -1.6031218   0.11120297   -3.1689515    1.5658297   518400 
 1873000    1.0457037   -3.1707642   -3.1707642   -1.6022117   0.10811879   -3.1707642    1.5685525   518400 
 1874000    1.0451763   -3.1698416   -3.1698416   -1.6020801   0.11330096   -3.1698416    1.5677614   518400 
 1875000    1.0444639    -3.169102    -3.169102   -1.6024092   0.10885692    -3.169102    1.5666928   518400 
 1876000    1.0440812   -3.1677571   -3.1677571   -1.6016383   0.11157712   -3.1677571    1.5661188   518400 
 1877000    1.0442643    -3.168288    -3.168288   -1.6018947   0.11012288    -3.168288    1.5663934   518400 
 1878000    1.0446944   -3.1682662   -3.1682662   -1.6012276   0.11132365   -3.1682662    1.5670386   518400 
 1879000    1.0447826   -3.1690999   -3.1690999   -1.6019289    0.1113704   -3.1690999    1.5671709   518400 
 1880000     1.045129   -3.1693502   -3.1693502   -1.6016597   0.10927349   -3.1693502    1.5676905   518400 
 1881000    1.0471357   -3.1714677   -3.1714677   -1.6007672    0.1068243   -3.1714677    1.5707005   518400 
 1882000    1.0463693   -3.1701262   -3.1701262   -1.6005752   0.11218697   -3.1701262    1.5695509   518400 
 1883000    1.0451249   -3.1672054   -3.1672054    -1.599521   0.11511593   -3.1672054    1.5676844   518400 
 1884000    1.0461049   -3.1684347   -3.1684347   -1.5992804   0.10531191   -3.1684347    1.5691543   518400 
 1885000    1.0482496   -3.1702806   -3.1702806   -1.5979093   0.10917686   -3.1702806    1.5723713   518400 
 1886000    1.0460962   -3.1676485   -3.1676485   -1.5985073   0.11595891   -3.1676485    1.5691412   518400 
 1887000    1.0461567   -3.1670838   -3.1670838   -1.5978518   0.11002053   -3.1670838     1.569232   518400 
 1888000    1.0450728   -3.1652802   -3.1652802   -1.5976741   0.10914568   -3.1652802    1.5676062   518400 
 1889000    1.0448237   -3.1657917   -3.1657917   -1.5985591   0.11585183   -3.1657917    1.5672326   518400 
 1890000    1.0472455   -3.1688618   -3.1688618   -1.5979966   0.10876621   -3.1688618    1.5708652   518400 
 1891000    1.0474303    -3.168598    -3.168598   -1.5974556   0.10625128    -3.168598    1.5711424   518400 
 1892000    1.0454617   -3.1663317   -3.1663317   -1.5981421   0.11147304   -3.1663317    1.5681895   518400 
 1893000    1.0462906   -3.1665026   -3.1665026   -1.5970698   0.11219159   -3.1665026    1.5694328   518400 
 1894000    1.0451819   -3.1649969   -3.1649969   -1.5972271   0.10697137   -3.1649969    1.5677698   518400 
 1895000    1.0462813   -3.1662987   -3.1662987   -1.5968798   0.11235374   -3.1662987     1.569419   518400 
 1896000    1.0453184   -3.1657676   -3.1657676    -1.597793   0.11027442   -3.1657676    1.5679746   518400 
 1897000    1.0456641   -3.1658494   -3.1658494   -1.5973562   0.11248916   -3.1658494    1.5684932   518400 
 1898000    1.0462244   -3.1652534   -3.1652534   -1.5959198    0.1095906   -3.1652534    1.5693336   518400 
 1899000    1.0459733    -3.165035    -3.165035    -1.596078   0.11438103    -3.165035     1.568957   518400 
 1900000    1.0451319    -3.163381    -3.163381   -1.5956862   0.11130641    -3.163381    1.5676948   518400 
 1901000    1.0468161   -3.1657128   -3.1657128   -1.5954916   0.10814463   -3.1657128    1.5702212   518400 
 1902000    1.0472743    -3.166474    -3.166474   -1.5955655   0.11090653    -3.166474    1.5709085   518400 
 1903000    1.0457294   -3.1643493   -3.1643493   -1.5957582   0.11152972   -3.1643493     1.568591   518400 
 1904000    1.0454856   -3.1628327   -3.1628327   -1.5946073   0.11421163   -3.1628327    1.5682254   518400 
 1905000     1.046341   -3.1661678   -3.1661678   -1.5966593    0.1074792   -3.1661678    1.5695085   518400 
 1906000    1.0462993   -3.1642659   -3.1642659     -1.59482   0.11434867   -3.1642659    1.5694459   518400 
 1907000    1.0465645    -3.163879    -3.163879   -1.5940354   0.10797055    -3.163879    1.5698437   518400 
 1908000    1.0460947   -3.1637353   -3.1637353   -1.5945962   0.11316367   -3.1637353    1.5691391   518400 
 1909000     1.048135   -3.1669495   -3.1669495   -1.5947499   0.10529253   -3.1669495    1.5721995   518400 
 1910000    1.0457609   -3.1637207   -3.1637207   -1.5950825   0.11306452   -3.1637207    1.5686383   518400 
 1911000    1.0481489   -3.1670883   -3.1670883   -1.5948679   0.10914714   -3.1670883    1.5722204   518400 
 1912000    1.0487331     -3.16698     -3.16698   -1.5938834    0.1105357     -3.16698    1.5730966   518400 
 1913000    1.0464088   -3.1630741   -3.1630741    -1.593464   0.11631356   -3.1630741    1.5696101   518400 
 1914000    1.0462636   -3.1627947   -3.1627947   -1.5934024   0.11463755   -3.1627947    1.5693923   518400 
 1915000    1.0465828   -3.1632866   -3.1632866   -1.5934154   0.11429361   -3.1632866    1.5698711   518400 
 1916000    1.0462236   -3.1619858   -3.1619858   -1.5926535   0.10929017   -3.1619858    1.5693323   518400 
 1917000     1.048432   -3.1637476   -3.1637476   -1.5911026   0.11753376   -3.1637476    1.5726449   518400 
 1918000    1.0466369   -3.1617724   -3.1617724   -1.5918201   0.11812765   -3.1617724    1.5699523   518400 
 1919000    1.0482599    -3.164992    -3.164992   -1.5926052   0.11037345    -3.164992    1.5723868   518400 
 1920000    1.0477182   -3.1631933   -3.1631933    -1.591619    0.1099417   -3.1631933    1.5715743   518400 
 1921000    1.0464105    -3.161634    -3.161634   -1.5920213   0.11540527    -3.161634    1.5696127   518400 
 1922000    1.0464054   -3.1615425   -3.1615425   -1.5919374   0.11319753   -3.1615425    1.5696051   518400 
 1923000    1.0468586   -3.1619221   -3.1619221   -1.5916372   0.11057885   -3.1619221    1.5702849   518400 
 1924000    1.0468546   -3.1606829   -3.1606829   -1.5904041   0.12253671   -3.1606829    1.5702788   518400 
 1925000     1.048683   -3.1639691   -3.1639691   -1.5909476   0.10893084   -3.1639691    1.5730215   518400 
 1926000    1.0482319   -3.1620732   -3.1620732   -1.5897284   0.10989027   -3.1620732    1.5723448   518400 
 1927000     1.049037   -3.1628886   -3.1628886   -1.5893362   0.11323029   -3.1628886    1.5735525   518400 
 1928000    1.0477806   -3.1611333   -3.1611333   -1.5894655   0.11577626   -3.1611333    1.5716678   518400 
 1929000     1.048055   -3.1610067   -3.1610067   -1.5889273   0.11690825   -3.1610067    1.5720794   518400 
 1930000    1.0488613   -3.1619374   -3.1619374   -1.5886485   0.11508767   -3.1619374    1.5732889   518400 
 1931000      1.04799   -3.1605806   -3.1605806   -1.5885986    0.1107756   -3.1605806     1.571982   518400 
 1932000    1.0475278   -3.1593668   -3.1593668    -1.588078   0.11073079   -3.1593668    1.5712887   518400 
 1933000    1.0484496   -3.1601642   -3.1601642   -1.5874929   0.11577707   -3.1601642    1.5726714   518400 
 1934000    1.0484891   -3.1601941   -3.1601941   -1.5874636   0.11072311   -3.1601941    1.5727306   518400 
 1935000    1.0484701   -3.1600007   -3.1600007   -1.5872985   0.11333136   -3.1600007    1.5727022   518400 
 1936000    1.0480308   -3.1586123   -3.1586123   -1.5865692   0.11823154   -3.1586123    1.5720431   518400 
 1937000    1.0498048   -3.1606257   -3.1606257   -1.5859215   0.11664525   -3.1606257    1.5747042   518400 
 1938000    1.0488719   -3.1597518   -3.1597518    -1.586447   0.11970901   -3.1597518    1.5733048   518400 
 1939000    1.0486818   -3.1599654   -3.1599654   -1.5869458   0.11533755   -3.1599654    1.5730196   518400 
 1940000    1.0478753   -3.1588774   -3.1588774   -1.5870675   0.11560069   -3.1588774    1.5718098   518400 
 1941000    1.0488282    -3.160048    -3.160048   -1.5868088     0.116056    -3.160048    1.5732393   518400 
 1942000     1.049061   -3.1608005   -3.1608005   -1.5872121   0.11418296   -3.1608005    1.5735885   518400 
 1943000    1.0500019   -3.1612912   -3.1612912   -1.5862915   0.11510875   -3.1612912    1.5749998   518400 
 1944000    1.0492218   -3.1589647   -3.1589647    -1.585135   0.11849594   -3.1589647    1.5738297   518400 
 1945000    1.0494953   -3.1598251   -3.1598251   -1.5855851   0.11497181   -3.1598251      1.57424   518400 
 1946000    1.0501487   -3.1610836   -3.1610836   -1.5858636   0.11424957   -3.1610836    1.5752201   518400 
 1947000    1.0493771    -3.159489    -3.159489   -1.5854264   0.11430761    -3.159489    1.5740626   518400 
 1948000    1.0498391   -3.1591249   -3.1591249   -1.5843694    0.1209628   -3.1591249    1.5747556   518400 
 1949000    1.0494479   -3.1583126   -3.1583126   -1.5841438     0.114744   -3.1583126    1.5741688   518400 
 1950000    1.0497016   -3.1582322   -3.1582322   -1.5836828   0.11449923   -3.1582322    1.5745494   518400 
 1951000    1.0498685   -3.1584985   -3.1584985   -1.5836988   0.11211466   -3.1584985    1.5747997   518400 
 1952000     1.048917   -3.1572202   -3.1572202   -1.5838478   0.11921918   -3.1572202    1.5733724   518400 
 1953000    1.0515759   -3.1604113   -3.1604113   -1.5830505     0.112835   -3.1604113    1.5773608   518400 
 1954000    1.0493004   -3.1569668   -3.1569668   -1.5830193   0.11491131   -3.1569668    1.5739475   518400 
 1955000    1.0503443    -3.159026    -3.159026   -1.5835127    0.1104579    -3.159026    1.5755134   518400 
 1956000    1.0503748   -3.1584156   -3.1584156   -1.5828564   0.11721878   -3.1584156    1.5755592   518400 
 1957000    1.0509025   -3.1594238   -3.1594238   -1.5830731     0.117145   -3.1594238    1.5763507   518400 
 1958000    1.0494528   -3.1570675   -3.1570675   -1.5828914    0.1143883   -3.1570675    1.5741761   518400 
 1959000    1.0495419   -3.1574056   -3.1574056   -1.5830958   0.11971655   -3.1574056    1.5743098   518400 
 1960000    1.0495749   -3.1582762   -3.1582762   -1.5839168   0.11655445   -3.1582762    1.5743593   518400 
 1961000    1.0499622   -3.1588461   -3.1588461   -1.5839059   0.11464355   -3.1588461    1.5749402   518400 
 1962000    1.0508033   -3.1591052   -3.1591052   -1.5829032   0.11366521   -3.1591052     1.576202   518400 
 1963000      1.05013   -3.1588017   -3.1588017   -1.5836097   0.11776728   -3.1588017     1.575192   518400 
 1964000    1.0509393   -3.1595959   -3.1595959     -1.58319   0.11241877   -3.1595959    1.5764059   518400 
 1965000    1.0513082    -3.159017    -3.159017   -1.5820577   0.11730378    -3.159017    1.5769593   518400 
 1966000    1.0495181   -3.1566351   -3.1566351    -1.582361   0.11343558   -3.1566351    1.5742741   518400 
 1967000    1.0501642    -3.156499    -3.156499   -1.5812558   0.11586677    -3.156499    1.5752432   518400 
 1968000    1.0500301    -3.155981    -3.155981    -1.580939   0.11410284    -3.155981    1.5750421   518400 
 1969000    1.0507312   -3.1560239   -3.1560239   -1.5799302    0.1169085   -3.1560239    1.5760938   518400 
 1970000    1.0499008   -3.1543634   -3.1543634   -1.5795153   0.11854805   -3.1543634    1.5748481   518400 
 1971000    1.0525774   -3.1586253   -3.1586253   -1.5797622   0.11682904   -3.1586253    1.5788631   518400 
 1972000    1.0501308   -3.1549219   -3.1549219   -1.5797287   0.11502882   -3.1549219    1.5751932   518400 
 1973000    1.0509182   -3.1561661   -3.1561661   -1.5797918   0.11890766   -3.1561661    1.5763743   518400 
 1974000    1.0510696     -3.15595     -3.15595   -1.5793486   0.11509975     -3.15595    1.5766014   518400 
 1975000    1.0507275   -3.1553495   -3.1553495   -1.5792613   0.11723415   -3.1553495    1.5760882   518400 
 1976000    1.0498412   -3.1529271   -3.1529271   -1.5781684   0.11919314   -3.1529271    1.5747587   518400 
 1977000    1.0498049   -3.1532333   -3.1532333   -1.5785289   0.11702003   -3.1532333    1.5747044   518400 
 1978000    1.0499556   -3.1550288   -3.1550288   -1.5800985   0.11634433   -3.1550288    1.5749304   518400 
 1979000    1.0504419   -3.1555682   -3.1555682   -1.5799084   0.11848132   -3.1555682    1.5756598   518400 
 1980000    1.0521111   -3.1572933   -3.1572933   -1.5791298   0.11389823   -3.1572933    1.5781635   518400 
 1981000    1.0516943   -3.1570084   -3.1570084     -1.57947   0.11437146   -3.1570084    1.5775384   518400 
 1982000    1.0493657    -3.153694    -3.153694   -1.5796484   0.12065886    -3.153694    1.5740456   518400 
 1983000    1.0518414   -3.1570169   -3.1570169   -1.5792579   0.11417647   -3.1570169     1.577759   518400 
 1984000    1.0496614   -3.1539606   -3.1539606   -1.5794715   0.12075517   -3.1539606    1.5744891   518400 
 1985000     1.050391   -3.1545677   -3.1545677   -1.5789842   0.11591389   -3.1545677    1.5755835   518400 
 1986000    1.0500093   -3.1536297   -3.1536297   -1.5786188   0.11962072   -3.1536297    1.5750109   518400 
 1987000    1.0512845   -3.1542085   -3.1542085   -1.5772849   0.11926047   -3.1542085    1.5769237   518400 
 1988000    1.0506199   -3.1532468   -3.1532468     -1.57732   0.11422935   -3.1532468    1.5759268   518400 
 1989000    1.0496268    -3.151664    -3.151664   -1.5772269   0.11630719    -3.151664    1.5744371   518400 
 1990000    1.0511297    -3.154643    -3.154643   -1.5779514    0.1146444    -3.154643    1.5766915   518400 
 1991000    1.0505026   -3.1532413   -3.1532413   -1.5774905   0.11364163   -3.1532413    1.5757508   518400 
 1992000    1.0516417   -3.1547333   -3.1547333   -1.5772739   0.11508052   -3.1547333    1.5774594   518400 
 1993000    1.0510999   -3.1537182   -3.1537182   -1.5770714   0.11662856   -3.1537182    1.5766468   518400 
 1994000    1.0508709   -3.1529574   -3.1529574   -1.5766541   0.11197047   -3.1529574    1.5763033   518400 
 1995000    1.0509411   -3.1525008   -3.1525008   -1.5760922   0.11519832   -3.1525008    1.5764086   518400 
 1996000    1.0509939    -3.152342    -3.152342   -1.5758542   0.11823317    -3.152342    1.5764878   518400 
 1997000    1.0508066   -3.1537849   -3.1537849   -1.5775782   0.11226366   -3.1537849    1.5762068   518400 
 1998000    1.0493854   -3.1505521   -3.1505521    -1.576477   0.11950277   -3.1505521     1.574075   518400 
 1999000    1.0508784   -3.1518263   -3.1518263   -1.5755116   0.11221296   -3.1518263    1.5763146   518400 
 2000000    1.0526348   -3.1542736   -3.1542736   -1.5753245   0.11371618   -3.1542736    1.5789491   518400 
 2001000      1.05215   -3.1533638   -3.1533638   -1.5751418   0.11469215   -3.1533638     1.578222   518400 
 2002000    1.0511501   -3.1522851   -3.1522851   -1.5755631   0.11332464   -3.1522851    1.5767221   518400 
 2003000    1.0522989   -3.1532254   -3.1532254     -1.57478    0.1172701   -3.1532254    1.5784453   518400 
 2004000     1.051834   -3.1521468   -3.1521468   -1.5743988   0.11721363   -3.1521468     1.577748   518400 
 2005000    1.0520707   -3.1527912   -3.1527912   -1.5746883    0.1144951   -3.1527912    1.5781029   518400 
 2006000    1.0525712    -3.152772    -3.152772   -1.5739183    0.1175891    -3.152772    1.5788537   518400 
 2007000     1.052547   -3.1526997   -3.1526997   -1.5738822   0.11692026   -3.1526997    1.5788175   518400 
 2008000    1.0508392   -3.1491202   -3.1491202   -1.5728645   0.11759357   -3.1491202    1.5762558   518400 
 2009000    1.0526738   -3.1516164   -3.1516164   -1.5726088   0.11613226   -3.1516164    1.5790076   518400 
 2010000    1.0523806   -3.1507062   -3.1507062   -1.5721384   0.11659465   -3.1507062    1.5785678   518400 
 2011000    1.0518286   -3.1498386   -3.1498386   -1.5720988   0.12067379   -3.1498386    1.5777398   518400 
 2012000    1.0521621   -3.1501719   -3.1501719   -1.5719318   0.11267073   -3.1501719    1.5782401   518400 
 2013000    1.0521075   -3.1487481   -3.1487481   -1.5705899   0.11952642   -3.1487481    1.5781582   518400 
 2014000    1.0526201   -3.1499282   -3.1499282   -1.5710011   0.11384529   -3.1499282    1.5789271   518400 
 2015000    1.0538324   -3.1504375   -3.1504375   -1.5696919   0.11835018   -3.1504375    1.5807456   518400 
 2016000    1.0545734   -3.1518658   -3.1518658   -1.5700087   0.11646774   -3.1518658     1.581857   518400 
 2017000    1.0531943   -3.1492641   -3.1492641   -1.5694757   0.12132206   -3.1492641    1.5797883   518400 
 2018000    1.0536272   -3.1499549   -3.1499549   -1.5695171    0.1157039   -3.1499549    1.5804378   518400 
 2019000    1.0541678   -3.1511144   -3.1511144   -1.5698657   0.11565191   -3.1511144    1.5812487   518400 
 2020000    1.0540905   -3.1499745   -3.1499745   -1.5688417   0.11794588   -3.1499745    1.5811327   518400 
 2021000    1.0534055   -3.1482048   -3.1482048   -1.5680996   0.11735145   -3.1482048    1.5801052   518400 
 2022000    1.0532209   -3.1476604   -3.1476604   -1.5678321    0.1188203   -3.1476604    1.5798284   518400 
 2023000    1.0558335   -3.1518632   -3.1518632    -1.568116   0.12287501   -3.1518632    1.5837472   518400 
 2024000    1.0563584    -3.151487    -3.151487   -1.5669526   0.12195884    -3.151487    1.5845345   518400 
 2025000    1.0562032   -3.1508776   -3.1508776   -1.5665759   0.12176242   -3.1508776    1.5843017   518400 
 2026000    1.0563484   -3.1508352   -3.1508352   -1.5663157   0.11752809   -3.1508352    1.5845195   518400 
 2027000    1.0555056   -3.1496525   -3.1496525   -1.5663971    0.1238087   -3.1496525    1.5832553   518400 
 2028000    1.0561373   -3.1503032   -3.1503032   -1.5661004   0.12173597   -3.1503032    1.5842029   518400 
 2029000    1.0561419   -3.1500922   -3.1500922   -1.5658824    0.1214797   -3.1500922    1.5842098   518400 
 2030000     1.056615   -3.1506052   -3.1506052   -1.5656857   0.12388654   -3.1506052    1.5849195   518400 
 2031000    1.0557622   -3.1489624   -3.1489624   -1.5653222   0.12355114   -3.1489624    1.5836402   518400 
 2032000    1.0549218   -3.1476374   -3.1476374   -1.5652578   0.12503407   -3.1476374    1.5823796   518400 
 2033000    1.0543652   -3.1463611   -3.1463611   -1.5648163   0.12562796   -3.1463611    1.5815448   518400 
 2034000    1.0550725   -3.1476814   -3.1476814   -1.5650757   0.12423835   -3.1476814    1.5826056   518400 
 2035000    1.0541666   -3.1461393   -3.1461393   -1.5648924   0.12468179   -3.1461393    1.5812469   518400 
 2036000     1.055921    -3.148253    -3.148253   -1.5643745   0.11894839    -3.148253    1.5838785   518400 
 2037000    1.0564452   -3.1480502   -3.1480502   -1.5633854   0.11772003   -3.1480502    1.5846648   518400 
 2038000    1.0556428   -3.1467696   -3.1467696   -1.5633084   0.11823011   -3.1467696    1.5834612   518400 
 2039000    1.0554833   -3.1460545   -3.1460545   -1.5628327   0.12098136   -3.1460545    1.5832218   518400 
 2040000    1.0552721   -3.1457711   -3.1457711    -1.562866   0.12430233   -3.1457711    1.5829051   518400 
 2041000    1.0568703   -3.1472301   -3.1472301   -1.5619277    0.1240566   -3.1472301    1.5853024   518400 
 2042000    1.0566352   -3.1473855   -3.1473855   -1.5624357   0.12178862   -3.1473855    1.5849498   518400 
 2043000    1.0573215   -3.1492726   -3.1492726   -1.5632934   0.11804152   -3.1492726    1.5859792   518400 
 2044000    1.0561285   -3.1459527   -3.1459527    -1.561763   0.12186512   -3.1459527    1.5841896   518400 
 2045000    1.0553826   -3.1437966   -3.1437966   -1.5607258   0.12288956   -3.1437966    1.5830708   518400 
 2046000    1.0572015   -3.1463806   -3.1463806   -1.5605815   0.12104566   -3.1463806    1.5857991   518400 
 2047000    1.0577658   -3.1470098   -3.1470098   -1.5603642   0.12251972   -3.1470098    1.5866456   518400 
 2048000    1.0570049   -3.1463933   -3.1463933    -1.560889   0.12489185   -3.1463933    1.5855043   518400 
 2049000    1.0577961   -3.1486715   -3.1486715   -1.5619804   0.11993579   -3.1486715    1.5866911   518400 
 2050000     1.055908   -3.1450476   -3.1450476   -1.5611886   0.11845798   -3.1450476     1.583859   518400 
 2051000     1.055558   -3.1445349   -3.1445349    -1.561201   0.11830524   -3.1445349    1.5833339   518400 
 2052000    1.0557343   -3.1455039   -3.1455039   -1.5619055   0.11612174   -3.1455039    1.5835984   518400 
 2053000    1.0543769    -3.143016    -3.143016   -1.5614537   0.12084281    -3.143016    1.5815623   518400 
 2054000    1.0548536   -3.1443075   -3.1443075   -1.5620301   0.11529474   -3.1443075    1.5822774   518400 
 2055000    1.0550057   -3.1446948   -3.1446948   -1.5621893   0.11380341   -3.1446948    1.5825055   518400 
 2056000    1.0548018   -3.1435746   -3.1435746    -1.561375   0.11972189   -3.1435746    1.5821997   518400 
 2057000    1.0558833   -3.1438721   -3.1438721   -1.5600503   0.12294815   -3.1438721    1.5838219   518400 
 2058000     1.055405   -3.1433038   -3.1433038   -1.5601993   0.11615622   -3.1433038    1.5831045   518400 
 2059000    1.0559733   -3.1438144   -3.1438144   -1.5598575    0.1196384   -3.1438144    1.5839569   518400 
 2060000    1.0552343   -3.1427582   -3.1427582   -1.5599098   0.11828244   -3.1427582    1.5828484   518400 
 2061000    1.0562881   -3.1446468   -3.1446468   -1.5602178   0.12052241   -3.1446468    1.5844291   518400 
 2062000    1.0559397   -3.1433773   -3.1433773   -1.5594708   0.12391855   -3.1433773    1.5839065   518400 
 2063000    1.0555549   -3.1425229   -3.1425229   -1.5591936   0.12381707   -3.1425229    1.5833293   518400 
 2064000    1.0578634   -3.1456136   -3.1456136   -1.5588215    0.1222998   -3.1456136    1.5867921   518400 
 2065000    1.0570113   -3.1438965   -3.1438965   -1.5583826    0.1270833   -3.1438965    1.5855139   518400 
 2066000    1.0567744   -3.1429814   -3.1429814   -1.5578228   0.12114508   -3.1429814    1.5851586   518400 
 2067000     1.057326   -3.1427564   -3.1427564   -1.5567705   0.12387862   -3.1427564    1.5859859   518400 
 2068000    1.0575949   -3.1441492   -3.1441492   -1.5577599    0.1170181   -3.1441492    1.5863893   518400 
 2069000    1.0578133    -3.143812    -3.143812   -1.5570952   0.12452256    -3.143812    1.5867168   518400 
 2070000    1.0565693   -3.1408398   -3.1408398   -1.5559889   0.11971897   -3.1408398    1.5848509   518400 
 2071000    1.0567922    -3.141698    -3.141698   -1.5565128   0.11794277    -3.141698    1.5851852   518400 
 2072000    1.0560793   -3.1410409   -3.1410409   -1.5569249   0.11524139   -3.1410409    1.5841159   518400 
 2073000    1.0578892   -3.1434549   -3.1434549   -1.5566241    0.1186552   -3.1434549    1.5868308   518400 
 2074000    1.0569127   -3.1416746   -3.1416746   -1.5563086   0.12257455   -3.1416746     1.585366   518400 
 2075000    1.0559766   -3.1392236   -3.1392236   -1.5552617   0.11833426   -3.1392236    1.5839618   518400 
 2076000    1.0571928   -3.1416827   -3.1416827   -1.5558966   0.11724685   -3.1416827    1.5857861   518400 
 2077000    1.0574703   -3.1409667   -3.1409667   -1.5547643   0.11952989   -3.1409667    1.5862024   518400 
 2078000    1.0576701    -3.141545    -3.141545   -1.5550429   0.12365967    -3.141545    1.5865021   518400 
 2079000    1.0603916   -3.1444783   -3.1444783   -1.5538939   0.12315446   -3.1444783    1.5905843   518400 
 2080000    1.0606752   -3.1446096   -3.1446096   -1.5535999   0.12255891   -3.1446096    1.5910097   518400 
 2081000    1.0589177   -3.1419415   -3.1419415   -1.5535681   0.12230615   -3.1419415    1.5883735   518400 
 2082000    1.0587964   -3.1408927   -3.1408927   -1.5527012    0.1238181   -3.1408927    1.5881915   518400 
 2083000    1.0565029   -3.1380025   -3.1380025   -1.5532512   0.12511505   -3.1380025    1.5847513   518400 
 2084000    1.0587135    -3.139716    -3.139716   -1.5516489   0.12822083    -3.139716    1.5880672   518400 
 2085000    1.0588591    -3.139412    -3.139412   -1.5511263   0.12546429    -3.139412    1.5882857   518400 
 2086000    1.0603497   -3.1415375   -3.1415375   -1.5510159    0.1241093   -3.1415375    1.5905216   518400 
 2087000    1.0595752   -3.1400727   -3.1400727   -1.5507129   0.12264107   -3.1400727    1.5893597   518400 
 2088000    1.0589213   -3.1386305   -3.1386305   -1.5502517   0.12317045   -3.1386305    1.5883788   518400 
 2089000    1.0589441   -3.1393711   -3.1393711    -1.550958   0.12531893   -3.1393711    1.5884131   518400 
 2090000     1.057324   -3.1370474   -3.1370474   -1.5510644   0.12671059   -3.1370474     1.585983   518400 
 2091000    1.0590625   -3.1397724   -3.1397724   -1.5511816   0.12068665   -3.1397724    1.5885907   518400 
 2092000    1.0586422   -3.1388072   -3.1388072    -1.550847   0.12503569   -3.1388072    1.5879602   518400 
 2093000    1.0576033   -3.1372213   -3.1372213   -1.5508194   0.12322042   -3.1372213    1.5864019   518400 
 2094000     1.058295   -3.1382478   -3.1382478   -1.5508084   0.11958939   -3.1382478    1.5874394   518400 
 2095000    1.0573366   -3.1370357   -3.1370357   -1.5510339   0.12087354   -3.1370357    1.5860018   518400 
 2096000    1.0586947    -3.138068    -3.138068   -1.5500291   0.12039582    -3.138068    1.5880389   518400 
 2097000    1.0596222   -3.1402615   -3.1402615   -1.5508313   0.12081859   -3.1402615    1.5894302   518400 
 2098000    1.0587079   -3.1380572   -3.1380572   -1.5499985   0.12646496   -3.1380572    1.5880587   518400 
 2099000    1.0582424   -3.1375922   -3.1375922   -1.5502317   0.12329135   -3.1375922    1.5873605   518400 
 2100000    1.0585029   -3.1365066   -3.1365066   -1.5487553   0.12706424   -3.1365066    1.5877512   518400 
 2101000    1.0590296   -3.1375612   -3.1375612   -1.5490199   0.12707213   -3.1375612    1.5885413   518400 
 2102000    1.0581382   -3.1359448   -3.1359448   -1.5487405   0.12247367   -3.1359448    1.5872043   518400 
 2103000    1.0582385   -3.1361606   -3.1361606   -1.5488059   0.12877151   -3.1361606    1.5873547   518400 
 2104000    1.0591563   -3.1379572   -3.1379572   -1.5492259   0.12541095   -3.1379572    1.5887313   518400 
 2105000     1.059977   -3.1382002   -3.1382002   -1.5482377   0.11804809   -3.1382002    1.5899624   518400 
 2106000    1.0589716   -3.1373121   -3.1373121   -1.5488578   0.12227795   -3.1373121    1.5884543   518400 
 2107000    1.0591889   -3.1383298   -3.1383298   -1.5495495   0.12441913   -3.1383298    1.5887803   518400 
 2108000    1.0580068   -3.1360075   -3.1360075   -1.5490004    0.1234325   -3.1360075    1.5870072   518400 
 2109000    1.0581941    -3.136287    -3.136287    -1.548999   0.12319714    -3.136287     1.587288   518400 
 2110000    1.0588159   -3.1367377   -3.1367377   -1.5485169   0.12224048   -3.1367377    1.5882208   518400 
 2111000    1.0579893   -3.1352007   -3.1352007   -1.5482198   0.12277072   -3.1352007    1.5869809   518400 
 2112000    1.0585784   -3.1357154   -3.1357154   -1.5478508   0.12526348   -3.1357154    1.5878646   518400 
 2113000    1.0589007   -3.1358468   -3.1358468   -1.5474988   0.12723945   -3.1358468     1.588348   518400 
 2114000    1.0583584   -3.1343489   -3.1343489   -1.5468143   0.12472707   -3.1343489    1.5875346   518400 
 2115000     1.060177   -3.1360666   -3.1360666   -1.5458041   0.12483568   -3.1360666    1.5902625   518400 
 2116000    1.0595699   -3.1352465   -3.1352465   -1.5458947   0.12380055   -3.1352465    1.5893518   518400 
 2117000    1.0593349   -3.1351051   -3.1351051   -1.5461059    0.1221771   -3.1351051    1.5889992   518400 
 2118000    1.0596312   -3.1352044   -3.1352044   -1.5457607   0.12423866   -3.1352044    1.5894437   518400 
 2119000    1.0605206   -3.1347336   -3.1347336   -1.5439558   0.12398922   -3.1347336    1.5907778   518400 
 2120000    1.0603599   -3.1349589   -3.1349589   -1.5444222   0.12059685   -3.1349589    1.5905367   518400 
 2121000      1.06105   -3.1349328   -3.1349328   -1.5433608   0.13002567   -3.1349328    1.5915719   518400 
 2122000    1.0612677   -3.1343746   -3.1343746   -1.5424761   0.12709791   -3.1343746    1.5918985   518400 
 2123000    1.0619927   -3.1352463   -3.1352463   -1.5422603    0.1241863   -3.1352463     1.592986   518400 
 2124000    1.0608723   -3.1340285   -3.1340285   -1.5427232   0.12462586   -3.1340285    1.5913054   518400 
 2125000    1.0617601   -3.1357865   -3.1357865   -1.5431494   0.11921085   -3.1357865    1.5926371   518400 
 2126000    1.0592511   -3.1332005   -3.1332005   -1.5443269   0.12457214   -3.1332005    1.5888736   518400 
 2127000    1.0614401   -3.1364572   -3.1364572   -1.5443002   0.12384378   -3.1364572     1.592157   518400 
 2128000    1.0591519   -3.1324055   -3.1324055   -1.5436806    0.1230801   -3.1324055    1.5887248   518400 
 2129000    1.0598773     -3.13313     -3.13313   -1.5433172   0.12866917     -3.13313    1.5898128   518400 
 2130000     1.060232   -3.1334427   -3.1334427   -1.5430979   0.12010653   -3.1334427    1.5903449   518400 
 2131000    1.0600852    -3.134056    -3.134056   -1.5439313   0.11972429    -3.134056    1.5901247   518400 
 2132000    1.0608835   -3.1342539   -3.1342539   -1.5429318    0.1315123   -3.1342539    1.5913222   518400 
 2133000    1.0610702   -3.1350942   -3.1350942   -1.5434921   0.12698198   -3.1350942    1.5916022   518400 
 2134000    1.0593541   -3.1319181   -3.1319181   -1.5428901   0.12829104   -3.1319181     1.589028   518400 
 2135000    1.0611279   -3.1344171   -3.1344171   -1.5427283   0.12828107   -3.1344171    1.5916888   518400 
 2136000    1.0602566   -3.1328039   -3.1328039    -1.542422   0.12865314   -3.1328039    1.5903819   518400 
 2137000    1.0602347   -3.1330769   -3.1330769    -1.542728   0.12581259   -3.1330769    1.5903489   518400 
 2138000    1.0606201   -3.1330057   -3.1330057   -1.5420787   0.11730008   -3.1330057     1.590927   518400 
 2139000    1.0607025   -3.1321427   -3.1321427    -1.541092   0.13489421   -3.1321427    1.5910507   518400 
 2140000    1.0618473   -3.1344745   -3.1344745   -1.5417067   0.12182875   -3.1344745    1.5927678   518400 
 2141000    1.0621565   -3.1348875   -3.1348875   -1.5416559   0.12572518   -3.1348875    1.5932316   518400 
 2142000    1.0616455   -3.1339498   -3.1339498   -1.5414846   0.12765626   -3.1339498    1.5924652   518400 
 2143000    1.0605656   -3.1319409   -3.1319409   -1.5410955   0.13042458   -3.1319409    1.5908454   518400 
 2144000    1.0620021   -3.1333007   -3.1333007   -1.5403005    0.1245188   -3.1333007    1.5930001   518400 
 2145000     1.059745   -3.1307609   -3.1307609   -1.5411464   0.12879017   -3.1307609    1.5896144   518400 
 2146000    1.0618886   -3.1333434   -3.1333434   -1.5405135   0.12539029   -3.1333434    1.5928299   518400 
 2147000    1.0616227   -3.1317609   -3.1317609   -1.5393299   0.12311388   -3.1317609     1.592431   518400 
 2148000    1.0613202   -3.1321321   -3.1321321   -1.5401548    0.1214337   -3.1321321    1.5919773   518400 
 2149000    1.0599569   -3.1292581   -3.1292581   -1.5393258   0.12538667   -3.1292581    1.5899323   518400 
 2150000    1.0598997   -3.1293861   -3.1293861   -1.5395396   0.12226342   -3.1293861    1.5898465   518400 
 2151000    1.0598216   -3.1298207   -3.1298207   -1.5400913   0.12536566   -3.1298207    1.5897294   518400 
 2152000    1.0608782   -3.1310361   -3.1310361   -1.5397219   0.12154672   -3.1310361    1.5913142   518400 
 2153000    1.0598094   -3.1294278   -3.1294278   -1.5397167   0.12576937   -3.1294278    1.5897111   518400 
 2154000    1.0587598     -3.12738     -3.12738   -1.5392433   0.12329385     -3.12738    1.5881367   518400 
 2155000    1.0613982   -3.1301649   -3.1301649   -1.5380706   0.12260027   -3.1301649    1.5920943   518400 
 2156000    1.0601066   -3.1284469   -3.1284469     -1.53829   0.12748505   -3.1284469    1.5901569   518400 
 2157000    1.0602569   -3.1291696   -3.1291696   -1.5387873   0.12261959   -3.1291696    1.5903822   518400 
 2158000    1.0606751   -3.1291577   -3.1291577   -1.5381481   0.12477083   -3.1291577    1.5910096   518400 
 2159000    1.0614885   -3.1304042   -3.1304042   -1.5381745   0.12720445   -3.1304042    1.5922297   518400 
 2160000    1.0612278   -3.1300283   -3.1300283   -1.5381897   0.12776965   -3.1300283    1.5918386   518400 
 2161000    1.0616882   -3.1298547   -3.1298547   -1.5373254   0.13076766   -3.1298547    1.5925293   518400 
 2162000    1.0617705   -3.1294296   -3.1294296    -1.536777   0.12922403   -3.1294296    1.5926527   518400 
 2163000    1.0621979   -3.1299131   -3.1299131   -1.5366193   0.12638713   -3.1299131    1.5932938   518400 
 2164000    1.0635413    -3.131586    -3.131586   -1.5362772   0.12273462    -3.131586    1.5953089   518400 
 2165000    1.0636741   -3.1308698   -3.1308698   -1.5353617   0.11856361   -3.1308698    1.5955081   518400 
 2166000    1.0622911   -3.1284105   -3.1284105   -1.5349769   0.12522018   -3.1284105    1.5934336   518400 
 2167000    1.0614534   -3.1265416   -3.1265416   -1.5343647   0.12300644   -3.1265416     1.592177   518400 
 2168000    1.0623999   -3.1281276   -3.1281276   -1.5345308   0.12059082   -3.1281276    1.5935968   518400 
 2169000    1.0632956   -3.1286959   -3.1286959   -1.5337556   0.12191727   -3.1286959    1.5949403   518400 
 2170000    1.0639046   -3.1289518   -3.1289518    -1.533098   0.12794268   -3.1289518    1.5958538   518400 
 2171000    1.0635537   -3.1293561   -3.1293561   -1.5340286    0.1290865   -3.1293561    1.5953275   518400 
 2172000    1.0641019   -3.1295538   -3.1295538   -1.5334039   0.13472796   -3.1295538    1.5961498   518400 
 2173000    1.0635458    -3.128927    -3.128927   -1.5336114   0.12842624    -3.128927    1.5953156   518400 
 2174000    1.0636979   -3.1291704   -3.1291704   -1.5336267   0.13141698   -3.1291704    1.5955438   518400 
 2175000    1.0622915   -3.1264192   -3.1264192   -1.5329851   0.13621389   -3.1264192    1.5934341   518400 
 2176000    1.0651176   -3.1291634   -3.1291634     -1.53149   0.12657828   -3.1291634    1.5976734   518400 
 2177000    1.0636538   -3.1284548   -3.1284548   -1.5329771   0.12267907   -3.1284548    1.5954777   518400 
 2178000    1.0641331   -3.1284927   -3.1284927   -1.5322961   0.13629191   -3.1284927    1.5961966   518400 
 2179000    1.0640044    -3.128547    -3.128547   -1.5325435   0.12972447    -3.128547    1.5960035   518400 
 2180000    1.0633725   -3.1266971   -3.1266971   -1.5316414   0.12334402   -3.1266971    1.5950557   518400 
 2181000    1.0640765   -3.1282957   -3.1282957   -1.5321839   0.12973986   -3.1282957    1.5961117   518400 
 2182000    1.0665088   -3.1327022   -3.1327022   -1.5329421   0.12487411   -3.1327022    1.5997601   518400 
 2183000    1.0636143   -3.1291163   -3.1291163   -1.5336978   0.12308813   -3.1291163    1.5954184   518400 
 2184000    1.0637569   -3.1282151   -3.1282151   -1.5325829   0.12783263   -3.1282151    1.5956322   518400 
 2185000    1.0631307   -3.1269518   -3.1269518   -1.5322589   0.13043651   -3.1269518    1.5946929   518400 
 2186000    1.0644738   -3.1284506   -3.1284506    -1.531743   0.12684874   -3.1284506    1.5967076   518400 
 2187000    1.0630633   -3.1260658   -3.1260658    -1.531474   0.13294215   -3.1260658    1.5945918   518400 
 2188000    1.0624537   -3.1230463   -3.1230463   -1.5293688   0.13050818   -3.1230463    1.5936775   518400 
 2189000     1.065138   -3.1276923   -3.1276923   -1.5299883   0.13304717   -3.1276923     1.597704   518400 
 2190000    1.0644427    -3.126851    -3.126851     -1.53019   0.12867818    -3.126851     1.596661   518400 
 2191000    1.0634998   -3.1257826   -3.1257826   -1.5305361   0.13027807   -3.1257826    1.5952466   518400 
 2192000     1.064115   -3.1275166   -3.1275166   -1.5313472    0.1213778   -3.1275166    1.5961695   518400 
 2193000    1.0637583   -3.1267603   -3.1267603   -1.5311259   0.12521939   -3.1267603    1.5956343   518400 
 2194000    1.0644637   -3.1266911   -3.1266911   -1.5299987   0.12334944   -3.1266911    1.5966924   518400 
 2195000     1.065458   -3.1276302   -3.1276302   -1.5294463   0.12962648   -3.1276302     1.598184   518400 
 2196000     1.065241   -3.1263354   -3.1263354    -1.528477   0.12539158   -3.1263354    1.5978584   518400 
 2197000    1.0630723   -3.1226322   -3.1226322   -1.5280267   0.13042425   -3.1226322    1.5946054   518400 
 2198000    1.0634772   -3.1230048   -3.1230048   -1.5277921   0.12474333   -3.1230048    1.5952127   518400 
 2199000    1.0637933   -3.1238907   -3.1238907   -1.5282038    0.1270925   -3.1238907    1.5956868   518400 
 2200000    1.0639845   -3.1243131   -3.1243131   -1.5283395   0.12540802   -3.1243131    1.5959736   518400 
 2201000    1.0636796   -3.1232351   -3.1232351   -1.5277188    0.1273444   -3.1232351    1.5955164   518400 
 2202000    1.0640971   -3.1239997   -3.1239997   -1.5278571   0.12635605   -3.1239997    1.5961426   518400 
 2203000    1.0655767   -3.1245237   -3.1245237   -1.5261618     0.123402   -3.1245237    1.5983619   518400 
 2204000    1.0648494   -3.1241195   -3.1241195   -1.5268486   0.12723669   -3.1241195     1.597271   518400 
 2205000    1.0649033   -3.1244897   -3.1244897   -1.5271378   0.12411692   -3.1244897    1.5973519   518400 
 2206000    1.0648471   -3.1240658   -3.1240658   -1.5267982   0.12603587   -3.1240658    1.5972676   518400 
 2207000    1.0656024   -3.1251346   -3.1251346   -1.5267341   0.12949315   -3.1251346    1.5984005   518400 
 2208000    1.0658885    -3.125017    -3.125017   -1.5261873     0.130655    -3.125017    1.5988296   518400 
 2209000    1.0650381   -3.1254515   -3.1254515   -1.5278973   0.12964598   -3.1254515    1.5975541   518400 
 2210000    1.0639139   -3.1227148   -3.1227148    -1.526847   0.13405937   -3.1227148    1.5958678   518400 
 2211000    1.0646006   -3.1236379   -3.1236379     -1.52674    0.1274738   -3.1236379    1.5968978   518400 
 2212000    1.0646874   -3.1235631   -3.1235631   -1.5265351   0.13310165   -3.1235631     1.597028   518400 
 2213000    1.0646948   -3.1235523   -3.1235523   -1.5265132   0.12770373   -3.1235523    1.5970392   518400 
 2214000    1.0646523   -3.1233766   -3.1233766   -1.5264012   0.12859784   -3.1233766    1.5969754   518400 
 2215000    1.0649923   -3.1228275   -3.1228275   -1.5253421   0.12795257   -3.1228275    1.5974854   518400 
 2216000    1.0652563   -3.1230975   -3.1230975   -1.5252162   0.12734574   -3.1230975    1.5978814   518400 
 2217000    1.0660479    -3.122783    -3.122783   -1.5237142   0.13180972    -3.122783    1.5990688   518400 
 2218000    1.0664214   -3.1233683   -3.1233683   -1.5237392   0.13293232   -3.1233683    1.5996291   518400 
 2219000    1.0655892   -3.1215119   -3.1215119   -1.5231311   0.13610121   -3.1215119    1.5983807   518400 
 2220000    1.0652006   -3.1221606   -3.1221606   -1.5243628   0.12848649   -3.1221606    1.5977979   518400 
 2221000    1.0659543   -3.1225735   -3.1225735   -1.5236451   0.13201467   -3.1225735    1.5989284   518400 
 2222000    1.0656337   -3.1211927   -3.1211927   -1.5227453   0.12925551   -3.1211927    1.5984474   518400 
 2223000    1.0661062    -3.121462    -3.121462   -1.5223057   0.12989778    -3.121462    1.5991563   518400 
 2224000    1.0671298   -3.1215777   -3.1215777   -1.5208862   0.13665994   -3.1215777    1.6006916   518400 
 2225000    1.0656079   -3.1184521   -3.1184521   -1.5200434   0.13881943   -3.1184521    1.5984088   518400 
 2226000    1.0669819   -3.1213231   -3.1213231   -1.5208534   0.13269447   -3.1213231    1.6004697   518400 
 2227000    1.0670902   -3.1207671   -3.1207671   -1.5201349   0.13410867   -3.1207671    1.6006322   518400 
 2228000    1.0680211   -3.1222089   -3.1222089   -1.5201802    0.1308142   -3.1222089    1.6020286   518400 
 2229000    1.0691682   -3.1230456   -3.1230456   -1.5192964   0.13075828   -3.1230456    1.6037493   518400 
 2230000    1.0681764   -3.1222567   -3.1222567   -1.5199951   0.13209494   -3.1222567    1.6022616   518400 
 2231000    1.0660447   -3.1197875   -3.1197875   -1.5207236   0.13230022   -3.1197875    1.5990639   518400 
 2232000    1.0681961   -3.1222806   -3.1222806   -1.5199895   0.13152124   -3.1222806    1.6022911   518400 
 2233000    1.0665752   -3.1198239   -3.1198239   -1.5199642   0.13410382   -3.1198239    1.5998597   518400 
 2234000    1.0687356   -3.1220113   -3.1220113    -1.518911   0.13054363   -3.1220113    1.6031003   518400 
 2235000    1.0690535   -3.1217753   -3.1217753   -1.5181981   0.13119377   -3.1217753    1.6035772   518400 
 2236000    1.0666638    -3.118154    -3.118154   -1.5181614    0.1322432    -3.118154    1.5999927   518400 
 2237000    1.0677011   -3.1200003   -3.1200003   -1.5184518   0.12925426   -3.1200003    1.6015486   518400 
 2238000    1.0681408   -3.1200825   -3.1200825   -1.5178745    0.1358299   -3.1200825    1.6022081   518400 
 2239000    1.0660364   -3.1178319   -3.1178319   -1.5187803   0.13380044   -3.1178319    1.5990516   518400 
 2240000    1.0689904   -3.1218709   -3.1218709   -1.5183883   0.13605507   -3.1218709    1.6034826   518400 
 2241000    1.0699346   -3.1218433   -3.1218433   -1.5169444   0.13437006   -3.1218433    1.6048988   518400 
 2242000    1.0698712    -3.122011    -3.122011   -1.5172073     0.132881    -3.122011    1.6048037   518400 
 2243000    1.0679992   -3.1190884   -3.1190884   -1.5170927   0.13554685   -3.1190884    1.6019958   518400 
 2244000     1.068735   -3.1202098   -3.1202098   -1.5171105   0.13208201   -3.1202098    1.6030993   518400 
 2245000    1.0677915   -3.1190812   -3.1190812    -1.517397   0.13437826   -3.1190812    1.6016842   518400 
 2246000    1.0673121   -3.1183356   -3.1183356   -1.5173705   0.13150168   -3.1183356    1.6009651   518400 
 2247000    1.0674148   -3.1174757   -3.1174757   -1.5163566   0.13415759   -3.1174757    1.6011191   518400 
 2248000    1.0666279   -3.1164253   -3.1164253   -1.5164865   0.13353167   -3.1164253    1.5999388   518400 
 2249000    1.0685165   -3.1174834   -3.1174834   -1.5147118   0.13333568   -3.1174834    1.6027716   518400 
 2250000    1.0696427   -3.1195604   -3.1195604   -1.5150994   0.12886211   -3.1195604     1.604461   518400 
 2251000    1.0693929   -3.1191087   -3.1191087   -1.5150225   0.13517745   -3.1191087    1.6040862   518400 
 2252000    1.0695663   -3.1197388   -3.1197388   -1.5153924   0.13641009   -3.1197388    1.6043463   518400 
 2253000    1.0688431   -3.1183083   -3.1183083   -1.5150467   0.13680327   -3.1183083    1.6032616   518400 
 2254000    1.0693082   -3.1183616   -3.1183616   -1.5144024   0.13493533   -3.1183616    1.6039592   518400 
 2255000     1.070139   -3.1186099   -3.1186099   -1.5134045   0.13326992   -3.1186099    1.6052055   518400 
 2256000     1.069053   -3.1160307   -3.1160307   -1.5124542    0.1334102   -3.1160307    1.6035764   518400 
 2257000    1.0695997   -3.1161909   -3.1161909   -1.5117944   0.13317332   -3.1161909    1.6043965   518400 
 2258000    1.0714471   -3.1169776   -3.1169776   -1.5098101   0.13423532   -3.1169776    1.6071675   518400 
 2259000    1.0687009   -3.1139275   -3.1139275   -1.5108793   0.13221213   -3.1139275    1.6030482   518400 
 2260000    1.0701324   -3.1156511   -3.1156511   -1.5104557    0.1354044   -3.1156511    1.6051954   518400 
 2261000    1.0696302   -3.1149749   -3.1149749   -1.5105326   0.13738747   -3.1149749    1.6044423   518400 
 2262000    1.0694803   -3.1148753   -3.1148753   -1.5106579   0.13365923   -3.1148753    1.6042174   518400 
 2263000    1.0709926   -3.1165685   -3.1165685   -1.5100828   0.13282087   -3.1165685    1.6064857   518400 
 2264000    1.0706424   -3.1164254   -3.1164254   -1.5104649   0.13289242   -3.1164254    1.6059605   518400 
 2265000    1.0693706   -3.1154066   -3.1154066   -1.5113538   0.13730642   -3.1154066    1.6040529   518400 
 2266000     1.070895   -3.1165756   -3.1165756   -1.5102361   0.13611243   -3.1165756    1.6063395   518400 
 2267000    1.0700138   -3.1155182   -3.1155182   -1.5105005   0.13668108   -3.1155182    1.6050176   518400 
 2268000    1.0699506   -3.1149143   -3.1149143   -1.5099914   0.14028365   -3.1149143    1.6049229   518400 
 2269000     1.070032   -3.1143197   -3.1143197   -1.5092749   0.13586371   -3.1143197    1.6050449   518400 
 2270000    1.0716119   -3.1161517   -3.1161517   -1.5087369   0.14151368   -3.1161517    1.6074148   518400 
 2271000    1.0704818   -3.1141187   -3.1141187   -1.5083992   0.13801401   -3.1141187    1.6057196   518400 
 2272000    1.0710634   -3.1146849   -3.1146849   -1.5080929   0.13560846   -3.1146849     1.606592   518400 
 2273000    1.0711845   -3.1155773   -3.1155773   -1.5088036   0.13733998   -3.1155773    1.6067737   518400 
 2274000    1.0695172   -3.1125793   -3.1125793   -1.5083065    0.1392235   -3.1125793    1.6042727   518400 
 2275000    1.0720279   -3.1154815   -3.1154815   -1.5074428   0.13716643   -3.1154815    1.6080387   518400 
 2276000    1.0703131   -3.1135357   -3.1135357   -1.5080691   0.13695075   -3.1135357    1.6054666   518400 
 2277000     1.070704   -3.1142776   -3.1142776   -1.5082247   0.13788593   -3.1142776    1.6060529   518400 
 2278000    1.0714917   -3.1142612   -3.1142612   -1.5070268   0.13961972   -3.1142612    1.6072344   518400 
 2279000    1.0725011    -3.115793    -3.115793   -1.5070444   0.13717973    -3.115793    1.6087486   518400 
 2280000    1.0721315   -3.1161609   -3.1161609   -1.5079667   0.13508125   -3.1161609    1.6081942   518400 
 2281000    1.0710936   -3.1139087   -3.1139087   -1.5072714    0.1394635   -3.1139087    1.6066373   518400 
 2282000    1.0711027   -3.1137038   -3.1137038   -1.5070529   0.13908208   -3.1137038    1.6066509   518400 
 2283000    1.0718798   -3.1149413   -3.1149413   -1.5071248   0.13686226   -3.1149413    1.6078165   518400 
 2284000    1.0726577   -3.1150483   -3.1150483   -1.5060649   0.13692502   -3.1150483    1.6089834   518400 
 2285000    1.0739387   -3.1165659   -3.1165659    -1.505661   0.13707768   -3.1165659    1.6109049   518400 
 2286000    1.0731101   -3.1136179   -3.1136179   -1.5039559   0.13377569   -3.1136179     1.609662   518400 
 2287000    1.0725474   -3.1133102   -3.1133102   -1.5044922   0.14260129   -3.1133102    1.6088181   518400 
 2288000    1.0729678   -3.1138006   -3.1138006   -1.5043521   0.13644795   -3.1138006    1.6094485   518400 
 2289000    1.0726756   -3.1126508   -3.1126508   -1.5036405   0.14265694   -3.1126508    1.6090103   518400 
 2290000    1.0712832    -3.111347    -3.111347   -1.5044254   0.14240787    -3.111347    1.6069216   518400 
 2291000    1.0725465   -3.1127506   -3.1127506    -1.503934   0.13839367   -3.1127506    1.6088166   518400 
 2292000    1.0739539   -3.1144488   -3.1144488    -1.503521   0.13844416   -3.1144488    1.6109277   518400 
 2293000    1.0715801   -3.1110587   -3.1110587   -1.5036917   0.13036427   -3.1110587     1.607367   518400 
 2294000    1.0715867   -3.1099933   -3.1099933   -1.5026163   0.13476328   -3.1099933     1.607377   518400 
 2295000    1.0722433   -3.1107715   -3.1107715   -1.5024097   0.13436542   -3.1107715    1.6083618   518400 
 2296000    1.0734356   -3.1114878   -3.1114878   -1.5013375   0.13070444   -3.1114878    1.6101504   518400 
 2297000    1.0723751   -3.1108884   -3.1108884   -1.5023288   0.13543859   -3.1108884    1.6085596   518400 
 2298000    1.0724166   -3.1100362   -3.1100362   -1.5014144   0.14355801   -3.1100362    1.6086218   518400 
 2299000    1.0731173   -3.1110653   -3.1110653   -1.5013924   0.13350859   -3.1110653    1.6096729   518400 
 2300000    1.0730737   -3.1112199   -3.1112199   -1.5016125   0.13669468   -3.1112199    1.6096074   518400 
 2301000    1.0743183   -3.1120909   -3.1120909   -1.5006166   0.14355805   -3.1120909    1.6114743   518400 
 2302000    1.0732439   -3.1109777   -3.1109777   -1.5011149   0.13769723   -3.1109777    1.6098628   518400 
 2303000    1.0730916   -3.1111097   -3.1111097   -1.5014755   0.13694023   -3.1111097    1.6096342   518400 
 2304000    1.0732288   -3.1109786   -3.1109786   -1.5011385   0.13634297   -3.1109786    1.6098401   518400 
 2305000    1.0717565   -3.1081955   -3.1081955   -1.5005639   0.14656588   -3.1081955    1.6076316   518400 
 2306000    1.0733694   -3.1104892   -3.1104892   -1.5004382   0.13554584   -3.1104892     1.610051   518400 
 2307000    1.0724518   -3.1094812   -3.1094812   -1.5008065   0.14395098   -3.1094812    1.6086747   518400 
 2308000    1.0745219   -3.1121031   -3.1121031   -1.5003233   0.13605946   -3.1121031    1.6117798   518400 
 2309000    1.0721694   -3.1087605   -3.1087605   -1.5005094   0.14262076   -3.1087605     1.608251   518400 
 2310000    1.0744589    -3.111199    -3.111199   -1.4995137   0.14373307    -3.111199    1.6116853   518400 
 2311000    1.0743699   -3.1111367   -3.1111367   -1.4995849    0.1377856   -3.1111367    1.6115518   518400 
 2312000     1.074099   -3.1096176   -3.1096176   -1.4984721   0.14387119   -3.1096176    1.6111455   518400 
 2313000    1.0737475   -3.1089507   -3.1089507   -1.4983326   0.14717161   -3.1089507    1.6106181   518400 
 2314000    1.0741956   -3.1095454   -3.1095454    -1.498255   0.13550691   -3.1095454    1.6112904   518400 
 2315000    1.0733845   -3.1084674   -3.1084674   -1.4983938    0.1374993   -3.1084674    1.6100737   518400 
 2316000    1.0728441   -3.1076863   -3.1076863   -1.4984233   0.13985969   -3.1076863     1.609263   518400 
 2317000    1.0735733    -3.107626    -3.107626   -1.4972691   0.14019783    -3.107626    1.6103568   518400 
 2318000    1.0743162   -3.1079601   -3.1079601   -1.4964889   0.14071628   -3.1079601    1.6114712   518400 
 2319000    1.0744769   -3.1075193   -3.1075193    -1.495807   0.13973032   -3.1075193    1.6117123   518400 
 2320000    1.0757379   -3.1087808   -3.1087808    -1.495177   0.14375901   -3.1087808    1.6136037   518400 
 2321000    1.0754955   -3.1089453   -3.1089453   -1.4957052   0.13470106   -3.1089453    1.6132402   518400 
 2322000    1.0745035   -3.1068798   -3.1068798   -1.4951277   0.14369746   -3.1068798    1.6117521   518400 
 2323000    1.0757362   -3.1083888   -3.1083888   -1.4947876   0.13799401   -3.1083888    1.6136012   518400 
 2324000    1.0747932   -3.1069299   -3.1069299   -1.4947432   0.14327362   -3.1069299    1.6121867   518400 
 2325000    1.0751528   -3.1070154   -3.1070154   -1.4942893   0.14516037   -3.1070154    1.6127261   518400 
 2326000    1.0753736   -3.1056578   -3.1056578   -1.4926005   0.14403864   -3.1056578    1.6130573   518400 
 2327000    1.0761882   -3.1070715   -3.1070715   -1.4927923    0.1428936   -3.1070715    1.6142793   518400 
 2328000     1.074919   -3.1051276   -3.1051276   -1.4927522   0.14205692   -3.1051276    1.6123754   518400 
 2329000    1.0758343   -3.1054377   -3.1054377   -1.4916894   0.14264433   -3.1054377    1.6137483   518400 
 2330000    1.0765282   -3.1074406   -3.1074406   -1.4926514   0.14249957   -3.1074406    1.6147892   518400 
 2331000    1.0768695   -3.1069151   -3.1069151    -1.491614   0.14219416   -3.1069151    1.6153012   518400 
 2332000      1.07636   -3.1053905   -3.1053905   -1.4908536   0.13868729   -3.1053905    1.6145369   518400 
 2333000    1.0754954   -3.1042798   -3.1042798   -1.4910398   0.14458222   -3.1042798      1.61324   518400 
 2334000    1.0761325   -3.1050033   -3.1050033   -1.4908077   0.14409526   -3.1050033    1.6141956   518400 
 2335000    1.0773825   -3.1081587   -3.1081587    -1.492088   0.13695104   -3.1081587    1.6160707   518400 
 2336000    1.0753302   -3.1053443   -3.1053443   -1.4923521   0.14207421   -3.1053443    1.6129923   518400 
 2337000    1.0766924   -3.1061276   -3.1061276   -1.4910921   0.14194107   -3.1061276    1.6150355   518400 
 2338000     1.076256   -3.1062767   -3.1062767   -1.4918958   0.14415459   -3.1062767    1.6143809   518400 
 2339000    1.0760789   -3.1052698   -3.1052698   -1.4911546   0.13860759   -3.1052698    1.6141152   518400 
 2340000    1.0770857    -3.106359    -3.106359   -1.4907336   0.14463945    -3.106359    1.6156254   518400 
 2341000    1.0765064   -3.1051215   -3.1051215    -1.490365   0.14854719   -3.1051215    1.6147565   518400 
 2342000    1.0775005   -3.1059016   -3.1059016   -1.4896539   0.14114026   -3.1059016    1.6162476   518400 
 2343000    1.0760372   -3.1047227   -3.1047227     -1.49067   0.14857119   -3.1047227    1.6140527   518400 
 2344000     1.077119    -3.105393    -3.105393   -1.4897176   0.14726608    -3.105393    1.6156754   518400 
 2345000    1.0776644   -3.1064356   -3.1064356   -1.4899422   0.14379884   -3.1064356    1.6164934   518400 
 2346000     1.075477   -3.1039328   -3.1039328   -1.4907204   0.14351737   -3.1039328    1.6132124   518400 
 2347000    1.0744027   -3.1023987   -3.1023987   -1.4907978   0.14598145   -3.1023987    1.6116009   518400 
 2348000    1.0744183    -3.102712    -3.102712   -1.4910877   0.14323919    -3.102712    1.6116243   518400 
 2349000    1.0758578   -3.1055131   -3.1055131   -1.4917294    0.1406034   -3.1055131    1.6137836   518400 
 2350000    1.0764992   -3.1052092   -3.1052092   -1.4904635   0.13881614   -3.1052092    1.6147457   518400 
 2351000    1.0741617   -3.1009336   -3.1009336   -1.4896942   0.14041223   -3.1009336    1.6112394   518400 
 2352000    1.0748262   -3.1022127   -3.1022127   -1.4899765   0.14202454   -3.1022127    1.6122362   518400 
 2353000    1.0752906   -3.1032907   -3.1032907   -1.4903579   0.14330479   -3.1032907    1.6129328   518400 
 2354000    1.0764084   -3.1062488   -3.1062488   -1.4916393   0.13305773   -3.1062488    1.6146095   518400 
 2355000    1.0762338   -3.1053547   -3.1053547   -1.4910071   0.14125948   -3.1053547    1.6143476   518400 
 2356000    1.0754678   -3.1032179   -3.1032179   -1.4900194    0.1372306   -3.1032179    1.6131985   518400 
 2357000    1.0748649   -3.1026769   -3.1026769   -1.4903826   0.14216704   -3.1026769    1.6122943   518400 
 2358000    1.0751032   -3.1028655   -3.1028655   -1.4902138   0.14100927   -3.1028655    1.6126517   518400 
 2359000    1.0750994   -3.1012046   -3.1012046   -1.4885587   0.14252172   -3.1012046     1.612646   518400 
 2360000    1.0769595   -3.1043525   -3.1043525   -1.4889164   0.13812988   -3.1043525    1.6154361   518400 
 2361000    1.0766145    -3.102835    -3.102835   -1.4879164   0.14306359    -3.102835    1.6149186   518400 
 2362000    1.0773971   -3.1031128   -3.1031128   -1.4870202   0.13987879   -3.1031128    1.6160925   518400 
 2363000    1.0776787    -3.103342    -3.103342   -1.4868271   0.13812022    -3.103342    1.6165149   518400 
 2364000    1.0762251   -3.1015957   -3.1015957   -1.4872611   0.13941579   -3.1015957    1.6143346   518400 
 2365000    1.0773081   -3.1025549   -3.1025549   -1.4865958   0.15062171   -3.1025549    1.6159591   518400 
 2366000     1.076846   -3.1015824   -3.1015824   -1.4863166    0.1393173   -3.1015824    1.6152659   518400 
 2367000    1.0782462   -3.1028509   -3.1028509   -1.4854847   0.14257832   -3.1028509    1.6173662   518400 
 2368000    1.0766654   -3.1011503   -3.1011503   -1.4861553   0.14566397   -3.1011503    1.6149951   518400 
 2369000    1.0777042   -3.1015691   -3.1015691   -1.4850159   0.14044228   -3.1015691    1.6165532   518400 
 2370000    1.0775355   -3.1019863   -3.1019863   -1.4856861   0.14194549   -3.1019863    1.6163001   518400 
 2371000    1.0769358    -3.101422    -3.101422   -1.4860215   0.14639842    -3.101422    1.6154005   518400 
 2372000    1.0766268   -3.1017015   -3.1017015   -1.4867644   0.14005379   -3.1017015    1.6149371   518400 
 2373000    1.0761519   -3.1007562   -3.1007562   -1.4865315   0.14450096   -3.1007562    1.6142247   518400 
 2374000     1.076494   -3.1000813   -3.1000813   -1.4853434   0.14459638   -3.1000813    1.6147378   518400 
 2375000    1.0773436   -3.1014091   -3.1014091   -1.4853969   0.14389882   -3.1014091    1.6160122   518400 
 2376000       1.0771   -3.1012515   -3.1012515   -1.4856046   0.14004993   -3.1012515    1.6156469   518400 
 2377000    1.0775957    -3.102881    -3.102881   -1.4864906   0.14052165    -3.102881    1.6163904   518400 
 2378000    1.0772149   -3.1021112   -3.1021112   -1.4862919   0.14291123   -3.1021112    1.6158193   518400 
 2379000    1.0798871   -3.1046946   -3.1046946   -1.4848671    0.1448837   -3.1046946    1.6198275   518400 
 2380000    1.0799158   -3.1037925   -3.1037925   -1.4839219   0.14465181   -3.1037925    1.6198706   518400 
 2381000    1.0786038   -3.1013495   -3.1013495   -1.4834469   0.14451471   -3.1013495    1.6179026   518400 
 2382000    1.0771193   -3.0999696   -3.0999696   -1.4842938   0.14649607   -3.0999696    1.6156758   518400 
 2383000    1.0780419   -3.1015077   -3.1015077   -1.4844479   0.14340476   -3.1015077    1.6170598   518400 
 2384000    1.0783936   -3.1005124   -3.1005124   -1.4829251   0.13756615   -3.1005124    1.6175873   518400 
 2385000    1.0793767   -3.1004889   -3.1004889   -1.4814269   0.14588189   -3.1004889     1.619062   518400 
 2386000    1.0779419   -3.0989638   -3.0989638   -1.4820541   0.14368036   -3.0989638    1.6169097   518400 
 2387000    1.0794992    -3.100161    -3.100161   -1.4809153   0.14149267    -3.100161    1.6192457   518400 
 2388000    1.0785695    -3.097902    -3.097902   -1.4800509   0.14462654    -3.097902    1.6178511   518400 
 2389000    1.0776867   -3.0972106   -3.0972106   -1.4806836   0.14881177   -3.0972106    1.6165269   518400 
 2390000    1.0802602   -3.1004636   -3.1004636   -1.4800764   0.14310857   -3.1004636    1.6203872   518400 
 2391000    1.0801107   -3.0997836   -3.0997836   -1.4796206   0.13904791   -3.0997836     1.620163   518400 
 2392000    1.0797447   -3.1002437   -3.1002437   -1.4806298   0.13831882   -3.1002437    1.6196139   518400 
 2393000    1.0802463   -3.0999982   -3.0999982   -1.4796319   0.14309976   -3.0999982    1.6203663   518400 
 2394000    1.0801497   -3.0996021   -3.0996021   -1.4793807   0.14121573   -3.0996021    1.6202215   518400 
 2395000    1.0812823   -3.1018328   -3.1018328   -1.4799124    0.1464885   -3.1018328    1.6219204   518400 
 2396000     1.080697   -3.1006459   -3.1006459   -1.4796035   0.15200815   -3.1006459    1.6210424   518400 
 2397000    1.0798358   -3.0985851   -3.0985851   -1.4788346    0.1473748   -3.0985851    1.6197505   518400 
 2398000    1.0814919   -3.1005401   -3.1005401   -1.4783053   0.13977463   -3.1005401    1.6222347   518400 
 2399000    1.0793241   -3.0978096   -3.0978096   -1.4788266   0.14388641   -3.0978096    1.6189831   518400 
 2400000    1.0800541    -3.098416    -3.098416    -1.478338   0.14440778    -3.098416     1.620078   518400 
 2401000    1.0798796   -3.0983587   -3.0983587   -1.4785424   0.14656849   -3.0983587    1.6198163   518400 
 2402000    1.0803468   -3.0984537   -3.0984537   -1.4779366   0.14995717   -3.0984537    1.6205171   518400 
 2403000     1.079269   -3.0973188   -3.0973188   -1.4784184   0.14864956   -3.0973188    1.6189004   518400 
 2404000    1.0798747   -3.0982279   -3.0982279   -1.4784189   0.15350611   -3.0982279    1.6198089   518400 
 2405000    1.0806189   -3.0975945   -3.0975945   -1.4766694   0.14353905   -3.0975945    1.6209252   518400 
 2406000    1.0804924   -3.0961184   -3.0961184   -1.4753829   0.14636398   -3.0961184    1.6207355   518400 
 2407000    1.0821893   -3.0989955   -3.0989955   -1.4757147   0.14750926   -3.0989955    1.6232809   518400 
 2408000    1.0802139   -3.0965818   -3.0965818    -1.476264   0.14967319   -3.0965818    1.6203178   518400 
 2409000    1.0805061   -3.0958063   -3.0958063   -1.4750502   0.15034274   -3.0958063    1.6207561   518400 
 2410000    1.0810445   -3.0964742   -3.0964742   -1.4749106   0.14849499   -3.0964742    1.6215636   518400 
 2411000    1.0810434   -3.0952742   -3.0952742   -1.4737122   0.15179255   -3.0952742     1.621562   518400 
 2412000    1.0823368   -3.0975764   -3.0975764   -1.4740743   0.14679226   -3.0975764    1.6235021   518400 
 2413000    1.0818594   -3.0962561   -3.0962561   -1.4734702   0.14765045   -3.0962561    1.6227859   518400 
 2414000    1.0818599   -3.0963047   -3.0963047   -1.4735179   0.14944761   -3.0963047    1.6227868   518400 
 2415000    1.0816345   -3.0958897   -3.0958897   -1.4734411   0.14728728   -3.0958897    1.6224486   518400 
 2416000    1.0820822   -3.0969315   -3.0969315   -1.4738114   0.15286718   -3.0969315    1.6231202   518400 
 2417000    1.0816139   -3.0966054   -3.0966054   -1.4741877   0.14763808   -3.0966054    1.6224177   518400 
 2418000    1.0820879   -3.0962995   -3.0962995   -1.4731708   0.15162678   -3.0962995    1.6231287   518400 
 2419000      1.08229   -3.0949722   -3.0949722   -1.4715403   0.15236355   -3.0949722    1.6234319   518400 
 2420000    1.0826405   -3.0948299   -3.0948299   -1.4708723   0.14809301   -3.0948299    1.6239576   518400 
 2421000    1.0823994   -3.0943573   -3.0943573   -1.4707613    0.1501415   -3.0943573     1.623596   518400 
 2422000     1.082588   -3.0930423   -3.0930423   -1.4691635   0.14894727   -3.0930423    1.6238789   518400 
 2423000    1.0824345   -3.0945524   -3.0945524   -1.4709038   0.14203143   -3.0945524    1.6236486   518400 
 2424000    1.0817124   -3.0933598   -3.0933598   -1.4707943   0.14698789   -3.0933598    1.6225655   518400 
 2425000    1.0830058   -3.0945203   -3.0945203   -1.4700147   0.14897088   -3.0945203    1.6245056   518400 
 2426000    1.0843161   -3.0963632   -3.0963632   -1.4698922   0.15141303   -3.0963632     1.626471   518400 
 2427000    1.0829461   -3.0933793   -3.0933793   -1.4689633     0.155732   -3.0933793     1.624416   518400 
 2428000    1.0834102   -3.0943473   -3.0943473   -1.4692351   0.14635657   -3.0943473    1.6251122   518400 
 2429000    1.0837037   -3.0947908   -3.0947908   -1.4692384   0.15006967   -3.0947908    1.6255524   518400 
 2430000    1.0819378   -3.0921498   -3.0921498   -1.4692463   0.15190551   -3.0921498    1.6229035   518400 
 2431000    1.0841692   -3.0948925   -3.0948925   -1.4686419   0.14646148   -3.0948925    1.6262506   518400 
 2432000    1.0855531   -3.0947345   -3.0947345    -1.466408   0.15011167   -3.0947345    1.6283265   518400 
 2433000    1.0823324   -3.0907816   -3.0907816   -1.4672862   0.14541993   -3.0907816    1.6234954   518400 
 2434000    1.0832562   -3.0926288   -3.0926288   -1.4677476   0.14792918   -3.0926288    1.6248812   518400 
 2435000    1.0832372   -3.0932756   -3.0932756   -1.4684229   0.14968949   -3.0932756    1.6248526   518400 
 2436000    1.0849887   -3.0946465   -3.0946465   -1.4671666   0.14931149   -3.0946465    1.6274799   518400 
 2437000    1.0834119   -3.0938284   -3.0938284   -1.4687136   0.14629836   -3.0938284    1.6251148   518400 
 2438000    1.0839709   -3.0942408   -3.0942408   -1.4682875   0.15393854   -3.0942408    1.6259532   518400 
 2439000    1.0840768   -3.0933758   -3.0933758   -1.4672637   0.15006573   -3.0933758    1.6261121   518400 
 2440000    1.0822832     -3.09046     -3.09046   -1.4670383   0.15406749     -3.09046    1.6234217   518400 
 2441000    1.0844201   -3.0943514   -3.0943514   -1.4677244   0.14719419   -3.0943514     1.626627   518400 
 2442000    1.0839581   -3.0926075   -3.0926075   -1.4666736    0.1527346   -3.0926075     1.625934   518400 
 2443000    1.0849653   -3.0951149   -3.0951149     -1.46767   0.14757832   -3.0951149    1.6274448   518400 
 2444000    1.0845743   -3.0924001   -3.0924001   -1.4655418   0.14484658   -3.0924001    1.6268583   518400 
 2445000    1.0846095    -3.091839    -3.091839   -1.4649279   0.15075065    -3.091839    1.6269112   518400 
 2446000    1.0835621   -3.0908543   -3.0908543   -1.4655143   0.14878013   -3.0908543      1.62534   518400 
 2447000     1.083416   -3.0902191   -3.0902191   -1.4650982   0.14927039   -3.0902191    1.6251209   518400 
 2448000    1.0841586   -3.0915339   -3.0915339   -1.4652991   0.14255827   -3.0915339    1.6262348   518400 
 2449000    1.0850417   -3.0932001   -3.0932001   -1.4656406    0.1487915   -3.0932001    1.6275595   518400 
 2450000    1.0838748   -3.0912465   -3.0912465   -1.4654375   0.14232552   -3.0912465     1.625809   518400 
 2451000    1.0848314   -3.0929139   -3.0929139     -1.46567   0.15014239   -3.0929139    1.6272439   518400 
 2452000    1.0857479   -3.0931653   -3.0931653   -1.4645465   0.14911907   -3.0931653    1.6286188   518400 
 2453000     1.085064   -3.0932092   -3.0932092   -1.4656164   0.14991979   -3.0932092    1.6275928   518400 
 2454000     1.084487   -3.0902709   -3.0902709   -1.4635435   0.15027333   -3.0902709    1.6267273   518400 
 2455000    1.0849549   -3.0911795   -3.0911795   -1.4637503      0.15495   -3.0911795    1.6274292   518400 
 2456000    1.0842006   -3.0906261   -3.0906261   -1.4643284   0.14737683   -3.0906261    1.6262978   518400 
 2457000    1.0844603   -3.0917244   -3.0917244   -1.4650371   0.15238683   -3.0917244    1.6266873   518400 
 2458000    1.0842014   -3.0915277   -3.0915277   -1.4652287   0.15473528   -3.0915277     1.626299   518400 
 2459000    1.0844406    -3.090309    -3.090309   -1.4636512   0.14603469    -3.090309    1.6266578   518400 
 2460000    1.0846477   -3.0903155   -3.0903155    -1.463347   0.15434409   -3.0903155    1.6269685   518400 
 2461000    1.0846767   -3.0906528   -3.0906528    -1.463641   0.15504452   -3.0906528    1.6270118   518400 
 2462000    1.0846806   -3.0902749   -3.0902749   -1.4632572    0.1523686   -3.0902749    1.6270177   518400 
 2463000     1.083815   -3.0879286   -3.0879286   -1.4622093   0.15352965   -3.0879286    1.6257194   518400 
 2464000    1.0849673   -3.0893938   -3.0893938    -1.461946   0.15198588   -3.0893938    1.6274478   518400 
 2465000    1.0836031   -3.0879033   -3.0879033   -1.4625019   0.15193882   -3.0879033    1.6254014   518400 
 2466000    1.0846992   -3.0895171   -3.0895171   -1.4624715   0.15161165   -3.0895171    1.6270456   518400 
 2467000    1.0856936   -3.0902954   -3.0902954   -1.4617581   0.15420127   -3.0902954    1.6285373   518400 
 2468000    1.0841745   -3.0885581   -3.0885581   -1.4622994   0.15324807   -3.0885581    1.6262587   518400 
 2469000    1.0853203   -3.0894106   -3.0894106   -1.4614332   0.15687692   -3.0894106    1.6279774   518400 
 2470000    1.0870368   -3.0916994   -3.0916994   -1.4611474   0.15191119   -3.0916994     1.630552   518400 
 2471000    1.0856205   -3.0894483   -3.0894483   -1.4610206   0.14844476   -3.0894483    1.6284277   518400 
 2472000    1.0873663   -3.0915598   -3.0915598   -1.4605135   0.15689093   -3.0915598    1.6310463   518400 
 2473000    1.0864525   -3.0899846   -3.0899846    -1.460309   0.15438588   -3.0899846    1.6296755   518400 
 2474000    1.0869984   -3.0902343   -3.0902343   -1.4597398   0.15592631   -3.0902343    1.6304945   518400 
 2475000    1.0861605   -3.0901675   -3.0901675   -1.4609298   0.15502313   -3.0901675    1.6292376   518400 
 2476000    1.0868676   -3.0892826   -3.0892826   -1.4589843    0.1516964   -3.0892826    1.6302983   518400 
 2477000    1.0868957   -3.0893255   -3.0893255   -1.4589852   0.15451622   -3.0893255    1.6303404   518400 
 2478000    1.0872308   -3.0886567   -3.0886567   -1.4578137   0.15354873   -3.0886567    1.6308431   518400 
 2479000    1.0883093   -3.0891848   -3.0891848   -1.4567239    0.1508497   -3.0891848    1.6324608   518400 
 2480000    1.0870636    -3.087833    -3.087833   -1.4572407   0.15148672    -3.087833    1.6305923   518400 
 2481000    1.0886827   -3.0894082   -3.0894082   -1.4563873   0.15613842   -3.0894082    1.6330209   518400 
 2482000    1.0873588   -3.0875178   -3.0875178   -1.4564827    0.1592524   -3.0875178    1.6310351   518400 
 2483000    1.0873597   -3.0877577   -3.0877577   -1.4567213   0.16018028   -3.0877577    1.6310364   518400 
 2484000    1.0875963   -3.0889688   -3.0889688   -1.4575775   0.15395264   -3.0889688    1.6313913   518400 
 2485000    1.0879679    -3.089069    -3.089069   -1.4571204   0.15479353    -3.089069    1.6319487   518400 
 2486000    1.0862841    -3.087866    -3.087866   -1.4584429   0.15525574    -3.087866     1.629423   518400 
 2487000     1.086555    -3.087962    -3.087962   -1.4581326   0.15277845    -3.087962    1.6298294   518400 
 2488000    1.0877164    -3.089518    -3.089518   -1.4579465   0.15134651    -3.089518    1.6315714   518400 
 2489000    1.0876735   -3.0883631   -3.0883631    -1.456856   0.15185777   -3.0883631    1.6315071   518400 
 2490000    1.0867553   -3.0868475   -3.0868475   -1.4567177   0.15881229   -3.0868475    1.6301298   518400 
 2491000    1.0884022    -3.088206    -3.088206   -1.4556058   0.15771741    -3.088206    1.6326002   518400 
 2492000    1.0881323   -3.0882355   -3.0882355   -1.4560402   0.14981655   -3.0882355    1.6321953   518400 
 2493000    1.0872146   -3.0865789   -3.0865789   -1.4557602   0.15100206   -3.0865789    1.6308187   518400 
 2494000    1.0871961   -3.0856916   -3.0856916   -1.4549005   0.15498252   -3.0856916    1.6307911   518400 
 2495000    1.0883571   -3.0866366   -3.0866366   -1.4541041   0.15389565   -3.0866366    1.6325325   518400 
 2496000    1.0874272   -3.0851675   -3.0851675   -1.4540298   0.15103706   -3.0851675    1.6311377   518400 
 2497000    1.0876467   -3.0861196   -3.0861196   -1.4546527   0.15205857   -3.0861196    1.6314669   518400 
 2498000    1.0875875   -3.0852697   -3.0852697   -1.4538917    0.1549882   -3.0852697     1.631378   518400 
 2499000    1.0893391   -3.0867007   -3.0867007   -1.4526951   0.15761245   -3.0867007    1.6340055   518400 
 2500000    1.0903793   -3.0881238   -3.0881238    -1.452558   0.14951386   -3.0881238    1.6355659   518400 
 2501000    1.0893362   -3.0857898   -3.0857898   -1.4517886   0.15469235   -3.0857898    1.6340012   518400 
 2502000    1.0894156   -3.0863926   -3.0863926   -1.4522723   0.15881106   -3.0863926    1.6341203   518400 
 2503000    1.0894047   -3.0874344   -3.0874344   -1.4533304   0.15751588   -3.0874344     1.634104   518400 
 2504000    1.0893855   -3.0862994   -3.0862994   -1.4522243   0.15421297   -3.0862994    1.6340751   518400 
 2505000    1.0876227   -3.0842454   -3.0842454   -1.4528144   0.15877226   -3.0842454     1.631431   518400 
 2506000     1.089836   -3.0865924   -3.0865924   -1.4518416   0.15553591   -3.0865924    1.6347508   518400 
 2507000    1.0892825   -3.0862244   -3.0862244   -1.4523038   0.15737114   -3.0862244    1.6339206   518400 
 2508000    1.0896372   -3.0853835   -3.0853835   -1.4509308   0.14954866   -3.0853835    1.6344527   518400 
 2509000    1.0892534   -3.0853536   -3.0853536   -1.4514766   0.15450679   -3.0853536     1.633877   518400 
 2510000    1.0893726   -3.0863188   -3.0863188   -1.4522631      0.15477   -3.0863188    1.6340557   518400 
 2511000    1.0901459   -3.0872978   -3.0872978    -1.452082   0.15013125   -3.0872978    1.6352158   518400 
 2512000    1.0907315   -3.0873249   -3.0873249   -1.4512308   0.15939975   -3.0873249    1.6360941   518400 
 2513000    1.0897987   -3.0854983   -3.0854983   -1.4508034   0.15960123   -3.0854983    1.6346949   518400 
 2514000    1.0911262   -3.0862317   -3.0862317   -1.4495455   0.15507715   -3.0862317    1.6366862   518400 
 2515000     1.088651   -3.0825178   -3.0825178   -1.4495444   0.15994638   -3.0825178    1.6329733   518400 
 2516000     1.090017   -3.0853606   -3.0853606   -1.4503383   0.15710651   -3.0853606    1.6350224   518400 
 2517000    1.0898501   -3.0858288   -3.0858288   -1.4510569   0.15472377   -3.0858288    1.6347719   518400 
 2518000    1.0899496     -3.08525     -3.08525   -1.4503288   0.15782356     -3.08525    1.6349212   518400 
 2519000    1.0911386   -3.0855263   -3.0855263   -1.4488216   0.15577082   -3.0855263    1.6367047   518400 
 2520000    1.0893572   -3.0829553   -3.0829553   -1.4489226    0.1517965   -3.0829553    1.6340327   518400 
 2521000    1.0900251   -3.0827045   -3.0827045     -1.44767   0.15304162   -3.0827045    1.6350345   518400 
 2522000    1.0904066   -3.0843032   -3.0843032   -1.4486964   0.15474941   -3.0843032    1.6356067   518400 
 2523000    1.0885638   -3.0820193   -3.0820193   -1.4491768   0.15700954   -3.0820193    1.6328426   518400 
 2524000    1.0901777   -3.0848901   -3.0848901   -1.4496266   0.15797322   -3.0848901    1.6352634   518400 
 2525000    1.0897236   -3.0834527   -3.0834527   -1.4488704   0.15749066   -3.0834527    1.6345823   518400 
 2526000    1.0898641   -3.0823956   -3.0823956   -1.4476027   0.15971565   -3.0823956    1.6347929   518400 
 2527000    1.0902933   -3.0833039   -3.0833039    -1.447867   0.15751273   -3.0833039    1.6354369   518400 
 2528000    1.0889765   -3.0809904   -3.0809904   -1.4475288   0.15329731   -3.0809904    1.6334616   518400 
 2529000    1.0895373   -3.0824082   -3.0824082   -1.4481054    0.1568004   -3.0824082    1.6343027   518400 
 2530000    1.0886519   -3.0816056   -3.0816056   -1.4486309   0.16026381   -3.0816056    1.6329747   518400 
 2531000    1.0888822   -3.0823966   -3.0823966   -1.4490764   0.16111159   -3.0823966    1.6333202   518400 
 2532000    1.0903617   -3.0825869   -3.0825869   -1.4470475    0.1549246   -3.0825869    1.6355394   518400 
 2533000     1.090949   -3.0827409   -3.0827409   -1.4463206   0.15477838   -3.0827409    1.6364203   518400 
 2534000    1.0910983   -3.0833774   -3.0833774   -1.4467331   0.15261115   -3.0833774    1.6366444   518400 
 2535000    1.0908036   -3.0838954   -3.0838954   -1.4476932   0.15585723   -3.0838954    1.6362022   518400 
 2536000    1.0900995   -3.0831628   -3.0831628   -1.4480167   0.15635198   -3.0831628    1.6351461   518400 
 2537000    1.0886462   -3.0818026   -3.0818026   -1.4488364   0.15712312   -3.0818026    1.6329662   518400 
 2538000    1.0889829   -3.0817899   -3.0817899   -1.4483187   0.15475716   -3.0817899    1.6334712   518400 
 2539000    1.0900132   -3.0815268   -3.0815268   -1.4465102   0.15699526   -3.0815268    1.6350166   518400 
 2540000    1.0912188   -3.0824084   -3.0824084   -1.4455833   0.14511543   -3.0824084    1.6368251   518400 
 2541000    1.0915092   -3.0824607   -3.0824607      -1.4452   0.15033099   -3.0824607    1.6372607   518400 
 2542000    1.0908949   -3.0817329   -3.0817329   -1.4453937   0.15722157   -3.0817329    1.6363392   518400 
 2543000    1.0895971   -3.0799461   -3.0799461   -1.4455536   0.15864201   -3.0799461    1.6343925   518400 
 2544000     1.090819   -3.0806075   -3.0806075   -1.4443822   0.15588158   -3.0806075    1.6362253   518400 
 2545000    1.0914715   -3.0815976   -3.0815976   -1.4443934   0.15604138   -3.0815976    1.6372041   518400 
 2546000    1.0919501   -3.0807478   -3.0807478   -1.4428258   0.16228034   -3.0807478     1.637922   518400 
 2547000    1.0923388   -3.0811153   -3.0811153   -1.4426103   0.16211215   -3.0811153     1.638505   518400 
 2548000    1.0921169   -3.0815606   -3.0815606   -1.4433884   0.15482943   -3.0815606    1.6381722   518400 
 2549000    1.0913475   -3.0783203   -3.0783203   -1.4413022   0.15958015   -3.0783203    1.6370181   518400 
 2550000    1.0940192   -3.0820445   -3.0820445   -1.4410188   0.16281284   -3.0820445    1.6410257   518400 
 2551000    1.0941715   -3.0828771   -3.0828771    -1.441623   0.15682536   -3.0828771    1.6412541   518400 
 2552000    1.0941043   -3.0825278   -3.0825278   -1.4413745   0.15834466   -3.0825278    1.6411532   518400 
 2553000    1.0916244   -3.0795157   -3.0795157   -1.4420823   0.16097435   -3.0795157    1.6374334   518400 
 2554000    1.0931815   -3.0818884   -3.0818884   -1.4421193   0.15719585   -3.0818884    1.6397691   518400 
 2555000    1.0921462   -3.0794258   -3.0794258   -1.4412097   0.16011719   -3.0794258    1.6382161   518400 
 2556000    1.0920564   -3.0808472   -3.0808472   -1.4427658    0.1585448   -3.0808472    1.6380815   518400 
 2557000    1.0929111   -3.0820817   -3.0820817   -1.4427182   0.15549218   -3.0820817    1.6393635   518400 
 2558000    1.0919077   -3.0794202   -3.0794202   -1.4415618   0.16277147   -3.0794202    1.6378584   518400 
 2559000    1.0914543   -3.0780712   -3.0780712   -1.4408929   0.15195102   -3.0780712    1.6371783   518400 
 2560000    1.0917201   -3.0778047   -3.0778047   -1.4402277   0.15504655   -3.0778047     1.637577   518400 
 2561000    1.0927931   -3.0788725   -3.0788725   -1.4396861   0.15791836   -3.0788725    1.6391864   518400 
 2562000    1.0941081   -3.0800598   -3.0800598   -1.4389007   0.16372448   -3.0800598     1.641159   518400 
 2563000    1.0925259   -3.0783367   -3.0783367    -1.439551   0.15613847   -3.0783367    1.6387857   518400 
 2564000    1.0919674   -3.0774381   -3.0774381   -1.4394902   0.16230595   -3.0774381    1.6379479   518400 
 2565000    1.0914813   -3.0777676   -3.0777676   -1.4405488   0.16533029   -3.0777676    1.6372188   518400 
 2566000    1.0938318   -3.0796306   -3.0796306    -1.438886   0.15776693   -3.0796306    1.6407446   518400 
 2567000     1.093276   -3.0788529   -3.0788529   -1.4389421   0.16337341   -3.0788529    1.6399108   518400 
 2568000    1.0925981    -3.078326    -3.078326    -1.439432   0.15543717    -3.078326     1.638894   518400 
 2569000    1.0934067   -3.0786108   -3.0786108    -1.438504   0.15850256   -3.0786108    1.6401068   518400 
 2570000    1.0927439   -3.0777862   -3.0777862   -1.4386735   0.16065937   -3.0777862    1.6391127   518400 
 2571000    1.0925582   -3.0763893   -3.0763893   -1.4375551   0.15726745   -3.0763893    1.6388341   518400 
 2572000    1.0941207   -3.0786063   -3.0786063   -1.4374285   0.15892642   -3.0786063    1.6411779   518400 
 2573000    1.0929163   -3.0775842   -3.0775842    -1.438213    0.1576854   -3.0775842    1.6393713   518400 
 2574000    1.0939454   -3.0793288   -3.0793288   -1.4384139   0.15912081   -3.0793288    1.6409149   518400 
 2575000     1.094094   -3.0791715   -3.0791715   -1.4380336   0.15783552   -3.0791715    1.6411379   518400 
 2576000    1.0949243   -3.0799649   -3.0799649   -1.4375817   0.15458496   -3.0799649    1.6423832   518400 
 2577000    1.0939291   -3.0775428   -3.0775428   -1.4366523   0.16316097   -3.0775428    1.6408905   518400 
 2578000    1.0930946   -3.0765806   -3.0765806   -1.4369419    0.1616662   -3.0765806    1.6396387   518400 
 2579000    1.0932816   -3.0760457   -3.0760457   -1.4361264   0.16219846   -3.0760457    1.6399193   518400 
 2580000     1.093595   -3.0771933   -3.0771933   -1.4368039    0.1645056   -3.0771933    1.6403894   518400 
 2581000    1.0968255    -3.080846    -3.080846   -1.4356109   0.16388524    -3.080846     1.645235   518400 
 2582000    1.0953452   -3.0783987   -3.0783987   -1.4353841   0.15938168   -3.0783987    1.6430146   518400 
 2583000     1.095569   -3.0792037   -3.0792037   -1.4358534   0.16074303   -3.0792037    1.6433503   518400 
 2584000    1.0957272    -3.078873    -3.078873   -1.4352854   0.16621393    -3.078873    1.6435876   518400 
 2585000    1.0966776   -3.0783075   -3.0783075   -1.4332943   0.16344823   -3.0783075    1.6450132   518400 
 2586000    1.0958821   -3.0767385   -3.0767385   -1.4329186   0.16413421   -3.0767385      1.64382   518400 
 2587000    1.0971358   -3.0784377   -3.0784377   -1.4327371   0.15768889   -3.0784377    1.6457006   518400 
 2588000    1.0953518    -3.076405    -3.076405   -1.4333804   0.16150757    -3.076405    1.6430245   518400 
 2589000    1.0960204   -3.0778189   -3.0778189   -1.4337914   0.16143874   -3.0778189    1.6440275   518400 
 2590000    1.0946638   -3.0757486   -3.0757486    -1.433756   0.16478423   -3.0757486    1.6419925   518400 
 2591000    1.0953984   -3.0750483   -3.0750483   -1.4319538   0.16606492   -3.0750483    1.6430944   518400 
 2592000     1.095008   -3.0731723   -3.0731723   -1.4306635   0.16740688   -3.0731723    1.6425088   518400 
 2593000    1.0969457   -3.0775338   -3.0775338   -1.4321184   0.16284914   -3.0775338    1.6454154   518400 
 2594000    1.0959786   -3.0749847   -3.0749847   -1.4310199   0.16894384   -3.0749847    1.6439648   518400 
 2595000    1.0966238    -3.076791    -3.076791   -1.4318585   0.16327657    -3.076791    1.6449326   518400 
 2596000    1.0968008   -3.0770859   -3.0770859   -1.4318879   0.16139247   -3.0770859     1.645198   518400 
 2597000    1.0958208    -3.075686    -3.075686   -1.4319579   0.16792627    -3.075686     1.643728   518400 
 2598000    1.0970288   -3.0770921   -3.0770921   -1.4315521   0.16741374   -3.0770921      1.64554   518400 
 2599000    1.0974469   -3.0763167   -3.0763167   -1.4301495   0.16204595   -3.0763167    1.6461672   518400 
 2600000    1.0976993     -3.07753     -3.07753   -1.4309843   0.16157579     -3.07753    1.6465457   518400 
 2601000    1.0958333   -3.0749649   -3.0749649   -1.4312182   0.17070542   -3.0749649    1.6437467   518400 
 2602000    1.0960414   -3.0753906   -3.0753906   -1.4313317   0.16646123   -3.0753906    1.6440589   518400 
 2603000    1.0949253   -3.0740491   -3.0740491   -1.4316644   0.16684402   -3.0740491    1.6423847   518400 
 2604000    1.0947268   -3.0744822   -3.0744822   -1.4323952   0.15459535   -3.0744822     1.642087   518400 
 2605000    1.0942836   -3.0741104   -3.0741104   -1.4326882   0.16394255   -3.0741104    1.6414222   518400 
 2606000    1.0962429   -3.0773933   -3.0773933   -1.4330321   0.16100817   -3.0773933    1.6443612   518400 
 2607000    1.0958111   -3.0755322   -3.0755322   -1.4318187   0.16334734   -3.0755322    1.6437135   518400 
 2608000    1.0945076   -3.0742543   -3.0742543    -1.432496   0.16677296   -3.0742543    1.6417583   518400 
 2609000     1.095863   -3.0759996   -3.0759996   -1.4322083   0.15994141   -3.0759996    1.6437913   518400 
 2610000    1.0967053   -3.0768804   -3.0768804   -1.4318256   0.15592753   -3.0768804    1.6450547   518400 
 2611000    1.0951742   -3.0742963   -3.0742963   -1.4315381   0.15762191   -3.0742963    1.6427582   518400 
 2612000    1.0945721   -3.0742828   -3.0742828   -1.4324278    0.1669126   -3.0742828     1.641855   518400 
 2613000    1.0945494    -3.073271    -3.073271   -1.4314501   0.15726578    -3.073271    1.6418209   518400 
 2614000    1.0951644   -3.0726406   -3.0726406   -1.4298972   0.16292121   -3.0726406    1.6427434   518400 
 2615000    1.0957049   -3.0732939   -3.0732939   -1.4297397   0.16230376   -3.0732939    1.6435542   518400 
 2616000    1.0961975   -3.0727445   -3.0727445   -1.4284514   0.15852458   -3.0727445    1.6442931   518400 
 2617000    1.0952975   -3.0722399   -3.0722399   -1.4292968   0.16091467   -3.0722399    1.6429431   518400 
 2618000    1.0962341   -3.0733417   -3.0733417   -1.4289937    0.1629732   -3.0733417     1.644348   518400 
 2619000     1.095882   -3.0736396   -3.0736396   -1.4298198   0.16134123   -3.0736396    1.6438198   518400 
 2620000    1.0961838   -3.0729868   -3.0729868   -1.4287143   0.16506983   -3.0729868    1.6442725   518400 
 2621000     1.096245   -3.0732484   -3.0732484   -1.4288841   0.16368528   -3.0732484    1.6443643   518400 
 2622000    1.0963908   -3.0730938   -3.0730938   -1.4285107   0.16182946   -3.0730938     1.644583   518400 
 2623000     1.095937    -3.072442    -3.072442   -1.4285397   0.16313259    -3.072442    1.6439023   518400 
 2624000    1.0970863   -3.0730248   -3.0730248   -1.4273986   0.16697219   -3.0730248    1.6456262   518400 
 2625000     1.098674   -3.0747374   -3.0747374   -1.4267296   0.16369964   -3.0747374    1.6480078   518400 
 2626000    1.0985574   -3.0734885   -3.0734885   -1.4256555   0.17012846   -3.0734885    1.6478329   518400 
 2627000    1.0987426   -3.0742998   -3.0742998   -1.4261891   0.16236801   -3.0742998    1.6481107   518400 
 2628000    1.0996226   -3.0747975   -3.0747975   -1.4253668   0.16632468   -3.0747975    1.6494307   518400 
 2629000     1.099206   -3.0740732   -3.0740732   -1.4252674   0.16720725   -3.0740732    1.6488058   518400 
 2630000    1.0981038   -3.0714287   -3.0714287   -1.4242762   0.16541797   -3.0714287    1.6471525   518400 
 2631000    1.0988158   -3.0728341   -3.0728341   -1.4246135   0.17141474   -3.0728341    1.6482206   518400 
 2632000    1.0985917   -3.0726661   -3.0726661   -1.4247818   0.16550093   -3.0726661    1.6478843   518400 
 2633000    1.0988156   -3.0731015   -3.0731015   -1.4248814   0.16653916   -3.0731015    1.6482202   518400 
 2634000    1.0983863   -3.0712133   -3.0712133    -1.423637   0.17594492   -3.0712133    1.6475763   518400 
 2635000    1.1000181   -3.0733602   -3.0733602   -1.4233362   0.16786498   -3.0733602     1.650024   518400 
 2636000    1.0993848   -3.0724748   -3.0724748   -1.4234008   0.17284601   -3.0724748     1.649074   518400 
 2637000    1.1004799   -3.0724826   -3.0724826   -1.4217659   0.16939367   -3.0724826    1.6507167   518400 
 2638000    1.0987812   -3.0696698   -3.0696698   -1.4215011   0.16376706   -3.0696698    1.6481686   518400 
 2639000    1.0987176   -3.0700982   -3.0700982    -1.422025   0.17034031   -3.0700982    1.6480732   518400 
 2640000    1.1010588   -3.0721548   -3.0721548   -1.4205699   0.16731405   -3.0721548     1.651585   518400 
 2641000     1.099717   -3.0710351   -3.0710351   -1.4214628   0.16549251   -3.0710351    1.6495724   518400 
 2642000    1.1001129   -3.0712232   -3.0712232   -1.4210571   0.16301882   -3.0712232    1.6501661   518400 
 2643000    1.0997121   -3.0707708   -3.0707708   -1.4212058   0.17003793   -3.0707708     1.649565   518400 
 2644000    1.0992687   -3.0702349   -3.0702349    -1.421335   0.16828176   -3.0702349    1.6488998   518400 
 2645000    1.0981806   -3.0689198   -3.0689198    -1.421652   0.17133832   -3.0689198    1.6472678   518400 
 2646000    1.1004747   -3.0709749   -3.0709749    -1.420266   0.17083376   -3.0709749    1.6507089   518400 
 2647000    1.0996184   -3.0692468   -3.0692468   -1.4198225   0.16948701   -3.0692468    1.6494244   518400 
 2648000    1.1003444   -3.0703413   -3.0703413    -1.419828   0.16979092   -3.0703413    1.6505134   518400 
 2649000    1.1020058   -3.0713068   -3.0713068   -1.4183013   0.16713262   -3.0713068    1.6530055   518400 
 2650000    1.1007827   -3.0703282   -3.0703282   -1.4191573   0.17106755   -3.0703282    1.6511708   518400 
 2651000    1.1002176   -3.0699976   -3.0699976   -1.4196744   0.16938653   -3.0699976    1.6503231   518400 
 2652000    1.0996762   -3.0692474   -3.0692474   -1.4197362   0.16368213   -3.0692474    1.6495112   518400 
 2653000    1.1006077   -3.0704016   -3.0704016   -1.4194933   0.16585486   -3.0704016    1.6509083   518400 
 2654000    1.1000967   -3.0692803   -3.0692803   -1.4191384   0.17287375   -3.0692803    1.6501419   518400 
 2655000     1.100143   -3.0689258   -3.0689258   -1.4187144   0.16681247   -3.0689258    1.6502114   518400 
 2656000    1.1003606   -3.0698462   -3.0698462   -1.4193085   0.16889826   -3.0698462    1.6505377   518400 
 2657000    1.1017979    -3.070952    -3.070952   -1.4182584   0.16743089    -3.070952    1.6526937   518400 
 2658000    1.0999427    -3.067013    -3.067013   -1.4171021   0.17403266    -3.067013    1.6499109   518400 
 2659000     1.101784   -3.0701088   -3.0701088    -1.417436   0.17168059   -3.0701088    1.6526728   518400 
 2660000    1.1009916   -3.0696028   -3.0696028   -1.4181185   0.16903355   -3.0696028    1.6514842   518400 
 2661000    1.1011383   -3.0690624   -3.0690624   -1.4173582   0.16612705   -3.0690624    1.6517043   518400 
 2662000    1.1007147   -3.0677485   -3.0677485   -1.4166797    0.1762131   -3.0677485    1.6510688   518400 
 2663000    1.1028012   -3.0706106   -3.0706106   -1.4164119    0.1665519   -3.0706106    1.6541987   518400 
 2664000    1.1034002   -3.0699716   -3.0699716   -1.4148744   0.16726511   -3.0699716    1.6550972   518400 
 2665000    1.1038592   -3.0693529   -3.0693529   -1.4135672   0.17513403   -3.0693529    1.6557857   518400 
 2666000    1.1051774   -3.0706159   -3.0706159   -1.4128531   0.16640297   -3.0706159    1.6577628   518400 
 2667000    1.1038192   -3.0674999   -3.0674999   -1.4117743   0.17960828   -3.0674999    1.6557256   518400 
 2668000    1.1035712    -3.068094    -3.068094   -1.4127405   0.17473546    -3.068094    1.6553536   518400 
 2669000    1.1037643   -3.0692524   -3.0692524   -1.4136092   0.17251379   -3.0692524    1.6556432   518400 
 2670000    1.1044934   -3.0702313   -3.0702313   -1.4134943   0.17114445   -3.0702313    1.6567369   518400 
 2671000    1.1027044   -3.0677112   -3.0677112   -1.4136579   0.17213357   -3.0677112    1.6540534   518400 
 2672000    1.1027348   -3.0665461   -3.0665461   -1.4124471   0.17745751   -3.0665461     1.654099   518400 
 2673000    1.1032483    -3.069159    -3.069159   -1.4142898   0.16423038    -3.069159    1.6548692   518400 
 2674000    1.1023284   -3.0683625   -3.0683625   -1.4148732   0.16794716   -3.0683625    1.6534893   518400 
 2675000    1.1016735   -3.0670919   -3.0670919   -1.4145849   0.17292346   -3.0670919     1.652507   518400 
 2676000    1.1026634   -3.0685624   -3.0685624   -1.4145705   0.16887252   -3.0685624    1.6539919   518400 
 2677000    1.1010683   -3.0671312   -3.0671312   -1.4155319   0.17167498   -3.0671312    1.6515993   518400 
 2678000    1.1020418   -3.0682576   -3.0682576   -1.4151981   0.16923599   -3.0682576    1.6530595   518400 
 2679000    1.1016937   -3.0677594   -3.0677594    -1.415222   0.17616502   -3.0677594    1.6525374   518400 
 2680000      1.10177   -3.0680618   -3.0680618   -1.4154099    0.1704504   -3.0680618    1.6526519   518400 
 2681000    1.1016957   -3.0678516   -3.0678516   -1.4153113    0.1709365   -3.0678516    1.6525403   518400 
 2682000    1.1021726   -3.0682775   -3.0682775   -1.4150218   0.16951477   -3.0682775    1.6532557   518400 
 2683000    1.1041421   -3.0699556   -3.0699556   -1.4137456   0.16406499   -3.0699556      1.65621   518400 
 2684000    1.1027016   -3.0664793   -3.0664793   -1.4124301   0.16768409   -3.0664793    1.6540492   518400 
 2685000    1.1027826   -3.0670839   -3.0670839   -1.4129132    0.1645034   -3.0670839    1.6541707   518400 
 2686000    1.1014853   -3.0646696   -3.0646696   -1.4124449   0.16756088   -3.0646696    1.6522247   518400 
 2687000    1.1028088   -3.0672102   -3.0672102   -1.4130002    0.1669235   -3.0672102      1.65421   518400 
 2688000    1.1022408   -3.0671941   -3.0671941   -1.4138361   0.17243315   -3.0671941     1.653358   518400 
 2689000    1.1025031   -3.0675636   -3.0675636   -1.4138121   0.17010987   -3.0675636    1.6537515   518400 
 2690000    1.1020812   -3.0663126   -3.0663126   -1.4131939   0.17542956   -3.0663126    1.6531187   518400 
 2691000    1.1030287   -3.0681866   -3.0681866   -1.4136468   0.17159735   -3.0681866    1.6545398   518400 
 2692000     1.101583   -3.0648864   -3.0648864   -1.4125152   0.17454456   -3.0648864    1.6523713   518400 
 2693000    1.1012486   -3.0641872   -3.0641872   -1.4123175   0.17515251   -3.0641872    1.6518697   518400 
 2694000    1.1023108   -3.0652686   -3.0652686   -1.4118056   0.17061705   -3.0652686     1.653463   518400 
 2695000    1.1035338   -3.0670599   -3.0670599   -1.4117623    0.1731266   -3.0670599    1.6552975   518400 
 2696000    1.1035073   -3.0665791   -3.0665791   -1.4113214    0.1704271   -3.0665791    1.6552577   518400 
 2697000    1.1023445   -3.0639387   -3.0639387   -1.4104252   0.17136277   -3.0639387    1.6535135   518400 
 2698000    1.1027459   -3.0651861   -3.0651861   -1.4110705   0.16783919   -3.0651861    1.6541156   518400 
 2699000    1.1022882   -3.0643843   -3.0643843   -1.4109553   0.17094782   -3.0643843    1.6534291   518400 
 2700000    1.1046634   -3.0669775   -3.0669775   -1.4099856   0.17033187   -3.0669775    1.6569919   518400 
 2701000    1.1034746   -3.0644834   -3.0644834   -1.4092746   0.17222999   -3.0644834    1.6552088   518400 
 2702000     1.105168    -3.066673    -3.066673   -1.4089242   0.17206626    -3.066673    1.6577488   518400 
 2703000     1.104499   -3.0647889   -3.0647889   -1.4080436   0.17127503   -3.0647889    1.6567453   518400 
 2704000    1.1045042   -3.0656595   -3.0656595   -1.4089064   0.17200168   -3.0656595    1.6567531   518400 
 2705000    1.1033226   -3.0633497   -3.0633497    -1.408369    0.1744071   -3.0633497    1.6549807   518400 
 2706000    1.1026331   -3.0627095   -3.0627095    -1.408763   0.17596812   -3.0627095    1.6539465   518400 
 2707000    1.1024257    -3.061978    -3.061978   -1.4083426   0.17757712    -3.061978    1.6536354   518400 
 2708000    1.1038614   -3.0638501   -3.0638501   -1.4080612   0.17294893   -3.0638501    1.6557889   518400 
 2709000    1.1063134   -3.0655707   -3.0655707   -1.4061039   0.17659386   -3.0655707    1.6594668   518400 
 2710000    1.1047564   -3.0620885   -3.0620885   -1.4049572   0.17653697   -3.0620885    1.6571314   518400 
 2711000    1.1056565   -3.0650093   -3.0650093   -1.4065278   0.17763032   -3.0650093    1.6584815   518400 
 2712000    1.1040151   -3.0627455   -3.0627455   -1.4067261   0.17598386   -3.0627455    1.6560194   518400 
 2713000    1.1061475    -3.063712    -3.063712    -1.404494   0.17298046    -3.063712     1.659218   518400 
 2714000    1.1043487   -3.0615301   -3.0615301   -1.4050102   0.17512074   -3.0615301    1.6565199   518400 
 2715000    1.1053006    -3.062994    -3.062994   -1.4050462    0.1751081    -3.062994    1.6579478   518400 
 2716000    1.1060445   -3.0630859   -3.0630859   -1.4040224    0.1721847   -3.0630859    1.6590636   518400 
 2717000     1.105555   -3.0629419   -3.0629419   -1.4046127   0.17174059   -3.0629419    1.6583292   518400 
 2718000    1.1065982    -3.064117    -3.064117    -1.404223   0.17738844    -3.064117    1.6598941   518400 
 2719000    1.1077649   -3.0656121   -3.0656121   -1.4039679   0.17240394   -3.0656121    1.6616441   518400 
 2720000    1.1048476   -3.0620594   -3.0620594   -1.4047911   0.16943179   -3.0620594    1.6572682   518400 
 2721000    1.1048071   -3.0609006   -3.0609006   -1.4036932   0.17778118   -3.0609006    1.6572074   518400 
 2722000    1.1067658    -3.063616    -3.063616   -1.4034705   0.17493075    -3.063616    1.6601455   518400 
 2723000    1.1061175   -3.0619618   -3.0619618   -1.4027887   0.17034833   -3.0619618    1.6591731   518400 
 2724000    1.1046564   -3.0599073   -3.0599073   -1.4029259   0.17241624   -3.0599073    1.6569815   518400 
 2725000    1.1052063   -3.0600969   -3.0600969   -1.4022906   0.17201958   -3.0600969    1.6578063   518400 
 2726000    1.1075994   -3.0634371   -3.0634371   -1.4020413   0.17727011   -3.0634371    1.6613958   518400 
 2727000    1.1057734   -3.0599541   -3.0599541   -1.4012973   0.17665582   -3.0599541    1.6586569   518400 
 2728000    1.1077685   -3.0630489   -3.0630489   -1.4013994   0.17276168   -3.0630489    1.6616495   518400 
 2729000    1.1076094   -3.0618351   -3.0618351   -1.4004242   0.17710515   -3.0618351    1.6614109   518400 
 2730000    1.1069744   -3.0622936   -3.0622936   -1.4018352    0.1803642   -3.0622936    1.6604584   518400 
 2731000    1.1076281   -3.0629856   -3.0629856   -1.4015468   0.17241334   -3.0629856    1.6614389   518400 
 2732000    1.1071225   -3.0610293   -3.0610293   -1.4003488   0.17860185   -3.0610293    1.6606805   518400 
 2733000    1.1070771   -3.0600575   -3.0600575    -1.399445   0.18139058   -3.0600575    1.6606125   518400 
 2734000    1.1071749   -3.0602908   -3.0602908   -1.3995317   0.17747231   -3.0602908    1.6607591   518400 
 2735000    1.1059968     -3.05927     -3.05927   -1.4002779   0.17697805     -3.05927    1.6589921   518400 
 2736000     1.106162   -3.0581912   -3.0581912   -1.3989514   0.17845854   -3.0581912    1.6592399   518400 
 2737000    1.1077536   -3.0602028   -3.0602028   -1.3985756   0.17480159   -3.0602028    1.6616272   518400 
 2738000    1.1070574   -3.0600196   -3.0600196   -1.3994368   0.17825798   -3.0600196    1.6605829   518400 
 2739000    1.1091465   -3.0626908   -3.0626908   -1.3989743   0.16836655   -3.0626908    1.6637165   518400 
 2740000    1.1082101   -3.0609269   -3.0609269   -1.3986151   0.17655185   -3.0609269    1.6623119   518400 
 2741000    1.1075911   -3.0600485   -3.0600485   -1.3986652   0.17732878   -3.0600485    1.6613834   518400 
 2742000    1.1082274   -3.0617915   -3.0617915   -1.3994536   0.17924491   -3.0617915    1.6623378   518400 
 2743000    1.1084296   -3.0602945   -3.0602945   -1.3976533   0.17999255   -3.0602945    1.6626412   518400 
 2744000    1.1082031   -3.0610259   -3.0610259   -1.3987245   0.17628463   -3.0610259    1.6623015   518400 
 2745000    1.1088165   -3.0606228   -3.0606228   -1.3974013   0.18083595   -3.0606228    1.6632215   518400 
 2746000    1.1082651   -3.0599625   -3.0599625    -1.397568   0.17944208   -3.0599625    1.6623945   518400 
 2747000     1.109764   -3.0608303   -3.0608303   -1.3961876   0.17740141   -3.0608303    1.6646427   518400 
 2748000    1.1100994   -3.0604785   -3.0604785   -1.3953326   0.17853541   -3.0604785    1.6651459   518400 
 2749000    1.1080984   -3.0576544   -3.0576544     -1.39551    0.1800339   -3.0576544    1.6621444   518400 
 2750000    1.1097114   -3.0589847   -3.0589847   -1.3944208   0.17944686   -3.0589847    1.6645639   518400 
 2751000    1.1086319   -3.0584671   -3.0584671   -1.3955224   0.17628449   -3.0584671    1.6629446   518400 
 2752000    1.1105745   -3.0607809   -3.0607809   -1.3949225    0.1821358   -3.0607809    1.6658585   518400 
 2753000    1.1094034   -3.0593588   -3.0593588   -1.3952569   0.17973015   -3.0593588    1.6641019   518400 
 2754000    1.1091352   -3.0588453   -3.0588453   -1.3951457   0.18126113   -3.0588453    1.6636996   518400 
 2755000    1.1093984   -3.0594762   -3.0594762   -1.3953818    0.1752186   -3.0594762    1.6640944   518400 
 2756000    1.1082806   -3.0576667   -3.0576667    -1.395249   0.18449415   -3.0576667    1.6624177   518400 
 2757000      1.11018   -3.0599321   -3.0599321   -1.3946653   0.17544944   -3.0599321    1.6652668   518400 
 2758000    1.1101024    -3.059148    -3.059148   -1.3939976   0.17957661    -3.059148    1.6651503   518400 
 2759000    1.1075311   -3.0570516   -3.0570516   -1.3957581   0.18112152   -3.0570516    1.6612935   518400 
 2760000    1.1087525   -3.0588229   -3.0588229   -1.3956973   0.17844435   -3.0588229    1.6631255   518400 
 2761000     1.107962    -3.057559    -3.057559   -1.3956192   0.17882304    -3.057559    1.6619398   518400 
 2762000     1.108914   -3.0584772   -3.0584772   -1.3951094   0.18333554   -3.0584772    1.6633678   518400 
 2763000    1.1088795   -3.0589822   -3.0589822   -1.3956662   0.17362966   -3.0589822     1.663316   518400 
 2764000    1.1065828     -3.05617     -3.05617   -1.3962991   0.17740877     -3.05617    1.6598709   518400 
 2765000    1.1079657   -3.0579374   -3.0579374    -1.395992      0.17307   -3.0579374    1.6619454   518400 
 2766000    1.1090438   -3.0589335   -3.0589335    -1.395371   0.17581801   -3.0589335    1.6635625   518400 
 2767000    1.1095398    -3.058808    -3.058808   -1.3945015   0.17936059    -3.058808    1.6643065   518400 
 2768000    1.1081464   -3.0570708   -3.0570708   -1.3948544   0.18105736   -3.0570708    1.6622163   518400 
 2769000    1.1070293   -3.0538387   -3.0538387    -1.393298   0.18282809   -3.0538387    1.6605407   518400 
 2770000    1.1103893   -3.0571791   -3.0571791   -1.3915984   0.18024059   -3.0571791    1.6655807   518400 
 2771000    1.1115571   -3.0588807   -3.0588807   -1.3915484   0.17167175   -3.0588807    1.6673324   518400 
 2772000    1.1092434   -3.0564371   -3.0564371   -1.3925753   0.17970918   -3.0564371    1.6638618   518400 
 2773000    1.1103077   -3.0573331   -3.0573331   -1.3918747   0.18447985   -3.0573331    1.6654583   518400 
 2774000    1.1104368   -3.0571702   -3.0571702   -1.3915182   0.17957555   -3.0571702     1.665652   518400 
 2775000    1.1111604   -3.0572501   -3.0572501   -1.3905127   0.18603666   -3.0572501    1.6667374   518400 
 2776000    1.1107795   -3.0581636   -3.0581636   -1.3919975   0.17670697   -3.0581636    1.6661661   518400 
 2777000    1.1107799   -3.0568647   -3.0568647   -1.3906981    0.1729731   -3.0568647    1.6661666   518400 
 2778000    1.1114555   -3.0588489   -3.0588489   -1.3916688   0.17877952   -3.0588489    1.6671801   518400 
 2779000    1.1102454   -3.0569698   -3.0569698   -1.3916049   0.18069922   -3.0569698    1.6653649   518400 
 2780000    1.1098102   -3.0561098   -3.0561098   -1.3913978   0.18101005   -3.0561098     1.664712   518400 
 2781000     1.111832   -3.0585431   -3.0585431   -1.3907983   0.17769515   -3.0585431    1.6677448   518400 
 2782000    1.1104023   -3.0568575   -3.0568575   -1.3912573   0.17794638   -3.0568575    1.6656002   518400 
 2783000    1.1103925   -3.0554916   -3.0554916    -1.389906   0.18115398   -3.0554916    1.6655856   518400 
 2784000    1.1117603   -3.0567493   -3.0567493    -1.389112   0.18766717   -3.0567493    1.6676372   518400 
 2785000     1.112133   -3.0578534   -3.0578534   -1.3896572   0.17726703   -3.0578534    1.6681963   518400 
 2786000    1.1129927   -3.0589267   -3.0589267   -1.3894409   0.17862484   -3.0589267    1.6694858   518400 
 2787000     1.111664   -3.0574054   -3.0574054   -1.3899125   0.17735209   -3.0574054    1.6674928   518400 
 2788000    1.1107194   -3.0564251   -3.0564251   -1.3903493   0.18114113   -3.0564251    1.6660759   518400 
 2789000    1.1101702   -3.0552213   -3.0552213   -1.3899692   0.18617973   -3.0552213    1.6652521   518400 
 2790000    1.1120496   -3.0557905   -3.0557905   -1.3877194   0.18473106   -3.0557905    1.6680711   518400 
 2791000    1.1129158   -3.0561683   -3.0561683   -1.3867978   0.18105829   -3.0561683    1.6693705   518400 
 2792000    1.1123333    -3.055481    -3.055481   -1.3869842   0.18208747    -3.055481    1.6684967   518400 
 2793000     1.112605   -3.0558601   -3.0558601   -1.3869557   0.18527532   -3.0558601    1.6689043   518400 
 2794000     1.113451   -3.0560948   -3.0560948   -1.3859216   0.18598188   -3.0560948    1.6701733   518400 
 2795000    1.1131305   -3.0559167   -3.0559167   -1.3862241   0.18742773   -3.0559167    1.6696925   518400 
 2796000    1.1126215   -3.0559711   -3.0559711   -1.3870421   0.18790484   -3.0559711    1.6689291   518400 
 2797000    1.1126971    -3.056148    -3.056148   -1.3871057   0.17872802    -3.056148    1.6690424   518400 
 2798000    1.1134811    -3.056899    -3.056899   -1.3866805   0.17763672    -3.056899    1.6702185   518400 
 2799000    1.1134319   -3.0563163   -3.0563163   -1.3861716   0.17998948   -3.0563163    1.6701447   518400 
 2800000    1.1137829   -3.0562603   -3.0562603   -1.3855892   0.17825322   -3.0562603    1.6706711   518400 
 2801000    1.1129826    -3.054667    -3.054667   -1.3851962   0.18450811    -3.054667    1.6694707   518400 
 2802000    1.1134736   -3.0546512   -3.0546512    -1.384444   0.18056721   -3.0546512    1.6702072   518400 
 2803000    1.1150054    -3.056176    -3.056176   -1.3836712   0.18213448    -3.056176    1.6725049   518400 
 2804000    1.1123304   -3.0527022   -3.0527022   -1.3842099   0.18534851   -3.0527022    1.6684923   518400 
 2805000    1.1143217   -3.0548796   -3.0548796   -1.3834004   0.18497672   -3.0548796    1.6714793   518400 
 2806000     1.114267   -3.0557877   -3.0557877   -1.3843904   0.18230702   -3.0557877    1.6713973   518400 
 2807000    1.1137728   -3.0541253   -3.0541253   -1.3834694   0.18392734   -3.0541253    1.6706559   518400 
 2808000    1.1138867   -3.0541767   -3.0541767   -1.3833499   0.18217794   -3.0541767    1.6708268   518400 
 2809000     1.113613   -3.0555747   -3.0555747   -1.3851584    0.1817951   -3.0555747    1.6704163   518400 
 2810000    1.1134079    -3.054396    -3.054396   -1.3842874     0.185466    -3.054396    1.6701086   518400 
 2811000     1.114065   -3.0546613   -3.0546613   -1.3835671   0.19129655   -3.0546613    1.6710942   518400 
 2812000    1.1137218   -3.0556739   -3.0556739   -1.3850944   0.18296173   -3.0556739    1.6705795   518400 
 2813000    1.1137123    -3.054537    -3.054537   -1.3839717   0.18833639    -3.054537    1.6705653   518400 
 2814000    1.1143292    -3.053833    -3.053833   -1.3823425   0.18631516    -3.053833    1.6714906   518400 
 2815000    1.1124264   -3.0510646   -3.0510646   -1.3824282   0.18306467   -3.0510646    1.6686364   518400 
 2816000    1.1158321   -3.0559882   -3.0559882   -1.3822433   0.18319346   -3.0559882    1.6737449   518400 
 2817000    1.1147036   -3.0537482   -3.0537482   -1.3816961   0.18327108   -3.0537482    1.6720522   518400 
 2818000    1.1138545   -3.0523757   -3.0523757   -1.3815973   0.18237745   -3.0523757    1.6707785   518400 
 2819000    1.1155585   -3.0548419   -3.0548419   -1.3815074   0.18396017   -3.0548419    1.6733345   518400 
 2820000    1.1139427   -3.0524678   -3.0524678    -1.381557     0.185559   -3.0524678    1.6709109   518400 
 2821000    1.1158086   -3.0548117   -3.0548117    -1.381102   0.18655232   -3.0548117    1.6737097   518400 
 2822000     1.113948   -3.0517075   -3.0517075   -1.3807888   0.18913108   -3.0517075    1.6709187   518400 
 2823000    1.1153212   -3.0530419   -3.0530419   -1.3800634   0.18571639   -3.0530419    1.6729785   518400 
 2824000    1.1148123    -3.051446    -3.051446   -1.3792308   0.19012877    -3.051446    1.6722152   518400 
 2825000    1.1142453   -3.0517815   -3.0517815   -1.3804168   0.18567522   -3.0517815    1.6713647   518400 
 2826000    1.1151834   -3.0529371   -3.0529371   -1.3801652   0.18757016   -3.0529371    1.6727719   518400 
 2827000    1.1168831   -3.0541446   -3.0541446   -1.3788232   0.18900536   -3.0541446    1.6753214   518400 
 2828000    1.1157573   -3.0528349   -3.0528349   -1.3792021    0.1860252   -3.0528349    1.6736328   518400 
 2829000    1.1153889   -3.0528599   -3.0528599   -1.3797798   0.18284079   -3.0528599    1.6730801   518400 
 2830000    1.1154822   -3.0518343   -3.0518343   -1.3786143    0.1877397   -3.0518343      1.67322   518400 
 2831000    1.1162639   -3.0524589   -3.0524589   -1.3780663   0.18625828   -3.0524589    1.6743926   518400 
 2832000    1.1149891   -3.0511908   -3.0511908   -1.3787104   0.18763216   -3.0511908    1.6724804   518400 
 2833000     1.114799   -3.0515774   -3.0515774   -1.3793822   0.18483871   -3.0515774    1.6721953   518400 
 2834000    1.1169695   -3.0535266   -3.0535266   -1.3780756   0.18245595   -3.0535266     1.675451   518400 
 2835000    1.1173694   -3.0536295   -3.0536295   -1.3775786   0.18567074   -3.0536295    1.6760509   518400 
 2836000     1.116383   -3.0513831   -3.0513831   -1.3768119    0.1883722   -3.0513831    1.6745713   518400 
 2837000    1.1180633   -3.0525683   -3.0525683   -1.3754767   0.18616704   -3.0525683    1.6770917   518400 
 2838000    1.1162627    -3.049482    -3.049482   -1.3750913   0.18366232    -3.049482    1.6743908   518400 
 2839000    1.1171137   -3.0509979   -3.0509979   -1.3753306   0.19130539   -3.0509979    1.6756673   518400 
 2840000     1.115572   -3.0489331   -3.0489331   -1.3755783   0.19429612   -3.0489331    1.6733548   518400 
 2841000    1.1162695   -3.0499009   -3.0499009   -1.3754999   0.19229976   -3.0499009     1.674401   518400 
 2842000    1.1169212   -3.0506211   -3.0506211   -1.3752425   0.18438159   -3.0506211    1.6753786   518400 
 2843000    1.1182536   -3.0510272   -3.0510272   -1.3736501   0.19413219   -3.0510272    1.6773772   518400 
 2844000    1.1178243    -3.051178    -3.051178   -1.3744448   0.18956809    -3.051178    1.6767332   518400 
 2845000    1.1178443   -3.0516964   -3.0516964   -1.3749332   0.19033315   -3.0516964    1.6767632   518400 
 2846000    1.1172563   -3.0512334   -3.0512334   -1.3753521   0.19149432   -3.0512334    1.6758812   518400 
 2847000    1.1166399   -3.0496026   -3.0496026    -1.374646   0.19094768   -3.0496026    1.6749566   518400 
 2848000    1.1177418   -3.0511774   -3.0511774   -1.3745679   0.19070691   -3.0511774    1.6766095   518400 
 2849000    1.1149794   -3.0469091   -3.0469091   -1.3744433   0.19629272   -3.0469091    1.6724658   518400 
 2850000    1.1172941   -3.0487598   -3.0487598   -1.3728219   0.18871362   -3.0487598    1.6759379   518400 
 2851000    1.1171617   -3.0487546   -3.0487546   -1.3730154    0.1907923   -3.0487546    1.6757392   518400 
 2852000    1.1176267   -3.0485252   -3.0485252   -1.3720884   0.18992182   -3.0485252    1.6764368   518400 
 2853000    1.1172821   -3.0492068   -3.0492068   -1.3732868   0.19265326   -3.0492068    1.6759199   518400 
 2854000    1.1169997   -3.0483115   -3.0483115   -1.3728152   0.18833939   -3.0483115    1.6754963   518400 
 2855000    1.1187631   -3.0503239   -3.0503239   -1.3721825   0.19180708   -3.0503239    1.6781414   518400 
 2856000    1.1184501    -3.050295    -3.050295   -1.3726231   0.18961408    -3.050295     1.677672   518400 
 2857000    1.1185971   -3.0494904   -3.0494904    -1.371598   0.18722504   -3.0494904    1.6778924   518400 
 2858000    1.1172284   -3.0479104   -3.0479104    -1.372071   0.18899909   -3.0479104    1.6758394   518400 
 2859000    1.1165297   -3.0480816   -3.0480816   -1.3732903   0.19063827   -3.0480816    1.6747914   518400 
 2860000    1.1175468   -3.0494365   -3.0494365   -1.3731195   0.19320247   -3.0494365     1.676317   518400 
 2861000    1.1181416   -3.0498428   -3.0498428   -1.3726337   0.19234741   -3.0498428    1.6772091   518400 
 2862000    1.1184638   -3.0494432   -3.0494432   -1.3717507   0.18794309   -3.0494432    1.6776925   518400 
 2863000    1.1169465   -3.0461485   -3.0461485    -1.370732   0.18651388   -3.0461485    1.6754166   518400 
 2864000    1.1187907   -3.0476776   -3.0476776   -1.3694948   0.18795789   -3.0476776    1.6781828   518400 
 2865000     1.119642   -3.0490333   -3.0490333   -1.3695735   0.19289285   -3.0490333    1.6794598   518400 
 2866000    1.1177469   -3.0463619   -3.0463619   -1.3697448   0.19181669   -3.0463619    1.6766171   518400 
 2867000    1.1195346   -3.0489632   -3.0489632   -1.3696646     0.193418   -3.0489632    1.6792987   518400 
 2868000    1.1190674   -3.0481662   -3.0481662   -1.3695684   0.19115319   -3.0481662    1.6785979   518400 
 2869000    1.1192738   -3.0484564   -3.0484564   -1.3695489   0.19567068   -3.0484564    1.6789075   518400 
 2870000    1.1185292   -3.0483138   -3.0483138   -1.3705232   0.18912691   -3.0483138    1.6777906   518400 
 2871000    1.1182262   -3.0473894   -3.0473894   -1.3700532   0.19083626   -3.0473894    1.6773361   518400 
 2872000    1.1191197   -3.0485497   -3.0485497   -1.3698733   0.18918042   -3.0485497    1.6786764   518400 
 2873000    1.1192462   -3.0485518   -3.0485518   -1.3696856   0.19642438   -3.0485518    1.6788661   518400 
 2874000      1.11889    -3.048182    -3.048182   -1.3698502   0.18609168    -3.048182    1.6783318   518400 
 2875000    1.1192764   -3.0480531   -3.0480531   -1.3691417   0.19499773   -3.0480531    1.6789114   518400 
 2876000    1.1200757   -3.0486075   -3.0486075   -1.3684972     0.191387   -3.0486075    1.6801102   518400 
 2877000    1.1187951    -3.046535    -3.046535   -1.3683455   0.19004367    -3.046535    1.6781895   518400 
 2878000    1.1196511   -3.0463011   -3.0463011   -1.3668276   0.19382134   -3.0463011    1.6794735   518400 
 2879000    1.1190065   -3.0457528   -3.0457528   -1.3672463   0.19609241   -3.0457528    1.6785065   518400 
 2880000    1.1212108   -3.0480022   -3.0480022   -1.3661893   0.18711313   -3.0480022    1.6818129   518400 
 2881000    1.1193766   -3.0452769   -3.0452769   -1.3662152    0.1924394   -3.0452769    1.6790617   518400 
 2882000    1.1210429   -3.0478952   -3.0478952    -1.366334   0.19326187   -3.0478952    1.6815612   518400 
 2883000    1.1201834    -3.047058    -3.047058   -1.3667861   0.19750133    -3.047058    1.6802719   518400 
 2884000    1.1191913   -3.0449792   -3.0449792   -1.3661955   0.19783944   -3.0449792    1.6787837   518400 
 2885000    1.1196621   -3.0460965   -3.0460965   -1.3666066   0.19864374   -3.0460965    1.6794899   518400 
 2886000    1.1194804   -3.0458583   -3.0458583   -1.3666409   0.19195311   -3.0458583    1.6792174   518400 
 2887000    1.1199842   -3.0473959   -3.0473959   -1.3674229   0.19571231   -3.0473959    1.6799731   518400 
 2888000    1.1212912   -3.0484786   -3.0484786   -1.3665451   0.19043058   -3.0484786    1.6819335   518400 
 2889000    1.1191632   -3.0450142   -3.0450142   -1.3662726   0.19275359   -3.0450142    1.6787416   518400 
 2890000    1.1216228   -3.0479258   -3.0479258   -1.3654948   0.19400734   -3.0479258     1.682431   518400 
 2891000     1.121673   -3.0465792   -3.0465792   -1.3640729   0.19033127   -3.0465792    1.6825063   518400 
 2892000    1.1219541   -3.0474249   -3.0474249    -1.364497   0.19219882   -3.0474249     1.682928   518400 
 2893000     1.121193   -3.0457664   -3.0457664   -1.3639801    0.1940934   -3.0457664    1.6817863   518400 
 2894000    1.1196942   -3.0439939   -3.0439939   -1.3644558   0.19662517   -3.0439939    1.6795381   518400 
 2895000     1.120578   -3.0446277   -3.0446277   -1.3637639   0.19146614   -3.0446277    1.6808638   518400 
 2896000    1.1202582   -3.0432029   -3.0432029   -1.3628188   0.20026519   -3.0432029    1.6803841   518400 
 2897000    1.1204993   -3.0442536   -3.0442536   -1.3635079    0.1939533   -3.0442536    1.6807457   518400 
 2898000    1.1225598   -3.0475375   -3.0475375    -1.363701   0.19020049   -3.0475375    1.6838365   518400 
 2899000    1.1221442   -3.0464917   -3.0464917   -1.3632787   0.19308637   -3.0464917    1.6832131   518400 
 2900000    1.1192254   -3.0430387   -3.0430387   -1.3642038   0.19766284   -3.0430387    1.6788349   518400 
 2901000    1.1205328   -3.0450941   -3.0450941   -1.3642981   0.19424914   -3.0450941     1.680796   518400 
 2902000    1.1225845     -3.04696     -3.04696   -1.3630864   0.19773542     -3.04696    1.6838736   518400 
 2903000    1.1225957   -3.0453806   -3.0453806   -1.3614902   0.19513851   -3.0453806    1.6838903   518400 
 2904000    1.1212174   -3.0427323   -3.0427323   -1.3609095   0.20081078   -3.0427323    1.6818228   518400 
 2905000    1.1222349   -3.0462326   -3.0462326   -1.3628835   0.19492738   -3.0462326    1.6833491   518400 
 2906000    1.1211515   -3.0439826   -3.0439826   -1.3622585   0.19572766   -3.0439826     1.681724   518400 
 2907000    1.1213342   -3.0441098   -3.0441098   -1.3621117   0.19319083   -3.0441098     1.681998   518400 
 2908000    1.1197285   -3.0437749   -3.0437749   -1.3641854   0.19579566   -3.0437749    1.6795895   518400 
 2909000     1.120391   -3.0444183   -3.0444183   -1.3638351   0.19808993   -3.0444183    1.6805832   518400 
 2910000    1.1218694    -3.045408    -3.045408   -1.3626072   0.19094434    -3.045408    1.6828008   518400 
 2911000    1.1208092   -3.0432698   -3.0432698   -1.3620593   0.19572011   -3.0432698    1.6812105   518400 
 2912000    1.1224399   -3.0455536   -3.0455536   -1.3618971   0.19595501   -3.0455536    1.6836566   518400 
 2913000    1.1221003   -3.0429335   -3.0429335   -1.3597863   0.19662736   -3.0429335    1.6831472   518400 
 2914000    1.1226591   -3.0436672   -3.0436672   -1.3596817   0.19855534   -3.0436672    1.6839855   518400 
 2915000    1.1207594   -3.0416144   -3.0416144   -1.3604785   0.19891796   -3.0416144    1.6811359   518400 
 2916000    1.1228376    -3.045323    -3.045323   -1.3610699   0.19372824    -3.045323    1.6842531   518400 
 2917000    1.1221656   -3.0440263   -3.0440263   -1.3607812   0.19935651   -3.0440263    1.6832451   518400 
 2918000    1.1220657   -3.0436794   -3.0436794   -1.3605841   0.20061997   -3.0436794    1.6830953   518400 
 2919000    1.1223859   -3.0440301   -3.0440301   -1.3604546   0.19577298   -3.0440301    1.6835756   518400 
 2920000    1.1217645   -3.0428084   -3.0428084   -1.3601649   0.20070563   -3.0428084    1.6826435   518400 
 2921000      1.12391    -3.045076    -3.045076   -1.3592143   0.19216174    -3.045076    1.6858617   518400 
 2922000    1.1226837    -3.043088    -3.043088   -1.3590656   0.20105335    -3.043088    1.6840224   518400 
 2923000    1.1217702   -3.0418875   -3.0418875   -1.3592355   0.19699169   -3.0418875    1.6826521   518400 
 2924000    1.1237693   -3.0446035   -3.0446035   -1.3589528   0.19471614   -3.0446035    1.6856507   518400 
 2925000    1.1226809   -3.0422123   -3.0422123   -1.3581942   0.19317245   -3.0422123     1.684018   518400 
 2926000    1.1224607   -3.0417598   -3.0417598    -1.358072   0.19629872   -3.0417598    1.6836878   518400 
 2927000    1.1243933   -3.0439204   -3.0439204   -1.3573337   0.19559998   -3.0439204    1.6865867   518400 
 2928000    1.1235841   -3.0431532   -3.0431532   -1.3577804   0.19642602   -3.0431532    1.6853728   518400 
 2929000    1.1244721   -3.0443462   -3.0443462   -1.3576413   0.19372178   -3.0443462    1.6867049   518400 
 2930000    1.1249297    -3.043487    -3.043487   -1.3560957   0.19552232    -3.043487    1.6873914   518400 
 2931000    1.1237799    -3.041688    -3.041688   -1.3560214   0.19704765    -3.041688    1.6856666   518400 
 2932000     1.123713   -3.0411952   -3.0411952    -1.355629   0.20166182   -3.0411952    1.6855662   518400 
 2933000    1.1255175   -3.0428017   -3.0428017   -1.3545287   0.19974805   -3.0428017     1.688273   518400 
 2934000    1.1242643   -3.0407334   -3.0407334   -1.3543402   0.19614169   -3.0407334    1.6863933   518400 
 2935000    1.1247022   -3.0424771   -3.0424771    -1.355427   0.19353991   -3.0424771    1.6870501   518400 
 2936000    1.1238517   -3.0417309   -3.0417309   -1.3559567   0.20040709   -3.0417309    1.6857742   518400 
 2937000    1.1252288   -3.0427019   -3.0427019    -1.354862   0.19958838   -3.0427019    1.6878399   518400 
 2938000    1.1253424    -3.042478    -3.042478   -1.3544677   0.19920523    -3.042478    1.6880103   518400 
 2939000    1.1239826    -3.039674    -3.039674   -1.3537034   0.19968216    -3.039674    1.6859707   518400 
 2940000    1.1258187   -3.0420028   -3.0420028    -1.353278   0.19682946   -3.0420028    1.6887248   518400 
 2941000    1.1271453   -3.0437548   -3.0437548   -1.3530402   0.19588772   -3.0437548    1.6907146   518400 
 2942000    1.1258063    -3.041715    -3.041715   -1.3530088   0.20526773    -3.041715    1.6887062   518400 
 2943000    1.1258468   -3.0414833   -3.0414833   -1.3527163   0.20399375   -3.0414833     1.688767   518400 
 2944000    1.1256885     -3.04042     -3.04042   -1.3518904   0.19876134     -3.04042    1.6885295   518400 
 2945000    1.1259888   -3.0409148   -3.0409148   -1.3519348   0.19479031   -3.0409148      1.68898   518400 
 2946000    1.1253268   -3.0399637   -3.0399637   -1.3519767   0.20022292   -3.0399637     1.687987   518400 
 2947000    1.1256718   -3.0406345   -3.0406345     -1.35213   0.20190883   -3.0406345    1.6885045   518400 
 2948000    1.1256495   -3.0402975   -3.0402975   -1.3518265   0.19906673   -3.0402975     1.688471   518400 
 2949000    1.1242495   -3.0382541   -3.0382541   -1.3518831   0.20332057   -3.0382541     1.686371   518400 
 2950000    1.1250386   -3.0402916   -3.0402916   -1.3527369    0.2050062   -3.0402916    1.6875547   518400 
 2951000    1.1250312   -3.0396522   -3.0396522   -1.3521086   0.20196516   -3.0396522    1.6875436   518400 
 2952000    1.1261308    -3.041317    -3.041317   -1.3521241    0.2036502    -3.041317    1.6891929   518400 
 2953000    1.1270715    -3.040945    -3.040945   -1.3503411   0.20412742    -3.040945     1.690604   518400 
 2954000    1.1273923   -3.0426069   -3.0426069   -1.3515217   0.20234105   -3.0426069    1.6910852   518400 
 2955000    1.1254948   -3.0397358   -3.0397358   -1.3514969   0.20477945   -3.0397358     1.688239   518400 
 2956000    1.1263351   -3.0402127   -3.0402127   -1.3507134   0.19906479   -3.0402127    1.6894994   518400 
 2957000     1.127835   -3.0421454   -3.0421454   -1.3503961    0.2006183   -3.0421454    1.6917493   518400 
 2958000    1.1266602   -3.0411549   -3.0411549   -1.3511679   0.19761105   -3.0411549     1.689987   518400 
 2959000    1.1267523   -3.0414641   -3.0414641   -1.3513389   0.19537433   -3.0414641    1.6901252   518400 
 2960000    1.1254923   -3.0390293   -3.0390293   -1.3507942   0.19797123   -3.0390293    1.6882351   518400 
 2961000    1.1260935   -3.0384772   -3.0384772   -1.3493401   0.19567553   -3.0384772     1.689137   518400 
 2962000    1.1261497   -3.0392724   -3.0392724    -1.350051   0.20318503   -3.0392724    1.6892213   518400 
 2963000    1.1266661   -3.0393274   -3.0393274   -1.3493315   0.20423509   -3.0393274    1.6899959   518400 
 2964000    1.1286347    -3.041842    -3.041842   -1.3488933   0.20255644    -3.041842    1.6929487   518400 
 2965000    1.1268959   -3.0394611   -3.0394611   -1.3491205   0.19807429   -3.0394611    1.6903406   518400 
 2966000    1.1267556   -3.0394051   -3.0394051   -1.3492749   0.20292095   -3.0394051    1.6901301   518400 
 2967000    1.1277425    -3.039975    -3.039975   -1.3483645   0.19961468    -3.039975    1.6916105   518400 
 2968000    1.1272373   -3.0388361   -3.0388361   -1.3479834   0.19996474   -3.0388361    1.6908527   518400 
 2969000    1.1264737   -3.0394161   -3.0394161   -1.3497089   0.19471467   -3.0394161    1.6897072   518400 
 2970000    1.1280715   -3.0408529   -3.0408529   -1.3487489   0.19991361   -3.0408529     1.692104   518400 
 2971000     1.128219   -3.0401775   -3.0401775   -1.3478523   0.19810122   -3.0401775    1.6923252   518400 
 2972000    1.1267271   -3.0376029   -3.0376029   -1.3475156   0.19752465   -3.0376029    1.6900873   518400 
 2973000     1.128209   -3.0395213   -3.0395213   -1.3472111   0.19766456   -3.0395213    1.6923102   518400 
 2974000    1.1284751   -3.0399267   -3.0399267   -1.3472173   0.20039727   -3.0399267    1.6927094   518400 
 2975000    1.1286918   -3.0389502   -3.0389502   -1.3459157   0.19997636   -3.0389502    1.6930345   518400 
 2976000    1.1280601   -3.0376886   -3.0376886   -1.3456018   0.20448374   -3.0376886    1.6920868   518400 
 2977000    1.1297568   -3.0395572   -3.0395572   -1.3449252       0.2026   -3.0395572     1.694632   518400 
 2978000    1.1284848   -3.0371417   -3.0371417   -1.3444177   0.20133785   -3.0371417     1.692724   518400 
 2979000    1.1295143   -3.0394757   -3.0394757   -1.3452076   0.19418679   -3.0394757    1.6942681   518400 
 2980000     1.128131   -3.0373944   -3.0373944   -1.3452011   0.20331727   -3.0373944    1.6921933   518400 
 2981000    1.1286969   -3.0389508   -3.0389508   -1.3459087   0.20330335   -3.0389508    1.6930421   518400 
 2982000     1.128871   -3.0381694   -3.0381694   -1.3448661   0.20380695   -3.0381694    1.6933032   518400 
 2983000    1.1292803   -3.0386915   -3.0386915   -1.3447743   0.20422585   -3.0386915    1.6939172   518400 
 2984000    1.1299107   -3.0393161   -3.0393161   -1.3444533   0.20526724   -3.0393161    1.6948627   518400 
 2985000    1.1297646   -3.0395307   -3.0395307   -1.3448871   0.20142065   -3.0395307    1.6946436   518400 
 2986000      1.12933   -3.0374233   -3.0374233   -1.3434316   0.20854633   -3.0374233    1.6939917   518400 
 2987000    1.1299829   -3.0384724   -3.0384724   -1.3435013   0.19988839   -3.0384724     1.694971   518400 
 2988000    1.1291826   -3.0376336   -3.0376336    -1.343863   0.20510283   -3.0376336    1.6937706   518400 
 2989000    1.1284722   -3.0359949   -3.0359949   -1.3432899   0.20796863   -3.0359949     1.692705   518400 
 2990000    1.1304459   -3.0394144   -3.0394144   -1.3437489   0.20107355   -3.0394144    1.6956655   518400 
 2991000     1.128219   -3.0358408   -3.0358408   -1.3435156   0.20571355   -3.0358408    1.6923252   518400 
 2992000    1.1288561   -3.0363265   -3.0363265   -1.3430455   0.20648789   -3.0363265     1.693281   518400 
 2993000    1.1300754   -3.0369813   -3.0369813   -1.3418714   0.20645616   -3.0369813    1.6951099   518400 
 2994000    1.1305677   -3.0381532   -3.0381532    -1.342305   0.20220721   -3.0381532    1.6958483   518400 
 2995000    1.1292182   -3.0369488   -3.0369488   -1.3431247    0.2075237   -3.0369488     1.693824   518400 
 2996000    1.1290048    -3.036633    -3.036633   -1.3431291   0.20627547    -3.036633    1.6935039   518400 
 2997000    1.1279984   -3.0344535   -3.0344535   -1.3424592   0.20529877   -3.0344535    1.6919943   518400 
 2998000    1.1304304   -3.0376678   -3.0376678   -1.3420255    0.2004128   -3.0376678    1.6956423   518400 
 2999000    1.1305274   -3.0367158   -3.0367158    -1.340928   0.20153036   -3.0367158    1.6957878   518400 
 3000000    1.1307052   -3.0355089   -3.0355089   -1.3394544    0.2092734   -3.0355089    1.6960545   518400 
Loop time of 18815.9 on 48 procs for 3000000 steps with 518400 atoms

Performance: 68878.002 tau/day, 159.440 timesteps/s
93.1% CPU use with 48 MPI tasks x 1 OpenMP threads

MPI task timing breakdown:
Section |  min time  |  avg time  |  max time  |%varavg|  %CPU | %total
-----------------------------------------------------------------------
Pair    | 6716.2     | 9072.5     | 10185      |1035.5 |  98.6 | 48.22
Bond    | 2.1798     | 2.3232     | 2.4954     |   4.4 | 100.0 |  0.01
Neigh   | 3532.7     | 4402       | 4765.4     | 471.0 |  99.6 | 23.40
Comm    | 3056.9     | 4386.2     | 7868.3     |1756.7 |  77.5 | 23.31
Output  | 79.345     | 79.892     | 79.909     |   0.9 |  71.7 |  0.42
Modify  | 392.07     | 587.83     | 1550.8     |1408.4 |  88.0 |  3.12
Other   |            | 285.2      |            |       |       |  1.52

Nlocal:        10800.0 ave       11087 max       10581 min
Histogram: 3 2 6 12 12 3 5 3 0 2
Nghost:        8177.25 ave        9072 max        6159 min
Histogram: 6 6 0 0 0 0 1 5 8 22
Neighs:        280412.0 ave      310009 max      241104 min
Histogram: 5 2 3 2 2 8 6 8 9 3

Total # of neighbors = 13459791
Ave neighs/atom = 25.964103
Ave special neighs/atom = 0.0000000
Neighbor list builds = 300000
Dangerous builds = 296999

write_data	data.lj
System init for write_data ...
WARNING: Not all mixed pair coeffs generated from mixing. Use write_data with 'pair ij' option to store all pair coeffs. (src/write_data.cpp:312)
Total wall time: 5:13:37
