LAMMPS (24 Dec 2020)
OMP_NUM_THREADS environment is not set. Defaulting to 1 thread. (src/comm.cpp:94)
  using 1 OpenMP thread(s) per MPI task
#Read the equilibrated lj fluid and add nanocubes

units           lj
atom_style      full
atom_modify     map array first cubes
dimension       3
boundary        p p f
pair_style      lj/cut/opt 2.0

variable        sigma           equal 1.0
variable        epsilon         equal 1.0
read_restart	restart.dat.5000000
Reading restart file ...
  restart file = 24 Dec 2020, LAMMPS = 24 Dec 2020
WARNING: Restart file used different # of processors: 192 vs. 288 (src/read_restart.cpp:697)
  restoring atom style full from restart
  orthogonal box = (0.0000000 0.0000000 0.0000000) to (80.000000 80.000000 160.00000)
  6 by 4 by 12 MPI processor grid
  restoring pair style lj/smooth/linear from restart
  439061 atoms
Finding 1-2 1-3 1-4 neighbors ...
  special bond factors lj:    0        0        0       
  special bond factors coul:  0        0        0       
     0 = max # of 1-2 neighbors
     0 = max # of 1-3 neighbors
     0 = max # of 1-4 neighbors
     1 = max # of special neighbors
  special bonds CPU = 2.400 seconds
  read_restart CPU = 2.803 seconds

group		solvent type 1
439061 atoms in group solvent

read_data	data_96.cubes group cubes add append
Reading data file ...
  orthogonal box = (0.0000000 0.0000000 0.0000000) to (80.000000 80.000000 160.00000)
  6 by 4 by 12 MPI processor grid
WARNING: Pair style in data file differs from currently defined pair style (src/read_data.cpp:588)
  reading atoms ...
  109728 atoms
  reading velocities ...
  109728 velocities
Finding 1-2 1-3 1-4 neighbors ...
  special bond factors lj:    0        0        0       
  special bond factors coul:  0        0        0       
     0 = max # of 1-2 neighbors
     0 = max # of 1-3 neighbors
     0 = max # of 1-4 neighbors
     1 = max # of special neighbors
  special bonds CPU = 0.054 seconds
  read_data CPU = 0.313 seconds

group 		hull  type 2
42816 atoms in group hull
group 		dummy type 3
66912 atoms in group dummy

neighbor      0.4 bin
neigh_modify  exclude molecule/intra cubes


pair_modify   shift yes

pair_coeff    1 1 1.0 1.0 #solvent
pair_coeff    2 2 1.0 1.0 1.12 #np
pair_coeff    3 3 0.0 0.0 0.0 #dummy
pair_coeff    2 3 0.0 0.0 0.0 #np dummy
pair_coeff    1 2 ${eps} ${sig} ${nscut} #np solvent
pair_coeff    1 2 2.0 ${sig} ${nscut} 
pair_coeff    1 2 2.0 2.0 ${nscut} 
pair_coeff    1 2 2.0 2.0 4.0 
pair_coeff    1 3 0.0 0.0 2.5 #dummy solvent

# delete solvent where the cubes are
delete_atoms  overlap 2.0 solvent cubes
System init for delete_atoms ...
Neighbor list info ...
  update every 1 steps, delay 10 steps, check yes
  max neighbors/atom: 2000, page size: 100000
  master list distance cutoff = 4.4
  ghost atom cutoff = 4.4
  binsize = 2.2, bins = 37 37 73
  2 neighbor lists, perpetual/occasional/extra = 1 1 0
  (1) command delete_atoms, occasional
      attributes: full, newton on
      pair build: full/bin
      stencil: full/bin/3d
      bin: standard
  (2) pair lj/smooth/linear, perpetual
      attributes: half, newton on
      pair build: half/bin/newton
      stencil: half/bin/3d/newton
      bin: standard
WARNING: Delete_atoms cutoff > minimum neighbor cutoff (src/delete_atoms.cpp:307)
WARNING: Ignoring 'compress yes' for molecular system (src/delete_atoms.cpp:125)
Deleted 127776 atoms, new total = 421013



pair_coeff    1 1 1.0 1.0 #solvent
pair_coeff    2 2 1.0 1.0 1.12 #np
pair_coeff    3 3 0.0 0.0 0.0 #dummy
pair_coeff    2 3 0.0 0.0 0.0 #np dummy
pair_coeff    1 2 ${eps} ${sig} ${nscut} #np solvent
pair_coeff    1 2 2.0 ${sig} ${nscut} 
pair_coeff    1 2 2.0 2.0 ${nscut} 
pair_coeff    1 2 2.0 2.0 4.0 
pair_coeff    1 3 0.0 0.0 0.0 #dummy solvent


comm_modify   mode multi cutoff/multi 1 2.0 cutoff/multi 2 2.0 cutoff/multi 3 6.95

reset_timestep 	0

balance 	1.05 shift z 10 1.05
Balancing ...
Neighbor list info ...
  update every 1 steps, delay 10 steps, check yes
  max neighbors/atom: 2000, page size: 100000
  master list distance cutoff = 4.4
  ghost atom cutoff = 6.95
  binsize = 2.2, bins = 37 37 73
  1 neighbor lists, perpetual/occasional/extra = 1 0 0
  (1) pair lj/smooth/linear, perpetual
      attributes: half, newton on
      pair build: half/bin/newton
      stencil: half/bin/3d/newton
      bin: standard
 rebalancing time: 0.006 seconds
  iteration count = 4
  initial/final maximal load/proc = 2236.0000 2123.0000
  initial/final imbalance factor  = 1.5295680 1.4522687
  x cuts: 0.0000000 0.16666667 0.33333333 0.50000000 0.66666667 0.83333333 1.0000000
  y cuts: 0.0000000 0.25000000 0.50000000 0.75000000 1.0000000
  z cuts: 0.0000000 0.057291667 0.11979167 0.17187500 0.23958333 0.30208333 0.34375000 0.41145833 0.46354167 0.51562500 0.59895833 0.64583333 1.0000000

####################### WALLS ###########################

variable       epsilonWall equal 2*${epsilon}
variable       epsilonWall equal 2*1
variable       repulsive   equal   0.7147*${sigma}
variable       repulsive   equal   0.7147*1
variable       full	   equal   3*${sigma}
variable       full	   equal   3*1
region         lowWall block EDGE EDGE EDGE EDGE EDGE 2

fix            topWall all wall/lj93 zhi EDGE 	       ${epsilonWall} ${sigma} ${repulsive} units box
fix            topWall all wall/lj93 zhi EDGE 	       2 ${sigma} ${repulsive} units box
fix            topWall all wall/lj93 zhi EDGE 	       2 1 ${repulsive} units box
fix            topWall all wall/lj93 zhi EDGE 	       2 1 0.7147 units box
fix            lowSol solvent wall/lj93 zlo EDGE                ${epsilonWall} ${sigma} ${full} units box
fix            lowSol solvent wall/lj93 zlo EDGE                2 ${sigma} ${full} units box
fix            lowSol solvent wall/lj93 zlo EDGE                2 1 ${full} units box
fix            lowSol solvent wall/lj93 zlo EDGE                2 1 3 units box
fix 	       lowCub cubes wall/lj93 zlo EDGE                ${epsilonWall} ${sigma} ${repulsive} units box
fix 	       lowCub cubes wall/lj93 zlo EDGE                2 ${sigma} ${repulsive} units box
fix 	       lowCub cubes wall/lj93 zlo EDGE                2 1 ${repulsive} units box
fix 	       lowCub cubes wall/lj93 zlo EDGE                2 1 0.7147 units box


###################### COMPUTES ##########################

compute        bin1 solvent chunk/atom bin/1d z lower 1.0 units box


######################  FIXES ############################


fix             peclet solvent ave/chunk 10 10 10000 bin1 density/number norm                  none ave one file density.profile

fix              temp solvent ave/chunk 10 10 10000 bin1 temp norm                  none ave one file temp.profile

fix             1 cubes rigid/nve/small molecule
  create bodies CPU = 0.029 seconds
  96 rigid bodies with 109728 atoms
  6.9282032 = max distance from body owner to body atom

fix             2 solvent nve# temp ${temp} ${temp} 10


## Thermostat
region          regthermo block EDGE EDGE EDGE EDGE 0 15
group           thermo dynamic solvent region regthermo every 1000
dynamic group thermo defined
fix             3 thermo langevin ${temp} ${temp} 10 156453
fix             3 thermo langevin 0.6 ${temp} 10 156453
fix             3 thermo langevin 0.6 0.6 10 156453


#### Load balancing

fix             bal all balance 1000 1.05 shift z 10 1.05

############### Diagnostics and computes ###################

compute        	com cubes          rigid/local   1 mol x y z
compute        	quat cubes         rigid/local   1 mol quatw quati quatj quatk

compute 	cc2 cubes 	   chunk/atom 	 molecule
compute 	msd cubes 	   msd/chunk 	 cc2

fix 		msd all ave/time  1 1 10000 c_msd[*] file dump.msd ave one mode vector

dump            1 all custom 500000 dump.lammpstrj id mol type x y z
dump		cubetrj hull custom 500000 cubes.lammpstrj id mol type x y z
dump            com cubes local 10000 dump.*.xyz c_com[*]
dump	        xyz hull xyz 100000 cubes.xyz
dump            quat cubes      local 10000 dump.*.quat c_quat[*]
#dump		mol cubes molfile 10000 mol.xyz xyz


dump            2 all image 10000 image.*.png type type zoom 1.5 size 1280 720
dump_modify     2 pad 8
dump		image cubes image 10000 image_cubes.*.png type type zoom 1.5 size 1280 720
dump_modify	image pad 8
dump            3 all movie 5000 movie.avi type type zoom 1.5 size 1280 720
dump		4 cubes movie 5000 movie_cubes.avi type type size 1280 720


thermo          1000
thermo_style    custom step temp epair evdwl etotal press pe ke atoms

restart         1000000 restart.dat
timestep        0.005
timer           full
New timer settings: style=full  mode=nosync  timeout=off

run 		5000000
Per MPI rank memory allocation (min/avg/max) = 14.08 | 20.23 | 22.96 Mbytes
Step Temp E_pair E_vdwl TotEng Press PotEng KinEng Atoms 
       0   0.61274527   -2.3205741   -2.3205741   -1.6405876   -1.2039934   -2.3205741   0.67998653   421013 
    1000     1.102226   -2.8969692   -2.8969692   -1.6737874   0.40270903   -2.8969692    1.2231818   421013 
    2000    1.1241298   -2.9597271   -2.9597271   -1.7122379   0.43684548   -2.9597271    1.2474892   421013 
    3000    1.1116143    -2.984501    -2.984501   -1.7509008   0.39156851    -2.984501    1.2336003   421013 
    4000    1.0948335   -3.0021138   -3.0021138   -1.7871358   0.35351286   -3.0021138     1.214978   421013 
    5000     1.075631   -3.0119273   -3.0119273   -1.8182591   0.33026799   -3.0119273    1.1936682   421013 
    6000    1.0621142    -3.024042    -3.024042   -1.8453738   0.29125449    -3.024042    1.1786682   421013 
    7000    1.0471562   -3.0284828   -3.0284828   -1.8664141   0.28182441   -3.0284828    1.1620687   421013 
    8000    1.0357779   -3.0315047   -3.0315047   -1.8820629   0.25481355   -3.0315047    1.1494418   421013 
    9000    1.0279084    -3.033691    -3.033691   -1.8929823   0.22132636    -3.033691    1.1407088   421013 
   10000    1.0235556   -3.0381754   -3.0381754   -1.9022971    0.2322539   -3.0381754    1.1358783   421013 
   11000    1.0232247   -3.0455934   -3.0455934   -1.9100824   0.20633069   -3.0455934     1.135511   421013 
   12000       1.0235   -3.0532028   -3.0532028   -1.9173863   0.21520499   -3.0532028    1.1358165   421013 
   13000    1.0222291   -3.0572321   -3.0572321   -1.9228259   0.23628544   -3.0572321    1.1344062   421013 
   14000    1.0229924   -3.0631096   -3.0631096   -1.9278564   0.22157125   -3.0631096    1.1352532   421013 
   15000    1.0219527   -3.0666323   -3.0666323   -1.9325328   0.23573759   -3.0666323    1.1340995   421013 
   16000     1.021656   -3.0693439   -3.0693439   -1.9355737   0.25583713   -3.0693439    1.1337702   421013 
   17000    1.0211425   -3.0729987   -3.0729987   -1.9397983   0.24178583   -3.0729987    1.1332003   421013 
   18000    1.0191808    -3.074189    -3.074189   -1.9431657    0.2492623    -3.074189    1.1310234   421013 
   19000    1.0174186   -3.0749956   -3.0749956   -1.9459278   0.25642994   -3.0749956    1.1290678   421013 
   20000    1.0140184    -3.073903    -3.073903   -1.9486086   0.24894745    -3.073903    1.1252944   421013 
   21000    1.0116511   -3.0738575   -3.0738575   -1.9511901   0.26039768   -3.0738575    1.1226674   421013 
   22000    1.0097244   -3.0741609   -3.0741609   -1.9536317   0.24696764   -3.0741609    1.1205293   421013 
   23000    1.0062215    -3.072398    -3.072398    -1.955756   0.24776156    -3.072398     1.116642   421013 
   24000    1.0035829    -3.071651    -3.071651   -1.9579373   0.24225577    -3.071651    1.1137137   421013 
   25000    1.0008501   -3.0713662   -3.0713662   -1.9606851   0.22279299   -3.0713662    1.1106811   421013 
   26000    0.9973115   -3.0705772   -3.0705772    -1.963823   0.22881358   -3.0705772    1.1067542   421013 
   27000   0.99546719   -3.0700793   -3.0700793   -1.9653718   0.20082214   -3.0700793    1.1047075   421013 
   28000   0.99304279   -3.0703543   -3.0703543   -1.9683373   0.21036755   -3.0703543     1.102017   421013 
   29000   0.99149595   -3.0716195   -3.0716195    -1.971319    0.2168526   -3.0716195    1.1003004   421013 
   30000    0.9893522   -3.0732567   -3.0732567   -1.9753353   0.23030231   -3.0732567    1.0979214   421013 
   31000   0.98901112   -3.0780082   -3.0780082   -1.9804652   0.24421393   -3.0780082    1.0975429   421013 
   32000   0.98658865    -3.082685    -3.082685   -1.9878304   0.24462144    -3.082685    1.0948546   421013 
   33000   0.98582761   -3.0890609   -3.0890609   -1.9950509   0.25165497   -3.0890609    1.0940101   421013 
   34000   0.98553111   -3.0963216   -3.0963216   -2.0026405   0.25762264   -3.0963216     1.093681   421013 
   35000   0.98335659   -3.1019916   -3.1019916   -2.0107237    0.2647664   -3.1019916    1.0912679   421013 
   36000   0.97936094   -3.1053629   -3.1053629   -2.0185291   0.26229508   -3.1053629    1.0868338   421013 
   37000   0.97706193   -3.1083407   -3.1083407   -2.0240582   0.26866515   -3.1083407    1.0842825   421013 
   38000   0.97682056   -3.1153472   -3.1153472   -2.0313326   0.26325883   -3.1153472    1.0840146   421013 
   39000   0.97045877   -3.1147723   -3.1147723   -2.0378177   0.26511096   -3.1147723    1.0769547   421013 
   40000   0.96920695   -3.1192784   -3.1192784   -2.0437129   0.26648085   -3.1192784    1.0755655   421013 
   41000   0.96625349   -3.1222022   -3.1222022   -2.0499143   0.25737545   -3.1222022    1.0722879   421013 
   42000   0.96192084   -3.1229709   -3.1229709   -2.0554911   0.26224335   -3.1229709    1.0674798   421013 
   43000   0.96108211   -3.1272735   -3.1272735   -2.0607245   0.23386653   -3.1272735    1.0665491   421013 
   44000   0.95514923   -3.1246375   -3.1246375   -2.0646723   0.25174472   -3.1246375    1.0599651   421013 
   45000   0.95085142   -3.1246155   -3.1246155   -2.0694198   0.23701343   -3.1246155    1.0551957   421013 
   46000   0.94864158   -3.1253934   -3.1253934   -2.0726501   0.21527401   -3.1253934    1.0527433   421013 
   47000   0.94765546   -3.1276789   -3.1276789   -2.0760299   0.21759599   -3.1276789     1.051649   421013 
   48000   0.94394652   -3.1274295   -3.1274295   -2.0798964   0.21620217   -3.1274295     1.047533   421013 
   49000    0.9417072   -3.1285471   -3.1285471   -2.0834991   0.22663449   -3.1285471     1.045048   421013 
   50000   0.94075584   -3.1309409   -3.1309409   -2.0869487   0.20379192   -3.1309409    1.0439922   421013 
   51000   0.93876256   -3.1322048   -3.1322048   -2.0904246   0.20773581   -3.1322048    1.0417802   421013 
   52000   0.93796583    -3.133986    -3.133986   -2.0930899   0.20323162    -3.133986     1.040896   421013 
   53000   0.93739877   -3.1362764   -3.1362764   -2.0960096   0.20517668   -3.1362764    1.0402668   421013 
   54000   0.93649823   -3.1380047   -3.1380047   -2.0987373   0.20499807   -3.1380047    1.0392674   421013 
   55000   0.93557536   -3.1396655   -3.1396655   -2.1014222   0.20231979   -3.1396655    1.0382433   421013 
   56000    0.9371389   -3.1433759   -3.1433759   -2.1033975   0.20483211   -3.1433759    1.0399784   421013 
   57000   0.93566134   -3.1449273   -3.1449273   -2.1065886   0.19802992   -3.1449273    1.0383387   421013 
   58000   0.93424079   -3.1465109   -3.1465109   -2.1097487   0.19912624   -3.1465109    1.0367622   421013 
   59000   0.93214608   -3.1470377   -3.1470377      -2.1126    0.1830017   -3.1470377    1.0344376   421013 
   60000   0.93181945   -3.1494287   -3.1494287   -2.1153535   0.20964337   -3.1494287    1.0340752   421013 
   61000   0.93007634   -3.1494062   -3.1494062   -2.1172654   0.19443367   -3.1494062    1.0321408   421013 
   62000   0.93070956   -3.1523365   -3.1523365    -2.119493   0.19299998   -3.1523365    1.0328435   421013 
   63000   0.92957342   -3.1520888   -3.1520888   -2.1205061   0.18937611   -3.1520888    1.0315827   421013 
   64000   0.92873577   -3.1534993   -3.1534993   -2.1228462    0.2066584   -3.1534993    1.0306531   421013 
   65000    0.9277517    -3.153529    -3.153529   -2.1239679   0.19829125    -3.153529     1.029561   421013 
   66000   0.92723952   -3.1548606   -3.1548606   -2.1258679   0.21885792   -3.1548606    1.0289927   421013 
   67000   0.92772574   -3.1576876   -3.1576876   -2.1281554   0.19954592   -3.1576876    1.0295322   421013 
   68000   0.92514551   -3.1569756   -3.1569756   -2.1303068   0.20147615   -3.1569756    1.0266689   421013 
   69000   0.92511617   -3.1591948   -3.1591948   -2.1325585   0.21225863   -3.1591948    1.0266363   421013 
   70000   0.92515176   -3.1623273   -3.1623273   -2.1356515   0.20445505   -3.1623273    1.0266758   421013 
   71000   0.92697011   -3.1666901   -3.1666901   -2.1379964   0.19937064   -3.1666901    1.0286937   421013 
   72000   0.92467354   -3.1668563   -3.1668563   -2.1407112   0.20973069   -3.1668563    1.0261451   421013 
   73000   0.92428438    -3.169299    -3.169299   -2.1435858   0.20560926    -3.169299    1.0257132   421013 
   74000   0.92359786   -3.1717131   -3.1717131   -2.1467618   0.20165354   -3.1717131    1.0249514   421013 
   75000   0.92280829   -3.1744225   -3.1744225   -2.1503474   0.21853743   -3.1744225    1.0240752   421013 
   76000    0.9214632     -3.17607     -3.17607   -2.1534875    0.1972567     -3.17607    1.0225825   421013 
   77000   0.92122287    -3.178818    -3.178818   -2.1565023   0.19739817    -3.178818    1.0223157   421013 
   78000    0.9197605   -3.1802319   -3.1802319    -2.159539   0.21972971   -3.1802319    1.0206929   421013 
   79000   0.91816557   -3.1816795   -3.1816795   -2.1627566   0.20767456   -3.1816795     1.018923   421013 
   80000   0.91929123    -3.185531    -3.185531   -2.1653589   0.21171241    -3.185531    1.0201721   421013 
   81000   0.91611671   -3.1842832   -3.1842832    -2.167634   0.20902644   -3.1842832    1.0166493   421013 
   82000   0.91228844   -3.1837246   -3.1837246   -2.1713237   0.20261784   -3.1837246    1.0124009   421013 
   83000   0.91457752   -3.1891432   -3.1891432    -2.174202   0.19394932   -3.1891432    1.0149412   421013 
   84000   0.91153154   -3.1889459   -3.1889459    -2.177385   0.19612373   -3.1889459    1.0115609   421013 
   85000   0.91194011    -3.191965    -3.191965   -2.1799506   0.21876501    -3.191965    1.0120143   421013 
   86000   0.91028873   -3.1929027   -3.1929027    -2.182721   0.20767705   -3.1929027    1.0101817   421013 
   87000   0.90943788   -3.1937258   -3.1937258   -2.1844883   0.20872377   -3.1937258    1.0092375   421013 
   88000    0.9078987   -3.1947875   -3.1947875   -2.1872581    0.1905905   -3.1947875    1.0075294   421013 
   89000   0.90736314   -3.1967968   -3.1967968   -2.1898617   0.18164569   -3.1967968    1.0069351   421013 
   90000   0.90344534   -3.1949037   -3.1949037   -2.1923164   0.19553828   -3.1949037    1.0025874   421013 
   91000   0.90425286    -3.197256    -3.197256   -2.1937725   0.19982803    -3.197256    1.0034835   421013 
   92000   0.90421387    -3.199187    -3.199187   -2.1957467   0.19966606    -3.199187    1.0034402   421013 
   93000   0.90271792   -3.1995702   -3.1995702   -2.1977901   0.18011084   -3.1995702    1.0017801   421013 
   94000   0.90273408   -3.2022731   -3.2022731    -2.200475   0.20171839   -3.2022731     1.001798   421013 
   95000   0.90042959    -3.201397    -3.201397   -2.2021563    0.2016649    -3.201397   0.99924067   421013 
   96000   0.90010235   -3.2026365   -3.2026365    -2.203759   0.17891016   -3.2026365   0.99887751   421013 
   97000   0.89960411   -3.2044369   -3.2044369   -2.2061123   0.18630449   -3.2044369    0.9983246   421013 
   98000   0.89812773   -3.2047972   -3.2047972    -2.208111   0.19103277   -3.2047972    0.9966862   421013 
   99000   0.89780388   -3.2062559   -3.2062559   -2.2099291   0.18317444   -3.2062559   0.99632681   421013 
  100000   0.89725634   -3.2073635   -3.2073635   -2.2116443   0.17335205   -3.2073635   0.99571919   421013 
  101000   0.89634156   -3.2089672   -3.2089672   -2.2142632   0.18753224   -3.2089672   0.99470402   421013 
  102000   0.89448966   -3.2092648   -3.2092648   -2.2166159    0.1770889   -3.2092648    0.9926489   421013 
  103000   0.89563375   -3.2115632   -3.2115632   -2.2176447   0.18301043   -3.2115632   0.99391854   421013 
  104000   0.89381406   -3.2118901   -3.2118901   -2.2199909   0.18069846   -3.2118901   0.99189916   421013 
  105000   0.89556321   -3.2155496   -3.2155496   -2.2217093   0.17719398   -3.2155496   0.99384026   421013 
  106000   0.89547917   -3.2170447   -3.2170447   -2.2232977    0.1818221   -3.2170447   0.99374699   421013 
  107000    0.8962116   -3.2192459   -3.2192459   -2.2246861    0.1832799   -3.2192459    0.9945598   421013 
  108000   0.89329619   -3.2182235   -3.2182235   -2.2268991    0.1886058   -3.2182235   0.99132446   421013 
  109000   0.89244779   -3.2189813   -3.2189813   -2.2285984   0.19430465   -3.2189813   0.99038297   421013 
  110000    0.8920915   -3.2208701   -3.2208701   -2.2308826   0.18154266   -3.2208701   0.98998757   421013 
  111000   0.89181959   -3.2230379   -3.2230379   -2.2333521   0.17775057   -3.2230379   0.98968583   421013 
  112000   0.89030544   -3.2245268   -3.2245268   -2.2365213   0.19829179   -3.2245268   0.98800551   421013 
  113000   0.88963484   -3.2251168   -3.2251168   -2.2378555   0.18016732   -3.2251168   0.98726133   421013 
  114000   0.88876257   -3.2259499   -3.2259499   -2.2396566    0.1751546   -3.2259499   0.98629334   421013 
  115000   0.89042223    -3.230218    -3.230218   -2.2420829    0.1838763    -3.230218   0.98813512   421013 
  116000   0.88764321   -3.2291606   -3.2291606   -2.2441094   0.19361562   -3.2291606   0.98505114   421013 
  117000   0.88799948    -3.231847    -3.231847   -2.2464005    0.1863223    -3.231847   0.98544651   421013 
  118000   0.88549008   -3.2309924   -3.2309924   -2.2483307    0.1932559   -3.2309924   0.98266173   421013 
  119000   0.88592486    -3.234235    -3.234235   -2.2510908   0.19161858    -3.234235   0.98314422   421013 
  120000   0.88528759   -3.2354214   -3.2354214   -2.2529844   0.17484626   -3.2354214   0.98243701   421013 
  121000   0.88305309   -3.2352273   -3.2352273     -2.25527   0.19853909   -3.2352273   0.97995731   421013 
  122000   0.88319934   -3.2369014   -3.2369014   -2.2567817   0.21409517   -3.2369014   0.98011961   421013 
  123000   0.88282311   -3.2383134   -3.2383134   -2.2586113   0.19280967   -3.2383134    0.9797021   421013 
  124000     0.881904    -3.239896    -3.239896   -2.2612139   0.18357689    -3.239896   0.97868212   421013 
  125000   0.88165977   -3.2417949   -3.2417949   -2.2633838    0.1851253   -3.2417949   0.97841108   421013 
  126000   0.88000973   -3.2416937   -3.2416937   -2.2651138   0.17512853   -3.2416937   0.97657997   421013 
  127000   0.87855248   -3.2416972   -3.2416972   -2.2667344   0.17700025   -3.2416972   0.97496281   421013 
  128000   0.87691184   -3.2414715   -3.2414715   -2.2683294   0.19957714   -3.2414715   0.97314213   421013 
  129000   0.87864059   -3.2449562   -3.2449562   -2.2698956   0.17159975   -3.2449562   0.97506059   421013 
  130000   0.87786438    -3.246198    -3.246198   -2.2719988   0.18468099    -3.246198    0.9741992   421013 
  131000   0.87804345   -3.2487092   -3.2487092   -2.2743113   0.18264529   -3.2487092   0.97439792   421013 
  132000   0.87845343   -3.2504561   -3.2504561   -2.2756032   0.17924669   -3.2504561   0.97485289   421013 
  133000   0.87464779    -3.247428    -3.247428   -2.2767984   0.18546995    -3.247428   0.97062963   421013 
  134000   0.87582053   -3.2506057   -3.2506057   -2.2786746   0.17665545   -3.2506057   0.97193107   421013 
  135000   0.87350886   -3.2495762   -3.2495762   -2.2802105   0.17843214   -3.2495762   0.96936572   421013 
  136000   0.87278353    -3.250541    -3.250541   -2.2819802   0.17186734    -3.250541   0.96856079   421013 
  137000   0.87253256   -3.2519966   -3.2519966   -2.2837143   0.19070542   -3.2519966   0.96828228   421013 
  138000   0.87242097   -3.2526184   -3.2526184     -2.28446    0.1691673   -3.2526184   0.96815844   421013 
  139000   0.87149014   -3.2532171   -3.2532171   -2.2860916    0.1857766   -3.2532171   0.96712546   421013 
  140000     0.872401   -3.2562505   -3.2562505   -2.2881142   0.18563176   -3.2562505   0.96813628   421013 
  141000   0.87089972    -3.256443    -3.256443   -2.2899727   0.18958754    -3.256443   0.96647026   421013 
  142000   0.86993703   -3.2566536   -3.2566536   -2.2912517   0.16271926   -3.2566536   0.96540192   421013 
  143000   0.87065599   -3.2590188   -3.2590188   -2.2928191   0.18392823   -3.2590188   0.96619978   421013 
  144000   0.87004645   -3.2601271   -3.2601271   -2.2946038   0.16750734   -3.2601271   0.96552335   421013 
  145000   0.86951249   -3.2620792   -3.2620792   -2.2971484   0.18236664   -3.2620792    0.9649308   421013 
  146000   0.86826416   -3.2623352   -3.2623352   -2.2987897   0.17746465   -3.2623352   0.96354548   421013 
  147000   0.86804665     -3.26366     -3.26366   -2.3003559   0.16724201     -3.26366   0.96330409   421013 
  148000   0.86856156   -3.2655777   -3.2655777   -2.3017022   0.18985008   -3.2655777   0.96387551   421013 
  149000   0.86731416   -3.2671027   -3.2671027   -2.3046115   0.17234769   -3.2671027   0.96249122   421013 
  150000    0.8652445   -3.2661752   -3.2661752   -2.3059808   0.16338477   -3.2661752   0.96019445   421013 
  151000   0.86615183   -3.2685824   -3.2685824    -2.307381   0.17838001   -3.2685824   0.96120134   421013 
  152000   0.86479524   -3.2688331   -3.2688331   -2.3091373   0.17288041   -3.2688331   0.95969588   421013 
  153000   0.86505417    -3.270531    -3.270531   -2.3105477   0.17371957    -3.270531   0.95998323   421013 
  154000    0.8633377   -3.2710034   -3.2710034    -2.312925   0.17381795   -3.2710034    0.9580784   421013 
  155000   0.86301446   -3.2723489   -3.2723489   -2.3146292   0.16653163   -3.2723489   0.95771968   421013 
  156000    0.8632867   -3.2732079   -3.2732079   -2.3151861   0.17441133   -3.2732079   0.95802181   421013 
  157000   0.86221423   -3.2729326   -3.2729326   -2.3161009   0.16410024   -3.2729326   0.95683164   421013 
  158000   0.86116099   -3.2739479   -3.2739479   -2.3182851   0.17258492   -3.2739479   0.95566282   421013 
  159000   0.86256713   -3.2764487   -3.2764487   -2.3192254    0.1565006   -3.2764487   0.95722327   421013 
  160000   0.86034237   -3.2764154   -3.2764154   -2.3216611    0.1792161   -3.2764154   0.95475437   421013 
  161000   0.86113157   -3.2789288   -3.2789288   -2.3232987    0.1768059   -3.2789288   0.95563017   421013 
  162000   0.86056566   -3.2804025   -3.2804025   -2.3254004   0.17601066   -3.2804025   0.95500215   421013 
  163000   0.85811715   -3.2789907   -3.2789907   -2.3267058   0.17477883   -3.2789907   0.95228495   421013 
  164000    0.8585724   -3.2810854   -3.2810854   -2.3282952   0.17021203   -3.2810854   0.95279017   421013 
  165000   0.85796521   -3.2823733   -3.2823733    -2.330257   0.16932378   -3.2823733   0.95211634   421013 
  166000   0.85654021   -3.2825736   -3.2825736   -2.3320386   0.17167895   -3.2825736   0.95053496   421013 
  167000   0.85561901   -3.2840083   -3.2840083   -2.3344957   0.18269634   -3.2840083   0.94951267   421013 
  168000   0.85650514   -3.2861953   -3.2861953   -2.3356993   0.17253683   -3.2861953   0.95049604   421013 
  169000   0.85631674   -3.2865011   -3.2865011   -2.3362142   0.14518237   -3.2865011   0.95028698   421013 
  170000   0.85605886   -3.2872011   -3.2872011   -2.3372003   0.16752248   -3.2872011    0.9500008   421013 
  171000   0.85482544   -3.2876886   -3.2876886   -2.3390565   0.17524514   -3.2876886   0.94863203   421013 
  172000    0.8554651   -3.2905084   -3.2905084   -2.3411665   0.17023155   -3.2905084   0.94934188   421013 
  173000   0.85371504   -3.2904037   -3.2904037   -2.3430039   0.17632157   -3.2904037   0.94739977   421013 
  174000   0.85525081    -3.292902    -3.292902    -2.343798   0.16589084    -3.292902   0.94910407   421013 
  175000     0.853212   -3.2916089   -3.2916089   -2.3447673   0.16245103   -3.2916089   0.94684152   421013 
  176000   0.85234114   -3.2917825   -3.2917825   -2.3459074   0.15818806   -3.2917825    0.9458751   421013 
  177000   0.85166112   -3.2924801   -3.2924801   -2.3473597   0.16278224   -3.2924801   0.94512045   421013 
  178000   0.85135802   -3.2935489   -3.2935489   -2.3487648   0.15759691   -3.2935489   0.94478409   421013 
  179000   0.85156584   -3.2951669   -3.2951669   -2.3501522   0.17527404   -3.2951669   0.94501472   421013 
  180000   0.85125878   -3.2965319   -3.2965319   -2.3518579   0.16629983   -3.2965319   0.94467396   421013 
  181000    0.8514823   -3.2989238   -3.2989238   -2.3540018   0.15536672   -3.2989238   0.94492201   421013 
  182000   0.84902994   -3.2979399   -3.2979399   -2.3557394   0.16827027   -3.2979399   0.94220053   421013 
  183000    0.8487782   -3.2983538   -3.2983538   -2.3564326   0.17063669   -3.2983538   0.94192117   421013 
  184000   0.84864927   -3.2987465   -3.2987465   -2.3569685   0.16443978   -3.2987465   0.94177809   421013 
  185000   0.84609776    -3.298177    -3.298177   -2.3592304   0.17048472    -3.298177   0.93894658   421013 
  186000   0.84619596   -3.3004591   -3.3004591   -2.3614035    0.1712168   -3.3004591   0.93905557   421013 
  187000   0.84810153   -3.3036909   -3.3036909   -2.3625206   0.17006576   -3.3036909   0.94117025   421013 
  188000   0.84729184   -3.3039274   -3.3039274   -2.3636557   0.16343363   -3.3039274    0.9402717   421013 
  189000   0.84678903    -3.305515    -3.305515   -2.3658013   0.16693992    -3.305515   0.93971371   421013 
  190000    0.8466169   -3.3068118   -3.3068118   -2.3672891   0.18312791   -3.3068118    0.9395227   421013 
  191000   0.84580924   -3.3064743   -3.3064743   -2.3678479   0.14679876   -3.3064743    0.9386264   421013 
  192000   0.84436797   -3.3067614   -3.3067614   -2.3697344    0.1539827   -3.3067614   0.93702697   421013 
  193000   0.84504785   -3.3091611   -3.3091611   -2.3713797   0.16564189   -3.3091611   0.93778146   421013 
  194000   0.84390036   -3.3093206   -3.3093206   -2.3728126   0.15152179   -3.3093206   0.93650805   421013 
  195000   0.84518622   -3.3122284   -3.3122284   -2.3742934   0.17081486   -3.3122284   0.93793501   421013 
  196000   0.84368832   -3.3124829   -3.3124829   -2.3762102   0.15544081   -3.3124829   0.93627274   421013 
  197000   0.84389358   -3.3137633   -3.3137633   -2.3772628   0.16750193   -3.3137633   0.93650053   421013 
  198000   0.84313623   -3.3141469   -3.3141469   -2.3784868   0.16434642   -3.3141469   0.93566007   421013 
  199000   0.84381127   -3.3160898   -3.3160898   -2.3796807   0.15325499   -3.3160898   0.93640918   421013 
  200000   0.84083526   -3.3135387   -3.3135387   -2.3804321   0.15202662   -3.3135387   0.93310659   421013 
  201000    0.8410279   -3.3162393   -3.3162393   -2.3829189   0.16685569   -3.3162393   0.93332037   421013 
  202000   0.84132085   -3.3181884   -3.3181884   -2.3845429   0.16847832   -3.3181884   0.93364546   421013 
  203000   0.83952814   -3.3175604   -3.3175604   -2.3859044   0.16102618   -3.3175604   0.93165603   421013 
  204000   0.84031424   -3.3201005   -3.3201005   -2.3875721   0.15727051   -3.3201005    0.9325284   421013 
  205000   0.83954688   -3.3206004   -3.3206004   -2.3889236   0.16045725   -3.3206004   0.93167682   421013 
  206000    0.8386711   -3.3214405   -3.3214405   -2.3907356   0.16326354   -3.3214405   0.93070495   421013 
  207000   0.83844945   -3.3226354   -3.3226354   -2.3921765   0.16263168   -3.3226354   0.93045897   421013 
  208000   0.83846091   -3.3233285   -3.3233285   -2.3928568    0.1613377   -3.3233285   0.93047169   421013 
  209000   0.83776366   -3.3238351   -3.3238351   -2.3941372   0.15933109   -3.3238351   0.92969792   421013 
  210000   0.83699803    -3.324434    -3.324434   -2.3955858   0.16214031    -3.324434   0.92884827   421013 
  211000   0.83653288   -3.3248858   -3.3248858   -2.3965537   0.15583866   -3.3248858   0.92833208   421013 
  212000    0.8350322   -3.3250514   -3.3250514   -2.3983847   0.14681006   -3.3250514   0.92666672   421013 
  213000    0.8347777   -3.3266967   -3.3266967   -2.4003124   0.16508007   -3.3266967   0.92638428   421013 
  214000   0.83455348   -3.3277769   -3.3277769   -2.4016414   0.16299192   -3.3277769   0.92613546   421013 
  215000   0.83499822   -3.3290726   -3.3290726   -2.4024436   0.14094856   -3.3290726   0.92662901   421013 
  216000   0.83249917   -3.3278364   -3.3278364   -2.4039807   0.15804849   -3.3278364   0.92385572   421013 
  217000    0.8321715    -3.329345    -3.329345   -2.4058529   0.15090877    -3.329345   0.92349209   421013 
  218000   0.83296353   -3.3308175   -3.3308175   -2.4064465   0.13800135   -3.3308175   0.92437103   421013 
  219000   0.83296346   -3.3315322   -3.3315322   -2.4071612   0.15295098   -3.3315322   0.92437096   421013 
  220000   0.83319834   -3.3326986   -3.3326986    -2.408067      0.16383   -3.3326986   0.92463161   421013 
  221000   0.83046679    -3.331246    -3.331246   -2.4096457   0.15728239    -3.331246   0.92160031   421013 
  222000   0.83058571   -3.3324993   -3.3324993   -2.4107671   0.16332879   -3.3324993   0.92173228   421013 
  223000   0.83106579   -3.3338991   -3.3338991    -2.411634   0.15167489   -3.3338991   0.92226504   421013 
  224000   0.83141231     -3.33502     -3.33502   -2.4123704   0.16299621     -3.33502   0.92264958   421013 
  225000   0.82915939   -3.3339639   -3.3339639   -2.4138144   0.15025233   -3.3339639   0.92014944   421013 
  226000   0.82998613   -3.3366394   -3.3366394   -2.4155725   0.14543688   -3.3366394   0.92106691   421013 
  227000   0.82999318   -3.3379527   -3.3379527    -2.416878   0.14561819   -3.3379527   0.92107473   421013 
  228000   0.82901053    -3.337957    -3.337957   -2.4179728   0.15635625    -3.337957   0.91998425   421013 
  229000   0.82837422   -3.3387008   -3.3387008   -2.4194227   0.14781433   -3.3387008    0.9192781   421013 
  230000   0.82970289   -3.3401952   -3.3401952   -2.4194427   0.15458849   -3.3401952   0.92075258   421013 
  231000   0.82821313   -3.3401165   -3.3401165   -2.4210172   0.14671203   -3.3401165   0.91909934   421013 
  232000   0.82661881   -3.3391576   -3.3391576   -2.4218276   0.16186394   -3.3391576   0.91733006   421013 
  233000   0.82804195   -3.3427073   -3.3427073   -2.4237979   0.14330008   -3.3427073   0.91890938   421013 
  234000   0.82830263   -3.3436328   -3.3436328   -2.4244342   0.16074104   -3.3436328   0.91919866   421013 
  235000   0.82617892   -3.3432071   -3.3432071   -2.4263652   0.15848569   -3.3432071   0.91684189   421013 
  236000   0.82686857   -3.3446473   -3.3446473   -2.4270401   0.14928891   -3.3446473   0.91760722   421013 
  237000   0.82685519   -3.3450922   -3.3450922   -2.4274998     0.146866   -3.3450922   0.91759238   421013 
  238000   0.82714092   -3.3470528   -3.3470528   -2.4291433   0.14441576   -3.3470528   0.91790946   421013 
  239000   0.82576909   -3.3469338   -3.3469338   -2.4305467   0.14583912   -3.3469338   0.91638709   421013 
  240000   0.82553089   -3.3468493   -3.3468493   -2.4307265   0.15441065   -3.3468493   0.91612275   421013 
  241000   0.82535007   -3.3478096   -3.3478096   -2.4318875   0.14616682   -3.3478096   0.91592209   421013 
  242000   0.82334732   -3.3469241   -3.3469241   -2.4332245   0.14435864   -3.3469241   0.91369957   421013 
  243000   0.82336028   -3.3487709   -3.3487709    -2.435057   0.14301547   -3.3487709   0.91371395   421013 
  244000   0.82426557   -3.3513215   -3.3513215    -2.436603   0.13657395   -3.3513215   0.91471858   421013 
  245000   0.82369927   -3.3511801   -3.3511801     -2.43709   0.13643511   -3.3511801   0.91409014   421013 
  246000   0.82136751   -3.3493578   -3.3493578   -2.4378553   0.15591961   -3.3493578    0.9115025   421013 
  247000   0.82169464    -3.350811    -3.350811   -2.4389455   0.15942542    -3.350811   0.91186552   421013 
  248000   0.82160024   -3.3519425   -3.3519425   -2.4401817   0.14861239   -3.3519425   0.91176076   421013 
  249000   0.82214474   -3.3534938   -3.3534938   -2.4411288   0.15332909   -3.3534938   0.91236502   421013 
  250000   0.82170858   -3.3541136   -3.3541136   -2.4422326    0.1523718   -3.3541136   0.91188099   421013 
  251000   0.82135858   -3.3549946   -3.3549946    -2.443502    0.1630923   -3.3549946   0.91149259   421013 
  252000   0.81913526   -3.3542038   -3.3542038   -2.4451785   0.15046724   -3.3542038   0.90902528   421013 
  253000   0.81946992   -3.3551084   -3.3551084   -2.4457117   0.15771577   -3.3551084   0.90939666   421013 
  254000   0.81816816   -3.3560851   -3.3560851    -2.448133   0.15355095   -3.3560851   0.90795205   421013 
  255000    0.8174746   -3.3563818   -3.3563818   -2.4491994   0.15258433   -3.3563818   0.90718238   421013 
  256000   0.81907663   -3.3590833   -3.3590833   -2.4501231   0.16236902   -3.3590833   0.90896022   421013 
  257000   0.81922962    -3.360634    -3.360634    -2.451504    0.1513966    -3.360634   0.90912999   421013 
  258000   0.81721327   -3.3602255   -3.3602255   -2.4533332   0.14362801   -3.3602255   0.90689238   421013 
  259000   0.81828189   -3.3616747   -3.3616747   -2.4535965   0.15681084   -3.3616747   0.90807826   421013 
  260000   0.81791429   -3.3618759   -3.3618759   -2.4542055   0.15036464   -3.3618759   0.90767033   421013 
  261000   0.81579189   -3.3622634   -3.3622634   -2.4569484   0.15044278   -3.3622634   0.90531502   421013 
  262000   0.81549654    -3.363208    -3.363208   -2.4582207   0.14094105    -3.363208   0.90498726   421013 
  263000   0.81415343   -3.3631628   -3.3631628   -2.4596661   0.15261028   -3.3631628   0.90349676   421013 
  264000   0.81515855   -3.3656249   -3.3656249   -2.4610127   0.13431608   -3.3656249   0.90461218   421013 
  265000   0.81343397   -3.3652625   -3.3652625   -2.4625642   0.14885853   -3.3652625   0.90269835   421013 
  266000   0.81207953   -3.3644854   -3.3644854   -2.4632901   0.14722965   -3.3644854   0.90119527   421013 
  267000   0.81428018    -3.367788    -3.367788   -2.4641506   0.16241297    -3.367788   0.90363741   421013 
  268000   0.81305108   -3.3666176   -3.3666176   -2.4643441    0.1447623   -3.3666176   0.90227343   421013 
  269000   0.81346416   -3.3679431   -3.3679431   -2.4652113   0.15837839   -3.3679431   0.90273185   421013 
  270000   0.81339865   -3.3696853   -3.3696853   -2.4670262   0.14391792   -3.3696853   0.90265915   421013 
  271000    0.8144302   -3.3726023   -3.3726023   -2.4687984   0.13904474   -3.3726023    0.9038039   421013 
  272000   0.81083288   -3.3698886   -3.3698886   -2.4700768   0.15323372   -3.3698886   0.89981182   421013 
  273000   0.80975103   -3.3693497   -3.3693497   -2.4707384   0.15309429   -3.3693497   0.89861125   421013 
  274000    0.8124064   -3.3732739   -3.3732739   -2.4717159   0.12837253   -3.3732739   0.90155801   421013 
  275000   0.81086509   -3.3725746   -3.3725746    -2.472727   0.14616717   -3.3725746   0.89984756   421013 
  276000    0.8103958   -3.3726382   -3.3726382   -2.4733115    0.1357414   -3.3726382   0.89932678   421013 
  277000   0.81036847   -3.3737138   -3.3737138   -2.4744173   0.13687893   -3.3737138   0.89929644   421013 
  278000   0.80957048   -3.3743618   -3.3743618    -2.475951   0.15049879   -3.3743618   0.89841089   421013 
  279000   0.80788634   -3.3739971   -3.3739971   -2.4774552   0.13937812   -3.3739971   0.89654193   421013 
  280000   0.80904089    -3.376093    -3.376093   -2.4782698   0.15168154    -3.376093   0.89782318   421013 
  281000   0.81015949   -3.3784923   -3.3784923   -2.4794278    0.1307647   -3.3784923   0.89906453   421013 
  282000   0.80787934    -3.377428    -3.377428   -2.4808938   0.15247727    -3.377428   0.89653416   421013 
  283000   0.80744739   -3.3783345   -3.3783345   -2.4822797   0.14520817   -3.3783345   0.89605481   421013 
  284000   0.80784367   -3.3802542   -3.3802542   -2.4837596    0.1377822   -3.3802542   0.89649458   421013 
  285000   0.80738595    -3.380128    -3.380128   -2.4841414   0.13192751    -3.380128   0.89598663   421013 
  286000   0.80603476   -3.3799152   -3.3799152   -2.4854281   0.14173962   -3.3799152   0.89448716   421013 
  287000   0.80508875   -3.3794846   -3.3794846   -2.4860473    0.1506695   -3.3794846   0.89343734   421013 
  288000   0.80677997   -3.3822872   -3.3822872    -2.486973   0.14961754   -3.3822872   0.89531415   421013 
  289000   0.80531484   -3.3828925   -3.3828925   -2.4892043   0.13850394   -3.3828925   0.89368824   421013 
  290000    0.8041918   -3.3833084   -3.3833084   -2.4908665   0.14139909   -3.3833084   0.89244196   421013 
  291000   0.80392479    -3.384033    -3.384033   -2.4918874   0.14676214    -3.384033   0.89214565   421013 
  292000   0.80406717   -3.3854026   -3.3854026   -2.4930989   0.13353234   -3.3854026   0.89230366   421013 
  293000   0.80405521   -3.3863643   -3.3863643    -2.494074   0.14891182   -3.3863643   0.89229038   421013 
  294000   0.80263249   -3.3856838   -3.3856838   -2.4949722   0.13286174   -3.3856838   0.89071153   421013 
  295000   0.80307388   -3.3870914   -3.3870914     -2.49589   0.12626042   -3.3870914   0.89120137   421013 
  296000    0.8030562   -3.3874388   -3.3874388    -2.496257   0.14519171   -3.3874388   0.89118174   421013 
  297000   0.80173482   -3.3869471   -3.3869471   -2.4972317   0.12857378   -3.3869471   0.88971536   421013 
  298000   0.80371928    -3.390159    -3.390159   -2.4982414   0.12367608    -3.390159   0.89191759   421013 
  299000   0.80146467   -3.3892655   -3.3892655     -2.49985    0.1394447   -3.3892655   0.88941556   421013 
  300000   0.80313784   -3.3920154   -3.3920154   -2.5007431   0.14380298   -3.3920154   0.89127235   421013 
  301000   0.80094551   -3.3904261   -3.3904261   -2.5015866   0.15719142   -3.3904261   0.88883943   421013 
  302000   0.80270852   -3.3938531   -3.3938531   -2.5030572   0.14804255   -3.3938531   0.89079591   421013 
  303000   0.80101373   -3.3932745   -3.3932745   -2.5043594   0.12630734   -3.3932745   0.88891514   421013 
  304000   0.80052684   -3.3940866   -3.3940866   -2.5057118     0.147047   -3.3940866   0.88837482   421013 
  305000   0.79822933    -3.391809    -3.391809   -2.5059838   0.14715039    -3.391809   0.88582519   421013 
  306000    0.8007666    -3.395588    -3.395588   -2.5069471   0.12821594    -3.395588   0.88864089   421013 
  307000   0.79952035   -3.3956543   -3.3956543   -2.5083964   0.13742431   -3.3956543   0.88725788   421013 
  308000   0.79868519   -3.3955027   -3.3955027   -2.5091717   0.12757149   -3.3955027   0.88633107   421013 
  309000   0.79912481   -3.3976836   -3.3976836   -2.5108647   0.13794328   -3.3976836   0.88681894   421013 
  310000   0.79903875   -3.3989676   -3.3989676   -2.5122442   0.13428215   -3.3989676   0.88672342   421013 
  311000   0.79959887    -3.400291    -3.400291    -2.512946   0.13019491    -3.400291   0.88734502   421013 
  312000   0.79614484   -3.3982359   -3.3982359    -2.514724   0.12973208   -3.3982359   0.88351194   421013 
  313000   0.79630598   -3.3990766   -3.3990766   -2.5153858   0.12732499   -3.3990766   0.88369077   421013 
  314000   0.79673916   -3.4005885   -3.4005885    -2.516417   0.11722569   -3.4005885   0.88417149   421013 
  315000   0.79632931   -3.4011072   -3.4011072   -2.5173905   0.13283546   -3.4011072   0.88371666   421013 
  316000   0.79503641   -3.4015181   -3.4015181   -2.5192362   0.11880457   -3.4015181   0.88228189   421013 
  317000   0.79558645   -3.4024156   -3.4024156   -2.5195233   0.14943965   -3.4024156   0.88289228   421013 
  318000   0.79357012   -3.4010421   -3.4010421   -2.5203875   0.13333426   -3.4010421   0.88065468   421013 
  319000    0.7946473   -3.4024069   -3.4024069   -2.5205568    0.1255883   -3.4024069   0.88185007   421013 
  320000   0.79465715   -3.4043491   -3.4043491    -2.522488   0.13053568   -3.4043491     0.881861   421013 
  321000   0.79501737   -3.4048092   -3.4048092   -2.5225484   0.13560499   -3.4048092   0.88226075   421013 
  322000    0.7946939    -3.406081    -3.406081   -2.5241792   0.14590523    -3.406081   0.88190179   421013 
  323000   0.79477932    -3.407341    -3.407341   -2.5253444   0.13767107    -3.407341   0.88199658   421013 
  324000   0.79440154   -3.4080122   -3.4080122   -2.5264349   0.13715279   -3.4080122   0.88157734   421013 
  325000   0.79314291    -3.407548    -3.407548   -2.5273674    0.1237919    -3.407548   0.88018059   421013 
  326000   0.79281296    -3.408171    -3.408171   -2.5283566   0.14407088    -3.408171   0.87981443   421013 
  327000   0.79190296   -3.4080219   -3.4080219   -2.5292174   0.13669729   -3.4080219   0.87880457   421013 
  328000   0.79164042   -3.4089602   -3.4089602    -2.530447   0.14875818   -3.4089602   0.87851322   421013 
  329000   0.79257735   -3.4102483   -3.4102483   -2.5306953   0.13571513   -3.4102483   0.87955297   421013 
  330000   0.79205295   -3.4105024   -3.4105024   -2.5315314   0.12530691   -3.4105024   0.87897103   421013 
  331000    0.7915138   -3.4108749   -3.4108749   -2.5325022   0.13623114   -3.4108749   0.87837271   421013 
  332000   0.79116558   -3.4113934   -3.4113934   -2.5334072   0.13983275   -3.4113934   0.87798628   421013 
  333000   0.79033897    -3.412337    -3.412337    -2.535268   0.13303327    -3.412337   0.87706895   421013 
  334000   0.78957021   -3.4132555   -3.4132555   -2.5370397   0.12422803   -3.4132555   0.87621583   421013 
  335000    0.7884263   -3.4125025   -3.4125025   -2.5375561   0.15276362   -3.4125025   0.87494639   421013 
  336000   0.79017957   -3.4152456   -3.4152456   -2.5383535   0.12838394   -3.4152456   0.87689206   421013 
  337000   0.79021058   -3.4159596   -3.4159596   -2.5390331   0.13481307   -3.4159596   0.87692648   421013 
  338000   0.78985079   -3.4166294   -3.4166294   -2.5401022   0.12024493   -3.4166294    0.8765272   421013 
  339000   0.78819134   -3.4154878   -3.4154878   -2.5408021   0.11836925   -3.4154878   0.87468565   421013 
  340000   0.78871911   -3.4172004   -3.4172004    -2.541929   0.12993125   -3.4172004   0.87527133   421013 
  341000   0.78733748   -3.4171351   -3.4171351    -2.543397   0.12548907   -3.4171351   0.87373809   421013 
  342000   0.78827499   -3.4196378   -3.4196378   -2.5448593   0.13280648   -3.4196378   0.87477847   421013 
  343000   0.78803475    -3.420504    -3.420504   -2.5459922   0.13127832    -3.420504   0.87451187   421013 
  344000   0.78676992    -3.419262    -3.419262   -2.5461537   0.11899094    -3.419262   0.87310825   421013 
  345000   0.78768512   -3.4212146   -3.4212146   -2.5470908    0.1210707   -3.4212146   0.87412387   421013 
  346000   0.78709172   -3.4211622   -3.4211622   -2.5476969   0.13159737   -3.4211622   0.87346535   421013 
  347000   0.78788382    -3.423055    -3.423055   -2.5487106   0.12257805    -3.423055   0.87434438   421013 
  348000   0.78878099   -3.4239617   -3.4239617   -2.5486217   0.11597951   -3.4239617   0.87534001   421013 
  349000   0.78751073   -3.4236423   -3.4236423   -2.5497119   0.12378462   -3.4236423   0.87393035   421013 
  350000   0.78975301   -3.4265397   -3.4265397    -2.550121   0.13483483   -3.4265397   0.87641869   421013 
  351000   0.78661217   -3.4256849   -3.4256849   -2.5527517   0.11597488   -3.4256849   0.87293318   421013 
  352000   0.78601244   -3.4262765   -3.4262765   -2.5540088   0.12381293   -3.4262765   0.87226764   421013 
  353000   0.78554924   -3.4269718   -3.4269718   -2.5552181   0.13221276   -3.4269718   0.87175361   421013 
  354000   0.78574289   -3.4276841   -3.4276841   -2.5557155   0.12700404   -3.4276841   0.87196852   421013 
  355000   0.78444559   -3.4284088   -3.4284088   -2.5578799   0.12481069   -3.4284088   0.87052885   421013 
  356000   0.78332752   -3.4280107   -3.4280107   -2.5587227   0.13458964   -3.4280107   0.86928808   421013 
  357000   0.78341594   -3.4291126   -3.4291126   -2.5597264   0.12484365   -3.4291126   0.86938621   421013 
  358000   0.78353412   -3.4293938   -3.4293938   -2.5598765   0.12402136   -3.4293938   0.86951736   421013 
  359000   0.78313443   -3.4291044   -3.4291044   -2.5600306   0.13330875   -3.4291044    0.8690738   421013 
  360000   0.78334629   -3.4299658   -3.4299658   -2.5606569   0.13109232   -3.4299658   0.86930891   421013 
  361000   0.78465177   -3.4321999   -3.4321999   -2.5614423   0.12797922   -3.4321999   0.87075765   421013 
  362000   0.78285623   -3.4315413   -3.4315413   -2.5627762   0.13207096   -3.4315413   0.86876508   421013 
  363000   0.78231968   -3.4328505   -3.4328505   -2.5646808   0.12451919   -3.4328505   0.86816964   421013 
  364000   0.78169616   -3.4333205   -3.4333205   -2.5658428   0.14737822   -3.4333205    0.8674777   421013 
  365000   0.78124513   -3.4337847   -3.4337847   -2.5668076   0.12581063   -3.4337847   0.86697718   421013 
  366000   0.78011165   -3.4342629   -3.4342629   -2.5685436   0.11978986   -3.4342629   0.86571931   421013 
  367000   0.78082598   -3.4356426   -3.4356426   -2.5691305   0.13103946   -3.4356426   0.86651203   421013 
  368000   0.78083912   -3.4357656   -3.4357656    -2.569239   0.13828334   -3.4357656   0.86652661   421013 
  369000   0.77914503   -3.4341583   -3.4341583   -2.5695117   0.12288055   -3.4341583   0.86464661   421013 
  370000   0.78027945   -3.4370527   -3.4370527   -2.5711472   0.13612613   -3.4370527   0.86590553   421013 
  371000   0.78133544   -3.4388038   -3.4388038   -2.5717265   0.12599463   -3.4388038    0.8670774   421013 
  372000   0.77858979   -3.4365919   -3.4365919   -2.5725615   0.11996632   -3.4365919   0.86403045   421013 
  373000   0.77876395   -3.4377113   -3.4377113   -2.5734876   0.11631539   -3.4377113   0.86422372   421013 
  374000   0.77762319   -3.4365671   -3.4365671   -2.5736093   0.14765977   -3.4365671   0.86295777   421013 
  375000   0.77848455   -3.4381615   -3.4381615   -2.5742479   0.12490285   -3.4381615   0.86391366   421013 
  376000   0.77846966   -3.4392023   -3.4392023   -2.5753051   0.12356183   -3.4392023   0.86389714   421013 
  377000    0.7782626   -3.4397794   -3.4397794    -2.576112    0.1340514   -3.4397794   0.86366735   421013 
  378000   0.77946215   -3.4418763   -3.4418763   -2.5768777   0.12881292   -3.4418763   0.86499854   421013 
  379000   0.77781493   -3.4408492   -3.4408492   -2.5776786   0.13585719   -3.4408492   0.86317055   421013 
  380000   0.77944788   -3.4435592   -3.4435592   -2.5785765   0.12318905   -3.4435592    0.8649827   421013 
  381000   0.77678747   -3.4410839   -3.4410839   -2.5790535   0.12397224   -3.4410839   0.86203034   421013 
  382000   0.77669905   -3.4419514   -3.4419514   -2.5800192    0.1295068   -3.4419514   0.86193222   421013 
  383000   0.77684751   -3.4428411   -3.4428411   -2.5807441   0.12439658   -3.4428411   0.86209697   421013 
  384000   0.77608285   -3.4427527   -3.4427527   -2.5815043   0.12446121   -3.4427527    0.8612484   421013 
  385000   0.77733123   -3.4444488   -3.4444488    -2.581815   0.12627897   -3.4444488   0.86263377   421013 
  386000   0.77679801   -3.4450615   -3.4450615   -2.5830194   0.13571753   -3.4450615   0.86204204   421013 
  387000   0.77662733   -3.4459794   -3.4459794   -2.5841268   0.12444064   -3.4459794   0.86185263   421013 
  388000    0.7747545   -3.4445226   -3.4445226   -2.5847483   0.12369014   -3.4445226   0.85977428   421013 
  389000   0.77523541   -3.4464125   -3.4464125   -2.5861045   0.12620755   -3.4464125   0.86030797   421013 
  390000   0.77465429   -3.4466013   -3.4466013   -2.5869382   0.12212469   -3.4466013   0.85966308   421013 
  391000   0.77484461   -3.4485525   -3.4485525   -2.5886782   0.10773755   -3.4485525   0.85987428   421013 
  392000   0.77485653   -3.4495556   -3.4495556   -2.5896681   0.12103587   -3.4495556   0.85988751   421013 
  393000    0.7741783   -3.4489939   -3.4489939    -2.589859   0.13075016   -3.4489939   0.85913485   421013 
  394000   0.77341448   -3.4492791   -3.4492791   -2.5909918   0.11471737   -3.4492791   0.85828721   421013 
  395000   0.77462762   -3.4518043   -3.4518043   -2.5921709   0.13822366   -3.4518043   0.85963347   421013 
  396000   0.77417306   -3.4524246   -3.4524246   -2.5932956   0.11520877   -3.4524246   0.85912904   421013 
  397000   0.77473999   -3.4536228   -3.4536228   -2.5938646   0.13101636   -3.4536228   0.85975818   421013 
  398000   0.77368658   -3.4525962   -3.4525962   -2.5940071   0.10713074   -3.4525962   0.85858917   421013 
  399000   0.77273568   -3.4526283   -3.4526283   -2.5950943   0.12373727   -3.4526283   0.85753392   421013 
  400000   0.77174699   -3.4524655   -3.4524655   -2.5960287   0.12390498   -3.4524655   0.85643674   421013 
  401000   0.77277599   -3.4542593   -3.4542593   -2.5966806   0.12410565   -3.4542593   0.85757866   421013 
  402000   0.77247803   -3.4550809   -3.4550809   -2.5978329   0.11465797   -3.4550809     0.857248   421013 
  403000   0.77116416   -3.4547737   -3.4547737   -2.5989838   0.13228792   -3.4547737   0.85578995   421013 
  404000   0.77097981   -3.4554901   -3.4554901   -2.5999048   0.11880863   -3.4554901   0.85558537   421013 
  405000   0.77077988   -3.4558835   -3.4558835     -2.60052   0.11781911   -3.4558835    0.8553635   421013 
  406000    0.7705076   -3.4565559   -3.4565559   -2.6014945   0.12211074   -3.4565559   0.85506134   421013 
  407000   0.76943716   -3.4561038   -3.4561038   -2.6022304   0.14433245   -3.4561038   0.85387343   421013 
  408000   0.76986286   -3.4565165   -3.4565165   -2.6021707   0.11568278   -3.4565165   0.85434584   421013 
  409000   0.77095182   -3.4582748   -3.4582748   -2.6027205   0.12075022   -3.4582748    0.8555543   421013 
  410000   0.76892376   -3.4570657   -3.4570657    -2.603762   0.12589839   -3.4570657   0.85330369   421013 
  411000   0.77135272   -3.4603909   -3.4603909   -2.6043917   0.12322077   -3.4603909   0.85599919   421013 
  412000    0.7689644   -3.4590786   -3.4590786   -2.6057298   0.11315016   -3.4590786   0.85334878   421013 
  413000   0.76746311   -3.4576786   -3.4576786   -2.6059959   0.12307192   -3.4576786   0.85168275   421013 
  414000   0.76826116   -3.4596305   -3.4596305   -2.6070621   0.11168644   -3.4596305   0.85256838   421013 
  415000   0.76799616   -3.4603789   -3.4603789   -2.6081046   0.11656226   -3.4603789   0.85227429   421013 
  416000   0.76780722   -3.4610634   -3.4610634   -2.6089987   0.12075311   -3.4610634   0.85206463   421013 
  417000   0.76727102   -3.4608166   -3.4608166    -2.609347    0.1229662   -3.4608166   0.85146958   421013 
  418000   0.76775907   -3.4625589   -3.4625589   -2.6105478   0.12366225   -3.4625589   0.85201118   421013 
  419000   0.76583058   -3.4612152   -3.4612152   -2.6113441   0.11608194   -3.4612152   0.84987107   421013 
  420000   0.76619938    -3.462987    -3.462987   -2.6127066    0.1269271    -3.462987   0.85028034   421013 
  421000   0.76677239   -3.4642843   -3.4642843    -2.613368   0.13946113   -3.4642843   0.85091623   421013 
  422000   0.76673771   -3.4657577   -3.4657577     -2.61488   0.12824581   -3.4657577   0.85087774   421013 
  423000   0.76630755   -3.4654305   -3.4654305   -2.6150301   0.11805064   -3.4654305   0.85040038   421013 
  424000   0.76538666   -3.4654621   -3.4654621   -2.6160837   0.12984103   -3.4654621   0.84937844   421013 
  425000   0.76525691   -3.4666914   -3.4666914    -2.617457   0.11795974   -3.4666914   0.84923445   421013 
  426000   0.76404653   -3.4662825   -3.4662825   -2.6183912    0.1243051   -3.4662825   0.84789124   421013 
  427000   0.76513724   -3.4677555   -3.4677555   -2.6186538    0.1209616   -3.4677555   0.84910164   421013 
  428000   0.76455121   -3.4684819   -3.4684819   -2.6200306   0.12023128   -3.4684819    0.8484513   421013 
  429000   0.76366306   -3.4676652   -3.4676652   -2.6201995   0.11461335   -3.4676652   0.84746569   421013 
  430000   0.76382563   -3.4688507   -3.4688507   -2.6212046   0.12142839   -3.4688507    0.8476461   421013 
  431000   0.76347472   -3.4682522   -3.4682522   -2.6209955   0.12193299   -3.4682522   0.84725669   421013 
  432000   0.76211255   -3.4682142   -3.4682142   -2.6224691   0.11670492   -3.4682142   0.84574503   421013 
  433000   0.76322501   -3.4709124   -3.4709124   -2.6239328   0.12238888   -3.4709124   0.84697957   421013 
  434000    0.7624064   -3.4703898   -3.4703898   -2.6243187   0.12201048   -3.4703898   0.84607113   421013 
  435000   0.76078096   -3.4691937   -3.4691937   -2.6249264   0.12342041   -3.4691937   0.84426731   421013 
  436000   0.76324538   -3.4727309   -3.4727309   -2.6257287   0.12961467   -3.4727309   0.84700218   421013 
  437000   0.76186412   -3.4716088   -3.4716088   -2.6261395  0.098177006   -3.4716088   0.84546934   421013 
  438000   0.76270404   -3.4737548   -3.4737548   -2.6273534   0.11516699   -3.4737548   0.84640143   421013 
  439000   0.76213137   -3.4739668   -3.4739668   -2.6282008   0.11337569   -3.4739668   0.84576591   421013 
  440000   0.76285293   -3.4757912   -3.4757912   -2.6292246   0.10981169   -3.4757912   0.84656666   421013 
  441000   0.76000632   -3.4739515   -3.4739515   -2.6305438   0.11139048   -3.4739515   0.84340767   421013 
  442000   0.76132801   -3.4769499   -3.4769499   -2.6320755    0.1204973   -3.4769499    0.8448744   421013 
  443000   0.76044919   -3.4768325   -3.4768325   -2.6329333   0.12097848   -3.4768325   0.84389914   421013 
  444000   0.75828841     -3.47524     -3.47524   -2.6337388    0.1234348     -3.47524   0.84150124   421013 
  445000   0.75765303   -3.4745747   -3.4745747   -2.6337786   0.11738155   -3.4745747   0.84079613   421013 
  446000   0.75878561   -3.4764082   -3.4764082   -2.6343552    0.1117387   -3.4764082     0.842053   421013 
  447000   0.75976156   -3.4786306   -3.4786306   -2.6354945   0.13319901   -3.4786306   0.84313605   421013 
  448000    0.7598379   -3.4791845   -3.4791845   -2.6359637   0.11740178   -3.4791845   0.84322077   421013 
  449000   0.75885606   -3.4790756   -3.4790756   -2.6369444   0.11481618   -3.4790756   0.84213119   421013 
  450000   0.75806933   -3.4796777   -3.4796777   -2.6384195   0.10870693   -3.4796777   0.84125812   421013 
  451000   0.75837584   -3.4801857   -3.4801857   -2.6385874   0.11151426   -3.4801857   0.84159827   421013 
  452000   0.75859897   -3.4808826   -3.4808826   -2.6390367   0.12476196   -3.4808826   0.84184588   421013 
  453000    0.7585129   -3.4822139   -3.4822139   -2.6404635   0.11082949   -3.4822139   0.84175037   421013 
  454000   0.75982141    -3.484222    -3.484222   -2.6410196   0.12827059    -3.484222   0.84320246   421013 
  455000   0.75738956   -3.4817863   -3.4817863   -2.6412825   0.10860318   -3.4817863   0.84050375   421013 
  456000   0.75721851   -3.4827597   -3.4827597   -2.6424458   0.12918788   -3.4827597   0.84031393   421013 
  457000    0.7572509   -3.4840232   -3.4840232   -2.6436733   0.11047113   -3.4840232   0.84034988   421013 
  458000   0.75810222   -3.4853906   -3.4853906    -2.644096    0.1347804   -3.4853906   0.84129461   421013 
  459000   0.75751646   -3.4856321   -3.4856321   -2.6449876   0.12139102   -3.4856321   0.84064457   421013 
  460000   0.75717069   -3.4858637   -3.4858637   -2.6456029   0.12514627   -3.4858637   0.84026086   421013 
  461000   0.75649999   -3.4866712   -3.4866712   -2.6471547   0.10883621   -3.4866712   0.83951656   421013 
  462000   0.75596031   -3.4865299   -3.4865299   -2.6476122   0.12632447   -3.4865299   0.83891766   421013 
  463000   0.75619143   -3.4877581   -3.4877581   -2.6485839   0.12513412   -3.4877581   0.83917415   421013 
  464000   0.75541133   -3.4871348   -3.4871348   -2.6488263   0.11636492   -3.4871348   0.83830844   421013 
  465000   0.75407448   -3.4867214   -3.4867214   -2.6498965   0.11475019   -3.4867214   0.83682489   421013 
  466000   0.75520707   -3.4883257   -3.4883257   -2.6502439   0.11127754   -3.4883257   0.83808176   421013 
  467000   0.75552079   -3.4893035   -3.4893035   -2.6508736   0.12281883   -3.4893035   0.83842991   421013 
  468000   0.75532381    -3.490422    -3.490422   -2.6522107   0.11419375    -3.490422   0.83821131   421013 
  469000   0.75538809   -3.4908142   -3.4908142   -2.6525316   0.10632605   -3.4908142   0.83828264   421013 
  470000   0.75373261   -3.4907715   -3.4907715    -2.654326   0.11022723   -3.4907715    0.8364455   421013 
  471000   0.75203885   -3.4897481   -3.4897481   -2.6551823   0.11275769   -3.4897481   0.83456586   421013 
  472000   0.75047851   -3.4894451   -3.4894451   -2.6566108   0.10908378   -3.4894451    0.8328343   421013 
  473000   0.75147763   -3.4911177   -3.4911177   -2.6571747   0.11307001   -3.4911177   0.83394306   421013 
  474000   0.75172918   -3.4909946   -3.4909946   -2.6567724   0.11241345   -3.4909946   0.83422222   421013 
  475000   0.75210309   -3.4923408   -3.4923408   -2.6577036   0.12099976   -3.4923408   0.83463715   421013 
  476000   0.75101222   -3.4918426   -3.4918426    -2.658416   0.12265946   -3.4918426   0.83342658   421013 
  477000   0.75178868   -3.4936274   -3.4936274   -2.6593391   0.10662835   -3.4936274   0.83428825   421013 
  478000   0.75074366   -3.4936274   -3.4936274   -2.6604989   0.11166714   -3.4936274   0.83312854   421013 
  479000   0.75080907   -3.4947419   -3.4947419   -2.6615407   0.11242234   -3.4947419   0.83320114   421013 
  480000    0.7495822   -3.4941712   -3.4941712   -2.6623316   0.12317309   -3.4941712   0.83183962   421013 
  481000   0.75182879     -3.49708     -3.49708   -2.6627473   0.11513803     -3.49708   0.83433275   421013 
  482000   0.75065317   -3.4973559   -3.4973559   -2.6643278   0.11572872   -3.4973559   0.83302812   421013 
  483000     0.750745    -3.497956    -3.497956    -2.664826   0.11118784    -3.497956   0.83313004   421013 
  484000   0.75062828   -3.4986222   -3.4986222   -2.6656217   0.11609262   -3.4986222    0.8330005   421013 
  485000   0.74975841   -3.4987311   -3.4987311   -2.6666959   0.12165023   -3.4987311   0.83203518   421013 
  486000    0.7498074   -3.4991784   -3.4991784   -2.6670889   0.11340077   -3.4991784   0.83208955   421013 
  487000   0.74968254   -3.5003797   -3.5003797   -2.6684287   0.10693934   -3.5003797   0.83195098   421013 
  488000   0.74685825   -3.4976458   -3.4976458    -2.668829   0.11392036   -3.4976458   0.82881676   421013 
  489000   0.74969625   -3.5009282   -3.5009282    -2.668962   0.10665598   -3.5009282   0.83196619   421013 
  490000   0.74816345    -3.500059    -3.500059   -2.6697938   0.11609713    -3.500059   0.83026519   421013 
  491000   0.74791897   -3.5006725   -3.5006725   -2.6706786   0.10773068   -3.5006725   0.82999388   421013 
  492000   0.74769169   -3.5013994   -3.5013994   -2.6716578   0.10193529   -3.5013994   0.82974166   421013 
  493000   0.74707557   -3.5007147   -3.5007147   -2.6716568   0.11963571   -3.5007147   0.82905793   421013 
  494000   0.74830284   -3.5033227   -3.5033227   -2.6729029   0.11754335   -3.5033227   0.83041987   421013 
  495000   0.74788029   -3.5033678   -3.5033678   -2.6734168   0.11368475   -3.5033678   0.82995096   421013 
  496000     0.746927   -3.5033834   -3.5033834   -2.6744903    0.1144042   -3.5033834   0.82889305   421013 
  497000   0.74755282   -3.5054092   -3.5054092   -2.6758216   0.10756377   -3.5054092   0.82958755   421013 
  498000   0.74707681   -3.5050165   -3.5050165   -2.6759572    0.1059821   -3.5050165    0.8290593   421013 
  499000   0.74594404   -3.5051162   -3.5051162    -2.677314   0.11233277   -3.5051162   0.82780223   421013 
  500000    0.7458599   -3.5060295   -3.5060295   -2.6783206   0.11796187   -3.5060295   0.82770885   421013 
  501000   0.74527339   -3.5056937   -3.5056937   -2.6786357   0.11768214   -3.5056937   0.82705798   421013 
  502000   0.74500865   -3.5057045   -3.5057045   -2.6789403   0.10586684   -3.5057045   0.82676419   421013 
  503000   0.74469822   -3.5068389   -3.5068389   -2.6804192    0.1119769   -3.5068389   0.82641969   421013 
  504000   0.74322803    -3.505593    -3.505593   -2.6808049   0.11192151    -3.505593   0.82478817   421013 
  505000   0.74547509   -3.5091386   -3.5091386   -2.6818568    0.1222537   -3.5091386   0.82728181   421013 
  506000    0.7453998   -3.5091601   -3.5091601   -2.6819618   0.09731388   -3.5091601   0.82719827   421013 
  507000   0.74426251   -3.5083414   -3.5083414   -2.6824053     0.112872   -3.5083414   0.82593617   421013 
  508000   0.74365729   -3.5071716   -3.5071716   -2.6819071   0.11038489   -3.5071716   0.82526453   421013 
  509000   0.74448857   -3.5093829   -3.5093829   -2.6831958   0.11000484   -3.5093829   0.82618704   421013 
  510000   0.74344897   -3.5094545   -3.5094545   -2.6844211   0.10998176   -3.5094545   0.82503336   421013 
  511000   0.74265339   -3.5089438   -3.5089438   -2.6847933   0.10792443   -3.5089438   0.82415047   421013 
  512000   0.74284628   -3.5104221   -3.5104221   -2.6860576    0.1079709   -3.5104221   0.82436452   421013 
  513000   0.74369428   -3.5122224   -3.5122224   -2.6869168   0.10336578   -3.5122224   0.82530558   421013 
  514000   0.74223334   -3.5105326   -3.5105326   -2.6868482   0.11515654   -3.5105326   0.82368432   421013 
  515000   0.74295905   -3.5109673   -3.5109673   -2.6864776  0.098832572   -3.5109673   0.82448967   421013 
  516000   0.74311273   -3.5123451   -3.5123451   -2.6876849   0.11962454   -3.5123451   0.82466021   421013 
  517000    0.7436623   -3.5135271   -3.5135271    -2.688257  0.092881951   -3.5135271    0.8252701   421013 
  518000    0.7432267   -3.5135521   -3.5135521   -2.6887654   0.11229122   -3.5135521   0.82478669   421013 
  519000   0.74100641   -3.5131456   -3.5131456   -2.6908229   0.11540575   -3.5131456   0.82232275   421013 
  520000   0.74194329   -3.5144111   -3.5144111   -2.6910487   0.10596248   -3.5144111   0.82336245   421013 
  521000   0.74218125   -3.5158067   -3.5158067   -2.6921802   0.10208039   -3.5158067   0.82362652   421013 
  522000   0.74261712   -3.5164092   -3.5164092    -2.692299   0.11625983   -3.5164092   0.82411022   421013 
  523000   0.74000843   -3.5144474   -3.5144474   -2.6932322   0.11113937   -3.5144474   0.82121526   421013 
  524000   0.74185839   -3.5170748   -3.5170748   -2.6938065  0.095974733   -3.5170748   0.82326822   421013 
  525000   0.74155496   -3.5169109   -3.5169109   -2.6939794  0.099576346   -3.5169109   0.82293149   421013 
  526000   0.74011651   -3.5158994   -3.5158994   -2.6945642   0.10605491   -3.5158994   0.82133519   421013 
  527000   0.74023821   -3.5169193   -3.5169193   -2.6954491   0.11305782   -3.5169193   0.82147025   421013 
  528000   0.73937917   -3.5164429   -3.5164429   -2.6959259   0.10275378   -3.5164429   0.82051694   421013 
  529000   0.73932758   -3.5168018   -3.5168018   -2.6963421   0.11779368   -3.5168018   0.82045969   421013 
  530000   0.73878193   -3.5166775   -3.5166775   -2.6968233   0.10691974   -3.5166775   0.81985417   421013 
  531000   0.73738943   -3.5154096   -3.5154096   -2.6971008  0.088914731   -3.5154096   0.81830886   421013 
  532000   0.73836679   -3.5171901   -3.5171901   -2.6977967   0.11264699   -3.5171901   0.81939346   421013 
  533000   0.73762892   -3.5179916   -3.5179916    -2.699417   0.10119942   -3.5179916   0.81857463   421013 
  534000   0.73706934   -3.5179873   -3.5179873   -2.7000336   0.11104914   -3.5179873   0.81795363   421013 
  535000   0.73776397   -3.5188525   -3.5188525   -2.7001281   0.10930827   -3.5188525   0.81872449   421013 
  536000   0.73789815   -3.5196793   -3.5196793   -2.7008059   0.11532776   -3.5196793    0.8188734   421013 
  537000   0.73764198   -3.5199379   -3.5199379   -2.7013488   0.11376329   -3.5199379   0.81858912   421013 
  538000   0.73673891   -3.5196391   -3.5196391   -2.7020522   0.11401801   -3.5196391   0.81758694   421013 
  539000   0.73635327   -3.5197052   -3.5197052   -2.7025462   0.10451496   -3.5197052   0.81715898   421013 
  540000   0.73529392   -3.5189032   -3.5189032   -2.7029198  0.094896819   -3.5189032   0.81598338   421013 
  541000   0.73655015   -3.5211268   -3.5211268   -2.7037493   0.10205538   -3.5211268   0.81737747   421013 
  542000   0.73689434   -3.5220896   -3.5220896   -2.7043302   0.10454136   -3.5220896   0.81775943   421013 
  543000   0.73590407   -3.5214812   -3.5214812   -2.7048208   0.11570805   -3.5214812   0.81666049   421013 
  544000    0.7354994    -3.522534    -3.522534   -2.7063226  0.099868134    -3.522534   0.81621141   421013 
  545000   0.73659972   -3.5242856   -3.5242856   -2.7068531   0.11256943   -3.5242856   0.81743248   421013 
  546000   0.73497546   -3.5232765   -3.5232765   -2.7076465   0.11920014   -3.5232765   0.81562998   421013 
  547000   0.73651464   -3.5262958   -3.5262958   -2.7089578  0.088296727   -3.5262958   0.81733806   421013 
  548000   0.73479514   -3.5251641   -3.5251641   -2.7097343   0.10977809   -3.5251641   0.81542988   421013 
  549000   0.73451737   -3.5262915   -3.5262915   -2.7111699   0.10777229   -3.5262915   0.81512162   421013 
  550000   0.73467972    -3.526867    -3.526867   -2.7115652   0.11853611    -3.526867   0.81530178   421013 
  551000   0.73502708   -3.5272884   -3.5272884   -2.7116011   0.10007544   -3.5272884   0.81568726   421013 
  552000   0.73397465   -3.5273872   -3.5273872   -2.7128678   0.10428987   -3.5273872   0.81451935   421013 
  553000   0.73318315   -3.5267437   -3.5267437   -2.7131027   0.10416931   -3.5267437   0.81364099   421013 
  554000   0.73305497   -3.5272335   -3.5272335   -2.7137348   0.11290912   -3.5272335   0.81349874   421013 
  555000    0.7337871   -3.5278703   -3.5278703    -2.713559   0.11302439   -3.5278703   0.81431121   421013 
  556000   0.73157991   -3.5267397   -3.5267397   -2.7148778   0.11433187   -3.5267397   0.81186181   421013 
  557000   0.73250617   -3.5286263   -3.5286263   -2.7157366   0.09899176   -3.5286263   0.81288971   421013 
  558000   0.73211141   -3.5285479   -3.5285479   -2.7160963   0.11026075   -3.5285479   0.81245163   421013 
  559000   0.73234313   -3.5290096   -3.5290096   -2.7163008   0.10777586   -3.5290096   0.81270878   421013 
  560000   0.73224123   -3.5299526   -3.5299526   -2.7173569   0.10923472   -3.5299526    0.8125957   421013 
  561000   0.73239877   -3.5313829   -3.5313829   -2.7186124   0.10395632   -3.5313829   0.81277053   421013 
  562000   0.73312997   -3.5325389   -3.5325389   -2.7189569  0.097917268   -3.5325389   0.81358196   421013 
  563000   0.73242235   -3.5320528   -3.5320528   -2.7192561   0.10609984   -3.5320528   0.81279669   421013 
  564000   0.73229583   -3.5322669   -3.5322669   -2.7196106  0.098459268   -3.5322669    0.8126563   421013 
  565000   0.73232615   -3.5337303   -3.5337303   -2.7210403   0.10162023   -3.5337303   0.81268994   421013 
  566000   0.73182419   -3.5332164   -3.5332164   -2.7210835   0.09775578   -3.5332164   0.81213289   421013 
  567000    0.7306634   -3.5315682   -3.5315682   -2.7207235  0.099878122   -3.5315682   0.81084473   421013 
  568000   0.73132954   -3.5321171   -3.5321171   -2.7205332  0.087314028   -3.5321171   0.81158396   421013 
  569000   0.73073712   -3.5329338   -3.5329338   -2.7220073  0.095958912   -3.5329338   0.81092654   421013 
  570000   0.73143151   -3.5336527   -3.5336527   -2.7219556    0.1038466   -3.5336527   0.81169712   421013 
  571000    0.7310843   -3.5329744   -3.5329744   -2.7216626  0.091616512   -3.5329744   0.81131182   421013 
  572000   0.73131563   -3.5337849   -3.5337849   -2.7222164   0.10228164   -3.5337849   0.81156852   421013 
  573000   0.73131062   -3.5348425   -3.5348425   -2.7232796   0.11306446   -3.5348425   0.81156297   421013 
  574000   0.73129058   -3.5361585   -3.5361585   -2.7246178   0.10783763   -3.5361585   0.81154073   421013 
  575000    0.7298354   -3.5350387   -3.5350387   -2.7251128  0.099433375   -3.5350387   0.80992586   421013 
  576000   0.72921754   -3.5353483   -3.5353483   -2.7261082  0.090391259   -3.5353483   0.80924019   421013 
  577000   0.72985741   -3.5372708   -3.5372708   -2.7273205   0.10724858   -3.5372708   0.80995029   421013 
  578000   0.73019354    -3.537147    -3.537147   -2.7268237   0.10588624    -3.537147    0.8103233   421013 
  579000    0.7298546   -3.5377121   -3.5377121   -2.7277649   0.10608474   -3.5377121   0.80994717   421013 
  580000   0.72911069   -3.5369508   -3.5369508   -2.7278291   0.12163307   -3.5369508   0.80912162   421013 
  581000   0.72973846   -3.5396422   -3.5396422   -2.7298239   0.10468376   -3.5396422   0.80981828   421013 
  582000     0.728584   -3.5383134   -3.5383134   -2.7297763   0.10182932   -3.5383134   0.80853714   421013 
  583000   0.72610936   -3.5365791   -3.5365791   -2.7307882   0.10569348   -3.5365791   0.80579094   421013 
  584000   0.72930067   -3.5406976   -3.5406976   -2.7313651   0.09258641   -3.5406976   0.80933245   421013 
  585000    0.7278224   -3.5394723   -3.5394723   -2.7317803   0.10701344   -3.5394723   0.80769196   421013 
  586000   0.72750749   -3.5404742   -3.5404742   -2.7331317  0.099700386   -3.5404742   0.80734249   421013 
  587000   0.72723982   -3.5404985   -3.5404985    -2.733453   0.10160268   -3.5404985   0.80704544   421013 
  588000   0.72793565   -3.5424282   -3.5424282   -2.7346105  0.093630066   -3.5424282   0.80781764   421013 
  589000   0.72663422   -3.5418867   -3.5418867   -2.7355133  0.096518675   -3.5418867    0.8063734   421013 
  590000   0.72793572   -3.5435746   -3.5435746   -2.7357569  0.094201646   -3.5435746   0.80781772   421013 
  591000   0.72787844   -3.5442576   -3.5442576   -2.7365034  0.094933033   -3.5442576   0.80775415   421013 
  592000   0.72685243   -3.5432836   -3.5432836   -2.7366681  0.097021841   -3.5432836   0.80661555   421013 
  593000   0.72655498   -3.5439526   -3.5439526   -2.7376671   0.08921343   -3.5439526   0.80628546   421013 
  594000   0.72530008   -3.5440451   -3.5440451   -2.7391523  0.099363895   -3.5440451   0.80489284   421013 
  595000   0.72627416   -3.5456215   -3.5456215   -2.7396477  0.088123334   -3.5456215   0.80597382   421013 
  596000   0.72536131    -3.545068    -3.545068   -2.7401072  0.097867912    -3.545068   0.80496079   421013 
  597000   0.72405042   -3.5443832   -3.5443832   -2.7408772   0.10331083   -3.5443832   0.80350605   421013 
  598000   0.72445239   -3.5456888   -3.5456888   -2.7417366  0.091626594   -3.5456888   0.80395213   421013 
  599000   0.72384167   -3.5455251   -3.5455251   -2.7422507   0.11935125   -3.5455251   0.80327439   421013 
  600000   0.72351268   -3.5469378   -3.5469378   -2.7440285  0.089616421   -3.5469378    0.8029093   421013 
  601000    0.7233554     -3.54783     -3.54783   -2.7450952   0.10911079     -3.54783   0.80273477   421013 
  602000   0.72451144   -3.5489538   -3.5489538   -2.7449361  0.090232525   -3.5489538   0.80401766   421013 
  603000   0.72391883   -3.5481533   -3.5481533   -2.7447933   0.10725315   -3.5481533   0.80336002   421013 
  604000   0.72321088   -3.5480954   -3.5480954    -2.745521   0.11350848   -3.5480954   0.80257438   421013 
  605000   0.72407797   -3.5497868   -3.5497868   -2.7462501  0.098375783   -3.5497868   0.80353663   421013 
  606000    0.7239255   -3.5496781   -3.5496781   -2.7463107  0.091563487   -3.5496781   0.80336742   421013 
  607000   0.72233368   -3.5488832   -3.5488832   -2.7472823  0.097508413   -3.5488832   0.80160092   421013 
  608000   0.72316693   -3.5503583   -3.5503583   -2.7478327  0.090766892   -3.5503583   0.80252561   421013 
  609000   0.72323469   -3.5511336   -3.5511336   -2.7485328  0.089441107   -3.5511336   0.80260081   421013 
  610000   0.72132916   -3.5491843   -3.5491843   -2.7486981  0.096666445   -3.5491843   0.80048617   421013 
  611000   0.72270546   -3.5513559   -3.5513559   -2.7493424   0.10054942   -3.5513559    0.8020135   421013 
  612000   0.72151795   -3.5503587   -3.5503587   -2.7496631   0.08964024   -3.5503587   0.80069568   421013 
  613000   0.72147918   -3.5508103   -3.5508103   -2.7501576  0.093114532   -3.5508103   0.80065264   421013 
  614000   0.72278721   -3.5526527   -3.5526527   -2.7505485   0.10337867   -3.5526527   0.80210422   421013 
  615000   0.72184382   -3.5527741   -3.5527741   -2.7517168    0.1118684   -3.5527741   0.80105731   421013 
  616000   0.72160802   -3.5529868   -3.5529868   -2.7521911  0.090800386   -3.5529868   0.80079563   421013 
  617000   0.72142044   -3.5531781   -3.5531781   -2.7525906  0.096351691   -3.5531781   0.80058746   421013 
  618000   0.72142421   -3.5549143   -3.5549143   -2.7543227  0.093389333   -3.5549143   0.80059165   421013 
  619000   0.72038401   -3.5538116   -3.5538116   -2.7543743  0.096038738   -3.5538116    0.7994373   421013 
  620000   0.72015239    -3.553858    -3.553858   -2.7546777   0.10586461    -3.553858   0.79918026   421013 
  621000   0.72109304   -3.5560599   -3.5560599   -2.7558357   0.10611204   -3.5560599   0.80022414   421013 
  622000   0.71988698   -3.5552394   -3.5552394   -2.7563537  0.087971502   -3.5552394   0.79888572   421013 
  623000   0.72021316   -3.5562834   -3.5562834   -2.7570357  0.097388046   -3.5562834    0.7992477   421013 
  624000   0.71982686   -3.5568525   -3.5568525   -2.7580335  0.095063205   -3.5568525   0.79881901   421013 
  625000   0.71896613   -3.5552761   -3.5552761   -2.7574123  0.098888603   -3.5552761   0.79786382   421013 
  626000   0.71866132   -3.5556403   -3.5556403   -2.7581147    0.1057453   -3.5556403   0.79752556   421013 
  627000   0.71976586    -3.557536    -3.557536   -2.7587847  0.090585161    -3.557536   0.79875131   421013 
  628000    0.7193757   -3.5567742   -3.5567742   -2.7584558  0.078101541   -3.5567742   0.79831834   421013 
  629000   0.71895957   -3.5576135   -3.5576135   -2.7597569  0.096077672   -3.5576135   0.79785654   421013 
  630000   0.71842993   -3.5571867   -3.5571867   -2.7599179  0.078980632   -3.5571867   0.79726878   421013 
  631000   0.71847821   -3.5574171   -3.5574171   -2.7600947   0.10109464   -3.5574171   0.79732236   421013 
  632000   0.71921933     -3.55889     -3.55889   -2.7607452  0.092550229     -3.55889   0.79814481   421013 
  633000   0.71833789   -3.5577934   -3.5577934   -2.7606267  0.084782067   -3.5577934   0.79716664   421013 
  634000   0.71761694   -3.5578803   -3.5578803   -2.7615138  0.094369646   -3.5578803   0.79636658   421013 
  635000   0.71746945   -3.5580918   -3.5580918   -2.7618889   0.10497411   -3.5580918   0.79620291   421013 
  636000   0.71607505    -3.557894    -3.557894   -2.7632385   0.10043753    -3.557894   0.79465548   421013 
  637000   0.71714842   -3.5603529   -3.5603529   -2.7645062  0.088826402   -3.5603529   0.79584664   421013 
  638000   0.71838528   -3.5621716   -3.5621716   -2.7649523  0.080538944   -3.5621716   0.79721923   421013 
  639000   0.71647356   -3.5605335   -3.5605335   -2.7654358  0.085026306   -3.5605335   0.79509772   421013 
  640000   0.71711825   -3.5622106   -3.5622106   -2.7663975  0.097765547   -3.5622106   0.79581317   421013 
  641000   0.71687831   -3.5628302   -3.5628302   -2.7672833  0.098066925   -3.5628302   0.79554689   421013 
  642000    0.7174289   -3.5640567   -3.5640567   -2.7678988  0.095154187   -3.5640567    0.7961579   421013 
  643000   0.71611375   -3.5633338   -3.5633338   -2.7686353  0.090595104   -3.5633338   0.79469843   421013 
  644000   0.71648561     -3.56477     -3.56477   -2.7696589   0.08909515     -3.56477   0.79511109   421013 
  645000   0.71594276   -3.5644295   -3.5644295   -2.7699208   0.10875562   -3.5644295   0.79450868   421013 
  646000   0.71607834   -3.5651858   -3.5651858   -2.7705266  0.092348786   -3.5651858   0.79465913   421013 
  647000     0.715209   -3.5644577   -3.5644577   -2.7707633   0.10851154   -3.5644577   0.79369439   421013 
  648000   0.71562773    -3.566529    -3.566529   -2.7723699  0.094078889    -3.566529   0.79415908   421013 
  649000   0.71508695   -3.5658253   -3.5658253   -2.7722664  0.087741708   -3.5658253   0.79355895   421013 
  650000   0.71422217   -3.5659648   -3.5659648   -2.7733656  0.079860935   -3.5659648   0.79259927   421013 
  651000   0.71408314    -3.565514    -3.565514    -2.773069  0.086964716    -3.565514   0.79244498   421013 
  652000   0.71426343   -3.5665857   -3.5665857   -2.7739406  0.085546151   -3.5665857   0.79264505   421013 
  653000   0.71541665   -3.5674083   -3.5674083   -2.7734835  0.092763545   -3.5674083   0.79392483   421013 
  654000   0.71377403   -3.5660923   -3.5660923   -2.7739903  0.095569766   -3.5660923   0.79210196   421013 
  655000   0.71410554   -3.5669453   -3.5669453   -2.7744755    0.0969139   -3.5669453   0.79246985   421013 
  656000   0.71286421   -3.5660611   -3.5660611   -2.7749688  0.088670046   -3.5660611   0.79109229   421013 
  657000   0.71378762    -3.567952    -3.567952    -2.775835  0.088182495    -3.567952   0.79211704   421013 
  658000   0.71395027   -3.5684097   -3.5684097   -2.7761122  0.094726355   -3.5684097   0.79229754   421013 
  659000   0.71149194   -3.5662666   -3.5662666   -2.7766972  0.087414903   -3.5662666   0.78956943   421013 
  660000   0.71344657   -3.5697659   -3.5697659   -2.7780274  0.089989573   -3.5697659   0.79173856   421013 
  661000   0.71157352   -3.5686109   -3.5686109   -2.7789509  0.082285548   -3.5686109   0.78965996   421013 
  662000   0.71286406   -3.5703377   -3.5703377   -2.7792455   0.09134644   -3.5703377   0.79109212   421013 
  663000   0.71215341   -3.5708733   -3.5708733   -2.7805698  0.093701712   -3.5708733   0.79030349   421013 
  664000   0.71279949   -3.5717701   -3.5717701   -2.7807496  0.099242628   -3.5717701   0.79102047   421013 
  665000   0.71295077   -3.5731278   -3.5731278   -2.7819395  0.081787334   -3.5731278   0.79118835   421013 
  666000    0.7122982   -3.5720418   -3.5720418   -2.7815777  0.089539355   -3.5720418   0.79046417   421013 
  667000    0.7094193   -3.5700333   -3.5700333   -2.7827639  0.081577914   -3.5700333   0.78726934   421013 
  668000   0.71219231    -3.573347    -3.573347   -2.7830003  0.093759773    -3.573347   0.79034666   421013 
  669000   0.71061306   -3.5724719   -3.5724719   -2.7838778   0.09808405   -3.5724719   0.78859411   421013 
  670000   0.71180922   -3.5740597   -3.5740597   -2.7841382   0.10074489   -3.5740597   0.78992153   421013 
  671000   0.71217543   -3.5748972   -3.5748972   -2.7845692  0.094384857   -3.5748972   0.79032793   421013 
  672000   0.71120563   -3.5746948   -3.5746948   -2.7854431  0.091807375   -3.5746948   0.78925171   421013 
  673000   0.70981494    -3.573796    -3.573796   -2.7860876  0.094619541    -3.573796    0.7877084   421013 
  674000   0.71029472    -3.574996    -3.574996   -2.7867552  0.084527092    -3.574996   0.78824084   421013 
  675000   0.71138083   -3.5780319   -3.5780319   -2.7885857  0.089900832   -3.5780319   0.78944613   421013 
  676000   0.71023678   -3.5777883   -3.5777883   -2.7896117  0.091650634   -3.5777883   0.78817653   421013 
  677000   0.70948478   -3.5771009   -3.5771009   -2.7897589  0.089228915   -3.5771009   0.78734202   421013 
  678000   0.70935616   -3.5770122   -3.5770122   -2.7898129    0.0953743   -3.5770122   0.78719927   421013 
  679000    0.7100015   -3.5773577   -3.5773577   -2.7894422  0.074799798   -3.5773577   0.78791543   421013 
  680000   0.70911543   -3.5778081   -3.5778081    -2.790876  0.098647173   -3.5778081   0.78693213   421013 
  681000   0.70932092   -3.5778764   -3.5778764   -2.7907162   0.10221307   -3.5778764   0.78716017   421013 
  682000     0.709777   -3.5784942   -3.5784942   -2.7908279  0.092442857   -3.5784942    0.7876663   421013 
  683000   0.70742621    -3.576377    -3.576377   -2.7913195  0.094080855    -3.576377   0.78505753   421013 
  684000    0.7077418   -3.5771859   -3.5771859   -2.7917782   0.08430661   -3.5771859   0.78540776   421013 
  685000   0.70869454   -3.5783456   -3.5783456   -2.7918805    0.1022602   -3.5783456   0.78646505   421013 
  686000   0.70922362    -3.579419    -3.579419   -2.7923668  0.084281766    -3.579419   0.78705219   421013 
  687000   0.70903504   -3.5795609   -3.5795609    -2.792718  0.074645082   -3.5795609   0.78684292   421013 
  688000   0.70687697   -3.5783997   -3.5783997   -2.7939517  0.073770525   -3.5783997   0.78444802   421013 
  689000   0.70858093   -3.5807407   -3.5807407   -2.7944018  0.066207725   -3.5807407   0.78633897   421013 
  690000   0.70759074   -3.5806314   -3.5806314   -2.7953913  0.090272798   -3.5806314   0.78524013   421013 
  691000   0.70884926   -3.5825169   -3.5825169   -2.7958801  0.075717539   -3.5825169   0.78663675   421013 
  692000   0.70702845   -3.5802048   -3.5802048   -2.7955886  0.079388193   -3.5802048   0.78461613   421013 
  693000   0.70677121   -3.5813009   -3.5813009   -2.7969702  0.082631756   -3.5813009   0.78433066   421013 
  694000   0.70848685   -3.5834876   -3.5834876    -2.797253  0.090197685   -3.5834876   0.78623457   421013 
  695000   0.70646837   -3.5815723   -3.5815723   -2.7975777  0.080604375   -3.5815723   0.78399459   421013 
  696000   0.70711397   -3.5822091   -3.5822091   -2.7974981  0.097612032   -3.5822091   0.78471103   421013 
  697000   0.70842655   -3.5841908   -3.5841908   -2.7980232  0.092135536   -3.5841908   0.78616765   421013 
  698000   0.70789104   -3.5830316   -3.5830316   -2.7974582   0.10397445   -3.5830316   0.78557338   421013 
  699000   0.70771232   -3.5829384   -3.5829384   -2.7975634  0.092027906   -3.5829384   0.78537504   421013 
  700000   0.70784118   -3.5838852   -3.5838852   -2.7983672  0.083401808   -3.5838852   0.78551805   421013 
  701000   0.70573023   -3.5820856   -3.5820856   -2.7989101  0.081138574   -3.5820856   0.78317545   421013 
  702000   0.70767028   -3.5844165   -3.5844165   -2.7990881  0.079515318   -3.5844165    0.7853284   421013 
  703000   0.70540021   -3.5833783   -3.5833783   -2.8005691  0.079399992   -3.5833783   0.78280921   421013 
  704000    0.7054351   -3.5832749   -3.5832749    -2.800427  0.091042136   -3.5832749   0.78284793   421013 
  705000   0.70779477   -3.5861087   -3.5861087   -2.8006422  0.096215339   -3.5861087   0.78546655   421013 
  706000   0.70679355   -3.5858585   -3.5858585    -2.801503  0.090455365   -3.5858585   0.78435546   421013 
  707000   0.70509375   -3.5845652   -3.5845652   -2.8020961   0.09370551   -3.5845652   0.78246912   421013 
  708000   0.70600079   -3.5862134   -3.5862134   -2.8027378  0.083255223   -3.5862134   0.78347569   421013 
  709000   0.70568429   -3.5871896   -3.5871896   -2.8040651  0.085543072   -3.5871896   0.78312446   421013 
  710000   0.70482929   -3.5858405   -3.5858405   -2.8036648  0.088264204   -3.5858405   0.78217563   421013 
  711000   0.70433444   -3.5859441   -3.5859441   -2.8043176  0.093762666   -3.5859441   0.78162649   421013 
  712000   0.70493293    -3.587183    -3.587183   -2.8048924  0.077292212    -3.587183   0.78229065   421013 
  713000   0.70433166   -3.5878933   -3.5878933   -2.8062699  0.084781692   -3.5878933    0.7816234   421013 
  714000   0.70506715   -3.5892186   -3.5892186    -2.806779  0.094772714   -3.5892186    0.7824396   421013 
  715000   0.70451706   -3.5884658   -3.5884658   -2.8066367  0.095997711   -3.5884658   0.78182914   421013 
  716000   0.70452399    -3.588953    -3.588953   -2.8071161   0.09543639    -3.588953   0.78183683   421013 
  717000   0.70513759   -3.5898395   -3.5898395   -2.8073217  0.078330456   -3.5898395   0.78251777   421013 
  718000   0.70440205   -3.5893197   -3.5893197   -2.8076182  0.086395766   -3.5893197   0.78170152   421013 
  719000    0.7037862   -3.5889352   -3.5889352   -2.8079172  0.090367713   -3.5889352   0.78101808   421013 
  720000   0.70333311   -3.5887731   -3.5887731   -2.8082578  0.087651533   -3.5887731   0.78051527   421013 
  721000   0.70211841   -3.5876906   -3.5876906   -2.8085234  0.096749611   -3.5876906   0.77916727   421013 
  722000    0.7049578   -3.5908152   -3.5908152    -2.808497  0.086522055   -3.5908152   0.78231825   421013 
  723000   0.70328298   -3.5901584   -3.5901584   -2.8096988  0.089840735   -3.5901584   0.78045964   421013 
  724000   0.70291757    -3.589959    -3.589959   -2.8099048   0.10799416    -3.589959   0.78005413   421013 
  725000   0.70316924   -3.5911707   -3.5911707   -2.8108372  0.085950355   -3.5911707   0.78033342   421013 
  726000   0.70218303   -3.5908642   -3.5908642   -2.8116252  0.093907783   -3.5908642   0.77923898   421013 
  727000   0.70158179   -3.5897664   -3.5897664   -2.8111947  0.082825866   -3.5897664   0.77857177   421013 
  728000   0.70185846   -3.5909205   -3.5909205   -2.8120417  0.088682013   -3.5909205    0.7788788   421013 
  729000   0.70211795     -3.59137     -3.59137   -2.8122032   0.10020594     -3.59137   0.77916676   421013 
  730000   0.70122104   -3.5909659   -3.5909659   -2.8127945  0.086506579   -3.5909659   0.77817143   421013 
  731000   0.70049844   -3.5914531   -3.5914531   -2.8140836  0.083153448   -3.5914531   0.77736953   421013 
  732000   0.70088249   -3.5928456   -3.5928456   -2.8150499  0.081493965   -3.5928456   0.77779572   421013 
  733000   0.69983204   -3.5921935   -3.5921935   -2.8155635  0.085031867   -3.5921935      0.77663   421013 
  734000   0.70009316   -3.5933504   -3.5933504   -2.8164306  0.073242305   -3.5933504   0.77691977   421013 
  735000   0.69974573   -3.5930634   -3.5930634   -2.8165291  0.096184524   -3.5930634   0.77653423   421013 
  736000   0.70000413   -3.5938988   -3.5938988   -2.8170778  0.078281483   -3.5938988   0.77682098   421013 
  737000   0.69938201   -3.5933686   -3.5933686   -2.8172381  0.092403858   -3.5933686   0.77613058   421013 
  738000   0.69914182   -3.5938835   -3.5938835   -2.8180194  0.086057646   -3.5938835   0.77586404   421013 
  739000   0.70043119   -3.5959616   -3.5959616   -2.8186667  0.082320625   -3.5959616    0.7772949   421013 
  740000    0.6993117   -3.5950714   -3.5950714   -2.8190189  0.065729167   -3.5950714   0.77605256   421013 
  741000   0.70016732   -3.5967007   -3.5967007   -2.8196987  0.083594711   -3.5967007   0.77700207   421013 
  742000   0.70068694   -3.5979733   -3.5979733   -2.8203946  0.086605372   -3.5979733   0.77757871   421013 
  743000   0.69964536   -3.5976419   -3.5976419   -2.8212191  0.090270828   -3.5976419   0.77642284   421013 
  744000   0.69871536    -3.596342    -3.596342   -2.8209512  0.073424404    -3.596342   0.77539078   421013 
  745000   0.69736994   -3.5961539   -3.5961539   -2.8222562  0.093712157   -3.5961539   0.77389772   421013 
  746000   0.69823937   -3.5970216   -3.5970216   -2.8221591  0.075062618   -3.5970216   0.77486255   421013 
  747000   0.69966034   -3.5991329   -3.5991329   -2.8226935  0.089212692   -3.5991329   0.77643946   421013 
  748000   0.69778939   -3.5979253   -3.5979253   -2.8235621  0.093661561   -3.5979253    0.7743632   421013 
  749000   0.69743411   -3.5978416   -3.5978416   -2.8238726   0.08140843   -3.5978416   0.77396893   421013 
  750000   0.69700405   -3.5972608   -3.5972608   -2.8237692  0.081012627   -3.5972608   0.77349168   421013 
  751000   0.69842005   -3.6004473   -3.6004473   -2.8253843  0.085423559   -3.6004473   0.77506306   421013 
  752000   0.69770872   -3.5994605   -3.5994605   -2.8251869  0.078660443   -3.5994605   0.77427368   421013 
  753000    0.6971475   -3.5995738   -3.5995738   -2.8259229  0.080392132   -3.5995738   0.77365086   421013 
  754000   0.69837212   -3.6014102   -3.6014102   -2.8264003  0.095341944   -3.6014102   0.77500987   421013 
  755000   0.69732639   -3.6003138   -3.6003138   -2.8264644    0.0937065   -3.6003138   0.77384939   421013 
  756000   0.69676808   -3.6002262   -3.6002262   -2.8269964  0.084450674   -3.6002262   0.77322981   421013 
  757000   0.69726128   -3.6006486   -3.6006486   -2.8268715  0.085161626   -3.6006486   0.77377714   421013 
  758000   0.69796083   -3.6012802   -3.6012802   -2.8267268  0.082779843   -3.6012802   0.77455345   421013 
  759000   0.70041761   -3.6040148   -3.6040148   -2.8267349  0.086400896   -3.6040148   0.77727984   421013 
  760000   0.69824617    -3.602607    -3.602607   -2.8277369  0.097875546    -3.602607    0.7748701   421013 
  761000   0.69776433   -3.6031114   -3.6031114    -2.828776  0.081136568   -3.6031114   0.77433539   421013 
  762000   0.69944109   -3.6052919   -3.6052919   -2.8290958  0.077857977   -3.6052919   0.77619615   421013 
  763000   0.69956236   -3.6060158   -3.6060158   -2.8296851  0.086355383   -3.6060158   0.77633072   421013 
  764000   0.69769304    -3.605033    -3.605033   -2.8307768  0.086931853    -3.605033   0.77425627   421013 
  765000   0.69856194   -3.6065465   -3.6065465    -2.831326   0.06620767   -3.6065465   0.77522052   421013 
  766000   0.69757662   -3.6054152   -3.6054152   -2.8312881  0.091923999   -3.6054152   0.77412708   421013 
  767000   0.69797523   -3.6061107   -3.6061107   -2.8315413  0.084129696   -3.6061107   0.77456943   421013 
  768000   0.69821839   -3.6072966   -3.6072966   -2.8324573  0.089433678   -3.6072966   0.77483928   421013 
  769000   0.69718515   -3.6064186   -3.6064186    -2.832726  0.090432035   -3.6064186   0.77369265   421013 
  770000   0.69512814   -3.6050525   -3.6050525   -2.8336426   0.10451313   -3.6050525   0.77140991   421013 
  771000   0.69399614   -3.6043437   -3.6043437     -2.83419  0.085285278   -3.6043437   0.77015368   421013 
  772000   0.69470268   -3.6064151   -3.6064151   -2.8354773  0.084548402   -3.6064151   0.77093776   421013 
  773000   0.69617629   -3.6077279   -3.6077279   -2.8351548  0.075322293   -3.6077279   0.77257308   421013 
  774000   0.69527875   -3.6074107   -3.6074107   -2.8358337  0.083787284   -3.6074107   0.77157704   421013 
  775000   0.69511166   -3.6071062   -3.6071062   -2.8357146  0.090070294   -3.6071062   0.77139162   421013 
  776000   0.69511303   -3.6065997   -3.6065997   -2.8352066  0.085477886   -3.6065997   0.77139314   421013 
  777000   0.69422516   -3.6056749   -3.6056749   -2.8352671   0.07195045   -3.6056749   0.77040783   421013 
  778000   0.69528329   -3.6077329   -3.6077329   -2.8361508  0.076480255   -3.6077329   0.77158208   421013 
  779000   0.69540979   -3.6080174   -3.6080174    -2.836295   0.07555553   -3.6080174   0.77172246   421013 
  780000   0.69479405   -3.6088324   -3.6088324   -2.8377932  0.091000091   -3.6088324   0.77103915   421013 
  781000   0.69404173   -3.6079118   -3.6079118   -2.8377075  0.075218381   -3.6079118   0.77020428   421013 
  782000   0.69384269   -3.6079667   -3.6079667   -2.8379833  0.066636799   -3.6079667   0.76998339   421013 
  783000   0.69389148   -3.6092154   -3.6092154   -2.8391779  0.080865956   -3.6092154   0.77003754   421013 
  784000   0.69279292   -3.6085676   -3.6085676   -2.8397492  0.094562441   -3.6085676   0.76881842   421013 
  785000   0.69336717   -3.6089761   -3.6089761   -2.8395204  0.077471943   -3.6089761   0.76945569   421013 
  786000   0.69249291   -3.6089553   -3.6089553   -2.8404698  0.083114027   -3.6089553   0.76848549   421013 
  787000   0.69267163   -3.6091475   -3.6091475   -2.8404637   0.08786859   -3.6091475   0.76868382   421013 
  788000   0.69396481   -3.6112361   -3.6112361   -2.8411172  0.076401518   -3.6112361   0.77011891   421013 
  789000   0.69331263   -3.6107496   -3.6107496   -2.8413545  0.096426064   -3.6107496   0.76939516   421013 
  790000   0.69259163   -3.6101182   -3.6101182   -2.8415232  0.083927151   -3.6101182   0.76859504   421013 
  791000   0.69187049   -3.6094536   -3.6094536   -2.8416588  0.086438882   -3.6094536   0.76779477   421013 
  792000   0.69385301   -3.6129309   -3.6129309    -2.842936  0.072682882   -3.6129309   0.76999484   421013 
  793000   0.69216095   -3.6117822   -3.6117822   -2.8436651   0.07010887   -3.6117822    0.7681171   421013 
  794000   0.69160387   -3.6113316   -3.6113316   -2.8438327  0.080000086   -3.6113316    0.7674989   421013 
  795000    0.6925479   -3.6127291   -3.6127291   -2.8441826  0.072846094   -3.6127291   0.76854652   421013 
  796000   0.69171317   -3.6113778   -3.6113778   -2.8437576  0.061970841   -3.6113778   0.76762018   421013 
  797000   0.69154516   -3.6114366   -3.6114366   -2.8440029  0.091115375   -3.6114366   0.76743374   421013 
  798000   0.69145594   -3.6120036   -3.6120036   -2.8446688  0.075318778   -3.6120036   0.76733473   421013 
  799000   0.69113516   -3.6121173   -3.6121173   -2.8451386  0.074442968   -3.6121173   0.76697874   421013 
  800000    0.6907329   -3.6119599   -3.6119599   -2.8454275  0.080921546   -3.6119599   0.76653234   421013 
  801000   0.69117743   -3.6125469   -3.6125469   -2.8455213  0.069925917   -3.6125469   0.76702565   421013 
  802000   0.69030833   -3.6129633   -3.6129633   -2.8469021   0.08291871   -3.6129633   0.76606118   421013 
  803000   0.69096637   -3.6141443   -3.6141443   -2.8473529  0.085638058   -3.6141443   0.76679143   421013 
  804000   0.69140444   -3.6149435   -3.6149435   -2.8476659  0.073614758   -3.6149435   0.76727758   421013 
  805000   0.69135261   -3.6153859   -3.6153859   -2.8481658  0.087303702   -3.6153859   0.76722006   421013 
  806000   0.69148161   -3.6161668   -3.6161668   -2.8488036  0.071474165   -3.6161668   0.76736322   421013 
  807000   0.69255294   -3.6187727   -3.6187727   -2.8502206  0.088832843   -3.6187727   0.76855211   421013 
  808000   0.68976913     -3.61673     -3.61673   -2.8512672  0.065339232     -3.61673   0.76546282   421013 
  809000   0.69024049   -3.6177003   -3.6177003   -2.8517144  0.088786965   -3.6177003    0.7659859   421013 
  810000   0.68874212   -3.6165521   -3.6165521    -2.852229  0.088224678   -3.6165521    0.7643231   421013 
  811000   0.68965881   -3.6177278   -3.6177278   -2.8523874   0.08299836   -3.6177278   0.76534038   421013 
  812000   0.69017833   -3.6189528   -3.6189528   -2.8530359  0.080236209   -3.6189528   0.76591692   421013 
  813000   0.68930065   -3.6190356   -3.6190356   -2.8540926  0.069928756   -3.6190356   0.76494292   421013 
  814000   0.68875348   -3.6185762   -3.6185762   -2.8542405  0.074783594   -3.6185762   0.76433571   421013 
  815000   0.68956436   -3.6195404   -3.6195404   -2.8543049  0.077562361   -3.6195404   0.76523557   421013 
  816000   0.69009106   -3.6201703   -3.6201703   -2.8543503  0.095999907   -3.6201703   0.76582007   421013 
  817000   0.69000485   -3.6202012   -3.6202012   -2.8544768  0.070859475   -3.6202012    0.7657244   421013 
  818000   0.69042642   -3.6191906   -3.6191906   -2.8529984    0.0671486   -3.6191906   0.76619223   421013 
  819000   0.68931232   -3.6185565   -3.6185565   -2.8536006  0.083525791   -3.6185565   0.76495587   421013 
  820000   0.69025833    -3.620276    -3.620276   -2.8542703  0.086120954    -3.620276   0.76600569   421013 
  821000    0.6902103     -3.62026     -3.62026   -2.8543076  0.089864314     -3.62026    0.7659524   421013 
  822000    0.6898674   -3.6211285   -3.6211285   -2.8555567  0.077954681   -3.6211285   0.76557186   421013 
  823000   0.68999632   -3.6211227   -3.6211227   -2.8554077  0.081058087   -3.6211227   0.76571493   421013 
  824000   0.68746128   -3.6192734   -3.6192734   -2.8563717  0.065173518   -3.6192734    0.7629017   421013 
  825000   0.68871052   -3.6215579   -3.6215579   -2.8572698  0.069150284   -3.6215579   0.76428803   421013 
  826000   0.68848211   -3.6222676   -3.6222676   -2.8582331  0.070078297   -3.6222676   0.76403456   421013 
  827000   0.68924899   -3.6227841   -3.6227841   -2.8578985  0.070666383   -3.6227841   0.76488559   421013 
  828000   0.68760107    -3.621115    -3.621115   -2.8580582  0.079832215    -3.621115   0.76305683   421013 
  829000   0.68965375   -3.6234731   -3.6234731   -2.8581383  0.077260892   -3.6234731   0.76533477   421013 
  830000   0.68864024   -3.6220142   -3.6220142   -2.8578042  0.082508503   -3.6220142   0.76421003   421013 
  831000   0.68874124   -3.6224391   -3.6224391   -2.8581169  0.072591474   -3.6224391   0.76432212   421013 
  832000    0.6887178   -3.6223815   -3.6223815   -2.8580854  0.073869692   -3.6223815   0.76429611   421013 
  833000   0.68689822   -3.6221632   -3.6221632   -2.8598863   0.08787891   -3.6221632   0.76227685   421013 
  834000    0.6869887   -3.6226712   -3.6226712   -2.8602939  0.076855125   -3.6226712   0.76237726   421013 
  835000   0.68618185   -3.6224442   -3.6224442   -2.8609623  0.079873323   -3.6224442   0.76148187   421013 
  836000   0.68784967   -3.6243934   -3.6243934   -2.8610606  0.080844532   -3.6243934   0.76333272   421013 
  837000   0.68656036   -3.6228276   -3.6228276   -2.8609257  0.093417962   -3.6228276   0.76190192   421013 
  838000   0.68761494    -3.623506    -3.623506   -2.8604337  0.073479801    -3.623506   0.76307223   421013 
  839000   0.68737796   -3.6230387   -3.6230387   -2.8602294  0.084160424   -3.6230387   0.76280924   421013 
  840000   0.68745621   -3.6238292   -3.6238292   -2.8609331  0.072541441   -3.6238292   0.76289608   421013 
  841000   0.68734336   -3.6236086   -3.6236086   -2.8608378  0.083484376   -3.6236086   0.76277084   421013 
  842000   0.68666656   -3.6242681   -3.6242681   -2.8622483  0.080293896   -3.6242681   0.76201977   421013 
  843000   0.68640404   -3.6247275   -3.6247275   -2.8629991  0.068244767   -3.6247275   0.76172844   421013 
  844000   0.68602637   -3.6250051   -3.6250051   -2.8636957    0.0706919   -3.6250051   0.76130933   421013 
  845000   0.68703273   -3.6264556   -3.6264556   -2.8640295  0.069887865   -3.6264556   0.76242613   421013 
  846000   0.68464138   -3.6247591   -3.6247591   -2.8649867  0.078855912   -3.6247591   0.75977236   421013 
  847000   0.68552783   -3.6254664   -3.6254664   -2.8647103  0.069426463   -3.6254664   0.76075608   421013 
  848000   0.68606537   -3.6265661   -3.6265661   -2.8652135  0.069806189   -3.6265661   0.76135261   421013 
  849000   0.68490383   -3.6261903   -3.6261903   -2.8661267  0.084973749   -3.6261903   0.76006361   421013 
  850000   0.68489287   -3.6270644   -3.6270644    -2.867013    0.0713849   -3.6270644   0.76005144   421013 
  851000   0.68520538   -3.6270021   -3.6270021   -2.8666038  0.067312944   -3.6270021   0.76039824   421013 
  852000    0.6855989   -3.6282106   -3.6282106   -2.8673756  0.085076951   -3.6282106   0.76083495   421013 
  853000   0.68450791   -3.6275051   -3.6275051   -2.8678809  0.080163332   -3.6275051   0.75962423   421013 
  854000   0.68550772   -3.6295566   -3.6295566   -2.8688228  0.076286428   -3.6295566   0.76073376   421013 
  855000   0.68490313   -3.6295621   -3.6295621   -2.8694993  0.077273031   -3.6295621   0.76006282   421013 
  856000   0.68337151   -3.6283237   -3.6283237   -2.8699606  0.070017279   -3.6283237   0.75836313   421013 
  857000   0.68521581   -3.6310261   -3.6310261   -2.8706163  0.073747505   -3.6310261   0.76040981   421013 
  858000    0.6845608   -3.6303302   -3.6303302   -2.8706473  0.098642628   -3.6303302   0.75968293   421013 
  859000   0.68479505   -3.6313924   -3.6313924   -2.8714495  0.081508821   -3.6313924   0.75994289   421013 
  860000   0.68358457   -3.6304156   -3.6304156    -2.871816  0.067106947   -3.6304156   0.75859957   421013 
  861000   0.68517108   -3.6325858   -3.6325858   -2.8722256  0.071347985   -3.6325858   0.76036018   421013 
  862000   0.68419514   -3.6313517   -3.6313517   -2.8720746  0.063062919   -3.6313517   0.75927714   421013 
  863000   0.68339409   -3.6309022   -3.6309022    -2.872514  0.075957433   -3.6309022   0.75838818   421013 
  864000    0.6839056   -3.6320439   -3.6320439   -2.8730881  0.073885525   -3.6320439   0.75895583   421013 
  865000   0.68277263   -3.6317709   -3.6317709   -2.8740723  0.070266932   -3.6317709   0.75769853   421013 
  866000   0.68380699   -3.6337716   -3.6337716   -2.8749252  0.076907286   -3.6337716    0.7588464   421013 
  867000   0.68329883     -3.63246     -3.63246   -2.8741775  0.077065225     -3.63246   0.75828248   421013 
  868000   0.68475461   -3.6339905   -3.6339905   -2.8740925  0.056729094   -3.6339905   0.75989801   421013 
  869000   0.68426385   -3.6344455   -3.6344455   -2.8750921  0.085886671   -3.6344455    0.7593534   421013 
  870000    0.6830531   -3.6344181   -3.6344181   -2.8764084  0.075059083   -3.6344181   0.75800978   421013 
  871000   0.68410416   -3.6362503   -3.6362503   -2.8770741  0.076181735   -3.6362503   0.75917618   421013 
  872000   0.68247892   -3.6341402   -3.6341402   -2.8767676  0.055453506   -3.6341402   0.75737259   421013 
  873000   0.68319684   -3.6356259   -3.6356259   -2.8774566  0.072893111   -3.6356259    0.7581693   421013 
  874000   0.68271466   -3.6356857   -3.6356857   -2.8780515  0.074540748   -3.6356857    0.7576342   421013 
  875000   0.68264595   -3.6355787   -3.6355787   -2.8780207  0.075899141   -3.6355787   0.75755795   421013 
  876000   0.68244453   -3.6351388   -3.6351388   -2.8778044  0.082170859   -3.6351388   0.75733443   421013 
  877000   0.68227016    -3.635964    -3.635964   -2.8788231  0.074617242    -3.635964   0.75714092   421013 
  878000    0.6829237   -3.6369091   -3.6369091   -2.8790429  0.081510557   -3.6369091   0.75786618   421013 
  879000   0.68249138   -3.6373195   -3.6373195   -2.8799331  0.080025746   -3.6373195   0.75738642   421013 
  880000    0.6810983   -3.6358591   -3.6358591   -2.8800187  0.077963414   -3.6358591   0.75584046   421013 
  881000    0.6807922   -3.6361066   -3.6361066   -2.8806058   0.05788462   -3.6361066   0.75550078   421013 
  882000   0.68202609   -3.6386893   -3.6386893   -2.8818192  0.072747592   -3.6386893   0.75687007   421013 
  883000   0.68292443   -3.6396633   -3.6396633   -2.8817963  0.071827089   -3.6396633   0.75786699   421013 
  884000   0.67979303     -3.63668     -3.63668   -2.8822881  0.082774428     -3.63668   0.75439196   421013 
  885000   0.68230679   -3.6402689   -3.6402689   -2.8830874  0.075123194   -3.6402689   0.75718157   421013 
  886000   0.68196469    -3.639893    -3.639893    -2.883091  0.069112488    -3.639893   0.75680193   421013 
  887000   0.68084241   -3.6388088   -3.6388088   -2.8832523  0.081933424   -3.6388088    0.7555565   421013 
  888000   0.68201738   -3.6403801   -3.6403801   -2.8835197  0.061696683   -3.6403801   0.75686041   421013 
  889000    0.6806656   -3.6395295   -3.6395295   -2.8841692  0.079585509   -3.6395295   0.75536028   421013 
  890000    0.6814317   -3.6403954   -3.6403954    -2.884185  0.069467344   -3.6403954   0.75621045   421013 
  891000   0.68254372    -3.641696    -3.641696   -2.8842515  0.079022727    -3.641696    0.7574445   421013 
  892000   0.68173955   -3.6420795   -3.6420795   -2.8855274   0.08110041   -3.6420795   0.75655208   421013 
  893000   0.67968096   -3.6404749   -3.6404749   -2.8862073  0.070432366   -3.6404749   0.75426759   421013 
  894000   0.68051869   -3.6410982   -3.6410982    -2.885901  0.077140353   -3.6410982   0.75519725   421013 
  895000   0.68196866   -3.6421932   -3.6421932   -2.8853869  0.083628435   -3.6421932   0.75680633   421013 
  896000     0.679668    -3.640643    -3.640643   -2.8863898  0.083115585    -3.640643    0.7542532   421013 
  897000   0.68040107   -3.6413837   -3.6413837    -2.886317  0.055879006   -3.6413837   0.75506672   421013 
  898000    0.6802652   -3.6420253   -3.6420253   -2.8871094  0.067004851   -3.6420253   0.75491594   421013 
  899000   0.67955951   -3.6412639   -3.6412639   -2.8871311   0.07068918   -3.6412639    0.7541328   421013 
  900000   0.67925765   -3.6410408   -3.6410408    -2.887243  0.062827031   -3.6410408   0.75379783   421013 
  901000   0.67920563   -3.6408773   -3.6408773   -2.8871373  0.072852638   -3.6408773    0.7537401   421013 
  902000   0.67910595   -3.6421249   -3.6421249   -2.8884955  0.089214608   -3.6421249   0.75362948   421013 
  903000    0.6783684   -3.6421393   -3.6421393   -2.8893283  0.058624456   -3.6421393   0.75281099   421013 
  904000   0.67947508    -3.643271    -3.643271   -2.8892319  0.076372475    -3.643271   0.75403912   421013 
  905000   0.67814868   -3.6422506   -3.6422506   -2.8896834  0.072133044   -3.6422506   0.75256716   421013 
  906000     0.678857   -3.6440666   -3.6440666   -2.8907134  0.073869814   -3.6440666   0.75335321   421013 
  907000     0.679362    -3.644722    -3.644722   -2.8908084  0.083178548    -3.644722   0.75391363   421013 
  908000   0.67956031   -3.6450081   -3.6450081   -2.8908744     0.071659   -3.6450081    0.7541337   421013 
  909000   0.67965405   -3.6445064   -3.6445064   -2.8902687  0.061360851   -3.6445064   0.75423773   421013 
  910000   0.67933915   -3.6449746   -3.6449746   -2.8910863   0.07697394   -3.6449746   0.75388827   421013 
  911000   0.67860726   -3.6453289   -3.6453289   -2.8922529  0.076193891   -3.6453289   0.75307606   421013 
  912000   0.67841875   -3.6459129   -3.6459129   -2.8930461  0.073397178   -3.6459129   0.75286686   421013 
  913000   0.67617845   -3.6439563   -3.6439563   -2.8935756   0.08529092   -3.6439563   0.75038072   421013 
  914000   0.67827642   -3.6466928   -3.6466928   -2.8939838  0.071729658   -3.6466928   0.75270892   421013 
  915000   0.67708436   -3.6458308   -3.6458308   -2.8944447  0.077769043   -3.6458308   0.75138604   421013 
  916000   0.67709759   -3.6452471   -3.6452471   -2.8938463  0.075823537   -3.6452471   0.75140073   421013 
  917000   0.67817141   -3.6470769   -3.6470769   -2.8944845  0.072277357   -3.6470769   0.75259238   421013 
  918000   0.67876028   -3.6481481   -3.6481481   -2.8949023   0.07802355   -3.6481481   0.75324588   421013 
  919000   0.67736153   -3.6469724   -3.6469724   -2.8952788   0.05633038   -3.6469724   0.75169363   421013 
  920000   0.67796156   -3.6483059   -3.6483059   -2.8959464  0.068972828   -3.6483059    0.7523595   421013 
  921000   0.67643496   -3.6478724   -3.6478724    -2.897207   0.06782082   -3.6478724   0.75066538   421013 
  922000    0.6777636   -3.6492914   -3.6492914   -2.8971516  0.080264635   -3.6492914   0.75213982   421013 
  923000   0.67619247   -3.6485221   -3.6485221   -2.8981258  0.076403178   -3.6485221   0.75039627   421013 
  924000   0.67572025   -3.6477579   -3.6477579   -2.8978857  0.067183617   -3.6477579   0.74987224   421013 
  925000   0.67514757   -3.6477107   -3.6477107    -2.898474  0.076264368   -3.6477107   0.74923671   421013 
  926000   0.67589441   -3.6489719   -3.6489719   -2.8989064  0.065848111   -3.6489719   0.75006551   421013 
  927000   0.67687496   -3.6504351   -3.6504351   -2.8992815  0.063986527   -3.6504351   0.75115366   421013 
  928000   0.67646894    -3.649889    -3.649889   -2.8991859  0.073162887    -3.649889   0.75070309   421013 
  929000   0.67632837    -3.649035    -3.649035   -2.8984879  0.067619462    -3.649035   0.75054709   421013 
  930000    0.6761181    -3.650539    -3.650539   -2.9002252  0.053439494    -3.650539   0.75031375   421013 
  931000   0.67654131   -3.6514131   -3.6514131   -2.9006297  0.065684437   -3.6514131    0.7507834   421013 
  932000    0.6770223   -3.6524552   -3.6524552    -2.901138  0.067459364   -3.6524552   0.75131717   421013 
  933000   0.67664231   -3.6530438   -3.6530438   -2.9021483  0.078864811   -3.6530438   0.75089548   421013 
  934000   0.67423772    -3.650791    -3.650791    -2.902564  0.080828155    -3.650791   0.74822702   421013 
  935000   0.67571165   -3.6528648   -3.6528648   -2.9030021  0.076315535   -3.6528648    0.7498627   421013 
  936000   0.67564376   -3.6530407   -3.6530407   -2.9032533  0.065130919   -3.6530407   0.74978735   421013 
  937000    0.6748243   -3.6533897   -3.6533897   -2.9045117  0.067831171   -3.6533897   0.74887796   421013 
  938000   0.67478388   -3.6532845   -3.6532845   -2.9044513  0.073063391   -3.6532845   0.74883312   421013 
  939000   0.67487009   -3.6533568   -3.6533568    -2.904428   0.07259424   -3.6533568   0.74892878   421013 
  940000   0.67529316   -3.6541794   -3.6541794   -2.9047812   0.06536833   -3.6541794   0.74939828   421013 
  941000   0.67451014   -3.6537657   -3.6537657   -2.9052364  0.065440677   -3.6537657   0.74852933   421013 
  942000    0.6752984   -3.6551628   -3.6551628   -2.9057587  0.067350926   -3.6551628    0.7494041   421013 
  943000   0.67615491    -3.655714    -3.655714   -2.9053594  0.077550868    -3.655714   0.75035459   421013 
  944000   0.67424867    -3.654493    -3.654493   -2.9062538  0.082175744    -3.654493   0.74823917   421013 
  945000   0.67411093   -3.6548425   -3.6548425   -2.9067562  0.067065284   -3.6548425   0.74808632   421013 
  946000   0.67377681   -3.6544465   -3.6544465   -2.9067309   0.07663664   -3.6544465   0.74771553   421013 
  947000   0.67433534   -3.6548182   -3.6548182   -2.9064829  0.062243931   -3.6548182   0.74833535   421013 
  948000   0.67447071   -3.6555804   -3.6555804   -2.9070948  0.066504913   -3.6555804   0.74848558   421013 
  949000   0.67356687   -3.6549518   -3.6549518   -2.9074693  0.066710408   -3.6549518   0.74748255   421013 
  950000    0.6736857   -3.6560011   -3.6560011   -2.9083867  0.067528432   -3.6560011   0.74761443   421013 
  951000   0.67434989   -3.6567506   -3.6567506   -2.9083991  0.071177973   -3.6567506    0.7483515   421013 
  952000   0.67480433   -3.6571085   -3.6571085   -2.9082527  0.073676745   -3.6571085   0.74885581   421013 
  953000   0.67535188   -3.6578893   -3.6578893   -2.9084259  0.061531112   -3.6578893   0.74946344   421013 
  954000    0.6734874   -3.6563345   -3.6563345   -2.9089401  0.078590009   -3.6563345   0.74739436   421013 
  955000   0.67312327    -3.656277    -3.656277   -2.9092867  0.068195711    -3.656277   0.74699027   421013 
  956000   0.67521743   -3.6582447   -3.6582447   -2.9089304  0.069570942   -3.6582447   0.74931425   421013 
  957000   0.67409534   -3.6573333   -3.6573333   -2.9092643  0.070355793   -3.6573333   0.74806902   421013 
  958000   0.67332781   -3.6576488   -3.6576488   -2.9104315  0.078951943   -3.6576488   0.74721726   421013 
  959000   0.67381809   -3.6586068   -3.6586068   -2.9108455  0.071914649   -3.6586068   0.74776134   421013 
  960000   0.67338477   -3.6584174   -3.6584174   -2.9111369  0.072376535   -3.6584174   0.74728046   421013 
  961000   0.67375784    -3.658621    -3.658621   -2.9109265  0.073315903    -3.658621   0.74769448   421013 
  962000   0.67241402   -3.6576315   -3.6576315   -2.9114283  0.058793065   -3.6576315   0.74620319   421013 
  963000   0.67278245   -3.6580093   -3.6580093   -2.9113973  0.073609527   -3.6580093   0.74661205   421013 
  964000   0.67285371   -3.6578834   -3.6578834   -2.9111923  0.074152366   -3.6578834   0.74669113   421013 
  965000   0.67367297   -3.6599494   -3.6599494   -2.9123491  0.077510393   -3.6599494    0.7476003   421013 
  966000    0.6745813     -3.66173     -3.66173   -2.9131217  0.072144859     -3.66173    0.7486083   421013 
  967000    0.6733654   -3.6607425   -3.6607425   -2.9134836  0.064771416   -3.6607425   0.74725897   421013 
  968000   0.67240176   -3.6608497   -3.6608497   -2.9146601  0.062187497   -3.6608497   0.74618959   421013 
  969000   0.67218502   -3.6610186   -3.6610186   -2.9150695  0.073082728   -3.6610186   0.74594907   421013 
  970000   0.67333882   -3.6625228   -3.6625228   -2.9152934  0.080946941   -3.6625228   0.74722947   421013 
  971000   0.67207244   -3.6618406   -3.6618406   -2.9160165  0.081371254   -3.6618406   0.74582412   421013 
  972000   0.67172777   -3.6611436   -3.6611436    -2.915702   0.07075632   -3.6611436   0.74544163   421013 
  973000    0.6735706   -3.6633041   -3.6633041   -2.9158174  0.078898294   -3.6633041   0.74748669   421013 
  974000   0.67297323    -3.662225    -3.662225   -2.9154013  0.072443366    -3.662225   0.74682377   421013 
  975000   0.67307987   -3.6623169   -3.6623169   -2.9153748  0.071399824   -3.6623169    0.7469421   421013 
  976000   0.67335299   -3.6633364   -3.6633364   -2.9160912  0.074829933   -3.6633364    0.7472452   421013 
  977000    0.6735006   -3.6632019   -3.6632019   -2.9157929  0.075505148   -3.6632019   0.74740901   421013 
  978000   0.67220922   -3.6625209   -3.6625209   -2.9165449  0.062903627   -3.6625209   0.74597592   421013 
  979000     0.671468   -3.6617727   -3.6617727   -2.9166193  0.073401703   -3.6617727   0.74515335   421013 
  980000     0.670351   -3.6610067   -3.6610067   -2.9170929  0.060450582   -3.6610067   0.74391378   421013 
  981000   0.67077259   -3.6614885   -3.6614885   -2.9171069  0.063351886   -3.6614885   0.74438164   421013 
  982000   0.67069215   -3.6614511   -3.6614511   -2.9171587  0.069752476   -3.6614511   0.74429237   421013 
  983000   0.67125597   -3.6621235   -3.6621235   -2.9172054  0.068051971   -3.6621235   0.74491806   421013 
  984000   0.67217653   -3.6635897   -3.6635897   -2.9176501  0.077708156   -3.6635897   0.74593964   421013 
  985000     0.670711   -3.6625581   -3.6625581   -2.9182448  0.065861082   -3.6625581   0.74431329   421013 
  986000   0.67200306   -3.6654319   -3.6654319   -2.9196848  0.072305322   -3.6654319   0.74574713   421013 
  987000   0.67161316   -3.6646706   -3.6646706   -2.9193561  0.085716931   -3.6646706   0.74531445   421013 
  988000   0.67197737   -3.6655522   -3.6655522   -2.9198336  0.066032536   -3.6655522   0.74571863   421013 
  989000   0.67076688   -3.6654541   -3.6654541   -2.9210788   0.06943478   -3.6654541   0.74437529   421013 
  990000   0.67055448   -3.6651005   -3.6651005   -2.9209609     0.054289   -3.6651005   0.74413959   421013 
  991000   0.67215026   -3.6669952   -3.6669952   -2.9210847  0.066883656   -3.6669952   0.74591048   421013 
  992000     0.670023   -3.6651098   -3.6651098     -2.92156  0.054531231   -3.6651098   0.74354979   421013 
  993000   0.66987991    -3.665738    -3.665738    -2.922347  0.057148253    -3.665738   0.74339099   421013 
  994000   0.66962102   -3.6666823   -3.6666823   -2.9235786  0.079435256   -3.6666823    0.7431037   421013 
  995000   0.67038722   -3.6680547   -3.6680547   -2.9241007  0.075782921   -3.6680547   0.74395398   421013 
  996000   0.67087839   -3.6686603   -3.6686603   -2.9241612  0.060391401   -3.6686603   0.74449905   421013 
  997000   0.66929754   -3.6670899   -3.6670899   -2.9243452  0.069738331   -3.6670899   0.74274471   421013 
  998000   0.66940908   -3.6674638   -3.6674638   -2.9245953  0.065695983   -3.6674638   0.74286849   421013 
  999000   0.67007246   -3.6682695   -3.6682695   -2.9246648  0.079259034   -3.6682695   0.74360467   421013 
 1000000   0.66804976   -3.6672218   -3.6672218   -2.9258618  0.077288235   -3.6672218      0.74136   421013 
 1001000   0.66886957   -3.6679336   -3.6679336   -2.9256639  0.068655766   -3.6679336   0.74226978   421013 
 1002000   0.66852729   -3.6671509   -3.6671509    -2.925261   0.06314699   -3.6671509   0.74188994   421013 
 1003000   0.67046791   -3.6699799   -3.6699799   -2.9259364  0.059165678   -3.6699799   0.74404352   421013 
 1004000   0.67038189   -3.6698227   -3.6698227   -2.9258746  0.073529143   -3.6698227   0.74394805   421013 
 1005000    0.6689391   -3.6690362   -3.6690362   -2.9266893   0.05523712   -3.6690362   0.74234694   421013 
 1006000   0.66895225    -3.669013    -3.669013   -2.9266515   0.06945199    -3.669013   0.74236154   421013 
 1007000   0.66953419   -3.6701106   -3.6701106   -2.9271032  0.055892085   -3.6701106   0.74300734   421013 
 1008000   0.67024236   -3.6710508   -3.6710508   -2.9272576   0.06632962   -3.6710508   0.74379322   421013 
 1009000    0.6695975   -3.6706268   -3.6706268   -2.9275493  0.055220998   -3.6706268    0.7430776   421013 
 1010000   0.66989235   -3.6714465   -3.6714465   -2.9280417  0.069083359   -3.6714465    0.7434048   421013 
 1011000   0.66908459   -3.6713259   -3.6713259   -2.9288175  0.066905876   -3.6713259   0.74250839   421013 
 1012000    0.6695532   -3.6717593   -3.6717593   -2.9287308  0.064907698   -3.6717593   0.74302843   421013 
 1013000   0.66949864   -3.6717101   -3.6717101   -2.9287422  0.064078599   -3.6717101   0.74296788   421013 
 1014000   0.66963537    -3.672877    -3.672877   -2.9297573  0.057180853    -3.672877   0.74311961   421013 
 1015000   0.66878715   -3.6716745   -3.6716745   -2.9294962   0.07661053   -3.6716745   0.74217832   421013 
 1016000   0.66908229   -3.6717293   -3.6717293   -2.9292235  0.059908045   -3.6717293   0.74250584   421013 
 1017000   0.66944182   -3.6722504   -3.6722504   -2.9293455  0.069045144   -3.6722504   0.74290483   421013 
 1018000   0.66973097   -3.6735752   -3.6735752   -2.9303495  0.073273403   -3.6735752   0.74322571   421013 
 1019000   0.66804949   -3.6729559   -3.6729559   -2.9315962  0.076269427   -3.6729559    0.7413597   421013 
 1020000   0.66784219   -3.6727825   -3.6727825   -2.9316528  0.069030815   -3.6727825   0.74112966   421013 
 1021000    0.6671614   -3.6719743   -3.6719743   -2.9316001  0.056660549   -3.6719743   0.74037416   421013 
 1022000   0.66824194   -3.6730044   -3.6730044   -2.9314311  0.062598455   -3.6730044   0.74157327   421013 
 1023000   0.66751656   -3.6726185   -3.6726185   -2.9318502  0.048264741   -3.6726185    0.7407683   421013 
 1024000   0.66837765   -3.6730279   -3.6730279    -2.931304  0.068450075   -3.6730279   0.74172388   421013 
 1025000   0.66882069   -3.6740397   -3.6740397   -2.9318242  0.061757638   -3.6740397   0.74221554   421013 
 1026000   0.66781028   -3.6729103   -3.6729103   -2.9318161  0.080326347   -3.6729103   0.74109424   421013 
 1027000   0.66884754   -3.6747871   -3.6747871   -2.9325417  0.063457077   -3.6747871   0.74224534   421013 
 1028000   0.66844517   -3.6742136   -3.6742136   -2.9324148   0.05821811   -3.6742136   0.74179881   421013 
 1029000   0.66771945   -3.6748307   -3.6748307   -2.9338372  0.059917847   -3.6748307   0.74099345   421013 
 1030000   0.66811922   -3.6747376   -3.6747376   -2.9333005  0.075367875   -3.6747376   0.74143709   421013 
 1031000   0.66933347   -3.6767882   -3.6767882   -2.9340036  0.074389192   -3.6767882   0.74278458   421013 
 1032000   0.66829427   -3.6768429   -3.6768429   -2.9352115  0.070788502   -3.6768429   0.74163135   421013 
 1033000   0.66624308   -3.6750211   -3.6750211    -2.935666  0.055809968   -3.6750211   0.73935506   421013 
 1034000   0.66822906   -3.6769024   -3.6769024   -2.9353434  0.072640445   -3.6769024   0.74155899   421013 
 1035000   0.66753771   -3.6768262   -3.6768262   -2.9360344  0.072695699   -3.6768262   0.74079176   421013 
 1036000   0.66702637   -3.6768471   -3.6768471   -2.9366228  0.056898421   -3.6768471   0.74022431   421013 
 1037000   0.66763623   -3.6779808   -3.6779808   -2.9370797  0.062236853   -3.6779808    0.7409011   421013 
 1038000    0.6663568   -3.6779283   -3.6779283    -2.938447  0.059298465   -3.6779283   0.73948127   421013 
 1039000   0.66701405   -3.6787354   -3.6787354   -2.9385247  0.068759208   -3.6787354   0.74021064   421013 
 1040000   0.66567665    -3.677526    -3.677526   -2.9387995  0.071997357    -3.677526   0.73872647   421013 
 1041000     0.665968   -3.6781687   -3.6781687   -2.9391189  0.074994621   -3.6781687    0.7390498   421013 
 1042000   0.66682775   -3.6799109   -3.6799109    -2.939907  0.076456945   -3.6799109    0.7400039   421013 
 1043000   0.66732244   -3.6802199   -3.6802199   -2.9396671  0.062431233   -3.6802199   0.74055287   421013 
 1044000   0.66600784   -3.6784688   -3.6784688   -2.9393748  0.048551106   -3.6784688   0.73909401   421013 
 1045000   0.66504885   -3.6787959   -3.6787959   -2.9407661  0.074317173   -3.6787959   0.73802978   421013 
 1046000   0.66689052   -3.6796753   -3.6796753   -2.9396017  0.062997081   -3.6796753   0.74007356   421013 
 1047000   0.66572086   -3.6784228   -3.6784228   -2.9396473  0.066416628   -3.6784228   0.73877554   421013 
 1048000   0.66644944   -3.6800399   -3.6800399   -2.9404558  0.068282107   -3.6800399   0.73958408   421013 
 1049000   0.66566328   -3.6798368   -3.6798368   -2.9411252  0.059342852   -3.6798368   0.73871164   421013 
 1050000   0.66654283   -3.6816022   -3.6816022   -2.9419145  0.067507409   -3.6816022   0.73968771   421013 
 1051000   0.66485941   -3.6804548   -3.6804548   -2.9426353  0.068601756   -3.6804548   0.73781956   421013 
 1052000   0.66493538   -3.6805964   -3.6805964   -2.9426925  0.059961014   -3.6805964   0.73790386   421013 
 1053000   0.66492659   -3.6808376   -3.6808376   -2.9429435  0.049574322   -3.6808376   0.73789411   421013 
 1054000   0.66580399   -3.6819072   -3.6819072   -2.9430395  0.062155357   -3.6819072   0.73886779   421013 
 1055000   0.66553993   -3.6816002   -3.6816002   -2.9430255  0.059776944   -3.6816002   0.73857476   421013 
 1056000   0.66432795   -3.6806721   -3.6806721   -2.9434424  0.050526581   -3.6806721   0.73722978   421013 
 1057000   0.66469448   -3.6812832   -3.6812832   -2.9436467  0.068627579   -3.6812832   0.73763652   421013 
 1058000   0.66539407   -3.6831162   -3.6831162   -2.9447033  0.053088218   -3.6831162   0.73841289   421013 
 1059000    0.6656887   -3.6841024   -3.6841024   -2.9453625  0.070165256   -3.6841024   0.73873985   421013 
 1060000   0.66471919   -3.6834268   -3.6834268   -2.9457628  0.052867113   -3.6834268   0.73766394   421013 
 1061000   0.66600435   -3.6846343   -3.6846343   -2.9455442  0.069172329   -3.6846343   0.73909013   421013 
 1062000   0.66544333   -3.6840171   -3.6840171   -2.9455496  0.071056961   -3.6840171   0.73846755   421013 
 1063000   0.66463753   -3.6837426   -3.6837426   -2.9461693  0.064654086   -3.6837426   0.73757333   421013 
 1064000   0.66502835   -3.6839123   -3.6839123   -2.9459053  0.065385686   -3.6839123   0.73800704   421013 
 1065000   0.66563514   -3.6859821   -3.6859821   -2.9473017  0.056611838   -3.6859821   0.73868041   421013 
 1066000   0.66541999   -3.6852759   -3.6852759   -2.9468342  0.075484574   -3.6852759   0.73844165   421013 
 1067000   0.66541759   -3.6861769   -3.6861769   -2.9477379  0.066615132   -3.6861769   0.73843899   421013 
 1068000   0.66441637   -3.6854988   -3.6854988   -2.9481709  0.065789334   -3.6854988   0.73732789   421013 
 1069000   0.66457661   -3.6869501   -3.6869501   -2.9494444  0.073966008   -3.6869501   0.73750572   421013 
 1070000   0.66536844    -3.688124    -3.688124   -2.9497396  0.058246607    -3.688124   0.73838444   421013 
 1071000   0.66281523   -3.6861938   -3.6861938   -2.9506428  0.063991281   -3.6861938   0.73555106   421013 
 1072000   0.66355386   -3.6875857   -3.6875857    -2.951215   0.06240702   -3.6875857   0.73637073   421013 
 1073000   0.66292892   -3.6863752   -3.6863752    -2.950698  0.069343348   -3.6863752   0.73567721   421013 
 1074000   0.66290479   -3.6856489   -3.6856489   -2.9499985  0.070582111   -3.6856489   0.73565043   421013 
 1075000   0.66285052   -3.6865193   -3.6865193    -2.950929  0.066611211   -3.6865193   0.73559022   421013 
 1076000   0.66291673   -3.6868443   -3.6868443   -2.9511806  0.055683386   -3.6868443   0.73566369   421013 
 1077000   0.66223123   -3.6862839   -3.6862839    -2.951381   0.06987344   -3.6862839   0.73490297   421013 
 1078000   0.66235448   -3.6870515   -3.6870515   -2.9520118  0.060983825   -3.6870515   0.73503974   421013 
 1079000   0.66276323    -3.687393    -3.687393   -2.9518997  0.078524285    -3.687393   0.73549334   421013 
 1080000   0.66173562   -3.6868414   -3.6868414   -2.9524884  0.077053578   -3.6868414   0.73435296   421013 
 1081000   0.66349592   -3.6893389   -3.6893389   -2.9530324  0.067824252   -3.6893389   0.73630644   421013 
 1082000   0.66099024   -3.6871386   -3.6871386   -2.9536128  0.076386873   -3.6871386   0.73352579   421013 
 1083000   0.66241139   -3.6889077   -3.6889077   -2.9538048  0.063362794   -3.6889077   0.73510289   421013 
 1084000   0.66349441   -3.6903529   -3.6903529   -2.9540482  0.066574183   -3.6903529   0.73630476   421013 
 1085000   0.66251413   -3.6889249   -3.6889249    -2.953708  0.060713184   -3.6889249   0.73521691   421013 
 1086000   0.66207286   -3.6885596   -3.6885596   -2.9538324  0.068629999   -3.6885596   0.73472722   421013 
 1087000   0.66233472   -3.6887059   -3.6887059   -2.9536881  0.064250132   -3.6887059   0.73501781   421013 
 1088000   0.66123857   -3.6882128   -3.6882128   -2.9544114  0.064771877   -3.6882128   0.73380138   421013 
 1089000   0.66176499   -3.6888651   -3.6888651   -2.9544795  0.054379532   -3.6888651   0.73438556   421013 
 1090000   0.66227304   -3.6899373   -3.6899373   -2.9549879  0.050986709   -3.6899373   0.73494936   421013 
 1091000   0.66119283   -3.6886339   -3.6886339   -2.9548833  0.074784286   -3.6886339   0.73375062   421013 
 1092000   0.66215823   -3.6902912   -3.6902912   -2.9554693  0.064890219   -3.6902912   0.73482196   421013 
 1093000   0.66080429   -3.6895158   -3.6895158   -2.9561964  0.064892362   -3.6895158   0.73331943   421013 
 1094000   0.66245547   -3.6923296   -3.6923296   -2.9571778   0.06986005   -3.6923296   0.73515181   421013 
 1095000   0.66077422   -3.6906779   -3.6906779   -2.9573918  0.061005095   -3.6906779   0.73328606   421013 
 1096000    0.6613362   -3.6915079   -3.6915079   -2.9575981   0.06534981   -3.6915079   0.73390971   421013 
 1097000   0.66061944   -3.6907893   -3.6907893    -2.957675  0.057643514   -3.6907893    0.7331143   421013 
 1098000   0.66277518   -3.6934516   -3.6934516    -2.957945  0.060130225   -3.6934516    0.7355066   421013 
 1099000   0.66144334    -3.691807    -3.691807   -2.9577784  0.065170796    -3.691807   0.73402862   421013 
 1100000   0.66196752   -3.6928698   -3.6928698   -2.9582595  0.051924846   -3.6928698   0.73461032   421013 
 1101000   0.66135334   -3.6929564   -3.6929564   -2.9590277  0.073044064   -3.6929564   0.73392874   421013 
 1102000   0.65993109   -3.6918075   -3.6918075   -2.9594571   0.05893413   -3.6918075   0.73235041   421013 
 1103000   0.66167303   -3.6940184   -3.6940184   -2.9597349  0.066940469   -3.6940184   0.73428351   421013 
 1104000   0.65930567   -3.6926626   -3.6926626   -2.9610062  0.068454984   -3.6926626   0.73165636   421013 
 1105000   0.65982692    -3.692981    -3.692981   -2.9607462  0.057955145    -3.692981   0.73223481   421013 
 1106000    0.6610757   -3.6952401   -3.6952401   -2.9616195  0.062163373   -3.6952401   0.73362063   421013 
 1107000   0.65925154   -3.6932198   -3.6932198   -2.9616235  0.062535577   -3.6932198   0.73159629   421013 
 1108000   0.65983305   -3.6932434   -3.6932434   -2.9610018  0.060473983   -3.6932434   0.73224162   421013 
 1109000    0.6603239   -3.6946867   -3.6946867   -2.9619003  0.074142424   -3.6946867   0.73278633   421013 
 1110000   0.65999288   -3.6942016   -3.6942016   -2.9617826  0.081293456   -3.6942016   0.73241898   421013 
 1111000   0.65962474   -3.6947393   -3.6947393   -2.9627289  0.058680404   -3.6947393   0.73201045   421013 
 1112000   0.66113935   -3.6962815   -3.6962815   -2.9625903  0.062466212   -3.6962815   0.73369126   421013 
 1113000   0.66011598   -3.6962183   -3.6962183   -2.9636627  0.065228085   -3.6962183   0.73255559   421013 
 1114000    0.6608029   -3.6965067   -3.6965067   -2.9631888  0.063128105   -3.6965067    0.7333179   421013 
 1115000   0.66015836   -3.6952193   -3.6952193   -2.9626167  0.068029281   -3.6952193   0.73260262   421013 
 1116000   0.65994998    -3.695786    -3.695786   -2.9634146  0.061750189    -3.695786   0.73237137   421013 
 1117000   0.65935698   -3.6964109   -3.6964109   -2.9646976  0.062398874   -3.6964109    0.7317133   421013 
 1118000   0.65825047   -3.6951925   -3.6951925   -2.9647072   0.07307173   -3.6951925   0.73048536   421013 
 1119000    0.6594675   -3.6971207   -3.6971207   -2.9652848   0.04548438   -3.6971207   0.73183595   421013 
 1120000   0.65830531   -3.6955627   -3.6955627   -2.9650164  0.070951784   -3.6955627   0.73054622   421013 
 1121000   0.65953059   -3.6968291   -3.6968291   -2.9649231  0.051062964   -3.6968291   0.73190596   421013 
 1122000   0.65923044   -3.6969738   -3.6969738   -2.9654009  0.069221761   -3.6969738   0.73157287   421013 
 1123000   0.65828501   -3.6957661   -3.6957661   -2.9652424   0.07128113   -3.6957661   0.73052369   421013 
 1124000   0.65827889   -3.6957469   -3.6957469     -2.96523  0.048392715   -3.6957469   0.73051691   421013 
 1125000   0.65892599   -3.6971764   -3.6971764   -2.9659414  0.058058122   -3.6971764   0.73123502   421013 
 1126000   0.65973456   -3.6982394   -3.6982394   -2.9661071   0.06567862   -3.6982394   0.73213231   421013 
 1127000   0.65987199   -3.6985684   -3.6985684   -2.9662836  0.055597627   -3.6985684   0.73228482   421013 
 1128000   0.65886873   -3.6974894   -3.6974894   -2.9663179  0.067665544   -3.6974894   0.73117147   421013 
 1129000   0.65775462     -3.69712     -3.69712   -2.9671849   0.05902514     -3.69712    0.7299351   421013 
 1130000   0.65863942   -3.6992213   -3.6992213   -2.9683043  0.065353546   -3.6992213     0.730917   421013 
 1131000   0.65900682   -3.6993925   -3.6993925   -2.9680678  0.061292801   -3.6993925   0.73132472   421013 
 1132000   0.65909923   -3.6993488   -3.6993488   -2.9679215  0.061375514   -3.6993488   0.73142727   421013 
 1133000    0.6578582   -3.6984098   -3.6984098   -2.9683598  0.057520722   -3.6984098   0.73005005   421013 
 1134000   0.65828953   -3.6994435   -3.6994435   -2.9689148  0.055690322   -3.6994435   0.73052871   421013 
 1135000   0.65833482   -3.7002505   -3.7002505   -2.9696715  0.062329336   -3.7002505   0.73057897   421013 
 1136000   0.66021272   -3.7016893   -3.7016893   -2.9690263  0.056161756   -3.7016893   0.73266295   421013 
 1137000   0.65970043   -3.7002069   -3.7002069   -2.9681125  0.060959766   -3.7002069   0.73209444   421013 
 1138000    0.6580777   -3.6985551   -3.6985551   -2.9682615  0.058908602   -3.6985551   0.73029364   421013 
 1139000   0.65874811   -3.6991477   -3.6991477   -2.9681101  0.058336511   -3.6991477   0.73103762   421013 
 1140000   0.65702717    -3.697904    -3.697904   -2.9687762  0.047571038    -3.697904   0.72912782   421013 
 1141000    0.6562322   -3.6976762   -3.6976762   -2.9694306  0.069473173   -3.6976762   0.72824562   421013 
 1142000   0.65611512   -3.6977304   -3.6977304   -2.9696147  0.054108412   -3.6977304   0.72811568   421013 
 1143000   0.65654472   -3.6985062   -3.6985062   -2.9699137  0.069791914   -3.6985062   0.72859243   421013 
 1144000      0.65721    -3.699541    -3.699541   -2.9702103  0.059750074    -3.699541   0.72933071   421013 
 1145000   0.65644067   -3.6996843   -3.6996843   -2.9712074  0.054366467   -3.6996843   0.72847696   421013 
 1146000   0.65772945   -3.7011434   -3.7011434   -2.9712362  0.067973709   -3.7011434   0.72990717   421013 
 1147000   0.65828713   -3.7017726   -3.7017726   -2.9712466  0.059242275   -3.7017726   0.73052605   421013 
 1148000   0.65790509   -3.7029192   -3.7029192   -2.9728172  0.067553054   -3.7029192   0.73010208   421013 
 1149000   0.65858778     -3.70339     -3.70339   -2.9725303  0.068195725     -3.70339   0.73085969   421013 
 1150000   0.65794774   -3.7032134   -3.7032134    -2.973064  0.054444135   -3.7032134   0.73014941   421013 
 1151000    0.6589551   -3.7044896   -3.7044896   -2.9732223  0.075380683   -3.7044896   0.73126731   421013 
 1152000    0.6580164   -3.7033595   -3.7033595   -2.9731339   0.06796113   -3.7033595   0.73022561   421013 
 1153000   0.65754438   -3.7034856   -3.7034856   -2.9737838  0.060224195   -3.7034856   0.72970179   421013 
 1154000   0.65760361   -3.7037531   -3.7037531   -2.9739855  0.071122631   -3.7037531   0.72976752   421013 
 1155000   0.65799933   -3.7044694   -3.7044694   -2.9742627  0.061049865   -3.7044694   0.73020667   421013 
 1156000   0.65716534   -3.7029123   -3.7029123   -2.9736312  0.063722956   -3.7029123   0.72928116   421013 
 1157000   0.65655378   -3.7030784   -3.7030784   -2.9744759  0.047467799   -3.7030784   0.72860249   421013 
 1158000   0.65681879   -3.7039457   -3.7039457   -2.9750491  0.050151931   -3.7039457   0.72889658   421013 
 1159000   0.65666679   -3.7042371   -3.7042371   -2.9755092  0.057386094   -3.7042371   0.72872789   421013 
 1160000   0.65618393    -3.704518    -3.704518    -2.976326  0.056858327    -3.704518   0.72819204   421013 
 1161000   0.65718046   -3.7068651   -3.7068651   -2.9775672  0.070826552   -3.7068651   0.72929793   421013 
 1162000   0.65647483   -3.7059382   -3.7059382   -2.9774233  0.051900172   -3.7059382   0.72851487   421013 
 1163000   0.65657585   -3.7060217   -3.7060217   -2.9773947  0.049819043   -3.7060217   0.72862698   421013 
 1164000    0.6560175   -3.7047942   -3.7047942   -2.9767868  0.061042581   -3.7047942   0.72800736   421013 
 1165000   0.65604501   -3.7050892   -3.7050892   -2.9770513  0.064466747   -3.7050892   0.72803788   421013 
 1166000    0.6540194   -3.7038374   -3.7038374   -2.9780474  0.053065953   -3.7038374   0.72578999   421013 
 1167000   0.65511874   -3.7057862   -3.7057862   -2.9787762  0.053100056   -3.7057862   0.72700996   421013 
 1168000    0.6550734   -3.7062477   -3.7062477   -2.9792881  0.069551522   -3.7062477   0.72695965   421013 
 1169000   0.65547868   -3.7065689   -3.7065689   -2.9791595  0.048739983   -3.7065689    0.7274094   421013 
 1170000   0.65497947   -3.7071414   -3.7071414    -2.980286  0.050614744   -3.7071414   0.72685541   421013 
 1171000   0.65448332   -3.7069827   -3.7069827   -2.9806779  0.057016948   -3.7069827   0.72630482   421013 
 1172000   0.65466756   -3.7070835   -3.7070835   -2.9805742  0.053997476   -3.7070835   0.72650928   421013 
 1173000   0.65627258   -3.7094996   -3.7094996   -2.9812092  0.062284293   -3.7094996   0.72829043   421013 
 1174000   0.65599708   -3.7095757   -3.7095757    -2.981591  0.058542352   -3.7095757    0.7279847   421013 
 1175000    0.6562776    -3.709711    -3.709711    -2.981415   0.06424361    -3.709711     0.728296   421013 
 1176000   0.65470648   -3.7084095   -3.7084095    -2.981857  0.062654417   -3.7084095   0.72655247   421013 
 1177000   0.65522972   -3.7090574   -3.7090574   -2.9819243  0.055068886   -3.7090574   0.72713313   421013 
 1178000   0.65639391   -3.7097816   -3.7097816   -2.9813565  0.068385045   -3.7097816   0.72842507   421013 
 1179000   0.65735394   -3.7106683   -3.7106683   -2.9811778  0.058028637   -3.7106683   0.72949045   421013 
 1180000   0.65580357   -3.7103249   -3.7103249   -2.9825549  0.049416053   -3.7103249   0.72776994   421013 
 1181000    0.6569516   -3.7114081   -3.7114081   -2.9823642  0.055328676   -3.7114081   0.72904396   421013 
 1182000   0.65583683   -3.7102318   -3.7102318   -2.9824249  0.054841661   -3.7102318   0.72780686   421013 
 1183000   0.65724203    -3.712305    -3.712305   -2.9829387   0.05530174    -3.712305   0.72936626   421013 
 1184000   0.65406116   -3.7097469   -3.7097469   -2.9839106  0.046967225   -3.7097469   0.72583633   421013 
 1185000   0.65447609   -3.7102636   -3.7102636   -2.9839668  0.066343448   -3.7102636   0.72629679   421013 
 1186000   0.65492559   -3.7110229   -3.7110229   -2.9842273  0.047514796   -3.7110229   0.72679562   421013 
 1187000   0.65413765   -3.7103751   -3.7103751   -2.9844539    0.0497589   -3.7103751   0.72592122   421013 
 1188000   0.65510122   -3.7115014   -3.7115014   -2.9845109   0.05319756   -3.7115014   0.72699053   421013 
 1189000   0.65461804   -3.7111612   -3.7111612   -2.9847069  0.055252746   -3.7111612   0.72645432   421013 
 1190000    0.6560368   -3.7128841   -3.7128841   -2.9848553  0.061666695   -3.7128841   0.72802877   421013 
 1191000   0.65545618   -3.7116998   -3.7116998   -2.9843154   0.05864588   -3.7116998   0.72738444   421013 
 1192000   0.65467428   -3.7112744   -3.7112744   -2.9847577  0.070828009   -3.7112744   0.72651673   421013 
 1193000   0.65514589   -3.7116004   -3.7116004   -2.9845603  0.055163147   -3.7116004    0.7270401   421013 
 1194000   0.65466916   -3.7116975   -3.7116975   -2.9851864   0.06087048   -3.7116975   0.72651105   421013 
 1195000   0.65615159   -3.7140386   -3.7140386   -2.9858825  0.062153796   -3.7140386   0.72815616   421013 
 1196000   0.65547689   -3.7136798   -3.7136798   -2.9862723  0.068714594   -3.7136798   0.72740742   421013 
 1197000   0.65490777   -3.7132947   -3.7132947   -2.9865189  0.044056352   -3.7132947   0.72677585   421013 
 1198000   0.65577988   -3.7146256   -3.7146256    -2.986882   0.06399559   -3.7146256   0.72774366   421013 
 1199000    0.6569945   -3.7156124   -3.7156124   -2.9865209  0.078635656   -3.7156124   0.72909157   421013 
 1200000   0.65586445     -3.71584     -3.71584   -2.9880025  0.061447991     -3.71584   0.72783751   421013 
 1201000     0.654538   -3.7145261   -3.7145261   -2.9881606  0.059352624   -3.7145261   0.72636549   421013 
 1202000   0.65442225   -3.7138893   -3.7138893   -2.9876523  0.057617407   -3.7138893   0.72623705   421013 
 1203000   0.65302781   -3.7126473   -3.7126473   -2.9879577  0.067892125   -3.7126473   0.72468958   421013 
 1204000   0.65421608   -3.7139615   -3.7139615   -2.9879532  0.066879948   -3.7139615   0.72600825   421013 
 1205000   0.65354489    -3.713286    -3.713286   -2.9880226  0.065407694    -3.713286   0.72526341   421013 
 1206000   0.65388198   -3.7140398   -3.7140398   -2.9884024  0.081840347   -3.7140398   0.72563749   421013 
 1207000   0.65376442   -3.7142717   -3.7142717   -2.9887646  0.058932674   -3.7142717   0.72550703   421013 
 1208000   0.65319743   -3.7138582   -3.7138582   -2.9889804  0.054360121   -3.7138582   0.72487782   421013 
 1209000   0.65301745   -3.7138956   -3.7138956   -2.9892175  0.060762352   -3.7138956   0.72467808   421013 
 1210000   0.65391544   -3.7147937   -3.7147937    -2.989119  0.062552736   -3.7147937   0.72567461   421013 
 1211000    0.6530971   -3.7147964   -3.7147964   -2.9900299  0.058826795   -3.7147964   0.72476648   421013 
 1212000   0.65374147    -3.716209    -3.716209   -2.9907275  0.060339704    -3.716209   0.72548155   421013 
 1213000   0.65192217   -3.7144934   -3.7144934   -2.9910308  0.059153282   -3.7144934   0.72346261   421013 
 1214000   0.65397303   -3.7163568   -3.7163568   -2.9906182  0.058500865   -3.7163568   0.72573853   421013 
 1215000   0.65383209    -3.715737    -3.715737   -2.9901549  0.069132755    -3.715737   0.72558212   421013 
 1216000   0.65440997   -3.7165098   -3.7165098   -2.9902864  0.036787803   -3.7165098   0.72622342   421013 
 1217000   0.65387346   -3.7165051   -3.7165051   -2.9908771  0.049447759   -3.7165051   0.72562803   421013 
 1218000   0.65453706    -3.717208    -3.717208   -2.9908436  0.057556181    -3.717208   0.72636446   421013 
 1219000   0.65547353    -3.718097    -3.718097   -2.9906934  0.050529718    -3.718097   0.72740369   421013 
 1220000   0.65285517   -3.7166887   -3.7166887   -2.9921907  0.059626778   -3.7166887   0.72449799   421013 
 1221000   0.65462276   -3.7177687   -3.7177687   -2.9913092  0.056733138   -3.7177687   0.72645956   421013 
 1222000   0.65299435    -3.716624    -3.716624   -2.9919715  0.052286093    -3.716624   0.72465245   421013 
 1223000   0.65299967   -3.7176466   -3.7176466   -2.9929882  0.047850494   -3.7176466   0.72465835   421013 
 1224000   0.65379268   -3.7187634   -3.7187634    -2.993225  0.063526972   -3.7187634   0.72553839   421013 
 1225000   0.65370601   -3.7189706   -3.7189706   -2.9935284  0.060492735   -3.7189706   0.72544221   421013 
 1226000   0.65174368   -3.7170121   -3.7170121   -2.9937475  0.049962301   -3.7170121   0.72326454   421013 
 1227000   0.65185692   -3.7175887   -3.7175887   -2.9941985   0.05795837   -3.7175887   0.72339021   421013 
 1228000   0.65171023   -3.7172772   -3.7172772   -2.9940498  0.046541038   -3.7172772   0.72322741   421013 
 1229000   0.65164979   -3.7172541   -3.7172541   -2.9940938  0.062946376   -3.7172541   0.72316034   421013 
 1230000   0.65250414   -3.7181489   -3.7181489   -2.9940405  0.048557306   -3.7181489   0.72410845   421013 
 1231000   0.65106631   -3.7175047   -3.7175047   -2.9949919  0.038950106   -3.7175047   0.72251283   421013 
 1232000   0.65211617   -3.7184313   -3.7184313   -2.9947534  0.053188726   -3.7184313    0.7236779   421013 
 1233000   0.65379778   -3.7199014   -3.7199014   -2.9943573  0.040962227   -3.7199014   0.72554405   421013 
 1234000   0.65121094   -3.7179252   -3.7179252   -2.9952519  0.060490034   -3.7179252   0.72267333   421013 
 1235000   0.65087564   -3.7179591   -3.7179591   -2.9956578  0.044002298   -3.7179591   0.72230124   421013 
 1236000   0.65165342   -3.7198954   -3.7198954    -2.996731  0.040721227   -3.7198954   0.72316437   421013 
 1237000   0.65098499   -3.7184429   -3.7184429   -2.9960203  0.048857751   -3.7184429   0.72242259   421013 
 1238000   0.65211285   -3.7201543   -3.7201543   -2.9964801  0.049602003   -3.7201543   0.72367422   421013 
 1239000   0.65098753   -3.7186869   -3.7186869   -2.9962615  0.064797151   -3.7186869   0.72242541   421013 
 1240000   0.65130272   -3.7194565   -3.7194565   -2.9966814  0.062673196   -3.7194565   0.72277518   421013 
 1241000   0.65111003   -3.7192555   -3.7192555   -2.9966941  0.062006892   -3.7192555   0.72256135   421013 
 1242000   0.65218324   -3.7209564   -3.7209564    -2.997204  0.058707787   -3.7209564   0.72375234   421013 
 1243000   0.65323164   -3.7220986   -3.7220986   -2.9971829  0.064673697   -3.7220986   0.72491578   421013 
 1244000   0.65141475   -3.7204031   -3.7204031   -2.9975036  0.056168377   -3.7204031   0.72289951   421013 
 1245000   0.65087139   -3.7204166   -3.7204166   -2.9981201  0.048763492   -3.7204166   0.72229653   421013 
 1246000   0.65085997   -3.7210559   -3.7210559   -2.9987721  0.048408271   -3.7210559   0.72228385   421013 
 1247000   0.64983784   -3.7206961   -3.7206961   -2.9995466  0.065335084   -3.7206961   0.72114956   421013 
 1248000   0.65013068   -3.7206849   -3.7206849   -2.9992103  0.055612501   -3.7206849   0.72147452   421013 
 1249000   0.64980091   -3.7209999   -3.7209999   -2.9998914  0.067470058   -3.7209999   0.72110857   421013 
 1250000   0.64948959   -3.7211492   -3.7211492   -3.0003861  0.052528456   -3.7211492   0.72076309   421013 
 1251000   0.64946894    -3.721425    -3.721425   -3.0006848  0.046446764    -3.721425   0.72074017   421013 
 1252000   0.64981793   -3.7221805   -3.7221805   -3.0010531  0.056556539   -3.7221805   0.72112746   421013 
 1253000   0.64835551   -3.7211531   -3.7211531   -3.0016485  0.052083712   -3.7211531   0.71950455   421013 
 1254000   0.64937681   -3.7224435   -3.7224435   -3.0018056   0.05429857   -3.7224435   0.72063793   421013 
 1255000   0.65100242   -3.7244696   -3.7244696   -3.0020276  0.070092611   -3.7244696   0.72244194   421013 
 1256000   0.64990334   -3.7234018   -3.7234018   -3.0021796  0.045539022   -3.7234018   0.72122224   421013 
 1257000   0.64983078   -3.7229914   -3.7229914   -3.0018497  0.065392128   -3.7229914   0.72114171   421013 
 1258000   0.64945876   -3.7223929   -3.7223929    -3.001664  0.063875469   -3.7223929   0.72072888   421013 
 1259000   0.64953177   -3.7231486   -3.7231486   -3.0023387  0.064418964   -3.7231486    0.7208099   421013 
 1260000   0.64918708   -3.7225249   -3.7225249   -3.0020975  0.039680336   -3.7225249   0.72042738   421013 
 1261000   0.65056097   -3.7238687   -3.7238687   -3.0019167  0.050828907   -3.7238687   0.72195204   421013 
 1262000   0.64912856   -3.7229761   -3.7229761   -3.0026136  0.054515698   -3.7229761   0.72036243   421013 
 1263000   0.64981157   -3.7240762   -3.7240762   -3.0029558  0.057138905   -3.7240762    0.7211204   421013 
 1264000    0.6500286   -3.7250574   -3.7250574   -3.0036962  0.068135283   -3.7250574   0.72136125   421013 
 1265000   0.65086483   -3.7269603   -3.7269603    -3.004671  0.047682501   -3.7269603   0.72228924   421013 
 1266000      0.65017   -3.7260981   -3.7260981     -3.00458  0.045062154   -3.7260981   0.72151817   421013 
 1267000   0.65054581   -3.7270901   -3.7270901   -3.0051549  0.066965105   -3.7270901   0.72193521   421013 
 1268000   0.65102729    -3.728164    -3.728164   -3.0056944  0.078702172    -3.728164   0.72246953   421013 
 1269000    0.6498166    -3.726894    -3.726894   -3.0057681  0.059650986    -3.726894   0.72112599   421013 
 1270000   0.64867169   -3.7266801   -3.7266801   -3.0068247  0.060344133   -3.7266801   0.71985543   421013 
 1271000   0.64905063   -3.7277299   -3.7277299   -3.0074539  0.054433864   -3.7277299   0.72027595   421013 
 1272000   0.64916238   -3.7282379   -3.7282379    -3.007838  0.068344642   -3.7282379   0.72039997   421013 
 1273000   0.64953029   -3.7283854   -3.7283854   -3.0075771  0.071724616   -3.7283854   0.72080825   421013 
 1274000   0.64946465   -3.7293203   -3.7293203   -3.0085849  0.059642324   -3.7293203   0.72073541   421013 
 1275000   0.64907103   -3.7287481   -3.7287481   -3.0084495  0.056576167   -3.7287481   0.72029859   421013 
 1276000   0.64889717   -3.7282129   -3.7282129   -3.0081072  0.071180196   -3.7282129   0.72010566   421013 
 1277000   0.64797678   -3.7274801   -3.7274801   -3.0083959  0.045847305   -3.7274801   0.71908427   421013 
 1278000   0.64873763   -3.7289804   -3.7289804   -3.0090518  0.059257909   -3.7289804    0.7199286   421013 
 1279000   0.64867044   -3.7292913   -3.7292913   -3.0094373  0.059509811   -3.7292913   0.71985404   421013 
 1280000   0.64841724   -3.7287387   -3.7287387   -3.0091656  0.064479896   -3.7287387   0.71957306   421013 
 1281000   0.64880761   -3.7292614   -3.7292614   -3.0092551   0.04915632   -3.7292614   0.72000626   421013 
 1282000   0.64923336   -3.7303706   -3.7303706   -3.0098919  0.069560303   -3.7303706   0.72047874   421013 
 1283000   0.64792462   -3.7292521   -3.7292521   -3.0102257  0.063175829   -3.7292521   0.71902638   421013 
 1284000   0.64758826   -3.7294285   -3.7294285   -3.0107754  0.058387987   -3.7294285    0.7186531   421013 
 1285000   0.64845748   -3.7306462   -3.7306462   -3.0110285  0.051497568   -3.7306462   0.71961772   421013 
 1286000   0.64898731   -3.7318048   -3.7318048   -3.0115991  0.048821632   -3.7318048   0.72020569   421013 
 1287000   0.64822817   -3.7312362   -3.7312362   -3.0118729  0.052438123   -3.7312362   0.71936325   421013 
 1288000   0.64822657   -3.7315694   -3.7315694   -3.0122079  0.051745149   -3.7315694   0.71936146   421013 
 1289000   0.64881506   -3.7323232   -3.7323232   -3.0123087  0.048276644   -3.7323232   0.72001453   421013 
 1290000   0.64835621   -3.7322508   -3.7322508   -3.0127455  0.052841646   -3.7322508   0.71950533   421013 
 1291000   0.64770576   -3.7315802   -3.7315802   -3.0127967  0.036457509   -3.7315802   0.71878351   421013 
 1292000   0.64807993   -3.7323316   -3.7323316   -3.0131328  0.042480859   -3.7323316   0.71919874   421013 
 1293000   0.64751043   -3.7311326   -3.7311326   -3.0125658  0.056944652   -3.7311326   0.71856674   421013 
 1294000   0.64777745    -3.732557    -3.732557   -3.0136939  0.061892903    -3.732557   0.71886306   421013 
 1295000   0.64606871   -3.7317084   -3.7317084   -3.0147416  0.060690669   -3.7317084   0.71696681   421013 
 1296000   0.64791039   -3.7336678   -3.7336678   -3.0146573  0.052743727   -3.7336678   0.71901059   421013 
 1297000   0.64775679   -3.7333332   -3.7333332   -3.0144931  0.044653405   -3.7333332   0.71884013   421013 
 1298000   0.64736623   -3.7327591   -3.7327591   -3.0143524  0.063677713   -3.7327591   0.71840672   421013 
 1299000   0.64829289   -3.7337526   -3.7337526   -3.0143175  0.064868792   -3.7337526   0.71943507   421013 
 1300000   0.64816771   -3.7336539   -3.7336539   -3.0143577  0.066393961   -3.7336539   0.71929614   421013 
 1301000   0.64793012   -3.7340484   -3.7340484   -3.0150159  0.057189734   -3.7340484   0.71903249   421013 
 1302000   0.64838093   -3.7347241   -3.7347241   -3.0151913  0.061420109   -3.7347241   0.71953276   421013 
 1303000   0.64693421   -3.7333522   -3.7333522   -3.0154249   0.04090447   -3.7333522   0.71792729   421013 
 1304000   0.64574508   -3.7326998   -3.7326998   -3.0160922  0.064929879   -3.7326998   0.71660766   421013 
 1305000   0.64696339   -3.7341964   -3.7341964   -3.0162367  0.054243491   -3.7341964   0.71795967   421013 
 1306000   0.64826671   -3.7345831   -3.7345831   -3.0151771  0.053161482   -3.7345831   0.71940601   421013 
 1307000      0.64803   -3.7346305   -3.7346305   -3.0154872  0.059717448   -3.7346305   0.71914333   421013 
 1308000   0.64770967    -3.734233    -3.734233   -3.0154451  0.060557345    -3.734233   0.71878784   421013 
 1309000   0.64826892   -3.7357633   -3.7357633   -3.0163548  0.059010732   -3.7357633   0.71940847   421013 
 1310000   0.64755984   -3.7349112   -3.7349112   -3.0162896  0.068055861   -3.7349112   0.71862157   421013 
 1311000   0.64607278   -3.7337787   -3.7337787   -3.0168073  0.069608556   -3.7337787   0.71697133   421013 
 1312000   0.64753198   -3.7357574   -3.7357574   -3.0171668  0.057548946   -3.7357574   0.71859065   421013 
 1313000   0.64653433   -3.7340684   -3.7340684   -3.0165848  0.063037238   -3.7340684   0.71748353   421013 
 1314000   0.64646965   -3.7342627   -3.7342627    -3.016851  0.054950708   -3.7342627   0.71741174   421013 
 1315000   0.64515109   -3.7329858   -3.7329858   -3.0170374  0.057439919   -3.7329858   0.71594849   421013 
 1316000   0.64693252   -3.7353286   -3.7353286   -3.0174032  0.052700878   -3.7353286   0.71792541   421013 
 1317000   0.64563149   -3.7341807   -3.7341807   -3.0176991  0.051776185   -3.7341807   0.71648161   421013 
 1318000   0.64621737   -3.7352507   -3.7352507   -3.0181189  0.047048457   -3.7352507   0.71713178   421013 
 1319000   0.64583696   -3.7349848   -3.7349848   -3.0182751  0.067424019   -3.7349848   0.71670963   421013 
 1320000   0.64612667   -3.7358309   -3.7358309   -3.0187998  0.048619756   -3.7358309   0.71703113   421013 
 1321000   0.64628058   -3.7357923   -3.7357923   -3.0185904  0.052299496   -3.7357923   0.71720192   421013 
 1322000   0.64574173   -3.7367723   -3.7367723   -3.0201683  0.046077447   -3.7367723   0.71660394   421013 
 1323000   0.64571858   -3.7366338   -3.7366338   -3.0200555  0.063823549   -3.7366338   0.71657826   421013 
 1324000   0.64691987   -3.7379988   -3.7379988   -3.0200875  0.052701855   -3.7379988   0.71791137   421013 
 1325000   0.64571219   -3.7371453   -3.7371453   -3.0205741  0.054276857   -3.7371453   0.71657117   421013 
 1326000   0.64557416    -3.736921    -3.736921    -3.020503  0.048101408    -3.736921   0.71641798   421013 
 1327000   0.64708418   -3.7384349   -3.7384349   -3.0203412  0.058938304   -3.7384349   0.71809372   421013 
 1328000   0.64739992   -3.7385012   -3.7385012   -3.0200571  0.063086379   -3.7385012    0.7184441   421013 
 1329000   0.64660557   -3.7380025   -3.7380025   -3.0204399  0.069487405   -3.7380025   0.71756258   421013 
 1330000   0.64652917   -3.7383024   -3.7383024   -3.0208246  0.053540746   -3.7383024   0.71747779   421013 
 1331000   0.64599765   -3.7379539   -3.7379539   -3.0210659  0.053939465   -3.7379539   0.71688795   421013 
 1332000   0.64662211   -3.7389074   -3.7389074   -3.0213265  0.057417236   -3.7389074   0.71758093   421013 
 1333000   0.64567022   -3.7377399   -3.7377399   -3.0212153  0.047465581   -3.7377399   0.71652458   421013 
 1334000   0.64515457   -3.7380273   -3.7380273    -3.022075   0.04499542   -3.7380273   0.71595235   421013 
 1335000    0.6459563   -3.7398627   -3.7398627   -3.0230206   0.04277335   -3.7398627   0.71684206   421013 
 1336000   0.64475783   -3.7389114   -3.7389114   -3.0233994  0.057305716   -3.7389114   0.71551207   421013 
 1337000    0.6455497   -3.7393561   -3.7393561   -3.0229653  0.050311824   -3.7393561   0.71639084   421013 
 1338000   0.64442454   -3.7386525   -3.7386525   -3.0235103  0.052106669   -3.7386525   0.71514221   421013 
 1339000   0.64507778   -3.7388676   -3.7388676   -3.0230004   0.06285629   -3.7388676   0.71586714   421013 
 1340000   0.64611583   -3.7395444   -3.7395444   -3.0225253  0.045361335   -3.7395444    0.7170191   421013 
 1341000   0.64583004   -3.7387282   -3.7387282   -3.0220262  0.060691537   -3.7387282   0.71670195   421013 
 1342000   0.64637603   -3.7397807   -3.7397807   -3.0224728  0.044909495   -3.7397807   0.71730785   421013 
 1343000   0.64634249   -3.7407725   -3.7407725   -3.0235019  0.057456337   -3.7407725   0.71727063   421013 
 1344000   0.64617599   -3.7411333   -3.7411333   -3.0240474  0.054293037   -3.7411333   0.71708586   421013 
 1345000   0.64758157   -3.7427399   -3.7427399   -3.0240942   0.06655683   -3.7427399   0.71864568   421013 
 1346000   0.64614066   -3.7419307   -3.7419307   -3.0248841  0.049116731   -3.7419307   0.71704665   421013 
 1347000   0.64604831   -3.7417945   -3.7417945   -3.0248503  0.057763513   -3.7417945   0.71694417   421013 
 1348000   0.64487959   -3.7403259   -3.7403259   -3.0246787  0.057895152   -3.7403259    0.7156472   421013 
 1349000   0.64563563   -3.7405917   -3.7405917   -3.0241055   0.07614948   -3.7405917    0.7164862   421013 
 1350000   0.64686877   -3.7423433   -3.7423433   -3.0244886  0.058303887   -3.7423433   0.71785466   421013 
 1351000   0.64530746   -3.7415982   -3.7415982   -3.0254762  0.054999837   -3.7415982   0.71612202   421013 
 1352000   0.64685241   -3.7430343   -3.7430343   -3.0251978  0.056393998   -3.7430343   0.71783651   421013 
 1353000   0.64621129   -3.7428369   -3.7428369   -3.0257118  0.051300724   -3.7428369   0.71712503   421013 
 1354000   0.64375973   -3.7401445   -3.7401445     -3.02574   0.05101405   -3.7401445   0.71440444   421013 
 1355000   0.64518689   -3.7419458   -3.7419458   -3.0259576   0.04616058   -3.7419458   0.71598822   421013 
 1356000   0.64484029    -3.741193    -3.741193   -3.0255894  0.044079666    -3.741193   0.71560358   421013 
 1357000   0.64535428   -3.7415583   -3.7415583   -3.0253843  0.052278492   -3.7415583   0.71617398   421013 
 1358000   0.64501365   -3.7416874   -3.7416874   -3.0258915  0.060487517   -3.7416874   0.71579597   421013 
 1359000   0.64492179    -3.741312    -3.741312    -3.025618   0.04594469    -3.741312   0.71569403   421013 
 1360000   0.64598936   -3.7428086   -3.7428086   -3.0259299  0.056325551   -3.7428086   0.71687875   421013 
 1361000   0.64545497   -3.7423807   -3.7423807   -3.0260949  0.058433852   -3.7423807   0.71628571   421013 
 1362000   0.64611906   -3.7427135   -3.7427135   -3.0256908  0.060777624   -3.7427135   0.71702269   421013 
 1363000   0.64573857   -3.7432447   -3.7432447   -3.0266442  0.049198577   -3.7432447   0.71660044   421013 
 1364000   0.64557391   -3.7438898   -3.7438898   -3.0274721  0.053256094   -3.7438898   0.71641771   421013 
 1365000   0.64494049    -3.743835    -3.743835   -3.0281202  0.076845922    -3.743835   0.71571478   421013 
 1366000   0.64520705   -3.7444245   -3.7444245   -3.0284139  0.036782274   -3.7444245   0.71601059   421013 
 1367000   0.64616204   -3.7465033   -3.7465033   -3.0294329  0.054892417   -3.7465033   0.71707038   421013 
 1368000   0.64589608   -3.7465718   -3.7465718   -3.0297966  0.053451817   -3.7465718   0.71677524   421013 
 1369000   0.64522291   -3.7467431   -3.7467431   -3.0307149  0.060614459   -3.7467431   0.71602819   421013 
 1370000   0.64577785   -3.7483275   -3.7483275   -3.0316834  0.049402102   -3.7483275   0.71664403   421013 
 1371000   0.64420205   -3.7462899   -3.7462899   -3.0313945  0.057243333   -3.7462899   0.71489531   421013 
 1372000   0.64490299   -3.7470591   -3.7470591    -3.031386  0.038924317   -3.7470591   0.71567316   421013 
 1373000   0.64579245   -3.7481258   -3.7481258   -3.0314656  0.046750519   -3.7481258   0.71666023   421013 
 1374000   0.64396383   -3.7461171   -3.7461171   -3.0314862  0.040025044   -3.7461171   0.71463094   421013 
 1375000   0.64403815   -3.7460574   -3.7460574    -3.031344  0.044949477   -3.7460574   0.71471341   421013 
 1376000   0.64548497   -3.7476032   -3.7476032   -3.0312842    0.0571842   -3.7476032   0.71631901   421013 
 1377000   0.64486197   -3.7468087   -3.7468087    -3.031181  0.061675105   -3.7468087   0.71562764   421013 
 1378000   0.64435375   -3.7459956   -3.7459956    -3.030932  0.036918479   -3.7459956   0.71506365   421013 
 1379000   0.64390137   -3.7462271   -3.7462271   -3.0316655   0.04531419   -3.7462271   0.71456163   421013 
 1380000   0.64396614   -3.7468472   -3.7468472   -3.0322137  0.058487585   -3.7468472    0.7146335   421013 
 1381000   0.64396676   -3.7471021   -3.7471021   -3.0324679  0.059975108   -3.7471021   0.71463419   421013 
 1382000   0.64439995   -3.7467873   -3.7467873   -3.0316724  0.063283333   -3.7467873   0.71511492   421013 
 1383000   0.64602314   -3.7486002   -3.7486002    -3.031684   0.05131376   -3.7486002   0.71691623   421013 
 1384000   0.64345405   -3.7468404   -3.7468404   -3.0327752  0.051561174   -3.7468404   0.71406522   421013 
 1385000   0.64339235   -3.7465432   -3.7465432   -3.0325464   0.04109929   -3.7465432   0.71399675   421013 
 1386000   0.64402997    -3.747393    -3.747393   -3.0326887  0.049386185    -3.747393   0.71470434   421013 
 1387000   0.64261955   -3.7454644   -3.7454644   -3.0323253  0.058895937   -3.7454644   0.71313914   421013 
 1388000   0.64376793   -3.7467219   -3.7467219   -3.0323084  0.034203813   -3.7467219   0.71441355   421013 
 1389000   0.64299286   -3.7463092   -3.7463092   -3.0327558  0.048347544   -3.7463092   0.71355342   421013 
 1390000   0.64400648    -3.747665    -3.747665   -3.0329868  0.051653733    -3.747665   0.71467828   421013 
 1391000   0.64233197   -3.7459985   -3.7459985   -3.0331785  0.024097388   -3.7459985   0.71282001   421013 
 1392000    0.6438596   -3.7478918   -3.7478918   -3.0333765  0.052170638   -3.7478918   0.71451527   421013 
 1393000   0.64108141   -3.7449366   -3.7449366   -3.0335044  0.044600353   -3.7449366   0.71143221   421013 
 1394000   0.64262176   -3.7459878   -3.7459878   -3.0328462  0.051562848   -3.7459878   0.71314159   421013 
 1395000   0.64284191    -3.746633    -3.746633   -3.0332471   0.05238831    -3.746633   0.71338591   421013 
 1396000   0.64308345   -3.7467858   -3.7467858   -3.0331318  0.046662223   -3.7467858   0.71365395   421013 
 1397000   0.64238847   -3.7472853   -3.7472853   -3.0344026  0.043804523   -3.7472853   0.71288271   421013 
 1398000   0.64240324   -3.7469285   -3.7469285   -3.0340294  0.055088296   -3.7469285    0.7128991   421013 
 1399000   0.64232486   -3.7474842   -3.7474842   -3.0346721  0.061691297   -3.7474842   0.71281212   421013 
 1400000   0.64281298   -3.7485396   -3.7485396   -3.0351858  0.058138983   -3.7485396    0.7133538   421013 
 1401000   0.64403533   -3.7492197   -3.7492197   -3.0345094  0.064701977   -3.7492197   0.71471029   421013 
 1402000   0.64343273   -3.7492956   -3.7492956    -3.035254  0.053847728   -3.7492956   0.71404156   421013 
 1403000   0.64491272    -3.751008    -3.751008   -3.0353241  0.053180954    -3.751008   0.71568396   421013 
 1404000   0.64228958   -3.7491395   -3.7491395   -3.0363665  0.063239325   -3.7491395   0.71277297   421013 
 1405000   0.64246436   -3.7494049   -3.7494049   -3.0364379  0.060679732   -3.7494049   0.71296693   421013 
 1406000   0.64156629   -3.7492847   -3.7492847   -3.0373144   0.05051866   -3.7492847    0.7119703   421013 
 1407000    0.6428431   -3.7500687   -3.7500687   -3.0366815  0.049585966   -3.7500687   0.71338722   421013 
 1408000   0.64209794   -3.7493068   -3.7493068   -3.0367465   0.06317558   -3.7493068    0.7125603   421013 
 1409000   0.64342818   -3.7512938   -3.7512938   -3.0372573  0.045848297   -3.7512938   0.71403651   421013 
 1410000   0.64409845   -3.7517328   -3.7517328   -3.0369525  0.058455018   -3.7517328   0.71478033   421013 
 1411000   0.64202274   -3.7493326   -3.7493326   -3.0368558  0.064293063   -3.7493326   0.71247685   421013 
 1412000   0.64246712   -3.7502417   -3.7502417   -3.0372718  0.058477749   -3.7502417   0.71296998   421013 
 1413000   0.64252781    -3.750118    -3.750118   -3.0370806  0.059596122    -3.750118   0.71303733   421013 
 1414000   0.64371556   -3.7525529   -3.7525529   -3.0381975  0.047479909   -3.7525529   0.71435543   421013 
 1415000   0.64334896    -3.752391    -3.752391   -3.0384424  0.054310188    -3.752391    0.7139486   421013 
 1416000    0.6420743   -3.7512259   -3.7512259   -3.0386918  0.063274396   -3.7512259   0.71253406   421013 
 1417000   0.64301421   -3.7530939   -3.7530939   -3.0395168  0.053317954   -3.7530939   0.71357712   421013 
 1418000   0.64247674   -3.7527174   -3.7527174   -3.0397368  0.049073915   -3.7527174   0.71298066   421013 
 1419000   0.64045765   -3.7506037   -3.7506037   -3.0398637  0.053625935   -3.7506037      0.71074   421013 
 1420000   0.64247587   -3.7529881   -3.7529881   -3.0400084  0.045785158   -3.7529881    0.7129797   421013 
 1421000   0.64243683   -3.7519861   -3.7519861   -3.0390497  0.049653928   -3.7519861   0.71293637   421013 
 1422000   0.64277394   -3.7525986   -3.7525986   -3.0392882  0.050163042   -3.7525986   0.71331047   421013 
 1423000   0.64292477   -3.7530805   -3.7530805   -3.0396027  0.045752527   -3.7530805   0.71347786   421013 
 1424000   0.64230596    -3.751805    -3.751805   -3.0390138  0.055860308    -3.751805   0.71279115   421013 
 1425000   0.64270979   -3.7525881   -3.7525881   -3.0393488  0.061559244   -3.7525881   0.71323928   421013 
 1426000    0.6418724   -3.7515647   -3.7515647   -3.0392546  0.076043885   -3.7515647   0.71231001   421013 
 1427000   0.64268236   -3.7535118   -3.7535118   -3.0403029  0.050632746   -3.7535118   0.71320885   421013 
 1428000   0.64256655   -3.7534962   -3.7534962   -3.0404159  0.048258253   -3.7534962   0.71308033   421013 
 1429000   0.64150003   -3.7528192   -3.7528192   -3.0409224  0.054885479   -3.7528192   0.71189677   421013 
 1430000   0.64128248   -3.7529648   -3.7529648   -3.0413095  0.047465241   -3.7529648   0.71165534   421013 
 1431000   0.64090501   -3.7532931   -3.7532931   -3.0420566  0.068095196   -3.7532931   0.71123645   421013 
 1432000    0.6403016   -3.7527485   -3.7527485   -3.0421817  0.047617279   -3.7527485   0.71056683   421013 
 1433000   0.64174399   -3.7548626   -3.7548626   -3.0426951  0.042392743   -3.7548626    0.7121675   421013 
 1434000   0.64259192   -3.7552579   -3.7552579   -3.0421494  0.055548099   -3.7552579   0.71310848   421013 
 1435000   0.64150099   -3.7544435   -3.7544435   -3.0425457  0.045094892   -3.7544435   0.71189784   421013 
 1436000   0.64298256   -3.7551674   -3.7551674   -3.0416254   0.06094089   -3.7551674   0.71354199   421013 
 1437000   0.64260469   -3.7553108   -3.7553108   -3.0421881  0.059073346   -3.7553108   0.71312265   421013 
 1438000    0.6434135   -3.7568882   -3.7568882    -3.042868  0.063232163   -3.7568882   0.71402022   421013 
 1439000   0.64249727   -3.7561653   -3.7561653   -3.0431618  0.055865547   -3.7561653   0.71300345   421013 
 1440000   0.64258159   -3.7570861   -3.7570861    -3.043989  0.052645357   -3.7570861   0.71309702   421013 
 1441000   0.64174534   -3.7558642   -3.7558642   -3.0436952  0.066643153   -3.7558642     0.712169   421013 
 1442000   0.64357758   -3.7574206   -3.7574206   -3.0432183  0.057120816   -3.7574206   0.71420231   421013 
 1443000   0.64208607   -3.7560737   -3.7560737   -3.0435265  0.046749425   -3.7560737   0.71254712   421013 
 1444000   0.64253057   -3.7565331   -3.7565331   -3.0434928  0.050653608   -3.7565331    0.7130404   421013 
 1445000   0.64081006   -3.7549698   -3.7549698   -3.0438387    0.0638047   -3.7549698   0.71113109   421013 
 1446000   0.64174865    -3.757014    -3.757014   -3.0448414  0.042841344    -3.757014   0.71217267   421013 
 1447000   0.64106944   -3.7568374   -3.7568374   -3.0454185  0.051605354   -3.7568374   0.71141892   421013 
 1448000   0.64169593   -3.7577435   -3.7577435   -3.0456293  0.064606168   -3.7577435   0.71211416   421013 
 1449000   0.64145299   -3.7579174   -3.7579174   -3.0460729  0.056004034   -3.7579174   0.71184457   421013 
 1450000   0.64050536   -3.7571316   -3.7571316   -3.0463387  0.042729665   -3.7571316   0.71079295   421013 
 1451000   0.64046631   -3.7573644   -3.7573644   -3.0466148   0.04758321   -3.7573644   0.71074961   421013 
 1452000   0.64194168   -3.7586385   -3.7586385   -3.0462516  0.063609736   -3.7586385   0.71238689   421013 
 1453000   0.64055856   -3.7578074   -3.7578074   -3.0469554  0.060045902   -3.7578074   0.71085199   421013 
 1454000   0.64052988   -3.7580407   -3.7580407   -3.0472206  0.061498504   -3.7580407   0.71082016   421013 
 1455000   0.64123292   -3.7586177   -3.7586177   -3.0470174  0.045637019   -3.7586177   0.71160035   421013 
 1456000   0.64065197    -3.758589    -3.758589   -3.0476333  0.059005576    -3.758589   0.71095564   421013 
 1457000    0.6410509   -3.7592422   -3.7592422   -3.0478438  0.058892427   -3.7592422   0.71139836   421013 
 1458000   0.64098029   -3.7595449   -3.7595449   -3.0482249  0.061319972   -3.7595449   0.71131999   421013 
 1459000   0.64137967   -3.7606258   -3.7606258   -3.0488626  0.041979369   -3.7606258    0.7117632   421013 
 1460000   0.64131432   -3.7607061   -3.7607061   -3.0490155  0.068448882   -3.7607061   0.71169068   421013 
 1461000   0.64011502   -3.7596302   -3.7596302   -3.0492705  0.041219589   -3.7596302   0.71035977   421013 
 1462000   0.63976531   -3.7593836   -3.7593836   -3.0494119  0.049548903   -3.7593836   0.70997169   421013 
 1463000   0.63969559   -3.7594889   -3.7594889   -3.0495946  0.059151387   -3.7594889   0.70989431   421013 
 1464000   0.64151956   -3.7614744   -3.7614744    -3.049556  0.052701006   -3.7614744   0.71191844   421013 
 1465000   0.64131816   -3.7614053   -3.7614053   -3.0497103   0.04794151   -3.7614053   0.71169494   421013 
 1466000     0.641075    -3.761162    -3.761162   -3.0497369  0.053224932    -3.761162    0.7114251   421013 
 1467000    0.6403589   -3.7607655   -3.7607655    -3.050135  0.051557996   -3.7607655   0.71063042   421013 
 1468000   0.63881251   -3.7602934   -3.7602934   -3.0513791  0.054383081   -3.7602934   0.70891433   421013 
 1469000   0.64034689   -3.7621056   -3.7621056   -3.0514885  0.061293153   -3.7621056   0.71061709   421013 
 1470000   0.63973666   -3.7618519   -3.7618519   -3.0519121  0.043942576   -3.7618519   0.70993989   421013 
 1471000   0.64061331   -3.7624841   -3.7624841   -3.0515714  0.041338721   -3.7624841   0.71091274   421013 
 1472000   0.63999787    -3.761893    -3.761893   -3.0516632  0.059379203    -3.761893   0.71022976   421013 
 1473000   0.64141901   -3.7636294   -3.7636294   -3.0518226   0.04626079   -3.7636294   0.71180686   421013 
 1474000   0.63877032   -3.7615245   -3.7615245    -3.052657  0.062198099   -3.7615245   0.70886751   421013 
 1475000   0.63925752   -3.7617283   -3.7617283   -3.0523201  0.064864584   -3.7617283   0.70940817   421013 
 1476000   0.64063037    -3.763124    -3.763124   -3.0521924  0.048406747    -3.763124   0.71093168   421013 
 1477000   0.64019549    -3.763705    -3.763705   -3.0532559  0.044152057    -3.763705   0.71044907   421013 
 1478000   0.63958255   -3.7632085   -3.7632085   -3.0534396  0.059221697   -3.7632085   0.70976887   421013 
 1479000   0.63970307   -3.7629497   -3.7629497   -3.0530471  0.066777807   -3.7629497   0.70990262   421013 
 1480000    0.6403855   -3.7641156   -3.7641156   -3.0534557  0.041159008   -3.7641156   0.71065993   421013 
 1481000   0.63998458   -3.7634379   -3.7634379   -3.0532229   0.04926803   -3.7634379   0.71021502   421013 
 1482000   0.64095749   -3.7643665   -3.7643665   -3.0530718  0.066088551   -3.7643665   0.71129469   421013 
 1483000   0.64000316    -3.764446    -3.764446   -3.0542104  0.051768885    -3.764446   0.71023564   421013 
 1484000    0.6380415   -3.7626499   -3.7626499   -3.0545912  0.049500494   -3.7626499   0.70805871   421013 
 1485000   0.63965351   -3.7649432   -3.7649432   -3.0550956  0.034899287   -3.7649432   0.70984762   421013 
 1486000   0.64027836   -3.7646652   -3.7646652   -3.0541241  0.049655026   -3.7646652   0.71054104   421013 
 1487000   0.63930799   -3.7632652   -3.7632652    -3.053801  0.040877433   -3.7632652   0.70946418   421013 
 1488000   0.64036604   -3.7643299   -3.7643299   -3.0536916  0.049373343   -3.7643299   0.71063833   421013 
 1489000   0.64006648   -3.7645789   -3.7645789    -3.054273  0.060941118   -3.7645789   0.71030591   421013 
 1490000   0.63946368   -3.7641175   -3.7641175   -3.0544806  0.053796079   -3.7641175   0.70963696   421013 
 1491000   0.64133278   -3.7664504   -3.7664504   -3.0547392  0.057703951   -3.7664504   0.71171117   421013 
 1492000   0.63968541    -3.765498    -3.765498   -3.0556149  0.041859048    -3.765498   0.70988301   421013 
 1493000   0.63893834   -3.7650667   -3.7650667   -3.0560127  0.037827405   -3.7650667   0.70905397   421013 
 1494000   0.63978258    -3.766415    -3.766415   -3.0564241  0.051299341    -3.766415   0.70999085   421013 
 1495000   0.63843753   -3.7651536   -3.7651536   -3.0566554  0.046624636   -3.7651536    0.7084982   421013 
 1496000   0.63925438   -3.7658497   -3.7658497    -3.056445   0.04634001   -3.7658497   0.70940469   421013 
 1497000   0.63957035   -3.7665702   -3.7665702   -3.0568149   0.04912111   -3.7665702   0.70975533   421013 
 1498000   0.63878547   -3.7661752   -3.7661752   -3.0572909  0.054975775   -3.7661752   0.70888432   421013 
 1499000    0.6393404   -3.7671529   -3.7671529   -3.0576527   0.04153069   -3.7671529   0.70950015   421013 
 1500000   0.63943466   -3.7668507   -3.7668507   -3.0572459  0.056321024   -3.7668507   0.70960475   421013 
 1501000    0.6392858   -3.7670211   -3.7670211   -3.0575816  0.049237649   -3.7670211   0.70943956   421013 
 1502000   0.63906979   -3.7675821   -3.7675821   -3.0583823  0.050676609   -3.7675821   0.70919984   421013 
 1503000   0.63840002   -3.7667871   -3.7667871   -3.0583305  0.044447269   -3.7667871   0.70845657   421013 
 1504000   0.63765463   -3.7665889   -3.7665889   -3.0589595   0.05226899   -3.7665889   0.70762938   421013 
 1505000   0.63963778   -3.7689478   -3.7689478   -3.0591176  0.054275123   -3.7689478   0.70983016   421013 
 1506000   0.63946009   -3.7684416   -3.7684416   -3.0588087   0.06103019   -3.7684416   0.70963298   421013 
 1507000   0.63926806   -3.7693736   -3.7693736   -3.0599537  0.052082102   -3.7693736   0.70941987   421013 
 1508000   0.63854107   -3.7695538   -3.7695538   -3.0609407  0.058048994   -3.7695538    0.7086131   421013 
 1509000   0.63865358   -3.7688542   -3.7688542   -3.0601163  0.049863376   -3.7688542   0.70873795   421013 
 1510000   0.63886866   -3.7684862   -3.7684862   -3.0595095  0.063457529   -3.7684862   0.70897664   421013 
 1511000   0.63892961     -3.76865     -3.76865   -3.0596057  0.054347732     -3.76865   0.70904428   421013 
 1512000    0.6361897    -3.767165    -3.767165   -3.0611613  0.038015499    -3.767165    0.7060037   421013 
 1513000    0.6378031   -3.7682501   -3.7682501    -3.060456  0.041916924   -3.7682501   0.70779414   421013 
 1514000   0.63936377   -3.7693055   -3.7693055   -3.0597794  0.063719874   -3.7693055   0.70952608   421013 
 1515000   0.63702842   -3.7678908   -3.7678908   -3.0609563  0.057922813   -3.7678908   0.70693446   421013 
 1516000   0.63823143   -3.7689014   -3.7689014    -3.060632  0.033603278   -3.7689014   0.70826948   421013 
 1517000   0.63751107   -3.7680068   -3.7680068   -3.0605367  0.044926024   -3.7680068   0.70747007   421013 
 1518000   0.63788441   -3.7680135   -3.7680135   -3.0601291  0.053568838   -3.7680135   0.70788438   421013 
 1519000   0.63798491   -3.7682291   -3.7682291   -3.0602332  0.065018965   -3.7682291   0.70799591   421013 
 1520000   0.63671445   -3.7672073   -3.7672073   -3.0606213  0.051177968   -3.7672073   0.70658603   421013 
 1521000   0.63773789   -3.7682932   -3.7682932   -3.0605714  0.042208222   -3.7682932   0.70772178   421013 
 1522000   0.63823535    -3.768971    -3.768971   -3.0606972  0.045689785    -3.768971   0.70827383   421013 
 1523000   0.63861907   -3.7694385   -3.7694385   -3.0607388   0.04822867   -3.7694385   0.70869966   421013 
 1524000   0.63877234   -3.7697537   -3.7697537    -3.060884  0.041355853   -3.7697537   0.70886975   421013 
 1525000   0.63760324    -3.768476    -3.768476   -3.0609036  0.051229508    -3.768476   0.70757236   421013 
 1526000   0.63842711   -3.7691603   -3.7691603   -3.0606737  0.050720082   -3.7691603   0.70848664   421013 
 1527000   0.63900158   -3.7696861   -3.7696861    -3.060562  0.037453273   -3.7696861   0.70912414   421013 
 1528000   0.63819767   -3.7696784   -3.7696784   -3.0614463  0.054740239   -3.7696784   0.70823202   421013 
 1529000   0.63791719   -3.7694753   -3.7694753   -3.0615545  0.052294549   -3.7694753   0.70792076   421013 
 1530000   0.63888417   -3.7712691   -3.7712691   -3.0622752  0.043332704   -3.7712691   0.70899385   421013 
 1531000   0.63720823   -3.7696092   -3.7696092   -3.0624752  0.046792148   -3.7696092     0.707134   421013 
 1532000    0.6362539   -3.7687227   -3.7687227   -3.0626477  0.051894594   -3.7687227   0.70607494   421013 
 1533000   0.63751129   -3.7715193   -3.7715193    -3.064049  0.041711812   -3.7715193   0.70747031   421013 
 1534000   0.63764285   -3.7718669   -3.7718669   -3.0642506  0.051769964   -3.7718669   0.70761631   421013 
 1535000   0.63708154   -3.7713975   -3.7713975   -3.0644041  0.052920892   -3.7713975   0.70699341   421013 
 1536000   0.63718866   -3.7721424   -3.7721424   -3.0650302  0.041670254   -3.7721424   0.70711228   421013 
 1537000   0.63718452   -3.7717793   -3.7717793   -3.0646716  0.053211954   -3.7717793   0.70710769   421013 
 1538000   0.63663912   -3.7719576   -3.7719576   -3.0654551  0.041885877   -3.7719576   0.70650243   421013 
 1539000   0.63727037   -3.7729743   -3.7729743   -3.0657714   0.04251354   -3.7729743   0.70720296   421013 
 1540000   0.63670659   -3.7719339   -3.7719339   -3.0653566  0.043167654   -3.7719339    0.7065773   421013 
 1541000   0.63699278   -3.7732935   -3.7732935   -3.0663986   0.04243751   -3.7732935   0.70689491   421013 
 1542000   0.63720217   -3.7730899   -3.7730899   -3.0659626  0.056389904   -3.7730899   0.70712727   421013 
 1543000   0.63676414    -3.773011    -3.773011   -3.0663698  0.032139865    -3.773011   0.70664118   421013 
 1544000    0.6368361   -3.7731823   -3.7731823   -3.0664612  0.053072061   -3.7731823   0.70672103   421013 
 1545000   0.63684884   -3.7735946   -3.7735946   -3.0668594  0.046953238   -3.7735946   0.70673517   421013 
 1546000   0.63793875   -3.7745593   -3.7745593   -3.0666146  0.055463798   -3.7745593   0.70794468   421013 
 1547000   0.63676265   -3.7743161   -3.7743161   -3.0676765   0.04355315   -3.7743161   0.70663952   421013 
 1548000   0.63636576    -3.773676    -3.773676   -3.0674769  0.050614523    -3.773676   0.70619908   421013 
 1549000   0.63614083   -3.7743494   -3.7743494   -3.0683999  0.054314714   -3.7743494   0.70594947   421013 
 1550000   0.63649496   -3.7744383   -3.7744383   -3.0680958  0.050631746   -3.7744383   0.70634246   421013 
 1551000   0.63695565   -3.7745912   -3.7745912   -3.0677375  0.053923362   -3.7745912    0.7068537   421013 
 1552000    0.6366268   -3.7743489   -3.7743489   -3.0678602  0.071274965   -3.7743489   0.70648876   421013 
 1553000   0.63473025   -3.7732241   -3.7732241     -3.06884  0.048946798   -3.7732241   0.70438409   421013 
 1554000   0.63620955   -3.7744746   -3.7744746   -3.0684489  0.049618286   -3.7744746   0.70602572   421013 
 1555000   0.63586564   -3.7741965   -3.7741965   -3.0685524  0.042640052   -3.7741965   0.70564407   421013 
 1556000   0.63571985   -3.7742089   -3.7742089   -3.0687266  0.053949744   -3.7742089   0.70548229   421013 
 1557000   0.63550516   -3.7741939   -3.7741939   -3.0689499  0.051322829   -3.7741939   0.70524404   421013 
 1558000   0.63602179   -3.7744162   -3.7744162   -3.0685988  0.048907232   -3.7744162   0.70581736   421013 
 1559000    0.6351944    -3.774528    -3.774528   -3.0696288  0.055727802    -3.774528   0.70489917   421013 
 1560000   0.63592676   -3.7747659   -3.7747659    -3.069054  0.046934012   -3.7747659    0.7057119   421013 
 1561000   0.63489781   -3.7741085   -3.7741085   -3.0695385  0.069528036   -3.7741085   0.70457004   421013 
 1562000   0.63625207   -3.7757332   -3.7757332   -3.0696603  0.028747504   -3.7757332   0.70607291   421013 
 1563000   0.63740073    -3.776855    -3.776855   -3.0695074  0.052007193    -3.776855   0.70734762   421013 
 1564000   0.63586959   -3.7763269   -3.7763269   -3.0706784  0.056575701   -3.7763269   0.70564846   421013 
 1565000   0.63634411   -3.7767665   -3.7767665   -3.0705915  0.053226061   -3.7767665   0.70617505   421013 
 1566000   0.63577231   -3.7764836   -3.7764836   -3.0709431  0.052289465   -3.7764836    0.7055405   421013 
 1567000   0.63595974    -3.776593    -3.776593   -3.0708445   0.06118235    -3.776593    0.7057485   421013 
 1568000   0.63711839   -3.7775424   -3.7775424   -3.0705081   0.04418724   -3.7775424    0.7070343   421013 
 1569000   0.63630222   -3.7763576   -3.7763576    -3.070229  0.041277968   -3.7763576   0.70612856   421013 
 1570000   0.63614113   -3.7762393   -3.7762393   -3.0702895  0.047596204   -3.7762393   0.70594979   421013 
 1571000   0.63663532   -3.7766309   -3.7766309   -3.0701326   0.06022502   -3.7766309   0.70649822   421013 
 1572000    0.6359178   -3.7766111   -3.7766111   -3.0709091  0.053555738   -3.7766111   0.70570196   421013 
 1573000   0.63607791   -3.7763288   -3.7763288   -3.0704492  0.047907617   -3.7763288   0.70587964   421013 
 1574000   0.63554128   -3.7757554   -3.7757554   -3.0704712  0.050923839   -3.7757554   0.70528412   421013 
 1575000   0.63570356   -3.7753144   -3.7753144   -3.0698502  0.053183026   -3.7753144    0.7054642   421013 
 1576000   0.63638261   -3.7768746   -3.7768746   -3.0706568  0.047788834   -3.7768746   0.70621777   421013 
 1577000   0.63686632   -3.7774785   -3.7774785    -3.070724  0.058990764   -3.7774785   0.70675457   421013 
 1578000   0.63529752   -3.7753037   -3.7753037   -3.0702901   0.04401884   -3.7753037   0.70501361   421013 
 1579000   0.63521576   -3.7756792   -3.7756792   -3.0707563   0.04700798   -3.7756792   0.70492288   421013 
 1580000   0.63535071   -3.7768847   -3.7768847    -3.071812  0.043264471   -3.7768847   0.70507264   421013 
 1581000   0.63432647   -3.7757565   -3.7757565   -3.0718205  0.042784391   -3.7757565     0.703936   421013 
 1582000   0.63542849   -3.7772316   -3.7772316   -3.0720726  0.057802457   -3.7772316   0.70515896   421013 
 1583000   0.63566029   -3.7778841   -3.7778841   -3.0724679  0.055004097   -3.7778841   0.70541619   421013 
 1584000   0.63514321   -3.7778396   -3.7778396   -3.0729972  0.041905686   -3.7778396   0.70484236   421013 
 1585000   0.63449749   -3.7778304   -3.7778304   -3.0737046  0.039641877   -3.7778304   0.70412578   421013 
 1586000   0.63409413   -3.7775588   -3.7775588   -3.0738807  0.047147407   -3.7775588   0.70367817   421013 
 1587000    0.6353327   -3.7795725   -3.7795725   -3.0745199  0.051924638   -3.7795725   0.70505265   421013 
 1588000   0.63645336   -3.7806883   -3.7806883    -3.074392  0.051212045   -3.7806883   0.70629629   421013 
 1589000   0.63570149   -3.7798403   -3.7798403   -3.0743784  0.057949649   -3.7798403   0.70546191   421013 
 1590000   0.63551432   -3.7794153   -3.7794153   -3.0741611  0.049441881   -3.7794153    0.7052542   421013 
 1591000   0.63505416   -3.7788792   -3.7788792   -3.0741357  0.049202068   -3.7788792   0.70474355   421013 
 1592000   0.63503933   -3.7795754   -3.7795754   -3.0748483  0.050696693   -3.7795754   0.70472708   421013 
 1593000   0.63709821   -3.7808744   -3.7808744   -3.0738625  0.060342199   -3.7808744   0.70701191   421013 
 1594000   0.63638933   -3.7808256   -3.7808256   -3.0746003  0.055308897   -3.7808256   0.70622523   421013 
 1595000   0.63433149   -3.7786659   -3.7786659   -3.0747244  0.050172228   -3.7786659   0.70394157   421013 
 1596000   0.63462016    -3.779284    -3.779284   -3.0750221   0.03369104    -3.779284   0.70426192   421013 
 1597000   0.63630079   -3.7802139   -3.7802139   -3.0740869  0.042818179   -3.7802139   0.70612698   421013 
 1598000   0.63361775   -3.7781585   -3.7781585    -3.075009  0.048287871   -3.7781585   0.70314951   421013 
 1599000    0.6362159   -3.7808336   -3.7808336   -3.0748009  0.033870001   -3.7808336   0.70603277   421013 
 1600000    0.6348195   -3.7787896   -3.7787896   -3.0743065  0.049763164   -3.7787896   0.70448314   421013 
 1601000   0.63487988   -3.7794424   -3.7794424   -3.0748923    0.0454816   -3.7794424   0.70455014   421013 
 1602000   0.63428213   -3.7793395   -3.7793395   -3.0754527  0.052602167   -3.7793395    0.7038868   421013 
 1603000   0.63590409   -3.7809052   -3.7809052   -3.0752184  0.051801802   -3.7809052   0.70568675   421013 
 1604000   0.63636401   -3.7814577   -3.7814577   -3.0752605  0.051346082   -3.7814577   0.70619714   421013 
 1605000   0.63649854   -3.7815457   -3.7815457   -3.0751993  0.040938779   -3.7815457   0.70634643   421013 
 1606000   0.63556648   -3.7806828   -3.7806828   -3.0753707  0.059601796   -3.7806828   0.70531209   421013 
 1607000   0.63483114   -3.7793182   -3.7793182   -3.0748221  0.054336074   -3.7793182   0.70449605   421013 
 1608000   0.63576985   -3.7810364   -3.7810364   -3.0754986  0.036596729   -3.7810364   0.70553777   421013 
 1609000   0.63512015   -3.7812175   -3.7812175   -3.0764007  0.041282784   -3.7812175   0.70481678   421013 
 1610000   0.63498515   -3.7824702   -3.7824702   -3.0778032  0.042956917   -3.7824702   0.70466697   421013 
 1611000   0.63489911   -3.7818516   -3.7818516   -3.0772801    0.0439503   -3.7818516   0.70457148   421013 
 1612000   0.63424819   -3.7809606   -3.7809606   -3.0771114  0.050592636   -3.7809606   0.70384913   421013 
 1613000   0.63450372   -3.7814144   -3.7814144   -3.0772817  0.038460529   -3.7814144    0.7041327   421013 
 1614000   0.63463495   -3.7814628   -3.7814628   -3.0771844  0.033968157   -3.7814628   0.70427833   421013 
 1615000   0.63424085   -3.7808607   -3.7808607   -3.0770197  0.042890379   -3.7808607   0.70384098   421013 
 1616000   0.63534437   -3.7824401   -3.7824401   -3.0773745  0.049770697   -3.7824401    0.7050656   421013 
 1617000   0.63519266   -3.7824547   -3.7824547   -3.0775574   0.06094849   -3.7824547   0.70489724   421013 
 1618000   0.63493016    -3.781836    -3.781836     -3.07723  0.052668067    -3.781836   0.70460593   421013 
 1619000   0.63676125   -3.7840996   -3.7840996   -3.0774617  0.041929589   -3.7840996   0.70663797   421013 
 1620000   0.63300089   -3.7800252   -3.7800252   -3.0775602  0.041390332   -3.7800252   0.70246495   421013 
 1621000   0.63479354   -3.7822065   -3.7822065   -3.0777522  0.046004039   -3.7822065   0.70445432   421013 
 1622000   0.63332062   -3.7810969   -3.7810969   -3.0782771  0.039400619   -3.7810969   0.70281977   421013 
 1623000   0.63415934   -3.7823654   -3.7823654   -3.0786149  0.031943703   -3.7823654   0.70375053   421013 
 1624000   0.63506354   -3.7834071   -3.7834071   -3.0786531  0.039996386   -3.7834071   0.70475396   421013 
 1625000   0.63513838   -3.7835395   -3.7835395   -3.0787025  0.056424378   -3.7835395   0.70483701   421013 
 1626000   0.63450253   -3.7827023   -3.7827023   -3.0785709  0.046027445   -3.7827023   0.70413138   421013 
 1627000   0.63396251   -3.7819008   -3.7819008   -3.0783687  0.050457454   -3.7819008    0.7035321   421013 
 1628000   0.63488778   -3.7833323   -3.7833323   -3.0787734  0.063597277   -3.7833323    0.7045589   421013 
 1629000   0.63531597   -3.7842487   -3.7842487   -3.0792146  0.058857097   -3.7842487   0.70503408   421013 
 1630000   0.63496615   -3.7838249   -3.7838249    -3.079179  0.059021201   -3.7838249   0.70464587   421013 
 1631000   0.63586703   -3.7845509   -3.7845509   -3.0789053  0.033550206   -3.7845509   0.70564562   421013 
 1632000   0.63474417   -3.7837562   -3.7837562   -3.0793566  0.038242134   -3.7837562   0.70439954   421013 
 1633000   0.63527606   -3.7840336   -3.7840336   -3.0790438  0.036131853   -3.7840336   0.70498979   421013 
 1634000   0.63424026   -3.7834967   -3.7834967   -3.0796564  0.054414079   -3.7834967   0.70384033   421013 
 1635000   0.63410475   -3.7838095   -3.7838095   -3.0801196  0.049828599   -3.7838095   0.70368995   421013 
 1636000   0.63475284   -3.7850698   -3.7850698   -3.0806607  0.043367708   -3.7850698   0.70440916   421013 
 1637000   0.63417674    -3.785602    -3.785602   -3.0818322  0.050864908    -3.785602   0.70376984   421013 
 1638000   0.63311972   -3.7845902   -3.7845902   -3.0819934  0.057573224   -3.7845902   0.70259682   421013 
 1639000    0.6346313    -3.786205    -3.786205   -3.0819307  0.050946457    -3.786205   0.70427428   421013 
 1640000   0.63404831   -3.7859776   -3.7859776   -3.0823502  0.053763576   -3.7859776   0.70362732   421013 
 1641000   0.63358013    -3.785748    -3.785748   -3.0826402  0.055182483    -3.785748   0.70310776   421013 
 1642000    0.6332918   -3.7849871   -3.7849871   -3.0821993  0.050678527   -3.7849871   0.70278778   421013 
 1643000   0.63272523   -3.7846057   -3.7846057   -3.0824466  0.046142243   -3.7846057   0.70215904   421013 
 1644000   0.63431085   -3.7864784   -3.7864784   -3.0825597  0.050896524   -3.7864784   0.70391867   421013 
 1645000   0.63366734   -3.7862331   -3.7862331   -3.0830286  0.047142006   -3.7862331   0.70320454   421013 
 1646000   0.63372222   -3.7870528   -3.7870528   -3.0837874  0.040185869   -3.7870528   0.70326545   421013 
 1647000   0.63433631   -3.7881326   -3.7881326   -3.0841857   0.04569482   -3.7881326   0.70394692   421013 
 1648000   0.63232848   -3.7869202   -3.7869202   -3.0852015  0.044457013   -3.7869202   0.70171875   421013 
 1649000    0.6332982   -3.7874425   -3.7874425   -3.0846476   0.04693211   -3.7874425   0.70279489   421013 
 1650000   0.63263442   -3.7879486   -3.7879486   -3.0858904   0.04670862   -3.7879486   0.70205827   421013 
 1651000   0.63267754   -3.7877277   -3.7877277   -3.0856216  0.041218304   -3.7877277   0.70210612   421013 
 1652000   0.63423145   -3.7883121   -3.7883121   -3.0844815  0.047174151   -3.7883121   0.70383056   421013 
 1653000   0.63330058   -3.7877005   -3.7877005    -3.084903  0.037901144   -3.7877005   0.70279753   421013 
 1654000    0.6350541   -3.7900753   -3.7900753   -3.0853318  0.039858418   -3.7900753   0.70474348   421013 
 1655000   0.63350719   -3.7884576   -3.7884576   -3.0854308  0.054212582   -3.7884576   0.70302682   421013 
 1656000   0.63413413   -3.7889717   -3.7889717   -3.0852492  0.042072425   -3.7889717   0.70372255   421013 
 1657000   0.63335326   -3.7887217   -3.7887217   -3.0858657  0.038786378   -3.7887217   0.70285599   421013 
 1658000     0.632911    -3.788393    -3.788393   -3.0860278  0.046804004    -3.788393    0.7023652   421013 
 1659000   0.63289744   -3.7892594   -3.7892594   -3.0869092  0.056632365   -3.7892594   0.70235015   421013 
 1660000   0.63467752   -3.7912857   -3.7912857   -3.0869601  0.056552932   -3.7912857   0.70432557   421013 
 1661000   0.63271372   -3.7889769   -3.7889769   -3.0868306  0.063997664   -3.7889769   0.70214628   421013 
 1662000   0.63260932    -3.789114    -3.789114   -3.0870835  0.048649951    -3.789114   0.70203042   421013 
 1663000   0.63279814   -3.7889428   -3.7889428   -3.0867028   0.03260335   -3.7889428   0.70223995   421013 
 1664000   0.63343516   -3.7893794   -3.7893794   -3.0864325  0.043063872   -3.7893794   0.70294688   421013 
 1665000   0.63232525   -3.7882961   -3.7882961   -3.0865809  0.045623764   -3.7882961   0.70171517   421013 
 1666000   0.63342756   -3.7904812   -3.7904812   -3.0875428  0.071465305   -3.7904812   0.70293845   421013 
 1667000   0.63166945   -3.7886541   -3.7886541   -3.0876667  0.055346215   -3.7886541   0.70098741   421013 
 1668000   0.63324401   -3.7894037   -3.7894037   -3.0866689  0.042462581   -3.7894037   0.70273476   421013 
 1669000   0.63308526   -3.7896567   -3.7896567   -3.0870981  0.035020296   -3.7896567   0.70255859   421013 
 1670000   0.63331978   -3.7897503   -3.7897503   -3.0869314  0.034695909   -3.7897503   0.70281884   421013 
 1671000   0.63323187   -3.7908373   -3.7908373    -3.088116  0.049941257   -3.7908373   0.70272128   421013 
 1672000   0.63197886   -3.7897293   -3.7897293   -3.0883985  0.044660138   -3.7897293   0.70133077   421013 
 1673000   0.63083365   -3.7886775   -3.7886775   -3.0886177   0.04571328   -3.7886775   0.70005988   421013 
 1674000   0.63265764   -3.7902266   -3.7902266   -3.0881425  0.046528711   -3.7902266   0.70208404   421013 
 1675000   0.63360933   -3.7916797   -3.7916797   -3.0885395  0.030537431   -3.7916797   0.70314016   421013 
 1676000   0.63327757   -3.7916101   -3.7916101   -3.0888381  0.049694119   -3.7916101     0.702772   421013 
 1677000   0.63425793   -3.7927357   -3.7927357   -3.0888758  0.048793099   -3.7927357   0.70385993   421013 
 1678000   0.63299176   -3.7918039   -3.7918039   -3.0893491  0.042663364   -3.7918039   0.70245482   421013 
 1679000   0.63218587   -3.7903011   -3.7903011   -3.0887406  0.045919961   -3.7903011    0.7015605   421013 
 1680000   0.63272509   -3.7914821   -3.7914821   -3.0893232  0.042078496   -3.7914821   0.70215888   421013 
 1681000   0.63278654   -3.7914559   -3.7914559   -3.0892288  0.040662966   -3.7914559   0.70222708   421013 
 1682000   0.63256096   -3.7911034   -3.7911034   -3.0891267   0.04573303   -3.7911034   0.70197675   421013 
 1683000   0.63308271   -3.7916659   -3.7916659   -3.0891101  0.041074569   -3.7916659   0.70255575   421013 
 1684000   0.63358598   -3.7930318   -3.7930318   -3.0899176  0.066557548   -3.7930318   0.70311425   421013 
 1685000   0.63223827   -3.7919348   -3.7919348   -3.0903161  0.067460394   -3.7919348   0.70161864   421013 
 1686000   0.63269077   -3.7922527   -3.7922527   -3.0901319  0.042886595   -3.7922527   0.70212081   421013 
 1687000    0.6321208   -3.7912119   -3.7912119   -3.0897236  0.043792885   -3.7912119   0.70148829   421013 
 1688000   0.63300504    -3.792762    -3.792762   -3.0902925  0.047357939    -3.792762   0.70246956   421013 
 1689000   0.63393439   -3.7946634   -3.7946634   -3.0911625   0.03882426   -3.7946634   0.70350089   421013 
 1690000   0.63043424   -3.7915447   -3.7915447    -3.091928  0.040656776   -3.7915447   0.69961664   421013 
 1691000   0.63156921   -3.7928595   -3.7928595   -3.0919834  0.038199438   -3.7928595   0.70087617   421013 
 1692000   0.63167311   -3.7936314   -3.7936314     -3.09264  0.049053361   -3.7936314   0.70099146   421013 
 1693000    0.6316575   -3.7934711   -3.7934711    -3.092497  0.045755563   -3.7934711   0.70097415   421013 
 1694000   0.63234369   -3.7940349   -3.7940349   -3.0922992  0.052034837   -3.7940349   0.70173564   421013 
 1695000   0.63214831   -3.7936214   -3.7936214   -3.0921026  0.051894318   -3.7936214   0.70151882   421013 
 1696000    0.6317055   -3.7940029   -3.7940029   -3.0929755  0.045399456   -3.7940029   0.70102741   421013 
 1697000   0.63251709   -3.7948986   -3.7948986   -3.0929706  0.048635968   -3.7948986   0.70192806   421013 
 1698000    0.6319412   -3.7937071   -3.7937071   -3.0924181  0.058219517   -3.7937071   0.70128898   421013 
 1699000   0.63290789   -3.7948026   -3.7948026   -3.0924408  0.040922223   -3.7948026   0.70236175   421013 
 1700000   0.63102333   -3.7939397   -3.7939397   -3.0936694  0.039477013   -3.7939397   0.70027038   421013 
 1701000   0.63216778   -3.7947593   -3.7947593   -3.0932189  0.045872181   -3.7947593   0.70154042   421013 
 1702000   0.63116734   -3.7948879   -3.7948879   -3.0944577   0.04026581   -3.7948879    0.7004302   421013 
 1703000   0.63184842   -3.7953504   -3.7953504   -3.0941644  0.060231382   -3.7953504   0.70118602   421013 
 1704000   0.63206533   -3.7965846   -3.7965846   -3.0951579  0.047977129   -3.7965846   0.70142673   421013 
 1705000   0.63186158   -3.7962248   -3.7962248   -3.0950242  0.037133201   -3.7962248   0.70120062   421013 
 1706000   0.63065858   -3.7955301   -3.7955301   -3.0956645   0.03137011   -3.7955301    0.6998656   421013 
 1707000   0.63156072   -3.7961997   -3.7961997    -3.095333  0.054476696   -3.7961997   0.70086675   421013 
 1708000   0.63253166   -3.7973782   -3.7973782   -3.0954339  0.062575152   -3.7973782   0.70194423   421013 
 1709000    0.6311908   -3.7957693   -3.7957693    -3.095313  0.045513259   -3.7957693   0.70045623   421013 
 1710000   0.63182215    -3.796296    -3.796296   -3.0951391  0.043297528    -3.796296   0.70115686   421013 
 1711000      0.63188   -3.7962295   -3.7962295   -3.0950084  0.056128587   -3.7962295   0.70122107   421013 
 1712000   0.63102864   -3.7955046   -3.7955046   -3.0952283  0.038652829   -3.7955046   0.70027628   421013 
 1713000   0.63111631   -3.7962247   -3.7962247   -3.0958511  0.047412651   -3.7962247   0.70037356   421013 
 1714000   0.63211683   -3.7973443   -3.7973443   -3.0958605  0.046253383   -3.7973443   0.70148388   421013 
 1715000    0.6314011   -3.7975106   -3.7975106    -3.096821  0.041034223   -3.7975106   0.70068961   421013 
 1716000   0.63012738   -3.7960128   -3.7960128   -3.0967367  0.037079262   -3.7960128   0.69927611   421013 
 1717000   0.63151981   -3.7973602   -3.7973602   -3.0965388  0.054658305   -3.7973602   0.70082135   421013 
 1718000   0.63150778   -3.7975891   -3.7975891   -3.0967811  0.047144772   -3.7975891     0.700808   421013 
 1719000     0.632022   -3.7982469   -3.7982469   -3.0968682  0.050877275   -3.7982469   0.70137864   421013 
 1720000   0.63139777   -3.7971091   -3.7971091   -3.0964232  0.031763555   -3.7971091   0.70068591   421013 
 1721000   0.63160619   -3.7982286   -3.7982286   -3.0973114  0.050833885   -3.7982286    0.7009172   421013 
 1722000   0.63007074   -3.7973016   -3.7973016   -3.0980884  0.047080761   -3.7973016   0.69921326   421013 
 1723000   0.62913129   -3.7970629   -3.7970629   -3.0988922  0.040677962   -3.7970629   0.69817071   421013 
 1724000   0.62969635   -3.7977753   -3.7977753   -3.0989775   0.02893479   -3.7977753   0.69879778   421013 
 1725000    0.6299991   -3.7986584   -3.7986584   -3.0995247  0.049349645   -3.7986584   0.69913376   421013 
 1726000   0.62956262   -3.7987938   -3.7987938   -3.1001444  0.055268955   -3.7987938   0.69864938   421013 
 1727000   0.63138957   -3.7999749   -3.7999749   -3.0992981  0.048029371   -3.7999749   0.70067682   421013 
 1728000   0.63056217   -3.7992087   -3.7992087     -3.09945  0.050588046   -3.7992087   0.69975861   421013 
 1729000   0.63033034   -3.7991572   -3.7991572   -3.0996558  0.044140663   -3.7991572   0.69950134   421013 
 1730000   0.63016304   -3.7997426   -3.7997426   -3.1004269   0.04385124   -3.7997426   0.69931568   421013 
 1731000   0.62983968   -3.7993007   -3.7993007   -3.1003438   0.06078113   -3.7993007   0.69895684   421013 
 1732000   0.63091358   -3.8011183   -3.8011183   -3.1009697  0.054108792   -3.8011183   0.70014859   421013 
 1733000   0.63101217   -3.8006999   -3.8006999   -3.1004419  0.035006224   -3.8006999     0.700258   421013 
 1734000   0.62925245   -3.7987342   -3.7987342    -3.100429  0.043755552   -3.7987342   0.69830517   421013 
 1735000   0.62900573   -3.7991827   -3.7991827   -3.1011513  0.051792494   -3.7991827   0.69803138   421013 
 1736000   0.63108472   -3.8009178   -3.8009178   -3.1005793  0.059753193   -3.8009178   0.70033851   421013 
 1737000   0.63056866   -3.8007415   -3.8007415   -3.1009757  0.049427781   -3.8007415   0.69976581   421013 
 1738000   0.62937612   -3.8003782   -3.8003782   -3.1019358  0.047288778   -3.8003782   0.69844241   421013 
 1739000    0.6290353   -3.8008914   -3.8008914   -3.1028273  0.059306501   -3.8008914   0.69806419   421013 
 1740000   0.62948782   -3.8000217   -3.8000217   -3.1014553  0.046891141   -3.8000217   0.69856637   421013 
 1741000    0.6299246   -3.8007479   -3.8007479   -3.1016968  0.053194462   -3.8007479   0.69905108   421013 
 1742000   0.62967418   -3.7999807   -3.7999807   -3.1012076  0.046079398   -3.7999807   0.69877318   421013 
 1743000   0.62895546   -3.7997947   -3.7997947   -3.1018191  0.044769582   -3.7997947   0.69797559   421013 
 1744000   0.62898843   -3.7996241   -3.7996241   -3.1016119  0.033510409   -3.7996241   0.69801217   421013 
 1745000   0.62884426   -3.8005734   -3.8005734   -3.1027212  0.042463116   -3.8005734   0.69785219   421013 
 1746000    0.6282711   -3.8004556   -3.8004556   -3.1032395   0.04883305   -3.8004556   0.69721613   421013 
 1747000   0.62889923   -3.8013909   -3.8013909   -3.1034777  0.055981411   -3.8013909   0.69791318   421013 
 1748000   0.63105392   -3.8037318   -3.8037318   -3.1034274  0.048118628   -3.8037318   0.70030433   421013 
 1749000   0.62980263   -3.8019586   -3.8019586   -3.1030428  0.030052942   -3.8019586   0.69891572   421013 
 1750000   0.63064672   -3.8028792   -3.8028792   -3.1030268  0.032638218   -3.8028792   0.69985244   421013 
 1751000   0.62947209   -3.8018069   -3.8018069    -3.103258   0.04760393   -3.8018069   0.69854891   421013 
 1752000   0.63016454   -3.8024692   -3.8024692   -3.1031518  0.046809157   -3.8024692   0.69931735   421013 
 1753000   0.63108094   -3.8033227   -3.8033227   -3.1029884  0.049186149   -3.8033227   0.70033431   421013 
 1754000    0.6309988   -3.8032302   -3.8032302    -3.102987  0.039663087   -3.8032302   0.70024316   421013 
 1755000   0.63128125   -3.8039254   -3.8039254   -3.1033688   0.04789845   -3.8039254    0.7005566   421013 
 1756000   0.63131302    -3.803637    -3.803637   -3.1030452  0.048279515    -3.803637   0.70059186   421013 
 1757000   0.63014308   -3.8027419   -3.8027419   -3.1034484  0.032608872   -3.8027419   0.69929354   421013 
 1758000   0.63043315   -3.8028796   -3.8028796   -3.1032641  0.042902755   -3.8028796   0.69961543   421013 
 1759000   0.63043952   -3.8040632   -3.8040632   -3.1044407   0.04915159   -3.8040632    0.6996225   421013 
 1760000   0.63012468   -3.8039307   -3.8039307   -3.1046576  0.037225147   -3.8039307   0.69927311   421013 
 1761000    0.6277719   -3.8014796   -3.8014796   -3.1048174  0.057722888   -3.8014796   0.69666214   421013 
 1762000   0.62942787   -3.8043184   -3.8043184   -3.1058186  0.051057478   -3.8043184   0.69849984   421013 
 1763000   0.62980006   -3.8046892   -3.8046892   -3.1057763  0.050812323   -3.8046892   0.69891287   421013 
 1764000   0.62965633   -3.8047536   -3.8047536   -3.1060002  0.042170417   -3.8047536   0.69875337   421013 
 1765000   0.63038136   -3.8055116   -3.8055116   -3.1059537  0.037853494   -3.8055116   0.69955796   421013 
 1766000   0.62877006   -3.8037267   -3.8037267   -3.1059568  0.050996362   -3.8037267   0.69776985   421013 
 1767000   0.62881474    -3.803883    -3.803883   -3.1060635  0.043629764    -3.803883   0.69781943   421013 
 1768000    0.6285647   -3.8038583   -3.8038583   -3.1063163  0.039013144   -3.8038583   0.69754195   421013 
 1769000   0.62996281    -3.804738    -3.804738   -3.1056445  0.046605088    -3.804738   0.69909348   421013 
 1770000   0.62963179   -3.8050097   -3.8050097   -3.1062835  0.059212862   -3.8050097   0.69872614   421013 
 1771000   0.63016658   -3.8060445   -3.8060445   -3.1067248  0.047315289   -3.8060445   0.69931961   421013 
 1772000   0.62945938   -3.8048335   -3.8048335   -3.1062987  0.041867152   -3.8048335   0.69853481   421013 
 1773000   0.63026916   -3.8053903   -3.8053903   -3.1059568  0.043153342   -3.8053903   0.69943346   421013 
 1774000   0.62964727   -3.8042511   -3.8042511   -3.1055078   0.05726924   -3.8042511   0.69874331   421013 
 1775000   0.62795702    -3.803493    -3.803493   -3.1066254  0.049553933    -3.803493   0.69686758   421013 
 1776000    0.6278314    -3.804345    -3.804345   -3.1076168  0.040385466    -3.804345   0.69672818   421013 
 1777000   0.62907309   -3.8046857   -3.8046857   -3.1065796  0.047812453   -3.8046857   0.69810613   421013 
 1778000   0.62895768   -3.8046811   -3.8046811   -3.1067031  0.040921415   -3.8046811   0.69797805   421013 
 1779000   0.62725481   -3.8028704   -3.8028704   -3.1067821  0.054220484   -3.8028704   0.69608831   421013 
 1780000   0.62959028   -3.8051764   -3.8051764   -3.1064963  0.042536325   -3.8051764   0.69868007   421013 
 1781000   0.62859249   -3.8046663   -3.8046663   -3.1070935  0.044239004   -3.8046663   0.69757279   421013 
 1782000   0.62957109   -3.8056725   -3.8056725   -3.1070137  0.048901243   -3.8056725   0.69865878   421013 
 1783000   0.62886097   -3.8067125   -3.8067125   -3.1088418  0.044531996   -3.8067125   0.69787073   421013 
 1784000    0.6282487   -3.8061677   -3.8061677   -3.1089764  0.043740042   -3.8061677   0.69719127   421013 
 1785000   0.62722912   -3.8053448   -3.8053448    -3.109285  0.042251836   -3.8053448   0.69605981   421013 
 1786000   0.62947611   -3.8076964   -3.8076964    -3.109143  0.054076532   -3.8076964   0.69855337   421013 
 1787000   0.62851612   -3.8066505   -3.8066505   -3.1091625  0.048503141   -3.8066505   0.69748803   421013 
 1788000    0.6270091   -3.8041241   -3.8041241   -3.1083085  0.047803528   -3.8041241   0.69581564   421013 
 1789000   0.62755827      -3.8048      -3.8048   -3.1083749  0.031965315      -3.8048   0.69642507   421013 
 1790000   0.62807632   -3.8048405   -3.8048405   -3.1078405  0.041819529   -3.8048405   0.69699998   421013 
 1791000   0.62887261   -3.8055685   -3.8055685   -3.1076849  0.048360975   -3.8055685   0.69788365   421013 
 1792000    0.6286171   -3.8053834   -3.8053834   -3.1077833  0.055907267   -3.8053834    0.6976001   421013 
 1793000    0.6287539   -3.8055133   -3.8055133   -3.1077614  0.051334344   -3.8055133   0.69775191   421013 
 1794000   0.62907387   -3.8064509   -3.8064509   -3.1083439  0.053317491   -3.8064509   0.69810699   421013 
 1795000   0.62980234   -3.8079217   -3.8079217   -3.1090063  0.054660549   -3.8079217    0.6989154   421013 
 1796000   0.62989507   -3.8072844   -3.8072844   -3.1082661  0.055363424   -3.8072844   0.69901831   421013 
 1797000   0.62944888   -3.8074269   -3.8074269   -3.1089037  0.030065396   -3.8074269   0.69852316   421013 
 1798000   0.62832247   -3.8062258   -3.8062258   -3.1089527  0.045945791   -3.8062258   0.69727314   421013 
 1799000   0.62850957   -3.8063202   -3.8063202   -3.1088394  0.042208903   -3.8063202   0.69748077   421013 
 1800000   0.62915389   -3.8071698   -3.8071698    -3.108974  0.038939997   -3.8071698   0.69819579   421013 
 1801000    0.6280767   -3.8063102   -3.8063102   -3.1093098  0.033056613   -3.8063102    0.6970004   421013 
 1802000   0.62959742   -3.8078819   -3.8078819   -3.1091939  0.058302228   -3.8078819     0.698688   421013 
 1803000   0.62835324   -3.8072967   -3.8072967   -3.1099895  0.044146696   -3.8072967   0.69730729   421013 
 1804000   0.62865707   -3.8075585   -3.8075585    -3.109914  0.047020466   -3.8075585   0.69764446   421013 
 1805000   0.62903828   -3.8083004   -3.8083004   -3.1102329  0.050523003   -3.8083004   0.69806749   421013 
 1806000   0.62815499   -3.8087165   -3.8087165   -3.1116292  0.049394016   -3.8087165   0.69708728   421013 
 1807000   0.62803013   -3.8079661   -3.8079661   -3.1110174  0.037152078   -3.8079661   0.69694872   421013 
 1808000   0.62763196   -3.8074199   -3.8074199    -3.110913  0.038088299   -3.8074199   0.69650685   421013 
 1809000   0.62815381   -3.8076937   -3.8076937   -3.1106078  0.043986398   -3.8076937   0.69708597   421013 
 1810000   0.62919718   -3.8084217   -3.8084217   -3.1101778  0.050947476   -3.8084217   0.69824384   421013 
 1811000   0.62694719   -3.8063955   -3.8063955   -3.1106486  0.034609576   -3.8063955   0.69574694   421013 
 1812000   0.62806422   -3.8073641   -3.8073641   -3.1103775  0.042758387   -3.8073641   0.69698654   421013 
 1813000    0.6271577   -3.8066643   -3.8066643   -3.1106837  0.037461195   -3.8066643   0.69598055   421013 
 1814000   0.62634626   -3.8060689   -3.8060689   -3.1109889  0.042180688   -3.8060689   0.69508006   421013 
 1815000   0.62742224    -3.806527    -3.806527   -3.1102529  0.054830386    -3.806527   0.69627412   421013 
 1816000   0.62888835   -3.8084123   -3.8084123   -3.1105112  0.059400508   -3.8084123   0.69790112   421013 
 1817000    0.6294376   -3.8086712   -3.8086712   -3.1101606  0.046358522   -3.8086712   0.69851064   421013 
 1818000   0.62821169    -3.808607    -3.808607   -3.1114568  0.053554826    -3.808607   0.69715019   421013 
 1819000   0.62908064   -3.8099395   -3.8099395    -3.111825  0.046650161   -3.8099395    0.6981145   421013 
 1820000   0.62854039   -3.8097881   -3.8097881   -3.1122731  0.046831358   -3.8097881   0.69751497   421013 
 1821000    0.6284014   -3.8099728   -3.8099728   -3.1126121  0.047359138   -3.8099728   0.69736072   421013 
 1822000   0.62817223   -3.8098345   -3.8098345   -3.1127281  0.018814339   -3.8098345   0.69710641   421013 
 1823000   0.62909666   -3.8114542   -3.8114542   -3.1133219  0.041973053   -3.8114542   0.69813228   421013 
 1824000   0.62832167   -3.8100361   -3.8100361   -3.1127639  0.053875813   -3.8100361   0.69727225   421013 
 1825000   0.62704469   -3.8095465   -3.8095465   -3.1136914  0.044547809   -3.8095465   0.69585513   421013 
 1826000   0.62769887   -3.8103288   -3.8103288   -3.1137477  0.046263785   -3.8103288    0.6965811   421013 
 1827000   0.62766331    -3.810468    -3.810468   -3.1139263  0.031973451    -3.810468   0.69654164   421013 
 1828000   0.62689601   -3.8101159   -3.8101159   -3.1144257  0.041115691   -3.8101159   0.69569014   421013 
 1829000   0.62818068   -3.8111985   -3.8111985   -3.1140827  0.050196357   -3.8111985   0.69711579   421013 
 1830000   0.62936631   -3.8131109   -3.8131109   -3.1146793  0.042891591   -3.8131109   0.69843152   421013 
 1831000   0.62708959   -3.8106166   -3.8106166   -3.1147116  0.039068831   -3.8106166   0.69590496   421013 
 1832000   0.62589437   -3.8092722   -3.8092722   -3.1146937  0.032971047   -3.8092722   0.69457859   421013 
 1833000   0.62860291   -3.8122227   -3.8122227   -3.1146383  0.042740143   -3.8122227   0.69758435   421013 
 1834000   0.62766309   -3.8115735   -3.8115735   -3.1150321  0.052123743   -3.8115735    0.6965414   421013 
 1835000   0.62798728   -3.8126723   -3.8126723   -3.1157711  0.042666207   -3.8126723   0.69690117   421013 
 1836000    0.6274144   -3.8117174   -3.8117174    -3.115452   0.03757053   -3.8117174   0.69626541   421013 
 1837000   0.62767896   -3.8120157   -3.8120157   -3.1154567  0.049014481   -3.8120157   0.69655901   421013 
 1838000   0.62680148   -3.8110673   -3.8110673   -3.1154821  0.047828329   -3.8110673   0.69558524   421013 
 1839000   0.62788077   -3.8122117   -3.8122117   -3.1154288  0.032639391   -3.8122117   0.69678297   421013 
 1840000    0.6277161   -3.8121116   -3.8121116   -3.1155113  0.049604547   -3.8121116   0.69660022   421013 
 1841000   0.62823685   -3.8130848   -3.8130848   -3.1159067  0.048301656   -3.8130848   0.69717812   421013 
 1842000   0.62750626   -3.8125603   -3.8125603   -3.1161929  0.027376441   -3.8125603   0.69636735   421013 
 1843000   0.62714569   -3.8119155   -3.8119155   -3.1159483    0.0395217   -3.8119155   0.69596722   421013 
 1844000   0.62779432   -3.8123987   -3.8123987   -3.1157117  0.039048268   -3.8123987   0.69668703   421013 
 1845000   0.62765669   -3.8133154   -3.8133154   -3.1167811  0.037517783   -3.8133154    0.6965343   421013 
 1846000   0.62858339   -3.8140889   -3.8140889   -3.1165262  0.056089655   -3.8140889   0.69756268   421013 
 1847000   0.62659888   -3.8122835   -3.8122835   -3.1169231  0.047199464   -3.8122835    0.6953604   421013 
 1848000    0.6273291    -3.813445    -3.813445   -3.1172742  0.049656244    -3.813445   0.69617075   421013 
 1849000   0.62671201   -3.8126405   -3.8126405   -3.1171546  0.047024075   -3.8126405   0.69548594   421013 
 1850000    0.6283366   -3.8136519   -3.8136519   -3.1163631  0.034793185   -3.8136519   0.69728881   421013 
 1851000    0.6289575   -3.8142517   -3.8142517   -3.1162738  0.043500887   -3.8142517   0.69797785   421013 
 1852000   0.62780318   -3.8130346   -3.8130346   -3.1163377   0.03872593   -3.8130346   0.69669686   421013 
 1853000   0.62719008   -3.8120857   -3.8120857   -3.1160692  0.041419348   -3.8120857   0.69601648   421013 
 1854000   0.62802497   -3.8135676   -3.8135676   -3.1166246  0.059548517   -3.8135676   0.69694299   421013 
 1855000    0.6264446   -3.8130047   -3.8130047   -3.1178155  0.052548394   -3.8130047   0.69518919   421013 
 1856000   0.62644154   -3.8127098   -3.8127098    -3.117524  0.040226513   -3.8127098    0.6951858   421013 
 1857000   0.62610387   -3.8128473   -3.8128473   -3.1180362  0.051960121   -3.8128473   0.69481107   421013 
 1858000    0.6272837   -3.8144311   -3.8144311   -3.1183107  0.046018813   -3.8144311   0.69612038   421013 
 1859000   0.62676549   -3.8138497   -3.8138497   -3.1183044  0.022866371   -3.8138497   0.69554529   421013 
 1860000    0.6272313    -3.814696    -3.814696   -3.1186338  0.052268427    -3.814696   0.69606222   421013 
 1861000   0.62723658   -3.8142972   -3.8142972   -3.1182291   0.05997005   -3.8142972   0.69606808   421013 
 1862000   0.62820833   -3.8153657   -3.8153657   -3.1182192  0.033599619   -3.8153657   0.69714646   421013 
 1863000   0.62572148   -3.8130889   -3.8130889   -3.1187022  0.047492851   -3.8130889   0.69438672   421013 
 1864000    0.6263446   -3.8138673   -3.8138673   -3.1187891  0.042588253   -3.8138673   0.69507822   421013 
 1865000   0.62704599   -3.8142516   -3.8142516    -3.118395  0.044571281   -3.8142516   0.69585657   421013 
 1866000    0.6279896   -3.8149013   -3.8149013   -3.1179975  0.035019948   -3.8149013   0.69690374   421013 
 1867000   0.62628036   -3.8133855   -3.8133855   -3.1183786  0.033758168   -3.8133855   0.69500693   421013 
 1868000   0.62587871   -3.8137825   -3.8137825   -3.1192213  0.048163095   -3.8137825    0.6945612   421013 
 1869000   0.62690889   -3.8152553   -3.8152553   -3.1195508  0.038922743   -3.8152553   0.69570444   421013 
 1870000   0.62684253   -3.8154497   -3.8154497   -3.1198189  0.043939819   -3.8154497   0.69563079   421013 
 1871000   0.62580111   -3.8146875   -3.8146875   -3.1202124  0.054276149   -3.8146875   0.69447509   421013 
 1872000   0.62718197   -3.8163675   -3.8163675     -3.12036  0.044638951   -3.8163675   0.69600748   421013 
 1873000   0.62608223   -3.8158034   -3.8158034   -3.1210164  0.041685068   -3.8158034   0.69478705   421013 
 1874000   0.62590917   -3.8152626   -3.8152626   -3.1206676  0.039372879   -3.8152626     0.694595   421013 
 1875000   0.62630848   -3.8157908   -3.8157908   -3.1207526  0.035817992   -3.8157908   0.69503813   421013 
 1876000   0.62759315   -3.8177273   -3.8177273   -3.1212635  0.046622217   -3.8177273   0.69646378   421013 
 1877000    0.6274334   -3.8182779   -3.8182779   -3.1219914   0.05205001   -3.8182779    0.6962865   421013 
 1878000    0.6262764   -3.8167768   -3.8167768   -3.1217743  0.040064761   -3.8167768   0.69500254   421013 
 1879000   0.62584168   -3.8168516   -3.8168516   -3.1223315  0.040600608   -3.8168516   0.69452011   421013 
 1880000   0.62623247   -3.8168822   -3.8168822   -3.1219284  0.040952072   -3.8168822   0.69495378   421013 
 1881000   0.62515267   -3.8154461   -3.8154461   -3.1216906  0.055940403   -3.8154461   0.69375549   421013 
 1882000   0.62555065   -3.8153979   -3.8153979   -3.1212007  0.035025079   -3.8153979   0.69419715   421013 
 1883000   0.62662776   -3.8166236   -3.8166236   -3.1212311  0.053615746   -3.8166236   0.69539245   421013 
 1884000   0.62649416   -3.8167446   -3.8167446   -3.1215004  0.053530609   -3.8167446    0.6952442   421013 
 1885000   0.62614372   -3.8158158   -3.8158158   -3.1209605  0.059192557   -3.8158158    0.6948553   421013 
 1886000   0.62557869    -3.816221    -3.816221   -3.1219928  0.043003162    -3.816221   0.69422825   421013 
 1887000    0.6264558   -3.8175219   -3.8175219   -3.1223203  0.047396038   -3.8175219   0.69520162   421013 
 1888000   0.62643458   -3.8179235   -3.8179235   -3.1227454  0.051769834   -3.8179235   0.69517807   421013 
 1889000    0.6261722   -3.8174066   -3.8174066   -3.1225197  0.042075074   -3.8174066    0.6948869   421013 
 1890000   0.62531417   -3.8168946   -3.8168946   -3.1229599   0.04621388   -3.8168946   0.69393471   421013 
 1891000   0.62518523     -3.81752     -3.81752   -3.1237284  0.046688206     -3.81752   0.69379162   421013 
 1892000    0.6276329   -3.8198486   -3.8198486   -3.1233407  0.044231257   -3.8198486   0.69650789   421013 
 1893000   0.62564598    -3.817786    -3.817786   -3.1234831  0.042395632    -3.817786   0.69430293   421013 
 1894000   0.62716938   -3.8195553   -3.8195553   -3.1235617  0.047466578   -3.8195553   0.69599351   421013 
 1895000   0.62753559   -3.8199712   -3.8199712   -3.1235713  0.047770596   -3.8199712   0.69639991   421013 
 1896000   0.62642026   -3.8193965   -3.8193965   -3.1242343  0.043300088   -3.8193965   0.69516218   421013 
 1897000   0.62442381    -3.816329    -3.816329   -3.1233824  0.041648559    -3.816329   0.69294664   421013 
 1898000   0.62504161   -3.8180579   -3.8180579   -3.1244256  0.046574884   -3.8180579   0.69363224   421013 
 1899000   0.62581031   -3.8190095   -3.8190095   -3.1245242  0.030958857   -3.8190095   0.69448529   421013 
 1900000   0.62608456   -3.8182934   -3.8182934   -3.1235038  0.054341197   -3.8182934   0.69478964   421013 
 1901000   0.62663393   -3.8191157   -3.8191157   -3.1237164  0.028534572   -3.8191157    0.6953993   421013 
 1902000   0.62655274   -3.8194372   -3.8194372    -3.124128  0.040078335   -3.8194372    0.6953092   421013 
 1903000   0.62430408    -3.817004    -3.817004   -3.1241902  0.052279729    -3.817004   0.69281378   421013 
 1904000   0.62380102     -3.81721     -3.81721   -3.1249545  0.049652025     -3.81721   0.69225551   421013 
 1905000   0.62473832   -3.8177454   -3.8177454   -3.1244497  0.041452981   -3.8177454   0.69329567   421013 
 1906000   0.62593384   -3.8188157   -3.8188157   -3.1241933  0.051380957   -3.8188157   0.69462239   421013 
 1907000   0.62536543   -3.8180415   -3.8180415   -3.1240499  0.041538902   -3.8180415   0.69399159   421013 
 1908000   0.62486507    -3.817652    -3.817652   -3.1242157  0.045764734    -3.817652   0.69343633   421013 
 1909000   0.62586006   -3.8186655   -3.8186655    -3.124125  0.044532804   -3.8186655   0.69454051   421013 
 1910000   0.62594207   -3.8184237   -3.8184237   -3.1237922  0.046849908   -3.8184237   0.69463151   421013 
 1911000   0.62670362   -3.8192039   -3.8192039   -3.1237272   0.03013717   -3.8192039   0.69547664   421013 
 1912000    0.6271732   -3.8198013   -3.8198013   -3.1238035  0.046886661   -3.8198013   0.69599775   421013 
 1913000   0.62579615   -3.8180751   -3.8180751   -3.1236055  0.045659988   -3.8180751   0.69446958   421013 
 1914000   0.62486941    -3.817864    -3.817864   -3.1244229  0.049486574    -3.817864   0.69344114   421013 
 1915000   0.62734907   -3.8203492   -3.8203492   -3.1241563  0.045497989   -3.8203492   0.69619292   421013 
 1916000   0.62356794   -3.8167546   -3.8167546   -3.1247577  0.051480575   -3.8167546   0.69199686   421013 
 1917000   0.62532281   -3.8191261   -3.8191261   -3.1251818  0.039045505   -3.8191261    0.6939443   421013 
 1918000   0.62575112    -3.819948    -3.819948   -3.1255284  0.028217516    -3.819948   0.69441961   421013 
 1919000   0.62544519   -3.8198379   -3.8198379   -3.1257578  0.055245121   -3.8198379   0.69408011   421013 
 1920000   0.62605282   -3.8213001   -3.8213001   -3.1265457  0.046514021   -3.8213001   0.69475442   421013 
 1921000    0.6249236   -3.8204817   -3.8204817   -3.1269804  0.036223275   -3.8204817   0.69350128   421013 
 1922000   0.62514172    -3.820582    -3.820582   -3.1268387  0.038802904    -3.820582   0.69374333   421013 
 1923000    0.6250464   -3.8209653   -3.8209653   -3.1273278  0.043380115   -3.8209653   0.69363756   421013 
 1924000   0.62399323   -3.8191699   -3.8191699   -3.1267011    0.0485213   -3.8191699   0.69246882   421013 
 1925000   0.62451748   -3.8195635   -3.8195635   -3.1265129  0.032260806   -3.8195635   0.69305059   421013 
 1926000   0.62442352   -3.8197761   -3.8197761   -3.1268298  0.044907188   -3.8197761   0.69294632   421013 
 1927000    0.6250987   -3.8203361   -3.8203361   -3.1266405    0.0515637   -3.8203361   0.69369559   421013 
 1928000   0.62444914   -3.8203484   -3.8203484   -3.1273737  0.043728292   -3.8203484   0.69297475   421013 
 1929000   0.62536812    -3.820762    -3.820762   -3.1267675  0.041569438    -3.820762   0.69399458   421013 
 1930000   0.62572306   -3.8212937   -3.8212937   -3.1269052   0.03536854   -3.8212937   0.69438847   421013 
 1931000   0.62493741   -3.8210408   -3.8210408   -3.1275242  0.038655765   -3.8210408   0.69351661   421013 
 1932000   0.62522897   -3.8211977   -3.8211977   -3.1273576  0.048623423   -3.8211977   0.69384016   421013 
 1933000   0.62459006   -3.8210344   -3.8210344   -3.1279032  0.037958459   -3.8210344   0.69313114   421013 
 1934000   0.62621292   -3.8222957   -3.8222957   -3.1273636  0.065040555   -3.8222957   0.69493208   421013 
 1935000    0.6240579   -3.8197223   -3.8197223   -3.1271818  0.027855249   -3.8197223   0.69254058   421013 
 1936000   0.62562992   -3.8222575   -3.8222575   -3.1279724  0.050450589   -3.8222575   0.69428511   421013 
 1937000   0.62511897   -3.8216873   -3.8216873   -3.1279692  0.042150603   -3.8216873   0.69371809   421013 
 1938000   0.62464674   -3.8209428   -3.8209428   -3.1277487  0.054032337   -3.8209428   0.69319404   421013 
 1939000   0.62475262   -3.8213782   -3.8213782   -3.1280666  0.035914406   -3.8213782   0.69331154   421013 
 1940000    0.6248433   -3.8221449   -3.8221449   -3.1287327  0.037501518   -3.8221449   0.69341217   421013 
 1941000     0.624751   -3.8220915   -3.8220915   -3.1287818  0.044107802   -3.8220915   0.69330974   421013 
 1942000   0.62423254   -3.8209307   -3.8209307   -3.1281963  0.048894351   -3.8209307   0.69273439   421013 
 1943000   0.62613622   -3.8226199   -3.8226199   -3.1277729  0.038169836   -3.8226199   0.69484697   421013 
 1944000   0.62501477   -3.8220245   -3.8220245    -3.128422  0.030650659   -3.8220245   0.69360245   421013 
 1945000   0.62520067   -3.8219308   -3.8219308    -3.128122  0.047040134   -3.8219308   0.69380876   421013 
 1946000    0.6244702   -3.8212476   -3.8212476   -3.1282495  0.052553206   -3.8212476   0.69299812   421013 
 1947000   0.62581188   -3.8224162   -3.8224162   -3.1279292  0.030518264   -3.8224162   0.69448703   421013 
 1948000   0.62513265   -3.8220082   -3.8220082    -3.128275  0.039952558   -3.8220082   0.69373327   421013 
 1949000   0.62482142   -3.8218598   -3.8218598   -3.1284719  0.033554726   -3.8218598   0.69338789   421013 
 1950000   0.62433015    -3.821957    -3.821957   -3.1291143  0.047684606    -3.821957   0.69284271   421013 
 1951000   0.62596956   -3.8240106   -3.8240106   -3.1293486  0.048887019   -3.8240106   0.69466202   421013 
 1952000   0.62537121   -3.8229583   -3.8229583   -3.1289603  0.036320722   -3.8229583   0.69399801   421013 
 1953000   0.62453791   -3.8220413   -3.8220413    -3.128968   0.04692792   -3.8220413   0.69307326   421013 
 1954000   0.62375671   -3.8218945   -3.8218945   -3.1296881  0.042763181   -3.8218945   0.69220634   421013 
 1955000   0.62524312   -3.8232174   -3.8232174   -3.1293615  0.047193942   -3.8232174   0.69385586   421013 
 1956000   0.62424204   -3.8225945   -3.8225945   -3.1298496  0.045796113   -3.8225945   0.69274493   421013 
 1957000   0.62530088   -3.8230223   -3.8230223   -3.1291024  0.044301411   -3.8230223   0.69391996   421013 
 1958000   0.62477297   -3.8219464   -3.8219464   -3.1286122  0.044563585   -3.8219464   0.69333412   421013 
 1959000   0.62581338   -3.8235617   -3.8235617    -3.129073    0.0318126   -3.8235617    0.6944887   421013 
 1960000   0.62537862    -3.823757    -3.823757   -3.1297507  0.047021053    -3.823757   0.69400624   421013 
 1961000   0.62514343   -3.8236916   -3.8236916   -3.1299464  0.036896327   -3.8236916   0.69374524   421013 
 1962000   0.62556035   -3.8237218   -3.8237218   -3.1295139  0.035345727   -3.8237218    0.6942079   421013 
 1963000   0.62574408   -3.8233333   -3.8233333   -3.1289215  0.044419089   -3.8233333   0.69441179   421013 
 1964000   0.62505456   -3.8227416   -3.8227416    -3.129095  0.040484412   -3.8227416   0.69364661   421013 
 1965000   0.62377901   -3.8225204   -3.8225204   -3.1302894  0.042664675   -3.8225204   0.69223108   421013 
 1966000   0.62523377   -3.8245918   -3.8245918   -3.1307463  0.044749359   -3.8245918   0.69384549   421013 
 1967000    0.6239983   -3.8234518   -3.8234518   -3.1309774  0.035183299   -3.8234518   0.69247444   421013 
 1968000   0.62359509   -3.8236468   -3.8236468   -3.1316198  0.047585601   -3.8236468   0.69202699   421013 
 1969000   0.62322938   -3.8227978   -3.8227978   -3.1311766  0.041611899   -3.8227978   0.69162114   421013 
 1970000    0.6235682   -3.8237746   -3.8237746   -3.1317775   0.03375192   -3.8237746   0.69199714   421013 
 1971000   0.62462417   -3.8241842   -3.8241842   -3.1310152  0.055342685   -3.8241842   0.69316899   421013 
 1972000    0.6235665   -3.8243981   -3.8243981   -3.1324029  0.038086301   -3.8243981   0.69199526   421013 
 1973000   0.62489143   -3.8259018   -3.8259018   -3.1324363  0.046382865   -3.8259018   0.69346558   421013 
 1974000   0.62358316   -3.8244705   -3.8244705   -3.1324568   0.04531502   -3.8244705   0.69201374   421013 
 1975000   0.62384685   -3.8235392   -3.8235392   -3.1312329  0.053611941   -3.8235392   0.69230637   421013 
 1976000   0.62301035   -3.8230751   -3.8230751    -3.131697  0.045811583   -3.8230751   0.69137808   421013 
 1977000   0.62336634    -3.822947    -3.822947   -3.1311739  0.052323094    -3.822947   0.69177314   421013 
 1978000   0.62335056   -3.8233534   -3.8233534   -3.1315978  0.046832001   -3.8233534   0.69175561   421013 
 1979000   0.62305769   -3.8231436   -3.8231436    -3.131713   0.04037619   -3.8231436   0.69143061   421013 
 1980000   0.62477776   -3.8243743   -3.8243743   -3.1310348  0.038830572   -3.8243743   0.69333944   421013 
 1981000   0.62351246    -3.823023    -3.823023   -3.1310877  0.041189189    -3.823023   0.69193528   421013 
 1982000   0.62434878   -3.8243177   -3.8243177   -3.1314543  0.047424069   -3.8243177   0.69286339   421013 
 1983000   0.62322327   -3.8226292   -3.8226292   -3.1310148  0.052432256   -3.8226292   0.69161436   421013 
 1984000   0.62463972   -3.8246973   -3.8246973   -3.1315111  0.052675717   -3.8246973   0.69318625   421013 
 1985000   0.62474419   -3.8249678   -3.8249678   -3.1316657  0.041906705   -3.8249678   0.69330218   421013 
 1986000   0.62333444   -3.8234745   -3.8234745   -3.1317368  0.042192172   -3.8234745   0.69173773   421013 
 1987000   0.62252052   -3.8235286   -3.8235286   -3.1326941   0.03235567   -3.8235286    0.6908345   421013 
 1988000   0.62399119   -3.8250834   -3.8250834   -3.1326169  0.034561702   -3.8250834   0.69246655   421013 
 1989000   0.62319157   -3.8247641   -3.8247641    -3.133185  0.041970326   -3.8247641   0.69157919   421013 
 1990000   0.62363158   -3.8255445   -3.8255445   -3.1334771  0.024378042   -3.8255445   0.69206748   421013 
 1991000   0.62316248    -3.825122    -3.825122   -3.1335751  0.038401659    -3.825122    0.6915469   421013 
 1992000   0.62381539   -3.8251192   -3.8251192   -3.1328477  0.030537309   -3.8251192   0.69227145   421013 
 1993000   0.62431541   -3.8252446   -3.8252446   -3.1324183  0.041163462   -3.8252446   0.69282635   421013 
 1994000   0.62283695   -3.8233926   -3.8233926    -3.132207    0.0309849   -3.8233926   0.69118565   421013 
 1995000   0.62432437   -3.8251471   -3.8251471   -3.1323109  0.047784011   -3.8251471   0.69283629   421013 
 1996000   0.62454391   -3.8251586   -3.8251586   -3.1320787  0.044687062   -3.8251586   0.69307992   421013 
 1997000    0.6238988   -3.8250603   -3.8250603   -3.1326963  0.042369025   -3.8250603   0.69236402   421013 
 1998000   0.62337986   -3.8255166   -3.8255166   -3.1337285  0.047511518   -3.8255166   0.69178813   421013 
 1999000   0.62404421   -3.8256379   -3.8256379   -3.1331125  0.046287674   -3.8256379   0.69252539   421013 
 2000000    0.6240594   -3.8256906   -3.8256906   -3.1331483  0.042905092   -3.8256906   0.69254225   421013 
 2001000   0.62643503   -3.8283456   -3.8283456   -3.1331671  0.047687546   -3.8283456   0.69517857   421013 
 2002000   0.62414114   -3.8257004   -3.8257004   -3.1330675  0.033870912   -3.8257004   0.69263296   421013 
 2003000   0.62320119   -3.8256013   -3.8256013   -3.1340114  0.038087447   -3.8256013   0.69158985   421013 
 2004000   0.62350865   -3.8262336   -3.8262336   -3.1343026  0.052340458   -3.8262336   0.69193105   421013 
 2005000   0.62340407   -3.8263446   -3.8263446   -3.1345296   0.04587545   -3.8263446     0.691815   421013 
 2006000   0.62371695   -3.8265436   -3.8265436   -3.1343813  0.027018873   -3.8265436   0.69216222   421013 
 2007000   0.62227663   -3.8249976   -3.8249976   -3.1344337  0.032589946   -3.8249976   0.69056384   421013 
 2008000   0.62447582   -3.8282868   -3.8282868   -3.1352824  0.038629507   -3.8282868   0.69300436   421013 
 2009000   0.62516969   -3.8289295   -3.8289295   -3.1351551   0.03020633   -3.8289295   0.69377437   421013 
 2010000   0.62422209   -3.8287525   -3.8287525   -3.1360297   0.05279065   -3.8287525   0.69272278   421013 
 2011000    0.6215046   -3.8264104   -3.8264104   -3.1367033  0.060520429   -3.8264104   0.68970708   421013 
 2012000   0.62378091    -3.828073    -3.828073   -3.1358398  0.053070388    -3.828073    0.6922332   421013 
 2013000   0.62388815   -3.8283827   -3.8283827   -3.1360305  0.044666008   -3.8283827    0.6923522   421013 
 2014000   0.62396266   -3.8281404   -3.8281404   -3.1357055   0.03910998   -3.8281404   0.69243488   421013 
 2015000   0.62381607   -3.8279049   -3.8279049   -3.1356327  0.043596784   -3.8279049   0.69227221   421013 
 2016000   0.62422293   -3.8288971   -3.8288971   -3.1361733  0.031617816   -3.8288971   0.69272372   421013 
 2017000   0.62309964   -3.8279844   -3.8279844   -3.1365072  0.049503469   -3.8279844   0.69147716   421013 
 2018000   0.62171205   -3.8259629   -3.8259629   -3.1360256  0.039633761   -3.8259629    0.6899373   421013 
 2019000   0.62271168    -3.827892    -3.827892   -3.1368454   0.03725946    -3.827892   0.69104663   421013 
 2020000   0.62250601   -3.8276264   -3.8276264    -3.136808  0.041892624   -3.8276264    0.6908184   421013 
 2021000   0.62222907   -3.8267316   -3.8267316   -3.1362205  0.037595153   -3.8267316   0.69051106   421013 
 2022000   0.62241951   -3.8274678   -3.8274678   -3.1367454  0.050326199   -3.8274678   0.69072239   421013 
 2023000   0.62346728   -3.8290632   -3.8290632   -3.1371781  0.047347678   -3.8290632   0.69188515   421013 
 2024000    0.6250762   -3.8312448   -3.8312448   -3.1375741  0.037249701   -3.8312448   0.69367063   421013 
 2025000   0.62259474    -3.829032    -3.829032   -3.1381152  0.044277967    -3.829032   0.69091686   421013 
 2026000   0.62284982   -3.8296642   -3.8296642   -3.1384643  0.043651761   -3.8296642   0.69119992   421013 
 2027000   0.62347258   -3.8321255   -3.8321255   -3.1402345  0.043956359   -3.8321255   0.69189103   421013 
 2028000   0.62239209   -3.8314701   -3.8314701   -3.1407781  0.045273679   -3.8314701   0.69069197   421013 
 2029000   0.62216629   -3.8310531   -3.8310531   -3.1406118   0.03354725   -3.8310531   0.69044139   421013 
 2030000   0.62374815      -3.8326      -3.8326   -3.1404031  0.039407828      -3.8326   0.69219685   421013 
 2031000   0.62164607   -3.8304591   -3.8304591    -3.140595  0.041289947   -3.8304591   0.68986408   421013 
 2032000   0.62325533   -3.8320515   -3.8320515   -3.1404015  0.047000464   -3.8320515   0.69164994   421013 
 2033000   0.62329335    -3.831616    -3.831616   -3.1399238  0.040611327    -3.831616   0.69169214   421013 
 2034000   0.62270299   -3.8315168   -3.8315168   -3.1404798  0.033026291   -3.8315168   0.69103698   421013 
 2035000    0.6230109   -3.8318263   -3.8318263   -3.1404476  0.037946234   -3.8318263   0.69137868   421013 
 2036000   0.62231603   -3.8318969   -3.8318969   -3.1412893  0.049844765   -3.8318969   0.69060756   421013 
 2037000   0.62305532   -3.8323198   -3.8323198   -3.1408918  0.043381979   -3.8323198   0.69142798   421013 
 2038000   0.62272989   -3.8320308   -3.8320308    -3.140964  0.042760065   -3.8320308   0.69106684   421013 
 2039000    0.6233141   -3.8328042   -3.8328042    -3.141089  0.031283512   -3.8328042   0.69171516   421013 
 2040000   0.62390837   -3.8335627   -3.8335627   -3.1411881  0.051239484   -3.8335627   0.69237464   421013 
 2041000   0.62310234   -3.8335353   -3.8335353   -3.1420552  0.054537736   -3.8335353   0.69148016   421013 
 2042000   0.62275853   -3.8326278   -3.8326278   -3.1415292  0.039392102   -3.8326278   0.69109862   421013 
 2043000   0.62318331   -3.8331661   -3.8331661    -3.141596  0.043637687   -3.8331661   0.69157001   421013 
 2044000   0.62347049    -3.834076    -3.834076   -3.1421872  0.040612374    -3.834076   0.69188871   421013 
 2045000   0.62403351   -3.8345835   -3.8345835     -3.14207  0.031191272   -3.8345835   0.69251351   421013 
 2046000   0.62339691   -3.8344245   -3.8344245   -3.1426174  0.033577498   -3.8344245   0.69180706   421013 
 2047000   0.62243616   -3.8324339   -3.8324339    -3.141693  0.042173459   -3.8324339   0.69074087   421013 
 2048000   0.62259321   -3.8329271   -3.8329271   -3.1420119  0.032329621   -3.8329271   0.69091516   421013 
 2049000   0.62280576   -3.8340412   -3.8340412   -3.1428901  0.042822495   -3.8340412   0.69115103   421013 
 2050000   0.62337842   -3.8343387   -3.8343387   -3.1425522  0.032925005   -3.8343387   0.69178654   421013 
 2051000   0.62262458   -3.8328427   -3.8328427   -3.1418927   0.02746403   -3.8328427   0.69094997   421013 
 2052000   0.62253328   -3.8324706   -3.8324706    -3.141622  0.034077333   -3.8324706   0.69084865   421013 
 2053000   0.62278692   -3.8338758   -3.8338758   -3.1427457  0.038259153   -3.8338758   0.69113012   421013 
 2054000   0.62140055   -3.8328237   -3.8328237   -3.1432321  0.031190283   -3.8328237   0.68959162   421013 
 2055000   0.62091757   -3.8320107   -3.8320107   -3.1429551  0.030721842   -3.8320107   0.68905564   421013 
 2056000   0.62250905   -3.8328904   -3.8328904   -3.1420686  0.041015889   -3.8328904   0.69082177   421013 
 2057000   0.62135029   -3.8323162   -3.8323162   -3.1427803  0.040368627   -3.8323162   0.68953584   421013 
 2058000   0.62241458   -3.8336112   -3.8336112   -3.1428942  0.045430636   -3.8336112   0.69071693   421013 
 2059000   0.62236213   -3.8339109   -3.8339109   -3.1432521  0.053422211   -3.8339109   0.69065872   421013 
 2060000   0.62344232   -3.8355251   -3.8355251   -3.1436676  0.040093037   -3.8355251   0.69185744   421013 
 2061000   0.62262909   -3.8338701   -3.8338701   -3.1429151  0.029410587   -3.8338701   0.69095498   421013 
 2062000   0.62240937   -3.8340424   -3.8340424   -3.1433312   0.04091949   -3.8340424   0.69071115   421013 
 2063000   0.62281645   -3.8338495   -3.8338495   -3.1426866  0.044528635   -3.8338495    0.6911629   421013 
 2064000   0.62065089   -3.8314935   -3.8314935   -3.1427338  0.033449304   -3.8314935   0.68875969   421013 
 2065000    0.6222407    -3.832829    -3.832829    -3.142305  0.031406713    -3.832829   0.69052397   421013 
 2066000   0.62208873   -3.8331443   -3.8331443    -3.142789  0.042023654   -3.8331443   0.69035532   421013 
 2067000   0.62269496   -3.8338494   -3.8338494   -3.1428213  0.038233564   -3.8338494   0.69102808   421013 
 2068000   0.62155909    -3.833013    -3.833013   -3.1432454   0.03849698    -3.833013   0.68976756   421013 
 2069000   0.62269376   -3.8345558   -3.8345558   -3.1435291  0.026507981   -3.8345558   0.69102674   421013 
 2070000   0.62188519   -3.8344668   -3.8344668   -3.1443374  0.043290627   -3.8344668   0.69012944   421013 
 2071000   0.62263845   -3.8351883   -3.8351883   -3.1442229  0.048189902   -3.8351883   0.69096536   421013 
 2072000   0.62234275   -3.8350371   -3.8350371   -3.1443999  0.041515008   -3.8350371   0.69063722   421013 
 2073000   0.62245219   -3.8356455   -3.8356455   -3.1448868  0.041474936   -3.8356455   0.69075866   421013 
 2074000   0.62134459   -3.8341621   -3.8341621   -3.1446326   0.03036178   -3.8341621   0.68952952   421013 
 2075000   0.62093915    -3.834155    -3.834155   -3.1450754  0.042785642    -3.834155   0.68907958   421013 
 2076000   0.62311188   -3.8358256   -3.8358256   -3.1443348   0.05059308   -3.8358256   0.69149075   421013 
 2077000   0.62159654   -3.8347521   -3.8347521    -3.144943  0.036918642   -3.8347521   0.68980912   421013 
 2078000   0.62022986   -3.8338545   -3.8338545    -3.145562  0.032086583   -3.8338545   0.68829246   421013 
 2079000   0.62100736   -3.8347225   -3.8347225   -3.1455672   0.04450401   -3.8347225   0.68915528   421013 
 2080000   0.62142439   -3.8354223   -3.8354223   -3.1458043  0.047809189   -3.8354223   0.68961807   421013 
 2081000   0.62171416   -3.8359171   -3.8359171   -3.1459774  0.047746534   -3.8359171   0.68993965   421013 
 2082000   0.62181211   -3.8357322   -3.8357322   -3.1456839  0.055264296   -3.8357322   0.69004835   421013 
 2083000   0.62232346   -3.8364276   -3.8364276   -3.1458118  0.045034151   -3.8364276   0.69061581   421013 
 2084000    0.6226931   -3.8372912   -3.8372912   -3.1462652  0.045063017   -3.8372912   0.69102601   421013 
 2085000   0.62227372   -3.8372071   -3.8372071   -3.1466465  0.043925158   -3.8372071   0.69056061   421013 
 2086000   0.62265804   -3.8383666   -3.8383666   -3.1473795  0.039365982   -3.8383666   0.69098711   421013 
 2087000   0.62300113   -3.8383186   -3.8383186   -3.1469508  0.032184056   -3.8383186   0.69136784   421013 
 2088000   0.62142078   -3.8365005   -3.8365005   -3.1468865   0.03755855   -3.8365005   0.68961406   421013 
 2089000   0.62133391   -3.8368213   -3.8368213   -3.1473037  0.036480821   -3.8368213   0.68951766   421013 
 2090000    0.6221799   -3.8383087   -3.8383087   -3.1478522  0.029830973   -3.8383087    0.6904565   421013 
 2091000   0.62098512   -3.8371642   -3.8371642   -3.1480336  0.042700969   -3.8371642    0.6891306   421013 
 2092000   0.62238037   -3.8388976   -3.8388976   -3.1482186  0.038910523   -3.8388976   0.69067897   421013 
 2093000    0.6221038    -3.838637    -3.838637    -3.148265   0.02832174    -3.838637   0.69037204   421013 
 2094000   0.62108864   -3.8372657   -3.8372657   -3.1480202  0.044544707   -3.8372657   0.68924548   421013 
 2095000   0.62235361   -3.8381272   -3.8381272   -3.1474779  0.046526693   -3.8381272   0.69064927   421013 
 2096000   0.62200399   -3.8376661   -3.8376661   -3.1474048  0.050786217   -3.8376661   0.69026128   421013 
 2097000   0.62106073   -3.8363058   -3.8363058   -3.1470913  0.048571059   -3.8363058   0.68921451   421013 
 2098000   0.62099344   -3.8363473   -3.8363473   -3.1472075  0.048851043   -3.8363473   0.68913983   421013 
 2099000   0.62137077   -3.8368486   -3.8368486     -3.14729  0.044610629   -3.8368486   0.68955857   421013 
 2100000   0.62141127   -3.8372106   -3.8372106   -3.1476071  0.038000138   -3.8372106   0.68960351   421013 
 2101000   0.62177319    -3.837319    -3.837319   -3.1473139  0.040948427    -3.837319   0.69000515   421013 
 2102000    0.6220437   -3.8373482   -3.8373482   -3.1470428  0.038696884   -3.8373482   0.69030535   421013 
 2103000   0.62208562   -3.8379543   -3.8379543   -3.1476024  0.034912893   -3.8379543   0.69035187   421013 
 2104000   0.62159458   -3.8378458   -3.8378458   -3.1480389  0.048696208   -3.8378458   0.68980695   421013 
 2105000   0.62146016   -3.8377161   -3.8377161   -3.1480584  0.043775266   -3.8377161   0.68965777   421013 
 2106000   0.62275415    -3.839277    -3.839277   -3.1481832  0.038480652    -3.839277   0.69109376   421013 
 2107000   0.62067398   -3.8381987   -3.8381987   -3.1494134  0.049626976   -3.8381987   0.68878532   421013 
 2108000   0.62149307   -3.8390072   -3.8390072   -3.1493129  0.036159765   -3.8390072   0.68969429   421013 
 2109000   0.62221952   -3.8403591   -3.8403591   -3.1498586   0.04967286   -3.8403591   0.69050046   421013 
 2110000   0.62143726   -3.8391975   -3.8391975   -3.1495651  0.043807259   -3.8391975   0.68963236   421013 
 2111000   0.62184748   -3.8407533   -3.8407533   -3.1506657  0.029068496   -3.8407533    0.6900876   421013 
 2112000   0.62061227   -3.8391397   -3.8391397   -3.1504229  0.039514147   -3.8391397   0.68871683   421013 
 2113000   0.62052174   -3.8381354   -3.8381354    -3.149519  0.047348025   -3.8381354   0.68861638   421013 
 2114000    0.6200457   -3.8376699   -3.8376699   -3.1495818  0.044213825   -3.8376699   0.68808809   421013 
 2115000   0.62158259   -3.8399762   -3.8399762   -3.1501825  0.032582061   -3.8399762   0.68979364   421013 
 2116000    0.6202677   -3.8383006   -3.8383006   -3.1499661  0.039255888   -3.8383006   0.68833445   421013 
 2117000   0.62073853   -3.8391352   -3.8391352   -3.1502783  0.047204476   -3.8391352   0.68885695   421013 
 2118000    0.6215195   -3.8401271   -3.8401271   -3.1504035  0.035529287   -3.8401271   0.68972362   421013 
 2119000   0.62080717   -3.8395586   -3.8395586   -3.1506254  0.028882697   -3.8395586   0.68893313   421013 
 2120000   0.62184652   -3.8414196   -3.8414196   -3.1513331  0.029847809   -3.8414196   0.69008653   421013 
 2121000   0.62122907   -3.8406035   -3.8406035   -3.1512022   0.04268525   -3.8406035   0.68940132   421013 
 2122000   0.62002222   -3.8390593   -3.8390593   -3.1509972  0.047548106   -3.8390593   0.68806203   421013 
 2123000   0.62129378   -3.8396357   -3.8396357   -3.1501626  0.043298289   -3.8396357   0.68947313   421013 
 2124000   0.62075983   -3.8398414   -3.8398414   -3.1509609  0.043359974   -3.8398414   0.68888058   421013 
 2125000   0.62109106   -3.8407935   -3.8407935   -3.1515453  0.033105206   -3.8407935   0.68924817   421013 
 2126000   0.61910871   -3.8392133   -3.8392133   -3.1521651  0.048126551   -3.8392133   0.68704827   421013 
 2127000   0.61986902   -3.8394758   -3.8394758   -3.1515838  0.037191589   -3.8394758   0.68789202   421013 
 2128000   0.61936335   -3.8397031   -3.8397031   -3.1523723  0.045442293   -3.8397031   0.68733086   421013 
 2129000   0.61953984   -3.8402809   -3.8402809   -3.1527542  0.043089218   -3.8402809   0.68752672   421013 
 2130000   0.61817553   -3.8392918   -3.8392918   -3.1532791  0.041237281   -3.8392918   0.68601269   421013 
 2131000   0.61935745   -3.8408028   -3.8408028   -3.1534785  0.040021353   -3.8408028   0.68732432   421013 
 2132000   0.62026573   -3.8412416   -3.8412416   -3.1529093  0.037365334   -3.8412416   0.68833226   421013 
 2133000   0.62179655   -3.8424203   -3.8424203   -3.1523892  0.043417456   -3.8424203   0.69003107   421013 
 2134000   0.62085718    -3.841343    -3.841343   -3.1523544  0.034636735    -3.841343   0.68898862   421013 
 2135000   0.62165705   -3.8423002   -3.8423002   -3.1524239  0.046248917   -3.8423002   0.68987626   421013 
 2136000   0.61926137   -3.8402201   -3.8402201   -3.1530024  0.038032593   -3.8402201   0.68721769   421013 
 2137000   0.61949157   -3.8407901   -3.8407901   -3.1533169  0.029629439   -3.8407901   0.68747316   421013 
 2138000   0.62017069   -3.8414301   -3.8414301   -3.1532033  0.030722881   -3.8414301    0.6882268   421013 
 2139000   0.62030648   -3.8414498   -3.8414498   -3.1530723  0.035846871   -3.8414498   0.68837749   421013 
 2140000   0.62067308   -3.8418805   -3.8418805   -3.1530962  0.036151115   -3.8418805   0.68878432   421013 
 2141000   0.62006639   -3.8412882   -3.8412882   -3.1531772   0.04651037   -3.8412882   0.68811105   421013 
 2142000   0.61855656   -3.8398945   -3.8398945   -3.1534589  0.044081053   -3.8398945   0.68643554   421013 
 2143000   0.61977433    -3.841482    -3.841482    -3.153695  0.032898537    -3.841482   0.68778694   421013 
 2144000   0.61854572   -3.8403215   -3.8403215    -3.153898  0.041153462   -3.8403215   0.68642351   421013 
 2145000   0.62035994   -3.8429972   -3.8429972   -3.1545604  0.033340677   -3.8429972   0.68843682   421013 
 2146000   0.62043306   -3.8425691   -3.8425691   -3.1540512  0.048973083   -3.8425691   0.68851796   421013 
 2147000   0.61840188   -3.8413236   -3.8413236   -3.1550597  0.047490469   -3.8413236   0.68626389   421013 
 2148000    0.6194768   -3.8431539   -3.8431539   -3.1556971   0.04458212   -3.8431539   0.68745677   421013 
 2149000   0.62006423   -3.8424497   -3.8424497   -3.1543411  0.031014895   -3.8424497   0.68810865   421013 
 2150000   0.62123884    -3.843897    -3.843897   -3.1544849  0.035834183    -3.843897   0.68941217   421013 
 2151000   0.62039211   -3.8429834   -3.8429834   -3.1545109    0.0326631   -3.8429834   0.68847251   421013 
 2152000   0.61962959   -3.8431356   -3.8431356   -3.1555093  0.042937845   -3.8431356   0.68762632   421013 
 2153000   0.61924433   -3.8422571   -3.8422571   -3.1550584  0.032846556   -3.8422571   0.68719878   421013 
 2154000   0.62083303   -3.8441713   -3.8441713   -3.1552095  0.051541753   -3.8441713   0.68896182   421013 
 2155000   0.62032457   -3.8435604   -3.8435604   -3.1551628  0.039053674   -3.8435604   0.68839756   421013 
 2156000   0.62149708   -3.8449003   -3.8449003   -3.1552016  0.045869783   -3.8449003   0.68969874   421013 
 2157000   0.61930696   -3.8429088   -3.8429088   -3.1556405  0.025021291   -3.8429088   0.68726829   421013 
 2158000   0.61998825   -3.8432061   -3.8432061   -3.1551818  0.042007742   -3.8432061   0.68802434   421013 
 2159000   0.62086603   -3.8442346   -3.8442346   -3.1552361  0.041652569   -3.8442346   0.68899844   421013 
 2160000   0.62015229    -3.844345    -3.844345   -3.1561386  0.037560443    -3.844345   0.68820638   421013 
 2161000   0.61995978   -3.8437306   -3.8437306   -3.1557379  0.031161544   -3.8437306   0.68799274   421013 
 2162000   0.61981292   -3.8428539   -3.8428539   -3.1550241  0.043288814   -3.8428539   0.68782976   421013 
 2163000    0.6205496   -3.8452593   -3.8452593    -3.156612  0.034572799   -3.8452593   0.68864729   421013 
 2164000   0.62128828   -3.8464086   -3.8464086   -3.1569416  0.048644845   -3.8464086   0.68946703   421013 
 2165000   0.61945534   -3.8441874   -3.8441874   -3.1567545   0.04593588   -3.8441874   0.68743294   421013 
 2166000   0.62099861   -3.8457541   -3.8457541   -3.1566085  0.046834823   -3.8457541   0.68914557   421013 
 2167000   0.62014255   -3.8447361   -3.8447361   -3.1565405  0.040813905   -3.8447361   0.68819557   421013 
 2168000   0.62089439   -3.8452747   -3.8452747   -3.1562448  0.037244805   -3.8452747   0.68902992   421013 
 2169000   0.61965849    -3.843828    -3.843828   -3.1561696  0.047182983    -3.843828   0.68765839   421013 
 2170000   0.62051853   -3.8448501   -3.8448501   -3.1562373  0.053496396   -3.8448501    0.6886128   421013 
 2171000   0.62020903   -3.8448017   -3.8448017   -3.1565323  0.033307111   -3.8448017   0.68826935   421013 
 2172000   0.62003699    -3.843904    -3.843904   -3.1558255  0.037278478    -3.843904   0.68807843   421013 
 2173000   0.62022864   -3.8442016   -3.8442016   -3.1559105  0.030055976   -3.8442016   0.68829111   421013 
 2174000   0.62069171   -3.8441863   -3.8441863   -3.1553813  0.043085356   -3.8441863   0.68880499   421013 
 2175000   0.62074536   -3.8433629   -3.8433629   -3.1544984  0.036595195   -3.8433629   0.68886453   421013 
 2176000   0.62141948   -3.8446514   -3.8446514   -3.1550387  0.049092642   -3.8446514   0.68961263   421013 
 2177000   0.62147226   -3.8452661   -3.8452661   -3.1555949  0.041133705   -3.8452661    0.6896712   421013 
 2178000   0.62011362   -3.8428896   -3.8428896   -3.1547262  0.042652546   -3.8428896   0.68816346   421013 
 2179000   0.62141009   -3.8454775   -3.8454775   -3.1558753  0.041910385   -3.8454775    0.6896022   421013 
 2180000   0.62058549   -3.8447624   -3.8447624   -3.1560753  0.042614431   -3.8447624   0.68868712   421013 
 2181000   0.62131387   -3.8456201   -3.8456201   -3.1561246   0.04863191   -3.8456201   0.68949543   421013 
 2182000   0.62022629   -3.8441338   -3.8441338   -3.1558453  0.046099254   -3.8441338    0.6882885   421013 
 2183000   0.61984747   -3.8439698   -3.8439698   -3.1561017   0.02921151   -3.8439698   0.68786811   421013 
 2184000      0.61885    -3.843402    -3.843402   -3.1566409  0.034074185    -3.843402   0.68676117   421013 
 2185000   0.61981521   -3.8442665   -3.8442665   -3.1564341  0.045805285   -3.8442665   0.68783231   421013 
 2186000   0.61915819   -3.8439159   -3.8439159   -3.1568127  0.036325857   -3.8439159   0.68710318   421013 
 2187000   0.61908108   -3.8441642   -3.8441642   -3.1571466  0.038410373   -3.8441642   0.68701762   421013 
 2188000   0.62008305   -3.8451106   -3.8451106   -3.1569811  0.041182567   -3.8451106   0.68812954   421013 
 2189000    0.6214508   -3.8466561   -3.8466561   -3.1570087  0.040797048   -3.8466561   0.68964739   421013 
 2190000   0.62005598    -3.845081    -3.845081   -3.1569815  0.048615047    -3.845081    0.6880995   421013 
 2191000   0.62051975   -3.8458395   -3.8458395   -3.1572253  0.047807053   -3.8458395   0.68861416   421013 
 2192000   0.62085611     -3.84595     -3.84595   -3.1569625  0.034692929     -3.84595   0.68898743   421013 
 2193000   0.61996032   -3.8450582   -3.8450582   -3.1570649   0.04525256   -3.8450582   0.68799334   421013 
 2194000   0.61971943   -3.8445451   -3.8445451    -3.156819  0.052114914   -3.8445451   0.68772602   421013 
 2195000   0.61963215   -3.8445959   -3.8445959   -3.1569668  0.048872728   -3.8445959   0.68762915   421013 
 2196000   0.62067488   -3.8458719   -3.8458719   -3.1570856  0.047312914   -3.8458719   0.68878632   421013 
 2197000   0.62125374   -3.8466869   -3.8466869   -3.1572582  0.034762088   -3.8466869    0.6894287   421013 
 2198000   0.62037971   -3.8458409   -3.8458409   -3.1573822  0.040276226   -3.8458409   0.68845875   421013 
 2199000   0.62151876   -3.8479956   -3.8479956   -3.1582728  0.056766576   -3.8479956    0.6897228   421013 
 2200000   0.61982703   -3.8470264   -3.8470264    -3.159181  0.052480506   -3.8470264   0.68784543   421013 
 2201000   0.61976645   -3.8469265   -3.8469265   -3.1591483   0.06328573   -3.8469265    0.6877782   421013 
 2202000   0.61884012   -3.8465774   -3.8465774   -3.1598271  0.039404501   -3.8465774   0.68675022   421013 
 2203000   0.61967711   -3.8469642   -3.8469642   -3.1592851  0.036453822   -3.8469642   0.68767905   421013 
 2204000   0.62049112   -3.8480258   -3.8480258   -3.1594434  0.036664628   -3.8480258   0.68858239   421013 
 2205000   0.61968193   -3.8473236   -3.8473236   -3.1596392  0.026782599   -3.8473236    0.6876844   421013 
 2206000   0.61865645   -3.8462225   -3.8462225   -3.1596761  0.050088161   -3.8462225   0.68654639   421013 
 2207000   0.61927367   -3.8474094   -3.8474094    -3.160178  0.029352596   -3.8474094   0.68723134   421013 
 2208000   0.62077794   -3.8487353   -3.8487353   -3.1598346  0.044427376   -3.8487353   0.68890068   421013 
 2209000   0.61969386   -3.8475333   -3.8475333   -3.1598357  0.040762136   -3.8475333   0.68769764   421013 
 2210000   0.61986284   -3.8481623   -3.8481623   -3.1602771   0.03605672   -3.8481623   0.68788516   421013 
 2211000   0.61924364   -3.8481069   -3.8481069   -3.1609088  0.044595315   -3.8481069   0.68719802   421013 
 2212000    0.6189268   -3.8476149   -3.8476149   -3.1607685   0.04676121   -3.8476149   0.68684641   421013 
 2213000   0.61984818   -3.8487514   -3.8487514   -3.1608825  0.047756528   -3.8487514    0.6878689   421013 
 2214000   0.62124723   -3.8502826   -3.8502826   -3.1608611  0.043009951   -3.8502826   0.68942148   421013 
 2215000     0.620594   -3.8500087   -3.8500087   -3.1613122  0.028325521   -3.8500087   0.68869656   421013 
 2216000   0.61986288   -3.8490396   -3.8490396   -3.1611544  0.044568723   -3.8490396    0.6878852   421013 
 2217000   0.61955742   -3.8493187   -3.8493187   -3.1617725   0.03500587   -3.8493187   0.68754623   421013 
 2218000   0.61891495   -3.8482147   -3.8482147   -3.1613815  0.051940283   -3.8482147   0.68683326   421013 
 2219000   0.62062761    -3.848878    -3.848878   -3.1601442  0.039023591    -3.848878   0.68873386   421013 
 2220000   0.61990538   -3.8483985   -3.8483985   -3.1604661  0.050382835   -3.8483985   0.68793238   421013 
 2221000   0.61966857   -3.8478049   -3.8478049   -3.1601353  0.032122721   -3.8478049   0.68766957   421013 
 2222000   0.61931216   -3.8482387   -3.8482387   -3.1609647  0.034908236   -3.8482387   0.68727406   421013 
 2223000   0.61945079   -3.8484642   -3.8484642   -3.1610363  0.027809611   -3.8484642    0.6874279   421013 
 2224000   0.62091491   -3.8499968   -3.8499968   -3.1609441  0.032344132   -3.8499968   0.68905269   421013 
 2225000   0.62043921   -3.8490416   -3.8490416   -3.1605169  0.043444289   -3.8490416   0.68852478   421013 
 2226000   0.61824603   -3.8475886   -3.8475886   -3.1614977  0.039599756   -3.8475886   0.68609093   421013 
 2227000    0.6185519   -3.8479197   -3.8479197   -3.1614894   0.03795346   -3.8479197   0.68643036   421013 
 2228000    0.6198617   -3.8485284   -3.8485284   -3.1606445  0.048990273   -3.8485284    0.6878839   421013 
 2229000   0.61893636   -3.8475267   -3.8475267   -3.1606697  0.037044493   -3.8475267   0.68685702   421013 
 2230000   0.61697333   -3.8463022   -3.8463022   -3.1616236  0.046652609   -3.8463022   0.68467857   421013 
 2231000   0.61653787   -3.8458539   -3.8458539   -3.1616586  0.036108625   -3.8458539   0.68419532   421013 
 2232000   0.61902143   -3.8486352   -3.8486352   -3.1616838  0.036510138   -3.8486352   0.68695142   421013 
 2233000   0.61812216   -3.8483791   -3.8483791   -3.1624257  0.038097555   -3.8483791   0.68595347   421013 
 2234000   0.62057924   -3.8507942   -3.8507942   -3.1621141  0.034454118   -3.8507942   0.68868018   421013 
 2235000   0.61965717   -3.8493089   -3.8493089    -3.161652  0.048765066   -3.8493089   0.68765693   421013 
 2236000   0.61945438   -3.8499056   -3.8499056   -3.1624737  0.038339541   -3.8499056   0.68743189   421013 
 2237000   0.61985256      -3.8509      -3.8509   -3.1630262  0.043792475      -3.8509   0.68787376   421013 
 2238000   0.62007246   -3.8504689   -3.8504689   -3.1623511  0.034804873   -3.8504689   0.68811779   421013 
 2239000   0.61973985   -3.8507747   -3.8507747    -3.163026  0.041446094   -3.8507747   0.68774868   421013 
 2240000   0.61966339   -3.8502841   -3.8502841   -3.1626203  0.040843642   -3.8502841   0.68766382   421013 
 2241000   0.62007733   -3.8509313   -3.8509313   -3.1628081  0.035847927   -3.8509313   0.68812319   421013 
 2242000   0.61957701   -3.8504469   -3.8504469   -3.1628789  0.045936681   -3.8504469   0.68756797   421013 
 2243000   0.62050114   -3.8512867   -3.8512867   -3.1626932  0.038649609   -3.8512867   0.68859351   421013 
 2244000    0.6196107   -3.8502751   -3.8502751   -3.1626697  0.036153038   -3.8502751   0.68760536   421013 
 2245000   0.61979379   -3.8508508   -3.8508508   -3.1630423   0.04372831   -3.8508508   0.68780854   421013 
 2246000   0.61986611     -3.85163     -3.85163   -3.1637413  0.045333482     -3.85163   0.68788879   421013 
 2247000   0.61912717   -3.8507886   -3.8507886   -3.1637199  0.028078239   -3.8507886   0.68706876   421013 
 2248000   0.61975768   -3.8503931   -3.8503931   -3.1626247  0.034058227   -3.8503931   0.68776847   421013 
 2249000   0.62027252   -3.8512897   -3.8512897   -3.1629499  0.039840451   -3.8512897    0.6883398   421013 
 2250000   0.62070619   -3.8511263   -3.8511263   -3.1623053  0.030630786   -3.8511263   0.68882106   421013 
 2251000   0.61801076   -3.8486956   -3.8486956   -3.1628658  0.037916377   -3.8486956   0.68582984   421013 
 2252000   0.61754521   -3.8482376   -3.8482376   -3.1629244  0.043903934   -3.8482376    0.6853132   421013 
 2253000   0.61953571   -3.8505247   -3.8505247   -3.1630026  0.033554497   -3.8505247   0.68752213   421013 
 2254000   0.61933517   -3.8502555   -3.8502555   -3.1629559  0.053182224   -3.8502555   0.68729959   421013 
 2255000   0.61882047   -3.8497957   -3.8497957   -3.1630673  0.032129412   -3.8497957   0.68672841   421013 
 2256000   0.61902814   -3.8504408   -3.8504408   -3.1634819   0.05844158   -3.8504408   0.68695886   421013 
 2257000   0.61826821   -3.8503304   -3.8503304   -3.1642149  0.043529926   -3.8503304   0.68611554   421013 
 2258000   0.61783854   -3.8498925   -3.8498925   -3.1642538  0.034070906   -3.8498925   0.68563872   421013 
 2259000   0.61747875   -3.8498361   -3.8498361   -3.1645966  0.043054206   -3.8498361   0.68523945   421013 
 2260000   0.61865914   -3.8513907   -3.8513907   -3.1648413    0.0346669   -3.8513907   0.68654938   421013 
 2261000   0.61782907   -3.8502775   -3.8502775   -3.1646493   0.04087065   -3.8502775   0.68562821   421013 
 2262000   0.61774534   -3.8496316   -3.8496316   -3.1640963  0.051729166   -3.8496316   0.68553529   421013 
 2263000   0.61976327    -3.852006    -3.852006   -3.1642313  0.035731204    -3.852006   0.68777467   421013 
 2264000   0.61920628    -3.851781    -3.851781   -3.1646244  0.041654487    -3.851781   0.68715656   421013 
 2265000   0.61841426   -3.8515989   -3.8515989   -3.1653213  0.044629446   -3.8515989   0.68627762   421013 
 2266000   0.61867309   -3.8515863   -3.8515863   -3.1650214  0.038828795   -3.8515863   0.68656485   421013 
 2267000   0.61781673   -3.8513237   -3.8513237   -3.1657092  0.042604216   -3.8513237   0.68561452   421013 
 2268000   0.61928266   -3.8532445   -3.8532445   -3.1660032  0.033060798   -3.8532445   0.68724132   421013 
 2269000   0.61918295   -3.8534213   -3.8534213   -3.1662906  0.041398155   -3.8534213   0.68713067   421013 
 2270000   0.61896555   -3.8534376   -3.8534376   -3.1665482  0.035414586   -3.8534376   0.68688941   421013 
 2271000   0.61846779    -3.852677    -3.852677   -3.1663399  0.039477054    -3.852677   0.68633702   421013 
 2272000   0.61852803   -3.8518694   -3.8518694   -3.1654655  0.032542847   -3.8518694   0.68640388   421013 
 2273000   0.61791447   -3.8518954   -3.8518954   -3.1661724  0.048545321   -3.8518954   0.68572298   421013 
 2274000   0.61611888   -3.8502524   -3.8502524    -3.166522  0.041481176   -3.8502524   0.68373035   421013 
 2275000   0.61798741   -3.8525944   -3.8525944   -3.1667904  0.034154754   -3.8525944   0.68580393   421013 
 2276000   0.61776187   -3.8522505   -3.8522505   -3.1666969  0.025888405   -3.8522505   0.68555363   421013 
 2277000   0.61825295   -3.8526658   -3.8526658   -3.1665672  0.028197515   -3.8526658    0.6860986   421013 
 2278000   0.61747808   -3.8529689   -3.8529689   -3.1677302  0.024354996   -3.8529689    0.6852387   421013 
 2279000   0.61717631   -3.8524423   -3.8524423   -3.1675385  0.031561995   -3.8524423   0.68490382   421013 
 2280000   0.61801977   -3.8536934   -3.8536934   -3.1678535  0.039179533   -3.8536934   0.68583984   421013 
 2281000   0.61776814   -3.8539049   -3.8539049   -3.1683443  0.043265903   -3.8539049   0.68556059   421013 
 2282000   0.61817149   -3.8549813   -3.8549813   -3.1689731  0.026446161   -3.8549813   0.68600821   421013 
 2283000   0.61887197   -3.8548584   -3.8548584   -3.1680729  0.035382807   -3.8548584   0.68678556   421013 
 2284000   0.61736112   -3.8536473   -3.8536473   -3.1685384  0.041779078   -3.8536473   0.68510891   421013 
 2285000    0.6171791   -3.8534667   -3.8534667   -3.1685598  0.035869846   -3.8534667   0.68490692   421013 
 2286000   0.61778889   -3.8545315   -3.8545315   -3.1689478  0.047243588   -3.8545315   0.68558362   421013 
 2287000   0.61890901   -3.8550329   -3.8550329   -3.1682062  0.036606478   -3.8550329   0.68682666   421013 
 2288000   0.61865666   -3.8547215   -3.8547215   -3.1681749  0.038439306   -3.8547215   0.68654662   421013 
 2289000   0.61866256   -3.8541546   -3.8541546   -3.1676014  0.037688478   -3.8541546   0.68655317   421013 
 2290000   0.61905464   -3.8546517   -3.8546517   -3.1676634  0.038728943   -3.8546517   0.68698828   421013 
 2291000   0.61779573   -3.8533824   -3.8533824   -3.1677912  0.042934555   -3.8533824   0.68559122   421013 
 2292000   0.61742605   -3.8529299   -3.8529299    -3.167749  0.028610577   -3.8529299   0.68518096   421013 
 2293000   0.61815087   -3.8541777   -3.8541777   -3.1681924  0.031129667   -3.8541777   0.68598533   421013 
 2294000   0.61868635   -3.8550743   -3.8550743   -3.1684947  0.058561702   -3.8550743   0.68657957   421013 
 2295000    0.6167356   -3.8528052   -3.8528052   -3.1683904  0.044152771   -3.8528052   0.68441475   421013 
 2296000   0.61856683   -3.8539099   -3.8539099   -3.1674629  0.026323344   -3.8539099   0.68644693   421013 
 2297000   0.61982447   -3.8557037   -3.8557037   -3.1678612  0.042648951   -3.8557037   0.68784259   421013 
 2298000   0.61819325   -3.8550203   -3.8550203   -3.1689879  0.049498731   -3.8550203   0.68603236   421013 
 2299000   0.61865685   -3.8559783   -3.8559783   -3.1694315  0.040805898   -3.8559783   0.68654683   421013 
 2300000   0.61775211   -3.8552248   -3.8552248    -3.169682   0.05183187   -3.8552248   0.68554281   421013 
 2301000   0.61769001     -3.85461     -3.85461   -3.1691361  0.043181259     -3.85461    0.6854739   421013 
 2302000   0.61871951     -3.85541     -3.85541   -3.1687936  0.026018648     -3.85541   0.68661637   421013 
 2303000   0.61776402   -3.8555366   -3.8555366   -3.1699805  0.041368509   -3.8555366   0.68555603   421013 
 2304000   0.61842827   -3.8556963   -3.8556963   -3.1694031   0.03833392   -3.8556963   0.68629316   421013 
 2305000   0.61710905   -3.8537862   -3.8537862    -3.168957  0.052424837   -3.8537862   0.68482917   421013 
 2306000   0.61806901   -3.8548229   -3.8548229   -3.1689284  0.022355765   -3.8548229   0.68589448   421013 
 2307000    0.6165798   -3.8534413   -3.8534413   -3.1691994  0.047882514   -3.8534413   0.68424186   421013 
 2308000   0.61896747   -3.8562496   -3.8562496    -3.169358  0.031888151   -3.8562496   0.68689153   421013 
 2309000   0.61837367   -3.8558544   -3.8558544   -3.1696218  0.033679796   -3.8558544   0.68623258   421013 
 2310000   0.61714548   -3.8546387   -3.8546387   -3.1697691  0.035418154   -3.8546387    0.6848696   421013 
 2311000    0.6189866   -3.8565225   -3.8565225   -3.1696098  0.042122034   -3.8565225   0.68691277   421013 
 2312000   0.61651426   -3.8547682   -3.8547682   -3.1705991  0.029643358   -3.8547682   0.68416912   421013 
 2313000   0.61765352   -3.8555094   -3.8555094    -3.170076  0.028696749   -3.8555094    0.6854334   421013 
 2314000   0.61778387   -3.8561424   -3.8561424   -3.1705643  0.035174904   -3.8561424   0.68557805   421013 
 2315000   0.61737925   -3.8551717   -3.8551717   -3.1700426  0.046121838   -3.8551717   0.68512903   421013 
 2316000   0.61819212   -3.8561048   -3.8561048   -3.1700737  0.039211356   -3.8561048    0.6860311   421013 
 2317000   0.61841902    -3.857091    -3.857091   -3.1708081  0.059504033    -3.857091    0.6862829   421013 
 2318000   0.61727068   -3.8561351   -3.8561351   -3.1711265  0.057970325   -3.8561351   0.68500855   421013 
 2319000   0.61733367   -3.8566532   -3.8566532   -3.1715747  0.046635319   -3.8566532   0.68507845   421013 
 2320000   0.61674879    -3.855806    -3.855806   -3.1713766  0.055472185    -3.855806   0.68442939   421013 
 2321000   0.61772859   -3.8567955   -3.8567955   -3.1712788  0.048730463   -3.8567955   0.68551671   421013 
 2322000   0.61756376   -3.8568277   -3.8568277   -3.1714939  0.035975471   -3.8568277   0.68533379   421013 
 2323000   0.61741351   -3.8573254   -3.8573254   -3.1721584  0.040043577   -3.8573254   0.68516705   421013 
 2324000   0.61709068   -3.8566734   -3.8566734   -3.1718646  0.039530088   -3.8566734   0.68480879   421013 
 2325000   0.61716332   -3.8573778   -3.8573778   -3.1724884  0.041409924   -3.8573778    0.6848894   421013 
 2326000   0.61741927    -3.857683    -3.857683   -3.1725096  0.041189864    -3.857683   0.68517344   421013 
 2327000   0.61789829   -3.8578576   -3.8578576   -3.1721526  0.033137989   -3.8578576   0.68570503   421013 
 2328000   0.61760488   -3.8570294   -3.8570294     -3.17165  0.037793411   -3.8570294   0.68537942   421013 
 2329000   0.61665146   -3.8555561   -3.8555561   -3.1712347  0.045266208   -3.8555561   0.68432138   421013 
 2330000   0.61771926   -3.8574802   -3.8574802   -3.1719738  0.035986854   -3.8574802   0.68550635   421013 
 2331000   0.61685467   -3.8565799   -3.8565799    -3.172033  0.046767112   -3.8565799   0.68454689   421013 
 2332000   0.61669505   -3.8569317   -3.8569317    -3.172562  0.031828729   -3.8569317   0.68436975   421013 
 2333000   0.61691941   -3.8579207   -3.8579207    -3.173302  0.037022163   -3.8579207   0.68461873   421013 
 2334000    0.6163566   -3.8584279   -3.8584279   -3.1744338  0.029792915   -3.8584279   0.68399415   421013 
 2335000   0.61764828    -3.859725    -3.859725   -3.1742975  0.040507394    -3.859725   0.68542759   421013 
 2336000   0.61507958   -3.8573888   -3.8573888   -3.1748118  0.045923315   -3.8573888   0.68257701   421013 
 2337000   0.61701078   -3.8599354   -3.8599354   -3.1752153    0.0373602   -3.8599354   0.68472013   421013 
 2338000   0.61696459    -3.860288    -3.860288   -3.1756192   0.03997623    -3.860288   0.68466887   421013 
 2339000    0.6178514   -3.8606393   -3.8606393   -3.1749863   0.04138978   -3.8606393     0.685653   421013 
 2340000   0.61661663   -3.8597192   -3.8597192   -3.1754365  0.038024775   -3.8597192   0.68428272   421013 
 2341000   0.61722971   -3.8604645   -3.8604645   -3.1755015  0.041284977   -3.8604645   0.68496308   421013 
 2342000   0.61675472   -3.8584924   -3.8584924   -3.1740565  0.042755635   -3.8584924   0.68443597   421013 
 2343000   0.61649221   -3.8592182   -3.8592182   -3.1750736  0.056356847   -3.8592182   0.68414465   421013 
 2344000   0.61646882    -3.858392    -3.858392   -3.1742733  0.034841407    -3.858392    0.6841187   421013 
 2345000   0.61610258   -3.8585632   -3.8585632   -3.1748509  0.031258231   -3.8585632   0.68371227   421013 
 2346000   0.61648377   -3.8589429   -3.8589429   -3.1748077  0.030126507   -3.8589429   0.68413528   421013 
 2347000   0.61668987   -3.8590632   -3.8590632   -3.1746992  0.037552017   -3.8590632     0.684364   421013 
 2348000    0.6172008   -3.8588314   -3.8588314   -3.1739004  0.033250722   -3.8588314     0.684931   421013 
 2349000   0.61646571   -3.8588621   -3.8588621   -3.1747469  0.051171448   -3.8588621   0.68411524   421013 
 2350000    0.6164514    -3.858948    -3.858948   -3.1748487  0.035377803    -3.858948   0.68409936   421013 
 2351000   0.61538634   -3.8586012   -3.8586012   -3.1756838  0.032876897   -3.8586012   0.68291742   421013 
 2352000   0.61696343   -3.8597436   -3.8597436    -3.175076  0.040890347   -3.8597436   0.68466758   421013 
 2353000   0.61667215   -3.8591952   -3.8591952   -3.1748509   0.04270706   -3.8591952   0.68434433   421013 
 2354000   0.61751651    -3.859142    -3.859142   -3.1738607  0.042282506    -3.859142   0.68528135   421013 
 2355000   0.61767403   -3.8595124   -3.8595124   -3.1740562   0.04148259   -3.8595124   0.68545616   421013 
 2356000   0.61739262   -3.8594187   -3.8594187   -3.1742748  0.038907471   -3.8594187   0.68514387   421013 
 2357000   0.61653121   -3.8594535   -3.8594535   -3.1752656  0.047637402   -3.8594535   0.68418793   421013 
 2358000   0.61766973   -3.8615477   -3.8615477   -3.1760963  0.054740811   -3.8615477   0.68545139   421013 
 2359000   0.61737427   -3.8609401   -3.8609401   -3.1758166  0.045287208   -3.8609401   0.68512351   421013 
 2360000   0.61755179   -3.8612266   -3.8612266   -3.1759061  0.025905152   -3.8612266    0.6853205   421013 
 2361000   0.61765837   -3.8605878   -3.8605878    -3.175149  0.033966874   -3.8605878   0.68543878   421013 
 2362000   0.61746126   -3.8607544   -3.8607544   -3.1755344  0.032536176   -3.8607544   0.68522005   421013 
 2363000   0.61630132   -3.8596367   -3.8596367   -3.1757039  0.049587165   -3.8596367   0.68393282   421013 
 2364000   0.61660034   -3.8600369   -3.8600369   -3.1757722  0.058081748   -3.8600369   0.68426465   421013 
 2365000   0.61695473   -3.8601869   -3.8601869    -3.175529  0.030444872   -3.8601869   0.68465793   421013 
 2366000   0.61738364    -3.860017    -3.860017   -3.1748831    0.0366208    -3.860017   0.68513391   421013 
 2367000   0.61697173   -3.8590471   -3.8590471   -3.1743703  0.030433166   -3.8590471   0.68467679   421013 
 2368000   0.61705618   -3.8592589   -3.8592589   -3.1744883  0.036224511   -3.8592589   0.68477051   421013 
 2369000   0.61669162   -3.8592981   -3.8592981   -3.1749322  0.038390747   -3.8592981   0.68436594   421013 
 2370000    0.6164238   -3.8596878   -3.8596878    -3.175619  0.046273348   -3.8596878   0.68406873   421013 
 2371000   0.61698516   -3.8601083   -3.8601083   -3.1754166  0.032827275   -3.8601083   0.68469169   421013 
 2372000   0.61715529   -3.8600884   -3.8600884   -3.1752079  0.045367022   -3.8600884   0.68488049   421013 
 2373000   0.61712961   -3.8604742   -3.8604742   -3.1756222  0.049239526   -3.8604742   0.68485199   421013 
 2374000    0.6174772   -3.8612984   -3.8612984   -3.1760607  0.035444986   -3.8612984   0.68523773   421013 
 2375000    0.6175936    -3.860498    -3.860498   -3.1751311  0.055636342    -3.860498    0.6853669   421013 
 2376000   0.61721066   -3.8602286   -3.8602286   -3.1752867  0.037990208   -3.8602286   0.68494195   421013 
 2377000   0.61604028   -3.8591615   -3.8591615   -3.1755184  0.034352698   -3.8591615   0.68364313   421013 
 2378000   0.61748956   -3.8604226   -3.8604226   -3.1751711  0.048171552   -3.8604226   0.68525144   421013 
 2379000   0.61734285   -3.8607625   -3.8607625   -3.1756738  0.044395054   -3.8607625   0.68508864   421013 
 2380000   0.61610059   -3.8590533   -3.8590533   -3.1753433  0.019785842   -3.8590533   0.68371005   421013 
 2381000   0.61589906   -3.8599843   -3.8599843   -3.1764979  0.037263965   -3.8599843   0.68348641   421013 
 2382000   0.61698738   -3.8616456   -3.8616456   -3.1769514  0.037307185   -3.8616456   0.68469416   421013 
 2383000   0.61531827   -3.8597974   -3.8597974   -3.1769556  0.035464681   -3.8597974   0.68284188   421013 
 2384000   0.61571987   -3.8603631   -3.8603631   -3.1770756  0.037641269   -3.8603631   0.68328756   421013 
 2385000   0.61648483   -3.8610543   -3.8610543   -3.1769178  0.040125722   -3.8610543   0.68413646   421013 
 2386000   0.61601227   -3.8606091   -3.8606091   -3.1769971  0.042564643   -3.8606091   0.68361204   421013 
 2387000   0.61635959   -3.8612608   -3.8612608   -3.1772633  0.031529293   -3.8612608   0.68399747   421013 
 2388000   0.61659529   -3.8611868   -3.8611868   -3.1769278  0.042610783   -3.8611868   0.68425904   421013 
 2389000   0.61663249   -3.8610867   -3.8610867   -3.1767864  0.036435833   -3.8610867   0.68430032   421013 
 2390000   0.61649896   -3.8618175   -3.8618175   -3.1776654  0.042131009   -3.8618175   0.68415214   421013 
 2391000   0.61605915   -3.8618313   -3.8618313   -3.1781672  0.030388493   -3.8618313   0.68366407   421013 
 2392000   0.61693591   -3.8627324   -3.8627324   -3.1780954  0.034819586   -3.8627324   0.68463704   421013 
 2393000   0.61650248   -3.8617534   -3.8617534   -3.1775973  0.041482417   -3.8617534   0.68415605   421013 
 2394000   0.61676304   -3.8617267   -3.8617267   -3.1772815  0.028654635   -3.8617267    0.6844452   421013 
 2395000   0.61685594   -3.8612571   -3.8612571   -3.1767088  0.027191105   -3.8612571    0.6845483   421013 
 2396000   0.61670592   -3.8613883   -3.8613883   -3.1770065  0.041775119   -3.8613883   0.68438181   421013 
 2397000   0.61625136   -3.8609676   -3.8609676   -3.1770902  0.051906314   -3.8609676   0.68387737   421013 
 2398000   0.61719644   -3.8617066   -3.8617066   -3.1767805  0.042414854   -3.8617066   0.68492616   421013 
 2399000    0.6174497   -3.8627888   -3.8627888   -3.1775816  0.039459729   -3.8627888   0.68520722   421013 
 2400000    0.6173536    -3.863064    -3.863064   -3.1779635  0.036210984    -3.863064   0.68510057   421013 
 2401000   0.61658799   -3.8625675   -3.8625675   -3.1783166  0.043594879   -3.8625675   0.68425094   421013 
 2402000   0.61629931   -3.8617151   -3.8617151   -3.1777845   0.04346995   -3.8617151   0.68393059   421013 
 2403000   0.61674153   -3.8625809   -3.8625809   -3.1781596   0.03955773   -3.8625809   0.68442133   421013 
 2404000   0.61600594   -3.8620796   -3.8620796   -3.1784745  0.030125598   -3.8620796   0.68360502   421013 
 2405000   0.61629536    -3.862331    -3.862331   -3.1784048  0.030887832    -3.862331    0.6839262   421013 
 2406000   0.61566629   -3.8618258   -3.8618258   -3.1785978  0.054946771   -3.8618258   0.68322809   421013 
 2407000   0.61534592   -3.8622764   -3.8622764   -3.1794038  0.042492608   -3.8622764   0.68287257   421013 
 2408000   0.61666883   -3.8630085   -3.8630085   -3.1786679  0.038427144   -3.8630085   0.68434065   421013 
 2409000   0.61577884   -3.8622361   -3.8622361   -3.1788831   0.03640399   -3.8622361   0.68335299   421013 
 2410000   0.61697774   -3.8629217   -3.8629217   -3.1782382  0.042175891   -3.8629217   0.68468346   421013 
 2411000   0.61714485   -3.8629738   -3.8629738   -3.1781049  0.045111659   -3.8629738    0.6848689   421013 
 2412000   0.61730005   -3.8639865   -3.8639865   -3.1789454  0.040195724   -3.8639865   0.68504115   421013 
 2413000   0.61737674   -3.8635622   -3.8635622   -3.1784359  0.040469077   -3.8635622   0.68512624   421013 
 2414000   0.61656022   -3.8624087   -3.8624087   -3.1781885  0.028858812   -3.8624087   0.68422012   421013 
 2415000   0.61611588   -3.8617108   -3.8617108   -3.1779838  0.031150471   -3.8617108   0.68372703   421013 
 2416000   0.61649591   -3.8628801   -3.8628801   -3.1787314  0.046232404   -3.8628801   0.68414875   421013 
 2417000   0.61623518   -3.8626106   -3.8626106   -3.1787512  0.033793272   -3.8626106   0.68385941   421013 
 2418000   0.61613671   -3.8631079   -3.8631079   -3.1793578    0.0431021   -3.8631079   0.68375014   421013 
 2419000   0.61631419   -3.8631535   -3.8631535   -3.1792064  0.044163522   -3.8631535    0.6839471   421013 
 2420000   0.61537059   -3.8627722   -3.8627722   -3.1798723  0.039182332   -3.8627722   0.68289994   421013 
 2421000   0.61590424   -3.8635581   -3.8635581   -3.1800659  0.025838073   -3.8635581   0.68349215   421013 
 2422000   0.61643145   -3.8630979   -3.8630979   -3.1790207   0.03845759   -3.8630979   0.68407723   421013 
 2423000   0.61669199   -3.8629868   -3.8629868   -3.1786204  0.028728311   -3.8629868   0.68436635   421013 
 2424000   0.61586709   -3.8623102   -3.8623102   -3.1788593  0.031416526   -3.8623102   0.68345093   421013 
 2425000    0.6180745   -3.8644459   -3.8644459   -3.1785453   0.03525078   -3.8644459   0.68590058   421013 
 2426000   0.61622538   -3.8627935   -3.8627935   -3.1789449  0.061404943   -3.8627935   0.68384854   421013 
 2427000   0.61433391   -3.8619242   -3.8619242   -3.1801747  0.034594568   -3.8619242   0.68174951   421013 
 2428000   0.61604042   -3.8628931   -3.8628931   -3.1792498  0.035807669   -3.8628931   0.68364328   421013 
 2429000   0.61710386   -3.8635984   -3.8635984    -3.178775  0.032935296   -3.8635984   0.68482342   421013 
 2430000   0.61604422   -3.8632147   -3.8632147   -3.1795672  0.041059077   -3.8632147    0.6836475   421013 
 2431000   0.61604292   -3.8635111   -3.8635111    -3.179865  0.033767333   -3.8635111   0.68364606   421013 
 2432000   0.61568655    -3.863094    -3.863094   -3.1798435  0.030638301    -3.863094   0.68325058   421013 
 2433000   0.61597554   -3.8639137   -3.8639137   -3.1803425  0.037340589   -3.8639137   0.68357128   421013 
 2434000     0.615643   -3.8633858   -3.8633858   -3.1801836  0.036221959   -3.8633858   0.68320225   421013 
 2435000   0.61573718   -3.8634947   -3.8634947    -3.180188  0.025573236   -3.8634947   0.68330676   421013 
 2436000   0.61545602   -3.8636328   -3.8636328    -3.180638  0.035489055   -3.8636328   0.68299476   421013 
 2437000   0.61602496   -3.8644933   -3.8644933   -3.1808672   0.03448579   -3.8644933   0.68362612   421013 
 2438000   0.61597028   -3.8645089   -3.8645089   -3.1809434  0.042909741   -3.8645089   0.68356544   421013 
 2439000   0.61446078   -3.8640532   -3.8640532   -3.1821629  0.037617039   -3.8640532    0.6818903   421013 
 2440000   0.61529119    -3.863752    -3.863752   -3.1809401  0.037285708    -3.863752   0.68281183   421013 
 2441000   0.61639965   -3.8654249   -3.8654249    -3.181383  0.051551064   -3.8654249   0.68404193   421013 
 2442000   0.61571759    -3.864995    -3.864995     -3.18171  0.038548953    -3.864995   0.68328502   421013 
 2443000   0.61513521   -3.8645319   -3.8645319   -3.1818931  0.054532569   -3.8645319   0.68263874   421013 
 2444000   0.61681138   -3.8657874   -3.8657874   -3.1812885  0.031108416   -3.8657874   0.68449884   421013 
 2445000   0.61722527   -3.8657401   -3.8657401    -3.180782  0.042218254   -3.8657401   0.68495816   421013 
 2446000   0.61601332   -3.8654601   -3.8654601   -3.1818469  0.043924829   -3.8654601   0.68361321   421013 
 2447000   0.61686662   -3.8658706   -3.8658706   -3.1813104  0.032516399   -3.8658706   0.68456014   421013 
 2448000   0.61745516   -3.8665549   -3.8665549   -3.1813417  0.033602961   -3.8665549   0.68521328   421013 
 2449000   0.61548109   -3.8648457   -3.8648457   -3.1818232  0.040196878   -3.8648457   0.68302257   421013 
 2450000   0.61569783    -3.864969    -3.864969   -3.1817059  0.025587054    -3.864969    0.6832631   421013 
 2451000   0.61709356   -3.8659906   -3.8659906   -3.1811786   0.04187211   -3.8659906   0.68481199   421013 
 2452000   0.61563575   -3.8637318   -3.8637318   -3.1805376  0.037831523   -3.8637318   0.68319421   421013 
 2453000   0.61615243   -3.8642347   -3.8642347   -3.1804671   0.03390538   -3.8642347   0.68376758   421013 
 2454000     0.614497   -3.8631672   -3.8631672   -3.1812367  0.039407802   -3.8631672   0.68193049   421013 
 2455000   0.61583189   -3.8652102   -3.8652102   -3.1817983  0.040902238   -3.8652102   0.68341187   421013 
 2456000   0.61594348   -3.8653855   -3.8653855   -3.1818498  0.029568738   -3.8653855    0.6835357   421013 
 2457000   0.61420381   -3.8636022   -3.8636022    -3.181997   0.04467034   -3.8636022   0.68160513   421013 
 2458000    0.6151661   -3.8651171   -3.8651171   -3.1824441  0.039479776   -3.8651171   0.68267301   421013 
 2459000   0.61580888   -3.8652565   -3.8652565   -3.1818701  0.039873737   -3.8652565   0.68338633   421013 
 2460000    0.6151513   -3.8649936   -3.8649936    -3.182337  0.043720992   -3.8649936   0.68265659   421013 
 2461000   0.61398327   -3.8645887   -3.8645887   -3.1832283    0.0410981   -3.8645887   0.68136038   421013 
 2462000    0.6147186   -3.8658529   -3.8658529   -3.1836765  0.047604034   -3.8658529    0.6821764   421013 
 2463000     0.615457   -3.8661401   -3.8661401   -3.1831443  0.034745015   -3.8661401   0.68299584   421013 
 2464000   0.61704302    -3.867825    -3.867825   -3.1830691  0.037518484    -3.867825    0.6847559   421013 
 2465000    0.6164785   -3.8675174   -3.8675174    -3.183388  0.037848796   -3.8675174   0.68412944   421013 
 2466000   0.61576006   -3.8666119   -3.8666119   -3.1832798  0.039200036   -3.8666119   0.68333215   421013 
 2467000   0.61496818   -3.8660459   -3.8660459   -3.1835926  0.033544638   -3.8660459   0.68245338   421013 
 2468000    0.6150181   -3.8670239   -3.8670239   -3.1845151  0.037803927   -3.8670239   0.68250877   421013 
 2469000   0.61400217   -3.8653345   -3.8653345   -3.1839531  0.054899108   -3.8653345   0.68138136   421013 
 2470000    0.6149841   -3.8663401   -3.8663401    -3.183869  0.031551193   -3.8663401   0.68247104   421013 
 2471000   0.61391504   -3.8648097   -3.8648097   -3.1835251  0.030534211   -3.8648097   0.68128467   421013 
 2472000   0.61479867    -3.865919    -3.865919   -3.1836537   0.04084608    -3.865919   0.68226527   421013 
 2473000   0.61541156    -3.866577    -3.866577   -3.1836316  0.038305135    -3.866577   0.68294541   421013 
 2474000   0.61586838   -3.8674107   -3.8674107   -3.1839583  0.041966806   -3.8674107   0.68345237   421013 
 2475000   0.61580326   -3.8676181   -3.8676181    -3.184238  0.031880906   -3.8676181   0.68338009   421013 
 2476000   0.61503194   -3.8670718   -3.8670718   -3.1845476  0.034858026   -3.8670718   0.68252414   421013 
 2477000   0.61631142   -3.8684489   -3.8684489   -3.1845049  0.035393304   -3.8684489   0.68394402   421013 
 2478000   0.61762528   -3.8703425   -3.8703425   -3.1849404  0.042040732   -3.8703425   0.68540206   421013 
 2479000   0.61623383   -3.8688191   -3.8688191   -3.1849612  0.046258683   -3.8688191   0.68385792   421013 
 2480000   0.61432552   -3.8674588   -3.8674588   -3.1857186  0.031653691   -3.8674588   0.68174019   421013 
 2481000   0.61496426   -3.8685363   -3.8685363   -3.1860873  0.033677667   -3.8685363   0.68244903   421013 
 2482000   0.61424404    -3.867965    -3.867965   -3.1863153  0.041898969    -3.867965   0.68164977   421013 
 2483000   0.61485576   -3.8689858   -3.8689858   -3.1866572  0.030600468   -3.8689858   0.68232861   421013 
 2484000   0.61538815    -3.869434    -3.869434   -3.1865145  0.038217672    -3.869434   0.68291944   421013 
 2485000   0.61567664    -3.869489    -3.869489   -3.1862495  0.032059004    -3.869489   0.68323958   421013 
 2486000   0.61510421   -3.8696991   -3.8696991   -3.1870948   0.04826219   -3.8696991   0.68260434   421013 
 2487000    0.6157597   -3.8701575   -3.8701575   -3.1868258  0.037769703   -3.8701575   0.68333176   421013 
 2488000   0.61537562   -3.8694713   -3.8694713   -3.1865658  0.044629244   -3.8694713   0.68290553   421013 
 2489000   0.61653416   -3.8711333   -3.8711333   -3.1869421   0.03448711   -3.8711333   0.68419121   421013 
 2490000   0.61616692   -3.8702992   -3.8702992   -3.1865155  0.031575485   -3.8702992   0.68378367   421013 
 2491000   0.61714449    -3.871204    -3.871204   -3.1863355  0.032103606    -3.871204   0.68486851   421013 
 2492000    0.6162954   -3.8702601   -3.8702601   -3.1863338  0.035656435   -3.8702601   0.68392624   421013 
 2493000   0.61688874   -3.8716719   -3.8716719   -3.1870872  0.044863474   -3.8716719   0.68458469   421013 
 2494000   0.61706481   -3.8710804   -3.8710804   -3.1863003  0.046969042   -3.8710804   0.68478009   421013 
 2495000   0.61565001    -3.870778    -3.870778    -3.187568   0.04284401    -3.870778   0.68321003   421013 
 2496000    0.6154044   -3.8705176   -3.8705176   -3.1875802  0.041207945   -3.8705176   0.68293746   421013 
 2497000   0.61509513   -3.8706057   -3.8706057   -3.1880114  0.024720578   -3.8706057   0.68259426   421013 
 2498000   0.61448209   -3.8691212   -3.8691212   -3.1872073  0.038652314   -3.8691212   0.68191394   421013 
 2499000   0.61444773   -3.8689157   -3.8689157   -3.1870399  0.047393199   -3.8689157   0.68187581   421013 
 2500000   0.61466506   -3.8695109   -3.8695109   -3.1873939  0.025201708   -3.8695109   0.68211699   421013 
 2501000   0.61554126   -3.8705318   -3.8705318   -3.1874425  0.021085324   -3.8705318   0.68308934   421013 
 2502000   0.61392844    -3.869061    -3.869061   -3.1877615  0.043492462    -3.869061   0.68129953   421013 
 2503000   0.61441952    -3.870302    -3.870302   -3.1884575  0.029529658    -3.870302   0.68184451   421013 
 2504000   0.61359428   -3.8700617   -3.8700617    -3.189133  0.038341399   -3.8700617   0.68092871   421013 
 2505000   0.61530172   -3.8710885   -3.8710885    -3.188265   0.02250306   -3.8710885   0.68282352   421013 
 2506000   0.61450101   -3.8707549   -3.8707549   -3.1888199  0.035259356   -3.8707549   0.68193494   421013 
 2507000   0.61508791    -3.871129    -3.871129   -3.1885428  0.042347088    -3.871129   0.68258625   421013 
 2508000   0.61407031   -3.8704012   -3.8704012   -3.1889442  0.050364768   -3.8704012   0.68145698   421013 
 2509000   0.61462791   -3.8717159   -3.8717159   -3.1896402  0.038425091   -3.8717159   0.68207577   421013 
 2510000   0.61443668   -3.8717537   -3.8717537   -3.1898902  0.029025393   -3.8717537   0.68186356   421013 
 2511000   0.61434924   -3.8716771   -3.8716771   -3.1899106  0.048692706   -3.8716771   0.68176651   421013 
 2512000   0.61504292   -3.8723766   -3.8723766   -3.1898403  0.043490121   -3.8723766   0.68253632   421013 
 2513000   0.61440187   -3.8712313   -3.8712313   -3.1894063  0.030978953   -3.8712313   0.68182493   421013 
 2514000   0.61382652    -3.870518    -3.870518   -3.1893315  0.032255141    -3.870518   0.68118644   421013 
 2515000   0.61525173   -3.8713014   -3.8713014   -3.1885334  0.035432424   -3.8713014   0.68276804   421013 
 2516000   0.61584547   -3.8714336   -3.8714336   -3.1880067  0.032599738   -3.8714336   0.68342694   421013 
 2517000    0.6155435   -3.8715663   -3.8715663   -3.1884745  0.032962758   -3.8715663   0.68309183   421013 
 2518000   0.61571927   -3.8711902   -3.8711902   -3.1879034  0.028784626   -3.8711902   0.68328689   421013 
 2519000   0.61643214   -3.8723779   -3.8723779      -3.1883  0.040969135   -3.8723779   0.68407799   421013 
 2520000   0.61530607   -3.8709512   -3.8709512   -3.1881228  0.029887755   -3.8709512   0.68282834   421013 
 2521000   0.61548105   -3.8713962   -3.8713962   -3.1883737  0.038925692   -3.8713962   0.68302252   421013 
 2522000   0.61543811   -3.8716305   -3.8716305   -3.1886556  0.027684417   -3.8716305   0.68297488   421013 
 2523000   0.61336573   -3.8697709   -3.8697709   -3.1890958  0.035102489   -3.8697709   0.68067508   421013 
 2524000   0.61506447   -3.8712656   -3.8712656   -3.1887053  0.034546435   -3.8712656   0.68256024   421013 
 2525000   0.61366633   -3.8702524   -3.8702524   -3.1892437  0.026615812   -3.8702524   0.68100866   421013 
 2526000   0.61299723   -3.8693827   -3.8693827   -3.1891166  0.037464406   -3.8693827   0.68026614   421013 
 2527000   0.61384327   -3.8708348   -3.8708348   -3.1896298  0.035178891   -3.8708348   0.68120502   421013 
 2528000   0.61494344   -3.8723982   -3.8723982   -3.1899723  0.028361195   -3.8723982   0.68242592   421013 
 2529000   0.61370579   -3.8716059   -3.8716059   -3.1905534  0.045820275   -3.8716059   0.68105245   421013 
 2530000    0.6135996   -3.8712195   -3.8712195   -3.1902849   0.03017494   -3.8712195   0.68093461   421013 
 2531000   0.61372243   -3.8714669   -3.8714669    -3.190396  0.032922909   -3.8714669   0.68107092   421013 
 2532000   0.61294156   -3.8712698   -3.8712698   -3.1910654  0.036841388   -3.8712698   0.68020436   421013 
 2533000    0.6126259   -3.8706806   -3.8706806   -3.1908266  0.031543008   -3.8706806   0.67985405   421013 
 2534000   0.61438541   -3.8729302   -3.8729302   -3.1911236  0.038084619   -3.8729302   0.68180665   421013 
 2535000   0.61363685   -3.8719693   -3.8719693   -3.1909934  0.046070047   -3.8719693   0.68097595   421013 
 2536000   0.61402954   -3.8715323   -3.8715323   -3.1901205  0.029846634   -3.8715323   0.68141174   421013 
 2537000    0.6144993    -3.871695    -3.871695   -3.1897619  0.016357238    -3.871695   0.68193304   421013 
 2538000   0.61474772   -3.8719253   -3.8719253   -3.1897166  0.032324837   -3.8719253   0.68220873   421013 
 2539000   0.61453201     -3.87219     -3.87219   -3.1902206  0.040541275     -3.87219   0.68196935   421013 
 2540000   0.61483018   -3.8727954   -3.8727954   -3.1904951  0.029634295   -3.8727954   0.68230023   421013 
 2541000    0.6144256   -3.8727009   -3.8727009   -3.1908497  0.027058296   -3.8727009   0.68185125   421013 
 2542000    0.6149979   -3.8725928   -3.8725928   -3.1901065  0.042407135   -3.8725928   0.68248636   421013 
 2543000   0.61376178   -3.8708624   -3.8708624   -3.1897479  0.046861796   -3.8708624   0.68111459   421013 
 2544000   0.61513362   -3.8720214   -3.8720214   -3.1893844  0.022720593   -3.8720214   0.68263697   421013 
 2545000   0.61498719   -3.8719906   -3.8719906   -3.1895161  0.029808454   -3.8719906   0.68247448   421013 
 2546000   0.61407727   -3.8713444   -3.8713444   -3.1898797  0.033699941   -3.8713444    0.6814647   421013 
 2547000   0.61534927   -3.8733284   -3.8733284   -3.1904521  0.040063749   -3.8733284   0.68287628   421013 
 2548000   0.61547458    -3.872768    -3.872768   -3.1897526  0.034923128    -3.872768   0.68301534   421013 
 2549000   0.61409102    -3.871235    -3.871235    -3.189755  0.021682958    -3.871235   0.68147996   421013 
 2550000   0.61467262   -3.8715793   -3.8715793   -3.1894539  0.031095594   -3.8715793   0.68212538   421013 
 2551000   0.61408833   -3.8712773   -3.8712773   -3.1898004   0.03873864   -3.8712773   0.68147697   421013 
 2552000   0.61484548    -3.871978    -3.871978   -3.1896608  0.028204445    -3.871978   0.68231721   421013 
 2553000    0.6152312   -3.8723949   -3.8723949   -3.1896496  0.030093856   -3.8723949   0.68274526   421013 
 2554000   0.61499047   -3.8723496   -3.8723496   -3.1898715    0.0404654   -3.8723496   0.68247811   421013 
 2555000   0.61397167   -3.8704059   -3.8704059   -3.1890584  0.036724447   -3.8704059   0.68134751   421013 
 2556000   0.61530959   -3.8720068   -3.8720068   -3.1891746  0.055548011   -3.8720068   0.68283225   421013 
 2557000   0.61580147   -3.8727467   -3.8727467   -3.1893686  0.042425477   -3.8727467   0.68337811   421013 
 2558000   0.61375212   -3.8708885   -3.8708885   -3.1897847  0.047195205   -3.8708885   0.68110387   421013 
 2559000   0.61345186   -3.8706786   -3.8706786    -3.189908  0.040657989   -3.8706786   0.68077066   421013 
 2560000   0.61449233   -3.8718674   -3.8718674   -3.1899421  0.029137752   -3.8718674   0.68192531   421013 
 2561000   0.61519325   -3.8727895   -3.8727895   -3.1900864  0.034965163   -3.8727895   0.68270314   421013 
 2562000   0.61393495   -3.8721036   -3.8721036   -3.1907968  0.040998858   -3.8721036   0.68130676   421013 
 2563000   0.61564807   -3.8738519   -3.8738519    -3.190644  0.046513461   -3.8738519   0.68320787   421013 
 2564000    0.6143795   -3.8731089   -3.8731089   -3.1913088  0.032129387   -3.8731089   0.68180009   421013 
 2565000   0.61511724   -3.8737462   -3.8737462   -3.1911274  0.024929453   -3.8737462   0.68261879   421013 
 2566000   0.61551943    -3.874155    -3.874155   -3.1910899  0.028399929    -3.874155   0.68306512   421013 
 2567000   0.61506726   -3.8738372   -3.8738372   -3.1912739  0.035123876   -3.8738372   0.68256333   421013 
 2568000   0.61432798   -3.8732555   -3.8732555   -3.1915126  0.045655979   -3.8732555   0.68174292   421013 
 2569000   0.61376172    -3.873143    -3.873143   -3.1920285  0.033336584    -3.873143   0.68111453   421013 
 2570000   0.61395673   -3.8739257   -3.8739257   -3.1925948  0.052219968   -3.8739257   0.68133093   421013 
 2571000   0.61512902   -3.8750845   -3.8750845   -3.1924526  0.026533972   -3.8750845   0.68263187   421013 
 2572000   0.61572479   -3.8754221   -3.8754221   -3.1921291  0.025663892   -3.8754221   0.68329301   421013 
 2573000     0.615015    -3.874389    -3.874389   -3.1918837  0.049081353    -3.874389   0.68250534   421013 
 2574000   0.61375051   -3.8730107   -3.8730107   -3.1919087  0.023500624   -3.8730107   0.68110208   421013 
 2575000   0.61568307   -3.8749553   -3.8749553   -3.1917086  0.045319023   -3.8749553   0.68324672   421013 
 2576000    0.6137976   -3.8748397   -3.8748397   -3.1936853  0.035875035   -3.8748397   0.68115434   421013 
 2577000    0.6144667   -3.8748681   -3.8748681   -3.1929712  0.033609112   -3.8748681   0.68189686   421013 
 2578000   0.61452891   -3.8747875   -3.8747875   -3.1928216  0.040120319   -3.8747875    0.6819659   421013 
 2579000   0.61365192   -3.8738115   -3.8738115   -3.1928188  0.034133419   -3.8738115   0.68099268   421013 
 2580000   0.61416273   -3.8744686   -3.8744686    -3.192909  0.043458944   -3.8744686   0.68155954   421013 
 2581000   0.61476182   -3.8742337   -3.8742337   -3.1920093  0.032428262   -3.8742337   0.68222437   421013 
 2582000   0.61368846   -3.8734174   -3.8734174   -3.1923842  0.035890419   -3.8734174   0.68103323   421013 
 2583000   0.61403809   -3.8732095   -3.8732095   -3.1917883  0.044316416   -3.8732095   0.68142123   421013 
 2584000   0.61433571   -3.8736085   -3.8736085    -3.191857  0.039591099   -3.8736085    0.6817515   421013 
 2585000   0.61395463   -3.8732384   -3.8732384   -3.1919098  0.028974379   -3.8732384    0.6813286   421013 
 2586000   0.61511539   -3.8748579   -3.8748579   -3.1922411  0.027068988   -3.8748579   0.68261674   421013 
 2587000   0.61459668   -3.8741822   -3.8741822   -3.1921411  0.020780253   -3.8741822   0.68204111   421013 
 2588000   0.61271074   -3.8731513   -3.8731513   -3.1932031  0.055628366   -3.8731513   0.67994821   421013 
 2589000   0.61481067   -3.8754503   -3.8754503   -3.1931718  0.040404223   -3.8754503   0.68227858   421013 
 2590000   0.61363805   -3.8744746   -3.8744746   -3.1934973  0.029320807   -3.8744746   0.68097728   421013 
 2591000    0.6140364   -3.8746383   -3.8746383    -3.193219  0.020632292   -3.8746383   0.68141935   421013 
 2592000   0.61452634   -3.8756912   -3.8756912   -3.1937282  0.031942458   -3.8756912   0.68196305   421013 
 2593000    0.6143218   -3.8754867   -3.8754867   -3.1937506  0.030028038   -3.8754867   0.68173607   421013 
 2594000   0.61298829   -3.8744977   -3.8744977   -3.1942415  0.038871877   -3.8744977   0.68025622   421013 
 2595000   0.61253304   -3.8741753   -3.8741753   -3.1944243  0.042248123   -3.8741753   0.67975101   421013 
 2596000   0.61258029   -3.8742442   -3.8742442   -3.1944407  0.038902082   -3.8742442   0.67980344   421013 
 2597000   0.61460885   -3.8762162   -3.8762162   -3.1941616  0.045623516   -3.8762162   0.68205461   421013 
 2598000   0.61454567   -3.8763979   -3.8763979   -3.1944134  0.041537651   -3.8763979    0.6819845   421013 
 2599000   0.61453809   -3.8762362   -3.8762362   -3.1942601  0.039951916   -3.8762362   0.68197609   421013 
 2600000   0.61411675   -3.8755772   -3.8755772   -3.1940687  0.032034005   -3.8755772   0.68150852   421013 
 2601000   0.61351477   -3.8755312   -3.8755312   -3.1946907  0.038626869   -3.8755312   0.68084047   421013 
 2602000   0.61301488   -3.8755699   -3.8755699   -3.1952842  0.033481805   -3.8755699   0.68028573   421013 
 2603000   0.61295797   -3.8752571   -3.8752571   -3.1950345  0.040050801   -3.8752571   0.68022257   421013 
 2604000   0.61385396   -3.8766622   -3.8766622   -3.1954453  0.033549338   -3.8766622   0.68121688   421013 
 2605000   0.61398921    -3.875551    -3.875551    -3.194184   0.02619905    -3.875551   0.68136697   421013 
 2606000   0.61297486   -3.8750151   -3.8750151   -3.1947737  0.041266372   -3.8750151   0.68024132   421013 
 2607000   0.61362243   -3.8761856   -3.8761856   -3.1952257  0.032004364   -3.8761856   0.68095994   421013 
 2608000   0.61230384   -3.8748037   -3.8748037   -3.1953071  0.046996691   -3.8748037   0.67949666   421013 
 2609000   0.61321254   -3.8760998   -3.8760998   -3.1955947  0.035332433   -3.8760998   0.68050508   421013 
 2610000   0.61229988   -3.8745338   -3.8745338   -3.1950415  0.024920269   -3.8745338   0.67949227   421013 
 2611000   0.61444336   -3.8755143   -3.8755143   -3.1936433  0.058842379   -3.8755143   0.68187097   421013 
 2612000   0.61337217   -3.8743511   -3.8743511   -3.1936688  0.037672437   -3.8743511   0.68068222   421013 
 2613000   0.61354776   -3.8759677   -3.8759677   -3.1950906  0.033086405   -3.8759677   0.68087709   421013 
 2614000   0.61479895   -3.8771497   -3.8771497   -3.1948842  0.049023602   -3.8771497   0.68226558   421013 
 2615000   0.61528854    -3.877034    -3.877034   -3.1942251  0.030511945    -3.877034   0.68280889   421013 
 2616000   0.61367004   -3.8756674   -3.8756674   -3.1946547  0.038150951   -3.8756674   0.68101278   421013 
 2617000    0.6148489   -3.8766693   -3.8766693   -3.1943483  0.045251585   -3.8766693   0.68232101   421013 
 2618000   0.61505597   -3.8768741   -3.8768741   -3.1943233  0.029356362   -3.8768741    0.6825508   421013 
 2619000    0.6149539    -3.876226    -3.876226   -3.1937885  0.037742753    -3.876226   0.68243753   421013 
 2620000   0.61493094   -3.8757569   -3.8757569   -3.1933449  0.038312949   -3.8757569   0.68241205   421013 
 2621000   0.61492835   -3.8760485   -3.8760485   -3.1936393  0.035877286   -3.8760485   0.68240917   421013 
 2622000   0.61573784   -3.8769873   -3.8769873   -3.1936798  0.026164746   -3.8769873    0.6833075   421013 
 2623000   0.61442356   -3.8766822   -3.8766822   -3.1948332  0.028527902   -3.8766822   0.68184899   421013 
 2624000    0.6140183   -3.8754292   -3.8754292   -3.1940299  0.034902879   -3.8754292   0.68139926   421013 
 2625000   0.61429624   -3.8755724   -3.8755724   -3.1938647  0.041142698   -3.8755724    0.6817077   421013 
 2626000    0.6154202   -3.8765987   -3.8765987   -3.1936437  0.036949491   -3.8765987     0.682955   421013 
 2627000   0.61431771   -3.8756857   -3.8756857   -3.1939542   0.03848003   -3.8756857   0.68173152   421013 
 2628000   0.61434427   -3.8762564   -3.8762564   -3.1944954  0.035251724   -3.8762564     0.681761   421013 
 2629000   0.61413457   -3.8762977   -3.8762977   -3.1947694   0.02599701   -3.8762977   0.68152829   421013 
 2630000   0.61371346   -3.8753338   -3.8753338   -3.1942729  0.038417885   -3.8753338   0.68106097   421013 
 2631000   0.61263915   -3.8748311   -3.8748311   -3.1949623  0.039168011   -3.8748311   0.67986877   421013 
 2632000   0.61527344   -3.8773198   -3.8773198   -3.1945276  0.036720016   -3.8773198   0.68279213   421013 
 2633000   0.61412333   -3.8756922   -3.8756922   -3.1941764   0.03464686   -3.8756922   0.68151581   421013 
 2634000   0.61378644   -3.8751675   -3.8751675   -3.1940256  0.030554015   -3.8751675   0.68114196   421013 
 2635000   0.61359876   -3.8756553   -3.8756553   -3.1947216  0.027620297   -3.8756553   0.68093368   421013 
 2636000   0.61229995   -3.8745256   -3.8745256   -3.1950332  0.030080321   -3.8745256   0.67949234   421013 
 2637000   0.61466418   -3.8778618   -3.8778618   -3.1957458  0.029262931   -3.8778618   0.68211602   421013 
 2638000   0.61375146   -3.8774265   -3.8774265   -3.1963234  0.033876981   -3.8774265   0.68110313   421013 
 2639000   0.61354667   -3.8767031   -3.8767031   -3.1958273   0.01812864   -3.8767031   0.68087587   421013 
 2640000    0.6137911   -3.8763465   -3.8763465   -3.1951994  0.038188648   -3.8763465   0.68114713   421013 
 2641000   0.61336496   -3.8757438   -3.8757438   -3.1950696  0.037433159   -3.8757438   0.68067423   421013 
 2642000   0.61396171   -3.8767696   -3.8767696   -3.1954332  0.045393274   -3.8767696   0.68133645   421013 
 2643000    0.6149473   -3.8778564   -3.8778564   -3.1954262  0.035808249   -3.8778564    0.6824302   421013 
 2644000   0.61407832   -3.8777683   -3.8777683   -3.1963025  0.033474033   -3.8777683   0.68146586   421013 
 2645000   0.61398549   -3.8775821   -3.8775821   -3.1962192  0.028570205   -3.8775821   0.68136285   421013 
 2646000   0.61337228   -3.8771904   -3.8771904    -3.196508  0.033798568   -3.8771904   0.68068234   421013 
 2647000   0.61425783    -3.877763    -3.877763   -3.1960979  0.035039857    -3.877763   0.68166508   421013 
 2648000    0.6139884   -3.8780928   -3.8780928   -3.1967268  0.024774679   -3.8780928   0.68136608   421013 
 2649000   0.61308758   -3.8770931   -3.8770931   -3.1967267  0.043026168   -3.8770931   0.68036641   421013 
 2650000   0.61343567    -3.877441    -3.877441   -3.1966884  0.031601771    -3.877441    0.6807527   421013 
 2651000   0.61406638   -3.8791178   -3.8791178   -3.1976652  0.042623437   -3.8791178   0.68145262   421013 
 2652000    0.6145162    -3.880203    -3.880203   -3.1982512   0.03730389    -3.880203    0.6819518   421013 
 2653000   0.61272534   -3.8782079   -3.8782079   -3.1982435  0.028789766   -3.8782079   0.67996442   421013 
 2654000   0.61249216   -3.8780603   -3.8780603   -3.1983546  0.031734018   -3.8780603   0.67970565   421013 
 2655000   0.61436167   -3.8798243   -3.8798243    -3.198044  0.048775458   -3.8798243   0.68178031   421013 
 2656000   0.61367402   -3.8782888   -3.8782888   -3.1972716  0.038064822   -3.8782888    0.6810172   421013 
 2657000   0.61378406   -3.8787097   -3.8787097   -3.1975704  0.041119888   -3.8787097   0.68113931   421013 
 2658000   0.61415535   -3.8791102   -3.8791102   -3.1975588  0.046114894   -3.8791102   0.68155134   421013 
 2659000   0.61532236   -3.8803827   -3.8803827   -3.1975363  0.044175748   -3.8803827   0.68284642   421013 
 2660000   0.61278548   -3.8785156   -3.8785156   -3.1984845  0.043070561   -3.8785156   0.68003115   421013 
 2661000   0.61356018   -3.8798686   -3.8798686   -3.1989778  0.042471175   -3.8798686   0.68089086   421013 
 2662000   0.61331744   -3.8791847   -3.8791847   -3.1985632  0.039021068   -3.8791847   0.68062149   421013 
 2663000   0.61379909   -3.8802701   -3.8802701   -3.1991141  0.045371429   -3.8802701   0.68115599   421013 
 2664000   0.61343005   -3.8793888   -3.8793888   -3.1986424  0.042408175   -3.8793888   0.68074646   421013 
 2665000   0.61384146   -3.8794602   -3.8794602   -3.1982572  0.034618011   -3.8794602   0.68120301   421013 
 2666000   0.61337661   -3.8793433   -3.8793433   -3.1986562  0.027535158   -3.8793433   0.68068715   421013 
 2667000   0.61411156   -3.8792414   -3.8792414   -3.1977386  0.038191572   -3.8792414   0.68150275   421013 
 2668000   0.61234478   -3.8774918   -3.8774918   -3.1979497  0.031044832   -3.8774918   0.67954209   421013 
 2669000   0.61342527   -3.8774266   -3.8774266   -3.1966855  0.030756141   -3.8774266   0.68074115   421013 
 2670000   0.61366335   -3.8793205   -3.8793205   -3.1983151  0.050476509   -3.8793205   0.68100536   421013 
 2671000   0.61305471   -3.8788358   -3.8788358   -3.1985058  0.026573927   -3.8788358   0.68032993   421013 
 2672000   0.61394539    -3.879305    -3.879305   -3.1979866  0.039810831    -3.879305   0.68131834   421013 
 2673000   0.61168813   -3.8771809   -3.8771809   -3.1983675  0.041195679   -3.8771809   0.67881338   421013 
 2674000   0.61366635   -3.8792017   -3.8792017    -3.198193  0.032400228   -3.8792017   0.68100868   421013 
 2675000   0.61399117   -3.8791041   -3.8791041    -3.197735   0.04314769   -3.8791041   0.68136915   421013 
 2676000   0.61258352   -3.8784027   -3.8784027   -3.1985957  0.048383769   -3.8784027   0.67980703   421013 
 2677000   0.61222676   -3.8778328   -3.8778328   -3.1984217  0.030353709   -3.8778328   0.67941112   421013 
 2678000   0.61364627    -3.878672    -3.878672   -3.1976856  0.033834853    -3.878672   0.68098641   421013 
 2679000   0.61440135   -3.8795682   -3.8795682   -3.1977438  0.042356583   -3.8795682   0.68182435   421013 
 2680000   0.61389617   -3.8800307   -3.8800307    -3.198767  0.022711784   -3.8800307   0.68126373   421013 
 2681000   0.61527113   -3.8819119   -3.8819119   -3.1991223  0.037010163   -3.8819119   0.68278958   421013 
 2682000   0.61399449   -3.8795207   -3.8795207   -3.1981478  0.023595494   -3.8795207   0.68137284   421013 
 2683000   0.61374856   -3.8802419   -3.8802419    -3.199142  0.044606437   -3.8802419   0.68109992   421013 
 2684000   0.61313633   -3.8796426   -3.8796426   -3.1992221   0.04599183   -3.8796426    0.6804205   421013 
 2685000    0.6125062   -3.8790696   -3.8790696   -3.1993484  0.040815834   -3.8790696   0.67972123   421013 
 2686000   0.61234083   -3.8785857   -3.8785857    -3.199048  0.026881178   -3.8785857    0.6795377   421013 
 2687000   0.61441908   -3.8809994   -3.8809994   -3.1991554  0.043824385   -3.8809994   0.68184402   421013 
 2688000   0.61342382   -3.8802045   -3.8802045   -3.1994649  0.028716647   -3.8802045   0.68073954   421013 
 2689000   0.61334001   -3.8811647   -3.8811647   -3.2005181  0.025806296   -3.8811647   0.68064654   421013 
 2690000    0.6116562   -3.8794151   -3.8794151   -3.2006371  0.038189235   -3.8794151   0.67877794   421013 
 2691000   0.61257931   -3.8806837   -3.8806837   -3.2008813  0.036399702   -3.8806837   0.67980236   421013 
 2692000   0.61338598   -3.8808459   -3.8808459   -3.2001483  0.039177814   -3.8808459   0.68069755   421013 
 2693000   0.61218837   -3.8808869   -3.8808869   -3.2015184  0.035881925   -3.8808869   0.67936852   421013 
 2694000   0.61374852   -3.8819842   -3.8819842   -3.2008844  0.025840801   -3.8819842   0.68109988   421013 
 2695000   0.61374924   -3.8817082   -3.8817082   -3.2006076  0.033605241   -3.8817082   0.68110067   421013 
 2696000   0.61397963   -3.8825288   -3.8825288   -3.2011724   0.02455816   -3.8825288   0.68135635   421013 
 2697000   0.61399257    -3.882234    -3.882234   -3.2008632  0.040478438    -3.882234    0.6813707   421013 
 2698000   0.61242362   -3.8806983   -3.8806983   -3.2010687  0.036679756   -3.8806983   0.67962958   421013 
 2699000   0.61347886    -3.881524    -3.881524   -3.2007234  0.057995518    -3.881524   0.68080062   421013 
 2700000   0.61406212   -3.8824598   -3.8824598   -3.2010119  0.029329801   -3.8824598   0.68144788   421013 
 2701000   0.61416758   -3.8826484   -3.8826484   -3.2010835  0.030568469   -3.8826484   0.68156492   421013 
 2702000   0.61393952   -3.8826818   -3.8826818   -3.2013699  0.047755199   -3.8826818   0.68131183   421013 
 2703000   0.61194613   -3.8805838   -3.8805838   -3.2014841  0.044638357   -3.8805838    0.6790997   421013 
 2704000   0.61174341   -3.8805663   -3.8805663   -3.2016916  0.031883179   -3.8805663   0.67887472   421013 
 2705000     0.612445   -3.8817275   -3.8817275   -3.2020742  0.038147357   -3.8817275   0.67965331   421013 
 2706000   0.61337052   -3.8826842   -3.8826842   -3.2020038  0.038109499   -3.8826842    0.6806804   421013 
 2707000   0.61388774    -3.882479    -3.882479   -3.2012246  0.030774737    -3.882479   0.68125437   421013 
 2708000   0.61333696   -3.8823878   -3.8823878   -3.2017446  0.028041184   -3.8823878   0.68064315   421013 
 2709000   0.61276296   -3.8819925   -3.8819925   -3.2019863  0.034333841   -3.8819925   0.68000616   421013 
 2710000   0.61211111     -3.88162     -3.88162   -3.2023372  0.040235908     -3.88162   0.67928277   421013 
 2711000   0.61203553   -3.8812399   -3.8812399    -3.202041  0.050361586   -3.8812399    0.6791989   421013 
 2712000   0.61300812    -3.882847    -3.882847   -3.2025688  0.021548306    -3.882847   0.68027822   421013 
 2713000   0.61329499   -3.8829768   -3.8829768   -3.2023802  0.041219233   -3.8829768   0.68059657   421013 
 2714000   0.61398278   -3.8829466   -3.8829466   -3.2015867   0.03062739   -3.8829466   0.68135984   421013 
 2715000   0.61325735   -3.8826438   -3.8826438    -3.202089  0.042410019   -3.8826438   0.68055481   421013 
 2716000   0.61342845   -3.8827764   -3.8827764   -3.2020317   0.04432518   -3.8827764   0.68074468   421013 
 2717000   0.61335833   -3.8828521   -3.8828521   -3.2021852  0.032986367   -3.8828521   0.68066687   421013 
 2718000   0.61333142   -3.8826211   -3.8826211   -3.2019841  0.042369656   -3.8826211   0.68063701   421013 
 2719000   0.61391932   -3.8832836   -3.8832836   -3.2019942  0.024142272   -3.8832836   0.68128942   421013 
 2720000   0.61443748   -3.8843954   -3.8843954   -3.2025309  0.029949983   -3.8843954   0.68186444   421013 
 2721000    0.6125082    -3.882644    -3.882644   -3.2029205  0.054518473    -3.882644   0.67972345   421013 
 2722000   0.61401568   -3.8832631   -3.8832631   -3.2018667  0.031543157   -3.8832631   0.68139635   421013 
 2723000   0.61359577   -3.8828678   -3.8828678   -3.2019374  0.054303374   -3.8828678   0.68093036   421013 
 2724000   0.61458304   -3.8843662   -3.8843662   -3.2023402  0.054553623   -3.8843662   0.68202597   421013 
 2725000   0.61465559   -3.8849871   -3.8849871   -3.2028806  0.045009858   -3.8849871   0.68210649   421013 
 2726000   0.61420733   -3.8841564   -3.8841564   -3.2025473  0.059490832   -3.8841564   0.68160904   421013 
 2727000   0.61329506   -3.8835066   -3.8835066   -3.2029099  0.045068275   -3.8835066   0.68059666   421013 
 2728000   0.61348255   -3.8838628   -3.8838628   -3.2030581  0.033870592   -3.8838628   0.68080471   421013 
 2729000   0.61317386   -3.8838946   -3.8838946   -3.2034325  0.032005772   -3.8838946   0.68046215   421013 
 2730000   0.61189485   -3.8821012   -3.8821012   -3.2030584  0.035320941   -3.8821012   0.67904279   421013 
 2731000   0.61308923   -3.8836052   -3.8836052    -3.203237  0.033480066   -3.8836052   0.68036824   421013 
 2732000   0.61300956   -3.8835561   -3.8835561   -3.2032763  0.034627545   -3.8835561   0.68027982   421013 
 2733000   0.61288293   -3.8834305   -3.8834305   -3.2032912  0.029239629   -3.8834305    0.6801393   421013 
 2734000   0.61259715   -3.8828333   -3.8828333   -3.2030112  0.032750554   -3.8828333   0.67982215   421013 
 2735000   0.61258268   -3.8830474   -3.8830474   -3.2032413  0.036477508   -3.8830474    0.6798061   421013 
 2736000   0.61290001   -3.8828433   -3.8828433   -3.2026851  0.046633496   -3.8828433   0.68015825   421013 
 2737000   0.61343855   -3.8832464   -3.8832464   -3.2024905   0.03391077   -3.8832464   0.68075589   421013 
 2738000     0.613061    -3.882262    -3.882262   -3.2019251  0.043223019    -3.882262   0.68033691   421013 
 2739000   0.61468631   -3.8841356   -3.8841356    -3.201995  0.029957849   -3.8841356   0.68214058   421013 
 2740000   0.61382848   -3.8835817   -3.8835817   -3.2023931  0.042381889   -3.8835817   0.68118861   421013 
 2741000   0.61429924    -3.883211    -3.883211      -3.2015  0.048765323    -3.883211   0.68171103   421013 
 2742000     0.613506   -3.8828058   -3.8828058   -3.2019751  0.036661525   -3.8828058   0.68083074   421013 
 2743000   0.61238522   -3.8822088   -3.8822088   -3.2026218  0.036032324   -3.8822088   0.67958697   421013 
 2744000   0.61239985   -3.8828839   -3.8828839   -3.2032807  0.039599982   -3.8828839    0.6796032   421013 
 2745000   0.61336806   -3.8838404   -3.8838404   -3.2031627  0.025338387   -3.8838404   0.68067767   421013 
 2746000   0.61380601   -3.8832826   -3.8832826   -3.2021189  0.021050726   -3.8832826   0.68116368   421013 
 2747000   0.61289525   -3.8830469   -3.8830469    -3.202894  0.044284305   -3.8830469   0.68015297   421013 
 2748000   0.61345171   -3.8835428   -3.8835428   -3.2027723  0.040904209   -3.8835428   0.68077049   421013 
 2749000   0.61297342   -3.8839249   -3.8839249   -3.2036852  0.036358445   -3.8839249   0.68023971   421013 
 2750000   0.61537179   -3.8866145   -3.8866145   -3.2037133  0.039196133   -3.8866145   0.68290128   421013 
 2751000   0.61227875   -3.8835379   -3.8835379   -3.2040691  0.026982838   -3.8835379   0.67946881   421013 
 2752000   0.61399257   -3.8850296   -3.8850296   -3.2036589  0.034599131   -3.8850296    0.6813707   421013 
 2753000   0.61273742   -3.8837082   -3.8837082   -3.2037304  0.037463835   -3.8837082   0.67997782   421013 
 2754000   0.61209133   -3.8831716   -3.8831716   -3.2039108  0.025344349   -3.8831716   0.67926083   421013 
 2755000   0.61126695   -3.8823391   -3.8823391   -3.2039931  0.018238452   -3.8823391   0.67834599   421013 
 2756000   0.61241918   -3.8832526   -3.8832526   -3.2036279  0.036490345   -3.8832526   0.67962466   421013 
 2757000   0.61348762   -3.8840985   -3.8840985   -3.2032882  0.043409673   -3.8840985   0.68081034   421013 
 2758000   0.61213939   -3.8824079   -3.8824079   -3.2030938  0.034867919   -3.8824079   0.67931416   421013 
 2759000   0.61274407   -3.8830431   -3.8830431   -3.2030579   0.04196038   -3.8830431    0.6799852   421013 
 2760000   0.61358565   -3.8846296   -3.8846296   -3.2037105  0.038653916   -3.8846296   0.68091913   421013 
 2761000   0.61226183    -3.883933    -3.883933   -3.2044829  0.053768445    -3.883933   0.67945004   421013 
 2762000   0.61384649   -3.8856731   -3.8856731   -3.2044645  0.030937722   -3.8856731   0.68120859   421013 
 2763000   0.61441171    -3.885657    -3.885657   -3.2038212  0.034043268    -3.885657   0.68183584   421013 
 2764000   0.61347772   -3.8852545   -3.8852545   -3.2044551  0.038883058   -3.8852545   0.68079936   421013 
 2765000   0.61363853   -3.8858054   -3.8858054   -3.2048276  0.031481068   -3.8858054   0.68097781   421013 
 2766000   0.61122557   -3.8836157   -3.8836157   -3.2053157  0.049258377   -3.8836157   0.67830006   421013 
 2767000   0.61294958   -3.8852973   -3.8852973   -3.2050841  0.040793644   -3.8852973   0.68021326   421013 
 2768000   0.61260368   -3.8851796   -3.8851796   -3.2053502    0.0249622   -3.8851796    0.6798294   421013 
 2769000   0.61392883   -3.8873387   -3.8873387   -3.2060388  0.041884558   -3.8873387   0.68129997   421013 
 2770000   0.61209821   -3.8855417   -3.8855417   -3.2062733  0.036851313   -3.8855417   0.67926846   421013 
 2771000   0.61212674   -3.8861135   -3.8861135   -3.2068134  0.033002421   -3.8861135   0.67930013   421013 
 2772000   0.61113953   -3.8850531   -3.8850531   -3.2068485  0.028044937   -3.8850531   0.67820458   421013 
 2773000   0.61228822   -3.8862691   -3.8862691   -3.2067898  0.034119252   -3.8862691   0.67947932   421013 
 2774000   0.61143566   -3.8846878   -3.8846878   -3.2061546  0.039602196   -3.8846878    0.6785332   421013 
 2775000   0.61199905   -3.8852903   -3.8852903   -3.2061319  0.031135248   -3.8852903   0.67915843   421013 
 2776000   0.61292368   -3.8870497   -3.8870497   -3.2068652  0.030553591   -3.8870497   0.68018452   421013 
 2777000   0.61256524   -3.8867138   -3.8867138   -3.2069271  0.039315735   -3.8867138   0.67978674   421013 
 2778000   0.61133919   -3.8851592   -3.8851592   -3.2067331   0.04093515   -3.8851592   0.67842615   421013 
 2779000   0.61218323   -3.8853337   -3.8853337   -3.2059708   0.04653546   -3.8853337   0.67936281   421013 
 2780000   0.61194705   -3.8854117   -3.8854117    -3.206311  0.051522255   -3.8854117   0.67910072   421013 
 2781000   0.61234308   -3.8866144   -3.8866144   -3.2070742  0.022879871   -3.8866144   0.67954021   421013 
 2782000   0.61245776   -3.8867369   -3.8867369   -3.2070694  0.046388564   -3.8867369   0.67966747   421013 
 2783000    0.6129706   -3.8876488   -3.8876488   -3.2074122  0.042258745   -3.8876488   0.68023659   421013 
 2784000   0.61238868   -3.8875073   -3.8875073   -3.2079165  0.041043552   -3.8875073   0.67959081   421013 
 2785000    0.6112938   -3.8863193   -3.8863193   -3.2079435  0.041342363   -3.8863193   0.67837578   421013 
 2786000   0.61272508   -3.8868616   -3.8868616   -3.2068975  0.039534098   -3.8868616   0.67996413   421013 
 2787000   0.61287051   -3.8868502   -3.8868502   -3.2067246  0.039829282   -3.8868502   0.68012552   421013 
 2788000   0.61392227    -3.887436    -3.887436   -3.2061433  0.041934682    -3.887436   0.68129269   421013 
 2789000    0.6113969   -3.8852961   -3.8852961   -3.2068059  0.039391476   -3.8852961   0.67849019   421013 
 2790000    0.6113101   -3.8855252   -3.8855252   -3.2071313  0.027878791   -3.8855252   0.67839386   421013 
 2791000   0.61129187   -3.8854602   -3.8854602   -3.2070866   0.02956697   -3.8854602   0.67837364   421013 
 2792000   0.61186536   -3.8854631   -3.8854631    -3.206453  0.053344652   -3.8854631   0.67901006   421013 
 2793000   0.61324039   -3.8872314   -3.8872314   -3.2066954  0.032397032   -3.8872314   0.68053598   421013 
 2794000   0.61116205   -3.8851503   -3.8851503   -3.2069207  0.039300126   -3.8851503   0.67822957   421013 
 2795000   0.61066511   -3.8844441   -3.8844441    -3.206766  0.020662348   -3.8844441   0.67767809   421013 
 2796000   0.61226739   -3.8868403   -3.8868403   -3.2073841  0.040352763   -3.8868403   0.67945621   421013 
 2797000   0.61403186   -3.8888607   -3.8888607   -3.2074464  0.028953957   -3.8888607   0.68141431   421013 
 2798000   0.61343244   -3.8884196   -3.8884196   -3.2076704  0.049828493   -3.8884196   0.68074911   421013 
 2799000   0.61349384   -3.8884339   -3.8884339   -3.2076167  0.042245413   -3.8884339   0.68081724   421013 
 2800000   0.61250814   -3.8875563   -3.8875563   -3.2078329  0.041812544   -3.8875563   0.67972338   421013 
 2801000    0.6118659   -3.8870407   -3.8870407   -3.2080301  0.045116107   -3.8870407   0.67901066   421013 
 2802000   0.61080384   -3.8856255   -3.8856255   -3.2077934  0.058900958   -3.8856255   0.67783205   421013 
 2803000    0.6110937   -3.8859117   -3.8859117    -3.207758  0.039314071   -3.8859117   0.67815372   421013 
 2804000   0.61108688   -3.8868407   -3.8868407   -3.2086945  0.031077682   -3.8868407   0.67814615   421013 
 2805000   0.61131904   -3.8874832   -3.8874832   -3.2090795  0.041231477   -3.8874832   0.67840379   421013 
 2806000   0.61192481   -3.8883565   -3.8883565   -3.2092805  0.046122275   -3.8883565   0.67907604   421013 
 2807000   0.61264706   -3.8890844   -3.8890844   -3.2092068  0.024841909   -3.8890844   0.67987754   421013 
 2808000   0.61297104   -3.8887844   -3.8887844   -3.2085474  0.039350931   -3.8887844   0.68023707   421013 
 2809000   0.61221143   -3.8882337   -3.8882337   -3.2088396  0.033857026   -3.8882337   0.67939411   421013 
 2810000   0.61204664   -3.8869065   -3.8869065   -3.2076953  0.041852044   -3.8869065   0.67921124   421013 
 2811000   0.61299338   -3.8882632   -3.8882632   -3.2080013  0.033622752   -3.8882632   0.68026187   421013 
 2812000   0.61103811   -3.8868028   -3.8868028   -3.2087108  0.043396754   -3.8868028   0.67809203   421013 
 2813000   0.61373211    -3.889943    -3.889943   -3.2088614  0.046381071    -3.889943   0.68108167   421013 
 2814000   0.61416094   -3.8903703   -3.8903703   -3.2088127  0.032294346   -3.8903703   0.68155755   421013 
 2815000   0.61370423   -3.8899609   -3.8899609   -3.2089101  0.019555049   -3.8899609   0.68105073   421013 
 2816000   0.61223636   -3.8879334   -3.8879334   -3.2085117  0.051324114   -3.8879334   0.67942177   421013 
 2817000   0.61310846   -3.8890084   -3.8890084   -3.2086189  0.041416531   -3.8890084   0.68038958   421013 
 2818000   0.61195306   -3.8884057   -3.8884057   -3.2092983  0.036777251   -3.8884057   0.67910739   421013 
 2819000   0.61096923   -3.8878694   -3.8878694   -3.2098538  0.038004959   -3.8878694   0.67801559   421013 
 2820000   0.61240306   -3.8890123   -3.8890123   -3.2094056   0.03530513   -3.8890123   0.67960677   421013 
 2821000   0.61208312   -3.8888199   -3.8888199   -3.2095682  0.035543618   -3.8888199   0.67925171   421013 
 2822000   0.61198151    -3.888559    -3.888559   -3.2094201  0.042306143    -3.888559   0.67913895   421013 
 2823000   0.61194048   -3.8886168   -3.8886168   -3.2095234   0.04058798   -3.8886168   0.67909342   421013 
 2824000    0.6110375   -3.8880335   -3.8880335   -3.2099421  0.048825818   -3.8880335   0.67809135   421013 
 2825000   0.61426215   -3.8916329   -3.8916329    -3.209963  0.032327042   -3.8916329   0.68166987   421013 
 2826000   0.61158615    -3.888753    -3.888753   -3.2100528   0.03098863    -3.888753   0.67870021   421013 
 2827000   0.61260379   -3.8898049   -3.8898049   -3.2099754  0.029345896   -3.8898049   0.67982952   421013 
 2828000   0.61189511   -3.8894318   -3.8894318   -3.2103887  0.036276119   -3.8894318   0.67904307   421013 
 2829000   0.61270399   -3.8906302   -3.8906302   -3.2106895  0.038611677   -3.8906302   0.67994072   421013 
 2830000   0.61196739   -3.8891634   -3.8891634   -3.2100402  0.049950296   -3.8891634   0.67912328   421013 
 2831000   0.61075211   -3.8877346   -3.8877346     -3.20996  0.035212428   -3.8877346   0.67777464   421013 
 2832000   0.61139061   -3.8895559   -3.8895559   -3.2110727    0.0362493   -3.8895559   0.67848322   421013 
 2833000   0.61169553   -3.8891181   -3.8891181   -3.2102965  0.036066868   -3.8891181   0.67882159   421013 
 2834000   0.61179149   -3.8892104   -3.8892104   -3.2102823  0.043133792   -3.8892104   0.67892809   421013 
 2835000   0.61096897   -3.8888624   -3.8888624   -3.2108471  0.038567403   -3.8888624    0.6780153   421013 
 2836000   0.61212172   -3.8906966   -3.8906966   -3.2114021  0.037634245   -3.8906966   0.67929455   421013 
 2837000   0.61140149   -3.8901451   -3.8901451   -3.2116498  0.035456273   -3.8901451   0.67849528   421013 
 2838000   0.61201109   -3.8904361   -3.8904361   -3.2112643  0.035856868   -3.8904361   0.67917178   421013 
 2839000     0.611487    -3.889433    -3.889433   -3.2108429  0.041832456    -3.889433   0.67859018   421013 
 2840000   0.61141939   -3.8890476   -3.8890476   -3.2105325  0.046612663   -3.8890476   0.67851515   421013 
 2841000    0.6108892   -3.8886376   -3.8886376   -3.2107108  0.046561703   -3.8886376   0.67792678   421013 
 2842000   0.61161661   -3.8896645   -3.8896645   -3.2109304  0.025054283   -3.8896645   0.67873401   421013 
 2843000   0.61277327   -3.8900393   -3.8900393   -3.2100217  0.026792239   -3.8900393    0.6800176   421013 
 2844000   0.61107192   -3.8881428   -3.8881428   -3.2100133  0.032786441   -3.8881428   0.67812955   421013 
 2845000    0.6108042   -3.8877615   -3.8877615    -3.209929  0.042674066   -3.8877615   0.67783245   421013 
 2846000   0.61166497   -3.8890061   -3.8890061   -3.2102184  0.038387993   -3.8890061   0.67878767   421013 
 2847000    0.6123343   -3.8902523   -3.8902523   -3.2107218  0.029752424   -3.8902523   0.67953046   421013 
 2848000    0.6124213   -3.8900884   -3.8900884   -3.2104614  0.029975025   -3.8900884   0.67962701   421013 
 2849000   0.61228038   -3.8893424   -3.8893424   -3.2098718  0.035130347   -3.8893424   0.67947062   421013 
 2850000   0.61286816   -3.8906092   -3.8906092   -3.2104863  0.048638414   -3.8906092   0.68012291   421013 
 2851000   0.61245871   -3.8900369   -3.8900369   -3.2103683  0.049408723   -3.8900369   0.67966852   421013 
 2852000   0.61304281   -3.8901575   -3.8901575   -3.2098408  0.036603401   -3.8901575   0.68031672   421013 
 2853000   0.61277598    -3.890303    -3.890303   -3.2102824  0.032592414    -3.890303   0.68002061   421013 
 2854000   0.61203051   -3.8894558   -3.8894558   -3.2102625  0.029999334   -3.8894558   0.67919334   421013 
 2855000   0.61281627   -3.8897781   -3.8897781   -3.2097128   0.03624912   -3.8897781   0.68006532   421013 
 2856000   0.61233918   -3.8892931   -3.8892931   -3.2097573   0.03097207   -3.8892931   0.67953587   421013 
 2857000   0.61118203   -3.8884089   -3.8884089   -3.2101571   0.04527203   -3.8884089   0.67825174   421013 
 2858000   0.61160006   -3.8892534   -3.8892534   -3.2105378  0.038254827   -3.8892534   0.67871565   421013 
 2859000   0.61114938   -3.8895555   -3.8895555     -3.21134  0.022293301   -3.8895555   0.67821551   421013 
 2860000   0.61160001   -3.8903592   -3.8903592   -3.2116436  0.045235578   -3.8903592   0.67871559   421013 
 2861000   0.61064262   -3.8897814   -3.8897814   -3.2121283  0.037016316   -3.8897814   0.67765314   421013 
 2862000   0.61092545   -3.8909734   -3.8909734   -3.2130063  0.039150644   -3.8909734     0.677967   421013 
 2863000   0.61154757   -3.8909629   -3.8909629   -3.2123055  0.031314222   -3.8909629    0.6786574   421013 
 2864000   0.61125735   -3.8901526   -3.8901526   -3.2118173   0.03963703   -3.8901526   0.67833532   421013 
 2865000   0.61180428   -3.8909715   -3.8909715   -3.2120292  0.025932011   -3.8909715   0.67894228   421013 
 2866000   0.61250378   -3.8906971   -3.8906971   -3.2109786  0.034232514   -3.8906971   0.67971854   421013 
 2867000   0.61065149   -3.8893883   -3.8893883   -3.2117253  0.046207054   -3.8893883   0.67766298   421013 
 2868000   0.61074024   -3.8897365   -3.8897365    -3.211975  0.033163434   -3.8897365   0.67776147   421013 
 2869000   0.61149074   -3.8909412   -3.8909412   -3.2123469    0.0331779   -3.8909412   0.67859433   421013 
 2870000   0.61132579   -3.8909327   -3.8909327   -3.2125214  0.044436055   -3.8909327   0.67841127   421013 
 2871000   0.61230145   -3.8918113   -3.8918113   -3.2123173  0.036619843   -3.8918113   0.67949401   421013 
 2872000   0.61136259   -3.8908151   -3.8908151    -3.212363  0.033921354   -3.8908151   0.67845211   421013 
 2873000   0.61150426   -3.8907062   -3.8907062   -3.2120969  0.036681515   -3.8907062   0.67860933   421013 
 2874000   0.61103527   -3.8910488   -3.8910488   -3.2129599  0.037587102   -3.8910488   0.67808888   421013 
 2875000   0.61099731   -3.8912476   -3.8912476   -3.2132008   0.04898467   -3.8912476   0.67804675   421013 
 2876000   0.61067318   -3.8905588   -3.8905588   -3.2128717  0.036675697   -3.8905588   0.67768705   421013 
 2877000   0.61072694   -3.8912049   -3.8912049   -3.2134581  0.025150913   -3.8912049   0.67774671   421013 
 2878000   0.60962123   -3.8894738   -3.8894738   -3.2129541  0.043352739   -3.8894738   0.67651967   421013 
 2879000   0.61279667   -3.8934167   -3.8934167   -3.2133731  0.033936708   -3.8934167   0.68004357   421013 
 2880000   0.61208722   -3.8930609   -3.8930609   -3.2138046  0.035076004   -3.8930609   0.67925627   421013 
 2881000   0.61044116   -3.8920206   -3.8920206    -3.214591  0.040318988   -3.8920206   0.67742957   421013 
 2882000   0.61110111   -3.8927574   -3.8927574   -3.2145955  0.027217596   -3.8927574   0.67816194   421013 
 2883000   0.61155438   -3.8925446   -3.8925446   -3.2138797  0.042500195   -3.8925446   0.67866495   421013 
 2884000   0.61078334    -3.891624    -3.891624   -3.2138147  0.020564494    -3.891624   0.67780931   421013 
 2885000   0.61253216   -3.8929465   -3.8929465   -3.2131964  0.045099253   -3.8929465   0.67975003   421013 
 2886000   0.61105874   -3.8914902   -3.8914902   -3.2133753  0.025005939   -3.8914902   0.67811492   421013 
 2887000   0.61091843   -3.8909647   -3.8909647   -3.2130055  0.027272028   -3.8909647   0.67795922   421013 
 2888000   0.61075082    -3.890926    -3.890926   -3.2131528   0.03263451    -3.890926   0.67777321   421013 
 2889000   0.61119578   -3.8904495   -3.8904495   -3.2121825  0.034955096   -3.8904495     0.678267   421013 
 2890000   0.61136317   -3.8910836   -3.8910836   -3.2126308  0.032062713   -3.8910836   0.67845276   421013 
 2891000   0.61029401   -3.8898903   -3.8898903    -3.212624  0.021979838   -3.8898903   0.67726627   421013 
 2892000   0.60989584   -3.8899468   -3.8899468   -3.2131223  0.033566087   -3.8899468   0.67682441   421013 
 2893000    0.6106621   -3.8907812   -3.8907812   -3.2131064  0.036638706   -3.8907812   0.67767476   421013 
 2894000   0.61236013   -3.8925673   -3.8925673   -3.2130082  0.045957279   -3.8925673   0.67955912   421013 
 2895000   0.60853203   -3.8894912   -3.8894912   -3.2141802  0.043298762   -3.8894912   0.67531094   421013 
 2896000   0.61065794   -3.8916218   -3.8916218   -3.2139517  0.040982548   -3.8916218   0.67767014   421013 
 2897000   0.61069437   -3.8914204   -3.8914204   -3.2137099  0.023214898   -3.8914204   0.67771057   421013 
 2898000   0.61206096   -3.8930348   -3.8930348   -3.2138076   0.04595424   -3.8930348   0.67922713   421013 
 2899000   0.61099673   -3.8925442   -3.8925442   -3.2144981  0.046277971   -3.8925442   0.67804611   421013 
 2900000   0.60955914    -3.891118    -3.891118   -3.2146673  0.036701689    -3.891118   0.67645076   421013 
 2901000   0.61202098   -3.8927328   -3.8927328   -3.2135501  0.032814674   -3.8927328   0.67918275   421013 
 2902000   0.61148755   -3.8924007   -3.8924007     -3.21381   0.04766289   -3.8924007   0.67859079   421013 
 2903000   0.61220803   -3.8925843   -3.8925843   -3.2131939  0.028288914   -3.8925843   0.67939034   421013 
 2904000   0.61114825   -3.8912726   -3.8912726   -3.2130583  0.045436873   -3.8912726   0.67821425   421013 
 2905000   0.61197915   -3.8917618   -3.8917618   -3.2126255  0.036844937   -3.8917618   0.67913633   421013 
 2906000   0.61147068   -3.8921636   -3.8921636   -3.2135916  0.031517021   -3.8921636   0.67857207   421013 
 2907000   0.61068057   -3.8916418   -3.8916418   -3.2139465  0.044286372   -3.8916418   0.67769525   421013 
 2908000   0.61065847   -3.8919358   -3.8919358   -3.2142651  0.033539526   -3.8919358   0.67767073   421013 
 2909000   0.61024902   -3.8916605   -3.8916605   -3.2144441  0.024588134   -3.8916605   0.67721635   421013 
 2910000   0.61211253   -3.8932357   -3.8932357   -3.2139514  0.033734844   -3.8932357   0.67928435   421013 
 2911000   0.60881748   -3.8896611   -3.8896611   -3.2140334  0.028854868   -3.8896611   0.67562772   421013 
 2912000   0.61029059   -3.8910461   -3.8910461   -3.2137836  0.044483803   -3.8910461   0.67726248   421013 
 2913000   0.61209975    -3.893299    -3.893299   -3.2140288  0.040077207    -3.893299   0.67927017   421013 
 2914000    0.6104288   -3.8919563   -3.8919563   -3.2145405   0.02985913   -3.8919563   0.67741586   421013 
 2915000   0.61036472   -3.8913035   -3.8913035   -3.2139588   0.04166032   -3.8913035   0.67734474   421013 
 2916000   0.61144601   -3.8925698   -3.8925698   -3.2140251  0.040016139   -3.8925698   0.67854469   421013 
 2917000   0.61249396   -3.8932168   -3.8932168   -3.2135091  0.029482499   -3.8932168   0.67970764   421013 
 2918000    0.6115566   -3.8921883   -3.8921883   -3.2135209  0.039821525   -3.8921883   0.67866741   421013 
 2919000   0.61033955   -3.8909987   -3.8909987   -3.2136819   0.03459388   -3.8909987   0.67731681   421013 
 2920000   0.61166768    -3.891931    -3.891931   -3.2131404  0.046057548    -3.891931   0.67879068   421013 
 2921000   0.61280444   -3.8934195   -3.8934195   -3.2133673  0.039688345   -3.8934195   0.68005219   421013 
 2922000   0.61167183   -3.8924342   -3.8924342   -3.2136389  0.033002157   -3.8924342   0.67879529   421013 
 2923000   0.61212826   -3.8923331   -3.8923331   -3.2130313  0.034441163   -3.8923331   0.67930181   421013 
 2924000   0.61002737   -3.8907883   -3.8907883    -3.213818  0.038614765   -3.8907883   0.67697037   421013 
 2925000   0.61109427   -3.8914506   -3.8914506   -3.2132963  0.047693265   -3.8914506   0.67815435   421013 
 2926000   0.61020937   -3.8910638   -3.8910638   -3.2138914  0.036985215   -3.8910638   0.67717234   421013 
 2927000   0.61090175   -3.8915024   -3.8915024   -3.2135617  0.020617968   -3.8915024   0.67794071   421013 
 2928000    0.6110906   -3.8912167   -3.8912167   -3.2130664  0.032957136   -3.8912167   0.67815028   421013 
 2929000   0.61215171   -3.8915594   -3.8915594   -3.2122316  0.034423426   -3.8915594   0.67932784   421013 
 2930000   0.61270412   -3.8923919   -3.8923919   -3.2124511  0.035540445   -3.8923919   0.67994086   421013 
 2931000   0.61128115   -3.8919074   -3.8919074   -3.2135457  0.040673418   -3.8919074   0.67836174   421013 
 2932000   0.61184775   -3.8921269   -3.8921269   -3.2131364  0.043108601   -3.8921269   0.67899051   421013 
 2933000   0.61084562   -3.8910403   -3.8910403   -3.2131619  0.031230343   -3.8910403   0.67787841   421013 
 2934000   0.61146122   -3.8914617   -3.8914617   -3.2129001  0.041909619   -3.8914617   0.67856157   421013 
 2935000   0.61106281   -3.8915947   -3.8915947   -3.2134753  0.028119212   -3.8915947   0.67811944   421013 
 2936000   0.61162299   -3.8919751   -3.8919751    -3.213234  0.034053015   -3.8919751    0.6787411   421013 
 2937000    0.6112484   -3.8918966   -3.8918966   -3.2135712  0.036438308   -3.8918966    0.6783254   421013 
 2938000   0.61083822    -3.892215    -3.892215   -3.2143448  0.034793359    -3.892215   0.67787021   421013 
 2939000   0.61100995   -3.8917934   -3.8917934   -3.2137326   0.02604142   -3.8917934   0.67806078   421013 
 2940000   0.61068809   -3.8925813   -3.8925813   -3.2148777  0.035211034   -3.8925813    0.6777036   421013 
 2941000   0.61141098   -3.8924073   -3.8924073   -3.2139015  0.031156467   -3.8924073   0.67850582   421013 
 2942000   0.61027537   -3.8906941   -3.8906941   -3.2134485  0.036050477   -3.8906941   0.67724559   421013 
 2943000   0.61172522   -3.8924436   -3.8924436   -3.2135891  0.030270213   -3.8924436   0.67885454   421013 
 2944000   0.61201742   -3.8928616   -3.8928616   -3.2136828  0.030032227   -3.8928616   0.67917881   421013 
 2945000   0.61216065   -3.8936056   -3.8936056   -3.2142679  0.050040991   -3.8936056   0.67933776   421013 
 2946000   0.61034255   -3.8920691   -3.8920691    -3.214749  0.045234478   -3.8920691   0.67732015   421013 
 2947000    0.6105688   -3.8924697   -3.8924697   -3.2148985  0.033123023   -3.8924697   0.67757122   421013 
 2948000   0.60996722   -3.8915903   -3.8915903   -3.2146866  0.045228286   -3.8915903   0.67690362   421013 
 2949000    0.6097923   -3.8909019   -3.8909019   -3.2141924  0.049761871   -3.8909019   0.67670951   421013 
 2950000   0.61010562   -3.8914327   -3.8914327   -3.2143755  0.038541802   -3.8914327   0.67705721   421013 
 2951000   0.61111342   -3.8926905   -3.8926905   -3.2145149  0.028096084   -3.8926905    0.6781756   421013 
 2952000   0.61066764   -3.8919595   -3.8919595   -3.2142786  0.043663461   -3.8919595    0.6776809   421013 
 2953000   0.61147607   -3.8931499   -3.8931499   -3.2145719  0.048598437   -3.8931499   0.67857805   421013 
 2954000   0.61091047   -3.8925038   -3.8925038   -3.2145534  0.043168047   -3.8925038   0.67795038   421013 
 2955000    0.6089141   -3.8909266   -3.8909266   -3.2151916  0.041728206   -3.8909266   0.67573494   421013 
 2956000    0.6107322   -3.8927972   -3.8927972   -3.2150447  0.036419473   -3.8927972   0.67775255   421013 
 2957000   0.61264844   -3.8950059   -3.8950059   -3.2151268   0.04268201   -3.8950059   0.67987907   421013 
 2958000   0.61120974   -3.8934071   -3.8934071   -3.2151246  0.035822155   -3.8934071    0.6782825   421013 
 2959000   0.61118151   -3.8932573   -3.8932573   -3.2150062  0.034105795   -3.8932573   0.67825116   421013 
 2960000   0.61123161   -3.8933816   -3.8933816   -3.2150749  0.039879444   -3.8933816   0.67830676   421013 
 2961000   0.61025292   -3.8926571   -3.8926571   -3.2154365  0.039856507   -3.8926571   0.67722067   421013 
 2962000   0.61119683   -3.8933092   -3.8933092   -3.2150411  0.023574188   -3.8933092   0.67826817   421013 
 2963000   0.61047324    -3.892379    -3.892379   -3.2149138   0.03800248    -3.892379   0.67746517   421013 
 2964000   0.61066215   -3.8922477   -3.8922477   -3.2145729  0.028182405   -3.8922477   0.67767481   421013 
 2965000   0.61105503   -3.8925463   -3.8925463   -3.2144355  0.053196386   -3.8925463    0.6781108   421013 
 2966000   0.61187653   -3.8926738   -3.8926738   -3.2136514  0.033189654   -3.8926738   0.67902246   421013 
 2967000   0.61253132   -3.8940522   -3.8940522   -3.2143031  0.026903789   -3.8940522    0.6797491   421013 
 2968000   0.61118616   -3.8929086   -3.8929086   -3.2146523  0.038478051   -3.8929086   0.67825632   421013 
 2969000   0.61019864   -3.8929018   -3.8929018   -3.2157414  0.036468952   -3.8929018   0.67716044   421013 
 2970000   0.61155793   -3.8935075   -3.8935075   -3.2148386  0.038791234   -3.8935075   0.67866889   421013 
 2971000   0.61019966   -3.8927068   -3.8927068   -3.2155452  0.032120545   -3.8927068   0.67716157   421013 
 2972000   0.61065641   -3.8935591   -3.8935591   -3.2158906  0.028612835   -3.8935591   0.67766844   421013 
 2973000   0.61179652   -3.8941869   -3.8941869   -3.2152533  0.043269862   -3.8941869   0.67893366   421013 
 2974000   0.61109235   -3.8929693   -3.8929693   -3.2148171  0.040244341   -3.8929693   0.67815223   421013 
 2975000   0.61126023   -3.8935502   -3.8935502   -3.2152117  0.024950942   -3.8935502   0.67833852   421013 
 2976000   0.61189705   -3.8939806   -3.8939806   -3.2149354  0.024258705   -3.8939806   0.67904523   421013 
 2977000   0.61146566   -3.8938614   -3.8938614   -3.2152949  0.052954951   -3.8938614    0.6785665   421013 
 2978000   0.61082954   -3.8930543   -3.8930543   -3.2151937  0.041075486   -3.8930543   0.67786057   421013 
 2979000   0.61083632   -3.8936993   -3.8936993   -3.2158312  0.041423109   -3.8936993    0.6778681   421013 
 2980000   0.61099428   -3.8936918   -3.8936918   -3.2156484  0.041630797   -3.8936918   0.67804339   421013 
 2981000   0.61116318   -3.8940598   -3.8940598    -3.215829  0.021984323   -3.8940598   0.67823083   421013 
 2982000   0.61123312   -3.8946517   -3.8946517   -3.2163433  0.043111951   -3.8946517   0.67830844   421013 
 2983000   0.61057351   -3.8936202   -3.8936202   -3.2160437   0.05059392   -3.8936202   0.67757644   421013 
 2984000   0.61119148   -3.8937236   -3.8937236   -3.2154614  0.031609656   -3.8937236   0.67826223   421013 
 2985000    0.6115899   -3.8943877   -3.8943877   -3.2156834  0.035870434   -3.8943877   0.67870438   421013 
 2986000   0.61086832   -3.8944372   -3.8944372   -3.2165336  0.031484988   -3.8944372   0.67790361   421013 
 2987000   0.61190202   -3.8946217   -3.8946217    -3.215571  0.020629941   -3.8946217   0.67905075   421013 
 2988000   0.61073316   -3.8937208   -3.8937208   -3.2159672    0.0419845   -3.8937208   0.67775361   421013 
 2989000   0.61000187   -3.8928509   -3.8928509   -3.2159088  0.022541974   -3.8928509   0.67694208   421013 
 2990000   0.61132077   -3.8942619   -3.8942619   -3.2158562  0.038479494   -3.8942619    0.6784057   421013 
 2991000   0.60963248   -3.8923462   -3.8923462    -3.215814  0.030903109   -3.8923462   0.67653215   421013 
 2992000   0.61178572   -3.8951622   -3.8951622   -3.2162405  0.039013202   -3.8951622   0.67892168   421013 
 2993000   0.61134186   -3.8946794   -3.8946794   -3.2162503  0.039580251   -3.8946794   0.67842912   421013 
 2994000   0.61285835   -3.8962776   -3.8962776   -3.2161655  0.045028611   -3.8962776   0.68011202   421013 
 2995000   0.61102305   -3.8950019   -3.8950019   -3.2169266  0.026179473   -3.8950019   0.67807531   421013 
 2996000   0.61120311   -3.8948673   -3.8948673   -3.2165921  0.044162503   -3.8948673   0.67827514   421013 
 2997000   0.61069041   -3.8946823   -3.8946823   -3.2169761  0.034768726   -3.8946823   0.67770618   421013 
 2998000   0.61058113   -3.8941587   -3.8941587   -3.2165738  0.031549057   -3.8941587    0.6775849   421013 
 2999000    0.6092599   -3.8933948   -3.8933948   -3.2172761   0.02710396   -3.8933948   0.67611869   421013 
 3000000   0.61032626    -3.894871    -3.894871   -3.2175689  0.025090226    -3.894871   0.67730206   421013 
 3001000    0.6101482    -3.894384    -3.894384   -3.2172796  0.021630571    -3.894384   0.67710446   421013 
 3002000   0.61020501   -3.8952741   -3.8952741   -3.2181066  0.036604509   -3.8952741   0.67716751   421013 
 3003000   0.60935737   -3.8945904   -3.8945904   -3.2183635  0.032110659   -3.8945904   0.67622685   421013 
 3004000   0.61035289   -3.8949416   -3.8949416     -3.21761   0.02426486   -3.8949416   0.67733161   421013 
 3005000   0.60917453   -3.8934146   -3.8934146   -3.2173906  0.026231965   -3.8934146   0.67602395   421013 
 3006000   0.61120608   -3.8951495   -3.8951495    -3.216871  0.044340722   -3.8951495   0.67827843   421013 
 3007000   0.60969101   -3.8939452   -3.8939452   -3.2173481  0.036156293   -3.8939452    0.6765971   421013 
 3008000   0.60987196   -3.8950916   -3.8950916   -3.2182937  0.034865342   -3.8950916   0.67679791   421013 
 3009000   0.61018881   -3.8953585   -3.8953585    -3.218209  0.022001003   -3.8953585   0.67714952   421013 
 3010000   0.60978902   -3.8951308   -3.8951308    -3.218425  0.033930984   -3.8951308   0.67670586   421013 
 3011000   0.61114492   -3.8957362   -3.8957362   -3.2175256  0.027591026   -3.8957362   0.67821056   421013 
 3012000   0.60947027   -3.8945134   -3.8945134   -3.2181612  0.036789083   -3.8945134   0.67635214   421013 
 3013000    0.6116887   -3.8973899   -3.8973899   -3.2185759  0.040672574   -3.8973899   0.67881401   421013 
 3014000   0.60970824   -3.8951729   -3.8951729   -3.2185567  0.039282816   -3.8951729   0.67661622   421013 
 3015000    0.6107411   -3.8970917   -3.8970917   -3.2193293  0.026704454   -3.8970917   0.67776243   421013 
 3016000   0.60962179   -3.8953102   -3.8953102     -3.21879  0.042723146   -3.8953102   0.67652029   421013 
 3017000   0.61056798   -3.8965868   -3.8965868   -3.2190165  0.033515532   -3.8965868    0.6775703   421013 
 3018000   0.60958097   -3.8949748   -3.8949748   -3.2184998   0.02609905   -3.8949748   0.67647498   421013 
 3019000   0.61009149     -3.89554     -3.89554   -3.2184985  0.034610644     -3.89554   0.67704153   421013 
 3020000    0.6113437    -3.896511    -3.896511   -3.2180798  0.031762564    -3.896511   0.67843115   421013 
 3021000   0.61003682   -3.8947391   -3.8947391   -3.2177583  0.027636204   -3.8947391   0.67698086   421013 
 3022000   0.60968714   -3.8946754   -3.8946754   -3.2180826  0.034377458   -3.8946754   0.67659281   421013 
 3023000   0.60908549   -3.8943591   -3.8943591   -3.2184339  0.037238752   -3.8943591   0.67592513   421013 
 3024000   0.60948541    -3.894638    -3.894638   -3.2182691  0.040069561    -3.894638   0.67636894   421013 
 3025000   0.61057056   -3.8968707   -3.8968707   -3.2192975  0.025045108   -3.8968707   0.67757317   421013 
 3026000   0.61174685   -3.8981348   -3.8981348   -3.2192562  0.045288451   -3.8981348   0.67887855   421013 
 3027000   0.61133219    -3.896988    -3.896988   -3.2185696   0.03418891    -3.896988   0.67841839   421013 
 3028000   0.61140414   -3.8970781   -3.8970781   -3.2185799  0.030102001   -3.8970781   0.67849823   421013 
 3029000   0.61067997   -3.8961026   -3.8961026    -3.218408  0.041406319   -3.8961026   0.67769459   421013 
 3030000   0.61065696   -3.8954524   -3.8954524   -3.2177834  0.034546495   -3.8954524   0.67766905   421013 
 3031000   0.61008099   -3.8953866   -3.8953866   -3.2183567   0.03386964   -3.8953866   0.67702988   421013 
 3032000   0.61096245   -3.8966374   -3.8966374   -3.2186293  0.032129609   -3.8966374   0.67800807   421013 
 3033000   0.61036643   -3.8953663   -3.8953663   -3.2180196  0.041479653   -3.8953663   0.67734664   421013 
 3034000   0.61028135   -3.8948966   -3.8948966   -3.2176444  0.039766957   -3.8948966   0.67725223   421013 
 3035000   0.60996993   -3.8947398   -3.8947398   -3.2178332  0.049716139   -3.8947398   0.67690663   421013 
 3036000   0.61050507   -3.8961391   -3.8961391   -3.2186386  0.026966087   -3.8961391    0.6775005   421013 
 3037000   0.61033242   -3.8952011   -3.8952011   -3.2178922  0.036652801   -3.8952011   0.67730889   421013 
 3038000    0.6099399   -3.8952823   -3.8952823    -3.218409  0.050707361   -3.8952823    0.6768733   421013 
 3039000   0.60886373   -3.8938696   -3.8938696   -3.2181906  0.028698742   -3.8938696   0.67567904   421013 
 3040000   0.61038761    -3.896186    -3.896186   -3.2188158  0.040445562    -3.896186   0.67737015   421013 
 3041000   0.61184816    -3.897734    -3.897734   -3.2187431  0.018314699    -3.897734   0.67899097   421013 
 3042000   0.61016554   -3.8953091   -3.8953091   -3.2181854   0.02816173   -3.8953091   0.67712371   421013 
 3043000   0.61009066   -3.8957308   -3.8957308   -3.2186902  0.031627286   -3.8957308    0.6770406   421013 
 3044000   0.61029252   -3.8959653   -3.8959653   -3.2187007  0.043834034   -3.8959653   0.67726462   421013 
 3045000   0.61105326   -3.8977942   -3.8977942   -3.2196853  0.042749271   -3.8977942   0.67810885   421013 
 3046000   0.61020958   -3.8969511   -3.8969511   -3.2197785  0.035673152   -3.8969511   0.67717258   421013 
 3047000   0.61068086   -3.8978918   -3.8978918   -3.2201962  0.042208113   -3.8978918   0.67769558   421013 
 3048000   0.61060621   -3.8976792   -3.8976792   -3.2200664   0.03573203   -3.8976792   0.67761273   421013 
 3049000   0.61191739   -3.8985093   -3.8985093   -3.2194415  0.029701153   -3.8985093    0.6790678   421013 
 3050000   0.61024637   -3.8977077   -3.8977077   -3.2204943  0.019192459   -3.8977077   0.67721341   421013 
 3051000    0.6101807   -3.8985366   -3.8985366   -3.2213961  0.051589866   -3.8985366   0.67714053   421013 
 3052000       0.6097   -3.8982829   -3.8982829   -3.2216759  0.037898535   -3.8982829   0.67660708   421013 
 3053000   0.60906126   -3.8976973   -3.8976973    -3.221799  0.040626368   -3.8976973   0.67589824   421013 
 3054000   0.60931066   -3.8977575   -3.8977575   -3.2215825  0.031263453   -3.8977575   0.67617501   421013 
 3055000   0.60908804   -3.8977882   -3.8977882   -3.2218602  0.028621146   -3.8977882   0.67592797   421013 
 3056000   0.60996422   -3.8984866   -3.8984866   -3.2215863  0.038843608   -3.8984866   0.67690029   421013 
 3057000   0.61074939   -3.8978819   -3.8978819   -3.2201103  0.042012291   -3.8978819   0.67777163   421013 
 3058000   0.60937415   -3.8966233   -3.8966233   -3.2203778  0.039273292   -3.8966233   0.67624546   421013 
 3059000   0.60991348   -3.8969875   -3.8969875   -3.2201436  0.034883989   -3.8969875   0.67684398   421013 
 3060000   0.60994025   -3.8980085   -3.8980085   -3.2211348  0.031695104   -3.8980085    0.6768737   421013 
 3061000   0.60873502    -3.897241    -3.897241   -3.2217048  0.040826357    -3.897241   0.67553621   421013 
 3062000     0.609901   -3.8975655   -3.8975655   -3.2207354  0.029697288   -3.8975655   0.67683014   421013 
 3063000   0.60999949   -3.8977877   -3.8977877   -3.2208483  0.026500259   -3.8977877   0.67693943   421013 
 3064000   0.60975048   -3.8976446   -3.8976446   -3.2209815  0.029431017   -3.8976446    0.6766631   421013 
 3065000   0.60945196   -3.8980945   -3.8980945   -3.2217627  0.039818796   -3.8980945   0.67633182   421013 
 3066000   0.60954619   -3.8979072   -3.8979072   -3.2214708  0.039903049   -3.8979072   0.67643639   421013 
 3067000   0.60877136   -3.8968814   -3.8968814   -3.2213049  0.043319249   -3.8968814   0.67557653   421013 
 3068000   0.61026219   -3.8986925   -3.8986925   -3.2214615  0.036252883   -3.8986925   0.67723096   421013 
 3069000   0.60948382   -3.8986483   -3.8986483   -3.2222811  0.034380925   -3.8986483   0.67636717   421013 
 3070000   0.61034032   -3.8992854   -3.8992854   -3.2219678  0.034153886   -3.8992854   0.67731767   421013 
 3071000   0.61027774   -3.8991121   -3.8991121   -3.2218639    0.0406603   -3.8991121   0.67724822   421013 
 3072000   0.61006638    -3.898855    -3.898855   -3.2218413  0.043855609    -3.898855   0.67701367   421013 
 3073000   0.60915741   -3.8985259   -3.8985259    -3.222521    0.0220295   -3.8985259   0.67600494   421013 
 3074000   0.60988658   -3.8993841   -3.8993841     -3.22257  0.030385846   -3.8993841   0.67681413   421013 
 3075000   0.61071559   -3.8996233   -3.8996233   -3.2218891  0.031091867   -3.8996233   0.67773411   421013 
 3076000   0.60950147   -3.8985404   -3.8985404   -3.2221537   0.04225522   -3.8985404   0.67638677   421013 
 3077000   0.60929046   -3.8993737   -3.8993737   -3.2232211    0.0397513   -3.8993737    0.6761526   421013 
 3078000   0.60896112   -3.8980612   -3.8980612   -3.2222741   0.04302303   -3.8980612   0.67578712   421013 
 3079000   0.60849187   -3.8982078   -3.8982078   -3.2229414  0.039924537   -3.8982078   0.67526637   421013 
 3080000   0.60945397   -3.8995137   -3.8995137   -3.2231796  0.036981073   -3.8995137   0.67633405   421013 
 3081000    0.6098667   -3.8985303   -3.8985303   -3.2217382   0.03067009   -3.8985303   0.67679208   421013 
 3082000   0.60901638   -3.8981807   -3.8981807   -3.2223323  0.034315624   -3.8981807   0.67584844   421013 
 3083000   0.61043396   -3.8985519   -3.8985519   -3.2211303  0.046508159   -3.8985519   0.67742158   421013 
 3084000   0.61069337   -3.8990797   -3.8990797   -3.2213703  0.039343125   -3.8990797   0.67770946   421013 
 3085000   0.61003208   -3.8991221   -3.8991221   -3.2221465  0.033983303   -3.8991221    0.6769756   421013 
 3086000   0.61004139   -3.8985809   -3.8985809    -3.221595  0.034357875   -3.8985809   0.67698593   421013 
 3087000      0.61043   -3.8986607   -3.8986607   -3.2212435  0.026575106   -3.8986607   0.67741719   421013 
 3088000    0.6105906   -3.8992126   -3.8992126   -3.2216172   0.03833395   -3.8992126   0.67759541   421013 
 3089000    0.6109399   -3.8997418   -3.8997418   -3.2217588  0.039369671   -3.8997418   0.67798304   421013 
 3090000    0.6096819   -3.8983502   -3.8983502   -3.2217632  0.039289224   -3.8983502   0.67658699   421013 
 3091000   0.60951748   -3.8989627   -3.8989627   -3.2225582  0.045748307   -3.8989627   0.67640453   421013 
 3092000   0.60926115   -3.8995008   -3.8995008   -3.2233807  0.028191605   -3.8995008   0.67612007   421013 
 3093000    0.6098572   -3.8999233   -3.8999233   -3.2231418  0.048264308   -3.8999233   0.67678153   421013 
 3094000   0.61110388   -3.9009543   -3.9009543   -3.2227892  0.039553648   -3.9009543   0.67816502   421013 
 3095000   0.61093384   -3.9008525   -3.9008525   -3.2228761  0.034794324   -3.9008525   0.67797632   421013 
 3096000   0.60985903   -3.8998633   -3.8998633   -3.2230798  0.034426864   -3.8998633   0.67678356   421013 
 3097000   0.61000147   -3.9000305   -3.9000305   -3.2230888  0.033100418   -3.9000305   0.67694163   421013 
 3098000    0.6105949   -3.9002146   -3.9002146   -3.2226144  0.042941456   -3.9002146   0.67760019   421013 
 3099000   0.60976072   -3.8995167   -3.8995167   -3.2228422  0.038333608   -3.8995167   0.67667446   421013 
 3100000   0.60943696   -3.8989186   -3.8989186   -3.2226034  0.017063481   -3.8989186   0.67631518   421013 
 3101000   0.61069431   -3.8999488   -3.8999488   -3.2222383  0.028304605   -3.8999488   0.67771051   421013 
 3102000   0.60999468   -3.8994649   -3.8994649   -3.2225308  0.037312789   -3.8994649    0.6769341   421013 
 3103000   0.61035407   -3.8988836   -3.8988836   -3.2215507  0.032750873   -3.8988836   0.67733292   421013 
 3104000   0.61081825   -3.8999126   -3.8999126   -3.2220646  0.038411654   -3.8999126   0.67784805   421013 
 3105000   0.60972763   -3.8993338   -3.8993338   -3.2226961  0.033657731   -3.8993338   0.67663774   421013 
 3106000   0.60944997     -3.89922     -3.89922   -3.2228904  0.045284076     -3.89922   0.67632961   421013 
 3107000   0.60899438   -3.8996297   -3.8996297   -3.2238057  0.040389317   -3.8996297   0.67582403   421013 
 3108000   0.60909918    -3.899768    -3.899768   -3.2238277  0.040473317    -3.899768   0.67594033   421013 
 3109000   0.60896802   -3.8991449   -3.8991449   -3.2233501  0.038700106   -3.8991449   0.67579477   421013 
 3110000   0.60963737   -3.8995874   -3.8995874   -3.2230498  0.019868736   -3.8995874   0.67653757   421013 
 3111000   0.61073185   -3.9006466   -3.9006466   -3.2228944  0.044939487   -3.9006466   0.67775216   421013 
 3112000   0.60982785   -3.9000288   -3.9000288   -3.2232799  0.033451054   -3.9000288   0.67674896   421013 
 3113000   0.61098594   -3.9008076   -3.9008076   -3.2227735  0.026988334   -3.9008076   0.67803414   421013 
 3114000   0.61187595   -3.9017264   -3.9017264   -3.2227046  0.024270392   -3.9017264   0.67902181   421013 
 3115000   0.60937348   -3.8989191   -3.8989191   -3.2226743   0.03558267   -3.8989191   0.67624473   421013 
 3116000   0.60997347   -3.8996974   -3.8996974   -3.2227868  0.037662911   -3.8996974   0.67691055   421013 
 3117000   0.60952151    -3.899737    -3.899737    -3.223328  0.038469432    -3.899737     0.676409   421013 
 3118000   0.60959766   -3.8988893   -3.8988893   -3.2223958  0.037035046   -3.8988893   0.67649351   421013 
 3119000   0.60996328   -3.8995811   -3.8995811   -3.2226819  0.027455601   -3.8995811   0.67689925   421013 
 3120000    0.6105763   -3.9007683   -3.9007683   -3.2231888  0.017175761   -3.9007683   0.67757954   421013 
 3121000   0.60926402   -3.8988975   -3.8988975   -3.2227743  0.034978325   -3.8988975   0.67612326   421013 
 3122000    0.6092014   -3.8988535   -3.8988535   -3.2227997  0.026392103   -3.8988535   0.67605376   421013 
 3123000   0.60960036    -3.900272    -3.900272   -3.2237755  0.037845939    -3.900272    0.6764965   421013 
 3124000   0.60985264   -3.9000831   -3.9000831   -3.2233067  0.026505454   -3.9000831   0.67677647   421013 
 3125000   0.61002282   -3.9005886   -3.9005886   -3.2236232  0.025454281   -3.9005886   0.67696532   421013 
 3126000   0.60926224   -3.9000999   -3.9000999   -3.2239786  0.032183345   -3.9000999   0.67612128   421013 
 3127000   0.61074379   -3.9012643   -3.9012643   -3.2234989  0.035335046   -3.9012643   0.67776542   421013 
 3128000    0.6086492   -3.8996608   -3.8996608   -3.2242199  0.031043468   -3.8996608   0.67544096   421013 
 3129000   0.60948571   -3.9006526   -3.9006526   -3.2242833  0.039092082   -3.9006526   0.67636927   421013 
 3130000   0.60841827   -3.9000592   -3.9000592   -3.2248746  0.035866475   -3.9000592   0.67518469   421013 
 3131000   0.60934443   -3.9013451   -3.9013451   -3.2251326  0.036523856   -3.9013451   0.67621249   421013 
 3132000   0.60996465   -3.9018349   -3.9018349   -3.2249341   0.02944407   -3.9018349   0.67690077   421013 
 3133000   0.61002192   -3.9021731   -3.9021731   -3.2252088    0.0314027   -3.9021731   0.67696432   421013 
 3134000   0.60832392   -3.9003801   -3.9003801   -3.2253001     0.028129   -3.9003801   0.67507999   421013 
 3135000   0.61009742   -3.9022514   -3.9022514   -3.2252033  0.027765603   -3.9022514   0.67704811   421013 
 3136000   0.60905053   -3.9011308   -3.9011308   -3.2252445  0.050717019   -3.9011308   0.67588633   421013 
 3137000   0.61020872   -3.9018569   -3.9018569   -3.2246853  0.036437089   -3.9018569   0.67717162   421013 
 3138000   0.60992749   -3.9019621   -3.9019621   -3.2251026  0.038441926   -3.9019621   0.67685954   421013 
 3139000   0.61045672   -3.9025231   -3.9025231   -3.2250763  0.034717571   -3.9025231   0.67744684   421013 
 3140000    0.6084542   -3.8999221   -3.8999221   -3.2246975  0.039917087   -3.8999221   0.67522456   421013 
 3141000   0.60833782   -3.9003526   -3.9003526   -3.2252572  0.032114384   -3.9003526   0.67509542   421013 
 3142000   0.60976755   -3.9015022   -3.9015022   -3.2248201  0.037214236   -3.9015022   0.67668204   421013 
 3143000   0.60852143   -3.8995995   -3.8995995   -3.2243003  0.031600563   -3.8995995   0.67529918   421013 
 3144000   0.60864101   -3.9008722   -3.9008722   -3.2254403  0.032948399   -3.9008722   0.67543187   421013 
 3145000   0.60883786   -3.9002794   -3.9002794   -3.2246291  0.033534845   -3.9002794   0.67565032   421013 
 3146000   0.60920626   -3.9007044   -3.9007044   -3.2246453  0.040540467   -3.9007044   0.67605916   421013 
 3147000    0.6109182   -3.9025429   -3.9025429    -3.224584  0.033438807   -3.9025429   0.67795896   421013 
 3148000   0.61074282    -3.902555    -3.902555   -3.2247907  0.022014024    -3.902555   0.67776433   421013 
 3149000   0.61153378   -3.9027726   -3.9027726   -3.2241305  0.035949108   -3.9027726   0.67864209   421013 
 3150000   0.61079087   -3.9015124   -3.9015124   -3.2236948  0.028770574   -3.9015124   0.67781766   421013 
 3151000   0.60952236   -3.9001279   -3.9001279    -3.223718  0.050508131   -3.9001279   0.67640994   421013 
 3152000   0.61132581    -3.902214    -3.902214   -3.2238027  0.036804015    -3.902214    0.6784113   421013 
 3153000   0.60988488   -3.8994608   -3.8994608   -3.2226486  0.031135626   -3.8994608   0.67681224   421013 
 3154000    0.6103913   -3.9006814   -3.9006814   -3.2233072  0.041972884   -3.9006814   0.67737424   421013 
 3155000   0.61022296   -3.9000454   -3.9000454   -3.2228579  0.037373774   -3.9000454   0.67718743   421013 
 3156000   0.60889308   -3.8991917   -3.8991917   -3.2234801  0.027963074   -3.8991917   0.67571161   421013 
 3157000   0.60910696   -3.8998508   -3.8998508   -3.2239018  0.026027471   -3.8998508   0.67594896   421013 
 3158000   0.60891236   -3.8996567   -3.8996567   -3.2239237  0.034004634   -3.8996567   0.67573301   421013 
 3159000   0.61105776   -3.9027979   -3.9027979   -3.2246841  0.030361385   -3.9027979   0.67811383   421013 
 3160000    0.6101345   -3.9017205   -3.9017205   -3.2246313  0.035443948   -3.9017205   0.67708926   421013 
 3161000   0.61031323   -3.9016003   -3.9016003   -3.2243127  0.043299118   -3.9016003    0.6772876   421013 
 3162000   0.60956271   -3.9001243   -3.9001243   -3.2236696  0.032985389   -3.9001243   0.67645472   421013 
 3163000   0.60966454   -3.9001848   -3.9001848   -3.2236171  0.048868154   -3.9001848   0.67656772   421013 
 3164000   0.61032582   -3.9004762   -3.9004762   -3.2231746  0.042693506   -3.9004762   0.67730157   421013 
 3165000   0.61010691   -3.9002877   -3.9002877   -3.2232291  0.034101298   -3.9002877   0.67705864   421013 
 3166000   0.61008938   -3.9009998   -3.9009998   -3.2239606   0.03739071   -3.9009998   0.67703919   421013 
 3167000   0.61053471   -3.9008136   -3.9008136   -3.2232802  0.047627371   -3.9008136   0.67753338   421013 
 3168000    0.6111808   -3.9019562   -3.9019562   -3.2237058  0.042067925   -3.9019562   0.67825037   421013 
 3169000   0.60892552   -3.8992363   -3.8992363   -3.2234887  0.036215249   -3.8992363   0.67574761   421013 
 3170000   0.61002303   -3.9019456   -3.9019456     -3.22498  0.025001052   -3.9019456   0.67696556   421013 
 3171000   0.60934897   -3.9009649   -3.9009649   -3.2247474  0.022986248   -3.9009649   0.67621752   421013 
 3172000     0.610579   -3.9028352   -3.9028352   -3.2252526   0.03409042   -3.9028352   0.67758254   421013 
 3173000    0.6092392   -3.9016665   -3.9016665   -3.2255708   0.03121478   -3.9016665   0.67609571   421013 
 3174000   0.60899455   -3.9019631   -3.9019631   -3.2261389  0.022754186   -3.9019631   0.67582421   421013 
 3175000   0.60914104   -3.9022878   -3.9022878    -3.226301  0.040146865   -3.9022878   0.67598677   421013 
 3176000   0.60967003   -3.9019407   -3.9019407   -3.2253669  0.043680929   -3.9019407   0.67657382   421013 
 3177000   0.60952666   -3.9015826   -3.9015826   -3.2251679  0.039451116   -3.9015826   0.67641472   421013 
 3178000   0.60851611   -3.9011599   -3.9011599   -3.2258666  0.028080771   -3.9011599   0.67529327   421013 
 3179000    0.6088674     -3.90128     -3.90128   -3.2255969   0.02552312     -3.90128   0.67568312   421013 
 3180000   0.60978888   -3.9023348   -3.9023348   -3.2256291  0.036907763   -3.9023348   0.67670571   421013 
 3181000   0.60922295   -3.9017837   -3.9017837    -3.225706  0.030417856   -3.9017837   0.67607768   421013 
 3182000   0.60908745   -3.9015649   -3.9015649   -3.2256376  0.032116023   -3.9015649   0.67592731   421013 
 3183000   0.60891337   -3.9013384   -3.9013384   -3.2256043  0.040678061   -3.9013384   0.67573412   421013 
 3184000   0.60954373   -3.9021397   -3.9021397   -3.2257061   0.02830243   -3.9021397   0.67643366   421013 
 3185000   0.60836029   -3.8998189   -3.8998189   -3.2246985  0.034040757   -3.8998189   0.67512035   421013 
 3186000    0.6099057   -3.9021726   -3.9021726   -3.2253373  0.045276293   -3.9021726   0.67683535   421013 
 3187000    0.6103985   -3.9025553   -3.9025553   -3.2251731  0.041801296   -3.9025553   0.67738223   421013 
 3188000   0.60952263   -3.9021316   -3.9021316   -3.2257214  0.042952477   -3.9021316   0.67641024   421013 
 3189000   0.60798902   -3.9010758   -3.9010758   -3.2263675   0.01762535   -3.9010758   0.67470834   421013 
 3190000   0.60887766   -3.9026467   -3.9026467   -3.2269522  0.021923122   -3.9026467   0.67569449   421013 
 3191000   0.60864462   -3.9023442   -3.9023442   -3.2269083   0.04317245   -3.9023442   0.67543589   421013 
 3192000   0.60904385    -3.902715    -3.902715   -3.2268361  0.034957529    -3.902715   0.67587892   421013 
 3193000   0.60896995   -3.9022117   -3.9022117   -3.2264147  0.032992802   -3.9022117   0.67579692   421013 
 3194000   0.60907406   -3.9027234   -3.9027234    -3.226811  0.036574954   -3.9027234   0.67591245   421013 
 3195000    0.6091592   -3.9024835   -3.9024835   -3.2264766   0.03900549   -3.9024835   0.67600693   421013 
 3196000   0.60872983   -3.9020987   -3.9020987   -3.2265683  0.025558297   -3.9020987   0.67553045   421013 
 3197000   0.60995394   -3.9035259   -3.9035259    -3.226637   0.03388373   -3.9035259   0.67688888   421013 
 3198000   0.61003055   -3.9034543   -3.9034543   -3.2264804  0.034504413   -3.9034543    0.6769739   421013 
 3199000   0.61021931   -3.9039188   -3.9039188   -3.2267354  0.030643855   -3.9039188   0.67718338   421013 
 3200000   0.60982966   -3.9040659   -3.9040659   -3.2273149  0.030453242   -3.9040659   0.67675097   421013 
 3201000   0.60832778   -3.9020379   -3.9020379   -3.2269536  0.037428349   -3.9020379   0.67508427   421013 
 3202000   0.60964753   -3.9034955   -3.9034955   -3.2269466   0.01867067   -3.9034955   0.67654885   421013 
 3203000   0.61005341   -3.9036092   -3.9036092   -3.2266099  0.024716141   -3.9036092   0.67699927   421013 
 3204000   0.61035671   -3.9042783   -3.9042783   -3.2269425  0.039053314   -3.9042783   0.67733586   421013 
 3205000   0.60902626   -3.9025785   -3.9025785   -3.2267191  0.026001719   -3.9025785    0.6758594   421013 
 3206000   0.61009188   -3.9033327   -3.9033327   -3.2262907  0.042315186   -3.9033327   0.67704196   421013 
 3207000   0.60890123   -3.9017783   -3.9017783   -3.2260576  0.040781826   -3.9017783   0.67572065   421013 
 3208000   0.61072333   -3.9032285   -3.9032285   -3.2254858  0.026893035   -3.9032285    0.6777427   421013 
 3209000   0.60998849   -3.9023485   -3.9023485   -3.2254213  0.036492603   -3.9023485   0.67692722   421013 
 3210000   0.60927181   -3.9023469   -3.9023469    -3.226215  0.024921564   -3.9023469    0.6761319   421013 
 3211000   0.60992298   -3.9036806   -3.9036806   -3.2268261  0.025731756   -3.9036806   0.67685453   421013 
 3212000   0.60931945   -3.9023535   -3.9023535   -3.2261688  0.034941329   -3.9023535   0.67618477   421013 
 3213000   0.60951576   -3.9028069   -3.9028069   -3.2264043  0.031311551   -3.9028069   0.67640262   421013 
 3214000    0.6092151   -3.9025912   -3.9025912   -3.2265222  0.030578778   -3.9025912   0.67606897   421013 
 3215000   0.60917378   -3.9029729   -3.9029729   -3.2269498  0.044256984   -3.9029729   0.67602311   421013 
 3216000   0.60924198   -3.9021218   -3.9021218    -3.226023  0.050758973   -3.9021218    0.6760988   421013 
 3217000   0.61048029    -3.903715    -3.903715    -3.226242  0.032039717    -3.903715     0.677473   421013 
 3218000   0.60938876   -3.9023645   -3.9023645   -3.2261028  0.041521657   -3.9023645   0.67626168   421013 
 3219000    0.6105299   -3.9040661   -3.9040661    -3.226538  0.038716089   -3.9040661   0.67752805   421013 
 3220000   0.61023455   -3.9038605   -3.9038605   -3.2266602   0.03616917   -3.9038605   0.67720029   421013 
 3221000   0.61030851   -3.9040387   -3.9040387   -3.2267563  0.046798071   -3.9040387   0.67728237   421013 
 3222000   0.60969298   -3.9040014   -3.9040014   -3.2274021  0.026301311   -3.9040014   0.67659929   421013 
 3223000   0.61008492    -3.904517    -3.904517   -3.2274828   0.03493243    -3.904517   0.67703424   421013 
 3224000   0.60947855   -3.9040084   -3.9040084   -3.2276471    0.0329704   -3.9040084   0.67636133   421013 
 3225000   0.60936165   -3.9042536   -3.9042536    -3.228022  0.030014886   -3.9042536   0.67623159   421013 
 3226000   0.60955307   -3.9048851   -3.9048851   -3.2284411  0.037881914   -3.9048851   0.67644403   421013 
 3227000   0.60969432   -3.9049501   -3.9049501   -3.2283493  0.034071429   -3.9049501   0.67660077   421013 
 3228000   0.60889812   -3.9041884   -3.9041884   -3.2284712   0.03646561   -3.9041884    0.6757172   421013 
 3229000   0.60991412   -3.9050978   -3.9050978   -3.2282531  0.042868977   -3.9050978    0.6768447   421013 
 3230000   0.61058185   -3.9057024   -3.9057024   -3.2281167  0.034329102   -3.9057024    0.6775857   421013 
 3231000   0.61113247   -3.9056306   -3.9056306   -3.2274338  0.025525523   -3.9056306   0.67819675   421013 
 3232000   0.61049863   -3.9048352   -3.9048352   -3.2273419  0.028830953   -3.9048352   0.67749335   421013 
 3233000   0.60854902   -3.9032707   -3.9032707   -3.2279409  0.036072332   -3.9032707    0.6753298   421013 
 3234000   0.60944344   -3.9052337   -3.9052337   -3.2289113  0.025091874   -3.9052337   0.67632237   421013 
 3235000   0.60965115   -3.9046861   -3.9046861   -3.2281333  0.045298766   -3.9046861   0.67655287   421013 
 3236000    0.6085401   -3.9027227   -3.9027227   -3.2274028  0.039239991   -3.9027227    0.6753199   421013 
 3237000   0.60820696    -3.902007    -3.902007   -3.2270568  0.028672235    -3.902007    0.6749502   421013 
 3238000    0.6099767   -3.9039177   -3.9039177   -3.2270036  0.022782198   -3.9039177   0.67691414   421013 
 3239000   0.61098752   -3.9047786   -3.9047786   -3.2267427  0.042388703   -3.9047786   0.67803589   421013 
 3240000   0.60827151   -3.9019909   -3.9019909   -3.2269691  0.020268956   -3.9019909   0.67502183   421013 
 3241000   0.60903277   -3.9022392   -3.9022392   -3.2263726  0.036760683   -3.9022392   0.67586663   421013 
 3242000   0.60817885   -3.9024012   -3.9024012   -3.2274822  0.035256162   -3.9024012     0.674919   421013 
 3243000   0.61006634   -3.9041151   -3.9041151   -3.2271015  0.034539055   -3.9041151   0.67701362   421013 
 3244000   0.60876985   -3.9021566   -3.9021566   -3.2265818  0.017533537   -3.9021566   0.67557485   421013 
 3245000    0.6089465   -3.9033474   -3.9033474   -3.2275765  0.025732491   -3.9033474    0.6757709   421013 
 3246000   0.60920232   -3.9031163   -3.9031163   -3.2270616   0.02663433   -3.9031163   0.67605478   421013 
 3247000   0.60956032   -3.9033787   -3.9033787   -3.2269266  0.039883216   -3.9033787   0.67645207   421013 
 3248000   0.60830533   -3.9025302   -3.9025302   -3.2274709   0.03213505   -3.9025302   0.67505936   421013 
 3249000   0.61030966   -3.9041224   -3.9041224   -3.2268387  0.026393207   -3.9041224   0.67728364   421013 
 3250000   0.60906323   -3.9025749   -3.9025749   -3.2266745   0.04383527   -3.9025749   0.67590043   421013 
 3251000   0.60902868   -3.9032001   -3.9032001    -3.227338  0.025719997   -3.9032001   0.67586209   421013 
 3252000    0.6096052   -3.9043312   -3.9043312   -3.2278293  0.031426018   -3.9043312   0.67650188   421013 
 3253000   0.60984071   -3.9039575   -3.9039575   -3.2271942  0.031928026   -3.9039575   0.67676323   421013 
 3254000   0.60957788   -3.9033324   -3.9033324   -3.2268608  0.031325123   -3.9033324   0.67647155   421013 
 3255000   0.60993797   -3.9037941   -3.9037941   -3.2269229  0.035993511   -3.9037941   0.67687117   421013 
 3256000   0.61022016   -3.9043739   -3.9043739   -3.2271896  0.041520922   -3.9043739   0.67718432   421013 
 3257000   0.60958829   -3.9035961   -3.9035961    -3.227113  0.036228315   -3.9035961    0.6764831   421013 
 3258000   0.60829435     -3.90213     -3.90213   -3.2270828  0.036358602     -3.90213   0.67504718   421013 
 3259000   0.61002048   -3.9046795   -3.9046795   -3.2277168  0.029861089   -3.9046795   0.67696273   421013 
 3260000   0.60802184   -3.9034147   -3.9034147   -3.2286699  0.027555526   -3.9034147   0.67474476   421013 
 3261000   0.60941695    -3.904681    -3.904681   -3.2283881  0.039569696    -3.904681   0.67629296   421013 
 3262000   0.60817592   -3.9030562   -3.9030562   -3.2281405  0.024871055   -3.9030562   0.67491575   421013 
 3263000   0.60922657   -3.9042666   -3.9042666   -3.2281849  0.017652321   -3.9042666    0.6760817   421013 
 3264000   0.60930779   -3.9041313   -3.9041313   -3.2279595  0.028002093   -3.9041313   0.67617183   421013 
 3265000   0.60784207   -3.9027523   -3.9027523   -3.2282071  0.031684202   -3.9027523   0.67454527   421013 
 3266000   0.60973638   -3.9042793   -3.9042793   -3.2276319  0.039556574   -3.9042793   0.67664745   421013 
 3267000   0.60998646    -3.904665    -3.904665   -3.2277401  0.027765377    -3.904665   0.67692497   421013 
 3268000   0.60855997   -3.9034071   -3.9034071   -3.2280652  0.027917032   -3.9034071   0.67534194   421013 
 3269000   0.60889079   -3.9037219   -3.9037219   -3.2280129  0.036010489   -3.9037219   0.67570907   421013 
 3270000     0.610087   -3.9049887   -3.9049887   -3.2279521  0.035877186   -3.9049887   0.67703654   421013 
 3271000   0.60967155   -3.9042293   -3.9042293   -3.2276538  0.037165942   -3.9042293    0.6765755   421013 
 3272000   0.60965626   -3.9043105   -3.9043105    -3.227752  0.035419341   -3.9043105   0.67655854   421013 
 3273000   0.61032347    -3.904757    -3.904757    -3.227458  0.034053835    -3.904757   0.67729897   421013 
 3274000   0.60871284   -3.9028151   -3.9028151   -3.2273035   0.03294867   -3.9028151    0.6755116   421013 
 3275000   0.61092934   -3.9051043   -3.9051043    -3.227133  0.045248508   -3.9051043   0.67797133   421013 
 3276000   0.60922392   -3.9027332   -3.9027332   -3.2266544  0.035956878   -3.9027332   0.67607876   421013 
 3277000   0.61097911   -3.9052991   -3.9052991   -3.2272725   0.01761986   -3.9052991   0.67802656   421013 
 3278000   0.60938792   -3.9033594   -3.9033594   -3.2270986  0.028269453   -3.9033594   0.67626075   421013 
 3279000   0.60976182   -3.9040438   -3.9040438   -3.2273682  0.037606974   -3.9040438   0.67667568   421013 
 3280000   0.61111684   -3.9056862   -3.9056862   -3.2275068  0.031389235   -3.9056862    0.6781794   421013 
 3281000   0.61119847   -3.9053543   -3.9053543   -3.2270843  0.011710215   -3.9053543   0.67826999   421013 
 3282000   0.60966411    -3.904564    -3.904564   -3.2279968    0.0433035    -3.904564   0.67656725   421013 
 3283000   0.60930635   -3.9050243   -3.9050243   -3.2288541  0.030899815   -3.9050243   0.67617023   421013 
 3284000   0.61005803   -3.9052274   -3.9052274    -3.228223  0.043347411   -3.9052274    0.6770044   421013 
 3285000   0.60946856   -3.9053157   -3.9053157   -3.2289655  0.043331353   -3.9053157   0.67635024   421013 
 3286000   0.60777247   -3.9030028   -3.9030028   -3.2285348  0.038009779   -3.9030028   0.67446803   421013 
 3287000   0.60819723   -3.9032873   -3.9032873   -3.2283479  0.039213606   -3.9032873    0.6749394   421013 
 3288000   0.60995025   -3.9055908   -3.9055908    -3.228706  0.030218228   -3.9055908    0.6768848   421013 
 3289000   0.60821919   -3.9035861   -3.9035861   -3.2286223  0.039123597   -3.9035861   0.67496377   421013 
 3290000   0.60863573   -3.9040189   -3.9040189   -3.2285928   0.03357902   -3.9040189   0.67542601   421013 
 3291000   0.60848391   -3.9038869   -3.9038869   -3.2286294  0.044693338   -3.9038869   0.67525754   421013 
 3292000   0.60913044   -3.9051651   -3.9051651   -3.2291901  0.035870046   -3.9051651   0.67597502   421013 
 3293000   0.60933121   -3.9061803   -3.9061803   -3.2299825  0.029134094   -3.9061803   0.67619782   421013 
 3294000   0.60970934   -3.9063004   -3.9063004   -3.2296829  0.038097696   -3.9063004   0.67661745   421013 
 3295000   0.60955513    -3.906315    -3.906315   -3.2298687  0.041185854    -3.906315   0.67644631   421013 
 3296000    0.6085878   -3.9059141   -3.9059141   -3.2305412   0.03719415   -3.9059141   0.67537282   421013 
 3297000   0.60913726   -3.9053244   -3.9053244   -3.2293418  0.040167321   -3.9053244   0.67598258   421013 
 3298000   0.60922843   -3.9054847   -3.9054847   -3.2294009  0.041088464   -3.9054847   0.67608376   421013 
 3299000   0.60893568   -3.9063536   -3.9063536   -3.2305948  0.034533407   -3.9063536   0.67575888   421013 
 3300000   0.60845107   -3.9056293   -3.9056293   -3.2304082  0.026532661   -3.9056293   0.67522109   421013 
 3301000   0.60914065   -3.9058599   -3.9058599   -3.2298736    0.0278604   -3.9058599   0.67598635   421013 
 3302000   0.60891703   -3.9054376   -3.9054376   -3.2296994  0.040700005   -3.9054376   0.67573818   421013 
 3303000   0.60745937   -3.9042003   -3.9042003   -3.2300798  0.044980261   -3.9042003   0.67412057   421013 
 3304000   0.60839341   -3.9050811   -3.9050811    -3.229924  0.041626761   -3.9050811   0.67515711   421013 
 3305000   0.61056142   -3.9074497   -3.9074497   -3.2298867   0.01857201   -3.9074497   0.67756303   421013 
 3306000   0.61081595   -3.9079441   -3.9079441   -3.2300986  0.037661005   -3.9079441   0.67784549   421013 
 3307000   0.60998362   -3.9071163   -3.9071163   -3.2301945  0.038458681   -3.9071163   0.67692183   421013 
 3308000   0.60872482   -3.9058018   -3.9058018   -3.2302769   0.02147885   -3.9058018   0.67552488   421013 
 3309000   0.60838419   -3.9053325   -3.9053325   -3.2301857  0.029078771   -3.9053325   0.67514687   421013 
 3310000   0.60911204   -3.9063929   -3.9063929   -3.2304383  0.027390947   -3.9063929    0.6759546   421013 
 3311000   0.60982934   -3.9069853   -3.9069853   -3.2302347  0.041363719   -3.9069853   0.67675061   421013 
 3312000   0.60935463   -3.9061448   -3.9061448    -3.229921  0.037446779   -3.9061448   0.67622381   421013 
 3313000   0.60793231   -3.9049085   -3.9049085   -3.2302631  0.034170902   -3.9049085   0.67464541   421013 
 3314000   0.60915975   -3.9063708   -3.9063708   -3.2303632  0.031022609   -3.9063708   0.67600754   421013 
 3315000   0.60976174     -3.90664     -3.90664   -3.2299644  0.027840846     -3.90664   0.67667559   421013 
 3316000   0.60742383    -3.903815    -3.903815   -3.2297339  0.025119474    -3.903815   0.67408113   421013 
 3317000   0.60853313   -3.9052072   -3.9052072    -3.229895  0.019802689   -3.9052072   0.67531215   421013 
 3318000   0.60956783   -3.9058666   -3.9058666   -3.2294062   0.05277628   -3.9058666    0.6764604   421013 
 3319000   0.60805071   -3.9041789   -3.9041789   -3.2294021  0.028028716   -3.9041789    0.6747768   421013 
 3320000   0.60972265   -3.9060431   -3.9060431   -3.2294109  0.046711041   -3.9060431   0.67663221   421013 
 3321000   0.60916103   -3.9062628   -3.9062628   -3.2302539  0.027680018   -3.9062628   0.67600896   421013 
 3322000   0.60923151   -3.9065185   -3.9065185   -3.2304314   0.04031751   -3.9065185   0.67608718   421013 
 3323000   0.60787377    -3.904919    -3.904919   -3.2303386  0.029625414    -3.904919   0.67458044   421013 
 3324000   0.60974119   -3.9067548   -3.9067548    -3.230102  0.042928634   -3.9067548   0.67665279   421013 
 3325000   0.60912262   -3.9061855   -3.9061855   -3.2302192  0.024143356   -3.9061855   0.67596633   421013 
 3326000   0.60921858   -3.9052235   -3.9052235   -3.2291507  0.032164234   -3.9052235   0.67607283   421013 
 3327000   0.60935119   -3.9058044   -3.9058044   -3.2295845  0.030503368   -3.9058044   0.67621999   421013 
 3328000    0.6096702   -3.9056492   -3.9056492   -3.2290752  0.039929226   -3.9056492   0.67657401   421013 
 3329000    0.6102634   -3.9072024   -3.9072024   -3.2299701  0.043732635   -3.9072024   0.67723231   421013 
 3330000   0.60944575    -3.906691    -3.906691   -3.2303661  0.017319063    -3.906691   0.67632493   421013 
 3331000   0.60966066   -3.9072415   -3.9072415    -3.230678   0.03165573   -3.9072415   0.67656342   421013 
 3332000   0.60951323   -3.9073557   -3.9073557   -3.2309559  0.040196693   -3.9073557   0.67639982   421013 
 3333000   0.60735722   -3.9042946   -3.9042946   -3.2302874   0.04690156   -3.9042946    0.6740072   421013 
 3334000   0.60816388   -3.9058538   -3.9058538   -3.2309514  0.037105499   -3.9058538   0.67490239   421013 
 3335000   0.60947375   -3.9070369   -3.9070369   -3.2306809  0.034771179   -3.9070369     0.676356   421013 
 3336000   0.60811287   -3.9058317   -3.9058317   -3.2309859  0.026243687   -3.9058317   0.67484579   421013 
 3337000   0.60802593   -3.9048518   -3.9048518   -3.2301025  0.031920423   -3.9048518    0.6747493   421013 
 3338000   0.60890679   -3.9059673   -3.9059673   -3.2302404  0.033612654   -3.9059673   0.67572683   421013 
 3339000   0.60905966   -3.9060761   -3.9060761   -3.2301796  0.033625078   -3.9060761   0.67589647   421013 
 3340000   0.60812684   -3.9056154   -3.9056154   -3.2307541  0.042735552   -3.9056154   0.67486128   421013 
 3341000   0.61033543   -3.9072987   -3.9072987   -3.2299865  0.040269675   -3.9072987   0.67731224   421013 
 3342000   0.60852248   -3.9063018   -3.9063018   -3.2310014  0.026774212   -3.9063018   0.67530034   421013 
 3343000   0.60808484   -3.9061097   -3.9061097   -3.2312951  0.027930646   -3.9061097   0.67481468   421013 
 3344000   0.60937399    -3.907954    -3.907954   -3.2317087  0.040029572    -3.907954    0.6762453   421013 
 3345000   0.60977729   -3.9083927   -3.9083927   -3.2316998   0.03929145   -3.9083927   0.67669285   421013 
 3346000   0.60734465   -3.9060829   -3.9060829   -3.2320896  0.032777364   -3.9060829   0.67399326   421013 
 3347000   0.60892696    -3.907559    -3.907559   -3.2318098  0.038162809    -3.907559   0.67574921   421013 
 3348000   0.60996101   -3.9088286   -3.9088286   -3.2319319  0.041175992   -3.9088286   0.67689673   421013 
 3349000   0.60876292   -3.9071969   -3.9071969   -3.2316298  0.027449227   -3.9071969   0.67556717   421013 
 3350000   0.60792637   -3.9066152   -3.9066152   -3.2319764  0.029995184   -3.9066152   0.67463881   421013 
 3351000   0.60895747   -3.9075105   -3.9075105   -3.2317274  0.026554874   -3.9075105   0.67578306   421013 
 3352000   0.60841826   -3.9058988   -3.9058988   -3.2307142  0.049881792   -3.9058988   0.67518468   421013 
 3353000   0.60896621   -3.9059536   -3.9059536   -3.2301609  0.038060863   -3.9059536   0.67579276   421013 
 3354000   0.60783957   -3.9054902   -3.9054902   -3.2309477  0.035024676   -3.9054902   0.67454249   421013 
 3355000   0.60846294   -3.9069637   -3.9069637   -3.2317294  0.021915514   -3.9069637   0.67523427   421013 
 3356000   0.60842953   -3.9069776   -3.9069776   -3.2317804  0.039514359   -3.9069776   0.67519719   421013 
 3357000   0.60873688    -3.907181    -3.907181   -3.2316427   0.03517278    -3.907181   0.67553827   421013 
 3358000   0.60920346   -3.9079337   -3.9079337   -3.2318776  0.030117824   -3.9079337   0.67605605   421013 
 3359000   0.60927697   -3.9083598   -3.9083598   -3.2322222  0.038004344   -3.9083598   0.67613763   421013 
 3360000   0.60714515   -3.9062567   -3.9062567   -3.2324848    0.0373199   -3.9062567   0.67377186   421013 
 3361000   0.60788097     -3.90651     -3.90651   -3.2319215   0.03675668     -3.90651   0.67458843   421013 
 3362000   0.60859299   -3.9076891   -3.9076891   -3.2323105  0.026915173   -3.9076891   0.67537859   421013 
 3363000   0.60820987   -3.9070861   -3.9070861   -3.2321327    0.0315873   -3.9070861   0.67495342   421013 
 3364000   0.61005304   -3.9091745   -3.9091745   -3.2321756  0.027177059   -3.9091745   0.67699887   421013 
 3365000    0.6087275   -3.9077135   -3.9077135   -3.2321856  0.021859072   -3.9077135   0.67552786   421013 
 3366000   0.61004279    -3.908173    -3.908173   -3.2311855  0.029844425    -3.908173   0.67698749   421013 
 3367000   0.60769864   -3.9062044   -3.9062044   -3.2318183  0.038246944   -3.9062044    0.6743861   421013 
 3368000    0.6079528   -3.9070763   -3.9070763   -3.2324082  0.034174171   -3.9070763   0.67466815   421013 
 3369000   0.60755943    -3.906682    -3.906682   -3.2324504  0.037099694    -3.906682   0.67423161   421013 
 3370000   0.60841729   -3.9078024   -3.9078024   -3.2326188  0.020571278   -3.9078024    0.6751836   421013 
 3371000   0.60716025   -3.9073356   -3.9073356    -3.233547  0.030889134   -3.9073356   0.67378862   421013 
 3372000   0.60852741    -3.908463    -3.908463   -3.2331572  0.045853415    -3.908463   0.67530581   421013 
 3373000   0.60844228   -3.9083286   -3.9083286   -3.2331173  0.025037536   -3.9083286   0.67521134   421013 
 3374000   0.60975759   -3.9104256   -3.9104256   -3.2337546  0.047101875   -3.9104256   0.67667098   421013 
 3375000   0.60735035   -3.9074054   -3.9074054   -3.2334058  0.034748488   -3.9074054   0.67399958   421013 
 3376000   0.60866247    -3.908247    -3.908247   -3.2327913  0.023922489    -3.908247   0.67545569   421013 
 3377000   0.60914298   -3.9089085   -3.9089085   -3.2329196  0.023528398   -3.9089085   0.67598894   421013 
 3378000   0.60854342   -3.9080638   -3.9080638   -3.2327402  0.038457765   -3.9080638   0.67532357   421013 
 3379000   0.60873473   -3.9085525   -3.9085525   -3.2330166  0.036118683   -3.9085525   0.67553588   421013 
 3380000   0.60711403   -3.9076384   -3.9076384   -3.2339011  0.035724013   -3.9076384   0.67373733   421013 
 3381000   0.61013663   -3.9109411   -3.9109411   -3.2338495  0.035803643   -3.9109411   0.67709162   421013 
 3382000   0.60938313   -3.9096215   -3.9096215   -3.2333661   0.03151596   -3.9096215   0.67625543   421013 
 3383000   0.60911244   -3.9097179   -3.9097179   -3.2337629  0.029605586   -3.9097179   0.67595504   421013 
 3384000   0.60855155   -3.9096808   -3.9096808   -3.2343483  0.025698713   -3.9096808    0.6753326   421013 
 3385000   0.60717172   -3.9083039   -3.9083039   -3.2345026  0.036636326   -3.9083039   0.67380135   421013 
 3386000   0.60806384    -3.908741    -3.908741   -3.2339496  0.046564697    -3.908741   0.67479136   421013 
 3387000   0.60839009   -3.9098903   -3.9098903   -3.2347369  0.029889001   -3.9098903   0.67515342   421013 
 3388000   0.60739114   -3.9089146   -3.9089146   -3.2348698  0.031732574   -3.9089146   0.67404485   421013 
 3389000   0.60732533   -3.9091682   -3.9091682   -3.2351964  0.026011983   -3.9091682   0.67397182   421013 
 3390000   0.60823486   -3.9103034   -3.9103034   -3.2353223  0.025505734   -3.9103034   0.67498116   421013 
 3391000   0.60866199   -3.9106205   -3.9106205   -3.2351654   0.02838146   -3.9106205   0.67545515   421013 
 3392000    0.6082555   -3.9100027   -3.9100027   -3.2349986  0.035880722   -3.9100027   0.67500406   421013 
 3393000   0.60877719   -3.9110465   -3.9110465   -3.2354635  0.043661724   -3.9110465     0.675583   421013 
 3394000   0.60951443   -3.9114738   -3.9114738   -3.2350727  0.026443319   -3.9114738   0.67640115   421013 
 3395000   0.60859366   -3.9112621   -3.9112621   -3.2358828  0.037594723   -3.9112621   0.67537933   421013 
 3396000   0.60682186   -3.9088201   -3.9088201    -3.235407  0.034150004   -3.9088201    0.6734131   421013 
 3397000   0.60704286   -3.9087768   -3.9087768   -3.2351185  0.037304611   -3.9087768   0.67365835   421013 
 3398000   0.60718645   -3.9088729   -3.9088729   -3.2350552  0.030793834   -3.9088729    0.6738177   421013 
 3399000   0.60822831   -3.9107669   -3.9107669    -3.235793  0.033667027   -3.9107669   0.67497389   421013 
 3400000   0.60680884   -3.9091885   -3.9091885   -3.2357898  0.043683712   -3.9091885   0.67339865   421013 
 3401000    0.6076175   -3.9102578   -3.9102578   -3.2359617  0.044432641   -3.9102578   0.67429605   421013 
 3402000   0.60741997   -3.9100814   -3.9100814   -3.2360045  0.027353969   -3.9100814   0.67407684   421013 
 3403000   0.60925923   -3.9122356   -3.9122356   -3.2361177  0.044703129   -3.9122356   0.67611793   421013 
 3404000   0.60774754   -3.9103157   -3.9103157   -3.2358753  0.044590105   -3.9103157   0.67444036   421013 
 3405000   0.60807133   -3.9108381   -3.9108381   -3.2360384  0.038527889   -3.9108381   0.67479969   421013 
 3406000   0.60907385   -3.9119824   -3.9119824   -3.2360701  0.022457013   -3.9119824   0.67591222   421013 
 3407000   0.60767141   -3.9102267   -3.9102267   -3.2358709  0.029361394   -3.9102267   0.67435588   421013 
 3408000    0.6080668   -3.9110656   -3.9110656   -3.2362709  0.015555266   -3.9110656   0.67479466   421013 
 3409000   0.60683561   -3.9104143   -3.9104143    -3.236986  0.037101446   -3.9104143   0.67342836   421013 
 3410000   0.60770275   -3.9099287   -3.9099287    -3.235538  0.041090532   -3.9099287   0.67439066   421013 
 3411000   0.60725939   -3.9095899   -3.9095899   -3.2356913  0.038021877   -3.9095899   0.67389865   421013 
 3412000   0.60910576   -3.9114119   -3.9114119   -3.2354643  0.044055541   -3.9114119   0.67594762   421013 
 3413000   0.60743775   -3.9095441   -3.9095441   -3.2354476  0.035567247   -3.9095441   0.67409658   421013 
 3414000   0.60862844   -3.9110176   -3.9110176   -3.2355996  0.032852657   -3.9110176   0.67541793   421013 
 3415000   0.60703403   -3.9088378   -3.9088378   -3.2351893  0.034182329   -3.9088378   0.67364855   421013 
 3416000    0.6086619   -3.9101587   -3.9101587   -3.2347036  0.028000345   -3.9101587   0.67545506   421013 
 3417000   0.60805923   -3.9101704   -3.9101704   -3.2353842  0.041861348   -3.9101704   0.67478625   421013 
 3418000   0.60705693   -3.9092743   -3.9092743   -3.2356003  0.019793171   -3.9092743   0.67367396   421013 
 3419000   0.60680603   -3.9093182   -3.9093182   -3.2359227   0.02957217   -3.9093182   0.67339554   421013 
 3420000   0.60800673   -3.9103836   -3.9103836   -3.2356556  0.023588685   -3.9103836   0.67472799   421013 
 3421000   0.60780426   -3.9097672   -3.9097672   -3.2352639  0.038685644   -3.9097672   0.67450331   421013 
 3422000   0.60825898   -3.9109442   -3.9109442   -3.2359363  0.044435364   -3.9109442   0.67500792   421013 
 3423000   0.60784054   -3.9104354   -3.9104354   -3.2358919  0.023528184   -3.9104354   0.67454356   421013 
 3424000   0.60746636   -3.9089012   -3.9089012   -3.2347729  0.028835259   -3.9089012   0.67412832   421013 
 3425000   0.60790837   -3.9097634   -3.9097634   -3.2351446  0.032780238   -3.9097634   0.67461884   421013 
 3426000   0.60738715   -3.9097858   -3.9097858   -3.2357453  0.041530688   -3.9097858   0.67404042   421013 
 3427000   0.60765998     -3.91003     -3.91003   -3.2356868  0.022388889     -3.91003   0.67434319   421013 
 3428000   0.60930413   -3.9111598   -3.9111598    -3.234992  0.026372266   -3.9111598   0.67616777   421013 
 3429000   0.60953066   -3.9115504   -3.9115504   -3.2351312  0.024285353   -3.9115504   0.67641916   421013 
 3430000   0.60656761   -3.9082778   -3.9082778   -3.2351468  0.031433978   -3.9082778   0.67313095   421013 
 3431000   0.60903656   -3.9105204   -3.9105204   -3.2346495  0.034034517   -3.9105204   0.67587083   421013 
 3432000   0.60934012   -3.9107028   -3.9107028   -3.2344951  0.039612475   -3.9107028    0.6762077   421013 
 3433000   0.60904445   -3.9107203   -3.9107203   -3.2348407  0.032718153   -3.9107203   0.67587959   421013 
 3434000   0.60941936   -3.9111673   -3.9111673   -3.2348717  0.030635762   -3.9111673   0.67629564   421013 
 3435000   0.60779553     -3.90946     -3.90946   -3.2349664  0.029539774     -3.90946   0.67449362   421013 
 3436000   0.60833447   -3.9109241   -3.9109241   -3.2358324  0.045002242   -3.9109241    0.6750917   421013 
 3437000   0.60801355   -3.9104535   -3.9104535   -3.2357179  0.044527503   -3.9104535   0.67473556   421013 
 3438000   0.60905162   -3.9115077   -3.9115077   -3.2356201  0.041912019   -3.9115077   0.67588755   421013 
 3439000   0.60757402    -3.910163    -3.910163   -3.2359152  0.034601777    -3.910163   0.67424779   421013 
 3440000   0.60943207   -3.9110989   -3.9110989   -3.2347891  0.038436578   -3.9110989   0.67630975   421013 
 3441000   0.60841477   -3.9101491   -3.9101491   -3.2349683   0.02675586   -3.9101491   0.67518081   421013 
 3442000   0.60790328   -3.9107593   -3.9107593   -3.2361462  0.025089677   -3.9107593   0.67461319   421013 
 3443000   0.60717345   -3.9106983   -3.9106983    -3.236895  0.027858009   -3.9106983   0.67380327   421013 
 3444000   0.60823047   -3.9111611   -3.9111611   -3.2361848  0.039089596   -3.9111611   0.67497629   421013 
 3445000   0.60906553    -3.912197    -3.912197    -3.236294  0.031516084    -3.912197   0.67590298   421013 
 3446000   0.60894094   -3.9119924   -3.9119924   -3.2362277  0.037017121   -3.9119924   0.67576472   421013 
 3447000   0.60927582   -3.9127241   -3.9127241   -3.2365878  0.038295051   -3.9127241   0.67613635   421013 
 3448000   0.60814901    -3.911219    -3.911219   -3.2363331  0.039868775    -3.911219   0.67488589   421013 
 3449000   0.60782664   -3.9111738   -3.9111738   -3.2366457  0.028998905   -3.9111738   0.67452814   421013 
 3450000   0.60822612   -3.9111349   -3.9111349   -3.2361634   0.04294046   -3.9111349   0.67497146   421013 
 3451000   0.60914411   -3.9115818   -3.9115818   -3.2355916  0.032306318   -3.9115818   0.67599018   421013 
 3452000   0.60799716   -3.9107667   -3.9107667   -3.2360493  0.036339366   -3.9107667   0.67471738   421013 
 3453000   0.60832058   -3.9114189   -3.9114189   -3.2363426  0.036473665   -3.9114189   0.67507628   421013 
 3454000   0.60739974   -3.9110564   -3.9110564    -3.237002  0.033069597   -3.9110564    0.6740544   421013 
 3455000   0.60751681   -3.9109072   -3.9109072   -3.2367229  0.037958098   -3.9109072   0.67418431   421013 
 3456000    0.6069693   -3.9106173   -3.9106173   -3.2370406  0.023348499   -3.9106173   0.67357671   421013 
 3457000   0.60701923   -3.9100619   -3.9100619   -3.2364298  0.031886323   -3.9100619   0.67363212   421013 
 3458000   0.60836092   -3.9110913   -3.9110913   -3.2359702  0.035085999   -3.9110913   0.67512105   421013 
 3459000   0.60858973   -3.9110077   -3.9110077   -3.2356328  0.038165129   -3.9110077   0.67537497   421013 
 3460000   0.60724111   -3.9097215   -3.9097215   -3.2358432  0.040823307   -3.9097215   0.67387836   421013 
 3461000    0.6082377   -3.9106042   -3.9106042   -3.2356199  0.039142018   -3.9106042   0.67498431   421013 
 3462000    0.6063699   -3.9097154   -3.9097154   -3.2368039  0.037037497   -3.9097154   0.67291154   421013 
 3463000   0.60811663   -3.9116721   -3.9116721   -3.2368221  0.024530204   -3.9116721   0.67484995   421013 
 3464000   0.60749729   -3.9112351   -3.9112351   -3.2370724  0.024555954   -3.9112351   0.67416264   421013 
 3465000   0.60715451   -3.9111413   -3.9111413    -3.237359  0.033756544   -3.9111413   0.67378225   421013 
 3466000   0.60769228   -3.9120491   -3.9120491   -3.2376701  0.034572302   -3.9120491   0.67437904   421013 
 3467000   0.60645843   -3.9103399   -3.9103399   -3.2373301  0.028480736   -3.9103399   0.67300978   421013 
 3468000   0.60705697   -3.9106659   -3.9106659   -3.2369919  0.030836941   -3.9106659   0.67367401   421013 
 3469000   0.60730353   -3.9114728   -3.9114728   -3.2375251  0.030913003   -3.9114728   0.67394763   421013 
 3470000     0.606951   -3.9099732   -3.9099732   -3.2364168  0.027560299   -3.9099732   0.67355641   421013 
 3471000   0.60796012   -3.9107081   -3.9107081   -3.2360318  0.027709657   -3.9107081   0.67467627   421013 
 3472000   0.60603716   -3.9091029   -3.9091029   -3.2365607  0.029571841   -3.9091029   0.67254228   421013 
 3473000   0.60738647   -3.9106117   -3.9106117   -3.2365721  0.039048052   -3.9106117   0.67403967   421013 
 3474000   0.60671711    -3.910548    -3.910548   -3.2372512  0.040104744    -3.910548   0.67329686   421013 
 3475000   0.60683614    -3.910676    -3.910676   -3.2372471  0.041809752    -3.910676   0.67342895   421013 
 3476000   0.60670675   -3.9111429   -3.9111429   -3.2378575  0.027906859   -3.9111429   0.67328535   421013 
 3477000   0.60795727   -3.9123467   -3.9123467   -3.2376736  0.032311629   -3.9123467    0.6746731   421013 
 3478000   0.60780621   -3.9123077   -3.9123077   -3.2378022  0.027826642   -3.9123077   0.67450546   421013 
 3479000   0.60650694   -3.9106469   -3.9106469   -3.2375833  0.037175445   -3.9106469   0.67306362   421013 
 3480000   0.60806795   -3.9119268   -3.9119268   -3.2371309  0.039759469   -3.9119268   0.67479593   421013 
 3481000   0.60664373   -3.9107035   -3.9107035   -3.2374881  0.024974815   -3.9107035   0.67321542   421013 
 3482000   0.60730401   -3.9115176   -3.9115176   -3.2375694  0.039798538   -3.9115176   0.67394816   421013 
 3483000   0.60794194   -3.9124538   -3.9124538   -3.2377977  0.034517327   -3.9124538    0.6746561   421013 
 3484000   0.60732262   -3.9116472   -3.9116472   -3.2376784  0.044388181   -3.9116472   0.67396881   421013 
 3485000   0.60785247   -3.9120207   -3.9120207   -3.2374639  0.040352585   -3.9120207    0.6745568   421013 
 3486000   0.60735144   -3.9116907   -3.9116907   -3.2376899  0.041484424   -3.9116907   0.67400079   421013 
 3487000    0.6076461   -3.9110568   -3.9110568    -3.236729  0.028397606   -3.9110568   0.67432779   421013 
 3488000   0.60777537   -3.9114889   -3.9114889   -3.2370176    0.0358719   -3.9114889   0.67447124   421013 
 3489000   0.60804732   -3.9114947   -3.9114947   -3.2367216   0.02592836   -3.9114947   0.67477304   421013 
 3490000   0.60672716   -3.9102415   -3.9102415   -3.2369335  0.028284176   -3.9102415     0.673308   421013 
 3491000   0.60858103   -3.9124688   -3.9124688   -3.2371035  0.038134467   -3.9124688   0.67536531   421013 
 3492000   0.60626995   -3.9091043   -3.9091043   -3.2363037  0.029106698   -3.9091043   0.67280062   421013 
 3493000   0.60667883   -3.9097647   -3.9097647   -3.2365104  0.013521652   -3.9097647   0.67325438   421013 
 3494000   0.60719323   -3.9104055   -3.9104055   -3.2365803  0.029736291   -3.9104055   0.67382523   421013 
 3495000   0.60809259   -3.9112239   -3.9112239   -3.2364007  0.046109345   -3.9112239   0.67482328   421013 
 3496000   0.60773826   -3.9102907   -3.9102907   -3.2358607  0.028573592   -3.9102907   0.67443006   421013 
 3497000   0.60714137   -3.9098903   -3.9098903   -3.2361227  0.032486609   -3.9098903   0.67376767   421013 
 3498000   0.60753669   -3.9099118   -3.9099118   -3.2357054  0.040570219   -3.9099118   0.67420637   421013 
 3499000   0.60779889   -3.9098754   -3.9098754    -3.235378  0.032133075   -3.9098754   0.67449735   421013 
 3500000   0.60799616   -3.9099428   -3.9099428   -3.2352266  0.024901055   -3.9099428   0.67471627   421013 
 3501000   0.60685031   -3.9088138   -3.9088138   -3.2353691  0.031278299   -3.9088138   0.67344467   421013 
 3502000   0.60723003    -3.909898    -3.909898   -3.2360319  0.030571045    -3.909898   0.67386606   421013 
 3503000   0.60704025   -3.9097186   -3.9097186   -3.2360632  0.027080837   -3.9097186   0.67365546   421013 
 3504000   0.60651712   -3.9093253   -3.9093253   -3.2362503  0.036375616   -3.9093253   0.67307492   421013 
 3505000   0.60671572   -3.9100293   -3.9100293   -3.2367339  0.035277747   -3.9100293   0.67329532   421013 
 3506000   0.60814276   -3.9116733   -3.9116733   -3.2367943  0.039638916   -3.9116733   0.67487895   421013 
 3507000   0.60693828   -3.9101615   -3.9101615   -3.2366193  0.027544806   -3.9101615   0.67354229   421013 
 3508000    0.6066527   -3.9102489   -3.9102489   -3.2370235  0.035911221   -3.9102489   0.67322537   421013 
 3509000   0.60701789   -3.9110843   -3.9110843   -3.2374536  0.039421451   -3.9110843   0.67363064   421013 
 3510000   0.60794134   -3.9124374   -3.9124374   -3.2377819   0.03882406   -3.9124374   0.67465542   421013 
 3511000   0.60815158   -3.9119512   -3.9119512   -3.2370624  0.047950578   -3.9119512   0.67488874   421013 
 3512000   0.60784695   -3.9112931   -3.9112931   -3.2367425  0.035254437   -3.9112931   0.67455068   421013 
 3513000   0.60783348   -3.9111814   -3.9111814   -3.2366456  0.044549684   -3.9111814   0.67453573   421013 
 3514000   0.60794218   -3.9111818   -3.9111818   -3.2365255   0.02674306   -3.9111818   0.67465636   421013 
 3515000   0.60783255   -3.9112194   -3.9112194   -3.2366847  0.035777454   -3.9112194    0.6745347   421013 
 3516000   0.60798792   -3.9116872   -3.9116872     -3.23698   0.03210664   -3.9116872   0.67470712   421013 
 3517000   0.60659739   -3.9098849   -3.9098849   -3.2367209   0.03947674   -3.9098849   0.67316399   421013 
 3518000   0.60790261    -3.911555    -3.911555   -3.2369426  0.038938964    -3.911555   0.67461244   421013 
 3519000   0.60862579   -3.9115894   -3.9115894   -3.2361745   0.02664839   -3.9115894   0.67541499   421013 
 3520000   0.60747645    -3.911989    -3.911989   -3.2378495  0.043312226    -3.911989   0.67413952   421013 
 3521000   0.60728402   -3.9104366   -3.9104366   -3.2365106  0.034134608   -3.9104366   0.67392597   421013 
 3522000   0.60829448   -3.9114854   -3.9114854   -3.2364381  0.026378257   -3.9114854   0.67504732   421013 
 3523000   0.60718514   -3.9112117   -3.9112117   -3.2373954  0.023526218   -3.9112117   0.67381624   421013 
 3524000   0.60840139   -3.9126885   -3.9126885   -3.2375226     0.026946   -3.9126885   0.67516596   421013 
 3525000   0.60743607   -3.9118413   -3.9118413   -3.2377466  0.027899183   -3.9118413   0.67409471   421013 
 3526000   0.60935711   -3.9140757   -3.9140757   -3.2378491  0.023423016   -3.9140757   0.67622656   421013 
 3527000   0.60784192   -3.9125781   -3.9125781    -3.238033  0.027620458   -3.9125781    0.6745451   421013 
 3528000   0.60660386   -3.9119671   -3.9119671   -3.2387959  0.029065547   -3.9119671   0.67317117   421013 
 3529000   0.60746177   -3.9125014   -3.9125014   -3.2383781  0.034897694   -3.9125014   0.67412323   421013 
 3530000   0.60659504   -3.9122656   -3.9122656   -3.2391042  0.025765475   -3.9122656   0.67316139   421013 
 3531000   0.60698502   -3.9133084   -3.9133084   -3.2397142   0.03367219   -3.9133084   0.67359416   421013 
 3532000   0.60782755   -3.9145612   -3.9145612   -3.2400321  0.036326334   -3.9145612   0.67452915   421013 
 3533000   0.60784219   -3.9144241   -3.9144241   -3.2398787  0.035130314   -3.9144241    0.6745454   421013 
 3534000   0.60903425   -3.9150555   -3.9150555   -3.2391872  0.038883322   -3.9150555   0.67586827   421013 
 3535000   0.60815283   -3.9143278   -3.9143278   -3.2394377  0.027803495   -3.9143278   0.67489012   421013 
 3536000   0.60659566   -3.9127844   -3.9127844   -3.2396224  0.035948043   -3.9127844   0.67316207   421013 
 3537000    0.6086182   -3.9148567   -3.9148567   -3.2394501  0.039003349   -3.9148567   0.67540656   421013 
 3538000   0.60730048   -3.9127069   -3.9127069   -3.2387626   0.04065941   -3.9127069   0.67394424   421013 
 3539000   0.60752131   -3.9138194   -3.9138194     -3.23963  0.042226905   -3.9138194   0.67418931   421013 
 3540000   0.60772465   -3.9135137   -3.9135137   -3.2390988  0.036108821   -3.9135137   0.67441496   421013 
 3541000   0.60817262   -3.9151436   -3.9151436   -3.2402315  0.041817628   -3.9151436   0.67491209   421013 
 3542000   0.60766062    -3.914492    -3.914492   -3.2401481  0.022385286    -3.914492    0.6743439   421013 
 3543000   0.60653694   -3.9134254   -3.9134254   -3.2403284  0.031976138   -3.9134254   0.67309691   421013 
 3544000   0.60639098   -3.9137788   -3.9137788   -3.2408439  0.027875082   -3.9137788   0.67293493   421013 
 3545000   0.60741357    -3.914846    -3.914846   -3.2407762  0.042117988    -3.914846   0.67406974   421013 
 3546000   0.60676794   -3.9141163   -3.9141163   -3.2407631   0.03004855   -3.9141163   0.67335326   421013 
 3547000   0.60759322   -3.9151674   -3.9151674   -3.2408983  0.036850994   -3.9151674    0.6742691   421013 
 3548000   0.60876652   -3.9153625   -3.9153625   -3.2397914  0.023579737   -3.9153625   0.67557116   421013 
 3549000   0.60747317   -3.9141692   -3.9141692   -3.2400333   0.03419697   -3.9141692   0.67413588   421013 
 3550000    0.6072574   -3.9141622   -3.9141622   -3.2402658  0.036215606   -3.9141622   0.67389644   421013 
 3551000   0.60875098   -3.9155958   -3.9155958   -3.2400419  0.044739351   -3.9155958   0.67555391   421013 
 3552000   0.60875018   -3.9156602   -3.9156602   -3.2401072  0.028273446   -3.9156602   0.67555303   421013 
 3553000    0.6080507   -3.9147869   -3.9147869   -3.2400101  0.029308515   -3.9147869   0.67477679   421013 
 3554000   0.60623443   -3.9126421   -3.9126421   -3.2398809  0.042975008   -3.9126421   0.67276121   421013 
 3555000   0.60656614   -3.9131456   -3.9131456   -3.2400162   0.03959699   -3.9131456   0.67312932   421013 
 3556000   0.60827146    -3.914113    -3.914113   -3.2390912  0.017543829    -3.914113   0.67502178   421013 
 3557000   0.60787914   -3.9135454   -3.9135454    -3.238959  0.040311471   -3.9135454    0.6745864   421013 
 3558000   0.60754856   -3.9133781   -3.9133781   -3.2391586  0.034678907   -3.9133781   0.67421955   421013 
 3559000   0.60826682   -3.9138507   -3.9138507   -3.2388341  0.050909057   -3.9138507   0.67501662   421013 
 3560000   0.60782297   -3.9135644   -3.9135644   -3.2390404  0.022607222   -3.9135644   0.67452407   421013 
 3561000   0.60793878   -3.9140475   -3.9140475   -3.2393949   0.03104869   -3.9140475   0.67465258   421013 
 3562000   0.60791428   -3.9136219   -3.9136219   -3.2389965  0.036313831   -3.9136219    0.6746254   421013 
 3563000    0.6081311   -3.9143269   -3.9143269   -3.2394609  0.028246249   -3.9143269   0.67486601   421013 
 3564000   0.60850847   -3.9136965   -3.9136965   -3.2384117  0.024334243   -3.9136965   0.67528479   421013 
 3565000    0.6072351   -3.9126644   -3.9126644   -3.2387927  0.028174516   -3.9126644   0.67387169   421013 
 3566000   0.60761356   -3.9127398   -3.9127398   -3.2384482  0.024243008   -3.9127398   0.67429168   421013 
 3567000   0.60788098   -3.9129209   -3.9129209   -3.2383324  0.028147795   -3.9129209   0.67458844   421013 
 3568000   0.60669956   -3.9114832   -3.9114832   -3.2382058  0.029053442   -3.9114832   0.67327738   421013 
 3569000   0.60777824   -3.9138884   -3.9138884    -3.239414  0.033940653   -3.9138884   0.67447442   421013 
 3570000   0.60842735   -3.9144531   -3.9144531   -3.2392584  0.030200246   -3.9144531   0.67519477   421013 
 3571000   0.60599013   -3.9117217   -3.9117217   -3.2392316  0.028665489   -3.9117217    0.6724901   421013 
 3572000   0.60903333   -3.9148599   -3.9148599   -3.2389927  0.028053744   -3.9148599   0.67586725   421013 
 3573000   0.60705068   -3.9131866   -3.9131866   -3.2395196  0.031557839   -3.9131866   0.67366703   421013 
 3574000   0.60792122   -3.9145446   -3.9145446   -3.2399115  0.044032021   -3.9145446    0.6746331   421013 
 3575000   0.60759956    -3.913255    -3.913255   -3.2389788  0.027529149    -3.913255   0.67427614   421013 
 3576000   0.60885127   -3.9144908   -3.9144908   -3.2388256  0.036861056   -3.9144908   0.67566521   421013 
 3577000    0.6089001   -3.9147718   -3.9147718   -3.2390524  0.023107356   -3.9147718    0.6757194   421013 
 3578000    0.6085069   -3.9146471   -3.9146471   -3.2393641  0.026480195   -3.9146471   0.67528305   421013 
 3579000   0.60764799   -3.9138194   -3.9138194   -3.2394895  0.019750578   -3.9138194   0.67432988   421013 
 3580000   0.60756472   -3.9144224   -3.9144224    -3.240185  0.022112242   -3.9144224   0.67423748   421013 
 3581000   0.60648646   -3.9133856   -3.9133856   -3.2403447  0.024537807   -3.9133856   0.67304089   421013 
 3582000   0.60660171   -3.9137387   -3.9137387   -3.2405699   0.03215462   -3.9137387   0.67316879   421013 
 3583000   0.60653544   -3.9134296   -3.9134296   -3.2403343  0.036120318   -3.9134296   0.67309525   421013 
 3584000   0.60750053   -3.9138972   -3.9138972    -3.239731  0.023374862   -3.9138972   0.67416625   421013 
 3585000   0.60716918   -3.9148813   -3.9148813   -3.2410828  0.031997678   -3.9148813   0.67379854   421013 
 3586000   0.60716518    -3.914251    -3.914251   -3.2404569  0.037064196    -3.914251    0.6737941   421013 
 3587000   0.60740088   -3.9138616   -3.9138616    -3.239806  0.036573183   -3.9138616   0.67405566   421013 
 3588000   0.60742453   -3.9139293   -3.9139293   -3.2398474  0.040840607   -3.9139293   0.67408191   421013 
 3589000   0.60662997   -3.9135196   -3.9135196   -3.2403195  0.028364063   -3.9135196   0.67320015   421013 
 3590000   0.60738261   -3.9139485   -3.9139485   -3.2399132  0.035746118   -3.9139485   0.67403538   421013 
 3591000   0.60748488   -3.9140977   -3.9140977   -3.2399488  0.029675988   -3.9140977   0.67414887   421013 
 3592000    0.6066488   -3.9133635   -3.9133635   -3.2401424  0.036791169   -3.9133635   0.67322105   421013 
 3593000   0.60752499   -3.9141571   -3.9141571   -3.2399638  0.028380266   -3.9141571   0.67419339   421013 
 3594000   0.60767203   -3.9145286   -3.9145286    -3.240172  0.037883874   -3.9145286   0.67435657   421013 
 3595000   0.60708595   -3.9137379   -3.9137379   -3.2400317  0.038905468   -3.9137379   0.67370616   421013 
 3596000   0.60914874   -3.9163193   -3.9163193    -3.240324  0.033491674   -3.9163193   0.67599533   421013 
 3597000   0.60714117   -3.9142575   -3.9142575     -3.24049  0.016710774   -3.9142575   0.67376745   421013 
 3598000   0.60651806   -3.9136099   -3.9136099    -3.240534  0.032775149   -3.9136099   0.67307596   421013 
 3599000   0.60709313    -3.913949    -3.913949   -3.2402348  0.037313387    -3.913949   0.67371414   421013 
 3600000   0.60818247   -3.9151848   -3.9151848   -3.2402617  0.026774688   -3.9151848   0.67492302   421013 
 3601000   0.60849478   -3.9149485   -3.9149485   -3.2396789  0.047264292   -3.9149485    0.6752696   421013 
 3602000   0.60692723   -3.9125548   -3.9125548   -3.2390247  0.027888493   -3.9125548   0.67353003   421013 
 3603000   0.60920572   -3.9149604   -3.9149604   -3.2389019  0.029293015   -3.9149604   0.67605856   421013 
 3604000   0.60933873   -3.9155113   -3.9155113   -3.2393051     0.032182   -3.9155113   0.67620617   421013 
 3605000   0.60841926   -3.9136932   -3.9136932   -3.2385074  0.043716444   -3.9136932    0.6751858   421013 
 3606000   0.60821595   -3.9140174   -3.9140174   -3.2390572  0.030780112   -3.9140174   0.67496017   421013 
 3607000   0.60969815   -3.9151871   -3.9151871   -3.2385821  0.028389778   -3.9151871   0.67660502   421013 
 3608000    0.6084861   -3.9139577   -3.9139577   -3.2386977  0.048917103   -3.9139577   0.67525997   421013 
 3609000   0.60883669   -3.9137381   -3.9137381   -3.2380891   0.03650572   -3.9137381   0.67564903   421013 
 3610000   0.60880136   -3.9139791   -3.9139791   -3.2383693  0.030166229   -3.9139791   0.67560982   421013 
 3611000   0.60879488   -3.9143877   -3.9143877   -3.2387851  0.039886378   -3.9143877   0.67560263   421013 
 3612000   0.60874867   -3.9142976   -3.9142976   -3.2387463  0.032859684   -3.9142976   0.67555135   421013 
 3613000   0.60928095    -3.914555    -3.914555    -3.238413   0.03096321    -3.914555   0.67614204   421013 
 3614000   0.60770401   -3.9136386   -3.9136386   -3.2392465  0.025241171   -3.9136386   0.67439205   421013 
 3615000   0.60691579   -3.9129184   -3.9129184    -3.239401  0.034173555   -3.9129184   0.67351733   421013 
 3616000   0.60684708   -3.9127575   -3.9127575   -3.2393164  0.032969245   -3.9127575   0.67344109   421013 
 3617000    0.6077164   -3.9135385   -3.9135385   -3.2391327  0.026389805   -3.9135385    0.6744058   421013 
 3618000   0.60761927   -3.9131941   -3.9131941   -3.2388961  0.032211933   -3.9131941   0.67429801   421013 
 3619000   0.60828929   -3.9139395   -3.9139395   -3.2388979  0.025534802   -3.9139395   0.67504156   421013 
 3620000   0.60848942     -3.91387     -3.91387   -3.2386063  0.038466721     -3.91387   0.67526365   421013 
 3621000   0.60888773   -3.9136012   -3.9136012   -3.2378955  0.041754038   -3.9136012   0.67570567   421013 
 3622000   0.60824552    -3.913477    -3.913477    -3.238484  0.035972884    -3.913477   0.67499299   421013 
 3623000   0.60936284   -3.9145688   -3.9145688   -3.2383359  0.042392552   -3.9145688   0.67623292   421013 
 3624000   0.60901607   -3.9139198   -3.9139198   -3.2380717  0.028831017   -3.9139198    0.6758481   421013 
 3625000   0.60904391   -3.9133678   -3.9133678   -3.2374888  0.040502537   -3.9133678   0.67587899   421013 
 3626000   0.60836246   -3.9128644   -3.9128644   -3.2377416  0.032341261   -3.9128644   0.67512276   421013 
 3627000   0.60847333   -3.9133929   -3.9133929   -3.2381471  0.034692901   -3.9133929    0.6752458   421013 
 3628000   0.60885649   -3.9146547   -3.9146547   -3.2389837  0.027952376   -3.9146547   0.67567101   421013 
 3629000   0.60741346   -3.9133777   -3.9133777   -3.2393081  0.023582251   -3.9133777   0.67406962   421013 
 3630000   0.60751144   -3.9132909   -3.9132909   -3.2391125  0.043845009   -3.9132909   0.67417835   421013 
 3631000   0.60759573   -3.9133759   -3.9133759    -3.239104   0.02870681   -3.9133759   0.67427189   421013 
 3632000   0.60670809   -3.9130494   -3.9130494   -3.2397626  0.042710062   -3.9130494   0.67328684   421013 
 3633000   0.60639344   -3.9125368   -3.9125368   -3.2395991   0.04446248   -3.9125368   0.67293766   421013 
 3634000   0.60738379    -3.914119    -3.914119   -3.2400823  0.052298715    -3.914119    0.6740367   421013 
 3635000   0.60844982   -3.9153512   -3.9153512   -3.2401315  0.036627395   -3.9153512   0.67521971   421013 
 3636000   0.60734763    -3.913602    -3.913602   -3.2396054  0.024767985    -3.913602   0.67399656   421013 
 3637000    0.6078827   -3.9147262   -3.9147262   -3.2401358  0.038615538   -3.9147262   0.67459035   421013 
 3638000   0.60755159   -3.9141331   -3.9141331   -3.2399102  0.035568084   -3.9141331   0.67422291   421013 
 3639000   0.60750104   -3.9138265   -3.9138265   -3.2396597  0.040399573   -3.9138265   0.67416681   421013 
 3640000   0.60666445   -3.9128349   -3.9128349   -3.2395965  0.033007298   -3.9128349   0.67323842   421013 
 3641000    0.6075315   -3.9146564   -3.9146564   -3.2404558  0.033244336   -3.9146564   0.67420062   421013 
 3642000   0.60771964   -3.9154137   -3.9154137   -3.2410043  0.025598526   -3.9154137    0.6744094   421013 
 3643000   0.60658226   -3.9144039   -3.9144039   -3.2412567  0.034135532   -3.9144039    0.6731472   421013 
 3644000   0.60755113   -3.9148967   -3.9148967   -3.2406743  0.037959463   -3.9148967    0.6742224   421013 
 3645000   0.60803431   -3.9166112   -3.9166112   -3.2418526  0.039802859   -3.9166112    0.6747586   421013 
 3646000   0.60758424   -3.9152814   -3.9152814   -3.2410223   0.04281793   -3.9152814   0.67425914   421013 
 3647000   0.60709292   -3.9155397   -3.9155397   -3.2418258  0.031051432   -3.9155397    0.6737139   421013 
 3648000   0.60785415   -3.9160672   -3.9160672   -3.2415085  0.044689723   -3.9160672   0.67455867   421013 
 3649000    0.6077333   -3.9156106   -3.9156106    -3.241186  0.044581901   -3.9156106   0.67442456   421013 
 3650000   0.60671699    -3.914746    -3.914746   -3.2414493  0.026468234    -3.914746   0.67329672   421013 
 3651000   0.60645028    -3.913804    -3.913804   -3.2408033  0.043312857    -3.913804   0.67300074   421013 
 3652000   0.60660555   -3.9142306   -3.9142306   -3.2410575  0.022039773   -3.9142306   0.67317305   421013 
 3653000   0.60681432   -3.9138681   -3.9138681   -3.2404633  0.033108376   -3.9138681   0.67340473   421013 
 3654000   0.60681945   -3.9133859   -3.9133859   -3.2399754  0.031556872   -3.9133859   0.67341042   421013 
 3655000   0.60918198   -3.9161978   -3.9161978   -3.2401656  0.032246217   -3.9161978   0.67603221   421013 
 3656000   0.60796426   -3.9145647   -3.9145647   -3.2398839  0.042056326   -3.9145647   0.67468086   421013 
 3657000   0.60742991   -3.9148043   -3.9148043   -3.2407164  0.023138404   -3.9148043   0.67408787   421013 
 3658000   0.60859051   -3.9155718   -3.9155718    -3.240196  0.018268587   -3.9155718   0.67537583   421013 
 3659000   0.60760834   -3.9146268   -3.9146268    -3.240341  0.028561623   -3.9146268   0.67428588   421013 
 3660000   0.60836974   -3.9148227   -3.9148227   -3.2396919  0.044161689   -3.9148227   0.67513084   421013 
 3661000   0.60845418   -3.9145529   -3.9145529   -3.2393284  0.037119805   -3.9145529   0.67522455   421013 
 3662000   0.60636786   -3.9138767   -3.9138767   -3.2409674  0.029711899   -3.9138767   0.67290928   421013 
 3663000   0.60818985   -3.9155391   -3.9155391   -3.2406079  0.029890116   -3.9155391   0.67493121   421013 
 3664000   0.60786072   -3.9142194   -3.9142194   -3.2396535  0.036843996   -3.9142194   0.67456596   421013 
 3665000   0.60711895    -3.913753    -3.913753   -3.2400102  0.030668674    -3.913753   0.67374279   421013 
 3666000   0.60748963    -3.913774    -3.913774   -3.2396199  0.027528876    -3.913774   0.67415415   421013 
 3667000   0.60787537   -3.9135605   -3.9135605   -3.2389783  0.048940614   -3.9135605   0.67458222   421013 
 3668000    0.6076621   -3.9133149   -3.9133149   -3.2389694  0.041029988   -3.9133149   0.67434554   421013 
 3669000   0.60830656   -3.9136074   -3.9136074   -3.2385467  0.026355211   -3.9136074   0.67506072   421013 
 3670000   0.60668835   -3.9120279   -3.9120279    -3.238763  0.037131343   -3.9120279   0.67326494   421013 
 3671000   0.60765489   -3.9131962   -3.9131962   -3.2388587   0.02296328   -3.9131962   0.67433754   421013 
 3672000   0.60774547   -3.9139127   -3.9139127   -3.2394746  0.041432884   -3.9139127   0.67443806   421013 
 3673000   0.60734734   -3.9132005   -3.9132005   -3.2392043  0.031711023   -3.9132005   0.67399624   421013 
 3674000   0.60900819   -3.9154605   -3.9154605   -3.2396211  0.027295488   -3.9154605   0.67583936   421013 
 3675000   0.60779426   -3.9131586   -3.9131586   -3.2386664  0.039075175   -3.9131586    0.6744922   421013 
 3676000   0.60834528   -3.9142592   -3.9142592   -3.2391555  0.031745952   -3.9142592   0.67510369   421013 
 3677000   0.60951181   -3.9156867   -3.9156867   -3.2392885  0.041393608   -3.9156867   0.67639824   421013 
 3678000   0.60811898   -3.9139675   -3.9139675   -3.2391149  0.040501023   -3.9139675   0.67485256   421013 
 3679000   0.60711559   -3.9136942   -3.9136942   -3.2399551  0.033212659   -3.9136942   0.67373907   421013 
 3680000   0.60718977   -3.9139663   -3.9139663   -3.2401449  0.029634877   -3.9139663   0.67382138   421013 
 3681000   0.60826662   -3.9152392   -3.9152392   -3.2402228  0.027814205   -3.9152392    0.6750164   421013 
 3682000    0.6074559   -3.9137442   -3.9137442   -3.2396274  0.041650777   -3.9137442   0.67411672   421013 
 3683000    0.6070036   -3.9132849   -3.9132849   -3.2396701  0.023935835   -3.9132849   0.67361478   421013 
 3684000   0.60810937   -3.9141836   -3.9141836   -3.2393417  0.046545599   -3.9141836    0.6748419   421013 
 3685000   0.60803876   -3.9144236   -3.9144236   -3.2396601  0.032062318   -3.9144236   0.67476353   421013 
 3686000   0.60847613   -3.9150757   -3.9150757   -3.2398268  0.020985318   -3.9150757    0.6752489   421013 
 3687000   0.60692217   -3.9137663   -3.9137663   -3.2402419  0.022549933   -3.9137663   0.67352441   421013 
 3688000   0.60775048   -3.9152307   -3.9152307   -3.2407871   0.02637914   -3.9152307   0.67444362   421013 
 3689000   0.60627273   -3.9137823   -3.9137823   -3.2409786   0.03771501   -3.9137823   0.67280371   421013 
 3690000   0.60719745   -3.9148609   -3.9148609    -3.241031  0.032940279   -3.9148609   0.67382991   421013 
 3691000   0.60825368   -3.9145007   -3.9145007   -3.2394987  0.038988792   -3.9145007   0.67500204   421013 
 3692000   0.60928785   -3.9158904   -3.9158904   -3.2397407  0.039185243   -3.9158904    0.6761497   421013 
 3693000   0.60890773   -3.9154696   -3.9154696   -3.2397418  0.032864861   -3.9154696   0.67572787   421013 
 3694000   0.60858003   -3.9150014   -3.9150014   -3.2396371  0.038634311   -3.9150014   0.67536421   421013 
 3695000   0.60864488    -3.915064    -3.915064   -3.2396279  0.034439002    -3.915064   0.67543617   421013 
 3696000    0.6087918   -3.9156295   -3.9156295   -3.2400303   0.03486872   -3.9156295   0.67559922   421013 
 3697000   0.60899732   -3.9146545   -3.9146545   -3.2388272  0.020311442   -3.9146545   0.67582728   421013 
 3698000   0.60819794    -3.913492    -3.913492   -3.2385518  0.045755998    -3.913492   0.67494019   421013 
 3699000   0.60832604   -3.9135037   -3.9135037   -3.2384214  0.038597104   -3.9135037   0.67508235   421013 
 3700000   0.60845042   -3.9137954   -3.9137954   -3.2385751  0.032729183   -3.9137954   0.67522037   421013 
 3701000   0.60831583   -3.9136548   -3.9136548   -3.2385838  0.022570571   -3.9136548   0.67507102   421013 
 3702000   0.60762533    -3.913994    -3.913994   -3.2396893  0.038594026    -3.913994   0.67430474   421013 
 3703000   0.60730818   -3.9135306   -3.9135306   -3.2395778  0.039091382   -3.9135306   0.67395278   421013 
 3704000   0.60641978   -3.9132254   -3.9132254   -3.2402585  0.036633089   -3.9132254   0.67296689   421013 
 3705000    0.6072393   -3.9140017   -3.9140017   -3.2401254  0.035205616   -3.9140017   0.67387634   421013 
 3706000   0.60609004   -3.9128608   -3.9128608   -3.2402598  0.030048734   -3.9128608   0.67260097   421013 
 3707000   0.60812795   -3.9157136   -3.9157136   -3.2408511  0.035492205   -3.9157136   0.67486252   421013 
 3708000   0.60680103   -3.9138606   -3.9138606   -3.2404706  0.041674046   -3.9138606   0.67338998   421013 
 3709000   0.60826444   -3.9154474   -3.9154474   -3.2404334  0.025671053   -3.9154474   0.67501398   421013 
 3710000   0.60709594   -3.9139578   -3.9139578   -3.2402405  0.019075834   -3.9139578   0.67371726   421013 
 3711000   0.60825809   -3.9150683   -3.9150683   -3.2400614  0.029768867   -3.9150683   0.67500693   421013 
 3712000   0.60803938   -3.9158488   -3.9158488   -3.2410846  0.038349253   -3.9158488   0.67476423   421013 
 3713000   0.60688693    -3.914366    -3.914366   -3.2408807  0.028767277    -3.914366   0.67348531   421013 
 3714000   0.60801005   -3.9158219   -3.9158219   -3.2410903  0.035416694   -3.9158219   0.67473168   421013 
 3715000   0.60733686   -3.9150939   -3.9150939   -3.2411093  0.030943632   -3.9150939   0.67398461   421013 
 3716000   0.60693342   -3.9149181   -3.9149181   -3.2413812  0.024807286   -3.9149181    0.6735369   421013 
 3717000   0.60730632    -3.915254    -3.915254   -3.2413033  0.042368162    -3.915254   0.67395072   421013 
 3718000   0.60764995   -3.9151492   -3.9151492   -3.2408171  0.046976359   -3.9151492   0.67433206   421013 
 3719000   0.60711085   -3.9149568   -3.9149568    -3.241223   0.02949651   -3.9149568    0.6737338   421013 
 3720000   0.60659651   -3.9152356   -3.9152356   -3.2420726  0.046878119   -3.9152356   0.67316301   421013 
 3721000   0.60808206   -3.9160836   -3.9160836    -3.241272  0.025537143   -3.9160836   0.67481159   421013 
 3722000   0.60709914   -3.9145833   -3.9145833   -3.2408625   0.04832403   -3.9145833   0.67372081   421013 
 3723000   0.60705259   -3.9153763   -3.9153763   -3.2417071   0.02506835   -3.9153763   0.67366915   421013 
 3724000   0.60644136   -3.9146232   -3.9146232   -3.2416323  0.040392579   -3.9146232   0.67299085   421013 
 3725000   0.60786932   -3.9154199   -3.9154199   -3.2408444  0.038386784   -3.9154199    0.6745755   421013 
 3726000   0.60766784   -3.9159271   -3.9159271   -3.2415752  0.026454034   -3.9159271   0.67435192   421013 
 3727000   0.60746015   -3.9154142   -3.9154142   -3.2412928  0.024693776   -3.9154142   0.67412144   421013 
 3728000   0.60676132   -3.9151017   -3.9151017   -3.2417558   0.03989676   -3.9151017   0.67334591   421013 
 3729000   0.60615393   -3.9147075   -3.9147075   -3.2420356  0.032287754   -3.9147075   0.67267187   421013 
 3730000   0.60613227   -3.9144221   -3.9144221   -3.2417742  0.025529323   -3.9144221   0.67264783   421013 
 3731000   0.60744596   -3.9152882   -3.9152882   -3.2411825  0.034250151   -3.9152882   0.67410569   421013 
 3732000   0.60680131   -3.9148102   -3.9148102   -3.2414199  0.033345998   -3.9148102   0.67339029   421013 
 3733000   0.60589605    -3.914022    -3.914022   -3.2416364  0.029843708    -3.914022   0.67238569   421013 
 3734000   0.60690188   -3.9159291   -3.9159291   -3.2424272  0.044486288   -3.9159291    0.6735019   421013 
 3735000    0.6063184   -3.9147821   -3.9147821   -3.2419277  0.026272232   -3.9147821   0.67285439   421013 
 3736000   0.60679983   -3.9145455   -3.9145455   -3.2411568  0.034948793   -3.9145455   0.67338865   421013 
 3737000   0.60806666   -3.9159093   -3.9159093   -3.2411148  0.033332853   -3.9159093    0.6747945   421013 
 3738000    0.6062158   -3.9136242   -3.9136242   -3.2408836  0.025106472   -3.9136242   0.67274053   421013 
 3739000   0.60789154   -3.9153883   -3.9153883   -3.2407882  0.041280558   -3.9153883   0.67460016   421013 
 3740000   0.60851153   -3.9159803   -3.9159803   -3.2406922  0.033745778   -3.9159803   0.67528819   421013 
 3741000   0.60786906   -3.9150821   -3.9150821   -3.2405069  0.022024773   -3.9150821   0.67457522   421013 
 3742000   0.60833383   -3.9161186   -3.9161186   -3.2410276  0.033818672   -3.9161186   0.67509099   421013 
 3743000   0.60848296   -3.9158626   -3.9158626   -3.2406061  0.041935559   -3.9158626   0.67525648   421013 
 3744000   0.60619638   -3.9143257   -3.9143257   -3.2416068  0.035438561   -3.9143257   0.67271897   421013 
 3745000   0.60707216   -3.9154028   -3.9154028   -3.2417119   0.01906499   -3.9154028   0.67369087   421013 
 3746000   0.60708513    -3.915363    -3.915363   -3.2416578  0.022219589    -3.915363   0.67370526   421013 
 3747000   0.60731734   -3.9158825   -3.9158825   -3.2419195   0.04118076   -3.9158825   0.67396295   421013 
 3748000   0.60735834   -3.9160035   -3.9160035    -3.241995  0.032687561   -3.9160035   0.67400845   421013 
 3749000   0.60776046   -3.9158115   -3.9158115   -3.2413568  0.031555396   -3.9158115    0.6744547   421013 
 3750000   0.60804741   -3.9159477   -3.9159477   -3.2411746  0.035935036   -3.9159477   0.67477313   421013 
 3751000   0.60753376   -3.9159513   -3.9159513   -3.2417481  0.036947581   -3.9159513   0.67420312   421013 
 3752000   0.60840481   -3.9162674   -3.9162674   -3.2410976  0.043375299   -3.9162674   0.67516975   421013 
 3753000   0.60882318    -3.916731    -3.916731    -3.241097  0.024893155    -3.916731   0.67563404   421013 
 3754000   0.60880939   -3.9163666   -3.9163666   -3.2407478   0.03629382   -3.9163666   0.67561874   421013 
 3755000   0.60838264   -3.9161614   -3.9161614   -3.2410163  0.036305516   -3.9161614   0.67514515   421013 
 3756000   0.60841002   -3.9164453   -3.9164453   -3.2412697  0.042183064   -3.9164453   0.67517554   421013 
 3757000   0.60762322   -3.9149807   -3.9149807   -3.2406783  0.032723082   -3.9149807    0.6743024   421013 
 3758000   0.60691337   -3.9147985   -3.9147985   -3.2412838  0.022665773   -3.9147985   0.67351466   421013 
 3759000   0.60815641   -3.9155479   -3.9155479   -3.2406538  0.032879412   -3.9155479    0.6748941   421013 
 3760000   0.60679697     -3.91462     -3.91462   -3.2412345  0.033327748     -3.91462   0.67338547   421013 
 3761000   0.60709078   -3.9151147   -3.9151147   -3.2414032 0.0087423192   -3.9151147   0.67371152   421013 
 3762000   0.60778529   -3.9148553   -3.9148553    -3.240373    0.0434529   -3.9148553   0.67448225   421013 
 3763000   0.60791989   -3.9157913   -3.9157913   -3.2411597  0.031634743   -3.9157913   0.67463162   421013 
 3764000   0.60820179   -3.9163846   -3.9163846   -3.2414402  0.027003511   -3.9163846   0.67494446   421013 
 3765000   0.60799506   -3.9168453   -3.9168453   -3.2421302  0.038926387   -3.9168453   0.67471504   421013 
 3766000   0.60880456   -3.9184655   -3.9184655   -3.2428522  0.040394282   -3.9184655   0.67561337   421013 
 3767000   0.60816414   -3.9174232   -3.9174232   -3.2425205  0.038888362   -3.9174232   0.67490267   421013 
 3768000   0.60859159   -3.9177352   -3.9177352   -3.2423581  0.041550273   -3.9177352   0.67537704   421013 
 3769000   0.60917302    -3.918641    -3.918641   -3.2426187  0.040731406    -3.918641   0.67602227   421013 
 3770000   0.60800953    -3.916504    -3.916504   -3.2417729  0.036218104    -3.916504    0.6747311   421013 
 3771000   0.60685061   -3.9155544   -3.9155544   -3.2421094   0.02813389   -3.9155544     0.673445   421013 
 3772000   0.60820655   -3.9172379   -3.9172379   -3.2422881  0.029447562   -3.9172379   0.67494974   421013 
 3773000   0.60717473   -3.9164823   -3.9164823   -3.2426776  0.031397049   -3.9164823   0.67380469   421013 
 3774000   0.60670207   -3.9162454   -3.9162454   -3.2429653  0.023909152   -3.9162454   0.67328017   421013 
 3775000   0.60800275   -3.9175233   -3.9175233   -3.2427998  0.029770412   -3.9175233   0.67472358   421013 
 3776000   0.60780462   -3.9171007   -3.9171007    -3.242597    0.0295516   -3.9171007    0.6745037   421013 
 3777000   0.60655965    -3.915292    -3.915292   -3.2421699  0.026899925    -3.915292   0.67312211   421013 
 3778000   0.60672936   -3.9157977   -3.9157977   -3.2424873   0.03934578   -3.9157977   0.67331045   421013 
 3779000   0.60680661   -3.9155569   -3.9155569   -3.2421607   0.03665498   -3.9155569   0.67339618   421013 
 3780000   0.60701367   -3.9160603   -3.9160603   -3.2424343  0.040871014   -3.9160603   0.67362596   421013 
 3781000   0.60792321   -3.9174582   -3.9174582   -3.2428229  0.030826663   -3.9174582   0.67463531   421013 
 3782000   0.60725892   -3.9168117   -3.9168117   -3.2429135  0.033839525   -3.9168117   0.67389812   421013 
 3783000   0.60714134   -3.9164516   -3.9164516    -3.242684  0.039215007   -3.9164516   0.67376764   421013 
 3784000   0.60775535   -3.9168897   -3.9168897   -3.2424407  0.032739443   -3.9168897   0.67444903   421013 
 3785000   0.60827211      -3.9176      -3.9176   -3.2425775  0.031882781      -3.9176    0.6750225   421013 
 3786000   0.60900203   -3.9186128   -3.9186128   -3.2427803  0.041854194   -3.9186128   0.67583252   421013 
 3787000   0.60947995   -3.9193381   -3.9193381   -3.2429752  0.027751356   -3.9193381   0.67636288   421013 
 3788000   0.60667086    -3.915802    -3.915802   -3.2425565    0.0332368    -3.915802   0.67324552   421013 
 3789000   0.60807018   -3.9173026   -3.9173026   -3.2425042  0.038066662   -3.9173026   0.67479841   421013 
 3790000   0.60766095   -3.9169102   -3.9169102   -3.2425659  0.028177921   -3.9169102   0.67434427   421013 
 3791000   0.60658147   -3.9154659   -3.9154659   -3.2423196  0.028301919   -3.9154659   0.67314632   421013 
 3792000   0.60735667   -3.9165035   -3.9165035    -3.242497  0.027021375   -3.9165035   0.67400659   421013 
 3793000   0.60793533   -3.9173063   -3.9173063   -3.2426575  0.024698121   -3.9173063   0.67464875   421013 
 3794000   0.60700713   -3.9171366   -3.9171366   -3.2435179  0.026730963   -3.9171366   0.67361869   421013 
 3795000   0.60748829   -3.9178714   -3.9178714   -3.2437187  0.035092495   -3.9178714   0.67415266   421013 
 3796000   0.60601427   -3.9164881   -3.9164881   -3.2439712  0.035644373   -3.9164881   0.67251689   421013 
 3797000   0.60775051   -3.9185245   -3.9185245   -3.2440809  0.035110649   -3.9185245   0.67444365   421013 
 3798000   0.60841263   -3.9197189   -3.9197189   -3.2445405  0.027749941   -3.9197189   0.67517844   421013 
 3799000   0.60852478   -3.9196282   -3.9196282   -3.2443253  0.027059082   -3.9196282   0.67530289   421013 
 3800000   0.60702237   -3.9182596   -3.9182596    -3.244624  0.031507868   -3.9182596   0.67363561   421013 
 3801000   0.60812738   -3.9191773   -3.9191773   -3.2443154  0.025281426   -3.9191773   0.67486188   421013 
 3802000   0.60665394   -3.9177854   -3.9177854   -3.2445586  0.031223806   -3.9177854   0.67322676   421013 
 3803000   0.60696555   -3.9178188   -3.9178188   -3.2442462  0.025635957   -3.9178188   0.67357255   421013 
 3804000   0.60630485   -3.9169252   -3.9169252   -3.2440858   0.02008024   -3.9169252   0.67283935   421013 
 3805000   0.60731569   -3.9186473   -3.9186473   -3.2446862  0.032833886   -3.9186473   0.67396112   421013 
 3806000   0.60594722    -3.917771    -3.917771   -3.2453285  0.035689817    -3.917771   0.67244248   421013 
 3807000   0.60708672   -3.9187263   -3.9187263   -3.2450192  0.040465322   -3.9187263   0.67370702   421013 
 3808000   0.60772249   -3.9199364   -3.9199364   -3.2455238  0.038370836   -3.9199364   0.67441256   421013 
 3809000   0.60601543   -3.9179271   -3.9179271   -3.2454089   0.04605189   -3.9179271   0.67251817   421013 
 3810000     0.606317   -3.9168624   -3.9168624   -3.2440095  0.031748131   -3.9168624   0.67285284   421013 
 3811000   0.60860459   -3.9204319   -3.9204319   -3.2450405  0.028445014   -3.9204319   0.67539146   421013 
 3812000   0.60776404    -3.920124    -3.920124   -3.2456653  0.020136276    -3.920124   0.67445867   421013 
 3813000   0.60713699   -3.9187702   -3.9187702   -3.2450074  0.020799486   -3.9187702   0.67376281   421013 
 3814000   0.60780293   -3.9191553   -3.9191553   -3.2446534  0.033353603   -3.9191553   0.67450183   421013 
 3815000   0.60643317   -3.9176022   -3.9176022   -3.2446204  0.029213563   -3.9176022   0.67298176   421013 
 3816000   0.60681598   -3.9176158   -3.9176158   -3.2442093  0.032152665   -3.9176158   0.67340657   421013 
 3817000    0.6071134   -3.9177607   -3.9177607   -3.2440241   0.03442266   -3.9177607   0.67373663   421013 
 3818000   0.60740635   -3.9177039   -3.9177039   -3.2436422  0.053331438   -3.9177039   0.67406173   421013 
 3819000   0.60638515   -3.9162929   -3.9162929   -3.2433644  0.021610763   -3.9162929   0.67292846   421013 
 3820000   0.60682252    -3.917189    -3.917189   -3.2437752  0.028033458    -3.917189   0.67341383   421013 
 3821000   0.60748062   -3.9175017   -3.9175017   -3.2433576  0.024797875   -3.9175017   0.67414415   421013 
 3822000    0.6068642   -3.9171297   -3.9171297   -3.2436696   0.03210568   -3.9171297   0.67346008   421013 
 3823000   0.60636765   -3.9164815   -3.9164815   -3.2435724  0.023760579   -3.9164815   0.67290904   421013 
 3824000   0.60707174   -3.9170904   -3.9170904      -3.2434   0.03497476   -3.9170904   0.67369039   421013 
 3825000   0.60688917   -3.9175242   -3.9175242   -3.2440364  0.037824143   -3.9175242    0.6734878   421013 
 3826000   0.60810804   -3.9182498   -3.9182498   -3.2434094  0.024256757   -3.9182498   0.67484042   421013 
 3827000    0.6071391   -3.9171065   -3.9171065   -3.2433413  0.028576606   -3.9171065   0.67376515   421013 
 3828000   0.60729926   -3.9175337   -3.9175337   -3.2435908  0.032039008   -3.9175337   0.67394289   421013 
 3829000   0.60646281    -3.916143    -3.916143   -3.2431284  0.029889823    -3.916143   0.67301465   421013 
 3830000   0.60744822   -3.9172041   -3.9172041   -3.2430959  0.037154747   -3.9172041   0.67410819   421013 
 3831000   0.60697637   -3.9164417   -3.9164417   -3.2428571  0.015775028   -3.9164417   0.67358456   421013 
 3832000   0.60851299   -3.9185435   -3.9185435   -3.2432537  0.035876072   -3.9185435   0.67528981   421013 
 3833000   0.60784866   -3.9181526   -3.9181526      -3.2436  0.039609997   -3.9181526   0.67455257   421013 
 3834000   0.60615822   -3.9166153   -3.9166153   -3.2439387  0.031204109   -3.9166153   0.67267663   421013 
 3835000   0.60682333   -3.9163669   -3.9163669   -3.2429522  0.034420519   -3.9163669   0.67341473   421013 
 3836000   0.60607518   -3.9157036   -3.9157036   -3.2431191  0.038599054   -3.9157036   0.67258448   421013 
 3837000   0.60769479   -3.9177242   -3.9177242   -3.2433424  0.029777182   -3.9177242   0.67438182   421013 
 3838000   0.60798212   -3.9183718   -3.9183718   -3.2436711  0.023736185   -3.9183718   0.67470069   421013 
 3839000   0.60750343   -3.9182813   -3.9182813   -3.2441118  0.033096323   -3.9182813   0.67416946   421013 
 3840000   0.60763971   -3.9178701   -3.9178701   -3.2435494  0.031505639   -3.9178701    0.6743207   421013 
 3841000    0.6065212   -3.9171205   -3.9171205   -3.2440411  0.019639402   -3.9171205   0.67307944   421013 
 3842000   0.60593613   -3.9165145   -3.9165145   -3.2440843  0.028260358   -3.9165145   0.67243018   421013 
 3843000   0.60679252   -3.9167953   -3.9167953   -3.2434148   0.03762765   -3.9167953   0.67338054   421013 
 3844000   0.60687245   -3.9175623   -3.9175623   -3.2440931  0.045632645   -3.9175623   0.67346924   421013 
 3845000   0.60633449   -3.9167511   -3.9167511   -3.2438789  0.025186017   -3.9167511   0.67287225   421013 
 3846000   0.60623004   -3.9172291   -3.9172291   -3.2444728  0.036733682   -3.9172291   0.67275634   421013 
 3847000   0.60691317   -3.9179819   -3.9179819   -3.2444675  0.032661013   -3.9179819   0.67351443   421013 
 3848000     0.606132   -3.9174086   -3.9174086   -3.2447611  0.035422706   -3.9174086   0.67264754   421013 
 3849000   0.60780373   -3.9195173   -3.9195173   -3.2450146  0.023026042   -3.9195173   0.67450272   421013 
 3850000   0.60560282   -3.9170788   -3.9170788   -3.2450185  0.030328965   -3.9170788   0.67206029   421013 
 3851000   0.60763282   -3.9188036   -3.9188036   -3.2444906  0.029657028   -3.9188036   0.67431305   421013 
 3852000     0.608315   -3.9196075   -3.9196075   -3.2445374  0.051318493   -3.9196075    0.6750701   421013 
 3853000   0.60685554   -3.9177611   -3.9177611   -3.2443106  0.029677955   -3.9177611   0.67345048   421013 
 3854000   0.60710518   -3.9180144   -3.9180144   -3.2442869  0.025511683   -3.9180144   0.67372751   421013 
 3855000   0.60735267   -3.9189268   -3.9189268   -3.2449247  0.028323498   -3.9189268   0.67400216   421013 
 3856000   0.60701167    -3.918182    -3.918182   -3.2445583  0.019018835    -3.918182   0.67362374   421013 
 3857000   0.60758273    -3.918933    -3.918933   -3.2446755  0.032330389    -3.918933   0.67425747   421013 
 3858000   0.60764107   -3.9186507   -3.9186507   -3.2443285  0.038545551   -3.9186507    0.6743222   421013 
 3859000   0.60798254   -3.9197019   -3.9197019   -3.2450008  0.029434211   -3.9197019   0.67470115   421013 
 3860000   0.60656001   -3.9184682   -3.9184682   -3.2453457  0.033871121   -3.9184682   0.67312251   421013 
 3861000   0.60781257   -3.9191449   -3.9191449   -3.2446323  0.033618386   -3.9191449   0.67451253   421013 
 3862000   0.60689832   -3.9189513   -3.9189513   -3.2454533  0.039077774   -3.9189513   0.67349795   421013 
 3863000   0.60699882   -3.9188125   -3.9188125    -3.245203  0.031102352   -3.9188125   0.67360948   421013 
 3864000   0.60695726   -3.9189022   -3.9189022   -3.2453389  0.039341037   -3.9189022   0.67356336   421013 
 3865000   0.60549802   -3.9173538   -3.9173538   -3.2454098  0.023047563   -3.9173538   0.67194398   421013 
 3866000   0.60631694   -3.9184857   -3.9184857   -3.2456329  0.023080967   -3.9184857   0.67285277   421013 
 3867000   0.60598831   -3.9180419   -3.9180419   -3.2455538  0.030048265   -3.9180419   0.67248808   421013 
 3868000   0.60523321   -3.9170737   -3.9170737   -3.2454236  0.027556929   -3.9170737   0.67165012   421013 
 3869000   0.60625372   -3.9179083   -3.9179083   -3.2451257  0.030366929   -3.9179083   0.67278262   421013 
 3870000   0.60570819   -3.9172363   -3.9172363   -3.2450591  0.021370468   -3.9172363   0.67217722   421013 
 3871000    0.6073333   -3.9194931   -3.9194931   -3.2455124  0.026775514   -3.9194931   0.67398066   421013 
 3872000   0.60502817   -3.9166346   -3.9166346    -3.245212  0.017896967   -3.9166346   0.67142258   421013 
 3873000   0.60777789   -3.9195181   -3.9195181    -3.245044  0.033161607   -3.9195181   0.67447404   421013 
 3874000   0.60650455   -3.9184895   -3.9184895   -3.2454285  0.027062098   -3.9184895   0.67306097   421013 
 3875000   0.60547359   -3.9176484   -3.9176484   -3.2457315  0.021141096   -3.9176484   0.67191687   421013 
 3876000   0.60733456   -3.9200532   -3.9200532   -3.2460711  0.031764601   -3.9200532   0.67398206   421013 
 3877000   0.60754306   -3.9202442   -3.9202442   -3.2460308  0.032889016   -3.9202442   0.67421344   421013 
 3878000    0.6077525    -3.920125    -3.920125   -3.2456792  0.038161408    -3.920125   0.67444587   421013 
 3879000   0.60803795   -3.9207463   -3.9207463   -3.2459837  0.025625791   -3.9207463   0.67476264   421013 
 3880000   0.60695737   -3.9193611   -3.9193611   -3.2457976  0.039953656   -3.9193611   0.67356348   421013 
 3881000   0.60752877   -3.9199257   -3.9199257   -3.2457282  0.038298287   -3.9199257   0.67419759   421013 
 3882000    0.6067774   -3.9189116   -3.9189116   -3.2455478 0.0028822575   -3.9189116   0.67336375   421013 
 3883000    0.6078217   -3.9206194   -3.9206194   -3.2460967   0.01576849   -3.9206194   0.67452265   421013 
 3884000   0.60770609   -3.9208361   -3.9208361   -3.2464418  0.026583056   -3.9208361   0.67439436   421013 
 3885000   0.60596739   -3.9189617   -3.9189617   -3.2464968  0.027540057   -3.9189617   0.67246486   421013 
 3886000   0.60601845   -3.9179752   -3.9179752   -3.2454537   0.03272936   -3.9179752   0.67252152   421013 
 3887000   0.60554273   -3.9178925   -3.9178925   -3.2458989  0.038835913   -3.9178925   0.67199359   421013 
 3888000   0.60683269   -3.9193239   -3.9193239   -3.2458988  0.023396027   -3.9193239   0.67342511   421013 
 3889000   0.60559697   -3.9179025   -3.9179025   -3.2458487   0.03897693   -3.9179025    0.6720538   421013 
 3890000   0.60662629    -3.918727    -3.918727    -3.245531  0.028322878    -3.918727   0.67319607   421013 
 3891000   0.60688543   -3.9188938   -3.9188938   -3.2454102   0.03631562   -3.9188938   0.67348365   421013 
 3892000   0.60724312   -3.9189085   -3.9189085   -3.2450279  0.025945052   -3.9189085   0.67388059   421013 
 3893000   0.60643485   -3.9186909   -3.9186909   -3.2457073  0.039293636   -3.9186909   0.67298362   421013 
 3894000   0.60722646   -3.9196079   -3.9196079   -3.2457458  0.032777433   -3.9196079   0.67386209   421013 
 3895000   0.60727893   -3.9207089   -3.9207089   -3.2467885  0.035020721   -3.9207089   0.67392032   421013 
 3896000   0.60753683   -3.9208533   -3.9208533   -3.2466468  0.020255093   -3.9208533   0.67420653   421013 
 3897000   0.60681957   -3.9199884   -3.9199884   -3.2465779  0.024376519   -3.9199884   0.67341056   421013 
 3898000   0.60690272   -3.9197275   -3.9197275   -3.2462246  0.035188595   -3.9197275   0.67350284   421013 
 3899000   0.60548773   -3.9192908   -3.9192908   -3.2473582  0.020774631   -3.9192908   0.67193256   421013 
 3900000   0.60667498   -3.9197277   -3.9197277   -3.2464776   0.02945938   -3.9197277    0.6732501   421013 
 3901000   0.60641776   -3.9201309   -3.9201309   -3.2471662  0.039967676   -3.9201309   0.67296466   421013 
 3902000   0.60725243   -3.9209199   -3.9209199   -3.2470289  0.042849519   -3.9209199   0.67389092   421013 
 3903000   0.60666114   -3.9196286   -3.9196286   -3.2463938  0.032204456   -3.9196286   0.67323475   421013 
 3904000   0.60694123   -3.9200623   -3.9200623   -3.2465167  0.037488468   -3.9200623   0.67354557   421013 
 3905000   0.60613159   -3.9190043   -3.9190043   -3.2463572  0.024910124   -3.9190043   0.67264708   421013 
 3906000   0.60675468   -3.9194508   -3.9194508   -3.2461123  0.022089397   -3.9194508   0.67333854   421013 
 3907000   0.60698517   -3.9198278   -3.9198278   -3.2462335  0.023735328   -3.9198278   0.67359433   421013 
 3908000   0.60676471   -3.9191827   -3.9191827    -3.245833   0.02620882   -3.9191827   0.67334968   421013 
 3909000   0.60557901   -3.9176558   -3.9176558    -3.245622  0.025621138   -3.9176558   0.67203386   421013 
 3910000    0.6057372   -3.9177127   -3.9177127   -3.2455033  0.035996994   -3.9177127   0.67220941   421013 
 3911000   0.60667833   -3.9189942   -3.9189942   -3.2457404  0.044623669   -3.9189942   0.67325382   421013 
 3912000   0.60671112   -3.9188411   -3.9188411   -3.2455509  0.027392857   -3.9188411   0.67329021   421013 
 3913000    0.6069837   -3.9195468   -3.9195468   -3.2459541  0.027352513   -3.9195468    0.6735927   421013 
 3914000   0.60703167   -3.9197886   -3.9197886   -3.2461426    0.0310845   -3.9197886   0.67364593   421013 
 3915000   0.60754728   -3.9205763   -3.9205763   -3.2463582  0.038846511   -3.9205763   0.67421812   421013 
 3916000   0.60724074   -3.9198429   -3.9198429    -3.245965  0.025151935   -3.9198429   0.67387794   421013 
 3917000   0.60641593   -3.9188728   -3.9188728   -3.2459101  0.041017556   -3.9188728   0.67296262   421013 
 3918000   0.60795302   -3.9201118   -3.9201118   -3.2454435  0.052815643   -3.9201118   0.67466839   421013 
 3919000   0.60711698   -3.9205203   -3.9205203   -3.2467797  0.031194672   -3.9205203    0.6737406   421013 
 3920000   0.60611694   -3.9195311   -3.9195311   -3.2469002   0.02769934   -3.9195311   0.67263082   421013 
 3921000   0.60595108   -3.9190035   -3.9190035   -3.2465567  0.035797582   -3.9190035   0.67244676   421013 
 3922000   0.60735662   -3.9199587   -3.9199587   -3.2459522   0.02596316   -3.9199587   0.67400654   421013 
 3923000   0.60901716   -3.9216366   -3.9216366   -3.2457873  0.026509141   -3.9216366   0.67584931   421013 
 3924000   0.60711005   -3.9200711   -3.9200711   -3.2463382  0.039773418   -3.9200711   0.67373292   421013 
 3925000   0.60747744   -3.9204513   -3.9204513   -3.2463107  0.031955547   -3.9204513   0.67414062   421013 
 3926000   0.60702963    -3.920088    -3.920088   -3.2464444  0.029458283    -3.920088   0.67364367   421013 
 3927000   0.60720595   -3.9203705   -3.9203705   -3.2465312  0.017067066   -3.9203705   0.67383933   421013 
 3928000   0.60609559   -3.9198844   -3.9198844   -3.2472773   0.02878243   -3.9198844   0.67260713   421013 
 3929000   0.60634978   -3.9202262   -3.9202262    -3.247337  0.037257352   -3.9202262   0.67288921   421013 
 3930000   0.60653591   -3.9207031   -3.9207031   -3.2476074  0.023068301   -3.9207031   0.67309577   421013 
 3931000   0.60586719   -3.9196977   -3.9196977    -3.247344  0.031394498   -3.9196977   0.67235367   421013 
 3932000   0.60469965   -3.9179034   -3.9179034   -3.2468454  0.034420637   -3.9179034     0.671058   421013 
 3933000   0.60601782   -3.9201745   -3.9201745   -3.2476537  0.038594055   -3.9201745   0.67252082   421013 
 3934000   0.60619802   -3.9200255   -3.9200255   -3.2473047  0.031989589   -3.9200255    0.6727208   421013 
 3935000   0.60770877   -3.9219736   -3.9219736   -3.2475762  0.021752303   -3.9219736   0.67439734   421013 
 3936000   0.60683071    -3.920856    -3.920856   -3.2474331  0.036476276    -3.920856   0.67342292   421013 
 3937000    0.6070509    -3.920475    -3.920475   -3.2468078  0.032946563    -3.920475   0.67366727   421013 
 3938000   0.60720194   -3.9207703   -3.9207703   -3.2469354   0.02908932   -3.9207703   0.67383488   421013 
 3939000   0.60788939   -3.9224103   -3.9224103   -3.2478125  0.037131275   -3.9224103   0.67459777   421013 
 3940000   0.60678837   -3.9216936   -3.9216936   -3.2483176  0.031612584   -3.9216936   0.67337593   421013 
 3941000   0.60652481    -3.920777    -3.920777   -3.2476936  0.032077433    -3.920777   0.67308345   421013 
 3942000   0.60666908   -3.9208178   -3.9208178   -3.2475742  0.043274029   -3.9208178   0.67324355   421013 
 3943000   0.60778615   -3.9215913   -3.9215913   -3.2471081  0.045219826   -3.9215913   0.67448321   421013 
 3944000   0.60832162   -3.9229602   -3.9229602   -3.2478828  0.040283373   -3.9229602   0.67507743   421013 
 3945000   0.60587339   -3.9203257   -3.9203257   -3.2479651  0.041836425   -3.9203257   0.67236054   421013 
 3946000   0.60621564    -3.921118    -3.921118   -3.2483777   0.03676484    -3.921118   0.67274035   421013 
 3947000   0.60696807    -3.921985    -3.921985   -3.2484097  0.036346721    -3.921985   0.67357535   421013 
 3948000   0.60579122   -3.9199752   -3.9199752   -3.2477058    0.0498461   -3.9199752   0.67226936   421013 
 3949000   0.60765778   -3.9217819   -3.9217819   -3.2474412  0.027305887   -3.9217819   0.67434075   421013 
 3950000   0.60607523   -3.9198367   -3.9198367   -3.2472522  0.021694307   -3.9198367   0.67258453   421013 
 3951000   0.60699377   -3.9207765   -3.9207765   -3.2471726  0.029268292   -3.9207765   0.67360387   421013 
 3952000   0.60704578   -3.9208309   -3.9208309   -3.2471693  0.033770236   -3.9208309   0.67366159   421013 
 3953000   0.60800563   -3.9210341   -3.9210341   -3.2463073  0.030215345   -3.9210341   0.67472678   421013 
 3954000   0.60786937   -3.9214231   -3.9214231   -3.2468476  0.027573664   -3.9214231   0.67457556   421013 
 3955000   0.60710488   -3.9210552   -3.9210552   -3.2473281     0.012187   -3.9210552   0.67372717   421013 
 3956000   0.60767877   -3.9220846   -3.9220846   -3.2477206  0.028860383   -3.9220846   0.67436405   421013 
 3957000   0.60773073   -3.9218241   -3.9218241   -3.2474024  0.028785469   -3.9218241    0.6744217   421013 
 3958000   0.60795149   -3.9229327   -3.9229327    -3.248266  0.054043629   -3.9229327   0.67466669   421013 
 3959000   0.60767849   -3.9219847   -3.9219847   -3.2476209  0.039047715   -3.9219847   0.67436373   421013 
 3960000   0.60703931   -3.9215556   -3.9215556   -3.2479012  0.030696259   -3.9215556   0.67365441   421013 
 3961000   0.60793941   -3.9221831   -3.9221831   -3.2475298  0.020551558   -3.9221831   0.67465329   421013 
 3962000   0.60713955   -3.9205851   -3.9205851   -3.2468195  0.027275749   -3.9205851   0.67376565   421013 
 3963000   0.60701886   -3.9208069   -3.9208069   -3.2471752  0.025485583   -3.9208069   0.67363172   421013 
 3964000   0.60636619   -3.9198834   -3.9198834    -3.246976  0.026554408   -3.9198834   0.67290742   421013 
 3965000   0.60778232   -3.9213758   -3.9213758   -3.2468968  0.029507926   -3.9213758   0.67447896   421013 
 3966000   0.60798104   -3.9214107   -3.9214107   -3.2467112   0.04943656   -3.9214107   0.67469949   421013 
 3967000   0.60758075   -3.9212667   -3.9212667   -3.2470115  0.031487667   -3.9212667   0.67425526   421013 
 3968000   0.60885986   -3.9227626   -3.9227626   -3.2470878  0.025682472   -3.9227626   0.67567475   421013 
 3969000    0.6089289     -3.92244     -3.92244   -3.2466887  0.037303978     -3.92244   0.67575136   421013 
 3970000   0.60819543    -3.922004    -3.922004   -3.2470666  0.028290237    -3.922004    0.6749374   421013 
 3971000   0.60748358     -3.92142     -3.92142   -3.2472726  0.028690228     -3.92142   0.67414744   421013 
 3972000    0.6060075   -3.9198944   -3.9198944    -3.247385  0.033532471   -3.9198944   0.67250937   421013 
 3973000    0.6074702   -3.9214229   -3.9214229   -3.2472903  0.038768147   -3.9214229   0.67413258   421013 
 3974000   0.60612204   -3.9205475   -3.9205475    -3.247911  0.018699202   -3.9205475   0.67263648   421013 
 3975000   0.60664665   -3.9211571   -3.9211571   -3.2479384  0.025326962   -3.9211571   0.67321866   421013 
 3976000   0.60822996    -3.922385    -3.922385   -3.2474093  0.022275548    -3.922385   0.67497572   421013 
 3977000   0.60547683    -3.919764    -3.919764   -3.2478435  0.025231728    -3.919764   0.67192046   421013 
 3978000   0.60702206   -3.9215775   -3.9215775   -3.2479422  0.033601684   -3.9215775   0.67363526   421013 
 3979000   0.60619982   -3.9212303   -3.9212303   -3.2485075  0.044175778   -3.9212303    0.6727228   421013 
 3980000    0.6070273   -3.9223722   -3.9223722   -3.2487311   0.01995959   -3.9223722   0.67364108   421013 
 3981000   0.60656653   -3.9219696   -3.9219696   -3.2488399  0.034822017   -3.9219696   0.67312975   421013 
 3982000   0.60526194   -3.9202268   -3.9202268   -3.2485448  0.040534385   -3.9202268     0.671682   421013 
 3983000   0.60661581   -3.9208557   -3.9208557   -3.2476712  0.027604973   -3.9208557   0.67318443   421013 
 3984000   0.60748183   -3.9220222   -3.9220222   -3.2478767  0.046270415   -3.9220222   0.67414549   421013 
 3985000   0.60660292   -3.9212116   -3.9212116   -3.2480415  0.016513782   -3.9212116   0.67317013   421013 
 3986000   0.60643218   -3.9208089   -3.9208089   -3.2478282  0.033725819   -3.9208089   0.67298066   421013 
 3987000   0.60709352   -3.9212093   -3.9212093   -3.2474947  0.043268152   -3.9212093   0.67371457   421013 
 3988000   0.60698482   -3.9206215   -3.9206215   -3.2470276  0.036209444   -3.9206215   0.67359394   421013 
 3989000   0.60758235   -3.9220599   -3.9220599   -3.2478029  0.016681725   -3.9220599   0.67425704   421013 
 3990000   0.60728547   -3.9216943   -3.9216943   -3.2477667  0.025177726   -3.9216943   0.67392758   421013 
 3991000   0.60680269   -3.9213033   -3.9213033   -3.2479115  0.036763228   -3.9213033   0.67339182   421013 
 3992000   0.60746217   -3.9214747   -3.9214747    -3.247351  0.037199295   -3.9214747   0.67412367   421013 
 3993000   0.60746323    -3.922168    -3.922168   -3.2480431  0.022875602    -3.922168   0.67412485   421013 
 3994000   0.60651285   -3.9215236   -3.9215236   -3.2484534  0.034454063   -3.9215236   0.67307018   421013 
 3995000   0.60571046    -3.921496    -3.921496   -3.2493162  0.024964161    -3.921496   0.67217974   421013 
 3996000   0.60489682    -3.920229    -3.920229   -3.2489522  0.027276241    -3.920229   0.67127681   421013 
 3997000   0.60636294   -3.9216554   -3.9216554   -3.2487516  0.036991832   -3.9216554   0.67290381   421013 
 3998000   0.60686651    -3.922604    -3.922604   -3.2491414  0.034211542    -3.922604   0.67346265   421013 
 3999000   0.60634261   -3.9221962   -3.9221962   -3.2493149  0.043494017   -3.9221962   0.67288126   421013 
 4000000   0.60599852   -3.9220879   -3.9220879   -3.2495884  0.044407878   -3.9220879   0.67249941   421013 
 4001000    0.6065215   -3.9224665   -3.9224665   -3.2493868  0.029283638   -3.9224665   0.67307978   421013 
 4002000   0.60761054   -3.9231057   -3.9231057   -3.2488174  0.021683776   -3.9231057   0.67428833   421013 
 4003000    0.6059912   -3.9216178   -3.9216178   -3.2491265  0.029537444   -3.9216178   0.67249128   421013 
 4004000   0.60663429   -3.9221142   -3.9221142   -3.2489092  0.038090235   -3.9221142   0.67320494   421013 
 4005000   0.60605644   -3.9220801   -3.9220801   -3.2495164  0.022756797   -3.9220801   0.67256368   421013 
 4006000   0.60624258   -3.9217438   -3.9217438   -3.2489735  0.022747831   -3.9217438   0.67277024   421013 
 4007000    0.6054479   -3.9207868   -3.9207868   -3.2488984  0.027560109   -3.9207868   0.67188836   421013 
 4008000   0.60868319   -3.9243896   -3.9243896   -3.2489109  0.034218017   -3.9243896   0.67547869   421013 
 4009000   0.60658349   -3.9220137   -3.9220137   -3.2488652   0.04293701   -3.9220137   0.67314857   421013 
 4010000   0.60596934   -3.9213054   -3.9213054   -3.2488383  0.017434912   -3.9213054   0.67246703   421013 
 4011000   0.60678751   -3.9224809   -3.9224809   -3.2491059  0.034163242   -3.9224809   0.67337498   421013 
 4012000   0.60785809   -3.9237692   -3.9237692   -3.2492061  0.037517874   -3.9237692   0.67456305   421013 
 4013000    0.6078264   -3.9228931   -3.9228931   -3.2483652  0.030018859   -3.9228931   0.67452787   421013 
 4014000   0.60672006   -3.9220398   -3.9220398   -3.2487396  0.025877219   -3.9220398   0.67330013   421013 
 4015000   0.60704401    -3.921723    -3.921723   -3.2480634  0.033634453    -3.921723   0.67365962   421013 
 4016000    0.6079389   -3.9229683   -3.9229683   -3.2483155  0.032237786   -3.9229683   0.67465272   421013 
 4017000   0.60679181   -3.9226182   -3.9226182   -3.2492385  0.034786784   -3.9226182   0.67337975   421013 
 4018000   0.60698396   -3.9229553   -3.9229553   -3.2493623  0.039455294   -3.9229553   0.67359298   421013 
 4019000   0.60661344   -3.9227926   -3.9227926   -3.2496108  0.030102101   -3.9227926   0.67318181   421013 
 4020000   0.60632508   -3.9219706   -3.9219706   -3.2491088  0.025763914   -3.9219706    0.6728618   421013 
 4021000   0.60592383   -3.9209528   -3.9209528   -3.2485362  0.021702426   -3.9209528   0.67241652   421013 
 4022000   0.60477511   -3.9208324   -3.9208324   -3.2496907   0.03184043   -3.9208324   0.67114175   421013 
 4023000    0.6062964   -3.9212428   -3.9212428   -3.2484128  0.035760832   -3.9212428   0.67282998   421013 
 4024000   0.60726677    -3.923053    -3.923053   -3.2491462  0.022065688    -3.923053   0.67390683   421013 
 4025000   0.60798193   -3.9235982   -3.9235982   -3.2488977  0.025160716   -3.9235982   0.67470048   421013 
 4026000   0.60605354   -3.9210966   -3.9210966   -3.2485361   0.03912359   -3.9210966   0.67256047   421013 
 4027000   0.60626708    -3.920791    -3.920791   -3.2479936  0.026098931    -3.920791   0.67279744   421013 
 4028000    0.6076963   -3.9217288   -3.9217288   -3.2473453  0.028420458   -3.9217288   0.67438349   421013 
 4029000    0.6058249   -3.9203907   -3.9203907    -3.248084  0.031791222   -3.9203907   0.67230674   421013 
 4030000   0.60595456    -3.920789    -3.920789   -3.2483384  0.026763212    -3.920789   0.67245062   421013 
 4031000   0.60722778   -3.9217604   -3.9217604   -3.2478968  0.037288263   -3.9217604   0.67386356   421013 
 4032000   0.60727784   -3.9220837   -3.9220837   -3.2481646  0.024431547   -3.9220837   0.67391912   421013 
 4033000   0.60697544    -3.921776    -3.921776   -3.2481924  0.038464716    -3.921776   0.67358353   421013 
 4034000   0.60773306   -3.9226515   -3.9226515   -3.2482272  0.037329426   -3.9226515   0.67442429   421013 
 4035000   0.60782979   -3.9220663   -3.9220663   -3.2475347  0.034667259   -3.9220663   0.67453163   421013 
 4036000   0.60886652   -3.9225568   -3.9225568   -3.2468746  0.034474621   -3.9225568   0.67568214   421013 
 4037000    0.6077774     -3.92251     -3.92251   -3.2480365  0.041650612     -3.92251    0.6744735   421013 
 4038000   0.60769046   -3.9231891   -3.9231891   -3.2488121  0.038905485   -3.9231891   0.67437701   421013 
 4039000    0.6065813   -3.9220768   -3.9220768   -3.2489306  0.038601272   -3.9220768   0.67314613   421013 
 4040000   0.60677797   -3.9222679   -3.9222679   -3.2489035  0.023972995   -3.9222679   0.67336439   421013 
 4041000    0.6068717    -3.921855    -3.921855   -3.2483866  0.038715517    -3.921855   0.67346841   421013 
 4042000   0.60656432   -3.9218686   -3.9218686   -3.2487413  0.033838496   -3.9218686    0.6731273   421013 
 4043000   0.60563908   -3.9207773   -3.9207773   -3.2486767  0.029090001   -3.9207773   0.67210052   421013 
 4044000    0.6063089   -3.9223138   -3.9223138     -3.24947  0.025799673   -3.9223138   0.67284384   421013 
 4045000   0.60615542   -3.9220964   -3.9220964   -3.2494229  0.023683717   -3.9220964   0.67267353   421013 
 4046000   0.60665677   -3.9222581   -3.9222581   -3.2490283  0.027951245   -3.9222581   0.67322989   421013 
 4047000   0.60638027   -3.9216819   -3.9216819   -3.2487589  0.025478102   -3.9216819   0.67292305   421013 
 4048000   0.60684436   -3.9208829   -3.9208829   -3.2474449  0.024608514   -3.9208829   0.67343807   421013 
 4049000   0.60719451   -3.9218968   -3.9218968   -3.2480701  0.034436654   -3.9218968   0.67382665   421013 
 4050000   0.60688919   -3.9214418   -3.9214418    -3.247954  0.026730211   -3.9214418   0.67348782   421013 
 4051000   0.60665477   -3.9212232   -3.9212232   -3.2479955  0.041885317   -3.9212232   0.67322768   421013 
 4052000   0.60754094   -3.9226408   -3.9226408   -3.2484297  0.031738613   -3.9226408   0.67421109   421013 
 4053000   0.60757301   -3.9225648   -3.9225648   -3.2483181  0.025334853   -3.9225648   0.67424667   421013 
 4054000   0.60743568    -3.923163    -3.923163   -3.2490687  0.034325379    -3.923163   0.67409427   421013 
 4055000    0.6079079   -3.9237544   -3.9237544   -3.2491361  0.016154103   -3.9237544   0.67461831   421013 
 4056000    0.6053522   -3.9219403   -3.9219403   -3.2501581  0.013625246   -3.9219403   0.67178216   421013 
 4057000   0.60500467   -3.9212017   -3.9212017   -3.2498052  0.037934556   -3.9212017   0.67139649   421013 
 4058000   0.60645372   -3.9227604   -3.9227604   -3.2497558  0.038594711   -3.9227604   0.67300456   421013 
 4059000   0.60474574   -3.9213727   -3.9213727   -3.2502636  0.036677004   -3.9213727   0.67110915   421013 
 4060000   0.60752498   -3.9246163   -3.9246163   -3.2504229  0.038806365   -3.9246163   0.67419338   421013 
 4061000   0.60646241   -3.9235797   -3.9235797   -3.2505655  0.034995963   -3.9235797    0.6730142   421013 
 4062000   0.60615625   -3.9228752   -3.9228752   -3.2502008  0.039468028   -3.9228752   0.67267445   421013 
 4063000   0.60559277   -3.9234501   -3.9234501    -3.251401  0.033199046   -3.9234501   0.67204913   421013 
 4064000   0.60525565   -3.9234803   -3.9234803   -3.2518053   0.03827028   -3.9234803   0.67167501   421013 
 4065000   0.60643243   -3.9243267   -3.9243267   -3.2513457  0.027935636   -3.9243267   0.67298093   421013 
 4066000   0.60800254   -3.9261033   -3.9261033   -3.2513799  0.027564738   -3.9261033   0.67472335   421013 
 4067000   0.60673381   -3.9234245   -3.9234245   -3.2501091  0.023553345   -3.9234245   0.67331538   421013 
 4068000   0.60636901   -3.9237124   -3.9237124   -3.2508019  0.045184036   -3.9237124   0.67291056   421013 
 4069000   0.60615619   -3.9237068   -3.9237068   -3.2510324  0.044338604   -3.9237068   0.67267438   421013 
 4070000   0.60672483   -3.9241376   -3.9241376   -3.2508321  0.032800533   -3.9241376   0.67330542   421013 
 4071000   0.60800056   -3.9258122   -3.9258122   -3.2510911  0.032271456   -3.9258122   0.67472115   421013 
 4072000    0.6064944   -3.9244814   -3.9244814   -3.2514317  0.037214172   -3.9244814   0.67304971   421013 
 4073000     0.608169     -3.92587     -3.92587    -3.250962  0.021859032     -3.92587   0.67490807   421013 
 4074000   0.60674915   -3.9238409   -3.9238409   -3.2505085  0.033623584   -3.9238409   0.67333241   421013 
 4075000   0.60717003   -3.9243715   -3.9243715    -3.250572  0.036794675   -3.9243715   0.67379947   421013 
 4076000   0.60771587   -3.9252166   -3.9252166   -3.2508114   0.02998526   -3.9252166   0.67440521   421013 
 4077000   0.60530216    -3.922487    -3.922487   -3.2507604  0.045055687    -3.922487   0.67172663   421013 
 4078000    0.6066412   -3.9245754   -3.9245754   -3.2513628  0.021732528   -3.9245754   0.67321261   421013 
 4079000   0.60745772    -3.925219    -3.925219   -3.2511002  0.042110568    -3.925219   0.67411873   421013 
 4080000   0.60737018     -3.92525     -3.92525   -3.2512284  0.031124237     -3.92525   0.67402159   421013 
 4081000   0.60758595   -3.9264919   -3.9264919   -3.2522308  0.029876264   -3.9264919   0.67426103   421013 
 4082000   0.60673668   -3.9254795   -3.9254795    -3.252161  0.018575901   -3.9254795   0.67331857   421013 
 4083000   0.60675113   -3.9252554   -3.9252554   -3.2519208  0.025101028   -3.9252554   0.67333461   421013 
 4084000   0.60659605   -3.9251907   -3.9251907   -3.2520282  0.037823361   -3.9251907   0.67316251   421013 
 4085000   0.60722444    -3.925058    -3.925058   -3.2511982  0.024154605    -3.925058   0.67385985   421013 
 4086000    0.6074342    -3.925076    -3.925076   -3.2509834  0.043261059    -3.925076   0.67409263   421013 
 4087000   0.60674006   -3.9247522   -3.9247522   -3.2514299  0.035129587   -3.9247522   0.67332232   421013 
 4088000   0.60644867   -3.9247183   -3.9247183   -3.2517193  0.039051754   -3.9247183   0.67299896   421013 
 4089000   0.60616905   -3.9248611   -3.9248611   -3.2521725  0.034622184   -3.9248611   0.67268865   421013 
 4090000   0.60700836   -3.9251617   -3.9251617   -3.2515416  0.027500033   -3.9251617   0.67362007   421013 
 4091000   0.60598934   -3.9239755   -3.9239755   -3.2514863  0.025351465   -3.9239755   0.67248921   421013 
 4092000   0.60586703   -3.9238196   -3.9238196   -3.2514661  0.027763359   -3.9238196   0.67235349   421013 
 4093000   0.60578392   -3.9244636   -3.9244636   -3.2522024 0.0047859702   -3.9244636   0.67226125   421013 
 4094000    0.6067218   -3.9253851   -3.9253851   -3.2520831  0.027768344   -3.9253851   0.67330206   421013 
 4095000   0.60589474   -3.9235916   -3.9235916   -3.2512073  0.034947068   -3.9235916   0.67238423   421013 
 4096000   0.60748883   -3.9259014   -3.9259014   -3.2517481  0.030439094   -3.9259014   0.67415325   421013 
 4097000   0.60570226   -3.9240361   -3.9240361   -3.2518655  0.038504248   -3.9240361   0.67217063   421013 
 4098000   0.60632743   -3.9242694   -3.9242694    -3.251405     0.031296   -3.9242694   0.67286441   421013 
 4099000    0.6078723   -3.9259602   -3.9259602   -3.2513813  0.035349267   -3.9259602   0.67457882   421013 
 4100000   0.60715428   -3.9244605   -3.9244605   -3.2506785  0.027639345   -3.9244605   0.67378199   421013 
 4101000   0.60678998   -3.9251732   -3.9251732   -3.2517954  0.042059089   -3.9251732   0.67337771   421013 
 4102000   0.60699444   -3.9260672   -3.9260672   -3.2524626  0.038135351   -3.9260672   0.67360461   421013 
 4103000   0.60679314   -3.9253284   -3.9253284   -3.2519471  0.030108516   -3.9253284   0.67338123   421013 
 4104000   0.60697059   -3.9258783   -3.9258783   -3.2523002  0.033163143   -3.9258783   0.67357815   421013 
 4105000   0.60638891   -3.9255733   -3.9255733   -3.2526406  0.039817871   -3.9255733   0.67293264   421013 
 4106000   0.60568381    -3.925743    -3.925743   -3.2535928  0.049187519    -3.925743   0.67215016   421013 
 4107000   0.60630186   -3.9263653   -3.9263653   -3.2535292  0.020122911   -3.9263653   0.67283604   421013 
 4108000   0.60572559   -3.9256098   -3.9256098   -3.2534132  0.032311632   -3.9256098   0.67219653   421013 
 4109000   0.60550584   -3.9255838   -3.9255838   -3.2536312  0.037806596   -3.9255838   0.67195266   421013 
 4110000   0.60600008   -3.9258495   -3.9258495   -3.2533484  0.020170776   -3.9258495   0.67250114   421013 
 4111000   0.60578177   -3.9258205   -3.9258205   -3.2535617  0.027679735   -3.9258205   0.67225888   421013 
 4112000   0.60490386   -3.9244996   -3.9244996   -3.2532149  0.028107121   -3.9244996   0.67128463   421013 
 4113000   0.60541979   -3.9246873   -3.9246873   -3.2528301  0.032809231   -3.9246873   0.67185717   421013 
 4114000   0.60702895   -3.9258012   -3.9258012   -3.2521583  0.033108936   -3.9258012   0.67364291   421013 
 4115000   0.60624369   -3.9248009   -3.9248009   -3.2520294   0.02404304   -3.9248009   0.67277149   421013 
 4116000   0.60624148   -3.9251401   -3.9251401   -3.2523711  0.017387024   -3.9251401   0.67276903   421013 
 4117000   0.60563473   -3.9240172   -3.9240172   -3.2519215  0.026430733   -3.9240172   0.67209569   421013 
 4118000   0.60603544   -3.9244943   -3.9244943   -3.2519539  0.029525073   -3.9244943   0.67254038   421013 
 4119000   0.60510778   -3.9243666   -3.9243666   -3.2528557  0.031581435   -3.9243666   0.67151092   421013 
 4120000   0.60557749   -3.9246357   -3.9246357   -3.2526036  0.025857163   -3.9246357   0.67203217   421013 
 4121000   0.60501296   -3.9244541   -3.9244541   -3.2530484  0.011992833   -3.9244541    0.6714057   421013 
 4122000   0.60480054   -3.9249759   -3.9249759   -3.2538059  0.032864179   -3.9249759   0.67116996   421013 
 4123000   0.60460808   -3.9244276   -3.9244276   -3.2534712  0.038446029   -3.9244276   0.67095638   421013 
 4124000   0.60651106   -3.9260129   -3.9260129   -3.2529447  0.018720098   -3.9260129    0.6730682   421013 
 4125000   0.60715804   -3.9261299   -3.9261299   -3.2523437  0.033673955   -3.9261299   0.67378616   421013 
 4126000   0.60670414   -3.9259913   -3.9259913   -3.2527088  0.031941004   -3.9259913   0.67328246   421013 
 4127000   0.60612971   -3.9257804   -3.9257804   -3.2531354  0.026627591   -3.9257804   0.67264499   421013 
 4128000   0.60567833   -3.9247481   -3.9247481    -3.252604  0.026175395   -3.9247481   0.67214408   421013 
 4129000   0.60516019   -3.9250371   -3.9250371   -3.2534681  0.032735059   -3.9250371   0.67156908   421013 
 4130000   0.60572353   -3.9252074   -3.9252074   -3.2530132  0.048168058   -3.9252074   0.67219424   421013 
 4131000   0.60575236   -3.9259166   -3.9259166   -3.2536904  0.027610852   -3.9259166   0.67222623   421013 
 4132000   0.60674558   -3.9260751   -3.9260751   -3.2527466  0.035642807   -3.9260751   0.67332845   421013 
 4133000   0.60652864   -3.9259749   -3.9259749   -3.2528872  0.033544792   -3.9259749    0.6730877   421013 
 4134000   0.60578182   -3.9245331   -3.9245331   -3.2522742  0.022209874   -3.9245331   0.67225892   421013 
 4135000   0.60528871    -3.924366    -3.924366   -3.2526543  0.041429908    -3.924366    0.6717117   421013 
 4136000   0.60625487   -3.9249595   -3.9249595   -3.2521756  0.031022226   -3.9249595   0.67278389   421013 
 4137000   0.60712803     -3.92652     -3.92652   -3.2527672  0.026499785     -3.92652   0.67375286   421013 
 4138000   0.60529921    -3.924294    -3.924294   -3.2525706  0.030576525    -3.924294   0.67172336   421013 
 4139000   0.60553494   -3.9248649   -3.9248649     -3.25288  0.043480718   -3.9248649   0.67198495   421013 
 4140000   0.60587065   -3.9253787   -3.9253787   -3.2530212  0.029239378   -3.9253787   0.67235751   421013 
 4141000     0.606447   -3.9257397   -3.9257397   -3.2527426  0.040140437   -3.9257397    0.6729971   421013 
 4142000   0.60698534   -3.9262292   -3.9262292   -3.2526347  0.028328991   -3.9262292   0.67359452   421013 
 4143000   0.60522586   -3.9243031   -3.9243031   -3.2526611  0.026329995   -3.9243031   0.67164196   421013 
 4144000   0.60662679   -3.9254573   -3.9254573   -3.2522607  0.040626224   -3.9254573   0.67319662   421013 
 4145000   0.60601618   -3.9246163   -3.9246163   -3.2520973   0.04286494   -3.9246163     0.672519   421013 
 4146000   0.60608031   -3.9255588   -3.9255588   -3.2529687  0.023214196   -3.9255588   0.67259017   421013 
 4147000   0.60577181   -3.9249231   -3.9249231   -3.2526753  0.036683421   -3.9249231   0.67224781   421013 
 4148000   0.60630043   -3.9256129   -3.9256129   -3.2527784  0.023575779   -3.9256129   0.67283445   421013 
 4149000   0.60718361   -3.9273536   -3.9273536   -3.2535391  0.028282338   -3.9273536   0.67381455   421013 
 4150000   0.60620458   -3.9260336   -3.9260336   -3.2533056  0.039784037   -3.9260336   0.67272808   421013 
 4151000   0.60708618   -3.9262069   -3.9262069   -3.2525005  0.036824363   -3.9262069   0.67370643   421013 
 4152000   0.60673212   -3.9259735   -3.9259735     -3.25266  0.043634519   -3.9259735   0.67331351   421013 
 4153000   0.60595901   -3.9257671   -3.9257671   -3.2533115  0.025347444   -3.9257671   0.67245556   421013 
 4154000   0.60632116   -3.9255971   -3.9255971   -3.2527397  0.026051074   -3.9255971   0.67285746   421013 
 4155000   0.60594903   -3.9253992   -3.9253992   -3.2529547  0.032413443   -3.9253992   0.67244448   421013 
 4156000    0.6047522   -3.9241726   -3.9241726   -3.2530562  0.033811062   -3.9241726   0.67111631   421013 
 4157000    0.6050939   -3.9236606   -3.9236606    -3.252165  0.049741231   -3.9236606   0.67149551   421013 
 4158000   0.60571994    -3.924822    -3.924822   -3.2526317  0.038232295    -3.924822   0.67219026   421013 
 4159000   0.60548496   -3.9255926   -3.9255926   -3.2536631  0.014782112   -3.9255926   0.67192949   421013 
 4160000   0.60494471   -3.9256286   -3.9256286   -3.2542986  0.046250931   -3.9256286   0.67132996   421013 
 4161000   0.60662396   -3.9270327   -3.9270327   -3.2538392   0.03191582   -3.9270327   0.67319348   421013 
 4162000   0.60534893   -3.9254286   -3.9254286   -3.2536501  0.037175786   -3.9254286   0.67177853   421013 
 4163000   0.60689199   -3.9273513   -3.9273513   -3.2538604  0.030132622   -3.9273513   0.67349092   421013 
 4164000   0.60698438    -3.927359    -3.927359   -3.2537655  0.031099402    -3.927359   0.67359346   421013 
 4165000   0.60687897   -3.9277561   -3.9277561   -3.2542797   0.02948215   -3.9277561   0.67347647   421013 
 4166000   0.60639282   -3.9274289   -3.9274289    -3.254492   0.02923001   -3.9274289   0.67293698   421013 
 4167000   0.60700641   -3.9286923   -3.9286923   -3.2550744  0.035895133   -3.9286923    0.6736179   421013 
 4168000   0.60592389   -3.9279042   -3.9279042   -3.2554876  0.033568632   -3.9279042   0.67241659   421013 
 4169000   0.60610749   -3.9278572   -3.9278572   -3.2552369  0.027468537   -3.9278572   0.67262033   421013 
 4170000   0.60633291   -3.9284689   -3.9284689   -3.2555984  0.040998882   -3.9284689    0.6728705   421013 
 4171000   0.60665643   -3.9282198   -3.9282198   -3.2549903  0.029656153   -3.9282198   0.67322951   421013 
 4172000   0.60617366   -3.9271209   -3.9271209   -3.2544272  0.023038108   -3.9271209   0.67269376   421013 
 4173000   0.60537862   -3.9261207   -3.9261207   -3.2543092  0.021012702   -3.9261207   0.67181148   421013 
 4174000   0.60597849   -3.9263976   -3.9263976   -3.2539204  0.029496233   -3.9263976   0.67247718   421013 
 4175000   0.60610114   -3.9265086   -3.9265086   -3.2538953  0.029597409   -3.9265086   0.67261329   421013 
 4176000   0.60609261   -3.9263944   -3.9263944   -3.2537906  0.024777819   -3.9263944   0.67260382   421013 
 4177000   0.60633881   -3.9270888   -3.9270888   -3.2542118  0.019282328   -3.9270888   0.67287703   421013 
 4178000   0.60593557     -3.92719     -3.92719   -3.2547605  0.039978038     -3.92719   0.67242955   421013 
 4179000   0.60471947   -3.9259701   -3.9259701   -3.2548901  0.035873454   -3.9259701      0.67108   421013 
 4180000   0.60601419   -3.9270756   -3.9270756   -3.2545588   0.03637623   -3.9270756    0.6725168   421013 
 4181000    0.6062303   -3.9267166   -3.9267166   -3.2539599  0.031173918   -3.9267166   0.67275662   421013 
 4182000   0.60694668   -3.9276545   -3.9276545   -3.2541029  0.028171986   -3.9276545   0.67355161   421013 
 4183000   0.60642749   -3.9272946   -3.9272946   -3.2543191  0.030504365   -3.9272946   0.67297545   421013 
 4184000   0.60680044   -3.9274975   -3.9274975   -3.2541082  0.041000341   -3.9274975   0.67338933   421013 
 4185000   0.60660599   -3.9276998   -3.9276998   -3.2545263  0.032296904   -3.9276998   0.67317354   421013 
 4186000   0.60731338   -3.9274175   -3.9274175    -3.253459  0.026550034   -3.9274175   0.67395856   421013 
 4187000   0.60636667   -3.9270853   -3.9270853   -3.2541774  0.039839443   -3.9270853   0.67290796   421013 
 4188000   0.60613405   -3.9273201   -3.9273201   -3.2546703  0.022417115   -3.9273201   0.67264981   421013 
 4189000   0.60620262   -3.9273527   -3.9273527   -3.2546268  0.032284991   -3.9273527   0.67272591   421013 
 4190000   0.60620776   -3.9271033   -3.9271033   -3.2543717  0.033417312   -3.9271033   0.67273161   421013 
 4191000   0.60667689   -3.9277929   -3.9277929   -3.2545407  0.032733371   -3.9277929   0.67325222   421013 
 4192000   0.60646183   -3.9272602   -3.9272602   -3.2542467  0.037830899   -3.9272602   0.67301356   421013 
 4193000   0.60585004    -3.926681    -3.926681   -3.2543464  0.030773115    -3.926681   0.67233463   421013 
 4194000   0.60687035   -3.9275685   -3.9275685   -3.2541016  0.047441154   -3.9275685   0.67346691   421013 
 4195000   0.60547439   -3.9269705   -3.9269705   -3.2550528  0.033038096   -3.9269705   0.67191776   421013 
 4196000   0.60653994   -3.9284033   -3.9284033   -3.2553031  0.032404008   -3.9284033   0.67310025   421013 
 4197000   0.60436714   -3.9264373   -3.9264373   -3.2557483  0.032506522   -3.9264373     0.670689   421013 
 4198000   0.60545707   -3.9278675   -3.9278675    -3.255969  0.020477422   -3.9278675   0.67189854   421013 
 4199000   0.60504044   -3.9278741   -3.9278741   -3.2564379  0.035408118   -3.9278741   0.67143619   421013 
 4200000   0.60568316   -3.9285758   -3.9285758   -3.2564264  0.034983278   -3.9285758   0.67214943   421013 
 4201000   0.60429032   -3.9267705   -3.9267705   -3.2561667  0.045671874   -3.9267705   0.67060375   421013 
 4202000   0.60497663   -3.9275614   -3.9275614    -3.256196  0.029520064   -3.9275614   0.67136538   421013 
 4203000   0.60636393   -3.9289711   -3.9289711   -3.2560662  0.031509871   -3.9289711   0.67290491   421013 
 4204000   0.60563809    -3.927582    -3.927582   -3.2554826  0.035237041    -3.927582   0.67209942   421013 
 4205000   0.60589322     -3.92792     -3.92792   -3.2555374  0.031172919     -3.92792   0.67238255   421013 
 4206000   0.60496614   -3.9266829   -3.9266829   -3.2553292  0.029637865   -3.9266829   0.67135373   421013 
 4207000   0.60459461   -3.9265749   -3.9265749   -3.2556334  0.021802136   -3.9265749   0.67094144   421013 
 4208000   0.60604647   -3.9281358   -3.9281358   -3.2555832  0.036174607   -3.9281358   0.67255262   421013 
 4209000   0.60470457   -3.9256318   -3.9256318   -3.2545683  0.032060653   -3.9256318   0.67106346   421013 
 4210000   0.60637969   -3.9277563   -3.9277563   -3.2548339  0.036279075   -3.9277563    0.6729224   421013 
 4211000   0.60601326   -3.9276485   -3.9276485   -3.2551327   0.02763546   -3.9276485   0.67251577   421013 
 4212000   0.60448806   -3.9257401   -3.9257401   -3.2549169  0.034012906   -3.9257401   0.67082319   421013 
 4213000    0.6060331   -3.9275541   -3.9275541   -3.2550163  0.037949383   -3.9275541   0.67253778   421013 
 4214000   0.60650489   -3.9287057   -3.9287057   -3.2556444  0.017431774   -3.9287057   0.67306135   421013 
 4215000   0.60674395   -3.9287585   -3.9287585   -3.2554319  0.038963125   -3.9287585   0.67332664   421013 
 4216000   0.60584657   -3.9278328   -3.9278328   -3.2555021  0.024754306   -3.9278328   0.67233078   421013 
 4217000   0.60566861   -3.9280625   -3.9280625   -3.2559292  0.041168138   -3.9280625   0.67213329   421013 
 4218000    0.6051808   -3.9269442   -3.9269442   -3.2553522  0.026238809   -3.9269442   0.67159195   421013 
 4219000    0.6054264   -3.9267512   -3.9267512   -3.2548867  0.033531978   -3.9267512    0.6718645   421013 
 4220000   0.60614766   -3.9276616   -3.9276616   -3.2549967  0.042200028   -3.9276616   0.67266492   421013 
 4221000    0.6062977   -3.9278346   -3.9278346   -3.2550032  0.029251976   -3.9278346   0.67283142   421013 
 4222000   0.60661877    -3.928757    -3.928757   -3.2555693  0.023249458    -3.928757   0.67318773   421013 
 4223000   0.60590093   -3.9278115   -3.9278115   -3.2554204  0.046684002   -3.9278115   0.67239111   421013 
 4224000   0.60444037   -3.9271034   -3.9271034   -3.2563332  0.039141431   -3.9271034   0.67077027   421013 
 4225000    0.6050208   -3.9281235   -3.9281235   -3.2567091  0.036890945   -3.9281235   0.67141439   421013 
 4226000   0.60460478   -3.9274087   -3.9274087    -3.256456  0.041415085   -3.9274087   0.67095272   421013 
 4227000   0.60539942   -3.9281529   -3.9281529   -3.2563184  0.021707624   -3.9281529   0.67183456   421013 
 4228000   0.60464327   -3.9273722   -3.9273722   -3.2563768  0.049922304   -3.9273722   0.67099544   421013 
 4229000   0.60452364   -3.9268401   -3.9268401   -3.2559774  0.032515766   -3.9268401   0.67086268   421013 
 4230000   0.60607601   -3.9288737   -3.9288737   -3.2562883  0.023870702   -3.9288737    0.6725854   421013 
 4231000   0.60430546   -3.9264264   -3.9264264   -3.2558058  0.017639145   -3.9264264   0.67062056   421013 
 4232000   0.60544135   -3.9272227   -3.9272227   -3.2553416  0.042701959   -3.9272227    0.6718811   421013 
 4233000   0.60459279   -3.9268177   -3.9268177   -3.2558783   0.03770129   -3.9268177   0.67093942   421013 
 4234000   0.60574886   -3.9277945   -3.9277945   -3.2555721  0.027339883   -3.9277945   0.67222234   421013 
 4235000   0.60536943   -3.9274128   -3.9274128   -3.2556115  0.034071816   -3.9274128   0.67180128   421013 
 4236000   0.60721752   -3.9297761   -3.9297761   -3.2559239  0.027799486   -3.9297761   0.67385218   421013 
 4237000   0.60587303     -3.92928     -3.92928   -3.2569199  0.028506023     -3.92928   0.67236015   421013 
 4238000   0.60461543   -3.9281445   -3.9281445   -3.2571799   0.03454576   -3.9281445   0.67096454   421013 
 4239000    0.6052466   -3.9282663   -3.9282663   -3.2566013  0.027751286   -3.9282663   0.67166497   421013 
 4240000   0.60576185   -3.9283531   -3.9283531   -3.2561163  0.039384186   -3.9283531   0.67223676   421013 
 4241000   0.60664143   -3.9293865   -3.9293865   -3.2561736  0.022900934   -3.9293865   0.67321286   421013 
 4242000   0.60604944    -3.928726    -3.928726     -3.25617  0.025986818    -3.928726   0.67255592   421013 
 4243000   0.60529199   -3.9288324   -3.9288324    -3.257117  0.037681506   -3.9288324   0.67171534   421013 
 4244000   0.60489308   -3.9282809   -3.9282809   -3.2570083  0.037706986   -3.9282809   0.67127265   421013 
 4245000    0.6063995   -3.9291365   -3.9291365   -3.2561921  0.026312703   -3.9291365   0.67294439   421013 
 4246000   0.60576676   -3.9279083   -3.9279083   -3.2556661  0.031497243   -3.9279083   0.67224221   421013 
 4247000   0.60594132   -3.9284387   -3.9284387   -3.2560028  0.017868814   -3.9284387   0.67243593   421013 
 4248000   0.60526555   -3.9278175   -3.9278175   -3.2561315  0.037225658   -3.9278175     0.671686   421013 
 4249000   0.60385475   -3.9267221   -3.9267221   -3.2566017   0.03159889   -3.9267221   0.67012039   421013 
 4250000   0.60595139    -3.928794    -3.928794   -3.2563469  0.030198409    -3.928794    0.6724471   421013 
 4251000   0.60562455   -3.9278356   -3.9278356   -3.2557512  0.041062371   -3.9278356    0.6720844   421013 
 4252000   0.60504135   -3.9286702   -3.9286702    -3.257233  0.020567491   -3.9286702    0.6714372   421013 
 4253000   0.60618881   -3.9289888   -3.9289888   -3.2562783  0.031028986   -3.9289888   0.67271058   421013 
 4254000   0.60594233   -3.9294761   -3.9294761   -3.2570391  0.020851674   -3.9294761   0.67243705   421013 
 4255000   0.60598258   -3.9287958   -3.9287958    -3.256314  0.043123634   -3.9287958   0.67248172   421013 
 4256000   0.60520852   -3.9277935   -3.9277935   -3.2561708  0.032370944   -3.9277935   0.67162271   421013 
 4257000   0.60660413   -3.9288302   -3.9288302   -3.2556587  0.035698799   -3.9288302   0.67317147   421013 
 4258000   0.60609376   -3.9285241   -3.9285241    -3.255919  0.034268559   -3.9285241    0.6726051   421013 
 4259000   0.60684101   -3.9294201   -3.9294201   -3.2559858  0.031915262   -3.9294201   0.67343435   421013 
 4260000   0.60604602   -3.9298565   -3.9298565   -3.2573044  0.038789751   -3.9298565   0.67255212   421013 
 4261000   0.60570805   -3.9286793   -3.9286793   -3.2565022  0.032680297   -3.9286793   0.67217707   421013 
 4262000   0.60575294   -3.9291017   -3.9291017   -3.2568749  0.037037656   -3.9291017   0.67222688   421013 
 4263000   0.60573237   -3.9292633   -3.9292633   -3.2570592  0.033424759   -3.9292633   0.67220405   421013 
 4264000   0.60567947    -3.928832    -3.928832   -3.2566866  0.040774558    -3.928832   0.67214534   421013 
 4265000   0.60612293   -3.9286601   -3.9286601   -3.2560226  0.028198149   -3.9286601   0.67263747   421013 
 4266000   0.60568772   -3.9283675   -3.9283675    -3.256213   0.02828169   -3.9283675    0.6721545   421013 
 4267000   0.60636157    -3.927908    -3.927908   -3.2550057   0.02763775    -3.927908    0.6729023   421013 
 4268000   0.60640171   -3.9294636   -3.9294636   -3.2565167  0.023248832   -3.9294636   0.67294684   421013 
 4269000   0.60640546   -3.9292527   -3.9292527   -3.2563017  0.035781238   -3.9292527   0.67295101   421013 
 4270000   0.60485324   -3.9275198   -3.9275198   -3.2562913  0.028662617   -3.9275198   0.67122845   421013 
 4271000   0.60721459   -3.9294016   -3.9294016   -3.2555527  0.030755389   -3.9294016   0.67384892   421013 
 4272000    0.6057335   -3.9285204   -3.9285204   -3.2563151  0.034111837   -3.9285204   0.67220531   421013 
 4273000   0.60553792   -3.9285925   -3.9285925   -3.2566042  0.036668932   -3.9285925   0.67198827   421013 
 4274000   0.60499227   -3.9278136   -3.9278136   -3.2564308  0.027029541   -3.9278136   0.67138274   421013 
 4275000   0.60429873   -3.9271537   -3.9271537   -3.2565406  0.043718733   -3.9271537   0.67061309   421013 
 4276000   0.60635556   -3.9294261   -3.9294261   -3.2565305  0.019075423   -3.9294261   0.67289563   421013 
 4277000   0.60565832   -3.9287225   -3.9287225   -3.2566006  0.047932039   -3.9287225   0.67212187   421013 
 4278000   0.60508152    -3.928098    -3.928098   -3.2566162  0.036632387    -3.928098   0.67148178   421013 
 4279000   0.60610643   -3.9293383   -3.9293383   -3.2567191  0.028588153   -3.9293383   0.67261916   421013 
 4280000   0.60555899   -3.9283558   -3.9283558   -3.2563441  0.023412343   -3.9283558   0.67201164   421013 
 4281000   0.60575123   -3.9285247   -3.9285247   -3.2562997  0.025775455   -3.9285247   0.67222498   421013 
 4282000   0.60653936   -3.9301311   -3.9301311   -3.2570315  0.044520596   -3.9301311    0.6730996   421013 
 4283000   0.60739978    -3.930632    -3.930632   -3.2565776   0.03257799    -3.930632   0.67405444   421013 
 4284000   0.60593044   -3.9299818   -3.9299818   -3.2575579  0.044560031   -3.9299818   0.67242385   421013 
 4285000   0.60524793   -3.9286968   -3.9286968   -3.2570304  0.023967853   -3.9286968   0.67166644   421013 
 4286000   0.60517272   -3.9280174   -3.9280174   -3.2564344  0.034648663   -3.9280174   0.67158298   421013 
 4287000   0.60587002   -3.9290552   -3.9290552   -3.2566984  0.017289974   -3.9290552   0.67235681   421013 
 4288000   0.60532012   -3.9289789   -3.9289789   -3.2572323  0.026869245   -3.9289789   0.67174656   421013 
 4289000   0.60527212   -3.9289702   -3.9289702    -3.257277  0.039843514   -3.9289702   0.67169329   421013 
 4290000   0.60459759   -3.9288948   -3.9288948     -3.25795  0.037493295   -3.9288948   0.67094474   421013 
 4291000   0.60532406   -3.9296163   -3.9296163   -3.2578654  0.025512522   -3.9296163   0.67175093   421013 
 4292000   0.60515697   -3.9293683   -3.9293683   -3.2578028  0.038463163   -3.9293683   0.67156551   421013 
 4293000   0.60399044   -3.9287496   -3.9287496   -3.2584786  0.031755914   -3.9287496   0.67027096   421013 
 4294000   0.60539902    -3.929813    -3.929813   -3.2579789  0.030364033    -3.929813   0.67183411   421013 
 4295000   0.60513896   -3.9297579   -3.9297579   -3.2582124  0.030145639   -3.9297579   0.67154552   421013 
 4296000   0.60454793   -3.9291119   -3.9291119   -3.2582222  0.041421506   -3.9291119   0.67088963   421013 
 4297000   0.60444392   -3.9295534   -3.9295534   -3.2587792  0.039953055   -3.9295534   0.67077421   421013 
 4298000   0.60527088   -3.9297425   -3.9297425   -3.2580506  0.026509825   -3.9297425   0.67169192   421013 
 4299000   0.60443534   -3.9298245   -3.9298245   -3.2590598  0.020596743   -3.9298245   0.67076469   421013 
 4300000   0.60403872   -3.9292367   -3.9292367   -3.2589121  0.014480484   -3.9292367   0.67032454   421013 
 4301000   0.60337164   -3.9283214   -3.9283214   -3.2587371  0.033755459   -3.9283214   0.66958426   421013 
 4302000   0.60471157   -3.9302587   -3.9302587   -3.2591874  0.023783282   -3.9302587   0.67107123   421013 
 4303000   0.60504475   -3.9311548   -3.9311548   -3.2597138  0.018796391   -3.9311548   0.67144097   421013 
 4304000   0.60607501   -3.9317445   -3.9317445   -3.2591602  0.033459245   -3.9317445   0.67258429   421013 
 4305000   0.60559076   -3.9298938   -3.9298938   -3.2578469  0.033801595   -3.9298938    0.6720469   421013 
 4306000   0.60537794   -3.9303874   -3.9303874   -3.2585767  0.043566254   -3.9303874   0.67181072   421013 
 4307000   0.60660734   -3.9312834   -3.9312834   -3.2581084  0.035476081   -3.9312834   0.67317503   421013 
 4308000   0.60574618   -3.9301317   -3.9301317   -3.2579123  0.026310133   -3.9301317   0.67221938   421013 
 4309000   0.60495502   -3.9296582   -3.9296582   -3.2583168  0.030848208   -3.9296582   0.67134139   421013 
 4310000   0.60589141     -3.93041     -3.93041   -3.2580294  0.028310796     -3.93041   0.67238054   421013 
 4311000   0.60407687   -3.9287904   -3.9287904   -3.2584235  0.035269944   -3.9287904   0.67036687   421013 
 4312000     0.604668   -3.9292727   -3.9292727   -3.2582498  0.053182321   -3.9292727   0.67102288   421013 
 4313000   0.60528883   -3.9303228   -3.9303228    -3.258611  0.019295095   -3.9303228   0.67171184   421013 
 4314000   0.60605698   -3.9306016   -3.9306016   -3.2580373  0.040638702   -3.9306016   0.67256428   421013 
 4315000    0.6056288   -3.9306699   -3.9306699   -3.2585808  0.029299697   -3.9306699   0.67208911   421013 
 4316000   0.60533492   -3.9300911   -3.9300911   -3.2583281   0.03941009   -3.9300911   0.67176299   421013 
 4317000   0.60518734   -3.9295149   -3.9295149   -3.2579157  0.026953484   -3.9295149   0.67159921   421013 
 4318000   0.60597595   -3.9302681   -3.9302681   -3.2577937  0.029815978   -3.9302681   0.67247436   421013 
 4319000   0.60667571   -3.9305166   -3.9305166   -3.2572657   0.01778973   -3.9305166   0.67325091   421013 
 4320000   0.60618764   -3.9299145   -3.9299145   -3.2572053  0.032139139   -3.9299145   0.67270928   421013 
 4321000   0.60559486   -3.9292505   -3.9292505    -3.257199  0.034274392   -3.9292505   0.67205145   421013 
 4322000   0.60575916   -3.9301636   -3.9301636   -3.2579299  0.028725498   -3.9301636   0.67223378   421013 
 4323000   0.60592468   -3.9297407   -3.9297407   -3.2573232  0.024914352   -3.9297407   0.67241746   421013 
 4324000    0.6061064   -3.9301106   -3.9301106   -3.2574915  0.041170501   -3.9301106   0.67261912   421013 
 4325000   0.60494956   -3.9295415   -3.9295415   -3.2582062   0.03940222   -3.9295415   0.67133533   421013 
 4326000   0.60573798   -3.9304729   -3.9304729   -3.2582626   0.03814093   -3.9304729   0.67221027   421013 
 4327000   0.60434001   -3.9292138   -3.9292138   -3.2585549  0.032286584   -3.9292138   0.67065889   421013 
 4328000   0.60443513   -3.9292802   -3.9292802   -3.2585158  0.033270372   -3.9292802   0.67076445   421013 
 4329000   0.60530541   -3.9292742   -3.9292742    -3.257544  0.028269153   -3.9292742   0.67173024   421013 
 4330000   0.60513913   -3.9296942   -3.9296942   -3.2581485  0.025293897   -3.9296942   0.67154571   421013 
 4331000   0.60421099   -3.9285039   -3.9285039   -3.2579882  0.034560066   -3.9285039   0.67051572   421013 
 4332000   0.60586993   -3.9299239   -3.9299239   -3.2575672  0.030259893   -3.9299239   0.67235671   421013 
 4333000    0.6059566   -3.9295734   -3.9295734   -3.2571205   0.03990287   -3.9295734   0.67245288   421013 
 4334000   0.60550118   -3.9297627   -3.9297627   -3.2578152  0.031781297   -3.9297627   0.67194749   421013 
 4335000   0.60437199   -3.9285473   -3.9285473   -3.2578529  0.031236861   -3.9285473   0.67069438   421013 
 4336000   0.60550431   -3.9302511   -3.9302511   -3.2583001  0.012649662   -3.9302511   0.67195096   421013 
 4337000   0.60519703   -3.9298764   -3.9298764   -3.2582665  0.024563852   -3.9298764   0.67160997   421013 
 4338000   0.60526393   -3.9297271   -3.9297271   -3.2580429   0.03002321   -3.9297271   0.67168421   421013 
 4339000   0.60597331   -3.9308304   -3.9308304    -3.258359  0.040464729   -3.9308304   0.67247143   421013 
 4340000   0.60517617    -3.930712    -3.930712   -3.2591252  0.039207792    -3.930712   0.67158681   421013 
 4341000   0.60330163   -3.9283783   -3.9283783   -3.2588717  0.037797471   -3.9283783   0.66950657   421013 
 4342000   0.60445474   -3.9303313   -3.9303313   -3.2595451  0.018938876   -3.9303313   0.67078621   421013 
 4343000   0.60516847   -3.9308233   -3.9308233    -3.259245  0.023346251   -3.9308233   0.67157827   421013 
 4344000   0.60492105   -3.9298085   -3.9298085   -3.2585048   0.03350435   -3.9298085    0.6713037   421013 
 4345000   0.60460033   -3.9301547   -3.9301547   -3.2592069  0.032082104   -3.9301547   0.67094778   421013 
 4346000   0.60332606   -3.9291693   -3.9291693   -3.2596356  0.035176753   -3.9291693   0.66953368   421013 
 4347000   0.60431382    -3.930218    -3.930218   -3.2595882  0.044046568    -3.930218   0.67062983   421013 
 4348000   0.60670541   -3.9324738   -3.9324738   -3.2591899  0.035132034   -3.9324738   0.67328387   421013 
 4349000   0.60539939   -3.9316217   -3.9316217   -3.2597872  0.060402167   -3.9316217   0.67183453   421013 
 4350000   0.60533939   -3.9314592   -3.9314592   -3.2596912  0.030834631   -3.9314592   0.67176795   421013 
 4351000   0.60538112    -3.931875    -3.931875   -3.2600607  0.036317979    -3.931875   0.67181426   421013 
 4352000   0.60448372   -3.9300262   -3.9300262   -3.2592078    0.0283152   -3.9300262   0.67081837   421013 
 4353000   0.60568566    -3.931046    -3.931046   -3.2588938  0.032178638    -3.931046   0.67215222   421013 
 4354000   0.60519052   -3.9307728   -3.9307728   -3.2591701  0.024592082   -3.9307728   0.67160274   421013 
 4355000   0.60579404   -3.9312806   -3.9312806   -3.2590081  0.028700323   -3.9312806   0.67227248   421013 
 4356000   0.60581884   -3.9323319   -3.9323319   -3.2600319   0.03320898   -3.9323319   0.67230001   421013 
 4357000   0.60513712   -3.9309419   -3.9309419   -3.2593984  0.015753207   -3.9309419   0.67154348   421013 
 4358000   0.60515604   -3.9313904   -3.9313904   -3.2598259  0.024001361   -3.9313904   0.67156448   421013 
 4359000   0.60431357   -3.9304042   -3.9304042   -3.2597746  0.034019117   -3.9304042   0.67062956   421013 
 4360000   0.60577312   -3.9313909   -3.9313909   -3.2591417  0.028543302   -3.9313909   0.67224927   421013 
 4361000   0.60402497   -3.9292149   -3.9292149   -3.2589056  0.026622212   -3.9292149   0.67030929   421013 
 4362000   0.60588597   -3.9311164   -3.9311164   -3.2587419  0.028574426   -3.9311164   0.67237451   421013 
 4363000   0.60631496   -3.9314837   -3.9314837   -3.2586331  0.035063021   -3.9314837   0.67285057   421013 
 4364000   0.60444392    -3.930713    -3.930713   -3.2599388  0.029729144    -3.930713   0.67077421   421013 
 4365000    0.6045622   -3.9305955   -3.9305955     -3.25969  0.028075274   -3.9305955   0.67090547   421013 
 4366000   0.60476461   -3.9312132   -3.9312132   -3.2600831   0.02904687   -3.9312132   0.67113009   421013 
 4367000   0.60437156   -3.9298056   -3.9298056   -3.2591117  0.036812505   -3.9298056   0.67069391   421013 
 4368000   0.60379715   -3.9299646   -3.9299646   -3.2599081   0.01787333   -3.9299646   0.67005646   421013 
 4369000   0.60559509     -3.93193     -3.93193   -3.2598783  0.023072812     -3.93193   0.67205171   421013 
 4370000   0.60671986   -3.9321733   -3.9321733   -3.2588734  0.023931064   -3.9321733    0.6732999   421013 
 4371000   0.60683727   -3.9326343   -3.9326343   -3.2592041  0.039226655   -3.9326343   0.67343019   421013 
 4372000   0.60590919   -3.9313749   -3.9313749   -3.2589746  0.041576304   -3.9313749   0.67240027   421013 
 4373000   0.60538415   -3.9301366   -3.9301366    -3.258319   0.03551006   -3.9301366   0.67181762   421013 
 4374000   0.60761868   -3.9323917   -3.9323917   -3.2580943  0.030884594   -3.9323917   0.67429736   421013 
 4375000   0.60510703   -3.9297122   -3.9297122   -3.2582022  0.030739456   -3.9297122   0.67151009   421013 
 4376000   0.60711096   -3.9316039   -3.9316039     -3.25787  0.029865036   -3.9316039   0.67373392   421013 
 4377000   0.60607205   -3.9302911   -3.9302911   -3.2577101   0.03044795   -3.9302911   0.67258101   421013 
 4378000   0.60439496   -3.9294399   -3.9294399     -3.25872  0.035274416   -3.9294399   0.67071987   421013 
 4379000   0.60379274   -3.9293623   -3.9293623   -3.2593107   0.03193583   -3.9293623   0.67005157   421013 
 4380000   0.60394572   -3.9292422   -3.9292422   -3.2590208  0.041925852   -3.9292422   0.67022134   421013 
 4381000   0.60461577   -3.9299143   -3.9299143   -3.2589494  0.036889808   -3.9299143   0.67096491   421013 
 4382000   0.60565009   -3.9302805   -3.9302805   -3.2581678  0.035030143   -3.9302805   0.67211274   421013 
 4383000   0.60612907   -3.9300869   -3.9300869   -3.2574426  0.041504739   -3.9300869   0.67264428   421013 
 4384000   0.60433564   -3.9285198   -3.9285198   -3.2578657  0.034583133   -3.9285198   0.67065404   421013 
 4385000   0.60637906   -3.9310354   -3.9310354   -3.2581137  0.030088123   -3.9310354   0.67292171   421013 
 4386000   0.60632129   -3.9318887   -3.9318887   -3.2590311  0.039947335   -3.9318887   0.67285759   421013 
 4387000   0.60531951    -3.930503    -3.930503   -3.2587571  0.011893677    -3.930503   0.67174588   421013 
 4388000   0.60462994   -3.9290623   -3.9290623   -3.2580816  0.038127105   -3.9290623   0.67098065   421013 
 4389000   0.60526033   -3.9296735   -3.9296735   -3.2579933  0.029168751   -3.9296735   0.67168021   421013 
 4390000   0.60535636   -3.9293511   -3.9293511   -3.2575643  0.035467241   -3.9293511   0.67178677   421013 
 4391000   0.60592994   -3.9303969   -3.9303969   -3.2579736  0.030331601   -3.9303969    0.6724233   421013 
 4392000   0.60606321   -3.9305737   -3.9305737   -3.2580025  0.040246854   -3.9305737   0.67257119   421013 
 4393000   0.60426842   -3.9288008   -3.9288008   -3.2582214  0.030340855   -3.9288008   0.67057945   421013 
 4394000   0.60555516     -3.93026     -3.93026   -3.2582526  0.037373043     -3.93026   0.67200739   421013 
 4395000   0.60518177   -3.9296054   -3.9296054   -3.2580123  0.016746739   -3.9296054   0.67159303   421013 
 4396000   0.60560236   -3.9294767   -3.9294767    -3.257417    0.0353081   -3.9294767   0.67205978   421013 
 4397000   0.60399361   -3.9276434   -3.9276434   -3.2573689  0.036177277   -3.9276434   0.67027448   421013 
 4398000   0.60601658   -3.9300186   -3.9300186   -3.2574992  0.031559554   -3.9300186   0.67251945   421013 
 4399000   0.60501071   -3.9289281   -3.9289281    -3.257525  0.027626483   -3.9289281   0.67140319   421013 
 4400000   0.60516537   -3.9294154   -3.9294154   -3.2578406  0.017471003   -3.9294154   0.67157483   421013 
 4401000   0.60446596   -3.9287411   -3.9287411   -3.2579424  0.047966073   -3.9287411   0.67079867   421013 
 4402000   0.60478529   -3.9288799   -3.9288799   -3.2577268  0.044239629   -3.9288799   0.67115304   421013 
 4403000   0.60568721   -3.9298794   -3.9298794   -3.2577255  0.033979088   -3.9298794   0.67215393   421013 
 4404000   0.60575994   -3.9304911   -3.9304911   -3.2582565   0.02768334   -3.9304911   0.67223465   421013 
 4405000   0.60566783   -3.9305253   -3.9305253   -3.2583928  0.027485957   -3.9305253   0.67213243   421013 
 4406000   0.60467099   -3.9300672   -3.9300672    -3.259041  0.034822062   -3.9300672   0.67102619   421013 
 4407000   0.60509908   -3.9305687   -3.9305687   -3.2590674  0.028120474   -3.9305687   0.67150126   421013 
 4408000   0.60531139   -3.9304444   -3.9304444   -3.2587076  0.038241086   -3.9304444   0.67173687   421013 
 4409000   0.60649868   -3.9318752   -3.9318752   -3.2588207  0.037063622   -3.9318752   0.67305445   421013 
 4410000   0.60489592   -3.9309485   -3.9309485   -3.2596727  0.029456321   -3.9309485   0.67127581   421013 
 4411000   0.60557977    -3.931184    -3.931184   -3.2591493  0.034025056    -3.931184    0.6720347   421013 
 4412000   0.60500967   -3.9313084   -3.9313084   -3.2599063   0.03764385   -3.9313084   0.67140205   421013 
 4413000   0.60463424   -3.9311397   -3.9311397   -3.2601543  0.032685001   -3.9311397   0.67098542   421013 
 4414000   0.60522476   -3.9317079   -3.9317079   -3.2600671  0.027305579   -3.9317079   0.67164073   421013 
 4415000   0.60451096   -3.9306943   -3.9306943   -3.2598456  0.021888341   -3.9306943    0.6708486   421013 
 4416000   0.60582387    -3.931257    -3.931257   -3.2589514  0.044837317    -3.931257   0.67230559   421013 
 4417000   0.60579632   -3.9317916   -3.9317916   -3.2595166  0.029383399   -3.9317916   0.67227502   421013 
 4418000   0.60454796   -3.9309841   -3.9309841   -3.2600944  0.030809769   -3.9309841   0.67088967   421013 
 4419000   0.60410058   -3.9302071   -3.9302071   -3.2598139  0.035298132   -3.9302071   0.67039319   421013 
 4420000   0.60419555   -3.9300297   -3.9300297   -3.2595311  0.042159891   -3.9300297   0.67049859   421013 
 4421000    0.6044613   -3.9307522   -3.9307522   -3.2599587  0.037361756   -3.9307522    0.6707935   421013 
 4422000   0.60470857   -3.9303676   -3.9303676   -3.2592997  0.019818596   -3.9303676    0.6710679   421013 
 4423000   0.60565293   -3.9309291   -3.9309291   -3.2588132  0.039066366   -3.9309291    0.6721159   421013 
 4424000    0.6055265   -3.9311883   -3.9311883   -3.2592128  0.025348039   -3.9311883   0.67197559   421013 
 4425000   0.60642165   -3.9322367   -3.9322367   -3.2592677  0.014334631   -3.9322367   0.67296897   421013 
 4426000   0.60506461   -3.9313158   -3.9313158   -3.2598528  0.035127219   -3.9313158   0.67146302   421013 
 4427000   0.60573706   -3.9316777   -3.9316777   -3.2594684  0.025152965   -3.9316777   0.67220925   421013 
 4428000   0.60418061   -3.9297652   -3.9297652   -3.2592832  0.033058704   -3.9297652     0.670482   421013 
 4429000   0.60550351   -3.9312959   -3.9312959   -3.2593458  0.048064224   -3.9312959   0.67195007   421013 
 4430000    0.6053901   -3.9310507   -3.9310507   -3.2592265  0.030426102   -3.9310507   0.67182422   421013 
 4431000   0.60686432   -3.9324943   -3.9324943   -3.2590341  0.033066154   -3.9324943   0.67346022   421013 
 4432000   0.60596505   -3.9318027   -3.9318027   -3.2593405  0.029069489   -3.9318027   0.67246226   421013 
 4433000    0.6047623    -3.930132    -3.930132   -3.2590045  0.033386301    -3.930132   0.67112752   421013 
 4434000   0.60530943   -3.9303648   -3.9303648   -3.2586301  0.031861373   -3.9303648   0.67173469   421013 
 4435000   0.60353776    -3.928768    -3.928768   -3.2589994  0.030992438    -3.928768   0.66976861   421013 
 4436000    0.6046686    -3.929453    -3.929453   -3.2584295  0.030574513    -3.929453   0.67102355   421013 
 4437000   0.60322131   -3.9287768   -3.9287768   -3.2593593  0.021318099   -3.9287768   0.66941743   421013 
 4438000   0.60394965   -3.9298143   -3.9298143   -3.2595886  0.028720252   -3.9298143    0.6702257   421013 
 4439000   0.60389425    -3.929784    -3.929784   -3.2596198  0.029512867    -3.929784   0.67016422   421013 
 4440000   0.60474149   -3.9300726   -3.9300726   -3.2589682   0.03352625   -3.9300726   0.67110444   421013 
 4441000   0.60544989   -3.9304474   -3.9304474   -3.2585568   0.01813986   -3.9304474   0.67189057   421013 
 4442000   0.60611992   -3.9314381   -3.9314381    -3.258804   0.03572079   -3.9314381   0.67263413   421013 
 4443000   0.60536715   -3.9303706   -3.9303706   -3.2585719  0.024893516   -3.9303706   0.67179876   421013 
 4444000   0.60561484   -3.9299191   -3.9299191   -3.2578454  0.028885518   -3.9299191   0.67207362   421013 
 4445000    0.6048888    -3.929655    -3.929655   -3.2583871   0.03634782    -3.929655   0.67126791   421013 
 4446000   0.60571964   -3.9305576   -3.9305576   -3.2583676  0.039070204   -3.9305576   0.67218992   421013 
 4447000   0.60723538   -3.9318368   -3.9318368   -3.2579648  0.019345322   -3.9318368     0.673872   421013 
 4448000   0.60611877   -3.9306476   -3.9306476   -3.2580147  0.029011733   -3.9306476   0.67263286   421013 
 4449000   0.60653923   -3.9318828   -3.9318828   -3.2587834  0.034181496   -3.9318828   0.67309945   421013 
 4450000   0.60387576   -3.9295023   -3.9295023   -3.2593586  0.019609948   -3.9295023    0.6701437   421013 
 4451000   0.60569768   -3.9313661   -3.9313661   -3.2592005  0.033556697   -3.9313661   0.67216555   421013 
 4452000     0.604196   -3.9295189   -3.9295189   -3.2590198  0.022422414   -3.9295189   0.67049908   421013 
 4453000   0.60544576   -3.9309062   -3.9309062   -3.2590202   0.04553505   -3.9309062   0.67188599   421013 
 4454000   0.60541225   -3.9306869   -3.9306869   -3.2588381  0.036827529   -3.9306869    0.6718488   421013 
 4455000   0.60597842   -3.9310524   -3.9310524   -3.2585753   0.03525678   -3.9310524    0.6724771   421013 
 4456000   0.60533505   -3.9303195   -3.9303195   -3.2585564   0.04302185   -3.9303195   0.67176312   421013 
 4457000   0.60481914   -3.9305757   -3.9305757   -3.2593851  0.029053746   -3.9305757    0.6711906   421013 
 4458000   0.60350546   -3.9296404   -3.9296404   -3.2599076  0.040119659   -3.9296404   0.66973277   421013 
 4459000   0.60566661   -3.9318598   -3.9318598   -3.2597287  0.016644796   -3.9318598   0.67213107   421013 
 4460000   0.60468141    -3.931379    -3.931379   -3.2603412  0.018127208    -3.931379   0.67103776   421013 
 4461000   0.60441509   -3.9306475   -3.9306475   -3.2599052  0.033171619   -3.9306475   0.67074222   421013 
 4462000   0.60489507   -3.9312393   -3.9312393   -3.2599644  0.016387031   -3.9312393   0.67127487   421013 
 4463000   0.60559416   -3.9316223   -3.9316223   -3.2595716  0.031628038   -3.9316223   0.67205068   421013 
 4464000   0.60649258   -3.9328619   -3.9328619   -3.2598142  0.029837708   -3.9328619   0.67304769   421013 
 4465000    0.6046298   -3.9304016   -3.9304016   -3.2594211  0.037972176   -3.9304016   0.67098049   421013 
 4466000    0.6044484   -3.9305313   -3.9305313   -3.2597521  0.026927269   -3.9305313   0.67077918   421013 
 4467000   0.60504865   -3.9314984   -3.9314984   -3.2600531  0.031007534   -3.9314984    0.6714453   421013 
 4468000   0.60489624   -3.9312608   -3.9312608   -3.2599846  0.023629416   -3.9312608   0.67127616   421013 
 4469000   0.60616677   -3.9324349   -3.9324349   -3.2597488  0.030993325   -3.9324349   0.67268612   421013 
 4470000   0.60542927   -3.9313667   -3.9313667   -3.2594991   0.02813428   -3.9313667   0.67186769   421013 
 4471000   0.60661067    -3.932497    -3.932497   -3.2593183  0.016162448    -3.932497   0.67317873   421013 
 4472000   0.60494287   -3.9310961   -3.9310961   -3.2597682  0.042276563   -3.9310961   0.67132791   421013 
 4473000   0.60592784   -3.9315342   -3.9315342   -3.2591132  0.031062864   -3.9315342   0.67242097   421013 
 4474000   0.60513323   -3.9304243   -3.9304243   -3.2588851  0.027488437   -3.9304243   0.67153916   421013 
 4475000   0.60521446   -3.9298959   -3.9298959   -3.2582666  0.036446713   -3.9298959   0.67162931   421013 
 4476000    0.6055596   -3.9299639   -3.9299639   -3.2579516  0.023206151   -3.9299639   0.67201232   421013 
 4477000   0.60541318   -3.9299733   -3.9299733   -3.2581235  0.029385468   -3.9299733   0.67184983   421013 
 4478000   0.60403728   -3.9288093   -3.9288093   -3.2584863  0.029086861   -3.9288093   0.67032294   421013 
 4479000   0.60796963   -3.9326141   -3.9326141   -3.2579273  0.033383009   -3.9326141   0.67468683   421013 
 4480000   0.60498625   -3.9298857   -3.9298857   -3.2585096  0.026572105   -3.9298857   0.67137605   421013 
 4481000   0.60578406    -3.930584    -3.930584   -3.2583226   0.04989594    -3.930584   0.67226141   421013 
 4482000   0.60519061   -3.9305449   -3.9305449   -3.2589421  0.032645853   -3.9305449   0.67160284   421013 
 4483000   0.60538905   -3.9306148   -3.9306148   -3.2587918  0.034573304   -3.9306148   0.67182305   421013 
 4484000   0.60664138   -3.9320952   -3.9320952   -3.2588824  0.024735404   -3.9320952   0.67321282   421013 
 4485000   0.60653804   -3.9327486   -3.9327486   -3.2596505  0.029084583   -3.9327486   0.67309813   421013 
 4486000    0.6052364   -3.9310709   -3.9310709   -3.2594173  0.035745466   -3.9310709   0.67165365   421013 
 4487000   0.60619191   -3.9317439   -3.9317439   -3.2590299  0.040213648   -3.9317439   0.67271401   421013 
 4488000    0.6052061   -3.9301288   -3.9301288   -3.2585088  0.030629126   -3.9301288   0.67162003   421013 
 4489000    0.6061374   -3.9313184   -3.9313184   -3.2586649  0.020760562   -3.9313184   0.67265353   421013 
 4490000   0.60636738   -3.9313293   -3.9313293   -3.2584206  0.021538102   -3.9313293   0.67290874   421013 
 4491000   0.60567524   -3.9310618   -3.9310618   -3.2589211  0.031954338   -3.9310618   0.67214065   421013 
 4492000   0.60546449   -3.9312089   -3.9312089   -3.2593021  0.018825608   -3.9312089   0.67190677   421013 
 4493000   0.60405747   -3.9293402   -3.9293402   -3.2589949  0.033431935   -3.9293402   0.67034535   421013 
 4494000   0.60637268   -3.9315797   -3.9315797    -3.258665  0.021116489   -3.9315797   0.67291463   421013 
 4495000   0.60489606   -3.9296705   -3.9296705   -3.2583946  0.030879689   -3.9296705   0.67127597   421013 
 4496000   0.60467467    -3.929908    -3.929908   -3.2588777  0.034724763    -3.929908   0.67103028   421013 
 4497000     0.604989   -3.9308334   -3.9308334   -3.2594543  0.017320593   -3.9308334   0.67137911   421013 
 4498000   0.60554791   -3.9314643   -3.9314643   -3.2594649  0.031746672   -3.9314643   0.67199935   421013 
 4499000    0.6057471   -3.9316851   -3.9316851   -3.2594647  0.037428846   -3.9316851    0.6722204   421013 
 4500000   0.60543537   -3.9309706   -3.9309706   -3.2590962  0.030846021   -3.9309706   0.67187446   421013 
 4501000   0.60593047   -3.9310331   -3.9310331   -3.2586093  0.030899988   -3.9310331   0.67242389   421013 
 4502000   0.60585721   -3.9304515   -3.9304515   -3.2581089  0.037310298   -3.9304515   0.67234259   421013 
 4503000    0.6059439   -3.9313895   -3.9313895   -3.2589508   0.02799866   -3.9313895   0.67243879   421013 
 4504000   0.60546079      -3.9307      -3.9307   -3.2587973  0.026465292      -3.9307   0.67190267   421013 
 4505000   0.60544606    -3.930813    -3.930813   -3.2589266  0.035747285    -3.930813   0.67188632   421013 
 4506000    0.6057085   -3.9318232   -3.9318232   -3.2596457  0.023166638   -3.9318232   0.67217756   421013 
 4507000   0.60520194   -3.9308325   -3.9308325   -3.2592171  0.032207933   -3.9308325   0.67161541   421013 
 4508000   0.60620175   -3.9325284   -3.9325284   -3.2598035  0.030739857   -3.9325284   0.67272494   421013 
 4509000    0.6066441   -3.9335921   -3.9335921   -3.2603762  0.043844029   -3.9335921   0.67321583   421013 
 4510000   0.60471964   -3.9321235   -3.9321235   -3.2610433  0.039262987   -3.9321235   0.67108018   421013 
 4511000   0.60597368   -3.9333177   -3.9333177   -3.2608459  0.026374367   -3.9333177   0.67247184   421013 
 4512000   0.60596129    -3.933627    -3.933627   -3.2611689  0.032446179    -3.933627   0.67245809   421013 
 4513000   0.60519104   -3.9335687   -3.9335687   -3.2619654  0.030855067   -3.9335687   0.67160331   421013 
 4514000   0.60447972   -3.9318746   -3.9318746   -3.2610606  0.039042842   -3.9318746   0.67081394   421013 
 4515000   0.60586798   -3.9325397   -3.9325397   -3.2601851  0.027610723   -3.9325397   0.67235454   421013 
 4516000   0.60560205   -3.9316217   -3.9316217   -3.2595623  0.039332413   -3.9316217   0.67205943   421013 
 4517000   0.60511999   -3.9313657   -3.9313657   -3.2598412  0.045831321   -3.9313657   0.67152447   421013 
 4518000   0.60509333   -3.9320203   -3.9320203   -3.2605254  0.030712866   -3.9320203   0.67149489   421013 
 4519000   0.60521875   -3.9318974   -3.9318974   -3.2602633  0.039903213   -3.9318974   0.67163407   421013 
 4520000   0.60432037   -3.9304223   -3.9304223   -3.2597852  0.037497399   -3.9304223    0.6706371   421013 
 4521000   0.60506409   -3.9313284   -3.9313284    -3.259866  0.019762128   -3.9313284   0.67146243   421013 
 4522000   0.60383787   -3.9309016   -3.9309016   -3.2607999  0.037287298   -3.9309016   0.67010165   421013 
 4523000   0.60437915   -3.9316214   -3.9316214   -3.2609191  0.019281921   -3.9316214   0.67070233   421013 
 4524000   0.60414824   -3.9308436   -3.9308436   -3.2603975  0.023554948   -3.9308436   0.67044608   421013 
 4525000   0.60543377   -3.9326921   -3.9326921   -3.2608194   0.03930265   -3.9326921   0.67187268   421013 
 4526000   0.60534434   -3.9327019   -3.9327019   -3.2609284   0.03802564   -3.9327019   0.67177344   421013 
 4527000    0.6041135   -3.9314709   -3.9314709   -3.2610634  0.033883727   -3.9314709   0.67040753   421013 
 4528000   0.60418453   -3.9314198   -3.9314198   -3.2609334   0.03797795   -3.9314198   0.67048635   421013 
 4529000   0.60512499   -3.9314453   -3.9314453   -3.2599153  0.028152279   -3.9314453   0.67153002   421013 
 4530000   0.60467667   -3.9315367   -3.9315367   -3.2605042  0.042458264   -3.9315367   0.67103249   421013 
 4531000   0.60445816   -3.9308944   -3.9308944   -3.2601044  0.027977622   -3.9308944   0.67079001   421013 
 4532000   0.60430179   -3.9311082   -3.9311082   -3.2604917  0.018573795   -3.9311082   0.67061648   421013 
 4533000   0.60386232   -3.9299031   -3.9299031   -3.2597743  0.032511857   -3.9299031   0.67012878   421013 
 4534000   0.60541316   -3.9314601   -3.9314601   -3.2596103  0.032153006   -3.9314601   0.67184981   421013 
 4535000   0.60465798   -3.9317692   -3.9317692   -3.2607574  0.022197073   -3.9317692   0.67101175   421013 
 4536000   0.60623538   -3.9332801   -3.9332801   -3.2605179  0.036005632   -3.9332801   0.67276226   421013 
 4537000   0.60409209   -3.9311751   -3.9311751   -3.2607914    0.0289656   -3.9311751   0.67038377   421013 
 4538000    0.6050897   -3.9318171   -3.9318171   -3.2603263  0.040853798   -3.9318171   0.67149085   421013 
 4539000    0.6043383     -3.93095     -3.93095    -3.260293   0.01594383     -3.93095     0.670657   421013 
 4540000   0.60545182   -3.9321635   -3.9321635   -3.2602708  0.043504783   -3.9321635   0.67189271   421013 
 4541000   0.60523794   -3.9323197   -3.9323197   -3.2606644  0.026629894   -3.9323197   0.67165536   421013 
 4542000   0.60513783   -3.9313069   -3.9313069   -3.2597627  0.021951698   -3.9313069   0.67154426   421013 
 4543000    0.6052989   -3.9315977   -3.9315977   -3.2598747  0.028094396   -3.9315977   0.67172301   421013 
 4544000   0.60547246   -3.9319481   -3.9319481   -3.2600325  0.032975848   -3.9319481   0.67191562   421013 
 4545000      0.60365   -3.9304622   -3.9304622   -3.2605691  0.031356225   -3.9304622   0.66989317   421013 
 4546000   0.60397542    -3.930983    -3.930983   -3.2607287  0.023967798    -3.930983   0.67025429   421013 
 4547000   0.60461874   -3.9313493   -3.9313493   -3.2603811  0.021524225   -3.9313493   0.67096821   421013 
 4548000    0.6040984   -3.9308705   -3.9308705   -3.2604797  0.028072908   -3.9308705   0.67039077   421013 
 4549000   0.60390554   -3.9319976   -3.9319976   -3.2618208    0.0351091   -3.9319976   0.67017675   421013 
 4550000   0.60329074   -3.9306695   -3.9306695   -3.2611751  0.027411907   -3.9306695   0.66949448   421013 
 4551000    0.6038109   -3.9317269   -3.9317269   -3.2616551  0.024629838   -3.9317269   0.67007173   421013 
 4552000   0.60423336   -3.9319251   -3.9319251   -3.2613845   0.02027837   -3.9319251   0.67054054   421013 
 4553000   0.60469049   -3.9327351   -3.9327351   -3.2616873  0.035769023   -3.9327351   0.67104784   421013 
 4554000   0.60428618   -3.9325214   -3.9325214   -3.2619222  0.027489693   -3.9325214   0.67059916   421013 
 4555000   0.60431102    -3.932592    -3.932592   -3.2619653  0.029046941    -3.932592   0.67062673   421013 
 4556000   0.60518707   -3.9331875   -3.9331875   -3.2615886  0.046145053   -3.9331875    0.6715989   421013 
 4557000    0.6043427   -3.9320295   -3.9320295   -3.2613676  0.033604933   -3.9320295   0.67066188   421013 
 4558000    0.6043871   -3.9318128   -3.9318128   -3.2611017  0.033304941   -3.9318128   0.67071115   421013 
 4559000   0.60390044   -3.9316032   -3.9316032   -3.2614321  0.028368326   -3.9316032   0.67017109   421013 
 4560000   0.60463608   -3.9312357   -3.9312357   -3.2602482  0.020110015   -3.9312357   0.67098745   421013 
 4561000   0.60616701   -3.9326806   -3.9326806   -3.2599943  0.035302794   -3.9326806   0.67268639   421013 
 4562000   0.60639509   -3.9327258   -3.9327258   -3.2597863  0.031695214   -3.9327258    0.6729395   421013 
 4563000   0.60616115   -3.9327577   -3.9327577   -3.2600779  0.030167722   -3.9327577   0.67267988   421013 
 4564000    0.6043258   -3.9312183   -3.9312183   -3.2605752  0.017000993   -3.9312183   0.67064313   421013 
 4565000   0.60453214   -3.9308197   -3.9308197   -3.2599476  0.036123626   -3.9308197   0.67087211   421013 
 4566000   0.60548648   -3.9323265   -3.9323265   -3.2603953  0.020946311   -3.9323265   0.67193118   421013 
 4567000   0.60297506   -3.9301919   -3.9301919   -3.2610477  0.032495274   -3.9301919   0.66914416   421013 
 4568000   0.60316764   -3.9301182   -3.9301182   -3.2607604  0.028000531   -3.9301182   0.66935787   421013 
 4569000   0.60405336   -3.9315044   -3.9315044   -3.2611637  0.029241597   -3.9315044   0.67034079   421013 
 4570000   0.60437636   -3.9315424   -3.9315424   -3.2608431  0.028439564   -3.9315424   0.67069924   421013 
 4571000   0.60483312   -3.9331519   -3.9331519   -3.2619458  0.022157406   -3.9331519   0.67120612   421013 
 4572000   0.60372509   -3.9323263   -3.9323263   -3.2623498  0.039716221   -3.9323263    0.6699765   421013 
 4573000   0.60477854   -3.9336619   -3.9336619   -3.2625163  0.036741417   -3.9336619   0.67114554   421013 
 4574000   0.60472308   -3.9332993   -3.9332993   -3.2622153  0.038136731   -3.9332993     0.671084   421013 
 4575000   0.60513583   -3.9341115   -3.9341115   -3.2625695  0.027757568   -3.9341115   0.67154205   421013 
 4576000   0.60440698   -3.9332634   -3.9332634   -3.2625302  0.023680977   -3.9332634   0.67073322   421013 
 4577000    0.6051046   -3.9338229   -3.9338229   -3.2623155  0.017137588   -3.9338229   0.67150739   421013 
 4578000   0.60682602   -3.9353383   -3.9353383   -3.2619206  0.025665305   -3.9353383   0.67341771   421013 
 4579000   0.60560617   -3.9341686   -3.9341686   -3.2621046  0.028908291   -3.9341686     0.672064   421013 
 4580000   0.60444409   -3.9326322   -3.9326322   -3.2618578  0.020970407   -3.9326322    0.6707744   421013 
 4581000    0.6049868   -3.9330503   -3.9330503   -3.2616736  0.045415443   -3.9330503   0.67137667   421013 
 4582000   0.60598395    -3.934056    -3.934056   -3.2615728   0.02252195    -3.934056   0.67248324   421013 
 4583000   0.60493763   -3.9323375   -3.9323375   -3.2610154  0.027275479   -3.9323375   0.67132209   421013 
 4584000   0.60606866   -3.9332898   -3.9332898   -3.2607126  0.012464007   -3.9332898   0.67257724   421013 
 4585000   0.60573656   -3.9330147   -3.9330147    -3.260806  0.019884381   -3.9330147    0.6722087   421013 
 4586000   0.60471109   -3.9315536   -3.9315536   -3.2604829  0.035110811   -3.9315536    0.6710707   421013 
 4587000   0.60488236   -3.9318113   -3.9318113   -3.2605505  0.031433706   -3.9318113   0.67126076   421013 
 4588000   0.60680605   -3.9343639   -3.9343639   -3.2609683  0.034812276   -3.9343639   0.67339555   421013 
 4589000   0.60538958   -3.9329951   -3.9329951   -3.2611714  0.043122729   -3.9329951   0.67182365   421013 
 4590000   0.60555395   -3.9333584   -3.9333584   -3.2613523  0.030826132   -3.9333584   0.67200605   421013 
 4591000   0.60416221   -3.9326022   -3.9326022   -3.2621406  0.036010403   -3.9326022   0.67046158   421013 
 4592000   0.60570919    -3.933531    -3.933531   -3.2613526  0.034533222    -3.933531   0.67217833   421013 
 4593000   0.60534223   -3.9324007   -3.9324007   -3.2606296  0.047253929   -3.9324007   0.67177109   421013 
 4594000   0.60594272   -3.9332355   -3.9332355    -3.260798  0.033681116   -3.9332355   0.67243748   421013 
 4595000   0.60471126   -3.9325584   -3.9325584   -3.2614876  0.034252473   -3.9325584   0.67107089   421013 
 4596000   0.60358037   -3.9311797   -3.9311797   -3.2613638  0.029626568   -3.9311797   0.66981589   421013 
 4597000   0.60461093   -3.9327127   -3.9327127   -3.2617531  0.016406828   -3.9327127   0.67095955   421013 
 4598000   0.60613561   -3.9338964   -3.9338964   -3.2612448   0.03252955   -3.9338964   0.67265154   421013 
 4599000   0.60537258   -3.9335525   -3.9335525   -3.2617478  0.030415202   -3.9335525   0.67180478   421013 
 4600000   0.60464812   -3.9327922   -3.9327922   -3.2617914  0.045073381   -3.9327922   0.67100082   421013 
 4601000   0.60347747   -3.9321327   -3.9321327    -3.262431  0.025786484   -3.9321327    0.6697017   421013 
 4602000   0.60485633   -3.9331801   -3.9331801   -3.2619482  0.018521859   -3.9331801   0.67123187   421013 
 4603000   0.60446053   -3.9327818   -3.9327818   -3.2619891  0.029795056   -3.9327818   0.67079264   421013 
 4604000   0.60431211   -3.9324763   -3.9324763   -3.2618484  0.026924038   -3.9324763   0.67062794   421013 
 4605000   0.60600231   -3.9337455   -3.9337455   -3.2612419  0.032642438   -3.9337455   0.67250361   421013 
 4606000   0.60419509   -3.9324061   -3.9324061    -3.261908  0.023634663   -3.9324061   0.67049807   421013 
 4607000   0.60492617   -3.9334394   -3.9334394     -3.26213  0.030142088   -3.9334394   0.67130937   421013 
 4608000     0.605066   -3.9332047   -3.9332047   -3.2617401  0.011286045   -3.9332047   0.67146456   421013 
 4609000   0.60497927   -3.9332612   -3.9332612   -3.2618929  0.027056975   -3.9332612   0.67136831   421013 
 4610000   0.60543465   -3.9337912   -3.9337912   -3.2619175  0.023063597   -3.9337912   0.67187366   421013 
 4611000    0.6043888   -3.9332114   -3.9332114   -3.2624984  0.041771975   -3.9332114   0.67071304   421013 
 4612000   0.60647613   -3.9357125   -3.9357125    -3.262683  0.036541215   -3.9357125   0.67302943   421013 
 4613000   0.60389647   -3.9330582   -3.9330582   -3.2628915  0.023902964   -3.9330582   0.67016668   421013 
 4614000   0.60480822   -3.9338579   -3.9338579   -3.2626794  0.046033615   -3.9338579   0.67117849   421013 
 4615000   0.60377503   -3.9332455   -3.9332455   -3.2632136   0.03135654   -3.9332455   0.67003192   421013 
 4616000   0.60376247   -3.9331086   -3.9331086   -3.2630906  0.045216861   -3.9331086   0.67001797   421013 
 4617000   0.60460341   -3.9346005   -3.9346005   -3.2636493  0.034390123   -3.9346005    0.6709512   421013 
 4618000   0.60442457    -3.934312    -3.934312   -3.2635593  0.028118983    -3.934312   0.67075273   421013 
 4619000   0.60473996    -3.934525    -3.934525   -3.2634222   0.03840255    -3.934525   0.67110274   421013 
 4620000   0.60498026   -3.9353423   -3.9353423   -3.2639729  0.042909866   -3.9353423    0.6713694   421013 
 4621000   0.60443488   -3.9350808   -3.9350808   -3.2643166   0.02759176   -3.9350808   0.67076417   421013 
 4622000   0.60307555   -3.9335142   -3.9335142   -3.2642585  0.037136904   -3.9335142   0.66925568   421013 
 4623000   0.60476789   -3.9352706   -3.9352706   -3.2641369  0.034505363   -3.9352706   0.67113373   421013 
 4624000   0.60394969   -3.9339445   -3.9339445   -3.2637188  0.041252585   -3.9339445   0.67022574   421013 
 4625000   0.60419647   -3.9341606   -3.9341606    -3.263661  0.021190507   -3.9341606   0.67049961   421013 
 4626000    0.6033715   -3.9333004   -3.9333004   -3.2637163  0.030553859   -3.9333004    0.6695841   421013 
 4627000   0.60464148   -3.9345435   -3.9345435     -3.26355  0.036361767   -3.9345435   0.67099345   421013 
 4628000   0.60439059   -3.9342128   -3.9342128   -3.2634978  0.034425562   -3.9342128   0.67071503   421013 
 4629000    0.6033457   -3.9335962   -3.9335962   -3.2640408  0.027651718   -3.9335962   0.66955547   421013 
 4630000   0.60357346   -3.9337452   -3.9337452    -3.263937  0.051126702   -3.9337452   0.66980823   421013 
 4631000   0.60410745   -3.9339031   -3.9339031   -3.2635023  0.027308582   -3.9339031   0.67040081   421013 
 4632000   0.60552768   -3.9351072   -3.9351072   -3.2631303  0.037687043   -3.9351072    0.6719769   421013 
 4633000   0.60546318    -3.934556    -3.934556   -3.2626506  0.026648922    -3.934556   0.67190532   421013 
 4634000   0.60471345   -3.9342121   -3.9342121   -3.2631387  0.036549773   -3.9342121   0.67107331   421013 
 4635000    0.6050637   -3.9346515   -3.9346515   -3.2631895  0.034516827   -3.9346515     0.671462   421013 
 4636000   0.60455226   -3.9345724   -3.9345724   -3.2636779  0.030797047   -3.9345724   0.67089443   421013 
 4637000   0.60474559   -3.9337052   -3.9337052   -3.2625962  0.030563453   -3.9337052   0.67110899   421013 
 4638000    0.6042383   -3.9334101   -3.9334101    -3.262864  0.027556834   -3.9334101   0.67054602   421013 
 4639000   0.60298193   -3.9319662   -3.9319662   -3.2628144  0.024602817   -3.9319662   0.66915178   421013 
 4640000   0.60544824   -3.9343501   -3.9343501   -3.2624614  0.038335349   -3.9343501   0.67188874   421013 
 4641000   0.60572036    -3.934873    -3.934873   -3.2626822   0.01691077    -3.934873   0.67219073   421013 
 4642000   0.60512345   -3.9337113   -3.9337113    -3.262183  0.043601679   -3.9337113   0.67152831   421013 
 4643000   0.60598325    -3.933624    -3.933624   -3.2611416  0.031874551    -3.933624   0.67248246   421013 
 4644000   0.60428343   -3.9317139   -3.9317139   -3.2611178  0.016782947   -3.9317139   0.67059611   421013 
 4645000   0.60438958   -3.9334836   -3.9334836   -3.2627697  0.037374672   -3.9334836    0.6707139   421013 
 4646000   0.60428588   -3.9330676   -3.9330676   -3.2624688  0.024747832   -3.9330676   0.67059882   421013 
 4647000    0.6045784   -3.9334388   -3.9334388   -3.2625153  0.033470393   -3.9334388   0.67092345   421013 
 4648000   0.60487614   -3.9339178   -3.9339178    -3.262664  0.035248752   -3.9339178   0.67125386   421013 
 4649000   0.60428723   -3.9339993   -3.9339993   -3.2633989  0.028457392   -3.9339993   0.67060032   421013 
 4650000   0.60447945   -3.9343207   -3.9343207    -3.263507  0.030794343   -3.9343207   0.67081364   421013 
 4651000    0.6037735   -3.9334589   -3.9334589   -3.2634287   0.03128406   -3.9334589   0.67003021   421013 
 4652000   0.60364486   -3.9333874   -3.9333874   -3.2634999   0.03586989   -3.9333874   0.66988746   421013 
 4653000   0.60300445   -3.9326175   -3.9326175   -3.2634407  0.035194892   -3.9326175   0.66917677   421013 
 4654000   0.60466474   -3.9338435   -3.9338435   -3.2628242  0.033502628   -3.9338435   0.67101927   421013 
 4655000   0.60395416   -3.9329431   -3.9329431   -3.2627124  0.029528582   -3.9329431   0.67023071   421013 
 4656000   0.60401004    -3.932271    -3.932271   -3.2619783  0.040923367    -3.932271   0.67029272   421013 
 4657000   0.60467543   -3.9327809   -3.9327809   -3.2617498  0.030496913   -3.9327809   0.67103112   421013 
 4658000   0.60458452   -3.9328156   -3.9328156   -3.2618853  0.031859514   -3.9328156   0.67093024   421013 
 4659000   0.60517942   -3.9338381   -3.9338381   -3.2622477  0.034620141   -3.9338381   0.67159042   421013 
 4660000    0.6047309   -3.9334073   -3.9334073   -3.2623146   0.02418492   -3.9334073   0.67109268   421013 
 4661000   0.60440153    -3.933048    -3.933048   -3.2623208  0.036645191    -3.933048   0.67072717   421013 
 4662000   0.60396601   -3.9339332   -3.9339332   -3.2636893  0.033012419   -3.9339332   0.67024385   421013 
 4663000   0.60428932   -3.9346328   -3.9346328   -3.2640301  0.031508477   -3.9346328   0.67060265   421013 
 4664000    0.6043465   -3.9338892   -3.9338892   -3.2632231   0.03935037   -3.9338892    0.6706661   421013 
 4665000   0.60572588   -3.9359191   -3.9359191   -3.2637223  0.032380397   -3.9359191   0.67219685   421013 
 4666000   0.60494367   -3.9344868   -3.9344868    -3.263158  0.027894504   -3.9344868    0.6713288   421013 
 4667000   0.60354294   -3.9333241   -3.9333241   -3.2635497   0.02997707   -3.9333241   0.66977436   421013 
 4668000   0.60452859   -3.9351529   -3.9351529   -3.2642847  0.023282599   -3.9351529   0.67086816   421013 
 4669000   0.60448711   -3.9340963   -3.9340963   -3.2632741  0.049026905   -3.9340963   0.67082214   421013 
 4670000   0.60513567   -3.9347579   -3.9347579    -3.263216  0.039650341   -3.9347579   0.67154186   421013 
 4671000   0.60451133   -3.9341281   -3.9341281   -3.2632791  0.038965924   -3.9341281   0.67084902   421013 
 4672000   0.60427269   -3.9340753   -3.9340753   -3.2634912  0.026556334   -3.9340753   0.67058418   421013 
 4673000   0.60448477   -3.9340494   -3.9340494   -3.2632298  0.028287524   -3.9340494   0.67081955   421013 
 4674000   0.60366631   -3.9328086   -3.9328086   -3.2628974  0.035988755   -3.9328086   0.66991127   421013 
 4675000   0.60506124   -3.9346476   -3.9346476   -3.2631883   0.03659562   -3.9346476   0.67145927   421013 
 4676000   0.60349917   -3.9318989   -3.9318989   -3.2621731  0.031582612   -3.9318989   0.66972578   421013 
 4677000   0.60296691   -3.9316399   -3.9316399   -3.2625048  0.031864461   -3.9316399   0.66913511   421013 
 4678000   0.60322945   -3.9326735   -3.9326735    -3.263247  0.017863391   -3.9326735   0.66942646   421013 
 4679000   0.60563667   -3.9347084   -3.9347084   -3.2626105  0.032586441   -3.9347084   0.67209785   421013 
 4680000   0.60437471   -3.9336451   -3.9336451   -3.2629477  0.027094323   -3.9336451    0.6706974   421013 
 4681000   0.60364083   -3.9332956   -3.9332956   -3.2634127  0.049044007   -3.9332956   0.66988299   421013 
 4682000   0.60391607   -3.9339976   -3.9339976   -3.2638092  0.022866073   -3.9339976   0.67018843   421013 
 4683000   0.60260125   -3.9328054   -3.9328054    -3.264076  0.025462529   -3.9328054   0.66872933   421013 
 4684000   0.60477058   -3.9351525   -3.9351525   -3.2640158  0.024944969   -3.9351525   0.67113671   421013 
 4685000   0.60442216   -3.9348782   -3.9348782   -3.2641281  0.037529184   -3.9348782   0.67075006   421013 
 4686000   0.60364718   -3.9343963   -3.9343963   -3.2645063  0.028985437   -3.9343963   0.66989004   421013 
 4687000   0.60311806    -3.933962    -3.933962   -3.2646592  0.027012467    -3.933962   0.66930285   421013 
 4688000   0.60385139   -3.9341977   -3.9341977    -3.264081  0.037403767   -3.9341977   0.67011665   421013 
 4689000   0.60430238   -3.9335466   -3.9335466   -3.2629295  0.036143155   -3.9335466   0.67061714   421013 
 4690000   0.60468961   -3.9343258   -3.9343258   -3.2632789  0.035066086   -3.9343258   0.67104686   421013 
 4691000   0.60352419   -3.9336254   -3.9336254   -3.2638718   0.02439751   -3.9336254   0.66975355   421013 
 4692000   0.60466784   -3.9346294   -3.9346294   -3.2636067 0.0069409763   -3.9346294    0.6710227   421013 
 4693000   0.60467251   -3.9354415   -3.9354415   -3.2644136  0.032907283   -3.9354415   0.67102788   421013 
 4694000   0.60474716   -3.9352447   -3.9352447    -3.264134  0.036189875   -3.9352447   0.67111073   421013 
 4695000   0.60428107   -3.9347124   -3.9347124   -3.2641189  0.026892313   -3.9347124   0.67059349   421013 
 4696000   0.60410024   -3.9349078   -3.9349078    -3.264515  0.031153281   -3.9349078   0.67039282   421013 
 4697000    0.6051757   -3.9356815   -3.9356815   -3.2640952  0.043615203   -3.9356815    0.6715863   421013 
 4698000   0.60355215   -3.9338264   -3.9338264   -3.2640418  0.037235277   -3.9338264   0.66978458   421013 
 4699000   0.60391036    -3.934536    -3.934536   -3.2643539  0.027866104    -3.934536    0.6701821   421013 
 4700000   0.60391069   -3.9343987   -3.9343987   -3.2642163  0.035941232   -3.9343987   0.67018246   421013 
 4701000   0.60385176   -3.9342226   -3.9342226   -3.2641055  0.041030277   -3.9342226   0.67011706   421013 
 4702000   0.60352172   -3.9345289   -3.9345289   -3.2647781  0.029892367   -3.9345289   0.66975081   421013 
 4703000   0.60377258   -3.9351343   -3.9351343   -3.2651051  0.032460798   -3.9351343    0.6700292   421013 
 4704000   0.60486802   -3.9366171   -3.9366171   -3.2653723  0.036784786   -3.9366171   0.67124484   421013 
 4705000   0.60533027   -3.9365736   -3.9365736   -3.2648158  0.034017848   -3.9365736   0.67175783   421013 
 4706000   0.60240895   -3.9337266   -3.9337266   -3.2652106  0.017552794   -3.9337266   0.66851593   421013 
 4707000    0.6023029   -3.9334632   -3.9334632   -3.2650649  0.032628931   -3.9334632   0.66839824   421013 
 4708000   0.60266842   -3.9335311   -3.9335311   -3.2647272  0.030969085   -3.9335311   0.66880387   421013 
 4709000   0.60387061   -3.9345775   -3.9345775   -3.2644395  0.033814971   -3.9345775   0.67013799   421013 
 4710000    0.6048031   -3.9351465   -3.9351465   -3.2639737  0.021387898   -3.9351465   0.67117281   421013 
 4711000   0.60436533   -3.9353943   -3.9353943   -3.2647073  0.032678142   -3.9353943     0.670687   421013 
 4712000    0.6033962   -3.9334366   -3.9334366   -3.2638251  0.037481672   -3.9334366   0.66961152   421013 
 4713000   0.60355438   -3.9344485   -3.9344485   -3.2646615  0.018102355   -3.9344485   0.66978706   421013 
 4714000   0.60465557   -3.9353131   -3.9353131    -3.264304  0.020101007   -3.9353131   0.67100908   421013 
 4715000   0.60420874   -3.9363514   -3.9363514   -3.2658382  0.034445892   -3.9363514   0.67051322   421013 
 4716000   0.60345002   -3.9341467   -3.9341467   -3.2644755  0.034567735   -3.9341467   0.66967124   421013 
 4717000   0.60371701   -3.9346362   -3.9346362   -3.2646686  0.023717292   -3.9346362   0.66996753   421013 
 4718000     0.602746    -3.933407    -3.933407    -3.264517  0.036528188    -3.933407   0.66888996   421013 
 4719000   0.60462059   -3.9361481   -3.9361481   -3.2651778  0.025287675   -3.9361481   0.67097026   421013 
 4720000   0.60401183   -3.9352927   -3.9352927    -3.264998  0.040960008   -3.9352927    0.6702947   421013 
 4721000   0.60385397   -3.9349906   -3.9349906   -3.2648711  0.029086998   -3.9349906   0.67011952   421013 
 4722000   0.60338068   -3.9341947   -3.9341947   -3.2646004  0.016893534   -3.9341947   0.66959429   421013 
 4723000   0.60348202   -3.9340447   -3.9340447    -3.264338  0.035499637   -3.9340447   0.66970676   421013 
 4724000   0.60323478    -3.933191    -3.933191   -3.2637586  0.025105653    -3.933191   0.66943238   421013 
 4725000   0.60492512   -3.9355687   -3.9355687   -3.2642605  0.029614797   -3.9355687   0.67130822   421013 
 4726000   0.60467942   -3.9350735   -3.9350735   -3.2640379  0.031950675   -3.9350735   0.67103556   421013 
 4727000    0.6048248    -3.934278    -3.934278   -3.2630812  0.030239202    -3.934278   0.67119688   421013 
 4728000   0.60486035   -3.9345001   -3.9345001   -3.2632637  0.023003092   -3.9345001   0.67123634   421013 
 4729000    0.6042495   -3.9347938   -3.9347938   -3.2642353  0.033488325   -3.9347938   0.67055845   421013 
 4730000   0.60397577   -3.9346101   -3.9346101   -3.2643554  0.038175776   -3.9346101   0.67025469   421013 
 4731000   0.60393166   -3.9345159   -3.9345159   -3.2643102  0.024939747   -3.9345159   0.67020573   421013 
 4732000   0.60450811   -3.9354216   -3.9354216   -3.2645761   0.03221157   -3.9354216   0.67084545   421013 
 4733000   0.60403156   -3.9350891   -3.9350891   -3.2647725  0.047372549   -3.9350891   0.67031659   421013 
 4734000   0.60396628   -3.9351324   -3.9351324   -3.2648883  0.027548908   -3.9351324   0.67024416   421013 
 4735000   0.60399671   -3.9347071   -3.9347071   -3.2644291  0.033370721   -3.9347071   0.67027792   421013 
 4736000    0.6044539   -3.9347236   -3.9347236   -3.2639383  0.013137279   -3.9347236   0.67078528   421013 
 4737000   0.60484981   -3.9354275   -3.9354275   -3.2642029  0.028091578   -3.9354275   0.67122464   421013 
 4738000   0.60413741   -3.9346612   -3.9346612   -3.2642271  0.044128123   -3.9346612   0.67043407   421013 
 4739000   0.60396229   -3.9342866   -3.9342866   -3.2640469   0.02771783   -3.9342866   0.67023972   421013 
 4740000   0.60427141   -3.9346566   -3.9346566   -3.2640738  0.025904459   -3.9346566   0.67058277   421013 
 4741000   0.60349847   -3.9334784   -3.9334784   -3.2637534   0.02950326   -3.9334784   0.66972501   421013 
 4742000   0.60520599   -3.9348735   -3.9348735   -3.2632536  0.031245163   -3.9348735   0.67161991   421013 
 4743000    0.6036023   -3.9340543   -3.9340543   -3.2642141   0.02371797   -3.9340543   0.66984023   421013 
 4744000   0.60445388   -3.9352099   -3.9352099   -3.2644246  0.035444346   -3.9352099   0.67078526   421013 
 4745000   0.60350298   -3.9339023   -3.9339023   -3.2641723  0.037757582   -3.9339023   0.66973001   421013 
 4746000   0.60312949   -3.9339653   -3.9339653   -3.2646498  0.034429715   -3.9339653   0.66931554   421013 
 4747000   0.60467564   -3.9350362   -3.9350362   -3.2640048     0.026418   -3.9350362   0.67103135   421013 
 4748000   0.60344507   -3.9342604   -3.9342604   -3.2645946  0.036774616   -3.9342604   0.66966574   421013 
 4749000   0.60404596    -3.935557    -3.935557   -3.2652244  0.017508151    -3.935557   0.67033258   421013 
 4750000   0.60415532   -3.9350553   -3.9350553   -3.2646014  0.029050689   -3.9350553   0.67045394   421013 
 4751000   0.60440558   -3.9353482   -3.9353482   -3.2646165  0.030955201   -3.9353482   0.67073166   421013 
 4752000    0.6036886   -3.9335693   -3.9335693   -3.2636333  0.027580922   -3.9335693     0.669936   421013 
 4753000   0.60320978   -3.9334385   -3.9334385   -3.2640339  0.038005764   -3.9334385   0.66940463   421013 
 4754000   0.60377189   -3.9344542   -3.9344542   -3.2644258  0.030833279   -3.9344542   0.67002843   421013 
 4755000   0.60511329   -3.9356345   -3.9356345   -3.2641175  0.034058771   -3.9356345   0.67151703   421013 
 4756000    0.6036238    -3.933352    -3.933352    -3.263488  0.029816618    -3.933352   0.66986409   421013 
 4757000   0.60402437   -3.9338474   -3.9338474   -3.2635388  0.026308892   -3.9338474   0.67030862   421013 
 4758000   0.60284749   -3.9325762   -3.9325762   -3.2635736   0.02954163   -3.9325762   0.66900259   421013 
 4759000   0.60401119   -3.9344396   -3.9344396   -3.2641456  0.042746378   -3.9344396     0.670294   421013 
 4760000   0.60483773    -3.934944    -3.934944   -3.2637328  0.033824326    -3.934944   0.67121124   421013 
 4761000   0.60454167   -3.9344647   -3.9344647    -3.263582  0.025194587   -3.9344647   0.67088268   421013 
 4762000   0.60440148   -3.9340635   -3.9340635   -3.2633364  0.041399861   -3.9340635   0.67072711   421013 
 4763000   0.60476948   -3.9342978   -3.9342978   -3.2631623  0.034000742   -3.9342978    0.6711355   421013 
 4764000   0.60478029   -3.9350929   -3.9350929   -3.2639454  0.022838421   -3.9350929   0.67114749   421013 
 4765000   0.60421985   -3.9333853   -3.9333853   -3.2628598  0.029971875   -3.9333853   0.67052555   421013 
 4766000   0.60489908   -3.9339196   -3.9339196   -3.2626403  0.021385634   -3.9339196   0.67127932   421013 
 4767000    0.6039766   -3.9335954   -3.9335954   -3.2633398  0.036846502   -3.9335954    0.6702556   421013 
 4768000   0.60359392   -3.9332023   -3.9332023   -3.2633714  0.035408911   -3.9332023   0.66983093   421013 
 4769000   0.60301424   -3.9327905   -3.9327905   -3.2636028  0.033291535   -3.9327905   0.66918764   421013 
 4770000   0.60353844   -3.9327044   -3.9327044    -3.262935  0.025423863   -3.9327044   0.66976936   421013 
 4771000   0.60368707   -3.9331936   -3.9331936   -3.2632593  0.022599048   -3.9331936   0.66993431   421013 
 4772000   0.60480898    -3.933884    -3.933884   -3.2627047  0.031303256    -3.933884   0.67117933   421013 
 4773000   0.60385862   -3.9334094   -3.9334094   -3.2632848  0.025974544   -3.9334094   0.67012468   421013 
 4774000   0.60415327   -3.9343177   -3.9343177   -3.2638661  0.023698812   -3.9343177   0.67045166   421013 
 4775000   0.60504209   -3.9348403   -3.9348403   -3.2634023  0.030752983   -3.9348403   0.67143801   421013 
 4776000   0.60405994   -3.9340029   -3.9340029   -3.2636548  0.048308663   -3.9340029   0.67034809   421013 
 4777000   0.60344759    -3.932523    -3.932523   -3.2628544   0.03429143    -3.932523   0.66966854   421013 
 4778000   0.60475928   -3.9338466   -3.9338466   -3.2627225  0.036429665   -3.9338466   0.67112417   421013 
 4779000   0.60394684   -3.9325545   -3.9325545   -3.2623319  0.034128551   -3.9325545   0.67022258   421013 
 4780000   0.60540634   -3.9345246   -3.9345246   -3.2626824  0.021785019   -3.9345246   0.67184225   421013 
 4781000   0.60537333   -3.9342318   -3.9342318   -3.2624262   0.03006537   -3.9342318   0.67180561   421013 
 4782000   0.60522748   -3.9343614   -3.9343614   -3.2627176  0.038949739   -3.9343614   0.67164375   421013 
 4783000   0.60330794   -3.9322449   -3.9322449   -3.2627313  0.039926826   -3.9322449   0.66951357   421013 
 4784000   0.60314958   -3.9321745   -3.9321745   -3.2628367  0.022302882   -3.9321745   0.66933783   421013 
 4785000   0.60349232   -3.9326322   -3.9326322    -3.262914  0.031501021   -3.9326322   0.66971818   421013 
 4786000   0.60414538    -3.934363    -3.934363   -3.2639201  0.043068701    -3.934363    0.6704429   421013 
 4787000   0.60348636   -3.9328805   -3.9328805    -3.263169  0.021024623   -3.9328805   0.66971156   421013 
 4788000   0.60379372   -3.9341163   -3.9341163   -3.2640637  0.015567615   -3.9341163   0.67005265   421013 
 4789000   0.60303193   -3.9333229   -3.9333229   -3.2641156  0.037505965   -3.9333229   0.66920727   421013 
 4790000   0.60324305   -3.9340425   -3.9340425    -3.264601  0.022143608   -3.9340425   0.66944155   421013 
 4791000   0.60316716   -3.9339862   -3.9339862   -3.2646289  0.022724362   -3.9339862   0.66935734   421013 
 4792000   0.60195557   -3.9324125   -3.9324125   -3.2643997  0.028033505   -3.9324125   0.66801279   421013 
 4793000   0.60465732   -3.9347612   -3.9347612   -3.2637502  0.034669232   -3.9347612   0.67101102   421013 
 4794000   0.60303981    -3.932896    -3.932896     -3.26368  0.039777153    -3.932896   0.66921601   421013 
 4795000   0.60389537   -3.9335922   -3.9335922   -3.2634268  0.030579439   -3.9335922   0.67016546   421013 
 4796000   0.60368104   -3.9332001   -3.9332001   -3.2632724  0.019876296   -3.9332001   0.66992761   421013 
 4797000   0.60400253   -3.9334179   -3.9334179   -3.2631335  0.030476241   -3.9334179   0.67028438   421013 
 4798000   0.60467322   -3.9344316   -3.9344316   -3.2634029  0.032767763   -3.9344316   0.67102867   421013 
 4799000   0.60410943   -3.9343433   -3.9343433   -3.2639403   0.01974725   -3.9343433   0.67040302   421013 
 4800000    0.6034266   -3.9339523   -3.9339523   -3.2643071  0.035338874   -3.9339523   0.66964525   421013 
 4801000   0.60473441   -3.9357956   -3.9357956    -3.264699  0.033776154   -3.9357956   0.67109657   421013 
 4802000   0.60510529   -3.9358243   -3.9358243   -3.2643161   0.02930893   -3.9358243   0.67150816   421013 
 4803000   0.60395214   -3.9337611   -3.9337611   -3.2635326  0.023148784   -3.9337611   0.67022846   421013 
 4804000   0.60492498   -3.9353556   -3.9353556   -3.2640475  0.035256117   -3.9353556   0.67130805   421013 
 4805000   0.60404027    -3.933939    -3.933939   -3.2636128  0.032419946    -3.933939   0.67032626   421013 
 4806000   0.60409454    -3.934508    -3.934508   -3.2641215  0.034395051    -3.934508   0.67038649   421013 
 4807000   0.60464956   -3.9348301   -3.9348301   -3.2638277  0.034589028   -3.9348301   0.67100242   421013 
 4808000   0.60378955   -3.9342496   -3.9342496   -3.2642016  0.023924457   -3.9342496   0.67004802   421013 
 4809000   0.60369847   -3.9341026   -3.9341026   -3.2641556  0.031654487   -3.9341026   0.66994695   421013 
 4810000    0.6033484   -3.9334364   -3.9334364   -3.2638779  0.030836349   -3.9334364   0.66955847   421013 
 4811000   0.60309198   -3.9326247   -3.9326247   -3.2633508   0.04317848   -3.9326247   0.66927391   421013 
 4812000   0.60360011   -3.9327524   -3.9327524   -3.2629146  0.022853366   -3.9327524    0.6698378   421013 
 4813000   0.60422492   -3.9342822   -3.9342822    -3.263751  0.032272718   -3.9342822   0.67053117   421013 
 4814000   0.60309594   -3.9328877   -3.9328877   -3.2636094  0.022884489   -3.9328877   0.66927831   421013 
 4815000   0.60530308    -3.934775    -3.934775   -3.2630474  0.024913182    -3.934775   0.67172765   421013 
 4816000   0.60445186   -3.9338795   -3.9338795   -3.2630965  0.030040979   -3.9338795   0.67078302   421013 
 4817000   0.60421297   -3.9339036   -3.9339036   -3.2633857  0.031189752   -3.9339036   0.67051791   421013 
 4818000   0.60420799   -3.9337634   -3.9337634    -3.263251  0.034793413   -3.9337634   0.67051239   421013 
 4819000   0.60440076   -3.9344713   -3.9344713   -3.2637449  0.034051712   -3.9344713   0.67072632   421013 
 4820000   0.60467143   -3.9332814   -3.9332814   -3.2622547  0.040654643   -3.9332814   0.67102669   421013 
 4821000   0.60476729   -3.9348437   -3.9348437   -3.2637106  0.040100328   -3.9348437   0.67113306   421013 
 4822000   0.60560431    -3.935623    -3.935623    -3.263561  0.037420944    -3.935623   0.67206194   421013 
 4823000   0.60450027    -3.933889    -3.933889   -3.2630523  0.040616373    -3.933889   0.67083674   421013 
 4824000   0.60334047   -3.9327207   -3.9327207   -3.2631711  0.035646318   -3.9327207   0.66954966   421013 
 4825000   0.60376542   -3.9335388   -3.9335388   -3.2635176  0.028350267   -3.9335388   0.67002126   421013 
 4826000   0.60439538   -3.9340756   -3.9340756   -3.2633553  0.024124451   -3.9340756   0.67072034   421013 
 4827000   0.60509498     -3.93478     -3.93478   -3.2632833  0.023335221     -3.93478   0.67149671   421013 
 4828000   0.60570353   -3.9348856   -3.9348856   -3.2627135  0.033350595   -3.9348856   0.67217205   421013 
 4829000   0.60453481   -3.9333827   -3.9333827   -3.2625076  0.043881744   -3.9333827   0.67087507   421013 
 4830000   0.60511795   -3.9339354   -3.9339354   -3.2624132  0.033608266   -3.9339354    0.6715222   421013 
 4831000   0.60338147   -3.9327562   -3.9327562    -3.263161  0.022380845   -3.9327562   0.66959517   421013 
 4832000   0.60373222   -3.9330873   -3.9330873   -3.2631029  0.043658366   -3.9330873    0.6699844   421013 
 4833000   0.60375622   -3.9328557   -3.9328557   -3.2628446  0.026137855   -3.9328557   0.67001105   421013 
 4834000   0.60521676   -3.9347827   -3.9347827   -3.2631509  0.022610946   -3.9347827   0.67163185   421013 
 4835000   0.60555698    -3.934961    -3.934961   -3.2629515  0.028543948    -3.934961   0.67200941   421013 
 4836000    0.6044093   -3.9347956   -3.9347956   -3.2640598  0.038676338   -3.9347956   0.67073578   421013 
 4837000    0.6038267    -3.934775    -3.934775   -3.2646857  0.031202984    -3.934775   0.67008925   421013 
 4838000   0.60507272   -3.9358041   -3.9358041   -3.2643321  0.025716782   -3.9358041   0.67147201   421013 
 4839000   0.60641335   -3.9359747   -3.9359747   -3.2630149  0.034101775   -3.9359747   0.67295976   421013 
 4840000   0.60612114   -3.9354881   -3.9354881   -3.2628526  0.020282038   -3.9354881   0.67263549   421013 
 4841000   0.60487068    -3.934216    -3.934216   -3.2629682    0.0320664    -3.934216    0.6712478   421013 
 4842000   0.60484639   -3.9345865   -3.9345865   -3.2633656  0.021284469   -3.9345865   0.67122085   421013 
 4843000   0.60459772   -3.9339136   -3.9339136   -3.2629687  0.021901344   -3.9339136   0.67094488   421013 
 4844000   0.60445726   -3.9340222   -3.9340222   -3.2632332  0.023805018   -3.9340222   0.67078901   421013 
 4845000   0.60633239   -3.9368838   -3.9368838   -3.2640139  0.029302207   -3.9368838   0.67286991   421013 
 4846000   0.60485569   -3.9351992   -3.9351992    -3.263968  0.032944984   -3.9351992   0.67123117   421013 
 4847000   0.60515919   -3.9362511   -3.9362511   -3.2646831  0.035404335   -3.9362511   0.67156798   421013 
 4848000   0.60529962   -3.9360834   -3.9360834   -3.2643596  0.035986058   -3.9360834   0.67172381   421013 
 4849000   0.60464363   -3.9357615   -3.9357615   -3.2647657  0.038611842   -3.9357615   0.67099583   421013 
 4850000   0.60454997    -3.936485    -3.936485   -3.2655931   0.03294814    -3.936485    0.6708919   421013 
 4851000   0.60513739   -3.9366794   -3.9366794   -3.2651356  0.033840494   -3.9366794   0.67154378   421013 
 4852000   0.60454896     -3.93589     -3.93589   -3.2649992  0.038844407     -3.93589   0.67089078   421013 
 4853000   0.60561936   -3.9362616   -3.9362616   -3.2641829  0.031198086   -3.9362616   0.67207864   421013 
 4854000   0.60475608   -3.9356645   -3.9356645   -3.2645439  0.029526938   -3.9356645   0.67112062   421013 
 4855000   0.60274968   -3.9334122   -3.9334122   -3.2645182  0.031053755   -3.9334122   0.66889405   421013 
 4856000   0.60360052    -3.934078    -3.934078   -3.2642397  0.040409962    -3.934078   0.66983826   421013 
 4857000   0.60466614   -3.9352864   -3.9352864   -3.2642656  0.024928251   -3.9352864   0.67102082   421013 
 4858000   0.60525432   -3.9368441   -3.9368441   -3.2651705  0.032736831   -3.9368441   0.67167354   421013 
 4859000   0.60543835   -3.9364881   -3.9364881   -3.2646104  0.033743055   -3.9364881   0.67187776   421013 
 4860000    0.6045742   -3.9354647   -3.9354647   -3.2645459  0.032388539   -3.9354647   0.67091879   421013 
 4861000   0.60423333   -3.9345825   -3.9345825    -3.264042   0.03281034   -3.9345825   0.67054051   421013 
 4862000   0.60500584   -3.9355288   -3.9355288    -3.264131  0.037353974   -3.9355288   0.67139779   421013 
 4863000    0.6042268   -3.9348512   -3.9348512   -3.2643179  0.023697358   -3.9348512   0.67053327   421013 
 4864000   0.60386471   -3.9338086   -3.9338086   -3.2636772  0.034689373   -3.9338086   0.67013144   421013 
 4865000   0.60335429   -3.9336717   -3.9336717   -3.2641067  0.035449749   -3.9336717   0.66956501   421013 
 4866000   0.60372095   -3.9337681   -3.9337681   -3.2637962  0.026298509   -3.9337681    0.6699719   421013 
 4867000   0.60313281   -3.9329564   -3.9329564   -3.2636372  0.027239072   -3.9329564   0.66931922   421013 
 4868000   0.60573016   -3.9349571   -3.9349571   -3.2627555   0.04486669   -3.9349571    0.6722016   421013 
 4869000   0.60353534   -3.9331865   -3.9331865   -3.2634206  0.024739109   -3.9331865   0.66976592   421013 
 4870000   0.60428662   -3.9344376   -3.9344376    -3.263838  0.039958752   -3.9344376   0.67059965   421013 
 4871000   0.60471162   -3.9346847   -3.9346847   -3.2636135  0.029237696   -3.9346847   0.67107128   421013 
 4872000   0.60392402   -3.9340955   -3.9340955   -3.2638982  0.026472562   -3.9340955   0.67019725   421013 
 4873000   0.60404182   -3.9333775   -3.9333775   -3.2630496  0.038763063   -3.9333775   0.67032798   421013 
 4874000   0.60302403   -3.9316726   -3.9316726   -3.2624741  0.039680537   -3.9316726   0.66919851   421013 
 4875000   0.60525537   -3.9346587   -3.9346587    -3.262984  0.028814355   -3.9346587   0.67167471   421013 
 4876000   0.60429893   -3.9331934   -3.9331934   -3.2625801   0.03863195   -3.9331934    0.6706133   421013 
 4877000   0.60493726   -3.9341807   -3.9341807    -3.262859  0.047557338   -3.9341807   0.67132169   421013 
 4878000   0.60515811   -3.9348078   -3.9348078    -3.263241  0.012538498   -3.9348078   0.67156677   421013 
 4879000   0.60517555   -3.9338444   -3.9338444   -3.2622583   0.03362646   -3.9338444   0.67158612   421013 
 4880000   0.60459745   -3.9334389   -3.9334389   -3.2624943  0.031603873   -3.9334389   0.67094458   421013 
 4881000   0.60428889    -3.933743    -3.933743   -3.2631408   0.03321812    -3.933743   0.67060217   421013 
 4882000   0.60411841   -3.9339758   -3.9339758   -3.2635628  0.044309148   -3.9339758   0.67041298   421013 
 4883000   0.60412268   -3.9338215   -3.9338215   -3.2634038  0.029316725   -3.9338215   0.67041771   421013 
 4884000   0.60362085   -3.9337597   -3.9337597   -3.2638989  0.032463309   -3.9337597   0.66986082   421013 
 4885000   0.60302836   -3.9325341   -3.9325341   -3.2633307  0.034772543   -3.9325341    0.6692033   421013 
 4886000   0.60458004   -3.9348649   -3.9348649   -3.2639396  0.018484824   -3.9348649   0.67092526   421013 
 4887000   0.60389519   -3.9340282   -3.9340282   -3.2638629  0.035887462   -3.9340282   0.67016527   421013 
 4888000    0.6051586   -3.9349542   -3.9349542   -3.2633869  0.042999027   -3.9349542   0.67156732   421013 
 4889000   0.60389635   -3.9341417   -3.9341417   -3.2639752  0.030606789   -3.9341417   0.67016655   421013 
 4890000   0.60398587   -3.9346409   -3.9346409    -3.264375  0.028434161   -3.9346409    0.6702659   421013 
 4891000   0.60490834   -3.9352953   -3.9352953   -3.2640057  0.026890527   -3.9352953    0.6712896   421013 
 4892000    0.6048887   -3.9349672   -3.9349672   -3.2636994  0.037919644   -3.9349672    0.6712678   421013 
 4893000   0.60495832   -3.9351499   -3.9351499   -3.2638049  0.037726897   -3.9351499   0.67134506   421013 
 4894000   0.60467254   -3.9350042   -3.9350042   -3.2639763  0.032053003   -3.9350042   0.67102792   421013 
 4895000   0.60410893   -3.9345992   -3.9345992   -3.2641968  0.043555643   -3.9345992   0.67040245   421013 
 4896000   0.60525871    -3.935058    -3.935058   -3.2633796  0.027601532    -3.935058   0.67167841   421013 
 4897000   0.60579726   -3.9360538   -3.9360538   -3.2637778  0.037170692   -3.9360538   0.67227606   421013 
 4898000   0.60410026   -3.9346983   -3.9346983   -3.2643055  0.039401806   -3.9346983   0.67039283   421013 
 4899000   0.60458935   -3.9347761   -3.9347761   -3.2638405  0.043429717   -3.9347761    0.6709356   421013 
 4900000   0.60318704   -3.9331781   -3.9331781   -3.2637987   0.03965063   -3.9331781    0.6693794   421013 
 4901000   0.60518709    -3.934727    -3.934727   -3.2631281  0.035857596    -3.934727   0.67159893   421013 
 4902000   0.60480868   -3.9347476   -3.9347476   -3.2635686  0.032414079   -3.9347476     0.671179   421013 
 4903000   0.60451402   -3.9343834   -3.9343834   -3.2635314  0.020367903   -3.9343834     0.670852   421013 
 4904000   0.60455503   -3.9345139   -3.9345139   -3.2636163  0.024384956   -3.9345139   0.67089752   421013 
 4905000   0.60491291   -3.9352539   -3.9352539   -3.2639593  0.023948177   -3.9352539   0.67129466   421013 
 4906000   0.60546697   -3.9356587   -3.9356587   -3.2637492  0.024752107   -3.9356587   0.67190952   421013 
 4907000   0.60501207   -3.9351301   -3.9351301   -3.2637254  0.023379507   -3.9351301   0.67140471   421013 
 4908000   0.60526299   -3.9350832   -3.9350832      -3.2634  0.039231588   -3.9350832   0.67168317   421013 
 4909000   0.60447164   -3.9344945   -3.9344945   -3.2636896  0.043187196   -3.9344945   0.67080497   421013 
 4910000   0.60435732   -3.9351023   -3.9351023   -3.2644242  0.031435122   -3.9351023    0.6706781   421013 
 4911000   0.60474694    -3.935689    -3.935689   -3.2645785  0.020717374    -3.935689   0.67111048   421013 
 4912000   0.60481222   -3.9363362   -3.9363362   -3.2651533    0.0337115   -3.9363362   0.67118293   421013 
 4913000   0.60488298   -3.9360121   -3.9360121   -3.2647507  0.034021215   -3.9360121   0.67126144   421013 
 4914000     0.604666   -3.9347359   -3.9347359   -3.2637152  0.050691151   -3.9347359   0.67102065   421013 
 4915000   0.60419815   -3.9345755   -3.9345755    -3.264074  0.024889356   -3.9345755   0.67050147   421013 
 4916000    0.6043234   -3.9355505   -3.9355505   -3.2649101  0.037910762   -3.9355505   0.67064046   421013 
 4917000   0.60349153   -3.9348628   -3.9348628   -3.2651455  0.025863002   -3.9348628   0.66971731   421013 
 4918000   0.60474893   -3.9363507   -3.9363507    -3.265238  0.029592054   -3.9363507   0.67111269   421013 
 4919000   0.60350579    -3.935511    -3.935511   -3.2657779  0.032091248    -3.935511   0.66973313   421013 
 4920000   0.60411607   -3.9363367   -3.9363367   -3.2659263  0.020728303   -3.9363367   0.67041039   421013 
 4921000   0.60481151   -3.9376282   -3.9376282   -3.2664461  0.032262774   -3.9376282   0.67118213   421013 
 4922000   0.60611859   -3.9375568   -3.9375568   -3.2649242  0.037933936   -3.9375568   0.67263265   421013 
 4923000   0.60406945   -3.9359872   -3.9359872   -3.2656285  0.038780396   -3.9359872   0.67035865   421013 
 4924000    0.6044721   -3.9362605   -3.9362605    -3.265455  0.031915677   -3.9362605   0.67080548   421013 
 4925000   0.60429886    -3.936306    -3.936306   -3.2656928   0.03519775    -3.936306   0.67061323   421013 
 4926000   0.60354966   -3.9357262   -3.9357262   -3.2659444  0.034131964   -3.9357262   0.66978181   421013 
 4927000   0.60345393   -3.9350669   -3.9350669   -3.2653913  0.036281412   -3.9350669   0.66967558   421013 
 4928000   0.60397871   -3.9359643   -3.9359643   -3.2657063  0.020807194   -3.9359643   0.67025794   421013 
 4929000   0.60447395   -3.9354873   -3.9354873   -3.2646798  0.023554539   -3.9354873   0.67080753   421013 
 4930000   0.60480108   -3.9358809   -3.9358809   -3.2647103  0.040025373   -3.9358809   0.67117056   421013 
 4931000    0.6046025   -3.9353188   -3.9353188   -3.2643686  0.029601396   -3.9353188   0.67095019   421013 
 4932000   0.60496027   -3.9354792   -3.9354792    -3.264132  0.031718659   -3.9354792   0.67134722   421013 
 4933000   0.60526972   -3.9359651   -3.9359651   -3.2642745  0.042424011   -3.9359651   0.67169063   421013 
 4934000   0.60414318   -3.9349384   -3.9349384   -3.2644979  0.035579432   -3.9349384   0.67044047   421013 
 4935000   0.60550522   -3.9365618   -3.9365618   -3.2646098  0.032453054   -3.9365618   0.67195198   421013 
 4936000   0.60478934   -3.9364076   -3.9364076   -3.2652501  0.030128576   -3.9364076   0.67115753   421013 
 4937000   0.60451201   -3.9364174   -3.9364174   -3.2655676  0.034987743   -3.9364174   0.67084976   421013 
 4938000   0.60557921   -3.9369451   -3.9369451    -3.264911   0.03010277   -3.9369451   0.67203408   421013 
 4939000   0.60436481      -3.9357      -3.9357   -3.2650136  0.033996308      -3.9357   0.67068642   421013 
 4940000   0.60514304   -3.9363358   -3.9363358   -3.2647857  0.021090772   -3.9363358   0.67155005   421013 
 4941000   0.60381468   -3.9353503   -3.9353503   -3.2652743  0.030666845   -3.9353503   0.67007592   421013 
 4942000   0.60357358   -3.9355407   -3.9355407   -3.2657324  0.041348593   -3.9355407   0.66980835   421013 
 4943000   0.60270013   -3.9356195   -3.9356195   -3.2667804  0.025708633   -3.9356195   0.66883906   421013 
 4944000   0.60356169   -3.9358507   -3.9358507   -3.2660555  0.013082021   -3.9358507   0.66979516   421013 
 4945000   0.60371729   -3.9356101   -3.9356101   -3.2656423  0.027175476   -3.9356101   0.66996784   421013 
 4946000   0.60431797   -3.9360163   -3.9360163   -3.2653818  0.027369583   -3.9360163   0.67063443   421013 
 4947000    0.6059162   -3.9380576   -3.9380576   -3.2656496  0.041265676   -3.9380576   0.67240805   421013 
 4948000   0.60397956   -3.9352305   -3.9352305   -3.2649716   0.03708077   -3.9352305   0.67025889   421013 
 4949000    0.6037609   -3.9348476   -3.9348476   -3.2648313  0.036225481   -3.9348476   0.67001624   421013 
 4950000   0.60335751   -3.9351572   -3.9351572   -3.2655886  0.027621959   -3.9351572   0.66956857   421013 
 4951000    0.6046982   -3.9367222   -3.9367222   -3.2656658  0.020618077   -3.9367222   0.67105639   421013 
 4952000   0.60463776   -3.9364024   -3.9364024   -3.2654131  0.036070508   -3.9364024   0.67098932   421013 
 4953000   0.60375505   -3.9346448   -3.9346448    -3.264635  0.036477223   -3.9346448   0.67000974   421013 
 4954000    0.6050053   -3.9355932   -3.9355932    -3.264196  0.033236716   -3.9355932   0.67139719   421013 
 4955000   0.60501022   -3.9360577   -3.9360577    -3.264655  0.032853415   -3.9360577   0.67140265   421013 
 4956000   0.60452058   -3.9355015   -3.9355015   -3.2646422  0.029686899   -3.9355015   0.67085928   421013 
 4957000   0.60377574   -3.9356261   -3.9356261   -3.2655934  0.045406531   -3.9356261   0.67003271   421013 
 4958000   0.60369544   -3.9361016   -3.9361016    -3.266158  0.028433029   -3.9361016   0.66994359   421013 
 4959000   0.60323797   -3.9356736   -3.9356736   -3.2662377  0.023558667   -3.9356736   0.66943592   421013 
 4960000   0.60345646   -3.9355942   -3.9355942   -3.2659158  0.025470787   -3.9355942   0.66967838   421013 
 4961000   0.60417514   -3.9367984   -3.9367984   -3.2663224  0.028435364   -3.9367984   0.67047593   421013 
 4962000   0.60501389   -3.9368779   -3.9368779   -3.2654712  0.032426361   -3.9368779   0.67140673   421013 
 4963000   0.60475462   -3.9365797   -3.9365797   -3.2654607  0.032051986   -3.9365797     0.671119   421013 
 4964000   0.60319816   -3.9354041   -3.9354041   -3.2660124  0.028524637   -3.9354041   0.66939174   421013 
 4965000   0.60385333   -3.9360663   -3.9360663   -3.2659474  0.029342112   -3.9360663   0.67011881   421013 
 4966000   0.60442099   -3.9368948   -3.9368948   -3.2661461  0.040718386   -3.9368948   0.67074876   421013 
 4967000   0.60432561   -3.9369149   -3.9369149   -3.2662719  0.015903829   -3.9369149   0.67064291   421013 
 4968000   0.60376861    -3.935823    -3.935823   -3.2657982  0.049269818    -3.935823   0.67002479   421013 
 4969000   0.60426954   -3.9360851   -3.9360851   -3.2655044  0.038886569   -3.9360851   0.67058069   421013 
 4970000   0.60365812   -3.9348956   -3.9348956   -3.2649934  0.041572037   -3.9348956   0.66990218   421013 
 4971000   0.60523141    -3.935735    -3.935735   -3.2640869  0.014438857    -3.935735   0.67164812   421013 
 4972000    0.6056345   -3.9365631   -3.9365631   -3.2644677  0.038222637   -3.9365631   0.67209544   421013 
 4973000   0.60436119   -3.9354545   -3.9354545   -3.2647721  0.024931469   -3.9354545    0.6706824   421013 
 4974000   0.60565265   -3.9364122   -3.9364122   -3.2642966   0.03167106   -3.9364122   0.67211559   421013 
 4975000   0.60487765   -3.9358306   -3.9358306   -3.2645751  0.031834813   -3.9358306   0.67125553   421013 
 4976000   0.60466555   -3.9354502   -3.9354502   -3.2644301  0.024890318   -3.9354502   0.67102016   421013 
 4977000   0.60493069   -3.9362366   -3.9362366   -3.2649222   0.03171819   -3.9362366   0.67131439   421013 
 4978000   0.60348367   -3.9344769   -3.9344769   -3.2647683  0.040001852   -3.9344769   0.66970858   421013 
 4979000   0.60407437   -3.9356317   -3.9356317   -3.2652676  0.025378111   -3.9356317   0.67036411   421013 
 4980000   0.60406401   -3.9356165   -3.9356165   -3.2652639  0.030830158   -3.9356165   0.67035261   421013 
 4981000   0.60452216   -3.9356836   -3.9356836   -3.2648225  0.051794832   -3.9356836   0.67086103   421013 
 4982000   0.60481664    -3.936134    -3.936134   -3.2649461   0.04093059    -3.936134   0.67118783   421013 
 4983000   0.60606733   -3.9372558   -3.9372558     -3.26468  0.025929985   -3.9372558   0.67257577   421013 
 4984000   0.60444417   -3.9354415   -3.9354415    -3.264667  0.015167602   -3.9354415   0.67077448   421013 
 4985000   0.60474515   -3.9366762   -3.9366762   -3.2655677  0.032155236   -3.9366762    0.6711085   421013 
 4986000   0.60462224   -3.9371628   -3.9371628   -3.2661907  0.030017797   -3.9371628   0.67097209   421013 
 4987000    0.6041863   -3.9359613   -3.9359613   -3.2654729  0.036068178   -3.9359613   0.67048831   421013 
 4988000   0.60386828   -3.9367842   -3.9367842   -3.2666488  0.032720188   -3.9367842    0.6701354   421013 
 4989000   0.60345797    -3.936937    -3.936937    -3.267257  0.034290235    -3.936937   0.66968006   421013 
 4990000   0.60439285   -3.9371933   -3.9371933   -3.2664757  0.020867559   -3.9371933   0.67071754   421013 
 4991000     0.603239   -3.9367413   -3.9367413   -3.2673042  0.028174706   -3.9367413   0.66943707   421013 
 4992000   0.60346794    -3.937129    -3.937129   -3.2674378   0.03020118    -3.937129   0.66969112   421013 
 4993000   0.60464498   -3.9379732   -3.9379732   -3.2669758  0.037038782   -3.9379732   0.67099733   421013 
 4994000   0.60379452   -3.9369389   -3.9369389   -3.2668853  0.025220294   -3.9369389   0.67005354   421013 
 4995000   0.60392445   -3.9368954   -3.9368954   -3.2666977  0.034216601   -3.9368954   0.67019773   421013 
 4996000   0.60480143   -3.9372414   -3.9372414   -3.2660704  0.035903483   -3.9372414   0.67117095   421013 
 4997000   0.60502166   -3.9373032   -3.9373032   -3.2658878  0.033858541   -3.9373032   0.67141534   421013 
 4998000   0.60559119   -3.9391007   -3.9391007   -3.2670533  0.047340649   -3.9391007   0.67204737   421013 
 4999000   0.60386727   -3.9362236   -3.9362236   -3.2660894  0.030559791   -3.9362236   0.67013427   421013 
 5000000   0.60454298   -3.9369905   -3.9369905   -3.2661064   0.02137319   -3.9369905   0.67088414   421013 
Loop time of 15778.1 on 288 procs for 5000000 steps with 421013 atoms

Performance: 136898.533 tau/day, 316.895 timesteps/s
91.9% CPU use with 288 MPI tasks x 1 OpenMP threads

MPI task timing breakdown:
Section |  min time  |  avg time  |  max time  |%varavg|  %CPU | %total
-----------------------------------------------------------------------
Pair    | 177.88     | 2129.5     | 4511.9     |1801.3 |  94.8 | 13.50
Bond    | 3.253      | 3.421      | 3.6464     |   3.9 | 100.0 |  0.02
Neigh   | 391.48     | 3159.8     | 6590.1     |2059.3 |  98.9 | 20.03
Comm    | 2524.6     | 6100.5     | 12877      |2942.2 |  90.2 | 38.66
Output  | 806.28     | 815.96     | 834.72     |  42.5 |  88.2 |  5.17
Modify  | 929.97     | 3410.8     | 8492.6     |2641.8 |  90.7 | 21.62
Other   |            | 158.1      |            |       |       |  1.00

Nlocal:        1461.85 ave        2626 max         206 min
Histogram: 8 10 4 20 61 136 20 8 9 12
Nghost:        5920.77 ave        8703 max        1011 min
Histogram: 3 14 11 16 32 26 26 89 66 5
Neighs:        33266.7 ave       69336 max         486 min
Histogram: 25 12 7 22 65 96 41 8 5 7

Total # of neighbors = 9580807
Ave neighs/atom = 22.756559
Ave special neighs/atom = 0.0000000
Neighbor list builds = 496403
Dangerous builds = 439693

Total wall time: 4:23:03
