LAMMPS (29 Oct 2020)
  using 1 OpenMP thread(s) per MPI task
# Simple rigid body system
# needed variables:

#variable	startTemp equal 0.5
#variable 	temp 	  equal 0.8

units		lj
atom_style	full
dimension 	3
boundary	p p f
pair_style	lj/cut/opt 2.5

variable 	sigma		equal 1.0
variable 	epsilon 	equal 1.0

region		box block 0 80 0 80 0 160
create_box 	3 box
Created orthogonal box = (0.0000000 0.0000000 0.0000000) to (80.000000 80.000000 160.00000)
  2 by 4 by 8 MPI processor grid



lattice 	sc 0.66
Lattice spacing in x,y,z = 1.1485556 1.1485556 1.1485556
region		fluid block EDGE EDGE EDGE EDGE 2 100 units box
create_atoms 	1 region fluid
Created 421400 atoms
  create_atoms CPU = 0.007 seconds

lattice 	sc 0.045
Lattice spacing in x,y,z = 2.8114422 2.8114422 2.8114422
region		gas block EDGE EDGE EDGE EDGE 101 158 units box
create_atoms    1 region gas
Created 17661 atoms
  create_atoms CPU = 0.006 seconds

group		solvent type 1
439061 atoms in group solvent

mass		1 1.0
mass		2 1.0
mass		3 1.0



neighbor 	0.4 bin

pair_coeff	1 1 1.0 1.0
pair_coeff	2 2 0.0 0.0
pair_coeff	3 3 0.0 0.0
pair_coeff	2 3 0.0 0.0
pair_coeff	1 2*3 0.0 0.0

pair_modify 	shift yes

delete_atoms	overlap 0.5 solvent solvent
System init for delete_atoms ...
Neighbor list info ...
  update every 1 steps, delay 10 steps, check yes
  max neighbors/atom: 2000, page size: 100000
  master list distance cutoff = 2.9
  ghost atom cutoff = 2.9
  binsize = 1.45, bins = 56 56 111
  2 neighbor lists, perpetual/occasional/extra = 1 1 0
  (1) command delete_atoms, occasional
      attributes: full, newton on
      pair build: full/bin
      stencil: full/bin/3d
      bin: standard
  (2) pair lj/cut/opt, perpetual
      attributes: half, newton on
      pair build: half/bin/newton
      stencil: half/bin/3d/newton
      bin: standard
WARNING: Ignoring 'compress yes' for molecular system (src/delete_atoms.cpp:125)
Deleted 0 atoms, new total = 439061

velocity 	solvent create ${startTemp} 563435 loop geom
velocity 	solvent create .50 563435 loop geom

balance 	1.05 shift z 10 1.05
Balancing ...
Neighbor list info ...
  update every 1 steps, delay 10 steps, check yes
  max neighbors/atom: 2000, page size: 100000
  master list distance cutoff = 2.9
  ghost atom cutoff = 2.9
  binsize = 1.45, bins = 56 56 111
  1 neighbor lists, perpetual/occasional/extra = 1 0 0
  (1) pair lj/cut/opt, perpetual
      attributes: half, newton on
      pair build: half/bin/newton
      stencil: half/bin/3d/newton
      bin: standard
 rebalancing time: 0.069 seconds
  iteration count = 5
  initial/final maximal load/proc = 11340.000 8190.0000
  initial/final imbalance factor  = 1.6529822 1.1938204
  x cuts: 0.0000000 0.5 1.0000000
  y cuts: 0.0000000 0.25 0.5 0.75 1.0000000
  z cuts: 0.0000000 0.08984375 0.17578125 0.25390625 0.3359375 0.4140625 0.50390625 0.58203125 1.0000000


####################### WALLS ###########################


variable       epsilonWall equal 2*${epsilon}
variable       epsilonWall equal 2*1

variable       cutoffTop   equal   0.7147*${sigma}
variable       cutoffTop   equal   0.7147*1

variable       cutoffLow   equal   3*${sigma}
variable       cutoffLow   equal   3*1


fix            topWall all wall/lj93 zhi EDGE                ${epsilonWall} ${sigma} ${cutoffTop} units box
fix            topWall all wall/lj93 zhi EDGE                2 ${sigma} ${cutoffTop} units box
fix            topWall all wall/lj93 zhi EDGE                2 1 ${cutoffTop} units box
fix            topWall all wall/lj93 zhi EDGE                2 1 0.7147 units box

fix            lowWall all wall/lj93 zlo EDGE                ${epsilonWall} ${sigma} ${cutoffLow} units box
fix            lowWall all wall/lj93 zlo EDGE                2 ${sigma} ${cutoffLow} units box
fix            lowWall all wall/lj93 zlo EDGE                2 1 ${cutoffLow} units box
fix            lowWall all wall/lj93 zlo EDGE                2 1 3 units box


###################### COMPUTES ##########################

compute        bin1 solvent chunk/atom bin/1d z upper 1.0


######################	FIXES ############################


fix 		peclet solvent ave/chunk 1000 1 1000 bin1 density/number norm 		 none ave one file density.profile

fix 		 temp solvent ave/chunk 1000 1 1000 bin1 temp norm 		 none ave one file temp.profile

fix 		2 solvent nve


## Thermostat


region		regthermo block EDGE EDGE EDGE EDGE 0 20 units box

group 		thermo dynamic solvent region regthermo every 1000
dynamic group thermo defined

fix 		3 thermo langevin ${startTemp} ${temp} 10 156453
fix 		3 thermo langevin .50 ${temp} 10 156453
fix 		3 thermo langevin .50 .50 10 156453



#### Load balancing


fix 		bal all balance 1000 1.05 shift z 10 1.05


############### Diagnostics and computes ###################
#compute 	com cube	  rigid/local	1 mol x y z
#compute 	quat cube	  rigid/local	1 mol quatw quati quatj quatk

thermo 		1000
thermo_style 	custom step temp epair evdwl etotal press pe ke atoms

dump		1 all custom 100000 dump.lammpstrj id mol type x y z
dump 		2 all image 10000 image.*.png type type
dump 		3 all movie 1000 movie.avi type type

#dump 		com cube local 1000 dump.*.xyz c_com[*]
#dump		quat cube      local 1000 dump.*.quat c_quat[*]


restart 	1000000 restart.dat
timestep 	0.005
timer 		full
New timer settings: style=full  mode=nosync  timeout=off

run		5000000
Per MPI rank memory allocation (min/avg/max) = 11.32 | 15.17 | 18.40 Mbytes
Step Temp E_pair E_vdwl TotEng Press PotEng KinEng Atoms 
       0          0.5   -1.2273921   -1.2273921  -0.47739376    3.8462386   -1.2273921   0.74999829   439061 
    1000    1.6454626   -3.4564176   -3.4564176  -0.98822938    1.6479098   -3.4564176    2.4681883   439061 
    2000    1.5228851   -3.4653012   -3.4653012   -1.1809788   0.84955184   -3.4653012    2.2843224   439061 
    3000    1.3416022    -3.375901    -3.375901   -1.3635024   0.48431554    -3.375901    2.0123987   439061 
    4000    1.2530632   -3.3923666   -3.3923666    -1.512776   0.41343459   -3.3923666    1.8795906   439061 
    5000     1.196304   -3.4090891   -3.4090891   -1.6146372   0.31155746   -3.4090891     1.794452   439061 
    6000    1.1561594   -3.4122035   -3.4122035   -1.6779684   0.21327206   -3.4122035    1.7342351   439061 
    7000    1.1258578    -3.414605    -3.414605   -1.7258221   0.16426817    -3.414605    1.6887829   439061 
    8000    1.1146358   -3.4391099   -3.4391099     -1.76716   0.17987266   -3.4391099    1.6719499   439061 
    9000    1.1150627   -3.4753552   -3.4753552    -1.802765   0.22268581   -3.4753552    1.6725902   439061 
   10000    1.1247641    -3.522355    -3.522355   -1.8352126   0.26623737    -3.522355    1.6871424   439061 
   11000    1.1223033   -3.5475206   -3.5475206   -1.8640695    0.2758768   -3.5475206    1.6834511   439061 
   12000    1.1080933   -3.5514408   -3.5514408   -1.8893047   0.25822589   -3.5514408    1.6621361   439061 
   13000    1.0955824   -3.5550569   -3.5550569   -1.9116871   0.24989814   -3.5550569    1.6433698   439061 
   14000    1.0862925   -3.5618458   -3.5618458   -1.9324107   0.24447139   -3.5618458    1.6294351   439061 
   15000    1.0756045   -3.5638186   -3.5638186   -1.9504155   0.23702181   -3.5638186    1.6134031   439061 
   16000    1.0590174   -3.5553136   -3.5553136   -1.9667911   0.21998576   -3.5553136    1.5885225   439061 
   17000    1.0408338   -3.5432717   -3.5432717   -1.9820245   0.19440714   -3.5432717    1.5612472   439061 
   18000    1.0228886   -3.5306609   -3.5306609   -1.9963314   0.17690037   -3.5306609    1.5343295   439061 
   19000    1.0090057   -3.5219883   -3.5219883   -2.0084833   0.16894658   -3.5219883    1.5135051   439061 
   20000   0.99462014   -3.5137682   -3.5137682   -2.0218414   0.16156599   -3.5137682    1.4919268   439061 
   21000    0.9827189   -3.5106713   -3.5106713   -2.0365963   0.16997197   -3.5106713     1.474075   439061 
   22000    0.9716287   -3.5134755   -3.5134755   -2.0560357   0.17510079   -3.5134755    1.4574397   439061 
   23000   0.95965827   -3.5167017   -3.5167017   -2.0772175   0.15910242   -3.5167017    1.4394841   439061 
   24000   0.94687739   -3.5177132   -3.5177132   -2.0974003   0.14732214   -3.5177132    1.4203129   439061 
   25000   0.93758242   -3.5218035   -3.5218035   -2.1154331   0.13378098   -3.5218035    1.4063704   439061 
   26000   0.92942479   -3.5281972   -3.5281972   -2.1340632   0.13042632   -3.5281972     1.394134   439061 
   27000    0.9220355   -3.5359905   -3.5359905   -2.1529404   0.12836481   -3.5359905    1.3830501   439061 
   28000   0.91545131   -3.5432836   -3.5432836   -2.1701098   0.11488793   -3.5432836    1.3731738   439061 
   29000   0.91066083   -3.5534958   -3.5534958   -2.1875077   0.11632685   -3.5534958    1.3659881   439061 
   30000   0.90558869    -3.563518    -3.563518   -2.2051381   0.11638874    -3.563518    1.3583799   439061 
   31000    0.9023672   -3.5765906   -3.5765906   -2.2230429   0.11092304   -3.5765906    1.3535477   439061 
   32000   0.89830876   -3.5874945   -3.5874945   -2.2400344   0.10400288   -3.5874945    1.3474601   439061 
   33000   0.89472007   -3.5994923   -3.5994923   -2.2574153  0.096639458   -3.5994923     1.342077   439061 
   34000   0.89058478    -3.609827    -3.609827   -2.2739529   0.10329118    -3.609827    1.3358741   439061 
   35000   0.88779893   -3.6215548   -3.6215548   -2.2898594   0.10017506   -3.6215548    1.3316954   439061 
   36000   0.88582699   -3.6344888   -3.6344888   -2.3057514  0.094399801   -3.6344888    1.3287375   439061 
   37000   0.88058926   -3.6429931   -3.6429931   -2.3221122  0.089487466   -3.6429931    1.3208809   439061 
   38000   0.87722995   -3.6542106   -3.6542106   -2.3383687  0.082876037   -3.6542106    1.3158419   439061 
   39000   0.87466068   -3.6672207   -3.6672207   -2.3552327  0.080712637   -3.6672207     1.311988   439061 
   40000   0.87227647   -3.6802457   -3.6802457    -2.371834  0.082965731   -3.6802457    1.3084117   439061 
   41000     0.871495   -3.6953111   -3.6953111   -2.3880716  0.078032922   -3.6953111    1.3072395   439061 
   42000   0.86665359   -3.7048468   -3.7048468   -2.4048694  0.072459931   -3.7048468    1.2999774   439061 
   43000   0.86469562   -3.7185541   -3.7185541   -2.4215136  0.071092397   -3.7185541    1.2970405   439061 
   44000   0.86260035   -3.7320708   -3.7320708   -2.4381732  0.073137076   -3.7320708    1.2938976   439061 
   45000   0.86020452   -3.7449793   -3.7449793   -2.4546754  0.068045964   -3.7449793    1.2903038   439061 
   46000    0.8577136   -3.7575794   -3.7575794    -2.471012  0.064383259   -3.7575794    1.2865675   439061 
   47000   0.85410762   -3.7700334   -3.7700334   -2.4888749  0.060371281   -3.7700334    1.2811585   439061 
   48000   0.85223358   -3.7838527   -3.7838527   -2.5055053  0.061226638   -3.7838527    1.2783475   439061 
   49000   0.85010817   -3.7959939   -3.7959939   -2.5208345  0.062679715   -3.7959939    1.2751593   439061 
   50000   0.84886122   -3.8101262   -3.8101262   -2.5368373  0.060081287   -3.8101262    1.2732889   439061 
   51000   0.84657424   -3.8236377   -3.8236377   -2.5537792  0.057563929   -3.8236377    1.2698585   439061 
   52000   0.84456353   -3.8361459   -3.8361459   -2.5693035   0.05604325   -3.8361459    1.2668424   439061 
   53000   0.84366943   -3.8515892   -3.8515892    -2.586088  0.049870777   -3.8515892    1.2655013   439061 
   54000   0.84150476    -3.863231    -3.863231   -2.6009768  0.054059393    -3.863231    1.2622543   439061 
   55000   0.83987197   -3.8760068   -3.8760068   -2.6162017  0.051528707   -3.8760068    1.2598051   439061 
   56000   0.83705123   -3.8859904   -3.8859904   -2.6304164  0.053817149   -3.8859904     1.255574   439061 
   57000      0.83491    -3.897795    -3.897795   -2.6454328  0.045697674    -3.897795    1.2523622   439061 
   58000   0.83503123   -3.9117303   -3.9117303   -2.6591863  0.042102174   -3.9117303     1.252544   439061 
   59000   0.83291285   -3.9241098   -3.9241098   -2.6747434    0.0452211   -3.9241098    1.2493664   439061 
   60000   0.83054483   -3.9348922   -3.9348922   -2.6890778    0.0444263   -3.9348922    1.2458144   439061 
   61000   0.82934696   -3.9467264   -3.9467264   -2.7027088  0.035421848   -3.9467264    1.2440176   439061 
   62000   0.82924166   -3.9597211   -3.9597211   -2.7158615  0.042622478   -3.9597211    1.2438597   439061 
   63000   0.82974113   -3.9727465   -3.9727465   -2.7281377   0.04708646   -3.9727465    1.2446089   439061 
   64000   0.82814637   -3.9835462   -3.9835462   -2.7413294  0.044322356   -3.9835462    1.2422167   439061 
   65000   0.82622592   -3.9934002   -3.9934002   -2.7540641  0.038004186   -3.9934002    1.2393361   439061 
   66000   0.82442052   -4.0030706   -4.0030706   -2.7664427  0.030571431   -4.0030706     1.236628   439061 
   67000   0.82324325   -4.0119982   -4.0119982   -2.7771361  0.039502939   -4.0119982    1.2348621   439061 
   68000   0.82036766   -4.0193544   -4.0193544   -2.7888057  0.033386606   -4.0193544    1.2305487   439061 
   69000   0.82021984   -4.0310102   -4.0310102   -2.8006833   0.03424989   -4.0310102     1.230327   439061 
   70000   0.81871048   -4.0400342   -4.0400342   -2.8119713  0.036518788   -4.0400342    1.2280629   439061 
   71000   0.81915961     -4.05265     -4.05265   -2.8239134  0.034307765     -4.05265    1.2287366   439061 
   72000   0.81680296   -4.0589452   -4.0589452   -2.8337436  0.031157186   -4.0589452    1.2252016   439061 
   73000   0.81500989   -4.0673294   -4.0673294   -2.8448174  0.035772136   -4.0673294    1.2225121   439061 
   74000   0.81714357   -4.0806677   -4.0806677   -2.8549551  0.036089089   -4.0806677    1.2257126   439061 
   75000   0.81424231   -4.0869236   -4.0869236   -2.8655629  0.033092686   -4.0869236    1.2213607   439061 
   76000   0.80990465    -4.090769    -4.090769   -2.8759147   0.03295254    -4.090769    1.2148542   439061 
   77000   0.81034387   -4.1014974   -4.1014974   -2.8859844  0.028637804   -4.1014974     1.215513   439061 
   78000   0.80871025   -4.1088065   -4.1088065   -2.8957438  0.031210141   -4.1088065    1.2130626   439061 
   79000   0.81051983    -4.121851    -4.121851    -2.906074  0.030901042    -4.121851     1.215777   439061 
   80000   0.80866199   -4.1279443   -4.1279443   -2.9149541  0.032609447   -4.1279443    1.2129902   439061 
   81000   0.80736045   -4.1367748   -4.1367748   -2.9257369   0.03464718   -4.1367748    1.2110379   439061 
   82000   0.80594991    -4.144322    -4.144322   -2.9353998  0.030589582    -4.144322    1.2089221   439061 
   83000   0.80468996   -4.1523646   -4.1523646   -2.9453324  0.026971565   -4.1523646    1.2070322   439061 
   84000    0.8039876   -4.1600167   -4.1600167   -2.9540381  0.023808988   -4.1600167    1.2059786   439061 
   85000   0.80359148   -4.1675682   -4.1675682   -2.9621837  0.031751197   -4.1675682    1.2053845   439061 
   86000    0.8013737   -4.1732805   -4.1732805   -2.9712227  0.029393664   -4.1732805    1.2020578   439061 
   87000   0.80036611   -4.1797335   -4.1797335   -2.9791871  0.027521972   -4.1797335    1.2005464   439061 
   88000    0.7989476   -4.1869388   -4.1869388   -2.9885201  0.033948509   -4.1869388    1.1984187   439061 
   89000   0.79863335   -4.1958593   -4.1958593    -2.997912  0.027872968   -4.1958593    1.1979473   439061 
   90000   0.79773604   -4.2029497   -4.2029497   -3.0063483   0.03176336   -4.2029497    1.1966013   439061 
   91000   0.79712396   -4.2106192   -4.2106192    -3.014936  0.034816837   -4.2106192    1.1956832   439061 
   92000   0.79635708   -4.2192004   -4.2192004   -3.0246675  0.028226073   -4.2192004    1.1945329   439061 
   93000   0.79457696   -4.2243139   -4.2243139   -3.0324511  0.023472028   -4.2243139    1.1918627   439061 
   94000    0.7943328   -4.2323519   -4.2323519   -3.0408554  0.024420439   -4.2323519    1.1914965   439061 
   95000   0.79303093   -4.2381604   -4.2381604   -3.0486167  0.028121881   -4.2381604    1.1895437   439061 
   96000   0.79144606   -4.2444233   -4.2444233    -3.057257  0.029163496   -4.2444233    1.1871664   439061 
   97000   0.79060823   -4.2514647   -4.2514647   -3.0655551  0.029151184   -4.2514647    1.1859096   439061 
   98000   0.79000303   -4.2582677   -4.2582677   -3.0732659  0.027827163   -4.2582677    1.1850018   439061 
   99000   0.79062481   -4.2674235   -4.2674235   -3.0814889  0.027035873   -4.2674235    1.1859345   439061 
  100000   0.78822016   -4.2723809   -4.2723809   -3.0900534  0.030769793   -4.2723809    1.1823275   439061 
  101000   0.78840446   -4.2802486   -4.2802486   -3.0976446   0.03555089   -4.2802486     1.182604   439061 
  102000   0.78554731   -4.2840097   -4.2840097   -3.1056914  0.027711276   -4.2840097    1.1783183   439061 
  103000   0.78453925   -4.2900536   -4.2900536   -3.1132474  0.020901015   -4.2900536    1.1768062   439061 
  104000   0.78459929   -4.2968116   -4.2968116   -3.1199153  0.018905027   -4.2968116    1.1768963   439061 
  105000   0.78394314   -4.3039699   -4.3039699   -3.1280579  0.028918341   -4.3039699     1.175912   439061 
  106000   0.78411971    -4.312376    -4.312376   -3.1361992  0.033890781    -4.312376    1.1761769   439061 
  107000   0.78330943   -4.3192792   -4.3192792   -3.1443178  0.025493305   -4.3192792    1.1749615   439061 
  108000   0.78187296   -4.3248978   -4.3248978    -3.152091  0.023807489   -4.3248978    1.1728068   439061 
  109000   0.77838327   -4.3275065   -4.3275065   -3.1599343   0.02557539   -4.3275065    1.1675722   439061 
  110000   0.77914286   -4.3355868   -4.3355868   -3.1668752  0.018084537   -4.3355868    1.1687116   439061 
  111000     0.778702   -4.3427737   -4.3427737   -3.1747233  0.021098362   -4.3427737    1.1680503   439061 
  112000   0.77858408   -4.3500489   -4.3500489   -3.1821755  0.023403881   -4.3500489    1.1678735   439061 
  113000   0.77695661   -4.3557452   -4.3557452    -3.190313  0.023443093   -4.3557452    1.1654323   439061 
  114000   0.77541373   -4.3596827   -4.3596827   -3.1965647  0.023386765   -4.3596827    1.1631179   439061 
  115000   0.77482288   -4.3663357   -4.3663357   -3.2041041  0.020902344   -4.3663357    1.1622317   439061 
  116000    0.7747649   -4.3733947   -4.3733947     -3.21125  0.020467584   -4.3733947    1.1621447   439061 
  117000   0.77286885      -4.3779      -4.3779   -3.2185994  0.023033413      -4.3779    1.1593006   439061 
  118000   0.77092706   -4.3830029   -4.3830029    -3.226615  0.024870631   -4.3830029     1.156388   439061 
  119000   0.77158072   -4.3908881   -4.3908881   -3.2335197  0.021993342   -4.3908881    1.1573684   439061 
  120000   0.77058227   -4.3962151   -4.3962151   -3.2403444  0.028650037   -4.3962151    1.1558708   439061 
  121000   0.76938259   -4.4029412   -4.4029412     -3.24887  0.021255223   -4.4029412    1.1540713   439061 
  122000   0.76813268   -4.4076077   -4.4076077   -3.2554113  0.016113474   -4.4076077    1.1521964   439061 
  123000   0.76602089   -4.4110941   -4.4110941   -3.2620654  0.016792998   -4.4110941    1.1490287   439061 
  124000   0.76705832   -4.4201198   -4.4201198    -3.269535  0.014766176   -4.4201198    1.1505849   439061 
  125000   0.76737295   -4.4285364   -4.4285364   -3.2774796  0.020116886   -4.4285364    1.1510568   439061 
  126000    0.7651987    -4.432963    -4.432963   -3.2851676  0.022670331    -4.432963    1.1477954   439061 
  127000   0.76237705   -4.4355269   -4.4355269    -3.291964  0.024868116   -4.4355269     1.143563   439061 
  128000   0.76258531   -4.4430117   -4.4430117   -3.2991363  0.017705714   -4.4430117    1.1438754   439061 
  129000   0.76152259   -4.4477509   -4.4477509   -3.3054696  0.018772497   -4.4477509    1.1422813   439061 
  130000   0.76172961    -4.454503    -4.454503   -3.3119112  0.019791596    -4.454503    1.1425918   439061 
  131000   0.76093604   -4.4603247   -4.4603247   -3.3189233  0.018759621   -4.4603247    1.1414015   439061 
  132000   0.76023144   -4.4647399   -4.4647399   -3.3243953  0.018695407   -4.4647399    1.1403446   439061 
  133000   0.75862392   -4.4696762   -4.4696762   -3.3317429  0.017522991   -4.4696762    1.1379333   439061 
  134000   0.75711519   -4.4731096   -4.4731096   -3.3374394  0.022007141   -4.4731096    1.1356702   439061 
  135000   0.75773643   -4.4807587   -4.4807587   -3.3441567    0.0163692   -4.4807587    1.1366021   439061 
  136000   0.75674706   -4.4860146   -4.4860146   -3.3508966  0.015443464   -4.4860146     1.135118   439061 
  137000   0.75576172   -4.4909519   -4.4909519   -3.3573119  0.017404178   -4.4909519      1.13364   439061 
  138000   0.75556453   -4.4969877   -4.4969877   -3.3636435  0.016750861   -4.4969877    1.1333442   439061 
  139000    0.7537033   -4.5014796   -4.5014796   -3.3709272  0.015894711   -4.5014796    1.1305524   439061 
  140000   0.75447379   -4.5094699   -4.5094699   -3.3777618  0.018940855   -4.5094699    1.1317081   439061 
  141000   0.75301002   -4.5129599   -4.5129599   -3.3834474   0.01861952   -4.5129599    1.1295125   439061 
  142000   0.75224518   -4.5176875   -4.5176875   -3.3893223  0.014348191   -4.5176875    1.1283652   439061 
  143000   0.75211494   -4.5241717   -4.5241717   -3.3960018     0.017184   -4.5241717    1.1281698   439061 
  144000   0.75052889   -4.5282865   -4.5282865   -3.4024957   0.01996054   -4.5282865    1.1257908   439061 
  145000   0.75065417   -4.5347392   -4.5347392   -3.4087605  0.020937344   -4.5347392    1.1259787   439061 
  146000   0.74898236   -4.5387583   -4.5387583   -3.4152873  0.017679093   -4.5387583     1.123471   439061 
  147000   0.74662584   -4.5417211   -4.5417211   -3.4217849  0.012950772   -4.5417211    1.1199362   439061 
  148000   0.74664738   -4.5476486   -4.5476486     -3.42768  0.011132977   -4.5476486    1.1199685   439061 
  149000   0.74542376   -4.5519078   -4.5519078   -3.4337747  0.017794963   -4.5519078    1.1181331   439061 
  150000   0.74660714   -4.5583825   -4.5583825   -3.4384743  0.020844505   -4.5583825    1.1199082   439061 
  151000   0.74604863   -4.5628742   -4.5628742   -3.4438039  0.016803863   -4.5628742    1.1190704   439061 
  152000   0.74506209   -4.5680393   -4.5680393   -3.4504487  0.015958542   -4.5680393    1.1175906   439061 
  153000   0.74437894   -4.5737053   -4.5737053   -3.4571394  0.013742555   -4.5737053    1.1165659   439061 
  154000   0.74247558   -4.5770057   -4.5770057   -3.4632949  0.019167919   -4.5770057    1.1137108   439061 
  155000   0.74164218   -4.5813933   -4.5813933   -3.4689326  0.020537664   -4.5813933    1.1124607   439061 
  156000   0.74070537   -4.5855881   -4.5855881   -3.4745326  0.019749721   -4.5855881    1.1110555   439061 
  157000   0.74059522   -4.5915579   -4.5915579   -3.4806676  0.014812284   -4.5915579    1.1108903   439061 
  158000   0.73882523   -4.5956558   -4.5956558   -3.4874204  0.016620037   -4.5956558    1.1082353   439061 
  159000   0.73890201   -4.6011917   -4.6011917   -3.4928412  0.017329918   -4.6011917    1.1083505   439061 
  160000   0.73781213   -4.6054359   -4.6054359   -3.4987203   0.02024593   -4.6054359    1.1067157   439061 
  161000   0.73697751   -4.6104329   -4.6104329   -3.5049692  0.010458747   -4.6104329    1.1054638   439061 
  162000   0.73767246   -4.6175191   -4.6175191   -3.5110129 0.0072182953   -4.6175191    1.1065062   439061 
  163000   0.73528831   -4.6190188   -4.6190188   -3.5160888  0.016076577   -4.6190188      1.10293   439061 
  164000   0.73559963   -4.6245515   -4.6245515   -3.5211546  0.016668186   -4.6245515    1.1033969   439061 
  165000   0.73446306   -4.6295514   -4.6295514   -3.5278593  0.011541321   -4.6295514    1.1016921   439061 
  166000   0.73374688    -4.633937    -4.633937   -3.5333192  0.015500549    -4.633937    1.1006178   439061 
  167000   0.73339242   -4.6384047   -4.6384047   -3.5383186  0.015483899   -4.6384047    1.1000861   439061 
  168000   0.73319717   -4.6441953   -4.6441953   -3.5444021  0.013241613   -4.6441953    1.0997932   439061 
  169000   0.73140767   -4.6465469   -4.6465469   -3.5494379  0.016656784   -4.6465469     1.097109   439061 
  170000   0.73053002    -4.650815    -4.650815   -3.5550225  0.015416436    -4.650815    1.0957925   439061 
  171000    0.7310274   -4.6564599   -4.6564599   -3.5599213  0.012253362   -4.6564599    1.0965386   439061 
  172000   0.72987803    -4.661086    -4.661086   -3.5662715  0.008395629    -4.661086    1.0948145   439061 
  173000   0.72992298   -4.6658601   -4.6658601   -3.5709781  0.011417168   -4.6658601     1.094882   439061 
  174000   0.72835419   -4.6690157   -4.6690157   -3.5764869  0.014399046   -4.6690157    1.0925288   439061 
  175000   0.72789127   -4.6742789   -4.6742789   -3.5824445  0.019596696   -4.6742789    1.0918344   439061 
  176000   0.72759242   -4.6782175   -4.6782175   -3.5868313  0.014361806   -4.6782175    1.0913861   439061 
  177000   0.72775503   -4.6837948   -4.6837948   -3.5921647  0.019298553   -4.6837948    1.0916301   439061 
  178000   0.72706497   -4.6887765   -4.6887765   -3.5981816  0.009885257   -4.6887765     1.090595   439061 
  179000   0.72478156   -4.6915409   -4.6915409    -3.604371  0.011208757   -4.6915409    1.0871699   439061 
  180000   0.72469147   -4.6963367   -4.6963367    -3.609302 0.0089521137   -4.6963367    1.0870347   439061 
  181000   0.72217426   -4.6984015   -4.6984015   -3.6151426  0.015109087   -4.6984015    1.0832589   439061 
  182000   0.72306198   -4.7056669   -4.7056669   -3.6210764   0.01410618   -4.7056669    1.0845905   439061 
  183000   0.72381591   -4.7120754   -4.7120754   -3.6263541 0.0097348089   -4.7120754    1.0857214   439061 
  184000    0.7229413   -4.7158665   -4.7158665    -3.631457  0.013169192   -4.7158665    1.0844095   439061 
  185000   0.72086321   -4.7191625   -4.7191625   -3.6378702  0.009412136   -4.7191625    1.0812923   439061 
  186000   0.72055214   -4.7233992   -4.7233992   -3.6425735 0.0095201103   -4.7233992    1.0808258   439061 
  187000   0.71927873    -4.726801    -4.726801   -3.6478853  0.011643316    -4.726801    1.0789156   439061 
  188000   0.71723475   -4.7287234   -4.7287234   -3.6528737 0.0099181858   -4.7287234    1.0758497   439061 
  189000   0.71710687   -4.7339979   -4.7339979     -3.65834  0.009687396   -4.7339979    1.0756579   439061 
  190000   0.71664475   -4.7376216   -4.7376216   -3.6626569  0.013231693   -4.7376216    1.0749647   439061 
  191000   0.71575007   -4.7416935   -4.7416935   -3.6680708   0.01386622   -4.7416935    1.0736227   439061 
  192000   0.71672471   -4.7482681   -4.7482681   -3.6731835  0.013224456   -4.7482681    1.0750846   439061 
  193000   0.71536167   -4.7516385   -4.7516385   -3.6785984    0.0157501   -4.7516385    1.0730401   439061 
  194000   0.71530362   -4.7568316   -4.7568316   -3.6838786  0.011359313   -4.7568316     1.072953   439061 
  195000   0.71367356   -4.7593492   -4.7593492   -3.6888413 0.0092717631   -4.7593492    1.0705079   439061 
  196000   0.71276203   -4.7631152   -4.7631152   -3.6939746 0.0050901492   -4.7631152    1.0691406   439061 
  197000   0.71316294   -4.7679711   -4.7679711   -3.6982292 0.0033870516   -4.7679711     1.069742   439061 
  198000   0.71150146   -4.7703493   -4.7703493   -3.7030996 0.0097527046   -4.7703493    1.0672498   439061 
  199000   0.71064443   -4.7744644   -4.7744644   -3.7085002 0.0078928335   -4.7744644    1.0659642   439061 
  200000    0.7103277   -4.7797498   -4.7797498   -3.7142607   0.01081424   -4.7797498    1.0654891   439061 
  201000   0.71093032   -4.7845233   -4.7845233   -3.7181303 0.0085405674   -4.7845233    1.0663931   439061 
  202000   0.71032417   -4.7879698   -4.7879698    -3.722486   0.01004185   -4.7879698    1.0654838   439061 
  203000   0.70983444   -4.7929198   -4.7929198   -3.7281705 0.0044312261   -4.7929198    1.0647492   439061 
  204000   0.70857295   -4.7956123   -4.7956123   -3.7327553 0.0091554635   -4.7956123     1.062857   439061 
  205000   0.70690862   -4.7981732   -4.7981732   -3.7378127  0.011007499   -4.7981732    1.0603605   439061 
  206000   0.70854583   -4.8056596   -4.8056596   -3.7428433  0.010360882   -4.8056596    1.0628163   439061 
  207000   0.70670904   -4.8083496   -4.8083496   -3.7482884 0.0041176162   -4.8083496    1.0600612   439061 
  208000   0.70495153   -4.8109724   -4.8109724   -3.7535475 0.0087737808   -4.8109724    1.0574249   439061 
  209000   0.70449429   -4.8148625   -4.8148625   -3.7581235 0.0080065876   -4.8148625     1.056739   439061 
  210000   0.70426107   -4.8201837   -4.8201837   -3.7637945 0.0081265701   -4.8201837    1.0563892   439061 
  211000   0.70415134   -4.8251708   -4.8251708   -3.7689462 0.0081262066   -4.8251708    1.0562246   439061 
  212000   0.70478031   -4.8303899   -4.8303899   -3.7732218  0.010284979   -4.8303899    1.0571681   439061 
  213000   0.70346816   -4.8334404   -4.8334404   -3.7782405  0.011391443   -4.8334404    1.0551998   439061 
  214000   0.70320404   -4.8379837   -4.8379837     -3.78318  0.003924238   -4.8379837    1.0548037   439061 
  215000   0.70111416    -4.839562    -4.839562   -3.7878932 0.0035295379    -4.839562    1.0516689   439061 
  216000   0.70063019   -4.8438202   -4.8438202   -3.7928774  0.005556946   -4.8438202    1.0509429   439061 
  217000   0.69916294   -4.8469472   -4.8469472   -3.7982052 0.0022092202   -4.8469472     1.048742   439061 
  218000    0.7000308   -4.8527904   -4.8527904   -3.8027466 0.0024355946   -4.8527904    1.0500438   439061 
  219000   0.69901976   -4.8550242   -4.8550242   -3.8064969 0.0093997791   -4.8550242    1.0485272   439061 
  220000   0.69938523   -4.8608174   -4.8608174    -3.811742 0.0051042352   -4.8608174    1.0490755   439061 
  221000   0.69839214   -4.8641961   -4.8641961   -3.8166103  0.012307117   -4.8641961    1.0475858   439061 
  222000   0.69732587   -4.8669539   -4.8669539   -3.8209675  0.005766013   -4.8669539    1.0459864   439061 
  223000    0.6964366   -4.8700442   -4.8700442   -3.8253917 0.0016694529   -4.8700442    1.0446525   439061 
  224000   0.69465154   -4.8724105   -4.8724105   -3.8304356 0.0055952485   -4.8724105    1.0419749   439061 
  225000   0.69617785    -4.880272    -4.880272   -3.8360076 0.0037630259    -4.880272    1.0442644   439061 
  226000   0.69524165   -4.8836812   -4.8836812   -3.8408211 0.0037261883   -4.8836812    1.0428601   439061 
  227000   0.69474673   -4.8867334   -4.8867334   -3.8446157 0.0064137927   -4.8867334    1.0421177   439061 
  228000   0.69440119    -4.890274    -4.890274   -3.8486746 0.0099889177    -4.890274    1.0415994   439061 
  229000   0.69476196   -4.8960662   -4.8960662   -3.8539256 0.0048016544   -4.8960662    1.0421406   439061 
  230000    0.6933123   -4.8983702   -4.8983702   -3.8584041  0.005625266   -4.8983702    1.0399661   439061 
  231000   0.69134681   -4.9000213   -4.9000213   -3.8630034 0.0021871156   -4.9000213    1.0370179   439061 
  232000   0.69151294   -4.9051139   -4.9051139   -3.8678469 -0.0022221093   -4.9051139     1.037267   439061 
  233000   0.69134974    -4.909846    -4.909846   -3.8728238 -0.0016479578    -4.909846    1.0370222   439061 
  234000   0.69021134   -4.9128843   -4.9128843   -3.8775696 6.5679497e-05   -4.9128843    1.0353147   439061 
  235000    0.6899499   -4.9169664   -4.9169664   -3.8820439 0.0019619014   -4.9169664    1.0349225   439061 
  236000   0.69048987   -4.9230732   -4.9230732   -3.8873408 0.0030237195   -4.9230732    1.0357324   439061 
  237000   0.68932686   -4.9265848   -4.9265848   -3.8925969 0.0026116881   -4.9265848    1.0339879   439061 
  238000   0.68921423   -4.9306417   -4.9306417   -3.8968227  0.012622206   -4.9306417     1.033819   439061 
  239000   0.68822428   -4.9332299   -4.9332299   -3.9008959 0.0071852145   -4.9332299    1.0323341   439061 
  240000   0.68860457   -4.9379752   -4.9379752   -3.9050707 0.0076104318   -4.9379752    1.0329045   439061 
  241000   0.68625452   -4.9386883   -4.9386883   -3.9093089 0.0078517489   -4.9386883    1.0293794   439061 
  242000   0.68518674    -4.942034    -4.942034   -3.9142563 0.0017779691    -4.942034    1.0277778   439061 
  243000   0.68527735   -4.9465675   -4.9465675   -3.9186538 -0.0021122066   -4.9465675    1.0279137   439061 
  244000     0.684528   -4.9499795   -4.9499795   -3.9231899 0.0005329602   -4.9499795    1.0267897   439061 
  245000    0.6842246   -4.9546075   -4.9546075    -3.928273 0.00091088199   -4.9546075    1.0263346   439061 
  246000   0.68464124   -4.9591216   -4.9591216   -3.9321621 0.0059303984   -4.9591216    1.0269595   439061 
  247000     0.684256    -4.963121    -4.963121   -3.9367393 0.0054875807    -4.963121    1.0263817   439061 
  248000   0.68378402   -4.9673682   -4.9673682   -3.9416945 0.0063725318   -4.9673682    1.0256737   439061 
  249000   0.68232809   -4.9694493   -4.9694493   -3.9459595 0.0082599189   -4.9694493    1.0234898   439061 
  250000   0.68023669   -4.9715645   -4.9715645   -3.9512118  0.001168707   -4.9715645    1.0203527   439061 
  251000   0.67885393   -4.9725382   -4.9725382   -3.9542597 0.0062610826   -4.9725382    1.0182786   439061 
  252000   0.68092857   -4.9801803   -4.9801803   -3.9587897 -0.0022260119   -4.9801803    1.0213905   439061 
  253000   0.67851204   -4.9809658   -4.9809658   -3.9632001 0.0006364329   -4.9809658    1.0177657   439061 
  254000   0.67853572   -4.9860673   -4.9860673   -3.9682661 -0.0018489425   -4.9860673    1.0178013   439061 
  255000   0.67878964    -4.990452    -4.990452   -3.9722699 0.0037329244    -4.990452    1.0181821   439061 
  256000   0.67840237   -4.9959282   -4.9959282    -3.978327 -0.00085224413   -4.9959282    1.0176012   439061 
  257000   0.67799235   -4.9997141   -4.9997141   -3.9827279 0.0052696746   -4.9997141    1.0169862   439061 
  258000    0.6772464   -5.0026342   -5.0026342   -3.9867669 0.0051221293   -5.0026342    1.0158673   439061 
  259000   0.67730662   -5.0073382   -5.0073382   -3.9913806 -0.00096703161   -5.0073382    1.0159576   439061 
  260000   0.67497317   -5.0081466   -5.0081466   -3.9956891 0.00064873873   -5.0081466    1.0124574   439061 
  261000   0.67442559   -5.0120601   -5.0120601    -4.000424 -0.006214418   -5.0120601    1.0116361   439061 
  262000   0.67276747   -5.0135453   -5.0135453   -4.0043964 -0.00034797787   -5.0135453    1.0091489   439061 
  263000   0.67359262   -5.0191166   -5.0191166   -4.0087299 -0.0035439787   -5.0191166    1.0103866   439061 
  264000   0.67267273   -5.0221693   -5.0221693   -4.0131625 9.3196761e-05   -5.0221693    1.0090068   439061 
  265000   0.67223005   -5.0253982   -5.0253982   -4.0170555 0.0058048358   -5.0253982    1.0083428   439061 
  266000   0.67280602   -5.0302486   -5.0302486   -4.0210418 -0.0033240973   -5.0302486    1.0092067   439061 
  267000   0.67051108   -5.0313929   -5.0313929   -4.0256286 0.0031975372   -5.0313929    1.0057643   439061 
  268000   0.67042496   -5.0357708   -5.0357708   -4.0301356 -0.0031986234   -5.0357708    1.0056352   439061 
  269000   0.67018029   -5.0388371   -5.0388371    -4.033569 -0.0036728168   -5.0388371    1.0052681   439061 
  270000   0.66923351   -5.0418419   -5.0418419   -4.0379939 -0.0051434441   -5.0418419     1.003848   439061 
  271000   0.66933119   -5.0463684   -5.0463684   -4.0423739 -0.0023729713   -5.0463684    1.0039945   439061 
  272000   0.66811493   -5.0485636   -5.0485636   -4.0463935 -0.0065837682   -5.0485636    1.0021701   439061 
  273000   0.66894986   -5.0528644   -5.0528644   -4.0494419 -0.0037622838   -5.0528644    1.0034225   439061 
  274000   0.66874863   -5.0573991   -5.0573991   -4.0542784 -0.0030975968   -5.0573991    1.0031207   439061 
  275000    0.6687167   -5.0622668   -5.0622668   -4.0591941 -0.0035111881   -5.0622668    1.0030728   439061 
  276000   0.66698763   -5.0636889   -5.0636889   -4.0632097   0.00272907   -5.0636889    1.0004792   439061 
  277000   0.66516813   -5.0653442   -5.0653442   -4.0675943 0.0021096925   -5.0653442   0.99774992   439061 
  278000   0.66600451   -5.0702332   -5.0702332   -4.0712287 -0.0014653474   -5.0702332    0.9990045   439061 
  279000   0.66480988   -5.0731332   -5.0731332   -4.0759206 -0.0030851736   -5.0731332   0.99721254   439061 
  280000   0.66425352   -5.0769925   -5.0769925   -4.0806145 -0.0070052805   -5.0769925   0.99637801   439061 
  281000   0.66374581   -5.0807231   -5.0807231   -4.0851067 -0.0087420657   -5.0807231   0.99561645   439061 
  282000   0.66398829   -5.0850205   -5.0850205   -4.0890404 -0.0095674966   -5.0850205   0.99598016   439061 
  283000   0.66302846   -5.0875735   -5.0875735   -4.0930331 -0.0046342183   -5.0875735   0.99454043   439061 
  284000   0.66137124   -5.0896267   -5.0896267   -4.0975721 -0.0034976036   -5.0896267   0.99205461   439061 
  285000   0.66160678   -5.0933811   -5.0933811   -4.1009732 -0.0042023168   -5.0933811   0.99240792   439061 
  286000    0.6618118   -5.0972483   -5.0972483   -4.1045328 -0.0077416317   -5.0972483   0.99271544   439061 
  287000   0.66104975   -5.1003524   -5.1003524     -4.10878 -0.0049384157   -5.1003524   0.99157237   439061 
  288000   0.66024385   -5.1037116   -5.1037116   -4.1133481 -0.0070280753   -5.1037116   0.99036353   439061 
  289000   0.65894132   -5.1066737   -5.1066737    -4.118264 -0.0061684551   -5.1066737   0.98840973   439061 
  290000   0.65850907   -5.1105239   -5.1105239   -4.1227625 -0.0094322234   -5.1105239   0.98776136   439061 
  291000   0.65772846   -5.1124618   -5.1124618   -4.1258714 -0.0044999939   -5.1124618   0.98659045   439061 
  292000   0.65661909   -5.1151934   -5.1151934    -4.130267 -0.0026605628   -5.1151934   0.98492639   439061 
  293000   0.65719006   -5.1197663   -5.1197663   -4.1339835 -0.0053757421   -5.1197663   0.98578284   439061 
  294000   0.65697531   -5.1234765   -5.1234765   -4.1380157 -0.0037028768   -5.1234765   0.98546071   439061 
  295000   0.65579985   -5.1256251   -5.1256251   -4.1419275 -0.0042239189   -5.1256251   0.98369754   439061 
  296000   0.65595582   -5.1293771   -5.1293771   -4.1454457 -0.0031980776   -5.1293771   0.98393148   439061 
  297000   0.65535234   -5.1325273   -5.1325273    -4.149501 -0.0041246768   -5.1325273   0.98302628   439061 
  298000   0.65467925   -5.1353542   -5.1353542   -4.1533376 -0.0055999207   -5.1353542   0.98201664   439061 
  299000   0.65379772   -5.1384034   -5.1384034   -4.1577091 -0.010209694   -5.1384034   0.98069435   439061 
  300000   0.65434784   -5.1430011   -5.1430011   -4.1614816 -0.0091164819   -5.1430011   0.98151953   439061 
  301000   0.65297729   -5.1452804   -5.1452804   -4.1658167 -0.007178182   -5.1452804   0.97946371   439061 
  302000   0.65385347   -5.1497991   -5.1497991   -4.1690211 -0.0092889657   -5.1497991   0.98077797   439061 
  303000   0.65287922   -5.1523404   -5.1523404   -4.1730238 -0.0034170044   -5.1523404   0.97931659   439061 
  304000   0.65307273   -5.1563983   -5.1563983   -4.1767915 -0.0082057966   -5.1563983   0.97960687   439061 
  305000   0.65187572   -5.1585421   -5.1585421   -4.1807307 -0.0099154527   -5.1585421   0.97781136   439061 
  306000   0.65080625   -5.1605302   -5.1605302    -4.184323 -0.012218109   -5.1605302   0.97620715   439061 
  307000   0.64986781   -5.1640709   -5.1640709   -4.1892714  -0.01302458   -5.1640709   0.97479949   439061 
  308000   0.64857039   -5.1663283   -5.1663283   -4.1934749  -0.01341419   -5.1663283   0.97285336   439061 
  309000    0.6484064     -5.16994     -5.16994   -4.1973326 -0.010146825     -5.16994   0.97260738   439061 
  310000   0.64925058   -5.1751141   -5.1751141   -4.2012405 -0.0054549843   -5.1751141   0.97387365   439061 
  311000   0.64875778   -5.1792324   -5.1792324    -4.206098 -0.006933091   -5.1792324   0.97313445   439061 
  312000   0.64953024   -5.1827798   -5.1827798   -4.2084867 -0.0069368504   -5.1827798   0.97429314   439061 
  313000   0.64939461   -5.1861933   -5.1861933   -4.2121036 -0.0066609457   -5.1861933    0.9740897   439061 
  314000   0.64777918   -5.1881322   -5.1881322   -4.2164657 -0.0079451539   -5.1881322   0.97166656   439061 
  315000   0.64644023   -5.1908089   -5.1908089   -4.2211507 -0.014021023   -5.1908089   0.96965813   439061 
  316000   0.64663483   -5.1947458   -5.1947458   -4.2247957 -0.017657964   -5.1947458   0.96995004   439061 
  317000   0.64549235   -5.1971189   -5.1971189   -4.2288826  -0.01609333   -5.1971189   0.96823633   439061 
  318000   0.64472011   -5.2001924   -5.2001924   -4.2331144 -0.017244007   -5.2001924   0.96707797   439061 
  319000   0.64486903   -5.2043014   -5.2043014   -4.2370001 -0.012990365   -5.2043014   0.96730133   439061 
  320000   0.64494537   -5.2077166   -5.2077166   -4.2403008 -0.0098987714   -5.2077166   0.96741586   439061 
  321000   0.64451997   -5.2108644   -5.2108644   -4.2440867 -0.0031255872   -5.2108644   0.96677775   439061 
  322000   0.64474807   -5.2151238   -5.2151238   -4.2480039 -0.0068835629   -5.2151238    0.9671199   439061 
  323000   0.64326552   -5.2176845   -5.2176845   -4.2527885 -0.0095337176   -5.2176845   0.96489608   439061 
  324000   0.64331394   -5.2213187   -5.2213187     -4.25635 -0.018519339   -5.2213187   0.96496871   439061 
  325000   0.64247085   -5.2229928   -5.2229928   -4.2592888 -0.017087183   -5.2229928   0.96370408   439061 
  326000   0.64168821   -5.2262255   -5.2262255   -4.2636954 -0.021564182   -5.2262255   0.96253012   439061 
  327000   0.64072871   -5.2288808   -5.2288808   -4.2677899 -0.017288051   -5.2288808   0.96109088   439061 
  328000   0.64076251   -5.2314074   -5.2314074   -4.2702659 -0.0079369948   -5.2314074   0.96114157   439061 
  329000   0.64187727   -5.2369383   -5.2369383   -4.2741246 -0.0094047382   -5.2369383   0.96281371   439061 
  330000   0.64118428   -5.2401149   -5.2401149   -4.2783406 -0.0070696926   -5.2401149   0.96177424   439061 
  331000   0.63938235   -5.2411154   -5.2411154    -4.282044 -0.012249346   -5.2411154   0.95907133   439061 
  332000    0.6400225   -5.2449805   -5.2449805   -4.2849489 -0.013125523   -5.2449805   0.96003157   439061 
  333000   0.63915041   -5.2479998   -5.2479998   -4.2892764 -0.020694033   -5.2479998   0.95872343   439061 
  334000   0.63757999   -5.2484181   -5.2484181   -4.2920503 -0.021222928   -5.2484181   0.95636781   439061 
  335000   0.63831113   -5.2531886   -5.2531886   -4.2957241 -0.020945176   -5.2531886   0.95746452   439061 
  336000    0.6374647   -5.2547193   -5.2547193   -4.2985245 -0.0089163622   -5.2547193   0.95619488   439061 
  337000   0.63748934   -5.2593526   -5.2593526   -4.3031208 -0.0084510026   -5.2593526   0.95623184   439061 
  338000   0.63773524   -5.2645555   -5.2645555   -4.3079548 -0.0076706467   -5.2645555   0.95660069   439061 
  339000   0.63676789   -5.2667478   -5.2667478   -4.3115981 -0.008606543   -5.2667478   0.95514966   439061 
  340000   0.63647328   -5.2687383   -5.2687383   -4.3140305 -0.014172684   -5.2687383   0.95470775   439061 
  341000   0.63514067   -5.2705348   -5.2705348    -4.317826 -0.019420238   -5.2705348   0.95270883   439061 
  342000   0.63407888   -5.2720485   -5.2720485   -4.3209324 -0.020553703   -5.2720485   0.95111616   439061 
  343000   0.63410908   -5.2757995   -5.2757995   -4.3246381 -0.021623404   -5.2757995   0.95116146   439061 
  344000    0.6349461   -5.2800132   -5.2800132   -4.3275962  -0.01816341   -5.2800132   0.95241698   439061 
  345000   0.63372573   -5.2832501   -5.2832501   -4.3326637 -0.013749846   -5.2832501   0.95058642   439061 
  346000   0.63355763   -5.2869324   -5.2869324   -4.3365982 -0.013269572   -5.2869324   0.95033428   439061 
  347000   0.63378965   -5.2913337   -5.2913337   -4.3406514 -0.015876688   -5.2913337   0.95068232   439061 
  348000   0.63321949   -5.2936722   -5.2936722   -4.3438451 -0.012761834   -5.2936722   0.94982707   439061 
  349000   0.63229801   -5.2958602   -5.2958602   -4.3474154 -0.014831873   -5.2958602   0.94844485   439061 
  350000   0.63225581   -5.2987503   -5.2987503   -4.3503687 -0.017491482   -5.2987503   0.94838155   439061 
  351000   0.63050536   -5.3004761   -5.3004761   -4.3547203 -0.022320853   -5.3004761   0.94575588   439061 
  352000   0.62949791   -5.3031212   -5.3031212   -4.3588765 -0.024134865   -5.3031212   0.94424471   439061 
  353000   0.62977302   -5.3067685   -5.3067685   -4.3621111 -0.027200364   -5.3067685   0.94465738   439061 
  354000   0.63060071   -5.3109777   -5.3109777   -4.3650788 -0.025460196   -5.3109777   0.94589891   439061 
  355000   0.63038526   -5.3141071   -5.3141071   -4.3685314 -0.018804522   -5.3141071   0.94557574   439061 
  356000   0.62897776     -5.31636     -5.31636   -4.3728955 -0.013856904     -5.31636   0.94346449   439061 
  357000   0.62825543   -5.3189322   -5.3189322   -4.3765512 -0.018976702   -5.3189322     0.942381   439061 
  358000   0.62830426   -5.3224242   -5.3224242   -4.3799699 -0.021749141   -5.3224242   0.94245425   439061 
  359000   0.62827463   -5.3253485   -5.3253485   -4.3829387 -0.022884187   -5.3253485    0.9424098   439061 
  360000   0.62711598   -5.3271202   -5.3271202   -4.3864484 -0.026031946   -5.3271202   0.94067183   439061 
  361000     0.626192   -5.3294048   -5.3294048   -4.3901189 -0.024241457   -5.3294048   0.93928586   439061 
  362000   0.62521283   -5.3313723   -5.3313723   -4.3935552 -0.020217076   -5.3313723   0.93781711   439061 
  363000    0.6261275   -5.3354135   -5.3354135   -4.3962244 -0.021282281   -5.3354135   0.93918911   439061 
  364000   0.62712863   -5.3394464   -5.3394464   -4.3987556 -0.016459871   -5.3394464   0.94069081   439061 
  365000   0.62594099    -5.341284    -5.341284   -4.4023746 -0.021048789    -5.341284   0.93890935   439061 
  366000   0.62508516    -5.343157    -5.343157   -4.4055314 -0.019074702    -5.343157    0.9376256   439061 
  367000   0.62410311   -5.3447828   -5.3447828   -4.4086303 -0.025237023   -5.3447828   0.93615254   439061 
  368000   0.62386053   -5.3473391   -5.3473391   -4.4115505 -0.029235318   -5.3473391   0.93578866   439061 
  369000   0.62381406   -5.3507122   -5.3507122   -4.4149933 -0.028368114   -5.3507122   0.93571897   439061 
  370000   0.62342991   -5.3528988   -5.3528988    -4.417756 -0.025567869   -5.3528988   0.93514273   439061 
  371000   0.62393458   -5.3581727   -5.3581727   -4.4222729 -0.024190712   -5.3581727   0.93589974   439061 
  372000   0.62301653   -5.3604138   -5.3604138   -4.4258912 -0.020220201   -5.3604138   0.93452267   439061 
  373000   0.62294532   -5.3635268   -5.3635268    -4.429111 -0.018831691   -5.3635268   0.93441585   439061 
  374000   0.62265173    -5.365902    -5.365902   -4.4319265 -0.020189834    -5.365902   0.93397547   439061 
  375000   0.62197961   -5.3685152   -5.3685152    -4.435548  -0.02371156   -5.3685152   0.93296729   439061 
  376000   0.62080347   -5.3697668   -5.3697668   -4.4385637 -0.028486943   -5.3697668   0.93120308   439061 
  377000   0.62063643   -5.3731628   -5.3731628   -4.4422102 -0.032236444   -5.3731628   0.93095253   439061 
  378000   0.62033644   -5.3754393   -5.3754393   -4.4449367 -0.029977372   -5.3754393   0.93050254   439061 
  379000   0.62070987   -5.3795317   -5.3795317   -4.4484691  -0.02774775   -5.3795317   0.93106268   439061 
  380000   0.62045032   -5.3824896   -5.3824896   -4.4518162 -0.025753142   -5.3824896   0.93067336   439061 
  381000   0.61989956   -5.3858023   -5.3858023   -4.4559551  -0.02482316   -5.3858023   0.92984722   439061 
  382000   0.61980718    -5.388473    -5.388473   -4.4587643 -0.021158688    -5.388473   0.92970866   439061 
  383000   0.62052744   -5.3928159   -5.3928159   -4.4620269  -0.02893572   -5.3928159   0.93078903   439061 
  384000   0.61958019   -5.3950342   -5.3950342    -4.465666 -0.033704911   -5.3950342   0.92936817   439061 
  385000   0.61812664   -5.3965185   -5.3965185   -4.4693307 -0.034340038   -5.3965185   0.92718785   439061 
  386000    0.6175431   -5.3988766   -5.3988766   -4.4725641  -0.03624716   -5.3988766   0.92631254   439061 
  387000   0.61742702   -5.4026306   -5.4026306   -4.4764922 -0.038785436   -5.4026306   0.92613843   439061 
  388000   0.61755078   -5.4069139   -5.4069139   -4.4805898 -0.035717937   -5.4069139   0.92632406   439061 
  389000   0.61725704    -5.408865    -5.408865   -4.4829815 -0.028967095    -5.408865   0.92588345   439061 
  390000   0.61814834   -5.4123822   -5.4123822   -4.4851618 -0.028107122   -5.4123822   0.92722039   439061 
  391000   0.61785963   -5.4158016   -5.4158016   -4.4890143 -0.030777739   -5.4158016   0.92678733   439061 
  392000   0.61743037   -5.4184649   -5.4184649   -4.4923215 -0.034288366   -5.4184649   0.92614344   439061 
  393000   0.61599179   -5.4201686   -5.4201686    -4.496183 -0.037670994   -5.4201686   0.92398558   439061 
  394000    0.6166846   -5.4239105   -5.4239105   -4.4988857 -0.039512937   -5.4239105    0.9250248   439061 
  395000   0.61666955   -5.4273558   -5.4273558   -4.5023535 -0.039856671   -5.4273558   0.92500222   439061 
  396000   0.61614222   -5.4291875   -5.4291875   -4.5049763 -0.037049878   -5.4291875   0.92421122   439061 
  397000    0.6152574   -5.4321153   -5.4321153   -4.5092313 -0.032920907   -5.4321153   0.92288399   439061 
  398000   0.61551169   -5.4364093   -5.4364093   -4.5131439 -0.033222396   -5.4364093   0.92326543   439061 
  399000   0.61502211   -5.4392931   -5.4392931    -4.516762 -0.030813975   -5.4392931   0.92253106   439061 
  400000   0.61445429   -5.4424356   -5.4424356   -4.5207563 -0.035724166   -5.4424356   0.92167933   439061 
  401000   0.61384413    -5.445132    -5.445132    -4.524368 -0.038833536    -5.445132   0.92076409   439061 
  402000    0.6131982   -5.4472288   -5.4472288   -4.5274336 -0.038714606   -5.4472288   0.91979521   439061 
  403000   0.61336568   -5.4502051   -5.4502051   -4.5301587 -0.040478421   -5.4502051   0.92004643   439061 
  404000   0.61267419   -5.4522682   -5.4522682    -4.533259 -0.039589258   -5.4522682   0.91900919   439061 
  405000   0.61249107   -5.4553078   -5.4553078   -4.5365733 -0.040561893   -5.4553078   0.91873451   439061 
  406000   0.61287305   -5.4580083   -5.4580083   -4.5387008 -0.040444688   -5.4580083   0.91930748   439061 
  407000   0.61384879   -5.4625659   -5.4625659   -4.5417949 -0.037580449   -5.4625659   0.92077108   439061 
  408000   0.61179388   -5.4631101   -5.4631101   -4.5454214 -0.038443798   -5.4631101   0.91768874   439061 
  409000   0.61109636   -5.4655352   -5.4655352   -4.5488928 -0.042744729   -5.4655352   0.91664246   439061 
  410000   0.61058187   -5.4671335   -5.4671335   -4.5512628 -0.041125435   -5.4671335   0.91587071   439061 
  411000   0.61041951   -5.4710384   -5.4710384   -4.5554113 -0.045380141   -5.4710384   0.91562718   439061 
  412000   0.61035697    -5.474449    -5.474449   -4.5589157  -0.04496664    -5.474449   0.91553337   439061 
  413000   0.61011366   -5.4768274   -5.4768274    -4.561659 -0.043386417   -5.4768274   0.91516841   439061 
  414000   0.61063965   -5.4808489   -5.4808489   -4.5648915 -0.041060163   -5.4808489    0.9159574   439061 
  415000   0.60869256   -5.4816584   -5.4816584   -4.5686217 -0.040257201   -5.4816584   0.91303676   439061 
  416000   0.60963581   -5.4860669   -5.4860669   -4.5716153 -0.042212902   -5.4860669   0.91445163   439061 
  417000    0.6095488     -5.48956     -5.48956   -4.5752389 -0.044970234     -5.48956   0.91432111   439061 
  418000   0.60797192   -5.4898776   -5.4898776   -4.5779218 -0.042477749   -5.4898776    0.9119558   439061 
  419000   0.60842485    -5.493089    -5.493089   -4.5804538 -0.044407092    -5.493089   0.91263519   439061 
  420000   0.60704036   -5.4950018   -5.4950018   -4.5844434 -0.042893588   -5.4950018   0.91055847   439061 
  421000   0.60793604   -5.4992108   -5.4992108   -4.5873088 -0.045900658   -5.4992108   0.91190199   439061 
  422000   0.60839743   -5.5033052   -5.5033052   -4.5907112 -0.047070558   -5.5033052   0.91259407   439061 
  423000   0.60655712   -5.5049413   -5.5049413   -4.5951077 -0.043715288   -5.5049413   0.90983361   439061 
  424000   0.60819234   -5.5106293   -5.5106293   -4.5983429 -0.045314002   -5.5106293   0.91228644   439061 
  425000   0.60777414   -5.5130741   -5.5130741    -4.601415  -0.04102869   -5.5130741   0.91165914   439061 
  426000   0.60684578   -5.5136177   -5.5136177   -4.6033511 -0.039481861   -5.5136177    0.9102666   439061 
  427000   0.60585815   -5.5158461   -5.5158461   -4.6070609 -0.041050552   -5.5158461   0.90878516   439061 
  428000   0.60541447    -5.518891    -5.518891   -4.6107714  -0.04813261    -5.518891   0.90811964   439061 
  429000   0.60487638   -5.5209151   -5.5209151   -4.6136026 -0.049070873   -5.5209151   0.90731251   439061 
  430000   0.60446293   -5.5237494   -5.5237494    -4.617057 -0.050726734   -5.5237494   0.90669234   439061 
  431000   0.60521671   -5.5280761   -5.5280761   -4.6202531 -0.048648375   -5.5280761   0.90782299   439061 
  432000   0.60575966   -5.5310605   -5.5310605   -4.6224231 -0.045661365   -5.5310605   0.90863742   439061 
  433000   0.60444535   -5.5332233   -5.5332233   -4.6265573 -0.042950937   -5.5332233   0.90666596   439061 
  434000   0.60433051   -5.5366497   -5.5366497    -4.630156 -0.045586566   -5.5366497    0.9064937   439061 
  435000   0.60347359   -5.5381294   -5.5381294   -4.6329211 -0.043835225   -5.5381294   0.90520832   439061 
  436000   0.60444232   -5.5425074   -5.5425074    -4.635846 -0.049387691   -5.5425074   0.90666141   439061 
  437000    0.6025238   -5.5430966   -5.5430966    -4.639313  -0.05221941   -5.5430966   0.90378364   439061 
  438000   0.60236262   -5.5460914   -5.5460914   -4.6425495  -0.05125359   -5.5460914   0.90354188   439061 
  439000   0.60181728   -5.5487174   -5.5487174   -4.6459935 -0.050779125   -5.5487174   0.90272387   439061 
  440000   0.60206343   -5.5523165   -5.5523165   -4.6492234 -0.047843307   -5.5523165   0.90309309   439061 
  441000   0.60124563   -5.5544853   -5.5544853   -4.6526189 -0.046830467   -5.5544853   0.90186639   439061 
  442000   0.60106717   -5.5567377   -5.5567377    -4.655139 -0.047197986   -5.5567377    0.9015987   439061 
  443000   0.60072404   -5.5596814   -5.5596814   -4.6585974 -0.050524815   -5.5596814   0.90108401   439061 
  444000   0.60026323   -5.5615784   -5.5615784   -4.6611856 -0.052508812   -5.5615784    0.9003928   439061 
  445000   0.59883465   -5.5620795   -5.5620795   -4.6638296 -0.050554199   -5.5620795   0.89824992   439061 
  446000   0.59990826    -5.566773    -5.566773   -4.6669127 -0.054260053    -5.566773   0.89986034   439061 
  447000   0.59965469   -5.5698613   -5.5698613   -4.6703814  -0.05065706   -5.5698613   0.89947998   439061 
  448000   0.59956772   -5.5726293   -5.5726293   -4.6732798 -0.049737767   -5.5726293   0.89934953   439061 
  449000   0.59883964   -5.5743502   -5.5743502   -4.6760928 -0.049552039   -5.5743502   0.89825741   439061 
  450000   0.59971226   -5.5777636   -5.5777636   -4.6781973 -0.051569178   -5.5777636   0.89956634   439061 
  451000   0.59746581   -5.5784012   -5.5784012   -4.6822046   -0.0510027   -5.5784012   0.89619667   439061 
  452000   0.59792867   -5.5813914   -5.5813914   -4.6845004 -0.055582337   -5.5813914   0.89689096   439061 
  453000   0.59822815   -5.5845966   -5.5845966   -4.6872564 -0.055506431   -5.5845966   0.89734018   439061 
  454000   0.59687946   -5.5861631   -5.5861631    -4.690846 -0.056279821   -5.5861631   0.89531715   439061 
  455000   0.59797648   -5.5919918   -5.5919918   -4.6950291 -0.052795387   -5.5919918   0.89696267   439061 
  456000   0.59644209   -5.5929755   -5.5929755   -4.6983144 -0.052900184   -5.5929755    0.8946611   439061 
  457000   0.59675852   -5.5966275   -5.5966275   -4.7014918 -0.052511514   -5.5966275   0.89513574   439061 
  458000   0.59646647   -5.5991449   -5.5991449   -4.7044473 -0.056499304   -5.5991449   0.89469766   439061 
  459000   0.59620151    -5.600658    -5.600658   -4.7063578 -0.056789147    -5.600658   0.89430022   439061 
  460000   0.59630614   -5.6022527   -5.6022527   -4.7077955 -0.060244629   -5.6022527   0.89445718   439061 
  461000   0.59541077   -5.6045233   -5.6045233   -4.7114091 -0.058119276   -5.6045233   0.89311412   439061 
  462000   0.59437273   -5.6053606   -5.6053606   -4.7138036 -0.053176599   -5.6053606   0.89155707   439061 
  463000   0.59554324   -5.6101453   -5.6101453   -4.7168325 -0.057929049   -5.6101453   0.89331283   439061 
  464000   0.59533612   -5.6129531   -5.6129531   -4.7199509 -0.058106343   -5.6129531   0.89300214   439061 
  465000   0.59466163   -5.6157057   -5.6157057   -4.7237153 -0.059885286   -5.6157057   0.89199041   439061 
  466000   0.59375147   -5.6176373   -5.6176373   -4.7270121  -0.05823682   -5.6176373   0.89062518   439061 
  467000   0.59457796   -5.6212482   -5.6212482   -4.7293833 -0.059087032   -5.6212482   0.89186491   439061 
  468000   0.59274378   -5.6219586   -5.6219586    -4.732845 -0.059036774   -5.6219586   0.88911364   439061 
  469000   0.59312558   -5.6257581   -5.6257581   -4.7360717 -0.059704596   -5.6257581   0.88968635   439061 
  470000   0.59198593    -5.626603    -5.626603   -4.7386261 -0.057223987    -5.626603   0.88797687   439061 
  471000   0.59167644   -5.6295835   -5.6295835   -4.7420708 -0.057991966   -5.6295835   0.88751264   439061 
  472000   0.59122266   -5.6315905   -5.6315905   -4.7447585 -0.057670364   -5.6315905   0.88683196   439061 
  473000   0.59293723   -5.6358964   -5.6358964   -4.7464926  -0.06264605   -5.6358964   0.88940382   439061 
  474000   0.59104128   -5.6368555   -5.6368555   -4.7502956 -0.061726571   -5.6368555    0.8865599   439061 
  475000   0.59065185   -5.6387239   -5.6387239   -4.7527482 -0.059204269   -5.6387239   0.88597575   439061 
  476000   0.58953363   -5.6397286   -5.6397286   -4.7554301 -0.053016205   -5.6397286   0.88429843   439061 
  477000   0.58977571    -5.643235    -5.643235   -4.7585734 -0.061885407    -5.643235   0.88466155   439061 
  478000   0.58942666   -5.6457347   -5.6457347   -4.7615967  -0.06088252   -5.6457347   0.88413798   439061 
  479000   0.59021806   -5.6493901   -5.6493901    -4.764065 -0.062684616   -5.6493901   0.88532507   439061 
  480000   0.58852927   -5.6500465   -5.6500465   -4.7672546 -0.058045048   -5.6500465    0.8827919   439061 
  481000   0.58785113   -5.6524984   -5.6524984   -4.7707237 -0.064008261   -5.6524984   0.88177469   439061 
  482000   0.58747445   -5.6543164   -5.6543164   -4.7731067 -0.058465614   -5.6543164   0.88120967   439061 
  483000   0.58919074   -5.6585231   -5.6585231    -4.774739 -0.061492689   -5.6585231    0.8837841   439061 
  484000   0.58715341   -5.6586327   -5.6586327   -4.7779046 -0.056894119   -5.6586327    0.8807281   439061 
  485000   0.58781245   -5.6620106   -5.6620106    -4.780294 -0.060555014   -5.6620106   0.88171666   439061 
  486000   0.58784754   -5.6651907   -5.6651907   -4.7834213 -0.059604259   -5.6651907   0.88176931   439061 
  487000    0.5871643   -5.6669773   -5.6669773   -4.7862329 -0.065307469   -5.6669773   0.88074445   439061 
  488000   0.58667327   -5.6690748   -5.6690748   -4.7890669 -0.064875075   -5.6690748    0.8800079   439061 
  489000   0.58676511   -5.6716126   -5.6716126    -4.791467 -0.063416391   -5.6716126   0.88014566   439061 
  490000   0.58659873   -5.6745706   -5.6745706   -4.7946745 -0.066068765   -5.6745706   0.87989609   439061 
  491000    0.5856714   -5.6761951   -5.6761951   -4.7976899 -0.066471114   -5.6761951   0.87850511   439061 
  492000   0.58612692   -5.6800124   -5.6800124    -4.800824 -0.065558572   -5.6800124   0.87918837   439061 
  493000   0.58569522   -5.6820621   -5.6820621   -4.8035213  -0.06518652   -5.6820621   0.87854084   439061 
  494000   0.58443318   -5.6837204   -5.6837204   -4.8070727 -0.067968687   -5.6837204   0.87664777   439061 
  495000   0.58408032   -5.6853911   -5.6853911   -4.8092726 -0.063467255   -5.6853911   0.87611849   439061 
  496000     0.584136   -5.6880817   -5.6880817   -4.8118797 -0.063933659   -5.6880817     0.876202   439061 
  497000   0.58380116   -5.6902681   -5.6902681   -4.8145683 -0.061973489   -5.6902681   0.87569975   439061 
  498000   0.58617996   -5.6959394   -5.6959394   -4.8166714 -0.065890484   -5.6959394   0.87926794   439061 
  499000    0.5848113   -5.6963436   -5.6963436   -4.8191287 -0.061195628   -5.6963436   0.87721495   439061 
  500000   0.58406055   -5.6980243   -5.6980243   -4.8219354 -0.068199482   -5.6980243   0.87608882   439061 
  501000   0.58281057   -5.6988126   -5.6988126   -4.8245987 -0.066665904   -5.6988126   0.87421386   439061 
  502000    0.5836157   -5.7018954   -5.7018954   -4.8264739 -0.068896304   -5.7018954   0.87542155   439061 
  503000   0.58296494    -5.704256    -5.704256   -4.8298106  -0.06739274    -5.704256   0.87444542   439061 
  504000   0.58299217   -5.7073529   -5.7073529   -4.8328666 -0.066892861   -5.7073529   0.87448626   439061 
  505000   0.58240398   -5.7078866   -5.7078866   -4.8342826  -0.05994096   -5.7078866   0.87360398   439061 
  506000   0.58222372   -5.7102599   -5.7102599   -4.8369263 -0.060613635   -5.7102599   0.87333359   439061 
  507000   0.58225283   -5.7135007   -5.7135007   -4.8401235 -0.068036972   -5.7135007   0.87337725   439061 
  508000   0.58147579   -5.7153405   -5.7153405   -4.8431288 -0.070142993   -5.7153405    0.8722117   439061 
  509000   0.58004301   -5.7167822   -5.7167822   -4.8467196 -0.069649493   -5.7167822   0.87006254   439061 
  510000   0.58216198   -5.7219121   -5.7219121   -4.8486711    -0.069187   -5.7219121   0.87324098   439061 
  511000   0.58034694   -5.7232853   -5.7232853   -4.8527669 -0.066247314   -5.7232853   0.87051843   439061 
  512000   0.58074356   -5.7266706   -5.7266706   -4.8555572 -0.063688274   -5.7266706   0.87111336   439061 
  513000   0.58084303   -5.7293036   -5.7293036    -4.858041 -0.065698941   -5.7293036   0.87126257   439061 
  514000   0.58126148   -5.7317201   -5.7317201   -4.8598298 -0.064276088   -5.7317201   0.87189024   439061 
  515000   0.58033896   -5.7334943   -5.7334943   -4.8629879 -0.067615065   -5.7334943   0.87050645   439061 
  516000    0.5799253   -5.7344138   -5.7344138   -4.8645279 -0.065670041   -5.7344138   0.86988597   439061 
  517000   0.57966261    -5.736979    -5.736979   -4.8674871 -0.070068094    -5.736979   0.86949194   439061 
  518000   0.58082568   -5.7420412   -5.7420412   -4.8708047 -0.073976983   -5.7420412   0.87123653   439061 
  519000   0.57923466   -5.7430645   -5.7430645   -4.8742145  -0.07198234   -5.7430645   0.86885001   439061 
  520000    0.5796882   -5.7469954   -5.7469954   -4.8774651 -0.072441921   -5.7469954   0.86953033   439061 
  521000    0.5795607   -5.7496193   -5.7496193   -4.8802802 -0.069284575   -5.7496193   0.86933907   439061 
  522000   0.57911877   -5.7511435   -5.7511435   -4.8824673 -0.071003142   -5.7511435   0.86867618   439061 
  523000   0.57811132   -5.7524946   -5.7524946   -4.8853296 -0.069207307   -5.7524946     0.867165   439061 
  524000   0.57743144   -5.7541878   -5.7541878   -4.8880426 -0.070594426   -5.7541878   0.86614518   439061 
  525000   0.57808475   -5.7562715   -5.7562715   -4.8891464 -0.074005329   -5.7562715   0.86712514   439061 
  526000   0.57744425   -5.7579737   -5.7579737   -4.8918093 -0.072294189   -5.7579737    0.8661644   439061 
  527000   0.57769916   -5.7613743   -5.7613743   -4.8948275 -0.074681809   -5.7613743   0.86654677   439061 
  528000    0.5772971   -5.7632222   -5.7632222   -4.8972786 -0.072527237   -5.7632222   0.86594367   439061 
  529000   0.57662652     -5.76499     -5.76499   -4.9000522 -0.073778285     -5.76499   0.86493781   439061 
  530000   0.57776197   -5.7686868   -5.7686868   -4.9020458 -0.072811183   -5.7686868   0.86664098   439061 
  531000   0.57663984   -5.7690285   -5.7690285   -4.9040707 -0.071249903   -5.7690285    0.8649578   439061 
  532000   0.57630807   -5.7700702   -5.7700702   -4.9056101 -0.070771992   -5.7700702   0.86446013   439061 
  533000   0.57722203   -5.7745153   -5.7745153   -4.9086843   -0.0690767   -5.7745153   0.86583107   439061 
  534000   0.57501408   -5.7745304   -5.7745304   -4.9120112 -0.067940961   -5.7745304   0.86251915   439061 
  535000    0.5743671   -5.7758659   -5.7758659   -4.9143172 -0.066877375   -5.7758659   0.86154869   439061 
  536000   0.57533379   -5.7800809   -5.7800809   -4.9170822 -0.072800778   -5.7800809   0.86299872   439061 
  537000   0.57580139   -5.7832008   -5.7832008   -4.9195007 -0.073674437   -5.7832008   0.86370012   439061 
  538000   0.57473251   -5.7843508   -5.7843508    -4.922254   -0.0723701   -5.7843508    0.8620968   439061 
  539000   0.57406155   -5.7861997   -5.7861997   -4.9251094 -0.071705574   -5.7861997   0.86109037   439061 
  540000   0.57477586    -5.790541    -5.790541   -4.9283792 -0.075160336    -5.790541   0.86216182   439061 
  541000   0.57426537   -5.7921486   -5.7921486   -4.9307525 -0.073253679   -5.7921486   0.86139609   439061 
  542000   0.57261496   -5.7922312   -5.7922312   -4.9333108 -0.069295198   -5.7922312   0.85892049   439061 
  543000   0.57312759    -5.795363    -5.795363   -4.9356735 -0.072862461    -5.795363   0.85968943   439061 
  544000   0.57414304   -5.7983475   -5.7983475   -4.9371348 -0.076822891   -5.7983475    0.8612126   439061 
  545000   0.57255447   -5.7981618   -5.7981618    -4.939332 -0.072315692   -5.7981618   0.85882976   439061 
  546000   0.57250604   -5.8002673   -5.8002673   -4.9415102 -0.074492172   -5.8002673   0.85875711   439061 
  547000   0.57268325   -5.8035595   -5.8035595   -4.9445366 -0.078047991   -5.8035595   0.85902292   439061 
  548000   0.57195504   -5.8055479   -5.8055479   -4.9476173 -0.076782717   -5.8055479   0.85793061   439061 
  549000   0.57181144   -5.8086954   -5.8086954   -4.9509802 -0.077954666   -5.8086954   0.85771521   439061 
  550000   0.57175183   -5.8108717   -5.8108717   -4.9532459 -0.076518886   -5.8108717   0.85762579   439061 
  551000   0.57116561   -5.8130319   -5.8130319   -4.9562855 -0.075168453   -5.8130319   0.85674646   439061 
  552000   0.57135777   -5.8158483   -5.8158483   -4.9588136 -0.079360017   -5.8158483    0.8570347   439061 
  553000   0.56996624   -5.8163793   -5.8163793   -4.9614319 -0.078357601   -5.8163793   0.85494741   439061 
  554000   0.57007589   -5.8187906   -5.8187906   -4.9636787 -0.077914456   -5.8187906   0.85511189   439061 
  555000   0.56945727   -5.8206054   -5.8206054   -4.9664215 -0.081315561   -5.8206054   0.85418396   439061 
  556000   0.56933142   -5.8216942   -5.8216942   -4.9676991 -0.077804694   -5.8216942   0.85399518   439061 
  557000   0.56906238   -5.8236441   -5.8236441   -4.9700525 -0.074334259   -5.8236441   0.85359163   439061 
  558000   0.56914736   -5.8263127   -5.8263127   -4.9725936 -0.073661608   -5.8263127    0.8537191   439061 
  559000   0.56889805   -5.8287264   -5.8287264   -4.9753812 -0.080571245   -5.8287264   0.85334514   439061 
  560000   0.56764944   -5.8296648   -5.8296648   -4.9781926 -0.078251094   -5.8296648   0.85147222   439061 
  561000   0.56843093   -5.8319316   -5.8319316   -4.9792872  -0.08029007   -5.8319316   0.85264445   439061 
  562000   0.56776417   -5.8335752   -5.8335752   -4.9819309 -0.082346554   -5.8335752   0.85164432   439061 
  563000   0.56876935   -5.8368744   -5.8368744   -4.9837223 -0.085314294   -5.8368744   0.85315208   439061 
  564000   0.56745592   -5.8383229   -5.8383229    -4.987141 -0.082963614   -5.8383229   0.85118195   439061 
  565000   0.56658165   -5.8393038   -5.8393038   -4.9894333 -0.076364604   -5.8393038   0.84987054   439061 
  566000   0.56730142   -5.8419127   -5.8419127   -4.9909625 -0.076071385   -5.8419127   0.85095018   439061 
  567000   0.56740894    -5.844128    -5.844128   -4.9930165  -0.07920442    -5.844128   0.85111146   439061 
  568000   0.56629534   -5.8445251   -5.8445251    -4.995084 -0.080149996   -5.8445251   0.84944108   439061 
  569000   0.56720283   -5.8478221   -5.8478221   -4.9970198 -0.083339149   -5.8478221    0.8508023   439061 
  570000   0.56586331   -5.8487003   -5.8487003   -4.9999073 -0.080241114   -5.8487003   0.84879303   439061 
  571000    0.5669787   -5.8520128   -5.8520128   -5.0015467 -0.080969744   -5.8520128   0.85046612   439061 
  572000   0.56653149   -5.8536788   -5.8536788   -5.0038835 -0.077820607   -5.8536788   0.84979529   439061 
  573000   0.56591145   -5.8559282   -5.8559282   -5.0070629 -0.077230573   -5.8559282   0.84886524   439061 
  574000   0.56535125    -5.856219    -5.856219   -5.0081941 -0.078115726    -5.856219   0.84802494   439061 
  575000   0.56596399   -5.8591689   -5.8591689   -5.0102248 -0.083676268   -5.8591689   0.84894405   439061 
  576000   0.56490313   -5.8601908   -5.8601908    -5.012838 -0.085161424   -5.8601908   0.84735277   439061 
  577000   0.56479802   -5.8610266   -5.8610266   -5.0138315 -0.083192594   -5.8610266    0.8471951   439061 
  578000   0.56410605   -5.8630108   -5.8630108   -5.0168536 -0.082993782   -5.8630108   0.84615714   439061 
  579000   0.56503717   -5.8670514   -5.8670514   -5.0194976 -0.082687286   -5.8670514   0.84755382   439061 
  580000   0.56452337   -5.8684091   -5.8684091    -5.021626 -0.082256886   -5.8684091   0.84678313   439061 
  581000   0.56391999   -5.8698726   -5.8698726   -5.0239946 -0.080575684   -5.8698726   0.84587806   439061 
  582000    0.5632968   -5.8715911   -5.8715911   -5.0266478 -0.083260731   -5.8715911   0.84494328   439061 
  583000   0.56425838   -5.8759025   -5.8759025   -5.0295169 -0.090610491   -5.8759025   0.84638564   439061 
  584000   0.56236388   -5.8748056   -5.8748056   -5.0312617 -0.089434818   -5.8748056    0.8435439   439061 
  585000   0.56195069   -5.8757015   -5.8757015   -5.0327774  -0.08677486   -5.8757015   0.84292411   439061 
  586000   0.56300717   -5.8781269   -5.8781269    -5.033618 -0.084178474   -5.8781269   0.84450884   439061 
  587000   0.56350582   -5.8812979   -5.8812979   -5.0360411 -0.082563505   -5.8812979   0.84525681   439061 
  588000   0.56295561   -5.8834182   -5.8834182   -5.0389867 -0.084839814   -5.8834182    0.8444315   439061 
  589000   0.56235373   -5.8843507   -5.8843507    -5.040822 -0.082060973   -5.8843507   0.84352867   439061 
  590000   0.56274202   -5.8865236   -5.8865236   -5.0424125 -0.085375928   -5.8865236    0.8441111   439061 
  591000   0.56150878   -5.8863273   -5.8863273   -5.0440661 -0.085445098   -5.8863273   0.84226125   439061 
  592000   0.56140038   -5.8887638   -5.8887638   -5.0466651 -0.091209313   -5.8887638   0.84209865   439061 
  593000   0.56127351   -5.8913554   -5.8913554   -5.0494471 -0.087065222   -5.8913554   0.84190835   439061 
  594000   0.56108572   -5.8929074   -5.8929074   -5.0512808 -0.086553207   -5.8929074   0.84162667   439061 
  595000   0.56257301   -5.8961833   -5.8961833   -5.0523257 -0.084434644   -5.8961833   0.84385759   439061 
  596000   0.56218257   -5.8985755   -5.8985755   -5.0553036 -0.083876603   -5.8985755   0.84327193   439061 
  597000   0.56101016   -5.8991239   -5.8991239   -5.0576106 -0.083628966   -5.8991239   0.84151332   439061 
  598000   0.56073114   -5.9001374   -5.9001374   -5.0590426 -0.089065978   -5.9001374   0.84109479   439061 
  599000   0.56006715   -5.9015433   -5.9015433   -5.0614444 -0.091218375   -5.9015433   0.84009882   439061 
  600000   0.56067491   -5.9045962   -5.9045962   -5.0635858 -0.090820029   -5.9045962   0.84101044   439061 
  601000   0.56011171   -5.9054798   -5.9054798   -5.0653141 -0.085565581   -5.9054798   0.84016566   439061 
  602000   0.56026805   -5.9080265   -5.9080265   -5.0676263 -0.084564597   -5.9080265   0.84040016   439061 
  603000   0.55994264   -5.9098272   -5.9098272   -5.0699151 -0.085203705   -5.9098272   0.83991205   439061 
  604000    0.5600232   -5.9123348   -5.9123348    -5.072302 -0.088093042   -5.9123348   0.84003289   439061 
  605000    0.5593284   -5.9127568   -5.9127568   -5.0737662 -0.090364999   -5.9127568   0.83899068   439061 
  606000   0.55927199    -5.914392    -5.914392    -5.075486   -0.0928185    -5.914392   0.83890607   439061 
  607000   0.55991644   -5.9176552   -5.9176552   -5.0777825 -0.094914451   -5.9176552   0.83987275   439061 
  608000   0.55971191   -5.9195104   -5.9195104   -5.0799445 -0.096188989   -5.9195104   0.83956595   439061 
  609000   0.55943022   -5.9201773   -5.9201773   -5.0810339 -0.088175966   -5.9201773   0.83914342   439061 
  610000   0.55954243   -5.9224631   -5.9224631   -5.0831514 -0.083590362   -5.9224631   0.83931173   439061 
  611000    0.5595868    -5.924866    -5.924866   -5.0854877 -0.091116285    -5.924866   0.83937829   439061 
  612000   0.55883303   -5.9253466   -5.9253466    -5.087099 -0.090570412   -5.9253466   0.83824763   439061 
  613000   0.55831091    -5.926428    -5.926428   -5.0889635   -0.0911408    -5.926428   0.83746446   439061 
  614000    0.5578212   -5.9263961   -5.9263961   -5.0896663 -0.093955398   -5.9263961   0.83672989   439061 
  615000   0.55816026   -5.9293558   -5.9293558   -5.0921173 -0.094203001   -5.9293558   0.83723849   439061 
  616000   0.55834938   -5.9313645   -5.9313645   -5.0938424 -0.090106313   -5.9313645   0.83752216   439061 
  617000   0.55802785   -5.9320177   -5.9320177   -5.0949778 -0.084906243   -5.9320177   0.83703987   439061 
  618000   0.55709426    -5.933264    -5.933264   -5.0976245 -0.088384123    -5.933264   0.83563948   439061 
  619000   0.55739717   -5.9362339   -5.9362339   -5.1001401 -0.093156528   -5.9362339   0.83609385   439061 
  620000   0.55808953    -5.939383    -5.939383   -5.1022506 -0.099757526    -5.939383   0.83713238   439061 
  621000   0.55672492   -5.9390276   -5.9390276   -5.1039422 -0.096026287   -5.9390276   0.83508548   439061 
  622000   0.55743675   -5.9418294   -5.9418294   -5.1056761 -0.093687724   -5.9418294   0.83615322   439061 
  623000   0.55789762   -5.9453697   -5.9453697   -5.1085251 -0.092100881   -5.9453697   0.83684453   439061 
  624000   0.55704113   -5.9467144   -5.9467144   -5.1111546 -0.092978948   -5.9467144    0.8355598   439061 
  625000   0.55606366   -5.9481288   -5.9481288   -5.1140352 -0.092980842   -5.9481288   0.83409359   439061 
  626000   0.55596622   -5.9488362   -5.9488362   -5.1148888 -0.092711295   -5.9488362   0.83394744   439061 
  627000   0.55549157   -5.9492604   -5.9492604   -5.1160249 -0.092720529   -5.9492604   0.83323546   439061 
  628000   0.55594866   -5.9513004   -5.9513004   -5.1173793 -0.094103146   -5.9513004   0.83392108   439061 
  629000   0.55626964   -5.9533109   -5.9533109   -5.1189083   -0.0966185   -5.9533109   0.83440257   439061 
  630000   0.55518514   -5.9540144   -5.9540144   -5.1212386 -0.094913324   -5.9540144   0.83277581   439061 
  631000   0.55530622   -5.9567049   -5.9567049   -5.1237475 -0.093742142   -5.9567049   0.83295743   439061 
  632000   0.55682522   -5.9610531   -5.9610531   -5.1258172 -0.093593276   -5.9610531   0.83523592   439061 
  633000   0.55508171   -5.9603069   -5.9603069   -5.1276862 -0.089221115   -5.9603069   0.83262067   439061 
  634000   0.55469204   -5.9618106   -5.9618106   -5.1297744 -0.092916553   -5.9618106   0.83203617   439061 
  635000    0.5551249   -5.9641391   -5.9641391   -5.1314537 -0.095073291   -5.9641391   0.83268546   439061 
  636000   0.55363571   -5.9636883   -5.9636883   -5.1332366 -0.095855101   -5.9636883   0.83045167   439061 
  637000    0.5539357   -5.9662214   -5.9662214   -5.1353198 -0.099940531   -5.9662214   0.83090166   439061 
  638000   0.55534268   -5.9705392   -5.9705392    -5.137527 -0.099364671   -5.9705392   0.83301213   439061 
  639000   0.55403814   -5.9704335   -5.9704335   -5.1393782  -0.09305601   -5.9704335   0.83105531   439061 
  640000   0.55304172   -5.9715976   -5.9715976   -5.1420369 -0.093604395   -5.9715976   0.82956068   439061 
  641000   0.55530731   -5.9750327   -5.9750327   -5.1420736 -0.091888629   -5.9750327   0.83295907   439061 
  642000   0.55391283   -5.9756926   -5.9756926   -5.1448252 -0.097156713   -5.9756926   0.83086736   439061 
  643000   0.55346162   -5.9755879   -5.9755879   -5.1453974 -0.097888922   -5.9755879   0.83019054   439061 
  644000   0.55403794   -5.9784086   -5.9784086   -5.1473536 -0.098393388   -5.9784086   0.83105501   439061 
  645000   0.55358323   -5.9806065   -5.9806065   -5.1502335  -0.10003764   -5.9806065   0.83037296   439061 
  646000    0.5536648   -5.9829915   -5.9829915   -5.1524962  -0.10069116   -5.9829915   0.83049531   439061 
  647000   0.55316243   -5.9844847   -5.9844847   -5.1547429 -0.092960981   -5.9844847   0.82974176   439061 
  648000   0.55314139   -5.9860109   -5.9860109   -5.1563007 -0.094309903   -5.9860109   0.82971019   439061 
  649000   0.55338872   -5.9880212   -5.9880212     -5.15794 -0.095683578   -5.9880212    0.8300812   439061 
  650000   0.55313365   -5.9888303   -5.9888303   -5.1591318 -0.098735321   -5.9888303   0.82969859   439061 
  651000   0.55317845   -5.9909826   -5.9909826   -5.1612168  -0.10432589   -5.9909826   0.82976578   439061 
  652000     0.553061   -5.9933614   -5.9933614   -5.1637718   -0.1031003   -5.9933614   0.82958961   439061 
  653000   0.55263816   -5.9951072   -5.9951072   -5.1661519  -0.10081352   -5.9951072   0.82895536   439061 
  654000   0.55333169   -5.9984053   -5.9984053   -5.1684097  -0.10016716   -5.9984053   0.82999564   439061 
  655000   0.55339876    -6.000161    -6.000161   -5.1700647  -0.09507031    -6.000161   0.83009625   439061 
  656000   0.55342817   -6.0011222   -6.0011222   -5.1709818 -0.095620789   -6.0011222   0.83014036   439061 
  657000   0.55297857   -6.0023647   -6.0023647   -5.1728987  -0.10232006   -6.0023647   0.82946597   439061 
  658000   0.55137408   -6.0021315   -6.0021315   -5.1750723  -0.10351362   -6.0021315   0.82705924   439061 
  659000    0.5519041   -6.0040887   -6.0040887   -5.1762345  -0.10362675   -6.0040887   0.82785427   439061 
  660000   0.55165035   -6.0060619   -6.0060619   -5.1785882  -0.10490324   -6.0060619   0.82747364   439061 
  661000    0.5523112   -6.0097782   -6.0097782   -5.1813132  -0.10105984   -6.0097782   0.82846492   439061 
  662000   0.55346892   -6.0128994   -6.0128994   -5.1826979 -0.099339976   -6.0128994   0.83020148   439061 
  663000     0.552273   -6.0124659   -6.0124659   -5.1840583 -0.098887255   -6.0124659   0.82840762   439061 
  664000   0.55206365   -6.0136745   -6.0136745   -5.1855809  -0.10288162   -6.0136745   0.82809358   439061 
  665000   0.55166804   -6.0143665   -6.0143665   -5.1868663  -0.10856297   -6.0143665   0.82750017   439061 
  666000    0.5517568   -6.0161397   -6.0161397   -5.1885064  -0.10807766   -6.0161397   0.82763332   439061 
  667000   0.55164302   -6.0185636   -6.0185636   -5.1911009   -0.1061928   -6.0185636   0.82746265   439061 
  668000   0.55233888   -6.0220445   -6.0220445    -5.193538  -0.10665351   -6.0220445   0.82850643   439061 
  669000   0.55219214   -6.0230055   -6.0230055   -5.1947192 -0.098316905   -6.0230055   0.82828633   439061 
  670000   0.55157898   -6.0239565   -6.0239565   -5.1965899 -0.098469846   -6.0239565   0.82736658   439061 
  671000   0.55196463   -6.0269647   -6.0269647   -5.1990197  -0.11087514   -6.0269647   0.82794506   439061 
  672000    0.5514112   -6.0268127   -6.0268127   -5.1996978  -0.11095973   -6.0268127   0.82711492   439061 
  673000   0.54999778   -6.0261345   -6.0261345   -5.2011397  -0.10814648   -6.0261345   0.82499479   439061 
  674000   0.55125431   -6.0285063   -6.0285063   -5.2016268  -0.10770613   -6.0285063   0.82687958   439061 
  675000   0.55156392    -6.031333    -6.031333    -5.203989  -0.10430128    -6.031333     0.827344   439061 
  676000   0.55091713   -6.0322395   -6.0322395   -5.2058657  -0.10084701   -6.0322395   0.82637382   439061 
  677000   0.55186854   -6.0358493   -6.0358493   -5.2080484  -0.10801174   -6.0358493   0.82780093   439061 
  678000   0.55127869   -6.0357544   -6.0357544   -5.2088383  -0.10613862   -6.0357544   0.82691615   439061 
  679000   0.55035408   -6.0358834   -6.0358834   -5.2103541  -0.11116187   -6.0358834   0.82552924   439061 
  680000   0.55057875   -6.0378822   -6.0378822   -5.2120159   -0.1098661   -6.0378822   0.82586625   439061 
  681000   0.55073309   -6.0405201   -6.0405201   -5.2144224  -0.10536521   -6.0405201   0.82609775   439061 
  682000   0.54999451   -6.0412252   -6.0412252   -5.2162353  -0.10317972   -6.0412252   0.82498989   439061 
  683000   0.55126145   -6.0450165   -6.0450165   -5.2181262  -0.10434681   -6.0450165    0.8268903   439061 
  684000   0.55046016   -6.0463047   -6.0463047   -5.2206164  -0.10656873   -6.0463047   0.82568835   439061 
  685000   0.54966415   -6.0473284   -6.0473284   -5.2228341  -0.11244275   -6.0473284   0.82449435   439061 
  686000   0.54981097   -6.0486651   -6.0486651   -5.2239505  -0.11624401   -6.0486651   0.82471458   439061 
  687000   0.54966692   -6.0504781   -6.0504781   -5.2259796  -0.11289692   -6.0504781    0.8244985   439061 
  688000   0.54931831   -6.0521362   -6.0521362   -5.2281607  -0.11303459   -6.0521362   0.82397558   439061 
  689000   0.55078896   -6.0554813   -6.0554813   -5.2292997  -0.10771318   -6.0554813   0.82618156   439061 
  690000   0.54964963   -6.0558242   -6.0558242   -5.2313516  -0.10813012   -6.0558242   0.82447257   439061 
  691000    0.5489967   -6.0578479   -6.0578479   -5.2343548   -0.1146337   -6.0578479   0.82349318   439061 
  692000   0.54883273   -6.0572321   -6.0572321   -5.2339849  -0.11206346   -6.0572321   0.82324722   439061 
  693000   0.54956357   -6.0604502   -6.0604502   -5.2361067  -0.12015137   -6.0604502   0.82434348   439061 
  694000   0.54957824   -6.0611111   -6.0611111   -5.2367456  -0.11422526   -6.0611111   0.82436548   439061 
  695000   0.54847335   -6.0611649   -6.0611649   -5.2384567  -0.10827425   -6.0611649   0.82270816   439061 
  696000    0.5481505   -6.0632954   -6.0632954   -5.2410715  -0.11282179   -6.0632954   0.82222388   439061 
  697000   0.54916961   -6.0666038   -6.0666038   -5.2428513  -0.11312245   -6.0666038   0.82375253   439061 
  698000   0.54832615   -6.0673567   -6.0673567   -5.2448693  -0.11585593   -6.0673567   0.82248735   439061 
  699000   0.54735304   -6.0671787   -6.0671787    -5.246151  -0.11374693   -6.0671787   0.82102768   439061 
  700000   0.54844439   -6.0710961   -6.0710961   -5.2484314  -0.11734113   -6.0710961   0.82266472   439061 
  701000   0.54749062   -6.0710675   -6.0710675   -5.2498334  -0.11751786   -6.0710675   0.82123406   439061 
  702000   0.54760586   -6.0731264   -6.0731264   -5.2517195  -0.11256752   -6.0731264   0.82140692   439061 
  703000   0.54737661   -6.0741644   -6.0741644   -5.2531013  -0.11200436   -6.0741644   0.82106305   439061 
  704000   0.54729686   -6.0756287   -6.0756287   -5.2546853  -0.11173102   -6.0756287   0.82094342   439061 
  705000   0.54873662   -6.0788184   -6.0788184   -5.2557154  -0.11779184   -6.0788184   0.82310306   439061 
  706000   0.54686406   -6.0779424   -6.0779424   -5.2576481   -0.1159435   -6.0779424   0.82029422   439061 
  707000   0.54689467   -6.0798219   -6.0798219   -5.2594818  -0.11615006   -6.0798219   0.82034013   439061 
  708000   0.54852536   -6.0839186   -6.0839186   -5.2611324  -0.11674954   -6.0839186   0.82278617   439061 
  709000   0.54684731   -6.0838419   -6.0838419   -5.2635728  -0.11629922   -6.0838419    0.8202691   439061 
  710000   0.54761003    -6.085161    -6.085161   -5.2637479  -0.11152811    -6.085161   0.82141317   439061 
  711000   0.54871993   -6.0881595   -6.0881595   -5.2650815  -0.11629485   -6.0881595   0.82307802   439061 
  712000   0.54802713   -6.0892758   -6.0892758    -5.267237  -0.12096064   -6.0892758   0.82203882   439061 
  713000   0.54708826   -6.0898474   -6.0898474   -5.2692169   -0.1196871   -6.0898474   0.82063052   439061 
  714000   0.54796216   -6.0915432   -6.0915432   -5.2696019  -0.11795421   -6.0915432   0.82194137   439061 
  715000   0.54741444    -6.093351    -6.093351   -5.2722312  -0.11468516    -6.093351   0.82111979   439061 
  716000   0.54757134   -6.0957088   -6.0957088   -5.2743537  -0.11803999   -6.0957088   0.82135514   439061 
  717000   0.54792375   -6.0978912   -6.0978912   -5.2760075  -0.12057802   -6.0978912   0.82188375   439061 
  718000   0.54766252   -6.0995532   -6.0995532   -5.2780613  -0.11940269   -6.0995532    0.8214919   439061 
  719000   0.54670194    -6.099759    -6.099759    -5.279708  -0.12162232    -6.099759   0.82005104   439061 
  720000      0.54792    -6.102061    -6.102061   -5.2801829  -0.12182337    -6.102061   0.82187812   439061 
  721000   0.54683066   -6.1026884   -6.1026884   -5.2824443  -0.12132634   -6.1026884   0.82024412   439061 
  722000   0.54712599   -6.1053366   -6.1053366   -5.2846495  -0.12148521   -6.1053366   0.82068712   439061 
  723000   0.54710478   -6.1063784   -6.1063784   -5.2857231  -0.11789026   -6.1063784    0.8206553   439061 
  724000   0.54705782   -6.1078528   -6.1078528   -5.2872679   -0.1188938   -6.1078528   0.82058486   439061 
  725000   0.54664191   -6.1087759   -6.1087759   -5.2888149  -0.11949721   -6.1087759   0.81996099   439061 
  726000   0.54612646   -6.1103874   -6.1103874   -5.2911996  -0.12427217   -6.1103874   0.81918782   439061 
  727000   0.54585826   -6.1128205   -6.1128205    -5.294035  -0.12789135   -6.1128205   0.81878552   439061 
  728000    0.5456576   -6.1140402   -6.1140402   -5.2955557  -0.12302742   -6.1140402   0.81848454   439061 
  729000   0.54645391   -6.1157733   -6.1157733   -5.2960943  -0.11989089   -6.1157733     0.819679   439061 
  730000   0.54618489   -6.1161762   -6.1161762   -5.2969007   -0.1190221   -6.1161762   0.81927548   439061 
  731000   0.54703539   -6.1187603   -6.1187603   -5.2982091  -0.12242719   -6.1187603   0.82055121   439061 
  732000   0.54675773   -6.1187884   -6.1187884   -5.2986536  -0.12410775   -6.1187884   0.82013472   439061 
  733000   0.54697407   -6.1203973   -6.1203973   -5.2999381  -0.12837076   -6.1203973   0.82045923   439061 
  734000   0.54646395   -6.1218489   -6.1218489   -5.3021548   -0.1269101   -6.1218489   0.81969405   439061 
  735000   0.54701631   -6.1244529   -6.1244529   -5.3039303   -0.1257755   -6.1244529    0.8205226   439061 
  736000   0.54580614   -6.1246338   -6.1246338   -5.3059265  -0.11672854   -6.1246338   0.81870735   439061 
  737000   0.54640541   -6.1268654   -6.1268654   -5.3072592  -0.12033833   -6.1268654   0.81960625   439061 
  738000   0.54496165   -6.1271529   -6.1271529   -5.3097123  -0.12099895   -6.1271529   0.81744061   439061 
  739000     0.545657    -6.129106    -6.129106   -5.3106224  -0.12638337    -6.129106   0.81848363   439061 
  740000   0.54517866   -6.1293346   -6.1293346   -5.3115684  -0.12670035   -6.1293346   0.81776613   439061 
  741000   0.54591105   -6.1310419   -6.1310419   -5.3121772  -0.12309612   -6.1310419   0.81886471   439061 
  742000   0.54683671   -6.1345214   -6.1345214   -5.3142682   -0.1258082   -6.1345214    0.8202532   439061 
  743000   0.54655803   -6.1351446   -6.1351446   -5.3153094  -0.12195442   -6.1351446   0.81983517   439061 
  744000   0.54589971   -6.1367176   -6.1367176   -5.3178699  -0.12286909   -6.1367176    0.8188477   439061 
  745000   0.54666919   -6.1391412   -6.1391412   -5.3191393  -0.13113818   -6.1391412   0.82000192   439061 
  746000   0.54569572   -6.1399066   -6.1399066   -5.3213649  -0.12812502   -6.1399066   0.81854171   439061 
  747000    0.5460122   -6.1409628   -6.1409628   -5.3219464  -0.12833577   -6.1409628   0.81901644   439061 
  748000   0.54600162   -6.1434432   -6.1434432   -5.3244427  -0.12954276   -6.1434432   0.81900056   439061 
  749000   0.54551378   -6.1434488   -6.1434488     -5.32518  -0.12429482   -6.1434488    0.8182688   439061 
  750000   0.54559811   -6.1457517   -6.1457517   -5.3273564  -0.12855381   -6.1457517   0.81839529   439061 
  751000   0.54516183   -6.1471586   -6.1471586   -5.3294177  -0.12783409   -6.1471586   0.81774088   439061 
  752000   0.54536783   -6.1491538   -6.1491538   -5.3311039  -0.12909513   -6.1491538   0.81804989   439061 
  753000   0.54539399   -6.1499662   -6.1499662   -5.3318771   -0.1299763   -6.1499662   0.81808913   439061 
  754000   0.54446123    -6.150737    -6.150737   -5.3340471  -0.12485575    -6.150737   0.81668998   439061 
  755000   0.54587875   -6.1543403   -6.1543403   -5.3355241  -0.12661296   -6.1543403   0.81881627   439061 
  756000   0.54529954   -6.1549181   -6.1549181   -5.3369706  -0.12868375   -6.1549181   0.81794745   439061 
  757000   0.54598842   -6.1565966   -6.1565966   -5.3376158  -0.12885323   -6.1565966   0.81898076   439061 
  758000    0.5471015   -6.1598141   -6.1598141   -5.3391637  -0.12913399   -6.1598141   0.82065039   439061 
  759000   0.54506762   -6.1591441   -6.1591441   -5.3415445  -0.12565714   -6.1591441   0.81759957   439061 
  760000   0.54610798   -6.1617685   -6.1617685   -5.3426084  -0.12690799   -6.1617685   0.81916011   439061 
  761000   0.54609924   -6.1624749   -6.1624749   -5.3433279  -0.12549729   -6.1624749     0.819147   439061 
  762000   0.54580332   -6.1642066   -6.1642066   -5.3455035   -0.1281154   -6.1642066   0.81870312   439061 
  763000   0.54586084   -6.1647413   -6.1647413   -5.3459519  -0.12970728   -6.1647413   0.81878939   439061 
  764000   0.54596427   -6.1670439   -6.1670439   -5.3480993  -0.12819991   -6.1670439   0.81894454   439061 
  765000   0.54515244   -6.1670994   -6.1670994   -5.3493726  -0.12577165   -6.1670994    0.8177268   439061 
  766000   0.54627251   -6.1710256   -6.1710256   -5.3516187  -0.12975535   -6.1710256   0.81940689   439061 
  767000   0.54486829   -6.1700569   -6.1700569   -5.3527563  -0.12684855   -6.1700569   0.81730058   439061 
  768000   0.54588586   -6.1727587   -6.1727587   -5.3539317  -0.12753437   -6.1727587   0.81882693   439061 
  769000   0.54559324   -6.1734443   -6.1734443   -5.3550563  -0.13279911   -6.1734443   0.81838799   439061 
  770000   0.54510197   -6.1754112   -6.1754112   -5.3577601  -0.13253081   -6.1754112    0.8176511   439061 
  771000   0.54401866   -6.1756512   -6.1756512   -5.3596251  -0.12923877   -6.1756512   0.81602613   439061 
  772000   0.54480071   -6.1781459   -6.1781459   -5.3609467  -0.12841722   -6.1781459    0.8171992   439061 
  773000   0.54514888    -6.179699    -6.179699   -5.3619775  -0.12658839    -6.179699   0.81772145   439061 
  774000   0.54438526   -6.1803711   -6.1803711   -5.3637951  -0.13223954   -6.1803711   0.81657603   439061 
  775000   0.54446026   -6.1813847   -6.1813847   -5.3646962  -0.13073767   -6.1813847   0.81668853   439061 
  776000    0.5435946   -6.1819274   -6.1819274   -5.3665373  -0.13183216   -6.1819274   0.81539005   439061 
  777000   0.54461919    -6.184793    -6.184793   -5.3678661  -0.13498402    -6.184793   0.81692693   439061 
  778000   0.54531712   -6.1861798   -6.1861798    -5.368206  -0.12948441   -6.1861798   0.81797382   439061 
  779000   0.54460957   -6.1873461   -6.1873461   -5.3704336   -0.1268292   -6.1873461   0.81691249   439061 
  780000   0.54487431   -6.1899991   -6.1899991   -5.3726895  -0.13476601   -6.1899991    0.8173096   439061 
  781000   0.54381544    -6.190145    -6.190145   -5.3744237  -0.13534313    -6.190145    0.8157213   439061 
  782000   0.54346083   -6.1910669   -6.1910669   -5.3758775  -0.13592074   -6.1910669   0.81518939   439061 
  783000   0.54294301   -6.1922888   -6.1922888   -5.3778761   -0.1342959   -6.1922888   0.81441266   439061 
  784000   0.54348607   -6.1935515   -6.1935515   -5.3783242  -0.13163941   -6.1935515   0.81522725   439061 
  785000   0.54367041   -6.1955711   -6.1955711   -5.3800673   -0.1332346   -6.1955711   0.81550376   439061 
  786000   0.54400535   -6.1961109   -6.1961109   -5.3801047  -0.13262861   -6.1961109   0.81600617   439061 
  787000   0.54348995   -6.1970567   -6.1970567   -5.3818237  -0.13716747   -6.1970567   0.81523307   439061 
  788000   0.54371019   -6.1990552   -6.1990552   -5.3834917  -0.13298536   -6.1990552   0.81556342   439061 
  789000   0.54373575   -6.2010449   -6.2010449   -5.3854431   -0.1353581   -6.2010449   0.81560176   439061 
  790000   0.54378102   -6.2029188   -6.2029188   -5.3872491  -0.13590522   -6.2029188   0.81566967   439061 
  791000    0.5442963   -6.2039684   -6.2039684   -5.3875258  -0.13247859   -6.2039684   0.81644258   439061 
  792000   0.54439675   -6.2048024   -6.2048024   -5.3882092  -0.13342636   -6.2048024   0.81659326   439061 
  793000   0.54437999   -6.2051512   -6.2051512   -5.3885831  -0.13399466   -6.2051512   0.81656813   439061 
  794000     0.544556   -6.2068516   -6.2068516   -5.3900195  -0.13946419   -6.2068516   0.81683215   439061 
  795000   0.54374166   -6.2077467   -6.2077467   -5.3921361  -0.14169358   -6.2077467   0.81561063   439061 
  796000   0.54383112   -6.2099535   -6.2099535   -5.3942087  -0.13676038   -6.2099535   0.81574483   439061 
  797000   0.54362772   -6.2116614   -6.2116614   -5.3962217  -0.13387285   -6.2116614   0.81543973   439061 
  798000   0.54312002   -6.2130795   -6.2130795   -5.3984013  -0.13217174   -6.2130795   0.81467818   439061 
  799000   0.54385202   -6.2156557   -6.2156557   -5.3998795  -0.13612806   -6.2156557   0.81577616   439061 
  800000   0.54271432   -6.2158573   -6.2158573   -5.4017877  -0.13970991   -6.2158573   0.81406963   439061 
  801000   0.54242295   -6.2172207   -6.2172207   -5.4035881  -0.14089861   -6.2172207   0.81363258   439061 
  802000   0.54311246   -6.2180909   -6.2180909   -5.4034241  -0.13968745   -6.2180909   0.81466684   439061 
  803000   0.54334026   -6.2204008   -6.2204008   -5.4053923  -0.13737226   -6.2204008   0.81500853   439061 
  804000   0.54243501   -6.2203687   -6.2203687    -5.406718  -0.13251182   -6.2203687   0.81365066   439061 
  805000   0.54396423   -6.2235646   -6.2235646   -5.4076201   -0.1355334   -6.2235646   0.81594448   439061 
  806000   0.54194746    -6.222861    -6.222861   -5.4099417  -0.13679427    -6.222861   0.81291934   439061 
  807000   0.54248065   -6.2251929   -6.2251929   -5.4114738  -0.13904964   -6.2251929   0.81371912   439061 
  808000   0.54257056   -6.2266236   -6.2266236   -5.4127696  -0.13987414   -6.2266236   0.81385398   439061 
  809000   0.54198596   -6.2272309   -6.2272309   -5.4142538  -0.13684165   -6.2272309   0.81297709   439061 
  810000    0.5423099    -6.229671    -6.229671    -5.416208  -0.13774575    -6.229671     0.813463   439061 
  811000   0.54251186   -6.2328603   -6.2328603   -5.4190944  -0.13965305   -6.2328603   0.81376594   439061 
  812000   0.54252118    -6.234925    -6.234925    -5.421145  -0.14441256    -6.234925   0.81377992   439061 
  813000   0.54203721   -6.2353148   -6.2353148   -5.4222608  -0.14162395   -6.2353148   0.81305397   439061 
  814000   0.54197444   -6.2359159   -6.2359159   -5.4229561  -0.14256717   -6.2359159    0.8129598   439061 
  815000   0.54135189   -6.2363968   -6.2363968   -5.4243708  -0.14281042   -6.2363968   0.81202598   439061 
  816000   0.54185824   -6.2387533   -6.2387533   -5.4259678  -0.14626045   -6.2387533   0.81278551   439061 
  817000   0.54200346   -6.2393089   -6.2393089   -5.4263056  -0.14382901   -6.2393089   0.81300334   439061 
  818000   0.54272592   -6.2411131   -6.2411131    -5.427026  -0.14514082   -6.2411131   0.81408703   439061 
  819000   0.54179957   -6.2408669   -6.2408669   -5.4281694  -0.14154887   -6.2408669   0.81269751   439061 
  820000   0.54206531   -6.2423959   -6.2423959   -5.4292998  -0.14325166   -6.2423959   0.81309611   439061 
  821000   0.54174242    -6.243162    -6.243162   -5.4305502  -0.14348858    -6.243162   0.81261178   439061 
  822000   0.54184461   -6.2448521   -6.2448521   -5.4320871  -0.14303784   -6.2448521   0.81276506   439061 
  823000   0.54167985   -6.2463187   -6.2463187   -5.4338008  -0.14521798   -6.2463187   0.81251792   439061 
  824000   0.54186043   -6.2473417   -6.2473417   -5.4345529  -0.14533036   -6.2473417   0.81278879   439061 
  825000   0.54169685   -6.2479071   -6.2479071   -5.4353637  -0.13937274   -6.2479071   0.81254342   439061 
  826000   0.54211389   -6.2500785   -6.2500785   -5.4369095  -0.14331016   -6.2500785   0.81316899   439061 
  827000   0.54176985   -6.2496654   -6.2496654   -5.4370125   -0.1404914   -6.2496654   0.81265293   439061 
  828000   0.54106722   -6.2500167   -6.2500167   -5.4384177  -0.14192208   -6.2500167   0.81159897   439061 
  829000   0.54219895    -6.253455    -6.253455   -5.4401584  -0.14705665    -6.253455   0.81329657   439061 
  830000   0.54183033   -6.2536875   -6.2536875   -5.4409439  -0.14477032   -6.2536875   0.81274365   439061 
  831000   0.54142697   -6.2546132   -6.2546132   -5.4424746  -0.14141717   -6.2546132    0.8121386   439061 
  832000   0.54256303   -6.2583454   -6.2583454   -5.4445027  -0.14631817   -6.2583454    0.8138427   439061 
  833000   0.54092531   -6.2577031   -6.2577031    -5.446317  -0.14681986   -6.2577031   0.81138612   439061 
  834000   0.53970668   -6.2584892   -6.2584892   -5.4489311   -0.1452052   -6.2584892   0.80955817   439061 
  835000   0.54000032   -6.2589999   -6.2589999   -5.4490012  -0.14535738   -6.2589999   0.80999863   439061 
  836000    0.5404096   -6.2611802   -6.2611802   -5.4505676  -0.14442901   -6.2611802   0.81061255   439061 
  837000   0.54020249    -6.262108    -6.262108   -5.4518061  -0.14693391    -6.262108    0.8103019   439061 
  838000   0.54066126   -6.2644581   -6.2644581   -5.4534681  -0.14702895   -6.2644581   0.81099005   439061 
  839000   0.53950126   -6.2646403   -6.2646403   -5.4553902  -0.14837558   -6.2646403   0.80925004   439061 
  840000   0.53989237   -6.2657615   -6.2657615   -5.4559248  -0.14860696   -6.2657615   0.80983671   439061 
  841000   0.53959137   -6.2664958   -6.2664958   -5.4571106  -0.14628246   -6.2664958   0.80938522   439061 
  842000   0.53919977   -6.2677517   -6.2677517   -5.4589539  -0.14759993   -6.2677517   0.80879781   439061 
  843000   0.53887464    -6.267958    -6.267958   -5.4596479  -0.14857082    -6.267958   0.80831012   439061 
  844000   0.53850718   -6.2691889   -6.2691889     -5.46143  -0.15029367   -6.2691889   0.80775893   439061 
  845000   0.53854642   -6.2702708   -6.2702708    -5.462453  -0.14695219   -6.2702708   0.80781779   439061 
  846000    0.5390559   -6.2717588   -6.2717588   -5.4631768  -0.14645929   -6.2717588   0.80858201   439061 
  847000   0.53849952   -6.2723197   -6.2723197   -5.4645722  -0.15331073   -6.2723197   0.80774744   439061 
  848000   0.53838353   -6.2732372   -6.2732372   -5.4656637  -0.15069271   -6.2732372   0.80757346   439061 
  849000     0.538902   -6.2747427   -6.2747427   -5.4663916  -0.15171188   -6.2747427   0.80835116   439061 
  850000   0.53889315   -6.2754482   -6.2754482   -5.4671103  -0.15111058   -6.2754482   0.80833788   439061 
  851000   0.53742902    -6.275296    -6.275296   -5.4691543  -0.14864046    -6.275296    0.8061417   439061 
  852000   0.53796572   -6.2781641   -6.2781641   -5.4712174  -0.15090369   -6.2781641   0.80694675   439061 
  853000   0.53756017   -6.2792803   -6.2792803   -5.4729418  -0.14918419   -6.2792803   0.80633842   439061 
  854000   0.53772332   -6.2808657   -6.2808657   -5.4742826  -0.15407195   -6.2808657   0.80658314   439061 
  855000   0.53644104   -6.2805802   -6.2805802   -5.4759205   -0.1527239   -6.2805802   0.80465973   439061 
  856000   0.53646172   -6.2817695   -6.2817695   -5.4770787  -0.15300551   -6.2817695   0.80469075   439061 
  857000   0.53693071   -6.2826108   -6.2826108   -5.4772166  -0.15302814   -6.2826108   0.80539423   439061 
  858000   0.53572981   -6.2821895   -6.2821895   -5.4785966  -0.15081093   -6.2821895   0.80359289   439061 
  859000   0.53679741   -6.2848627   -6.2848627   -5.4796684  -0.15162277   -6.2848627   0.80519428   439061 
  860000   0.53699621   -6.2858676   -6.2858676   -5.4803751  -0.15620542   -6.2858676   0.80549248   439061 
  861000   0.53610832    -6.287252    -6.287252   -5.4830914   -0.1540444    -6.287252   0.80416065   439061 
  862000   0.53608838   -6.2874242   -6.2874242   -5.4832935  -0.15022334   -6.2874242   0.80413073   439061 
  863000   0.53596148   -6.2885934   -6.2885934    -5.484653  -0.15201734   -6.2885934    0.8039404   439061 
  864000   0.53535691   -6.2891081   -6.2891081   -5.4860745    -0.152418   -6.2891081   0.80303353   439061 
  865000   0.53558408    -6.291345    -6.291345   -5.4879707  -0.15953921    -6.291345   0.80337429   439061 
  866000    0.5346382   -6.2913661   -6.2913661   -5.4894106  -0.15654093   -6.2913661   0.80195548   439061 
  867000   0.53489937   -6.2928082   -6.2928082    -5.490461  -0.15973473   -6.2928082   0.80234723   439061 
  868000   0.53427907   -6.2933223   -6.2933223   -5.4919055  -0.15550058   -6.2933223   0.80141678   439061 
  869000   0.53488505   -6.2958907   -6.2958907    -5.493565  -0.15845568   -6.2958907   0.80232574   439061 
  870000   0.53364025    -6.296049    -6.296049   -5.4955905  -0.15705053    -6.296049   0.80045855   439061 
  871000   0.53281575   -6.2961233   -6.2961233   -5.4969015  -0.15823335   -6.2961233    0.7992218   439061 
  872000   0.53343038   -6.2974258   -6.2974258   -5.4972821  -0.16101645   -6.2974258   0.80014375   439061 
  873000   0.53278489    -6.297726    -6.297726   -5.4985505  -0.16024783    -6.297726   0.79917552   439061 
  874000   0.53275495   -6.2981802   -6.2981802   -5.4990496  -0.15912208   -6.2981802    0.7991306   439061 
  875000   0.53312271   -6.2992727   -6.2992727   -5.4995905  -0.16065125   -6.2992727   0.79968224   439061 
  876000   0.53215396   -6.2981667   -6.2981667   -5.4999375  -0.15465228   -6.2981667   0.79822912   439061 
  877000   0.53283251    -6.299638    -6.299638   -5.5003911  -0.16139295    -6.299638   0.79924694   439061 
  878000   0.53287656   -6.3008849   -6.3008849   -5.5015719  -0.16274324   -6.3008849   0.79931302   439061 
  879000   0.53247962   -6.3021642   -6.3021642   -5.5034465  -0.16712381   -6.3021642   0.79871762   439061 
  880000   0.53180433   -6.3019875   -6.3019875   -5.5042828  -0.16485333   -6.3019875   0.79770467   439061 
  881000   0.53182129   -6.3034195   -6.3034195   -5.5056894   -0.1597563   -6.3034195   0.79773012   439061 
  882000   0.53186092   -6.3047686   -6.3047686    -5.506979  -0.16564063   -6.3047686   0.79778957   439061 
  883000   0.53058642   -6.3051724   -6.3051724   -5.5092946  -0.16311214   -6.3051724   0.79587782   439061 
  884000   0.52987894   -6.3057865   -6.3057865   -5.5109699  -0.16629514   -6.3057865    0.7948166   439061 
  885000   0.53035336   -6.3073454   -6.3073454   -5.5118172    -0.164309   -6.3073454   0.79552823   439061 
  886000   0.53016896   -6.3076276   -6.3076276    -5.512376   -0.1671533   -6.3076276   0.79525162   439061 
  887000   0.53063076   -6.3084132   -6.3084132   -5.5124689  -0.16461341   -6.3084132   0.79594432   439061 
  888000   0.52965097   -6.3082825   -6.3082825   -5.5138079  -0.16527996   -6.3082825   0.79447464   439061 
  889000   0.52929061   -6.3083538   -6.3083538   -5.5144197  -0.16667528   -6.3083538    0.7939341   439061 
  890000   0.52878451   -6.3089496   -6.3089496   -5.5157747  -0.16725808   -6.3089496   0.79317496   439061 
  891000   0.52877951   -6.3113994   -6.3113994    -5.518232  -0.17080917   -6.3113994   0.79316746   439061 
  892000   0.52875588   -6.3120781   -6.3120781   -5.5189461  -0.16776528   -6.3120781   0.79313201   439061 
  893000   0.52923303   -6.3149288   -6.3149288    -5.521081  -0.17291733   -6.3149288   0.79384774   439061 
  894000   0.52739129   -6.3137887   -6.3137887   -5.5227036  -0.16885065   -6.3137887   0.79108513   439061 
  895000   0.52797094   -6.3153141   -6.3153141   -5.5233595  -0.17295026   -6.3153141   0.79195461   439061 
  896000   0.52818234   -6.3164947   -6.3164947    -5.524223  -0.17291474   -6.3164947    0.7922717   439061 
  897000   0.52735683   -6.3160337   -6.3160337   -5.5250003  -0.16970928   -6.3160337   0.79103344   439061 
  898000    0.5268777   -6.3170551   -6.3170551   -5.5267403  -0.17390187   -6.3170551   0.79031475   439061 
  899000    0.5265224   -6.3177493   -6.3177493   -5.5279675  -0.17380787   -6.3177493   0.78978181   439061 
  900000   0.52674938   -6.3178073   -6.3178073    -5.527685   -0.1715622   -6.3178073   0.79012227   439061 
  901000   0.52669744   -6.3183211   -6.3183211   -5.5282767   -0.1686852   -6.3183211   0.79004436   439061 
  902000   0.52680896   -6.3202455   -6.3202455   -5.5300339  -0.17682651   -6.3202455   0.79021164   439061 
  903000   0.52558531   -6.3199005   -6.3199005   -5.5315243  -0.17523652   -6.3199005   0.78837617   439061 
  904000   0.52525744   -6.3200745   -6.3200745   -5.5321901  -0.17487446   -6.3200745   0.78788437   439061 
  905000   0.52557048   -6.3209893   -6.3209893   -5.5326354  -0.17015478   -6.3209893   0.78835392   439061 
  906000   0.52537639   -6.3215518   -6.3215518    -5.533489  -0.17359678   -6.3215518   0.78806279   439061 
  907000   0.52538636   -6.3234785   -6.3234785   -5.5354007  -0.17674937   -6.3234785   0.78807774   439061 
  908000    0.5246322    -6.323072    -6.323072   -5.5361255  -0.17513937    -6.323072   0.78694651   439061 
  909000   0.52572644   -6.3249956   -6.3249956   -5.5364078  -0.17640263   -6.3249956   0.78858786   439061 
  910000   0.52418058   -6.3237811   -6.3237811   -5.5375121  -0.17623107   -6.3237811   0.78626908   439061 
  911000   0.52411209   -6.3247187   -6.3247187   -5.5385524  -0.17834665   -6.3247187   0.78616635   439061 
  912000   0.52356127   -6.3242924   -6.3242924   -5.5389523  -0.17447129   -6.3242924   0.78534012   439061 
  913000   0.52386605   -6.3255373   -6.3255373     -5.53974  -0.17724485   -6.3255373   0.78579729   439061 
  914000   0.52370866   -6.3258801   -6.3258801   -5.5403189  -0.17919689   -6.3258801    0.7855612   439061 
  915000   0.52361919   -6.3268945   -6.3268945   -5.5414675  -0.17782987   -6.3268945   0.78542699   439061 
  916000   0.52359249   -6.3275734   -6.3275734   -5.5421864  -0.17717099   -6.3275734   0.78538694   439061 
  917000   0.52324002   -6.3276409   -6.3276409   -5.5427826  -0.17718059   -6.3276409   0.78485824   439061 
  918000   0.52296618   -6.3287161   -6.3287161   -5.5442686  -0.17997685   -6.3287161   0.78444748   439061 
  919000    0.5218208     -6.32799     -6.32799   -5.5452606  -0.17980185     -6.32799   0.78272941   439061 
  920000   0.52321448   -6.3310667   -6.3310667   -5.5462468  -0.18128602   -6.3310667   0.78481993   439061 
  921000   0.52279155   -6.3307511   -6.3307511   -5.5465655  -0.17964788   -6.3307511   0.78418553   439061 
  922000   0.52142566    -6.330507    -6.330507   -5.5483703  -0.18190133    -6.330507   0.78213671   439061 
  923000   0.52170911   -6.3316632   -6.3316632   -5.5491013  -0.18392332   -6.3316632   0.78256188   439061 
  924000   0.52054935   -6.3306765   -6.3306765   -5.5498543   -0.1818595   -6.3306765   0.78082224   439061 
  925000   0.52148279   -6.3330379   -6.3330379   -5.5508155  -0.18477343   -6.3330379    0.7822224   439061 
  926000   0.52042527   -6.3330891   -6.3330891    -5.552453   -0.1818688   -6.3330891   0.78063613   439061 
  927000   0.52096936   -6.3332045   -6.3332045   -5.5517522   -0.1790842   -6.3332045   0.78145227   439061 
  928000   0.52054745   -6.3341451   -6.3341451   -5.5533257  -0.18401505   -6.3341451    0.7808194   439061 
  929000   0.51998718    -6.333298    -6.333298    -5.553319  -0.18287339    -6.333298     0.779979   439061 
  930000   0.51963606   -6.3333026   -6.3333026   -5.5538503  -0.18480809   -6.3333026   0.77945231   439061 
  931000   0.51998964    -6.334342    -6.334342   -5.5543593  -0.18547543    -6.334342   0.77998268   439061 
  932000   0.52093574   -6.3362394   -6.3362394   -5.5548375  -0.18747276   -6.3362394   0.78140182   439061 
  933000    0.5200703   -6.3358614   -6.3358614   -5.5557578  -0.18502686   -6.3358614   0.78010367   439061 
  934000    0.5204875   -6.3369176   -6.3369176   -5.5561881   -0.1872458   -6.3369176   0.78072947   439061 
  935000   0.51934826   -6.3368639   -6.3368639   -5.5578433  -0.18638918   -6.3368639   0.77902061   439061 
  936000   0.51973673   -6.3379377   -6.3379377   -5.5583344   -0.1878015   -6.3379377   0.77960331   439061 
  937000   0.51876801   -6.3374173   -6.3374173   -5.5592671  -0.18646809   -6.3374173   0.77815024   439061 
  938000   0.51904701   -6.3379694   -6.3379694   -5.5594006  -0.18535682   -6.3379694   0.77856875   439061 
  939000   0.51876203   -6.3380803   -6.3380803    -5.559939  -0.18310185   -6.3380803   0.77814128   439061 
  940000    0.5189391   -6.3394176   -6.3394176   -5.5610107  -0.18882132   -6.3394176   0.77840688   439061 
  941000   0.51922897     -6.34037     -6.34037   -5.5615283  -0.18732341     -6.34037   0.77884168   439061 
  942000   0.51862023   -6.3405088   -6.3405088   -5.5625802  -0.18887533   -6.3405088   0.77792857   439061 
  943000   0.51717752   -6.3391891   -6.3391891   -5.5634246  -0.18428718   -6.3391891   0.77576451   439061 
  944000    0.5179983   -6.3409821   -6.3409821   -5.5639864  -0.18835929   -6.3409821   0.77699568   439061 
  945000   0.51727812   -6.3403676   -6.3403676   -5.5644522  -0.18740969   -6.3403676   0.77591541   439061 
  946000   0.51725916   -6.3411517   -6.3411517   -5.5652648  -0.18527695   -6.3411517   0.77588698   439061 
  947000    0.5177265   -6.3433058   -6.3433058   -5.5667179  -0.19215834   -6.3433058   0.77658798   439061 
  948000   0.51804927   -6.3435605   -6.3435605   -5.5664883  -0.19020592   -6.3435605   0.77707214   439061 
  949000   0.51700875   -6.3435119   -6.3435119   -5.5680005  -0.19158652   -6.3435119   0.77551136   439061 
  950000   0.51648592   -6.3439906   -6.3439906   -5.5692635  -0.18922901   -6.3439906   0.77472712   439061 
  951000   0.51654864   -6.3443806   -6.3443806   -5.5695594  -0.19019933   -6.3443806    0.7748212   439061 
  952000   0.51637073   -6.3454507   -6.3454507   -5.5708963  -0.19142162   -6.3454507   0.77455433   439061 
  953000   0.51607929   -6.3449762   -6.3449762    -5.570859   -0.1886032   -6.3449762   0.77411717   439061 
  954000   0.51599439   -6.3458324   -6.3458324   -5.5718426  -0.19151244   -6.3458324   0.77398982   439061 
  955000   0.51592296   -6.3469713   -6.3469713   -5.5730886  -0.19508526   -6.3469713   0.77388267   439061 
  956000    0.5156573   -6.3471145   -6.3471145   -5.5736303  -0.19565293   -6.3471145   0.77348418   439061 
  957000   0.51515026   -6.3471152   -6.3471152   -5.5743916   -0.1937583   -6.3471152   0.77272362   439061 
  958000   0.51493059   -6.3470806   -6.3470806   -5.5746865  -0.19107591   -6.3470806   0.77239412   439061 
  959000   0.51525279    -6.347422    -6.347422   -5.5745446  -0.19384588    -6.347422   0.77287742   439061 
  960000   0.51482072   -6.3475417   -6.3475417   -5.5753124  -0.19427729   -6.3475417   0.77222933   439061 
  961000    0.5148101   -6.3491258   -6.3491258   -5.5769124  -0.19867667   -6.3491258   0.77221339   439061 
  962000   0.51433879   -6.3483944   -6.3483944    -5.576888  -0.19125886   -6.3483944   0.77150643   439061 
  963000   0.51426623   -6.3486404   -6.3486404   -5.5772428  -0.19211004   -6.3486404   0.77139759   439061 
  964000   0.51450178   -6.3501884   -6.3501884   -5.5784375  -0.19350063   -6.3501884   0.77175092   439061 
  965000   0.51411025   -6.3493081   -6.3493081   -5.5781444  -0.19406818   -6.3493081   0.77116362   439061 
  966000   0.51473538   -6.3506307   -6.3506307   -5.5785294   -0.1982428   -6.3506307   0.77210131   439061 
  967000   0.51489268   -6.3507359   -6.3507359   -5.5783987  -0.19687116   -6.3507359   0.77233725   439061 
  968000   0.51445149   -6.3509633   -6.3509633   -5.5792878  -0.19518442   -6.3509633   0.77167547   439061 
  969000   0.51348808   -6.3508383   -6.3508383   -5.5806079  -0.19357947   -6.3508383   0.77023036   439061 
  970000   0.51334628   -6.3514977   -6.3514977   -5.5814801  -0.19192024   -6.3514977   0.77001767   439061 
  971000   0.51364885   -6.3529467   -6.3529467   -5.5824752  -0.19883957   -6.3529467   0.77047153   439061 
  972000   0.51269227   -6.3525412   -6.3525412   -5.5835045  -0.19382306   -6.3525412   0.76903665   439061 
  973000   0.51275183   -6.3520119   -6.3520119   -5.5828859  -0.19847774   -6.3520119     0.769126   439061 
  974000   0.51268685   -6.3522165   -6.3522165   -5.5831879  -0.19660532   -6.3522165   0.76902852   439061 
  975000   0.51304258    -6.352112    -6.352112   -5.5825499  -0.19772091    -6.352112   0.76956212   439061 
  976000   0.51367129   -6.3538907   -6.3538907   -5.5833855   -0.1966529   -6.3538907   0.77050518   439061 
  977000   0.51277791   -6.3533282   -6.3533282   -5.5841631  -0.19830261   -6.3533282   0.76916512   439061 
  978000   0.51366124   -6.3548647   -6.3548647   -5.5843746  -0.19803937   -6.3548647    0.7704901   439061 
  979000   0.51245934   -6.3538134   -6.3538134   -5.5851261  -0.19762096   -6.3538134   0.76868726   439061 
  980000   0.51184354   -6.3545008   -6.3545008   -5.5867373  -0.20123146   -6.3545008   0.76776355   439061 
  981000   0.51248725   -6.3560033   -6.3560033   -5.5872742  -0.20041867   -6.3560033   0.76872913   439061 
  982000   0.51161842   -6.3542209   -6.3542209    -5.586795  -0.19571337   -6.3542209   0.76742589   439061 
  983000   0.51291079   -6.3571705   -6.3571705    -5.587806  -0.19671034   -6.3571705   0.76936444   439061 
  984000   0.51222693   -6.3565092   -6.3565092   -5.5881706   -0.2014425   -6.3565092   0.76833864   439061 
  985000   0.51224535    -6.357029    -6.357029   -5.5886628    -0.200534    -6.357029   0.76836627   439061 
  986000   0.51161813   -6.3561746   -6.3561746   -5.5887491  -0.19888162   -6.3561746   0.76742544   439061 
  987000   0.51170668   -6.3561795   -6.3561795   -5.5886212  -0.19745087   -6.3561795   0.76755827   439061 
  988000   0.51164834   -6.3571082   -6.3571082   -5.5896374  -0.20203264   -6.3571082   0.76747076   439061 
  989000   0.51226796    -6.357098    -6.357098   -5.5886978  -0.19940264    -6.357098   0.76840019   439061 
  990000   0.51241468   -6.3581166   -6.3581166   -5.5894963  -0.19622395   -6.3581166   0.76862027   439061 
  991000   0.51156222   -6.3573273   -6.3573273   -5.5899857  -0.20045542   -6.3573273   0.76734158   439061 
  992000   0.51158383   -6.3577767   -6.3577767   -5.5904028   -0.1988188   -6.3577767     0.767374   439061 
  993000    0.5106577   -6.3574632   -6.3574632   -5.5914783  -0.20187299   -6.3574632   0.76598481   439061 
  994000   0.51104814   -6.3591585   -6.3591585   -5.5925881  -0.20216734   -6.3591585   0.76657046   439061 
  995000   0.51117954   -6.3597732   -6.3597732   -5.5930056  -0.20221494   -6.3597732   0.76676757   439061 
  996000   0.51063419   -6.3592327   -6.3592327   -5.5932831  -0.19931185   -6.3592327   0.76594954   439061 
  997000   0.51086179   -6.3602894   -6.3602894   -5.5939985   -0.2020246   -6.3602894   0.76629095   439061 
  998000   0.51076914   -6.3602886   -6.3602886   -5.5941366  -0.20404843   -6.3602886   0.76615197   439061 
  999000   0.51026036   -6.3597981   -6.3597981   -5.5944093  -0.20518837   -6.3597981   0.76538879   439061 
 1000000    0.5095967   -6.3595979   -6.3595979   -5.5952046  -0.20340618   -6.3595979   0.76439331   439061 
 1001000   0.51041966   -6.3610999   -6.3610999   -5.5954722  -0.20460516   -6.3610999   0.76562774   439061 
 1002000   0.50943631   -6.3602923   -6.3602923   -5.5961396  -0.20027706   -6.3602923   0.76415272   439061 
 1003000   0.50993224   -6.3608127   -6.3608127   -5.5959161   -0.2006154   -6.3608127   0.76489661   439061 
 1004000   0.51073265   -6.3615953   -6.3615953   -5.5954981  -0.20021566   -6.3615953   0.76609723   439061 
 1005000   0.51033728    -6.361284    -6.361284   -5.5957799  -0.20341078    -6.361284   0.76550417   439061 
 1006000   0.50942085   -6.3609319   -6.3609319   -5.5968024  -0.20650015   -6.3609319   0.76412953   439061 
 1007000   0.51015423   -6.3613766   -6.3613766    -5.596147   -0.2079661   -6.3613766    0.7652296   439061 
 1008000   0.50998372   -6.3619397   -6.3619397   -5.5969659  -0.20374538   -6.3619397   0.76497383   439061 
 1009000   0.50986511   -6.3623229   -6.3623229    -5.597527  -0.19862204   -6.3623229   0.76479592   439061 
 1010000   0.50987765   -6.3626532   -6.3626532   -5.5978385  -0.20002911   -6.3626532   0.76481473   439061 
 1011000   0.50925092   -6.3626829   -6.3626829   -5.5988082  -0.20299435   -6.3626829   0.76387465   439061 
 1012000   0.50902243   -6.3630745   -6.3630745   -5.5995426  -0.20502281   -6.3630745   0.76353191   439061 
 1013000   0.50892386    -6.362439    -6.362439    -5.599055  -0.20536291    -6.362439   0.76338405   439061 
 1014000   0.50948566   -6.3629733   -6.3629733   -5.5987466   -0.2024066   -6.3629733   0.76422675   439061 
 1015000   0.50861812   -6.3621218   -6.3621218   -5.5991964  -0.20399477   -6.3621218   0.76292544   439061 
 1016000   0.50836143   -6.3629961   -6.3629961   -5.6004557  -0.20212623   -6.3629961   0.76254041   439061 
 1017000   0.50913172   -6.3643865   -6.3643865   -5.6006906  -0.20692942   -6.3643865   0.76369585   439061 
 1018000   0.50837417   -6.3642595   -6.3642595      -5.6017  -0.20188542   -6.3642595   0.76255951   439061 
 1019000   0.50854293   -6.3639415   -6.3639415   -5.6011288  -0.20489275   -6.3639415   0.76281265   439061 
 1020000   0.50901584    -6.363399    -6.363399   -5.5998769  -0.20406693    -6.363399   0.76352202   439061 
 1021000   0.50873582   -6.3631541   -6.3631541   -5.6000521  -0.20670068   -6.3631541   0.76310199   439061 
 1022000   0.50949473   -6.3650611   -6.3650611   -5.6008207  -0.20954176   -6.3650611   0.76424036   439061 
 1023000   0.50893382   -6.3649648   -6.3649648   -5.6015658  -0.20820293   -6.3649648   0.76339899   439061 
 1024000   0.50941363   -6.3656826   -6.3656826   -5.6015639  -0.20741397   -6.3656826    0.7641187   439061 
 1025000   0.50823107   -6.3645409   -6.3645409   -5.6021961  -0.20420428   -6.3645409   0.76234487   439061 
 1026000   0.50837331   -6.3651332   -6.3651332    -5.602575  -0.20644598   -6.3651332   0.76255823   439061 
 1027000   0.50779754   -6.3653209   -6.3653209   -5.6036264  -0.20897013   -6.3653209   0.76169458   439061 
 1028000    0.5079103   -6.3655496   -6.3655496   -5.6036859  -0.20878682   -6.3655496   0.76186371   439061 
 1029000    0.5078731    -6.365579    -6.365579   -5.6037711  -0.20765488    -6.365579   0.76180791   439061 
 1030000   0.50818712   -6.3671558   -6.3671558   -5.6048769  -0.21004066   -6.3671558   0.76227895   439061 
 1031000   0.50740695   -6.3654544   -6.3654544   -5.6043457   -0.2037545   -6.3654544   0.76110869   439061 
 1032000   0.50772319   -6.3664074   -6.3664074   -5.6048243   -0.2047096   -6.3664074   0.76158305   439061 
 1033000   0.50722179   -6.3659612   -6.3659612   -5.6051303   -0.2052464   -6.3659612   0.76083096   439061 
 1034000   0.50736141   -6.3662928   -6.3662928   -5.6052525  -0.21092647   -6.3662928   0.76104038   439061 
 1035000   0.50736585   -6.3662102   -6.3662102   -5.6051631  -0.21139189   -6.3662102   0.76104705   439061 
 1036000   0.50677488   -6.3658276   -6.3658276    -5.605667  -0.20460269   -6.3658276   0.76016058   439061 
 1037000   0.50722648   -6.3674988   -6.3674988   -5.6066608  -0.20888246   -6.3674988   0.76083799   439061 
 1038000   0.50747754   -6.3673301   -6.3673301   -5.6061156  -0.20604667   -6.3673301   0.76121457   439061 
 1039000   0.50750693    -6.367973    -6.367973   -5.6067143  -0.20436614    -6.367973   0.76125867   439061 
 1040000   0.50717388   -6.3677972   -6.3677972   -5.6070381  -0.20773632   -6.3677972   0.76075908   439061 
 1041000   0.50743326   -6.3687056   -6.3687056   -5.6075574  -0.20870555   -6.3687056   0.76114815   439061 
 1042000    0.5077514   -6.3686283   -6.3686283   -5.6070029  -0.21127855   -6.3686283   0.76162536   439061 
 1043000   0.50710319   -6.3682278   -6.3682278   -5.6075747  -0.20956175   -6.3682278   0.76065305   439061 
 1044000   0.50671676   -6.3684315   -6.3684315   -5.6083581  -0.20905901   -6.3684315   0.76007341   439061 
 1045000   0.50728029   -6.3699389   -6.3699389   -5.6090202  -0.21042578   -6.3699389    0.7609187   439061 
 1046000   0.50621376   -6.3689831   -6.3689831   -5.6096642  -0.20551931   -6.3689831   0.75931891   439061 
 1047000   0.50640766   -6.3696457   -6.3696457    -5.610036  -0.20789526   -6.3696457   0.75960976   439061 
 1048000   0.50631582   -6.3700523   -6.3700523   -5.6105803  -0.21336147   -6.3700523     0.759472   439061 
 1049000   0.50595416    -6.370275    -6.370275   -5.6113455   -0.2128301    -6.370275   0.75892952   439061 
 1050000   0.50587692   -6.3690863   -6.3690863   -5.6102726  -0.21084247   -6.3690863   0.75881365   439061 
 1051000   0.50639257   -6.3690037   -6.3690037   -5.6094165  -0.20551481   -6.3690037   0.75958713   439061 
 1052000   0.50647525   -6.3692686   -6.3692686   -5.6095575  -0.20797317   -6.3692686   0.75971114   439061 
 1053000   0.50561732   -6.3686531   -6.3686531   -5.6102289  -0.20729808   -6.3686531   0.75842425   439061 
 1054000   0.50539933   -6.3687632   -6.3687632   -5.6106659  -0.21053623   -6.3687632   0.75809727   439061 
 1055000    0.5060369   -6.3694238   -6.3694238   -5.6103702  -0.21121694   -6.3694238   0.75905362   439061 
 1056000   0.50623291   -6.3695569   -6.3695569   -5.6102093  -0.21008913   -6.3695569   0.75934764   439061 
 1057000   0.50562812   -6.3696795   -6.3696795   -5.6112391   -0.2070379   -6.3696795   0.75844046   439061 
 1058000    0.5059201   -6.3707467   -6.3707467   -5.6118683  -0.21239564   -6.3707467   0.75887842   439061 
 1059000   0.50617626   -6.3708587   -6.3708587    -5.611596  -0.20938184   -6.3708587   0.75926267   439061 
 1060000   0.50587489   -6.3704479   -6.3704479   -5.6116373  -0.20787235   -6.3704479   0.75881061   439061 
 1061000    0.5060764   -6.3706815   -6.3706815   -5.6115687  -0.20755357   -6.3706815   0.75911287   439061 
 1062000   0.50576137   -6.3703761   -6.3703761   -5.6117358  -0.20971708   -6.3703761   0.75864033   439061 
 1063000   0.50559186   -6.3708101   -6.3708101    -5.612424  -0.21091705   -6.3708101   0.75838607   439061 
 1064000   0.50576572   -6.3703723   -6.3703723   -5.6117255  -0.21165965   -6.3703723   0.75864686   439061 
 1065000   0.50539317   -6.3704262   -6.3704262   -5.6123381  -0.20890852   -6.3704262   0.75808803   439061 
 1066000   0.50618867   -6.3714902   -6.3714902   -5.6122089   -0.2069497   -6.3714902   0.75928127   439061 
 1067000    0.5059783   -6.3705835   -6.3705835   -5.6116177  -0.20736074   -6.3705835   0.75896572   439061 
 1068000   0.50619752   -6.3704925   -6.3704925   -5.6111979  -0.21054112   -6.3704925   0.75929455   439061 
 1069000   0.50593747   -6.3708594   -6.3708594   -5.6119549  -0.21630348   -6.3708594   0.75890447   439061 
 1070000   0.50682622   -6.3719055   -6.3719055   -5.6116679  -0.21480411   -6.3719055   0.76023759   439061 
 1071000   0.50589362   -6.3704121   -6.3704121   -5.6115734  -0.20678016   -6.3704121   0.75883871   439061 
 1072000   0.50581651   -6.3716659   -6.3716659   -5.6129429  -0.20728761   -6.3716659   0.75872304   439061 
 1073000   0.50597732   -6.3715454   -6.3715454   -5.6125811   -0.2072242   -6.3715454   0.75896425   439061 
 1074000   0.50602721    -6.372654    -6.372654    -5.613615  -0.21464694    -6.372654   0.75903908   439061 
 1075000   0.50524708   -6.3715802   -6.3715802   -5.6137113  -0.21196778   -6.3715802   0.75786889   439061 
 1076000   0.50491522    -6.371756    -6.371756   -5.6143849  -0.21671114    -6.371756   0.75737111   439061 
 1077000   0.50600439    -6.373028    -6.373028   -5.6140232  -0.20810486    -6.373028   0.75900485   439061 
 1078000   0.50597021   -6.3730631   -6.3730631   -5.6141095  -0.20870254   -6.3730631   0.75895358   439061 
 1079000   0.50608109   -6.3726966   -6.3726966   -5.6135767  -0.20593354   -6.3726966    0.7591199   439061 
 1080000   0.50624505   -6.3721667   -6.3721667   -5.6128009  -0.21407547   -6.3721667   0.75936585   439061 
 1081000   0.50589308   -6.3717125   -6.3717125   -5.6128746  -0.21578122   -6.3717125   0.75883789   439061 
 1082000   0.50522409   -6.3709237   -6.3709237   -5.6130893  -0.21522122   -6.3709237   0.75783441   439061 
 1083000   0.50591045   -6.3716054   -6.3716054   -5.6127415  -0.20874706   -6.3716054   0.75886395   439061 
 1084000   0.50617082   -6.3731127   -6.3731127   -5.6138582  -0.20905489   -6.3731127    0.7592545   439061 
 1085000   0.50613734   -6.3734125   -6.3734125   -5.6142082  -0.20649207   -6.3734125   0.75920428   439061 
 1086000    0.5049144   -6.3727374   -6.3727374   -5.6153675  -0.20918795   -6.3727374   0.75736988   439061 
 1087000   0.50439465   -6.3721262   -6.3721262    -5.615536  -0.21199642   -6.3721262   0.75659025   439061 
 1088000   0.50520048   -6.3727336   -6.3727336   -5.6149346  -0.21198881   -6.3727336     0.757799   439061 
 1089000    0.5044943   -6.3713613   -6.3713613   -5.6146216  -0.21093044   -6.3713613   0.75673973   439061 
 1090000   0.50556112   -6.3746324   -6.3746324   -5.6162924  -0.21265503   -6.3746324   0.75833996   439061 
 1091000   0.50463232   -6.3733382   -6.3733382   -5.6163914  -0.20975097   -6.3733382   0.75694676   439061 
 1092000    0.5052985   -6.3745325   -6.3745325   -5.6165865  -0.20871941   -6.3745325   0.75794602   439061 
 1093000   0.50489142   -6.3734555   -6.3734555   -5.6161201  -0.21252653   -6.3734555   0.75733541   439061 
 1094000   0.50473065    -6.373882    -6.373882   -5.6167877  -0.21381576    -6.373882   0.75709424   439061 
 1095000   0.50470871   -6.3737275   -6.3737275   -5.6166661  -0.21958789   -6.3737275   0.75706134   439061 
 1096000   0.50471277   -6.3740519   -6.3740519   -5.6169844  -0.21197299   -6.3740519   0.75706743   439061 
 1097000   0.50492779   -6.3751822   -6.3751822   -5.6177922   -0.2123957   -6.3751822   0.75738996   439061 
 1098000    0.5041865   -6.3741534   -6.3741534   -5.6178754  -0.20604102   -6.3741534   0.75627803   439061 
 1099000   0.50421763    -6.374741    -6.374741   -5.6184163  -0.21275688    -6.374741   0.75632472   439061 
 1100000   0.50362928   -6.3743409   -6.3743409   -5.6188987  -0.21439868   -6.3743409   0.75544219   439061 
 1101000   0.50470776   -6.3746383   -6.3746383   -5.6175784   -0.2176655   -6.3746383   0.75705992   439061 
 1102000   0.50431278   -6.3748786   -6.3748786   -5.6184112  -0.21809592   -6.3748786   0.75646745   439061 
 1103000   0.50550238   -6.3758124   -6.3758124   -5.6175606   -0.2112933   -6.3758124   0.75825184   439061 
 1104000   0.50493787   -6.3750152   -6.3750152   -5.6176101  -0.20928072   -6.3750152   0.75740508   439061 
 1105000   0.50419533   -6.3745567   -6.3745567   -5.6182654   -0.2074098   -6.3745567   0.75629128   439061 
 1106000   0.50353184   -6.3753533   -6.3753533   -5.6200573  -0.21333073   -6.3753533   0.75529604   439061 
 1107000   0.50364201   -6.3753792   -6.3753792   -5.6199179  -0.21552188   -6.3753792    0.7554613   439061 
 1108000   0.50406226   -6.3759941   -6.3759941   -5.6199024  -0.21871776   -6.3759941   0.75609166   439061 
 1109000   0.50387843   -6.3762649   -6.3762649    -5.620449  -0.21241103   -6.3762649   0.75581592   439061 
 1110000    0.5044083   -6.3764049   -6.3764049   -5.6197941  -0.21124229   -6.3764049   0.75661073   439061 
 1111000   0.50408934   -6.3762464   -6.3762464   -5.6201141  -0.20791858   -6.3762464   0.75613228   439061 
 1112000   0.50417507   -6.3771799   -6.3771799    -5.620919  -0.21474219   -6.3771799   0.75626089   439061 
 1113000   0.50349497   -6.3773367   -6.3773367   -5.6220959  -0.21876004   -6.3773367   0.75524073   439061 
 1114000   0.50313914   -6.3768598   -6.3768598   -5.6221528  -0.21650212   -6.3768598     0.754707   439061 
 1115000   0.50380629     -6.37779     -6.37779   -5.6220823  -0.21629531     -6.37779   0.75570772   439061 
 1116000   0.50418884   -6.3783083   -6.3783083   -5.6220267  -0.21502025   -6.3783083   0.75628154   439061 
 1117000   0.50452844   -6.3792945   -6.3792945   -5.6225036  -0.21478518   -6.3792945   0.75679094   439061 
 1118000    0.5026886   -6.3769755   -6.3769755   -5.6229443  -0.21260516   -6.3769755   0.75403118   439061 
 1119000    0.5033232   -6.3780558   -6.3780558   -5.6230727  -0.21551381   -6.3780558   0.75498308   439061 
 1120000   0.50398993   -6.3778367   -6.3778367   -5.6218536  -0.21534931   -6.3778367   0.75598318   439061 
 1121000   0.50228444      -6.3757      -6.3757    -5.622275  -0.21265483      -6.3757   0.75342495   439061 
 1122000    0.5030279   -6.3775153   -6.3775153   -5.6229752  -0.21495657   -6.3775153   0.75454012   439061 
 1123000   0.50332715   -6.3787385   -6.3787385   -5.6237495  -0.21547822   -6.3787385     0.754989   439061 
 1124000   0.50369735   -6.3798887   -6.3798887   -5.6243444  -0.21563786   -6.3798887    0.7555443   439061 
 1125000   0.50373806   -6.3797245   -6.3797245   -5.6241192  -0.21392283   -6.3797245   0.75560537   439061 
 1126000   0.50322481   -6.3782023   -6.3782023   -5.6233668  -0.21492452   -6.3782023    0.7548355   439061 
 1127000   0.50258754    -6.376536    -6.376536   -5.6226564  -0.21428944    -6.376536    0.7538796   439061 
 1128000   0.50286757   -6.3770291   -6.3770291   -5.6227295  -0.21720136   -6.3770291   0.75429963   439061 
 1129000    0.5031755   -6.3785133   -6.3785133   -5.6237518  -0.21760543   -6.3785133   0.75476153   439061 
 1130000   0.50345982   -6.3790865   -6.3790865   -5.6238985  -0.21396138   -6.3790865     0.755188   439061 
 1131000   0.50328976   -6.3783545   -6.3783545   -5.6234216  -0.21093672   -6.3783545   0.75493291   439061 
 1132000   0.50355037   -6.3783934   -6.3783934   -5.6230696  -0.21220609   -6.3783934   0.75532384   439061 
 1133000   0.50390356   -6.3799995   -6.3799995   -5.6241459  -0.21791075   -6.3799995   0.75585361   439061 
 1134000   0.50319503   -6.3784963   -6.3784963   -5.6237054  -0.22038131   -6.3784963   0.75479083   439061 
 1135000   0.50376159   -6.3787718   -6.3787718   -5.6231311  -0.21406175   -6.3787718   0.75564066   439061 
 1136000   0.50219466   -6.3777097   -6.3777097   -5.6244194  -0.21508664   -6.3777097   0.75329028   439061 
 1137000   0.50265725   -6.3781518   -6.3781518   -5.6241676  -0.21226792   -6.3781518   0.75398415   439061 
 1138000   0.50209088   -6.3785371   -6.3785371   -5.6254025  -0.21095859   -6.3785371    0.7531346   439061 
 1139000   0.50343002   -6.3799899   -6.3799899   -5.6248466  -0.21252742   -6.3799899    0.7551433   439061 
 1140000   0.50323459   -6.3788815   -6.3788815   -5.6240314  -0.22011185   -6.3788815   0.75485016   439061 
 1141000   0.50307138   -6.3788349   -6.3788349   -5.6242295  -0.21647944   -6.3788349   0.75460535   439061 
 1142000   0.50208839   -6.3768658   -6.3768658    -5.623735  -0.21584165   -6.3768658   0.75313087   439061 
 1143000   0.50178014   -6.3775417   -6.3775417   -5.6248732  -0.21563463   -6.3775417    0.7526685   439061 
 1144000   0.50304443   -6.3794506   -6.3794506   -5.6248856  -0.21616061   -6.3794506   0.75456493   439061 
 1145000    0.5025994    -6.379211    -6.379211   -5.6253136  -0.21352572    -6.379211   0.75389739   439061 
 1146000   0.50276269   -6.3795381   -6.3795381   -5.6253958  -0.21501961   -6.3795381   0.75414232   439061 
 1147000   0.50320437   -6.3783234   -6.3783234   -5.6235185  -0.21112996   -6.3783234   0.75480483   439061 
 1148000   0.50268591   -6.3786345   -6.3786345   -5.6246074  -0.22044875   -6.3786345   0.75402715   439061 
 1149000   0.50297854   -6.3794596   -6.3794596   -5.6249935  -0.21921896   -6.3794596   0.75446609   439061 
 1150000   0.50276703   -6.3784144   -6.3784144   -5.6242656  -0.21566807   -6.3784144   0.75414883   439061 
 1151000   0.50282159    -6.378933    -6.378933   -5.6247023  -0.21111792    -6.378933   0.75423066   439061 
 1152000   0.50292605   -6.3804534   -6.3804534   -5.6260661  -0.21561204   -6.3804534   0.75438736   439061 
 1153000   0.50195021   -6.3790617   -6.3790617   -5.6261381  -0.21362053   -6.3790617   0.75292361   439061 
 1154000   0.50119378   -6.3784874   -6.3784874   -5.6266984  -0.21525681   -6.3784874   0.75178896   439061 
 1155000   0.50227145   -6.3791401   -6.3791401   -5.6257346  -0.21728554   -6.3791401   0.75340546   439061 
 1156000   0.50254923   -6.3795269   -6.3795269   -5.6257048  -0.21724366   -6.3795269   0.75382213   439061 
 1157000   0.50207036   -6.3791518   -6.3791518    -5.626048  -0.21440106   -6.3791518   0.75310383   439061 
 1158000   0.50227095   -6.3800535   -6.3800535   -5.6266488  -0.21436911   -6.3800535   0.75340471   439061 
 1159000   0.50228143   -6.3799029   -6.3799029   -5.6264825  -0.21409153   -6.3799029   0.75342043   439061 
 1160000   0.50325889   -6.3822287   -6.3822287   -5.6273421  -0.21852857   -6.3822287   0.75488662   439061 
 1161000   0.50145681   -6.3797915   -6.3797915    -5.627608   -0.2187893   -6.3797915    0.7521835   439061 
 1162000    0.5013359   -6.3797938   -6.3797938   -5.6277916  -0.21472413   -6.3797938   0.75200214   439061 
 1163000   0.50158053   -6.3806452   -6.3806452   -5.6282761  -0.21845998   -6.3806452   0.75236909   439061 
 1164000   0.50212757   -6.3814293   -6.3814293   -5.6282397  -0.21665662   -6.3814293   0.75318964   439061 
 1165000   0.50196484   -6.3809047   -6.3809047   -5.6279591  -0.21630772   -6.3809047   0.75294555   439061 
 1166000   0.50243077   -6.3811333   -6.3811333   -5.6274889  -0.21324999   -6.3811333   0.75364444   439061 
 1167000    0.5015752   -6.3808075   -6.3808075   -5.6284464  -0.21630852   -6.3808075   0.75236108   439061 
 1168000   0.50136815   -6.3801294   -6.3801294   -5.6280789  -0.21671975   -6.3801294   0.75205052   439061 
 1169000   0.50178017   -6.3802779   -6.3802779   -5.6276094  -0.21553883   -6.3802779   0.75266855   439061 
 1170000   0.50252166   -6.3816948   -6.3816948    -5.627914  -0.21772746   -6.3816948   0.75378078   439061 
 1171000   0.50184895   -6.3810556   -6.3810556   -5.6282839  -0.21835366   -6.3810556   0.75277171   439061 
 1172000   0.50118234   -6.3805816   -6.3805816   -5.6288098  -0.21585656   -6.3805816    0.7517718   439061 
 1173000   0.50207332   -6.3816356   -6.3816356   -5.6285274  -0.21655524   -6.3816356   0.75310826   439061 
 1174000   0.50067672   -6.3805771   -6.3805771   -5.6295637  -0.21431752   -6.3805771   0.75101338   439061 
 1175000   0.50084632   -6.3810697   -6.3810697   -5.6298019  -0.21717611   -6.3810697   0.75126777   439061 
 1176000   0.50193131   -6.3827053   -6.3827053     -5.62981  -0.21676773   -6.3827053   0.75289526   439061 
 1177000   0.50172273   -6.3820693   -6.3820693   -5.6294869  -0.21778655   -6.3820693   0.75258239   439061 
 1178000   0.50193639   -6.3822456   -6.3822456   -5.6293428   -0.2150512   -6.3822456   0.75290288   439061 
 1179000   0.50140626   -6.3811598   -6.3811598   -5.6290521   -0.2151232   -6.3811598   0.75210767   439061 
 1180000   0.50129247   -6.3808859   -6.3808859   -5.6289489  -0.21676258   -6.3808859   0.75193699   439061 
 1181000   0.50194647   -6.3821696   -6.3821696   -5.6292516   -0.2216244   -6.3821696   0.75291799   439061 
 1182000   0.50148218   -6.3816306   -6.3816306   -5.6294091  -0.21622735   -6.3816306   0.75222156   439061 
 1183000   0.50117564   -6.3818005   -6.3818005   -5.6300387  -0.21376449   -6.3818005   0.75176175   439061 
 1184000   0.50227105   -6.3831365   -6.3831365   -5.6297316  -0.21478883   -6.3831365   0.75340485   439061 
 1185000   0.50194054   -6.3820674   -6.3820674   -5.6291583  -0.21812946   -6.3820674    0.7529091   439061 
 1186000   0.50084199   -6.3814873   -6.3814873   -5.6302261  -0.22008892   -6.3814873   0.75126127   439061 
 1187000   0.50100519   -6.3807097   -6.3807097   -5.6292037  -0.22045375   -6.3807097   0.75150608   439061 
 1188000   0.50189636    -6.381324    -6.381324   -5.6284812  -0.21949109    -6.381324   0.75284283   439061 
 1189000   0.50176958   -6.3817625   -6.3817625   -5.6291098  -0.21611211   -6.3817625   0.75265265   439061 
 1190000   0.50135642   -6.3827383   -6.3827383   -5.6307054   -0.2175373   -6.3827383   0.75203291   439061 
 1191000    0.5022772   -6.3835989   -6.3835989   -5.6301848  -0.21531849   -6.3835989   0.75341408   439061 
 1192000   0.50222973   -6.3828363   -6.3828363   -5.6294934  -0.21850909   -6.3828363   0.75334288   439061 
 1193000   0.50217584   -6.3823854   -6.3823854   -5.6291233  -0.22081378   -6.3823854   0.75326204   439061 
 1194000   0.50231354   -6.3826449   -6.3826449   -5.6291763  -0.22033018   -6.3826449    0.7534686   439061 
 1195000   0.50145415   -6.3824516   -6.3824516   -5.6302721  -0.21867249   -6.3824516   0.75217951   439061 
 1196000   0.50257932   -6.3837371   -6.3837371   -5.6298698  -0.22024906   -6.3837371   0.75386727   439061 
 1197000   0.50206581   -6.3825994   -6.3825994   -5.6295024  -0.21590853   -6.3825994   0.75309701   439061 
 1198000   0.50229436   -6.3836778   -6.3836778    -5.630238  -0.22063335   -6.3836778   0.75343982   439061 
 1199000   0.50167584   -6.3829971   -6.3829971    -5.630485  -0.21828211   -6.3829971   0.75251205   439061 
 1200000   0.50126263   -6.3823484   -6.3823484   -5.6304562   -0.2197787   -6.3823484   0.75189223   439061 
 1201000   0.50214418   -6.3838256   -6.3838256    -5.630611  -0.22113223   -6.3838256   0.75321455   439061 
 1202000   0.50232953   -6.3841747   -6.3841747   -5.6306821  -0.21908955   -6.3841747   0.75349258   439061 
 1203000   0.50235754     -6.38347     -6.38347   -5.6299354  -0.21592154     -6.38347   0.75353459   439061 
 1204000    0.5015977   -6.3825579   -6.3825579   -5.6301631  -0.21710027   -6.3825579   0.75239483   439061 
 1205000   0.50133115   -6.3818143   -6.3818143   -5.6298193  -0.21595373   -6.3818143   0.75199502   439061 
 1206000   0.50149564   -6.3826105   -6.3826105   -5.6303688  -0.22136976   -6.3826105   0.75224175   439061 
 1207000   0.50193264   -6.3827958   -6.3827958   -5.6298986  -0.21681499   -6.3827958   0.75289725   439061 
 1208000   0.50152511   -6.3833493   -6.3833493   -5.6310634   -0.2196191   -6.3833493   0.75228594   439061 
 1209000   0.50195456   -6.3832961   -6.3832961   -5.6303659  -0.21430671   -6.3832961   0.75293013   439061 
 1210000   0.50258399   -6.3834922   -6.3834922   -5.6296179  -0.21734166   -6.3834922   0.75387427   439061 
 1211000   0.50220419   -6.3839131   -6.3839131   -5.6306085  -0.21931236   -6.3839131   0.75330456   439061 
 1212000   0.50158078   -6.3828379   -6.3828379   -5.6304685  -0.21918201   -6.3828379   0.75236946   439061 
 1213000   0.50181293   -6.3830775   -6.3830775   -5.6303598  -0.21941369   -6.3830775   0.75271768   439061 
 1214000   0.50232435   -6.3838372   -6.3838372   -5.6303524  -0.21752672   -6.3838372    0.7534848   439061 
 1215000   0.50240983   -6.3841968   -6.3841968   -5.6305837  -0.21948162   -6.3841968   0.75361304   439061 
 1216000   0.50164056   -6.3824746   -6.3824746   -5.6300155   -0.2150651   -6.3824746   0.75245912   439061 
 1217000   0.50065813   -6.3824654   -6.3824654   -5.6314799  -0.21624648   -6.3824654   0.75098548   439061 
 1218000   0.50199281    -6.383818    -6.383818   -5.6308305  -0.21913498    -6.383818    0.7529875   439061 
 1219000    0.5014685   -6.3835561   -6.3835561   -5.6313551  -0.21838476   -6.3835561   0.75220103   439061 
 1220000   0.50220379   -6.3839352   -6.3839352   -5.6306312  -0.21659076   -6.3839352   0.75330397   439061 
 1221000   0.50219971   -6.3843803   -6.3843803   -5.6310825  -0.21985341   -6.3843803   0.75329784   439061 
 1222000   0.50198726   -6.3846558   -6.3846558   -5.6316767  -0.22190467   -6.3846558   0.75297917   439061 
 1223000   0.50242531   -6.3847536   -6.3847536   -5.6311174  -0.21864409   -6.3847536   0.75363625   439061 
 1224000   0.50187462   -6.3840674   -6.3840674   -5.6312572  -0.21747572   -6.3840674   0.75281021   439061 
 1225000   0.50166581   -6.3837358   -6.3837358   -5.6312388  -0.21748921   -6.3837358     0.752497   439061 
 1226000   0.50232078   -6.3837913   -6.3837913   -5.6303119   -0.2176214   -6.3837913   0.75347946   439061 
 1227000   0.50162988   -6.3832288   -6.3832288   -5.6307857  -0.21891973   -6.3832288   0.75244311   439061 
 1228000   0.50140938   -6.3833247   -6.3833247   -5.6312124  -0.21910923   -6.3833247   0.75211236   439061 
 1229000   0.50222899   -6.3848997   -6.3848997   -5.6315579  -0.22011077   -6.3848997   0.75334178   439061 
 1230000   0.50106553   -6.3827672   -6.3827672   -5.6311707  -0.21670137   -6.3827672   0.75159658   439061 
 1231000   0.50224717    -6.385032    -6.385032   -5.6316629  -0.21979417    -6.385032   0.75336903   439061 
 1232000   0.50152447   -6.3836016   -6.3836016   -5.6313166  -0.21476187   -6.3836016   0.75228499   439061 
 1233000    0.5006467   -6.3840381   -6.3840381   -5.6330698   -0.2179313   -6.3840381   0.75096834   439061 
 1234000   0.50155804   -6.3853346   -6.3853346   -5.6329993  -0.21895259   -6.3853346   0.75233535   439061 
 1235000   0.50055981   -6.3838714   -6.3838714   -5.6330334  -0.21817774   -6.3838714     0.750838   439061 
 1236000   0.50149364   -6.3847427   -6.3847427   -5.6325039  -0.21789101   -6.3847427   0.75223874   439061 
 1237000   0.50167528   -6.3846698   -6.3846698   -5.6321586  -0.21442658   -6.3846698    0.7525112   439061 
 1238000   0.50132599   -6.3850332   -6.3850332    -5.633046  -0.21923302   -6.3850332   0.75198728   439061 
 1239000   0.50201184   -6.3860534   -6.3860534   -5.6330373  -0.22424556   -6.3860534   0.75301604   439061 
 1240000   0.50082178   -6.3840714   -6.3840714   -5.6328404  -0.21932961   -6.3840714   0.75123096   439061 
 1241000   0.50091646   -6.3844882   -6.3844882   -5.6331152  -0.21860262   -6.3844882   0.75137298   439061 
 1242000   0.50055179   -6.3830627   -6.3830627   -5.6322367  -0.21427093   -6.3830627   0.75082598   439061 
 1243000   0.50142978   -6.3844435   -6.3844435   -5.6323006  -0.21735646   -6.3844435   0.75214295   439061 
 1244000   0.50083349   -6.3841616   -6.3841616    -5.632913  -0.21745405   -6.3841616   0.75124853   439061 
 1245000    0.5012311   -6.3837246   -6.3837246   -5.6318796  -0.21854386   -6.3837246   0.75184494   439061 
 1246000   0.50065106    -6.383917    -6.383917   -5.6329421  -0.21685437    -6.383917   0.75097488   439061 
 1247000   0.50081044   -6.3835071   -6.3835071   -5.6322931  -0.21644736   -6.3835071   0.75121395   439061 
 1248000   0.50176901   -6.3846511   -6.3846511   -5.6319993  -0.21585509   -6.3846511    0.7526518   439061 
 1249000   0.50142711    -6.384532    -6.384532    -5.632393  -0.22043008    -6.384532   0.75213896   439061 
 1250000   0.50094927   -6.3843303   -6.3843303   -5.6329081  -0.21752105   -6.3843303   0.75142219   439061 
 1251000   0.50116219    -6.385397    -6.385397   -5.6336554  -0.22049971    -6.385397   0.75174157   439061 
 1252000   0.50230887   -6.3865925   -6.3865925    -5.633131  -0.22048638   -6.3865925   0.75346159   439061 
 1253000   0.50158865    -6.385736    -6.385736   -5.6333547  -0.21831669    -6.385736   0.75238126   439061 
 1254000   0.50136415   -6.3858013   -6.3858013   -5.6337568  -0.21908306   -6.3858013   0.75204452   439061 
 1255000   0.50143407   -6.3853852   -6.3853852   -5.6332358  -0.21809894   -6.3853852   0.75214939   439061 
 1256000    0.5016839   -6.3860349   -6.3860349   -5.6335107  -0.22349147   -6.3860349   0.75252414   439061 
 1257000   0.50125252   -6.3846503   -6.3846503   -5.6327733  -0.21915471   -6.3846503   0.75187706   439061 
 1258000   0.50181624   -6.3852259   -6.3852259   -5.6325032    -0.221076   -6.3852259   0.75272265   439061 
 1259000   0.50156396   -6.3857363   -6.3857363   -5.6333921  -0.21898141   -6.3857363   0.75234422   439061 
 1260000   0.50136321   -6.3859837   -6.3859837   -5.6339406  -0.21947412   -6.3859837    0.7520431   439061 
 1261000   0.50024882   -6.3844495   -6.3844495    -5.634078   -0.2196687   -6.3844495   0.75037153   439061 
 1262000   0.50109718   -6.3860192   -6.3860192   -5.6343751  -0.22042443   -6.3860192   0.75164405   439061 
 1263000   0.50066415   -6.3859319   -6.3859319   -5.6349374  -0.21997943   -6.3859319   0.75099451   439061 
 1264000   0.50080505   -6.3852841   -6.3852841   -5.6340782  -0.21663747   -6.3852841   0.75120586   439061 
 1265000   0.50115389   -6.3850372   -6.3850372    -5.633308  -0.21785728   -6.3850372   0.75172913   439061 
 1266000   0.50126099   -6.3858009   -6.3858009   -5.6339111  -0.21841458   -6.3858009   0.75188978   439061 
 1267000   0.50091969   -6.3861491   -6.3861491   -5.6347713  -0.22224915   -6.3861491   0.75137782   439061 
 1268000   0.50037063   -6.3861269   -6.3861269   -5.6355727  -0.22298495   -6.3861269   0.75055423   439061 
 1269000   0.50131657   -6.3865024   -6.3865024   -5.6345293  -0.22181983   -6.3865024   0.75197314   439061 
 1270000    0.5007151   -6.3862783   -6.3862783   -5.6352074   -0.2190476   -6.3862783   0.75107094   439061 
 1271000   0.50199095   -6.3871008   -6.3871008   -5.6341161  -0.21875471   -6.3871008   0.75298471   439061 
 1272000   0.50061549   -6.3852779   -6.3852779   -5.6343563  -0.21656776   -6.3852779   0.75092153   439061 
 1273000   0.50012027   -6.3849575   -6.3849575   -5.6347788  -0.22113188   -6.3849575   0.75017869   439061 
 1274000   0.50034663   -6.3861673   -6.3861673   -5.6356491  -0.22324549   -6.3861673   0.75051823   439061 
 1275000   0.50056653   -6.3872034   -6.3872034   -5.6363553  -0.22252704   -6.3872034   0.75084809   439061 
 1276000   0.50141714   -6.3882975   -6.3882975   -5.6361735  -0.21882809   -6.3882975     0.752124   439061 
 1277000   0.50053396   -6.3867057   -6.3867057   -5.6359064  -0.21844255   -6.3867057   0.75079924   439061 
 1278000   0.50071439   -6.3867608   -6.3867608   -5.6356909  -0.22044672   -6.3867608   0.75106987   439061 
 1279000   0.50039812   -6.3864718   -6.3864718   -5.6358764  -0.22152623   -6.3864718   0.75059547   439061 
 1280000   0.50173087   -6.3880717   -6.3880717   -5.6354771  -0.22589964   -6.3880717   0.75259459   439061 
 1281000   0.50103048   -6.3871382   -6.3871382   -5.6355942  -0.22520091   -6.3871382   0.75154401   439061 
 1282000   0.50108454   -6.3867736   -6.3867736   -5.6351485  -0.22289205   -6.3867736   0.75162509   439061 
 1283000   0.50083739    -6.386333    -6.386333   -5.6350787  -0.21881418    -6.386333   0.75125437   439061 
 1284000   0.50072164   -6.3861889   -6.3861889   -5.6351082  -0.21535775   -6.3861889   0.75108075   439061 
 1285000   0.50053112   -6.3864377   -6.3864377   -5.6356427  -0.22111185   -6.3864377   0.75079497   439061 
 1286000   0.50051054   -6.3860482   -6.3860482   -5.6352841   -0.2210717   -6.3860482    0.7507641   439061 
 1287000   0.50136659   -6.3873509   -6.3873509   -5.6353027  -0.22356012   -6.3873509   0.75204818   439061 
 1288000    0.5006507   -6.3864104   -6.3864104    -5.635436  -0.21808179   -6.3864104   0.75097434   439061 
 1289000   0.50164332   -6.3877303   -6.3877303    -5.635267  -0.22050022   -6.3877303   0.75246326   439061 
 1290000    0.4999397   -6.3857281   -6.3857281   -5.6358203  -0.21658897   -6.3857281   0.74990785   439061 
 1291000   0.50074844   -6.3872365   -6.3872365   -5.6361156  -0.22091948   -6.3872365   0.75112095   439061 
 1292000   0.50105183   -6.3876244   -6.3876244   -5.6360484  -0.21905287   -6.3876244   0.75157604   439061 
 1293000   0.50041171   -6.3862542   -6.3862542   -5.6356384  -0.21675973   -6.3862542   0.75061585   439061 
 1294000   0.50047028   -6.3870945   -6.3870945   -5.6363908  -0.21761944   -6.3870945   0.75070371   439061 
 1295000   0.50140674   -6.3879835   -6.3879835   -5.6358751   -0.2206142   -6.3879835    0.7521084   439061 
 1296000   0.50095053   -6.3872254   -6.3872254   -5.6358013  -0.21932169   -6.3872254   0.75142408   439061 
 1297000   0.50105688   -6.3872485   -6.3872485   -5.6356649  -0.21753962   -6.3872485   0.75158361   439061 
 1298000   0.50177418   -6.3885476   -6.3885476   -5.6358881  -0.21827388   -6.3885476   0.75265955   439061 
 1299000   0.50081806   -6.3874277   -6.3874277   -5.6362023  -0.22078574   -6.3874277   0.75122538   439061 
 1300000   0.50109228   -6.3886507   -6.3886507    -5.637014  -0.22026845   -6.3886507    0.7516367   439061 
 1301000   0.49956488   -6.3859532   -6.3859532   -5.6366076  -0.21689757   -6.3859532   0.74934561   439061 
 1302000   0.50031061   -6.3870773   -6.3870773   -5.6366131  -0.21544009   -6.3870773    0.7504642   439061 
 1303000    0.5000802   -6.3868836   -6.3868836    -5.636765  -0.21833256   -6.3868836   0.75011859   439061 
 1304000   0.50095927   -6.3883924   -6.3883924   -5.6369553  -0.21997198   -6.3883924   0.75143719   439061 
 1305000   0.50064919   -6.3882472   -6.3882472   -5.6372751  -0.22142176   -6.3882472   0.75097207   439061 
 1306000   0.50016098   -6.3882708   -6.3882708    -5.638031   -0.2162695   -6.3882708   0.75023976   439061 
 1307000   0.49962326   -6.3879051   -6.3879051    -5.638472  -0.21813361   -6.3879051   0.74943318   439061 
 1308000   0.50072171   -6.3887429   -6.3887429    -5.637662  -0.21546856   -6.3887429   0.75108085   439061 
 1309000   0.50029989   -6.3884003   -6.3884003   -5.6379521  -0.21940274   -6.3884003   0.75044813   439061 
 1310000   0.50050857    -6.388508    -6.388508   -5.6377469  -0.22179944    -6.388508   0.75076114   439061 
 1311000   0.50004484   -6.3868293   -6.3868293   -5.6367638  -0.22005765   -6.3868293   0.75006554   439061 
 1312000   0.50124848   -6.3885874   -6.3885874   -5.6367164  -0.22106619   -6.3885874     0.751871   439061 
 1313000   0.50063165   -6.3885497   -6.3885497    -5.637604  -0.21674381   -6.3885497   0.75094576   439061 
 1314000   0.50083289   -6.3883736   -6.3883736    -5.637126  -0.21757111   -6.3883736   0.75124763   439061 
 1315000   0.50118831   -6.3894498   -6.3894498    -5.637669  -0.21639375   -6.3894498   0.75178076   439061 
 1316000   0.49994698   -6.3873455   -6.3873455   -5.6374267  -0.21795321   -6.3873455   0.74991877   439061 
 1317000   0.50146074    -6.389832    -6.389832   -5.6376425  -0.22259669    -6.389832    0.7521894   439061 
 1318000   0.50096031   -6.3893788   -6.3893788   -5.6379401  -0.22342835   -6.3893788   0.75143875   439061 
 1319000   0.50071445   -6.3887726   -6.3887726   -5.6377026  -0.21641995   -6.3887726   0.75106996   439061 
 1320000   0.50049922   -6.3882058   -6.3882058   -5.6374587  -0.21955582   -6.3882058   0.75074712   439061 
 1321000   0.50167003   -6.3894236   -6.3894236   -5.6369202  -0.21592338   -6.3894236   0.75250333   439061 
 1322000   0.50075254   -6.3885601   -6.3885601    -5.637433  -0.22041717   -6.3885601    0.7511271   439061 
 1323000   0.50041174   -6.3881537   -6.3881537   -5.6375378  -0.21667447   -6.3881537    0.7506159   439061 
 1324000   0.49997536   -6.3891108   -6.3891108   -5.6391495  -0.22326231   -6.3891108   0.74996134   439061 
 1325000   0.49942065   -6.3883052   -6.3883052   -5.6391759  -0.21999441   -6.3883052   0.74912926   439061 
 1326000   0.50014211   -6.3895431   -6.3895431   -5.6393316  -0.21820292   -6.3895431   0.75021146   439061 
 1327000   0.50047362    -6.388909    -6.388909   -5.6382003  -0.21698335    -6.388909   0.75070872   439061 
 1328000   0.50112672    -6.389615    -6.389615   -5.6379267   -0.2179127    -6.389615   0.75168837   439061 
 1329000   0.50133408   -6.3889962   -6.3889962   -5.6369968  -0.22262034   -6.3889962    0.7519994   439061 
 1330000   0.50010197   -6.3882649   -6.3882649   -5.6381136  -0.22136228   -6.3882649   0.75015125   439061 
 1331000   0.50056363   -6.3890401   -6.3890401   -5.6381964   -0.2233835   -6.3890401   0.75084373   439061 
 1332000   0.50121656   -6.3892123   -6.3892123   -5.6373891  -0.21843466   -6.3892123   0.75182312   439061 
 1333000   0.50110189   -6.3901503   -6.3901503   -5.6384992  -0.21939308   -6.3901503   0.75165112   439061 
 1334000   0.50103266   -6.3901446   -6.3901446   -5.6385973  -0.21931144   -6.3901446   0.75154728   439061 
 1335000   0.50167039   -6.3907849   -6.3907849    -5.638281  -0.22152934   -6.3907849   0.75250388   439061 
 1336000   0.50133624   -6.3908084   -6.3908084   -5.6388058  -0.22381747   -6.3908084   0.75200264   439061 
 1337000   0.49965503   -6.3887404   -6.3887404   -5.6392596  -0.22152185   -6.3887404   0.74948083   439061 
 1338000   0.50030281   -6.3885449   -6.3885449   -5.6380924   -0.2203302   -6.3885449   0.75045251   439061 
 1339000   0.50019147   -6.3881026   -6.3881026   -5.6378171   -0.2171219   -6.3881026    0.7502855   439061 
 1340000   0.50065065   -6.3893055   -6.3893055   -5.6383312  -0.21852402   -6.3893055   0.75097427   439061 
 1341000    0.5008805   -6.3892096   -6.3892096   -5.6378905  -0.21593092   -6.3892096   0.75131904   439061 
 1342000   0.50074186   -6.3883351   -6.3883351    -5.637224  -0.21844052   -6.3883351   0.75111108   439061 
 1343000   0.50014948    -6.389392    -6.389392   -5.6391695  -0.22286963    -6.389392   0.75022251   439061 
 1344000   0.50035668   -6.3893272   -6.3893272   -5.6387939  -0.21844813   -6.3893272   0.75053331   439061 
 1345000   0.50103856   -6.3886887   -6.3886887   -5.6371325  -0.21253192   -6.3886887   0.75155613   439061 
 1346000   0.50139277   -6.3901389   -6.3901389   -5.6380515  -0.21832655   -6.3901389   0.75208745   439061 
 1347000   0.50048248    -6.388813    -6.388813    -5.638091  -0.21872636    -6.388813   0.75072201   439061 
 1348000   0.50100597    -6.390116    -6.390116   -5.6386088  -0.22149242    -6.390116   0.75150724   439061 
 1349000   0.50001416   -6.3890016   -6.3890016   -5.6389821  -0.22087418   -6.3890016   0.75001953   439061 
 1350000   0.49999078   -6.3892461   -6.3892461   -5.6392616   -0.2165605   -6.3892461   0.74998446   439061 
 1351000   0.49998976   -6.3898175   -6.3898175   -5.6398346  -0.21694622   -6.3898175   0.74998294   439061 
 1352000   0.50087834   -6.3915032   -6.3915032   -5.6401874  -0.22176562   -6.3915032   0.75131579   439061 
 1353000   0.49986847   -6.3896782   -6.3896782   -5.6398773  -0.21688248   -6.3896782   0.74980099   439061 
 1354000   0.50021985   -6.3901679   -6.3901679   -5.6398398  -0.22112127   -6.3901679   0.75032806   439061 
 1355000   0.49980168   -6.3897583   -6.3897583   -5.6400575   -0.2240051   -6.3897583   0.74970081   439061 
 1356000   0.50011033   -6.3898005   -6.3898005   -5.6396367  -0.22224136   -6.3898005   0.75016378   439061 
 1357000    0.5003387   -6.3908187   -6.3908187   -5.6403124  -0.22144441   -6.3908187   0.75050633   439061 
 1358000   0.49990171   -6.3904092   -6.3904092   -5.6405583  -0.21760006   -6.3904092   0.74985086   439061 
 1359000   0.49982503   -6.3905545   -6.3905545   -5.6408186   -0.2194504   -6.3905545   0.74973584   439061 
 1360000   0.49980138   -6.3897555   -6.3897555   -5.6400552  -0.21584077   -6.3897555   0.74970036   439061 
 1361000   0.50023476   -6.3905327   -6.3905327   -5.6401823  -0.22039489   -6.3905327   0.75035043   439061 
 1362000   0.50027453   -6.3893478   -6.3893478   -5.6389377  -0.21752527   -6.3893478   0.75041009   439061 
 1363000   0.49979794   -6.3893593   -6.3893593   -5.6396641  -0.22462945   -6.3893593   0.74969521   439061 
 1364000   0.50047334   -6.3902966   -6.3902966   -5.6395883  -0.22070413   -6.3902966    0.7507083   439061 
 1365000   0.50044285   -6.3893517   -6.3893517   -5.6386892  -0.21643971   -6.3893517   0.75066257   439061 
 1366000    0.5008128   -6.3906686   -6.3906686   -5.6394512  -0.21850544   -6.3906686    0.7512175   439061 
 1367000   0.49987375   -6.3892722   -6.3892722   -5.6394633  -0.21652985   -6.3892722   0.74980892   439061 
 1368000   0.50016229   -6.3902785   -6.3902785   -5.6400368  -0.22059156   -6.3902785   0.75024173   439061 
 1369000   0.49999793   -6.3899196   -6.3899196   -5.6399244  -0.22135306   -6.3899196   0.74999519   439061 
 1370000   0.50005488   -6.3901067   -6.3901067   -5.6400261  -0.21842135   -6.3901067   0.75008062   439061 
 1371000   0.50051999   -6.3913043   -6.3913043    -5.640526  -0.22144366   -6.3913043   0.75077828   439061 
 1372000   0.50033009   -6.3906122   -6.3906122   -5.6401188  -0.21668745   -6.3906122   0.75049342   439061 
 1373000    0.4995608   -6.3911247   -6.3911247   -5.6417852  -0.22067512   -6.3911247    0.7493395   439061 
 1374000   0.50024949   -6.3913709   -6.3913709   -5.6409984  -0.22364799   -6.3913709   0.75037253   439061 
 1375000   0.50046639   -6.3918437   -6.3918437   -5.6411459  -0.22182524   -6.3918437   0.75069788   439061 
 1376000   0.50037619   -6.3910255   -6.3910255   -5.6404629   -0.2230078   -6.3910255   0.75056258   439061 
 1377000   0.49967457   -6.3897373   -6.3897373   -5.6402271  -0.21891017   -6.3897373   0.74951014   439061 
 1378000    0.5001134   -6.3902656   -6.3902656   -5.6400972  -0.21908174   -6.3902656    0.7501684   439061 
 1379000   0.49996628   -6.3905539   -6.3905539   -5.6406062  -0.22083124   -6.3905539   0.74994771   439061 
 1380000   0.50084371    -6.391197    -6.391197   -5.6399331  -0.21820866    -6.391197   0.75126385   439061 
 1381000   0.50053313   -6.3910201   -6.3910201   -5.6402221  -0.21995964   -6.3910201   0.75079798   439061 
 1382000    0.5005216    -6.390679    -6.390679   -5.6398983  -0.22292875    -6.390679    0.7507807   439061 
 1383000   0.50026598   -6.3900076   -6.3900076   -5.6396103  -0.21985588   -6.3900076   0.75039727   439061 
 1384000   0.50056113    -6.390377    -6.390377    -5.639537  -0.22004868    -6.390377   0.75083998   439061 
 1385000   0.50026204   -6.3903409   -6.3903409   -5.6399496  -0.21851551   -6.3903409   0.75039135   439061 
 1386000   0.50017618   -6.3911523   -6.3911523   -5.6408897  -0.21937713   -6.3911523   0.75026256   439061 
 1387000   0.50061856   -6.3921001   -6.3921001    -5.641174  -0.22179922   -6.3921001   0.75092613   439061 
 1388000   0.49940328   -6.3904719   -6.3904719   -5.6413687  -0.21941133   -6.3904719   0.74910322   439061 
 1389000   0.50023677   -6.3907302   -6.3907302   -5.6403768  -0.21721643   -6.3907302   0.75035344   439061 
 1390000   0.49995534   -6.3902138   -6.3902138   -5.6402825  -0.22031324   -6.3902138    0.7499313   439061 
 1391000    0.5002309   -6.3904755   -6.3904755   -5.6401309   -0.2197966   -6.3904755   0.75034464   439061 
 1392000   0.50041508   -6.3909534   -6.3909534   -5.6403325  -0.21935664   -6.3909534   0.75062092   439061 
 1393000   0.49972574   -6.3902128   -6.3902128   -5.6406259  -0.21747669   -6.3902128   0.74958691   439061 
 1394000   0.50046419   -6.3917319   -6.3917319   -5.6410374  -0.22042398   -6.3917319   0.75069457   439061 
 1395000   0.50052202   -6.3912303   -6.3912303    -5.640449  -0.21884701   -6.3912303   0.75078133   439061 
 1396000   0.50082521   -6.3912188   -6.3912188   -5.6399827  -0.21807606   -6.3912188   0.75123611   439061 
 1397000   0.50119873    -6.391907    -6.391907   -5.6401107  -0.22305594    -6.391907   0.75179638   439061 
 1398000   0.49935255   -6.3896547   -6.3896547   -5.6406276  -0.21791913   -6.3896547   0.74902712   439061 
 1399000   0.50021492   -6.3915048   -6.3915048   -5.6411841  -0.22119618   -6.3915048   0.75032067   439061 
 1400000   0.49929297   -6.3902561   -6.3902561   -5.6413183  -0.21732997   -6.3902561   0.74893776   439061 
 1401000   0.50108086   -6.3916664   -6.3916664   -5.6400468  -0.21771948   -6.3916664   0.75161958   439061 
 1402000   0.49994216   -6.3906803   -6.3906803   -5.6407688   -0.2170928   -6.3906803   0.74991153   439061 
 1403000   0.50037626   -6.3919698   -6.3919698   -5.6414072  -0.22123649   -6.3919698   0.75056268   439061 
 1404000    0.4995013   -6.3910713   -6.3910713    -5.641821  -0.22380276   -6.3910713   0.74925025   439061 
 1405000   0.49972269   -6.3910137   -6.3910137   -5.6414313  -0.22105435   -6.3910137   0.74958232   439061 
 1406000    0.4997146   -6.3910055   -6.3910055   -5.6414353  -0.21821179   -6.3910055    0.7495702   439061 
 1407000    0.5002599   -6.3919537   -6.3919537   -5.6415656  -0.22029198   -6.3919537   0.75038814   439061 
 1408000   0.49961359   -6.3909228   -6.3909228   -5.6415041  -0.21632572   -6.3909228   0.74941867   439061 
 1409000    0.4998701   -6.3909014   -6.3909014   -5.6410979  -0.21825894   -6.3909014   0.74980344   439061 
 1410000   0.49841483   -6.3899431   -6.3899431   -5.6423226  -0.22105648   -6.3899431   0.74762054   439061 
 1411000    0.4992287   -6.3906799   -6.3906799   -5.6418386  -0.22255809   -6.3906799   0.74884135   439061 
 1412000   0.50007918   -6.3915161   -6.3915161    -5.641399  -0.22007842   -6.3915161   0.75011706   439061 
 1413000   0.49987233   -6.3908125   -6.3908125   -5.6410058  -0.21811945   -6.3908125   0.74980679   439061 
 1414000   0.49974685   -6.3907841   -6.3907841   -5.6411655  -0.21399793   -6.3907841   0.74961857   439061 
 1415000   0.50058934   -6.3922239   -6.3922239   -5.6413416  -0.21995829   -6.3922239    0.7508823   439061 
 1416000   0.49969629    -6.390826    -6.390826   -5.6412833  -0.22172266    -6.390826   0.74954273   439061 
 1417000    0.4994151     -6.38946     -6.38946    -5.640339  -0.21900278     -6.38946   0.74912095   439061 
 1418000   0.50046649   -6.3903531   -6.3903531    -5.639655  -0.22009089   -6.3903531   0.75069803   439061 
 1419000    0.4990877   -6.3896428   -6.3896428    -5.641013  -0.21732533   -6.3896428   0.74862985   439061 
 1420000   0.49947858   -6.3901706   -6.3901706   -5.6409544  -0.21806734   -6.3901706   0.74921616   439061 
 1421000   0.49982475   -6.3909319   -6.3909319   -5.6411965  -0.21578816   -6.3909319   0.74973542   439061 
 1422000   0.49959185   -6.3908659   -6.3908659   -5.6414798  -0.21994972   -6.3908659   0.74938607   439061 
 1423000   0.50003477   -6.3915961   -6.3915961   -5.6415456  -0.22248373   -6.3915961   0.75005045   439061 
 1424000   0.49929439   -6.3901084   -6.3901084   -5.6411685  -0.22231505   -6.3901084   0.74893987   439061 
 1425000   0.49990581   -6.3899122   -6.3899122   -5.6400552  -0.21619934   -6.3899122   0.74985701   439061 
 1426000   0.50082353   -6.3912369   -6.3912369   -5.6400033  -0.21827114   -6.3912369   0.75123359   439061 
 1427000   0.50054977   -6.3913342   -6.3913342   -5.6405112  -0.21715008   -6.3913342   0.75082295   439061 
 1428000   0.50091987   -6.3911298   -6.3911298   -5.6397517  -0.21926795   -6.3911298   0.75137809   439061 
 1429000   0.50014056   -6.3897176   -6.3897176   -5.6395085  -0.21768017   -6.3897176   0.75020913   439061 
 1430000   0.50073948   -6.3911285   -6.3911285   -5.6400209  -0.22168786   -6.3911285   0.75110751   439061 
 1431000   0.50046317   -6.3901964   -6.3901964   -5.6395034    -0.218545   -6.3901964   0.75069304   439061 
 1432000    0.5006269   -6.3909483   -6.3909483   -5.6400097     -0.22071   -6.3909483   0.75093865   439061 
 1433000   0.49917985   -6.3897684   -6.3897684   -5.6410003  -0.21832789   -6.3897684   0.74876807   439061 
 1434000    0.4997111   -6.3901023   -6.3901023   -5.6405374  -0.21879018   -6.3901023   0.74956495   439061 
 1435000   0.50005157   -6.3908538   -6.3908538   -5.6407782  -0.21743468   -6.3908538   0.75007564   439061 
 1436000   0.49945252   -6.3894601   -6.3894601    -5.640283  -0.21607378   -6.3894601   0.74917707   439061 
 1437000   0.50036747    -6.390414    -6.390414   -5.6398645  -0.21450376    -6.390414    0.7505495   439061 
 1438000   0.49927495   -6.3895084   -6.3895084   -5.6405977  -0.21883242   -6.3895084   0.74891071   439061 
 1439000   0.50086269   -6.3916982   -6.3916982   -5.6404059  -0.21994939   -6.3916982   0.75129232   439061 
 1440000    0.5004078   -6.3912786   -6.3912786   -5.6406686  -0.22150458   -6.3912786      0.75061   439061 
 1441000   0.49994602   -6.3916768   -6.3916768   -5.6417595  -0.22167717   -6.3916768   0.74991733   439061 
 1442000    0.5000993   -6.3910452   -6.3910452    -5.640898  -0.21471048   -6.3910452   0.75014724   439061 
 1443000   0.50037551    -6.391818    -6.391818   -5.6412564  -0.21705568    -6.391818   0.75056156   439061 
 1444000   0.49971462   -6.3908683   -6.3908683   -5.6412981  -0.21968309   -6.3908683   0.74957022   439061 
 1445000   0.49869212   -6.3881805   -6.3881805   -5.6401441  -0.21625436   -6.3881805   0.74803648   439061 
 1446000   0.49917175   -6.3902063   -6.3902063   -5.6414504  -0.22375667   -6.3902063   0.74875592   439061 
 1447000   0.49922168   -6.3915714   -6.3915714   -5.6427405  -0.22575659   -6.3915714   0.74883082   439061 
 1448000   0.49951219   -6.3908818   -6.3908818   -5.6416153  -0.21691049   -6.3908818   0.74926658   439061 
 1449000   0.50001814   -6.3911199   -6.3911199   -5.6410944   -0.2158487   -6.3911199    0.7500255   439061 
 1450000   0.49932424   -6.3906993   -6.3906993   -5.6417147  -0.21612688   -6.3906993   0.74898465   439061 
 1451000   0.49914083    -6.391119    -6.391119   -5.6424095  -0.22143203    -6.391119   0.74870953   439061 
 1452000   0.49946215   -6.3915271   -6.3915271   -5.6423356  -0.22352888   -6.3915271   0.74919151   439061 
 1453000   0.49869584    -6.391016    -6.391016   -5.6429739  -0.22087178    -6.391016   0.74804206   439061 
 1454000   0.49927494   -6.3920591   -6.3920591   -5.6431484  -0.22249432   -6.3920591   0.74891071   439061 
 1455000    0.5003894   -6.3930843   -6.3930843   -5.6425019  -0.21681617   -6.3930843   0.75058239   439061 
 1456000   0.49954398   -6.3914081   -6.3914081   -5.6420939  -0.21728753   -6.3914081   0.74931426   439061 
 1457000   0.49824182   -6.3908521   -6.3908521    -5.643491   -0.2201644   -6.3908521   0.74736103   439061 
 1458000   0.49906196    -6.391456    -6.391456   -5.6428648  -0.22325214    -6.391456   0.74859124   439061 
 1459000   0.49967031   -6.3922447   -6.3922447    -5.642741   -0.2230587   -6.3922447   0.74950376   439061 
 1460000   0.49971826   -6.3915677   -6.3915677    -5.641992  -0.21888968   -6.3915677   0.74957568   439061 
 1461000   0.49963267   -6.3914136   -6.3914136   -5.6419663  -0.21440149   -6.3914136    0.7494473   439061 
 1462000   0.50038339   -6.3924979   -6.3924979   -5.6419245  -0.22027761   -6.3924979   0.75057337   439061 
 1463000   0.49953148   -6.3918614   -6.3918614   -5.6425659  -0.22023179   -6.3918614   0.74929551   439061 
 1464000   0.49929065   -6.3914192   -6.3914192    -5.642485  -0.22338551   -6.3914192   0.74893427   439061 
 1465000   0.50011901   -6.3924988   -6.3924988    -5.642322  -0.22197945   -6.3924988   0.75017681   439061 
 1466000   0.49968569   -6.3906192   -6.3906192   -5.6410923  -0.21599401   -6.3906192   0.74952683   439061 
 1467000   0.49973426   -6.3918732   -6.3918732   -5.6422735  -0.21899399   -6.3918732   0.74959968   439061 
 1468000   0.49991852   -6.3922938   -6.3922938   -5.6424177  -0.21702556   -6.3922938   0.74987607   439061 
 1469000   0.49938337   -6.3908627   -6.3908627   -5.6417893  -0.21771215   -6.3908627   0.74907335   439061 
 1470000   0.50115746   -6.3926871   -6.3926871   -5.6409526  -0.22082293   -6.3926871   0.75173448   439061 
 1471000   0.50092676   -6.3921065   -6.3921065   -5.6407181  -0.22456375   -6.3921065   0.75138843   439061 
 1472000   0.50036374   -6.3914101   -6.3914101   -5.6408662  -0.22002608   -6.3914101   0.75054389   439061 
 1473000   0.50008131    -6.391779    -6.391779   -5.6416587  -0.22032586    -6.391779   0.75012026   439061 
 1474000   0.49987963   -6.3912828   -6.3912828   -5.6414651  -0.21676791   -6.3912828   0.74981774   439061 
 1475000    0.5002382    -6.391797    -6.391797   -5.6414414  -0.21917083    -6.391797   0.75035559   439061 
 1476000    0.5002345   -6.3917052   -6.3917052   -5.6413552  -0.22126375   -6.3917052   0.75035004   439061 
 1477000   0.49989456   -6.3907129   -6.3907129   -5.6408728  -0.22165305   -6.3907129   0.74984013   439061 
 1478000   0.50024999   -6.3917141   -6.3917141   -5.6413408   -0.2225492   -6.3917141   0.75037328   439061 
 1479000   0.50055071   -6.3914901   -6.3914901   -5.6406657  -0.21856987   -6.3914901   0.75082435   439061 
 1480000   0.50089364   -6.3916005   -6.3916005   -5.6402618  -0.21645628   -6.3916005   0.75133875   439061 
 1481000   0.50132237   -6.3920178   -6.3920178   -5.6400359  -0.21774148   -6.3920178   0.75198185   439061 
 1482000   0.50019622   -6.3907233   -6.3907233   -5.6404307  -0.21591267   -6.3907233   0.75029263   439061 
 1483000   0.50008636   -6.3909217   -6.3909217   -5.6407938  -0.22177811   -6.3909217   0.75012784   439061 
 1484000   0.50079798   -6.3908324   -6.3908324   -5.6396371  -0.22146996   -6.3908324   0.75119525   439061 
 1485000   0.49986854   -6.3901135   -6.3901135   -5.6403124  -0.21800494   -6.3901135    0.7498011   439061 
 1486000   0.50077306   -6.3910413   -6.3910413   -5.6398834  -0.21697642   -6.3910413   0.75115787   439061 
 1487000   0.50080839   -6.3914719   -6.3914719    -5.640261  -0.21642657   -6.3914719   0.75121087   439061 
 1488000   0.49967245   -6.3913886   -6.3913886   -5.6418816  -0.21889852   -6.3913886   0.74950697   439061 
 1489000   0.49957914    -6.390612    -6.390612    -5.641245  -0.21956042    -6.390612   0.74936701   439061 
 1490000   0.50089974   -6.3924748   -6.3924748   -5.6411268  -0.22109181   -6.3924748    0.7513479   439061 
 1491000   0.50120628   -6.3915038   -6.3915038   -5.6396961  -0.21987036   -6.3915038    0.7518077   439061 
 1492000   0.50081008   -6.3912327   -6.3912327   -5.6400193  -0.21852963   -6.3912327    0.7512134   439061 
 1493000   0.50046954   -6.3913247   -6.3913247   -5.6406221  -0.21851497   -6.3913247    0.7507026   439061 
 1494000   0.50074774   -6.3913637   -6.3913637   -5.6402438  -0.21838166   -6.3913637    0.7511199   439061 
 1495000   0.50031837    -6.389674    -6.389674   -5.6391981  -0.21634775    -6.389674   0.75047585   439061 
 1496000   0.50129481   -6.3907912   -6.3907912   -5.6388507  -0.21956268   -6.3907912    0.7519405   439061 
 1497000   0.49956483   -6.3892957   -6.3892957   -5.6399502  -0.21599225   -6.3892957   0.74934553   439061 
 1498000    0.5012069   -6.3911983   -6.3911983   -5.6393897  -0.21993899   -6.3911983   0.75180863   439061 
 1499000    0.5005976   -6.3907436   -6.3907436   -5.6398489  -0.22215913   -6.3907436   0.75089469   439061 
 1500000   0.50002549   -6.3905295   -6.3905295   -5.6404929  -0.21731408   -6.3905295   0.75003653   439061 
 1501000   0.50081147    -6.391077    -6.391077   -5.6398615  -0.21576471    -6.391077    0.7512155   439061 
 1502000   0.50028765   -6.3913019   -6.3913019   -5.6408721  -0.21487771   -6.3913019   0.75042977   439061 
 1503000   0.49938398      -6.3907      -6.3907   -5.6416257  -0.21499854      -6.3907   0.74907426   439061 
 1504000   0.49980665   -6.3901042   -6.3901042   -5.6403959  -0.21888373   -6.3901042   0.74970826   439061 
 1505000   0.50015474   -6.3908272   -6.3908272   -5.6405968  -0.21567626   -6.3908272    0.7502304   439061 
 1506000   0.50026809   -6.3909408   -6.3909408   -5.6405403   -0.2196178   -6.3909408   0.75040043   439061 
 1507000   0.49992189   -6.3899554   -6.3899554   -5.6400742  -0.21357505   -6.3899554   0.74988113   439061 
 1508000   0.49959331   -6.3893115   -6.3893115   -5.6399233  -0.21869954   -6.3893115   0.74938826   439061 
 1509000   0.50068498   -6.3912109   -6.3912109   -5.6401851  -0.21714802   -6.3912109   0.75102576   439061 
 1510000   0.49955111   -6.3902669   -6.3902669   -5.6409419  -0.21799324   -6.3902669   0.74932495   439061 
 1511000   0.50074849   -6.3922444   -6.3922444   -5.6411234  -0.21780019   -6.3922444   0.75112102   439061 
 1512000   0.50137793   -6.3926514   -6.3926514   -5.6405862  -0.22244193   -6.3926514   0.75206518   439061 
 1513000   0.50055083   -6.3916383   -6.3916383   -5.6408138  -0.21998137   -6.3916383   0.75082453   439061 
 1514000   0.50062761   -6.3913198   -6.3913198   -5.6403801   -0.2165467   -6.3913198    0.7509397   439061 
 1515000   0.50034431   -6.3918173   -6.3918173   -5.6413025  -0.21970077   -6.3918173   0.75051476   439061 
 1516000   0.50139259   -6.3918404   -6.3918404   -5.6397532  -0.21636142   -6.3918404   0.75208717   439061 
 1517000   0.50127121   -6.3919881   -6.3919881    -5.640083  -0.21940064   -6.3919881    0.7519051   439061 
 1518000   0.50022265   -6.3902166   -6.3902166   -5.6398844  -0.22001028   -6.3902166   0.75033226   439061 
 1519000   0.50067095   -6.3912836   -6.3912836   -5.6402789   -0.2199845   -6.3912836   0.75100472   439061 
 1520000   0.49994486   -6.3907083   -6.3907083   -5.6407927  -0.21778507   -6.3907083   0.74991558   439061 
 1521000   0.50122912   -6.3921133   -6.3921133   -5.6402714  -0.21752461   -6.3921133   0.75184197   439061 
 1522000   0.50018952   -6.3906453   -6.3906453   -5.6403627  -0.21473796   -6.3906453   0.75028257   439061 
 1523000   0.50091654    -6.392103    -6.392103   -5.6407299  -0.22061268    -6.392103    0.7513731   439061 
 1524000   0.50101427    -6.391533    -6.391533   -5.6400133  -0.21884824    -6.391533   0.75151969   439061 
 1525000   0.50094034   -6.3908928   -6.3908928    -5.639484  -0.21771899   -6.3908928   0.75140881   439061 
 1526000   0.50077986   -6.3908234   -6.3908234   -5.6396553   -0.2171249   -6.3908234   0.75116808   439061 
 1527000    0.5009242   -6.3918534   -6.3918534   -5.6404688  -0.21836793   -6.3918534   0.75138458   439061 
 1528000   0.50089212   -6.3916351   -6.3916351   -5.6402986  -0.21878075   -6.3916351   0.75133648   439061 
 1529000   0.50070582   -6.3911316   -6.3911316   -5.6400745  -0.21699008   -6.3911316   0.75105702   439061 
 1530000   0.50071551   -6.3911071   -6.3911071   -5.6400356  -0.21679567   -6.3911071   0.75107156   439061 
 1531000   0.50084544   -6.3913167   -6.3913167   -5.6400502  -0.21906993   -6.3913167   0.75126644   439061 
 1532000   0.49984468   -6.3902358   -6.3902358   -5.6404705  -0.21973697   -6.3902358   0.74976531   439061 
 1533000   0.50093241   -6.3918158   -6.3918158   -5.6404189  -0.22118436   -6.3918158   0.75139691   439061 
 1534000   0.50049167   -6.3916659   -6.3916659   -5.6409301  -0.21819759   -6.3916659   0.75073579   439061 
 1535000   0.50060024   -6.3913868   -6.3913868   -5.6404881  -0.21343696   -6.3913868   0.75089865   439061 
 1536000   0.50039203   -6.3908028   -6.3908028   -5.6402165  -0.21584848   -6.3908028   0.75058633   439061 
 1537000   0.50060818   -6.3919558   -6.3919558   -5.6410452  -0.21888583   -6.3919558   0.75091056   439061 
 1538000   0.49908746   -6.3907174   -6.3907174   -5.6420879  -0.21993184   -6.3907174   0.74862948   439061 
 1539000   0.49912902   -6.3910665   -6.3910665   -5.6423747  -0.21965668   -6.3910665   0.74869183   439061 
 1540000   0.49975244   -6.3916797   -6.3916797   -5.6420527  -0.22000393   -6.3916797   0.74962695   439061 
 1541000    0.4995494   -6.3917843   -6.3917843   -5.6424619   -0.2167642   -6.3917843   0.74932239   439061 
 1542000   0.50045475   -6.3924528   -6.3924528   -5.6417724  -0.21587653   -6.3924528   0.75068041   439061 
 1543000   0.50039451   -6.3913651   -6.3913651   -5.6407751  -0.21994446   -6.3913651   0.75059005   439061 
 1544000   0.50015813   -6.3903723   -6.3903723   -5.6401369  -0.21841585   -6.3903723   0.75023549   439061 
 1545000    0.4998717   -6.3908607   -6.3908607   -5.6410549  -0.22216675   -6.3908607   0.74980585   439061 
 1546000   0.50060626   -6.3910609   -6.3910609   -5.6401532  -0.22026157   -6.3910609   0.75090768   439061 
 1547000   0.50107134   -6.3926029   -6.3926029   -5.6409976  -0.22059594   -6.3926029    0.7516053   439061 
 1548000   0.49981501   -6.3913248   -6.3913248    -5.641604  -0.21278039   -6.3913248   0.74972081   439061 
 1549000   0.50056363   -6.3920074   -6.3920074   -5.6411637  -0.21565276   -6.3920074   0.75084373   439061 
 1550000   0.49970623   -6.3903729   -6.3903729   -5.6408153  -0.21456447   -6.3903729   0.74955764   439061 
 1551000   0.50019804   -6.3919743   -6.3919743   -5.6416789  -0.22433098   -6.3919743   0.75029535   439061 
 1552000   0.49878836   -6.3904216   -6.3904216   -5.6422408  -0.22356128   -6.3904216   0.74818083   439061 
 1553000   0.49920676   -6.3905009   -6.3905009   -5.6416924  -0.21642636   -6.3905009   0.74880844   439061 
 1554000   0.49945194   -6.3914575   -6.3914575   -5.6422813  -0.21602641   -6.3914575    0.7491762   439061 
 1555000   0.49972636    -6.392712    -6.392712   -5.6431242  -0.21511732    -6.392712   0.74958783   439061 
 1556000   0.49989989   -6.3923469   -6.3923469   -5.6424988  -0.21481882   -6.3923469   0.74984812   439061 
 1557000   0.49997377   -6.3918778   -6.3918778   -5.6419189   -0.2157832   -6.3918778   0.74995894   439061 
 1558000    0.5006428   -6.3920904   -6.3920904   -5.6411279  -0.22379797   -6.3920904   0.75096249   439061 
 1559000   0.49963163   -6.3903541   -6.3903541   -5.6409084  -0.21764531   -6.3903541   0.74944574   439061 
 1560000   0.49945381   -6.3901628   -6.3901628   -5.6409838  -0.21774596   -6.3901628   0.74917901   439061 
 1561000   0.50012694   -6.3914547   -6.3914547   -5.6412659  -0.21312273   -6.3914547   0.75018871   439061 
 1562000   0.50018746   -6.3910901   -6.3910901   -5.6408106  -0.21224989   -6.3910901   0.75027948   439061 
 1563000   0.50078473   -6.3919294   -6.3919294    -5.640754   -0.2159108   -6.3919294   0.75117538   439061 
 1564000   0.50051183   -6.3914108   -6.3914108   -5.6406448  -0.22094056   -6.3914108   0.75076604   439061 
 1565000   0.50010218   -6.3915442   -6.3915442   -5.6413926  -0.22561324   -6.3915442   0.75015157   439061 
 1566000   0.50042728   -6.3917374   -6.3917374   -5.6410982  -0.22148316   -6.3917374   0.75063921   439061 
 1567000   0.50014396   -6.3906296   -6.3906296   -5.6404154  -0.21477199   -6.3906296   0.75021423   439061 
 1568000    0.4999676   -6.3907649   -6.3907649   -5.6408152  -0.21280057   -6.3907649   0.74994969   439061 
 1569000   0.50076311   -6.3913864   -6.3913864   -5.6402435  -0.21288903   -6.3913864   0.75114295   439061 
 1570000   0.50042563   -6.3918387   -6.3918387   -5.6412019  -0.21968952   -6.3918387   0.75063674   439061 
 1571000   0.50028522   -6.3908375   -6.3908375   -5.6404114  -0.21983178   -6.3908375   0.75042613   439061 
 1572000    0.5010513   -6.3920534   -6.3920534   -5.6404782  -0.21979362   -6.3920534   0.75157523   439061 
 1573000   0.49970818   -6.3911404   -6.3911404   -5.6415798  -0.21731907   -6.3911404   0.74956056   439061 
 1574000    0.4998479   -6.3908848   -6.3908848   -5.6411147  -0.21137491   -6.3908848   0.74977014   439061 
 1575000   0.50075283   -6.3920991   -6.3920991   -5.6409716  -0.21492282   -6.3920991   0.75112754   439061 
 1576000   0.50066164   -6.3926515   -6.3926515   -5.6416607  -0.21920433   -6.3926515   0.75099075   439061 
 1577000   0.49995808   -6.3915175   -6.3915175   -5.6415821  -0.22207475   -6.3915175   0.74993542   439061 
 1578000   0.49916296   -6.3900541   -6.3900541   -5.6413114  -0.21708717   -6.3900541   0.74874273   439061 
 1579000    0.5004758   -6.3922316   -6.3922316   -5.6415196  -0.22154907   -6.3922316   0.75071198   439061 
 1580000    0.5002471   -6.3920233   -6.3920233   -5.6416544  -0.21502505   -6.3920233   0.75036894   439061 
 1581000   0.50009268   -6.3915473   -6.3915473     -5.64141  -0.21686592   -6.3915473   0.75013732   439061 
 1582000   0.50019665   -6.3920278   -6.3920278   -5.6417345  -0.21506672   -6.3920278   0.75029327   439061 
 1583000   0.50048654    -6.392372    -6.392372   -5.6416439  -0.22032183    -6.392372    0.7507281   439061 
 1584000   0.49957697   -6.3912575   -6.3912575   -5.6418938  -0.22197894   -6.3912575   0.74936374   439061 
 1585000   0.49980264    -6.391784    -6.391784   -5.6420818  -0.21740859    -6.391784   0.74970226   439061 
 1586000   0.50017098   -6.3920827   -6.3920827   -5.6418279  -0.21922586   -6.3920827   0.75025475   439061 
 1587000   0.50055974   -6.3921713   -6.3921713   -5.6413334  -0.21272953   -6.3921713   0.75083791   439061 
 1588000   0.50010721   -6.3912587   -6.3912587   -5.6410996  -0.21669908   -6.3912587    0.7501591   439061 
 1589000   0.50055663   -6.3914454   -6.3914454   -5.6406122  -0.21717078   -6.3914454   0.75083324   439061 
 1590000   0.49993824   -6.3908903   -6.3908903   -5.6409846   -0.2221443   -6.3908903   0.74990565   439061 
 1591000   0.49989741   -6.3915728   -6.3915728   -5.6417284  -0.22065027   -6.3915728   0.74984441   439061 
 1592000   0.50033858   -6.3916939   -6.3916939   -5.6411877  -0.21733467   -6.3916939   0.75050616   439061 
 1593000    0.5009894   -6.3924358   -6.3924358   -5.6409534  -0.21380149   -6.3924358   0.75148238   439061 
 1594000   0.50088352    -6.392414    -6.392414   -5.6410904  -0.21364259    -6.392414   0.75132357   439061 
 1595000   0.49981874   -6.3911108   -6.3911108   -5.6413844  -0.21760158   -6.3911108   0.74972641   439061 
 1596000   0.49921491    -6.390016    -6.390016   -5.6411953  -0.21820478    -6.390016   0.74882065   439061 
 1597000   0.49998487   -6.3911748   -6.3911748   -5.6411992  -0.22652496   -6.3911748    0.7499756   439061 
 1598000   0.49984439   -6.3905706   -6.3905706   -5.6408057  -0.21601566   -6.3905706   0.74976488   439061 
 1599000   0.50033099    -6.391355    -6.391355   -5.6408602  -0.21586478    -6.391355   0.75049478   439061 
 1600000   0.50020788   -6.3917993   -6.3917993   -5.6414892  -0.21331982   -6.3917993   0.75031011   439061 
 1601000   0.50021367   -6.3914324   -6.3914324   -5.6411136  -0.21724913   -6.3914324    0.7503188   439061 
 1602000   0.50012094    -6.390786    -6.390786   -5.6406063  -0.21758217    -6.390786    0.7501797   439061 
 1603000    0.5001592   -6.3905107   -6.3905107   -5.6402736  -0.22099209   -6.3905107   0.75023709   439061 
 1604000   0.50043867   -6.3907773   -6.3907773    -5.640121  -0.21977114   -6.3907773    0.7506563   439061 
 1605000   0.50018761    -6.391384    -6.391384   -5.6411042  -0.21923576    -6.391384   0.75027971   439061 
 1606000   0.50182533   -6.3931705   -6.3931705   -5.6404343  -0.21600936   -6.3931705   0.75273629   439061 
 1607000   0.50084624   -6.3916595   -6.3916595   -5.6403918  -0.21305639   -6.3916595   0.75126765   439061 
 1608000   0.50072122   -6.3912635   -6.3912635   -5.6401834  -0.21805936   -6.3912635   0.75108012   439061 
 1609000   0.50003281   -6.3904428   -6.3904428   -5.6403953  -0.22216929   -6.3904428    0.7500475   439061 
 1610000   0.49988245   -6.3902706   -6.3902706   -5.6404486   -0.2238846   -6.3902706   0.74982197   439061 
 1611000   0.50047071   -6.3906422   -6.3906422   -5.6399379  -0.21800025   -6.3906422   0.75070435   439061 
 1612000   0.50062336   -6.3917558   -6.3917558   -5.6408225  -0.21597434   -6.3917558   0.75093333   439061 
 1613000   0.49996612   -6.3905054   -6.3905054    -5.640558  -0.21267636   -6.3905054   0.74994748   439061 
 1614000   0.50016491   -6.3905587   -6.3905587    -5.640313  -0.21406521   -6.3905587   0.75024565   439061 
 1615000   0.50064211   -6.3912184   -6.3912184    -5.640257  -0.21947927   -6.3912184   0.75096146   439061 
 1616000     0.500235   -6.3909886   -6.3909886   -5.6406378  -0.22278062   -6.3909886   0.75035079   439061 
 1617000   0.50019312   -6.3911951   -6.3911951   -5.6409071  -0.21858022   -6.3911951   0.75028798   439061 
 1618000   0.50026567   -6.3922467   -6.3922467   -5.6418499  -0.21906308   -6.3922467    0.7503968   439061 
 1619000   0.50038607   -6.3924559   -6.3924559   -5.6418785  -0.21652275   -6.3924559    0.7505774   439061 
 1620000   0.50025283   -6.3917201   -6.3917201   -5.6413425  -0.21659828   -6.3917201   0.75037754   439061 
 1621000   0.49956019   -6.3905831   -6.3905831   -5.6412445  -0.21426991   -6.3905831   0.74933858   439061 
 1622000   0.49973788   -6.3915997   -6.3915997   -5.6419946  -0.22167587   -6.3915997   0.74960512   439061 
 1623000   0.50059778   -6.3924058   -6.3924058   -5.6415108  -0.22098206   -6.3924058   0.75089496   439061 
 1624000   0.50036917   -6.3912184   -6.3912184   -5.6406664   -0.2159569   -6.3912184   0.75055205   439061 
 1625000   0.50181829     -6.39394     -6.39394   -5.6412142  -0.22110987     -6.39394   0.75272572   439061 
 1626000   0.50009613   -6.3927137   -6.3927137   -5.6425712   -0.2158568   -6.3927137   0.75014248   439061 
 1627000   0.49913062   -6.3923485   -6.3923485   -5.6436543  -0.21943547   -6.3923485   0.74869423   439061 
 1628000    0.4991166   -6.3916745   -6.3916745   -5.6430013  -0.21593449   -6.3916745    0.7486732   439061 
 1629000    0.4998538   -6.3928205   -6.3928205   -5.6430415  -0.21901774   -6.3928205   0.74977899   439061 
 1630000   0.49967929   -6.3928549   -6.3928549   -5.6433376  -0.21902876   -6.3928549   0.74951723   439061 
 1631000   0.49980433   -6.3934869   -6.3934869   -5.6437822  -0.22047753   -6.3934869   0.74970478   439061 
 1632000   0.50010209   -6.3939818   -6.3939818   -5.6438304  -0.21875176   -6.3939818   0.75015142   439061 
 1633000   0.50003296    -6.393903    -6.393903   -5.6438553  -0.22194006    -6.393903   0.75004773   439061 
 1634000   0.49946342   -6.3926315   -6.3926315   -5.6434381   -0.2195932   -6.3926315   0.74919342   439061 
 1635000   0.50047854   -6.3930798   -6.3930798   -5.6423637  -0.22362449   -6.3930798    0.7507161   439061 
 1636000   0.50018048    -6.392352    -6.392352    -5.642083  -0.21591579    -6.392352     0.750269   439061 
 1637000   0.49982355   -6.3919536   -6.3919536   -5.6422199  -0.21726404   -6.3919536   0.74973361   439061 
 1638000   0.50070534   -6.3929216   -6.3929216   -5.6418653  -0.21374019   -6.3929216    0.7510563   439061 
 1639000   0.50048629   -6.3933222   -6.3933222   -5.6425944   -0.2195492   -6.3933222   0.75072772   439061 
 1640000   0.50091817   -6.3938222   -6.3938222   -5.6424467  -0.21935391   -6.3938222   0.75137554   439061 
 1641000   0.50009701   -6.3917637   -6.3917637   -5.6416199  -0.21657957   -6.3917637    0.7501438   439061 
 1642000    0.5009571   -6.3931146   -6.3931146   -5.6416807  -0.22100887   -6.3931146   0.75143394   439061 
 1643000   0.50119174   -6.3932064   -6.3932064   -5.6414205  -0.21809027   -6.3932064   0.75178589   439061 
 1644000   0.50003381   -6.3924267   -6.3924267   -5.6423777  -0.21565646   -6.3924267     0.750049   439061 
 1645000   0.50021131   -6.3926019   -6.3926019   -5.6422866  -0.21940325   -6.3926019   0.75031526   439061 
 1646000   0.50051487   -6.3933486   -6.3933486    -5.642578   -0.2180591   -6.3933486    0.7507706   439061 
 1647000   0.49960462   -6.3922263   -6.3922263   -5.6428211  -0.21953484   -6.3922263   0.74940523   439061 
 1648000   0.49984636   -6.3932602   -6.3932602   -5.6434923  -0.21959898   -6.3932602   0.74976783   439061 
 1649000   0.50024989   -6.3936211   -6.3936211    -5.643248  -0.22009923   -6.3936211   0.75037312   439061 
 1650000   0.49962837   -6.3933784   -6.3933784   -5.6439375  -0.21913309   -6.3933784   0.74944085   439061 
 1651000   0.49919123   -6.3933636   -6.3933636   -5.6445785  -0.21992888   -6.3933636   0.74878514   439061 
 1652000   0.49902025   -6.3932452   -6.3932452   -5.6447165  -0.21914131   -6.3932452   0.74852867   439061 
 1653000   0.49952735   -6.3929577   -6.3929577   -5.6436683  -0.21703321   -6.3929577   0.74928932   439061 
 1654000   0.50014123   -6.3934227   -6.3934227   -5.6432125  -0.21887662   -6.3934227   0.75021014   439061 
 1655000   0.49973856   -6.3925774   -6.3925774   -5.6429713  -0.21802136   -6.3925774   0.74960613   439061 
 1656000   0.49997966   -6.3927405   -6.3927405   -5.6427728  -0.22075445   -6.3927405   0.74996779   439061 
 1657000   0.50009941   -6.3928033   -6.3928033   -5.6426559  -0.21958924   -6.3928033    0.7501474   439061 
 1658000   0.49992673   -6.3932249   -6.3932249   -5.6433365  -0.22017888   -6.3932249   0.74988839   439061 
 1659000    0.5000513   -6.3937518   -6.3937518   -5.6436766  -0.21787126   -6.3937518   0.75007523   439061 
 1660000   0.49903439   -6.3920223   -6.3920223   -5.6434724  -0.21536455   -6.3920223   0.74854989   439061 
 1661000   0.49885173    -6.392099    -6.392099   -5.6438231  -0.21419739    -6.392099   0.74827589   439061 
 1662000   0.49951429   -6.3927109   -6.3927109   -5.6434412   -0.2235012   -6.3927109   0.74926973   439061 
 1663000   0.49964627   -6.3921439   -6.3921439   -5.6426762  -0.22097425   -6.3921439    0.7494677   439061 
 1664000   0.49971983   -6.3915701   -6.3915701   -5.6419921  -0.21804228   -6.3915701   0.74957804   439061 
 1665000    0.5005703   -6.3930171   -6.3930171   -5.6421634  -0.21735267   -6.3930171   0.75085374   439061 
 1666000   0.49929834   -6.3899704   -6.3899704   -5.6410246  -0.20958747   -6.3899704    0.7489458   439061 
 1667000    0.5001617   -6.3922084   -6.3922084   -5.6419675  -0.21951352   -6.3922084   0.75024084   439061 
 1668000   0.49975451   -6.3914555   -6.3914555   -5.6418255  -0.21721476   -6.3914555   0.74963005   439061 
 1669000   0.49899679   -6.3908761   -6.3908761   -5.6423826  -0.22052366   -6.3908761   0.74849349   439061 
 1670000   0.50040219   -6.3928922   -6.3928922   -5.6422906  -0.21934761   -6.3928922   0.75060158   439061 
 1671000   0.50044283   -6.3922678   -6.3922678   -5.6416053  -0.21929915   -6.3922678   0.75066253   439061 
 1672000   0.50105438   -6.3928636   -6.3928636   -5.6412838  -0.21613205   -6.3928636   0.75157986   439061 
 1673000   0.50000294   -6.3909577   -6.3909577    -5.640955   -0.2146951   -6.3909577    0.7500027   439061 
 1674000   0.50029392   -6.3915212   -6.3915212    -5.641082  -0.21985697   -6.3915212   0.75043917   439061 
 1675000   0.50007526   -6.3906856   -6.3906856   -5.6405745  -0.22010481   -6.3906856   0.75011118   439061 
 1676000   0.50041872   -6.3917625   -6.3917625   -5.6411362  -0.22096867   -6.3917625   0.75062637   439061 
 1677000     0.500924   -6.3926446   -6.3926446   -5.6412603  -0.21823921   -6.3926446   0.75138429   439061 
 1678000   0.50008442   -6.3919039   -6.3919039   -5.6417789  -0.21393219   -6.3919039   0.75012492   439061 
 1679000   0.49955225   -6.3914218   -6.3914218   -5.6420951  -0.21553867   -6.3914218   0.74932666   439061 
 1680000   0.49896168   -6.3909499   -6.3909499    -5.642509  -0.21598656   -6.3909499   0.74844081   439061 
 1681000   0.49945208   -6.3913033   -6.3913033   -5.6421269  -0.21613125   -6.3913033   0.74917641   439061 
 1682000   0.49960778   -6.3913802   -6.3913802   -5.6419703   -0.2170589   -6.3913802   0.74940996   439061 
 1683000   0.49923578   -6.3909419   -6.3909419     -5.64209  -0.21526167   -6.3909419   0.74885196   439061 
 1684000    0.4997115   -6.3920922   -6.3920922   -5.6425267  -0.21697395   -6.3920922   0.74956554   439061 
 1685000   0.50070348   -6.3932564   -6.3932564   -5.6422029  -0.21714605   -6.3932564    0.7510535   439061 
 1686000   0.49990921    -6.391833    -6.391833   -5.6419709  -0.21422946    -6.391833    0.7498621   439061 
 1687000   0.50099438   -6.3934218   -6.3934218   -5.6419319  -0.21902241   -6.3934218   0.75148986   439061 
 1688000   0.50009881    -6.392272    -6.392272   -5.6421255  -0.21980483    -6.392272   0.75014651   439061 
 1689000   0.50077422   -6.3929819   -6.3929819   -5.6418222  -0.22025123   -6.3929819   0.75115961   439061 
 1690000   0.50040812   -6.3922791   -6.3922791   -5.6416686  -0.22043894   -6.3922791   0.75061046   439061 
 1691000   0.50016174   -6.3915457   -6.3915457   -5.6413048  -0.21362319   -6.3915457    0.7502409   439061 
 1692000   0.50006685   -6.3908794   -6.3908794   -5.6407808  -0.21479235   -6.3908794   0.75009857   439061 
 1693000   0.49996657   -6.3919372   -6.3919372   -5.6419891  -0.21754291   -6.3919372   0.74994814   439061 
 1694000   0.49953192   -6.3918203   -6.3918203   -5.6425241  -0.22053902   -6.3918203   0.74929617   439061 
 1695000   0.49954192   -6.3931974   -6.3931974   -5.6438863  -0.22200803   -6.3931974   0.74931118   439061 
 1696000   0.49967143   -6.3921877   -6.3921877   -5.6426823  -0.21503665   -6.3921877   0.74950543   439061 
 1697000   0.50050643   -6.3927742   -6.3927742   -5.6420163  -0.21268457   -6.3927742   0.75075793   439061 
 1698000   0.49999997   -6.3918914   -6.3918914   -5.6418932  -0.21545178   -6.3918914   0.74999825   439061 
 1699000   0.50036235   -6.3926624   -6.3926624   -5.6421206  -0.21781645   -6.3926624   0.75054182   439061 
 1700000   0.50026306   -6.3920606   -6.3920606   -5.6416677  -0.22452283   -6.3920606   0.75039288   439061 
 1701000   0.49998807   -6.3918481   -6.3918481   -5.6418677  -0.22310934   -6.3918481    0.7499804   439061 
 1702000   0.50017435   -6.3919023   -6.3919023   -5.6416425  -0.21636821   -6.3919023   0.75025982   439061 
 1703000   0.50008501   -6.3922166   -6.3922166   -5.6420908  -0.21256055   -6.3922166    0.7501258   439061 
 1704000    0.5000158   -6.3925755   -6.3925755   -5.6425535  -0.21313082   -6.3925755     0.750022   439061 
 1705000   0.49938335   -6.3926078   -6.3926078   -5.6435345  -0.21673725   -6.3926078   0.74907332   439061 
 1706000    0.5000566   -6.3932972   -6.3932972    -5.643214   -0.2242673   -6.3932972    0.7500832   439061 
 1707000   0.49977357   -6.3923431   -6.3923431   -5.6426844   -0.2209625   -6.3923431   0.74965865   439061 
 1708000   0.49918323   -6.3921543   -6.3921543   -5.6433811  -0.22105449   -6.3921543   0.74877314   439061 
 1709000   0.50048242   -6.3939618   -6.3939618   -5.6432398  -0.21727638   -6.3939618   0.75072192   439061 
 1710000   0.50060137   -6.3934873   -6.3934873   -5.6425869  -0.21152486   -6.3934873   0.75090034   439061 
 1711000   0.50051489   -6.3928956   -6.3928956    -5.642125  -0.21471549   -6.3928956   0.75077062   439061 
 1712000    0.4997369   -6.3930225   -6.3930225   -5.6434188  -0.22321011   -6.3930225   0.74960364   439061 
 1713000   0.49939951   -6.3922554   -6.3922554   -5.6431579  -0.22226557   -6.3922554   0.74909755   439061 
 1714000   0.49968708   -6.3944295   -6.3944295   -5.6449006  -0.22338958   -6.3944295   0.74952891   439061 
 1715000   0.49934797    -6.393906    -6.393906   -5.6448857  -0.21531714    -6.393906   0.74902024   439061 
 1716000   0.49958371   -6.3929245   -6.3929245   -5.6435506  -0.20950553   -6.3929245   0.74937386   439061 
 1717000   0.49982208   -6.3927438   -6.3927438   -5.6430124  -0.20985228   -6.3927438   0.74973141   439061 
 1718000    0.4992429   -6.3916523   -6.3916523   -5.6427896  -0.21776101   -6.3916523   0.74886265   439061 
 1719000   0.49934064   -6.3920073   -6.3920073   -5.6429981  -0.22541768   -6.3920073   0.74900925   439061 
 1720000   0.49948983   -6.3923622   -6.3923622   -5.6431292  -0.22494049   -6.3923622   0.74923303   439061 
 1721000   0.50040514   -6.3930817   -6.3930817   -5.6424757  -0.21684946   -6.3930817   0.75060601   439061 
 1722000   0.50037899   -6.3936023   -6.3936023   -5.6430355  -0.21242881   -6.3936023   0.75056677   439061 
 1723000   0.50039191   -6.3930988   -6.3930988   -5.6425127  -0.21042883   -6.3930988   0.75058615   439061 
 1724000   0.50018766   -6.3930165   -6.3930165   -5.6427367   -0.2178992   -6.3930165   0.75027978   439061 
 1725000   0.49985724   -6.3927198   -6.3927198   -5.6429357  -0.22350036   -6.3927198   0.74978415   439061 
 1726000   0.49972466   -6.3926394   -6.3926394   -5.6430541  -0.22191714   -6.3926394   0.74958528   439061 
 1727000   0.49955708   -6.3923385   -6.3923385   -5.6430046  -0.22036559   -6.3923385   0.74933391   439061 
 1728000   0.49991977   -6.3932035   -6.3932035   -5.6433255  -0.21388485   -6.3932035   0.74987795   439061 
 1729000   0.50039578   -6.3940413   -6.3940413   -5.6434494  -0.21635764   -6.3940413   0.75059196   439061 
 1730000   0.50065029   -6.3943443   -6.3943443   -5.6433705  -0.21396048   -6.3943443   0.75097372   439061 
 1731000   0.49916899   -6.3923053   -6.3923053   -5.6435535  -0.22172891   -6.3923053   0.74875178   439061 
 1732000   0.49987022   -6.3930711   -6.3930711   -5.6432675  -0.22322025   -6.3930711   0.74980362   439061 
 1733000   0.49935168   -6.3923306   -6.3923306   -5.6433048  -0.21864325   -6.3923306   0.74902582   439061 
 1734000   0.50051767   -6.3937128   -6.3937128    -5.642938  -0.21825459   -6.3937128    0.7507748   439061 
 1735000   0.50040525    -6.394052    -6.394052   -5.6434459  -0.21419502    -6.394052   0.75060617   439061 
 1736000   0.50091506   -6.3941721   -6.3941721   -5.6428012  -0.21609266   -6.3941721   0.75137087   439061 
 1737000   0.50058269    -6.393442    -6.393442   -5.6425696  -0.21796663    -6.393442   0.75087232   439061 
 1738000   0.50061564   -6.3933988   -6.3933988    -5.642477  -0.22433478   -6.3933988   0.75092175   439061 
 1739000   0.49964647   -6.3923195   -6.3923195   -5.6428515  -0.22257778   -6.3923195     0.749468   439061 
 1740000   0.49997226   -6.3927407   -6.3927407    -5.642784  -0.22186764   -6.3927407   0.74995668   439061 
 1741000   0.50010625   -6.3940783   -6.3940783   -5.6439206  -0.21860722   -6.3940783   0.75015766   439061 
 1742000   0.49979052   -6.3941497   -6.3941497   -5.6444656  -0.21861289   -6.3941497   0.74968407   439061 
 1743000   0.50006523   -6.3947258   -6.3947258   -5.6446297  -0.21832633   -6.3947258   0.75009613   439061 
 1744000   0.49985081    -6.392818    -6.392818   -5.6430435  -0.21821975    -6.392818    0.7497745   439061 
 1745000   0.49862479   -6.3914315   -6.3914315   -5.6434961   -0.2168479   -6.3914315   0.74793548   439061 
 1746000   0.49920414   -6.3919724   -6.3919724   -5.6431679  -0.22167101   -6.3919724    0.7488045   439061 
 1747000   0.49997577   -6.3938069   -6.3938069   -5.6438449  -0.22080703   -6.3938069   0.74996195   439061 
 1748000   0.49889931    -6.393222    -6.393222   -5.6448748  -0.21791039    -6.393222   0.74834726   439061 
 1749000    0.4996866   -6.3941489   -6.3941489   -5.6446207  -0.21428365   -6.3941489    0.7495282   439061 
 1750000   0.49931277   -6.3925666   -6.3925666   -5.6435991  -0.21526288   -6.3925666   0.74896745   439061 
 1751000   0.49970764     -6.39326     -6.39326   -5.6437002  -0.21844878     -6.39326   0.74955975   439061 
 1752000   0.49977602   -6.3922259   -6.3922259   -5.6425636  -0.21980518   -6.3922259   0.74966232   439061 
 1753000   0.50008204   -6.3921258   -6.3921258   -5.6420045  -0.21841473   -6.3921258   0.75012136   439061 
 1754000   0.49994525   -6.3920607   -6.3920607   -5.6421445  -0.21711332   -6.3920607   0.74991617   439061 
 1755000   0.50059856   -6.3919237   -6.3919237   -5.6410276  -0.21506496   -6.3919237   0.75089613   439061 
 1756000   0.50019312   -6.3911344   -6.3911344   -5.6408464  -0.21301028   -6.3911344   0.75028797   439061 
 1757000   0.50044084   -6.3917799   -6.3917799   -5.6411203  -0.21698471   -6.3917799   0.75065956   439061 
 1758000   0.49995539   -6.3915557   -6.3915557   -5.6416243   -0.2185405   -6.3915557   0.74993137   439061 
 1759000   0.50024432   -6.3919507   -6.3919507   -5.6415859  -0.21966513   -6.3919507   0.75036477   439061 
 1760000   0.50064757   -6.3927352   -6.3927352   -5.6417655  -0.22071242   -6.3927352   0.75096964   439061 
 1761000   0.50005482   -6.3923012   -6.3923012   -5.6422206  -0.21759805   -6.3923012   0.75008052   439061 
 1762000   0.50039156   -6.3917277   -6.3917277   -5.6411421  -0.21441137   -6.3917277   0.75058563   439061 
 1763000   0.49973628   -6.3904796   -6.3904796   -5.6408769  -0.21015329   -6.3904796   0.74960272   439061 
 1764000   0.50019865   -6.3921456   -6.3921456   -5.6418493  -0.21876103   -6.3921456   0.75029627   439061 
 1765000   0.50067187   -6.3926835   -6.3926835   -5.6416774   -0.2209342   -6.3926835   0.75100609   439061 
 1766000   0.49946192   -6.3910368   -6.3910368   -5.6418456  -0.21723227   -6.3910368   0.74919118   439061 
 1767000   0.50051073   -6.3923524   -6.3923524    -5.641588  -0.21601084   -6.3923524   0.75076438   439061 
 1768000    0.4994757   -6.3909037   -6.3909037   -5.6416918  -0.21161626   -6.3909037   0.74921185   439061 
 1769000   0.50008712    -6.391419    -6.391419     -5.64129  -0.21194992    -6.391419   0.75012897   439061 
 1770000   0.50046885   -6.3926142   -6.3926142   -5.6419127  -0.21855026   -6.3926142   0.75070156   439061 
 1771000   0.50008176   -6.3915063   -6.3915063   -5.6413854  -0.21845772   -6.3915063   0.75012093   439061 
 1772000   0.50006567   -6.3915949   -6.3915949   -5.6414981  -0.21883909   -6.3915949    0.7500968   439061 
 1773000   0.50017527   -6.3916844   -6.3916844   -5.6414232  -0.21751247   -6.3916844    0.7502612   439061 
 1774000   0.50067955   -6.3926872   -6.3926872   -5.6416696  -0.21556769   -6.3926872   0.75101761   439061 
 1775000   0.50090573   -6.3928126   -6.3928126   -5.6414558  -0.21736474   -6.3928126   0.75135688   439061 
 1776000   0.49951464     -6.39078     -6.39078   -5.6415098  -0.21437188     -6.39078   0.74927025   439061 
 1777000   0.49958212   -6.3913924   -6.3913924   -5.6420209  -0.21987681   -6.3913924   0.74937147   439061 
 1778000   0.49895716   -6.3905314   -6.3905314   -5.6420974  -0.21716807   -6.3905314   0.74843403   439061 
 1779000   0.50007614   -6.3916169   -6.3916169   -5.6415044  -0.21560315   -6.3916169    0.7501125   439061 
 1780000   0.50069453   -6.3926039   -6.3926039   -5.6415638   -0.2166493   -6.3926039   0.75104008   439061 
 1781000   0.50012827   -6.3917423   -6.3917423   -5.6415516  -0.21606943   -6.3917423    0.7501907   439061 
 1782000   0.49976717   -6.3915632   -6.3915632   -5.6419141  -0.21903258   -6.3915632   0.74964905   439061 
 1783000   0.49957498   -6.3908065   -6.3908065   -5.6414458  -0.21774744   -6.3908065   0.74936076   439061 
 1784000    0.5004425   -6.3915563   -6.3915563   -5.6408943  -0.21930649   -6.3915563   0.75066203   439061 
 1785000   0.50032937   -6.3918586   -6.3918586   -5.6413662  -0.21532962   -6.3918586   0.75049235   439061 
 1786000   0.50083212   -6.3929387   -6.3929387   -5.6416922  -0.21523483   -6.3929387   0.75124646   439061 
 1787000   0.49983586   -6.3916222   -6.3916222   -5.6418701  -0.21432488   -6.3916222   0.74975208   439061 
 1788000   0.49992992    -6.390645    -6.390645   -5.6407518  -0.21571757    -6.390645   0.74989317   439061 
 1789000   0.49942127   -6.3902619   -6.3902619   -5.6411317   -0.2180269   -6.3902619    0.7491302   439061 
 1790000   0.49968913   -6.3903878   -6.3903878   -5.6408558  -0.21878119   -6.3903878   0.74953199   439061 
 1791000   0.50058868   -6.3912544   -6.3912544   -5.6403731  -0.21804107   -6.3912544   0.75088131   439061 
 1792000   0.50028217   -6.3905431   -6.3905431   -5.6401215  -0.21159667   -6.3905431   0.75042154   439061 
 1793000   0.50064805   -6.3918248   -6.3918248   -5.6408544  -0.21455767   -6.3918248   0.75097037   439061 
 1794000   0.50072713   -6.3923613   -6.3923613   -5.6412723  -0.21908812   -6.3923613   0.75108898   439061 
 1795000   0.50011747   -6.3914229   -6.3914229   -5.6412484  -0.21723088   -6.3914229    0.7501745   439061 
 1796000    0.5002972   -6.3909584   -6.3909584   -5.6405143   -0.2181436   -6.3909584   0.75044409   439061 
 1797000   0.50141157   -6.3930909   -6.3930909   -5.6409753  -0.21957709   -6.3930909   0.75211564   439061 
 1798000   0.50098718   -6.3923444   -6.3923444   -5.6408654  -0.21807157   -6.3923444   0.75147906   439061 
 1799000   0.50058985   -6.3918556   -6.3918556   -5.6409725  -0.21720377   -6.3918556   0.75088306   439061 
 1800000     0.500346   -6.3915052   -6.3915052   -5.6409879  -0.21480232   -6.3915052    0.7505173   439061 
 1801000   0.49991825   -6.3910703   -6.3910703   -5.6411946   -0.2167972   -6.3910703   0.74987567   439061 
 1802000   0.50013426   -6.3915972   -6.3915972   -5.6413975  -0.21915597   -6.3915972   0.75019967   439061 
 1803000   0.50060883   -6.3918721   -6.3918721   -5.6409605  -0.22062783   -6.3918721   0.75091154   439061 
 1804000    0.5006703   -6.3917342   -6.3917342   -5.6407304  -0.21609337   -6.3917342   0.75100374   439061 
 1805000   0.49975853   -6.3901364   -6.3901364   -5.6405003  -0.21491868   -6.3901364   0.74963608   439061 
 1806000    0.5001422    -6.390536    -6.390536   -5.6403244  -0.21233414    -6.390536    0.7502116   439061 
 1807000   0.50020523   -6.3907648   -6.3907648   -5.6404587   -0.2189194   -6.3907648   0.75030614   439061 
 1808000   0.49989449    -6.391741    -6.391741   -5.6419009  -0.22028064    -6.391741   0.74984003   439061 
 1809000   0.50014754   -6.3916127   -6.3916127   -5.6413931  -0.21854148   -6.3916127    0.7502196   439061 
 1810000   0.49965478   -6.3909949   -6.3909949   -5.6415145  -0.21134067   -6.3909949   0.74948046   439061 
 1811000   0.49990091   -6.3912664   -6.3912664   -5.6414168  -0.21401129   -6.3912664   0.74984966   439061 
 1812000   0.50098372   -6.3927399   -6.3927399    -5.641266  -0.21553616   -6.3927399   0.75147387   439061 
 1813000   0.49968771   -6.3909172   -6.3909172   -5.6413873  -0.21690205   -6.3909172   0.74952985   439061 
 1814000   0.49972686   -6.3919945   -6.3919945   -5.6424059     -0.22061   -6.3919945   0.74958858   439061 
 1815000   0.50058866   -6.3928274   -6.3928274   -5.6419462  -0.22367657   -6.3928274   0.75088128   439061 
 1816000   0.50000209   -6.3920106   -6.3920106   -5.6420092  -0.21467364   -6.3920106   0.75000143   439061 
 1817000   0.50032186   -6.3930034   -6.3930034   -5.6425223  -0.21727944   -6.3930034   0.75048109   439061 
 1818000    0.4996534   -6.3917061   -6.3917061   -5.6422278  -0.21550243   -6.3917061   0.74947839   439061 
 1819000   0.49904501   -6.3920026   -6.3920026   -5.6434368  -0.21711304   -6.3920026   0.74856581   439061 
 1820000    0.4993752   -6.3925494   -6.3925494   -5.6434883  -0.22224431   -6.3925494    0.7490611   439061 
 1821000   0.50021448   -6.3932004   -6.3932004   -5.6428803  -0.21803459   -6.3932004   0.75032001   439061 
 1822000   0.50031752   -6.3921219   -6.3921219   -5.6416473   -0.2151966   -6.3921219   0.75047456   439061 
 1823000   0.50032535    -6.392554    -6.392554   -5.6420677  -0.21498209    -6.392554   0.75048631   439061 
 1824000   0.49913148   -6.3912706   -6.3912706   -5.6425751  -0.21619434   -6.3912706   0.74869551   439061 
 1825000   0.50004195   -6.3922091   -6.3922091   -5.6421479  -0.21786721   -6.3922091   0.75006122   439061 
 1826000   0.50061767   -6.3928001   -6.3928001   -5.6418753  -0.22106294   -6.3928001    0.7509248   439061 
 1827000   0.49934293   -6.3910892   -6.3910892   -5.6420765  -0.21746463   -6.3910892    0.7490127   439061 
 1828000   0.50039293   -6.3919525   -6.3919525   -5.6413649  -0.21800464   -6.3919525   0.75058769   439061 
 1829000   0.50022278   -6.3928087   -6.3928087   -5.6424762  -0.21784958   -6.3928087   0.75033246   439061 
 1830000   0.50051656   -6.3936509   -6.3936509   -5.6428778  -0.21758224   -6.3936509   0.75077312   439061 
 1831000   0.49986332   -6.3917015   -6.3917015   -5.6419082  -0.21418833   -6.3917015   0.74979328   439061 
 1832000   0.50062213   -6.3924826   -6.3924826   -5.6415511    -0.218572   -6.3924826   0.75093148   439061 
 1833000   0.50011622   -6.3921021   -6.3921021   -5.6419295  -0.21917843   -6.3921021   0.75017262   439061 
 1834000    0.4995845   -6.3916485   -6.3916485   -5.6422735  -0.22046191   -6.3916485   0.74937505   439061 
 1835000   0.49973501   -6.3922281   -6.3922281   -5.6426273  -0.21788148   -6.3922281    0.7496008   439061 
 1836000   0.50026301   -6.3915683   -6.3915683   -5.6411755  -0.21505033   -6.3915683    0.7503928   439061 
 1837000    0.5003153   -6.3918444   -6.3918444   -5.6413731  -0.21146873   -6.3918444   0.75047124   439061 
 1838000   0.49976965   -6.3918533   -6.3918533   -5.6422005   -0.2164972   -6.3918533   0.74965277   439061 
 1839000   0.50054985   -6.3920644   -6.3920644   -5.6412414   -0.2204611   -6.3920644   0.75082306   439061 
 1840000   0.50015064   -6.3906785   -6.3906785   -5.6404543  -0.21482384   -6.3906785   0.75022426   439061 
 1841000   0.50051659   -6.3918135   -6.3918135   -5.6410404   -0.2194235   -6.3918135   0.75077318   439061 
 1842000   0.50045873   -6.3923128   -6.3923128   -5.6416264  -0.21739492   -6.3923128   0.75068639   439061 
 1843000    0.4996955   -6.3914191   -6.3914191   -5.6418775   -0.2141498   -6.3914191   0.74954155   439061 
 1844000   0.50024453   -6.3924164   -6.3924164   -5.6420513  -0.21406728   -6.3924164   0.75036508   439061 
 1845000   0.50010481   -6.3912633   -6.3912633   -5.6411078  -0.21301807   -6.3912633   0.75015551   439061 
 1846000    0.5010631   -6.3917967   -6.3917967   -5.6402038  -0.21713537   -6.3917967   0.75159294   439061 
 1847000   0.50004349   -6.3906908   -6.3906908   -5.6406273  -0.21741893   -6.3906908   0.75006352   439061 
 1848000   0.50058991   -6.3908602   -6.3908602    -5.639977  -0.21914431   -6.3908602   0.75088316   439061 
 1849000    0.5007755   -6.3912817   -6.3912817   -5.6401202  -0.21569517   -6.3912817   0.75116154   439061 
 1850000   0.50059463   -6.3916442   -6.3916442   -5.6407539  -0.21527551   -6.3916442   0.75089024   439061 
 1851000   0.50085603   -6.3934339   -6.3934339   -5.6421515  -0.21618783   -6.3934339   0.75128234   439061 
 1852000   0.49990449   -6.3924251   -6.3924251   -5.6425701   -0.2177913   -6.3924251   0.74985503   439061 
 1853000   0.50055632   -6.3931012   -6.3931012   -5.6422685   -0.2192875   -6.3931012   0.75083276   439061 
 1854000   0.49965731    -6.391528    -6.391528   -5.6420438  -0.21836029    -6.391528   0.74948425   439061 
 1855000    0.4996992   -6.3924943   -6.3924943   -5.6429472  -0.21990977   -6.3924943    0.7495471   439061 
 1856000   0.49998623   -6.3921226   -6.3921226    -5.642145  -0.21600001   -6.3921226   0.74997764   439061 
 1857000   0.50023184   -6.3926337   -6.3926337   -5.6422877  -0.21575629   -6.3926337   0.75034605   439061 
 1858000   0.50064287   -6.3935328   -6.3935328   -5.6425702  -0.21554151   -6.3935328    0.7509626   439061 
 1859000   0.50014366   -6.3926982   -6.3926982   -5.6424845  -0.21778988   -6.3926982   0.75021379   439061 
 1860000   0.50038359   -6.3923733   -6.3923733   -5.6417997  -0.21611341   -6.3923733   0.75057368   439061 
 1861000   0.50045198   -6.3923341   -6.3923341   -5.6416578   -0.2188077   -6.3923341   0.75067626   439061 
 1862000   0.49992531   -6.3907376   -6.3907376   -5.6408513  -0.21393683   -6.3907376   0.74988626   439061 
 1863000    0.5001635   -6.3909404   -6.3909404   -5.6406969  -0.21571395   -6.3909404   0.75024354   439061 
 1864000   0.50084768   -6.3920326   -6.3920326   -5.6407628  -0.21476719   -6.3920326   0.75126981   439061 
 1865000   0.50023818   -6.3905195   -6.3905195    -5.640164  -0.21294117   -6.3905195   0.75035556   439061 
 1866000   0.50074544   -6.3915739   -6.3915739   -5.6404574  -0.21395164   -6.3915739   0.75111645   439061 
 1867000   0.50089639   -6.3927816   -6.3927816   -5.6414387  -0.21916583   -6.3927816   0.75134288   439061 
 1868000   0.50026472   -6.3910472   -6.3910472   -5.6406519  -0.21683465   -6.3910472   0.75039536   439061 
 1869000   0.50006591    -6.391226    -6.391226   -5.6411289    -0.214529    -6.391226   0.75009715   439061 
 1870000   0.49978638   -6.3915299   -6.3915299    -5.641852  -0.21533063   -6.3915299   0.74967787   439061 
 1871000   0.50029003   -6.3926651   -6.3926651   -5.6422317  -0.21380532   -6.3926651   0.75043333   439061 
 1872000    0.4998532   -6.3916637   -6.3916637   -5.6418856  -0.21527103   -6.3916637   0.74977809   439061 
 1873000   0.49984353   -6.3921318   -6.3921318   -5.6423682  -0.21420316   -6.3921318   0.74976359   439061 
 1874000   0.50019696   -6.3929702   -6.3929702   -5.6426764  -0.22028019   -6.3929702   0.75029372   439061 
 1875000    0.5001159   -6.3914632   -6.3914632   -5.6412911  -0.21491922   -6.3914632   0.75017214   439061 
 1876000   0.49967519   -6.3912429   -6.3912429   -5.6417319   -0.2156225   -6.3912429   0.74951108   439061 
 1877000   0.49987055   -6.3913295   -6.3913295   -5.6415254  -0.21443088   -6.3913295   0.74980411   439061 
 1878000   0.50002489   -6.3916453   -6.3916453   -5.6416097  -0.21531466   -6.3916453   0.75003562   439061 
 1879000   0.50062837   -6.3931883   -6.3931883   -5.6422474  -0.21907726   -6.3931883   0.75094084   439061 
 1880000   0.50084924   -6.3925457   -6.3925457   -5.6412735  -0.21630582   -6.3925457   0.75127215   439061 
 1881000   0.50040803   -6.3921197   -6.3921197   -5.6415094  -0.21968034   -6.3921197   0.75061033   439061 
 1882000   0.49975804   -6.3910146   -6.3910146   -5.6413792  -0.21472224   -6.3910146   0.74963536   439061 
 1883000   0.50004412   -6.3921212   -6.3921212   -5.6420567  -0.21943271   -6.3921212   0.75006446   439061 
 1884000   0.49988179   -6.3922712   -6.3922712   -5.6424502  -0.21752194   -6.3922712   0.74982098   439061 
 1885000   0.50001069   -6.3919606   -6.3919606   -5.6419463   -0.2153574   -6.3919606   0.75001433   439061 
 1886000   0.50068299   -6.3928149   -6.3928149   -5.6417921  -0.21586488   -6.3928149   0.75102277   439061 
 1887000   0.50098207     -6.39223     -6.39223   -5.6407586  -0.21835982     -6.39223    0.7514714   439061 
 1888000   0.50091075    -6.391761    -6.391761   -5.6403966  -0.21677884    -6.391761   0.75136441   439061 
 1889000   0.50083999   -6.3917096   -6.3917096   -5.6404513  -0.21764339   -6.3917096   0.75125827   439061 
 1890000   0.50013813   -6.3912923   -6.3912923   -5.6410868  -0.21899986   -6.3912923   0.75020549   439061 
 1891000    0.4998951   -6.3915234   -6.3915234   -5.6416824  -0.21715335   -6.3915234   0.74984094   439061 
 1892000    0.5001999   -6.3920295   -6.3920295   -5.6417314  -0.21674842   -6.3920295   0.75029814   439061 
 1893000   0.49981461   -6.3911395   -6.3911395   -5.6414193  -0.21377762   -6.3911395   0.74972021   439061 
 1894000   0.50079872   -6.3930353   -6.3930353    -5.641839  -0.21520845   -6.3930353   0.75119637   439061 
 1895000   0.50085657   -6.3926727   -6.3926727   -5.6413895  -0.21745849   -6.3926727   0.75128315   439061 
 1896000    0.5004842   -6.3923241   -6.3923241   -5.6415995  -0.21763324   -6.3923241   0.75072458   439061 
 1897000   0.50110855   -6.3919399   -6.3919399   -5.6402788  -0.21734816   -6.3919399   0.75166111   439061 
 1898000   0.50047402    -6.390966    -6.390966   -5.6402567  -0.21677839    -6.390966   0.75070932   439061 
 1899000   0.50007134   -6.3908663   -6.3908663    -5.640761  -0.21714126   -6.3908663    0.7501053   439061 
 1900000   0.50127122   -6.3930218   -6.3930218   -5.6411167  -0.21741436   -6.3930218   0.75190512   439061 
 1901000   0.50050364    -6.392708    -6.392708   -5.6419543  -0.21792558    -6.392708   0.75075375   439061 
 1902000   0.50016782   -6.3917497   -6.3917497   -5.6414997  -0.21456331   -6.3917497   0.75025003   439061 
 1903000   0.50039034   -6.3920449   -6.3920449   -5.6414611  -0.21623523   -6.3920449    0.7505838   439061 
 1904000   0.50003117   -6.3917695   -6.3917695   -5.6417245  -0.21619825   -6.3917695   0.75004505   439061 
 1905000    0.5007438   -6.3928528   -6.3928528   -5.6417388  -0.21784533   -6.3928528   0.75111399   439061 
 1906000   0.49999704   -6.3917789   -6.3917789    -5.641785  -0.21580363   -6.3917789   0.74999386   439061 
 1907000   0.50032748   -6.3919609   -6.3919609   -5.6414714  -0.21684108   -6.3919609   0.75048951   439061 
 1908000   0.50041378   -6.3920309   -6.3920309    -5.641412  -0.21482628   -6.3920309   0.75061896   439061 
 1909000   0.50014794   -6.3917043   -6.3917043   -5.6414841  -0.21617407   -6.3917043    0.7502202   439061 
 1910000   0.50025922   -6.3916143   -6.3916143   -5.6412272  -0.21674542   -6.3916143   0.75038712   439061 
 1911000   0.50138523    -6.392443    -6.392443   -5.6403669  -0.21835935    -6.392443   0.75207613   439061 
 1912000   0.50133023   -6.3919143   -6.3919143   -5.6399207  -0.21795337   -6.3919143   0.75199363   439061 
 1913000     0.499714    -6.389801    -6.389801   -5.6402317  -0.21283004    -6.389801   0.74956929   439061 
 1914000   0.50030703   -6.3905594   -6.3905594   -5.6401005  -0.21380932   -6.3905594   0.75045883   439061 
 1915000   0.50082427   -6.3905289   -6.3905289   -5.6392942  -0.21333292   -6.3905289    0.7512347   439061 
 1916000   0.50027458   -6.3904075   -6.3904075   -5.6399973  -0.21405239   -6.3904075   0.75041017   439061 
 1917000   0.50031079   -6.3907041   -6.3907041   -5.6402396  -0.21814631   -6.3907041   0.75046447   439061 
 1918000   0.50158243   -6.3927981   -6.3927981   -5.6404261  -0.21901934   -6.3927981   0.75237193   439061 
 1919000   0.49971327   -6.3909323   -6.3909323   -5.6413641  -0.21680363   -6.3909323    0.7495682   439061 
 1920000   0.50034322   -6.3915638   -6.3915638   -5.6410507  -0.21277533   -6.3915638   0.75051312   439061 
 1921000    0.5004368   -6.3922403   -6.3922403   -5.6415868  -0.21650137   -6.3922403   0.75065348   439061 
 1922000   0.50047062   -6.3922987   -6.3922987   -5.6415945   -0.2166509   -6.3922987   0.75070422   439061 
 1923000   0.49999572   -6.3915855   -6.3915855   -5.6415936  -0.21403336   -6.3915855   0.74999187   439061 
 1924000   0.49971788   -6.3912437   -6.3912437   -5.6416686  -0.21833806   -6.3912437   0.74957511   439061 
 1925000   0.50090528   -6.3914075   -6.3914075   -5.6400513  -0.21389641   -6.3914075   0.75135621   439061 
 1926000    0.5002998   -6.3909062   -6.3909062   -5.6404582  -0.21315467   -6.3909062   0.75044799   439061 
 1927000   0.50037244   -6.3909882   -6.3909882   -5.6404312  -0.21242808   -6.3909882   0.75055695   439061 
 1928000   0.49962583   -6.3909387   -6.3909387   -5.6415016  -0.22040215   -6.3909387   0.74943704   439061 
 1929000   0.50020747   -6.3923878   -6.3923878   -5.6420783  -0.21844516   -6.3923878    0.7503095   439061 
 1930000   0.50067809   -6.3934857   -6.3934857   -5.6424703  -0.22021723   -6.3934857   0.75101542   439061 
 1931000   0.49993528    -6.392787    -6.392787   -5.6428858  -0.21656526    -6.392787   0.74990121   439061 
 1932000   0.49993006   -6.3932798   -6.3932798   -5.6433864  -0.21503689   -6.3932798   0.74989338   439061 
 1933000   0.49943043   -6.3925521   -6.3925521   -5.6434082  -0.21652563   -6.3925521   0.74914395   439061 
 1934000   0.49977218   -6.3930089   -6.3930089   -5.6433523  -0.21703189   -6.3930089   0.74965656   439061 
 1935000   0.50007473   -6.3934997   -6.3934997   -5.6433893  -0.22365383   -6.3934997   0.75011039   439061 
 1936000   0.49971301   -6.3924285   -6.3924285   -5.6428607  -0.21603575   -6.3924285    0.7495678   439061 
 1937000   0.49986361   -6.3918933   -6.3918933   -5.6420996  -0.21377123   -6.3918933    0.7497937   439061 
 1938000   0.50047438   -6.3930001   -6.3930001   -5.6422903  -0.21494522   -6.3930001   0.75070986   439061 
 1939000   0.50135329   -6.3933495   -6.3933495   -5.6413213  -0.21675756   -6.3933495   0.75202823   439061 
 1940000    0.4996645   -6.3908599   -6.3908599   -5.6413648  -0.21556844   -6.3908599   0.74949505   439061 
 1941000   0.50010382   -6.3914519   -6.3914519   -5.6412979  -0.21834359   -6.3914519   0.75015402   439061 
 1942000   0.50024694   -6.3910301   -6.3910301   -5.6406614  -0.21567183   -6.3910301    0.7503687   439061 
 1943000   0.50066373   -6.3909751   -6.3909751   -5.6399812  -0.21484564   -6.3909751   0.75099389   439061 
 1944000   0.50141511   -6.3914631   -6.3914631   -5.6393422  -0.21031564   -6.3914631   0.75212096   439061 
 1945000   0.50026758   -6.3904129   -6.3904129   -5.6400132  -0.21429094   -6.3904129   0.75039967   439061 
 1946000   0.50109926   -6.3916253   -6.3916253   -5.6399781  -0.21685799   -6.3916253   0.75164718   439061 
 1947000   0.50055302    -6.390642    -6.390642   -5.6398142  -0.21729862    -6.390642   0.75082782   439061 
 1948000   0.49977228   -6.3904172   -6.3904172   -5.6407604  -0.21601626   -6.3904172   0.74965672   439061 
 1949000   0.50058806   -6.3911479   -6.3911479   -5.6402675  -0.21360534   -6.3911479   0.75088038   439061 
 1950000   0.50096764    -6.391649    -6.391649   -5.6401992  -0.21332835    -6.391649   0.75144976   439061 
 1951000   0.50177025   -6.3934334   -6.3934334   -5.6407797  -0.21630832   -6.3934334   0.75265366   439061 
 1952000   0.50011837   -6.3912779   -6.3912779    -5.641102  -0.21710755   -6.3912779   0.75017585   439061 
 1953000   0.50043638   -6.3912247   -6.3912247   -5.6405718  -0.21294224   -6.3912247   0.75065286   439061 
 1954000    0.5008343   -6.3916331   -6.3916331   -5.6403834  -0.21770727   -6.3916331   0.75124974   439061 
 1955000   0.50075959     -6.39179     -6.39179   -5.6406523  -0.21678123     -6.39179   0.75113767   439061 
 1956000   0.50047668   -6.3910065   -6.3910065   -5.6402932  -0.21426005   -6.3910065   0.75071331   439061 
 1957000   0.50008777   -6.3917108   -6.3917108   -5.6415808  -0.21304348   -6.3917108   0.75012995   439061 
 1958000   0.50033029    -6.390803    -6.390803   -5.6403093  -0.21531447    -6.390803   0.75049373   439061 
 1959000   0.50046256   -6.3908264   -6.3908264   -5.6401343  -0.21292677   -6.3908264   0.75069212   439061 
 1960000   0.50045328   -6.3913124   -6.3913124   -5.6406342  -0.21642342   -6.3913124   0.75067822   439061 
 1961000   0.50109679   -6.3917934   -6.3917934   -5.6401499  -0.21364626   -6.3917934   0.75164348   439061 
 1962000   0.50058134   -6.3913961   -6.3913961   -5.6405258   -0.2158217   -6.3913961    0.7508703   439061 
 1963000   0.50103077   -6.3926515   -6.3926515    -5.641107  -0.21601341   -6.3926515   0.75154444   439061 
 1964000   0.50078587   -6.3917132   -6.3917132   -5.6405361  -0.21551669   -6.3917132   0.75117709   439061 
 1965000   0.50034222   -6.3915175   -6.3915175   -5.6410059  -0.21593392   -6.3915175   0.75051161   439061 
 1966000   0.50072303    -6.391968    -6.391968   -5.6408852  -0.21563449    -6.391968   0.75108284   439061 
 1967000   0.50037943   -6.3917262   -6.3917262   -5.6411588  -0.21628035   -6.3917262   0.75056743   439061 
 1968000   0.49994209   -6.3906694   -6.3906694    -5.640758  -0.21495655   -6.3906694   0.74991143   439061 
 1969000   0.50004011    -6.390653    -6.390653   -5.6405946  -0.21396312    -6.390653   0.75005846   439061 
 1970000   0.50075761   -6.3926615   -6.3926615   -5.6415268    -0.216166   -6.3926615   0.75113471   439061 
 1971000    0.5001588   -6.3914363   -6.3914363   -5.6411998  -0.21643719   -6.3914363    0.7502365   439061 
 1972000   0.50081359   -6.3921726   -6.3921726   -5.6409539  -0.21501486   -6.3921726   0.75121867   439061 
 1973000   0.50060524   -6.3918324   -6.3918324   -5.6409263  -0.21552702   -6.3918324   0.75090615   439061 
 1974000   0.50056504   -6.3920343   -6.3920343   -5.6411885  -0.21804278   -6.3920343   0.75084584   439061 
 1975000   0.50039842   -6.3921451   -6.3921451   -5.6415492  -0.21685921   -6.3921451   0.75059592   439061 
 1976000   0.50070854   -6.3928296   -6.3928296   -5.6417685  -0.21788837   -6.3928296    0.7510611   439061 
 1977000   0.50058692   -6.3919162   -6.3919162   -5.6410376  -0.21548524   -6.3919162   0.75087867   439061 
 1978000   0.49948126   -6.3919798   -6.3919798   -5.6427596  -0.21309175   -6.3919798   0.74922018   439061 
 1979000   0.50094632   -6.3934101   -6.3934101   -5.6419923  -0.21737679   -6.3934101   0.75141777   439061 
 1980000   0.49965009   -6.3911311   -6.3911311   -5.6416577  -0.21290473   -6.3911311   0.74947343   439061 
 1981000   0.50085924   -6.3918484   -6.3918484   -5.6405612  -0.22088721   -6.3918484   0.75128716   439061 
 1982000   0.50010049   -6.3922205   -6.3922205   -5.6420715  -0.21987504   -6.3922205   0.75014903   439061 
 1983000    0.4995825   -6.3908558   -6.3908558   -5.6414838  -0.21597115   -6.3908558   0.74937204   439061 
 1984000   0.50028366   -6.3927296   -6.3927296   -5.6423058  -0.21670267   -6.3927296   0.75042379   439061 
 1985000   0.50037281   -6.3928857   -6.3928857   -5.6423282  -0.21413679   -6.3928857    0.7505575   439061 
 1986000   0.49931911   -6.3919273   -6.3919273   -5.6429503  -0.21107755   -6.3919273   0.74897696   439061 
 1987000   0.50036586   -6.3924953   -6.3924953   -5.6419482  -0.21513371   -6.3924953   0.75054707   439061 
 1988000   0.49982154   -6.3914215   -6.3914215   -5.6416909  -0.21871626   -6.3914215   0.74973061   439061 
 1989000   0.50010966   -6.3928475   -6.3928475   -5.6426847  -0.22167238   -6.3928475   0.75016278   439061 
 1990000   0.50034714   -6.3922156   -6.3922156   -5.6416966   -0.2181647   -6.3922156     0.750519   439061 
 1991000   0.50104448   -6.3921481   -6.3921481   -5.6405831  -0.21245454   -6.3921481     0.751565   439061 
 1992000   0.50058397    -6.392842    -6.392842   -5.6419678  -0.21408599    -6.392842   0.75087424   439061 
 1993000   0.49976645   -6.3924289   -6.3924289    -5.642781  -0.21421583   -6.3924289   0.74964797   439061 
 1994000   0.49950687    -6.393242    -6.393242   -5.6439834  -0.21873547    -6.393242    0.7492586   439061 
 1995000   0.49911601   -6.3917143   -6.3917143    -5.643042  -0.21930082   -6.3917143    0.7486723   439061 
 1996000   0.49994708   -6.3925913   -6.3925913   -5.6426724   -0.2157242   -6.3925913   0.74991891   439061 
 1997000   0.50009632   -6.3923934   -6.3923934   -5.6422506  -0.21423158   -6.3923934   0.75014278   439061 
 1998000   0.50052563   -6.3923168   -6.3923168     -5.64153  -0.21361137   -6.3923168   0.75078673   439061 
 1999000   0.50057744   -6.3928008   -6.3928008   -5.6419363  -0.21739779   -6.3928008   0.75086445   439061 
 2000000   0.50026486   -6.3925107   -6.3925107   -5.6421151  -0.21649856   -6.3925107   0.75039559   439061 
 2001000   0.49987623   -6.3918856   -6.3918856    -5.642073  -0.21956484   -6.3918856   0.74981263   439061 
 2002000   0.50045336   -6.3931849   -6.3931849   -5.6425065  -0.21753522   -6.3931849   0.75067833   439061 
 2003000    0.5002939   -6.3929388   -6.3929388   -5.6424996  -0.21498217   -6.3929388   0.75043914   439061 
 2004000   0.50082131   -6.3928512   -6.3928512   -5.6416209   -0.2133883   -6.3928512   0.75123025   439061 
 2005000   0.50017783   -6.3917032   -6.3917032   -5.6414382  -0.21336956   -6.3917032   0.75026503   439061 
 2006000   0.50080555   -6.3930784   -6.3930784   -5.6418718  -0.21821946   -6.3930784   0.75120661   439061 
 2007000   0.49995964   -6.3913913   -6.3913913   -5.6414535  -0.21670356   -6.3913913   0.74993775   439061 
 2008000   0.50034288   -6.3918836   -6.3918836    -5.641371  -0.21636133   -6.3918836   0.75051261   439061 
 2009000   0.49964518   -6.3914566   -6.3914566   -5.6419905  -0.21273681   -6.3914566   0.74946606   439061 
 2010000   0.50022582   -6.3917476   -6.3917476   -5.6414106  -0.21186097   -6.3917476   0.75033702   439061 
 2011000   0.50099295   -6.3935673   -6.3935673   -5.6420796  -0.21591881   -6.3935673   0.75148772   439061 
 2012000   0.49952844   -6.3911098   -6.3911098   -5.6418188  -0.21241171   -6.3911098   0.74929096   439061 
 2013000   0.49951944   -6.3909367   -6.3909367   -5.6416593  -0.21481592   -6.3909367   0.74927746   439061 
 2014000   0.50041034   -6.3918096   -6.3918096   -5.6411959  -0.21817073   -6.3918096   0.75061379   439061 
 2015000    0.5008986   -6.3920906   -6.3920906   -5.6407444  -0.21771773   -6.3920906   0.75134619   439061 
 2016000   0.50048172   -6.3922848   -6.3922848   -5.6415639  -0.21641413   -6.3922848   0.75072087   439061 
 2017000   0.50080581   -6.3918802   -6.3918802   -5.6406732   -0.2132111   -6.3918802   0.75120701   439061 
 2018000   0.50111706    -6.392641    -6.392641   -5.6409671  -0.21598239    -6.392641   0.75167387   439061 
 2019000   0.50092726   -6.3931713   -6.3931713   -5.6417822  -0.21937667   -6.3931713   0.75138918   439061 
 2020000    0.5007699   -6.3922826   -6.3922826   -5.6411294  -0.21873559   -6.3922826   0.75115314   439061 
 2021000   0.50026716   -6.3916675   -6.3916675   -5.6412685  -0.21780184   -6.3916675   0.75039904   439061 
 2022000   0.49995505   -6.3914944   -6.3914944   -5.6415635  -0.21748456   -6.3914944   0.74993086   439061 
 2023000   0.50036489   -6.3911969   -6.3911969   -5.6406512   -0.2132458   -6.3911969   0.75054562   439061 
 2024000    0.5012787   -6.3929477   -6.3929477   -5.6410313  -0.21266271   -6.3929477   0.75191634   439061 
 2025000   0.49984126   -6.3920962   -6.3920962    -5.642336   -0.2137259   -6.3920962   0.74976018   439061 
 2026000   0.50038588   -6.3925215   -6.3925215   -5.6419444  -0.21670429   -6.3925215   0.75057711   439061 
 2027000   0.49956627   -6.3921794   -6.3921794   -5.6428317  -0.21777618   -6.3921794    0.7493477   439061 
 2028000   0.50001023   -6.3922917   -6.3922917   -5.6422781  -0.21495986   -6.3922917   0.75001363   439061 
 2029000   0.50051234   -6.3927787   -6.3927787   -5.6420119  -0.21464851   -6.3927787    0.7507668   439061 
 2030000   0.50085085   -6.3921259   -6.3921259   -5.6408513  -0.21370461   -6.3921259   0.75127457   439061 
 2031000   0.50026269   -6.3917319   -6.3917319   -5.6413396  -0.21570268   -6.3917319   0.75039232   439061 
 2032000    0.5005616   -6.3931342   -6.3931342   -5.6422935   -0.2201754   -6.3931342    0.7508407   439061 
 2033000   0.50060328   -6.3920664   -6.3920664   -5.6411631  -0.21866708   -6.3920664   0.75090321   439061 
 2034000   0.50008132   -6.3927153   -6.3927153   -5.6425951  -0.22020985   -6.3927153   0.75012027   439061 
 2035000   0.50066169   -6.3925799   -6.3925799   -5.6415891  -0.21514108   -6.3925799   0.75099083   439061 
 2036000   0.50050147   -6.3913858   -6.3913858   -5.6406353  -0.21154421   -6.3913858   0.75075049   439061 
 2037000   0.50022774   -6.3906599   -6.3906599     -5.64032    -0.214246   -6.3906599   0.75033991   439061 
 2038000   0.49966452   -6.3914093   -6.3914093   -5.6419143  -0.21580012   -6.3914093   0.74949508   439061 
 2039000    0.5001375   -6.3911424   -6.3911424   -5.6409379  -0.21832839   -6.3911424   0.75020454   439061 
 2040000   0.50125756   -6.3923708   -6.3923708   -5.6404862  -0.21585894   -6.3923708   0.75188463   439061 
 2041000   0.50039633   -6.3914833   -6.3914833   -5.6408905  -0.21514537   -6.3914833   0.75059279   439061 
 2042000   0.50119838   -6.3920592   -6.3920592   -5.6402633  -0.21277492   -6.3920592   0.75179586   439061 
 2043000   0.50068178   -6.3916913   -6.3916913   -5.6406704  -0.21594624   -6.3916913   0.75102096   439061 
 2044000   0.50027354   -6.3915518   -6.3915518   -5.6411432  -0.21474995   -6.3915518    0.7504086   439061 
 2045000   0.50063833   -6.3913583   -6.3913583   -5.6404025  -0.21674275   -6.3913583   0.75095579   439061 
 2046000    0.5009611   -6.3920682   -6.3920682   -5.6406282  -0.21724712   -6.3920682   0.75143994   439061 
 2047000    0.5006942   -6.3918855   -6.3918855   -5.6408459  -0.21637791   -6.3918855   0.75103959   439061 
 2048000   0.50097793   -6.3919005   -6.3919005   -5.6404353  -0.21298472   -6.3919005   0.75146518   439061 
 2049000   0.50080192   -6.3917877   -6.3917877   -5.6405865  -0.21611067   -6.3917877   0.75120116   439061 
 2050000   0.50029726    -6.390993    -6.390993   -5.6405488  -0.21425325    -6.390993   0.75044418   439061 
 2051000   0.50070781    -6.393205    -6.393205    -5.642145  -0.21727983    -6.393205      0.75106   439061 
 2052000   0.50066492   -6.3927463   -6.3927463   -5.6417507   -0.2196141   -6.3927463   0.75099567   439061 
 2053000     0.500351   -6.3922002   -6.3922002   -5.6416754  -0.21419453   -6.3922002   0.75052479   439061 
 2054000    0.5008394   -6.3931213   -6.3931213   -5.6418639  -0.21758509   -6.3931213   0.75125739   439061 
 2055000    0.5002272   -6.3924807   -6.3924807   -5.6421416  -0.21491821   -6.3924807   0.75033909   439061 
 2056000   0.49902357   -6.3905737   -6.3905737   -5.6420401  -0.21643801   -6.3905737   0.74853366   439061 
 2057000   0.50024304    -6.392592    -6.392592   -5.6422291  -0.21633101    -6.392592   0.75036285   439061 
 2058000   0.50001372   -6.3922398   -6.3922398   -5.6422209  -0.22101463   -6.3922398   0.75001887   439061 
 2059000   0.50086547   -6.3930646   -6.3930646   -5.6417681  -0.21568712   -6.3930646   0.75129649   439061 
 2060000   0.50024404   -6.3920106   -6.3920106   -5.6416462  -0.21262233   -6.3920106   0.75036435   439061 
 2061000   0.50103497   -6.3941991   -6.3941991   -5.6426484   -0.2156611   -6.3941991   0.75155075   439061 
 2062000   0.50018077    -6.393121    -6.393121   -5.6428515  -0.21700967    -6.393121   0.75026945   439061 
 2063000   0.49982967   -6.3930215   -6.3930215   -5.6432787  -0.21791092   -6.3930215   0.74974279   439061 
 2064000   0.50064341   -6.3942913   -6.3942913   -5.6433279  -0.21869435   -6.3942913    0.7509634   439061 
 2065000   0.49975512   -6.3926143   -6.3926143   -5.6429833  -0.21818658   -6.3926143   0.74963097   439061 
 2066000     0.500216   -6.3933101   -6.3933101   -5.6429878  -0.21293173   -6.3933101    0.7503223   439061 
 2067000   0.49978783   -6.3928776   -6.3928776   -5.6431975  -0.21746257   -6.3928776   0.74968003   439061 
 2068000    0.5004935   -6.3927419   -6.3927419   -5.6420033   -0.2171894   -6.3927419   0.75073854   439061 
 2069000   0.49934657   -6.3922829   -6.3922829   -5.6432647   -0.2171859   -6.3922829   0.74901816   439061 
 2070000   0.50117989   -6.3941515   -6.3941515   -5.6423834  -0.21707348   -6.3941515   0.75176812   439061 
 2071000   0.50006063   -6.3926657   -6.3926657   -5.6425764  -0.21422755   -6.3926657   0.75008924   439061 
 2072000   0.50146696    -6.394255    -6.394255   -5.6420563  -0.21627461    -6.394255   0.75219873   439061 
 2073000   0.49998665   -6.3916448   -6.3916448   -5.6416665  -0.21285541   -6.3916448   0.74997827   439061 
 2074000   0.49928648   -6.3908443   -6.3908443   -5.6419162  -0.21568602   -6.3908443   0.74892801   439061 
 2075000   0.49976189   -6.3909448   -6.3909448   -5.6413037   -0.2150891   -6.3909448   0.74964113   439061 
 2076000   0.50084596   -6.3923771   -6.3923771   -5.6411099  -0.21754769   -6.3923771   0.75126724   439061 
 2077000   0.50068481   -6.3931646   -6.3931646   -5.6421391  -0.21660334   -6.3931646   0.75102551   439061 
 2078000   0.50003644   -6.3921901   -6.3921901   -5.6421371  -0.21661066   -6.3921901   0.75005295   439061 
 2079000   0.50042695   -6.3924611   -6.3924611   -5.6418224   -0.2134753   -6.3924611   0.75063872   439061 
 2080000   0.49998627   -6.3925204   -6.3925204   -5.6425427  -0.21684388   -6.3925204    0.7499777   439061 
 2081000   0.49975634   -6.3934582   -6.3934582   -5.6438254  -0.22064739   -6.3934582    0.7496328   439061 
 2082000     0.499913    -6.392881    -6.392881   -5.6430132  -0.21906379    -6.392881   0.74986779   439061 
 2083000   0.50005731   -6.3923308   -6.3923308   -5.6422466  -0.21427206   -6.3923308   0.75008425   439061 
 2084000   0.49992609   -6.3921489   -6.3921489   -5.6422615   -0.2121102   -6.3921489   0.74988742   439061 
 2085000   0.49989637    -6.391679    -6.391679   -5.6418361  -0.21437127    -6.391679   0.74984285   439061 
 2086000   0.49964709   -6.3932725   -6.3932725   -5.6438036  -0.21920656   -6.3932725   0.74946893   439061 
 2087000    0.5001768   -6.3921107   -6.3921107   -5.6418472  -0.21762602   -6.3921107   0.75026349   439061 
 2088000    0.5005355    -6.392478    -6.392478   -5.6416764   -0.2140094    -6.392478   0.75080155   439061 
 2089000   0.50060379   -6.3928799   -6.3928799   -5.6419759  -0.21579117   -6.3928799   0.75090398   439061 
 2090000   0.50043612    -6.392047    -6.392047   -5.6413946  -0.21574709    -6.392047   0.75065247   439061 
 2091000   0.50036364   -6.3918769   -6.3918769   -5.6413331  -0.21792469   -6.3918769   0.75054375   439061 
 2092000   0.49999993   -6.3925404   -6.3925404   -5.6425422  -0.21996804   -6.3925404   0.74999818   439061 
 2093000   0.50076253   -6.3924455   -6.3924455   -5.6413034  -0.21305488   -6.3924455   0.75114208   439061 
 2094000   0.50041312   -6.3926143   -6.3926143   -5.6419964  -0.21507091   -6.3926143   0.75061797   439061 
 2095000    0.5003423   -6.3924057   -6.3924057    -5.641894  -0.21273454   -6.3924057   0.75051174   439061 
 2096000   0.50006107    -6.392367    -6.392367   -5.6422771  -0.21684458    -6.392367    0.7500899   439061 
 2097000   0.49989364   -6.3917039   -6.3917039   -5.6418652  -0.21420197   -6.3917039   0.74983875   439061 
 2098000   0.50058574   -6.3923029   -6.3923029    -5.641426  -0.21346802   -6.3923029   0.75087691   439061 
 2099000   0.50101688    -6.393202    -6.393202   -5.6416784  -0.21498945    -6.393202   0.75152361   439061 
 2100000   0.49982034   -6.3922255   -6.3922255   -5.6424967  -0.21577344   -6.3922255    0.7497288   439061 
 2101000   0.49949528   -6.3923162   -6.3923162    -5.643075  -0.21555679   -6.3923162   0.74924121   439061 
 2102000   0.50054461   -6.3939608   -6.3939608   -5.6431456  -0.21986708   -6.3939608    0.7508152   439061 
 2103000   0.49992134   -6.3927108   -6.3927108   -5.6428305  -0.21423302   -6.3927108    0.7498803   439061 
 2104000   0.49933193   -6.3922012   -6.3922012    -5.643205  -0.21471279   -6.3922012   0.74899619   439061 
 2105000   0.49967525    -6.393493    -6.393493   -5.6439818  -0.21842613    -6.393493   0.74951117   439061 
 2106000    0.5002039   -6.3935182   -6.3935182    -5.643214  -0.21839487   -6.3935182   0.75030414   439061 
 2107000   0.50089165    -6.394623    -6.394623   -5.6432873  -0.21909241    -6.394623   0.75133576   439061 
 2108000   0.49922541   -6.3921069   -6.3921069   -5.6432705  -0.21327621   -6.3921069   0.74883641   439061 
 2109000    0.5003472   -6.3933465   -6.3933465   -5.6428274  -0.21715832   -6.3933465   0.75051909   439061 
 2110000   0.50030572   -6.3932971   -6.3932971   -5.6428402  -0.21641976   -6.3932971   0.75045688   439061 
 2111000   0.50008654   -6.3920789   -6.3920789   -5.6419508  -0.21487585   -6.3920789    0.7501281   439061 
 2112000   0.50011589   -6.3926162   -6.3926162   -5.6424441  -0.21687145   -6.3926162   0.75017212   439061 
 2113000   0.49988372   -6.3922962   -6.3922962   -5.6424723  -0.21374169   -6.3922962   0.74982388   439061 
 2114000   0.49953773   -6.3921687   -6.3921687   -5.6428638  -0.21811862   -6.3921687   0.74930489   439061 
 2115000   0.50045805    -6.392458    -6.392458   -5.6417726  -0.21685764    -6.392458   0.75068536   439061 
 2116000   0.50037419   -6.3927125   -6.3927125   -5.6421529  -0.21474052   -6.3927125   0.75055958   439061 
 2117000   0.50079494   -6.3933309   -6.3933309   -5.6421402   -0.2127103   -6.3933309    0.7511907   439061 
 2118000   0.49974904   -6.3923714   -6.3923714   -5.6427496  -0.21442333   -6.3923714   0.74962185   439061 
 2119000   0.49977354   -6.3931238   -6.3931238   -5.6434652  -0.21878984   -6.3931238    0.7496586   439061 
 2120000   0.50033291   -6.3936643   -6.3936643   -5.6431667  -0.21895714   -6.3936643   0.75049765   439061 
 2121000   0.49993151   -6.3939462   -6.3939462   -5.6440506  -0.21820819   -6.3939462   0.74989555   439061 
 2122000   0.49943131   -6.3927323   -6.3927323   -5.6435871  -0.21696056   -6.3927323   0.74914526   439061 
 2123000   0.50098775   -6.3937735   -6.3937735   -5.6422936  -0.21470609   -6.3937735   0.75147991   439061 
 2124000   0.49999052    -6.392049    -6.392049   -5.6420649  -0.21486499    -6.392049   0.74998407   439061 
 2125000   0.49937718   -6.3909854   -6.3909854   -5.6419213  -0.21430477   -6.3909854   0.74906406   439061 
 2126000   0.50054171   -6.3927282   -6.3927282   -5.6419173  -0.22044061   -6.3927282   0.75081085   439061 
 2127000   0.49973673   -6.3913041   -6.3913041   -5.6417007  -0.21642591   -6.3913041   0.74960339   439061 
 2128000   0.49948984   -6.3920121   -6.3920121    -5.642779  -0.21596938   -6.3920121   0.74923305   439061 
 2129000   0.49994931   -6.3927734   -6.3927734   -5.6428512  -0.21254195   -6.3927734   0.74992226   439061 
 2130000   0.50038936   -6.3927713   -6.3927713    -5.642189  -0.21352958   -6.3927713   0.75058233   439061 
 2131000   0.49965837   -6.3912346   -6.3912346   -5.6417488  -0.21434414   -6.3912346   0.74948585   439061 
 2132000   0.50047751   -6.3912812   -6.3912812   -5.6405667  -0.21497886   -6.3912812   0.75071456   439061 
 2133000   0.49956184   -6.3901512   -6.3901512   -5.6408102  -0.21747315   -6.3901512   0.74934105   439061 
 2134000   0.50113017   -6.3935778   -6.3935778   -5.6418843  -0.21875971   -6.3935778   0.75169355   439061 
 2135000   0.50052506    -6.393032    -6.393032   -5.6422461  -0.21680658    -6.393032   0.75078588   439061 
 2136000   0.50106536   -6.3941782   -6.3941782   -5.6425819  -0.21422065   -6.3941782   0.75159632   439061 
 2137000   0.50023241   -6.3923886   -6.3923886   -5.6420417  -0.21227734   -6.3923886   0.75034691   439061 
 2138000   0.50089032   -6.3937605   -6.3937605   -5.6424267  -0.21661171   -6.3937605   0.75133377   439061 
 2139000   0.49968718   -6.3915694   -6.3915694   -5.6420403  -0.21716639   -6.3915694   0.74952906   439061 
 2140000   0.50004496   -6.3923113   -6.3923113   -5.6422456   -0.2195183   -6.3923113   0.75006573   439061 
 2141000   0.49927956   -6.3903824   -6.3903824   -5.6414648  -0.21259717   -6.3903824   0.74891764   439061 
 2142000    0.5000981   -6.3923971   -6.3923971   -5.6422516  -0.21103435   -6.3923971   0.75014545   439061 
 2143000   0.50037225   -6.3928625   -6.3928625   -5.6423058  -0.21105259   -6.3928625   0.75055666   439061 
 2144000   0.50005767   -6.3933557   -6.3933557   -5.6432709   -0.2146127   -6.3933557    0.7500848   439061 
 2145000   0.50019431   -6.3929192   -6.3929192   -5.6426294  -0.21644471   -6.3929192   0.75028976   439061 
 2146000   0.49993928   -6.3915667   -6.3915667   -5.6416595  -0.21919441   -6.3915667   0.74990721   439061 
 2147000   0.50023199   -6.3924921   -6.3924921   -5.6421459  -0.21773988   -6.3924921   0.75034627   439061 
 2148000   0.49969672   -6.3917196   -6.3917196   -5.6421763  -0.21693474   -6.3917196   0.74954337   439061 
 2149000    0.4998209   -6.3915632   -6.3915632   -5.6418335  -0.21005399   -6.3915632   0.74972964   439061 
 2150000   0.50137826   -6.3939676   -6.3939676   -5.6419019  -0.21133786   -6.3939676   0.75206567   439061 
 2151000    0.5001375   -6.3930721   -6.3930721   -5.6428676   -0.2135879   -6.3930721   0.75020454   439061 
 2152000   0.49945054    -6.391021    -6.391021   -5.6418469  -0.21219433    -6.391021   0.74917411   439061 
 2153000   0.50112768   -6.3945321   -6.3945321   -5.6428423  -0.22247289   -6.3945321   0.75168981   439061 
 2154000   0.50021938   -6.3924219   -6.3924219   -5.6420945  -0.21857423   -6.3924219   0.75032736   439061 
 2155000   0.50031733   -6.3920604   -6.3920604   -5.6415861  -0.21293451   -6.3920604   0.75047429   439061 
 2156000   0.50123507   -6.3930949   -6.3930949    -5.641244   -0.2142205   -6.3930949   0.75185089   439061 
 2157000   0.50128487   -6.3929072   -6.3929072   -5.6409816  -0.21203114   -6.3929072    0.7519256   439061 
 2158000   0.50054879   -6.3931515   -6.3931515   -5.6423301  -0.21682661   -6.3931515   0.75082148   439061 
 2159000   0.50105641   -6.3931635   -6.3931635   -5.6415806  -0.22244998   -6.3931635    0.7515829   439061 
 2160000   0.50066402   -6.3923593   -6.3923593    -5.641365   -0.2188118   -6.3923593   0.75099432   439061 
 2161000   0.50037664   -6.3927316   -6.3927316   -5.6421683  -0.21963876   -6.3927316   0.75056325   439061 
 2162000   0.50002492   -6.3922646   -6.3922646   -5.6422289  -0.21312761   -6.3922646   0.75003567   439061 
 2163000   0.50028126    -6.392696    -6.392696   -5.6422758  -0.20695295    -6.392696   0.75042019   439061 
 2164000   0.50075426   -6.3929951   -6.3929951   -5.6418654  -0.21369899   -6.3929951   0.75112968   439061 
 2165000   0.50138705   -6.3941149   -6.3941149    -5.642036  -0.22074384   -6.3941149   0.75207886   439061 
 2166000   0.49968327   -6.3910905   -6.3910905   -5.6415673  -0.21777501   -6.3910905   0.74952319   439061 
 2167000   0.49976319     -6.39177     -6.39177   -5.6421269  -0.21602915     -6.39177   0.74964308   439061 
 2168000   0.49980286   -6.3919973   -6.3919973   -5.6422947  -0.21618238   -6.3919973   0.74970258   439061 
 2169000   0.50030071   -6.3929702   -6.3929702   -5.6425209  -0.21068416   -6.3929702   0.75044936   439061 
 2170000   0.50030534   -6.3934362   -6.3934362   -5.6429799  -0.21406452   -6.3934362    0.7504563   439061 
 2171000   0.50051085   -6.3936228   -6.3936228   -5.6428582  -0.21651748   -6.3936228   0.75076456   439061 
 2172000    0.4991963   -6.3924934   -6.3924934   -5.6437007  -0.21647458   -6.3924934   0.74879275   439061 
 2173000   0.50059903   -6.3937038   -6.3937038    -5.642807  -0.22028989   -6.3937038   0.75089684   439061 
 2174000   0.50001988   -6.3923673   -6.3923673   -5.6423392  -0.21483956   -6.3923673   0.75002812   439061 
 2175000    0.4999481   -6.3925046   -6.3925046   -5.6425841  -0.21132003   -6.3925046   0.74992045   439061 
 2176000   0.50119775   -6.3939462   -6.3939462   -5.6421513  -0.21726341   -6.3939462   0.75179491   439061 
 2177000   0.50019158   -6.3928309   -6.3928309   -5.6425453  -0.21733662   -6.3928309   0.75028567   439061 
 2178000   0.50029923    -6.392692    -6.392692   -5.6422449  -0.21746716    -6.392692   0.75044713   439061 
 2179000   0.50067587   -6.3937536   -6.3937536   -5.6427415  -0.21795625   -6.3937536    0.7510121   439061 
 2180000   0.50002428   -6.3932148   -6.3932148   -5.6431801  -0.21676896   -6.3932148   0.75003472   439061 
 2181000   0.50045195   -6.3936643   -6.3936643   -5.6429881  -0.21613151   -6.3936643   0.75067622   439061 
 2182000   0.50097871   -6.3938871   -6.3938871   -5.6424208  -0.21256518   -6.3938871   0.75146635   439061 
 2183000   0.50075532   -6.3938455   -6.3938455   -5.6427142  -0.21817103   -6.3938455   0.75113126   439061 
 2184000   0.50042272   -6.3925503   -6.3925503   -5.6419179  -0.21803101   -6.3925503   0.75063237   439061 
 2185000   0.49989634   -6.3919452   -6.3919452   -5.6421025  -0.21862777   -6.3919452    0.7498428   439061 
 2186000   0.49983408   -6.3923015   -6.3923015   -5.6425521  -0.21968541   -6.3923015   0.74974941   439061 
 2187000     0.500013   -6.3925006   -6.3925006   -5.6424828  -0.21426047   -6.3925006    0.7500178   439061 
 2188000   0.50036717   -6.3933041   -6.3933041    -5.642755  -0.21321423   -6.3933041   0.75054904   439061 
 2189000   0.50087693    -6.393974    -6.393974   -5.6426603  -0.21337916    -6.393974   0.75131368   439061 
 2190000    0.4997052   -6.3928537   -6.3928537   -5.6432976  -0.21842032   -6.3928537   0.74955609   439061 
 2191000   0.49983979   -6.3931125   -6.3931125   -5.6433545  -0.21987817   -6.3931125   0.74975797   439061 
 2192000    0.5006413    -6.393303    -6.393303   -5.6423427  -0.21736994    -6.393303   0.75096024   439061 
 2193000   0.50058958   -6.3930492   -6.3930492   -5.6421665  -0.21720148   -6.3930492   0.75088266   439061 
 2194000   0.50021379   -6.3933315   -6.3933315   -5.6430126  -0.21440163   -6.3933315   0.75031897   439061 
 2195000   0.50010749   -6.3936421   -6.3936421   -5.6434826  -0.22063859   -6.3936421   0.75015953   439061 
 2196000   0.49957574    -6.393163    -6.393163   -5.6438011  -0.21689363    -6.393163    0.7493619   439061 
 2197000    0.4997454   -6.3931279   -6.3931279   -5.6435115  -0.21609502   -6.3931279    0.7496164   439061 
 2198000    0.5008974   -6.3946679   -6.3946679   -5.6433235  -0.21776322   -6.3946679   0.75134438   439061 
 2199000   0.50000059    -6.393937    -6.393937   -5.6439378  -0.21406084    -6.393937   0.74999918   439061 
 2200000   0.49960837   -6.3924016   -6.3924016   -5.6429908  -0.21259893   -6.3924016   0.74941085   439061 
 2201000    0.5004018   -6.3944689   -6.3944689   -5.6438679  -0.21657437   -6.3944689   0.75060099   439061 
 2202000   0.49984298   -6.3927579   -6.3927579   -5.6429952  -0.21849541   -6.3927579   0.74976276   439061 
 2203000   0.50003231   -6.3938133   -6.3938133   -5.6437665  -0.21991976   -6.3938133   0.75004675   439061 
 2204000   0.49946223   -6.3932023   -6.3932023   -5.6440107   -0.2189065   -6.3932023   0.74919164   439061 
 2205000   0.49960466   -6.3932942   -6.3932942   -5.6438889  -0.20995425   -6.3932942   0.74940528   439061 
 2206000   0.50063728    -6.393612    -6.393612   -5.6426578  -0.21362315    -6.393612   0.75095421   439061 
 2207000   0.50017516   -6.3933347   -6.3933347   -5.6430737  -0.21260226   -6.3933347   0.75026103   439061 
 2208000   0.49895759   -6.3917568   -6.3917568   -5.6433221  -0.21762492   -6.3917568   0.74843468   439061 
 2209000   0.49944978    -6.391725    -6.391725   -5.6425521  -0.21760961    -6.391725   0.74917297   439061 
 2210000   0.50006709   -6.3925411   -6.3925411   -5.6424421  -0.21369897   -6.3925411   0.75009893   439061 
 2211000   0.49957246   -6.3921937   -6.3921937   -5.6428367  -0.20978762   -6.3921937   0.74935699   439061 
 2212000    0.5005722   -6.3931052   -6.3931052   -5.6422486  -0.20779898   -6.3931052   0.75085658   439061 
 2213000   0.49971409   -6.3920367   -6.3920367   -5.6424673  -0.21247219   -6.3920367   0.74956943   439061 
 2214000   0.49916196   -6.3913889   -6.3913889   -5.6426477  -0.21632263   -6.3913889   0.74874124   439061 
 2215000   0.50005853   -6.3926422   -6.3926422   -5.6425561  -0.22232234   -6.3926422   0.75008608   439061 
 2216000   0.50150318   -6.3940538   -6.3940538   -5.6418008  -0.22014363   -6.3940538   0.75225306   439061 
 2217000   0.50094165   -6.3937783   -6.3937783   -5.6423676  -0.21487864   -6.3937783   0.75141077   439061 
 2218000   0.50078924   -6.3940474   -6.3940474   -5.6428653  -0.21209104   -6.3940474   0.75118216   439061 
 2219000   0.50060953   -6.3938062   -6.3938062   -5.6428936  -0.21427803   -6.3938062   0.75091259   439061 
 2220000   0.50033193   -6.3918173   -6.3918173   -5.6413211    -0.214327   -6.3918173   0.75049619   439061 
 2221000   0.50037192   -6.3930219   -6.3930219   -5.6424657  -0.22125636   -6.3930219   0.75055618   439061 
 2222000   0.49946207   -6.3909336   -6.3909336   -5.6417422  -0.21500693   -6.3909336    0.7491914   439061 
 2223000   0.50023442   -6.3917934   -6.3917934   -5.6414435  -0.21386296   -6.3917934   0.75034992   439061 
 2224000    0.5011093   -6.3931934   -6.3931934   -5.6415311  -0.21115538   -6.3931934   0.75166224   439061 
 2225000   0.50065738   -6.3936585   -6.3936585   -5.6426742  -0.21452435   -6.3936585   0.75098436   439061 
 2226000   0.50054926    -6.392964    -6.392964   -5.6421418  -0.21743735    -6.392964   0.75082218   439061 
 2227000   0.50027838   -6.3923165   -6.3923165   -5.6419006  -0.21672373   -6.3923165   0.75041587   439061 
 2228000   0.50006996   -6.3917054   -6.3917054   -5.6416022  -0.21905981   -6.3917054   0.75010323   439061 
 2229000   0.50082507   -6.3928019   -6.3928019    -5.641566  -0.21496218   -6.3928019   0.75123589   439061 
 2230000   0.50088592   -6.3921876   -6.3921876   -5.6408604  -0.21384357   -6.3921876   0.75132716   439061 
 2231000   0.49992479   -6.3918834   -6.3918834    -5.641998  -0.21033367   -6.3918834   0.74988548   439061 
 2232000   0.50143175   -6.3929903   -6.3929903   -5.6408444  -0.21442186   -6.3929903   0.75214592   439061 
 2233000   0.49941392   -6.3914911   -6.3914911    -5.642372  -0.21594801   -6.3914911   0.74911918   439061 
 2234000   0.49996243   -6.3919411   -6.3919411   -5.6419992  -0.21589505   -6.3919411   0.74994193   439061 
 2235000   0.50061335   -6.3930455   -6.3930455   -5.6421272  -0.21598643   -6.3930455   0.75091832   439061 
 2236000   0.49978019   -6.3904496   -6.3904496    -5.640781  -0.20673834   -6.3904496   0.74966858   439061 
 2237000   0.50092465   -6.3921817   -6.3921817   -5.6407965  -0.21332959   -6.3921817   0.75138527   439061 
 2238000   0.50027652   -6.3924461   -6.3924461    -5.642033  -0.21638009   -6.3924461   0.75041308   439061 
 2239000    0.4998245   -6.3928065   -6.3928065   -5.6430715  -0.21863911   -6.3928065   0.74973505   439061 
 2240000   0.50063299   -6.3938665   -6.3938665   -5.6429187  -0.21618306   -6.3938665   0.75094777   439061 
 2241000   0.50062146   -6.3936129   -6.3936129   -5.6426824   -0.2159192   -6.3936129   0.75093049   439061 
 2242000   0.50069798   -6.3945959   -6.3945959   -5.6435506  -0.21365537   -6.3945959   0.75104526   439061 
 2243000   0.49961777   -6.3928933   -6.3928933   -5.6434684  -0.21358963   -6.3928933   0.74942495   439061 
 2244000   0.50009422   -6.3940994   -6.3940994   -5.6439598  -0.21747012   -6.3940994   0.75013962   439061 
 2245000   0.49942634   -6.3937065   -6.3937065   -5.6445687  -0.22097834   -6.3937065   0.74913781   439061 
 2246000   0.49994334   -6.3945451   -6.3945451   -5.6446318  -0.22050517   -6.3945451    0.7499133   439061 
 2247000   0.49996902    -6.394133    -6.394133   -5.6441812  -0.21742245    -6.394133   0.74995182   439061 
 2248000   0.50040628   -6.3948527   -6.3948527    -5.644245  -0.21118323   -6.3948527   0.75060771   439061 
 2249000   0.49909118   -6.3924902   -6.3924902   -5.6438552   -0.2087103   -6.3924902   0.74863507   439061 
 2250000   0.49966948   -6.3945436   -6.3945436   -5.6450411  -0.21707149   -6.3945436   0.74950251   439061 
 2251000   0.49914089   -6.3925569   -6.3925569   -5.6438473  -0.21910305   -6.3925569   0.74870964   439061 
 2252000   0.49895578   -6.3923829   -6.3923829   -5.6439509   -0.2182411   -6.3923829   0.74843196   439061 
 2253000    0.5002573   -6.3933789   -6.3933789   -5.6429947   -0.2140316   -6.3933789   0.75038424   439061 
 2254000   0.50015738   -6.3940268   -6.3940268   -5.6437924  -0.21331782   -6.3940268   0.75023437   439061 
 2255000   0.49993409   -6.3938152   -6.3938152   -5.6439158   -0.2113981   -6.3938152   0.74989942   439061 
 2256000   0.49971483   -6.3936893   -6.3936893   -5.6441188  -0.21530834   -6.3936893   0.74957054   439061 
 2257000   0.50017886   -6.3928535   -6.3928535   -5.6425869  -0.22002069   -6.3928535   0.75026659   439061 
 2258000   0.50052328   -6.3939192   -6.3939192    -5.643136  -0.22174382   -6.3939192   0.75078321   439061 
 2259000   0.49987629   -6.3936457   -6.3936457    -5.643833  -0.21998337   -6.3936457   0.74981272   439061 
 2260000   0.49987855    -6.393721    -6.393721   -5.6439048  -0.21377986    -6.393721   0.74981612   439061 
 2261000   0.50075226   -6.3942501   -6.3942501   -5.6431234    -0.212507   -6.3942501   0.75112668   439061 
 2262000   0.50008991   -6.3938246   -6.3938246   -5.6436915  -0.21286017   -6.3938246   0.75013315   439061 
 2263000   0.50010068   -6.3935801   -6.3935801   -5.6434308  -0.21662186   -6.3935801   0.75014932   439061 
 2264000   0.50012792   -6.3930841   -6.3930841   -5.6428939  -0.21913317   -6.3930841   0.75019017   439061 
 2265000    0.4996804   -6.3918388   -6.3918388   -5.6423199  -0.21846232   -6.3918388   0.74951889   439061 
 2266000   0.50085125   -6.3945841   -6.3945841   -5.6433089  -0.21969573   -6.3945841   0.75127516   439061 
 2267000   0.50026577   -6.3932988   -6.3932988   -5.6429018   -0.2116751   -6.3932988   0.75039695   439061 
 2268000   0.50011896    -6.393893    -6.393893   -5.6437163  -0.21236614    -6.393893   0.75017673   439061 
 2269000   0.49985324    -6.393933    -6.393933   -5.6441548  -0.21423006    -6.393933   0.74977815   439061 
 2270000   0.49971684   -6.3928588   -6.3928588   -5.6432853  -0.21524434   -6.3928588   0.74957355   439061 
 2271000   0.49953327    -6.392026    -6.392026   -5.6427278  -0.21688034    -6.392026   0.74929819   439061 
 2272000   0.49981201   -6.3914318   -6.3914318   -5.6417155  -0.21987919   -6.3914318    0.7497163   439061 
 2273000   0.49980359   -6.3915647   -6.3915647    -5.641861  -0.21427593   -6.3915647   0.74970367   439061 
 2274000   0.50076511   -6.3932623   -6.3932623   -5.6421163    -0.214745   -6.3932623   0.75114595   439061 
 2275000   0.50015672   -6.3929245   -6.3929245   -5.6426911  -0.21219285   -6.3929245   0.75023337   439061 
 2276000   0.49954647   -6.3919133   -6.3919133   -5.6425953  -0.21450108   -6.3919133     0.749318   439061 
 2277000   0.50041494   -6.3931523   -6.3931523   -5.6425316  -0.21578472   -6.3931523    0.7506207   439061 
 2278000   0.49933692   -6.3911524   -6.3911524   -5.6421488  -0.21875167   -6.3911524   0.74900367   439061 
 2279000   0.50049428   -6.3920721   -6.3920721   -5.6413324  -0.21438863   -6.3920721   0.75073971   439061 
 2280000   0.50018167    -6.392029    -6.392029   -5.6417582  -0.21385108    -6.392029    0.7502708   439061 
 2281000   0.50089238   -6.3931242   -6.3931242   -5.6417874  -0.21443994   -6.3931242   0.75133686   439061 
 2282000   0.50044712   -6.3924707   -6.3924707   -5.6418018  -0.21544923   -6.3924707   0.75066896   439061 
 2283000   0.50019581   -6.3928268   -6.3928268   -5.6425348  -0.21515695   -6.3928268   0.75029201   439061 
 2284000   0.49995945   -6.3915041   -6.3915041   -5.6415666  -0.21585015   -6.3915041   0.74993747   439061 
 2285000   0.50053807   -6.3928515   -6.3928515   -5.6420461  -0.21698993   -6.3928515    0.7508054   439061 
 2286000   0.50018988   -6.3923829   -6.3923829   -5.6420997  -0.21641285   -6.3923829   0.75028311   439061 
 2287000   0.50109228   -6.3933046   -6.3933046   -5.6416679  -0.21549043   -6.3933046    0.7516367   439061 
 2288000   0.50064383   -6.3934805   -6.3934805   -5.6425164  -0.21601623   -6.3934805   0.75096403   439061 
 2289000   0.49960451   -6.3924687   -6.3924687   -5.6430636  -0.21539874   -6.3924687   0.74940506   439061 
 2290000   0.49991729   -6.3930143   -6.3930143   -5.6431401   -0.2160811   -6.3930143   0.74987423   439061 
 2291000   0.50019625    -6.391821    -6.391821   -5.6415283  -0.21443685    -6.391821   0.75029266   439061 
 2292000   0.50054279   -6.3927709   -6.3927709   -5.6419584  -0.21479967   -6.3927709   0.75081248   439061 
 2293000   0.49924194   -6.3917814   -6.3917814   -5.6429202   -0.2157534   -6.3917814    0.7488612   439061 
 2294000   0.49995489   -6.3931944   -6.3931944   -5.6432638  -0.21672071   -6.3931944   0.74993063   439061 
 2295000   0.49969466   -6.3921357   -6.3921357   -5.6425954  -0.21091202   -6.3921357   0.74954028   439061 
 2296000   0.49951502   -6.3918756   -6.3918756   -5.6426047  -0.21369883   -6.3918756   0.74927082   439061 
 2297000   0.50038987   -6.3917374   -6.3917374   -5.6411543  -0.21125203   -6.3917374    0.7505831   439061 
 2298000   0.50028719   -6.3933073   -6.3933073   -5.6428782  -0.21740099   -6.3933073   0.75042908   439061 
 2299000   0.49912992   -6.3911993   -6.3911993   -5.6425061  -0.21357855   -6.3911993   0.74869317   439061 
 2300000   0.50008364   -6.3927575   -6.3927575   -5.6426337  -0.21687755   -6.3927575   0.75012375   439061 
 2301000   0.50001295   -6.3929678   -6.3929678   -5.6429501  -0.21657651   -6.3929678   0.75001772   439061 
 2302000   0.50017539   -6.3921894   -6.3921894   -5.6419281  -0.21209602   -6.3921894   0.75026138   439061 
 2303000   0.50056474   -6.3919961   -6.3919961   -5.6411507  -0.21346504   -6.3919961    0.7508454   439061 
 2304000    0.5006326   -6.3918912   -6.3918912    -5.640944  -0.21354857   -6.3918912   0.75094719   439061 
 2305000   0.50079233   -6.3927881   -6.3927881   -5.6416013  -0.21852253   -6.3927881   0.75118679   439061 
 2306000   0.50034933   -6.3921793   -6.3921793    -5.641657  -0.21781222   -6.3921793   0.75052228   439061 
 2307000   0.50085643   -6.3921307   -6.3921307   -5.6408478  -0.21522683   -6.3921307   0.75128293   439061 
 2308000   0.50008959   -6.3924641   -6.3924641   -5.6423314  -0.21286656   -6.3924641   0.75013267   439061 
 2309000   0.50090243   -6.3943392   -6.3943392   -5.6429873  -0.21609938   -6.3943392   0.75135193   439061 
 2310000   0.50000263   -6.3938924   -6.3938924   -5.6438902   -0.2157692   -6.3938924   0.75000223   439061 
 2311000   0.50018522   -6.3940973   -6.3940973   -5.6438212  -0.21994199   -6.3940973   0.75027612   439061 
 2312000   0.49990006   -6.3926785   -6.3926785   -5.6428301  -0.21501734   -6.3926785   0.74984838   439061 
 2313000   0.49988524   -6.3918229   -6.3918229   -5.6419967  -0.21348284   -6.3918229   0.74982615   439061 
 2314000     0.499722   -6.3917289   -6.3917289   -5.6421476  -0.21231901   -6.3917289    0.7495813   439061 
 2315000   0.50089238   -6.3935285   -6.3935285   -5.6421916  -0.21522681   -6.3935285   0.75133686   439061 
 2316000   0.50025484   -6.3919687   -6.3919687   -5.6415881  -0.21695344   -6.3919687   0.75038054   439061 
 2317000   0.50022773   -6.3936111   -6.3936111   -5.6432712  -0.21702325   -6.3936111   0.75033989   439061 
 2318000   0.49933039   -6.3928591   -6.3928591   -5.6438652  -0.22064297   -6.3928591   0.74899387   439061 
 2319000   0.50066804   -6.3940939   -6.3940939   -5.6430935  -0.21474306   -6.3940939   0.75100035   439061 
 2320000   0.50025266   -6.3941658   -6.3941658   -5.6437885   -0.2173141   -6.3941658   0.75037728   439061 
 2321000   0.49909153   -6.3934324   -6.3934324   -5.6447968  -0.21598268   -6.3934324    0.7486356   439061 
 2322000   0.49934119   -6.3938168   -6.3938168   -5.6448067    -0.218254   -6.3938168   0.74901008   439061 
 2323000   0.49964415   -6.3943415   -6.3943415    -5.644877  -0.21704762   -6.3943415   0.74946451   439061 
 2324000   0.49902846   -6.3938248   -6.3938248   -5.6452838   -0.2172042   -6.3938248   0.74854099   439061 
 2325000   0.49959328   -6.3947461   -6.3947461   -5.6453579  -0.21935096   -6.3947461   0.74938821   439061 
 2326000   0.49907428   -6.3925331   -6.3925331   -5.6439234  -0.21280098   -6.3925331   0.74860972   439061 
 2327000   0.49948927   -6.3935004   -6.3935004   -5.6442682   -0.2172577   -6.3935004    0.7492322   439061 
 2328000   0.49960684   -6.3935953   -6.3935953   -5.6441867  -0.21610825   -6.3935953   0.74940855   439061 
 2329000   0.49917089   -6.3937556   -6.3937556    -5.645001  -0.21539148   -6.3937556   0.74875463   439061 
 2330000   0.49977505   -6.3937808   -6.3937808   -5.6441199  -0.21435695   -6.3937808   0.74966087   439061 
 2331000   0.50035426   -6.3944227   -6.3944227    -5.643893  -0.21605677   -6.3944227   0.75052969   439061 
 2332000   0.50106918   -6.3955566   -6.3955566   -5.6439545  -0.21796362   -6.3955566   0.75160206   439061 
 2333000    0.4997613   -6.3931116   -6.3931116   -5.6434714  -0.21614053   -6.3931116   0.74964024   439061 
 2334000   0.49978248   -6.3935263   -6.3935263   -5.6438543  -0.21821228   -6.3935263   0.74967201   439061 
 2335000   0.49964065   -6.3935778   -6.3935778   -5.6441185  -0.21709827   -6.3935778   0.74945927   439061 
 2336000   0.49973712   -6.3935646   -6.3935646   -5.6439606  -0.21807023   -6.3935646   0.74960398   439061 
 2337000   0.50003663   -6.3943776   -6.3943776   -5.6443244   -0.2181313   -6.3943776   0.75005324   439061 
 2338000   0.49967402   -6.3939846   -6.3939846   -5.6444753  -0.21293474   -6.3939846   0.74950932   439061 
 2339000   0.50044908   -6.3952507   -6.3952507   -5.6445788  -0.21741388   -6.3952507   0.75067191   439061 
 2340000   0.50005111   -6.3945762   -6.3945762   -5.6445013  -0.21624926   -6.3945762   0.75007496   439061 
 2341000   0.49910564   -6.3929434   -6.3929434   -5.6442866  -0.21550892   -6.3929434   0.74865676   439061 
 2342000   0.50013244   -6.3943552   -6.3943552   -5.6441582  -0.21778684   -6.3943552   0.75019695   439061 
 2343000   0.49972342   -6.3942267   -6.3942267   -5.6446433  -0.21950568   -6.3942267   0.74958342   439061 
 2344000   0.49973481   -6.3936581   -6.3936581   -5.6440576   -0.2112077   -6.3936581    0.7496005   439061 
 2345000    0.5001969   -6.3941136   -6.3941136     -5.64382  -0.21498545   -6.3941136   0.75029364   439061 
 2346000   0.50077312    -6.394286    -6.394286    -5.643128   -0.2135851    -6.394286   0.75115797   439061 
 2347000    0.4998999    -6.392786    -6.392786   -5.6429379  -0.21519026    -6.392786   0.74984814   439061 
 2348000   0.49969155   -6.3924661   -6.3924661   -5.6429305  -0.21438939   -6.3924661   0.74953561   439061 
 2349000   0.50019557   -6.3935427   -6.3935427   -5.6432511  -0.21620274   -6.3935427   0.75029164   439061 
 2350000   0.49962384   -6.3925848   -6.3925848   -5.6431508  -0.21446986   -6.3925848   0.74943405   439061 
 2351000   0.50020545   -6.3932419   -6.3932419   -5.6429354  -0.21163495   -6.3932419   0.75030647   439061 
 2352000    0.5000945   -6.3934627   -6.3934627   -5.6433227  -0.21417265   -6.3934627   0.75014004   439061 
 2353000   0.50008531   -6.3934099   -6.3934099   -5.6432836  -0.21656071   -6.3934099   0.75012625   439061 
 2354000   0.49892874   -6.3920756   -6.3920756   -5.6436842  -0.21192673   -6.3920756   0.74839141   439061 
 2355000   0.49972281    -6.392847    -6.392847   -5.6432645  -0.21717539    -6.392847   0.74958251   439061 
 2356000    0.5007668   -6.3934699   -6.3934699   -5.6423214  -0.21611153   -6.3934699    0.7511485   439061 
 2357000   0.50075327   -6.3939316   -6.3939316   -5.6428035   -0.2161813   -6.3939316   0.75112819   439061 
 2358000   0.49972868   -6.3925342   -6.3925342   -5.6429429  -0.21143048   -6.3925342   0.74959131   439061 
 2359000   0.50034477   -6.3936103   -6.3936103   -5.6430948  -0.21520638   -6.3936103   0.75051544   439061 
 2360000   0.50057363    -6.394086    -6.394086   -5.6432273   -0.2159927    -6.394086   0.75085874   439061 
 2361000   0.50024241   -6.3931522   -6.3931522   -5.6427903  -0.21140372   -6.3931522    0.7503619   439061 
 2362000   0.50003305   -6.3933602   -6.3933602   -5.6433123  -0.21572411   -6.3933602   0.75004786   439061 
 2363000   0.50043367   -6.3944558   -6.3944558    -5.643807   -0.2192152   -6.3944558    0.7506488   439061 
 2364000   0.50002425   -6.3935241   -6.3935241   -5.6434895  -0.21856159   -6.3935241   0.75003467   439061 
 2365000    0.5002677   -6.3937164   -6.3937164   -5.6433166  -0.21483032   -6.3937164   0.75039984   439061 
 2366000   0.50044036   -6.3926914   -6.3926914   -5.6420326  -0.21216092   -6.3926914   0.75065883   439061 
 2367000   0.50073146   -6.3930161   -6.3930161   -5.6419206  -0.21361577   -6.3930161   0.75109549   439061 
 2368000   0.49997626    -6.391588    -6.391588   -5.6416254  -0.21339177    -6.391588   0.74996268   439061 
 2369000   0.50006375   -6.3922198   -6.3922198   -5.6421259  -0.21723772   -6.3922198   0.75009391   439061 
 2370000   0.50040219   -6.3930733   -6.3930733   -5.6424718  -0.21834194   -6.3930733   0.75060157   439061 
 2371000   0.50083999   -6.3945215   -6.3945215   -5.6432632  -0.21872178   -6.3945215   0.75125828   439061 
 2372000   0.49973015   -6.3932288   -6.3932288   -5.6436353  -0.21333599   -6.3932288   0.74959352   439061 
 2373000   0.50014903   -6.3933145   -6.3933145   -5.6430926  -0.21071634   -6.3933145   0.75022183   439061 
 2374000   0.50017209   -6.3940112   -6.3940112   -5.6437547  -0.21469613   -6.3940112   0.75025643   439061 
 2375000   0.49931563   -6.3923887   -6.3923887    -5.643417  -0.21482888   -6.3923887   0.74897173   439061 
 2376000   0.49964853   -6.3924693   -6.3924693   -5.6429983  -0.21608348   -6.3924693   0.74947108   439061 
 2377000   0.49899032   -6.3922874   -6.3922874   -5.6438036  -0.21282536   -6.3922874   0.74848378   439061 
 2378000   0.50034571   -6.3941735   -6.3941735   -5.6436566  -0.21579828   -6.3941735   0.75051686   439061 
 2379000    0.4997237   -6.3929541   -6.3929541   -5.6433702  -0.21196452   -6.3929541   0.74958384   439061 
 2380000    0.5003458   -6.3937656   -6.3937656   -5.6432486  -0.21348291   -6.3937656   0.75051699   439061 
 2381000   0.49994788   -6.3930968   -6.3930968   -5.6431767  -0.21625485   -6.3930968   0.74992012   439061 
 2382000   0.50048824   -6.3936902   -6.3936902   -5.6429596  -0.21993232   -6.3936902   0.75073065   439061 
 2383000   0.49894304   -6.3907725   -6.3907725   -5.6423596  -0.21405682   -6.3907725   0.74841285   439061 
 2384000   0.50083665   -6.3941071   -6.3941071   -5.6428538  -0.21434433   -6.3941071   0.75125326   439061 
 2385000   0.50021202   -6.3928597   -6.3928597   -5.6425433  -0.21312381   -6.3928597   0.75031632   439061 
 2386000   0.49973513   -6.3929828   -6.3929828   -5.6433818  -0.21212939   -6.3929828   0.74960099   439061 
 2387000   0.50021387    -6.393559    -6.393559   -5.6432399  -0.21558492    -6.393559    0.7503191   439061 
 2388000   0.49940667   -6.3933566   -6.3933566   -5.6442483  -0.21760286   -6.3933566    0.7491083   439061 
 2389000   0.50026249   -6.3941643   -6.3941643   -5.6437723  -0.21689835   -6.3941643   0.75039203   439061 
 2390000   0.49951267   -6.3927919   -6.3927919   -5.6435246  -0.21244122   -6.3927919    0.7492673   439061 
 2391000   0.49994788   -6.3939893   -6.3939893   -5.6440692   -0.2129499   -6.3939893   0.74992011   439061 
 2392000   0.49837108   -6.3925704   -6.3925704   -5.6450155  -0.21169392   -6.3925704   0.74755491   439061 
 2393000   0.50113188   -6.3962858   -6.3962858   -5.6445897  -0.21853534   -6.3962858   0.75169611   439061 
 2394000   0.50027066    -6.395074    -6.395074   -5.6446697  -0.21714991    -6.395074   0.75040429   439061 
 2395000   0.50051073   -6.3941641   -6.3941641   -5.6433997  -0.21587621   -6.3941641   0.75076439   439061 
 2396000   0.49970423   -6.3926616   -6.3926616    -5.643107  -0.21205655   -6.3926616   0.74955464   439061 
 2397000   0.49937701   -6.3928387   -6.3928387   -5.6437749  -0.21524358   -6.3928387   0.74906381   439061 
 2398000   0.49996747   -6.3942637   -6.3942637   -5.6443142  -0.21477845   -6.3942637    0.7499495   439061 
 2399000   0.50095373   -6.3939838   -6.3939838   -5.6425549  -0.21249131   -6.3939838   0.75142889   439061 
 2400000   0.50047508   -6.3945483   -6.3945483   -5.6438374  -0.21400209   -6.3945483   0.75071091   439061 
 2401000   0.49966831   -6.3931085   -6.3931085   -5.6436077  -0.21656939   -6.3931085   0.74950076   439061 
 2402000   0.50030128   -6.3937038   -6.3937038   -5.6432536  -0.21632405   -6.3937038   0.75045022   439061 
 2403000   0.50007189   -6.3938929   -6.3938929   -5.6437867   -0.2161349   -6.3938929   0.75010612   439061 
 2404000    0.5005559   -6.3944899   -6.3944899   -5.6436577  -0.21171076   -6.3944899   0.75083214   439061 
 2405000   0.50062917   -6.3944836   -6.3944836   -5.6435416    -0.215828   -6.3944836   0.75094205   439061 
 2406000   0.49971412   -6.3933157   -6.3933157   -5.6437462  -0.21400847   -6.3933157   0.74956948   439061 
 2407000   0.49906943   -6.3926433   -6.3926433   -5.6440408  -0.21508373   -6.3926433   0.74860244   439061 
 2408000   0.49996105   -6.3932344   -6.3932344   -5.6432945  -0.21701745   -6.3932344   0.74993986   439061 
 2409000    0.5006531   -6.3944559   -6.3944559    -5.643478  -0.21511006   -6.3944559   0.75097793   439061 
 2410000   0.49991644   -6.3938343   -6.3938343   -5.6439614  -0.21254341   -6.3938343   0.74987296   439061 
 2411000    0.4999863   -6.3940912   -6.3940912   -5.6441135  -0.21093688   -6.3940912   0.74997774   439061 
 2412000   0.49932631   -6.3934774   -6.3934774   -5.6444896   -0.2149048   -6.3934774   0.74898777   439061 
 2413000   0.49953523    -6.394095    -6.394095   -5.6447939  -0.21737945    -6.394095   0.74930114   439061 
 2414000   0.50017545   -6.3943443   -6.3943443   -5.6440828  -0.21980953   -6.3943443   0.75026147   439061 
 2415000   0.50098499   -6.3949752   -6.3949752   -5.6434994   -0.2141342   -6.3949752   0.75147578   439061 
 2416000   0.50077869   -6.3946343   -6.3946343    -5.643468   -0.2168454   -6.3946343   0.75116633   439061 
 2417000   0.49998688   -6.3936279   -6.3936279   -5.6436492  -0.20910985   -6.3936279   0.74997861   439061 
 2418000   0.49983869   -6.3937918   -6.3937918   -5.6440355  -0.21602159   -6.3937918   0.74975633   439061 
 2419000    0.4998743   -6.3935482   -6.3935482   -5.6437384    -0.217439   -6.3935482   0.74980974   439061 
 2420000   0.50000887   -6.3948996   -6.3948996    -5.644888   -0.2210401   -6.3948996    0.7500116   439061 
 2421000   0.50020512   -6.3952316   -6.3952316   -5.6449256  -0.21914063   -6.3952316   0.75030597   439061 
 2422000    0.4999767   -6.3942911   -6.3942911   -5.6443277  -0.21373494   -6.3942911   0.74996334   439061 
 2423000   0.49930979   -6.3938094   -6.3938094   -5.6448464  -0.21104906   -6.3938094   0.74896298   439061 
 2424000   0.49925104   -6.3942473   -6.3942473   -5.6453725  -0.21349123   -6.3942473   0.74887485   439061 
 2425000   0.49989868   -6.3940255   -6.3940255   -5.6441792  -0.21394096   -6.3940255   0.74984631   439061 
 2426000   0.49978242   -6.3947736   -6.3947736   -5.6451017  -0.21679372   -6.3947736   0.74967192   439061 
 2427000   0.50041086   -6.3957961   -6.3957961   -5.6451815  -0.22347088   -6.3957961   0.75061457   439061 
 2428000   0.49887396    -6.393715    -6.393715   -5.6454058  -0.21461523    -6.393715   0.74830923   439061 
 2429000   0.49933286   -6.3946528   -6.3946528   -5.6456552  -0.21746807   -6.3946528   0.74899759   439061 
 2430000   0.49969517   -6.3949617   -6.3949617   -5.6454206  -0.21314629   -6.3949617   0.74954105   439061 
 2431000   0.49968316   -6.3953951   -6.3953951   -5.6458721  -0.21827948   -6.3953951   0.74952304   439061 
 2432000   0.49970906   -6.3945071   -6.3945071   -5.6449453  -0.21504969   -6.3945071   0.74956188   439061 
 2433000   0.49881468   -6.3935174   -6.3935174    -5.645297  -0.21929447   -6.3935174   0.74822031   439061 
 2434000   0.49986753   -6.3940553   -6.3940553   -5.6442558  -0.21646416   -6.3940553   0.74979958   439061 
 2435000   0.49920711   -6.3927003   -6.3927003   -5.6438913   -0.2153793   -6.3927003   0.74880895   439061 
 2436000   0.49934308   -6.3934126   -6.3934126   -5.6443997  -0.21282936   -6.3934126   0.74901292   439061 
 2437000   0.49910965    -6.393027    -6.393027   -5.6443642  -0.21394381    -6.393027   0.74866277   439061 
 2438000   0.50026366   -6.3946569   -6.3946569   -5.6442631  -0.21390908   -6.3946569   0.75039379   439061 
 2439000   0.49992422    -6.393488    -6.393488   -5.6436034  -0.21300291    -6.393488   0.74988462   439061 
 2440000   0.49990406   -6.3936838   -6.3936838   -5.6438294  -0.21490988   -6.3936838   0.74985438   439061 
 2441000   0.49963158   -6.3938725   -6.3938725   -5.6444269  -0.21843849   -6.3938725   0.74944566   439061 
 2442000   0.49901161    -6.394194    -6.394194   -5.6456783  -0.21982723    -6.394194   0.74851572   439061 
 2443000   0.49994453   -6.3956767   -6.3956767   -5.6457616  -0.21770422   -6.3956767   0.74991509   439061 
 2444000   0.50021887   -6.3957063   -6.3957063   -5.6453797  -0.21386073   -6.3957063   0.75032659   439061 
 2445000   0.50004346   -6.3958859   -6.3958859   -5.6458225  -0.21396237   -6.3958859   0.75006348   439061 
 2446000   0.50065993   -6.3953706   -6.3953706   -5.6443824  -0.21523993   -6.3953706   0.75098819   439061 
 2447000   0.49980593   -6.3940675   -6.3940675   -5.6443603  -0.21711133   -6.3940675   0.74970718   439061 
 2448000   0.49939932   -6.3937433   -6.3937433    -5.644646  -0.21960123   -6.3937433   0.74909727   439061 
 2449000   0.50047832   -6.3953758   -6.3953758   -5.6446601  -0.21688073   -6.3953758   0.75071576   439061 
 2450000   0.49954316   -6.3945192   -6.3945192   -5.6452062  -0.21385201   -6.3945192   0.74931304   439061 
 2451000   0.50009476   -6.3945367   -6.3945367   -5.6443963  -0.21434836   -6.3945367   0.75014043   439061 
 2452000   0.49848171   -6.3932494   -6.3932494   -5.6455285  -0.21112006   -6.3932494   0.74772086   439061 
 2453000   0.49892726   -6.3944218   -6.3944218   -5.6460326  -0.21823435   -6.3944218   0.74838918   439061 
 2454000   0.49774094   -6.3930237   -6.3930237    -5.646414  -0.21180941   -6.3930237    0.7466097   439061 
 2455000   0.49911059   -6.3947274   -6.3947274   -5.6460632  -0.21891007   -6.3947274   0.74866418   439061 
 2456000   0.49911119   -6.3946506   -6.3946506   -5.6459855  -0.21410268   -6.3946506   0.74866509   439061 
 2457000   0.49927817   -6.3940367   -6.3940367   -5.6451212  -0.21457865   -6.3940367   0.74891555   439061 
 2458000   0.49943161   -6.3949448   -6.3949448   -5.6457991  -0.21591115   -6.3949448    0.7491457   439061 
 2459000   0.50084526   -6.3955529   -6.3955529   -5.6442868  -0.21708139   -6.3955529   0.75126618   439061 
 2460000   0.49924786   -6.3941087   -6.3941087   -5.6452386  -0.21923229   -6.3941087   0.74887008   439061 
 2461000   0.49947546   -6.3939904   -6.3939904    -5.644779  -0.21888542   -6.3939904   0.74921148   439061 
 2462000   0.49875352   -6.3940862   -6.3940862   -5.6459577  -0.21527089   -6.3940862   0.74812857   439061 
 2463000   0.49936934   -6.3929749   -6.3929749   -5.6439226  -0.21079896   -6.3929749    0.7490523   439061 
 2464000   0.50006796   -6.3938635   -6.3938635   -5.6437633  -0.21487986   -6.3938635   0.75010024   439061 
 2465000   0.49978881   -6.3949268   -6.3949268   -5.6452452  -0.21873117   -6.3949268   0.74968151   439061 
 2466000   0.49848474   -6.3938622   -6.3938622   -5.6461368  -0.21527289   -6.3938622    0.7477254   439061 
 2467000   0.50005122   -6.3957456   -6.3957456   -5.6456705   -0.2204169   -6.3957456   0.75007512   439061 
 2468000   0.49931998   -6.3938037   -6.3938037   -5.6448254  -0.21259188   -6.3938037   0.74897827   439061 
 2469000   0.49937596   -6.3941947   -6.3941947   -5.6451324   -0.2153827   -6.3941947   0.74906223   439061 
 2470000   0.49898497   -6.3935016   -6.3935016   -5.6450258  -0.21282736   -6.3935016   0.74847574   439061 
 2471000   0.49981607   -6.3941771   -6.3941771   -5.6444547  -0.21659175   -6.3941771    0.7497224   439061 
 2472000    0.4995563   -6.3936404   -6.3936404   -5.6443077  -0.21641549   -6.3936404   0.74933275   439061 
 2473000   0.49968116    -6.393881    -6.393881    -5.644361  -0.21814272    -6.393881   0.74952003   439061 
 2474000   0.49909734   -6.3943196   -6.3943196   -5.6456752  -0.21615676   -6.3943196   0.74864431   439061 
 2475000   0.50003811   -6.3954973   -6.3954973   -5.6454418  -0.21604773   -6.3954973   0.75005546   439061 
 2476000    0.5002072   -6.3946291   -6.3946291     -5.64432  -0.21467358   -6.3946291   0.75030909   439061 
 2477000     0.499726   -6.3942717   -6.3942717   -5.6446844  -0.21378295   -6.3942717    0.7495873   439061 
 2478000   0.49975933   -6.3941788   -6.3941788   -5.6445415  -0.21687764   -6.3941788   0.74963729   439061 
 2479000   0.49987133   -6.3947372   -6.3947372   -5.6449319  -0.21942131   -6.3947372   0.74980528   439061 
 2480000   0.50040935   -6.3939274   -6.3939274   -5.6433151  -0.21624525   -6.3939274   0.75061232   439061 
 2481000     0.500107    -6.393789    -6.393789   -5.6436302   -0.2157069    -6.393789   0.75015879   439061 
 2482000   0.49981026   -6.3935153   -6.3935153   -5.6438016  -0.21397329   -6.3935153   0.74971368   439061 
 2483000   0.50031446   -6.3937485   -6.3937485   -5.6432785  -0.21302982   -6.3937485   0.75046998   439061 
 2484000   0.49952103    -6.393043    -6.393043   -5.6437631  -0.21276067    -6.393043   0.74927984   439061 
 2485000   0.49985617   -6.3937913   -6.3937913   -5.6440088  -0.21417335   -6.3937913   0.74978254   439061 
 2486000    0.5003004   -6.3947709   -6.3947709    -5.644322  -0.21612927   -6.3947709   0.75044889   439061 
 2487000   0.50016761   -6.3947902   -6.3947902   -5.6445405   -0.2160877   -6.3947902   0.75024971   439061 
 2488000   0.49955503   -6.3940322   -6.3940322   -5.6447014  -0.21699124   -6.3940322   0.74933084   439061 
 2489000   0.49939887   -6.3929977   -6.3929977   -5.6439011  -0.21434518   -6.3929977    0.7490966   439061 
 2490000   0.50020522   -6.3944709   -6.3944709   -5.6441648  -0.21322835   -6.3944709   0.75030612   439061 
 2491000   0.49879459    -6.392009    -6.392009   -5.6438188   -0.2134201    -6.392009   0.74819019   439061 
 2492000   0.50070136   -6.3942974   -6.3942974    -5.643247  -0.21752961   -6.3942974   0.75105033   439061 
 2493000   0.49938755   -6.3926161   -6.3926161   -5.6435365  -0.21340063   -6.3926161   0.74907963   439061 
 2494000   0.50018728    -6.393891    -6.393891   -5.6436118  -0.21419095    -6.393891   0.75027921   439061 
 2495000   0.50066462   -6.3937444   -6.3937444   -5.6427491  -0.21411679   -6.3937444   0.75099522   439061 
 2496000   0.50002472   -6.3926229   -6.3926229   -5.6425876  -0.21316713   -6.3926229   0.75003537   439061 
 2497000   0.50105826   -6.3941066   -6.3941066   -5.6425209  -0.21774331   -6.3941066   0.75158568   439061 
 2498000     0.500671   -6.3932251   -6.3932251   -5.6422203  -0.21404992   -6.3932251   0.75100478   439061 
 2499000   0.50042484   -6.3932589   -6.3932589   -5.6426233  -0.21443625   -6.3932589   0.75063554   439061 
 2500000   0.50016451   -6.3919985   -6.3919985   -5.6417535  -0.21080543   -6.3919985   0.75024506   439061 
 2501000   0.50041614   -6.3929463   -6.3929463   -5.6423238   -0.2112017   -6.3929463    0.7506225   439061 
 2502000   0.50058785   -6.3929846   -6.3929846   -5.6421045  -0.21165516   -6.3929846   0.75088006   439061 
 2503000   0.49997891    -6.393093    -6.393093   -5.6431263  -0.21303761    -6.393093   0.74996666   439061 
 2504000   0.50029479   -6.3927531   -6.3927531   -5.6423126  -0.21646884   -6.3927531   0.75044047   439061 
 2505000   0.50051208   -6.3924221   -6.3924221   -5.6416557   -0.2148738   -6.3924221   0.75076641   439061 
 2506000   0.50055513   -6.3931192   -6.3931192   -5.6422882   -0.2175974   -6.3931192   0.75083098   439061 
 2507000   0.50046927   -6.3925274   -6.3925274   -5.6418252  -0.21021149   -6.3925274    0.7507022   439061 
 2508000   0.50069605   -6.3931137   -6.3931137   -5.6420713  -0.21403973   -6.3931137   0.75104237   439061 
 2509000   0.50017445   -6.3930553   -6.3930553   -5.6427954  -0.21349581   -6.3930553   0.75025996   439061 
 2510000   0.50026575   -6.3934406   -6.3934406   -5.6430437  -0.21642436   -6.3934406   0.75039692   439061 
 2511000    0.5002926   -6.3932205   -6.3932205   -5.6427833  -0.21421534   -6.3932205   0.75043719   439061 
 2512000   0.49989087   -6.3932891   -6.3932891   -5.6434545  -0.21512846   -6.3932891    0.7498346   439061 
 2513000   0.49986908   -6.3937379   -6.3937379    -5.643936  -0.21307365   -6.3937379   0.74980191   439061 
 2514000   0.50052084   -6.3937393   -6.3937393   -5.6429598  -0.21229848   -6.3937393   0.75077956   439061 
 2515000   0.50022856   -6.3936492   -6.3936492   -5.6433081  -0.21332056   -6.3936492   0.75034114   439061 
 2516000   0.50110791   -6.3939117   -6.3939117   -5.6422515  -0.21546164   -6.3939117   0.75166015   439061 
 2517000   0.50050041   -6.3931886   -6.3931886   -5.6424397  -0.21675665   -6.3931886   0.75074891   439061 
 2518000   0.49964336    -6.391727    -6.391727   -5.6422637  -0.21364983    -6.391727   0.74946333   439061 
 2519000   0.49986344   -6.3933142   -6.3933142   -5.6435207  -0.21436174   -6.3933142   0.74979346   439061 
 2520000   0.50035243   -6.3937709   -6.3937709    -5.643244  -0.21362086   -6.3937709   0.75052694   439061 
 2521000   0.50098176    -6.393586    -6.393586   -5.6421151  -0.21128202    -6.393586   0.75147092   439061 
 2522000   0.49992226   -6.3929202   -6.3929202   -5.6430385  -0.21024135   -6.3929202   0.74988168   439061 
 2523000   0.50026666    -6.392625    -6.392625   -5.6422267  -0.21195665    -6.392625   0.75039828   439061 
 2524000   0.50027852   -6.3931118   -6.3931118   -5.6426958  -0.21697586   -6.3931118   0.75041607   439061 
 2525000   0.50050479   -6.3929779   -6.3929779   -5.6422224  -0.21594797   -6.3929779   0.75075548   439061 
 2526000   0.50123984   -6.3941532   -6.3941532   -5.6422951  -0.21749309   -6.3941532   0.75185804   439061 
 2527000   0.50024244   -6.3929391   -6.3929391   -5.6425771  -0.21229221   -6.3929391   0.75036195   439061 
 2528000   0.50074007   -6.3934491   -6.3934491   -5.6423407  -0.21228376   -6.3934491    0.7511084   439061 
 2529000   0.50087821   -6.3929292   -6.3929292   -5.6416136  -0.21168855   -6.3929292   0.75131561   439061 
 2530000   0.50044006   -6.3919606   -6.3919606   -5.6413022  -0.20904235   -6.3919606   0.75065837   439061 
 2531000   0.50058033   -6.3913828   -6.3913828    -5.640514  -0.21171876   -6.3913828   0.75086879   439061 
 2532000   0.50213323   -6.3933065   -6.3933065   -5.6401084  -0.21701869   -6.3933065   0.75319813   439061 
 2533000   0.50071548   -6.3920438   -6.3920438   -5.6409722  -0.21661036   -6.3920438   0.75107151   439061 
 2534000   0.50085409   -6.3928296   -6.3928296   -5.6415502  -0.21275057   -6.3928296   0.75127943   439061 
 2535000   0.50088002   -6.3920535   -6.3920535   -5.6407351  -0.20795457   -6.3920535   0.75131832   439061 
 2536000   0.50072689   -6.3933704   -6.3933704   -5.6422818  -0.21026228   -6.3933704   0.75108863   439061 
 2537000   0.50073266   -6.3936097   -6.3936097   -5.6425124  -0.21190905   -6.3936097   0.75109728   439061 
 2538000   0.50063263   -6.3939052   -6.3939052    -5.642958   -0.2163054   -6.3939052   0.75094724   439061 
 2539000   0.50012842   -6.3931214   -6.3931214   -5.6429305  -0.21525397   -6.3931214   0.75019092   439061 
 2540000   0.50042984   -6.3938448   -6.3938448   -5.6432017  -0.21875352   -6.3938448   0.75064306   439061 
 2541000   0.50081612   -6.3941776   -6.3941776   -5.6429552  -0.21407393   -6.3941776   0.75122247   439061 
 2542000   0.49951616   -6.3928044   -6.3928044   -5.6435319  -0.21261431   -6.3928044   0.74927253   439061 
 2543000   0.50134026   -6.3945407   -6.3945407    -5.642532  -0.21174494   -6.3945407   0.75200867   439061 
 2544000   0.50077647   -6.3941012   -6.3941012   -5.6429382  -0.21989718   -6.3941012   0.75116299   439061 
 2545000   0.50019801   -6.3927366   -6.3927366   -5.6424413  -0.21351238   -6.3927366    0.7502953   439061 
 2546000   0.49982735   -6.3924166   -6.3924166   -5.6426773  -0.21569573   -6.3924166   0.74973931   439061 
 2547000   0.50077892   -6.3934998   -6.3934998   -5.6423331  -0.21189648   -6.3934998   0.75116666   439061 
 2548000   0.50027948   -6.3942831   -6.3942831   -5.6438656  -0.21564809   -6.3942831   0.75041752   439061 
 2549000   0.49954547    -6.393445    -6.393445   -5.6441285  -0.21231384    -6.393445    0.7493165   439061 
 2550000   0.50063459   -6.3949548   -6.3949548   -5.6440046   -0.2171336   -6.3949548   0.75095018   439061 
 2551000   0.49925659   -6.3928385   -6.3928385   -5.6439554  -0.21475236   -6.3928385   0.74888318   439061 
 2552000   0.49958441   -6.3943339   -6.3943339   -5.6449589  -0.21612049   -6.3943339   0.74937492   439061 
 2553000   0.50010552   -6.3940107   -6.3940107   -5.6438541  -0.21509218   -6.3940107   0.75015658   439061 
 2554000    0.4999881   -6.3934877   -6.3934877   -5.6435073  -0.21237214   -6.3934877   0.74998044   439061 
 2555000   0.49971061   -6.3945351   -6.3945351   -5.6449709  -0.21600138   -6.3945351   0.74956421   439061 
 2556000   0.50005944   -6.3942357   -6.3942357   -5.6441483  -0.21172349   -6.3942357   0.75008746   439061 
 2557000   0.50022928   -6.3940109   -6.3940109   -5.6436687  -0.21225991   -6.3940109   0.75034221   439061 
 2558000    0.5006169   -6.3940579   -6.3940579   -5.6431342  -0.21530734   -6.3940579   0.75092364   439061 
 2559000   0.49997155   -6.3928958   -6.3928958   -5.6429402  -0.21419039   -6.3928958   0.74995562   439061 
 2560000   0.49960313   -6.3924449   -6.3924449   -5.6430419  -0.21473221   -6.3924449   0.74940299   439061 
 2561000    0.5002905   -6.3935568   -6.3935568   -5.6431228  -0.21376459   -6.3935568   0.75043404   439061 
 2562000   0.50030935     -6.39335     -6.39335   -5.6428877  -0.21507817     -6.39335   0.75046232   439061 
 2563000   0.49994873   -6.3934748   -6.3934748   -5.6435535  -0.21378515   -6.3934748   0.74992139   439061 
 2564000   0.49987162   -6.3931529   -6.3931529   -5.6433472  -0.21549788   -6.3931529   0.74980573   439061 
 2565000   0.49988767   -6.3940829   -6.3940829   -5.6442531  -0.21292112   -6.3940829    0.7498298   439061 
 2566000   0.50001172   -6.3940259   -6.3940259   -5.6440101  -0.21682586   -6.3940259   0.75001587   439061 
 2567000    0.4991272   -6.3939209   -6.3939209   -5.6452318  -0.21382783   -6.3939209   0.74868909   439061 
 2568000   0.49963971   -6.3944351   -6.3944351   -5.6449772   -0.2166783   -6.3944351   0.74945786   439061 
 2569000   0.49931789   -6.3944646   -6.3944646   -5.6454895   -0.2134267   -6.3944646   0.74897513   439061 
 2570000   0.49915185   -6.3943513   -6.3943513   -5.6456253  -0.21555324   -6.3943513   0.74872606   439061 
 2571000   0.49982578   -6.3945292   -6.3945292   -5.6447922  -0.21334292   -6.3945292   0.74973697   439061 
 2572000   0.49988627    -6.394632    -6.394632   -5.6448044  -0.21761098    -6.394632   0.74982769   439061 
 2573000   0.50024192   -6.3942336   -6.3942336   -5.6438725  -0.21729304   -6.3942336   0.75036116   439061 
 2574000   0.49939343   -6.3925883   -6.3925883   -5.6434998  -0.21618109   -6.3925883   0.74908844   439061 
 2575000   0.49899646   -6.3924466   -6.3924466   -5.6439536  -0.21314284   -6.3924466   0.74849298   439061 
 2576000   0.50068333   -6.3951097   -6.3951097   -5.6440864  -0.21452217   -6.3951097   0.75102329   439061 
 2577000   0.49935614   -6.3946744   -6.3946744   -5.6456419  -0.21301563   -6.3946744   0.74903251   439061 
 2578000   0.49938199   -6.3943443   -6.3943443    -5.645273  -0.21015164   -6.3943443   0.74907128   439061 
 2579000   0.50017195   -6.3947802   -6.3947802    -5.644524  -0.21759024   -6.3947802   0.75025622   439061 
 2580000   0.49867739   -6.3929546   -6.3929546   -5.6449402   -0.2126863   -6.3929546   0.74801439   439061 
 2581000    0.4995233   -6.3926238   -6.3926238   -5.6433406  -0.21704033   -6.3926238   0.74928325   439061 
 2582000    0.5002446    -6.393911    -6.393911   -5.6435458  -0.21478076    -6.393911   0.75036519   439061 
 2583000   0.50037456   -6.3946639   -6.3946639   -5.6441038  -0.21571063   -6.3946639   0.75056013   439061 
 2584000   0.49930442    -6.394127    -6.394127   -5.6451721  -0.21522965    -6.394127   0.74895492   439061 
 2585000   0.49873153   -6.3937519   -6.3937519   -5.6456563  -0.21282569   -6.3937519   0.74809559   439061 
 2586000   0.49958821   -6.3942434   -6.3942434   -5.6448628   -0.2135594   -6.3942434   0.74938061   439061 
 2587000   0.50010466   -6.3955951   -6.3955951   -5.6454399  -0.22060423   -6.3955951   0.75015528   439061 
 2588000   0.49959199   -6.3949162   -6.3949162   -5.6455299  -0.21676059   -6.3949162   0.74938627   439061 
 2589000    0.4993166   -6.3947771   -6.3947771    -5.645804  -0.21467239   -6.3947771    0.7489732   439061 
 2590000   0.49963606   -6.3960378   -6.3960378   -5.6465854  -0.21588714   -6.3960378   0.74945238   439061 
 2591000   0.49897267    -6.394069    -6.394069   -5.6456117  -0.21339168    -6.394069    0.7484573   439061 
 2592000   0.49901104   -6.3936624   -6.3936624   -5.6451476  -0.21238477   -6.3936624   0.74851486   439061 
 2593000    0.4998952   -6.3945104   -6.3945104   -5.6446693  -0.21718478   -6.3945104   0.74984109   439061 
 2594000    0.4985413   -6.3932194   -6.3932194   -5.6454092    -0.215245   -6.3932194   0.74781025   439061 
 2595000    0.4988037   -6.3930548   -6.3930548   -5.6448509  -0.21439318   -6.3930548   0.74820385   439061 
 2596000   0.49970797   -6.3947657   -6.3947657   -5.6452054  -0.21647989   -6.3947657   0.74956025   439061 
 2597000   0.49929247   -6.3939131   -6.3939131   -5.6449761  -0.21213053   -6.3939131     0.748937   439061 
 2598000   0.49939003   -6.3943024   -6.3943024    -5.645219  -0.21123417   -6.3943024   0.74908334   439061 
 2599000   0.50017446   -6.3958929   -6.3958929   -5.6456329  -0.21867564   -6.3958929   0.75025997   439061 
 2600000   0.49945518   -6.3937289   -6.3937289   -5.6445479  -0.21336895   -6.3937289   0.74918106   439061 
 2601000   0.50017194   -6.3946403   -6.3946403   -5.6443841  -0.22007005   -6.3946403    0.7502562   439061 
 2602000   0.49944776   -6.3936041   -6.3936041   -5.6444342  -0.21356892   -6.3936041   0.74916993   439061 
 2603000   0.49955524   -6.3938733   -6.3938733   -5.6445421  -0.21685137   -6.3938733   0.74933116   439061 
 2604000    0.4995673   -6.3949003   -6.3949003   -5.6455511  -0.21704193   -6.3949003   0.74934924   439061 
 2605000   0.49939496   -6.3939025   -6.3939025   -5.6448118  -0.21455977   -6.3939025   0.74909074   439061 
 2606000   0.49989932   -6.3961636   -6.3961636   -5.6463164  -0.21776647   -6.3961636   0.74984727   439061 
 2607000   0.49893719   -6.3942768   -6.3942768   -5.6458727  -0.21391685   -6.3942768   0.74840408   439061 
 2608000    0.4991826    -6.394143    -6.394143   -5.6453708  -0.21719963    -6.394143    0.7487722   439061 
 2609000   0.49965188   -6.3946817   -6.3946817   -5.6452056  -0.21627904   -6.3946817   0.74947612   439061 
 2610000   0.49990204    -6.394546    -6.394546   -5.6446947  -0.21613677    -6.394546   0.74985136   439061 
 2611000   0.50003914   -6.3950261   -6.3950261   -5.6449691  -0.21693607   -6.3950261   0.75005701   439061 
 2612000   0.49997268   -6.3946457   -6.3946457   -5.6446884  -0.21465945   -6.3946457   0.74995732   439061 
 2613000   0.49956314   -6.3937636   -6.3937636   -5.6444206  -0.21373438   -6.3937636   0.74934301   439061 
 2614000   0.50019584   -6.3949773   -6.3949773   -5.6446853  -0.21718501   -6.3949773   0.75029206   439061 
 2615000   0.49981668   -6.3939761   -6.3939761   -5.6442527  -0.21525846   -6.3939761   0.74972331   439061 
 2616000   0.49969868   -6.3940763   -6.3940763     -5.64453  -0.21637359   -6.3940763   0.74954631   439061 
 2617000   0.49913608   -6.3927997   -6.3927997   -5.6440972  -0.21143961   -6.3927997   0.74870241   439061 
 2618000   0.50014268   -6.3933845   -6.3933845   -5.6431722   -0.2146886   -6.3933845   0.75021231   439061 
 2619000    0.5000191   -6.3933465   -6.3933465   -5.6433195  -0.21352096   -6.3933465   0.75002694   439061 
 2620000   0.49952435   -6.3942059   -6.3942059   -5.6449211  -0.21717037   -6.3942059   0.74928482   439061 
 2621000   0.49980189   -6.3930091   -6.3930091    -5.643308  -0.21313347   -6.3930091   0.74970113   439061 
 2622000   0.49964904    -6.392635    -6.392635   -5.6431632  -0.21299993    -6.392635   0.74947185   439061 
 2623000   0.50052082   -6.3941382   -6.3941382   -5.6433587  -0.21502588   -6.3941382   0.75077952   439061 
 2624000   0.49924472   -6.3931853   -6.3931853   -5.6443199  -0.21565914   -6.3931853   0.74886538   439061 
 2625000   0.50005282   -6.3952599   -6.3952599   -5.6451824  -0.21811361   -6.3952599   0.75007753   439061 
 2626000   0.50051826   -6.3956835   -6.3956835   -5.6449078  -0.21551252   -6.3956835   0.75077567   439061 
 2627000   0.50039293   -6.3961173   -6.3961173   -5.6455296  -0.21661631   -6.3961173   0.75058768   439061 
 2628000   0.49917608   -6.3943139   -6.3943139   -5.6455515   -0.2142091   -6.3943139   0.74876242   439061 
 2629000   0.49909788   -6.3947009   -6.3947009   -5.6460558  -0.21794515   -6.3947009   0.74864512   439061 
 2630000   0.49947318   -6.3954477   -6.3954477   -5.6462396  -0.21656616   -6.3954477   0.74920807   439061 
 2631000    0.4990823   -6.3943914   -6.3943914   -5.6457696  -0.21476446   -6.3943914   0.74862175   439061 
 2632000   0.49998018   -6.3954224   -6.3954224   -5.6454539  -0.21601011   -6.3954224   0.74996856   439061 
 2633000   0.50011099   -6.3956825   -6.3956825   -5.6455177  -0.21645363   -6.3956825   0.75016477   439061 
 2634000   0.50021921   -6.3956398   -6.3956398   -5.6453127  -0.21639747   -6.3956398   0.75032711   439061 
 2635000    0.5011256    -6.396195    -6.396195   -5.6445083  -0.21950317    -6.396195   0.75168669   439061 
 2636000   0.49926953   -6.3938927   -6.3938927   -5.6449901  -0.21393808   -6.3938927   0.74890258   439061 
 2637000   0.49932055   -6.3945196   -6.3945196   -5.6455405  -0.21637139   -6.3945196   0.74897912   439061 
 2638000   0.49935714   -6.3942771   -6.3942771   -5.6452431  -0.21564565   -6.3942771     0.749034   439061 
 2639000   0.49909335   -6.3949606   -6.3949606   -5.6463223  -0.21405845   -6.3949606   0.74863832   439061 
 2640000   0.49925779   -6.3936653   -6.3936653   -5.6447804  -0.21309046   -6.3936653   0.74888498   439061 
 2641000   0.49944055   -6.3943409   -6.3943409   -5.6451818  -0.21437547   -6.3943409   0.74915911   439061 
 2642000   0.49988977   -6.3948489   -6.3948489   -5.6450159  -0.21609608   -6.3948489   0.74983295   439061 
 2643000   0.49875432    -6.393229    -6.393229   -5.6450992  -0.21240898    -6.393229   0.74812978   439061 
 2644000   0.49921806   -6.3944589   -6.3944589   -5.6456335   -0.2160514   -6.3944589   0.74882539   439061 
 2645000   0.50012189   -6.3963526   -6.3963526   -5.6461715  -0.21739557   -6.3963526   0.75018113   439061 
 2646000   0.50090985   -6.3964173   -6.3964173   -5.6450542  -0.21347287   -6.3964173   0.75136306   439061 
 2647000   0.49986376   -6.3954607   -6.3954607   -5.6456668  -0.21451022   -6.3954607   0.74979393   439061 
 2648000   0.50017258   -6.3964729   -6.3964729   -5.6462157  -0.21947779   -6.3964729   0.75025715   439061 
 2649000    0.4993229    -6.395294    -6.395294   -5.6463113  -0.22177234    -6.395294   0.74898264   439061 
 2650000   0.49981769   -6.3957803   -6.3957803   -5.6460555  -0.22156614   -6.3957803   0.74972482   439061 
 2651000   0.50000989   -6.3954247   -6.3954247   -5.6454115    -0.214182   -6.3954247   0.75001313   439061 
 2652000   0.49967612   -6.3955407   -6.3955407   -5.6460282  -0.21214123   -6.3955407   0.74951248   439061 
 2653000   0.50018406   -6.3960882   -6.3960882   -5.6458138  -0.21361277   -6.3960882   0.75027438   439061 
 2654000   0.49802304   -6.3937233   -6.3937233   -5.6466904  -0.21525873   -6.3937233   0.74703286   439061 
 2655000   0.49834483   -6.3945373   -6.3945373   -5.6470218  -0.21781752   -6.3945373   0.74751554   439061 
 2656000      0.49924   -6.3952253   -6.3952253    -5.646367  -0.21786405   -6.3952253    0.7488583   439061 
 2657000   0.50039652   -6.3964291   -6.3964291   -5.6458361  -0.21494553   -6.3964291   0.75059307   439061 
 2658000   0.50040284   -6.3956137   -6.3956137   -5.6450111  -0.21562025   -6.3956137   0.75060255   439061 
 2659000   0.50042545    -6.395066    -6.395066   -5.6444295  -0.21362272    -6.395066   0.75063646   439061 
 2660000   0.49903637   -6.3935086   -6.3935086   -5.6449558  -0.21778309   -6.3935086   0.74855285   439061 
 2661000   0.49965785   -6.3951177   -6.3951177   -5.6456327  -0.21967048   -6.3951177   0.74948507   439061 
 2662000   0.49865488   -6.3946226   -6.3946226    -5.646642  -0.21379709   -6.3946226   0.74798061   439061 
 2663000   0.49972287   -6.3953938   -6.3953938   -5.6458112  -0.21452923   -6.3953938    0.7495826   439061 
 2664000    0.5006796   -6.3973734   -6.3973734   -5.6463557  -0.21509353   -6.3973734   0.75101768   439061 
 2665000   0.49892594   -6.3934881   -6.3934881   -5.6451009  -0.21204307   -6.3934881   0.74838721   439061 
 2666000   0.49947984   -6.3949385   -6.3949385   -5.6457205  -0.21674403   -6.3949385   0.74921806   439061 
 2667000   0.49923724   -6.3939955   -6.3939955   -5.6451414  -0.21746825   -6.3939955   0.74885415   439061 
 2668000   0.49883362   -6.3935848   -6.3935848   -5.6453361  -0.21419165   -6.3935848   0.74824873   439061 
 2669000   0.49904904   -6.3947026   -6.3947026   -5.6461308  -0.21437932   -6.3947026   0.74857186   439061 
 2670000   0.50017203   -6.3961547   -6.3961547   -5.6458984  -0.21465747   -6.3961547   0.75025634   439061 
 2671000   0.49975709   -6.3952464   -6.3952464   -5.6456124  -0.21461017   -6.3952464   0.74963392   439061 
 2672000   0.49997892   -6.3956624   -6.3956624   -5.6456957  -0.21946382   -6.3956624   0.74996668   439061 
 2673000   0.49898872    -6.394052    -6.394052   -5.6455707  -0.21772026    -6.394052   0.74848137   439061 
 2674000   0.49988465   -6.3953374   -6.3953374   -5.6455121  -0.21951917   -6.3953374   0.74982526   439061 
 2675000   0.49949732   -6.3948892   -6.3948892   -5.6456449   -0.2136503   -6.3948892   0.74924428   439061 
 2676000   0.49972244   -6.3947138   -6.3947138   -5.6451318  -0.21268335   -6.3947138   0.74958195   439061 
 2677000   0.49961086   -6.3952468   -6.3952468   -5.6458322  -0.21393412   -6.3952468   0.74941458   439061 
 2678000   0.49971609   -6.3949487   -6.3949487   -5.6453763  -0.21621932   -6.3949487   0.74957243   439061 
 2679000   0.49910206   -6.3940435   -6.3940435   -5.6453921  -0.21632313   -6.3940435   0.74865138   439061 
 2680000    0.4996939    -6.394831    -6.394831   -5.6452919  -0.21979356    -6.394831   0.74953914   439061 
 2681000   0.49890638   -6.3934275   -6.3934275   -5.6450696  -0.21509847   -6.3934275   0.74835787   439061 
 2682000   0.49953798   -6.3948333   -6.3948333   -5.6455281  -0.21588167   -6.3948333   0.74930527   439061 
 2683000   0.49946754   -6.3955259   -6.3955259   -5.6463263  -0.21534346   -6.3955259   0.74919961   439061 
 2684000   0.49896433   -6.3942616   -6.3942616   -5.6458168  -0.21317643   -6.3942616    0.7484448   439061 
 2685000   0.49996229   -6.3963215   -6.3963215   -5.6463797  -0.21846446   -6.3963215   0.74994173   439061 
 2686000   0.49920138   -6.3952265   -6.3952265   -5.6464261  -0.22179183   -6.3952265   0.74880036   439061 
 2687000   0.49990905   -6.3954798   -6.3954798   -5.6456179  -0.21791316   -6.3954798   0.74986187   439061 
 2688000   0.49971127   -6.3950034   -6.3950034   -5.6454382  -0.21268639   -6.3950034    0.7495652   439061 
 2689000   0.49978675    -6.395233    -6.395233   -5.6455546  -0.21767899    -6.395233   0.74967842   439061 
 2690000   0.49998081   -6.3953005   -6.3953005    -5.645331  -0.21371235   -6.3953005    0.7499695   439061 
 2691000   0.50048296    -6.395616    -6.395616   -5.6448933  -0.21608176    -6.395616   0.75072272   439061 
 2692000   0.50009586   -6.3950692   -6.3950692   -5.6449271  -0.21594478   -6.3950692   0.75014208   439061 
 2693000   0.49985816   -6.3951898   -6.3951898   -5.6454043   -0.2166284   -6.3951898   0.74978553   439061 
 2694000   0.50010453   -6.3956063   -6.3956063   -5.6454513  -0.21648072   -6.3956063   0.75015509   439061 
 2695000   0.50058634   -6.3969324   -6.3969324   -5.6460546  -0.21768639   -6.3969324    0.7508778   439061 
 2696000   0.49992623   -6.3960066   -6.3960066   -5.6461189  -0.21358773   -6.3960066   0.74988763   439061 
 2697000   0.49885658   -6.3944382   -6.3944382   -5.6461551  -0.21237013   -6.3944382   0.74828317   439061 
 2698000    0.4997006   -6.3947605   -6.3947605   -5.6452113  -0.21622579   -6.3947605   0.74954919   439061 
 2699000   0.50003874   -6.3948101   -6.3948101   -5.6447537  -0.21805653   -6.3948101   0.75005641   439061 
 2700000   0.50053605   -6.3947918   -6.3947918   -5.6439894  -0.21539141   -6.3947918   0.75080237   439061 
 2701000   0.49982611   -6.3937135   -6.3937135    -5.643976  -0.21257134   -6.3937135   0.74973745   439061 
 2702000   0.50064719   -6.3951114   -6.3951114   -5.6441423  -0.21516856   -6.3951114   0.75096908   439061 
 2703000   0.49954152   -6.3939643   -6.3939643   -5.6446538  -0.21099695   -6.3939643   0.74931058   439061 
 2704000   0.49910636    -6.393955    -6.393955   -5.6452972  -0.21616771    -6.393955   0.74865784   439061 
 2705000   0.50027705    -6.395874    -6.395874   -5.6454601   -0.2174717    -6.395874   0.75041387   439061 
 2706000   0.49963043   -6.3934086   -6.3934086   -5.6439647  -0.21424147   -6.3934086   0.74944394   439061 
 2707000   0.49959098   -6.3934356   -6.3934356   -5.6440509  -0.21181612   -6.3934356   0.74938476   439061 
 2708000   0.50019317    -6.394634    -6.394634    -5.644346  -0.21542733    -6.394634   0.75028805   439061 
 2709000   0.50004767    -6.395402    -6.395402   -5.6453322  -0.22075396    -6.395402    0.7500698   439061 
 2710000   0.49969522   -6.3953318   -6.3953318   -5.6457907  -0.21648787   -6.3953318   0.74954112   439061 
 2711000   0.49967956   -6.3951092   -6.3951092   -5.6455916   -0.2147914   -6.3951092   0.74951763   439061 
 2712000   0.50043157   -6.3958563   -6.3958563   -5.6452107  -0.21221259   -6.3958563   0.75064565   439061 
 2713000   0.49985266   -6.3955605   -6.3955605   -5.6457832  -0.21602957   -6.3955605   0.74977728   439061 
 2714000   0.49978417   -6.3946508   -6.3946508   -5.6449762  -0.21232397   -6.3946508   0.74967454   439061 
 2715000   0.50009848    -6.395008    -6.395008    -5.644862  -0.21823502    -6.395008   0.75014601   439061 
 2716000   0.49936182   -6.3942916   -6.3942916   -5.6452506  -0.21685402   -6.3942916   0.74904103   439061 
 2717000    0.4997914   -6.3943682   -6.3943682   -5.6446828  -0.21662381   -6.3943682   0.74968539   439061 
 2718000   0.49949842   -6.3938714   -6.3938714   -5.6446255  -0.21199586   -6.3938714   0.74924593   439061 
 2719000   0.49914496    -6.393731    -6.393731   -5.6450153  -0.21141418    -6.393731   0.74871574   439061 
 2720000   0.49942559   -6.3940621   -6.3940621   -5.6449254  -0.21205715   -6.3940621   0.74913668   439061 
 2721000   0.49862068   -6.3928276   -6.3928276   -5.6448983  -0.21297053   -6.3928276   0.74792932   439061 
 2722000   0.49896755   -6.3933175   -6.3933175   -5.6448678  -0.21408893   -6.3933175   0.74844963   439061 
 2723000   0.49967529   -6.3938581   -6.3938581   -5.6443468  -0.21420732   -6.3938581   0.74951123   439061 
 2724000   0.49954991   -6.3944905   -6.3944905   -5.6451673  -0.21455519   -6.3944905   0.74932316   439061 
 2725000   0.49933471   -6.3939334   -6.3939334    -5.644933  -0.21360108   -6.3939334   0.74900036   439061 
 2726000   0.49905769   -6.3945231   -6.3945231   -5.6459383  -0.21815882   -6.3945231   0.74858483   439061 
 2727000   0.50025912   -6.3951577   -6.3951577   -5.6447707  -0.21318869   -6.3951577   0.75038697   439061 
 2728000    0.4992724   -6.3936872   -6.3936872   -5.6447803  -0.21560926   -6.3936872   0.74890689   439061 
 2729000   0.49994319   -6.3950354   -6.3950354   -5.6451223  -0.21711329   -6.3950354   0.74991308   439061 
 2730000   0.50094934    -6.396921    -6.396921   -5.6454987   -0.2195577    -6.396921    0.7514223   439061 
 2731000   0.49993353   -6.3951497   -6.3951497   -5.6452511  -0.21773408   -6.3951497   0.74989859   439061 
 2732000   0.49913368   -6.3938947   -6.3938947   -5.6451959  -0.21385066   -6.3938947   0.74869882   439061 
 2733000   0.50037737   -6.3952937   -6.3952937   -5.6447293  -0.21558312   -6.3952937   0.75056435   439061 
 2734000   0.49952048   -6.3936331   -6.3936331   -5.6443541   -0.2114957   -6.3936331   0.74927902   439061 
 2735000   0.49937337   -6.3939216   -6.3939216   -5.6448633  -0.21614656   -6.3939216   0.74905834   439061 
 2736000   0.50035644   -6.3941065   -6.3941065   -5.6435735  -0.21370287   -6.3941065   0.75053295   439061 
 2737000   0.49952669   -6.3940208   -6.3940208   -5.6447325  -0.21607698   -6.3940208   0.74928833   439061 
 2738000    0.4990363   -6.3945123   -6.3945123   -5.6459596  -0.21461109   -6.3945123   0.74855274   439061 
 2739000   0.50023028   -6.3966549   -6.3966549   -5.6463112  -0.21771889   -6.3966549   0.75034372   439061 
 2740000   0.49944564   -6.3944968   -6.3944968     -5.64533  -0.21201288   -6.3944968   0.74916675   439061 
 2741000   0.50125983   -6.3966479   -6.3966479   -5.6447598  -0.21703004   -6.3966479   0.75188803   439061 
 2742000   0.50114825   -6.3959964   -6.3959964   -5.6442757  -0.21657592   -6.3959964   0.75172066   439061 
 2743000   0.49984126   -6.3945748   -6.3945748   -5.6448146  -0.21725754   -6.3945748   0.74976018   439061 
 2744000   0.49863655   -6.3928927   -6.3928927   -5.6449396  -0.21357832   -6.3928927   0.74795312   439061 
 2745000   0.49981622   -6.3941943   -6.3941943   -5.6444717  -0.21355405   -6.3941943   0.74972262   439061 
 2746000   0.50037063   -6.3959234   -6.3959234   -5.6453692  -0.21389392   -6.3959234   0.75055424   439061 
 2747000   0.50029726   -6.3957612   -6.3957612    -5.645317   -0.2132403   -6.3957612   0.75044419   439061 
 2748000   0.50034949   -6.3953947   -6.3953947   -5.6448722  -0.21279789   -6.3953947   0.75052252   439061 
 2749000   0.49948709   -6.3944564   -6.3944564   -5.6452274  -0.21687653   -6.3944564   0.74922893   439061 
 2750000   0.49978208   -6.3952728   -6.3952728   -5.6456014  -0.21946456   -6.3952728   0.74967141   439061 
 2751000   0.49989909   -6.3943609   -6.3943609   -5.6445139  -0.21796235   -6.3943609   0.74984693   439061 
 2752000   0.50023314   -6.3947668   -6.3947668   -5.6444188  -0.21295199   -6.3947668     0.750348   439061 
 2753000   0.50012472    -6.395398    -6.395398   -5.6452126  -0.21436878    -6.395398   0.75018537   439061 
 2754000   0.50084457   -6.3955346   -6.3955346   -5.6442695  -0.21344072   -6.3955346   0.75126515   439061 
 2755000   0.50015382   -6.3946567   -6.3946567   -5.6444277  -0.21551498   -6.3946567   0.75022902   439061 
 2756000   0.49970086   -6.3944329   -6.3944329   -5.6448834  -0.21888776   -6.3944329   0.74954958   439061 
 2757000    0.5000184   -6.3942782   -6.3942782   -5.6442524  -0.21690345   -6.3942782   0.75002589   439061 
 2758000   0.49937983   -6.3948642   -6.3948642   -5.6457962  -0.21576004   -6.3948642   0.74906805   439061 
 2759000   0.49918028   -6.3942666   -6.3942666   -5.6454979  -0.20896996   -6.3942666   0.74876871   439061 
 2760000   0.49967824   -6.3953465   -6.3953465   -5.6458308  -0.21336605   -6.3953465   0.74951566   439061 
 2761000   0.50010361   -6.3957277   -6.3957277    -5.645574  -0.21299952   -6.3957277    0.7501537   439061 
 2762000   0.49877024   -6.3936781   -6.3936781   -5.6455244  -0.21681315   -6.3936781   0.74815366   439061 
 2763000   0.50094588   -6.3956936   -6.3956936   -5.6442764  -0.22037526   -6.3956936   0.75141712   439061 
 2764000   0.49979233    -6.394365    -6.394365   -5.6446782  -0.21896477    -6.394365   0.74968678   439061 
 2765000   0.50005686   -6.3945037   -6.3945037   -5.6444201  -0.21406892   -6.3945037   0.75008358   439061 
 2766000   0.49967083   -6.3943296   -6.3943296   -5.6448251  -0.21285548   -6.3943296   0.74950455   439061 
 2767000   0.50060454   -6.3944257   -6.3944257   -5.6435206  -0.20962523   -6.3944257    0.7509051   439061 
 2768000   0.50089242   -6.3952932   -6.3952932   -5.6439563  -0.21414129   -6.3952932   0.75133691   439061 
 2769000   0.50000304   -6.3942791   -6.3942791   -5.6442763  -0.22115079   -6.3942791   0.75000285   439061 
 2770000   0.49948409   -6.3937183   -6.3937183   -5.6444938  -0.21709768   -6.3937183   0.74922443   439061 
 2771000   0.49980382   -6.3941194   -6.3941194   -5.6444154  -0.21785566   -6.3941194   0.74970402   439061 
 2772000   0.49961851   -6.3938957   -6.3938957   -5.6444696  -0.20957729   -6.3938957   0.74942606   439061 
 2773000   0.50090144   -6.3948588   -6.3948588   -5.6435084  -0.21079241   -6.3948588   0.75135045   439061 
 2774000   0.50014858   -6.3949358   -6.3949358   -5.6447147   -0.2131276   -6.3949358   0.75022115   439061 
 2775000   0.49922317   -6.3928733   -6.3928733   -5.6440403   -0.2142286   -6.3928733   0.74883304   439061 
 2776000    0.4996633   -6.3932074   -6.3932074   -5.6437142  -0.21521735   -6.3932074   0.74949324   439061 
 2777000   0.50055372   -6.3949745   -6.3949745   -5.6441456   -0.2173674   -6.3949745   0.75082887   439061 
 2778000   0.49975581   -6.3935065   -6.3935065   -5.6438745  -0.21029572   -6.3935065   0.74963201   439061 
 2779000   0.50024082   -6.3933354   -6.3933354   -5.6429759  -0.21091175   -6.3933354   0.75035953   439061 
 2780000   0.49964756   -6.3942869   -6.3942869   -5.6448173  -0.21574648   -6.3942869   0.74946963   439061 
 2781000   0.49947957   -6.3940692   -6.3940692   -5.6448516  -0.21791275   -6.3940692   0.74921765   439061 
 2782000   0.49913134   -6.3929948   -6.3929948   -5.6442994  -0.21626359   -6.3929948   0.74869531   439061 
 2783000    0.5001838    -6.394059    -6.394059    -5.643785  -0.21570074    -6.394059     0.750274   439061 
 2784000    0.5002715   -6.3934239   -6.3934239   -5.6430183  -0.21202786   -6.3934239   0.75040554   439061 
 2785000   0.50011807   -6.3940702   -6.3940702   -5.6438948   -0.2134979   -6.3940702   0.75017539   439061 
 2786000   0.49976755   -6.3940883   -6.3940883   -5.6444387  -0.21291253   -6.3940883   0.74964962   439061 
 2787000   0.50003016     -6.39365     -6.39365   -5.6436064  -0.21651243     -6.39365   0.75004354   439061 
 2788000   0.50035802   -6.3937698   -6.3937698   -5.6432345  -0.21438851   -6.3937698   0.75053533   439061 
 2789000   0.50059769   -6.3939793   -6.3939793   -5.6430845   -0.2107148   -6.3939793   0.75089482   439061 
 2790000   0.50004852   -6.3937877   -6.3937877   -5.6437166  -0.21323126   -6.3937877   0.75007107   439061 
 2791000   0.50020253   -6.3938855   -6.3938855   -5.6435835    -0.214231   -6.3938855   0.75030209   439061 
 2792000   0.50002104   -6.3935628   -6.3935628   -5.6435329  -0.21412908   -6.3935628   0.75002986   439061 
 2793000   0.50081243   -6.3961099   -6.3961099   -5.6448929  -0.21610821   -6.3961099   0.75121693   439061 
 2794000   0.50082318   -6.3958308   -6.3958308   -5.6445977  -0.21632477   -6.3958308   0.75123306   439061 
 2795000   0.50009047   -6.3939494   -6.3939494   -5.6438154   -0.2101134   -6.3939494   0.75013399   439061 
 2796000   0.50116986   -6.3947342   -6.3947342   -5.6429811  -0.21384237   -6.3947342   0.75175308   439061 
 2797000   0.50017951   -6.3942502   -6.3942502   -5.6439827  -0.21546136   -6.3942502   0.75026755   439061 
 2798000   0.49996061   -6.3940154   -6.3940154   -5.6440762  -0.21869822   -6.3940154    0.7499392   439061 
 2799000   0.50055307   -6.3947523   -6.3947523   -5.6439244  -0.21450805   -6.3947523    0.7508279   439061 
 2800000    0.4994222   -6.3936767   -6.3936767   -5.6445451  -0.21500222   -6.3936767   0.74913159   439061 
 2801000   0.49938997   -6.3945893   -6.3945893   -5.6455061  -0.21095035   -6.3945893   0.74908325   439061 
 2802000   0.49978625   -6.3952205   -6.3952205   -5.6455429  -0.21344544   -6.3952205   0.74967766   439061 
 2803000   0.49990486   -6.3952817   -6.3952817   -5.6454261  -0.21453375   -6.3952817   0.74985559   439061 
 2804000   0.49977775    -6.394829    -6.394829    -5.645164  -0.21929111    -6.394829   0.74966492   439061 
 2805000   0.50043801    -6.394179    -6.394179   -5.6435237   -0.2151146    -6.394179   0.75065531   439061 
 2806000   0.50045882   -6.3944125   -6.3944125   -5.6437259  -0.21809087   -6.3944125   0.75068653   439061 
 2807000   0.50047329   -6.3943309   -6.3943309   -5.6436227  -0.21726632   -6.3943309   0.75070822   439061 
 2808000   0.50083166   -6.3949593   -6.3949593   -5.6437135  -0.21291881   -6.3949593   0.75124578   439061 
 2809000   0.50133921   -6.3952385   -6.3952385   -5.6432314    -0.214334   -6.3952385    0.7520071   439061 
 2810000   0.50029749   -6.3950483   -6.3950483   -5.6446038   -0.2149402   -6.3950483   0.75044453   439061 
 2811000   0.50020241   -6.3947821   -6.3947821   -5.6444802  -0.21932092   -6.3947821    0.7503019   439061 
 2812000   0.49930396   -6.3931368   -6.3931368   -5.6441826  -0.21428882   -6.3931368   0.74895423   439061 
 2813000   0.50010558   -6.3941635   -6.3941635   -5.6440068  -0.21637592   -6.3941635   0.75015666   439061 
 2814000   0.50044795   -6.3955633   -6.3955633   -5.6448931  -0.21360774   -6.3955633   0.75067021   439061 
 2815000   0.49988278   -6.3940533   -6.3940533   -5.6442309  -0.21313346   -6.3940533   0.74982247   439061 
 2816000    0.4998282   -6.3947812   -6.3947812   -5.6450406  -0.21458467   -6.3947812   0.74974059   439061 
 2817000   0.49967111   -6.3943833   -6.3943833   -5.6448783  -0.21718943   -6.3943833   0.74950496   439061 
 2818000   0.50017864   -6.3944229   -6.3944229   -5.6441566  -0.21554314   -6.3944229   0.75026625   439061 
 2819000   0.49920303   -6.3932023   -6.3932023   -5.6443994  -0.21387589   -6.3932023   0.74880284   439061 
 2820000   0.49888832   -6.3938083   -6.3938083   -5.6454775   -0.2147448   -6.3938083   0.74833077   439061 
 2821000   0.49921178   -6.3939409   -6.3939409    -5.645125  -0.21191454   -6.3939409   0.74881596   439061 
 2822000   0.49941958   -6.3943918   -6.3943918   -5.6452641  -0.21645766   -6.3943918   0.74912767   439061 
 2823000   0.50023996   -6.3959298   -6.3959298   -5.6455716  -0.21465143   -6.3959298   0.75035823   439061 
 2824000   0.50009827   -6.3952799   -6.3952799   -5.6451342  -0.21648031   -6.3952799    0.7501457   439061 
 2825000   0.49933897   -6.3940142   -6.3940142   -5.6450074  -0.21342172   -6.3940142   0.74900675   439061 
 2826000   0.49966386   -6.3946981   -6.3946981    -5.645204  -0.21794526   -6.3946981   0.74949409   439061 
 2827000   0.49959261   -6.3950926   -6.3950926   -5.6457054  -0.21571353   -6.3950926   0.74938721   439061 
 2828000   0.49951372    -6.395423    -6.395423   -5.6461542  -0.21897066    -6.395423   0.74926887   439061 
 2829000   0.49976556   -6.3949238   -6.3949238   -5.6452772  -0.21484992   -6.3949238   0.74964664   439061 
 2830000    0.4994902   -6.3941331   -6.3941331   -5.6448995  -0.21076072   -6.3941331   0.74923359   439061 
 2831000   0.49956119    -6.393953    -6.393953   -5.6446129  -0.21681983    -6.393953   0.74934008   439061 
 2832000   0.50009231   -6.3949143   -6.3949143   -5.6447775   -0.2149639   -6.3949143   0.75013676   439061 
 2833000   0.49923113   -6.3939948   -6.3939948   -5.6451499  -0.21876241   -6.3939948   0.74884499   439061 
 2834000   0.49939962   -6.3948291   -6.3948291   -5.6457313  -0.21410042   -6.3948291   0.74909772   439061 
 2835000   0.49975566   -6.3949863   -6.3949863   -5.6453545  -0.21275647   -6.3949863   0.74963178   439061 
 2836000   0.49928253   -6.3942114   -6.3942114   -5.6452894   -0.2084693   -6.3942114   0.74892208   439061 
 2837000   0.49994516   -6.3948832   -6.3948832   -5.6449672  -0.21312894   -6.3948832   0.74991604   439061 
 2838000   0.49925657   -6.3942022   -6.3942022    -5.645319  -0.21673807   -6.3942022   0.74888315   439061 
 2839000   0.49974786   -6.3942961   -6.3942961   -5.6446761  -0.21913477   -6.3942961   0.74962008   439061 
 2840000   0.49909341   -6.3936888   -6.3936888   -5.6450504  -0.21781975   -6.3936888   0.74863841   439061 
 2841000   0.49891291   -6.3927308   -6.3927308   -5.6443631  -0.21103202   -6.3927308   0.74836766   439061 
 2842000   0.50122959   -6.3949017   -6.3949017   -5.6430591  -0.21172287   -6.3949017   0.75184268   439061 
 2843000   0.50052577   -6.3939296   -6.3939296   -5.6431427  -0.20952558   -6.3939296   0.75078694   439061 
 2844000   0.50042711   -6.3945323   -6.3945323   -5.6438934  -0.21593429   -6.3945323   0.75063895   439061 
 2845000   0.49904585   -6.3929261   -6.3929261   -5.6443591  -0.21676836   -6.3929261   0.74856707   439061 
 2846000   0.49960254    -6.393967    -6.393967   -5.6445649  -0.21645584    -6.393967    0.7494021   439061 
 2847000   0.50102638   -6.3945761   -6.3945761   -5.6430383  -0.21332083   -6.3945761   0.75153786   439061 
 2848000   0.50062722    -6.394057    -6.394057   -5.6431179  -0.20726866    -6.394057   0.75093912   439061 
 2849000   0.50021081   -6.3941281   -6.3941281   -5.6438136  -0.21360364   -6.3941281    0.7503145   439061 
 2850000   0.49973105   -6.3940668   -6.3940668   -5.6444719   -0.2148678   -6.3940668   0.74959487   439061 
 2851000   0.50008568   -6.3941386   -6.3941386   -5.6440117   -0.2197219   -6.3941386   0.75012681   439061 
 2852000   0.50069987   -6.3947831   -6.3947831    -5.643735  -0.21837054   -6.3947831    0.7510481   439061 
 2853000   0.49892056   -6.3923518   -6.3923518   -5.6439727  -0.21059089   -6.3923518   0.74837914   439061 
 2854000    0.5003415   -6.3954214   -6.3954214   -5.6449108  -0.21364554   -6.3954214   0.75051054   439061 
 2855000    0.5005855   -6.3950999   -6.3950999   -5.6442233  -0.21113897   -6.3950999   0.75087654   439061 
 2856000     0.500055   -6.3952942   -6.3952942   -5.6452134  -0.21593042   -6.3952942   0.75008079   439061 
 2857000   0.49953894   -6.3940157   -6.3940157    -5.644709  -0.21635769   -6.3940157    0.7493067   439061 
 2858000   0.49953862   -6.3941199   -6.3941199   -5.6448137  -0.22010789   -6.3941199   0.74930622   439061 
 2859000   0.49965884   -6.3936293   -6.3936293   -5.6441427   -0.2136483   -6.3936293   0.74948655   439061 
 2860000   0.50017638   -6.3952524   -6.3952524   -5.6449895  -0.21411696   -6.3952524   0.75026285   439061 
 2861000   0.50079114   -6.3963551   -6.3963551   -5.6451701  -0.21465288   -6.3963551     0.751185   439061 
 2862000   0.49986433   -6.3947169   -6.3947169   -5.6449221  -0.20994276   -6.3947169   0.74979479   439061 
 2863000   0.49872037   -6.3937727   -6.3937727   -5.6456938  -0.21554917   -6.3937727   0.74807886   439061 
 2864000   0.50027273   -6.3952413   -6.3952413   -5.6448339  -0.21837903   -6.3952413   0.75040738   439061 
 2865000   0.49980763   -6.3936155   -6.3936155   -5.6439057  -0.21786481   -6.3936155   0.74970974   439061 
 2866000   0.50039866   -6.3938684   -6.3938684   -5.6432721  -0.21407133   -6.3938684   0.75059628   439061 
 2867000   0.49888149    -6.392405    -6.392405   -5.6440844   -0.2107074    -6.392405   0.74832054   439061 
 2868000    0.5002222   -6.3939551   -6.3939551   -5.6436235  -0.20803313   -6.3939551   0.75033159   439061 
 2869000   0.50032463    -6.393975    -6.393975   -5.6434898  -0.21323182    -6.393975   0.75048524   439061 
 2870000   0.49969175   -6.3934525   -6.3934525   -5.6439166  -0.21256973   -6.3934525   0.74953592   439061 
 2871000   0.49969871    -6.392888    -6.392888   -5.6433417  -0.21522507    -6.392888   0.74954636   439061 
 2872000   0.49985674   -6.3929769   -6.3929769   -5.6431935  -0.21409761   -6.3929769   0.74978341   439061 
 2873000   0.50025536    -6.393719    -6.393719   -5.6433377  -0.20986158    -6.393719   0.75038134   439061 
 2874000   0.49986241   -6.3943564   -6.3943564   -5.6445645  -0.21647134   -6.3943564    0.7497919   439061 
 2875000   0.50075194   -6.3951068   -6.3951068   -5.6439806  -0.21487037   -6.3951068    0.7511262   439061 
 2876000   0.49979534   -6.3943103   -6.3943103    -5.644619   -0.2175701   -6.3943103    0.7496913   439061 
 2877000   0.50014806   -6.3949048   -6.3949048   -5.6446844  -0.21603104   -6.3949048   0.75022039   439061 
 2878000   0.49912314   -6.3931879   -6.3931879   -5.6445049  -0.21578033   -6.3931879     0.748683   439061 
 2879000   0.50001666   -6.3939766   -6.3939766   -5.6439533  -0.21115276   -6.3939766   0.75002329   439061 
 2880000   0.49993849   -6.3946005   -6.3946005   -5.6446945   -0.2166479   -6.3946005   0.74990602   439061 
 2881000   0.50021707   -6.3951193   -6.3951193   -5.6447954   -0.2155177   -6.3951193   0.75032389   439061 
 2882000   0.50011109   -6.3952077   -6.3952077   -5.6450427  -0.21530748   -6.3952077   0.75016492   439061 
 2883000   0.49859073   -6.3936045   -6.3936045   -5.6457201  -0.21393771   -6.3936045   0.74788439   439061 
 2884000   0.49847747   -6.3926845   -6.3926845     -5.64497  -0.21156262   -6.3926845    0.7477145   439061 
 2885000   0.50008954   -6.3948956   -6.3948956    -5.644763  -0.21477692   -6.3948956   0.75013261   439061 
 2886000   0.49995367   -6.3945993   -6.3945993   -5.6446705  -0.21387036   -6.3945993   0.74992879   439061 
 2887000   0.50064069   -6.3957676   -6.3957676   -5.6448082  -0.21824008   -6.3957676   0.75095932   439061 
 2888000   0.49993967   -6.3945919   -6.3945919   -5.6446841  -0.21480024   -6.3945919   0.74990779   439061 
 2889000    0.5005186   -6.3957061   -6.3957061   -5.6449299   -0.2174685   -6.3957061   0.75077619   439061 
 2890000   0.49964313   -6.3939802   -6.3939802   -5.6445172  -0.21278082   -6.3939802   0.74946298   439061 
 2891000   0.49982523   -6.3943258   -6.3943258   -5.6445897  -0.21187664   -6.3943258   0.74973613   439061 
 2892000   0.50105069   -6.3949162   -6.3949162   -5.6433419   -0.2150544   -6.3949162   0.75157432   439061 
 2893000   0.50057557   -6.3935267   -6.3935267   -5.6426651  -0.21474959   -6.3935267   0.75086164   439061 
 2894000   0.50050245   -6.3934294   -6.3934294   -5.6426775  -0.21683551   -6.3934294   0.75075196   439061 
 2895000   0.50095224   -6.3939611   -6.3939611   -5.6425345  -0.21621614   -6.3939611   0.75142666   439061 
 2896000   0.50100153   -6.3942621   -6.3942621   -5.6427615  -0.21584864   -6.3942621   0.75150058   439061 
 2897000   0.50072921   -6.3940542   -6.3940542   -5.6429621  -0.21438571   -6.3940542    0.7510921   439061 
 2898000   0.50062735   -6.3946048   -6.3946048   -5.6436655  -0.21587721   -6.3946048   0.75093931   439061 
 2899000   0.50084538   -6.3945451   -6.3945451   -5.6432788  -0.21290019   -6.3945451   0.75126637   439061 
 2900000   0.50079227   -6.3950474   -6.3950474   -5.6438607  -0.21707721   -6.3950474   0.75118669   439061 
 2901000   0.49986162   -6.3944803   -6.3944803   -5.6446895  -0.21866507   -6.3944803   0.74979072   439061 
 2902000   0.50033065    -6.394018    -6.394018   -5.6435238  -0.21593326    -6.394018   0.75049427   439061 
 2903000   0.50052639   -6.3933892   -6.3933892   -5.6426013  -0.21333929   -6.3933892   0.75078787   439061 
 2904000   0.50035323   -6.3931792   -6.3931792    -5.642651  -0.20941312   -6.3931792   0.75052814   439061 
 2905000     0.500188   -6.3926672   -6.3926672   -5.6423869  -0.21077848   -6.3926672   0.75028029   439061 
 2906000   0.50032712   -6.3930345   -6.3930345   -5.6425456  -0.21383427   -6.3930345   0.75048897   439061 
 2907000   0.50044461    -6.393379    -6.393379   -5.6427138  -0.21469206    -6.393379    0.7506652   439061 
 2908000   0.50039523   -6.3939536   -6.3939536   -5.6433624  -0.21776736   -6.3939536   0.75059114   439061 
 2909000   0.49998013   -6.3929765   -6.3929765    -5.643008  -0.21298573   -6.3929765   0.74996849   439061 
 2910000   0.50028483   -6.3926481   -6.3926481   -5.6422225  -0.20818384   -6.3926481   0.75042554   439061 
 2911000   0.50050634    -6.393423    -6.393423   -5.6426652  -0.21153513    -6.393423    0.7507578   439061 
 2912000   0.50027244   -6.3939057   -6.3939057   -5.6434988  -0.21572184   -6.3939057   0.75040695   439061 
 2913000   0.50076704   -6.3945913   -6.3945913   -5.6434424  -0.21807283   -6.3945913   0.75114885   439061 
 2914000   0.50046476   -6.3945925   -6.3945925    -5.643897  -0.21821601   -6.3945925   0.75069543   439061 
 2915000   0.50049821   -6.3948315   -6.3948315   -5.6440859  -0.21753183   -6.3948315   0.75074561   439061 
 2916000   0.50010601   -6.3944517   -6.3944517   -5.6442944  -0.20945917   -6.3944517   0.75015731   439061 
 2917000   0.49921059   -6.3938515   -6.3938515   -5.6450374  -0.20993353   -6.3938515   0.74881418   439061 
 2918000   0.50017828   -6.3950694   -6.3950694   -5.6448037  -0.21494281   -6.3950694   0.75026571   439061 
 2919000   0.49992642   -6.3942287   -6.3942287   -5.6443408  -0.21817565   -6.3942287   0.74988792   439061 
 2920000   0.50041084    -6.394987    -6.394987   -5.6443724   -0.2206624    -6.394987   0.75061455   439061 
 2921000   0.50043238   -6.3943714   -6.3943714   -5.6437245  -0.21754813   -6.3943714   0.75064687   439061 
 2922000   0.50090568   -6.3956329   -6.3956329   -5.6442761  -0.21657166   -6.3956329   0.75135682   439061 
 2923000   0.49995258   -6.3936332   -6.3936332   -5.6437061  -0.21137029   -6.3936332   0.74992716   439061 
 2924000   0.50089384    -6.394599    -6.394599   -5.6432599  -0.21176348    -6.394599   0.75133906   439061 
 2925000   0.50117963   -6.3950015   -6.3950015   -5.6432338  -0.21939682   -6.3950015   0.75176773   439061 
 2926000   0.49924131   -6.3929888   -6.3929888   -5.6441285  -0.21605076   -6.3929888   0.74886027   439061 
 2927000   0.50011452   -6.3942211   -6.3942211    -5.644051  -0.21741171   -6.3942211   0.75017007   439061 
 2928000   0.50080502   -6.3948143   -6.3948143   -5.6436085  -0.21533501   -6.3948143   0.75120581   439061 
 2929000   0.50052256   -6.3944027   -6.3944027   -5.6436206  -0.21107264   -6.3944027   0.75078214   439061 
 2930000   0.50050335   -6.3954331   -6.3954331   -5.6446798  -0.21265141   -6.3954331   0.75075331   439061 
 2931000   0.50002367   -6.3938085   -6.3938085   -5.6437747  -0.21496115   -6.3938085   0.75003379   439061 
 2932000   0.49974008   -6.3939824   -6.3939824    -5.644374  -0.21695319   -6.3939824   0.74960841   439061 
 2933000   0.49990583   -6.3937746   -6.3937746   -5.6439175  -0.21575511   -6.3937746   0.74985703   439061 
 2934000   0.50009923   -6.3938608   -6.3938608   -5.6437137  -0.21304259   -6.3938608   0.75014714   439061 
 2935000   0.49962655   -6.3934596   -6.3934596   -5.6440215  -0.21135296   -6.3934596   0.74943811   439061 
 2936000   0.50055374   -6.3944037   -6.3944037   -5.6435748  -0.21270884   -6.3944037    0.7508289   439061 
 2937000   0.50172378   -6.3958207   -6.3958207   -5.6432367  -0.21380382   -6.3958207   0.75258395   439061 
 2938000   0.50002411   -6.3931997   -6.3931997   -5.6431652  -0.21798223   -6.3931997   0.75003445   439061 
 2939000   0.50128549   -6.3945728   -6.3945728   -5.6426462   -0.2142354   -6.3945728   0.75192652   439061 
 2940000   0.50072444   -6.3936623   -6.3936623   -5.6425774  -0.21359773   -6.3936623   0.75108495   439061 
 2941000   0.50092738   -6.3944939   -6.3944939   -5.6431046   -0.2126845   -6.3944939   0.75138937   439061 
 2942000   0.49945579   -6.3932914   -6.3932914   -5.6441094  -0.21172664   -6.3932914   0.74918199   439061 
 2943000   0.50090654   -6.3946758   -6.3946758   -5.6433177  -0.21454666   -6.3946758    0.7513581   439061 
 2944000   0.49999642   -6.3940034   -6.3940034   -5.6440105  -0.21510039   -6.3940034   0.74999292   439061 
 2945000   0.50021461   -6.3932674   -6.3932674   -5.6429472  -0.21512519   -6.3932674   0.75032021   439061 
 2946000    0.5011192   -6.3944209   -6.3944209   -5.6427438  -0.21586612   -6.3944209    0.7516771   439061 
 2947000   0.50087983   -6.3929961   -6.3929961   -5.6416781  -0.20978208   -6.3929961   0.75131804   439061 
 2948000   0.50133351   -6.3938542   -6.3938542   -5.6418557  -0.21340121   -6.3938542   0.75199855   439061 
 2949000   0.50070061   -6.3928938   -6.3928938   -5.6418446  -0.21335514   -6.3928938    0.7510492   439061 
 2950000   0.50067819   -6.3925805   -6.3925805   -5.6415649  -0.21075734   -6.3925805   0.75101558   439061 
 2951000   0.50023115   -6.3917682   -6.3917682   -5.6414232  -0.21181296   -6.3917682   0.75034501   439061 
 2952000   0.50060502   -6.3923385   -6.3923385   -5.6414327  -0.21116696   -6.3923385   0.75090582   439061 
 2953000    0.5009591   -6.3931632   -6.3931632   -5.6417263  -0.20942701   -6.3931632   0.75143695   439061 
 2954000   0.50100548   -6.3932477   -6.3932477   -5.6417412  -0.21143826   -6.3932477    0.7515065   439061 
 2955000   0.50024796   -6.3928207   -6.3928207   -5.6424505  -0.20981164   -6.3928207   0.75037023   439061 
 2956000   0.50025585   -6.3931181   -6.3931181    -5.642736  -0.21253909   -6.3931181   0.75038206   439061 
 2957000   0.50107324   -6.3929994   -6.3929994   -5.6413913  -0.21366233   -6.3929994   0.75160815   439061 
 2958000    0.5003766   -6.3919235   -6.3919235   -5.6413603   -0.2082467   -6.3919235   0.75056319   439061 
 2959000   0.50105526   -6.3932944   -6.3932944   -5.6417132  -0.21838342   -6.3932944   0.75158118   439061 
 2960000   0.50043761   -6.3926849   -6.3926849   -5.6420302  -0.21237561   -6.3926849   0.75065471   439061 
 2961000   0.50095449    -6.393107    -6.393107    -5.641677  -0.21127166    -6.393107   0.75143003   439061 
 2962000   0.50072361   -6.3935709   -6.3935709   -5.6424872  -0.20648479   -6.3935709   0.75108371   439061 
 2963000   0.50092558    -6.394693    -6.394693   -5.6433064  -0.21428936    -6.394693   0.75138665   439061 
 2964000   0.49997253   -6.3928894   -6.3928894   -5.6429323  -0.21117453   -6.3928894   0.74995708   439061 
 2965000   0.49984816   -6.3925793   -6.3925793   -5.6428087   -0.2173678   -6.3925793   0.74977053   439061 
 2966000    0.5005899   -6.3945167   -6.3945167   -5.6436336  -0.21411242   -6.3945167   0.75088314   439061 
 2967000   0.50014195   -6.3937995   -6.3937995   -5.6435883   -0.2133192   -6.3937995   0.75021122   439061 
 2968000   0.50048617   -6.3945095   -6.3945095   -5.6437819  -0.21132555   -6.3945095   0.75072754   439061 
 2969000   0.49983212   -6.3939764   -6.3939764     -5.64423  -0.21092018   -6.3939764   0.74974647   439061 
 2970000   0.50007535   -6.3951866   -6.3951866   -5.6450752  -0.21558588   -6.3951866   0.75011131   439061 
 2971000   0.49937185   -6.3931108   -6.3931108   -5.6440547  -0.21408452   -6.3931108   0.74905607   439061 
 2972000   0.49990237   -6.3944257   -6.3944257   -5.6445739  -0.21784969   -6.3944257   0.74985184   439061 
 2973000   0.49956643   -6.3945077   -6.3945077   -5.6451597  -0.21798225   -6.3945077   0.74934794   439061 
 2974000   0.50044807    -6.395711    -6.395711   -5.6450406  -0.21361117    -6.395711   0.75067039   439061 
 2975000   0.49949284   -6.3938226   -6.3938226    -5.644585   -0.2123446   -6.3938226   0.74923755   439061 
 2976000   0.50004149   -6.3943108   -6.3943108   -5.6442503  -0.21148333   -6.3943108   0.75006053   439061 
 2977000   0.50014781   -6.3943971   -6.3943971   -5.6441771  -0.21469355   -6.3943971      0.75022   439061 
 2978000   0.50134322    -6.395361    -6.395361   -5.6433479  -0.21748491    -6.395361   0.75201311   439061 
 2979000   0.50006584   -6.3944178   -6.3944178   -5.6443207  -0.21567519   -6.3944178   0.75009705   439061 
 2980000   0.49973254   -6.3938144   -6.3938144   -5.6442173   -0.2179406   -6.3938144   0.74959711   439061 
 2981000    0.5002965   -6.3942607   -6.3942607   -5.6438176  -0.21069388   -6.3942607   0.75044305   439061 
 2982000   0.50017802   -6.3940672   -6.3940672   -5.6438019  -0.21587477   -6.3940672   0.75026532   439061 
 2983000   0.49976596    -6.393313    -6.393313   -5.6436658   -0.2080982    -6.393313   0.74964723   439061 
 2984000   0.49997503     -6.39456     -6.39456   -5.6445992  -0.21600777     -6.39456   0.74996083   439061 
 2985000   0.50002326   -6.3946153   -6.3946153   -5.6445822  -0.21249363   -6.3946153   0.75003318   439061 
 2986000   0.50051179   -6.3955893   -6.3955893   -5.6448233  -0.21759045   -6.3955893   0.75076597   439061 
 2987000   0.49965497   -6.3949636   -6.3949636   -5.6454829  -0.21237395   -6.3949636   0.74948075   439061 
 2988000   0.49966944   -6.3946912   -6.3946912   -5.6451887  -0.21540232   -6.3946912   0.74950246   439061 
 2989000   0.49913686    -6.394645    -6.394645   -5.6459414  -0.21366937    -6.394645   0.74870358   439061 
 2990000   0.49928652   -6.3950303   -6.3950303   -5.6461022  -0.21747885   -6.3950303   0.74892808   439061 
 2991000     0.499588   -6.3953283   -6.3953283    -5.645948  -0.21478904   -6.3953283   0.74938029   439061 
 2992000   0.49914021   -6.3946687   -6.3946687   -5.6459601  -0.21221742   -6.3946687    0.7487086   439061 
 2993000    0.5001661   -6.3956949   -6.3956949   -5.6454475  -0.21341566   -6.3956949   0.75024744   439061 
 2994000   0.50049241   -6.3966609   -6.3966609    -5.645924  -0.21859198   -6.3966609   0.75073691   439061 
 2995000   0.49972431   -6.3956125   -6.3956125   -5.6460277  -0.21446271   -6.3956125   0.74958476   439061 
 2996000   0.49958484   -6.3950589   -6.3950589   -5.6456834  -0.21765113   -6.3950589   0.74937555   439061 
 2997000   0.50003614   -6.3950186   -6.3950186   -5.6449661  -0.21344421   -6.3950186    0.7500525   439061 
 2998000    0.5004063   -6.3944619   -6.3944619   -5.6438541  -0.21330255   -6.3944619   0.75060774   439061 
 2999000    0.5008984   -6.3958843   -6.3958843   -5.6445384  -0.21480145   -6.3958843    0.7513459   439061 
 3000000    0.4998886   -6.3945378   -6.3945378   -5.6447066  -0.21303125   -6.3945378   0.74983119   439061 
 3001000   0.50055999   -6.3948395   -6.3948395   -5.6440013  -0.21245734   -6.3948395   0.75083827   439061 
 3002000   0.49992737   -6.3941736   -6.3941736   -5.6442843   -0.2147729   -6.3941736   0.74988935   439061 
 3003000   0.49947934   -6.3934418   -6.3934418   -5.6442245  -0.21348055   -6.3934418    0.7492173   439061 
 3004000   0.49967026    -6.393716    -6.393716   -5.6442123  -0.21198758    -6.393716   0.74950368   439061 
 3005000    0.4997773   -6.3949489   -6.3949489   -5.6452847  -0.21506438   -6.3949489   0.74966425   439061 
 3006000   0.50055071   -6.3958207   -6.3958207   -5.6449963  -0.21611311   -6.3958207   0.75082435   439061 
 3007000    0.4990122   -6.3937514   -6.3937514   -5.6452348  -0.21500187   -6.3937514   0.74851659   439061 
 3008000   0.50003058    -6.394519    -6.394519   -5.6444749  -0.21256809    -6.394519   0.75004417   439061 
 3009000   0.50080677    -6.395476    -6.395476   -5.6442676  -0.21555034    -6.395476   0.75120844   439061 
 3010000   0.50060409   -6.3950291   -6.3950291   -5.6441247  -0.21215657   -6.3950291   0.75090443   439061 
 3011000   0.50002508   -6.3951409   -6.3951409    -5.645105  -0.21640872   -6.3951409   0.75003591   439061 
 3012000   0.49975002   -6.3947185   -6.3947185   -5.6450952  -0.21375513   -6.3947185   0.74962332   439061 
 3013000   0.50011316   -6.3967364   -6.3967364   -5.6465683  -0.21602405   -6.3967364   0.75016803   439061 
 3014000   0.49928716   -6.3954163   -6.3954163   -5.6464873  -0.21324938   -6.3954163   0.74892904   439061 
 3015000   0.50010352   -6.3965371   -6.3965371   -5.6463836  -0.21235955   -6.3965371   0.75015357   439061 
 3016000    0.4996861   -6.3951216   -6.3951216   -5.6455942  -0.21523045   -6.3951216   0.74952744   439061 
 3017000   0.49950423   -6.3936358   -6.3936358   -5.6443812   -0.2149247   -6.3936358   0.74925463   439061 
 3018000    0.4999704   -6.3942845   -6.3942845   -5.6443307  -0.21399613   -6.3942845   0.74995389   439061 
 3019000   0.49969571   -6.3944318   -6.3944318   -5.6448899   -0.2135281   -6.3944318   0.74954186   439061 
 3020000   0.50104294   -6.3955065   -6.3955065   -5.6439438   -0.2137236   -6.3955065    0.7515627   439061 
 3021000   0.50009566   -6.3946108   -6.3946108    -5.644469  -0.21286467   -6.3946108   0.75014178   439061 
 3022000   0.50003564   -6.3951703   -6.3951703   -5.6451185  -0.21445737   -6.3951703   0.75005176   439061 
 3023000    0.4997239   -6.3948052   -6.3948052   -5.6452211  -0.21653748   -6.3948052   0.74958414   439061 
 3024000   0.49964044   -6.3943849   -6.3943849   -5.6449259  -0.21714409   -6.3943849   0.74945895   439061 
 3025000   0.49946593   -6.3934584   -6.3934584   -5.6442613  -0.21271436   -6.3934584   0.74919719   439061 
 3026000   0.50023528   -6.3951938   -6.3951938   -5.6448426  -0.21511871   -6.3951938   0.75035122   439061 
 3027000    0.4998798   -6.3947433   -6.3947433   -5.6449253  -0.21288623   -6.3947433   0.74981799   439061 
 3028000   0.50046718   -6.3962673   -6.3962673   -5.6455682  -0.21531961   -6.3962673   0.75069905   439061 
 3029000   0.50010459   -6.3948259   -6.3948259   -5.6446707  -0.21661084   -6.3948259   0.75015517   439061 
 3030000   0.49954838   -6.3937655   -6.3937655   -5.6444446  -0.21532666   -6.3937655   0.74932087   439061 
 3031000   0.50007098   -6.3941767   -6.3941767    -5.644072  -0.21621426   -6.3941767   0.75010477   439061 
 3032000    0.4999379   -6.3939141   -6.3939141    -5.644009  -0.21204328   -6.3939141   0.74990514   439061 
 3033000   0.50070934   -6.3946107   -6.3946107   -5.6435484  -0.21522511   -6.3946107    0.7510623   439061 
 3034000   0.50007728     -6.39375     -6.39375   -5.6436357  -0.21083117     -6.39375   0.75011421   439061 
 3035000     0.501018   -6.3952955   -6.3952955   -5.6437702  -0.21645848   -6.3952955   0.75152529   439061 
 3036000   0.49976431   -6.3938345   -6.3938345   -5.6441898  -0.21562918   -6.3938345   0.74964476   439061 
 3037000   0.50012206   -6.3942899   -6.3942899   -5.6441085  -0.21512068   -6.3942899   0.75018138   439061 
 3038000   0.50050664   -6.3949304   -6.3949304   -5.6441722  -0.21575268   -6.3949304   0.75075824   439061 
 3039000   0.49959236   -6.3939786   -6.3939786   -5.6445918  -0.21332527   -6.3939786   0.74938683   439061 
 3040000   0.50031572   -6.3947825   -6.3947825   -5.6443106  -0.21139105   -6.3947825   0.75047188   439061 
 3041000   0.50047067   -6.3948735   -6.3948735   -5.6441692  -0.21189004   -6.3948735    0.7507043   439061 
 3042000   0.49991202   -6.3933611   -6.3933611   -5.6434947  -0.21295943   -6.3933611   0.74986633   439061 
 3043000   0.50065102   -6.3945062   -6.3945062   -5.6435314  -0.21791821   -6.3945062   0.75097482   439061 
 3044000     0.500775   -6.3945416   -6.3945416   -5.6433808  -0.22091179   -6.3945416   0.75116079   439061 
 3045000   0.50061943   -6.3945383   -6.3945383   -5.6436108  -0.21755048   -6.3945383   0.75092744   439061 
 3046000   0.50011681   -6.3941574   -6.3941574   -5.6439839  -0.21107026   -6.3941574    0.7501735   439061 
 3047000   0.50035734   -6.3948031   -6.3948031   -5.6442688  -0.21180872   -6.3948031   0.75053429   439061 
 3048000   0.50069204    -6.395238    -6.395238   -5.6442016  -0.21463974    -6.395238   0.75103635   439061 
 3049000    0.4998337   -6.3939627   -6.3939627   -5.6442138  -0.21680089   -6.3939627   0.74974884   439061 
 3050000   0.50024429   -6.3941961   -6.3941961   -5.6438314  -0.21808638   -6.3941961   0.75036472   439061 
 3051000    0.4999541   -6.3941789   -6.3941789   -5.6442494  -0.21595585   -6.3941789   0.74992944   439061 
 3052000   0.50005321   -6.3944984   -6.3944984   -5.6444203  -0.21589835   -6.3944984   0.75007811   439061 
 3053000    0.4998746   -6.3939251   -6.3939251   -5.6441149  -0.20787696   -6.3939251   0.74981019   439061 
 3054000   0.49994351   -6.3948113   -6.3948113   -5.6448977  -0.21216879   -6.3948113   0.74991355   439061 
 3055000   0.50023413   -6.3959803   -6.3959803   -5.6456308  -0.21678228   -6.3959803   0.75034949   439061 
 3056000   0.49913867   -6.3936017   -6.3936017   -5.6448954  -0.21910325   -6.3936017    0.7487063   439061 
 3057000    0.5003358   -6.3948293   -6.3948293   -5.6443273  -0.21896837   -6.3948293   0.75050199   439061 
 3058000   0.49993862   -6.3939021   -6.3939021   -5.6439959  -0.21400426   -6.3939021   0.74990622   439061 
 3059000   0.50081148   -6.3941627   -6.3941627   -5.6429472   -0.2104923   -6.3941627    0.7512155   439061 
 3060000   0.50067397   -6.3939234   -6.3939234   -5.6429141   -0.2126498   -6.3939234   0.75100925   439061 
 3061000   0.49976212   -6.3937289   -6.3937289   -5.6440874  -0.21425946   -6.3937289   0.74964147   439061 
 3062000    0.5000948   -6.3937005   -6.3937005     -5.64356    -0.215759   -6.3937005   0.75014049   439061 
 3063000   0.49954011   -6.3932152   -6.3932152   -5.6439068   -0.2149355   -6.3932152   0.74930846   439061 
 3064000   0.50046256    -6.395001    -6.395001   -5.6443088  -0.21389624    -6.395001   0.75069213   439061 
 3065000   0.49957079   -6.3937953   -6.3937953   -5.6444408  -0.20955412   -6.3937953   0.74935448   439061 
 3066000   0.50043731   -6.3949335   -6.3949335   -5.6442793  -0.21408052   -6.3949335   0.75065426   439061 
 3067000   0.50005555   -6.3938462   -6.3938462   -5.6437646  -0.21186266   -6.3938462   0.75008162   439061 
 3068000   0.49983449   -6.3938493   -6.3938493   -5.6440993  -0.21487852   -6.3938493   0.74975003   439061 
 3069000   0.49966437   -6.3940912   -6.3940912   -5.6445963  -0.21816441   -6.3940912   0.74949486   439061 
 3070000   0.49933795   -6.3936594   -6.3936594   -5.6446541  -0.21510583   -6.3936594   0.74900522   439061 
 3071000   0.49971363   -6.3941575   -6.3941575   -5.6445887  -0.21106136   -6.3941575   0.74956874   439061 
 3072000   0.50025823   -6.3947227   -6.3947227    -5.644337  -0.21255711   -6.3947227   0.75038564   439061 
 3073000   0.49986011    -6.394055    -6.394055   -5.6442666  -0.21450956    -6.394055   0.74978846   439061 
 3074000   0.50008026   -6.3944402   -6.3944402   -5.6443215  -0.21632053   -6.3944402   0.75011868   439061 
 3075000   0.49994273   -6.3946328   -6.3946328   -5.6447204  -0.21663856   -6.3946328   0.74991238   439061 
 3076000   0.50005996   -6.3942547   -6.3942547   -5.6441665   -0.2123904   -6.3942547   0.75008823   439061 
 3077000   0.49909412    -6.393659    -6.393659   -5.6450195  -0.21120203    -6.393659   0.74863947   439061 
 3078000   0.49928228   -6.3941881   -6.3941881   -5.6452663  -0.21395517   -6.3941881   0.74892171   439061 
 3079000   0.49968221   -6.3944715   -6.3944715   -5.6449499  -0.21474025   -6.3944715   0.74952161   439061 
 3080000   0.50007113    -6.395001    -6.395001   -5.6448961  -0.21417113    -6.395001   0.75010499   439061 
 3081000   0.49962638   -6.3943939   -6.3943939    -5.644956  -0.21197104   -6.3943939   0.74943787   439061 
 3082000   0.50021827   -6.3954578   -6.3954578   -5.6451321  -0.21642184   -6.3954578    0.7503257   439061 
 3083000   0.49989268   -6.3948322   -6.3948322   -5.6449949  -0.21746629   -6.3948322   0.74983732   439061 
 3084000   0.49987289   -6.3934595   -6.3934595   -5.6436519  -0.21580237   -6.3934595   0.74980763   439061 
 3085000   0.50053151   -6.3942363   -6.3942363   -5.6434408  -0.21419693   -6.3942363   0.75079556   439061 
 3086000   0.50018591   -6.3943323   -6.3943323   -5.6440551  -0.21453258   -6.3943323   0.75027715   439061 
 3087000   0.49939547   -6.3941474   -6.3941474   -5.6450559  -0.21473529   -6.3941474    0.7490915   439061 
 3088000   0.49960516   -6.3940335   -6.3940335   -5.6446275  -0.21308327   -6.3940335   0.74940604   439061 
 3089000   0.50008874   -6.3948268   -6.3948268   -5.6446954  -0.21433925   -6.3948268   0.75013139   439061 
 3090000   0.50038486   -6.3945639   -6.3945639   -5.6439883  -0.21481435   -6.3945639   0.75057557   439061 
 3091000   0.49965697   -6.3930353   -6.3930353   -5.6435515  -0.21007302   -6.3930353   0.74948374   439061 
 3092000    0.4996096   -6.3938105   -6.3938105   -5.6443978  -0.21319291   -6.3938105    0.7494127   439061 
 3093000   0.49969198   -6.3944621   -6.3944621   -5.6449259  -0.21289163   -6.3944621   0.74953626   439061 
 3094000   0.50019441   -6.3946698   -6.3946698   -5.6443799  -0.21545657   -6.3946698   0.75028991   439061 
 3095000   0.49958156   -6.3940613   -6.3940613   -5.6446906   -0.2125594   -6.3940613   0.74937063   439061 
 3096000   0.49916049   -6.3932546   -6.3932546   -5.6445155  -0.21253623   -6.3932546   0.74873903   439061 
 3097000   0.49996155   -6.3943012   -6.3943012   -5.6443606  -0.21161173   -6.3943012   0.74994062   439061 
 3098000   0.49982139   -6.3936844   -6.3936844    -5.643954  -0.21333413   -6.3936844   0.74973038   439061 
 3099000   0.50000625   -6.3940632   -6.3940632   -5.6440555  -0.21386688   -6.3940632   0.75000766   439061 
 3100000   0.50028283   -6.3944591   -6.3944591   -5.6440365  -0.21699824   -6.3944591   0.75042253   439061 
 3101000   0.50070443   -6.3948197   -6.3948197   -5.6437648  -0.21590814   -6.3948197   0.75105493   439061 
 3102000   0.49981053   -6.3944422   -6.3944422   -5.6447282  -0.21722906   -6.3944422   0.74971408   439061 
 3103000   0.49997472   -6.3955445   -6.3955445   -5.6455841    -0.215153   -6.3955445   0.74996037   439061 
 3104000   0.49911799   -6.3945235   -6.3945235   -5.6458483  -0.21354663   -6.3945235   0.74867528   439061 
 3105000   0.49896307   -6.3945838   -6.3945838   -5.6461409  -0.21315669   -6.3945838    0.7484429   439061 
 3106000   0.49953537   -6.3951935   -6.3951935   -5.6458922  -0.21464437   -6.3951935   0.74930135   439061 
 3107000   0.49929955   -6.3952387   -6.3952387   -5.6462911  -0.21473693   -6.3952387   0.74894762   439061 
 3108000   0.49829733   -6.3942668   -6.3942668   -5.6468225  -0.21494723   -6.3942668   0.74744429   439061 
 3109000   0.49912755    -6.395795    -6.395795   -5.6471054  -0.21601811    -6.395795   0.74868963   439061 
 3110000   0.49988267   -6.3962455   -6.3962455   -5.6464232   -0.2176255   -6.3962455   0.74982229   439061 
 3111000   0.49912703   -6.3947782   -6.3947782   -5.6460893  -0.21240579   -6.3947782   0.74868883   439061 
 3112000   0.50058596   -6.3952519   -6.3952519   -5.6443747  -0.21225342   -6.3952519   0.75087724   439061 
 3113000   0.50014512   -6.3944984   -6.3944984   -5.6442824  -0.21526939   -6.3944984   0.75021597   439061 
 3114000   0.50019466    -6.394175    -6.394175   -5.6438847  -0.21713193    -6.394175   0.75029028   439061 
 3115000   0.49887005   -6.3924004   -6.3924004    -5.644097  -0.21722436   -6.3924004   0.74830337   439061 
 3116000   0.49992686   -6.3938995   -6.3938995    -5.644011  -0.21414851   -6.3938995   0.74988858   439061 
 3117000   0.50075159   -6.3953661   -6.3953661   -5.6442405  -0.21327288   -6.3953661   0.75112567   439061 
 3118000   0.50103814   -6.3950045   -6.3950045    -5.643449  -0.20953726   -6.3950045    0.7515555   439061 
 3119000    0.5003275   -6.3935828   -6.3935828   -5.6430933   -0.2084542   -6.3935828   0.75048954   439061 
 3120000   0.50072978   -6.3942179   -6.3942179   -5.6431249  -0.21742838   -6.3942179   0.75109297   439061 
 3121000   0.49996762    -6.392885    -6.392885   -5.6429353  -0.21655209    -6.392885   0.74994972   439061 
 3122000   0.50097485   -6.3938731   -6.3938731   -5.6424125  -0.21677283   -6.3938731   0.75146057   439061 
 3123000   0.50048713   -6.3944701   -6.3944701   -5.6437412  -0.21117023   -6.3944701   0.75072899   439061 
 3124000   0.50080397   -6.3954904   -6.3954904   -5.6442862   -0.2126453   -6.3954904   0.75120424   439061 
 3125000    0.4990155   -6.3933051   -6.3933051   -5.6447835  -0.20812473   -6.3933051   0.74852154   439061 
 3126000   0.49985292   -6.3939517   -6.3939517    -5.644174  -0.21055075   -6.3939517   0.74977767   439061 
 3127000   0.49996636   -6.3939664   -6.3939664   -5.6440185  -0.21674682   -6.3939664   0.74994783   439061 
 3128000   0.50050259    -6.393988    -6.393988   -5.6432358  -0.21955444    -6.393988   0.75075217   439061 
 3129000   0.50037097   -6.3939902   -6.3939902   -5.6434354   -0.2170304   -6.3939902   0.75055474   439061 
 3130000   0.50070204   -6.3947259   -6.3947259   -5.6436745  -0.21411204   -6.3947259   0.75105135   439061 
 3131000   0.50087941   -6.3956164   -6.3956164    -5.644299   -0.2099847   -6.3956164    0.7513174   439061 
 3132000    0.5007416   -6.3963262   -6.3963262   -5.6452155  -0.21452562   -6.3963262   0.75111068   439061 
 3133000   0.49985593   -6.3950659   -6.3950659   -5.6452837  -0.21419104   -6.3950659   0.74978218   439061 
 3134000   0.49964818   -6.3941802   -6.3941802   -5.6447096  -0.21725229   -6.3941802   0.74947057   439061 
 3135000   0.50036519   -6.3947527   -6.3947527   -5.6442066  -0.21828105   -6.3947527   0.75054608   439061 
 3136000   0.50021598   -6.3944893   -6.3944893    -5.644167  -0.21578447   -6.3944893   0.75032226   439061 
 3137000   0.50015587   -6.3943351   -6.3943351    -5.644103  -0.21279499   -6.3943351    0.7502321   439061 
 3138000   0.49955221   -6.3937334   -6.3937334   -5.6444068  -0.21055287   -6.3937334   0.74932661   439061 
 3139000     0.499976   -6.3940478   -6.3940478   -5.6440855  -0.21266181   -6.3940478   0.74996229   439061 
 3140000   0.49961801   -6.3947618   -6.3947618   -5.6453365  -0.21694301   -6.3947618    0.7494253   439061 
 3141000   0.49971567   -6.3941036   -6.3941036   -5.6445318  -0.21310336   -6.3941036    0.7495718   439061 
 3142000   0.49943919   -6.3932565   -6.3932565   -5.6440995  -0.21222164   -6.3932565   0.74915707   439061 
 3143000   0.50056071   -6.3947602   -6.3947602   -5.6439208  -0.21438373   -6.3947602   0.75083936   439061 
 3144000   0.49992518   -6.3940152   -6.3940152   -5.6441291  -0.20944841   -6.3940152   0.74988606   439061 
 3145000   0.50039121   -6.3947956   -6.3947956   -5.6442105  -0.21662885   -6.3947956   0.75058511   439061 
 3146000   0.50014531   -6.3937124   -6.3937124   -5.6434962  -0.21154707   -6.3937124   0.75021625   439061 
 3147000   0.50039757   -6.3937616   -6.3937616   -5.6431669  -0.21378695   -6.3937616   0.75059465   439061 
 3148000   0.49976018   -6.3932443   -6.3932443   -5.6436057  -0.21240434   -6.3932443   0.74963857   439061 
 3149000   0.50010767   -6.3932508   -6.3932508    -5.643091  -0.21365764   -6.3932508    0.7501598   439061 
 3150000   0.50040274   -6.3935645   -6.3935645   -5.6429621  -0.21110755   -6.3935645    0.7506024   439061 
 3151000   0.49988674   -6.3931991   -6.3931991   -5.6433707  -0.21038213   -6.3931991    0.7498284   439061 
 3152000    0.5008108   -6.3946272   -6.3946272   -5.6434127  -0.21612228   -6.3946272   0.75121449   439061 
 3153000   0.50094755   -6.3955721   -6.3955721   -5.6441525  -0.21590765   -6.3955721   0.75141962   439061 
 3154000   0.50002567   -6.3939941   -6.3939941   -5.6439573  -0.21505574   -6.3939941    0.7500368   439061 
 3155000   0.50056141   -6.3933293   -6.3933293   -5.6424889  -0.21003087   -6.3933293   0.75084041   439061 
 3156000   0.50064463   -6.3936411   -6.3936411   -5.6426759  -0.21310557   -6.3936411   0.75096523   439061 
 3157000   0.50006421    -6.392799    -6.392799   -5.6427044  -0.21241237    -6.392799   0.75009461   439061 
 3158000   0.50005464   -6.3934564   -6.3934564   -5.6433761  -0.21539087   -6.3934564   0.75008025   439061 
 3159000   0.49921522   -6.3925732   -6.3925732   -5.6437521  -0.21089631   -6.3925732   0.74882113   439061 
 3160000   0.49988512    -6.393462    -6.393462    -5.643636  -0.21281794    -6.393462   0.74982597   439061 
 3161000   0.50035921   -6.3936005   -6.3936005   -5.6430634  -0.21268015   -6.3936005    0.7505371   439061 
 3162000   0.50044034   -6.3947777   -6.3947777   -5.6441189   -0.2145095   -6.3947777    0.7506588   439061 
 3163000   0.49963057   -6.3937443   -6.3937443   -5.6443001  -0.21377339   -6.3937443   0.74944414   439061 
 3164000   0.50046354   -6.3956049   -6.3956049   -5.6449113   -0.2153727   -6.3956049    0.7506936   439061 
 3165000   0.49998659   -6.3952452   -6.3952452    -5.645267  -0.21306152   -6.3952452   0.74997817   439061 
 3166000   0.50050001   -6.3949283   -6.3949283     -5.64418  -0.21380361   -6.3949283    0.7507483   439061 
 3167000   0.50022174   -6.3944927   -6.3944927   -5.6441618  -0.21513972   -6.3944927   0.75033089   439061 
 3168000   0.50088802   -6.3960379   -6.3960379   -5.6447076  -0.21686137   -6.3960379   0.75133032   439061 
 3169000   0.50045408   -6.3944257   -6.3944257   -5.6437463  -0.21582365   -6.3944257   0.75067941   439061 
 3170000   0.49940211   -6.3948814   -6.3948814   -5.6457799  -0.21430894   -6.3948814   0.74910146   439061 
 3171000   0.49939108   -6.3942446   -6.3942446   -5.6451597  -0.21277263   -6.3942446   0.74908491   439061 
 3172000   0.50050212   -6.3954819   -6.3954819   -5.6447305  -0.21158498   -6.3954819   0.75075147   439061 
 3173000   0.50047133   -6.3949503   -6.3949503    -5.644245  -0.21256034   -6.3949503   0.75070528   439061 
 3174000   0.50044263   -6.3957537   -6.3957537   -5.6450915  -0.21728506   -6.3957537   0.75066223   439061 
 3175000    0.5003569    -6.396346    -6.396346   -5.6458124  -0.21854493    -6.396346   0.75053363   439061 
 3176000   0.49969958   -6.3939723   -6.3939723   -5.6444246  -0.21588808   -6.3939723   0.74954766   439061 
 3177000   0.50075425   -6.3953015   -6.3953015   -5.6441718  -0.21297886   -6.3953015   0.75112966   439061 
 3178000   0.49979424   -6.3942038   -6.3942038   -5.6445141  -0.21197221   -6.3942038   0.74968966   439061 
 3179000   0.50040282   -6.3950537   -6.3950537   -5.6444512  -0.21342532   -6.3950537   0.75060252   439061 
 3180000   0.50009598   -6.3946725   -6.3946725   -5.6445302  -0.21572357   -6.3946725   0.75014226   439061 
 3181000   0.50082585   -6.3950789   -6.3950789   -5.6438419  -0.21457554   -6.3950789   0.75123707   439061 
 3182000   0.50037448   -6.3942727   -6.3942727   -5.6437127  -0.21544842   -6.3942727      0.75056   439061 
 3183000   0.50055637   -6.3941468   -6.3941468   -5.6433139  -0.21580259   -6.3941468   0.75083284   439061 
 3184000   0.50017504   -6.3941396   -6.3941396   -5.6438787  -0.20926469   -6.3941396   0.75026086   439061 
 3185000   0.50019154   -6.3950762   -6.3950762   -5.6447906   -0.2171852   -6.3950762    0.7502856   439061 
 3186000   0.50020921   -6.3942391   -6.3942391    -5.643927  -0.21223262   -6.3942391    0.7503121   439061 
 3187000   0.50061954   -6.3937618   -6.3937618   -5.6428342  -0.21632391   -6.3937618    0.7509276   439061 
 3188000   0.49988265   -6.3927361   -6.3927361   -5.6429138  -0.21114468   -6.3927361   0.74982226   439061 
 3189000   0.49962826   -6.3934743   -6.3934743   -5.6440337  -0.21550888   -6.3934743   0.74944068   439061 
 3190000   0.50023172    -6.394947    -6.394947   -5.6446012  -0.21706211    -6.394947   0.75034587   439061 
 3191000   0.49989008   -6.3941223   -6.3941223   -5.6442888  -0.21146201   -6.3941223   0.74983341   439061 
 3192000   0.49975692   -6.3946162   -6.3946162   -5.6449825  -0.21556437   -6.3946162   0.74963368   439061 
 3193000   0.49979421   -6.3949184   -6.3949184   -5.6452288  -0.21352456   -6.3949184   0.74968961   439061 
 3194000   0.49964267   -6.3947661   -6.3947661   -5.6453038  -0.21415933   -6.3947661    0.7494623   439061 
 3195000    0.5005731   -6.3961088   -6.3961088   -5.6452509    -0.215894   -6.3961088   0.75085794   439061 
 3196000   0.50035468   -6.3949021   -6.3949021   -5.6443718  -0.21187831   -6.3949021   0.75053031   439061 
 3197000   0.49956028   -6.3938991   -6.3938991   -5.6445603  -0.21184587   -6.3938991   0.74933871   439061 
 3198000   0.49972832   -6.3946934   -6.3946934   -5.6451026  -0.21548904   -6.3946934   0.74959077   439061 
 3199000   0.49989736   -6.3943713   -6.3943713   -5.6445269   -0.2155492   -6.3943713   0.74984434   439061 
 3200000   0.49990354   -6.3940594   -6.3940594   -5.6442058   -0.2145567   -6.3940594    0.7498536   439061 
 3201000   0.50063431   -6.3952126   -6.3952126   -5.6442629  -0.21273301   -6.3952126   0.75094976   439061 
 3202000   0.49950825   -6.3936691   -6.3936691   -5.6444084  -0.21331044   -6.3936691   0.74926067   439061 
 3203000   0.49945551   -6.3947594   -6.3947594   -5.6455779  -0.21427226   -6.3947594   0.74918155   439061 
 3204000   0.49831173   -6.3935133   -6.3935133   -5.6460475  -0.21298114   -6.3935133    0.7474659   439061 
 3205000   0.49973355   -6.3960406   -6.3960406    -5.646442  -0.21648011   -6.3960406   0.74959861   439061 
 3206000    0.4995816   -6.3944302   -6.3944302   -5.6450595  -0.21263347   -6.3944302   0.74937069   439061 
 3207000   0.50005645   -6.3951831   -6.3951831   -5.6451001  -0.21376757   -6.3951831   0.75008297   439061 
 3208000   0.49992224   -6.3948744   -6.3948744   -5.6449927  -0.21297598   -6.3948744   0.74988166   439061 
 3209000    0.4997114   -6.3944124   -6.3944124    -5.644847  -0.21614754   -6.3944124    0.7495654   439061 
 3210000   0.49876246   -6.3945595   -6.3945595   -5.6464175  -0.21812337   -6.3945595   0.74814199   439061 
 3211000   0.49913248   -6.3957323   -6.3957323   -5.6470352  -0.21613918   -6.3957323   0.74869702   439061 
 3212000   0.49987236   -6.3957069   -6.3957069      -5.6459   -0.2115298   -6.3957069   0.74980684   439061 
 3213000   0.49978661   -6.3957182   -6.3957182     -5.64604  -0.20847847   -6.3957182   0.74967821   439061 
 3214000   0.49954483   -6.3960827   -6.3960827   -5.6467671  -0.21343825   -6.3960827   0.74931554   439061 
 3215000   0.50005406   -6.3957364   -6.3957364   -5.6456571   -0.2201639   -6.3957364   0.75007938   439061 
 3216000   0.49922795   -6.3947879   -6.3947879   -5.6459477  -0.22207958   -6.3947879   0.74884022   439061 
 3217000   0.49967326   -6.3948228   -6.3948228   -5.6453146   -0.2180872   -6.3948228   0.74950819   439061 
 3218000   0.49962768   -6.3945951   -6.3945951   -5.6451553  -0.20804349   -6.3945951   0.74943981   439061 
 3219000   0.49937091    -6.394762    -6.394762   -5.6457074   -0.2090881    -6.394762   0.74905466   439061 
 3220000    0.4998926   -6.3959174   -6.3959174   -5.6460802  -0.20978059   -6.3959174    0.7498372   439061 
 3221000   0.49957948   -6.3950983   -6.3950983   -5.6457308  -0.21639797   -6.3950983   0.74936751   439061 
 3222000   0.49991192    -6.395728    -6.395728   -5.6458618  -0.21728953    -6.395728   0.74986618   439061 
 3223000    0.4995046   -6.3942868   -6.3942868   -5.6450316  -0.21675067   -6.3942868    0.7492552   439061 
 3224000   0.50091524   -6.3948124   -6.3948124   -5.6434412  -0.21425457   -6.3948124   0.75137115   439061 
 3225000   0.50107866    -6.394591    -6.394591   -5.6429747   -0.2112877    -6.394591   0.75161628   439061 
 3226000   0.50013718   -6.3934769   -6.3934769   -5.6432728  -0.21003333   -6.3934769   0.75020406   439061 
 3227000   0.50047383   -6.3933297   -6.3933297   -5.6426206  -0.21237462   -6.3933297   0.75070904   439061 
 3228000    0.5006181   -6.3928665   -6.3928665   -5.6419411  -0.21103561   -6.3928665   0.75092545   439061 
 3229000   0.50015131   -6.3930606   -6.3930606   -5.6428353  -0.21834895   -6.3930606   0.75022526   439061 
 3230000   0.50048712   -6.3944648   -6.3944648   -5.6437358  -0.21871752   -6.3944648   0.75072898   439061 
 3231000   0.50044951   -6.3934344   -6.3934344   -5.6427619   -0.2107546   -6.3934344   0.75067255   439061 
 3232000   0.50132602   -6.3945583   -6.3945583    -5.642571  -0.21041809   -6.3945583   0.75198732   439061 
 3233000   0.50057891   -6.3946532   -6.3946532   -5.6437866  -0.21207017   -6.3946532   0.75086665   439061 
 3234000   0.49949103   -6.3936502   -6.3936502   -5.6444154  -0.21454406   -6.3936502   0.74923484   439061 
 3235000   0.49988084   -6.3937017   -6.3937017   -5.6438821  -0.21649084   -6.3937017   0.74981955   439061 
 3236000   0.50028932   -6.3936447   -6.3936447   -5.6432124  -0.21430583   -6.3936447   0.75043227   439061 
 3237000   0.50049271   -6.3927091   -6.3927091   -5.6419717  -0.21216695   -6.3927091   0.75073735   439061 
 3238000   0.50068312   -6.3927246   -6.3927246   -5.6417016  -0.20907987   -6.3927246   0.75102296   439061 
 3239000   0.50029669   -6.3940997   -6.3940997   -5.6436564  -0.21316582   -6.3940997   0.75044332   439061 
 3240000   0.50014298    -6.394597    -6.394597   -5.6443842  -0.21273509    -6.394597   0.75021277   439061 
 3241000   0.50033945   -6.3932119   -6.3932119   -5.6427044  -0.21363575   -6.3932119   0.75050747   439061 
 3242000   0.50019185   -6.3934553   -6.3934553   -5.6431692  -0.21451032   -6.3934553   0.75028607   439061 
 3243000   0.50051594   -6.3936976   -6.3936976   -5.6429254  -0.21508793   -6.3936976    0.7507722   439061 
 3244000   0.50048366   -6.3933763   -6.3933763   -5.6426526  -0.21205295   -6.3933763   0.75072378   439061 
 3245000   0.50037995   -6.3936582   -6.3936582   -5.6430899    -0.211054   -6.3936582   0.75056821   439061 
 3246000   0.50001189    -6.393794    -6.393794   -5.6437779  -0.21305568    -6.393794   0.75001612   439061 
 3247000   0.49965572   -6.3933693   -6.3933693   -5.6438874  -0.21515797   -6.3933693   0.74948187   439061 
 3248000   0.50055801   -6.3932034   -6.3932034   -5.6423681  -0.21437291   -6.3932034   0.75083531   439061 
 3249000   0.50018143   -6.3939407   -6.3939407   -5.6436703   -0.2159845   -6.3939407   0.75027043   439061 
 3250000   0.49999324   -6.3937454   -6.3937454   -5.6437572  -0.21137214   -6.3937454   0.74998815   439061 
 3251000   0.50020684   -6.3938528   -6.3938528   -5.6435442  -0.21415266   -6.3938528   0.75030855   439061 
 3252000   0.50028363   -6.3941526   -6.3941526   -5.6437289  -0.21401835   -6.3941526   0.75042374   439061 
 3253000   0.50035411   -6.3939228   -6.3939228   -5.6433933   -0.2164684   -6.3939228   0.75052946   439061 
 3254000   0.49923379   -6.3933843   -6.3933843   -5.6445353  -0.21614094   -6.3933843   0.74884899   439061 
 3255000   0.50097818   -6.3955089   -6.3955089   -5.6440433  -0.21691321   -6.3955089   0.75146556   439061 
 3256000   0.50080342    -6.396241    -6.396241   -5.6450376  -0.21650855    -6.396241   0.75120343   439061 
 3257000   0.49941066   -6.3939604   -6.3939604   -5.6448461  -0.21039037   -6.3939604   0.74911429   439061 
 3258000   0.49924087   -6.3939285   -6.3939285   -5.6450689  -0.21335634   -6.3939285    0.7488596   439061 
 3259000   0.49955408   -6.3942176   -6.3942176   -5.6448882  -0.21511787   -6.3942176   0.74932941   439061 
 3260000   0.49885382   -6.3932427   -6.3932427   -5.6449636  -0.21383881   -6.3932427   0.74827903   439061 
 3261000   0.49935967   -6.3947803   -6.3947803   -5.6457425  -0.21232818   -6.3947803    0.7490378   439061 
 3262000   0.50017711   -6.3958757   -6.3958757   -5.6456118  -0.21588188   -6.3958757   0.75026396   439061 
 3263000   0.49965094   -6.3946438   -6.3946438   -5.6451691  -0.21062574   -6.3946438    0.7494747   439061 
 3264000   0.50012913   -6.3951097   -6.3951097   -5.6449177  -0.21571522   -6.3951097   0.75019199   439061 
 3265000   0.50028965   -6.3949712   -6.3949712   -5.6445384  -0.21592272   -6.3949712   0.75043277   439061 
 3266000   0.49943002   -6.3932006   -6.3932006   -5.6440573  -0.21311626   -6.3932006   0.74914333   439061 
 3267000   0.50037154   -6.3947955   -6.3947955   -5.6442399  -0.21562271   -6.3947955    0.7505556   439061 
 3268000   0.49966072   -6.3938834   -6.3938834    -5.644394  -0.21247682   -6.3938834   0.74948937   439061 
 3269000   0.49989214   -6.3952617   -6.3952617   -5.6454252  -0.21231223   -6.3952617    0.7498365   439061 
 3270000   0.49989704   -6.3945908   -6.3945908    -5.644747  -0.21270892   -6.3945908   0.74984386   439061 
 3271000   0.49916261   -6.3935298   -6.3935298   -5.6447876  -0.21138092   -6.3935298   0.74874221   439061 
 3272000    0.5000456   -6.3941309   -6.3941309   -5.6440642  -0.21394606   -6.3941309    0.7500667   439061 
 3273000   0.49962387   -6.3936995   -6.3936995   -5.6442654  -0.21560405   -6.3936995    0.7494341   439061 
 3274000   0.49967637   -6.3944838   -6.3944838   -5.6449709  -0.21626317   -6.3944838   0.74951285   439061 
 3275000   0.50002648   -6.3941562   -6.3941562   -5.6441182  -0.21386259   -6.3941562   0.75003801   439061 
 3276000   0.49974896   -6.3942065   -6.3942065   -5.6445848  -0.20992652   -6.3942065   0.74962174   439061 
 3277000   0.50003734   -6.3945725   -6.3945725   -5.6445182  -0.21531796   -6.3945725   0.75005431   439061 
 3278000   0.50077951   -6.3947885   -6.3947885    -5.643621  -0.21378834   -6.3947885   0.75116756   439061 
 3279000   0.49983586   -6.3947092   -6.3947092   -5.6449571  -0.21692406   -6.3947092   0.74975208   439061 
 3280000   0.49929092   -6.3942399   -6.3942399   -5.6453052  -0.21535475   -6.3942399   0.74893467   439061 
 3281000   0.50015633   -6.3952104   -6.3952104   -5.6449776  -0.21709315   -6.3952104   0.75023278   439061 
 3282000   0.50012351   -6.3947533   -6.3947533   -5.6445697  -0.21387575   -6.3947533   0.75018356   439061 
 3283000   0.50001379   -6.3942177   -6.3942177   -5.6441987  -0.20994959   -6.3942177   0.75001897   439061 
 3284000   0.49997897   -6.3953074   -6.3953074   -5.6453406  -0.21223423   -6.3953074   0.74996675   439061 
 3285000   0.49908566   -6.3940506   -6.3940506   -5.6454238  -0.21688851   -6.3940506   0.74862679   439061 
 3286000   0.49957627   -6.3942533   -6.3942533   -5.6448906  -0.21654814   -6.3942533   0.74936269   439061 
 3287000   0.49950468   -6.3940322   -6.3940322   -5.6447769  -0.21814574   -6.3940322   0.74925532   439061 
 3288000   0.49997783   -6.3954174   -6.3954174   -5.6454524  -0.21339235   -6.3954174   0.74996503   439061 
 3289000   0.50013872   -6.3952373   -6.3952373   -5.6450309  -0.21321464   -6.3952373   0.75020636   439061 
 3290000   0.50023361   -6.3955216   -6.3955216   -5.6451729  -0.20983265   -6.3955216    0.7503487   439061 
 3291000   0.49942224   -6.3951993   -6.3951993   -5.6460676  -0.21610786   -6.3951993   0.74913165   439061 
 3292000   0.49915339   -6.3948011   -6.3948011   -5.6460728  -0.21464302   -6.3948011   0.74872838   439061 
 3293000   0.49886623   -6.3939851   -6.3939851   -5.6456874  -0.21552699   -6.3939851   0.74829764   439061 
 3294000   0.49833821   -6.3941914   -6.3941914   -5.6466858  -0.21537729   -6.3941914   0.74750561   439061 
 3295000    0.4999519   -6.3949866   -6.3949866   -5.6450604  -0.21101301   -6.3949866   0.74992615   439061 
 3296000   0.50017213   -6.3941622   -6.3941622   -5.6439057   -0.2088252   -6.3941622   0.75025649   439061 
 3297000   0.49993783   -6.3936342   -6.3936342   -5.6437292  -0.20941688   -6.3936342   0.74990503   439061 
 3298000   0.50047228   -6.3942453   -6.3942453   -5.6435386  -0.21747184   -6.3942453    0.7507067   439061 
 3299000   0.49985115   -6.3931481   -6.3931481    -5.643373  -0.21664901   -6.3931481   0.74977501   439061 
 3300000   0.49935383   -6.3937788   -6.3937788   -5.6447498  -0.21883045   -6.3937788   0.74902904   439061 
 3301000   0.50055858   -6.3953088   -6.3953088   -5.6444726  -0.21291632   -6.3953088   0.75083617   439061 
 3302000   0.50031697   -6.3945531   -6.3945531   -5.6440794  -0.20848089   -6.3945531   0.75047375   439061 
 3303000   0.50054826   -6.3952711   -6.3952711   -5.6444504  -0.20701532   -6.3952711   0.75082069   439061 
 3304000   0.50039576   -6.3951929   -6.3951929   -5.6446009  -0.21282844   -6.3951929   0.75059194   439061 
 3305000   0.49979344   -6.3930891   -6.3930891   -5.6434006   -0.2156879   -6.3930891   0.74968845   439061 
 3306000   0.49910462   -6.3926463   -6.3926463   -5.6439911   -0.2175285   -6.3926463   0.74865523   439061 
 3307000   0.50012519   -6.3941117   -6.3941117   -5.6439256  -0.21750772   -6.3941117   0.75018608   439061 
 3308000    0.4995453   -6.3937073   -6.3937073   -5.6443911  -0.21056208   -6.3937073   0.74931624   439061 
 3309000   0.49970584    -6.394049    -6.394049   -5.6444919  -0.20519032    -6.394049   0.74955705   439061 
 3310000   0.49991518   -6.3936143   -6.3936143   -5.6437432  -0.20923262   -6.3936143   0.74987107   439061 
 3311000   0.50028662   -6.3941229   -6.3941229   -5.6436947  -0.21415371   -6.3941229   0.75042822   439061 
 3312000   0.50028747   -6.3934777   -6.3934777   -5.6430482  -0.21333147   -6.3934777   0.75042949   439061 
 3313000   0.50036847   -6.3937371   -6.3937371   -5.6431862  -0.21779157   -6.3937371     0.750551   439061 
 3314000   0.50092739   -6.3941448   -6.3941448   -5.6427554   -0.2138493   -6.3941448   0.75138937   439061 
 3315000   0.50045763   -6.3941509   -6.3941509   -5.6434662  -0.21517945   -6.3941509   0.75068474   439061 
 3316000   0.50016719   -6.3947686   -6.3947686   -5.6445195  -0.20948045   -6.3947686   0.75024908   439061 
 3317000   0.50033488   -6.3958448   -6.3958448   -5.6453442   -0.2165075   -6.3958448    0.7505006   439061 
 3318000   0.50042407   -6.3960608   -6.3960608   -5.6454264  -0.21508789   -6.3960608   0.75063439   439061 
 3319000   0.49986231   -6.3951723   -6.3951723   -5.6453806  -0.21554049   -6.3951723   0.74979175   439061 
 3320000   0.50054277   -6.3950388   -6.3950388   -5.6442264    -0.214811   -6.3950388   0.75081244   439061 
 3321000   0.49976239   -6.3943681   -6.3943681   -5.6447262   -0.2147551   -6.3943681   0.74964188   439061 
 3322000   0.50012734   -6.3942124   -6.3942124   -5.6440231  -0.21271553   -6.3942124   0.75018931   439061 
 3323000    0.5006193     -6.39549     -6.39549   -5.6445628   -0.2145091     -6.39549   0.75092724   439061 
 3324000   0.50028538    -6.394709    -6.394709   -5.6442826  -0.21244641    -6.394709   0.75042637   439061 
 3325000   0.49860262   -6.3926465   -6.3926465   -5.6447443   -0.2088174   -6.3926465   0.74790222   439061 
 3326000   0.49988797   -6.3953443   -6.3953443    -5.645514  -0.21426941   -6.3953443   0.74983025   439061 
 3327000   0.49977312   -6.3951905   -6.3951905   -5.6455325  -0.21444254   -6.3951905   0.74965798   439061 
 3328000   0.49973097   -6.3946265   -6.3946265   -5.6450317  -0.21374183   -6.3946265   0.74959475   439061 
 3329000   0.50074786   -6.3961197   -6.3961197   -5.6449996  -0.21617182   -6.3961197   0.75112008   439061 
 3330000   0.49919573    -6.393583    -6.393583   -5.6447911  -0.21403783    -6.393583   0.74879188   439061 
 3331000    0.4995558   -6.3940111   -6.3940111   -5.6446792  -0.21283592   -6.3940111   0.74933199   439061 
 3332000   0.49998836   -6.3948272   -6.3948272   -5.6448464  -0.21448728   -6.3948272   0.74998084   439061 
 3333000    0.4994946   -6.3939436   -6.3939436   -5.6447034  -0.21203195   -6.3939436    0.7492402   439061 
 3334000   0.50003473   -6.3950112   -6.3950112   -5.6449609  -0.21141838   -6.3950112   0.75005038   439061 
 3335000   0.50000893   -6.3954581   -6.3954581   -5.6454465  -0.21321953   -6.3954581   0.75001169   439061 
 3336000   0.49991516   -6.3953404   -6.3953404   -5.6454693   -0.2133799   -6.3953404   0.74987104   439061 
 3337000   0.49966383   -6.3956513   -6.3956513   -5.6461573  -0.21266197   -6.3956513   0.74949404   439061 
 3338000   0.49936988    -6.395484    -6.395484   -5.6464309  -0.21658857    -6.395484   0.74905311   439061 
 3339000   0.49955428   -6.3953106   -6.3953106   -5.6459809  -0.21460561   -6.3953106   0.74932971   439061 
 3340000   0.49915059   -6.3947824   -6.3947824   -5.6460582  -0.20809815   -6.3947824   0.74872418   439061 
 3341000   0.49976291   -6.3959795   -6.3959795   -5.6463368  -0.21467972   -6.3959795   0.74964266   439061 
 3342000   0.50021634   -6.3954522   -6.3954522   -5.6451294   -0.2136872   -6.3954522    0.7503228   439061 
 3343000   0.50013463   -6.3950414   -6.3950414   -5.6448411  -0.21418958   -6.3950414   0.75020024   439061 
 3344000   0.49963136   -6.3955045   -6.3955045   -5.6460592  -0.21788737   -6.3955045   0.74944534   439061 
 3345000   0.49949519    -6.394974    -6.394974   -5.6457329  -0.21191097    -6.394974   0.74924108   439061 
 3346000    0.5002577   -6.3964275   -6.3964275   -5.6460427  -0.21482773   -6.3964275   0.75038484   439061 
 3347000   0.50127381   -6.3970717   -6.3970717   -5.6451627  -0.21318006   -6.3970717     0.751909   439061 
 3348000   0.50019498   -6.3956856   -6.3956856   -5.6453948  -0.21635164   -6.3956856   0.75029076   439061 
 3349000   0.49988783   -6.3957949   -6.3957949   -5.6459648  -0.21753234   -6.3957949   0.74983004   439061 
 3350000   0.49993033   -6.3956002   -6.3956002   -5.6457064  -0.21604296   -6.3956002   0.74989379   439061 
 3351000   0.49951082   -6.3953758   -6.3953758   -5.6461113  -0.21431031   -6.3953758   0.74926453   439061 
 3352000   0.50054217   -6.3965842   -6.3965842   -5.6457726  -0.21477778   -6.3965842   0.75081155   439061 
 3353000   0.50019065    -6.395605    -6.395605   -5.6453208  -0.21237651    -6.395605   0.75028427   439061 
 3354000   0.49962596   -6.3946337   -6.3946337   -5.6451964  -0.21367451   -6.3946337   0.74943723   439061 
 3355000   0.50037225   -6.3957612   -6.3957612   -5.6452045  -0.21621255   -6.3957612   0.75055666   439061 
 3356000   0.49957736   -6.3951615   -6.3951615   -5.6457972  -0.21694269   -6.3951615   0.74936433   439061 
 3357000   0.49992974   -6.3949315   -6.3949315   -5.6450386  -0.21100931   -6.3949315    0.7498929   439061 
 3358000   0.50016106   -6.3949283   -6.3949283   -5.6446884   -0.2119222   -6.3949283   0.75023989   439061 
 3359000   0.49938364   -6.3939901   -6.3939901   -5.6449163  -0.20810293   -6.3939901   0.74907376   439061 
 3360000    0.5001967   -6.3957111   -6.3957111   -5.6454178  -0.21372982   -6.3957111   0.75029333   439061 
 3361000   0.50039354   -6.3958627   -6.3958627   -5.6452741  -0.21630177   -6.3958627    0.7505886   439061 
 3362000   0.49955871   -6.3943481   -6.3943481   -5.6450118  -0.21305849   -6.3943481   0.74933636   439061 
 3363000   0.50039578   -6.3952625   -6.3952625   -5.6446706  -0.21517141   -6.3952625   0.75059196   439061 
 3364000   0.50012762   -6.3948456   -6.3948456   -5.6446559  -0.21140095   -6.3948456   0.75018971   439061 
 3365000   0.50018325    -6.394883    -6.394883   -5.6446099  -0.21369419    -6.394883   0.75027317   439061 
 3366000   0.49959095   -6.3942988   -6.3942988   -5.6449141  -0.21226681   -6.3942988   0.74938472   439061 
 3367000   0.50094155   -6.3962657   -6.3962657   -5.6448551  -0.21762819   -6.3962657   0.75141062   439061 
 3368000   0.50065176   -6.3962314   -6.3962314   -5.6452555  -0.21867111   -6.3962314   0.75097593   439061 
 3369000   0.50083189   -6.3959325   -6.3959325   -5.6446864  -0.21309819   -6.3959325   0.75124613   439061 
 3370000   0.49983148    -6.395067    -6.395067   -5.6453215  -0.21213494    -6.395067   0.74974551   439061 
 3371000   0.50086273   -6.3962777   -6.3962777   -5.6449853  -0.21345944   -6.3962777   0.75129239   439061 
 3372000   0.50040524   -6.3946756   -6.3946756   -5.6440694  -0.21410742   -6.3946756   0.75060615   439061 
 3373000   0.50043206    -6.394626    -6.394626   -5.6439796  -0.21458501    -6.394626   0.75064639   439061 
 3374000   0.49949775   -6.3940344   -6.3940344   -5.6447895  -0.21626723   -6.3940344   0.74924491   439061 
 3375000   0.49965918   -6.3942731   -6.3942731   -5.6447861  -0.21543199   -6.3942731   0.74948706   439061 
 3376000   0.50047264   -6.3951251   -6.3951251   -5.6444178  -0.21155362   -6.3951251   0.75070725   439061 
 3377000   0.50060447   -6.3947934   -6.3947934   -5.6438884  -0.21115439   -6.3947934     0.750905   439061 
 3378000   0.50031073   -6.3940374   -6.3940374    -5.643573   -0.2096752   -6.3940374   0.75046439   439061 
 3379000   0.50073371   -6.3953353   -6.3953353   -5.6442364  -0.21637144   -6.3953353   0.75109885   439061 
 3380000   0.49989596    -6.393786    -6.393786   -5.6439438  -0.21726207    -6.393786   0.74984223   439061 
 3381000   0.50024056   -6.3949462   -6.3949462    -5.644587  -0.21832587   -6.3949462   0.75035913   439061 
 3382000   0.50014681   -6.3949263   -6.3949263   -5.6447078  -0.21239421   -6.3949263   0.75021851   439061 
 3383000   0.50029888    -6.394212    -6.394212   -5.6437654  -0.20672457    -6.394212   0.75044661   439061 
 3384000   0.50049743   -6.3947371   -6.3947371   -5.6439927  -0.20950101   -6.3947371   0.75074443   439061 
 3385000   0.50006229   -6.3943043   -6.3943043   -5.6442125  -0.21219598   -6.3943043   0.75009173   439061 
 3386000   0.50013247   -6.3946913   -6.3946913   -5.6444943  -0.21898893   -6.3946913     0.750197   439061 
 3387000   0.50078745    -6.394102    -6.394102   -5.6429225  -0.21472451    -6.394102   0.75117946   439061 
 3388000   0.49968873   -6.3933929   -6.3933929   -5.6438615  -0.21418993   -6.3933929   0.74953138   439061 
 3389000   0.50103123   -6.3944865   -6.3944865   -5.6429413  -0.21471962   -6.3944865   0.75154513   439061 
 3390000   0.50093431   -6.3949383   -6.3949383   -5.6435386  -0.21017868   -6.3949383   0.75139975   439061 
 3391000   0.50131652   -6.3959402   -6.3959402   -5.6439671  -0.21401695   -6.3959402   0.75197307   439061 
 3392000    0.5008127   -6.3947034   -6.3947034   -5.6434861  -0.21430798   -6.3947034   0.75121735   439061 
 3393000   0.50032797    -6.393875    -6.393875   -5.6433848  -0.21605427    -6.393875   0.75049024   439061 
 3394000    0.5007697   -6.3941231   -6.3941231   -5.6429703  -0.21712451   -6.3941231   0.75115284   439061 
 3395000   0.50047078   -6.3932186   -6.3932186   -5.6425141  -0.21256836   -6.3932186   0.75070446   439061 
 3396000   0.50060547   -6.3948915   -6.3948915    -5.643985  -0.21222514   -6.3948915    0.7509065   439061 
 3397000   0.49986654   -6.3936249   -6.3936249   -5.6438268  -0.20722245   -6.3936249    0.7497981   439061 
 3398000   0.50074441   -6.3948696   -6.3948696   -5.6437547  -0.21300501   -6.3948696    0.7511149   439061 
 3399000   0.50062103   -6.3948308   -6.3948308    -5.643901  -0.21400195   -6.3948308   0.75092984   439061 
 3400000   0.50028306   -6.3938126   -6.3938126   -5.6433897  -0.21573723   -6.3938126   0.75042289   439061 
 3401000   0.50024487   -6.3941667   -6.3941667   -5.6438011  -0.21802617   -6.3941667    0.7503656   439061 
 3402000   0.49982404   -6.3939151   -6.3939151   -5.6441807  -0.21264495   -6.3939151   0.74973436   439061 
 3403000    0.5007771   -6.3948941   -6.3948941   -5.6437301  -0.21164893   -6.3948941   0.75116394   439061 
 3404000   0.50064537   -6.3953602   -6.3953602   -5.6443938  -0.20685067   -6.3953602   0.75096634   439061 
 3405000    0.4990802   -6.3945844   -6.3945844   -5.6459658  -0.21768642   -6.3945844   0.74861859   439061 
 3406000   0.49921765   -6.3946719   -6.3946719   -5.6458471  -0.21274429   -6.3946719   0.74882477   439061 
 3407000    0.4991773   -6.3952192   -6.3952192    -5.646455  -0.22191795   -6.3952192   0.74876424   439061 
 3408000   0.50078391    -6.396467    -6.396467   -5.6452928  -0.21576165    -6.396467   0.75117416   439061 
 3409000   0.49951385   -6.3945943   -6.3945943   -5.6453252  -0.20981553   -6.3945943   0.74926908   439061 
 3410000   0.50055273    -6.396541    -6.396541   -5.6457136  -0.21399407    -6.396541   0.75082739   439061 
 3411000   0.49986968   -6.3947999   -6.3947999   -5.6449971  -0.21390687   -6.3947999   0.74980281   439061 
 3412000   0.49995729    -6.394481    -6.394481   -5.6445468  -0.21115003    -6.394481   0.74993422   439061 
 3413000   0.50074256   -6.3952515   -6.3952515   -5.6441393  -0.21744519   -6.3952515   0.75111212   439061 
 3414000   0.50083345   -6.3952552   -6.3952552   -5.6440067  -0.21435927   -6.3952552   0.75124846   439061 
 3415000   0.50008047   -6.3948653   -6.3948653   -5.6447463  -0.21276193   -6.3948653     0.750119   439061 
 3416000   0.50065154   -6.3952572   -6.3952572   -5.6442816  -0.21079815   -6.3952572   0.75097559   439061 
 3417000   0.49954366   -6.3947479   -6.3947479   -5.6454341  -0.21334772   -6.3947479   0.74931379   439061 
 3418000   0.49981528   -6.3958198   -6.3958198   -5.6460985  -0.21448667   -6.3958198   0.74972121   439061 
 3419000   0.49942465   -6.3953584   -6.3953584   -5.6462231  -0.21506123   -6.3953584   0.74913527   439061 
 3420000   0.50089649   -6.3959658   -6.3959658   -5.6446228  -0.21577844   -6.3959658   0.75134302   439061 
 3421000   0.49977976   -6.3944728   -6.3944728   -5.6448049  -0.20919009   -6.3944728   0.74966794   439061 
 3422000    0.4997392    -6.394146    -6.394146   -5.6445389  -0.21287416    -6.394146   0.74960709   439061 
 3423000   0.49996239    -6.394775    -6.394775   -5.6448331  -0.21558658    -6.394775   0.74994187   439061 
 3424000   0.49987065   -6.3951462   -6.3951462    -5.645342  -0.21864703   -6.3951462   0.74980426   439061 
 3425000   0.49962853   -6.3949804   -6.3949804   -5.6455393  -0.21410521   -6.3949804   0.74944108   439061 
 3426000   0.49907081   -6.3939884   -6.3939884   -5.6453839  -0.20969017   -6.3939884   0.74860451   439061 
 3427000   0.50026137   -6.3963979   -6.3963979   -5.6460075  -0.21588392   -6.3963979   0.75039034   439061 
 3428000   0.49933645    -6.395697    -6.395697    -5.646694  -0.21550239    -6.395697   0.74900296   439061 
 3429000    0.4998268   -6.3955546   -6.3955546   -5.6458161  -0.21471137   -6.3955546   0.74973849   439061 
 3430000   0.49995219   -6.3950368   -6.3950368   -5.6451103  -0.21490512   -6.3950368   0.74992658   439061 
 3431000    0.4993661   -6.3958321   -6.3958321   -5.6467846  -0.21552425   -6.3958321   0.74904744   439061 
 3432000    0.4991679   -6.3958348   -6.3958348   -5.6470847  -0.21740905   -6.3958348   0.74875014   439061 
 3433000   0.50004343   -6.3963207   -6.3963207   -5.6462572  -0.21301078   -6.3963207   0.75006344   439061 
 3434000   0.50082151   -6.3971084   -6.3971084   -5.6458778  -0.21283389   -6.3971084   0.75123055   439061 
 3435000   0.50039304    -6.396249    -6.396249   -5.6456611  -0.21272398    -6.396249   0.75058785   439061 
 3436000   0.50000015   -6.3957783   -6.3957783   -5.6457797  -0.21787827   -6.3957783   0.74999852   439061 
 3437000   0.49956343    -6.394833    -6.394833   -5.6454895  -0.21820786    -6.394833   0.74934344   439061 
 3438000   0.49955378   -6.3950866   -6.3950866   -5.6457576  -0.21717777   -6.3950866   0.74932896   439061 
 3439000   0.50033741   -6.3959981   -6.3959981   -5.6454937  -0.21535817   -6.3959981    0.7505044   439061 
 3440000   0.49929896   -6.3946447   -6.3946447    -5.645698  -0.21067977   -6.3946447   0.74894674   439061 
 3441000    0.4996649   -6.3947816   -6.3947816    -5.645286  -0.21263353   -6.3947816   0.74949564   439061 
 3442000   0.49975805   -6.3950942   -6.3950942   -5.6454588  -0.21560488   -6.3950942   0.74963536   439061 
 3443000   0.49993479    -6.395242    -6.395242   -5.6453415  -0.21646969    -6.395242   0.74990048   439061 
 3444000   0.50002264   -6.3943107   -6.3943107   -5.6442784  -0.21692655   -6.3943107   0.75003225   439061 
 3445000     0.500432   -6.3948475   -6.3948475   -5.6442012  -0.21332263   -6.3948475    0.7506463   439061 
 3446000   0.50043698   -6.3955573   -6.3955573   -5.6449035   -0.2122186   -6.3955573   0.75065376   439061 
 3447000   0.50067861   -6.3962162   -6.3962162      -5.6452  -0.21513721   -6.3962162   0.75101621   439061 
 3448000   0.49967633   -6.3943305   -6.3943305   -5.6448177  -0.21231383   -6.3943305   0.74951278   439061 
 3449000   0.49980561   -6.3950601   -6.3950601   -5.6453534  -0.21652906   -6.3950601   0.74970671   439061 
 3450000   0.49944488   -6.3939657   -6.3939657   -5.6448001  -0.21392731   -6.3939657   0.74916562   439061 
 3451000   0.50069618   -6.3950497   -6.3950497   -5.6440071  -0.21618419   -6.3950497   0.75104257   439061 
 3452000   0.49962381   -6.3934369   -6.3934369   -5.6440029  -0.20882345   -6.3934369   0.74943401   439061 
 3453000   0.50071036   -6.3948539   -6.3948539   -5.6437901  -0.21229813   -6.3948539   0.75106383   439061 
 3454000   0.50109302   -6.3942138   -6.3942138    -5.642576  -0.21078514   -6.3942138   0.75163782   439061 
 3455000   0.50049549   -6.3937472   -6.3937472   -5.6430057   -0.2143841   -6.3937472   0.75074152   439061 
 3456000   0.49943319   -6.3925603   -6.3925603   -5.6434122  -0.21439649   -6.3925603   0.74914808   439061 
 3457000   0.50010951   -6.3944561   -6.3944561   -5.6442936  -0.21460432   -6.3944561   0.75016255   439061 
 3458000   0.49932939   -6.3935633   -6.3935633   -5.6445709  -0.20867786   -6.3935633   0.74899239   439061 
 3459000    0.5000318   -6.3953251   -6.3953251   -5.6452791  -0.20899188   -6.3953251   0.75004599   439061 
 3460000    0.4999111   -6.3948992   -6.3948992   -5.6450343   -0.2091688   -6.3948992   0.74986494   439061 
 3461000   0.50079712   -6.3961442   -6.3961442   -5.6449502  -0.21535991   -6.3961442   0.75119397   439061 
 3462000   0.49948726   -6.3939077   -6.3939077   -5.6446786  -0.21600254   -6.3939077   0.74922919   439061 
 3463000    0.5003554   -6.3953009   -6.3953009   -5.6447695  -0.21919177   -6.3953009   0.75053139   439061 
 3464000   0.50057738   -6.3960249   -6.3960249   -5.6451606  -0.21773982   -6.3960249   0.75086435   439061 
 3465000   0.50005006   -6.3959215   -6.3959215   -5.6458481  -0.21071958   -6.3959215   0.75007339   439061 
 3466000   0.49952158   -6.3949966   -6.3949966   -5.6457159  -0.20960404   -6.3949966   0.74928066   439061 
 3467000   0.50068545   -6.3966586   -6.3966586   -5.6456322  -0.21414703   -6.3966586   0.75102646   439061 
 3468000   0.49989214   -6.3952482   -6.3952482   -5.6454117  -0.21757026   -6.3952482   0.74983651   439061 
 3469000   0.49920655   -6.3956458   -6.3956458   -5.6468377  -0.22126691   -6.3956458   0.74880811   439061 
 3470000   0.49959266   -6.3956118   -6.3956118   -5.6462245  -0.21867381   -6.3956118   0.74938729   439061 
 3471000   0.49925935   -6.3943735   -6.3943735   -5.6454862  -0.21216938   -6.3943735   0.74888732   439061 
 3472000   0.49966656   -6.3955387   -6.3955387   -5.6460406  -0.21191878   -6.3955387   0.74949813   439061 
 3473000   0.50038356   -6.3963712   -6.3963712   -5.6457976  -0.21326756   -6.3963712   0.75057363   439061 
 3474000    0.5000839   -6.3956254   -6.3956254   -5.6455013  -0.21652178   -6.3956254   0.75012414   439061 
 3475000   0.49898811   -6.3949592   -6.3949592   -5.6464787  -0.21574669   -6.3949592   0.74848046   439061 
 3476000   0.49947696   -6.3948877   -6.3948877    -5.645674  -0.21802818   -6.3948877   0.74921373   439061 
 3477000   0.49953772   -6.3949044   -6.3949044   -5.6455995  -0.21218301   -6.3949044   0.74930487   439061 
 3478000   0.49973645   -6.3955986   -6.3955986   -5.6459956  -0.21054612   -6.3955986   0.74960296   439061 
 3479000   0.49973941   -6.3952415   -6.3952415   -5.6456341  -0.20689707   -6.3952415   0.74960741   439061 
 3480000   0.50026487   -6.3967116   -6.3967116    -5.646316  -0.21611216   -6.3967116    0.7503956   439061 
 3481000   0.50044648   -6.3964389   -6.3964389   -5.6457709   -0.2159673   -6.3964389   0.75066801   439061 
 3482000   0.49995881    -6.395348    -6.395348   -5.6454115  -0.21789132    -6.395348   0.74993651   439061 
 3483000   0.49955355   -6.3952564   -6.3952564   -5.6459278  -0.21816222   -6.3952564   0.74932862   439061 
 3484000   0.49941589   -6.3946788   -6.3946788   -5.6455567  -0.21548842   -6.3946788   0.74912213   439061 
 3485000   0.50042056   -6.3961549   -6.3961549   -5.6455257  -0.21132112   -6.3961549   0.75062914   439061 
 3486000   0.50028839   -6.3958343   -6.3958343   -5.6454034   -0.2112441   -6.3958343   0.75043087   439061 
 3487000   0.50028101   -6.3957009   -6.3957009   -5.6452811  -0.21322165   -6.3957009    0.7504198   439061 
 3488000   0.49891093   -6.3946116   -6.3946116   -5.6462469  -0.21559308   -6.3946116   0.74836469   439061 
 3489000   0.49969968   -6.3954131   -6.3954131   -5.6458653  -0.21727024   -6.3954131   0.74954781   439061 
 3490000   0.49964124    -6.395056    -6.395056   -5.6455958  -0.21326515    -6.395056   0.74946015   439061 
 3491000   0.50046658   -6.3955218   -6.3955218   -5.6448237  -0.20896425   -6.3955218   0.75069816   439061 
 3492000   0.49982867   -6.3946403   -6.3946403    -5.644899  -0.20970865   -6.3946403    0.7497413   439061 
 3493000   0.49894123   -6.3945345   -6.3945345   -5.6461243  -0.21343142   -6.3945345   0.74841015   439061 
 3494000   0.49831572   -6.3946449   -6.3946449    -5.647173   -0.2158329   -6.3946449   0.74747188   439061 
 3495000   0.49910937   -6.3950943   -6.3950943    -5.646432  -0.21501311   -6.3950943   0.74866235   439061 
 3496000   0.49958607   -6.3952373   -6.3952373   -5.6458599  -0.20921716   -6.3952373    0.7493774   439061 
 3497000   0.49952311   -6.3950175   -6.3950175   -5.6457346  -0.20816106   -6.3950175   0.74928296   439061 
 3498000   0.50007689   -6.3962568   -6.3962568   -5.6461432  -0.21087738   -6.3962568   0.75011362   439061 
 3499000   0.49969895   -6.3953187   -6.3953187    -5.645772  -0.21752459   -6.3953187   0.74954671   439061 
 3500000   0.50001257   -6.3958115   -6.3958115   -5.6457944  -0.21759151   -6.3958115   0.75001715   439061 
 3501000   0.49989239   -6.3951705   -6.3951705   -5.6453336  -0.21615845   -6.3951705   0.74983688   439061 
 3502000   0.49913249   -6.3954869   -6.3954869   -5.6467898  -0.21228194   -6.3954869   0.74869703   439061 
 3503000   0.49940644   -6.3961347   -6.3961347   -5.6470268  -0.21231319   -6.3961347   0.74910796   439061 
 3504000   0.49954834   -6.3958482   -6.3958482   -5.6465274  -0.21192308   -6.3958482    0.7493208   439061 
 3505000   0.50086347   -6.3971545   -6.3971545    -5.645861  -0.21535717   -6.3971545    0.7512935   439061 
 3506000   0.49958015   -6.3959431   -6.3959431   -5.6465746  -0.21751024   -6.3959431   0.74936852   439061 
 3507000   0.49969311   -6.3957207   -6.3957207   -5.6461828  -0.21848197   -6.3957207   0.74953795   439061 
 3508000   0.49917732   -6.3952247   -6.3952247   -5.6464605  -0.21422086   -6.3952247   0.74876427   439061 
 3509000   0.50053302   -6.3959723   -6.3959723   -5.6451745  -0.21255863   -6.3959723   0.75079782   439061 
 3510000   0.50035341   -6.3957429   -6.3957429   -5.6452145  -0.20891235   -6.3957429    0.7505284   439061 
 3511000   0.49999993    -6.395469    -6.395469   -5.6454708  -0.21210488    -6.395469   0.74999819   439061 
 3512000   0.49958925   -6.3949973   -6.3949973   -5.6456151  -0.21779859   -6.3949973   0.74938217   439061 
 3513000   0.49977418    -6.395951    -6.395951   -5.6462914  -0.21827178    -6.395951   0.74965956   439061 
 3514000    0.4996849   -6.3958677   -6.3958677   -5.6463421  -0.21669856   -6.3958677   0.74952564   439061 
 3515000   0.49879265   -6.3946789   -6.3946789   -5.6464917  -0.20887026   -6.3946789   0.74818727   439061 
 3516000   0.49974057    -6.395824    -6.395824   -5.6462149  -0.20913125    -6.395824   0.74960915   439061 
 3517000   0.50005473   -6.3965185   -6.3965185   -5.6464381  -0.21398706   -6.3965185   0.75008038   439061 
 3518000   0.49997989    -6.396259    -6.396259   -5.6462909     -0.21536    -6.396259   0.74996813   439061 
 3519000   0.49973144   -6.3958624   -6.3958624   -5.6462669  -0.21952682   -6.3958624   0.74959546   439061 
 3520000    0.4998535   -6.3952344   -6.3952344   -5.6454558  -0.21454973   -6.3952344   0.74977855   439061 
 3521000   0.49923494   -6.3949871   -6.3949871   -5.6461364  -0.21366601   -6.3949871   0.74885071   439061 
 3522000   0.49977055   -6.3967631   -6.3967631    -5.647109  -0.21424292   -6.3967631   0.74965412   439061 
 3523000   0.49975914   -6.3969549   -6.3969549   -5.6473179  -0.21533524   -6.3969549     0.749637   439061 
 3524000   0.49936447    -6.395207    -6.395207    -5.646162  -0.21124205    -6.395207     0.749045   439061 
 3525000   0.49967432   -6.3954879   -6.3954879   -5.6459781  -0.21456462   -6.3954879   0.74950977   439061 
 3526000   0.50078177    -6.395952    -6.395952    -5.644781  -0.21546709    -6.395952   0.75117095   439061 
 3527000   0.49938025   -6.3942913   -6.3942913   -5.6452226  -0.21309311   -6.3942913   0.74906866   439061 
 3528000   0.49980347   -6.3945749   -6.3945749   -5.6448714  -0.21040042   -6.3945749   0.74970349   439061 
 3529000   0.50091387   -6.3963628   -6.3963628   -5.6449937  -0.21344128   -6.3963628    0.7513691   439061 
 3530000   0.49995242   -6.3949599   -6.3949599    -5.645033  -0.21080815   -6.3949599   0.74992693   439061 
 3531000   0.49997177   -6.3948218   -6.3948218   -5.6448658  -0.21540282   -6.3948218   0.74995595   439061 
 3532000   0.49955151   -6.3953854   -6.3953854   -5.6460598   -0.2153242   -6.3953854   0.74932556   439061 
 3533000   0.49953403   -6.3955462   -6.3955462   -5.6462469   -0.2177653   -6.3955462   0.74929934   439061 
 3534000   0.49936008   -6.3950576   -6.3950576   -5.6460192  -0.21041717   -6.3950576   0.74903841   439061 
 3535000   0.49937938   -6.3960819   -6.3960819   -5.6470146  -0.21211368   -6.3960819   0.74906737   439061 
 3536000   0.49947993   -6.3973722   -6.3973722    -5.648154   -0.2105231   -6.3973722    0.7492182   439061 
 3537000   0.49975647    -6.396299    -6.396299    -5.646666  -0.21461666    -6.396299     0.749633   439061 
 3538000   0.49922887   -6.3950525   -6.3950525   -5.6462109  -0.21196935   -6.3950525    0.7488416   439061 
 3539000    0.4999269   -6.3962634   -6.3962634   -5.6463747  -0.21977276   -6.3962634   0.74988864   439061 
 3540000   0.50022033   -6.3962977   -6.3962977   -5.6459689  -0.21585716   -6.3962977   0.75032879   439061 
 3541000   0.49915871   -6.3965039   -6.3965039   -5.6477675  -0.21490281   -6.3965039   0.74873636   439061 
 3542000   0.50000019   -6.3965079   -6.3965079   -5.6465093  -0.21264367   -6.3965079   0.74999858   439061 
 3543000   0.50051952   -6.3964321   -6.3964321   -5.6456545  -0.21239912   -6.3964321   0.75077757   439061 
 3544000   0.49933237   -6.3963192   -6.3963192   -5.6473224  -0.21752886   -6.3963192   0.74899685   439061 
 3545000   0.49926383   -6.3951356   -6.3951356   -5.6462415   -0.2131046   -6.3951356   0.74889404   439061 
 3546000   0.49890966   -6.3951237   -6.3951237   -5.6467609  -0.21751803   -6.3951237   0.74836278   439061 
 3547000   0.49957028   -6.3966048   -6.3966048   -5.6472511  -0.21507461   -6.3966048   0.74935371   439061 
 3548000   0.49972639   -6.3968491   -6.3968491   -5.6472612  -0.21262424   -6.3968491   0.74958788   439061 
 3549000   0.49879618   -6.3959627   -6.3959627   -5.6477702  -0.20985546   -6.3959627   0.74819256   439061 
 3550000   0.49974019   -6.3965871   -6.3965871   -5.6469785  -0.21246392   -6.3965871   0.74960857   439061 
 3551000   0.49904804   -6.3957842   -6.3957842   -5.6472138  -0.21486925   -6.3957842   0.74857035   439061 
 3552000   0.49958619   -6.3961318   -6.3961318   -5.6467542  -0.21709837   -6.3961318   0.74937757   439061 
 3553000   0.49930869   -6.3955738   -6.3955738   -5.6466125  -0.21631808   -6.3955738   0.74896132   439061 
 3554000   0.49941039   -6.3959294   -6.3959294   -5.6468155   -0.2142636   -6.3959294   0.74911388   439061 
 3555000   0.49922967   -6.3959885   -6.3959885   -5.6471457  -0.21062424   -6.3959885    0.7488428   439061 
 3556000   0.49963351   -6.3974183   -6.3974183   -5.6479698  -0.21328877   -6.3974183   0.74944855   439061 
 3557000   0.49840127   -6.3962557   -6.3962557   -5.6486555  -0.21356652   -6.3962557   0.74760021   439061 
 3558000    0.4986578   -6.3959733   -6.3959733   -5.6479883  -0.21561542   -6.3959733     0.747985   439061 
 3559000   0.49861869   -6.3959363   -6.3959363     -5.64801  -0.21505664   -6.3959363   0.74792633   439061 
 3560000   0.49962984   -6.3971987   -6.3971987   -5.6477556  -0.21667024   -6.3971987   0.74944306   439061 
 3561000   0.49861061   -6.3958115   -6.3958115   -5.6478972    -0.212772   -6.3958115   0.74791421   439061 
 3562000   0.49939084    -6.397003    -6.397003   -5.6479184   -0.2154828    -6.397003   0.74908456   439061 
 3563000   0.49929338   -6.3978541   -6.3978541   -5.6489157  -0.21697994   -6.3978541   0.74893836   439061 
 3564000   0.49868312   -6.3967792   -6.3967792   -5.6487562  -0.21793963   -6.3967792   0.74802298   439061 
 3565000   0.49936598   -6.3966316   -6.3966316   -5.6475843  -0.21455752   -6.3966316   0.74904726   439061 
 3566000   0.49913735   -6.3967479   -6.3967479   -5.6480435  -0.21295688   -6.3967479   0.74870432   439061 
 3567000   0.49804635   -6.3958323   -6.3958323   -5.6487645  -0.21168116   -6.3958323   0.74706783   439061 
 3568000   0.49884445   -6.3973626   -6.3973626   -5.6490977  -0.21504114   -6.3973626   0.74826497   439061 
 3569000   0.49902468    -6.396629    -6.396629   -5.6480937  -0.21529559    -6.396629   0.74853532   439061 
 3570000   0.49964832   -6.3965467   -6.3965467   -5.6470759  -0.21380723   -6.3965467   0.74947077   439061 
 3571000   0.49990835   -6.3967306   -6.3967306   -5.6468697  -0.21517617   -6.3967306   0.74986082   439061 
 3572000   0.49929592   -6.3966774   -6.3966774   -5.6477352  -0.21432569   -6.3966774   0.74894218   439061 
 3573000   0.49948111   -6.3960143   -6.3960143   -5.6467943  -0.21651973   -6.3960143   0.74921995   439061 
 3574000   0.49949757   -6.3958827   -6.3958827   -5.6466381  -0.21077175   -6.3958827   0.74924465   439061 
 3575000   0.49926859   -6.3961038   -6.3961038   -5.6472026  -0.21577897   -6.3961038   0.74890118   439061 
 3576000   0.49885665   -6.3952104   -6.3952104   -5.6469271  -0.21460893   -6.3952104   0.74828327   439061 
 3577000   0.49902037   -6.3952637   -6.3952637   -5.6467348  -0.21289226   -6.3952637   0.74852885   439061 
 3578000   0.50016538   -6.3968086   -6.3968086   -5.6465622  -0.21564654   -6.3968086   0.75024636   439061 
 3579000   0.49987506   -6.3960077   -6.3960077   -5.6461968  -0.21227584   -6.3960077   0.74981088   439061 
 3580000   0.49994137   -6.3960941   -6.3960941   -5.6461838  -0.21281256   -6.3960941   0.74991035   439061 
 3581000   0.49957519   -6.3954749   -6.3954749   -5.6461138   -0.2103937   -6.3954749   0.74936107   439061 
 3582000   0.49971663   -6.3958679   -6.3958679   -5.6462947  -0.21397872   -6.3958679   0.74957323   439061 
 3583000   0.49970218   -6.3957743   -6.3957743   -5.6462227  -0.21542392   -6.3957743   0.74955156   439061 
 3584000    0.4993544   -6.3954452   -6.3954452   -5.6464154   -0.2159121   -6.3954452   0.74902989   439061 
 3585000   0.49919807   -6.3955864   -6.3955864    -5.646791  -0.21521308   -6.3955864   0.74879539   439061 
 3586000    0.4994992   -6.3960191   -6.3960191    -5.646772  -0.21423197   -6.3960191   0.74924709   439061 
 3587000   0.50058205   -6.3974596   -6.3974596   -5.6465883  -0.21622677   -6.3974596   0.75087136   439061 
 3588000   0.49969908   -6.3948314   -6.3948314   -5.6452845  -0.20764645   -6.3948314   0.74954691   439061 
 3589000   0.49990055   -6.3950848   -6.3950848   -5.6452357  -0.21325475   -6.3950848   0.74984912   439061 
 3590000   0.50055632   -6.3954273   -6.3954273   -5.6445945  -0.21594786   -6.3954273   0.75083277   439061 
 3591000   0.49990174   -6.3950063   -6.3950063   -5.6451554  -0.21933518   -6.3950063    0.7498509   439061 
 3592000   0.49923656   -6.3943096   -6.3943096   -5.6454565  -0.21295869   -6.3943096   0.74885314   439061 
 3593000   0.50069711   -6.3960682   -6.3960682   -5.6450242  -0.21307144   -6.3960682   0.75104395   439061 
 3594000   0.50041072   -6.3966705   -6.3966705   -5.6460562  -0.21296987   -6.3966705   0.75061436   439061 
 3595000   0.49977425   -6.3960756   -6.3960756   -5.6464159  -0.21433074   -6.3960756   0.74965967   439061 
 3596000   0.49923109   -6.3956283   -6.3956283   -5.6467833  -0.21424938   -6.3956283   0.74884493   439061 
 3597000   0.49877907   -6.3953051   -6.3953051   -5.6471382  -0.21615087   -6.3953051    0.7481669   439061 
 3598000   0.49956755   -6.3964937   -6.3964937   -5.6471441  -0.21682825   -6.3964937   0.74934961   439061 
 3599000    0.4997648   -6.3967557   -6.3967557   -5.6471102   -0.2174309   -6.3967557   0.74964549   439061 
 3600000   0.49940041   -6.3959178   -6.3959178   -5.6468189  -0.21081861   -6.3959178   0.74909891   439061 
 3601000   0.50029482   -6.3965929   -6.3965929   -5.6461523  -0.21072866   -6.3965929   0.75044052   439061 
 3602000   0.49988897   -6.3968139   -6.3968139   -5.6469822  -0.21332699   -6.3968139   0.74983175   439061 
 3603000   0.49849964   -6.3942754   -6.3942754   -5.6465277  -0.21335793   -6.3942754   0.74774776   439061 
 3604000   0.49923686   -6.3957978   -6.3957978   -5.6469442   -0.2167084   -6.3957978   0.74885359   439061 
 3605000   0.49903657   -6.3963352   -6.3963352   -5.6477821  -0.21923758   -6.3963352   0.74855316   439061 
 3606000   0.49894345   -6.3971667   -6.3971667   -5.6487532  -0.21677782   -6.3971667   0.74841347   439061 
 3607000   0.49927673   -6.3981684   -6.3981684   -5.6492551  -0.21322688   -6.3981684   0.74891339   439061 
 3608000   0.49842861   -6.3972648   -6.3972648   -5.6496236  -0.21110513   -6.3972648   0.74764121   439061 
 3609000    0.4983865   -6.3972773   -6.3972773   -5.6496992  -0.21496477   -6.3972773   0.74757805   439061 
 3610000   0.49909863    -6.396745    -6.396745   -5.6480987  -0.22038496    -6.396745   0.74864625   439061 
 3611000   0.49884568    -6.395408    -6.395408   -5.6471411  -0.21611964    -6.395408   0.74826681   439061 
 3612000   0.49908205   -6.3958578   -6.3958578   -5.6472365  -0.21761819   -6.3958578   0.74862137   439061 
 3613000   0.49983963   -6.3973735   -6.3973735   -5.6476157   -0.2163679   -6.3973735   0.74975773   439061 
 3614000   0.49866952   -6.3963816   -6.3963816    -5.648379  -0.21304134   -6.3963816   0.74800258   439061 
 3615000   0.49899382   -6.3966129   -6.3966129   -5.6481239  -0.21171744   -6.3966129   0.74848902   439061 
 3616000   0.49966479   -6.3969431   -6.3969431   -5.6474476  -0.21448297   -6.3969431   0.74949548   439061 
 3617000   0.49935784   -6.3962452   -6.3962452   -5.6472102  -0.21288361   -6.3962452   0.74903505   439061 
 3618000   0.49945014   -6.3957443   -6.3957443   -5.6465708  -0.21440284   -6.3957443   0.74917351   439061 
 3619000   0.49974776   -6.3961447   -6.3961447   -5.6465248  -0.21626797   -6.3961447   0.74961994   439061 
 3620000   0.50008262   -6.3960596   -6.3960596   -5.6459373  -0.21169068   -6.3960596   0.75012222   439061 
 3621000   0.49850623   -6.3936957   -6.3936957   -5.6459381  -0.21125759   -6.3936957   0.74775764   439061 
 3622000   0.49979022   -6.3961699   -6.3961699   -5.6464863  -0.21206154   -6.3961699   0.74968362   439061 
 3623000   0.50023728   -6.3965234   -6.3965234   -5.6461692  -0.21528662   -6.3965234   0.75035422   439061 
 3624000   0.49985895   -6.3971055   -6.3971055   -5.6473188  -0.21824133   -6.3971055   0.74978672   439061 
 3625000   0.49904147   -6.3958631   -6.3958631   -5.6473026  -0.21629533   -6.3958631    0.7485605   439061 
 3626000    0.4995052   -6.3962699   -6.3962699   -5.6470138  -0.21475131   -6.3962699   0.74925609   439061 
 3627000   0.49984972   -6.3964302   -6.3964302   -5.6466573  -0.21344237   -6.3964302   0.74977288   439061 
 3628000   0.49917874   -6.3952388   -6.3952388   -5.6464724  -0.21019831   -6.3952388   0.74876641   439061 
 3629000    0.4991701   -6.3958426   -6.3958426   -5.6470892  -0.21451584   -6.3958426   0.74875345   439061 
 3630000   0.49969873   -6.3956849   -6.3956849   -5.6461385  -0.21437225   -6.3956849   0.74954639   439061 
 3631000   0.49995736   -6.3959917   -6.3959917   -5.6460574  -0.21791528   -6.3959917   0.74993433   439061 
 3632000   0.49961069    -6.395236    -6.395236   -5.6458217  -0.21382623    -6.395236   0.74941434   439061 
 3633000   0.49963748   -6.3955666   -6.3955666   -5.6461121  -0.21526629   -6.3955666   0.74945452   439061 
 3634000   0.50026439   -6.3968275   -6.3968275   -5.6464326   -0.2143889   -6.3968275   0.75039487   439061 
 3635000   0.49957818   -6.3956615   -6.3956615   -5.6462959  -0.21028675   -6.3956615   0.74936556   439061 
 3636000   0.49900424   -6.3953551   -6.3953551   -5.6468505  -0.21149521   -6.3953551   0.74850465   439061 
 3637000    0.4994745   -6.3964059   -6.3964059   -5.6471959  -0.21408475   -6.3964059   0.74921005   439061 
 3638000   0.49942684   -6.3965391   -6.3965391   -5.6474005   -0.2194653   -6.3965391   0.74913855   439061 
 3639000    0.4991092   -6.3958392   -6.3958392   -5.6471771  -0.21441869   -6.3958392   0.74866209   439061 
 3640000   0.50002188   -6.3967923   -6.3967923   -5.6467611  -0.21433221   -6.3967923   0.75003111   439061 
 3641000   0.49976926    -6.396284    -6.396284   -5.6466318  -0.20983922    -6.396284   0.74965218   439061 
 3642000    0.4997908   -6.3963823   -6.3963823   -5.6466978  -0.21301269   -6.3963823    0.7496845   439061 
 3643000   0.49986632   -6.3962577   -6.3962577   -5.6464599  -0.21232224   -6.3962577   0.74979778   439061 
 3644000   0.49953028   -6.3955954   -6.3955954   -5.6463017  -0.21486139   -6.3955954   0.74929372   439061 
 3645000   0.50032715   -6.3961279   -6.3961279   -5.6456389  -0.21540825   -6.3961279   0.75048902   439061 
 3646000   0.49933793   -6.3954048   -6.3954048   -5.6463996  -0.21708037   -6.3954048   0.74900519   439061 
 3647000   0.50002599    -6.396095    -6.396095   -5.6460578  -0.21232194    -6.396095   0.75003728   439061 
 3648000   0.50007866   -6.3960147   -6.3960147   -5.6458984  -0.21457005   -6.3960147   0.75011628   439061 
 3649000   0.50009623   -6.3962464   -6.3962464   -5.6461038  -0.21212814   -6.3962464   0.75014263   439061 
 3650000   0.49955161   -6.3957827   -6.3957827    -5.646457  -0.21798074   -6.3957827   0.74932571   439061 
 3651000   0.49932201   -6.3952037   -6.3952037   -5.6462224  -0.21193514   -6.3952037   0.74898131   439061 
 3652000   0.50020946    -6.395634    -6.395634   -5.6453216  -0.21315748    -6.395634   0.75031248   439061 
 3653000   0.50014357   -6.3954925   -6.3954925   -5.6452788  -0.21211794   -6.3954925   0.75021364   439061 
 3654000   0.49992831   -6.3945715   -6.3945715   -5.6446808  -0.21173425   -6.3945715   0.74989075   439061 
 3655000   0.50057619   -6.3950772   -6.3950772   -5.6442146  -0.21351715   -6.3950772   0.75086257   439061 
 3656000    0.5003018   -6.3953227   -6.3953227   -5.6448717  -0.21411084   -6.3953227     0.750451   439061 
 3657000   0.49981974   -6.3952744   -6.3952744   -5.6455465  -0.21385824   -6.3952744   0.74972791   439061 
 3658000   0.50014561   -6.3950463   -6.3950463   -5.6448296  -0.21335981   -6.3950463    0.7502167   439061 
 3659000   0.50033278   -6.3958728   -6.3958728   -5.6453754  -0.21626813   -6.3958728   0.75049746   439061 
 3660000   0.49995847     -6.39541     -6.39541    -5.645474  -0.21024011     -6.39541     0.749936   439061 
 3661000   0.49946087   -6.3948971   -6.3948971   -5.6457075  -0.21089358   -6.3948971   0.74918959   439061 
 3662000    0.5002392   -6.3968202   -6.3968202   -5.6464631   -0.2157553   -6.3968202   0.75035709   439061 
 3663000   0.49956215   -6.3955469   -6.3955469   -5.6462054  -0.21237482   -6.3955469   0.74934152   439061 
 3664000   0.49957494   -6.3949619   -6.3949619   -5.6456012  -0.21130989   -6.3949619    0.7493607   439061 
 3665000   0.49982872   -6.3944118   -6.3944118   -5.6446704  -0.21030722   -6.3944118   0.74974137   439061 
 3666000   0.49987415   -6.3947444   -6.3947444   -5.6449349  -0.21180255   -6.3947444   0.74980951   439061 
 3667000   0.49980925   -6.3952518   -6.3952518   -5.6455397  -0.21486779   -6.3952518   0.74971216   439061 
 3668000   0.49934342   -6.3957672   -6.3957672   -5.6467538  -0.21732679   -6.3957672   0.74901342   439061 
 3669000   0.50003717   -6.3963365   -6.3963365   -5.6462824  -0.21093911   -6.3963365   0.75005404   439061 
 3670000   0.49954235   -6.3957998   -6.3957998    -5.646488  -0.20838686   -6.3957998   0.74931182   439061 
 3671000   0.49998322   -6.3971198   -6.3971198   -5.6471467  -0.21483538   -6.3971198   0.74997313   439061 
 3672000   0.49998374   -6.3954585   -6.3954585   -5.6454846  -0.21431288   -6.3954585   0.74997391   439061 
 3673000   0.50023617   -6.3954575   -6.3954575   -5.6451049  -0.21521851   -6.3954575   0.75035254   439061 
 3674000    0.4996464   -6.3949359   -6.3949359    -5.645468  -0.21251262   -6.3949359   0.74946789   439061 
 3675000   0.50031558   -6.3953548   -6.3953548   -5.6448831  -0.21195663   -6.3953548   0.75047166   439061 
 3676000   0.49945817    -6.395104    -6.395104   -5.6459185  -0.21152205    -6.395104   0.74918555   439061 
 3677000   0.50017557   -6.3953255   -6.3953255   -5.6450638  -0.21153098   -6.3953255   0.75026165   439061 
 3678000    0.5007998   -6.3958389   -6.3958389   -5.6446409  -0.21369271   -6.3958389   0.75119799   439061 
 3679000   0.50015981   -6.3944084   -6.3944084   -5.6441704  -0.21232714   -6.3944084     0.750238   439061 
 3680000   0.50053402   -6.3941645   -6.3941645   -5.6433652  -0.21061783   -6.3941645   0.75079931   439061 
 3681000   0.50043101   -6.3951163   -6.3951163   -5.6444715  -0.21695721   -6.3951163    0.7506448   439061 
 3682000   0.49975961   -6.3938829   -6.3938829   -5.6442452  -0.21194754   -6.3938829   0.74963771   439061 
 3683000     0.500133   -6.3942426   -6.3942426   -5.6440448  -0.20864285   -6.3942426    0.7501978   439061 
 3684000   0.50122696   -6.3950879   -6.3950879   -5.6432492  -0.21255572   -6.3950879   0.75183872   439061 
 3685000   0.50041928   -6.3943299   -6.3943299   -5.6437027  -0.21120517   -6.3943299   0.75062722   439061 
 3686000   0.50040339   -6.3955501   -6.3955501   -5.6449467   -0.2157245   -6.3955501   0.75060337   439061 
 3687000   0.49991054   -6.3937352   -6.3937352   -5.6438711  -0.21172825   -6.3937352    0.7498641   439061 
 3688000   0.50055881   -6.3951193   -6.3951193   -5.6442828   -0.2142567   -6.3951193   0.75083651   439061 
 3689000   0.50006324    -6.393977    -6.393977   -5.6438839  -0.21162479    -6.393977   0.75009315   439061 
 3690000    0.5003246   -6.3939234   -6.3939234   -5.6434382   -0.2117255   -6.3939234    0.7504852   439061 
 3691000   0.50029898   -6.3947409   -6.3947409   -5.6442941  -0.21076411   -6.3947409   0.75044676   439061 
 3692000   0.50030257   -6.3949988   -6.3949988   -5.6445467  -0.21405007   -6.3949988   0.75045215   439061 
 3693000   0.50103336   -6.3953471   -6.3953471   -5.6437988  -0.21460373   -6.3953471   0.75154833   439061 
 3694000   0.50051069   -6.3944655   -6.3944655   -5.6437012  -0.21273222   -6.3944655   0.75076432   439061 
 3695000   0.50036165   -6.3940372   -6.3940372   -5.6434964  -0.21222122   -6.3940372   0.75054077   439061 
 3696000   0.49990478   -6.3946188   -6.3946188   -5.6447634  -0.21213445   -6.3946188   0.74985547   439061 
 3697000   0.50033449   -6.3949264   -6.3949264   -5.6444263  -0.21414999   -6.3949264   0.75050002   439061 
 3698000   0.50039132   -6.3950239   -6.3950239   -5.6444387  -0.21015423   -6.3950239   0.75058527   439061 
 3699000   0.50035169   -6.3953797   -6.3953797   -5.6448538  -0.21350956   -6.3953797   0.75052582   439061 
 3700000   0.49985148    -6.394778    -6.394778   -5.6450025  -0.21215828    -6.394778   0.74977551   439061 
 3701000   0.49939676   -6.3941028   -6.3941028   -5.6450094  -0.21486263   -6.3941028   0.74909344   439061 
 3702000   0.49969327   -6.3940883   -6.3940883   -5.6445501  -0.21067555   -6.3940883    0.7495382   439061 
 3703000   0.49989642   -6.3952544   -6.3952544   -5.6454115   -0.2129155   -6.3952544   0.74984292   439061 
 3704000   0.49940097   -6.3941982   -6.3941982   -5.6450984  -0.20997466   -6.3941982   0.74909975   439061 
 3705000   0.50068083   -6.3960677   -6.3960677   -5.6450482  -0.21440947   -6.3960677   0.75101954   439061 
 3706000   0.49989296   -6.3945792   -6.3945792   -5.6447415  -0.21261628   -6.3945792   0.74983773   439061 
 3707000   0.49997282   -6.3948497   -6.3948497   -5.6448921  -0.21162434   -6.3948497   0.74995752   439061 
 3708000   0.50011489   -6.3942695   -6.3942695   -5.6440989  -0.21336855   -6.3942695   0.75017062   439061 
 3709000   0.50034628   -6.3949312   -6.3949312   -5.6444135  -0.21151702   -6.3949312   0.75051771   439061 
 3710000   0.49989712   -6.3937536   -6.3937536   -5.6439096  -0.21140627   -6.3937536   0.74984398   439061 
 3711000   0.50049155   -6.3946811   -6.3946811   -5.6439455  -0.21183495   -6.3946811   0.75073561   439061 
 3712000   0.50025085   -6.3950596   -6.3950596    -5.644685   -0.2120153   -6.3950596   0.75037457   439061 
 3713000   0.50019208   -6.3941693   -6.3941693   -5.6438829  -0.20947202   -6.3941693   0.75028641   439061 
 3714000   0.50101911   -6.3955359   -6.3955359   -5.6440089  -0.21346017   -6.3955359   0.75152696   439061 
 3715000   0.49928507   -6.3934181   -6.3934181   -5.6444922  -0.21022871   -6.3934181    0.7489259   439061 
 3716000   0.49998857   -6.3934672   -6.3934672   -5.6434861  -0.21316933   -6.3934672   0.74998114   439061 
 3717000   0.50084255   -6.3940495   -6.3940495   -5.6427874  -0.20996004   -6.3940495   0.75126212   439061 
 3718000   0.50088777   -6.3949761   -6.3949761   -5.6436461  -0.21287515   -6.3949761   0.75132994   439061 
 3719000   0.50064417   -6.3949402   -6.3949402   -5.6439757  -0.21381922   -6.3949402   0.75096454   439061 
 3720000   0.49974716   -6.3931647   -6.3931647   -5.6435456   -0.2090266   -6.3931647   0.74961904   439061 
 3721000   0.50012191   -6.3939778   -6.3939778   -5.6437967  -0.21256926   -6.3939778   0.75018116   439061 
 3722000   0.50076023   -6.3945282   -6.3945282   -5.6433896  -0.20962901   -6.3945282   0.75113863   439061 
 3723000   0.50095421   -6.3946233   -6.3946233   -5.6431937  -0.21369147   -6.3946233    0.7514296   439061 
 3724000   0.50110316   -6.3939749   -6.3939749   -5.6423218  -0.21206246   -6.3939749   0.75165303   439061 
 3725000   0.50057413     -6.39441     -6.39441   -5.6435505  -0.21276031     -6.39441   0.75085948   439061 
 3726000   0.49947267   -6.3930886   -6.3930886   -5.6438813  -0.21126147   -6.3930886    0.7492073   439061 
 3727000   0.50060208   -6.3944371   -6.3944371   -5.6435357  -0.20927206   -6.3944371   0.75090141   439061 
 3728000    0.5009452   -6.3951907   -6.3951907   -5.6437746  -0.21161756   -6.3951907   0.75141609   439061 
 3729000   0.50032704   -6.3943784   -6.3943784   -5.6438895  -0.21020142   -6.3943784   0.75048886   439061 
 3730000    0.4999836   -6.3942112   -6.3942112   -5.6442375  -0.21391358   -6.3942112   0.74997369   439061 
 3731000      0.50079    -6.394747    -6.394747   -5.6435637  -0.21259783    -6.394747    0.7511833   439061 
 3732000   0.50022407   -6.3928853   -6.3928853   -5.6425509  -0.20651273   -6.3928853   0.75033439   439061 
 3733000    0.5004605    -6.393344    -6.393344   -5.6426549     -0.20811    -6.393344   0.75068904   439061 
 3734000    0.5005897   -6.3940436   -6.3940436   -5.6431608  -0.21287922   -6.3940436   0.75088284   439061 
 3735000   0.50057921   -6.3944265   -6.3944265   -5.6435594  -0.21145507   -6.3944265    0.7508671   439061 
 3736000    0.5010018   -6.3943599   -6.3943599   -5.6428589  -0.21266236   -6.3943599     0.751501   439061 
 3737000   0.50111674    -6.394014    -6.394014   -5.6423406  -0.21243518    -6.394014    0.7516734   439061 
 3738000   0.50193298   -6.3955605   -6.3955605   -5.6426628   -0.2147063   -6.3955605   0.75289775   439061 
 3739000   0.50098705   -6.3937855   -6.3937855   -5.6423066  -0.21147438   -6.3937855   0.75147886   439061 
 3740000   0.50088074    -6.394304    -6.394304   -5.6429846  -0.21136583    -6.394304    0.7513194   439061 
 3741000   0.49964177   -6.3923433   -6.3923433   -5.6428824  -0.21111812   -6.3923433   0.74946094   439061 
 3742000   0.50078117   -6.3946799   -6.3946799   -5.6435098   -0.2142169   -6.3946799   0.75117005   439061 
 3743000   0.50059934   -6.3942924   -6.3942924   -5.6433951  -0.21395515   -6.3942924   0.75089729   439061 
 3744000   0.50116268   -6.3941165   -6.3941165   -5.6423742  -0.20824816   -6.3941165    0.7517423   439061 
 3745000   0.50058887   -6.3936951   -6.3936951   -5.6428135  -0.21095271   -6.3936951   0.75088159   439061 
 3746000   0.50029599   -6.3936933   -6.3936933    -5.643251  -0.21133787   -6.3936933   0.75044227   439061 
 3747000    0.5005914   -6.3943966   -6.3943966   -5.6435112  -0.21615155   -6.3943966   0.75088539   439061 
 3748000   0.50041772   -6.3939602   -6.3939602   -5.6433353   -0.2098051   -6.3939602   0.75062487   439061 
 3749000   0.50013351     -6.39384     -6.39384   -5.6436414  -0.21263832     -6.39384   0.75019856   439061 
 3750000   0.50095067     -6.39544     -6.39544   -5.6440157  -0.21303604     -6.39544    0.7514243   439061 
 3751000   0.50062452   -6.3940919   -6.3940919   -5.6431568   -0.2091217   -6.3940919   0.75093508   439061 
 3752000   0.50094879   -6.3942232   -6.3942232   -5.6428018  -0.21108147   -6.3942232   0.75142147   439061 
 3753000   0.50021704   -6.3943533   -6.3943533   -5.6440294  -0.21358301   -6.3943533   0.75032385   439061 
 3754000   0.50053018   -6.3952025   -6.3952025    -5.644409  -0.21724839   -6.3952025   0.75079356   439061 
 3755000   0.50027271   -6.3945102   -6.3945102   -5.6441028  -0.21090876   -6.3945102   0.75040736   439061 
 3756000   0.49990832   -6.3934746   -6.3934746   -5.6436139  -0.20841264   -6.3934746   0.74986077   439061 
 3757000   0.50003959   -6.3937647   -6.3937647   -5.6437071  -0.20544005   -6.3937647   0.75005767   439061 
 3758000   0.50110213   -6.3949952   -6.3949952   -5.6433437    -0.210305   -6.3949952   0.75165148   439061 
 3759000   0.50084211   -6.3941819   -6.3941819   -5.6429205  -0.21189409   -6.3941819   0.75126145   439061 
 3760000   0.49983893   -6.3928579   -6.3928579   -5.6431012  -0.21339856   -6.3928579   0.74975668   439061 
 3761000   0.50038174   -6.3945201   -6.3945201   -5.6439492  -0.21655666   -6.3945201    0.7505709   439061 
 3762000   0.50007872   -6.3943386   -6.3943386   -5.6442222  -0.21254969   -6.3943386   0.75011638   439061 
 3763000    0.5002399   -6.3950684   -6.3950684   -5.6447103  -0.20889487   -6.3950684   0.75035814   439061 
 3764000   0.50083097   -6.3960486   -6.3960486   -5.6448038  -0.21030313   -6.3960486   0.75124474   439061 
 3765000    0.5001662   -6.3952695   -6.3952695   -5.6450219  -0.21372947   -6.3952695   0.75024759   439061 
 3766000   0.49980001   -6.3930369   -6.3930369   -5.6433386  -0.20954292   -6.3930369    0.7496983   439061 
 3767000    0.5002842   -6.3939564   -6.3939564   -5.6435318  -0.21514621   -6.3939564   0.75042459   439061 
 3768000    0.4996614   -6.3935063   -6.3935063   -5.6440159  -0.21351494   -6.3935063   0.74949039   439061 
 3769000    0.5009156   -6.3949857   -6.3949857   -5.6436141  -0.21253959   -6.3949857   0.75137169   439061 
 3770000   0.50012214   -6.3941129   -6.3941129   -5.6439314   -0.2084771   -6.3941129    0.7501815   439061 
 3771000   0.50013114   -6.3941008   -6.3941008   -5.6439058  -0.20650523   -6.3941008     0.750195   439061 
 3772000   0.50047653    -6.394525    -6.394525   -5.6438119  -0.21352535    -6.394525   0.75071309   439061 
 3773000   0.49965646   -6.3942017   -6.3942017   -5.6447187  -0.21524505   -6.3942017   0.74948299   439061 
 3774000   0.50014905   -6.3946825   -6.3946825   -5.6444606  -0.21734103   -6.3946825   0.75022187   439061 
 3775000   0.50023347   -6.3955686   -6.3955686   -5.6452201  -0.21244292   -6.3955686    0.7503485   439061 
 3776000   0.49980099    -6.395617    -6.395617   -5.6459172  -0.20874943    -6.395617   0.74969978   439061 
 3777000   0.50013204   -6.3962315   -6.3962315   -5.6460351  -0.20654417   -6.3962315   0.75019636   439061 
 3778000   0.50007027   -6.3948933   -6.3948933   -5.6447896  -0.21166597   -6.3948933   0.75010369   439061 
 3779000   0.50037888   -6.3953595   -6.3953595   -5.6447929  -0.21386556   -6.3953595   0.75056661   439061 
 3780000   0.49861214   -6.3927925   -6.3927925    -5.644876  -0.21721323   -6.3927925   0.74791651   439061 
 3781000   0.50012119   -6.3943267   -6.3943267   -5.6441466  -0.21351295   -6.3943267   0.75018008   439061 
 3782000   0.50051784   -6.3942774   -6.3942774   -5.6435024   -0.2087461   -6.3942774   0.75077505   439061 
 3783000   0.50109404   -6.3962172   -6.3962172   -5.6445779  -0.20931757   -6.3962172   0.75163934   439061 
 3784000   0.50075516   -6.3959934   -6.3959934   -5.6448624  -0.21287642   -6.3959934   0.75113102   439061 
 3785000   0.49993225   -6.3955834   -6.3955834   -5.6456867  -0.21559702   -6.3955834   0.74989667   439061 
 3786000   0.50013114   -6.3961967   -6.3961967   -5.6460017  -0.21773038   -6.3961967     0.750195   439061 
 3787000   0.49957651   -6.3952169   -6.3952169   -5.6458538  -0.21607478   -6.3952169   0.74936306   439061 
 3788000   0.49953876   -6.3954541   -6.3954541   -5.6461477  -0.21075171   -6.3954541   0.74930643   439061 
 3789000   0.49951034   -6.3954201   -6.3954201   -5.6461563  -0.20673101   -6.3954201   0.74926381   439061 
 3790000   0.49972216   -6.3956444   -6.3956444   -5.6460629  -0.20959586   -6.3956444   0.74958153   439061 
 3791000     0.499528   -6.3952255   -6.3952255   -5.6459352  -0.21309425   -6.3952255    0.7492903   439061 
 3792000   0.50016699   -6.3954525   -6.3954525   -5.6452038  -0.21750336   -6.3954525   0.75024877   439061 
 3793000   0.49996092   -6.3948817   -6.3948817    -5.644942  -0.21337982   -6.3948817   0.74993967   439061 
 3794000   0.50017935   -6.3948039   -6.3948039   -5.6445366   -0.2108498   -6.3948039   0.75026732   439061 
 3795000   0.50083771   -6.3948916   -6.3948916   -5.6436368   -0.2083852   -6.3948916   0.75125485   439061 
 3796000   0.50043107   -6.3946106   -6.3946106   -5.6439657  -0.20902569   -6.3946106   0.75064489   439061 
 3797000   0.50070698   -6.3948306   -6.3948306   -5.6437719  -0.21063984   -6.3948306   0.75105876   439061 
 3798000   0.49990965   -6.3937438   -6.3937438    -5.643881  -0.21123911   -6.3937438   0.74986277   439061 
 3799000   0.49995232   -6.3935424   -6.3935424   -5.6436156  -0.21153243   -6.3935424   0.74992677   439061 
 3800000   0.50073509   -6.3952952   -6.3952952   -5.6441943  -0.21122365   -6.3952952   0.75110093   439061 
 3801000   0.49942173   -6.3932935   -6.3932935   -5.6441626  -0.20977817   -6.3932935   0.74913089   439061 
 3802000   0.50050952   -6.3951565   -6.3951565   -5.6443939  -0.20664655   -6.3951565   0.75076256   439061 
 3803000   0.50031774   -6.3953331   -6.3953331   -5.6448582  -0.21355949   -6.3953331    0.7504749   439061 
 3804000   0.50058942   -6.3960207   -6.3960207   -5.6451383  -0.21536944   -6.3960207   0.75088241   439061 
 3805000   0.50014821   -6.3944657   -6.3944657   -5.6442451  -0.21518247   -6.3944657   0.75022061   439061 
 3806000   0.50110947   -6.3963492   -6.3963492   -5.6446867  -0.21414871   -6.3963492    0.7516625   439061 
 3807000   0.50072942   -6.3954397   -6.3954397   -5.6443473  -0.21171955   -6.3954397   0.75109241   439061 
 3808000   0.50006595   -6.3953718   -6.3953718   -5.6452745  -0.21063724   -6.3953718   0.75009722   439061 
 3809000   0.50036433   -6.3960687   -6.3960687   -5.6455239  -0.21398133   -6.3960687   0.75054479   439061 
 3810000    0.4996391   -6.3954004   -6.3954004   -5.6459435  -0.21348527   -6.3954004   0.74945694   439061 
 3811000   0.49988611   -6.3956161   -6.3956161   -5.6457887  -0.21615677   -6.3956161   0.74982746   439061 
 3812000   0.49992447   -6.3951564   -6.3951564   -5.6452714   -0.2114935   -6.3951564   0.74988499   439061 
 3813000   0.50000325   -6.3949989   -6.3949989   -5.6449958  -0.21420877   -6.3949989   0.75000317   439061 
 3814000   0.50031368   -6.3950743   -6.3950743   -5.6446055  -0.21169364   -6.3950743   0.75046881   439061 
 3815000   0.49956137    -6.395173    -6.395173   -5.6458327  -0.21218132    -6.395173   0.74934035   439061 
 3816000   0.50036598   -6.3957876   -6.3957876   -5.6452403  -0.21190899   -6.3957876   0.75054726   439061 
 3817000   0.50028756   -6.3950597   -6.3950597   -5.6446301  -0.21349459   -6.3950597   0.75042963   439061 
 3818000   0.50039809   -6.3948241   -6.3948241   -5.6442287  -0.21113963   -6.3948241   0.75059543   439061 
 3819000   0.50056012   -6.3949088   -6.3949088   -5.6440704  -0.21166706   -6.3949088   0.75083848   439061 
 3820000   0.50124589   -6.3958352   -6.3958352   -5.6439681  -0.21458385   -6.3958352   0.75186712   439061 
 3821000   0.50056443   -6.3956126   -6.3956126   -5.6447677  -0.21442425   -6.3956126   0.75084494   439061 
 3822000   0.50056774   -6.3947093   -6.3947093   -5.6438594  -0.20864743   -6.3947093    0.7508499   439061 
 3823000   0.49984871   -6.3943786   -6.3943786   -5.6446072  -0.20984704   -6.3943786   0.74977135   439061 
 3824000   0.50085636   -6.3965768   -6.3965768    -5.645294  -0.21478389   -6.3965768   0.75128283   439061 
 3825000    0.4999417   -6.3950938   -6.3950938   -5.6451829  -0.21432606   -6.3950938   0.74991085   439061 
 3826000   0.50004399   -6.3950583   -6.3950583    -5.644994  -0.21431543   -6.3950583   0.75006428   439061 
 3827000   0.50011253   -6.3948475   -6.3948475   -5.6446804  -0.20994124   -6.3948475   0.75016708   439061 
 3828000   0.50038382   -6.3955248   -6.3955248   -5.6449508  -0.21174445   -6.3955248   0.75057402   439061 
 3829000   0.50070977   -6.3962911   -6.3962911   -5.6452281  -0.21378086   -6.3962911   0.75106294   439061 
 3830000    0.5002569   -6.3953799   -6.3953799   -5.6449962  -0.21398891   -6.3953799   0.75038364   439061 
 3831000   0.50096614   -6.3964949   -6.3964949   -5.6450474  -0.21333929   -6.3964949   0.75144749   439061 
 3832000   0.50066439   -6.3958216   -6.3958216   -5.6448267  -0.21372947   -6.3958216   0.75099487   439061 
 3833000   0.50082497   -6.3958998   -6.3958998    -5.644664  -0.21261684   -6.3958998   0.75123574   439061 
 3834000   0.50023767   -6.3954167   -6.3954167   -5.6450619  -0.21213075   -6.3954167   0.75035479   439061 
 3835000   0.50060039   -6.3954063   -6.3954063   -5.6445074  -0.21245955   -6.3954063   0.75089887   439061 
 3836000   0.50100689   -6.3957674   -6.3957674   -5.6442588  -0.21428975   -6.3957674   0.75150862   439061 
 3837000    0.5012356   -6.3954488   -6.3954488   -5.6435971  -0.21407451   -6.3954488   0.75185168   439061 
 3838000   0.50095503   -6.3943312   -6.3943312   -5.6429004  -0.21105734   -6.3943312   0.75143083   439061 
 3839000   0.50155636   -6.3955317   -6.3955317   -5.6431989  -0.21532235   -6.3955317   0.75233282   439061 
 3840000   0.50110235   -6.3948471   -6.3948471   -5.6431953  -0.21301793   -6.3948471   0.75165181   439061 
 3841000   0.50123431   -6.3946218   -6.3946218   -5.6427721  -0.21477081   -6.3946218   0.75184975   439061 
 3842000   0.50085224   -6.3941915   -6.3941915   -5.6429148  -0.20992053   -6.3941915   0.75127665   439061 
 3843000   0.50006645   -6.3943185   -6.3943185   -5.6442205  -0.21127968   -6.3943185   0.75009797   439061 
 3844000     0.500597    -6.395163    -6.395163   -5.6442692  -0.21136022    -6.395163   0.75089379   439061 
 3845000    0.5007406    -6.395775    -6.395775   -5.6446658  -0.21433126    -6.395775   0.75110919   439061 
 3846000   0.50054332   -6.3954423   -6.3954423    -5.644629  -0.21330365   -6.3954423   0.75081327   439061 
 3847000   0.50006923   -6.3950599   -6.3950599   -5.6449578  -0.21181841   -6.3950599   0.75010214   439061 
 3848000   0.50029882   -6.3955068   -6.3955068   -5.6450603  -0.21322383   -6.3955068   0.75044652   439061 
 3849000   0.49990006   -6.3948696   -6.3948696   -5.6450213  -0.21053806   -6.3948696   0.74984839   439061 
 3850000   0.50054602   -6.3953392   -6.3953392   -5.6445219  -0.21226726   -6.3953392   0.75081732   439061 
 3851000   0.50064026    -6.395596    -6.395596   -5.6446373  -0.21340988    -6.395596   0.75095868   439061 
 3852000   0.50067378   -6.3955179   -6.3955179   -5.6445089  -0.21215444   -6.3955179   0.75100896   439061 
 3853000   0.50063709   -6.3954736   -6.3954736   -5.6445197  -0.21070247   -6.3954736   0.75095392   439061 
 3854000   0.50032538   -6.3950077   -6.3950077   -5.6445214  -0.21056235   -6.3950077   0.75048636   439061 
 3855000    0.4998831   -6.3953631   -6.3953631   -5.6455402  -0.21202226   -6.3953631   0.74982295   439061 
 3856000   0.50086845   -6.3957638   -6.3957638   -5.6444628  -0.21315715   -6.3957638   0.75130096   439061 
 3857000   0.49973809   -6.3950758   -6.3950758   -5.6454703  -0.21201208   -6.3950758   0.74960542   439061 
 3858000   0.49974844   -6.3956484   -6.3956484   -5.6460275   -0.2141438   -6.3956484   0.74962095   439061 
 3859000   0.50015927   -6.3957087   -6.3957087   -5.6454715  -0.21530764   -6.3957087    0.7502372   439061 
 3860000   0.50059044   -6.3960328   -6.3960328   -5.6451488   -0.2099697   -6.3960328   0.75088395   439061 
 3861000   0.50030967   -6.3955036   -6.3955036   -5.6450408  -0.21165345   -6.3955036    0.7504628   439061 
 3862000   0.50080198   -6.3965894   -6.3965894   -5.6453882  -0.21350061   -6.3965894   0.75120126   439061 
 3863000    0.5003141   -6.3963291   -6.3963291   -5.6458597  -0.21515549   -6.3963291   0.75046944   439061 
 3864000    0.5007869    -6.395668    -6.395668   -5.6444894  -0.20950594    -6.395668   0.75117865   439061 
 3865000   0.50028356   -6.3946643   -6.3946643   -5.6442406  -0.21092352   -6.3946643   0.75042364   439061 
 3866000   0.50004132   -6.3951669   -6.3951669   -5.6451066  -0.21067306   -6.3951669   0.75006028   439061 
 3867000   0.50001867   -6.3956029   -6.3956029   -5.6455766  -0.21527512   -6.3956029   0.75002629   439061 
 3868000   0.50086212   -6.3958113   -6.3958113   -5.6445199  -0.21110098   -6.3958113   0.75129147   439061 
 3869000   0.50096504   -6.3954535   -6.3954535   -5.6440077  -0.20873556   -6.3954535   0.75144585   439061 
 3870000   0.49970706   -6.3938948   -6.3938948   -5.6443359  -0.20753756   -6.3938948   0.74955888   439061 
 3871000   0.49993679   -6.3954577   -6.3954577   -5.6455542  -0.21123452   -6.3954577   0.74990348   439061 
 3872000    0.4997794   -6.3956501   -6.3956501   -5.6459827  -0.21633367   -6.3956501   0.74966739   439061 
 3873000   0.49950408   -6.3945683   -6.3945683   -5.6453139  -0.21496837   -6.3945683   0.74925442   439061 
 3874000   0.50093752   -6.3964896   -6.3964896    -5.645085  -0.21504408   -6.3964896   0.75140457   439061 
 3875000   0.50022907   -6.3958975   -6.3958975   -5.6455556  -0.20797269   -6.3958975   0.75034189   439061 
 3876000   0.50035071    -6.395648    -6.395648   -5.6451236  -0.21007051    -6.395648   0.75052436   439061 
 3877000   0.50112561   -6.3960962   -6.3960962   -5.6444095  -0.21544025   -6.3960962   0.75168671   439061 
 3878000   0.49978154   -6.3945594   -6.3945594   -5.6448888  -0.21332966   -6.3945594   0.74967061   439061 
 3879000   0.49951402   -6.3950659   -6.3950659   -5.6457966  -0.21630039   -6.3950659   0.74926933   439061 
 3880000   0.50066903   -6.3959695   -6.3959695   -5.6449677  -0.21191166   -6.3959695   0.75100184   439061 
 3881000    0.5011854   -6.3967091   -6.3967091   -5.6449327  -0.21028039   -6.3967091   0.75177639   439061 
 3882000   0.50038164   -6.3956897   -6.3956897   -5.6451189  -0.20790003   -6.3956897   0.75057076   439061 
 3883000   0.50035225   -6.3959755   -6.3959755   -5.6454488  -0.21188219   -6.3959755   0.75052667   439061 
 3884000   0.49932217   -6.3948205   -6.3948205   -5.6458389   -0.2164217   -6.3948205   0.74898155   439061 
 3885000   0.50040905    -6.396391    -6.396391   -5.6457792  -0.21803523    -6.396391   0.75061186   439061 
 3886000   0.50038648   -6.3956149   -6.3956149   -5.6450369  -0.21386063   -6.3956149   0.75057801   439061 
 3887000   0.50040341   -6.3960883   -6.3960883   -5.6454849  -0.20781183   -6.3960883    0.7506034   439061 
 3888000   0.50141858   -6.3976408   -6.3976408   -5.6455147  -0.20914018   -6.3976408   0.75212615   439061 
 3889000   0.50099594   -6.3965631   -6.3965631   -5.6450709  -0.20909398   -6.3965631    0.7514922   439061 
 3890000   0.50046345   -6.3953773   -6.3953773   -5.6446838  -0.21525935   -6.3953773   0.75069346   439061 
 3891000   0.50034609   -6.3951462   -6.3951462   -5.6446288  -0.21703116   -6.3951462   0.75051742   439061 
 3892000    0.4994991   -6.3937603   -6.3937603   -5.6445134  -0.21527199   -6.3937603   0.74924694   439061 
 3893000   0.50060206   -6.3961284   -6.3961284    -5.645227  -0.21290001   -6.3961284   0.75090138   439061 
 3894000   0.50111728   -6.3969414   -6.3969414   -5.6452672  -0.20857497   -6.3969414    0.7516742   439061 
 3895000   0.49973858   -6.3950214   -6.3950214   -5.6454153  -0.20252949   -6.3950214   0.74960616   439061 
 3896000   0.50085758   -6.3969536   -6.3969536   -5.6456689   -0.2118036   -6.3969536   0.75128467   439061 
 3897000   0.49968328   -6.3944739   -6.3944739   -5.6449507  -0.21375893   -6.3944739   0.74952322   439061 
 3898000   0.49940941   -6.3934981   -6.3934981   -5.6443857  -0.21420365   -6.3934981   0.74911241   439061 
 3899000   0.49970805    -6.394253    -6.394253   -5.6446926  -0.21430156    -6.394253   0.74956037   439061 
 3900000   0.50128823   -6.3962285   -6.3962285   -5.6442979  -0.21132984   -6.3962285   0.75193063   439061 
 3901000   0.49951351   -6.3945559   -6.3945559   -5.6452873  -0.20665367   -6.3945559   0.74926856   439061 
 3902000   0.50071424    -6.396017    -6.396017   -5.6449474   -0.2068779    -6.396017   0.75106965   439061 
 3903000   0.50039729   -6.3961627   -6.3961627   -5.6455685  -0.21551168   -6.3961627   0.75059422   439061 
 3904000   0.49947772   -6.3948963   -6.3948963   -5.6456814  -0.21212671   -6.3948963   0.74921487   439061 
 3905000   0.50040843   -6.3956726   -6.3956726   -5.6450617  -0.21779665   -6.3956726   0.75061093   439061 
 3906000   0.50044288   -6.3956589   -6.3956589   -5.6449963   -0.2117757   -6.3956589   0.75066261   439061 
 3907000   0.49997071   -6.3951134   -6.3951134    -5.645159  -0.21100282   -6.3951134   0.74995436   439061 
 3908000   0.50030275   -6.3944255   -6.3944255   -5.6439731  -0.20968458   -6.3944255   0.75045241   439061 
 3909000   0.50098838   -6.3961263   -6.3961263   -5.6446454   -0.2111563   -6.3961263   0.75148086   439061 
 3910000   0.49989515   -6.3948875   -6.3948875   -5.6450465  -0.21645515   -6.3948875   0.74984102   439061 
 3911000   0.50084992   -6.3956661   -6.3956661    -5.644393  -0.21133638   -6.3956661   0.75127317   439061 
 3912000   0.50007543   -6.3953074   -6.3953074    -5.645196   -0.2153454   -6.3953074   0.75011144   439061 
 3913000   0.50152341   -6.3969709   -6.3969709   -5.6446875  -0.21141922   -6.3969709    0.7522834   439061 
 3914000   0.50073437   -6.3955462   -6.3955462   -5.6444463  -0.21239088   -6.3955462   0.75109985   439061 
 3915000   0.50054375    -6.395926    -6.395926   -5.6451121  -0.21281077    -6.395926   0.75081392   439061 
 3916000   0.49947892   -6.3943819   -6.3943819   -5.6451652  -0.21193252   -6.3943819   0.74921667   439061 
 3917000   0.50008571   -6.3949714   -6.3949714   -5.6448445  -0.21420142   -6.3949714   0.75012685   439061 
 3918000   0.50032967   -6.3947801   -6.3947801   -5.6442873  -0.21495871   -6.3947801    0.7504928   439061 
 3919000   0.50038277   -6.3953295   -6.3953295    -5.644757  -0.21191839   -6.3953295   0.75057244   439061 
 3920000   0.50103796    -6.396971    -6.396971   -5.6454157  -0.21382432    -6.396971   0.75155523   439061 
 3921000    0.5005864    -6.396083    -6.396083   -5.6452051  -0.21091074    -6.396083   0.75087789   439061 
 3922000    0.5009863   -6.3966537   -6.3966537   -5.6451759  -0.21300679   -6.3966537   0.75147774   439061 
 3923000   0.50037819   -6.3953008   -6.3953008   -5.6447353  -0.21228339   -6.3953008   0.75056558   439061 
 3924000    0.5014551   -6.3959845   -6.3959845   -5.6438036    -0.211501   -6.3959845   0.75218094   439061 
 3925000   0.50030963   -6.3947384   -6.3947384   -5.6442757  -0.21442389   -6.3947384   0.75046274   439061 
 3926000   0.50046128   -6.3949587   -6.3949587   -5.6442684  -0.21034876   -6.3949587   0.75069021   439061 
 3927000   0.50018709   -6.3953323   -6.3953323   -5.6450534   -0.2128657   -6.3953323   0.75027893   439061 
 3928000   0.50010177   -6.3953503   -6.3953503   -5.6451993  -0.20793237   -6.3953503   0.75015094   439061 
 3929000   0.50016213    -6.395524    -6.395524   -5.6452825  -0.21272221    -6.395524   0.75024149   439061 
 3930000   0.49967651   -6.3946401   -6.3946401   -5.6451271  -0.20953151   -6.3946401   0.74951305   439061 
 3931000   0.50002551   -6.3950674   -6.3950674   -5.6450309   -0.2139764   -6.3950674   0.75003656   439061 
 3932000   0.49991645   -6.3957469   -6.3957469   -5.6458739   -0.2154787   -6.3957469   0.74987296   439061 
 3933000   0.50032066   -6.3958638   -6.3958638   -5.6453845  -0.21407407   -6.3958638   0.75047929   439061 
 3934000    0.5000044   -6.3958262   -6.3958262   -5.6458213  -0.21170807   -6.3958262   0.75000489   439061 
 3935000   0.50072229    -6.396308    -6.396308   -5.6452263  -0.21130344    -6.396308   0.75108172   439061 
 3936000   0.50082305   -6.3959379   -6.3959379   -5.6447051  -0.21074729   -6.3959379   0.75123287   439061 
 3937000   0.50070844   -6.3949863   -6.3949863   -5.6439254  -0.21170486   -6.3949863   0.75106094   439061 
 3938000   0.49980811   -6.3944457   -6.3944457   -5.6447353  -0.21390143   -6.3944457   0.74971046   439061 
 3939000   0.49930626    -6.393799    -6.393799   -5.6448413  -0.21275731    -6.393799   0.74895768   439061 
 3940000   0.50045243   -6.3955099   -6.3955099   -5.6448329  -0.21486397   -6.3955099   0.75067693   439061 
 3941000   0.50061949    -6.395423    -6.395423   -5.6444955   -0.2088761    -6.395423   0.75092752   439061 
 3942000   0.50116285   -6.3973206   -6.3973206    -5.645578  -0.21161938   -6.3973206   0.75174256   439061 
 3943000   0.50128912   -6.3972129   -6.3972129    -5.645281  -0.21071228   -6.3972129   0.75193197   439061 
 3944000   0.50008191   -6.3952507   -6.3952507   -5.6451296  -0.21207794   -6.3952507   0.75012116   439061 
 3945000   0.49979928   -6.3944121   -6.3944121   -5.6447149  -0.21152968   -6.3944121   0.74969721   439061 
 3946000   0.50015526   -6.3955672   -6.3955672   -5.6453361   -0.2157389   -6.3955672   0.75023118   439061 
 3947000   0.50081173   -6.3960939   -6.3960939    -5.644878  -0.21454866   -6.3960939   0.75121588   439061 
 3948000   0.50097397   -6.3967019   -6.3967019   -5.6452427  -0.21274567   -6.3967019   0.75145924   439061 
 3949000   0.50085716   -6.3959455   -6.3959455   -5.6446615   -0.2080094   -6.3959455   0.75128403   439061 
 3950000   0.50103109   -6.3961636   -6.3961636   -5.6446187  -0.21349546   -6.3961636   0.75154492   439061 
 3951000   0.49958251    -6.393671    -6.393671   -5.6442989  -0.21337155    -6.393671   0.74937206   439061 
 3952000   0.50011875   -6.3946148   -6.3946148   -5.6444384  -0.21410403   -6.3946148   0.75017642   439061 
 3953000   0.49953064    -6.394886    -6.394886   -5.6455917  -0.21429104    -6.394886   0.74929426   439061 
 3954000   0.49978009   -6.3958883   -6.3958883   -5.6462199  -0.21157554   -6.3958883   0.74966843   439061 
 3955000   0.50054506   -6.3976566   -6.3976566   -5.6468408  -0.20735013   -6.3976566   0.75081588   439061 
 3956000   0.49962224   -6.3966951   -6.3966951   -5.6472635  -0.21261446   -6.3966951   0.74943165   439061 
 3957000   0.49981395   -6.3973613   -6.3973613   -5.6476421  -0.21133199   -6.3973613   0.74971922   439061 
 3958000   0.49943102    -6.396727    -6.396727   -5.6475822  -0.21976463    -6.396727   0.74914483   439061 
 3959000    0.4992411   -6.3965103   -6.3965103   -5.6476503  -0.21393399   -6.3965103   0.74885994   439061 
 3960000   0.49875397   -6.3957161   -6.3957161   -5.6475869  -0.21401232   -6.3957161   0.74812925   439061 
 3961000    0.5003761   -6.3967915   -6.3967915   -5.6462291  -0.20958502   -6.3967915   0.75056245   439061 
 3962000   0.50074638   -6.3967891   -6.3967891   -5.6456712  -0.21306884   -6.3967891   0.75111786   439061 
 3963000   0.49997392   -6.3950132   -6.3950132    -5.645054  -0.21093766   -6.3950132   0.74995917   439061 
 3964000   0.49957287   -6.3937971   -6.3937971   -5.6444395  -0.21228908   -6.3937971   0.74935761   439061 
 3965000   0.50021474   -6.3942204   -6.3942204      -5.6439  -0.21397195   -6.3942204   0.75032041   439061 
 3966000   0.50030287   -6.3938936   -6.3938936    -5.643441  -0.21164937   -6.3938936    0.7504526   439061 
 3967000   0.50100555   -6.3957015   -6.3957015   -5.6441949  -0.21264961   -6.3957015   0.75150661   439061 
 3968000   0.50074981   -6.3950797   -6.3950797   -5.6439567   -0.2063016   -6.3950797     0.751123   439061 
 3969000   0.50053364   -6.3952313   -6.3952313   -5.6444325  -0.20785752   -6.3952313   0.75079875   439061 
 3970000   0.50088867    -6.395274    -6.395274   -5.6439427  -0.21240628    -6.395274   0.75133129   439061 
 3971000   0.50037208   -6.3949197   -6.3949197   -5.6443633   -0.2149892   -6.3949197   0.75055641   439061 
 3972000   0.49948199   -6.3944465   -6.3944465   -5.6452252  -0.21309454   -6.3944465   0.74922129   439061 
 3973000   0.50106794   -6.3964409   -6.3964409   -5.6448407  -0.21540739   -6.3964409   0.75160019   439061 
 3974000   0.50046015   -6.3958695   -6.3958695    -5.645181  -0.20898688   -6.3958695   0.75068851   439061 
 3975000   0.50001675   -6.3957886   -6.3957886   -5.6457652  -0.21024456   -6.3957886   0.75002342   439061 
 3976000   0.50043124   -6.3966193   -6.3966193   -5.6459741  -0.21112163   -6.3966193   0.75064514   439061 
 3977000   0.49946099   -6.3945372   -6.3945372   -5.6453475  -0.21280777   -6.3945372   0.74918977   439061 
 3978000   0.49970397   -6.3952696   -6.3952696   -5.6457153  -0.21382355   -6.3952696   0.74955424   439061 
 3979000    0.4987682   -6.3940858   -6.3940858   -5.6459352  -0.20972164   -6.3940858    0.7481506   439061 
 3980000   0.50048181   -6.3963197   -6.3963197   -5.6455987  -0.21189763   -6.3963197   0.75072101   439061 
 3981000   0.49935453   -6.3951634   -6.3951634   -5.6461333  -0.20512335   -6.3951634   0.74903008   439061 
 3982000   0.49988126   -6.3959114   -6.3959114   -5.6460913  -0.21141636   -6.3959114   0.74982018   439061 
 3983000   0.49974262   -6.3956858   -6.3956858   -5.6460736  -0.21379808   -6.3956858   0.74961222   439061 
 3984000   0.50015081   -6.3961488   -6.3961488   -5.6459243  -0.21421214   -6.3961488   0.75022451   439061 
 3985000   0.50103037   -6.3962094   -6.3962094   -5.6446656   -0.2140063   -6.3962094   0.75154385   439061 
 3986000   0.50007704   -6.3949835   -6.3949835   -5.6448697  -0.21101771   -6.3949835   0.75011386   439061 
 3987000   0.50000523   -6.3950723   -6.3950723   -5.6450662  -0.21055006   -6.3950723   0.75000614   439061 
 3988000   0.50108942   -6.3962962   -6.3962962   -5.6446638  -0.21036074   -6.3962962   0.75163242   439061 
 3989000   0.49988326   -6.3950129   -6.3950129   -5.6451898  -0.21342892   -6.3950129   0.74982318   439061 
 3990000   0.49878094   -6.3948333   -6.3948333   -5.6466636  -0.21136634   -6.3948333   0.74816971   439061 
 3991000   0.49997513   -6.3964515   -6.3964515   -5.6464905  -0.21749952   -6.3964515   0.74996099   439061 
 3992000   0.49965981   -6.3965166   -6.3965166   -5.6470286  -0.21032318   -6.3965166   0.74948801   439061 
 3993000   0.50067582   -6.3972359   -6.3972359   -5.6462239  -0.20940501   -6.3972359   0.75101202   439061 
 3994000   0.49983939   -6.3960555   -6.3960555   -5.6462981  -0.20745322   -6.3960555   0.74975738   439061 
 3995000   0.50039302   -6.3966669   -6.3966669   -5.6460791  -0.22036206   -6.3966669   0.75058782   439061 
 3996000   0.50024154   -6.3960277   -6.3960277   -5.6456671  -0.21667545   -6.3960277   0.75036061   439061 
 3997000   0.50008548   -6.3961623   -6.3961623   -5.6460357  -0.21925918   -6.3961623   0.75012651   439061 
 3998000   0.49948428   -6.3957344   -6.3957344   -5.6465097  -0.21362886   -6.3957344   0.74922471   439061 
 3999000   0.49957474   -6.3959081   -6.3959081   -5.6465477  -0.21194108   -6.3959081   0.74936041   439061 
 4000000   0.49931072   -6.3959504   -6.3959504   -5.6469861  -0.20863215   -6.3959504   0.74896437   439061 
 4001000   0.50034833   -6.3977582   -6.3977582   -5.6472374  -0.21209263   -6.3977582   0.75052078   439061 
 4002000   0.50003708    -6.397239    -6.397239    -5.647185  -0.21481555    -6.397239   0.75005391   439061 
 4003000   0.49990722   -6.3973177   -6.3973177   -5.6474585  -0.21768275   -6.3973177   0.74985913   439061 
 4004000   0.49892028   -6.3962411   -6.3962411   -5.6478624  -0.21697752   -6.3962411   0.74837871   439061 
 4005000   0.49942278   -6.3958904   -6.3958904    -5.646758  -0.20909281   -6.3958904   0.74913247   439061 
 4006000   0.49969105   -6.3965457   -6.3965457   -5.6470108  -0.21120041   -6.3965457   0.74953486   439061 
 4007000   0.49961648   -6.3981558   -6.3981558   -5.6487328  -0.21493127   -6.3981558   0.74942301   439061 
 4008000   0.49955342   -6.3975199   -6.3975199   -5.6481915  -0.21521538   -6.3975199   0.74932843   439061 
 4009000   0.49913706   -6.3975107   -6.3975107   -5.6488068  -0.21658836   -6.3975107   0.74870389   439061 
 4010000   0.49924897   -6.3965255   -6.3965255   -5.6476538  -0.21479649   -6.3965255   0.74887175   439061 
 4011000   0.49945791    -6.397492    -6.397492   -5.6483069   -0.2140835    -6.397492   0.74918517   439061 
 4012000   0.49845909   -6.3953278   -6.3953278   -5.6476409   -0.2071619   -6.3953278   0.74768694   439061 
 4013000   0.49989234   -6.3965792   -6.3965792   -5.6467424  -0.21090849   -6.3965792   0.74983681   439061 
 4014000   0.49971615   -6.3960115   -6.3960115   -5.6464389   -0.2117716   -6.3960115   0.74957252   439061 
 4015000   0.49822316   -6.3954063   -6.3954063   -5.6480733  -0.21371081   -6.3954063   0.74733304   439061 
 4016000   0.49978737   -6.3970028   -6.3970028   -5.6473235  -0.21553039   -6.3970028   0.74967935   439061 
 4017000    0.4992499   -6.3963106   -6.3963106   -5.6474375  -0.20920373   -6.3963106   0.74887314   439061 
 4018000   0.49914691   -6.3967507   -6.3967507    -5.648032  -0.20981358   -6.3967507   0.74871867   439061 
 4019000   0.50053641   -6.3972612   -6.3972612   -5.6464583  -0.20685526   -6.3972612   0.75080291   439061 
 4020000   0.49933077   -6.3960987   -6.3960987   -5.6471042  -0.21385512   -6.3960987   0.74899446   439061 
 4021000   0.49944354   -6.3962457   -6.3962457   -5.6470821  -0.21356635   -6.3962457    0.7491636   439061 
 4022000   0.49857721   -6.3955575   -6.3955575   -5.6476934  -0.21524823   -6.3955575   0.74786411   439061 
 4023000   0.49836282   -6.3953269   -6.3953269   -5.6477844  -0.21004961   -6.3953269   0.74754253   439061 
 4024000   0.50018063    -6.397477    -6.397477   -5.6472077  -0.21025466    -6.397477   0.75026923   439061 
 4025000   0.50015657   -6.3974636   -6.3974636   -5.6472305  -0.21134435   -6.3974636   0.75023314   439061 
 4026000   0.50060671   -6.3971767   -6.3971767   -5.6462683  -0.20979994   -6.3971767   0.75090835   439061 
 4027000   0.49948854   -6.3953322   -6.3953322   -5.6461011  -0.21680449   -6.3953322    0.7492311   439061 
 4028000   0.49933049    -6.395394    -6.395394      -5.6464  -0.21557402    -6.395394   0.74899404   439061 
 4029000   0.50052165   -6.3960649   -6.3960649   -5.6452841  -0.21540636   -6.3960649   0.75078076   439061 
 4030000   0.50093125   -6.3965277   -6.3965277   -5.6451326  -0.20882088   -6.3965277   0.75139516   439061 
 4031000   0.50090478   -6.3976878   -6.3976878   -5.6463323  -0.21232257   -6.3976878   0.75135545   439061 
 4032000   0.50030671   -6.3973095   -6.3973095   -5.6468512  -0.21255668   -6.3973095   0.75045836   439061 
 4033000   0.49962927   -6.3958375   -6.3958375   -5.6463953  -0.21063989   -6.3958375    0.7494422   439061 
 4034000   0.49956972     -6.39565     -6.39565   -5.6462972  -0.21309295     -6.39565   0.74935287   439061 
 4035000   0.50024411   -6.3961055   -6.3961055   -5.6457411  -0.21339468   -6.3961055   0.75036446   439061 
 4036000    0.4998109   -6.3962533   -6.3962533   -5.6465386  -0.21486931   -6.3962533   0.74971464   439061 
 4037000    0.5005641   -6.3964955   -6.3964955   -5.6456511  -0.21317422   -6.3964955   0.75084445   439061 
 4038000   0.50012995    -6.396499    -6.396499   -5.6463058  -0.21108904    -6.396499   0.75019322   439061 
 4039000   0.49964032   -6.3960997   -6.3960997   -5.6466409  -0.21020899   -6.3960997   0.74945877   439061 
 4040000   0.49974269   -6.3969709   -6.3969709   -5.6473586  -0.21368854   -6.3969709   0.74961232   439061 
 4041000   0.49961948   -6.3966796   -6.3966796   -5.6472521  -0.21609398   -6.3966796   0.74942751   439061 
 4042000   0.49935728   -6.3969392   -6.3969392    -5.647905  -0.21551698   -6.3969392   0.74903421   439061 
 4043000   0.49997139   -6.3974517   -6.3974517   -5.6474963  -0.21493987   -6.3974517   0.74995538   439061 
 4044000   0.49985866   -6.3964282   -6.3964282   -5.6466419  -0.21323887   -6.3964282   0.74978628   439061 
 4045000    0.4993198    -6.396473    -6.396473    -5.647495  -0.21163284    -6.396473   0.74897799   439061 
 4046000   0.50007239   -6.3968742   -6.3968742   -5.6467673  -0.21542877   -6.3968742   0.75010688   439061 
 4047000   0.49931891   -6.3960134   -6.3960134   -5.6470367  -0.21765561   -6.3960134   0.74897665   439061 
 4048000   0.49934749   -6.3961135   -6.3961135    -5.647094  -0.21356843   -6.3961135   0.74901952   439061 
 4049000   0.49893984   -6.3960738   -6.3960738   -5.6476657  -0.21454656   -6.3960738   0.74840806   439061 
 4050000   0.49957335   -6.3968785   -6.3968785   -5.6475202   -0.2094706   -6.3968785   0.74935833   439061 
 4051000   0.49951052    -6.396908    -6.396908   -5.6476439  -0.21043083    -6.396908   0.74926408   439061 
 4052000    0.4995663   -6.3977545   -6.3977545   -5.6484067  -0.21416152   -6.3977545   0.74934775   439061 
 4053000   0.49929097   -6.3975591   -6.3975591   -5.6486244  -0.21820302   -6.3975591   0.74893474   439061 
 4054000   0.49866296   -6.3963845   -6.3963845   -5.6483917  -0.21418312   -6.3963845   0.74799274   439061 
 4055000   0.49994986   -6.3977077   -6.3977077   -5.6477846   -0.2145163   -6.3977077   0.74992309   439061 
 4056000   0.49910989   -6.3971492   -6.3971492   -5.6484861  -0.21167051   -6.3971492   0.74866313   439061 
 4057000   0.49999343   -6.3985892   -6.3985892   -5.6486008   -0.2114228   -6.3985892   0.74998844   439061 
 4058000   0.49840166   -6.3959438   -6.3959438    -5.648343  -0.21006167   -6.3959438   0.74760079   439061 
 4059000   0.49891917   -6.3968091   -6.3968091    -5.648432    -0.217584   -6.3968091   0.74837705   439061 
 4060000    0.4988269   -6.3966716   -6.3966716   -5.6484329  -0.21713377   -6.3966716   0.74823865   439061 
 4061000   0.49785934    -6.396059    -6.396059   -5.6492717  -0.21273416    -6.396059   0.74678732   439061 
 4062000   0.49988985   -6.3977493   -6.3977493   -5.6479162  -0.21333788   -6.3977493   0.74983307   439061 
 4063000   0.49874411   -6.3975171   -6.3975171   -5.6494026  -0.20879067   -6.3975171   0.74811446   439061 
 4064000   0.49929613   -6.3985923   -6.3985923   -5.6496498  -0.21400172   -6.3985923   0.74894249   439061 
 4065000   0.49895122   -6.3969252   -6.3969252   -5.6485001  -0.21039648   -6.3969252   0.74842512   439061 
 4066000   0.49814289   -6.3950691   -6.3950691   -5.6478565  -0.21018328   -6.3950691   0.74721263   439061 
 4067000   0.49876913   -6.3971086   -6.3971086   -5.6489566  -0.21536768   -6.3971086   0.74815199   439061 
 4068000   0.49838028   -6.3973364   -6.3973364   -5.6497677   -0.2167132   -6.3973364   0.74756872   439061 
 4069000   0.49857103    -6.396933    -6.396933   -5.6490782   -0.2102314    -6.396933   0.74785483   439061 
 4070000    0.4995027   -6.3984001   -6.3984001   -5.6491477  -0.21282775   -6.3984001   0.74925235   439061 
 4071000   0.49926597   -6.3982598   -6.3982598   -5.6493626   -0.2131744   -6.3982598   0.74889725   439061 
 4072000   0.49917512   -6.3972886   -6.3972886   -5.6485276  -0.21543302   -6.3972886   0.74876098   439061 
 4073000   0.49937595   -6.3971353   -6.3971353   -5.6480731  -0.21768924   -6.3971353   0.74906222   439061 
 4074000   0.49966681   -6.3975603   -6.3975603   -5.6480618  -0.21586618   -6.3975603   0.74949851   439061 
 4075000    0.4992292   -6.3971413   -6.3971413   -5.6482992  -0.21284621   -6.3971413    0.7488421   439061 
 4076000    0.5002054   -6.3988515   -6.3988515   -5.6485451   -0.2142718   -6.3988515   0.75030639   439061 
 4077000   0.50029004    -6.397814    -6.397814   -5.6473807  -0.20860183    -6.397814   0.75043336   439061 
 4078000   0.50037587   -6.3968912   -6.3968912   -5.6463291   -0.2113175   -6.3968912   0.75056209   439061 
 4079000   0.49961618   -6.3962227   -6.3962227   -5.6468002  -0.21752644   -6.3962227   0.74942256   439061 
 4080000   0.49946645   -6.3954727   -6.3954727   -5.6462748  -0.21700006   -6.3954727   0.74919797   439061 
 4081000   0.49988094   -6.3967089   -6.3967089   -5.6468892  -0.21673241   -6.3967089    0.7498197   439061 
 4082000   0.50036526   -6.3970248   -6.3970248   -5.6464786  -0.20855452   -6.3970248   0.75054619   439061 
 4083000   0.50076244    -6.396725    -6.396725   -5.6455831  -0.20721506    -6.396725   0.75114195   439061 
 4084000   0.50025741    -6.396887    -6.396887   -5.6465026  -0.21004478    -6.396887    0.7503844   439061 
 4085000   0.49889846   -6.3948505   -6.3948505   -5.6465045  -0.21216177   -6.3948505   0.74834598   439061 
 4086000   0.49947192   -6.3953905   -6.3953905   -5.6461843  -0.21347923   -6.3953905   0.74920618   439061 
 4087000   0.49876274   -6.3938574   -6.3938574   -5.6457149  -0.21018346   -6.3938574   0.74814241   439061 
 4088000   0.49987751   -6.3971105   -6.3971105   -5.6472959   -0.2161897   -6.3971105   0.74981456   439061 
 4089000   0.50066952   -6.3969802   -6.3969802   -5.6459777   -0.2080933   -6.3969802   0.75100257   439061 
 4090000   0.50056919   -6.3972894   -6.3972894   -5.6464374  -0.20920783   -6.3972894   0.75085207   439061 
 4091000   0.50041177   -6.3971029   -6.3971029   -5.6464869  -0.21516878   -6.3971029   0.75061595   439061 
 4092000   0.49999326   -6.3962858   -6.3962858   -5.6462976  -0.21699559   -6.3962858   0.74998818   439061 
 4093000   0.49929276   -6.3948975   -6.3948975   -5.6459601  -0.21548563   -6.3948975   0.74893743   439061 
 4094000   0.50025952   -6.3971426   -6.3971426   -5.6467551  -0.21541718   -6.3971426   0.75038758   439061 
 4095000   0.50026215   -6.3965849   -6.3965849   -5.6461933  -0.20952647   -6.3965849   0.75039152   439061 
 4096000   0.50080605   -6.3973235   -6.3973235   -5.6461162  -0.20911841   -6.3973235   0.75120736   439061 
 4097000   0.50014534   -6.3961934   -6.3961934   -5.6459771  -0.21189639   -6.3961934   0.75021631   439061 
 4098000   0.50036491   -6.3964304   -6.3964304   -5.6458848    -0.217684   -6.3964304   0.75054566   439061 
 4099000   0.49976062   -6.3961181   -6.3961181   -5.6464789  -0.21605428   -6.3961181   0.74963923   439061 
 4100000   0.50057579   -6.3954844   -6.3954844   -5.6446224  -0.21175881   -6.3954844   0.75086198   439061 
 4101000   0.50055209   -6.3961471   -6.3961471   -5.6453207  -0.20749981   -6.3961471   0.75082642   439061 
 4102000   0.50028532   -6.3964024   -6.3964024   -5.6459761  -0.20680914   -6.3964024   0.75042628   439061 
 4103000   0.50034154    -6.396012    -6.396012   -5.6455014  -0.21277439    -6.396012   0.75051061   439061 
 4104000   0.50014168   -6.3955785   -6.3955785   -5.6453677  -0.21356589   -6.3955785   0.75021081   439061 
 4105000   0.49992212   -6.3946313   -6.3946313   -5.6447499  -0.21100974   -6.3946313   0.74988146   439061 
 4106000   0.49995689   -6.3946687   -6.3946687   -5.6447351  -0.21185074   -6.3946687   0.74993363   439061 
 4107000    0.5005795   -6.3963654   -6.3963654   -5.6454978  -0.21090125   -6.3963654   0.75086754   439061 
 4108000   0.50006106   -6.3959319   -6.3959319    -5.645842  -0.20764992   -6.3959319   0.75008988   439061 
 4109000   0.50163059   -6.3964939   -6.3964939   -5.6440497  -0.20637514   -6.3964939   0.75244418   439061 
 4110000   0.50122606   -6.3959496   -6.3959496   -5.6441123  -0.21105817   -6.3959496   0.75183737   439061 
 4111000   0.50069958    -6.395281    -6.395281   -5.6442333  -0.21788735    -6.395281   0.75104766   439061 
 4112000   0.49957007   -6.3936143   -6.3936143   -5.6442609   -0.2138276   -6.3936143   0.74935339   439061 
 4113000   0.50120463   -6.3960699   -6.3960699   -5.6442647  -0.21252569   -6.3960699   0.75180523   439061 
 4114000   0.50138029   -6.3964618   -6.3964618   -5.6443931  -0.20694078   -6.3964618   0.75206872   439061 
 4115000    0.5013997   -6.3961545   -6.3961545   -5.6440567  -0.20647919   -6.3961545   0.75209784   439061 
 4116000   0.50043873   -6.3959031   -6.3959031   -5.6452467  -0.20724473   -6.3959031   0.75065639   439061 
 4117000   0.49960622   -6.3949635   -6.3949635   -5.6455559  -0.21305008   -6.3949635   0.74940762   439061 
 4118000   0.50006902    -6.395253    -6.395253   -5.6451512  -0.21527236    -6.395253   0.75010182   439061 
 4119000   0.49935698   -6.3939427   -6.3939427    -5.644909  -0.21297112   -6.3939427   0.74903376   439061 
 4120000   0.50075745   -6.3955433   -6.3955433   -5.6444089  -0.20930534   -6.3955433   0.75113446   439061 
 4121000   0.49944018   -6.3941199   -6.3941199   -5.6449613  -0.20708739   -6.3941199   0.74915857   439061 
 4122000   0.49992023   -6.3959587   -6.3959587   -5.6460801  -0.20881391   -6.3959587   0.74987864   439061 
 4123000   0.50098133   -6.3961534   -6.3961534   -5.6446831  -0.20918017   -6.3961534   0.75147029   439061 
 4124000   0.50045831   -6.3951278   -6.3951278    -5.644442  -0.21179819   -6.3951278   0.75068575   439061 
 4125000   0.50011989   -6.3960382   -6.3960382     -5.64586  -0.21369147   -6.3960382   0.75017812   439061 
 4126000   0.49967669   -6.3949275   -6.3949275   -5.6454142  -0.21520153   -6.3949275   0.74951333   439061 
 4127000   0.50001858   -6.3954829   -6.3954829   -5.6454568  -0.20921579   -6.3954829   0.75002616   439061 
 4128000   0.50071616   -6.3955665   -6.3955665    -5.644494  -0.20889369   -6.3955665   0.75107253   439061 
 4129000   0.50057342   -6.3955619   -6.3955619   -5.6447034  -0.20742222   -6.3955619   0.75085842   439061 
 4130000   0.50033446   -6.3951231   -6.3951231   -5.6446231  -0.21272993   -6.3951231   0.75049998   439061 
 4131000   0.50005497   -6.3950354   -6.3950354   -5.6449546  -0.21420562   -6.3950354   0.75008075   439061 
 4132000     0.499965   -6.3945902   -6.3945902   -5.6446444  -0.21349434   -6.3945902   0.74994579   439061 
 4133000   0.50142636   -6.3964547   -6.3964547   -5.6443169  -0.21492835   -6.3964547   0.75213783   439061 
 4134000   0.50141076   -6.3959573   -6.3959573   -5.6438429  -0.21269651   -6.3959573   0.75211442   439061 
 4135000   0.50045999   -6.3947898   -6.3947898   -5.6441015  -0.21024748   -6.3947898   0.75068828   439061 
 4136000   0.49967514   -6.3940257   -6.3940257   -5.6445147  -0.20884546   -6.3940257     0.749511   439061 
 4137000    0.5003992   -6.3945236   -6.3945236   -5.6439265  -0.21126258   -6.3945236    0.7505971   439061 
 4138000   0.50054838   -6.3938862   -6.3938862   -5.6430654  -0.20916621   -6.3938862   0.75082086   439061 
 4139000   0.50035605   -6.3947284   -6.3947284    -5.644196  -0.21225354   -6.3947284   0.75053236   439061 
 4140000   0.50048036   -6.3952785   -6.3952785   -5.6445597  -0.21118586   -6.3952785   0.75071883   439061 
 4141000   0.50074671   -6.3968986   -6.3968986   -5.6457802  -0.21346639   -6.3968986   0.75111836   439061 
 4142000   0.50023089    -6.396018    -6.396018   -5.6456734  -0.21011858    -6.396018   0.75034463   439061 
 4143000   0.49993632   -6.3959509   -6.3959509   -5.6460481  -0.21216964   -6.3959509   0.74990277   439061 
 4144000   0.49980508   -6.3951649   -6.3951649    -5.645459  -0.21169021   -6.3951649   0.74970592   439061 
 4145000   0.49941004    -6.394283    -6.394283   -5.6451696   -0.2115303    -6.394283   0.74911336   439061 
 4146000   0.50048229   -6.3956361   -6.3956361   -5.6449144  -0.21663811   -6.3956361   0.75072173   439061 
 4147000   0.50077461   -6.3957589   -6.3957589   -5.6445987  -0.21440631   -6.3957589    0.7511602   439061 
 4148000   0.50030606    -6.394585    -6.394585   -5.6441276  -0.20880557    -6.394585   0.75045738   439061 
 4149000   0.50145263   -6.3969656   -6.3969656   -5.6447883  -0.21031466   -6.3969656   0.75217723   439061 
 4150000   0.50076667   -6.3969803   -6.3969803    -5.645832  -0.21378775   -6.3969803   0.75114829   439061 
 4151000     0.499656   -6.3946702   -6.3946702   -5.6451879  -0.21125075   -6.3946702   0.74948229   439061 
 4152000   0.50075408   -6.3955474   -6.3955474    -5.644418  -0.21377645   -6.3955474   0.75112941   439061 
 4153000   0.50076496   -6.3951887   -6.3951887   -5.6440429  -0.21544965   -6.3951887   0.75114573   439061 
 4154000   0.50057053    -6.395767    -6.395767   -5.6449129  -0.21666228    -6.395767   0.75085408   439061 
 4155000   0.50022202   -6.3957836   -6.3957836   -5.6454523  -0.21587012   -6.3957836   0.75033131   439061 
 4156000   0.50052069   -6.3963244   -6.3963244    -5.645545  -0.21166434   -6.3963244   0.75077932   439061 
 4157000   0.50035777   -6.3954923   -6.3954923   -5.6449574  -0.20695186   -6.3954923   0.75053495   439061 
 4158000   0.50076038   -6.3954264   -6.3954264   -5.6442875   -0.2077416   -6.3954264   0.75113886   439061 
 4159000   0.50028481   -6.3956004   -6.3956004   -5.6451748  -0.21300183   -6.3956004   0.75042551   439061 
 4160000   0.50048047   -6.3958677   -6.3958677   -5.6451487  -0.22035275   -6.3958677     0.750719   439061 
 4161000   0.49947612   -6.3944483   -6.3944483   -5.6452358  -0.21541137   -6.3944483   0.74921247   439061 
 4162000   0.50006413   -6.3938302   -6.3938302   -5.6437357  -0.21057962   -6.3938302   0.75009449   439061 
 4163000   0.50157203   -6.3957259   -6.3957259   -5.6433696  -0.20566707   -6.3957259   0.75235633   439061 
 4164000    0.5000908   -6.3943541   -6.3943541   -5.6442196  -0.20876429   -6.3943541    0.7501345   439061 
 4165000   0.50053753   -6.3961016   -6.3961016    -5.645297  -0.21430969   -6.3961016   0.75080458   439061 
 4166000    0.4999377   -6.3949155   -6.3949155   -5.6450107  -0.21639033   -6.3949155   0.74990484   439061 
 4167000   0.49990641   -6.3944598   -6.3944598   -5.6446019  -0.21194739   -6.3944598   0.74985791   439061 
 4168000    0.4998024   -6.3953542   -6.3953542   -5.6456523  -0.21328859   -6.3953542    0.7497019   439061 
 4169000   0.50028487   -6.3956567   -6.3956567   -5.6452311  -0.20766086   -6.3956567   0.75042559   439061 
 4170000   0.50073431   -6.3960172   -6.3960172   -5.6449175  -0.20813641   -6.3960172   0.75109975   439061 
 4171000   0.50015303   -6.3953963   -6.3953963   -5.6451685  -0.20971803   -6.3953963   0.75022783   439061 
 4172000    0.5007927   -6.3965083   -6.3965083   -5.6453209  -0.21314761   -6.3965083   0.75118734   439061 
 4173000   0.50082957   -6.3965734   -6.3965734   -5.6453308  -0.21811349   -6.3965734   0.75124265   439061 
 4174000   0.50002598   -6.3946821   -6.3946821   -5.6446448  -0.21173072   -6.3946821   0.75003726   439061 
 4175000   0.50084127   -6.3959668   -6.3959668   -5.6447066   -0.2124792   -6.3959668   0.75126019   439061 
 4176000   0.50056716   -6.3957145   -6.3957145   -5.6448655  -0.20946157   -6.3957145   0.75084903   439061 
 4177000   0.50014634   -6.3956284   -6.3956284   -5.6454106  -0.21176368   -6.3956284    0.7502178   439061 
 4178000   0.50053112   -6.3952463   -6.3952463   -5.6444513  -0.21243278   -6.3952463   0.75079497   439061 
 4179000   0.50079295   -6.3958868   -6.3958868   -5.6446991  -0.21423429   -6.3958868   0.75118771   439061 
 4180000   0.50072524   -6.3954433   -6.3954433   -5.6443572  -0.21678423   -6.3954433   0.75108616   439061 
 4181000   0.50025539   -6.3954924   -6.3954924    -5.645111  -0.21313415   -6.3954924   0.75038138   439061 
 4182000   0.49992742   -6.3960293   -6.3960293   -5.6461398  -0.21287833   -6.3960293   0.74988942   439061 
 4183000    0.5002549   -6.3959048   -6.3959048   -5.6455242  -0.20944236   -6.3959048   0.75038064   439061 
 4184000   0.50080631   -6.3968051   -6.3968051   -5.6455973  -0.21044038   -6.3968051   0.75120775   439061 
 4185000   0.49988413   -6.3947545   -6.3947545     -5.64493  -0.21120948   -6.3947545   0.74982449   439061 
 4186000   0.49979137   -6.3943931   -6.3943931   -5.6447077  -0.21199032   -6.3943931   0.74968535   439061 
 4187000   0.50033241   -6.3950057   -6.3950057   -5.6445088  -0.21360517   -6.3950057   0.75049691   439061 
 4188000   0.50036663   -6.3949287   -6.3949287   -5.6443804  -0.21272982   -6.3949287   0.75054823   439061 
 4189000   0.50050215   -6.3948521   -6.3948521   -5.6441006  -0.20913842   -6.3948521   0.75075151   439061 
 4190000   0.50167489   -6.3975539   -6.3975539   -5.6450433  -0.20953593   -6.3975539   0.75251063   439061 
 4191000    0.5000351    -6.394915    -6.394915   -5.6448641  -0.20978869    -6.394915   0.75005094   439061 
 4192000   0.50011945   -6.3950749   -6.3950749   -5.6448974  -0.21099169   -6.3950749   0.75017747   439061 
 4193000   0.50071594   -6.3959165   -6.3959165   -5.6448443  -0.21379226   -6.3959165    0.7510722   439061 
 4194000   0.50081753   -6.3959101   -6.3959101   -5.6446855  -0.21202786   -6.3959101   0.75122458   439061 
 4195000   0.50106873   -6.3961199   -6.3961199   -5.6445185  -0.21225301   -6.3961199   0.75160138   439061 
 4196000     0.500361   -6.3951555   -6.3951555   -5.6446157  -0.20964674   -6.3951555   0.75053978   439061 
 4197000   0.49962136   -6.3940044   -6.3940044    -5.644574  -0.20991546   -6.3940044   0.74943033   439061 
 4198000   0.50090865   -6.3956737   -6.3956737   -5.6443124  -0.20773756   -6.3956737   0.75136126   439061 
 4199000   0.50104621   -6.3960061   -6.3960061   -5.6444385  -0.21236487   -6.3960061    0.7515676   439061 
 4200000   0.50074076    -6.396093    -6.396093   -5.6449836  -0.21505692    -6.396093   0.75110943   439061 
 4201000   0.50046387   -6.3953275   -6.3953275   -5.6446334  -0.21009671   -6.3953275   0.75069409   439061 
 4202000    0.4999181   -6.3955636   -6.3955636   -5.6456882   -0.2104444   -6.3955636   0.74987544   439061 
 4203000   0.50100994   -6.3968493   -6.3968493   -5.6453361  -0.21199854   -6.3968493   0.75151319   439061 
 4204000   0.49998231   -6.3953039   -6.3953039   -5.6453321  -0.20957367   -6.3953039   0.74997176   439061 
 4205000   0.49935652   -6.3945116   -6.3945116   -5.6454785  -0.20795988   -6.3945116   0.74903308   439061 
 4206000   0.50008479   -6.3962391   -6.3962391   -5.6461136   -0.2162344   -6.3962391   0.75012547   439061 
 4207000   0.50002274   -6.3965575   -6.3965575   -5.6465251   -0.2131404   -6.3965575    0.7500324   439061 
 4208000   0.50063971   -6.3963255   -6.3963255   -5.6453676  -0.21159766   -6.3963255   0.75095785   439061 
 4209000   0.50021618   -6.3959125   -6.3959125   -5.6455899  -0.21102387   -6.3959125   0.75032257   439061 
 4210000   0.50066383   -6.3962526   -6.3962526   -5.6452586  -0.20962166   -6.3962526   0.75099403   439061 
 4211000   0.50027642   -6.3967394   -6.3967394   -5.6463265  -0.21336433   -6.3967394   0.75041292   439061 
 4212000   0.50013568    -6.396541    -6.396541   -5.6463392  -0.21280112    -6.396541   0.75020181   439061 
 4213000   0.49967087   -6.3955761   -6.3955761   -5.6460715  -0.21436274   -6.3955761   0.74950459   439061 
 4214000    0.4999819   -6.3961385   -6.3961385   -5.6461674  -0.21139536   -6.3961385   0.74997115   439061 
 4215000   0.50094236   -6.3962186   -6.3962186   -5.6448068  -0.21313791   -6.3962186   0.75141183   439061 
 4216000   0.50122356   -6.3965513   -6.3965513   -5.6447177   -0.2119118   -6.3965513   0.75183362   439061 
 4217000   0.49975574   -6.3950657   -6.3950657   -5.6454338  -0.21331247   -6.3950657    0.7496319   439061 
 4218000   0.50106026   -6.3966033   -6.3966033   -5.6450147  -0.21238294   -6.3966033   0.75158867   439061 
 4219000   0.50052387   -6.3958354   -6.3958354   -5.6450513  -0.21138007   -6.3958354    0.7507841   439061 
 4220000   0.49936577   -6.3953516   -6.3953516   -5.6463047  -0.21406181   -6.3953516   0.74904695   439061 
 4221000   0.49995917   -6.3955779   -6.3955779   -5.6456408  -0.21058856   -6.3955779   0.74993705   439061 
 4222000   0.49996214    -6.395579    -6.395579   -5.6456375   -0.2130033    -6.395579    0.7499415   439061 
 4223000   0.50075918   -6.3960116   -6.3960116   -5.6448745  -0.20999754   -6.3960116   0.75113706   439061 
 4224000   0.49972824   -6.3952788   -6.3952788   -5.6456882  -0.20987505   -6.3952788   0.74959065   439061 
 4225000   0.50027929   -6.3943705   -6.3943705   -5.6439532  -0.20755657   -6.3943705   0.75041723   439061 
 4226000    0.5001025   -6.3962301   -6.3962301   -5.6460781  -0.21810265   -6.3962301   0.75015205   439061 
 4227000   0.49989158   -6.3960228   -6.3960228   -5.6461872  -0.21357689   -6.3960228   0.74983566   439061 
 4228000   0.49954456   -6.3959502   -6.3959502   -5.6466351  -0.21252285   -6.3959502   0.74931513   439061 
 4229000   0.50065474   -6.3967731   -6.3967731   -5.6457927  -0.20947098   -6.3967731    0.7509804   439061 
 4230000   0.49998298   -6.3964963   -6.3964963   -5.6465236  -0.20955685   -6.3964963   0.74997277   439061 
 4231000   0.50014021   -6.3966136   -6.3966136    -5.646405  -0.21158604   -6.3966136    0.7502086   439061 
 4232000    0.5000219   -6.3962991   -6.3962991    -5.646268  -0.21466374   -6.3962991   0.75003114   439061 
 4233000   0.50003966   -6.3963688   -6.3963688    -5.646311  -0.21738997   -6.3963688   0.75005779   439061 
 4234000   0.49883781   -6.3944592   -6.3944592   -5.6462042  -0.21316186   -6.3944592   0.74825502   439061 
 4235000   0.50032902   -6.3961091   -6.3961091   -5.6456173  -0.21019342   -6.3961091   0.75049182   439061 
 4236000   0.49957988   -6.3950405   -6.3950405   -5.6456724  -0.20822823   -6.3950405   0.74936811   439061 
 4237000   0.50018121   -6.3952944   -6.3952944   -5.6450243  -0.20994015   -6.3952944   0.75027011   439061 
 4238000   0.50043746   -6.3957862   -6.3957862   -5.6451317  -0.21516416   -6.3957862   0.75065449   439061 
 4239000    0.4999443   -6.3949628   -6.3949628   -5.6450481   -0.2126326   -6.3949628   0.74991474   439061 
 4240000   0.50038175   -6.3949937   -6.3949937   -5.6444228  -0.21176682   -6.3949937   0.75057091   439061 
 4241000   0.49987324   -6.3952462   -6.3952462   -5.6454381  -0.21185141   -6.3952462   0.74980815   439061 
 4242000    0.4995395   -6.3954833   -6.3954833   -5.6461758  -0.20940643   -6.3954833   0.74930754   439061 
 4243000   0.50093853    -6.397097    -6.397097   -5.6456909  -0.21195676    -6.397097   0.75140608   439061 
 4244000   0.49994946   -6.3958183   -6.3958183   -5.6458958  -0.21349364   -6.3958183   0.74992248   439061 
 4245000   0.49923999   -6.3955076   -6.3955076   -5.6466493   -0.2139751   -6.3955076   0.74885828   439061 
 4246000    0.5003981   -6.3973676   -6.3973676   -5.6467721   -0.2169601   -6.3973676   0.75059544   439061 
 4247000   0.50022106   -6.3966796   -6.3966796   -5.6463498  -0.21505848   -6.3966796   0.75032989   439061 
 4248000   0.50004817   -6.3968841   -6.3968841   -5.6468135  -0.21094805   -6.3968841   0.75007054   439061 
 4249000   0.50030194   -6.3959624   -6.3959624   -5.6455112   -0.2108874   -6.3959624    0.7504512   439061 
 4250000   0.49951089   -6.3953509   -6.3953509   -5.6460862   -0.2098808   -6.3953509   0.74926463   439061 
 4251000   0.49927532   -6.3939766   -6.3939766   -5.6450653  -0.20854353   -6.3939766   0.74891128   439061 
 4252000   0.49982141   -6.3953375   -6.3953375   -5.6456071  -0.20946074   -6.3953375    0.7497304   439061 
 4253000   0.50019061   -6.3956424   -6.3956424   -5.6453582  -0.21067105   -6.3956424    0.7502842   439061 
 4254000   0.50075384   -6.3948334   -6.3948334   -5.6437043  -0.20930572   -6.3948334   0.75112904   439061 
 4255000   0.50117942    -6.395735    -6.395735   -5.6439676  -0.21117588    -6.395735   0.75176742   439061 
 4256000   0.50056763   -6.3945613   -6.3945613   -5.6437116  -0.20977883   -6.3945613   0.75084974   439061 
 4257000   0.49986986   -6.3949458   -6.3949458   -5.6451428  -0.21155835   -6.3949458   0.74980308   439061 
 4258000   0.50068727   -6.3962558   -6.3962558   -5.6452266   -0.2142016   -6.3962558   0.75102919   439061 
 4259000   0.49987085   -6.3953048   -6.3953048   -5.6455003  -0.21221528   -6.3953048   0.74980457   439061 
 4260000   0.49952797   -6.3946709   -6.3946709   -5.6453807  -0.20929041   -6.3946709   0.74929025   439061 
 4261000   0.50079962   -6.3969326   -6.3969326   -5.6457349   -0.2126183   -6.3969326   0.75119772   439061 
 4262000   0.50041062   -6.3955038   -6.3955038   -5.6448896  -0.21028134   -6.3955038   0.75061422   439061 
 4263000   0.50022355   -6.3960656   -6.3960656    -5.645732  -0.21287247   -6.3960656   0.75033361   439061 
 4264000   0.49950039   -6.3946857   -6.3946857   -5.6454368  -0.21038546   -6.3946857   0.74924888   439061 
 4265000   0.49998146   -6.3961565   -6.3961565    -5.646186  -0.21483604   -6.3961565   0.74997048   439061 
 4266000   0.49973808   -6.3955107   -6.3955107   -5.6459053  -0.21124278   -6.3955107   0.74960541   439061 
 4267000   0.50059967   -6.3965564   -6.3965564   -5.6456586  -0.21095248   -6.3965564   0.75089779   439061 
 4268000   0.50023528   -6.3947589   -6.3947589   -5.6444077  -0.20803656   -6.3947589   0.75035121   439061 
 4269000   0.50066519    -6.395323    -6.395323   -5.6443269  -0.21002078    -6.395323   0.75099607   439061 
 4270000   0.50103761   -6.3959272   -6.3959272   -5.6443725   -0.2134355   -6.3959272   0.75155471   439061 
 4271000   0.50001993   -6.3943541   -6.3943541   -5.6443259   -0.2115202   -6.3943541   0.75002819   439061 
 4272000   0.50024057   -6.3955127   -6.3955127   -5.6451536  -0.21359616   -6.3955127   0.75035914   439061 
 4273000   0.49999909   -6.3965134   -6.3965134   -5.6465165  -0.21416477   -6.3965134   0.74999693   439061 
 4274000   0.49929352   -6.3964132   -6.3964132   -5.6474746  -0.21172885   -6.3964132   0.74893857   439061 
 4275000   0.50008067   -6.3964346   -6.3964346   -5.6463153  -0.20983342   -6.3964346   0.75011929   439061 
 4276000   0.50035315   -6.3966921   -6.3966921   -5.6461641  -0.21108666   -6.3966921   0.75052802   439061 
 4277000   0.49903812   -6.3948896   -6.3948896   -5.6463341  -0.21409143   -6.3948896   0.74855548   439061 
 4278000    0.5002401   -6.3956235   -6.3956235    -5.645265  -0.21720782   -6.3956235   0.75035844   439061 
 4279000   0.50011592   -6.3947293   -6.3947293   -5.6445571  -0.21286243   -6.3947293   0.75017217   439061 
 4280000   0.50036859   -6.3953764   -6.3953764   -5.6448252  -0.21218379   -6.3953764   0.75055117   439061 
 4281000   0.50018278   -6.3953194   -6.3953194   -5.6450469  -0.20789158   -6.3953194   0.75027246   439061 
 4282000   0.50091913   -6.3971814   -6.3971814   -5.6458044  -0.21242919   -6.3971814   0.75137698   439061 
 4283000   0.49965386   -6.3957195   -6.3957195   -5.6462404  -0.21155336   -6.3957195   0.74947908   439061 
 4284000   0.50008287   -6.3952674   -6.3952674   -5.6451448  -0.21223954   -6.3952674    0.7501226   439061 
 4285000   0.49904821   -6.3937328   -6.3937328   -5.6451622  -0.21094103   -6.3937328    0.7485706   439061 
 4286000   0.50075487   -6.3960573   -6.3960573   -5.6449267  -0.21429165   -6.3960573   0.75113059   439061 
 4287000      0.50023   -6.3955155   -6.3955155   -5.6451722  -0.21048041   -6.3955155   0.75034329   439061 
 4288000   0.49970898   -6.3958619   -6.3958619   -5.6463001  -0.20807471   -6.3958619   0.74956176   439061 
 4289000   0.49987431   -6.3962787   -6.3962787   -5.6464689  -0.20821201   -6.3962787   0.74980976   439061 
 4290000   0.49972346   -6.3956244   -6.3956244    -5.646041  -0.21247309   -6.3956244   0.74958348   439061 
 4291000   0.50011454   -6.3962807   -6.3962807   -5.6461106  -0.21492616   -6.3962807    0.7501701   439061 
 4292000   0.49950469   -6.3954191   -6.3954191   -5.6461638  -0.21659416   -6.3954191   0.74925532   439061 
 4293000   0.49968484   -6.3966545   -6.3966545    -5.647129  -0.21286844   -6.3966545   0.74952555   439061 
 4294000   0.50023642   -6.3968246   -6.3968246   -5.6464717  -0.21130221   -6.3968246   0.75035293   439061 
 4295000   0.49992288   -6.3961585   -6.3961585   -5.6462759  -0.20781484   -6.3961585   0.74988261   439061 
 4296000   0.50123987   -6.3976839   -6.3976839   -5.6458258  -0.21226374   -6.3976839   0.75185809   439061 
 4297000   0.50084427   -6.3959283   -6.3959283   -5.6446636  -0.21313129   -6.3959283   0.75126469   439061 
 4298000   0.50050864   -6.3956839   -6.3956839   -5.6449227   -0.2172925   -6.3956839   0.75076125   439061 
 4299000   0.50017065   -6.3952222   -6.3952222    -5.644968  -0.21950486   -6.3952222   0.75025426   439061 
 4300000   0.50000362   -6.3956895   -6.3956895   -5.6456858  -0.21293006   -6.3956895   0.75000372   439061 
 4301000   0.50040763   -6.3965277   -6.3965277    -5.645918  -0.21132584   -6.3965277   0.75060973   439061 
 4302000   0.49961482   -6.3952587   -6.3952587   -5.6458382   -0.2058979   -6.3952587   0.74942052   439061 
 4303000   0.50017786   -6.3953156   -6.3953156   -5.6450506  -0.20988515   -6.3953156   0.75026508   439061 
 4304000   0.50041904   -6.3959173   -6.3959173   -5.6452905  -0.21283412   -6.3959173   0.75062685   439061 
 4305000   0.50069227   -6.3959964   -6.3959964   -5.6449597  -0.21865048   -6.3959964    0.7510367   439061 
 4306000   0.49989354   -6.3959435   -6.3959435   -5.6461049  -0.21519456   -6.3959435   0.74983861   439061 
 4307000   0.50071922   -6.3973338   -6.3973338   -5.6462567  -0.21240041   -6.3973338   0.75107711   439061 
 4308000   0.50105924   -6.3979083   -6.3979083   -5.6463211  -0.20889774   -6.3979083   0.75158715   439061 
 4309000   0.50003566   -6.3963113   -6.3963113   -5.6462595  -0.20700295   -6.3963113   0.75005178   439061 
 4310000   0.50001604   -6.3962302   -6.3962302   -5.6462078  -0.21344286   -6.3962302   0.75002235   439061 
 4311000   0.49987197   -6.3962958   -6.3962958   -5.6464896  -0.21747777   -6.3962958   0.74980625   439061 
 4312000   0.49923934   -6.3943216   -6.3943216   -5.6454643  -0.21550261   -6.3943216    0.7488573   439061 
 4313000   0.50103204   -6.3961228   -6.3961228   -5.6445765  -0.21392053   -6.3961228   0.75154634   439061 
 4314000   0.50047887   -6.3955295   -6.3955295   -5.6448129   -0.2073455   -6.3955295    0.7507166   439061 
 4315000   0.49953682   -6.3950084   -6.3950084   -5.6457049   -0.2067035   -6.3950084   0.74930352   439061 
 4316000   0.50054805   -6.3973744   -6.3973744    -5.646554  -0.21302023   -6.3973744   0.75082037   439061 
 4317000   0.49976716   -6.3957012   -6.3957012   -5.6460521  -0.21011497   -6.3957012   0.74964903   439061 
 4318000    0.4998786    -6.395311    -6.395311   -5.6454948  -0.21404935    -6.395311   0.74981619   439061 
 4319000   0.49970839   -6.3950522   -6.3950522   -5.6454913   -0.2132959   -6.3950522   0.74956088   439061 
 4320000   0.49892291   -6.3950154   -6.3950154   -5.6466327  -0.21233913   -6.3950154   0.74838266   439061 
 4321000   0.50020601   -6.3966172   -6.3966172   -5.6463099  -0.20869173   -6.3966172   0.75030731   439061 
 4322000   0.50039852   -6.3968959   -6.3968959   -5.6462998  -0.20794244   -6.3968959   0.75059608   439061 
 4323000    0.5006522   -6.3969015   -6.3969015   -5.6459249  -0.21194335   -6.3969015   0.75097659   439061 
 4324000   0.50018603   -6.3967988   -6.3967988   -5.6465214  -0.21767208   -6.3967988   0.75027734   439061 
 4325000   0.50035907   -6.3979691   -6.3979691   -5.6474322  -0.21937924   -6.3979691   0.75053689   439061 
 4326000   0.49996537   -6.3965191   -6.3965191   -5.6465727  -0.21164674   -6.3965191   0.74994635   439061 
 4327000   0.50070165   -6.3976822   -6.3976822   -5.6466314  -0.21195223   -6.3976822   0.75105077   439061 
 4328000   0.49977278   -6.3964743   -6.3964743   -5.6468169  -0.21161448   -6.3964743   0.74965746   439061 
 4329000   0.49983387   -6.3970806   -6.3970806   -5.6473316  -0.21346745   -6.3970806   0.74974909   439061 
 4330000   0.50000701   -6.3962871   -6.3962871   -5.6462783   -0.2113191   -6.3962871    0.7500088   439061 
 4331000   0.49962057   -6.3963206   -6.3963206   -5.6468914  -0.21439827   -6.3963206   0.74942915   439061 
 4332000   0.49938316   -6.3964632   -6.3964632   -5.6473901  -0.21360777   -6.3964632   0.74907304   439061 
 4333000   0.49987061   -6.3955252   -6.3955252    -5.645721  -0.20788169   -6.3955252   0.74980421   439061 
 4334000   0.49964801   -6.3954717   -6.3954717   -5.6460014  -0.20796533   -6.3954717   0.74947031   439061 
 4335000   0.49907352   -6.3947296   -6.3947296    -5.646121  -0.21038921   -6.3947296   0.74860857   439061 
 4336000   0.49969982   -6.3960339   -6.3960339   -5.6464859  -0.21489391   -6.3960339   0.74954803   439061 
 4337000   0.49995484    -6.396718    -6.396718   -5.6467875  -0.21825375    -6.396718   0.74993055   439061 
 4338000   0.49988923   -6.3951661   -6.3951661    -5.645334  -0.20775239   -6.3951661   0.74983214   439061 
 4339000    0.5000679   -6.3956647   -6.3956647   -5.6455645  -0.21048376   -6.3956647   0.75010013   439061 
 4340000   0.50060926     -6.39554     -6.39554   -5.6446279   -0.2075342     -6.39554   0.75091218   439061 
 4341000    0.4999365   -6.3941335   -6.3941335   -5.6442304  -0.20986564   -6.3941335   0.74990304   439061 
 4342000   0.49988377   -6.3958223   -6.3958223   -5.6459983  -0.21892579   -6.3958223   0.74982395   439061 
 4343000    0.5003977   -6.3966754   -6.3966754   -5.6460805  -0.21749314   -6.3966754   0.75059483   439061 
 4344000   0.49926159   -6.3953141   -6.3953141   -5.6464235  -0.20987078   -6.3953141   0.74889068   439061 
 4345000   0.49935983   -6.3965047   -6.3965047   -5.6474666  -0.20543038   -6.3965047   0.74903803   439061 
 4346000   0.49953572   -6.3973437   -6.3973437   -5.6480419   -0.2108761   -6.3973437   0.74930187   439061 
 4347000   0.50013488    -6.398252    -6.398252   -5.6480514  -0.21329561    -6.398252   0.75020062   439061 
 4348000   0.49934834   -6.3968084   -6.3968084   -5.6477876  -0.21537414   -6.3968084   0.74902081   439061 
 4349000   0.49923328   -6.3965995   -6.3965995   -5.6477512  -0.21656653   -6.3965995   0.74884822   439061 
 4350000   0.50003549   -6.3969465   -6.3969465    -5.646895  -0.21585552   -6.3969465   0.75005153   439061 
 4351000   0.50020718   -6.3961421   -6.3961421    -5.645833  -0.20895962   -6.3961421   0.75030905   439061 
 4352000   0.49987072   -6.3960859   -6.3960859   -5.6462816  -0.21128267   -6.3960859   0.74980437   439061 
 4353000   0.49963012   -6.3968953   -6.3968953   -5.6474518  -0.21293052   -6.3968953   0.74944348   439061 
 4354000   0.49890598   -6.3960195   -6.3960195   -5.6476622  -0.21677045   -6.3960195   0.74835727   439061 
 4355000   0.49977937   -6.3972295   -6.3972295   -5.6475622  -0.21683681   -6.3972295   0.74966735   439061 
 4356000   0.49993615   -6.3968219   -6.3968219   -5.6469194  -0.21395503   -6.3968219   0.74990251   439061 
 4357000   0.49962073   -6.3955221   -6.3955221   -5.6460927  -0.20747613   -6.3955221   0.74942939   439061 
 4358000   0.49959278   -6.3964714   -6.3964714   -5.6470839  -0.21190952   -6.3964714   0.74938746   439061 
 4359000   0.49961027   -6.3966165   -6.3966165   -5.6472028  -0.21148716   -6.3966165    0.7494137   439061 
 4360000    0.4998203   -6.3963411   -6.3963411   -5.6466123  -0.21156782   -6.3963411   0.74972874   439061 
 4361000   0.49979304   -6.3951187   -6.3951187   -5.6454308  -0.21160324   -6.3951187   0.74968785   439061 
 4362000   0.49978703   -6.3959812   -6.3959812   -5.6463024  -0.21281171   -6.3959812   0.74967884   439061 
 4363000   0.50034058   -6.3963769   -6.3963769   -5.6458677  -0.21373167   -6.3963769   0.75050916   439061 
 4364000   0.50042454   -6.3967158   -6.3967158   -5.6460807  -0.21009214   -6.3967158    0.7506351   439061 
 4365000    0.5003553   -6.3968154   -6.3968154   -5.6462841  -0.21140459   -6.3968154   0.75053124   439061 
 4366000   0.49988875   -6.3963074   -6.3963074    -5.646476  -0.20847348   -6.3963074   0.74983142   439061 
 4367000   0.50032276   -6.3964884   -6.3964884    -5.646006  -0.21134052   -6.3964884   0.75048242   439061 
 4368000   0.49911836    -6.395426    -6.395426   -5.6467502  -0.21043281    -6.395426   0.74867583   439061 
 4369000   0.50028986   -6.3965159   -6.3965159   -5.6460828  -0.21383015   -6.3965159   0.75043307   439061 
 4370000   0.49995524   -6.3956945   -6.3956945   -5.6457634  -0.21507763   -6.3956945   0.74993115   439061 
 4371000   0.50072362   -6.3971238   -6.3971238   -5.6460401  -0.21254424   -6.3971238   0.75108372   439061 
 4372000   0.49974727   -6.3969384   -6.3969384   -5.6473192  -0.21299555   -6.3969384    0.7496192   439061 
 4373000   0.49984541   -6.3972734   -6.3972734    -5.647507  -0.21387573   -6.3972734    0.7497664   439061 
 4374000    0.4993159   -6.3970313   -6.3970313   -5.6480592  -0.21548603   -6.3970313   0.74897215   439061 
 4375000   0.50017605   -6.3981117   -6.3981117   -5.6478493  -0.21314856   -6.3981117   0.75026237   439061 
 4376000   0.49997148   -6.3971721   -6.3971721   -5.6472166  -0.21055667   -6.3971721   0.74995551   439061 
 4377000   0.50021029   -6.3973487   -6.3973487    -5.647035   -0.2141431   -6.3973487   0.75031372   439061 
 4378000   0.49908299   -6.3968887   -6.3968887   -5.6482659  -0.21385257   -6.3968887   0.74862278   439061 
 4379000   0.49927583   -6.3969843   -6.3969843   -5.6480723  -0.21283881   -6.3969843   0.74891204   439061 
 4380000   0.49919171   -6.3967797   -6.3967797   -5.6479938  -0.21061998   -6.3967797   0.74878586   439061 
 4381000   0.49945695   -6.3977474   -6.3977474   -5.6485637  -0.21420315   -6.3977474   0.74918372   439061 
 4382000   0.50023967   -6.3983892   -6.3983892   -5.6480314  -0.21453152   -6.3983892    0.7503578   439061 
 4383000   0.50006644   -6.3973075   -6.3973075   -5.6472095  -0.21253381   -6.3973075   0.75009795   439061 
 4384000   0.50065091   -6.3977321   -6.3977321   -5.6467574  -0.21300038   -6.3977321   0.75097466   439061 
 4385000   0.50003682   -6.3969719   -6.3969719   -5.6469184  -0.21501977   -6.3969719   0.75005352   439061 
 4386000    0.5003397   -6.3978032   -6.3978032   -5.6472954  -0.21588267   -6.3978032   0.75050784   439061 
 4387000    0.4999553   -6.3967518   -6.3967518   -5.6468205  -0.21210429   -6.3967518   0.74993124   439061 
 4388000   0.50035701   -6.3972749   -6.3972749   -5.6467411   -0.2142939   -6.3972749   0.75053381   439061 
 4389000   0.49995678   -6.3966899   -6.3966899   -5.6467564  -0.21151555   -6.3966899   0.74993347   439061 
 4390000   0.49959436   -6.3965165   -6.3965165   -5.6471266  -0.21287086   -6.3965165   0.74938983   439061 
 4391000   0.49906894   -6.3953154   -6.3953154   -5.6467137  -0.21304523   -6.3953154   0.74860171   439061 
 4392000   0.49925205   -6.3950852   -6.3950852   -5.6462088  -0.21167836   -6.3950852   0.74887637   439061 
 4393000   0.49964052   -6.3942452   -6.3942452   -5.6447861  -0.20897282   -6.3942452   0.74945907   439061 
 4394000   0.50024658   -6.3950966   -6.3950966   -5.6447284  -0.21078365   -6.3950966   0.75036816   439061 
 4395000   0.50094761   -6.3964002   -6.3964002   -5.6449805  -0.21504533   -6.3964002    0.7514197   439061 
 4396000   0.50000672   -6.3954303   -6.3954303    -5.645422  -0.21122615   -6.3954303   0.75000836   439061 
 4397000   0.50016018   -6.3958165   -6.3958165    -5.645578  -0.21364998   -6.3958165   0.75023856   439061 
 4398000   0.50005747   -6.3963626   -6.3963626   -5.6462781  -0.21066573   -6.3963626    0.7500845   439061 
 4399000   0.50009438   -6.3972374   -6.3972374   -5.6470976   -0.2141582   -6.3972374   0.75013987   439061 
 4400000   0.50035146    -6.397256    -6.397256   -5.6467306  -0.21334563    -6.397256   0.75052548   439061 
 4401000   0.49856015   -6.3956638   -6.3956638   -5.6478252  -0.21380713   -6.3956638   0.74783853   439061 
 4402000   0.49968331   -6.3967261   -6.3967261   -5.6472028  -0.21305228   -6.3967261   0.74952326   439061 
 4403000   0.50021589   -6.3965508   -6.3965508   -5.6462287   -0.2096709   -6.3965508   0.75032212   439061 
 4404000   0.49909912   -6.3952993   -6.3952993   -5.6466524  -0.20762313   -6.3952993   0.74864698   439061 
 4405000   0.49971054   -6.3964363   -6.3964363   -5.6468722  -0.21322896   -6.3964363    0.7495641   439061 
 4406000   0.49977599   -6.3960629   -6.3960629   -5.6464006  -0.21491832   -6.3960629   0.74966227   439061 
 4407000   0.49917582   -6.3956921   -6.3956921   -5.6469301  -0.21390162   -6.3956921   0.74876202   439061 
 4408000   0.50006512   -6.3959151   -6.3959151   -5.6458191  -0.21433796   -6.3959151   0.75009597   439061 
 4409000   0.50082282   -6.3975092   -6.3975092   -5.6462767   -0.2158156   -6.3975092   0.75123252   439061 
 4410000   0.49902419   -6.3949323   -6.3949323   -5.6463977  -0.21047829   -6.3949323   0.74853458   439061 
 4411000   0.49864532   -6.3942386   -6.3942386   -5.6462723   -0.2088495   -6.3942386   0.74796628   439061 
 4412000     0.499889   -6.3956178   -6.3956178    -5.645786  -0.21057343   -6.3956178    0.7498318   439061 
 4413000   0.49995304   -6.3961952   -6.3961952   -5.6462673  -0.21138765   -6.3961952   0.74992785   439061 
 4414000   0.50029232   -6.3967684   -6.3967684   -5.6463317  -0.21752744   -6.3967684   0.75043677   439061 
 4415000   0.49965684    -6.395737    -6.395737   -5.6462534  -0.21153839    -6.395737   0.74948355   439061 
 4416000   0.50048636   -6.3973263   -6.3973263   -5.6465985  -0.21481507   -6.3973263   0.75072784   439061 
 4417000   0.50083228   -6.3975663   -6.3975663   -5.6463196   -0.2158656   -6.3975663   0.75124671   439061 
 4418000   0.49953524   -6.3960637   -6.3960637   -5.6467625   -0.2113146   -6.3960637   0.74930115   439061 
 4419000   0.49957984   -6.3948686   -6.3948686   -5.6455005   -0.2119051   -6.3948686   0.74936805   439061 
 4420000   0.50058821   -6.3965609   -6.3965609   -5.6456803  -0.21247609   -6.3965609    0.7508806   439061 
 4421000   0.50066565    -6.396099    -6.396099   -5.6451022  -0.21164161    -6.396099   0.75099677   439061 
 4422000    0.5002119   -6.3953254   -6.3953254   -5.6450093  -0.21055028   -6.3953254   0.75031614   439061 
 4423000   0.50006854   -6.3957585   -6.3957585   -5.6456574  -0.21273259   -6.3957585   0.75010111   439061 
 4424000   0.50070183   -6.3955857   -6.3955857   -5.6445347  -0.21236834   -6.3955857   0.75105104   439061 
 4425000   0.50039903   -6.3952823   -6.3952823   -5.6446855  -0.21146115   -6.3952823   0.75059684   439061 
 4426000   0.49954502    -6.394804    -6.394804   -5.6454881  -0.21033127    -6.394804   0.74931583   439061 
 4427000   0.49938842   -6.3947555   -6.3947555   -5.6456746  -0.20850782   -6.3947555   0.74908093   439061 
 4428000   0.50035605   -6.3958647   -6.3958647   -5.6453323  -0.21119604   -6.3958647   0.75053236   439061 
 4429000    0.4998125    -6.395654    -6.395654    -5.645937  -0.21056071    -6.395654   0.74971704   439061 
 4430000   0.49944852   -6.3937001   -6.3937001   -5.6445291  -0.20876659   -6.3937001   0.74917108   439061 
 4431000   0.50005901   -6.3949328   -6.3949328    -5.644846  -0.21358851   -6.3949328   0.75008681   439061 
 4432000   0.50073317   -6.3958246   -6.3958246   -5.6447266  -0.21352319   -6.3958246   0.75109804   439061 
 4433000   0.50049553   -6.3958625   -6.3958625   -5.6451209  -0.21172289   -6.3958625   0.75074158   439061 
 4434000   0.50058456   -6.3958825   -6.3958825   -5.6450074   -0.2115754   -6.3958825   0.75087513   439061 
 4435000   0.50014799   -6.3955145   -6.3955145   -5.6452942  -0.21234698   -6.3955145   0.75022027   439061 
 4436000   0.50065663   -6.3959185   -6.3959185   -5.6449352  -0.21239575   -6.3959185   0.75098323   439061 
 4437000   0.50102646   -6.3964939   -6.3964939   -5.6449559  -0.21417715   -6.3964939   0.75153798   439061 
 4438000   0.50033445    -6.396192    -6.396192    -5.645692  -0.21315247    -6.396192   0.75049997   439061 
 4439000   0.50011573    -6.395809    -6.395809   -5.6456371  -0.21379662    -6.395809   0.75017189   439061 
 4440000   0.50068909   -6.3963151   -6.3963151   -5.6452832  -0.21143721   -6.3963151   0.75103193   439061 
 4441000   0.50060709   -6.3965168   -6.3965168   -5.6456079  -0.21249796   -6.3965168   0.75090893   439061 
 4442000   0.49998909   -6.3955849   -6.3955849   -5.6456029  -0.20990145   -6.3955849   0.74998193   439061 
 4443000   0.50000939   -6.3965487   -6.3965487   -5.6465363  -0.21480423   -6.3965487   0.75001238   439061 
 4444000   0.50050221   -6.3970546   -6.3970546    -5.646303   -0.2130734   -6.3970546   0.75075161   439061 
 4445000   0.49951339   -6.3952105   -6.3952105   -5.6459421  -0.21325487   -6.3952105   0.74926838   439061 
 4446000   0.49943235   -6.3951695   -6.3951695   -5.6460227  -0.20770257   -6.3951695   0.74914681   439061 
 4447000    0.5003938   -6.3969252   -6.3969252   -5.6463362  -0.21178787   -6.3969252   0.75058899   439061 
 4448000   0.50088347    -6.397706    -6.397706   -5.6463825  -0.21661755    -6.397706   0.75132349   439061 
 4449000   0.49939564   -6.3958335   -6.3958335   -5.6467417  -0.21001141   -6.3958335   0.74909176   439061 
 4450000   0.50040441   -6.3973813   -6.3973813   -5.6467764  -0.21624881   -6.3973813    0.7506049   439061 
 4451000   0.49945605    -6.396012    -6.396012   -5.6468296  -0.21433411    -6.396012   0.74918237   439061 
 4452000   0.49869082   -6.3948701   -6.3948701   -5.6468356  -0.20918106   -6.3948701   0.74803452   439061 
 4453000   0.49984008   -6.3961036   -6.3961036   -5.6463451  -0.20991651   -6.3961036   0.74975841   439061 
 4454000    0.5003683   -6.3961083   -6.3961083   -5.6455576  -0.21210995   -6.3961083   0.75055074   439061 
 4455000   0.49951776   -6.3959891   -6.3959891   -5.6467142  -0.21273825   -6.3959891   0.74927493   439061 
 4456000   0.49996879   -6.3956463   -6.3956463   -5.6456948  -0.21274913   -6.3956463   0.74995148   439061 
 4457000   0.49982915   -6.3961315   -6.3961315   -5.6463895  -0.21122874   -6.3961315   0.74974202   439061 
 4458000   0.49907858   -6.3953909   -6.3953909   -5.6467747   -0.2124602   -6.3953909   0.74861617   439061 
 4459000   0.50026651   -6.3965378   -6.3965378   -5.6461397  -0.20953265   -6.3965378   0.75039805   439061 
 4460000   0.49958311   -6.3954456   -6.3954456   -5.6460726  -0.21162797   -6.3954456   0.74937295   439061 
 4461000   0.50005555   -6.3958918   -6.3958918   -5.6458102  -0.20919378   -6.3958918   0.75008162   439061 
 4462000   0.49995042   -6.3953004   -6.3953004   -5.6453765  -0.21376492   -6.3953004   0.74992392   439061 
 4463000   0.49996496   -6.3950652   -6.3950652   -5.6451195  -0.21200772   -6.3950652   0.74994573   439061 
 4464000   0.49978013   -6.3944891   -6.3944891   -5.6448206  -0.21555645   -6.3944891   0.74966849   439061 
 4465000   0.50023206   -6.3952364   -6.3952364     -5.64489  -0.20718222   -6.3952364   0.75034639   439061 
 4466000   0.50050527   -6.3959257   -6.3959257   -5.6451695   -0.2111983   -6.3959257   0.75075619   439061 
 4467000   0.50058858    -6.396847    -6.396847   -5.6459658   -0.2120101    -6.396847   0.75088115   439061 
 4468000   0.49985996   -6.3954371   -6.3954371   -5.6456489  -0.21150776   -6.3954371   0.74978823   439061 
 4469000   0.50028893   -6.3968642   -6.3968642   -5.6464326  -0.21728151   -6.3968642   0.75043169   439061 
 4470000   0.50050818   -6.3974342   -6.3974342   -5.6466737  -0.21367378   -6.3974342   0.75076055   439061 
 4471000   0.49930282    -6.395341    -6.395341   -5.6463885  -0.21217111    -6.395341   0.74895252   439061 
 4472000   0.49984418   -6.3957631   -6.3957631   -5.6459986  -0.20604258   -6.3957631   0.74976456   439061 
 4473000   0.49986892    -6.396086    -6.396086   -5.6462843  -0.21056668    -6.396086   0.74980167   439061 
 4474000   0.50023625   -6.3966418   -6.3966418   -5.6462892  -0.21087913   -6.3966418   0.75035267   439061 
 4475000   0.50004549   -6.3954133   -6.3954133   -5.6453467  -0.21505551   -6.3954133   0.75006653   439061 
 4476000   0.49985529   -6.3955762   -6.3955762    -5.645795  -0.21190326   -6.3955762   0.74978123   439061 
 4477000   0.49978718   -6.3953828   -6.3953828   -5.6457038  -0.21349841   -6.3953828   0.74967906   439061 
 4478000   0.49988496   -6.3958743   -6.3958743   -5.6460485  -0.21104515   -6.3958743   0.74982573   439061 
 4479000   0.50040652   -6.3964508   -6.3964508   -5.6458428  -0.21326204   -6.3964508   0.75060806   439061 
 4480000    0.4994548   -6.3944234   -6.3944234   -5.6452429  -0.20772484   -6.3944234    0.7491805   439061 
 4481000   0.49955065    -6.394707    -6.394707   -5.6453828   -0.2124089    -6.394707   0.74932427   439061 
 4482000   0.49900254   -6.3955105   -6.3955105   -5.6470084  -0.21627958   -6.3955105   0.74850211   439061 
 4483000   0.49975512   -6.3964314   -6.3964314   -5.6468004  -0.21430969   -6.3964314   0.74963097   439061 
 4484000    0.5001599   -6.3960706   -6.3960706   -5.6458324  -0.20970919   -6.3960706   0.75023814   439061 
 4485000   0.50062776   -6.3974017   -6.3974017   -5.6464618  -0.21104716   -6.3974017   0.75093993   439061 
 4486000   0.49944681   -6.3955504   -6.3955504   -5.6463819  -0.20987294   -6.3955504   0.74916851   439061 
 4487000   0.50097366   -6.3968128   -6.3968128   -5.6453541  -0.21644429   -6.3968128   0.75145878   439061 
 4488000   0.49992181   -6.3951736   -6.3951736   -5.6452926  -0.21306924   -6.3951736   0.74988101   439061 
 4489000   0.50016016   -6.3964142   -6.3964142   -5.6461757   -0.2143034   -6.3964142   0.75023854   439061 
 4490000   0.50001364   -6.3961039   -6.3961039   -5.6460852   -0.2140781   -6.3961039   0.75001875   439061 
 4491000    0.4998824   -6.3953598   -6.3953598   -5.6455379  -0.20845245   -6.3953598    0.7498219   439061 
 4492000   0.50126613   -6.3965597   -6.3965597   -5.6446622   -0.2111014   -6.3965597   0.75189749   439061 
 4493000   0.50001832   -6.3944622   -6.3944622   -5.6444364  -0.20727589   -6.3944622   0.75002578   439061 
 4494000   0.50014847    -6.395141    -6.395141     -5.64492  -0.21425426    -6.395141     0.750221   439061 
 4495000   0.49981173   -6.3949848   -6.3949848   -5.6452689  -0.21550287   -6.3949848   0.74971588   439061 
 4496000   0.50017644   -6.3942637   -6.3942637   -5.6440008  -0.20998025   -6.3942637   0.75026294   439061 
 4497000   0.50042127   -6.3956709   -6.3956709   -5.6450408  -0.21167712   -6.3956709   0.75063019   439061 
 4498000   0.49943075   -6.3945387   -6.3945387   -5.6453942  -0.20558533   -6.3945387   0.74914442   439061 
 4499000   0.50071479   -6.3970713   -6.3970713   -5.6460009  -0.21173039   -6.3970713   0.75107047   439061 
 4500000   0.50046536   -6.3959692   -6.3959692   -5.6452729  -0.21137356   -6.3959692   0.75069633   439061 
 4501000   0.49984903   -6.3946446   -6.3946446   -5.6448728  -0.21415862   -6.3946446   0.74977183   439061 
 4502000   0.50025383   -6.3952421   -6.3952421   -5.6448631  -0.21636818   -6.3952421   0.75037904   439061 
 4503000   0.50034553   -6.3954082   -6.3954082   -5.6448916  -0.21126015   -6.3954082   0.75051659   439061 
 4504000   0.50015507   -6.3950897   -6.3950897   -5.6448589  -0.20977007   -6.3950897   0.75023089   439061 
 4505000   0.50054115   -6.3949561   -6.3949561    -5.644146  -0.20555082   -6.3949561   0.75081001   439061 
 4506000   0.49973671   -6.3945083   -6.3945083    -5.644905  -0.20823121   -6.3945083   0.74960336   439061 
 4507000   0.49979079   -6.3951917   -6.3951917   -5.6455072  -0.21243041   -6.3951917   0.74968447   439061 
 4508000   0.50058197   -6.3957085   -6.3957085   -5.6448372  -0.21555583   -6.3957085   0.75087125   439061 
 4509000   0.50087226   -6.3966405   -6.3966405   -5.6453338  -0.21101609   -6.3966405   0.75130668   439061 
 4510000   0.49901327   -6.3944096   -6.3944096   -5.6458914   -0.2102834   -6.3944096    0.7485182   439061 
 4511000   0.50004979   -6.3966776   -6.3966776   -5.6466047  -0.21040951   -6.3966776   0.75007298   439061 
 4512000   0.49991082   -6.3962783   -6.3962783   -5.6464137   -0.2131067   -6.3962783   0.74986452   439061 
 4513000   0.50007454   -6.3967417   -6.3967417   -5.6466316  -0.21153119   -6.3967417    0.7501101   439061 
 4514000   0.49992195   -6.3957063   -6.3957063   -5.6458251  -0.21206625   -6.3957063   0.74988121   439061 
 4515000   0.50101362   -6.3966769   -6.3966769   -5.6451582  -0.21472466   -6.3966769   0.75151872   439061 
 4516000   0.50009233   -6.3956835   -6.3956835   -5.6455468  -0.21253149   -6.3956835   0.75013678   439061 
 4517000   0.50033066   -6.3959788   -6.3959788   -5.6454845  -0.21227014   -6.3959788   0.75049428   439061 
 4518000   0.50020568   -6.3955603   -6.3955603   -5.6452535  -0.21097692   -6.3955603    0.7503068   439061 
 4519000   0.49965093   -6.3954175   -6.3954175   -5.6459428  -0.21116917   -6.3954175   0.74947469   439061 
 4520000   0.49972783    -6.396314    -6.396314    -5.646724  -0.21282542    -6.396314   0.74959004   439061 
 4521000   0.50054209   -6.3965606   -6.3965606   -5.6457491  -0.21480343   -6.3965606   0.75081142   439061 
 4522000   0.49965593   -6.3954495   -6.3954495   -5.6459673  -0.20766567   -6.3954495   0.74948219   439061 
 4523000   0.50037787   -6.3970587   -6.3970587   -5.6464936  -0.21563758   -6.3970587    0.7505651   439061 
 4524000   0.49991214   -6.3961978   -6.3961978   -5.6463313  -0.21104282   -6.3961978   0.74986651   439061 
 4525000   0.49939754   -6.3955272   -6.3955272   -5.6464326  -0.21377379   -6.3955272   0.74909461   439061 
 4526000   0.50042502   -6.3969326   -6.3969326   -5.6462968  -0.21314745   -6.3969326   0.75063583   439061 
 4527000   0.50072524   -6.3970443   -6.3970443   -5.6459581  -0.21439948   -6.3970443   0.75108615   439061 
 4528000   0.49962718   -6.3953272   -6.3953272   -5.6458881  -0.20907375   -6.3953272   0.74943906   439061 
 4529000   0.50055547   -6.3976152   -6.3976152   -5.6467837  -0.21564881   -6.3976152    0.7508315   439061 
 4530000   0.50055944    -6.396991    -6.396991   -5.6461535  -0.21321243    -6.396991   0.75083746   439061 
 4531000      0.50016   -6.3962358   -6.3962358   -5.6459975  -0.21146013   -6.3962358   0.75023829   439061 
 4532000   0.50022256   -6.3967478   -6.3967478   -5.6464157  -0.21501161   -6.3967478   0.75033213   439061 
 4533000    0.4996131   -6.3960242   -6.3960242   -5.6466063  -0.21348215   -6.3960242   0.74941794   439061 
 4534000   0.50100803   -6.3973963   -6.3973963    -5.645886  -0.21496419   -6.3973963   0.75151033   439061 
 4535000   0.50034033   -6.3957414   -6.3957414   -5.6452326  -0.20833965   -6.3957414   0.75050879   439061 
 4536000    0.5007166   -6.3960422   -6.3960422    -5.644969  -0.20941577   -6.3960422   0.75107319   439061 
 4537000     0.500342   -6.3959789   -6.3959789   -5.6454676  -0.21182212   -6.3959789   0.75051129   439061 
 4538000   0.50055716   -6.3951291   -6.3951291    -5.644295  -0.21399505   -6.3951291   0.75083403   439061 
 4539000   0.50035055   -6.3955093   -6.3955093   -5.6449852  -0.21527178   -6.3955093   0.75052411   439061 
 4540000   0.49988887   -6.3948833   -6.3948833   -5.6450517  -0.21500294   -6.3948833    0.7498316   439061 
 4541000   0.50122474   -6.3970396   -6.3970396   -5.6452042  -0.21551396   -6.3970396    0.7518354   439061 
 4542000   0.50002851   -6.3961228   -6.3961228   -5.6460818   -0.2086036   -6.3961228   0.75004106   439061 
 4543000   0.49990499   -6.3960521   -6.3960521   -5.6461963  -0.20683573   -6.3960521   0.74985577   439061 
 4544000   0.49995305   -6.3955014   -6.3955014   -5.6455736  -0.21139105   -6.3955014   0.74992787   439061 
 4545000   0.49924423   -6.3961252   -6.3961252   -5.6472605  -0.21424624   -6.3961252   0.74886464   439061 
 4546000   0.49878232   -6.3949706   -6.3949706   -5.6467988  -0.21652747   -6.3949706   0.74817178   439061 
 4547000   0.50090816   -6.3975107   -6.3975107   -5.6461502  -0.21534295   -6.3975107   0.75136053   439061 
 4548000   0.50001539   -6.3964856   -6.3964856   -5.6464642  -0.21229203   -6.3964856   0.75002138   439061 
 4549000   0.50047845   -6.3967575   -6.3967575   -5.6460415  -0.20924415   -6.3967575   0.75071596   439061 
 4550000   0.49987759   -6.3965889   -6.3965889   -5.6467742  -0.21360571   -6.3965889   0.74981468   439061 
 4551000   0.49883629   -6.3949308   -6.3949308   -5.6466781  -0.20936696   -6.3949308   0.74825273   439061 
 4552000   0.49941358    -6.395916    -6.395916   -5.6467973  -0.21483541    -6.395916   0.74911867   439061 
 4553000   0.49969002   -6.3967876   -6.3967876   -5.6472543  -0.21588967   -6.3967876   0.74953332   439061 
 4554000   0.49992983   -6.3966597   -6.3966597   -5.6467667   -0.2109459   -6.3966597   0.74989303   439061 
 4555000   0.50097172   -6.3971158   -6.3971158     -5.64566  -0.21219461   -6.3971158   0.75145587   439061 
 4556000   0.50021924   -6.3963688   -6.3963688   -5.6460417  -0.21176584   -6.3963688   0.75032715   439061 
 4557000   0.49966598   -6.3950303   -6.3950303    -5.645533  -0.21298546   -6.3950303   0.74949726   439061 
 4558000   0.50034262   -6.3958767   -6.3958767   -5.6453644  -0.21546192   -6.3958767   0.75051222   439061 
 4559000   0.50020481    -6.395272    -6.395272   -5.6449665  -0.21179667    -6.395272   0.75030551   439061 
 4560000   0.50066509   -6.3952557   -6.3952557   -5.6442598  -0.20944406   -6.3952557   0.75099592   439061 
 4561000   0.50105181    -6.395938    -6.395938    -5.644362  -0.21051809    -6.395938     0.751576   439061 
 4562000   0.50101709   -6.3959429   -6.3959429    -5.644419  -0.21385279   -6.3959429   0.75152392   439061 
 4563000   0.49968595   -6.3941647   -6.3941647   -5.6446375  -0.21294673   -6.3941647   0.74952722   439061 
 4564000   0.50029252   -6.3946646   -6.3946646   -5.6442275   -0.2144482   -6.3946646   0.75043706   439061 
 4565000   0.50090604   -6.3955082   -6.3955082   -5.6441508  -0.21102978   -6.3955082   0.75135735   439061 
 4566000   0.50115382   -6.3949251   -6.3949251   -5.6431961  -0.20885274   -6.3949251   0.75172901   439061 
 4567000   0.50176379   -6.3951581   -6.3951581   -5.6425141  -0.20751468   -6.3951581   0.75264397   439061 
 4568000   0.50167294   -6.3950698   -6.3950698   -5.6425621  -0.21193758   -6.3950698    0.7525077   439061 
 4569000   0.50011965   -6.3931977   -6.3931977   -5.6430199  -0.21302271   -6.3931977   0.75017777   439061 
 4570000    0.5005652   -6.3942337   -6.3942337   -5.6433876  -0.21242783   -6.3942337   0.75084609   439061 
 4571000   0.50028924   -6.3931482   -6.3931482    -5.642716   -0.2093611   -6.3931482   0.75043215   439061 
 4572000   0.50124874   -6.3956834   -6.3956834    -5.643812  -0.21138671   -6.3956834    0.7518714   439061 
 4573000   0.49982133   -6.3942379   -6.3942379   -5.6445076  -0.21043214   -6.3942379   0.74973028   439061 
 4574000   0.50004666   -6.3952232   -6.3952232   -5.6451549  -0.21206813   -6.3952232   0.75006829   439061 
 4575000   0.50074206   -6.3958279   -6.3958279   -5.6447165  -0.21269404   -6.3958279   0.75111137   439061 
 4576000    0.5009603   -6.3954395   -6.3954395   -5.6440007  -0.21243458   -6.3954395   0.75143874   439061 
 4577000   0.50085757   -6.3941636   -6.3941636    -5.642879  -0.20893584   -6.3941636   0.75128464   439061 
 4578000   0.50094884   -6.3945543   -6.3945543   -5.6431328  -0.21221574   -6.3945543   0.75142155   439061 
 4579000   0.50039642   -6.3948906   -6.3948906   -5.6442977  -0.21276089   -6.3948906   0.75059293   439061 
 4580000   0.50038515   -6.3942259   -6.3942259   -5.6436499   -0.2109184   -6.3942259   0.75057601   439061 
 4581000   0.50066057   -6.3948122   -6.3948122   -5.6438231  -0.21001121   -6.3948122   0.75098914   439061 
 4582000   0.50023045   -6.3949867   -6.3949867   -5.6446427  -0.21048629   -6.3949867   0.75034397   439061 
 4583000   0.50000941   -6.3949772   -6.3949772   -5.6449648  -0.20644905   -6.3949772   0.75001241   439061 
 4584000   0.50084226   -6.3952848   -6.3952848   -5.6440231  -0.21099702   -6.3952848   0.75126167   439061 
 4585000   0.50102367   -6.3957711   -6.3957711   -5.6442373  -0.20948265   -6.3957711    0.7515338   439061 
 4586000   0.49981798   -6.3947195   -6.3947195   -5.6449942  -0.21573535   -6.3947195   0.74972526   439061 
 4587000    0.5006365   -6.3956478   -6.3956478   -5.6446948  -0.21333666   -6.3956478   0.75095304   439061 
 4588000   0.50037188   -6.3957838   -6.3957838   -5.6452277  -0.21289702   -6.3957838    0.7505561   439061 
 4589000    0.5005632   -6.3953433   -6.3953433   -5.6445002  -0.20805749   -6.3953433   0.75084309   439061 
 4590000   0.50082962   -6.3964095   -6.3964095   -5.6451668  -0.20910041   -6.3964095   0.75124272   439061 
 4591000   0.50035244   -6.3954421   -6.3954421   -5.6449151  -0.21254247   -6.3954421   0.75052695   439061 
 4592000   0.50022661   -6.3953389   -6.3953389   -5.6450007  -0.21399496   -6.3953389    0.7503382   439061 
 4593000    0.5009216    -6.395291    -6.395291   -5.6439103  -0.21433508    -6.395291    0.7513807   439061 
 4594000   0.50066492   -6.3948867   -6.3948867   -5.6438911  -0.20668366   -6.3948867   0.75099567   439061 
 4595000   0.50063557    -6.394861    -6.394861   -5.6439093  -0.20906539    -6.394861   0.75095165   439061 
 4596000   0.50114086   -6.3955663   -6.3955663   -5.6438567  -0.20948396   -6.3955663   0.75170958   439061 
 4597000   0.50064574   -6.3943938   -6.3943938   -5.6434269  -0.21025723   -6.3943938    0.7509669   439061 
 4598000   0.50079431   -6.3946185   -6.3946185   -5.6434288  -0.21043315   -6.3946185   0.75118975   439061 
 4599000   0.50009635   -6.3943194   -6.3943194   -5.6441765  -0.21202249   -6.3943194   0.75014281   439061 
 4600000    0.5007976   -6.3947666   -6.3947666   -5.6435719  -0.21154196   -6.3947666   0.75119468   439061 
 4601000   0.50053945   -6.3956691   -6.3956691   -5.6448617  -0.21196545   -6.3956691   0.75080747   439061 
 4602000   0.50103581   -6.3971684   -6.3971684   -5.6456164  -0.21160767   -6.3971684     0.751552   439061 
 4603000   0.50030332   -6.3955954   -6.3955954   -5.6451422  -0.20876219   -6.3955954   0.75045326   439061 
 4604000   0.49984033   -6.3952146   -6.3952146   -5.6454558  -0.21101083   -6.3952146   0.74975879   439061 
 4605000   0.50007024   -6.3959523   -6.3959523   -5.6458487   -0.2112109   -6.3959523   0.75010365   439061 
 4606000   0.49996384   -6.3950574   -6.3950574   -5.6451134  -0.21193625   -6.3950574   0.74994405   439061 
 4607000   0.50022699   -6.3949657   -6.3949657   -5.6446269  -0.20576164   -6.3949657   0.75033878   439061 
 4608000   0.50041103   -6.3948228   -6.3948228    -5.644208  -0.20867207   -6.3948228   0.75061483   439061 
 4609000    0.5008557   -6.3960897   -6.3960897   -5.6448079   -0.2102952   -6.3960897   0.75128183   439061 
 4610000   0.50125873   -6.3964178   -6.3964178   -5.6445314  -0.21442453   -6.3964178   0.75188639   439061 
 4611000   0.50063149   -6.3955078   -6.3955078   -5.6445622  -0.21025429   -6.3955078   0.75094553   439061 
 4612000   0.49970119   -6.3943902   -6.3943902   -5.6448401  -0.21081933   -6.3943902   0.74955008   439061 
 4613000   0.50053629   -6.3955717   -6.3955717   -5.6447689  -0.20890201   -6.3955717   0.75080272   439061 
 4614000   0.50135901    -6.396849    -6.396849   -5.6448122  -0.21387868    -6.396849    0.7520368   439061 
 4615000   0.50080942   -6.3955921   -6.3955921   -5.6443797  -0.20618186   -6.3955921   0.75121243   439061 
 4616000     0.499983   -6.3940195   -6.3940195   -5.6440467  -0.20916663   -6.3940195   0.74997279   439061 
 4617000   0.50161027   -6.3968833   -6.3968833   -5.6444696  -0.21578266   -6.3968833   0.75241369   439061 
 4618000   0.49996967   -6.3947678   -6.3947678    -5.644815   -0.2155505   -6.3947678   0.74995279   439061 
 4619000   0.50039901   -6.3953877   -6.3953877   -5.6447909  -0.21182269   -6.3953877    0.7505968   439061 
 4620000   0.50110548   -6.3964728   -6.3964728   -5.6448163  -0.20955195   -6.3964728   0.75165651   439061 
 4621000   0.50101318   -6.3951345   -6.3951345   -5.6436164  -0.20946268   -6.3951345   0.75151806   439061 
 4622000   0.50039625   -6.3948386   -6.3948386   -5.6442459  -0.20727188   -6.3948386   0.75059267   439061 
 4623000   0.49913618    -6.392619    -6.392619   -5.6439164  -0.21097271    -6.392619   0.74870256   439061 
 4624000   0.50012139   -6.3945422   -6.3945422   -5.6443618  -0.21228206   -6.3945422   0.75018037   439061 
 4625000   0.50113953   -6.3963115   -6.3963115   -5.6446039   -0.2169977   -6.3963115   0.75170759   439061 
 4626000   0.50033502   -6.3948711   -6.3948711   -5.6443703  -0.20693214   -6.3948711   0.75050083   439061 
 4627000   0.50023466    -6.394633    -6.394633   -5.6442827  -0.20793637    -6.394633   0.75035027   439061 
 4628000   0.50065327   -6.3957722   -6.3957722    -5.644794  -0.21081157   -6.3957722    0.7509782   439061 
 4629000   0.49987585   -6.3948945   -6.3948945   -5.6450824  -0.21341392   -6.3948945   0.74981206   439061 
 4630000   0.50024309   -6.3942207   -6.3942207   -5.6438577  -0.21236081   -6.3942207   0.75036293   439061 
 4631000   0.50060406   -6.3952382   -6.3952382   -5.6443338  -0.21116974   -6.3952382   0.75090438   439061 
 4632000   0.50070053   -6.3959062   -6.3959062   -5.6448571  -0.21003257   -6.3959062   0.75104909   439061 
 4633000   0.49993271   -6.3954806   -6.3954806   -5.6455832  -0.20693577   -6.3954806   0.74989735   439061 
 4634000   0.50072123   -6.3969186   -6.3969186   -5.6458385  -0.21154189   -6.3969186   0.75108013   439061 
 4635000   0.49937336    -6.396214    -6.396214   -5.6471557  -0.20984513    -6.396214   0.74905833   439061 
 4636000   0.49990573   -6.3967956   -6.3967956   -5.6469387  -0.21579214   -6.3967956   0.74985688   439061 
 4637000   0.50033431   -6.3973687   -6.3973687   -5.6468689  -0.21604779   -6.3973687   0.75049976   439061 
 4638000   0.50035656    -6.397419    -6.397419   -5.6468859  -0.21820448    -6.397419   0.75053313   439061 
 4639000   0.50041178   -6.3972188   -6.3972188   -5.6466028  -0.20804756   -6.3972188   0.75061596   439061 
 4640000   0.49967186    -6.396238    -6.396238   -5.6467319  -0.21000537    -6.396238   0.74950608   439061 
 4641000   0.49966053   -6.3965262   -6.3965262   -5.6470371  -0.21199972   -6.3965262   0.74948909   439061 
 4642000   0.50053036   -6.3971005   -6.3971005   -5.6463067  -0.21857311   -6.3971005   0.75079383   439061 
 4643000   0.50006688   -6.3961511   -6.3961511   -5.6460525  -0.21296572   -6.3961511   0.75009861   439061 
 4644000   0.50034646   -6.3963517   -6.3963517   -5.6458337  -0.21334016   -6.3963517   0.75051798   439061 
 4645000   0.50060893   -6.3966394   -6.3966394   -5.6457277  -0.21289008   -6.3966394   0.75091169   439061 
 4646000   0.50038591   -6.3957782   -6.3957782   -5.6452011  -0.20896895   -6.3957782   0.75057715   439061 
 4647000   0.50047641   -6.3957551   -6.3957551   -5.6450422  -0.21177509   -6.3957551    0.7507129   439061 
 4648000    0.4992899   -6.3939301   -6.3939301    -5.644997  -0.21111608   -6.3939301   0.74893314   439061 
 4649000   0.50001759   -6.3948489   -6.3948489   -5.6448242  -0.21517064   -6.3948489   0.75002468   439061 
 4650000   0.50012051   -6.3952888   -6.3952888   -5.6451098  -0.21351223   -6.3952888   0.75017906   439061 
 4651000   0.49980572   -6.3942067   -6.3942067   -5.6444999  -0.21020766   -6.3942067   0.74970687   439061 
 4652000    0.5007166   -6.3963965   -6.3963965   -5.6453233  -0.20958683   -6.3963965   0.75107318   439061 
 4653000   0.50033755   -6.3957136   -6.3957136    -5.645209  -0.21103666   -6.3957136   0.75050462   439061 
 4654000   0.50036962   -6.3955477   -6.3955477    -5.644995   -0.2118702   -6.3955477   0.75055271   439061 
 4655000   0.50028545   -6.3952738   -6.3952738   -5.6448473  -0.21292797   -6.3952738   0.75042646   439061 
 4656000   0.50088766   -6.3963761   -6.3963761   -5.6450464  -0.21638999   -6.3963761   0.75132977   439061 
 4657000   0.50027045   -6.3948675   -6.3948675   -5.6444635  -0.21248581   -6.3948675   0.75040396   439061 
 4658000   0.50103103   -6.3955693   -6.3955693   -5.6440245  -0.20860102   -6.3955693   0.75154483   439061 
 4659000    0.5003613   -6.3952261   -6.3952261   -5.6446858   -0.2091551   -6.3952261   0.75054024   439061 
 4660000   0.50037952   -6.3962051   -6.3962051   -5.6456376  -0.20996988   -6.3962051   0.75056757   439061 
 4661000   0.49966165     -6.39479     -6.39479   -5.6452992   -0.2121935     -6.39479   0.74949076   439061 
 4662000   0.49899237   -6.3943043   -6.3943043   -5.6458175  -0.20920028   -6.3943043   0.74848686   439061 
 4663000   0.49962203   -6.3952774   -6.3952774   -5.6458461  -0.21273447   -6.3952774   0.74943134   439061 
 4664000   0.50029306   -6.3965399   -6.3965399    -5.646102  -0.21381653   -6.3965399   0.75043788   439061 
 4665000   0.50030517   -6.3959183   -6.3959183   -5.6454622  -0.20903641   -6.3959183   0.75045605   439061 
 4666000   0.50052486   -6.3952292   -6.3952292   -5.6444436   -0.2087841   -6.3952292   0.75078559   439061 
 4667000   0.50077893   -6.3955152   -6.3955152   -5.6443485  -0.20822612   -6.3955152   0.75116669   439061 
 4668000   0.49980896    -6.393835    -6.393835   -5.6441233  -0.21224992    -6.393835   0.74971173   439061 
 4669000   0.50033777   -6.3942119   -6.3942119    -5.643707  -0.21344205   -6.3942119   0.75050494   439061 
 4670000   0.50016217   -6.3953572   -6.3953572   -5.6451156  -0.21562478   -6.3953572   0.75024155   439061 
 4671000   0.50107126   -6.3965359   -6.3965359   -5.6449307  -0.21079845   -6.3965359   0.75160518   439061 
 4672000   0.50077821   -6.3958579   -6.3958579   -5.6446923  -0.20715972   -6.3958579    0.7511656   439061 
 4673000   0.50067879   -6.3956772   -6.3956772   -5.6446607  -0.20702678   -6.3956772   0.75101647   439061 
 4674000   0.50035587   -6.3960684   -6.3960684   -5.6455363  -0.21172652   -6.3960684    0.7505321   439061 
 4675000   0.49999455   -6.3955375   -6.3955375   -5.6455473  -0.21630609   -6.3955375   0.74999012   439061 
 4676000   0.50059034   -6.3965324   -6.3965324   -5.6456486  -0.21497234   -6.3965324    0.7508838   439061 
 4677000   0.49983877   -6.3954155   -6.3954155    -5.645659  -0.20896591   -6.3954155   0.74975645   439061 
 4678000   0.50031666   -6.3957556   -6.3957556   -5.6452823  -0.20826296   -6.3957556   0.75047329   439061 
 4679000   0.50077772   -6.3965939   -6.3965939    -5.645429  -0.20727564   -6.3965939   0.75116487   439061 
 4680000   0.50090649   -6.3967829   -6.3967829   -5.6454249  -0.21348957   -6.3967829   0.75135802   439061 
 4681000   0.50128797   -6.3969761   -6.3969761   -5.6450459   -0.2115869   -6.3969761   0.75193025   439061 
 4682000   0.50077732   -6.3955943   -6.3955943     -5.64443  -0.21472073   -6.3955943   0.75116426   439061 
 4683000   0.50090255   -6.3961901   -6.3961901    -5.644838  -0.21389019   -6.3961901   0.75135211   439061 
 4684000   0.50078037   -6.3964653   -6.3964653   -5.6452965  -0.21429327   -6.3964653   0.75116885   439061 
 4685000   0.50041202   -6.3962675   -6.3962675   -5.6456512  -0.20978271   -6.3962675   0.75061632   439061 
 4686000   0.50031122   -6.3958059   -6.3958059   -5.6453408  -0.20952627   -6.3958059   0.75046512   439061 
 4687000   0.49946281   -6.3953063   -6.3953063   -5.6461138  -0.20843449   -6.3953063   0.74919251   439061 
 4688000   0.50002812   -6.3963383   -6.3963383   -5.6462979  -0.21339239   -6.3963383   0.75004048   439061 
 4689000   0.49967295   -6.3964109   -6.3964109   -5.6469031  -0.21298889   -6.3964109   0.74950772   439061 
 4690000   0.50014527   -6.3974564   -6.3974564   -5.6472402  -0.21304271   -6.3974564    0.7502162   439061 
 4691000   0.49933061    -6.396213    -6.396213   -5.6472188  -0.21207938    -6.396213   0.74899421   439061 
 4692000   0.49972275    -6.397525    -6.397525   -5.6479425  -0.21031104    -6.397525   0.74958242   439061 
 4693000   0.50004088   -6.3980099   -6.3980099   -5.6479502  -0.21318241   -6.3980099   0.75005961   439061 
 4694000   0.50022347   -6.3969222   -6.3969222   -5.6465887  -0.21214244   -6.3969222    0.7503335   439061 
 4695000   0.50034774   -6.3972406   -6.3972406   -5.6467207  -0.21562446   -6.3972406    0.7505199   439061 
 4696000   0.49941736    -6.396018    -6.396018   -5.6468937  -0.21553471    -6.396018   0.74912434   439061 
 4697000   0.50016248   -6.3963804   -6.3963804   -5.6461384  -0.21285958   -6.3963804   0.75024202   439061 
 4698000   0.49913828   -6.3960802   -6.3960802   -5.6473745  -0.21051185   -6.3960802   0.74870571   439061 
 4699000   0.49938016   -6.3972383   -6.3972383   -5.6481697   -0.2099127   -6.3972383   0.74906854   439061 
 4700000   0.50028505   -6.3983149   -6.3983149    -5.647889  -0.21102283   -6.3983149   0.75042586   439061 
 4701000   0.49985198   -6.3972973   -6.3972973    -5.647521  -0.21108655   -6.3972973   0.74977626   439061 
 4702000   0.49950051    -6.397125    -6.397125    -5.647876  -0.21428773    -6.397125   0.74924905   439061 
 4703000   0.49896105   -6.3963273   -6.3963273   -5.6478874  -0.21566639   -6.3963273   0.74843987   439061 
 4704000   0.49866361   -6.3968226   -6.3968226   -5.6488289  -0.21660692   -6.3968226   0.74799371   439061 
 4705000   0.49909648   -6.3981487   -6.3981487   -5.6495057  -0.21271156   -6.3981487   0.74864302   439061 
 4706000   0.50005715   -6.3989613   -6.3989613   -5.6488773  -0.20968818   -6.3989613   0.75008401   439061 
 4707000   0.50049556    -6.399087    -6.399087   -5.6483453      -0.2114    -6.399087   0.75074162   439061 
 4708000   0.49919225   -6.3978431   -6.3978431   -5.6490565   -0.2117634   -6.3978431   0.74878667   439061 
 4709000   0.49835888   -6.3973021   -6.3973021   -5.6497654  -0.21815649   -6.3973021   0.74753662   439061 
 4710000   0.49891969   -6.3968385   -6.3968385   -5.6484607  -0.21406372   -6.3968385   0.74837783   439061 
 4711000   0.49973463   -6.3978739   -6.3978739   -5.6482736  -0.21566502   -6.3978739   0.74960024   439061 
 4712000   0.50009383   -6.3985614   -6.3985614   -5.6484224  -0.21157145   -6.3985614   0.75013903   439061 
 4713000   0.49986908   -6.3981542   -6.3981542   -5.6483523  -0.20932074   -6.3981542   0.74980191   439061 
 4714000   0.49957314   -6.3979191   -6.3979191   -5.6485611  -0.21179639   -6.3979191   0.74935801   439061 
 4715000   0.49931978   -6.3982498   -6.3982498   -5.6492718  -0.21593935   -6.3982498   0.74897796   439061 
 4716000   0.49937907   -6.3977981   -6.3977981   -5.6487312  -0.21827381   -6.3977981    0.7490669   439061 
 4717000   0.49862055   -6.3963122   -6.3963122   -5.6483831  -0.20985304   -6.3963122   0.74792913   439061 
 4718000   0.49983302   -6.3982672   -6.3982672   -5.6485194  -0.21648387   -6.3982672   0.74974782   439061 
 4719000   0.50019333   -6.3992697   -6.3992697   -5.6489814  -0.21194182   -6.3992697   0.75028829   439061 
 4720000   0.50084252   -6.3995914   -6.3995914   -5.6483293  -0.21236333   -6.3995914   0.75126207   439061 
 4721000   0.49996857   -6.3978078   -6.3978078   -5.6478567  -0.21167737   -6.3978078   0.74995115   439061 
 4722000    0.4998209   -6.3976181   -6.3976181   -5.6478885   -0.2181394   -6.3976181   0.74972965   439061 
 4723000   0.49933148   -6.3962245   -6.3962245    -5.647229  -0.21501827   -6.3962245   0.74899551   439061 
 4724000   0.49952286   -6.3967277   -6.3967277   -5.6474451  -0.21400652   -6.3967277   0.74928258   439061 
 4725000   0.50020161    -6.397483    -6.397483   -5.6471823  -0.21007767    -6.397483    0.7503007   439061 
 4726000   0.50112101   -6.3982864   -6.3982864   -5.6466066   -0.2091596   -6.3982864    0.7516798   439061 
 4727000   0.50014639   -6.3973748   -6.3973748   -5.6471569  -0.21034737   -6.3973748   0.75021788   439061 
 4728000   0.49941747   -6.3961141   -6.3961141   -5.6469895  -0.21148569   -6.3961141    0.7491245   439061 
 4729000   0.49922283   -6.3964429   -6.3964429   -5.6476104  -0.21265097   -6.3964429   0.74883253   439061 
 4730000   0.49961767   -6.3965179   -6.3965179   -5.6470931  -0.21741925   -6.3965179    0.7494248   439061 
 4731000   0.50031014   -6.3973925   -6.3973925    -5.646929  -0.21261169   -6.3973925    0.7504635   439061 
 4732000   0.49994032   -6.3968816   -6.3968816   -5.6469728  -0.21317789   -6.3968816   0.74990878   439061 
 4733000   0.49983664   -6.3969705   -6.3969705   -5.6472172  -0.20778528   -6.3969705   0.74975325   439061 
 4734000    0.4997121   -6.3973107   -6.3973107   -5.6477443  -0.21312901   -6.3973107   0.74956645   439061 
 4735000   0.49983899   -6.3976201   -6.3976201   -5.6478633  -0.21517788   -6.3976201   0.74975678   439061 
 4736000   0.50015408    -6.397831    -6.397831   -5.6476016  -0.21822303    -6.397831   0.75022942   439061 
 4737000   0.49984428   -6.3965606   -6.3965606   -5.6467959  -0.21219486   -6.3965606   0.74976471   439061 
 4738000   0.49979935   -6.3975831   -6.3975831   -5.6478858  -0.21056076   -6.3975831   0.74969732   439061 
 4739000   0.49962322   -6.3969092   -6.3969092   -5.6474761  -0.20858732   -6.3969092   0.74943312   439061 
 4740000   0.49986903   -6.3978669   -6.3978669    -5.648065  -0.21406211   -6.3978669   0.74980184   439061 
 4741000   0.49890353   -6.3969105   -6.3969105   -5.6485569   -0.2155955   -6.3969105    0.7483536   439061 
 4742000   0.49860808   -6.3969706   -6.3969706   -5.6490602  -0.21307193   -6.3969706   0.74791042   439061 
 4743000   0.49873612   -6.3971642   -6.3971642   -5.6490617  -0.21558396   -6.3971642   0.74810248   439061 
 4744000   0.50009315   -6.3989468   -6.3989468   -5.6488088  -0.20989758   -6.3989468   0.75013801   439061 
 4745000   0.49904107    -6.397675    -6.397675   -5.6491151  -0.21067186    -6.397675   0.74855991   439061 
 4746000   0.49948476   -6.3982389   -6.3982389   -5.6490135  -0.20911108   -6.3982389   0.74922543   439061 
 4747000   0.49877354   -6.3972412   -6.3972412   -5.6490826    -0.216218   -6.3972412   0.74815861   439061 
 4748000   0.50030139   -6.3985423   -6.3985423    -5.648092  -0.21439239   -6.3985423   0.75045038   439061 
 4749000   0.49951979   -6.3971343   -6.3971343   -5.6478563  -0.21403383   -6.3971343   0.74927798   439061 
 4750000    0.5001022   -6.3972007   -6.3972007   -5.6470491  -0.20936082   -6.3972007   0.75015159   439061 
 4751000   0.49995932   -6.3977393   -6.3977393    -5.647802  -0.21373562   -6.3977393   0.74993726   439061 
 4752000   0.49924356   -6.3977119   -6.3977119   -5.6488483  -0.21284024   -6.3977119   0.74886363   439061 
 4753000   0.49930236   -6.3978266   -6.3978266   -5.6488748  -0.21351872   -6.3978266   0.74895184   439061 
 4754000   0.49908653   -6.3969012   -6.3969012   -5.6482732  -0.21243751   -6.3969012   0.74862808   439061 
 4755000   0.49992013   -6.3984564   -6.3984564   -5.6485779  -0.21253568   -6.3984564   0.74987849   439061 
 4756000    0.4989974   -6.3975362   -6.3975362   -5.6490418  -0.21121558   -6.3975362   0.74849439   439061 
 4757000    0.4994299   -6.3980622   -6.3980622   -5.6489191  -0.21172227   -6.3980622   0.74914314   439061 
 4758000   0.49869429   -6.3967405   -6.3967405   -5.6487008    -0.217048   -6.3967405   0.74803973   439061 
 4759000   0.50007179   -6.3973199   -6.3973199   -5.6472139  -0.21249093   -6.3973199   0.75010597   439061 
 4760000   0.49940886   -6.3962958   -6.3962958   -5.6471842  -0.21505259   -6.3962958   0.74911158   439061 
 4761000   0.49931448   -6.3959894   -6.3959894   -5.6470194  -0.21028736   -6.3959894   0.74897001   439061 
 4762000   0.50008368   -6.3955485   -6.3955485   -5.6454247  -0.21049429   -6.3955485   0.75012381   439061 
 4763000   0.50061975   -6.3972773   -6.3972773   -5.6463494  -0.21038725   -6.3972773   0.75092791   439061 
 4764000    0.5006533   -6.3966547   -6.3966547   -5.6456764  -0.21263624   -6.3966547   0.75097824   439061 
 4765000   0.49991011   -6.3960204   -6.3960204   -5.6461569  -0.21038095   -6.3960204   0.74986346   439061 
 4766000   0.49956044   -6.3955559   -6.3955559    -5.646217  -0.21079679   -6.3955559   0.74933896   439061 
 4767000   0.50027905   -6.3965828   -6.3965828   -5.6461659  -0.21287021   -6.3965828   0.75041686   439061 
 4768000   0.50064461   -6.3969374   -6.3969374   -5.6459722  -0.21208783   -6.3969374   0.75096521   439061 
 4769000   0.50000626   -6.3963966   -6.3963966   -5.6463889  -0.21301075   -6.3963966   0.75000767   439061 
 4770000   0.49976565   -6.3968724   -6.3968724   -5.6472257  -0.21795268   -6.3968724   0.74964676   439061 
 4771000    0.4999766   -6.3969782   -6.3969782    -5.647015  -0.21367656   -6.3969782    0.7499632   439061 
 4772000   0.49953558    -6.396067    -6.396067   -5.6467654  -0.21145589    -6.396067   0.74930166   439061 
 4773000   0.50061767   -6.3972061   -6.3972061   -5.6462813  -0.21028805   -6.3972061    0.7509248   439061 
 4774000   0.49985425   -6.3967524   -6.3967524   -5.6469728  -0.21003316   -6.3967524   0.74977967   439061 
 4775000   0.50047653   -6.3970247   -6.3970247   -5.6463116  -0.21189872   -6.3970247   0.75071309   439061 
 4776000    0.4989182   -6.3956805   -6.3956805   -5.6473049  -0.21127099   -6.3956805   0.74837559   439061 
 4777000   0.50002991   -6.3978984   -6.3978984   -5.6478552  -0.21883534   -6.3978984   0.75004315   439061 
 4778000   0.50023127   -6.3980632   -6.3980632    -5.647718  -0.21477119   -6.3980632    0.7503452   439061 
 4779000   0.49966108   -6.3971628   -6.3971628   -5.6476729  -0.21116757   -6.3971628   0.74948992   439061 
 4780000    0.5001354   -6.3978673   -6.3978673   -5.6476659  -0.21190713   -6.3978673   0.75020139   439061 
 4781000   0.49934075   -6.3964759   -6.3964759   -5.6474665  -0.21080101   -6.3964759   0.74900941   439061 
 4782000   0.49950777   -6.3972508   -6.3972508   -5.6479909   -0.2136682   -6.3972508   0.74925994   439061 
 4783000   0.50003276   -6.3973228   -6.3973228   -5.6472754  -0.21466366   -6.3973228   0.75004743   439061 
 4784000   0.50001071   -6.3971585   -6.3971585   -5.6471441  -0.21333992   -6.3971585   0.75001436   439061 
 4785000   0.49988087   -6.3965835   -6.3965835   -5.6467639  -0.21201475   -6.3965835    0.7498196   439061 
 4786000   0.50052385   -6.3967673   -6.3967673   -5.6459832  -0.21035231   -6.3967673   0.75078407   439061 
 4787000    0.5010628   -6.3979774   -6.3979774   -5.6463849   -0.2159007   -6.3979774   0.75159248   439061 
 4788000   0.49971401   -6.3971081   -6.3971081   -5.6475388  -0.21318156   -6.3971081    0.7495693   439061 
 4789000   0.49992448   -6.3977535   -6.3977535   -5.6478685  -0.21605201   -6.3977535   0.74988501   439061 
 4790000   0.50012724   -6.3970408   -6.3970408   -5.6468516  -0.21140698   -6.3970408   0.75018915   439061 
 4791000    0.5005541   -6.3973653   -6.3973653   -5.6465359  -0.21132281   -6.3973653   0.75082944   439061 
 4792000   0.50103353   -6.3977809   -6.3977809   -5.6462323  -0.21153381   -6.3977809   0.75154859   439061 
 4793000   0.50006225   -6.3969405   -6.3969405   -5.6468488  -0.21307285   -6.3969405   0.75009167   439061 
 4794000   0.49942801   -6.3967712   -6.3967712   -5.6476309  -0.21341256   -6.3967712   0.74914031   439061 
 4795000   0.49917276   -6.3966877   -6.3966877   -5.6479302   -0.2176254   -6.3966877   0.74875744   439061 
 4796000   0.50010539   -6.3974736   -6.3974736   -5.6473173  -0.21278627   -6.3974736   0.75015637   439061 
 4797000   0.49997577    -6.397781    -6.397781    -5.647819  -0.21024258    -6.397781   0.74996195   439061 
 4798000     0.499409    -6.396825    -6.396825   -5.6477132  -0.20733515    -6.396825   0.74911179   439061 
 4799000   0.49906263   -6.3971595   -6.3971595   -5.6485673  -0.21147566   -6.3971595   0.74859223   439061 
 4800000   0.49938764   -6.3972554   -6.3972554   -5.6481756  -0.21399342   -6.3972554   0.74907975   439061 
 4801000   0.49924966   -6.3969601   -6.3969601   -5.6480873  -0.21510052   -6.3969601   0.74887279   439061 
 4802000    0.4997238   -6.3975741   -6.3975741   -5.6479901  -0.21427123   -6.3975741   0.74958399   439061 
 4803000   0.50052794   -6.3971537   -6.3971537   -5.6463635   -0.2116426   -6.3971537    0.7507902   439061 
 4804000   0.49974728   -6.3968298   -6.3968298   -5.6472106   -0.2087343   -6.3968298   0.74961922   439061 
 4805000   0.49993363   -6.3967753   -6.3967753   -5.6468766  -0.21258514   -6.3967753   0.74989873   439061 
 4806000   0.49951236   -6.3957958   -6.3957958   -5.6465289  -0.20983486   -6.3957958   0.74926684   439061 
 4807000   0.50045849    -6.396475    -6.396475    -5.645789  -0.21424602    -6.396475   0.75068603   439061 
 4808000   0.49984819   -6.3962463   -6.3962463   -5.6464757  -0.21402815   -6.3962463   0.74977058   439061 
 4809000   0.50056147   -6.3966721   -6.3966721   -5.6458316  -0.21220229   -6.3966721   0.75084049   439061 
 4810000   0.49998454   -6.3955053   -6.3955053   -5.6455302  -0.20999606   -6.3955053   0.74997511   439061 
 4811000   0.50068705   -6.3973671   -6.3973671   -5.6463383   -0.2136757   -6.3973671   0.75102887   439061 
 4812000   0.50054196   -6.3974703   -6.3974703   -5.6466591  -0.21125153   -6.3974703   0.75081124   439061 
 4813000   0.50076291   -6.3972243   -6.3972243   -5.6460817  -0.21315787   -6.3972243   0.75114266   439061 
 4814000   0.49990519   -6.3965754   -6.3965754   -5.6467193  -0.21183118   -6.3965754   0.74985608   439061 
 4815000    0.5000194   -6.3964755   -6.3964755   -5.6464481  -0.21455421   -6.3964755   0.75002739   439061 
 4816000   0.49952074   -6.3964747   -6.3964747   -5.6471953  -0.21206539   -6.3964747    0.7492794   439061 
 4817000   0.49929124   -6.3971317   -6.3971317   -5.6481965  -0.21297395   -6.3971317   0.74893516   439061 
 4818000    0.4999008   -6.3978946   -6.3978946   -5.6480451  -0.21034749   -6.3978946    0.7498495   439061 
 4819000   0.49979946   -6.3978641   -6.3978641   -5.6481666  -0.21014261   -6.3978641   0.74969748   439061 
 4820000   0.50021786   -6.3982762   -6.3982762   -5.6479511  -0.21178176   -6.3982762   0.75032508   439061 
 4821000   0.50000513    -6.397811    -6.397811   -5.6478051  -0.21647583    -6.397811   0.75000599   439061 
 4822000   0.50006688   -6.3977318   -6.3977318   -5.6476332  -0.21647491   -6.3977318   0.75009861   439061 
 4823000   0.49967622   -6.3969563   -6.3969563   -5.6474437  -0.21083467   -6.3969563   0.74951263   439061 
 4824000   0.49987298    -6.397993    -6.397993   -5.6481853   -0.2134785    -6.397993   0.74980777   439061 
 4825000   0.50024616   -6.3983137   -6.3983137   -5.6479462  -0.20949832   -6.3983137   0.75036753   439061 
 4826000   0.49973357   -6.3974047   -6.3974047    -5.647806   -0.2106103   -6.3974047   0.74959865   439061 
 4827000   0.49951429   -6.3979674   -6.3979674   -5.6486976  -0.21096261   -6.3979674   0.74926973   439061 
 4828000   0.49960797   -6.3976183   -6.3976183   -5.6482081  -0.21612011   -6.3976183   0.74941024   439061 
 4829000   0.49961718    -6.397224    -6.397224      -5.6478  -0.21417238    -6.397224   0.74942406   439061 
 4830000   0.49982755   -6.3974405   -6.3974405   -5.6477009  -0.21386015   -6.3974405   0.74973962   439061 
 4831000   0.50008486   -6.3974942   -6.3974942   -5.6473686   -0.2126809   -6.3974942   0.75012558   439061 
 4832000   0.49946801   -6.3974769   -6.3974769   -5.6482766  -0.21267059   -6.3974769   0.74920031   439061 
 4833000   0.50008595   -6.3985775   -6.3985775   -5.6484503  -0.21342042   -6.3985775   0.75012721   439061 
 4834000   0.49967099   -6.3975523   -6.3975523   -5.6480475  -0.21303802   -6.3975523   0.74950477   439061 
 4835000   0.50027733   -6.3983007   -6.3983007   -5.6478864  -0.21385824   -6.3983007   0.75041428   439061 
 4836000   0.49902023   -6.3971564   -6.3971564   -5.6486277  -0.21313722   -6.3971564   0.74852865   439061 
 4837000   0.49952688    -6.398242    -6.398242   -5.6489533   -0.2147187    -6.398242   0.74928862   439061 
 4838000     0.499996   -6.3980124   -6.3980124   -5.6480201  -0.21210033   -6.3980124    0.7499923   439061 
 4839000   0.50036849    -6.398934    -6.398934    -5.648383  -0.21180043    -6.398934   0.75055102   439061 
 4840000   0.49897533   -6.3967015   -6.3967015   -5.6482402  -0.20964809   -6.3967015   0.74846129   439061 
 4841000   0.50028285   -6.3982709   -6.3982709   -5.6478483   -0.2137928   -6.3982709   0.75042257   439061 
 4842000   0.49980776   -6.3971229   -6.3971229    -5.647413  -0.21370029   -6.3971229   0.74970993   439061 
 4843000   0.49942815   -6.3965446   -6.3965446   -5.6474041  -0.20997013   -6.3965446   0.74914051   439061 
 4844000   0.49956344   -6.3973629   -6.3973629   -5.6480195  -0.21310198   -6.3973629   0.74934346   439061 
 4845000   0.50002154   -6.3985072   -6.3985072   -5.6484766  -0.21295013   -6.3985072    0.7500306   439061 
 4846000   0.49961698   -6.3974748   -6.3974748   -5.6480511  -0.21099944   -6.3974748   0.74942376   439061 
 4847000   0.49919591   -6.3960569   -6.3960569   -5.6472648  -0.21000862   -6.3960569   0.74879217   439061 
 4848000   0.49966802    -6.396768    -6.396768   -5.6472677  -0.21117731    -6.396768   0.74950032   439061 
 4849000   0.50021466   -6.3973426   -6.3973426   -5.6470224  -0.21673004   -6.3973426   0.75032028   439061 
 4850000   0.49991369   -6.3969627   -6.3969627   -5.6470939  -0.21440648   -6.3969627   0.74986883   439061 
 4851000   0.49954334   -6.3963447   -6.3963447   -5.6470314  -0.21039218   -6.3963447   0.74931331   439061 
 4852000   0.50018931   -6.3977394   -6.3977394   -5.6474571   -0.2122115   -6.3977394   0.75028226   439061 
 4853000   0.49924433   -6.3963123   -6.3963123   -5.6474476   -0.2076914   -6.3963123   0.74886479   439061 
 4854000   0.49994095   -6.3971876   -6.3971876   -5.6472779   -0.2125827   -6.3971876   0.74990972   439061 
 4855000   0.49957695    -6.397168    -6.397168   -5.6478043  -0.21382468    -6.397168   0.74936371   439061 
 4856000   0.50047797   -6.3984216   -6.3984216   -5.6477063  -0.21630008   -6.3984216   0.75071525   439061 
 4857000   0.49992513   -6.3964799   -6.3964799   -5.6465939  -0.21130907   -6.3964799   0.74988599   439061 
 4858000   0.49982112   -6.3955193   -6.3955193   -5.6457894  -0.20652869   -6.3955193   0.74972997   439061 
 4859000   0.50001418   -6.3962677   -6.3962677   -5.6462481  -0.20959983   -6.3962677   0.75001956   439061 
 4860000   0.50031423    -6.396726    -6.396726   -5.6462563  -0.21523725    -6.396726   0.75046964   439061 
 4861000   0.50059873   -6.3969646   -6.3969646   -5.6460682  -0.21308559   -6.3969646   0.75089639   439061 
 4862000   0.50053531   -6.3968454   -6.3968454   -5.6460442  -0.21545933   -6.3968454   0.75080125   439061 
 4863000   0.50027438   -6.3965847   -6.3965847   -5.6461748  -0.21075031   -6.3965847   0.75040986   439061 
 4864000   0.49984754     -6.39547     -6.39547   -5.6457004  -0.20714992     -6.39547    0.7497696   439061 
 4865000   0.50063282   -6.3964287   -6.3964287   -5.6454812  -0.21009638   -6.3964287   0.75094753   439061 
 4866000   0.49968026   -6.3962793   -6.3962793   -5.6467607    -0.212223   -6.3962793   0.74951868   439061 
 4867000   0.49996442   -6.3967294   -6.3967294   -5.6467845  -0.21373018   -6.3967294   0.74994493   439061 
 4868000   0.50046543     -6.39718     -6.39718   -5.6464836  -0.21305704     -6.39718   0.75069643   439061 
 4869000   0.50026956   -6.3975719   -6.3975719   -5.6471693  -0.21266994   -6.3975719   0.75040263   439061 
 4870000    0.4998442   -6.3976607   -6.3976607   -5.6478961  -0.21455121   -6.3976607   0.74976459   439061 
 4871000   0.49969955   -6.3964656   -6.3964656    -5.646918  -0.20797082   -6.3964656   0.74954762   439061 
 4872000   0.49963664   -6.3961749   -6.3961749   -5.6467217  -0.20966037   -6.3961749   0.74945325   439061 
 4873000   0.50107981   -6.3984342   -6.3984342   -5.6468162  -0.21471637   -6.3984342     0.751618   439061 
 4874000   0.49924661   -6.3965373   -6.3965373   -5.6476691  -0.21498106   -6.3965373   0.74886821   439061 
 4875000   0.49999815   -6.3963921   -6.3963921   -5.6463966  -0.21235442   -6.3963921   0.74999551   439061 
 4876000   0.49928736   -6.3957505   -6.3957505   -5.6468212  -0.21071236   -6.3957505   0.74892934   439061 
 4877000   0.49947011   -6.3961868   -6.3961868   -5.6469833   -0.2094781   -6.3961868   0.74920346   439061 
 4878000   0.49994329   -6.3964999   -6.3964999   -5.6465866  -0.21077651   -6.3964999   0.74991323   439061 
 4879000   0.50016428   -6.3966948   -6.3966948     -5.64645  -0.21308128   -6.3966948   0.75024471   439061 
 4880000   0.49975479   -6.3956091   -6.3956091   -5.6459786  -0.21218404   -6.3956091   0.74963047   439061 
 4881000   0.50046623   -6.3964662   -6.3964662   -5.6457686  -0.21291241   -6.3964662   0.75069763   439061 
 4882000   0.50068068   -6.3972827   -6.3972827   -5.6462634  -0.21657272   -6.3972827   0.75101931   439061 
 4883000   0.49956757   -6.3960067   -6.3960067   -5.6466571  -0.21277715   -6.3960067   0.74934965   439061 
 4884000   0.50017968   -6.3969664   -6.3969664   -5.6466986  -0.21237983   -6.3969664   0.75026781   439061 
 4885000   0.50009438    -6.397862    -6.397862   -5.6477221   -0.2134441    -6.397862   0.75013986   439061 
 4886000   0.49888528   -6.3962678   -6.3962678   -5.6479416  -0.20788137   -6.3962678   0.74832622   439061 
 4887000    0.4999097   -6.3980889   -6.3980889    -5.648226  -0.21291021   -6.3980889   0.74986284   439061 
 4888000   0.49950405   -6.3970436   -6.3970436   -5.6477893  -0.21293938   -6.3970436   0.74925436   439061 
 4889000   0.50014619   -6.3978712   -6.3978712   -5.6476536  -0.21473641   -6.3978712   0.75021757   439061 
 4890000   0.50019301   -6.3968929   -6.3968929   -5.6466051  -0.21066747   -6.3968929   0.75028781   439061 
 4891000   0.49995363   -6.3970459   -6.3970459   -5.6471172  -0.21402803   -6.3970459   0.74992873   439061 
 4892000   0.50051376   -6.3970085   -6.3970085   -5.6462396  -0.20957906   -6.3970085   0.75076893   439061 
 4893000   0.50046736   -6.3966941   -6.3966941   -5.6459947   -0.2114746   -6.3966941   0.75069932   439061 
 4894000   0.50131821    -6.397772    -6.397772   -5.6457964  -0.21336253    -6.397772    0.7519756   439061 
 4895000   0.49910644   -6.3952376   -6.3952376   -5.6465796  -0.21320705   -6.3952376   0.74865796   439061 
 4896000   0.50068146   -6.3974694   -6.3974694   -5.6464489  -0.21434013   -6.3974694   0.75102048   439061 
 4897000   0.50019041   -6.3966499   -6.3966499    -5.646366  -0.21286905   -6.3966499   0.75028391   439061 
 4898000   0.50045135   -6.3975641   -6.3975641   -5.6468888  -0.20834958   -6.3975641   0.75067531   439061 
 4899000   0.50031134   -6.3973163   -6.3973163    -5.646851  -0.20910711   -6.3973163    0.7504653   439061 
 4900000   0.50040833   -6.3971432   -6.3971432   -5.6465324  -0.21166246   -6.3971432   0.75061079   439061 
 4901000   0.50045547   -6.3969751   -6.3969751   -5.6462936  -0.21283181   -6.3969751   0.75068149   439061 
 4902000   0.49983093   -6.3960151   -6.3960151   -5.6462704   -0.2144239   -6.3960151   0.74974468   439061 
 4903000   0.50056309   -6.3968215   -6.3968215   -5.6459785  -0.21364477   -6.3968215   0.75084292   439061 
 4904000   0.49993576   -6.3964172   -6.3964172   -5.6465152  -0.21006731   -6.3964172   0.74990194   439061 
 4905000   0.50052719   -6.3971425   -6.3971425   -5.6463534  -0.20656954   -6.3971425   0.75078907   439061 
 4906000   0.49920354    -6.396279    -6.396279   -5.6474754  -0.20603458    -6.396279    0.7488036   439061 
 4907000   0.50076396   -6.3982777   -6.3982777   -5.6471335  -0.21349677   -6.3982777   0.75114423   439061 
 4908000   0.50068481   -6.3975603   -6.3975603   -5.6465348  -0.21641497   -6.3975603   0.75102551   439061 
 4909000   0.50017973   -6.3961504   -6.3961504   -5.6458825  -0.21457735   -6.3961504   0.75026788   439061 
 4910000   0.50092988   -6.3968827   -6.3968827   -5.6454896  -0.21313415   -6.3968827    0.7513931   439061 
 4911000   0.50004696   -6.3960802   -6.3960802   -5.6460115  -0.20849607   -6.3960802   0.75006873   439061 
 4912000   0.50060796   -6.3970144   -6.3970144   -5.6461041  -0.21108176   -6.3970144   0.75091023   439061 
 4913000   0.50076962   -6.3973114   -6.3973114   -5.6461586  -0.21185506   -6.3973114   0.75115273   439061 
 4914000   0.50049447     -6.39656     -6.39656     -5.64582  -0.21096199     -6.39656      0.75074   439061 
 4915000   0.50012464   -6.3968901   -6.3968901   -5.6467048  -0.21474944   -6.3968901   0.75018526   439061 
 4916000    0.4992083   -6.3959321   -6.3959321   -5.6471213  -0.21363042   -6.3959321   0.74881075   439061 
 4917000   0.50045132   -6.3973599   -6.3973599   -5.6466847  -0.21229599   -6.3973599   0.75067527   439061 
 4918000   0.50019111   -6.3966587   -6.3966587   -5.6463737  -0.20841536   -6.3966587   0.75028495   439061 
 4919000   0.49985271    -6.396974    -6.396974   -5.6471967  -0.20659157    -6.396974   0.74977735   439061 
 4920000   0.49980511    -6.396339    -6.396339   -5.6466331  -0.20958602    -6.396339   0.74970595   439061 
 4921000   0.50030114   -6.3969854   -6.3969854   -5.6465354  -0.21304858   -6.3969854      0.75045   439061 
 4922000   0.49928894   -6.3958318   -6.3958318   -5.6469001  -0.21465401   -6.3958318   0.74893171   439061 
 4923000   0.49993417   -6.3966461   -6.3966461   -5.6467466  -0.21316784   -6.3966461   0.74989954   439061 
 4924000   0.50000282   -6.3959733   -6.3959733   -5.6459708  -0.20939515   -6.3959733   0.75000252   439061 
 4925000   0.50078635   -6.3979115   -6.3979115   -5.6467337  -0.21356821   -6.3979115   0.75117782   439061 
 4926000    0.4995731    -6.396808    -6.396808   -5.6474501  -0.20685075    -6.396808   0.74935794   439061 
 4927000   0.49998949   -6.3970337   -6.3970337   -5.6470512  -0.21456585   -6.3970337   0.74998252   439061 
 4928000   0.49953687   -6.3963646   -6.3963646    -5.647061  -0.21133188   -6.3963646    0.7493036   439061 
 4929000   0.49944064   -6.3969859   -6.3969859   -5.6478267   -0.2164344   -6.3969859   0.74915925   439061 
 4930000   0.49947841   -6.3978897   -6.3978897   -5.6486737  -0.21309335   -6.3978897   0.74921591   439061 
 4931000   0.50035338   -6.3988668   -6.3988668   -5.6483385  -0.21532051   -6.3988668   0.75052837   439061 
 4932000   0.49976849    -6.397888    -6.397888    -5.648237  -0.20955165    -6.397888   0.74965103   439061 
 4933000   0.49954327   -6.3979369   -6.3979369   -5.6486237  -0.21297837   -6.3979369    0.7493132   439061 
 4934000   0.49899196   -6.3974027   -6.3974027   -5.6489165  -0.21309024   -6.3974027   0.74848624   439061 
 4935000    0.4986957   -6.3961799   -6.3961799   -5.6481381  -0.21597689   -6.3961799   0.74804185   439061 
 4936000   0.49877466   -6.3971186   -6.3971186   -5.6489583  -0.21743058   -6.3971186   0.74816028   439061 
 4937000   0.49998248   -6.3978762   -6.3978762   -5.6479042  -0.21206742   -6.3978762   0.74997201   439061 
 4938000   0.49915334   -6.3974336   -6.3974336   -5.6487053  -0.20670264   -6.3974336   0.74872831   439061 
 4939000   0.49953944   -6.3982066   -6.3982066   -5.6488992  -0.20974409   -6.3982066   0.74930746   439061 
 4940000   0.49911859   -6.3979731   -6.3979731   -5.6492969  -0.21196916   -6.3979731   0.74867618   439061 
 4941000   0.49965567   -6.3986301   -6.3986301   -5.6491483   -0.2174792   -6.3986301    0.7494818   439061 
 4942000   0.49999287   -6.3993272   -6.3993272   -5.6493396  -0.21779004   -6.3993272    0.7499876   439061 
 4943000   0.49969348   -6.3988431   -6.3988431   -5.6493046  -0.21844583   -6.3988431   0.74953851   439061 
 4944000   0.49977728   -6.3991693   -6.3991693   -5.6495051  -0.21087637   -6.3991693   0.74966421   439061 
 4945000   0.49948149   -6.3985033   -6.3985033   -5.6492828  -0.20953536   -6.3985033   0.74922052   439061 
 4946000   0.49896237    -6.397969    -6.397969   -5.6495272  -0.21098594    -6.397969   0.74844185   439061 
 4947000   0.49961236   -6.3979856   -6.3979856   -5.6485688  -0.21342996   -6.3979856   0.74941683   439061 
 4948000   0.49952142   -6.3982362   -6.3982362   -5.6489558  -0.21833603   -6.3982362   0.74928043   439061 
 4949000   0.49926571   -6.3975426   -6.3975426   -5.6486458  -0.21334693   -6.3975426   0.74889686   439061 
 4950000   0.49872445   -6.3962965   -6.3962965   -5.6482116  -0.21257457   -6.3962965   0.74808497   439061 
 4951000   0.49958964   -6.3980677   -6.3980677    -5.648685   -0.2118721   -6.3980677   0.74938276   439061 
 4952000   0.49915402   -6.3974816   -6.3974816   -5.6487523  -0.21187675   -6.3974816   0.74872933   439061 
 4953000   0.49910082   -6.3980583   -6.3980583   -5.6494088  -0.21468355   -6.3980583   0.74864952   439061 
 4954000    0.4985277   -6.3972271   -6.3972271   -5.6494373   -0.2139294   -6.3972271   0.74778984   439061 
 4955000   0.50007572    -6.398914    -6.398914   -5.6488022  -0.21370699    -6.398914   0.75011186   439061 
 4956000   0.50023164   -6.3989098   -6.3989098    -5.648564  -0.21728549   -6.3989098   0.75034576   439061 
 4957000   0.49931995   -6.3971831   -6.3971831   -5.6482049  -0.21299281   -6.3971831   0.74897822   439061 
 4958000   0.49975936   -6.3977738   -6.3977738   -5.6481365  -0.21540681   -6.3977738   0.74963733   439061 
 4959000   0.50029397   -6.3979846   -6.3979846   -5.6475453  -0.21099182   -6.3979846   0.75043924   439061 
 4960000   0.50006187   -6.3975315   -6.3975315   -5.6474404  -0.21112055   -6.3975315   0.75009109   439061 
 4961000   0.50027515   -6.3972739   -6.3972739   -5.6468629   -0.2130946   -6.3972739   0.75041102   439061 
 4962000   0.49934998     -6.39606     -6.39606   -5.6470367  -0.21137293     -6.39606   0.74902326   439061 
 4963000   0.50037832   -6.3968856   -6.3968856   -5.6463198  -0.21572808   -6.3968856   0.75056578   439061 
 4964000   0.50053173    -6.398218    -6.398218   -5.6474221  -0.21452048    -6.398218   0.75079589   439061 
 4965000   0.50040979   -6.3987278   -6.3987278   -5.6481148   -0.2146012   -6.3987278   0.75061298   439061 
 4966000   0.49947845      -6.3981      -6.3981    -5.648884  -0.21095526      -6.3981   0.74921598   439061 
 4967000   0.50011423   -6.3983927   -6.3983927    -5.648223  -0.21223483   -6.3983927   0.75016963   439061 
 4968000   0.49951027   -6.3975503   -6.3975503   -5.6482866  -0.21090702   -6.3975503   0.74926369   439061 
 4969000   0.49894942   -6.3968213   -6.3968213   -5.6483988  -0.21276226   -6.3968213   0.74842242   439061 
 4970000   0.50027738   -6.3986228   -6.3986228   -5.6482085  -0.21816176   -6.3986228   0.75041435   439061 
 4971000   0.49932389   -6.3975314   -6.3975314   -5.6485473  -0.21432853   -6.3975314   0.74898412   439061 
 4972000   0.50006844   -6.3991748   -6.3991748   -5.6490739  -0.21587439   -6.3991748   0.75010095   439061 
 4973000   0.50005097   -6.3989264   -6.3989264   -5.6488516  -0.21010203   -6.3989264   0.75007474   439061 
 4974000   0.49925274    -6.398079    -6.398079   -5.6492016  -0.21084383    -6.398079    0.7488774   439061 
 4975000   0.49931679   -6.3985417   -6.3985417   -5.6495682  -0.21172876   -6.3985417   0.74897348   439061 
 4976000   0.49976039   -6.3991271   -6.3991271   -5.6494882  -0.21705253   -6.3991271   0.74963888   439061 
 4977000   0.49946478   -6.3981686   -6.3981686   -5.6489732  -0.21441558   -6.3981686   0.74919546   439061 
 4978000   0.49952826   -6.3977084   -6.3977084   -5.6484178  -0.21332217   -6.3977084   0.74929069   439061 
 4979000    0.5004017   -6.3991908   -6.3991908     -5.64859  -0.20963045   -6.3991908   0.75060084   439061 
 4980000   0.50005322   -6.3986244   -6.3986244   -5.6485463  -0.20973479   -6.3986244   0.75007812   439061 
 4981000   0.49973353   -6.3989662   -6.3989662   -5.6493676  -0.21386958   -6.3989662   0.74959859   439061 
 4982000   0.49977514   -6.3985375   -6.3985375   -5.6488765  -0.21455603   -6.3985375   0.74966101   439061 
 4983000    0.4996501    -6.398679    -6.398679   -5.6492056  -0.21767004    -6.398679   0.74947345   439061 
 4984000   0.49941958   -6.3983896   -6.3983896    -5.649262  -0.21169499   -6.3983896   0.74912766   439061 
 4985000   0.49933634    -6.398136    -6.398136   -5.6491332  -0.20990721    -6.398136    0.7490028   439061 
 4986000   0.50003746   -6.3990914   -6.3990914   -5.6490369  -0.21078546   -6.3990914   0.75005449   439061 
 4987000   0.49966797   -6.3974629   -6.3974629   -5.6479627   -0.2099932   -6.3974629   0.74950025   439061 
 4988000   0.49979398   -6.3973914   -6.3973914   -5.6477022  -0.21342527   -6.3973914   0.74968926   439061 
 4989000   0.49915071   -6.3964996   -6.3964996   -5.6477752  -0.21495593   -6.3964996   0.74872435   439061 
 4990000   0.49994739   -6.3982266   -6.3982266   -5.6483073  -0.21740404   -6.3982266   0.74991938   439061 
 4991000   0.49969232   -6.3969964   -6.3969964   -5.6474597   -0.2126976   -6.3969964   0.74953677   439061 
 4992000   0.50012021   -6.3981409   -6.3981409   -5.6479623  -0.20732164   -6.3981409   0.75017861   439061 
 4993000   0.49948037   -6.3980245   -6.3980245   -5.6488056  -0.20950025   -6.3980245   0.74921885   439061 
 4994000   0.49856644   -6.3962141   -6.3962141   -5.6483662    -0.206386   -6.3962141   0.74784795   439061 
 4995000   0.49923507   -6.3977683   -6.3977683   -5.6489175  -0.21692082   -6.3977683   0.74885089   439061 
 4996000   0.49946203   -6.3977171   -6.3977171   -5.6485258  -0.21576793   -6.3977171   0.74919134   439061 
 4997000   0.49955911   -6.3975659   -6.3975659    -5.648229    -0.214716   -6.3975659   0.74933696   439061 
 4998000    0.4990812   -6.3977087   -6.3977087   -5.6490887  -0.21302696   -6.3977087   0.74862009   439061 
 4999000    0.4993049   -6.3980486   -6.3980486   -5.6490929    -0.208278   -6.3980486   0.74895564   439061 
 5000000     0.499611   -6.3990335   -6.3990335   -5.6496187  -0.21441844   -6.3990335    0.7494148   439061 
Loop time of 34109 on 64 procs for 5000000 steps with 439061 atoms

Performance: 63326.406 tau/day, 146.589 timesteps/s
98.7% CPU use with 64 MPI tasks x 1 OpenMP threads

MPI task timing breakdown:
Section |  min time  |  avg time  |  max time  |%varavg|  %CPU | %total
-----------------------------------------------------------------------
Pair    | 11665      | 17348      | 19444      |1383.2 |  98.6 | 50.86
Bond    | 2.1131     | 2.4616     | 2.9973     |   9.8 | 100.0 |  0.01
Neigh   | 3547.5     | 5402.1     | 6130.9     | 797.2 |  99.7 | 15.84
Comm    | 6820.7     | 9608.3     | 17582      |2690.8 |  98.4 | 28.17
Output  | 187.43     | 187.77     | 187.81     |   0.4 |  98.6 |  0.55
Modify  | 426.22     | 954.15     | 2287.9     |2310.2 |  99.0 |  2.80
Other   |            | 605.8      |            |       |       |  1.78

Nlocal:        6860.33 ave        9176 max        4533 min
Histogram: 4 4 1 12 4 31 0 0 0 8
Nghost:        8943.23 ave       10630 max        5317 min
Histogram: 8 0 8 0 0 0 0 15 14 19
Neighs:       316724.0 ave      426828 max      171515 min
Histogram: 4 4 0 1 7 14 26 0 0 8

Total # of neighbors = 20270354
Ave neighs/atom = 46.167512
Ave special neighs/atom = 0.0000000
Neighbor list builds = 458604
Dangerous builds = 105715
write_data	data.lj
System init for write_data ...
WARNING: Not all mixed pair coeffs generated from mixing. Use write_data with 'pair ij' option to store all pair coeffs. (src/write_data.cpp:312)


## Evaporation
#region          regevap block EDGE EDGE EDGE EDGE 140 EDGE units box
#fix             4 solvent evaporate ${evap} 1 regevap 156415

#run 		20000000
Total wall time: 9:28:34
