LAMMPS (24 Dec 2020)
OMP_NUM_THREADS environment is not set. Defaulting to 1 thread. (src/comm.cpp:94)
  using 1 OpenMP thread(s) per MPI task
# Simple rigid body system
# needed variables: startTemp, temp

units		lj
atom_style	full
dimension 	3
boundary	p p f
pair_style	lj/cut/opt 2.5


variable 	sigma		equal 1.0
variable 	epsilon 	equal 1.0


region		box block 0 160 0 160 0 160
create_box 	3 box
Created orthogonal box = (0.0000000 0.0000000 0.0000000) to (160.00000 160.00000 160.00000)
  6 by 4 by 6 MPI processor grid
lattice 	sc 1.0
Lattice spacing in x,y,z = 1.0000000 1.0000000 1.0000000

create_atoms 	1 region box
Created 4096000 atoms
  create_atoms CPU = 0.046 seconds

mass		1 1.0
mass		2 1.0
mass		3 1.0


group		solvent type 1
4096000 atoms in group solvent


velocity 	solvent create ${startTemp} 563435 loop geom
velocity 	solvent create 0.5 563435 loop geom

read_data	data.vac add append
Reading data file ...
  orthogonal box = (0.0000000 0.0000000 0.0000000) to (160.00000 160.00000 320.00000)
  4 by 4 by 9 MPI processor grid
Finding 1-2 1-3 1-4 neighbors ...
  special bond factors lj:    0        0        0       
  special bond factors coul:  0        0        0       
     0 = max # of 1-2 neighbors
     0 = max # of 1-3 neighbors
     0 = max # of 1-4 neighbors
     1 = max # of special neighbors
  special bonds CPU = 0.902 seconds
  read_data CPU = 0.940 seconds

neighbor 	0.4 bin

pair_coeff	1 1 1.0 1.0
pair_coeff	2 2 0.0 0.0
pair_coeff	3 3 0.0 0.0
pair_coeff	2 3 0.0 0.0
pair_coeff	1 2*3 0.0 0.0

pair_modify 	shift yes


balance 	1.05 shift z 10 1.05
Balancing ...
Neighbor list info ...
  update every 1 steps, delay 10 steps, check yes
  max neighbors/atom: 2000, page size: 100000
  master list distance cutoff = 2.9
  ghost atom cutoff = 2.9
  binsize = 1.45, bins = 111 111 221
  1 neighbor lists, perpetual/occasional/extra = 1 0 0
  (1) pair lj/cut/opt, perpetual
      attributes: half, newton on
      pair build: half/bin/newton
      stencil: half/bin/3d/newton
      bin: standard
 rebalancing time: 0.046 seconds
  iteration count = 5
  initial/final maximal load/proc = 57600.000 41600.000
  initial/final imbalance factor  = 2.0250000 1.4625000
  x cuts: 0.0000000 0.25000000 0.50000000 0.75000000 1.0000000
  y cuts: 0.0000000 0.25000000 0.50000000 0.75000000 1.0000000
  z cuts: 0.0000000 0.052083333 0.10416667 0.15972222 0.22569444 0.27430556 0.31944444 0.37500000 0.45486111 1.0000000


####################### WALLS ###########################


region	       low block  EDGE EDGE EDGE EDGE 0 2

region 	       top block  EDGE EDGE EDGE EDGE 159 160


delete_atoms   region low
WARNING: Ignoring 'compress yes' for molecular system (src/delete_atoms.cpp:125)
Deleted 76800 atoms, new total = 4019200

delete_atoms   region top
WARNING: Ignoring 'compress yes' for molecular system (src/delete_atoms.cpp:125)
Deleted 25600 atoms, new total = 3993600


variable       epsilonWall equal 2*${epsilon}
variable       epsilonWall equal 2*1

variable       cutoffTop   equal   0.7147*${sigma}
variable       cutoffTop   equal   0.7147*1

variable       cutoffLow   equal   3*${sigma}
variable       cutoffLow   equal   3*1


fix            topWall all wall/lj93 zhi EDGE                ${epsilonWall} ${sigma} ${cutoffTop} units box
fix            topWall all wall/lj93 zhi EDGE                2 ${sigma} ${cutoffTop} units box
fix            topWall all wall/lj93 zhi EDGE                2 1 ${cutoffTop} units box
fix            topWall all wall/lj93 zhi EDGE                2 1 0.7147 units box

fix            lowWall all wall/lj93 zlo EDGE                ${epsilonWall} ${sigma} ${cutoffLow} units box
fix            lowWall all wall/lj93 zlo EDGE                2 ${sigma} ${cutoffLow} units box
fix            lowWall all wall/lj93 zlo EDGE                2 1 ${cutoffLow} units box
fix            lowWall all wall/lj93 zlo EDGE                2 1 3 units box


###################### COMPUTES ##########################

compute        bin1 solvent chunk/atom bin/1d z upper 1.0



######################	FIXES ############################


fix 		peclet solvent ave/chunk 1000 1 1000 bin1 density/number norm 		 none ave one file density.profile

fix 		2 solvent nve

## Thermostat


region		regthermo block EDGE EDGE EDGE EDGE 0 20

group 		thermo dynamic solvent region regthermo every 1000
dynamic group thermo defined

fix 		3 thermo langevin ${startTemp} ${temp} 10 156453
fix 		3 thermo langevin 0.5 ${temp} 10 156453
fix 		3 thermo langevin 0.5 .8 10 156453



#### Load balancing


fix 		bal all balance 1000 1.05 shift z 10 1.05


############### Diagnostics and computes ###################
#compute 	com cube	  rigid/local	1 mol x y z
#compute 	quat cube	  rigid/local	1 mol quatw quati quatj quatk

thermo 		1000
thermo_style 	custom step temp epair evdwl etotal press pe ke vol

dump		1 all custom 100000 dump.lammpstrj id mol type x y z
dump 		2 all image 10000 image.*.png type type
dump 		3 all movie 1000 movie.avi type type
#dump 		com cube local 1000 dump.*.xyz c_com[*]
#dump		quat cube      local 1000 dump.*.quat c_quat[*]


#restart 	500000 restart.dat
timestep 	0.005
timer 		full
New timer settings: style=full  mode=nosync  timeout=off


run		1000000
Per MPI rank memory allocation (min/avg/max) = 30.97 | 35.01 | 39.70 Mbytes
Step Temp E_pair E_vdwl TotEng Press PotEng KinEng Volume 
       0   0.49997217   -3.3137429   -3.3137429   -2.5637849    8.4475947   -3.3137429   0.74995807      8192000 
    1000    1.4167287   -4.8190765   -4.8190765   -2.6939841    4.0913467   -4.8190765    2.1250925      8192000 
    2000    1.3814434    -4.890691    -4.890691   -2.8185265    2.8267519    -4.890691    2.0721645      8192000 
    3000    1.3250916   -4.9027355   -4.9027355   -2.9150985    1.8439918   -4.9027355    1.9876369      8192000 
    4000    1.3038334   -4.9255164   -4.9255164   -2.9697668   0.81335155   -4.9255164    1.9557495      8192000 
    5000    1.2401137   -4.8439077   -4.8439077   -2.9837376    0.1329633   -4.8439077    1.8601701      8192000 
    6000    1.1631959   -4.7239269   -4.7239269   -2.9791335   -0.1833904   -4.7239269    1.7447934      8192000 
    7000    1.1362207   -4.6736239   -4.6736239   -2.9692934  -0.15948574   -4.6736239    1.7043306      8192000 
    8000    1.1520455   -4.6901766   -4.6901766   -2.9621089  0.010520329   -4.6901766    1.7280678      8192000 
    9000    1.1624673   -4.7070364   -4.7070364   -2.9633358   0.10146666   -4.7070364    1.7437006      8192000 
   10000    1.1626907   -4.7148221   -4.7148221   -2.9707866   0.13972118   -4.7148221    1.7440355      8192000 
   11000    1.1602775    -4.719033    -4.719033   -2.9786171   0.14250129    -4.719033    1.7404159      8192000 
   12000    1.1598983   -4.7233601   -4.7233601   -2.9835132   0.14121171   -4.7233601    1.7398469      8192000 
   13000    1.1658486   -4.7352805   -4.7352805   -2.9865081   0.18312515   -4.7352805    1.7487724      8192000 
   14000     1.168955   -4.7434889   -4.7434889   -2.9900569   0.21200995   -4.7434889     1.753432      8192000 
   15000    1.1670509   -4.7445509   -4.7445509   -2.9939749   0.20752249   -4.7445509     1.750576      8192000 
   16000    1.1633542   -4.7425138   -4.7425138   -2.9974829   0.19945604   -4.7425138    1.7450309      8192000 
   17000    1.1618815   -4.7434307   -4.7434307   -3.0006089   0.19632928   -4.7434307    1.7428219      8192000 
   18000    1.1628056   -4.7474599   -4.7474599    -3.003252   0.20376812   -4.7474599    1.7442079      8192000 
   19000    1.1635556   -4.7516884   -4.7516884   -3.0063555   0.21606612   -4.7516884    1.7453329      8192000 
   20000     1.163489   -4.7544282   -4.7544282   -3.0091952   0.22190042   -4.7544282     1.745233      8192000 
   21000    1.1635541   -4.7575637   -4.7575637    -3.012233   0.22939858   -4.7575637    1.7453307      8192000 
   22000    1.1668705   -4.7661572   -4.7661572    -3.015852   0.41596046   -4.7661572    1.7503053      8192000 
   23000    1.1667065   -4.7686655   -4.7686655   -3.0186061    1.1247547   -4.7686655    1.7500593      8192000 
   24000    1.1663512   -4.7706966   -4.7706966   -3.0211703    1.8343841   -4.7706966    1.7495263      8192000 
   25000    1.1692347   -4.7773269   -4.7773269   -3.0234753    2.4691944   -4.7773269    1.7538516      8192000 
   26000    1.1731569   -4.7853336   -4.7853336   -3.0255986    2.1177751   -4.7853336     1.759735      8192000 
   27000    1.1726717    -4.786467    -4.786467     -3.02746    1.5531644    -4.786467    1.7590071      8192000 
   28000    1.1588458   -4.7677544   -4.7677544   -3.0294862    1.0952059   -4.7677544    1.7382682      8192000 
   29000    1.1173047   -4.7078579   -4.7078579   -3.0319013   0.77275722   -4.7078579    1.6759566      8192000 
   30000    1.0658009   -4.6333585   -4.6333585   -3.0346575   0.49429061   -4.6333585     1.598701      8192000 
   31000     1.019268   -4.5665615   -4.5665615   -3.0376598   0.25856778   -4.5665615    1.5289017      8192000 
   32000   0.97471531   -4.5028364   -4.5028364   -3.0407639  0.097600786   -4.5028364    1.4620726      8192000 
   33000   0.93393656   -4.4447629   -4.4447629   -3.0438584 -0.0066574962   -4.4447629    1.4009045      8192000 
   34000   0.90200432   -4.4000212   -4.4000212   -3.0470151 -0.070438137   -4.4000212    1.3530061      8192000 
   35000   0.88482819   -4.3778348   -4.3778348   -3.0505929 -0.089334555   -4.3778348    1.3272419      8192000 
   36000   0.88137013   -4.3763285   -4.3763285   -3.0542736 -0.066665264   -4.3763285    1.3220549      8192000 
   37000   0.88784303   -4.3902916   -4.3902916   -3.0585274 -0.014568622   -4.3902916    1.3317642      8192000 
   38000   0.89820159   -4.4107281   -4.4107281   -3.0634261   0.04859732   -4.4107281    1.3473021      8192000 
   39000   0.90648419   -4.4278386   -4.4278386   -3.0681126  0.099276007   -4.4278386    1.3597259      8192000 
   40000   0.91046431   -4.4382649   -4.4382649   -3.0725688   0.13745117   -4.4382649    1.3656961      8192000 
   41000   0.91106035   -4.4441282   -4.4441282    -3.077538   0.15786979   -4.4441282    1.3665902      8192000 
   42000   0.90907645   -4.4467031   -4.4467031   -3.0830887    0.1628631   -4.4467031    1.3636143      8192000 
   43000   0.90522618   -4.4464152   -4.4464152   -3.0885762   0.15182543   -4.4464152    1.3578389      8192000 
   44000   0.89965264    -4.443305    -4.443305   -3.0938264   0.13612945    -4.443305    1.3494786      8192000 
   45000   0.89216302   -4.4379131   -4.4379131   -3.0996689   0.11391081   -4.4379131    1.3382442      8192000 
   46000   0.88397194   -4.4317884   -4.4317884   -3.1058308  0.085814266   -4.4317884    1.3259576      8192000 
   47000   0.87561936    -4.425288    -4.425288   -3.1118593  0.056300295    -4.425288    1.3134287      8192000 
   48000   0.86831691   -4.4202876   -4.4202876   -3.1178126  0.036332892   -4.4202876     1.302475      8192000 
   49000   0.86472385   -4.4208445   -4.4208445    -3.123759  0.024633215   -4.4208445    1.2970854      8192000 
   50000   0.86298081   -4.4242811   -4.4242811   -3.1298102  0.026679007   -4.4242811    1.2944709      8192000 
   51000   0.86363231   -4.4313935   -4.4313935   -3.1359453  0.034936494   -4.4313935    1.2954481      8192000 
   52000   0.86468938   -4.4389277   -4.4389277    -3.141894  0.049156662   -4.4389277    1.2970337      8192000 
   53000   0.86741896    -4.448782    -4.448782   -3.1476539  0.065643061    -4.448782    1.3011281      8192000 
   54000   0.87045159   -4.4590566   -4.4590566   -3.1533796  0.088159211   -4.4590566    1.3056771      8192000 
   55000   0.87293187   -4.4684653   -4.4684653   -3.1590679   0.10336292   -4.4684653    1.3093975      8192000 
   56000   0.87303099   -4.4740162   -4.4740162     -3.16447   0.10652162   -4.4740162    1.3095462      8192000 
   57000   0.87220332   -4.4780345   -4.4780345   -3.1697298   0.10398503   -4.4780345    1.3083047      8192000 
   58000   0.86860356    -4.477893    -4.477893    -3.174988  0.092252775    -4.477893     1.302905      8192000 
   59000   0.86456646   -4.4767858   -4.4767858   -3.1799364  0.075797773   -4.4767858    1.2968494      8192000 
   60000   0.86040038   -4.4755036   -4.4755036   -3.1849034  0.062865475   -4.4755036    1.2906003      8192000 
   61000   0.85674395   -4.4749155   -4.4749155   -3.1897999  0.051104818   -4.4749155    1.2851156      8192000 
   62000   0.85477956   -4.4769326   -4.4769326   -3.1947636  0.044211424   -4.4769326     1.282169      8192000 
   63000   0.85456242   -4.4817201   -4.4817201   -3.1998768  0.047779766   -4.4817201    1.2818433      8192000 
   64000   0.85676316   -4.4899055   -4.4899055   -3.2047611  0.054292699   -4.4899055    1.2851444      8192000 
   65000   0.85979996   -4.4992361   -4.4992361   -3.2095365  0.074639652   -4.4992361    1.2896996      8192000 
   66000   0.86469524   -4.5115109   -4.5115109   -3.2144684  0.098795346   -4.5115109    1.2970425      8192000 
   67000   0.86995487   -4.5244295   -4.5244295   -3.2194975   0.12685801   -4.5244295     1.304932      8192000 
   68000   0.87554756   -4.5379521   -4.5379521   -3.2246311   0.15401794   -4.5379521     1.313321      8192000 
   69000   0.88102772   -4.5515092   -4.5515092   -3.2299679    0.1822111   -4.5515092    1.3215413      8192000 
   70000   0.88725977   -4.5666467   -4.5666467   -3.2357574   0.21287343   -4.5666467    1.3308893      8192000 
   71000   0.89493596   -4.5841986   -4.5841986    -3.241795   0.25446809   -4.5841986    1.3424036      8192000 
   72000   0.90351924   -4.6034099   -4.6034099   -3.2481313   0.31530526   -4.6034099    1.3552785      8192000 
   73000   0.91310728   -4.6250485   -4.6250485    -3.255388   0.39249213   -4.6250485    1.3696606      8192000 
   74000   0.92193924   -4.6463856   -4.6463856   -3.2634771   0.47998619   -4.6463856    1.3829085      8192000 
   75000   0.92994941   -4.6675637   -4.6675637     -3.27264   0.55839738   -4.6675637    1.3949238      8192000 
   76000   0.93527169   -4.6849705   -4.6849705   -3.2820633   0.61851641   -4.6849705    1.4029072      8192000 
   77000    0.9368318   -4.6965574   -4.6965574     -3.29131   0.64881026   -4.6965574    1.4052473      8192000 
   78000   0.93329262   -4.6998237   -4.6998237   -3.2998852   0.64602764   -4.6998237    1.3999386      8192000 
   79000   0.92729111   -4.6991175   -4.6991175   -3.3081812    0.6136693   -4.6991175    1.3909363      8192000 
   80000   0.91802091   -4.6929902   -4.6929902   -3.3159591   0.56379261   -4.6929902     1.377031      8192000 
   81000   0.90697225   -4.6838238   -4.6838238   -3.3233657   0.49432011   -4.6838238     1.360458      8192000 
   82000   0.89292464   -4.6696575   -4.6696575   -3.3302709     0.416965   -4.6696575    1.3393866      8192000 
   83000   0.87748494   -4.6524139   -4.6524139   -3.3361868   0.33054459   -4.6524139    1.3162271      8192000 
   84000   0.86137793   -4.6331923   -4.6331923   -3.3411257   0.24170884   -4.6331923    1.2920666      8192000 
   85000   0.84442926   -4.6116578   -4.6116578   -3.3450142   0.15749355   -4.6116578    1.2666436      8192000 
   86000   0.82784687    -4.589693    -4.589693    -3.347923   0.08423792    -4.589693      1.24177      8192000 
   87000   0.81170014   -4.5677412   -4.5677412   -3.3501913   0.02296487   -4.5677412    1.2175499      8192000 
   88000   0.79641883   -4.5467196   -4.5467196   -3.3520916 -0.028614889   -4.5467196    1.1946279      8192000 
   89000   0.78315986   -4.5285673   -4.5285673   -3.3538278 -0.065974159   -4.5285673    1.1747395      8192000 
   90000    0.7736824   -4.5157015   -4.5157015   -3.3551782 -0.089623729   -4.5157015    1.1605233      8192000 
   91000    0.7692331   -4.5104305   -4.5104305   -3.3565812  -0.10175524   -4.5104305    1.1538494      8192000 
   92000   0.76960383   -4.5124109   -4.5124109   -3.3580054 -0.092525412   -4.5124109    1.1544055      8192000 
   93000   0.77440867   -4.5215816   -4.5215816   -3.3599689 -0.071269166   -4.5215816    1.1616127      8192000 
   94000   0.78097008   -4.5337343   -4.5337343   -3.3622795 -0.039989663   -4.5337343    1.1714548      8192000 
   95000   0.78835209   -4.5477046   -4.5477046   -3.3651768 -0.0072205247   -4.5477046    1.1825278      8192000 
   96000   0.79481932   -4.5600457   -4.5600457    -3.367817  0.021833681   -4.5600457    1.1922287      8192000 
   97000   0.79926933   -4.5691573   -4.5691573   -3.3702536  0.043036115   -4.5691573    1.1989037      8192000 
   98000   0.80184324   -4.5754565   -4.5754565   -3.3726919  0.055243841   -4.5754565    1.2027646      8192000 
   99000   0.80212437   -4.5781573   -4.5781573    -3.374971  0.057582055   -4.5781573    1.2031863      8192000 
  100000   0.79931274   -4.5762817   -4.5762817   -3.3773129  0.047533977   -4.5762817    1.1989688      8192000 
  101000   0.79450327   -4.5715502   -4.5715502   -3.3797956  0.028589843   -4.5715502    1.1917546      8192000 
  102000      0.78884   -4.5654981   -4.5654981   -3.3822384 0.0049077991   -4.5654981    1.1832597      8192000 
  103000   0.78333574   -4.5597171   -4.5597171   -3.3847138 -0.016524903   -4.5597171    1.1750033      8192000 
  104000    0.7791451   -4.5559425   -4.5559425   -3.3872251 -0.030267917   -4.5559425    1.1687174      8192000 
  105000   0.77816038    -4.556775    -4.556775   -3.3895347 -0.032462913    -4.556775    1.1672403      8192000 
  106000   0.78001612   -4.5618724   -4.5618724   -3.3918485 -0.021340157   -4.5618724    1.1700239      8192000 
  107000   0.78442116    -4.570865    -4.570865   -3.3942336 -0.00094800593    -4.570865    1.1766314      8192000 
  108000   0.78933078   -4.5804119   -4.5804119    -3.396416  0.022897854   -4.5804119    1.1839959      8192000 
  109000   0.79310134   -4.5885714   -4.5885714   -3.3989197  0.044997639   -4.5885714    1.1896517      8192000 
  110000   0.79537474   -4.5940552   -4.5940552   -3.4009934  0.055127162   -4.5940552    1.1930618      8192000 
  111000   0.79473999   -4.5951992   -4.5951992   -3.4030895  0.051713145   -4.5951992    1.1921097      8192000 
  112000   0.79096816   -4.5916849   -4.5916849    -3.405233  0.036999876   -4.5916849    1.1864519      8192000 
  113000   0.78583034   -4.5862735   -4.5862735   -3.4075283  0.019007724   -4.5862735    1.1787452      8192000 
  114000   0.78100663   -4.5812243   -4.5812243   -3.4097147 -0.0011958627   -4.5812243    1.1715096      8192000 
  115000   0.77737085   -4.5779554   -4.5779554   -3.4118994 -0.013527972   -4.5779554     1.166056      8192000 
  116000   0.77617011   -4.5782991   -4.5782991   -3.4140442 -0.018594522   -4.5782991    1.1642549      8192000 
  117000   0.77624271   -4.5807399   -4.5807399   -3.4163761  -0.01168981   -4.5807399    1.1643638      8192000 
  118000   0.77935956   -4.5874559   -4.5874559   -3.4184169 0.0016431899   -4.5874559     1.169039      8192000 
  119000   0.78305903    -4.594948    -4.594948   -3.4203597  0.017477322    -4.594948    1.1745883      8192000 
  120000   0.78603392   -4.6014944   -4.6014944   -3.4224438  0.034508207   -4.6014944    1.1790506      8192000 
  121000   0.78817307    -4.606948    -4.606948   -3.4246887  0.043365205    -4.606948    1.1822593      8192000 
  122000   0.78738684   -4.6077763   -4.6077763   -3.4266964  0.046657043   -4.6077763      1.18108      8192000 
  123000   0.78495962   -4.6065149   -4.6065149   -3.4290757  0.034108996   -4.6065149    1.1774391      8192000 
  124000   0.78105398   -4.6025845   -4.6025845   -3.4310038  0.017401726   -4.6025845    1.1715807      8192000 
  125000   0.77674078   -4.5982182   -4.5982182   -3.4331073 0.0030054595   -4.5982182    1.1651109      8192000 
  126000   0.77366514   -4.5955748   -4.5955748   -3.4350774 -0.0060494344   -4.5955748    1.1604974      8192000 
  127000   0.77302789   -4.5963825   -4.5963825    -3.436841 -0.011704094   -4.5963825    1.1595415      8192000 
  128000   0.77334192   -4.5988708   -4.5988708   -3.4388582 -0.0063231559   -4.5988708    1.1600126      8192000 
  129000   0.77549536   -4.6042364   -4.6042364   -3.4409936 0.0065384611   -4.6042364    1.1632427      8192000 
  130000   0.77846001   -4.6106413   -4.6106413   -3.4429516  0.020453415   -4.6106413    1.1676897      8192000 
  131000   0.78113768   -4.6169562   -4.6169562     -3.44525  0.031915363   -4.6169562    1.1717062      8192000 
  132000    0.7820213   -4.6199348   -4.6199348   -3.4469032  0.040132373   -4.6199348    1.1730317      8192000 
  133000   0.78094207    -4.619986    -4.619986   -3.4485732  0.040806717    -4.619986    1.1714128      8192000 
  134000   0.77887748   -4.6187695   -4.6187695   -3.4504535  0.028692196   -4.6187695    1.1683159      8192000 
  135000   0.77563752   -4.6156624   -4.6156624   -3.4522064  0.015916183   -4.6156624     1.163456      8192000 
  136000   0.77196807   -4.6119335   -4.6119335   -3.4539817 0.0043219391   -4.6119335    1.1579518      8192000 
  137000   0.77024947   -4.6111397   -4.6111397   -3.4557658 -0.0065650622   -4.6111397    1.1553739      8192000 
  138000   0.77014331   -4.6124369   -4.6124369   -3.4572223 -0.0025599528   -4.6124369    1.1552147      8192000 
  139000   0.77103857   -4.6154805   -4.6154805   -3.4589229 0.0038496742   -4.6154805    1.1565576      8192000 
  140000   0.77298826   -4.6201465   -4.6201465   -3.4606644   0.01281563   -4.6201465    1.1594821      8192000 
  141000   0.77488127   -4.6247401   -4.6247401   -3.4624185  0.024799833   -4.6247401    1.1623216      8192000 
  142000   0.77696894   -4.6293203   -4.6293203   -3.4638672   0.03425291   -4.6293203    1.1654531      8192000 
  143000   0.77739539    -4.631606    -4.631606   -3.4655132  0.035675719    -4.631606    1.1660928      8192000 
  144000   0.77583202   -4.6310007   -4.6310007   -3.4672529  0.032697738   -4.6310007    1.1637477      8192000 
  145000   0.77421813   -4.6302666   -4.6302666   -3.4689397  0.022142637   -4.6302666    1.1613269      8192000 
  146000   0.77157987   -4.6281292   -4.6281292   -3.4707597  0.011959324   -4.6281292    1.1573695      8192000 
  147000   0.76957894   -4.6268099   -4.6268099   -3.4724417 0.0064187107   -4.6268099    1.1543681      8192000 
  148000    0.7687516   -4.6270384   -4.6270384   -3.4739113 0.0037950764   -4.6270384    1.1531271      8192000 
  149000   0.76892728   -4.6288389   -4.6288389   -3.4754483 0.0093343271   -4.6288389    1.1533906      8192000 
  150000   0.77151992   -4.6340826   -4.6340826    -3.476803  0.019000776   -4.6340826    1.1572796      8192000 
  151000   0.77443052   -4.6400404   -4.6400404   -3.4783949  0.031928952   -4.6400404    1.1616455      8192000 
  152000   0.77778379   -4.6464284   -4.6464284    -3.479753  0.049314778   -4.6464284    1.1666754      8192000 
  153000   0.78011552   -4.6514352   -4.6514352   -3.4812622  0.065709643   -4.6514352     1.170173      8192000 
  154000   0.78275541   -4.6568137   -4.6568137   -3.4826809  0.080412402   -4.6568137    1.1741328      8192000 
  155000   0.78477993   -4.6617046   -4.6617046    -3.484535  0.094197953   -4.6617046    1.1771696      8192000 
  156000   0.78812438    -4.668278    -4.668278   -3.4860917   0.11884213    -4.668278    1.1821863      8192000 
  157000    0.7924619   -4.6761404   -4.6761404   -3.4874479   0.15586073   -4.6761404    1.1886925      8192000 
  158000   0.79789824   -4.6857234   -4.6857234   -3.4888763   0.18890534   -4.6857234    1.1968471      8192000 
  159000   0.80155856    -4.692664    -4.692664   -3.4903265    0.2092133    -4.692664    1.2023375      8192000 
  160000   0.80293649   -4.6960297   -4.6960297   -3.4916253   0.21432781   -4.6960297    1.2044044      8192000 
  161000   0.80097291   -4.6941534   -4.6941534   -3.4926944   0.19187401   -4.6941534    1.2014591      8192000 
  162000   0.79172188   -4.6818923   -4.6818923   -3.4943098   0.14276438   -4.6818923    1.1875825      8192000 
  163000   0.78041249   -4.6662385   -4.6662385     -3.49562   0.08975089   -4.6662385    1.1706184      8192000 
  164000   0.77069187   -4.6530699   -4.6530699   -3.4970323  0.044577403   -4.6530699    1.1560375      8192000 
  165000   0.76365521   -4.6439337   -4.6439337   -3.4984512   0.01447462   -4.6439337    1.1454825      8192000 
  166000   0.76024435   -4.6402449   -4.6402449   -3.4998786 -0.0016142626   -4.6402449    1.1403662      8192000 
  167000   0.75836926   -4.6387937   -4.6387937   -3.5012401 -0.0057146764   -4.6387937    1.1375536      8192000 
  168000   0.75906723   -4.6411452   -4.6411452   -3.5025447 -0.0016546995   -4.6411452    1.1386006      8192000 
  169000   0.76193828   -4.6468003   -4.6468003   -3.5038931  0.010771718   -4.6468003    1.1429071      8192000 
  170000   0.76579544   -4.6535154   -4.6535154   -3.5048225  0.027903881   -4.6535154    1.1486929      8192000 
  171000   0.76811157   -4.6584461   -4.6584461    -3.506279  0.042382597   -4.6584461    1.1521671      8192000 
  172000   0.76956326   -4.6616418   -4.6616418   -3.5072972  0.052978851   -4.6616418    1.1543446      8192000 
  173000   0.77007599   -4.6634876   -4.6634876   -3.5083739  0.053931855   -4.6634876    1.1551137      8192000 
  174000   0.76828192    -4.662273    -4.662273   -3.5098504  0.047292348    -4.662273    1.1524226      8192000 
  175000   0.76510429   -4.6588285   -4.6588285   -3.5111724  0.032027801   -4.6588285    1.1476561      8192000 
  176000   0.76094511   -4.6538037   -4.6538037   -3.5123864  0.016748523   -4.6538037    1.1414174      8192000 
  177000   0.75776421   -4.6502858   -4.6502858   -3.5136398 0.0034952992   -4.6502858     1.136646      8192000 
  178000   0.75499169   -4.6473265   -4.6473265   -3.5148392 -0.0058645728   -4.6473265    1.1324872      8192000 
  179000   0.75352129   -4.6462773   -4.6462773   -3.5159956  -0.01100414   -4.6462773    1.1302817      8192000 
  180000   0.75312477   -4.6468124   -4.6468124   -3.5171255 -0.010561746   -4.6468124    1.1296869      8192000 
  181000   0.75491052   -4.6507088   -4.6507088   -3.5183433 -0.0034931141   -4.6507088    1.1323655      8192000 
  182000   0.75770673    -4.655999    -4.655999   -3.5194392 0.0080566325    -4.655999    1.1365598      8192000 
  183000   0.76038305   -4.6611915   -4.6611915   -3.5206172  0.023757501   -4.6611915    1.1405743      8192000 
  184000   0.76346487   -4.6668372   -4.6668372   -3.5216402  0.037322356   -4.6668372     1.145197      8192000 
  185000   0.76430165   -4.6691872   -4.6691872    -3.522735  0.041955939   -4.6691872    1.1464522      8192000 
  186000   0.76420046   -4.6699955   -4.6699955   -3.5236951  0.041634172   -4.6699955    1.1463004      8192000 
  187000   0.76325448   -4.6695326   -4.6695326   -3.5246511   0.03526408   -4.6695326    1.1448814      8192000 
  188000   0.76054684   -4.6666362   -4.6666362   -3.5258163   0.02805059   -4.6666362      1.14082      8192000 
  189000   0.75789397   -4.6637533   -4.6637533   -3.5269126  0.018122251   -4.6637533    1.1368407      8192000 
  190000    0.7555177     -4.66123     -4.66123   -3.5279537 0.0049507447     -4.66123    1.1332763      8192000 
  191000    0.7524933   -4.6578636   -4.6578636   -3.5291239 -0.0041593938   -4.6578636    1.1287397      8192000 
  192000   0.75079502   -4.6566202   -4.6566202    -3.530428 -0.009641198   -4.6566202    1.1261922      8192000 
  193000   0.75097797   -4.6577802   -4.6577802   -3.5313136 -0.0076139396   -4.6577802    1.1264667      8192000 
  194000   0.75253763   -4.6612913   -4.6612913   -3.5324851 -0.0029812594   -4.6612913    1.1288062      8192000 
  195000   0.75478426   -4.6656152   -4.6656152   -3.5334391   0.00703476   -4.6656152    1.1321761      8192000 
  196000   0.75696725   -4.6700914   -4.6700914   -3.5346408   0.01508027   -4.6700914    1.1354506      8192000 
  197000     0.759096   -4.6741474   -4.6741474   -3.5355037  0.024583601   -4.6741474    1.1386437      8192000 
  198000   0.76025542   -4.6770651   -4.6770651   -3.5366823  0.033797804   -4.6770651    1.1403828      8192000 
  199000    0.7606458    -4.678871    -4.678871   -3.5379026  0.035256684    -4.678871    1.1409684      8192000 
  200000   0.75990615   -4.6788322   -4.6788322   -3.5389733  0.032377824   -4.6788322    1.1398589      8192000 
  201000   0.75825265     -4.67711     -4.67711   -3.5397313  0.026474859     -4.67711    1.1373787      8192000 
  202000   0.75590331   -4.6746225   -4.6746225   -3.5407678  0.017059817   -4.6746225    1.1338547      8192000 
  203000   0.75346182   -4.6720899   -4.6720899   -3.5418974 0.0063787243   -4.6720899    1.1301924      8192000 
  204000   0.75166055   -4.6701283   -4.6701283   -3.5426377 -0.001952513   -4.6701283    1.1274905      8192000 
  205000   0.74985639   -4.6686565   -4.6686565   -3.5438722 -0.0064405122   -4.6686565    1.1247843      8192000 
  206000    0.7494828   -4.6688339   -4.6688339     -3.54461  -0.00707755   -4.6688339    1.1242239      8192000 
  207000   0.75057332   -4.6713288   -4.6713288   -3.5454691 -0.0038784838   -4.6713288    1.1258597      8192000 
  208000    0.7520095   -4.6745206   -4.6745206   -3.5465066 0.0019528817   -4.6745206     1.128014      8192000 
  209000     0.753864   -4.6781565   -4.6781565   -3.5473608  0.013077292   -4.6781565    1.1307957      8192000 
  210000   0.75556561   -4.6818368   -4.6818368   -3.5484887  0.021898482   -4.6818368    1.1333481      8192000 
  211000   0.75679914   -4.6847334   -4.6847334    -3.549535  0.028523109   -4.6847334    1.1351984      8192000 
  212000   0.75721801   -4.6864605   -4.6864605   -3.5506338  0.032422092   -4.6864605    1.1358267      8192000 
  213000   0.75739912    -4.687707    -4.687707   -3.5516086  0.031615927    -4.687707    1.1360984      8192000 
  214000   0.75620256   -4.6869278   -4.6869278   -3.5526242  0.025488572   -4.6869278    1.1343036      8192000 
  215000   0.75455129   -4.6853696   -4.6853696   -3.5535429  0.017153746   -4.6853696    1.1318267      8192000 
  216000   0.75192189   -4.6825059   -4.6825059   -3.5546233 0.0088748499   -4.6825059    1.1278826      8192000 
  217000    0.7500149   -4.6805709   -4.6805709   -3.5555488 0.00053189875   -4.6805709    1.1250221      8192000 
  218000   0.74880152   -4.6796164   -4.6796164   -3.5564144 -0.0026416832   -4.6796164     1.123202      8192000 
  219000   0.74786225   -4.6791641   -4.6791641    -3.557371 -0.004530297   -4.6791641    1.1217931      8192000 
  220000   0.74871726   -4.6815753   -4.6815753   -3.5584997 -0.0027694187   -4.6815753    1.1230756      8192000 
  221000   0.74967733   -4.6836354   -4.6836354   -3.5591197 0.0041737562   -4.6836354    1.1245157      8192000 
  222000   0.75195794   -4.6880269   -4.6880269   -3.5600902  0.012329877   -4.6880269    1.1279366      8192000 
  223000   0.75375842   -4.6915903   -4.6915903    -3.560953  0.019074921   -4.6915903    1.1306373      8192000 
  224000   0.75463461   -4.6936715   -4.6936715   -3.5617199  0.025527902   -4.6936715    1.1319516      8192000 
  225000   0.75541518    -4.695804    -4.695804   -3.5626815  0.027075799    -4.695804    1.1331225      8192000 
  226000   0.75579256   -4.6971383   -4.6971383   -3.5634497  0.027258349   -4.6971383    1.1336886      8192000 
  227000   0.75462785   -4.6963616   -4.6963616   -3.5644201  0.023687376   -4.6963616    1.1319415      8192000 
  228000    0.7530088   -4.6951518   -4.6951518   -3.5656389   0.01799532   -4.6951518    1.1295129      8192000 
  229000   0.75080939   -4.6924733   -4.6924733   -3.5662595  0.012065167   -4.6924733    1.1262138      8192000 
  230000   0.74915914   -4.6908484   -4.6908484     -3.56711 0.0049299455   -4.6908484    1.1237384      8192000 
  231000   0.74786952   -4.6897684   -4.6897684   -3.5679644 -0.0010332834   -4.6897684     1.121804      8192000 
  232000   0.74738757    -4.690002    -4.690002   -3.5689209 -0.002030039    -4.690002    1.1210811      8192000 
  233000   0.74783168   -4.6913536   -4.6913536   -3.5696064 -0.0001040121   -4.6913536    1.1217472      8192000 
  234000   0.74853213   -4.6934418   -4.6934418   -3.5706439 0.0038413353   -4.6934418    1.1227979      8192000 
  235000   0.75026394   -4.6966488   -4.6966488   -3.5712532   0.01006035   -4.6966488    1.1253956      8192000 
  236000   0.75176347   -4.6995233   -4.6995233   -3.5718783  0.018996446   -4.6995233    1.1276449      8192000 
  237000   0.75296321    -4.701856    -4.701856   -3.5724114  0.025897755    -4.701856    1.1294445      8192000 
  238000   0.75349512   -4.7033502   -4.7033502   -3.5731078  0.026595697   -4.7033502    1.1302424      8192000 
  239000   0.75323396   -4.7037702   -4.7037702   -3.5739195  0.024774716   -4.7037702    1.1298507      8192000 
  240000   0.75209694   -4.7027328   -4.7027328   -3.5745877  0.022622141   -4.7027328    1.1281451      8192000 
  241000   0.75132943    -4.702244    -4.702244   -3.5752502  0.018166899    -4.702244    1.1269939      8192000 
  242000    0.7496616   -4.7007041   -4.7007041    -3.576212  0.012258427   -4.7007041    1.1244921      8192000 
  243000   0.74821821   -4.6991724   -4.6991724   -3.5768454 0.0060164717   -4.6991724     1.122327      8192000 
  244000   0.74708019   -4.6983546   -4.6983546   -3.5777346 0.0019866214   -4.6983546      1.12062      8192000 
  245000   0.74682119   -4.6987086   -4.6987086   -3.5784771 -4.8476255e-05   -4.6987086    1.1202315      8192000 
  246000   0.74724255   -4.6998922   -4.6998922   -3.5790286 0.0036872479   -4.6998922    1.1208635      8192000 
  247000   0.74791064   -4.7014967   -4.7014967    -3.579631 0.0063005131   -4.7014967    1.1218657      8192000 
  248000   0.74947501   -4.7045219   -4.7045219   -3.5803097  0.010471464   -4.7045219    1.1242122      8192000 
  249000   0.75024518   -4.7062114   -4.7062114    -3.580844  0.018031917   -4.7062114    1.1253675      8192000 
  250000   0.75125665   -4.7083598   -4.7083598   -3.5814752  0.020748446   -4.7083598    1.1268847      8192000 
  251000   0.75168652   -4.7097602   -4.7097602   -3.5822307   0.02183377   -4.7097602    1.1275295      8192000 
  252000   0.75161751   -4.7103297   -4.7103297   -3.5829037  0.024700182   -4.7103297     1.127426      8192000 
  253000    0.7510404   -4.7101983   -4.7101983    -3.583638  0.021773942   -4.7101983    1.1265603      8192000 
  254000   0.74964131   -4.7088189   -4.7088189   -3.5843572   0.01711504   -4.7088189    1.1244617      8192000 
  255000   0.74883818    -4.708327    -4.708327     -3.58507  0.010417975    -4.708327     1.123257      8192000 
  256000   0.74738901   -4.7069399   -4.7069399   -3.5858567 0.0061742907   -4.7069399    1.1210832      8192000 
  257000   0.74635789   -4.7061667   -4.7061667   -3.5866301 0.0030939104   -4.7061667    1.1195366      8192000 
  258000   0.74605889   -4.7062175   -4.7062175   -3.5871294 0.0024849977   -4.7062175    1.1190881      8192000 
  259000   0.74644597   -4.7073353   -4.7073353   -3.5876666 0.0038673791   -4.7073353    1.1196687      8192000 
  260000   0.74700453   -4.7086698   -4.7086698   -3.5881633 0.0079403769   -4.7086698    1.1205065      8192000 
  261000   0.74809025   -4.7106679   -4.7106679   -3.5885328  0.011855405   -4.7106679    1.1221351      8192000 
  262000   0.74879812   -4.7124522   -4.7124522   -3.5892553  0.015843578   -4.7124522    1.1231969      8192000 
  263000    0.7502084   -4.7150793   -4.7150793   -3.5897669  0.019725135   -4.7150793    1.1253123      8192000 
  264000   0.75026222   -4.7159485   -4.7159485   -3.5905554  0.021778342   -4.7159485    1.1253931      8192000 
  265000   0.75011002   -4.7162028   -4.7162028   -3.5910381  0.023656956   -4.7162028    1.1251647      8192000 
  266000   0.74968394   -4.7160268   -4.7160268   -3.5915012  0.019816269   -4.7160268    1.1245256      8192000 
  267000   0.74847156   -4.7148113   -4.7148113   -3.5921042  0.016441762   -4.7148113    1.1227071      8192000 
  268000   0.74762112   -4.7141854   -4.7141854    -3.592754   0.01047013   -4.7141854    1.1214314      8192000 
  269000   0.74613763   -4.7124216   -4.7124216   -3.5932154  0.010634595   -4.7124216    1.1192062      8192000 
  270000   0.74634945   -4.7131152   -4.7131152   -3.5935913 0.0040545469   -4.7131152    1.1195239      8192000 
  271000   0.74592473   -4.7130793   -4.7130793   -3.5941925 0.0029558619   -4.7130793    1.1188868      8192000 
  272000   0.74574036   -4.7132359   -4.7132359   -3.5946257 0.0076026516   -4.7132359    1.1186103      8192000 
  273000   0.74621667   -4.7146518   -4.7146518   -3.5953271 0.0085582208   -4.7146518    1.1193247      8192000 
  274000   0.74689337   -4.7162957   -4.7162957   -3.5959559  0.012805629   -4.7162957    1.1203398      8192000 
  275000   0.74837713   -4.7188696   -4.7188696   -3.5963042  0.016009984   -4.7188696    1.1225654      8192000 
  276000   0.74897661   -4.7204665   -4.7204665   -3.5970019  0.019508363   -4.7204665    1.1234646      8192000 
  277000    0.7489944   -4.7209574   -4.7209574    -3.597466  0.022762721   -4.7209574    1.1234913      8192000 
  278000   0.74872356    -4.721113    -4.721113   -3.5980279  0.021060098    -4.721113    1.1230851      8192000 
  279000   0.74804904   -4.7206156   -4.7206156   -3.5985423  0.019643771   -4.7206156    1.1220733      8192000 
  280000   0.74736502   -4.7198526   -4.7198526   -3.5988053  0.017695102   -4.7198526    1.1210472      8192000 
  281000     0.746765   -4.7194181   -4.7194181   -3.5992709  0.011098707   -4.7194181    1.1201472      8192000 
  282000   0.74551346    -4.718125    -4.718125   -3.5998551 0.0088594634    -4.718125    1.1182699      8192000 
  283000   0.74478351    -4.717538    -4.717538    -3.600363 0.0079472034    -4.717538     1.117175      8192000 
  284000   0.74536417    -4.718903    -4.718903   -3.6008571 0.0050016306    -4.718903     1.118046      8192000 
  285000   0.74535349   -4.7193268   -4.7193268   -3.6012968 0.0083692574   -4.7193268      1.11803      8192000 
  286000   0.74567339   -4.7200493   -4.7200493   -3.6015395  0.010052252   -4.7200493    1.1185098      8192000 
  287000   0.74620595   -4.7215345   -4.7215345   -3.6022259  0.013769341   -4.7215345    1.1193086      8192000 
  288000   0.74701686    -4.723412    -4.723412    -3.602887  0.015984924    -4.723412     1.120525      8192000 
  289000   0.74766803   -4.7248702   -4.7248702   -3.6033684  0.018139207   -4.7248702    1.1215018      8192000 
  290000   0.74788402   -4.7255589   -4.7255589   -3.6037332  0.020900672   -4.7255589    1.1218258      8192000 
  291000    0.7477651   -4.7258817   -4.7258817   -3.6042343  0.019987028   -4.7258817    1.1216474      8192000 
  292000   0.74721636   -4.7255487   -4.7255487   -3.6047245  0.018934286   -4.7255487    1.1208243      8192000 
  293000   0.74660547   -4.7252305   -4.7252305   -3.6053226  0.014327758   -4.7252305    1.1199079      8192000 
  294000   0.74576831   -4.7241423   -4.7241423   -3.6054901  0.012060316   -4.7241423    1.1186522      8192000 
  295000   0.74509397   -4.7235417   -4.7235417    -3.605901 0.0093428413   -4.7235417    1.1176407      8192000 
  296000   0.74459971   -4.7229385   -4.7229385   -3.6060393 0.0091707053   -4.7229385    1.1168993      8192000 
  297000   0.74493913   -4.7236611   -4.7236611   -3.6062527  0.007973625   -4.7236611    1.1174084      8192000 
  298000    0.7453373     -4.72448     -4.72448   -3.6064743 0.0077319051     -4.72448    1.1180057      8192000 
  299000   0.74496147   -4.7244928   -4.7244928   -3.6070508  0.010939757   -4.7244928    1.1174419      8192000 
  300000   0.74583693   -4.7260182   -4.7260182   -3.6072631  0.013023419   -4.7260182    1.1187551      8192000 
  301000   0.74660937   -4.7276319   -4.7276319   -3.6077181  0.017077095   -4.7276319    1.1199138      8192000 
  302000   0.74688895    -4.728574    -4.728574   -3.6082409  0.019163727    -4.728574    1.1203331      8192000 
  303000   0.74683802   -4.7289319   -4.7289319   -3.6086751   0.01889537   -4.7289319    1.1202567      8192000 
  304000   0.74725154   -4.7298145   -4.7298145   -3.6089375  0.017848897   -4.7298145     1.120877      8192000 
  305000   0.74618285   -4.7286973   -4.7286973   -3.6094233   0.01931196   -4.7286973     1.119274      8192000 
  306000   0.74588819   -4.7285416   -4.7285416   -3.6097096  0.017678897   -4.7285416     1.118832      8192000 
  307000   0.74510304   -4.7279749   -4.7279749   -3.6103206  0.013472843   -4.7279749    1.1176543      8192000 
  308000   0.74472876   -4.7277499   -4.7277499   -3.6106571 0.0091115604   -4.7277499    1.1170929      8192000 
  309000   0.74448597   -4.7275467   -4.7275467   -3.6108181 0.0067434113   -4.7275467    1.1167287      8192000 
  310000    0.7441792   -4.7273216   -4.7273216   -3.6110531  0.009156025   -4.7273216    1.1162685      8192000 
  311000   0.74426691   -4.7278249   -4.7278249   -3.6114248   0.01023991   -4.7278249    1.1164001      8192000 
  312000   0.74465127   -4.7285527   -4.7285527    -3.611576  0.013240925   -4.7285527    1.1169766      8192000 
  313000   0.74530696   -4.7295713   -4.7295713   -3.6116111  0.015909311   -4.7295713    1.1179602      8192000 
  314000   0.74563703   -4.7302767   -4.7302767   -3.6118214  0.017370277   -4.7302767    1.1184553      8192000 
  315000   0.74611696   -4.7312879   -4.7312879   -3.6121128  0.020451042   -4.7312879    1.1191752      8192000 
  316000    0.7460822   -4.7314425   -4.7314425   -3.6123194  0.019703775   -4.7314425     1.119123      8192000 
  317000   0.74590205   -4.7316985   -4.7316985   -3.6128457  0.020289686   -4.7316985    1.1188528      8192000 
  318000   0.74555085   -4.7315341   -4.7315341   -3.6132081  0.019354062   -4.7315341     1.118326      8192000 
  319000   0.74513816   -4.7309415   -4.7309415   -3.6132346  0.016885501   -4.7309415     1.117707      8192000 
  320000   0.74507289   -4.7311678   -4.7311678   -3.6135587  0.014102356   -4.7311678    1.1176091      8192000 
  321000    0.7442099   -4.7303854   -4.7303854   -3.6140709  0.013233182   -4.7303854    1.1163146      8192000 
  322000   0.74347103   -4.7299017   -4.7299017   -3.6146954  0.010708793   -4.7299017    1.1152063      8192000 
  323000   0.74390346    -4.730715    -4.730715   -3.6148601  0.010369454    -4.730715    1.1158549      8192000 
  324000   0.74380885   -4.7308461   -4.7308461   -3.6151331  0.011093879   -4.7308461     1.115713      8192000 
  325000   0.74396979   -4.7310699   -4.7310699   -3.6151155  0.012397125   -4.7310699    1.1159544      8192000 
  326000   0.74418914   -4.7314108   -4.7314108   -3.6151274  0.015583392   -4.7314108    1.1162834      8192000 
  327000    0.7446834   -4.7322669   -4.7322669   -3.6152421  0.015276707   -4.7322669    1.1170248      8192000 
  328000   0.74550114   -4.7334701   -4.7334701   -3.6152187  0.017158413   -4.7334701    1.1182514      8192000 
  329000   0.74507932   -4.7331248   -4.7331248   -3.6155061  0.020602844   -4.7331248    1.1176187      8192000 
  330000   0.74561249   -4.7339547   -4.7339547   -3.6155362  0.017876215   -4.7339547    1.1184185      8192000 
  331000   0.74500703   -4.7332612   -4.7332612   -3.6157509  0.017371849   -4.7332612    1.1175103      8192000 
  332000   0.74466295   -4.7328057   -4.7328057   -3.6158116  0.015788303   -4.7328057    1.1169941      8192000 
  333000   0.74434429   -4.7325069   -4.7325069   -3.6159907  0.014022507   -4.7325069    1.1165162      8192000 
  334000   0.74408183   -4.7321119   -4.7321119   -3.6159894  0.011602368   -4.7321119    1.1161225      8192000 
  335000   0.74374611   -4.7320682   -4.7320682   -3.6164493  0.010140845   -4.7320682    1.1156189      8192000 
  336000   0.74345398   -4.7317351   -4.7317351   -3.6165544  0.012571728   -4.7317351    1.1151807      8192000 
  337000   0.74333569   -4.7318017   -4.7318017   -3.6167984  0.011460879   -4.7318017    1.1150033      8192000 
  338000   0.74336814   -4.7320155   -4.7320155   -3.6169636  0.010896174   -4.7320155    1.1150519      8192000 
  339000   0.74364078    -4.732731    -4.732731   -3.6172701   0.01255399    -4.732731    1.1154609      8192000 
  340000   0.74391274   -4.7330657   -4.7330657   -3.6171969  0.015571424   -4.7330657    1.1158688      8192000 
  341000   0.74456788   -4.7341816   -4.7341816     -3.61733  0.016130993   -4.7341816    1.1168515      8192000 
  342000   0.74422183   -4.7336942   -4.7336942   -3.6173617  0.017943859   -4.7336942    1.1163325      8192000 
  343000   0.74486824   -4.7346377   -4.7346377   -3.6173357  0.017923103   -4.7346377    1.1173021      8192000 
  344000   0.74498377   -4.7348248   -4.7348248   -3.6173494  0.016236875   -4.7348248    1.1174754      8192000 
  345000   0.74395234   -4.7333648   -4.7333648   -3.6174365  0.017138645   -4.7333648    1.1159282      8192000 
  346000   0.74401314   -4.7332984   -4.7332984    -3.617279  0.014183601   -4.7332984    1.1160194      8192000 
  347000   0.74360333   -4.7323841   -4.7323841   -3.6169794  0.012984029   -4.7323841    1.1154047      8192000 
  348000   0.74288123   -4.7315857   -4.7315857   -3.6172642  0.011042539   -4.7315857    1.1143216      8192000 
  349000    0.7436649   -4.7326816   -4.7326816   -3.6171845  0.010307724   -4.7326816    1.1154971      8192000 
  350000   0.74281542   -4.7315477   -4.7315477   -3.6173249  0.011445189   -4.7315477    1.1142228      8192000 
  351000   0.74248622   -4.7310891   -4.7310891     -3.61736   0.01001605   -4.7310891     1.113729      8192000 
  352000   0.74255693   -4.7313169   -4.7313169   -3.6174818  0.011639216   -4.7313169    1.1138351      8192000 
  353000   0.74324439   -4.7324771   -4.7324771   -3.6176108  0.011656692   -4.7324771    1.1148663      8192000 
  354000   0.74343563   -4.7326356   -4.7326356   -3.6174824  0.013279355   -4.7326356    1.1151532      8192000 
  355000   0.74359328   -4.7329343   -4.7329343   -3.6175446  0.015641442   -4.7329343    1.1153896      8192000 
  356000   0.74374755   -4.7330847   -4.7330847   -3.6174637  0.014412766   -4.7330847     1.115621      8192000 
  357000    0.7434405   -4.7324938   -4.7324938   -3.6173333  0.016715485   -4.7324938    1.1151605      8192000 
  358000   0.74366971    -4.732943    -4.732943   -3.6174387  0.016604778    -4.732943    1.1155043      8192000 
  359000    0.7433639   -4.7325258   -4.7325258   -3.6174802  0.015209555   -4.7325258    1.1150456      8192000 
  360000   0.74332884   -4.7322647   -4.7322647   -3.6172717  0.014589502   -4.7322647     1.114993      8192000 
  361000    0.7425918   -4.7312509   -4.7312509   -3.6173635  0.012899557   -4.7312509    1.1138874      8192000 
  362000   0.74208011   -4.7305048   -4.7305048   -3.6173849  0.011749576   -4.7305048    1.1131199      8192000 
  363000   0.74185129   -4.7301321   -4.7301321   -3.6173555  0.011289675   -4.7301321    1.1127767      8192000 
  364000    0.7420546    -4.730137    -4.730137   -3.6170554  0.010474878    -4.730137    1.1130816      8192000 
  365000   0.74216663   -4.7299766   -4.7299766   -3.6167269  0.010508565   -4.7299766    1.1132497      8192000 
  366000    0.7424442   -4.7304711   -4.7304711    -3.616805  0.010439882   -4.7304711     1.113666      8192000 
  367000   0.74225331   -4.7300517   -4.7300517    -3.616672  0.012687677   -4.7300517    1.1133797      8192000 
  368000    0.7425108   -4.7302836   -4.7302836   -3.6165177  0.014908806   -4.7302836    1.1137659      8192000 
  369000   0.74317859   -4.7307137   -4.7307137   -3.6159461  0.014690607   -4.7307137    1.1147676      8192000 
  370000   0.74310947   -4.7308253   -4.7308253   -3.6161614  0.013084846   -4.7308253    1.1146639      8192000 
  371000    0.7430836   -4.7306768   -4.7306768   -3.6160517  0.013950011   -4.7306768    1.1146251      8192000 
  372000   0.74284263   -4.7301891   -4.7301891   -3.6159254  0.016211552   -4.7301891    1.1142637      8192000 
  373000     0.742742   -4.7296134   -4.7296134   -3.6155007  0.014642343   -4.7296134    1.1141127      8192000 
  374000   0.74192999   -4.7283051   -4.7283051   -3.6154104  0.013231577   -4.7283051    1.1128947      8192000 
  375000   0.74180593   -4.7278802   -4.7278802   -3.6151716  0.011565342   -4.7278802    1.1127086      8192000 
  376000   0.74149359   -4.7273574   -4.7273574   -3.6151173  0.010059814   -4.7273574    1.1122401      8192000 
  377000   0.74181038    -4.727743    -4.727743   -3.6150277 0.0091389863    -4.727743    1.1127153      8192000 
  378000   0.74149672   -4.7266827   -4.7266827   -3.6144379  0.010720883   -4.7266827    1.1122448      8192000 
  379000   0.74159985   -4.7265485   -4.7265485    -3.614149  0.011134741   -4.7265485    1.1123995      8192000 
  380000   0.74122901   -4.7257489   -4.7257489   -3.6139057  0.013269763   -4.7257489    1.1118432      8192000 
  381000   0.74193878   -4.7266136   -4.7266136   -3.6137057  0.011900385   -4.7266136    1.1129079      8192000 
  382000   0.74275172   -4.7274286   -4.7274286   -3.6133013  0.013856154   -4.7274286    1.1141273      8192000 
  383000   0.74221472   -4.7262467   -4.7262467   -3.6129249  0.014127552   -4.7262467    1.1133218      8192000 
  384000   0.74219494    -4.725929    -4.725929   -3.6126368  0.013565482    -4.725929    1.1132921      8192000 
  385000   0.74274007   -4.7265173   -4.7265173   -3.6124075  0.012097928   -4.7265173    1.1141098      8192000 
  386000   0.74212403   -4.7252023   -4.7252023   -3.6120165  0.014258879   -4.7252023    1.1131858      8192000 
  387000     0.741953   -4.7246602   -4.7246602    -3.611731  0.012004321   -4.7246602    1.1129292      8192000 
  388000   0.74131991   -4.7234371   -4.7234371   -3.6114575  0.011537432   -4.7234371    1.1119796      8192000 
  389000   0.74158698   -4.7232826   -4.7232826   -3.6109024 0.0090860617   -4.7232826    1.1123802      8192000 
  390000   0.74143751    -4.722791    -4.722791   -3.6106351 0.0096156959    -4.722791     1.112156      8192000 
  391000   0.74099192   -4.7218335   -4.7218335   -3.6103459 0.0091179312   -4.7218335    1.1114876      8192000 
  392000     0.741238   -4.7217461   -4.7217461   -3.6098894 0.0087235411   -4.7217461    1.1118567      8192000 
  393000   0.74157718   -4.7216185   -4.7216185    -3.609253 0.0093932417   -4.7216185    1.1123655      8192000 
  394000   0.74142149   -4.7210375   -4.7210375   -3.6089055  0.011320652   -4.7210375     1.112132      8192000 
  395000   0.74161194   -4.7211577   -4.7211577     -3.60874  0.012629323   -4.7211577    1.1124176      8192000 
  396000   0.74207417   -4.7212103   -4.7212103   -3.6080993  0.011274937   -4.7212103     1.113111      8192000 
  397000   0.74154144   -4.7200278   -4.7200278   -3.6077159  0.011997077   -4.7200278    1.1123119      8192000 
  398000   0.74190199   -4.7204558   -4.7204558   -3.6076031  0.010109379   -4.7204558    1.1128527      8192000 
  399000   0.74164999   -4.7196344   -4.7196344   -3.6071597  0.010981106   -4.7196344    1.1124747      8192000 
  400000   0.74153313   -4.7188256   -4.7188256   -3.6065262   0.01069406   -4.7188256    1.1122994      8192000 
  401000   0.74081661   -4.7173314   -4.7173314   -3.6061067  0.010339287   -4.7173314    1.1112246      8192000 
  402000   0.74119253   -4.7172561   -4.7172561   -3.6054676 0.0087864461   -4.7172561    1.1117885      8192000 
  403000   0.74105041    -4.716448    -4.716448   -3.6048726 0.0095164549    -4.716448    1.1115753      8192000 
  404000    0.7410124   -4.7160345   -4.7160345   -3.6045162 0.0091259286   -4.7160345    1.1115183      8192000 
  405000   0.74097067    -4.715689    -4.715689   -3.6042332 0.0086520144    -4.715689    1.1114557      8192000 
  406000   0.74092247   -4.7148943   -4.7148943   -3.6035109 0.0069360607   -4.7148943    1.1113834      8192000 
  407000   0.74080769    -4.714183    -4.714183   -3.6029718  0.010140153    -4.714183    1.1112113      8192000 
  408000   0.74102156   -4.7138023   -4.7138023   -3.6022702  0.010921183   -4.7138023    1.1115321      8192000 
  409000   0.74133168   -4.7135493   -4.7135493    -3.601552  0.011305718   -4.7135493    1.1119972      8192000 
  410000   0.74134968    -4.712835    -4.712835   -3.6008108  0.011335628    -4.712835    1.1120242      8192000 
  411000   0.74105594   -4.7119062   -4.7119062   -3.6003225  0.010413422   -4.7119062    1.1115836      8192000 
  412000   0.74126166   -4.7113347   -4.7113347   -3.5994425  0.010940956   -4.7113347    1.1118922      8192000 
  413000   0.74089195   -4.7103972   -4.7103972   -3.5990596  0.010443544   -4.7103972    1.1113377      8192000 
  414000   0.74061432   -4.7093312   -4.7093312     -3.59841 0.0089899282   -4.7093312    1.1109212      8192000 
  415000   0.74059409   -4.7086196   -4.7086196   -3.5977287 0.0082375738   -4.7086196    1.1108909      8192000 
  416000   0.74068115   -4.7079458   -4.7079458   -3.5969243 0.0072559277   -4.7079458    1.1110214      8192000 
  417000   0.74024685   -4.7066601   -4.7066601   -3.5962901 0.0073239506   -4.7066601      1.11037      8192000 
  418000   0.74041491   -4.7061152   -4.7061152   -3.5954932 0.0060301612   -4.7061152    1.1106221      8192000 
  419000   0.74013321   -4.7047214   -4.7047214   -3.5945219 0.0045703736   -4.7047214    1.1101995      8192000 
  420000   0.73976742     -4.70342     -4.70342   -3.5937691 0.0047881929     -4.70342    1.1096508      8192000 
  421000   0.74034383   -4.7033005   -4.7033005    -3.592785 0.00098806767   -4.7033005    1.1105155      8192000 
  422000   0.74026342   -4.7024872   -4.7024872   -3.5920923 0.00096087154   -4.7024872    1.1103949      8192000 
  423000   0.74080002   -4.7021488   -4.7021488    -3.590949 -0.0016352057   -4.7021488    1.1111997      8192000 
  424000   0.74083594    -4.701274    -4.701274   -3.5900204 -0.00084844892    -4.701274    1.1112536      8192000 
  425000   0.74149722   -4.7012989   -4.7012989   -3.5890534 0.00055855271   -4.7012989    1.1122455      8192000 
  426000   0.74303981   -4.7026987   -4.7026987   -3.5881392  0.005788653   -4.7026987    1.1145594      8192000 
  427000   0.74486313   -4.7046508   -4.7046508   -3.5873564   0.01419703   -4.7046508    1.1172944      8192000 
  428000   0.74640624   -4.7063802   -4.7063802   -3.5867711  0.023654345   -4.7063802    1.1196091      8192000 
  429000   0.74869333   -4.7095808   -4.7095808   -3.5865411  0.035890046   -4.7095808    1.1230397      8192000 
  430000   0.75096241   -4.7130818   -4.7130818   -3.5866384  0.046062066   -4.7130818    1.1264433      8192000 
  431000    0.7533351   -4.7165625   -4.7165625   -3.5865602  0.058226225   -4.7165625    1.1300024      8192000 
  432000   0.75529322   -4.7192917   -4.7192917   -3.5863521  0.068268176   -4.7192917    1.1329396      8192000 
  433000   0.75748253   -4.7227601   -4.7227601   -3.5865366  0.078753852   -4.7227601    1.1362235      8192000 
  434000   0.75928804   -4.7253929   -4.7253929   -3.5864612  0.090968497   -4.7253929    1.1389318      8192000 
  435000    0.7603166   -4.7271622   -4.7271622   -3.5866876   0.10450591   -4.7271622    1.1404746      8192000 
  436000   0.76167077   -4.7299082   -4.7299082   -3.5874023    0.1105895   -4.7299082    1.1425059      8192000 
  437000   0.76222738   -4.7313964   -4.7313964   -3.5880556   0.11355403   -4.7313964    1.1433408      8192000 
  438000   0.76227694   -4.7320915   -4.7320915   -3.5886764   0.11663165   -4.7320915    1.1434151      8192000 
  439000   0.76115287   -4.7312121   -4.7312121   -3.5894831   0.11066097   -4.7312121     1.141729      8192000 
  440000    0.7593934   -4.7287544   -4.7287544   -3.5896646   0.10156266   -4.7287544    1.1390898      8192000 
  441000   0.75744793   -4.7256366   -4.7256366    -3.589465  0.089190355   -4.7256366    1.1361716      8192000 
  442000    0.7554295    -4.722256    -4.722256    -3.589112  0.077172858    -4.722256     1.133144      8192000 
  443000   0.75314773   -4.7183243   -4.7183243    -3.588603  0.061411258   -4.7183243    1.1297213      8192000 
  444000   0.75047473   -4.7136036   -4.7136036   -3.5878918  0.045965851   -4.7136036    1.1257118      8192000 
  445000   0.74694118    -4.707318    -4.707318   -3.5869065  0.030711032    -4.707318    1.1204115      8192000 
  446000   0.74396117   -4.7015311   -4.7015311   -3.5855896  0.015003356   -4.7015311    1.1159415      8192000 
  447000   0.74108162    -4.695591    -4.695591   -3.5839689  -0.00348378    -4.695591    1.1116222      8192000 
  448000   0.73768527    -4.689132    -4.689132   -3.5826044 -0.018684273    -4.689132    1.1065276      8192000 
  449000   0.73520781   -4.6835988   -4.6835988   -3.5807873 -0.033279345   -4.6835988    1.1028114      8192000 
  450000   0.73279269   -4.6778933   -4.6778933   -3.5787045 -0.042480869   -4.6778933    1.0991888      8192000 
  451000   0.73193783   -4.6746094   -4.6746094   -3.5767029 -0.055401656   -4.6746094    1.0979065      8192000 
  452000   0.73001412   -4.6694508   -4.6694508   -3.5744299 -0.058999622   -4.6694508    1.0950209      8192000 
  453000   0.72946618   -4.6664737   -4.6664737   -3.5722748 -0.066497989   -4.6664737     1.094199      8192000 
  454000    0.7283068   -4.6626628   -4.6626628   -3.5702029 -0.067799775   -4.6626628    1.0924599      8192000 
  455000   0.72857816   -4.6608228   -4.6608228   -3.5679558 -0.069806358   -4.6608228     1.092867      8192000 
  456000   0.72915907   -4.6596775   -4.6596775   -3.5659391 -0.068721751   -4.6596775    1.0937383      8192000 
  457000   0.72959641    -4.658508    -4.658508   -3.5641137 -0.062750983    -4.658508    1.0943943      8192000 
  458000   0.73145006   -4.6591961   -4.6591961   -3.5620213 -0.057169479   -4.6591961    1.0971748      8192000 
  459000   0.73286067   -4.6595463   -4.6595463   -3.5602556 -0.046318998   -4.6595463    1.0992907      8192000 
  460000   0.73467887   -4.6609421   -4.6609421   -3.5589241 -0.039139685   -4.6609421     1.102018      8192000 
  461000   0.73703189   -4.6631302   -4.6631302   -3.5575826 -0.028659859   -4.6631302    1.1055476      8192000 
  462000   0.73944843   -4.6656444   -4.6656444    -3.556472 -0.017589212   -4.6656444    1.1091724      8192000 
  463000   0.74136499   -4.6681605   -4.6681605   -3.5561133 -0.0033638917   -4.6681605    1.1120472      8192000 
  464000   0.74407324   -4.6714947   -4.6714947   -3.5553851 0.0076899539   -4.6714947    1.1161096      8192000 
  465000   0.74672711   -4.6748707   -4.6748707   -3.5547804  0.020005649   -4.6748707    1.1200904      8192000 
  466000   0.74843145   -4.6774497   -4.6774497   -3.5548028  0.034326711   -4.6774497    1.1226469      8192000 
  467000   0.75019845   -4.6802326   -4.6802326   -3.5549352  0.045484076   -4.6802326    1.1252974      8192000 
  468000   0.75184069   -4.6827763   -4.6827763   -3.5550156  0.054979268   -4.6827763    1.1277607      8192000 
  469000   0.75344211   -4.6853806   -4.6853806   -3.5552177  0.061719922   -4.6853806    1.1301629      8192000 
  470000   0.75413615   -4.6867317   -4.6867317   -3.5555278  0.068084081   -4.6867317    1.1312039      8192000 
  471000   0.75449861   -4.6874444   -4.6874444   -3.5556968  0.071979643   -4.6874444    1.1317476      8192000 
  472000   0.75528109   -4.6885825   -4.6885825   -3.5556612  0.074530482   -4.6885825    1.1329214      8192000 
  473000   0.75488991   -4.6879081   -4.6879081   -3.5555735  0.076546976   -4.6879081    1.1323346      8192000 
  474000   0.75455577   -4.6878667   -4.6878667   -3.5560333  0.073099913   -4.6878667    1.1318334      8192000 
  475000   0.75366987   -4.6866353   -4.6866353   -3.5561308  0.068856234   -4.6866353    1.1305045      8192000 
  476000   0.75236454    -4.684468    -4.684468   -3.5559214  0.060937076    -4.684468    1.1285465      8192000 
  477000   0.75083997   -4.6818158   -4.6818158   -3.5555561  0.054965334   -4.6818158    1.1262597      8192000 
  478000   0.74920614   -4.6786019   -4.6786019   -3.5547929   0.04689663   -4.6786019    1.1238089      8192000 
  479000   0.74772098   -4.6753273   -4.6753273   -3.5537461  0.036760087   -4.6753273    1.1215812      8192000 
  480000   0.74566308   -4.6713404   -4.6713404   -3.5528461  0.026888619   -4.6713404    1.1184943      8192000 
  481000   0.74406234    -4.667753    -4.667753   -3.5516598  0.015683572    -4.667753    1.1160932      8192000 
  482000   0.74218158   -4.6634308   -4.6634308   -3.5501587 0.0065113424   -4.6634308    1.1132721      8192000 
  483000    0.7406241   -4.6596785   -4.6596785   -3.5487426 -0.0038066243   -4.6596785    1.1109359      8192000 
  484000   0.73876905   -4.6556163   -4.6556163    -3.547463 -0.012253527   -4.6556163    1.1081533      8192000 
  485000   0.73746715    -4.651968    -4.651968   -3.5457676 -0.020007347    -4.651968    1.1062004      8192000 
  486000   0.73647325   -4.6489544   -4.6489544   -3.5442448 -0.027882991   -4.6489544    1.1047096      8192000 
  487000   0.73528658   -4.6453893   -4.6453893   -3.5424597 -0.032741688   -4.6453893    1.1029296      8192000 
  488000   0.73486031   -4.6431955   -4.6431955   -3.5409054 -0.035943491   -4.6431955    1.1022902      8192000 
  489000   0.73455218   -4.6411603   -4.6411603   -3.5393324 -0.038390893   -4.6411603     1.101828      8192000 
  490000   0.73395497   -4.6388326   -4.6388326   -3.5379005 -0.039865565   -4.6388326    1.1009322      8192000 
  491000    0.7342972   -4.6379836   -4.6379836   -3.5365381 -0.040953424   -4.6379836    1.1014455      8192000 
  492000   0.73442619   -4.6370982   -4.6370982   -3.5354592 -0.039625262   -4.6370982     1.101639      8192000 
  493000    0.7347809   -4.6366156   -4.6366156   -3.5344445 -0.035039538   -4.6366156    1.1021711      8192000 
  494000   0.73602749   -4.6373859   -4.6373859   -3.5333449 -0.032171524   -4.6373859     1.104041      8192000 
  495000   0.73728706   -4.6385953   -4.6385953    -3.532665 -0.027709678   -4.6385953    1.1059303      8192000 
  496000   0.73834282   -4.6395247   -4.6395247   -3.5320107 -0.022002252   -4.6395247     1.107514      8192000 
  497000   0.73955801   -4.6406837   -4.6406837    -3.531347 -0.013619481   -4.6406837    1.1093367      8192000 
  498000   0.74106573   -4.6424164   -4.6424164   -3.5308181 -0.0063103486   -4.6424164    1.1115983      8192000 
  499000   0.74254575   -4.6444121   -4.6444121   -3.5305937 0.0020452644   -4.6444121    1.1138183      8192000 
  500000   0.74426022   -4.6469813   -4.6469813   -3.5305913 0.0088795759   -4.6469813    1.1163901      8192000 
  501000   0.74598682    -4.649734    -4.649734   -3.5307541  0.015457802    -4.649734    1.1189799      8192000 
  502000   0.74640407   -4.6507637   -4.6507637   -3.5311579  0.023633131   -4.6507637    1.1196058      8192000 
  503000   0.74769691    -4.653084    -4.653084    -3.531539  0.030987564    -4.653084    1.1215451      8192000 
  504000   0.74850858   -4.6550271   -4.6550271   -3.5322645  0.037034485   -4.6550271    1.1227626      8192000 
  505000   0.74917528    -4.656218    -4.656218   -3.5324554  0.043232129    -4.656218    1.1237626      8192000 
  506000   0.75001104   -4.6578366   -4.6578366   -3.5328203  0.045956992   -4.6578366    1.1250163      8192000 
  507000   0.75054658   -4.6592148   -4.6592148   -3.5333952  0.047153017   -4.6592148    1.1258196      8192000 
  508000   0.75032562   -4.6591082   -4.6591082     -3.53362  0.050098195   -4.6591082    1.1254882      8192000 
  509000   0.75003805   -4.6591852   -4.6591852   -3.5341284  0.050717741   -4.6591852    1.1250568      8192000 
  510000    0.7501191   -4.6593227   -4.6593227   -3.5341443  0.049236433   -4.6593227    1.1251784      8192000 
  511000     0.749504   -4.6586956   -4.6586956   -3.5344399   0.04760516   -4.6586956    1.1242557      8192000 
  512000   0.74951329   -4.6586111   -4.6586111   -3.5343415  0.043697863   -4.6586111    1.1242696      8192000 
  513000   0.74819233   -4.6567052   -4.6567052    -3.534417  0.040385454   -4.6567052    1.1222882      8192000 
  514000   0.74726066   -4.6550151   -4.6550151   -3.5341244  0.035907212   -4.6550151    1.1208907      8192000 
  515000   0.74648399   -4.6538214   -4.6538214   -3.5340957  0.029192772   -4.6538214    1.1197257      8192000 
  516000   0.74560792   -4.6517802   -4.6517802   -3.5333686  0.023212436   -4.6517802    1.1184116      8192000 
  517000   0.74435501   -4.6495324   -4.6495324   -3.5330001  0.016678049   -4.6495324    1.1165322      8192000 
  518000   0.74311885   -4.6470502   -4.6470502   -3.5323722  0.010985315   -4.6470502     1.114678      8192000 
  519000   0.74276186   -4.6458481   -4.6458481   -3.5317056 0.0019298662   -4.6458481    1.1141425      8192000 
  520000   0.74122377   -4.6428836   -4.6428836   -3.5310482 -0.0015515906   -4.6428836    1.1118354      8192000 
  521000   0.74030394    -4.640955    -4.640955   -3.5304994 -0.0078300324    -4.640955    1.1104556      8192000 
  522000   0.73950781   -4.6390239   -4.6390239   -3.5297625 -0.012326209   -4.6390239    1.1092614      8192000 
  523000   0.73920399     -4.63781     -4.63781   -3.5290043 -0.016300921     -4.63781    1.1088057      8192000 
  524000   0.73814907   -4.6352719   -4.6352719   -3.5280486 -0.017331872   -4.6352719    1.1072233      8192000 
  525000     0.738298   -4.6346649   -4.6346649   -3.5272181 -0.020493493   -4.6346649    1.1074467      8192000 
  526000   0.73822037   -4.6338591   -4.6338591   -3.5265288 -0.021291772   -4.6338591    1.1073303      8192000 
  527000   0.73777668   -4.6328835   -4.6328835   -3.5262188 -0.021760216   -4.6328835    1.1066647      8192000 
  528000   0.73819005   -4.6331456   -4.6331456   -3.5258608 -0.020904636   -4.6331456    1.1072848      8192000 
  529000   0.73856612   -4.6334451   -4.6334451   -3.5255962 -0.021337634   -4.6334451    1.1078489      8192000 
  530000   0.73916035   -4.6343043   -4.6343043    -3.525564 -0.019916198   -4.6343043    1.1087402      8192000 
  531000   0.73948363   -4.6345637   -4.6345637   -3.5253385 -0.018424506   -4.6345637    1.1092252      8192000 
  532000   0.73969047    -4.634758    -4.634758   -3.5252226   -0.0129205    -4.634758    1.1095354      8192000 
  533000   0.74057559   -4.6363395   -4.6363395   -3.5254764 -0.0084458927   -4.6363395    1.1108631      8192000 
  534000   0.74129849    -4.637684    -4.637684   -3.5257365 -0.0043808019    -4.637684    1.1119475      8192000 
  535000   0.74231773   -4.6392019   -4.6392019   -3.5257256 0.0020114736   -4.6392019    1.1134763      8192000 
  536000    0.7432435   -4.6407451   -4.6407451   -3.5258802 0.0073370224   -4.6407451     1.114865      8192000 
  537000   0.74427893   -4.6427626   -4.6427626   -3.5263444  0.011683731   -4.6427626    1.1164181      8192000 
  538000   0.74538198   -4.6446527   -4.6446527     -3.52658  0.017139812   -4.6446527    1.1180727      8192000 
  539000   0.74612262   -4.6460385   -4.6460385   -3.5268549    0.0212752   -4.6460385    1.1191836      8192000 
  540000   0.74720329   -4.6480111   -4.6480111   -3.5272065  0.026474283   -4.6480111    1.1208047      8192000 
  541000   0.74783949   -4.6493739   -4.6493739   -3.5276149  0.030151841   -4.6493739     1.121759      8192000 
  542000   0.74837849   -4.6506091   -4.6506091   -3.5280416  0.033387592   -4.6506091    1.1225674      8192000 
  543000   0.74880033   -4.6518617   -4.6518617   -3.5286615  0.034190982   -4.6518617    1.1232002      8192000 
  544000   0.74911488    -4.652708    -4.652708    -3.529036  0.037709074    -4.652708     1.123672      8192000 
  545000   0.74879318   -4.6526893   -4.6526893   -3.5294998  0.038147847   -4.6526893    1.1231895      8192000 
  546000   0.74874895   -4.6534004   -4.6534004   -3.5302772  0.036359164   -4.6534004    1.1231231      8192000 
  547000    0.7478667   -4.6525667   -4.6525667    -3.530767  0.037106611   -4.6525667    1.1217998      8192000 
  548000   0.74794293    -4.652924    -4.652924   -3.5310099  0.033510669    -4.652924    1.1219141      8192000 
  549000   0.74747119   -4.6524004   -4.6524004   -3.5311939  0.031988133   -4.6524004    1.1212065      8192000 
  550000   0.74706369   -4.6518141   -4.6518141   -3.5312189  0.028861044   -4.6518141    1.1205953      8192000 
  551000   0.74606425   -4.6504509   -4.6504509   -3.5313548  0.026765903   -4.6504509    1.1190961      8192000 
  552000   0.74559432    -4.649478    -4.649478   -3.5310868  0.022814762    -4.649478    1.1183912      8192000 
  553000    0.7449817   -4.6484657   -4.6484657   -3.5309935  0.017092385   -4.6484657    1.1174723      8192000 
  554000   0.74431567   -4.6471805   -4.6471805   -3.5307073  0.012477044   -4.6471805    1.1164732      8192000 
  555000    0.7429623   -4.6448793   -4.6448793   -3.5304362  0.012374425   -4.6448793    1.1144432      8192000 
  556000   0.74287197   -4.6440973   -4.6440973   -3.5297897 0.0060061362   -4.6440973    1.1143077      8192000 
  557000   0.74212098    -4.642486    -4.642486   -3.5293048 0.0029841484    -4.642486    1.1131812      8192000 
  558000   0.74148946    -4.641103    -4.641103   -3.5288691 -0.0021141925    -4.641103    1.1122339      8192000 
  559000   0.74115479   -4.6401742   -4.6401742   -3.5284423 -0.0050159568   -4.6401742    1.1117319      8192000 
  560000   0.74048256   -4.6385145   -4.6385145   -3.5277909 -0.0058574063   -4.6385145    1.1107236      8192000 
  561000   0.74038709   -4.6377592   -4.6377592   -3.5271788 -0.0077377346   -4.6377592    1.1105804      8192000 
  562000   0.74028494   -4.6373062   -4.6373062   -3.5268791 -0.0084042232   -4.6373062    1.1104271      8192000 
  563000   0.74034926   -4.6369542   -4.6369542   -3.5264306 -0.0099225411   -4.6369542    1.1105236      8192000 
  564000   0.74010443   -4.6362279   -4.6362279   -3.5260716 -0.0087396904   -4.6362279    1.1101564      8192000 
  565000    0.7403037   -4.6363372   -4.6363372   -3.5258819 -0.0096023941   -4.6363372    1.1104553      8192000 
  566000    0.7404055   -4.6360392   -4.6360392   -3.5254312 -0.0067190579   -4.6360392     1.110608      8192000 
  567000   0.74107672   -4.6369578   -4.6369578    -3.525343 -0.0071538124   -4.6369578    1.1116148      8192000 
  568000   0.74119284   -4.6369643   -4.6369643   -3.5251753 -0.0042032475   -4.6369643     1.111789      8192000 
  569000   0.74203406   -4.6383682   -4.6383682   -3.5253174 -0.0041514669   -4.6383682    1.1130508      8192000 
  570000   0.74214951   -4.6384343   -4.6384343   -3.5252103 -0.00011345544   -4.6384343     1.113224      8192000 
  571000   0.74274802   -4.6396603   -4.6396603   -3.5255385 0.0023086863   -4.6396603    1.1141217      8192000 
  572000   0.74320686   -4.6404218   -4.6404218   -3.5256117 0.0064004408   -4.6404218      1.11481      8192000 
  573000   0.74395999   -4.6413649   -4.6413649   -3.5254252 0.0097696575   -4.6413649    1.1159397      8192000 
  574000   0.74486749   -4.6430663   -4.6430663   -3.5257653  0.010696729   -4.6430663     1.117301      8192000 
  575000   0.74520196   -4.6437137   -4.6437137    -3.525911  0.014581325   -4.6437137    1.1178027      8192000 
  576000    0.7460191   -4.6449506   -4.6449506   -3.5259222  0.017492067   -4.6449506    1.1190284      8192000 
  577000   0.74598155   -4.6452839   -4.6452839   -3.5263119  0.021307177   -4.6452839    1.1189721      8192000 
  578000   0.74672926   -4.6466845   -4.6466845   -3.5265909  0.024287013   -4.6466845    1.1200936      8192000 
  579000   0.74675868   -4.6471021   -4.6471021   -3.5269644  0.025665405   -4.6471021    1.1201377      8192000 
  580000   0.74710981   -4.6478922   -4.6478922   -3.5272278   0.02558842   -4.6478922    1.1206644      8192000 
  581000   0.74706404   -4.6481206   -4.6481206   -3.5275248   0.02861189   -4.6481206    1.1205958      8192000 
  582000   0.74732984   -4.6487718   -4.6487718   -3.5277773  0.025941158   -4.6487718    1.1209945      8192000 
  583000   0.74687823   -4.6481099   -4.6481099   -3.5277928  0.027063723   -4.6481099    1.1203171      8192000 
  584000   0.74680411    -4.648211    -4.648211   -3.5280051  0.027285137    -4.648211    1.1202059      8192000 
  585000   0.74634817   -4.6475965   -4.6475965   -3.5280746  0.027217498   -4.6475965     1.119522      8192000 
  586000   0.74643361    -4.647789    -4.647789   -3.5281388  0.023402262    -4.647789    1.1196501      8192000 
  587000   0.74599505   -4.6473007   -4.6473007   -3.5283084  0.022024092   -4.6473007    1.1189923      8192000 
  588000    0.7457124   -4.6468797   -4.6468797   -3.5283114  0.019117463   -4.6468797    1.1185683      8192000 
  589000    0.7450294   -4.6455778   -4.6455778    -3.528034  0.019219239   -4.6455778    1.1175438      8192000 
  590000   0.74494201   -4.6452726   -4.6452726   -3.5278599  0.014000517   -4.6452726    1.1174127      8192000 
  591000   0.74454699   -4.6441304   -4.6441304   -3.5273102  0.012519576   -4.6441304    1.1168202      8192000 
  592000   0.74388214   -4.6426854   -4.6426854   -3.5268625  0.012172545   -4.6426854    1.1158229      8192000 
  593000   0.74344739   -4.6416263   -4.6416263   -3.5264555   0.00904552   -4.6416263    1.1151708      8192000 
  594000   0.74316841   -4.6412053   -4.6412053    -3.526453 0.0055963923   -4.6412053    1.1147523      8192000 
  595000   0.74305394   -4.6409473   -4.6409473   -3.5263666 0.0024236453   -4.6409473    1.1145806      8192000 
  596000   0.74251964   -4.6395705   -4.6395705   -3.5257913 0.0013039823   -4.6395705    1.1137792      8192000 
  597000   0.74220721   -4.6388104   -4.6388104   -3.5254998 0.00071906604   -4.6388104    1.1133105      8192000 
  598000   0.74218785   -4.6383344   -4.6383344   -3.5250529 -0.0021850271   -4.6383344    1.1132815      8192000 
  599000   0.74226044   -4.6379602   -4.6379602   -3.5245698 -0.002096183   -4.6379602    1.1133904      8192000 
  600000   0.74232929   -4.6379982   -4.6379982   -3.5245045 -0.0032668051   -4.6379982    1.1134937      8192000 
  601000   0.74217814   -4.6375001   -4.6375001   -3.5242332 -0.0024847571   -4.6375001    1.1132669      8192000 
  602000    0.7419771   -4.6368377   -4.6368377   -3.5238723 -0.0020438197   -4.6368377    1.1129654      8192000 
  603000   0.74225073   -4.6369809   -4.6369809   -3.5236051 -0.0025081744   -4.6369809    1.1133758      8192000 
  604000   0.74236765   -4.6368963   -4.6368963   -3.5233451 -0.0013473283   -4.6368963    1.1135512      8192000 
  605000   0.74272326   -4.6372153   -4.6372153   -3.5231307 -0.00023553413   -4.6372153    1.1140846      8192000 
  606000   0.74294754   -4.6375776   -4.6375776   -3.5231566 0.0035558218   -4.6375776     1.114421      8192000 
  607000   0.74344695   -4.6382593   -4.6382593   -3.5230892 0.0041952689   -4.6382593    1.1151702      8192000 
  608000   0.74388517   -4.6388106   -4.6388106   -3.5229831 0.0068770011   -4.6388106    1.1158275      8192000 
  609000   0.74456323   -4.6395592   -4.6395592   -3.5227147 0.0081989428   -4.6395592    1.1168446      8192000 
  610000   0.74469802   -4.6401805   -4.6401805   -3.5231337 0.0098611595   -4.6401805    1.1170468      8192000 
  611000   0.74502813   -4.6409013   -4.6409013   -3.5233594  0.011750409   -4.6409013    1.1175419      8192000 
  612000    0.7454513   -4.6415165   -4.6415165   -3.5233398  0.014221461   -4.6415165    1.1181767      8192000 
  613000   0.74556911   -4.6416861   -4.6416861   -3.5233327  0.017139905   -4.6416861    1.1183534      8192000 
  614000   0.74612554   -4.6424327   -4.6424327   -3.5232446  0.016764973   -4.6424327     1.119188      8192000 
  615000   0.74625436   -4.6428349   -4.6428349   -3.5234536  0.020190687   -4.6428349    1.1193813      8192000 
  616000   0.74625116   -4.6430373   -4.6430373   -3.5236609  0.022378205   -4.6430373    1.1193765      8192000 
  617000    0.7459431   -4.6428992   -4.6428992   -3.5239848  0.021882512   -4.6428992    1.1189144      8192000 
  618000   0.74632137   -4.6434781   -4.6434781   -3.5239963  0.021955856   -4.6434781    1.1194818      8192000 
  619000   0.74671179     -4.64422     -4.64422   -3.5241526  0.020396949     -4.64422    1.1200674      8192000 
  620000   0.74686449   -4.6443648   -4.6443648   -3.5240683  0.020790896   -4.6443648    1.1202965      8192000 
  621000   0.74639249   -4.6434843   -4.6434843   -3.5238958  0.021966285   -4.6434843    1.1195885      8192000 
  622000   0.74646983    -4.643751    -4.643751   -3.5240465  0.019862014    -4.643751    1.1197045      8192000 
  623000    0.7462316   -4.6433295   -4.6433295   -3.5239824  0.019433313   -4.6433295    1.1193471      8192000 
  624000   0.74605265   -4.6429349   -4.6429349   -3.5238562  0.017902474   -4.6429349    1.1190787      8192000 
  625000   0.74585225   -4.6424716   -4.6424716   -3.5236935  0.017131789   -4.6424716    1.1187781      8192000 
  626000   0.74546249   -4.6419669   -4.6419669   -3.5237734  0.014789855   -4.6419669    1.1181934      8192000 
  627000    0.7454921   -4.6414898   -4.6414898   -3.5232519  0.013918824   -4.6414898    1.1182379      8192000 
  628000   0.74507913   -4.6407528   -4.6407528   -3.5231344  0.011097552   -4.6407528    1.1176184      8192000 
  629000   0.74486021   -4.6399248   -4.6399248   -3.5226348  0.010032803   -4.6399248      1.11729      8192000 
  630000    0.7442245   -4.6387766   -4.6387766   -3.5224401 0.0096313669   -4.6387766    1.1163365      8192000 
  631000   0.74409173   -4.6383002   -4.6383002   -3.5221629 0.0069380102   -4.6383002    1.1161373      8192000 
  632000   0.74382879   -4.6375223   -4.6375223   -3.5217794  0.007452122   -4.6375223    1.1157429      8192000 
  633000    0.7437172   -4.6370177   -4.6370177   -3.5214422 0.0068715418   -4.6370177    1.1155755      8192000 
  634000   0.74390506   -4.6369217   -4.6369217   -3.5210644 0.0041808558   -4.6369217    1.1158573      8192000 
  635000   0.74390025   -4.6363268   -4.6363268   -3.5204767 0.0048050664   -4.6363268    1.1158501      8192000 
  636000   0.74372243   -4.6359373   -4.6359373   -3.5203539 0.0032656086   -4.6359373    1.1155834      8192000 
  637000   0.74392917   -4.6358826   -4.6358826   -3.5199891 0.0018982122   -4.6358826    1.1158935      8192000 
  638000   0.74376948   -4.6353883   -4.6353883   -3.5197344 0.0027931246   -4.6353883    1.1156539      8192000 
  639000   0.74372412   -4.6352193   -4.6352193   -3.5196334 0.0029776651   -4.6352193    1.1155859      8192000 
  640000   0.74350713   -4.6346755   -4.6346755   -3.5194151 0.0039964451   -4.6346755    1.1152604      8192000 
  641000   0.74439133   -4.6356514   -4.6356514   -3.5190646 0.0012828948   -4.6356514    1.1165867      8192000 
  642000   0.74426069   -4.6353857   -4.6353857   -3.5189949 0.0035964644   -4.6353857    1.1163908      8192000 
  643000   0.74447346   -4.6353663   -4.6353663   -3.5186564 0.0053593302   -4.6353663    1.1167099      8192000 
  644000   0.74451942   -4.6354174   -4.6354174   -3.5186386 0.0050231308   -4.6354174    1.1167788      8192000 
  645000   0.74491643   -4.6355217   -4.6355217   -3.5181474 0.0073799677   -4.6355217    1.1173744      8192000 
  646000   0.74522489   -4.6360493   -4.6360493   -3.5182123 0.0086621047   -4.6360493    1.1178371      8192000 
  647000   0.74561593   -4.6366815   -4.6366815   -3.5182579 0.0090800071   -4.6366815    1.1184236      8192000 
  648000   0.74564057   -4.6363397   -4.6363397   -3.5178791  0.011201142   -4.6363397    1.1184606      8192000 
  649000   0.74581706   -4.6367625   -4.6367625   -3.5180372  0.013391819   -4.6367625    1.1187253      8192000 
  650000   0.74640657   -4.6373241   -4.6373241   -3.5177146  0.014699904   -4.6373241    1.1196096      8192000 
  651000   0.74642393   -4.6373868   -4.6373868   -3.5177512  0.015182381   -4.6373868    1.1196356      8192000 
  652000    0.7464245   -4.6373922   -4.6373922   -3.5177557  0.015739102   -4.6373922    1.1196365      8192000 
  653000   0.74639313   -4.6374701   -4.6374701   -3.5178807  0.017049872   -4.6374701    1.1195894      8192000 
  654000   0.74657128   -4.6376124   -4.6376124   -3.5177557   0.01739168   -4.6376124    1.1198566      8192000 
  655000    0.7465377   -4.6375939   -4.6375939   -3.5177877  0.016866375   -4.6375939    1.1198063      8192000 
  656000   0.74660215   -4.6375995   -4.6375995   -3.5176965  0.018524092   -4.6375995    1.1199029      8192000 
  657000   0.74649701   -4.6378021   -4.6378021   -3.5180568  0.017773475   -4.6378021    1.1197452      8192000 
  658000   0.74689038   -4.6382143   -4.6382143    -3.517879  0.015795224   -4.6382143    1.1203353      8192000 
  659000   0.74651153    -4.637581    -4.637581    -3.517814   0.01670994    -4.637581     1.119767      8192000 
  660000   0.74702256   -4.6381424   -4.6381424   -3.5176088  0.015639388   -4.6381424    1.1205336      8192000 
  661000   0.74671353   -4.6372348   -4.6372348   -3.5171648  0.015895692   -4.6372348      1.12007      8192000 
  662000   0.74670146   -4.6371292   -4.6371292   -3.5170773  0.014705109   -4.6371292    1.1200519      8192000 
  663000   0.74636289   -4.6365782   -4.6365782   -3.5170342  0.015211863   -4.6365782     1.119544      8192000 
  664000   0.74640912   -4.6364592   -4.6364592   -3.5168458  0.013483645   -4.6364592    1.1196134      8192000 
  665000   0.74609682    -4.635675    -4.635675     -3.51653  0.012267375    -4.635675     1.119145      8192000 
  666000   0.74589246   -4.6352389   -4.6352389   -3.5164004  0.010962545   -4.6352389    1.1188384      8192000 
  667000   0.74605914   -4.6350996   -4.6350996   -3.5160111   0.01000245   -4.6350996    1.1190884      8192000 
  668000   0.74597127   -4.6346857   -4.6346857   -3.5157291 0.0084704923   -4.6346857    1.1189566      8192000 
  669000   0.74566951   -4.6341007   -4.6341007   -3.5155967 0.0071471898   -4.6341007     1.118504      8192000 
  670000   0.74517149   -4.6332483   -4.6332483   -3.5154914 0.0096015113   -4.6332483     1.117757      8192000 
  671000   0.74559101    -4.633346    -4.633346   -3.5149598 0.0063577348    -4.633346    1.1183862      8192000 
  672000   0.74580747   -4.6334591   -4.6334591   -3.5147482 0.0054664889   -4.6334591    1.1187109      8192000 
  673000   0.74515383   -4.6323753   -4.6323753   -3.5146448 0.0078192622   -4.6323753    1.1177305      8192000 
  674000   0.74538742   -4.6322416   -4.6322416   -3.5141608 0.0089642688   -4.6322416    1.1180808      8192000 
  675000   0.74553992   -4.6322814   -4.6322814   -3.5139718 0.0061088344   -4.6322814    1.1183096      8192000 
  676000   0.74557419    -4.631933    -4.631933    -3.513572  0.007396721    -4.631933     1.118361      8192000 
  677000   0.74577211   -4.6318739   -4.6318739    -3.513216 0.0077471545   -4.6318739    1.1186579      8192000 
  678000   0.74575122   -4.6314315   -4.6314315    -3.512805 0.0083104455   -4.6314315    1.1186265      8192000 
  679000    0.7461072   -4.6316307   -4.6316307   -3.5124702 0.0089133812   -4.6316307    1.1191605      8192000 
  680000   0.74624465   -4.6318937   -4.6318937    -3.512527 0.0059211809   -4.6318937    1.1193667      8192000 
  681000   0.74614261   -4.6314739   -4.6314739   -3.5122602 0.0092022878   -4.6314739    1.1192136      8192000 
  682000   0.74599472   -4.6313545   -4.6313545   -3.5123627 0.0097180957   -4.6313545    1.1189918      8192000 
  683000   0.74648016   -4.6317926   -4.6317926   -3.5120726  0.010913858   -4.6317926      1.11972      8192000 
  684000   0.74683438    -4.631955    -4.631955   -3.5117037  0.010984179    -4.631955    1.1202513      8192000 
  685000   0.74671771    -4.631569    -4.631569   -3.5114928  0.011995701    -4.631569    1.1200763      8192000 
  686000   0.74692201   -4.6318189   -4.6318189   -3.5114361  0.011825555   -4.6318189    1.1203827      8192000 
  687000    0.7467514   -4.6313063   -4.6313063   -3.5111795  0.013945618   -4.6313063    1.1201268      8192000 
  688000   0.74692869   -4.6314591   -4.6314591   -3.5110664  0.013714157   -4.6314591    1.1203928      8192000 
  689000   0.74734065   -4.6318523   -4.6318523   -3.5108416  0.012603247   -4.6318523    1.1210107      8192000 
  690000   0.74749214   -4.6316985   -4.6316985   -3.5104606  0.014176221   -4.6316985    1.1212379      8192000 
  691000   0.74763391   -4.6321796   -4.6321796   -3.5107291  0.013890748   -4.6321796    1.1214506      8192000 
  692000   0.74739841   -4.6316745   -4.6316745   -3.5105772  0.013808358   -4.6316745    1.1210973      8192000 
  693000   0.74730944   -4.6314949   -4.6314949    -3.510531  0.014937442   -4.6314949    1.1209639      8192000 
  694000   0.74768173   -4.6315511   -4.6315511   -3.5100288  0.015293563   -4.6315511    1.1215223      8192000 
  695000   0.74734364   -4.6311475   -4.6311475   -3.5101323  0.016054612   -4.6311475    1.1210152      8192000 
  696000   0.74739249   -4.6312856   -4.6312856   -3.5101971  0.014668417   -4.6312856    1.1210885      8192000 
  697000   0.74742368   -4.6309133   -4.6309133    -3.509778  0.014759061   -4.6309133    1.1211352      8192000 
  698000   0.74743878   -4.6305127   -4.6305127   -3.5093548   0.01390554   -4.6305127    1.1211579      8192000 
  699000   0.74751432   -4.6307234   -4.6307234   -3.5094522   0.01456941   -4.6307234    1.1212712      8192000 
  700000   0.74749596   -4.6304371   -4.6304371   -3.5091935  0.012491908   -4.6304371    1.1212437      8192000 
  701000   0.74756058   -4.6302621   -4.6302621   -3.5089215   0.01237187   -4.6302621    1.1213406      8192000 
  702000   0.74763351   -4.6301822   -4.6301822   -3.5087322  0.011360838   -4.6301822      1.12145      8192000 
  703000   0.74702178   -4.6289633   -4.6289633   -3.5084309  0.012037525   -4.6289633    1.1205324      8192000 
  704000   0.74780913   -4.6298905   -4.6298905   -3.5081771  0.010859302   -4.6298905    1.1217134      8192000 
  705000   0.74727873   -4.6288618   -4.6288618   -3.5079439  0.011003858   -4.6288618    1.1209178      8192000 
  706000   0.74753069   -4.6287304   -4.6287304   -3.5074347  0.010639153   -4.6287304    1.1212958      8192000 
  707000   0.74723401   -4.6280867   -4.6280867    -3.507236  0.011972268   -4.6280867    1.1208507      8192000 
  708000   0.74741257   -4.6279375   -4.6279375   -3.5068189  0.010709243   -4.6279375    1.1211186      8192000 
  709000   0.74751669   -4.6281251   -4.6281251   -3.5068504 0.0098121293   -4.6281251    1.1212748      8192000 
  710000   0.74748867   -4.6274826   -4.6274826   -3.5062499  0.008795441   -4.6274826    1.1212327      8192000 
  711000   0.74743145   -4.6272102   -4.6272102   -3.5060633  0.009840457   -4.6272102    1.1211469      8192000 
  712000   0.74725933   -4.6269759   -4.6269759   -3.5060872 0.0080228161   -4.6269759    1.1208887      8192000 
  713000    0.7467364   -4.6263165   -4.6263165   -3.5062121 0.0096895959   -4.6263165    1.1201043      8192000 
  714000   0.74680347   -4.6261007   -4.6261007   -3.5058958  0.010461432   -4.6261007    1.1202049      8192000 
  715000   0.74736377   -4.6264227   -4.6264227   -3.5053773  0.007919025   -4.6264227    1.1210454      8192000 
  716000   0.74761044   -4.6264715   -4.6264715   -3.5050561 0.0081994258   -4.6264715    1.1214154      8192000 
  717000   0.74763218    -4.626184    -4.626184    -3.504736  0.010646847    -4.626184     1.121448      8192000 
  718000   0.74774949   -4.6263608   -4.6263608   -3.5047368 0.0093655931   -4.6263608    1.1216239      8192000 
  719000   0.74780487   -4.6259776   -4.6259776   -3.5042705   0.01011005   -4.6259776     1.121707      8192000 
  720000   0.74787554   -4.6258646   -4.6258646   -3.5040516   0.01105806   -4.6258646     1.121813      8192000 
  721000   0.74815385   -4.6260877   -4.6260877   -3.5038572  0.010326686   -4.6260877    1.1222305      8192000 
  722000    0.7481032   -4.6256441   -4.6256441   -3.5034896  0.013099553   -4.6256441    1.1221545      8192000 
  723000   0.74859032   -4.6263347   -4.6263347   -3.5034495  0.010731157   -4.6263347    1.1228852      8192000 
  724000   0.74831971    -4.625616    -4.625616   -3.5031368  0.012661004    -4.625616    1.1224793      8192000 
  725000    0.7484619   -4.6256395   -4.6256395   -3.5029469  0.012172154   -4.6256395    1.1226926      8192000 
  726000   0.74838286   -4.6252194   -4.6252194   -3.5026454  0.013637474   -4.6252194     1.122574      8192000 
  727000   0.74863791   -4.6254835   -4.6254835   -3.5025269   0.01410892   -4.6254835    1.1229566      8192000 
  728000   0.74900055   -4.6257571   -4.6257571   -3.5022566  0.012664251   -4.6257571    1.1235005      8192000 
  729000   0.74928914   -4.6258934   -4.6258934     -3.50196  0.013089623   -4.6258934    1.1239334      8192000 
  730000   0.74913089   -4.6253228   -4.6253228   -3.5016267  0.013761904   -4.6253228     1.123696      8192000 
  731000   0.74862527   -4.6246807   -4.6246807    -3.501743  0.013963441   -4.6246807    1.1229376      8192000 
  732000   0.74898209   -4.6248745   -4.6248745   -3.5014017  0.014325381   -4.6248745    1.1234728      8192000 
  733000   0.74910354    -4.624884    -4.624884   -3.5012289  0.012128107    -4.624884     1.123655      8192000 
  734000   0.74883594   -4.6243554   -4.6243554   -3.5011017  0.012117414   -4.6243554    1.1232536      8192000 
  735000   0.74898375   -4.6242474   -4.6242474    -3.500772  0.012689509   -4.6242474    1.1234753      8192000 
  736000   0.74898225    -4.624237    -4.624237   -3.5007639  0.010280749    -4.624237    1.1234731      8192000 
  737000   0.74901501   -4.6240838   -4.6240838   -3.5005615  0.010467187   -4.6240838    1.1235222      8192000 
  738000    0.7486603   -4.6232457   -4.6232457   -3.5002555  0.012530147   -4.6232457    1.1229902      8192000 
  739000   0.74882044   -4.6232662   -4.6232662   -3.5000358  0.011846728   -4.6232662    1.1232304      8192000 
  740000   0.74903048   -4.6235817   -4.6235817   -3.5000363  0.010928482   -4.6235817    1.1235454      8192000 
  741000   0.74867028   -4.6226049   -4.6226049   -3.4995998   0.01140313   -4.6226049    1.1230051      8192000 
  742000   0.74858314   -4.6221776   -4.6221776   -3.4993032  0.011608586   -4.6221776    1.1228744      8192000 
  743000   0.74881126   -4.6221203   -4.6221203   -3.4989037 0.0099517664   -4.6221203    1.1232166      8192000 
  744000   0.74895401   -4.6217063   -4.6217063   -3.4982756  0.011990058   -4.6217063    1.1234307      8192000 
  745000   0.74944444   -4.6220979   -4.6220979   -3.4979316  0.010100989   -4.6220979    1.1241664      8192000 
  746000   0.74918558   -4.6216382   -4.6216382   -3.4978601  0.011000812   -4.6216382    1.1237781      8192000 
  747000   0.74880706   -4.6211081   -4.6211081   -3.4978978   0.01001731   -4.6211081    1.1232103      8192000 
  748000   0.74930695   -4.6215062   -4.6215062    -3.497546 0.0083271378   -4.6215062    1.1239601      8192000 
  749000   0.74902661   -4.6206482   -4.6206482   -3.4971085  0.010834265   -4.6206482    1.1235396      8192000 
  750000   0.74896374   -4.6199287   -4.6199287   -3.4964834  0.012392768   -4.6199287    1.1234453      8192000 
  751000   0.74963423    -4.620561    -4.620561     -3.49611  0.013350227    -4.620561    1.1244511      8192000 
  752000   0.74960873   -4.6203711   -4.6203711   -3.4959582  0.010249874   -4.6203711    1.1244128      8192000 
  753000   0.74950914   -4.6200806   -4.6200806   -3.4958172  0.011216282   -4.6200806    1.1242634      8192000 
  754000   0.74970518   -4.6200253   -4.6200253   -3.4954678  0.010881924   -4.6200253    1.1245575      8192000 
  755000   0.74960808   -4.6197404   -4.6197404   -3.4953285   0.01104274   -4.6197404    1.1244118      8192000 
  756000   0.74972407   -4.6197594   -4.6197594   -3.4951735  0.010513121   -4.6197594    1.1245858      8192000 
  757000   0.75004949    -4.620186    -4.620186    -3.495112  0.010963648    -4.620186     1.125074      8192000 
  758000   0.74971912   -4.6190962   -4.6190962   -3.4945178  0.010509666   -4.6190962    1.1245784      8192000 
  759000   0.75009445   -4.6192634   -4.6192634    -3.494122  0.010120149   -4.6192634    1.1251414      8192000 
  760000   0.75012082   -4.6191124   -4.6191124   -3.4939314  0.010037228   -4.6191124    1.1251809      8192000 
  761000   0.74986271   -4.6187739   -4.6187739   -3.4939801  0.012041321   -4.6187739    1.1247938      8192000 
  762000   0.74990997    -4.618695    -4.618695   -3.4938303  0.010864354    -4.618695    1.1248647      8192000 
  763000   0.74969715    -4.618251    -4.618251   -3.4937055  0.012483626    -4.618251    1.1245454      8192000 
  764000   0.74947402   -4.6176322   -4.6176322   -3.4934214  0.012575947   -4.6176322    1.1242108      8192000 
  765000   0.75009325   -4.6183884   -4.6183884   -3.4932488  0.011044679   -4.6183884    1.1251396      8192000 
  766000   0.74992292   -4.6177802   -4.6177802   -3.4928961  0.012992268   -4.6177802    1.1248841      8192000 
  767000   0.75001795   -4.6177975   -4.6177975   -3.4927708  0.012185239   -4.6177975    1.1250266      8192000 
  768000   0.75015359    -4.617878    -4.617878   -3.4926479  0.011015062    -4.617878    1.1252301      8192000 
  769000   0.75017967   -4.6178459   -4.6178459   -3.4925767  0.011143791   -4.6178459    1.1252692      8192000 
  770000   0.75044519   -4.6177616   -4.6177616   -3.4920941   0.01155306   -4.6177616    1.1256675      8192000 
  771000   0.75058521   -4.6176461   -4.6176461   -3.4917685  0.011334926   -4.6176461    1.1258775      8192000 
  772000   0.75068492   -4.6172279   -4.6172279   -3.4912008  0.012338996   -4.6172279    1.1260271      8192000 
  773000   0.75064128   -4.6168326   -4.6168326    -3.490871  0.012376355   -4.6168326    1.1259616      8192000 
  774000   0.75089483   -4.6166507   -4.6166507   -3.4903087   0.01232434   -4.6166507     1.126342      8192000 
  775000   0.75085279   -4.6164916   -4.6164916   -3.4902127  0.012055561   -4.6164916    1.1262789      8192000 
  776000   0.75082255   -4.6160805   -4.6160805   -3.4898469  0.011990933   -4.6160805    1.1262335      8192000 
  777000   0.75104399   -4.6159176   -4.6159176   -3.4893519  0.012082054   -4.6159176    1.1265657      8192000 
  778000   0.75114563   -4.6157871   -4.6157871   -3.4890689  0.012576077   -4.6157871    1.1267182      8192000 
  779000   0.75144853   -4.6160267   -4.6160267   -3.4888541  0.011555512   -4.6160267    1.1271725      8192000 
  780000   0.75108163   -4.6151655   -4.6151655   -3.4885434  0.012344124   -4.6151655    1.1266222      8192000 
  781000   0.75109635    -4.614926    -4.614926   -3.4882818  0.011999746    -4.614926    1.1266442      8192000 
  782000   0.75087247   -4.6142627   -4.6142627   -3.4879543  0.013127414   -4.6142627    1.1263084      8192000 
  783000   0.75108868   -4.6144114   -4.6144114   -3.4877787  0.010081814   -4.6144114    1.1266327      8192000 
  784000   0.75068923   -4.6134095   -4.6134095   -3.4873759  0.010698526   -4.6134095    1.1260336      8192000 
  785000   0.75081346   -4.6134594   -4.6134594   -3.4872395 0.0096806981   -4.6134594    1.1262199      8192000 
  786000   0.75107846   -4.6133109   -4.6133109   -3.4866935 0.0097046384   -4.6133109    1.1266174      8192000 
  787000   0.75148294   -4.6133767   -4.6133767   -3.4861525 0.0098629411   -4.6133767    1.1272241      8192000 
  788000   0.75097823   -4.6123871   -4.6123871   -3.4859201  0.011252244   -4.6123871    1.1264671      8192000 
  789000   0.75137159   -4.6127805   -4.6127805   -3.4857234  0.011057799   -4.6127805    1.1270571      8192000 
  790000   0.75122008   -4.6123212   -4.6123212   -3.4854914  0.011475059   -4.6123212    1.1268298      8192000 
  791000   0.75141953   -4.6122449   -4.6122449   -3.4851159  0.010720037   -4.6122449     1.127129      8192000 
  792000   0.75137195    -4.611968    -4.611968   -3.4849104 0.0099911172    -4.611968    1.1270576      8192000 
  793000   0.75148001   -4.6118065   -4.6118065   -3.4845868 0.0097676495   -4.6118065    1.1272197      8192000 
  794000   0.75155388   -4.6116235   -4.6116235   -3.4842929 0.0093053762   -4.6116235    1.1273305      8192000 
  795000   0.75138832    -4.611049    -4.611049   -3.4839669  0.010070417    -4.611049    1.1270822      8192000 
  796000   0.75135066   -4.6106722   -4.6106722   -3.4836465 0.0098491967   -4.6106722    1.1270257      8192000 
  797000   0.75149588      -4.6106      -4.6106   -3.4833565  0.010163578      -4.6106    1.1272435      8192000 
  798000   0.75164717   -4.6108246   -4.6108246   -3.4833541  0.008968601   -4.6108246    1.1274705      8192000 
  799000   0.75128232   -4.6105382   -4.6105382    -3.483615 0.0094334038   -4.6105382    1.1269232      8192000 
  800000   0.75160714   -4.6103836   -4.6103836   -3.4829731  0.011344939   -4.6103836    1.1274104      8192000 
  801000   0.75147865   -4.6099983   -4.6099983   -3.4827806  0.011588784   -4.6099983    1.1272177      8192000 
  802000    0.7516722   -4.6100529   -4.6100529   -3.4825449  0.011160071   -4.6100529     1.127508      8192000 
  803000   0.75224283    -4.610509    -4.610509    -3.482145  0.009853443    -4.610509     1.128364      8192000 
  804000   0.75195628   -4.6097003   -4.6097003   -3.4817661  0.011226614   -4.6097003    1.1279341      8192000 
  805000    0.7522891   -4.6097925   -4.6097925   -3.4813592  0.012069075   -4.6097925    1.1284334      8192000 
  806000   0.75213983   -4.6094985   -4.6094985    -3.481289  0.012111463   -4.6094985    1.1282095      8192000 
  807000   0.75224178    -4.609149    -4.609149   -3.4807866  0.011877865    -4.609149    1.1283624      8192000 
  808000   0.75232856    -4.608773    -4.608773   -3.4802805  0.014202331    -4.608773    1.1284926      8192000 
  809000   0.75251241   -4.6088308   -4.6088308   -3.4800625  0.014449535   -4.6088308    1.1287683      8192000 
  810000   0.75276198   -4.6088318   -4.6088318   -3.4796892   0.01369466   -4.6088318    1.1291427      8192000 
  811000   0.75274647   -4.6088074   -4.6088074    -3.479688  0.013420432   -4.6088074    1.1291194      8192000 
  812000   0.75261806   -4.6084852   -4.6084852   -3.4795584  0.013607928   -4.6084852    1.1289268      8192000 
  813000   0.75306394    -4.608739    -4.608739   -3.4791434  0.012481467    -4.608739    1.1295956      8192000 
  814000   0.75356178   -4.6088838   -4.6088838   -3.4785414    0.0118248   -4.6088838    1.1303424      8192000 
  815000   0.75299315   -4.6079776   -4.6079776   -3.4784882  0.013217267   -4.6079776    1.1294894      8192000 
  816000   0.75277725   -4.6075036   -4.6075036    -3.478338  0.013729247   -4.6075036    1.1291656      8192000 
  817000   0.75292249   -4.6071344   -4.6071344    -3.477751  0.012434721   -4.6071344    1.1293834      8192000 
  818000   0.75306864   -4.6071787   -4.6071787    -3.477576  0.010614509   -4.6071787    1.1296027      8192000 
  819000   0.75297799   -4.6066551   -4.6066551   -3.4771883  0.013273579   -4.6066551    1.1294667      8192000 
  820000   0.75261634   -4.6061831   -4.6061831   -3.4772589   0.01235747   -4.6061831    1.1289242      8192000 
  821000    0.7528027   -4.6063253   -4.6063253   -3.4771215   0.01105666   -4.6063253    1.1292038      8192000 
  822000   0.75260564   -4.6057745   -4.6057745   -3.4768663  0.011437073   -4.6057745    1.1289082      8192000 
  823000   0.75324219   -4.6063998   -4.6063998   -3.4765368 0.0084092082   -4.6063998     1.129863      8192000 
  824000   0.75293352   -4.6055434   -4.6055434   -3.4761434  0.010759941   -4.6055434       1.1294      8192000 
  825000   0.75280095   -4.6050021   -4.6050021   -3.4758009  0.010537415   -4.6050021    1.1292011      8192000 
  826000   0.75270337   -4.6044297   -4.6044297    -3.475375  0.011603371   -4.6044297    1.1290548      8192000 
  827000   0.75297806   -4.6046179   -4.6046179   -3.4751511 0.0091476235   -4.6046179    1.1294668      8192000 
  828000   0.75280432   -4.6039763   -4.6039763   -3.4747701 0.0092513552   -4.6039763    1.1292062      8192000 
  829000   0.75274141    -4.603529    -4.603529   -3.4744171   0.01122007    -4.603529    1.1291118      8192000 
  830000   0.75306014   -4.6038527   -4.6038527   -3.4742627 0.0083615509   -4.6038527    1.1295899      8192000 
  831000   0.75298953   -4.6034218   -4.6034218   -3.4739378  0.010356978   -4.6034218     1.129484      8192000 
  832000   0.75303788   -4.6032297   -4.6032297   -3.4736731  0.010826877   -4.6032297    1.1295565      8192000 
  833000   0.75344201   -4.6034806   -4.6034806   -3.4733179 0.0082888663   -4.6034806    1.1301627      8192000 
  834000   0.75338363   -4.6030337   -4.6030337   -3.4729585  0.011115474   -4.6030337    1.1300752      8192000 
  835000   0.75391402    -4.602975    -4.602975   -3.4721042  0.010349026    -4.602975    1.1308707      8192000 
  836000   0.75397733   -4.6026384   -4.6026384   -3.4716727  0.011805987   -4.6026384    1.1309657      8192000 
  837000   0.75431021    -4.602838    -4.602838   -3.4713729  0.011597566    -4.602838     1.131465      8192000 
  838000   0.75440757   -4.6024299   -4.6024299   -3.4708188  0.011901819   -4.6024299    1.1316111      8192000 
  839000   0.75445665   -4.6024836   -4.6024836   -3.4707989  0.011626567   -4.6024836    1.1316847      8192000 
  840000   0.75448808   -4.6021396   -4.6021396   -3.4704078   0.01149404   -4.6021396    1.1317318      8192000 
  841000    0.7539551   -4.6010116   -4.6010116   -3.4700793    0.0134506   -4.6010116    1.1309324      8192000 
  842000   0.75442378   -4.6012855   -4.6012855   -3.4696502  0.013993511   -4.6012855    1.1316354      8192000 
  843000   0.75482546     -4.60157     -4.60157   -3.4693321  0.011686163     -4.60157    1.1322379      8192000 
  844000   0.75428311   -4.6003842   -4.6003842   -3.4689598  0.013719412   -4.6003842    1.1314244      8192000 
  845000   0.75478456   -4.6010678   -4.6010678   -3.4688912  0.011991367   -4.6010678    1.1321766      8192000 
  846000    0.7544645   -4.6003734   -4.6003734   -3.4686769  0.010886465   -4.6003734    1.1316965      8192000 
  847000   0.75446718   -4.5995959   -4.5995959   -3.4678954  0.013745561   -4.5995959    1.1317005      8192000 
  848000   0.75444114   -4.5993067   -4.5993067   -3.4676453  0.013231228   -4.5993067    1.1316614      8192000 
  849000   0.75469543      -4.5996      -4.5996   -3.4675572  0.011765773      -4.5996    1.1320429      8192000 
  850000   0.75460732   -4.5990838   -4.5990838   -3.4671731  0.012257822   -4.5990838    1.1319107      8192000 
  851000   0.75483354   -4.5994073   -4.5994073   -3.4671573  0.010828109   -4.5994073      1.13225      8192000 
  852000   0.75484343   -4.5987241   -4.5987241   -3.4664592  0.010179654   -4.5987241    1.1322649      8192000 
  853000    0.7546218   -4.5978352   -4.5978352   -3.4659027  0.012700884   -4.5978352    1.1319324      8192000 
  854000   0.75509762   -4.5980386   -4.5980386   -3.4653925  0.010961197   -4.5980386    1.1326461      8192000 
  855000   0.75529448   -4.5977761   -4.5977761   -3.4648346  0.012539784   -4.5977761    1.1329414      8192000 
  856000   0.75554848    -4.597756    -4.597756   -3.4644335  0.010978376    -4.597756    1.1333224      8192000 
  857000   0.75498453   -4.5965393   -4.5965393   -3.4640628  0.012451488   -4.5965393    1.1324765      8192000 
  858000   0.75514065   -4.5966354   -4.5966354   -3.4639247  0.010189448   -4.5966354    1.1327107      8192000 
  859000   0.75521523   -4.5962221   -4.5962221   -3.4633996  0.010457226   -4.5962221    1.1328226      8192000 
  860000   0.75529394   -4.5961203   -4.5961203   -3.4631796  0.010504236   -4.5961203    1.1329406      8192000 
  861000   0.75524462   -4.5957689   -4.5957689   -3.4629022 0.0092841471   -4.5957689    1.1328666      8192000 
  862000    0.7553008   -4.5953191   -4.5953191   -3.4623682 0.0084207164   -4.5953191    1.1329509      8192000 
  863000   0.75544292    -4.595156    -4.595156   -3.4619919 0.0099727742    -4.595156    1.1331641      8192000 
  864000    0.7554933   -4.5947627   -4.5947627    -3.461523 0.0093214177   -4.5947627    1.1332397      8192000 
  865000   0.75542065   -4.5946452   -4.5946452   -3.4615145  0.010418369   -4.5946452    1.1331307      8192000 
  866000   0.75498385   -4.5937808   -4.5937808   -3.4613053 0.0099690582   -4.5937808    1.1324755      8192000 
  867000   0.75534715   -4.5936569   -4.5936569   -3.4606364   0.01086304   -4.5936569    1.1330204      8192000 
  868000   0.75574029   -4.5940875   -4.5940875   -3.4604774 0.0099112442   -4.5940875    1.1336102      8192000 
  869000   0.75561837   -4.5939716   -4.5939716   -3.4605444  0.010627473   -4.5939716    1.1334273      8192000 
  870000   0.75600634   -4.5938926   -4.5938926   -3.4598834 0.0090327749   -4.5938926    1.1340092      8192000 
  871000   0.75555806   -4.5928503   -4.5928503   -3.4595135  0.010922693   -4.5928503    1.1333368      8192000 
  872000   0.75569595   -4.5927448   -4.5927448   -3.4592012  0.011516469   -4.5927448    1.1335436      8192000 
  873000   0.75583802   -4.5927266   -4.5927266   -3.4589699  0.010903665   -4.5927266    1.1337567      8192000 
  874000   0.75642762   -4.5930627   -4.5930627   -3.4584215 0.0099688661   -4.5930627    1.1346411      8192000 
  875000   0.75639869   -4.5922764   -4.5922764   -3.4576786  0.011903777   -4.5922764    1.1345978      8192000 
  876000   0.75660754   -4.5924278   -4.5924278   -3.4575168  0.012332798   -4.5924278     1.134911      8192000 
  877000   0.75663186   -4.5921903   -4.5921903   -3.4572428  0.012929121   -4.5921903    1.1349475      8192000 
  878000   0.75665293   -4.5919019   -4.5919019   -3.4569228  0.013906615   -4.5919019    1.1349791      8192000 
  879000   0.75653925   -4.5915072   -4.5915072   -3.4566986  0.013620832   -4.5915072    1.1348086      8192000 
  880000    0.7569043   -4.5918639   -4.5918639   -3.4565078  0.010842774   -4.5918639    1.1353562      8192000 
  881000   0.75718382   -4.5919166   -4.5919166   -3.4561411  0.011134309   -4.5919166    1.1357754      8192000 
  882000   0.75682413    -4.591096    -4.591096   -3.4558601    0.0151153    -4.591096    1.1352359      8192000 
  883000   0.75701415   -4.5910182   -4.5910182   -3.4554973  0.012189714   -4.5910182    1.1355209      8192000 
  884000   0.75708444   -4.5907505   -4.5907505   -3.4551241  0.012776517   -4.5907505    1.1356264      8192000 
  885000   0.75676911   -4.5898898   -4.5898898   -3.4547364  0.014289011   -4.5898898    1.1351534      8192000 
  886000   0.75723637   -4.5902375   -4.5902375   -3.4543833  0.011339519   -4.5902375    1.1358543      8192000 
  887000   0.75677081   -4.5891122   -4.5891122   -3.4539563  0.013970179   -4.5891122    1.1351559      8192000 
  888000   0.75747287   -4.5896745   -4.5896745   -3.4534655  0.012264947   -4.5896745     1.136209      8192000 
  889000   0.75734896   -4.5890943   -4.5890943   -3.4530712  0.012892433   -4.5890943    1.1360232      8192000 
  890000   0.75731636    -4.588808    -4.588808   -3.4528338  0.013200178    -4.588808    1.1359743      8192000 
  891000   0.75740115   -4.5885648   -4.5885648   -3.4524633   0.01064117   -4.5885648    1.1361014      8192000 
  892000   0.75756099   -4.5884371   -4.5884371   -3.4520959  0.012566321   -4.5884371    1.1363412      8192000 
  893000   0.75749473   -4.5878697   -4.5878697   -3.4516279  0.012204157   -4.5878697    1.1362418      8192000 
  894000   0.75704587   -4.5868076   -4.5868076   -3.4512391  0.013032697   -4.5868076    1.1355685      8192000 
  895000   0.75788604   -4.5873311   -4.5873311   -3.4505024  0.010374213   -4.5873311    1.1368288      8192000 
  896000   0.75764986   -4.5866239   -4.5866239   -3.4501494  0.011171554   -4.5866239    1.1364745      8192000 
  897000   0.75777707   -4.5864324   -4.5864324   -3.4497671  0.010983794   -4.5864324    1.1366653      8192000 
  898000   0.75769756   -4.5859609   -4.5859609   -3.4494148  0.010568038   -4.5859609    1.1365461      8192000 
  899000   0.75801492   -4.5861438   -4.5861438   -3.4491217 0.0099546112   -4.5861438    1.1370221      8192000 
  900000   0.75767485   -4.5851471   -4.5851471   -3.4486352  0.011723507   -4.5851471     1.136512      8192000 
  901000   0.75768488   -4.5847197   -4.5847197   -3.4481927  0.010367274   -4.5847197     1.136527      8192000 
  902000   0.75766056   -4.5843975   -4.5843975   -3.4479069  0.010311811   -4.5843975    1.1364905      8192000 
  903000   0.75754939    -4.583981    -4.583981   -3.4476572  0.012160171    -4.583981    1.1363238      8192000 
  904000   0.75794584   -4.5839184   -4.5839184       -3.447  0.011629227   -4.5839184    1.1369185      8192000 
  905000   0.75815163   -4.5838778   -4.5838778   -3.4466506  0.010548985   -4.5838778    1.1372272      8192000 
  906000   0.75808634   -4.5829467   -4.5829467   -3.4458175  0.010323322   -4.5829467    1.1371292      8192000 
  907000   0.75819029   -4.5825001   -4.5825001   -3.4452149  0.011223382   -4.5825001    1.1372852      8192000 
  908000   0.75826091   -4.5825573   -4.5825573   -3.4451662  0.010243269   -4.5825573    1.1373911      8192000 
  909000   0.75870048     -4.58263     -4.58263   -3.4445796  0.010886491     -4.58263    1.1380504      8192000 
  910000   0.75844346   -4.5819921   -4.5819921   -3.4443272  0.012932358   -4.5819921    1.1376649      8192000 
  911000   0.75858216   -4.5817333   -4.5817333   -3.4438604  0.011797919   -4.5817333     1.137873      8192000 
  912000   0.75857839   -4.5818616   -4.5818616   -3.4439943  0.010079979   -4.5818616    1.1378673      8192000 
  913000    0.7588222   -4.5816763   -4.5816763   -3.4434433  0.011284817   -4.5816763     1.138233      8192000 
  914000   0.75878636   -4.5812738   -4.5812738   -3.4430945  0.012163108   -4.5812738    1.1381793      8192000 
  915000   0.75891261   -4.5811284   -4.5811284   -3.4427598  0.010442841   -4.5811284    1.1383686      8192000 
  916000   0.75928703   -4.5813421   -4.5813421   -3.4424119  0.010008881   -4.5813421    1.1389303      8192000 
  917000   0.75888231   -4.5800502   -4.5800502    -3.441727  0.012014795   -4.5800502    1.1383232      8192000 
  918000    0.7589735   -4.5798972   -4.5798972   -3.4414373  0.011278814   -4.5798972      1.13846      8192000 
  919000   0.75915583   -4.5800791   -4.5800791   -3.4413456 0.0095294784   -4.5800791    1.1387335      8192000 
  920000   0.75931282   -4.5797571   -4.5797571   -3.4407881   0.01028526   -4.5797571    1.1389689      8192000 
  921000   0.75913219   -4.5795794   -4.5795794   -3.4408814  0.011095991   -4.5795794     1.138698      8192000 
  922000   0.75966675   -4.5797047   -4.5797047   -3.4402048  0.011185257   -4.5797047    1.1394998      8192000 
  923000   0.75927329    -4.578808    -4.578808   -3.4398984  0.012374573    -4.578808    1.1389096      8192000 
  924000   0.75986109   -4.5792132   -4.5792132   -3.4394218  0.011335506   -4.5792132    1.1397913      8192000 
  925000   0.75945317   -4.5781614   -4.5781614    -3.438982  0.013199669   -4.5781614    1.1391795      8192000 
  926000     0.760151    -4.578769    -4.578769   -3.4385428  0.011686254    -4.578769    1.1402262      8192000 
  927000   0.76025363   -4.5782998   -4.5782998   -3.4379196  0.013134733   -4.5782998    1.1403802      8192000 
  928000     0.759953   -4.5777907   -4.5777907   -3.4378615  0.012991518   -4.5777907    1.1399292      8192000 
  929000   0.75993524   -4.5771484   -4.5771484   -3.4372458  0.013942925   -4.5771484    1.1399026      8192000 
  930000   0.76028696   -4.5771827   -4.5771827   -3.4367526  0.013319697   -4.5771827    1.1404302      8192000 
  931000   0.76031724   -4.5767829   -4.5767829   -3.4363073  0.013120818   -4.5767829    1.1404756      8192000 
  932000   0.76050798   -4.5766632   -4.5766632   -3.4359015  0.012278221   -4.5766632    1.1407617      8192000 
  933000    0.7603628   -4.5760359   -4.5760359    -3.435492  0.011516634   -4.5760359    1.1405439      8192000 
  934000   0.76061025   -4.5761586   -4.5761586   -3.4352435   0.01168692   -4.5761586    1.1409151      8192000 
  935000   0.76026715   -4.5753032   -4.5753032   -3.4349028  0.012939612   -4.5753032    1.1404004      8192000 
  936000   0.76037634   -4.5753154   -4.5753154   -3.4347512  0.013058659   -4.5753154    1.1405642      8192000 
  937000   0.76074277   -4.5754048   -4.5754048   -3.4342909  0.012653041   -4.5754048    1.1411139      8192000 
  938000   0.76111072   -4.5753485   -4.5753485   -3.4336827  0.010499038   -4.5753485    1.1416658      8192000 
  939000   0.76081172    -4.574556    -4.574556   -3.4333387  0.011025415    -4.574556    1.1412173      8192000 
  940000   0.76046661    -4.573652    -4.573652   -3.4329523  0.011438123    -4.573652    1.1406996      8192000 
  941000   0.76040901   -4.5732156   -4.5732156   -3.4326023  0.011143192   -4.5732156    1.1406132      8192000 
  942000   0.76069676    -4.573182    -4.573182   -3.4321372  0.011846687    -4.573182    1.1410449      8192000 
  943000    0.7606065   -4.5728041   -4.5728041   -3.4318946  0.010059117   -4.5728041    1.1409095      8192000 
  944000   0.76063368   -4.5725056   -4.5725056   -3.4315553 0.0094272654   -4.5725056    1.1409502      8192000 
  945000   0.76070905   -4.5722375   -4.5722375   -3.4311742 0.0095397089   -4.5722375    1.1410633      8192000 
  946000   0.76076349   -4.5717238   -4.5717238   -3.4305789  0.011967678   -4.5717238    1.1411449      8192000 
  947000   0.76072693    -4.571232    -4.571232   -3.4301419  0.010533123    -4.571232    1.1410901      8192000 
  948000   0.76074635   -4.5710029   -4.5710029   -3.4298837  0.010090724   -4.5710029    1.1411192      8192000 
  949000   0.76135437    -4.571095    -4.571095   -3.4290637  0.010302113    -4.571095    1.1420313      8192000 
  950000    0.7612443   -4.5705092   -4.5705092    -3.428643  0.010308379   -4.5705092    1.1418662      8192000 
  951000   0.76097628   -4.5696956   -4.5696956   -3.4282315  0.013661683   -4.5696956    1.1414641      8192000 
  952000   0.76166434   -4.5704382   -4.5704382   -3.4279419  0.011239816   -4.5704382    1.1424962      8192000 
  953000   0.76165453   -4.5701043   -4.5701043   -3.4276228  0.010263162   -4.5701043    1.1424815      8192000 
  954000     0.761799    -4.569749    -4.569749   -3.4270508   0.01047764    -4.569749    1.1426982      8192000 
  955000   0.76177719   -4.5692918   -4.5692918   -3.4266263   0.01152825   -4.5692918    1.1426655      8192000 
  956000   0.76176074   -4.5687095   -4.5687095   -3.4260687  0.010779486   -4.5687095    1.1426408      8192000 
  957000   0.76233707   -4.5688781   -4.5688781   -3.4253728  0.011487784   -4.5688781    1.1435053      8192000 
  958000   0.76218914   -4.5682947   -4.5682947   -3.4250112  0.010847875   -4.5682947    1.1432834      8192000 
  959000   0.76198644   -4.5681205   -4.5681205   -3.4251411  0.011114297   -4.5681205    1.1429794      8192000 
  960000   0.76216595   -4.5679847   -4.5679847    -3.424736  0.010542904   -4.5679847    1.1432486      8192000 
  961000   0.76235358   -4.5678166   -4.5678166   -3.4242866  0.011520756   -4.5678166    1.1435301      8192000 
  962000    0.7621361   -4.5671571   -4.5671571   -3.4239532  0.012588663   -4.5671571    1.1432039      8192000 
  963000   0.76241195   -4.5671367   -4.5671367   -3.4235191  0.011894474   -4.5671367    1.1436176      8192000 
  964000   0.76249867   -4.5668083   -4.5668083   -3.4230606  0.011415452   -4.5668083    1.1437477      8192000 
  965000   0.76243911   -4.5664417   -4.5664417   -3.4227833  0.011125904   -4.5664417    1.1436584      8192000 
  966000    0.7626576   -4.5661936   -4.5661936   -3.4222074  0.010786503   -4.5661936    1.1439861      8192000 
  967000   0.76266548   -4.5659789   -4.5659789   -3.4219809   0.01048489   -4.5659789    1.1439979      8192000 
  968000   0.76265962   -4.5656175   -4.5656175   -3.4216283  0.010577471   -4.5656175    1.1439891      8192000 
  969000   0.76266189   -4.5652876   -4.5652876   -3.4212951  0.011436348   -4.5652876    1.1439925      8192000 
  970000   0.76282772    -4.565144    -4.565144   -3.4209027  0.010633204    -4.565144    1.1442413      8192000 
  971000   0.76274864   -4.5643578   -4.5643578   -3.4202351  0.013648679   -4.5643578    1.1441227      8192000 
  972000   0.76289096   -4.5641791   -4.5641791   -3.4198429  0.012654447   -4.5641791    1.1443362      8192000 
  973000    0.7633955   -4.5647891   -4.5647891   -3.4196962  0.009981685   -4.5647891     1.145093      8192000 
  974000   0.76322743   -4.5639928   -4.5639928   -3.4191519  0.011288347   -4.5639928    1.1448409      8192000 
  975000   0.76324115   -4.5639731   -4.5639731   -3.4191117  0.011862677   -4.5639731    1.1448614      8192000 
  976000   0.76297956   -4.5629747   -4.5629747   -3.4185057   0.01170587   -4.5629747    1.1444691      8192000 
  977000   0.76339374    -4.563296    -4.563296   -3.4182057  0.012032382    -4.563296    1.1450903      8192000 
  978000   0.76311754   -4.5621665   -4.5621665   -3.4174905  0.013458928   -4.5621665     1.144676      8192000 
  979000   0.76319965   -4.5619513   -4.5619513   -3.4171521  0.010778244   -4.5619513    1.1447992      8192000 
  980000    0.7630924   -4.5612184   -4.5612184   -3.4165801  0.012404798   -4.5612184    1.1446383      8192000 
  981000    0.7632781   -4.5612618   -4.5612618   -3.4163449  0.009999798   -4.5612618    1.1449169      8192000 
  982000   0.76401784   -4.5615108   -4.5615108   -3.4154843  0.011101573   -4.5615108    1.1460265      8192000 
  983000   0.76383921    -4.561094    -4.561094   -3.4153355  0.010422628    -4.561094    1.1457585      8192000 
  984000   0.76367518   -4.5607037   -4.5607037   -3.4151912  0.012369137   -4.5607037    1.1455125      8192000 
  985000   0.76365462   -4.5602381   -4.5602381   -3.4147565   0.01250483   -4.5602381    1.1454817      8192000 
  986000   0.76435949   -4.5606705   -4.5606705   -3.4141316   0.01009417   -4.5606705    1.1465389      8192000 
  987000   0.76395702   -4.5595802   -4.5595802    -3.413645  0.012305476   -4.5595802    1.1459352      8192000 
  988000   0.76414366   -4.5593659   -4.5593659   -3.4131507  0.011415708   -4.5593659    1.1462152      8192000 
  989000   0.76418011   -4.5592464   -4.5592464   -3.4129765   0.01118087   -4.5592464    1.1462699      8192000 
  990000   0.76385812   -4.5583375   -4.5583375   -3.4125506  0.012831269   -4.5583375    1.1457869      8192000 
  991000    0.7647027    -4.558877    -4.558877   -3.4118233  0.009754967    -4.558877    1.1470538      8192000 
  992000    0.7640881   -4.5575846   -4.5575846   -3.4114527  0.010847242   -4.5575846    1.1461319      8192000 
  993000   0.76436327   -4.5577486   -4.5577486    -3.411204 0.0098701077   -4.5577486    1.1465446      8192000 
  994000   0.76477676   -4.5575451   -4.5575451   -3.4103803  0.011273731   -4.5575451    1.1471648      8192000 
  995000   0.76461051   -4.5571909   -4.5571909   -3.4102754 0.0099835605   -4.5571909    1.1469155      8192000 
  996000    0.7651669    -4.557528    -4.557528   -3.4097779    0.0100697    -4.557528    1.1477501      8192000 
  997000   0.76494738   -4.5566964   -4.5566964   -3.4092756  0.012145109   -4.5566964    1.1474208      8192000 
  998000   0.76478424   -4.5559099   -4.5559099   -3.4087338  0.012768337   -4.5559099    1.1471761      8192000 
  999000   0.76502729   -4.5558426   -4.5558426    -3.408302  0.012786761   -4.5558426    1.1475407      8192000 
 1000000   0.76533006   -4.5558979   -4.5558979   -3.4079031  0.011589876   -4.5558979    1.1479948      8192000 
Loop time of 25255.9 on 144 procs for 1000000 steps with 3993600 atoms

Performance: 17104.905 tau/day, 39.595 timesteps/s
99.5% CPU use with 144 MPI tasks x 1 OpenMP threads

MPI task timing breakdown:
Section |  min time  |  avg time  |  max time  |%varavg|  %CPU | %total
-----------------------------------------------------------------------
Pair    | 9218.2     | 10935      | 12377      | 676.9 |  99.5 | 43.30
Bond    | 0.79777    | 0.91624    | 1.0023     |   4.0 | 100.0 |  0.00
Neigh   | 3862.8     | 4509.1     | 5150.6     | 370.6 |  99.6 | 17.85
Comm    | 6238       | 8455.2     | 10795      |1184.6 |  99.4 | 33.48
Output  | 50.284     | 50.746     | 50.753     |   0.5 |  98.3 |  0.20
Modify  | 546.89     | 791.97     | 1800.3     |1125.6 |  99.0 |  3.14
Other   |            | 512.8      |            |       |       |  2.03

Nlocal:        27733.3 ave       28921 max       25759 min
Histogram: 1 2 5 3 3 22 91 1 0 16
Nghost:        16767.8 ave       18183 max       12721 min
Histogram: 32 0 0 0 0 0 0 0 0 112
Neighs:    1.02169e+06 ave 1.08336e+06 max      806601 min
Histogram: 5 8 2 1 0 0 1 15 94 18

Total # of neighbors = 1.4712385e+08
Ave neighs/atom = 36.839905
Ave special neighs/atom = 0.0000000
Neighbor list builds = 100000
Dangerous builds = 98998

write_restart	restart.005
System init for write_restart ...
write_data 	data.lj
System init for write_data ...
WARNING: Not all mixed pair coeffs generated from mixing. Use write_data with 'pair ij' option to store all pair coeffs. (src/write_data.cpp:312)
Total wall time: 7:01:04
