LAMMPS (29 Oct 2020)
  using 1 OpenMP thread(s) per MPI task
# Simple rigid body system
# needed variables: startTemp, temp

units		lj
atom_style	full
dimension 	3
boundary	p p f
pair_style	lj/cut/opt 2.5


variable 	sigma		equal 1.0
variable 	epsilon 	equal 1.0


region		box block 0 160 0 160 0 160
create_box 	3 box
Created orthogonal box = (0.0000000 0.0000000 0.0000000) to (160.00000 160.00000 160.00000)
  4 by 4 by 8 MPI processor grid
lattice 	sc 1.0
Lattice spacing in x,y,z = 1.0000000 1.0000000 1.0000000

create_atoms 	1 region box
Created 4096000 atoms
  create_atoms CPU = 0.086 seconds

mass		1 1.0
mass		2 1.0
mass		3 1.0


group		solvent type 1
4096000 atoms in group solvent


velocity 	solvent create ${startTemp} 563435 loop geom
velocity 	solvent create 0.5 563435 loop geom

read_data	data.vac add append
Reading data file ...
  orthogonal box = (0.0000000 0.0000000 0.0000000) to (160.00000 160.00000 320.00000)
  4 by 4 by 8 MPI processor grid
Finding 1-2 1-3 1-4 neighbors ...
  special bond factors lj:    0.0      0.0      0.0     
  special bond factors coul:  0.0      0.0      0.0     
     0 = max # of 1-2 neighbors
     0 = max # of 1-3 neighbors
     0 = max # of 1-4 neighbors
     1 = max # of special neighbors
  special bonds CPU = 1.733 seconds
  read_data CPU = 1.835 seconds

neighbor 	0.4 bin

pair_coeff	1 1 1.0 1.0
pair_coeff	2 2 0.0 0.0
pair_coeff	3 3 0.0 0.0
pair_coeff	2 3 0.0 0.0
pair_coeff	1 2*3 0.0 0.0

pair_modify 	shift yes


balance 	1.05 shift z 10 1.05
Balancing ...
Neighbor list info ...
  update every 1 steps, delay 10 steps, check yes
  max neighbors/atom: 2000, page size: 100000
  master list distance cutoff = 2.9
  ghost atom cutoff = 2.9
  binsize = 1.45, bins = 111 111 221
  1 neighbor lists, perpetual/occasional/extra = 1 0 0
  (1) pair lj/cut/opt, perpetual
      attributes: half, newton on
      pair build: half/bin/newton
      stencil: half/bin/3d/newton
      bin: standard
 rebalancing time: 0.067 seconds
  iteration count = 5
  initial/final maximal load/proc = 64000.000 40000.000
  initial/final imbalance factor  = 2.0000000 1.2500000
  x cuts: 0.0000000 0.25 0.5 0.75 1.0000000
  y cuts: 0.0000000 0.25 0.5 0.75 1.0000000
  z cuts: 0.0000000 0.0625 0.12890625 0.1875 0.2578125 0.30859375 0.38671875 0.4375 1.0000000


####################### WALLS ###########################


region	       low block  EDGE EDGE EDGE EDGE 0 2

region 	       top block  EDGE EDGE EDGE EDGE 159 160


delete_atoms   region low
WARNING: Ignoring 'compress yes' for molecular system (src/delete_atoms.cpp:125)
Deleted 76800 atoms, new total = 4019200

delete_atoms   region top
WARNING: Ignoring 'compress yes' for molecular system (src/delete_atoms.cpp:125)
Deleted 25600 atoms, new total = 3993600


variable       epsilonWall equal 2*${epsilon}
variable       epsilonWall equal 2*1

variable       cutoffTop   equal   0.7147*${sigma}
variable       cutoffTop   equal   0.7147*1

variable       cutoffLow   equal   3*${sigma}
variable       cutoffLow   equal   3*1


fix            topWall all wall/lj93 zhi EDGE                ${epsilonWall} ${sigma} ${cutoffTop} units box
fix            topWall all wall/lj93 zhi EDGE                2 ${sigma} ${cutoffTop} units box
fix            topWall all wall/lj93 zhi EDGE                2 1 ${cutoffTop} units box
fix            topWall all wall/lj93 zhi EDGE                2 1 0.7147 units box

fix            lowWall all wall/lj93 zlo EDGE                ${epsilonWall} ${sigma} ${cutoffLow} units box
fix            lowWall all wall/lj93 zlo EDGE                2 ${sigma} ${cutoffLow} units box
fix            lowWall all wall/lj93 zlo EDGE                2 1 ${cutoffLow} units box
fix            lowWall all wall/lj93 zlo EDGE                2 1 3 units box


###################### COMPUTES ##########################

compute        bin1 solvent chunk/atom bin/1d z upper 1.0



######################	FIXES ############################


fix 		peclet solvent ave/chunk 1000 1 1000 bin1 density/number norm 		 none ave one file density.profile

fix 		2 solvent nve

## Thermostat


region		regthermo block EDGE EDGE EDGE EDGE 0 20

group 		thermo dynamic solvent region regthermo every 1000
dynamic group thermo defined

fix 		3 thermo langevin ${startTemp} ${temp} 10 156453
fix 		3 thermo langevin 0.5 ${temp} 10 156453
fix 		3 thermo langevin 0.5 .9 10 156453



#### Load balancing


fix 		bal all balance 1000 1.05 shift z 10 1.05


############### Diagnostics and computes ###################
#compute 	com cube	  rigid/local	1 mol x y z
#compute 	quat cube	  rigid/local	1 mol quatw quati quatj quatk

thermo 		1000
thermo_style 	custom step temp epair evdwl etotal press pe ke vol

dump		1 all custom 100000 dump.lammpstrj id mol type x y z
dump 		2 all image 10000 image.*.png type type
dump 		3 all movie 1000 movie.avi type type
#dump 		com cube local 1000 dump.*.xyz c_com[*]
#dump		quat cube      local 1000 dump.*.quat c_quat[*]


restart 	500000 restart.dat
timestep 	0.0025
timer 		full
New timer settings: style=full  mode=nosync  timeout=off


run		1000000
Setting up Verlet run ...
  Unit style    : lj
  Current step  : 0
  Time step     : 0.0025
Per MPI rank memory allocation (min/avg/max) = 31.86 | 38.71 | 41.48 Mbytes
Step Temp E_pair E_vdwl TotEng Press PotEng KinEng Volume 
       0   0.49997217   -3.3137429   -3.3137429   -2.5637849    8.4475947   -3.3137429   0.74995807      8192000 
    1000    1.4218431    -4.758284    -4.758284   -2.6255198    4.8150946    -4.758284    2.1327641      8192000 
    2000    1.4172936   -4.8206595   -4.8206595   -2.6947197    4.0886498   -4.8206595    2.1259398      8192000 
    3000    1.4135029   -4.8816129   -4.8816129   -2.7613592    3.3775525   -4.8816129    2.1202538      8192000 
    4000    1.3814434   -4.8925251   -4.8925251   -2.8203606    2.8243729   -4.8925251    2.0721646      8192000 
    5000    1.3437453   -4.8884981   -4.8884981   -2.8728806    2.3543854   -4.8884981    2.0156175      8192000 
    6000    1.3244184   -4.9043484   -4.9043484   -2.9177212    1.8421985   -4.9043484    1.9866272      8192000 
    7000    1.3165715    -4.925842    -4.925842   -2.9509852      1.30433    -4.925842    1.9748568      8192000 
    8000    1.3034833   -4.9264428   -4.9264428   -2.9712184   0.81605076   -4.9264428    1.9552244      8192000 
    9000    1.2766516    -4.896284    -4.896284   -2.9813072   0.42733661    -4.896284    1.9149769      8192000 
   10000    1.2398258   -4.8442572   -4.8442572    -2.984519   0.13829871   -4.8442572    1.8597382      8192000 
   11000     1.200484   -4.7842685   -4.7842685    -2.983543 -0.058759653   -4.7842685    1.8007255      8192000 
   12000    1.1635921   -4.7254312   -4.7254312   -2.9800435  -0.17958264   -4.7254312    1.7453877      8192000 
   13000    1.1396729   -4.6847427   -4.6847427   -2.9752338  -0.21402183   -4.6847427    1.7095089      8192000 
   14000    1.1360879   -4.6741975   -4.6741975    -2.970066  -0.15737663   -4.6741975    1.7041315      8192000 
   15000    1.1437181   -4.6810225   -4.6810225   -2.9654458 -0.064624179   -4.6810225    1.7155767      8192000 
   16000    1.1520479   -4.6907053   -4.6907053   -2.9626339  0.011677139   -4.6907053    1.7280714      8192000 
   17000    1.1588799   -4.7003666   -4.7003666   -2.9620471  0.069150697   -4.7003666    1.7383195      8192000 
   18000    1.1625253   -4.7073634   -4.7073634   -2.9635758   0.10383275   -4.7073634    1.7437875      8192000 
   19000    1.1636398   -4.7121569   -4.7121569   -2.9666976   0.12555633   -4.7121569    1.7454593      8192000 
   20000    1.1630035   -4.7151551   -4.7151551   -2.9706503   0.14150502   -4.7151551    1.7445048      8192000 
   21000    1.1619526   -4.7176627   -4.7176627   -2.9747342   0.14549727   -4.7176627    1.7429285      8192000 
   22000    1.1590399   -4.7166208   -4.7166208   -2.9780614   0.14080617   -4.7166208    1.7385594      8192000 
   23000    1.1577179    -4.717135    -4.717135   -2.9805587   0.13476451    -4.717135    1.7365764      8192000 
   24000    1.1580879   -4.7195988   -4.7195988   -2.9824673   0.13898913   -4.7195988    1.7371315      8192000 
   25000    1.1602106   -4.7240568   -4.7240568   -2.9837413   0.15424987   -4.7240568    1.7403155      8192000 
   26000    1.1630702   -4.7297166   -4.7297166   -2.9851117   0.18020333   -4.7297166    1.7446049      8192000 
   27000    1.1662499   -4.7359162   -4.7359162   -2.9865418   0.19948807   -4.7359162    1.7493745      8192000 
   28000    1.1670526    -4.738779    -4.738779   -2.9882004   0.21282953    -4.738779    1.7505785      8192000 
   29000    1.1668531   -4.7401933   -4.7401933   -2.9899142   0.21328382   -4.7401933    1.7502792      8192000 
   30000    1.1656214   -4.7399048   -4.7399048   -2.9914731    0.2085705   -4.7399048    1.7484317      8192000 
   31000    1.1628923   -4.7372718   -4.7372718   -2.9929338   0.20134681   -4.7372718    1.7443381      8192000 
   32000    1.1613338   -4.7363991   -4.7363991   -2.9943989    0.1910726   -4.7363991    1.7420003      8192000 
   33000    1.1592948   -4.7346964   -4.7346964   -2.9957546   0.18811853   -4.7346964    1.7389418      8192000 
   34000    1.1586719   -4.7350043   -4.7350043   -2.9969969   0.18523059   -4.7350043    1.7380074      8192000 
   35000    1.1585935    -4.736092    -4.736092   -2.9982022   0.18894545    -4.736092    1.7378898      8192000 
   36000    1.1591161   -4.7380799   -4.7380799   -2.9994061   0.19231763   -4.7380799    1.7386738      8192000 
   37000    1.1598079   -4.7404096   -4.7404096   -3.0006982   0.20080235   -4.7404096    1.7397115      8192000 
   38000    1.1609681   -4.7434117   -4.7434117   -3.0019601   0.20820932   -4.7434117    1.7414516      8192000 
   39000    1.1615029   -4.7455603   -4.7455603   -3.0033064   0.21635086   -4.7455603    1.7422539      8192000 
   40000    1.1620553   -4.7473087   -4.7473087   -3.0042262   0.22372279   -4.7473087    1.7430825      8192000 
   41000    1.1625796   -4.7492868   -4.7492868   -3.0054178   0.22718496   -4.7492868     1.743869      8192000 
   42000     1.162198   -4.7497943   -4.7497943   -3.0064977   0.23225983   -4.7497943    1.7432966      8192000 
   43000    1.1626592     -4.75156     -4.75156   -3.0075717   0.23861081     -4.75156    1.7439883      8192000 
   44000    1.1643722   -4.7560429   -4.7560429    -3.009485   0.42703351   -4.7560429    1.7465579      8192000 
   45000    1.1657674   -4.7591827   -4.7591827    -3.010532   0.76950707   -4.7591827    1.7486507      8192000 
   46000     1.165641    -4.759923    -4.759923   -3.0114619    1.1246191    -4.759923    1.7484611      8192000 
   47000    1.1664745   -4.7621184   -4.7621184   -3.0124071    1.4559385   -4.7621184    1.7497113      8192000 
   48000    1.1675623   -4.7647406   -4.7647406   -3.0133976      1.78589   -4.7647406     1.751343      8192000 
   49000     1.167137   -4.7650205   -4.7650205   -3.0143154     2.157856   -4.7650205    1.7507051      8192000 
   50000    1.1687366   -4.7684407   -4.7684407   -3.0153363    2.4465382   -4.7684407    1.7531045      8192000 
   51000    1.1727174   -4.7756267   -4.7756267   -3.0165511    2.3181998   -4.7756267    1.7590756      8192000 
   52000    1.1711328   -4.7742371   -4.7742371   -3.0175384    2.0583674   -4.7742371    1.7566987      8192000 
   53000    1.1701973   -4.7737153   -4.7737153   -3.0184198    1.8128702   -4.7737153    1.7552955      8192000 
   54000    1.1703317   -4.7748973   -4.7748973   -3.0194002     1.553455   -4.7748973    1.7554971      8192000 
   55000    1.1667298    -4.770239    -4.770239   -3.0201447    1.3215049    -4.770239    1.7500943      8192000 
   56000     1.156198   -4.7552465   -4.7552465   -3.0209499    1.1310581   -4.7552465    1.7342966      8192000 
   57000    1.1382334   -4.7292901   -4.7292901   -3.0219405   0.95117811   -4.7292901    1.7073497      8192000 
   58000    1.1150184   -4.6956256   -4.6956256   -3.0230984   0.78423585   -4.6956256    1.6725272      8192000 
   59000    1.0893066   -4.6581967   -4.6581967   -3.0242372   0.62120162   -4.6581967    1.6339595      8192000 
   60000    1.0633022   -4.6204246   -4.6204246   -3.0254717    0.4734817   -4.6204246    1.5949529      8192000 
   61000    1.0381215   -4.5834618   -4.5834618   -3.0262798   0.34272134   -4.5834618    1.5571819      8192000 
   62000    1.0127967   -4.5466864   -4.5466864   -3.0274918   0.22764771   -4.5466864    1.5191947      8192000 
   63000   0.98778508   -4.5102728   -4.5102728   -3.0285955   0.13768584   -4.5102728    1.4816772      8192000 
   64000   0.96313736   -4.4744112   -4.4744112   -3.0297055  0.067553348   -4.4744112    1.4447057      8192000 
   65000    0.9398041   -4.4404609   -4.4404609   -3.0307551 0.00081194636   -4.4404609    1.4097058      8192000 
   66000   0.91840814   -4.4096193   -4.4096193   -3.0320074 -0.047607063   -4.4096193    1.3776119      8192000 
   67000   0.90130048    -4.385291    -4.385291   -3.0333406 -0.079635356    -4.385291    1.3519504      8192000 
   68000   0.88908482   -4.3681132   -4.3681132   -3.0344863 -0.096180415   -4.3681132    1.3336269      8192000 
   69000   0.88228269   -4.3591901   -4.3591901   -3.0357664 -0.097428617   -4.3591901    1.3234237      8192000 
   70000   0.87956174   -4.3563274   -4.3563274   -3.0369851 -0.086037686   -4.3563274    1.3193423      8192000 
   71000   0.88013238   -4.3585094   -4.3585094   -3.0383112 -0.065743587   -4.3585094    1.3201982      8192000 
   72000   0.88379893   -4.3651861   -4.3651861    -3.039488 -0.038920302   -4.3651861    1.3256981      8192000 
   73000   0.88936931   -4.3750025   -4.3750025   -3.0409488 -0.0031812665   -4.3750025    1.3340536      8192000 
   74000   0.89556232   -4.3861147   -4.3861147   -3.0427716  0.030393459   -4.3861147    1.3433431      8192000 
   75000   0.90120381   -4.3961848   -4.3961848   -3.0443795  0.070560957   -4.3961848    1.3518054      8192000 
   76000   0.90640813   -4.4058068   -4.4058068    -3.046195   0.10240203   -4.4058068    1.3596119      8192000 
   77000   0.90881208   -4.4114766   -4.4114766   -3.0482588   0.12435441   -4.4114766    1.3632178      8192000 
   78000   0.90945303   -4.4146791   -4.4146791   -3.0504999   0.13467691   -4.4146791    1.3641792      8192000 
   79000   0.90792472   -4.4143632   -4.4143632   -3.0524764   0.13215641   -4.4143632    1.3618867      8192000 
   80000   0.90447541   -4.4111963   -4.4111963   -3.0544835   0.12296409   -4.4111963    1.3567128      8192000 
   81000   0.89996554   -4.4066023   -4.4066023   -3.0566543   0.11015797   -4.4066023     1.349948      8192000 
   82000   0.89482153   -4.4010571   -4.4010571   -3.0588251  0.096225259   -4.4010571     1.342232      8192000 
   83000   0.89103867    -4.397378    -4.397378   -3.0608203  0.081314785    -4.397378    1.3365577      8192000 
   84000   0.88744252   -4.3939324   -4.3939324   -3.0627689  0.071443503   -4.3939324    1.3311634      8192000 
   85000   0.88480259   -4.3919336   -4.3919336     -3.06473  0.069315073   -4.3919336    1.3272036      8192000 
   86000    0.8834347   -4.3919324   -4.3919324   -3.0667806  0.067911636   -4.3919324    1.3251517      8192000 
   87000   0.88267856   -4.3929961   -4.3929961   -3.0689786  0.069628091   -4.3929961    1.3240175      8192000 
   88000   0.88300812   -4.3957451   -4.3957451   -3.0712332  0.075500939   -4.3957451    1.3245119      8192000 
   89000   0.88285339   -4.3978028   -4.3978028    -3.073523  0.083846409   -4.3978028    1.3242798      8192000 
   90000    0.8836929   -4.4012404   -4.4012404   -3.0757014  0.089465422   -4.4012404     1.325539      8192000 
   91000   0.88310187   -4.4028849   -4.4028849   -3.0782325  0.092262568   -4.4028849    1.3246525      8192000 
   92000   0.88303952   -4.4050684   -4.4050684   -3.0805095  0.094690235   -4.4050684    1.3245589      8192000 
   93000   0.88230125   -4.4065211   -4.4065211   -3.0830696   0.09433377   -4.4065211    1.3234515      8192000 
   94000   0.88157843   -4.4078375   -4.4078375   -3.0854702  0.093600271   -4.4078375    1.3223673      8192000 
   95000   0.88045143    -4.408422    -4.408422   -3.0877452  0.090854322    -4.408422    1.3206768      8192000 
   96000   0.87921269   -4.4091043   -4.4091043   -3.0902856  0.089444838   -4.4091043    1.3188187      8192000 
   97000   0.87812395   -4.4099327   -4.4099327   -3.0927471  0.087363833   -4.4099327    1.3171856      8192000 
   98000   0.87668777   -4.4100981   -4.4100981   -3.0950668  0.086525972   -4.4100981    1.3150313      8192000 
   99000   0.87560424    -4.410888    -4.410888    -3.097482   0.08246682    -4.410888     1.313406      8192000 
  100000   0.87409154   -4.4111776   -4.4111776   -3.1000406  0.078704437   -4.4111776     1.311137      8192000 
  101000   0.87211605   -4.4107106   -4.4107106   -3.1025369   0.07735219   -4.4107106    1.3081737      8192000 
  102000   0.87074878   -4.4112267   -4.4112267   -3.1051039  0.072115474   -4.4112267    1.3061228      8192000 
  103000   0.86979831     -4.41206     -4.41206   -3.1073628  0.068495508     -4.41206    1.3046971      8192000 
  104000   0.86752071    -4.411149    -4.411149   -3.1098683  0.064752533    -4.411149    1.3012807      8192000 
  105000   0.86672825   -4.4124001   -4.4124001    -3.112308  0.059635103   -4.4124001     1.300092      8192000 
  106000   0.86558215   -4.4131661   -4.4131661   -3.1147932  0.057883217   -4.4131661    1.2983729      8192000 
  107000   0.86455002   -4.4141088   -4.4141088   -3.1172841   0.05750882   -4.4141088    1.2968247      8192000 
  108000   0.86461349   -4.4165262   -4.4165262   -3.1196063    0.0553148   -4.4165262    1.2969199      8192000 
  109000   0.86378152   -4.4176292   -4.4176292   -3.1219573  0.056395941   -4.4176292     1.295672      8192000 
  110000   0.86345015   -4.4194471   -4.4194471   -3.1242722  0.058943966   -4.4194471    1.2951749      8192000 
  111000   0.86313064   -4.4212286   -4.4212286   -3.1265329  0.057595462   -4.4212286    1.2946956      8192000 
  112000   0.86317778   -4.4236922   -4.4236922   -3.1289258  0.057659247   -4.4236922    1.2947664      8192000 
  113000   0.86310983   -4.4257925   -4.4257925   -3.1311281  0.059483519   -4.4257925    1.2946644      8192000 
  114000   0.86358334    -4.428806    -4.428806   -3.1334314  0.061578846    -4.428806    1.2953747      8192000 
  115000   0.86326316    -4.430838    -4.430838   -3.1359436  0.064322535    -4.430838    1.2948944      8192000 
  116000   0.86317617   -4.4331459   -4.4331459   -3.1383819    0.0663423   -4.4331459    1.2947639      8192000 
  117000   0.86380942   -4.4361713   -4.4361713   -3.1404575  0.067379964   -4.4361713    1.2957138      8192000 
  118000   0.86396013    -4.438838    -4.438838   -3.1428981  0.069192915    -4.438838    1.2959399      8192000 
  119000    0.8640276   -4.4411798   -4.4411798   -3.1451387  0.070794775   -4.4411798    1.2960411      8192000 
  120000   0.86409292   -4.4434965   -4.4434965   -3.1473575  0.072334688   -4.4434965    1.2961391      8192000 
  121000   0.86410532    -4.445609    -4.445609   -3.1494513   0.07458543    -4.445609    1.2961577      8192000 
  122000   0.86377363   -4.4471788   -4.4471788   -3.1515187  0.076284956   -4.4471788    1.2956601      8192000 
  123000   0.86455268   -4.4504695   -4.4504695   -3.1536408  0.076205591   -4.4504695    1.2968287      8192000 
  124000    0.8638941    -4.451597    -4.451597   -3.1557562  0.077699948    -4.451597    1.2958408      8192000 
  125000   0.86420752   -4.4542411   -4.4542411   -3.1579301  0.077247265   -4.4542411    1.2963109      8192000 
  126000   0.86418881   -4.4564118   -4.4564118   -3.1601289  0.080745665   -4.4564118    1.2962829      8192000 
  127000   0.86425041    -4.458643    -4.458643   -3.1622677   0.08164982    -4.458643    1.2963753      8192000 
  128000   0.86407893   -4.4605577   -4.4605577   -3.1644396   0.08280728   -4.4605577    1.2961181      8192000 
  129000   0.86458935   -4.4635168   -4.4635168   -3.1666331  0.080593455   -4.4635168    1.2968837      8192000 
  130000   0.86399485   -4.4646014   -4.4646014   -3.1686094  0.084197506   -4.4646014     1.295992      8192000 
  131000   0.86442378   -4.4673891   -4.4673891   -3.1707537   0.08359874   -4.4673891    1.2966353      8192000 
  132000   0.86510113    -4.470627    -4.470627   -3.1729756  0.087178836    -4.470627    1.2976514      8192000 
  133000   0.86605556   -4.4742082   -4.4742082   -3.1751252  0.089383316   -4.4742082     1.299083      8192000 
  134000   0.86673602   -4.4771862   -4.4771862   -3.1770825  0.095544424   -4.4771862    1.3001037      8192000 
  135000   0.86800996   -4.4812495   -4.4812495   -3.1792349   0.10145198   -4.4812495    1.3020146      8192000 
  136000   0.86921527    -4.485099    -4.485099   -3.1812764   0.10776763    -4.485099    1.3038226      8192000 
  137000   0.87096195   -4.4899992   -4.4899992   -3.1835566   0.11582521   -4.4899992    1.3064426      8192000 
  138000   0.87318621   -4.4955107   -4.4955107   -3.1857317   0.12674051   -4.4955107     1.309779      8192000 
  139000   0.87553964   -4.5014011   -4.5014011    -3.188092    0.1396117   -4.5014011    1.3133091      8192000 
  140000   0.87773815   -4.5070912   -4.5070912   -3.1904843   0.15336316   -4.5070912    1.3166069      8192000 
  141000    0.8812538   -4.5148662   -4.5148662   -3.1929858   0.16700603   -4.5148662    1.3218804      8192000 
  142000   0.88512463   -4.5233478   -4.5233478   -3.1956612   0.18576012   -4.5233478    1.3276866      8192000 
  143000   0.88870007   -4.5314459   -4.5314459   -3.1983961   0.20789865   -4.5314459    1.3330498      8192000 
  144000   0.89347417   -4.5414426   -4.5414426   -3.2012317   0.23107803   -4.5414426    1.3402109      8192000 
  145000   0.89814662   -4.5512166   -4.5512166    -3.203997   0.26149559   -4.5512166    1.3472196      8192000 
  146000   0.90357414   -4.5624573   -4.5624573   -3.2070965   0.29340679   -4.5624573    1.3553609      8192000 
  147000   0.90889108   -4.5735768   -4.5735768   -3.2102405   0.33154288   -4.5735768    1.3633363      8192000 
  148000   0.91455431   -4.5855785   -4.5855785   -3.2137474   0.37015286   -4.5855785    1.3718311      8192000 
  149000   0.91963973   -4.5968109   -4.5968109   -3.2173517   0.41000578   -4.5968109    1.3794592      8192000 
  150000    0.9240905   -4.6074235   -4.6074235   -3.2212881   0.45247239   -4.6074235    1.3861354      8192000 
  151000   0.92914855   -4.6189438   -4.6189438   -3.2252214    0.4911139   -4.6189438    1.3937225      8192000 
  152000   0.93269236   -4.6284881   -4.6284881   -3.2294499   0.52992365   -4.6284881    1.3990382      8192000 
  153000   0.93660455   -4.6388502   -4.6388502   -3.2339437   0.56325183   -4.6388502    1.4049065      8192000 
  154000   0.93883866    -4.646433    -4.646433   -3.2381753   0.59642032    -4.646433    1.4082576      8192000 
  155000   0.94126511   -4.6545663   -4.6545663    -3.242669   0.61901972   -4.6545663    1.4118973      8192000 
  156000   0.94160156   -4.6593327   -4.6593327   -3.2469307   0.63639383   -4.6593327     1.412402      8192000 
  157000   0.94150767   -4.6635249   -4.6635249   -3.2512638    0.6408298   -4.6635249    1.4122611      8192000 
  158000   0.93963257   -4.6650761   -4.6650761   -3.2556276   0.63992735   -4.6650761    1.4094485      8192000 
  159000    0.9372682   -4.6656289   -4.6656289    -3.259727   0.63053013   -4.6656289    1.4059019      8192000 
  160000   0.93406503   -4.6647896   -4.6647896   -3.2636924   0.61896203   -4.6647896    1.4010972      8192000 
  161000   0.93086856   -4.6639905   -4.6639905    -3.267688   0.59876764   -4.6639905    1.3963025      8192000 
  162000   0.92694053   -4.6617661   -4.6617661   -3.2713556   0.57546674   -4.6617661    1.3904104      8192000 
  163000   0.92204608   -4.6578343   -4.6578343   -3.2747655   0.55180947   -4.6578343    1.3830688      8192000 
  164000    0.9169696   -4.6538224   -4.6538224   -3.2783683   0.52137885   -4.6538224    1.3754541      8192000 
  165000   0.91159282   -4.6489203   -4.6489203   -3.2815315   0.48628791   -4.6489203    1.3673889      8192000 
  166000   0.90563724   -4.6428704   -4.6428704   -3.2844148   0.45300069   -4.6428704    1.3584555      8192000 
  167000   0.89891478   -4.6356861   -4.6356861   -3.2873143   0.41578838   -4.6356861    1.3483718      8192000 
  168000     0.891767   -4.6276832   -4.6276832   -3.2900331   0.37737554   -4.6276832    1.3376502      8192000 
  169000   0.88453612    -4.619111    -4.619111   -3.2923072   0.33422691    -4.619111    1.3268039      8192000 
  170000   0.87687066   -4.6097647   -4.6097647    -3.294459   0.29175993   -4.6097647    1.3153057      8192000 
  171000   0.86892004   -4.5997352   -4.5997352   -3.2963555   0.24761197   -4.5997352    1.3033797      8192000 
  172000   0.86110373   -4.5894114   -4.5894114   -3.2977561   0.20715903   -4.5894114    1.2916553      8192000 
  173000   0.85287748   -4.5783594   -4.5783594   -3.2990435   0.16744393   -4.5783594    1.2793159      8192000 
  174000   0.84471766   -4.5667916   -4.5667916   -3.2997154   0.13048922   -4.5667916    1.2670762      8192000 
  175000   0.83639678   -4.5550981   -4.5550981   -3.3005032  0.095258677   -4.5550981    1.2545948      8192000 
  176000   0.82827471   -4.5435574   -4.5435574   -3.3011457  0.063330845   -4.5435574    1.2424118      8192000 
  177000   0.82067269   -4.5324395   -4.5324395   -3.3014307  0.033044764   -4.5324395    1.2310087      8192000 
  178000   0.81296976   -4.5212636   -4.5212636   -3.3018092 0.0059549019   -4.5212636    1.2194543      8192000 
  179000   0.80548048   -4.5102973   -4.5102973   -3.3020768 -0.015799006   -4.5102973    1.2082204      8192000 
  180000   0.79888988    -4.500299    -4.500299   -3.3019645 -0.038186258    -4.500299    1.1983345      8192000 
  181000   0.79273488   -4.4911511   -4.4911511   -3.3020491 -0.056648925   -4.4911511     1.189102      8192000 
  182000   0.78691637   -4.4825913   -4.4825913    -3.302217 -0.072526208   -4.4825913    1.1803743      8192000 
  183000   0.78174267   -4.4750391   -4.4750391   -3.3024254 -0.084564348   -4.4750391    1.1726137      8192000 
  184000   0.77819072   -4.4698341   -4.4698341   -3.3025483 -0.091097255   -4.4698341    1.1672858      8192000 
  185000   0.77601403   -4.4668713   -4.4668713   -3.3028506 -0.098622402   -4.4668713    1.1640208      8192000 
  186000   0.77523057   -4.4656025   -4.4656025   -3.3027569  -0.10126265   -4.4656025    1.1628456      8192000 
  187000   0.77495648   -4.4653582   -4.4653582   -3.3029237 -0.097881029   -4.4653582    1.1624344      8192000 
  188000   0.77634085   -4.4673568   -4.4673568   -3.3028458 -0.090260431   -4.4673568     1.164511      8192000 
  189000   0.77859024   -4.4708869   -4.4708869   -3.3030018  -0.08060885   -4.4708869    1.1678851      8192000 
  190000   0.78187349   -4.4760294   -4.4760294   -3.3032195 -0.066432695   -4.4760294    1.1728099      8192000 
  191000   0.78545081   -4.4821456   -4.4821456   -3.3039697 -0.051674281   -4.4821456    1.1781759      8192000 
  192000    0.7891541   -4.4883371   -4.4883371   -3.3046062 -0.032164093   -4.4883371    1.1837309      8192000 
  193000   0.79391097   -4.4961925   -4.4961925   -3.3053264 -0.015395342   -4.4961925    1.1908662      8192000 
  194000   0.79820444   -4.5036373   -4.5036373    -3.306331 0.0030525732   -4.5036373    1.1973064      8192000 
  195000   0.80226996   -4.5104966   -4.5104966    -3.307092  0.021635929   -4.5104966    1.2034046      8192000 
  196000    0.8055713   -4.5165617   -4.5165617   -3.3082051  0.038590848   -4.5165617    1.2083566      8192000 
  197000   0.80893699   -4.5224504   -4.5224504   -3.3090452  0.050800328   -4.5224504    1.2134052      8192000 
  198000   0.81100993   -4.5263775   -4.5263775   -3.3098629  0.060546216   -4.5263775    1.2165146      8192000 
  199000   0.81217075   -4.5287641   -4.5287641   -3.3105082  0.070234185   -4.5287641    1.2182558      8192000 
  200000   0.81326043   -4.5309794   -4.5309794   -3.3110891  0.072238214   -4.5309794    1.2198903      8192000 
  201000   0.81309444   -4.5311206   -4.5311206   -3.3114792  0.071967602   -4.5311206    1.2196413      8192000 
  202000   0.81230474   -4.5303958   -4.5303958    -3.311939  0.068656184   -4.5303958    1.2184568      8192000 
  203000   0.81103604    -4.528852    -4.528852   -3.3122983  0.061848071    -4.528852    1.2165538      8192000 
  204000    0.8090153   -4.5262878   -4.5262878   -3.3127652  0.053481034   -4.5262878    1.2135226      8192000 
  205000   0.80651865   -4.5231357   -4.5231357    -3.313358  0.041958518   -4.5231357    1.2097777      8192000 
  206000   0.80369759   -4.5195503   -4.5195503   -3.3140042  0.029880979   -4.5195503    1.2055461      8192000 
  207000   0.80112568    -4.516472    -4.516472   -3.3147838  0.019764691    -4.516472    1.2016882      8192000 
  208000   0.79783325   -4.5120343   -4.5120343   -3.3152847 0.0085852607   -4.5120343    1.1967496      8192000 
  209000   0.79511577   -4.5087372   -4.5087372   -3.3160639 -0.0028878308   -4.5087372    1.1926734      8192000 
  210000   0.79281851   -4.5061292   -4.5061292   -3.3169017 -0.011883244   -4.5061292    1.1892275      8192000 
  211000   0.79088798   -4.5041059   -4.5041059   -3.3177742  -0.01836534   -4.5041059    1.1863317      8192000 
  212000   0.78924913   -4.5023517   -4.5023517   -3.3184783 -0.021976134   -4.5023517    1.1838734      8192000 
  213000   0.78794007   -4.5011891   -4.5011891   -3.3192793   -0.0237114   -4.5011891    1.1819098      8192000 
  214000   0.78769162   -4.5012877   -4.5012877   -3.3197505 -0.023699275   -4.5012877    1.1815371      8192000 
  215000   0.78801018   -4.5021882   -4.5021882   -3.3201732 -0.021819914   -4.5021882     1.182015      8192000 
  216000   0.78964877   -4.5052608   -4.5052608   -3.3207879 -0.018721478   -4.5052608    1.1844729      8192000 
  217000   0.79112803   -4.5078741   -4.5078741   -3.3211824 -0.011314275   -4.5078741    1.1866918      8192000 
  218000   0.79315808   -4.5113282   -4.5113282   -3.3215914 0.00040808187   -4.5113282    1.1897368      8192000 
  219000   0.79609917    -4.516046    -4.516046   -3.3218975 0.0086614991    -4.516046    1.1941485      8192000 
  220000   0.79872095   -4.5202249   -4.5202249   -3.3221438  0.024587376   -4.5202249    1.1980811      8192000 
  221000   0.80137522   -4.5246807   -4.5246807   -3.3226181  0.037212929   -4.5246807    1.2020625      8192000 
  222000   0.80419338   -4.5293792   -4.5293792   -3.3230894  0.047182462   -4.5293792    1.2062898      8192000 
  223000   0.80540145    -4.531703    -4.531703   -3.3236011   0.05794341    -4.531703    1.2081019      8192000 
  224000   0.80729911   -4.5350228   -4.5350228   -3.3240744  0.065651971   -4.5350228    1.2109484      8192000 
  225000   0.80785324   -4.5361745   -4.5361745   -3.3243949  0.070257478   -4.5361745    1.2117795      8192000 
  226000   0.80723849   -4.5358729   -4.5358729   -3.3250155  0.070255916   -4.5358729    1.2108574      8192000 
  227000    0.8067537   -4.5354504   -4.5354504   -3.3253202  0.065337257   -4.5354504    1.2101302      8192000 
  228000   0.80495739    -4.533207    -4.533207   -3.3257712  0.056819828    -4.533207    1.2074358      8192000 
  229000   0.80226531   -4.5297303   -4.5297303   -3.3263327  0.046599458   -4.5297303    1.2033977      8192000 
  230000    0.7997622   -4.5264398   -4.5264398   -3.3267968  0.035701168   -4.5264398     1.199643      8192000 
  231000   0.79734453   -4.5233178   -4.5233178   -3.3273013  0.023446842   -4.5233178    1.1960165      8192000 
  232000   0.79451265   -4.5194456   -4.5194456   -3.3276769  0.012868226   -4.5194456    1.1917687      8192000 
  233000   0.79210741   -4.5161843   -4.5161843   -3.3280234 0.0037267742   -4.5161843    1.1881608      8192000 
  234000   0.79015271   -4.5134335   -4.5134335   -3.3282048 -0.0035086614   -4.5134335    1.1852288      8192000 
  235000   0.78863691   -4.5116112   -4.5116112   -3.3286561 -0.0086653013   -4.5116112    1.1829551      8192000 
  236000   0.78769798   -4.5105859   -4.5105859   -3.3290393 -0.012173691   -4.5105859    1.1815467      8192000 
  237000   0.78712894   -4.5100341   -4.5100341    -3.329341 -0.012077038   -4.5100341    1.1806931      8192000 
  238000   0.78734131   -4.5108783   -4.5108783   -3.3298666 -0.0095128211   -4.5108783    1.1810117      8192000 
  239000   0.78797054   -4.5121364   -4.5121364   -3.3301809 -0.007233808   -4.5121364    1.1819555      8192000 
  240000   0.78900649   -4.5137481   -4.5137481   -3.3302386 -0.00098565148   -4.5137481    1.1835094      8192000 
  241000   0.79052039   -4.5163305   -4.5163305   -3.3305502 0.0050952888   -4.5163305    1.1857803      8192000 
  242000   0.79195441   -4.5189755   -4.5189755   -3.3310442  0.011379335   -4.5189755    1.1879313      8192000 
  243000   0.79350153   -4.5216519   -4.5216519   -3.3313999  0.021092607   -4.5216519     1.190252      8192000 
  244000   0.79587547   -4.5257198   -4.5257198   -3.3319069  0.026823459   -4.5257198    1.1938129      8192000 
  245000   0.79747674   -4.5281695   -4.5281695   -3.3319547   0.03716536   -4.5281695    1.1962148      8192000 
  246000   0.79910188   -4.5306122   -4.5306122   -3.3319597  0.045457808   -4.5306122    1.1986525      8192000 
  247000   0.80042314   -4.5328187   -4.5328187   -3.3321843  0.052725521   -4.5328187    1.2006344      8192000 
  248000   0.80126616   -4.5342981   -4.5342981   -3.3323992  0.054827826   -4.5342981    1.2018989      8192000 
  249000   0.80201461    -4.535723    -4.535723   -3.3327014  0.055349435    -4.535723    1.2030216      8192000 
  250000   0.80111035   -4.5346132   -4.5346132    -3.332948   0.05703727   -4.5346132    1.2016652      8192000 
  251000   0.80069276   -4.5341402   -4.5341402   -3.3331014  0.053253318   -4.5341402    1.2010388      8192000 
  252000   0.79922883   -4.5321155   -4.5321155   -3.3332726  0.049107046   -4.5321155    1.1988429      8192000 
  253000     0.797376   -4.5296744   -4.5296744   -3.3336107  0.042181777   -4.5296744    1.1960637      8192000 
  254000     0.795449   -4.5271474   -4.5271474   -3.3339742  0.034392412   -4.5271474    1.1931732      8192000 
  255000   0.79373587   -4.5247898   -4.5247898   -3.3341863  0.026057756   -4.5247898    1.1906035      8192000 
  256000   0.79190943   -4.5221533   -4.5221533   -3.3342894  0.018012451   -4.5221533    1.1878638      8192000 
  257000   0.78984174   -4.5191143   -4.5191143   -3.3343519  0.010516081   -4.5191143    1.1847623      8192000 
  258000   0.78891345   -4.5181187   -4.5181187   -3.3347488 0.0038129093   -4.5181187    1.1833699      8192000 
  259000   0.78709513   -4.5155035   -4.5155035    -3.334861 0.00015644715   -4.5155035    1.1806424      8192000 
  260000   0.78658427    -4.514776    -4.514776   -3.3348999 -0.0040403502    -4.514776    1.1798761      8192000 
  261000    0.7859178   -4.5137699   -4.5137699   -3.3348935 -0.0043033795   -4.5137699    1.1788764      8192000 
  262000   0.78588704   -4.5136211   -4.5136211   -3.3347908 -0.0017269339   -4.5136211    1.1788303      8192000 
  263000   0.78657005   -4.5148056   -4.5148056   -3.3349509 0.00044483846   -4.5148056    1.1798548      8192000 
  264000   0.78766401    -4.516485    -4.516485   -3.3349892 0.0045124491    -4.516485    1.1814957      8192000 
  265000   0.78875917   -4.5184221   -4.5184221   -3.3352836  0.010575225   -4.5184221    1.1831385      8192000 
  266000   0.79023166   -4.5206547   -4.5206547   -3.3353075  0.016255116   -4.5206547    1.1853472      8192000 
  267000   0.79217087   -4.5235913   -4.5235913   -3.3353353  0.022870315   -4.5235913     1.188256      8192000 
  268000   0.79314531   -4.5250676   -4.5250676   -3.3353499  0.032485885   -4.5250676    1.1897177      8192000 
  269000   0.79499796   -4.5277259   -4.5277259   -3.3352293   0.03799028   -4.5277259    1.1924966      8192000 
  270000   0.79629715   -4.5298011   -4.5298011   -3.3353557  0.042330586   -4.5298011    1.1944454      8192000 
  271000    0.7968007   -4.5309374   -4.5309374   -3.3357366  0.047204974   -4.5309374    1.1952008      8192000 
  272000   0.79710448   -4.5314288   -4.5314288   -3.3357724  0.049080937   -4.5314288    1.1956564      8192000 
  273000   0.79716891    -4.531635    -4.531635    -3.335882  0.050217234    -4.531635    1.1957531      8192000 
  274000   0.79660801   -4.5310113   -4.5310113   -3.3360995  0.048149545   -4.5310113    1.1949117      8192000 
  275000   0.79580766   -4.5298314   -4.5298314   -3.3361202  0.047368811   -4.5298314    1.1937112      8192000 
  276000   0.79529768   -4.5290864   -4.5290864   -3.3361401  0.041917391   -4.5290864    1.1929462      8192000 
  277000   0.79365045   -4.5266112   -4.5266112   -3.3361358  0.038995809   -4.5266112    1.1904754      8192000 
  278000   0.79249735   -4.5248858   -4.5248858   -3.3361401  0.031173707   -4.5248858    1.1887457      8192000 
  279000   0.79116306   -4.5229711   -4.5229711   -3.3362268  0.022538205   -4.5229711    1.1867443      8192000 
  280000   0.78956953    -4.520385    -4.520385    -3.336031   0.01743068    -4.520385     1.184354      8192000 
  281000    0.7883225   -4.5183604   -4.5183604    -3.335877    0.0130894   -4.5183604    1.1824834      8192000 
  282000   0.78692319   -4.5163036   -4.5163036   -3.3359191 0.0085528833   -4.5163036    1.1803845      8192000 
  283000   0.78615049   -4.5150681   -4.5150681   -3.3358426 0.0058899009   -4.5150681    1.1792254      8192000 
  284000   0.78561745   -4.5141829   -4.5141829    -3.335757  0.003101673   -4.5141829    1.1784259      8192000 
  285000   0.78504819    -4.513413    -4.513413    -3.335841 0.0023737506    -4.513413     1.177572      8192000 
  286000   0.78522442   -4.5135273   -4.5135273   -3.3356909 0.0031933276   -4.5135273    1.1778363      8192000 
  287000   0.78593009   -4.5144777   -4.5144777   -3.3355829 0.0052323249   -4.5144777    1.1788948      8192000 
  288000   0.78682269   -4.5156583   -4.5156583   -3.3354246 0.0088135571   -4.5156583    1.1802337      8192000 
  289000   0.78810011   -4.5175646   -4.5175646   -3.3354147  0.015347031   -4.5175646    1.1821499      8192000 
  290000   0.78912375   -4.5188393   -4.5188393   -3.3351539  0.022412247   -4.5188393    1.1836853      8192000 
  291000    0.7903085   -4.5205567   -4.5205567   -3.3350943  0.025407575   -4.5205567    1.1854624      8192000 
  292000   0.79180743   -4.5227038   -4.5227038    -3.334993  0.031697552   -4.5227038    1.1877108      8192000 
  293000   0.79290314   -4.5240627   -4.5240627   -3.3347083  0.036158289   -4.5240627    1.1893544      8192000 
  294000   0.79351583   -4.5248383   -4.5248383   -3.3345649  0.040115425   -4.5248383    1.1902734      8192000 
  295000   0.79399129   -4.5253673   -4.5253673   -3.3343806  0.043219049   -4.5253673    1.1909866      8192000 
  296000   0.79429469    -4.525735    -4.525735   -3.3342932  0.045296274    -4.525735    1.1914417      8192000 
  297000   0.79372426   -4.5245591   -4.5245591    -3.333973  0.046210075   -4.5245591    1.1905861      8192000 
  298000   0.79378862   -4.5243557   -4.5243557   -3.3336731  0.042814668   -4.5243557    1.1906826      8192000 
  299000   0.79295909   -4.5227418   -4.5227418   -3.3333035   0.04017543   -4.5227418    1.1894383      8192000 
  300000   0.79208233   -4.5210931   -4.5210931   -3.3329699  0.035456228   -4.5210931    1.1881232      8192000 
  301000   0.79073958   -4.5188258   -4.5188258   -3.3327168  0.030921852   -4.5188258    1.1861091      8192000 
  302000    0.7896271    -4.517198    -4.517198   -3.3327576  0.025139948    -4.517198    1.1844403      8192000 
  303000   0.78807618   -4.5145084   -4.5145084   -3.3323945  0.020281549   -4.5145084     1.182114      8192000 
  304000   0.78742247   -4.5133633   -4.5133633   -3.3322299  0.014530187   -4.5133633    1.1811334      8192000 
  305000   0.78635535   -4.5114809   -4.5114809   -3.3319482  0.010940491   -4.5114809    1.1795327      8192000 
  306000   0.78562502   -4.5101091   -4.5101091   -3.3316719 0.0093888139   -4.5101091    1.1784372      8192000 
  307000   0.78524571   -4.5090853   -4.5090853    -3.331217 0.0089466716   -4.5090853    1.1778683      8192000 
  308000   0.78517724   -4.5086382   -4.5086382   -3.3308727 0.0078966732   -4.5086382    1.1777656      8192000 
  309000   0.78504871   -4.5080973   -4.5080973   -3.3305245 0.0086274077   -4.5080973    1.1775728      8192000 
  310000    0.7856845   -4.5086904   -4.5086904    -3.330164 0.0089134151   -4.5086904    1.1785265      8192000 
  311000   0.78582447   -4.5085142   -4.5085142   -3.3297778  0.012678104   -4.5085142    1.1787364      8192000 
  312000    0.7870009   -4.5098264   -4.5098264   -3.3293254   0.01479702   -4.5098264    1.1805011      8192000 
  313000   0.78787464   -4.5110603   -4.5110603   -3.3292486  0.020016551   -4.5110603    1.1818117      8192000 
  314000   0.78883797   -4.5122424   -4.5122424   -3.3289857  0.025227782   -4.5122424    1.1832567      8192000 
  315000   0.79063093   -4.5145581   -4.5145581    -3.328612  0.031619581   -4.5145581    1.1859461      8192000 
  316000   0.79245122    -4.516702    -4.516702   -3.3280255  0.041546447    -4.516702    1.1886765      8192000 
  317000   0.79515222   -4.5201918   -4.5201918   -3.3274638   0.05500759   -4.5201918     1.192728      8192000 
  318000   0.79845317   -4.5247905   -4.5247905    -3.327111  0.070002809   -4.5247905    1.1976795      8192000 
  319000   0.80239273   -4.5303066   -4.5303066   -3.3267178  0.091149452   -4.5303066    1.2035888      8192000 
  320000    0.8060853   -4.5355592   -4.5355592   -3.3264316   0.11663217   -4.5355592    1.2091276      8192000 
  321000   0.81064173   -4.5419494   -4.5419494   -3.3259871   0.14449055   -4.5419494    1.2159623      8192000 
  322000     0.815336   -4.5483967   -4.5483967    -3.325393   0.17800974   -4.5483967    1.2230037      8192000 
  323000   0.81974328   -4.5547157   -4.5547157   -3.3251011   0.20593073   -4.5547157    1.2296146      8192000 
  324000   0.82416831   -4.5607731   -4.5607731    -3.324521   0.23267231   -4.5607731    1.2362522      8192000 
  325000   0.82875672   -4.5669555   -4.5669555   -3.3238207   0.25403751   -4.5669555    1.2431348      8192000 
  326000   0.83160776   -4.5707595   -4.5707595   -3.3233482   0.27676951   -4.5707595    1.2474113      8192000 
  327000       0.8347   -4.5749762   -4.5749762   -3.3229265   0.28699284   -4.5749762    1.2520497      8192000 
  328000   0.83571436   -4.5759966   -4.5759966   -3.3224254   0.29142006   -4.5759966    1.2535712      8192000 
  329000   0.83532896   -4.5748603   -4.5748603   -3.3218672   0.28323757   -4.5748603    1.2529931      8192000 
  330000   0.83268711   -4.5703854   -4.5703854   -3.3213551   0.27129706   -4.5703854    1.2490303      8192000 
  331000   0.82934168   -4.5648244   -4.5648244   -3.3208122    0.2453998   -4.5648244    1.2440122      8192000 
  332000   0.82450285   -4.5571462   -4.5571462   -3.3203922   0.21651824   -4.5571462     1.236754      8192000 
  333000   0.81871615   -4.5478806   -4.5478806   -3.3198067   0.18410919   -4.5478806    1.2280739      8192000 
  334000   0.81242478   -4.5380472   -4.5380472   -3.3194103   0.14959447   -4.5380472    1.2186369      8192000 
  335000   0.80600723   -4.5278927   -4.5278927   -3.3188821   0.11873844   -4.5278927    1.2090105      8192000 
  336000   0.79960745   -4.5178197   -4.5178197   -3.3184088  0.089299543   -4.5178197    1.1994109      8192000 
  337000   0.79463336   -4.5096519   -4.5096519   -3.3177022  0.061881651   -4.5096519    1.1919497      8192000 
  338000   0.78973075    -4.501698    -4.501698   -3.3171022   0.04005878    -4.501698    1.1845958      8192000 
  339000   0.78544194   -4.4946979   -4.4946979   -3.3165353  0.023910631   -4.4946979    1.1781626      8192000 
  340000   0.78246972   -4.4896551   -4.4896551   -3.3159508 0.0062426513   -4.4896551    1.1737043      8192000 
  341000   0.78002557   -4.4852747   -4.4852747   -3.3152366 -0.0047665258   -4.4852747    1.1700381      8192000 
  342000    0.7777329   -4.4812576   -4.4812576   -3.3146585 -0.011140912   -4.4812576    1.1665991      8192000 
  343000   0.77630715   -4.4784732   -4.4784732   -3.3140128 -0.019387041   -4.4784732    1.1644604      8192000 
  344000   0.77493795   -4.4759183   -4.4759183   -3.3135117 -0.017878191   -4.4759183    1.1624066      8192000 
  345000    0.7750619   -4.4755399   -4.4755399   -3.3129473 -0.020910452   -4.4755399    1.1625926      8192000 
  346000   0.77550258   -4.4759214   -4.4759214   -3.3126679 -0.019503847   -4.4759214    1.1632536      8192000 
  347000   0.77713079   -4.4775448   -4.4775448    -3.311849 -0.013493116   -4.4775448    1.1656959      8192000 
  348000   0.77873658    -4.479188    -4.479188   -3.3110834 -0.0037318973    -4.479188    1.1681046      8192000 
  349000    0.7807045   -4.4814601   -4.4814601   -3.3104036 0.0060195289   -4.4814601    1.1710564      8192000 
  350000   0.78351222   -4.4850574   -4.4850574   -3.3097894  0.017468005   -4.4850574     1.175268      8192000 
  351000    0.7861577   -4.4883539   -4.4883539   -3.3091177  0.029816309   -4.4883539    1.1792362      8192000 
  352000   0.78852796   -4.4911062   -4.4911062   -3.3083145  0.042413621   -4.4911062    1.1827916      8192000 
  353000   0.79065649   -4.4936979   -4.4936979   -3.3077135  0.051505927   -4.4936979    1.1859844      8192000 
  354000   0.79228671   -4.4954969   -4.4954969   -3.3070671  0.059586324   -4.4954969    1.1884298      8192000 
  355000   0.79385493   -4.4970871   -4.4970871    -3.306305  0.061794809   -4.4970871    1.1907821      8192000 
  356000   0.79490203   -4.4978955   -4.4978955   -3.3055428  0.065331474   -4.4978955    1.1923527      8192000 
  357000   0.79542637   -4.4981406   -4.4981406   -3.3050013  0.067306119   -4.4981406    1.1931393      8192000 
  358000   0.79497502   -4.4967675   -4.4967675   -3.3043052  0.066864353   -4.4967675    1.1924622      8192000 
  359000   0.79427802   -4.4949951   -4.4949951   -3.3035784  0.062039875   -4.4949951    1.1914167      8192000 
  360000   0.79317251   -4.4924775   -4.4924775   -3.3027191   0.05677683   -4.4924775    1.1897585      8192000 
  361000   0.79113361    -4.488733    -4.488733   -3.3020329  0.049494897    -4.488733    1.1867001      8192000 
  362000   0.78882079   -4.4846192   -4.4846192   -3.3013883  0.038012265   -4.4846192    1.1832309      8192000 
  363000   0.78651046   -4.4802171   -4.4802171   -3.3004517  0.027904221   -4.4802171    1.1797654      8192000 
  364000   0.78325861   -4.4748094   -4.4748094   -3.2999218  0.019372911   -4.4748094    1.1748876      8192000 
  365000   0.78121911   -4.4708953   -4.4708953    -3.299067 0.0078740187   -4.4708953    1.1718284      8192000 
  366000   0.77926034   -4.4672521   -4.4672521   -3.2983619 -0.0019616096   -4.4672521    1.1688902      8192000 
  367000   0.77711737   -4.4634562   -4.4634562   -3.2977805 -0.0080804239   -4.4634562    1.1656758      8192000 
  368000   0.77534219   -4.4602835   -4.4602835   -3.2972705 -0.014188317   -4.4602835     1.163013      8192000 
  369000   0.77464062   -4.4584815   -4.4584815   -3.2965209 -0.017352536   -4.4584815    1.1619606      8192000 
  370000   0.77471977   -4.4579299   -4.4579299   -3.2958506 -0.019250558   -4.4579299    1.1620794      8192000 
  371000   0.77505045   -4.4576962   -4.4576962   -3.2951208 -0.020761007   -4.4576962    1.1625754      8192000 
  372000   0.77514484   -4.4572606   -4.4572606   -3.2945437 -0.015009638   -4.4572606     1.162717      8192000 
  373000   0.77643565   -4.4585256   -4.4585256   -3.2938725 -0.012502005   -4.4585256    1.1646532      8192000 
  374000   0.77755286    -4.459402    -4.459402    -3.293073 -0.0064506163    -4.459402     1.166329      8192000 
  375000   0.77922703   -4.4613725   -4.4613725   -3.2925323 -0.0018596288   -4.4613725    1.1688402      8192000 
  376000   0.78069567   -4.4629044   -4.4629044   -3.2918612  0.010184247   -4.4629044    1.1710432      8192000 
  377000   0.78317809    -4.466071    -4.466071   -3.2913041  0.017856216    -4.466071    1.1747668      8192000 
  378000   0.78484251   -4.4680555   -4.4680555   -3.2907921  0.028169106   -4.4680555    1.1772635      8192000 
  379000   0.78710195     -4.47095     -4.47095   -3.2902974  0.034290121     -4.47095    1.1806526      8192000 
  380000   0.78893418   -4.4731519   -4.4731519    -3.289751  0.043659792   -4.4731519     1.183401      8192000 
  381000   0.79020533   -4.4744117   -4.4744117    -3.289104  0.049423133   -4.4744117    1.1853077      8192000 
  382000   0.79141187   -4.4757821   -4.4757821   -3.2886646  0.054652856   -4.4757821    1.1871175      8192000 
  383000   0.79201936   -4.4760799   -4.4760799   -3.2880512  0.055975126   -4.4760799    1.1880287      8192000 
  384000   0.79228765   -4.4758168   -4.4758168   -3.2873857  0.057776207   -4.4758168    1.1884312      8192000 
  385000   0.79248996   -4.4756195   -4.4756195   -3.2868849  0.054610133   -4.4756195    1.1887346      8192000 
  386000   0.79196788   -4.4743569   -4.4743569   -3.2864053  0.051312158   -4.4743569    1.1879515      8192000 
  387000   0.79077226   -4.4721341   -4.4721341    -3.285976  0.045850351   -4.4721341    1.1861581      8192000 
  388000   0.78927756   -4.4691929   -4.4691929   -3.2852769  0.041577902   -4.4691929     1.183916      8192000 
  389000   0.78753773   -4.4662434   -4.4662434   -3.2849371  0.032266327   -4.4662434    1.1813063      8192000 
  390000   0.78541609    -4.462712    -4.462712   -3.2845881   0.02474278    -4.462712    1.1781238      8192000 
  391000   0.78394513   -4.4600325   -4.4600325   -3.2841151  0.014981678   -4.4600325    1.1759174      8192000 
  392000   0.78154136   -4.4561496   -4.4561496   -3.2838379  0.010234529   -4.4561496    1.1723118      8192000 
  393000   0.78003842   -4.4532893   -4.4532893    -3.283232 0.0035907304   -4.4532893    1.1700573      8192000 
  394000   0.77923022   -4.4516311   -4.4516311   -3.2827861 -0.0025475842   -4.4516311     1.168845      8192000 
  395000   0.77759168   -4.4489489   -4.4489489   -3.2825616 -0.0082135659   -4.4489489    1.1663872      8192000 
  396000   0.77686425   -4.4473696   -4.4473696   -3.2820736 -0.011391836   -4.4473696    1.1652961      8192000 
  397000   0.77633486   -4.4463558   -4.4463558   -3.2818538 -0.014651454   -4.4463558     1.164502      8192000 
  398000   0.77617919   -4.4457749   -4.4457749   -3.2815065 -0.015342535   -4.4457749    1.1642685      8192000 
  399000   0.77636209   -4.4458112   -4.4458112   -3.2812683  -0.01426859   -4.4458112    1.1645428      8192000 
  400000   0.77698893   -4.4464877   -4.4464877   -3.2810046 -0.012324939   -4.4464877    1.1654831      8192000 
  401000   0.77756177   -4.4470385   -4.4470385   -3.2806962 -0.0058567968   -4.4470385    1.1663424      8192000 
  402000   0.77939894   -4.4494998   -4.4494998   -3.2804016 -0.00048461636   -4.4494998    1.1690981      8192000 
  403000   0.78086494   -4.4513439   -4.4513439   -3.2800468 0.0052173678   -4.4513439    1.1712971      8192000 
  404000   0.78322645   -4.4545274   -4.4545274    -3.279688  0.010088124   -4.4545274    1.1748394      8192000 
  405000   0.78442142   -4.4558694   -4.4558694   -3.2792376  0.019666559   -4.4558694    1.1766318      8192000 
  406000   0.78598302    -4.458189    -4.458189   -3.2792148  0.028079808    -4.458189    1.1789742      8192000 
  407000   0.78780497   -4.4606529   -4.4606529   -3.2789458  0.032350413   -4.4606529    1.1817072      8192000 
  408000   0.78944977   -4.4629386   -4.4629386   -3.2787642  0.037123706   -4.4629386    1.1841744      8192000 
  409000   0.79001873   -4.4637337   -4.4637337   -3.2787059  0.044466022   -4.4637337    1.1850278      8192000 
  410000    0.7909502   -4.4649106   -4.4649106   -3.2784856  0.045543353   -4.4649106     1.186425      8192000 
  411000   0.79108477   -4.4647806   -4.4647806   -3.2781537  0.047850609   -4.4647806    1.1866269      8192000 
  412000   0.79127645    -4.464864    -4.464864   -3.2779496  0.047397683    -4.464864    1.1869144      8192000 
  413000   0.79142706   -4.4649077   -4.4649077   -3.2777674  0.045141223   -4.4649077    1.1871403      8192000 
  414000   0.79048422   -4.4633199   -4.4633199   -3.2775939  0.042173215   -4.4633199     1.185726      8192000 
  415000   0.78918894    -4.461129    -4.461129   -3.2773459  0.038029464    -4.461129    1.1837831      8192000 
  416000   0.78799546   -4.4593466   -4.4593466   -3.2773537  0.031400802   -4.4593466    1.1819929      8192000 
  417000   0.78651547   -4.4568462   -4.4568462   -3.2770733  0.025396577   -4.4568462    1.1797729      8192000 
  418000   0.78470558   -4.4540982   -4.4540982   -3.2770401  0.018982292   -4.4540982    1.1770581      8192000 
  419000   0.78309091   -4.4516307   -4.4516307   -3.2769946  0.011834129   -4.4516307    1.1746361      8192000 
  420000   0.78191169   -4.4498942   -4.4498942    -3.277027 0.0048415929   -4.4498942    1.1728672      8192000 
  421000   0.78021719    -4.447308    -4.447308   -3.2769825 0.00043490417    -4.447308    1.1703255      8192000 
  422000    0.7795507   -4.4460625   -4.4460625   -3.2767368 -0.0044545137   -4.4460625    1.1693258      8192000 
  423000   0.77847757    -4.444304    -4.444304   -3.2765879 -0.008767143    -4.444304    1.1677161      8192000 
  424000   0.77823762   -4.4437392   -4.4437392   -3.2763831 -0.010560746   -4.4437392    1.1673561      8192000 
  425000   0.77793584   -4.4430668   -4.4430668   -3.2761633 -0.012310704   -4.4430668    1.1669035      8192000 
  426000    0.7778957   -4.4428543   -4.4428543    -3.276011 -0.010799155   -4.4428543    1.1668433      8192000 
  427000    0.7780126     -4.44299     -4.44299   -3.2759714 -0.0091880007     -4.44299    1.1670186      8192000 
  428000   0.77891317   -4.4442552   -4.4442552   -3.2758858 -0.0051371239   -4.4442552    1.1683695      8192000 
  429000   0.78015898   -4.4458526   -4.4458526   -3.2756144 -0.0010727907   -4.4458526    1.1702382      8192000 
  430000   0.78087283   -4.4468248   -4.4468248   -3.2755159 0.0035463899   -4.4468248    1.1713089      8192000 
  431000    0.7821332   -4.4486528   -4.4486528   -3.2754533 0.0095848102   -4.4486528    1.1731995      8192000 
  432000   0.78414524   -4.4516592   -4.4516592   -3.2754416   0.01327014   -4.4516592    1.1762176      8192000 
  433000   0.78589535   -4.4541887   -4.4541887   -3.2753459  0.020751472   -4.4541887    1.1788427      8192000 
  434000   0.78687442   -4.4554456   -4.4554456   -3.2751342  0.027261273   -4.4554456    1.1803113      8192000 
  435000   0.78836717   -4.4575593   -4.4575593   -3.2750088  0.030243879   -4.4575593    1.1825505      8192000 
  436000    0.7893558   -4.4589828   -4.4589828   -3.2749494   0.03561445   -4.4589828    1.1840334      8192000 
  437000   0.78984169   -4.4597802   -4.4597802    -3.275018  0.039877637   -4.4597802    1.1847622      8192000 
  438000   0.79018993   -4.4602128   -4.4602128   -3.2749282  0.040719987   -4.4602128    1.1852846      8192000 
  439000   0.79032833   -4.4603694   -4.4603694   -3.2748772  0.040662946   -4.4603694    1.1854922      8192000 
  440000   0.79044301   -4.4605428   -4.4605428   -3.2748786  0.039335542   -4.4605428    1.1856642      8192000 
  441000   0.78995413   -4.4596351   -4.4596351   -3.2747042  0.037362988   -4.4596351    1.1849309      8192000 
  442000    0.7888398   -4.4579119   -4.4579119   -3.2746525  0.035305256   -4.4579119    1.1832594      8192000 
  443000   0.78844026      -4.4572      -4.4572   -3.2745399  0.028387002      -4.4572    1.1826601      8192000 
  444000   0.78666287   -4.4545985   -4.4545985   -3.2746045  0.025038863   -4.4545985     1.179994      8192000 
  445000   0.78550848   -4.4528276   -4.4528276   -3.2745652  0.018060261   -4.4528276    1.1782624      8192000 
  446000   0.78396232   -4.4503907   -4.4503907   -3.2744475   0.01294482   -4.4503907    1.1759432      8192000 
  447000   0.78296194   -4.4486516   -4.4486516    -3.274209 0.0068785198   -4.4486516    1.1744426      8192000 
  448000   0.78179264   -4.4468796   -4.4468796   -3.2741909 0.0031219121   -4.4468796    1.1726887      8192000 
  449000   0.78081259   -4.4452382   -4.4452382   -3.2740196 0.0010448291   -4.4452382    1.1712186      8192000 
  450000   0.78026437   -4.4441825   -4.4441825   -3.2737863 -0.003585285   -4.4441825    1.1703963      8192000 
  451000   0.77983996   -4.4431498   -4.4431498   -3.2733901 -0.0047875232   -4.4431498    1.1697596      8192000 
  452000   0.77950028   -4.4426842   -4.4426842   -3.2734341 -0.0046248229   -4.4426842    1.1692501      8192000 
  453000   0.77984217   -4.4430945   -4.4430945   -3.2733316 -0.0070119811   -4.4430945     1.169763      8192000 
  454000   0.78025021   -4.4434398   -4.4434398   -3.2730648 -0.0063085709   -4.4434398     1.170375      8192000 
  455000    0.7803854   -4.4435223   -4.4435223   -3.2729445 -0.0037659746   -4.4435223    1.1705778      8192000 
  456000   0.78092895   -4.4444984   -4.4444984   -3.2731053 -0.0009183147   -4.4444984    1.1713931      8192000 
  457000   0.78215094   -4.4463104   -4.4463104   -3.2730843 0.0035077253   -4.4463104    1.1732261      8192000 
  458000   0.78317567   -4.4475059   -4.4475059   -3.2727427 0.0083713873   -4.4475059    1.1747632      8192000 
  459000   0.78427621    -4.448762    -4.448762    -3.272348  0.013006752    -4.448762     1.176414      8192000 
  460000   0.78559383   -4.4507584   -4.4507584    -3.272368  0.016821274   -4.4507584    1.1783904      8192000 
  461000   0.78665099   -4.4519237   -4.4519237   -3.2719475  0.022847266   -4.4519237    1.1799762      8192000 
  462000   0.78828975   -4.4542139   -4.4542139   -3.2717795  0.027126599   -4.4542139    1.1824343      8192000 
  463000   0.78906362   -4.4553838   -4.4553838   -3.2717887   0.02984944   -4.4553838    1.1835951      8192000 
  464000    0.7893442   -4.4556188   -4.4556188   -3.2716028  0.032740031   -4.4556188     1.184016      8192000 
  465000    0.7897075   -4.4560966   -4.4560966   -3.2715356  0.036106441   -4.4560966     1.184561      8192000 
  466000    0.7900606   -4.4566455   -4.4566455   -3.2715549  0.033679152   -4.4566455    1.1850906      8192000 
  467000   0.78991468   -4.4561706   -4.4561706   -3.2712989  0.033733073   -4.4561706    1.1848717      8192000 
  468000   0.78952025   -4.4554463   -4.4554463   -3.2711662  0.034553978   -4.4554463    1.1842801      8192000 
  469000   0.78882672   -4.4543479   -4.4543479   -3.2711081  0.030945452   -4.4543479    1.1832398      8192000 
  470000   0.78786492   -4.4529723   -4.4529723   -3.2711752  0.025977826   -4.4529723    1.1817971      8192000 
  471000   0.78681935    -4.451441    -4.451441   -3.2712123  0.022548805    -4.451441    1.1802287      8192000 
  472000   0.78597779   -4.4500531   -4.4500531   -3.2710867  0.017561489   -4.4500531    1.1789664      8192000 
  473000   0.78484419   -4.4482356   -4.4482356   -3.2709697  0.012987522   -4.4482356     1.177266      8192000 
  474000   0.78398174   -4.4468303   -4.4468303    -3.270858   0.01015457   -4.4468303    1.1759723      8192000 
  475000   0.78284288   -4.4449817   -4.4449817   -3.2707176 0.0055164136   -4.4449817     1.174264      8192000 
  476000   0.78194946    -4.443431    -4.443431   -3.2705071 0.0024410762    -4.443431    1.1729239      8192000 
  477000   0.78147592   -4.4426335   -4.4426335   -3.2704199 0.00025789159   -4.4426335    1.1722136      8192000 
  478000   0.78104191   -4.4417148   -4.4417148   -3.2701522 -0.0028737416   -4.4417148    1.1715626      8192000 
  479000   0.78097879   -4.4414598   -4.4414598   -3.2699919 -0.0049231459   -4.4414598    1.1714679      8192000 
  480000   0.78057217   -4.4405365   -4.4405365   -3.2696785 -0.0031741479   -4.4405365     1.170858      8192000 
  481000   0.78126468    -4.441491    -4.441491   -3.2695942 -0.0031481443    -4.441491    1.1718967      8192000 
  482000   0.78203998   -4.4426708   -4.4426708   -3.2696111 -0.00059453848   -4.4426708    1.1730597      8192000 
  483000   0.78279983   -4.4438418   -4.4438418   -3.2696424 0.0011159605   -4.4438418    1.1741995      8192000 
  484000   0.78345955   -4.4445882   -4.4445882   -3.2693992 0.0072376466   -4.4445882     1.175189      8192000 
  485000   0.78473528   -4.4464636   -4.4464636    -3.269361 0.0095760335   -4.4464636    1.1771026      8192000 
  486000   0.78551779    -4.447275    -4.447275   -3.2689986  0.013996716    -4.447275    1.1782764      8192000 
  487000   0.78646679   -4.4483618   -4.4483618   -3.2686619  0.018375838   -4.4483618    1.1796999      8192000 
  488000    0.7875101    -4.449866    -4.449866   -3.2686012  0.020548692    -4.449866    1.1812648      8192000 
  489000   0.78811824    -4.450862    -4.450862   -3.2686849  0.024766416    -4.450862    1.1821771      8192000 
  490000   0.78880825   -4.4516242   -4.4516242   -3.2684121  0.028874153   -4.4516242    1.1832121      8192000 
  491000   0.78950444   -4.4526437   -4.4526437   -3.2683874  0.029957213   -4.4526437    1.1842564      8192000 
  492000    0.7896587   -4.4526635   -4.4526635   -3.2681758  0.032815778   -4.4526635    1.1844878      8192000 
  493000   0.78987977   -4.4527813   -4.4527813   -3.2679619  0.032019588   -4.4527813    1.1848194      8192000 
  494000   0.78994517   -4.4527017   -4.4527017   -3.2677843  0.030656194   -4.4527017    1.1849175      8192000 
  495000   0.78933955   -4.4516246   -4.4516246   -3.2676156  0.029745829   -4.4516246     1.184009      8192000 
  496000   0.78908464   -4.4509744   -4.4509744   -3.2673477  0.026264281   -4.4509744    1.1836267      8192000 
  497000   0.78820624   -4.4495098   -4.4495098   -3.2672008  0.023410964   -4.4495098    1.1823091      8192000 
  498000   0.78747171   -4.4483326   -4.4483326   -3.2671254  0.019384366   -4.4483326    1.1812073      8192000 
  499000    0.7862883   -4.4466025   -4.4466025   -3.2671703  0.014598602   -4.4466025    1.1794322      8192000 
  500000   0.78521111   -4.4448846   -4.4448846   -3.2670682  0.010282531   -4.4448846    1.1778164      8192000 
  501000   0.78459369    -4.443718    -4.443718   -3.2668278  0.005980534    -4.443718    1.1768902      8192000 
  502000   0.78385632   -4.4425872   -4.4425872    -3.266803 0.0029070243   -4.4425872    1.1757842      8192000 
  503000   0.78327629   -4.4415613   -4.4415613   -3.2666471 0.0031021116   -4.4415613    1.1749141      8192000 
  504000   0.78281259   -4.4407273   -4.4407273   -3.2665087 0.0014869043   -4.4407273    1.1742186      8192000 
  505000   0.78288892   -4.4407185   -4.4407185   -3.2663854 -0.0011079888   -4.4407185    1.1743331      8192000 
  506000   0.78262306   -4.4402457   -4.4402457   -3.2663114 -0.0012574606   -4.4402457    1.1739343      8192000 
  507000   0.78273832   -4.4402831   -4.4402831   -3.2661759 -2.8062819e-05   -4.4402831    1.1741072      8192000 
  508000   0.78302232   -4.4404035   -4.4404035   -3.2658703 0.0022640665   -4.4404035    1.1745332      8192000 
  509000   0.78413657   -4.4419846   -4.4419846   -3.2657801 0.0025374751   -4.4419846    1.1762046      8192000 
  510000   0.78463485   -4.4426705   -4.4426705   -3.2657185 0.0074878446   -4.4426705     1.176952      8192000 
  511000   0.78562379   -4.4440102   -4.4440102   -3.2655749  0.010379897   -4.4440102    1.1784354      8192000 
  512000   0.78637334   -4.4450626   -4.4450626   -3.2655029  0.012960956   -4.4450626    1.1795597      8192000 
  513000   0.78750671   -4.4467523   -4.4467523   -3.2654926  0.015205235   -4.4467523    1.1812598      8192000 
  514000   0.78818906   -4.4475959   -4.4475959   -3.2653126  0.020381467   -4.4475959    1.1822833      8192000 
  515000   0.78913958   -4.4489624   -4.4489624   -3.2652534  0.021517596   -4.4489624    1.1837091      8192000 
  516000   0.78945346   -4.4493454   -4.4493454   -3.2651655  0.027335901   -4.4493454    1.1841799      8192000 
  517000   0.78995272   -4.4497829   -4.4497829   -3.2648542  0.029171204   -4.4497829    1.1849288      8192000 
  518000   0.79027922   -4.4498492   -4.4498492   -3.2644307  0.030474207   -4.4498492    1.1854185      8192000 
  519000   0.79059962   -4.4503062   -4.4503062   -3.2644071  0.027160475   -4.4503062    1.1858991      8192000 
  520000    0.7900145   -4.4495204   -4.4495204    -3.264499  0.027932548   -4.4495204    1.1850215      8192000 
  521000   0.79007654   -4.4495112   -4.4495112   -3.2643967  0.024948085   -4.4495112    1.1851145      8192000 
  522000   0.78922422   -4.4478957   -4.4478957   -3.2640596  0.023271013   -4.4478957     1.183836      8192000 
  523000    0.7890113   -4.4474967   -4.4474967     -3.26398  0.021296376   -4.4474967    1.1835167      8192000 
  524000   0.78837856   -4.4464776   -4.4464776   -3.2639101  0.017971422   -4.4464776    1.1825675      8192000 
  525000   0.78773354   -4.4451457   -4.4451457   -3.2635457  0.014871664   -4.4451457       1.1816      8192000 
  526000   0.78638639   -4.4429378   -4.4429378   -3.2633585  0.011477631   -4.4429378    1.1795793      8192000 
  527000   0.78583303   -4.4419336   -4.4419336   -3.2631843 0.0075164385   -4.4419336    1.1787493      8192000 
  528000   0.78503995   -4.4406693   -4.4406693   -3.2631097 0.0051458993   -4.4406693    1.1775596      8192000 
  529000   0.78443782   -4.4396329   -4.4396329   -3.2629765 0.0028222308   -4.4396329    1.1766564      8192000 
  530000   0.78463933    -4.439613    -4.439613   -3.2626543 0.00016205615    -4.439613    1.1769587      8192000 
  531000    0.7843283   -4.4388667   -4.4388667   -3.2623745 0.0013605515   -4.4388667    1.1764922      8192000 
  532000   0.78420861   -4.4385867   -4.4385867   -3.2622741 0.0014688526   -4.4385867    1.1763126      8192000 
  533000   0.78454974   -4.4387138   -4.4387138   -3.2618894 0.0024753342   -4.4387138    1.1768243      8192000 
  534000   0.78481508   -4.4389898   -4.4389898   -3.2617675 0.0040202972   -4.4389898    1.1772223      8192000 
  535000   0.78559513   -4.4399293   -4.4399293   -3.2615369 0.0053169085   -4.4399293    1.1783924      8192000 
  536000   0.78595994   -4.4403485   -4.4403485   -3.2614089 0.0072368353   -4.4403485    1.1789396      8192000 
  537000   0.78647393   -4.4410894   -4.4410894   -3.2613788  0.011003709   -4.4410894    1.1797106      8192000 
  538000   0.78789772   -4.4428677   -4.4428677   -3.2610214  0.011375719   -4.4428677    1.1818463      8192000 
  539000    0.7882906   -4.4433324   -4.4433324   -3.2608968  0.014937809   -4.4433324    1.1824356      8192000 
  540000   0.78859374    -4.443972    -4.443972   -3.2610817  0.018226909    -4.443972    1.1828903      8192000 
  541000   0.78936209   -4.4450248   -4.4450248    -3.260982  0.021388579   -4.4450248    1.1840428      8192000 
  542000    0.7903494   -4.4464657   -4.4464657    -3.260942  0.021393525   -4.4464657    1.1855238      8192000 
  543000   0.79023256   -4.4459264   -4.4459264   -3.2605778  0.024993737   -4.4459264    1.1853485      8192000 
  544000   0.79081695   -4.4464102   -4.4464102   -3.2601851   0.02567525   -4.4464102    1.1862251      8192000 
  545000   0.79105728   -4.4467664   -4.4467664   -3.2601808  0.026022949   -4.4467664    1.1865856      8192000 
  546000   0.79095926   -4.4464332   -4.4464332   -3.2599946  0.026051466   -4.4464332    1.1864386      8192000 
  547000   0.79043482   -4.4454884   -4.4454884   -3.2598364  0.026035004   -4.4454884    1.1856519      8192000 
  548000   0.79046941    -4.445233    -4.445233   -3.2595292   0.02311368    -4.445233    1.1857038      8192000 
  549000   0.78965842   -4.4438575   -4.4438575   -3.2593701   0.02189023   -4.4438575    1.1844873      8192000 
  550000   0.78901343   -4.4428731   -4.4428731   -3.2593533  0.018938652   -4.4428731    1.1835198      8192000 
  551000   0.78888341   -4.4422116   -4.4422116   -3.2588867  0.015172669   -4.4422116    1.1833248      8192000 
  552000   0.78829346   -4.4412293   -4.4412293   -3.2587894  0.010974505   -4.4412293    1.1824399      8192000 
  553000   0.78730439     -4.43925     -4.43925   -3.2582937  0.012023558     -4.43925    1.1809563      8192000 
  554000   0.78697096   -4.4384342   -4.4384342   -3.2579781  0.008909907   -4.4384342    1.1804561      8192000 
  555000   0.78688205   -4.4382679   -4.4382679   -3.2579451 0.0052935723   -4.4382679    1.1803228      8192000 
  556000   0.78657796   -4.4375737   -4.4375737    -3.257707 0.0039529467   -4.4375737    1.1798666      8192000 
  557000   0.78608202   -4.4365334   -4.4365334   -3.2574107 0.0036035461   -4.4365334    1.1791227      8192000 
  558000    0.7862531   -4.4365196   -4.4365196   -3.2571402 0.0026034243   -4.4365196    1.1793794      8192000 
  559000   0.78620234   -4.4361155   -4.4361155   -3.2568123 0.0025648833   -4.4361155    1.1793032      8192000 
  560000   0.78615979   -4.4360285   -4.4360285   -3.2567891 0.0059343321   -4.4360285    1.1792394      8192000 
  561000   0.78697498    -4.437064    -4.437064   -3.2566018 0.0051035482    -4.437064    1.1804622      8192000 
  562000   0.78713762   -4.4371502   -4.4371502    -3.256444 0.0066628679   -4.4371502    1.1807061      8192000 
  563000   0.78801335   -4.4382232   -4.4382232   -3.2562035  0.007603578   -4.4382232    1.1820197      8192000 
  564000   0.78826209    -4.438119    -4.438119   -3.2557262  0.010554519    -4.438119    1.1823928      8192000 
  565000   0.78924665   -4.4394888   -4.4394888   -3.2556192  0.013074403   -4.4394888    1.1838697      8192000 
  566000   0.78996856   -4.4403643   -4.4403643   -3.2554118   0.01710109   -4.4403643    1.1849525      8192000 
  567000   0.79021759   -4.4407059   -4.4407059   -3.2553798  0.020030052   -4.4407059    1.1853261      8192000 
  568000   0.79101429    -4.441654    -4.441654   -3.2551328  0.021320202    -4.441654    1.1865211      8192000 
  569000   0.79162128   -4.4421789   -4.4421789   -3.2547473  0.021850824   -4.4421789    1.1874316      8192000 
  570000   0.79187291   -4.4423722   -4.4423722   -3.2545631  0.022429252   -4.4423722    1.1878091      8192000 
  571000   0.79173522    -4.442078    -4.442078   -3.2544754  0.023573536    -4.442078    1.1876025      8192000 
  572000   0.79230355   -4.4427287   -4.4427287   -3.2542737  0.021275032   -4.4427287     1.188455      8192000 
  573000   0.79159548   -4.4414684   -4.4414684   -3.2540755  0.023302929   -4.4414684    1.1873929      8192000 
  574000   0.79141506   -4.4411142   -4.4411142   -3.2539919  0.019838405   -4.4411142    1.1871223      8192000 
  575000   0.79139817   -4.4409384   -4.4409384   -3.2538414  0.019578589   -4.4409384     1.187097      8192000 
  576000    0.7913105   -4.4406456   -4.4406456   -3.2536802  0.016732044   -4.4406456    1.1869655      8192000 
  577000   0.79062314   -4.4394154   -4.4394154    -3.253481  0.015982216   -4.4394154    1.1859344      8192000 
  578000   0.78958063   -4.4375006   -4.4375006   -3.2531299  0.015932999   -4.4375006    1.1843707      8192000 
  579000    0.7898701   -4.4375572   -4.4375572   -3.2527524  0.011464579   -4.4375572    1.1848049      8192000 
  580000   0.78908062   -4.4361331   -4.4361331   -3.2525124 0.0093433366   -4.4361331    1.1836206      8192000 
  581000   0.78890056   -4.4358447   -4.4358447   -3.2524942 0.0053568295   -4.4358447    1.1833505      8192000 
  582000   0.78873334   -4.4353252   -4.4353252   -3.2522255 0.0047700661   -4.4353252    1.1830997      8192000 
  583000   0.78859397   -4.4347266   -4.4347266   -3.2518359 0.0049961473   -4.4347266    1.1828907      8192000 
  584000   0.78797473   -4.4335873   -4.4335873   -3.2516255 0.0063122239   -4.4335873    1.1819618      8192000 
  585000   0.78885086   -4.4347563   -4.4347563   -3.2514803 0.0044384783   -4.4347563     1.183276      8192000 
  586000   0.78853446   -4.4340889   -4.4340889   -3.2512875 0.0064443253   -4.4340889    1.1828014      8192000 
  587000   0.78918271   -4.4348141   -4.4348141   -3.2510403  0.008052027   -4.4348141    1.1837738      8192000 
  588000   0.78979638   -4.4354738   -4.4354738   -3.2507795 0.0075714127   -4.4354738    1.1846943      8192000 
  589000   0.79018407   -4.4358235   -4.4358235   -3.2505476 0.0089082615   -4.4358235    1.1852758      8192000 
  590000   0.79014328   -4.4354885   -4.4354885   -3.2502739   0.01346597   -4.4354885    1.1852146      8192000 
  591000   0.79176224   -4.4377488   -4.4377488   -3.2501058  0.011820234   -4.4377488    1.1876431      8192000 
  592000   0.79181616   -4.4375582   -4.4375582   -3.2498342  0.015218573   -4.4375582    1.1877239      8192000 
  593000   0.79252174   -4.4384355   -4.4384355   -3.2496532   0.01844489   -4.4384355    1.1887823      8192000 
  594000   0.79310147   -4.4390202   -4.4390202   -3.2493683  0.018824991   -4.4390202    1.1896519      8192000 
  595000   0.79304389   -4.4387616   -4.4387616    -3.249196  0.021035237   -4.4387616    1.1895655      8192000 
  596000   0.79370639   -4.4395372   -4.4395372   -3.2489779  0.021775599   -4.4395372    1.1905593      8192000 
  597000   0.79386336   -4.4393487   -4.4393487    -3.248554  0.023098188   -4.4393487    1.1907947      8192000 
  598000   0.79410355   -4.4394365   -4.4394365   -3.2482815  0.023036963   -4.4394365     1.191155      8192000 
  599000   0.79362993   -4.4385931   -4.4385931   -3.2481485  0.023523428   -4.4385931    1.1904446      8192000 
  600000   0.79374922   -4.4384678   -4.4384678   -3.2478443   0.02007496   -4.4384678    1.1906235      8192000 
  601000   0.79340678   -4.4378765   -4.4378765   -3.2477666  0.018531393   -4.4378765    1.1901099      8192000 
  602000   0.79317256   -4.4371879   -4.4371879   -3.2474294  0.018969967   -4.4371879    1.1897585      8192000 
  603000   0.79299499   -4.4365315   -4.4365315   -3.2470393  0.016862164   -4.4365315    1.1894922      8192000 
  604000   0.79244872   -4.4355624   -4.4355624   -3.2468896   0.01470997   -4.4355624    1.1886728      8192000 
  605000   0.79216798   -4.4349234   -4.4349234   -3.2466717  0.013594947   -4.4349234    1.1882517      8192000 
  606000   0.79215712   -4.4347467   -4.4347467   -3.2465114  0.010862108   -4.4347467    1.1882354      8192000 
  607000   0.79153072    -4.433632    -4.433632   -3.2463362  0.010086837    -4.433632    1.1872958      8192000 
  608000   0.79135696   -4.4331226   -4.4331226   -3.2460875 0.0087367921   -4.4331226    1.1870351      8192000 
  609000   0.79126444   -4.4329401   -4.4329401   -3.2460437 0.0071986333   -4.4329401    1.1868964      8192000 
  610000   0.79130331   -4.4326505   -4.4326505   -3.2456958 0.0095190226   -4.4326505    1.1869547      8192000 
  611000   0.79150948   -4.4328195   -4.4328195   -3.2455556 0.0086858819   -4.4328195    1.1872639      8192000 
  612000   0.79134921   -4.4324339   -4.4324339   -3.2454104 0.0096255653   -4.4324339    1.1870235      8192000 
  613000   0.79171584   -4.4327988   -4.4327988   -3.2452253 0.0082890671   -4.4327988    1.1875735      8192000 
  614000   0.79225093   -4.4333282   -4.4333282   -3.2449521 0.0088630518   -4.4333282    1.1883761      8192000 
  615000   0.79215275   -4.4329552   -4.4329552   -3.2447263  0.011041553   -4.4329552    1.1882288      8192000 
  616000    0.7929459   -4.4338669   -4.4338669   -3.2444483  0.013265479   -4.4338669    1.1894186      8192000 
  617000   0.79365871    -4.434514    -4.434514   -3.2440262  0.014729984    -4.434514    1.1904878      8192000 
  618000   0.79447443   -4.4355223   -4.4355223    -3.243811  0.016832757   -4.4355223    1.1917113      8192000 
  619000   0.79524424   -4.4362147   -4.4362147   -3.2433486  0.017946331   -4.4362147    1.1928661      8192000 
  620000   0.79527256   -4.4360761   -4.4360761   -3.2431676   0.02186008   -4.4360761    1.1929085      8192000 
  621000   0.79559142   -4.4364896   -4.4364896   -3.2431028  0.021815751   -4.4364896    1.1933868      8192000 
  622000   0.79608005     -4.43696     -4.43696   -3.2428402  0.022148484     -4.43696    1.1941198      8192000 
  623000   0.79636452   -4.4370845   -4.4370845    -3.242538  0.022666518   -4.4370845    1.1945465      8192000 
  624000   0.79667716   -4.4377461   -4.4377461   -3.2427306  0.022919931   -4.4377461    1.1950154      8192000 
  625000   0.79632241   -4.4373061   -4.4373061   -3.2428228  0.024015418   -4.4373061    1.1944833      8192000 
  626000   0.79640029   -4.4372349   -4.4372349   -3.2426348  0.022816543   -4.4372349    1.1946001      8192000 
  627000    0.7961364    -4.436523    -4.436523   -3.2423187  0.023192553    -4.436523    1.1942043      8192000 
  628000   0.79606412   -4.4362283   -4.4362283   -3.2421324  0.022171749   -4.4362283    1.1940959      8192000 
  629000   0.79603961   -4.4360533   -4.4360533   -3.2419942  0.019749508   -4.4360533    1.1940591      8192000 
  630000   0.79590568   -4.4354822   -4.4354822   -3.2416239  0.020174815   -4.4354822    1.1938582      8192000 
  631000   0.79559636   -4.4347477   -4.4347477   -3.2413535  0.020798321   -4.4347477    1.1933942      8192000 
  632000   0.79598616    -4.434979    -4.434979       -3.241  0.016817525    -4.434979    1.1939789      8192000 
  633000   0.79523632   -4.4336621   -4.4336621   -3.2408079  0.017195415   -4.4336621    1.1928542      8192000 
  634000   0.79467086   -4.4326905   -4.4326905   -3.2406845  0.017443428   -4.4326905     1.192006      8192000 
  635000   0.79506648   -4.4329065   -4.4329065   -3.2403071  0.015797795   -4.4329065    1.1925994      8192000 
  636000   0.79507693   -4.4329125   -4.4329125   -3.2402974   0.01300818   -4.4329125    1.1926151      8192000 
  637000   0.79459068   -4.4321685   -4.4321685   -3.2402828  0.012791679   -4.4321685    1.1918857      8192000 
  638000   0.79479898   -4.4320742   -4.4320742    -3.239876  0.010274382   -4.4320742    1.1921982      8192000 
  639000    0.7950047   -4.4321759   -4.4321759   -3.2396691  0.012034253   -4.4321759    1.1925067      8192000 
  640000   0.79455361   -4.4313384   -4.4313384   -3.2395083  0.013342467   -4.4313384    1.1918301      8192000 
  641000   0.79508114   -4.4319771   -4.4319771   -3.2393557  0.014409523   -4.4319771    1.1926214      8192000 
  642000   0.79567824   -4.4327552   -4.4327552   -3.2392381  0.013242493   -4.4327552    1.1935171      8192000 
  643000   0.79600886   -4.4331674   -4.4331674   -3.2391544  0.014170964   -4.4331674     1.194013      8192000 
  644000   0.79589279   -4.4327321   -4.4327321   -3.2388932  0.017276729   -4.4327321    1.1938389      8192000 
  645000     0.796668   -4.4336501   -4.4336501   -3.2386484  0.016380572   -4.4336501    1.1950017      8192000 
  646000   0.79696937   -4.4339319   -4.4339319   -3.2384782  0.018344373   -4.4339319    1.1954538      8192000 
  647000   0.79699048   -4.4335901   -4.4335901   -3.2381046   0.02111446   -4.4335901    1.1954854      8192000 
  648000    0.7975955   -4.4340669   -4.4340669   -3.2376739  0.021873037   -4.4340669     1.196393      8192000 
  649000   0.79799085   -4.4344152   -4.4344152   -3.2374292  0.021829111   -4.4344152     1.196986      8192000 
  650000   0.79818708   -4.4343885   -4.4343885   -3.2371082  0.023673678   -4.4343885    1.1972803      8192000 
  651000   0.79861065   -4.4349884   -4.4349884   -3.2370727  0.023706378   -4.4349884    1.1979157      8192000 
  652000   0.79880528   -4.4348065   -4.4348065   -3.2365989  0.024696298   -4.4348065    1.1982076      8192000 
  653000   0.79902723   -4.4348359   -4.4348359   -3.2362954  0.025985353   -4.4348359    1.1985405      8192000 
  654000   0.79915331   -4.4346034   -4.4346034   -3.2358738  0.026203133   -4.4346034    1.1987297      8192000 
  655000   0.79936803   -4.4349097   -4.4349097   -3.2358579  0.025907535   -4.4349097    1.1990517      8192000 
  656000   0.79931455   -4.4347606   -4.4347606   -3.2357891  0.024915954   -4.4347606    1.1989715      8192000 
  657000   0.79932154   -4.4343939   -4.4343939   -3.2354119  0.026825947   -4.4343939     1.198982      8192000 
  658000   0.79936316   -4.4340346   -4.4340346   -3.2349902  0.024726717   -4.4340346    1.1990444      8192000 
  659000   0.79914343   -4.4336655   -4.4336655   -3.2349506  0.023744476   -4.4336655    1.1987148      8192000 
  660000   0.79920076   -4.4334432   -4.4334432   -3.2346424  0.024450973   -4.4334432    1.1988008      8192000 
  661000   0.79960804   -4.4339112   -4.4339112   -3.2344994  0.024758557   -4.4339112    1.1994118      8192000 
  662000   0.79951255   -4.4336077   -4.4336077   -3.2343392   0.02508179   -4.4336077    1.1992685      8192000 
  663000   0.79955015   -4.4334671   -4.4334671   -3.2341422  0.025328802   -4.4334671    1.1993249      8192000 
  664000   0.79964153   -4.4336683   -4.4336683   -3.2342063    0.0243374   -4.4336683     1.199462      8192000 
  665000   0.79959747    -4.433514    -4.433514   -3.2341181  0.024379713    -4.433514    1.1993959      8192000 
  666000    0.8001876     -4.43431     -4.43431   -3.2340289  0.024773413     -4.43431    1.2002811      8192000 
  667000    0.8005244   -4.4347125   -4.4347125   -3.2339263  0.026306123   -4.4347125    1.2007863      8192000 
  668000   0.80104072    -4.435429    -4.435429   -3.2338682  0.027123993    -4.435429    1.2015608      8192000 
  669000   0.80186767   -4.4364002   -4.4364002    -3.233599  0.029441898   -4.4364002    1.2028012      8192000 
  670000   0.80169605    -4.435705    -4.435705   -3.2331612  0.034210958    -4.435705    1.2025438      8192000 
  671000   0.80242378   -4.4366855   -4.4366855   -3.2330502  0.035986793   -4.4366855    1.2036354      8192000 
  672000   0.80300583   -4.4373845   -4.4373845   -3.2328761  0.038537254   -4.4373845    1.2045084      8192000 
  673000   0.80406875    -4.438501    -4.438501   -3.2323982  0.041591698    -4.438501    1.2061028      8192000 
  674000   0.80445649   -4.4389814   -4.4389814   -3.2322969  0.045545131   -4.4389814    1.2066844      8192000 
  675000   0.80531002   -4.4402803   -4.4402803   -3.2323156  0.047212725   -4.4402803    1.2079647      8192000 
  676000    0.8061208   -4.4413929   -4.4413929    -3.232212  0.050054938   -4.4413929    1.2091809      8192000 
  677000   0.80670899    -4.442338    -4.442338   -3.2322749  0.051999721    -4.442338    1.2100632      8192000 
  678000   0.80759325   -4.4434985   -4.4434985   -3.2321089  0.055912982   -4.4434985    1.2113896      8192000 
  679000   0.80846892   -4.4446358   -4.4446358   -3.2319327  0.058810221   -4.4446358    1.2127031      8192000 
  680000   0.80908593   -4.4454372   -4.4454372   -3.2318086  0.064814696   -4.4454372    1.2136286      8192000 
  681000   0.80992867   -4.4468775   -4.4468775   -3.2319848  0.067604836   -4.4468775    1.2148927      8192000 
  682000   0.81041683   -4.4477815   -4.4477815   -3.2321566  0.071380844   -4.4477815    1.2156249      8192000 
  683000   0.81109692   -4.4486587   -4.4486587   -3.2320137  0.075209413   -4.4486587    1.2166451      8192000 
  684000   0.81172237   -4.4497681   -4.4497681   -3.2321848  0.076148069   -4.4497681    1.2175832      8192000 
  685000   0.81252215   -4.4511969   -4.4511969   -3.2324139  0.078405713   -4.4511969    1.2187829      8192000 
  686000   0.81270027   -4.4516162   -4.4516162   -3.2325661  0.081894105   -4.4516162    1.2190501      8192000 
  687000   0.81294491   -4.4525533   -4.4525533   -3.2331363  0.083352008   -4.4525533    1.2194171      8192000 
  688000   0.81262015   -4.4524905   -4.4524905   -3.2335606   0.08442507   -4.4524905    1.2189299      8192000 
  689000   0.81289017   -4.4532448   -4.4532448   -3.2339098  0.082499908   -4.4532448    1.2193349      8192000 
  690000   0.81264939    -4.453193    -4.453193   -3.2342192  0.083344214    -4.453193    1.2189738      8192000 
  691000   0.81292279   -4.4536018   -4.4536018   -3.2342179  0.080926789   -4.4536018    1.2193839      8192000 
  692000    0.8124237   -4.4531499   -4.4531499   -3.2345147  0.079823718   -4.4531499    1.2186352      8192000 
  693000   0.81171763   -4.4521116   -4.4521116   -3.2345355  0.079908383   -4.4521116    1.2175761      8192000 
  694000   0.81120603   -4.4515507   -4.4515507    -3.234742  0.076716711   -4.4515507    1.2168087      8192000 
  695000    0.8107517   -4.4507559   -4.4507559   -3.2346286   0.07563805   -4.4507559    1.2161272      8192000 
  696000   0.81071787   -4.4506321   -4.4506321   -3.2345556  0.071216922   -4.4506321    1.2160765      8192000 
  697000   0.80969751   -4.4490598   -4.4490598   -3.2345138  0.069895498   -4.4490598     1.214546      8192000 
  698000   0.80880247   -4.4474713   -4.4474713   -3.2342679  0.066718088   -4.4474713    1.2132034      8192000 
  699000   0.80865918   -4.4470839   -4.4470839   -3.2340954   0.06362809   -4.4470839    1.2129885      8192000 
  700000   0.80758403   -4.4450091   -4.4450091   -3.2336333  0.062203793   -4.4450091    1.2113757      8192000 
  701000   0.80718118   -4.4440041   -4.4440041   -3.2332327  0.056845036   -4.4440041    1.2107715      8192000 
  702000   0.80676531    -4.443096    -4.443096   -3.2329483   0.05376981    -4.443096    1.2101477      8192000 
  703000    0.8063105   -4.4420593   -4.4420593   -3.2325938  0.049549415   -4.4420593    1.2094654      8192000 
  704000   0.80522742    -4.439869    -4.439869   -3.2320282  0.049459016    -4.439869    1.2078408      8192000 
  705000   0.80525587   -4.4391986   -4.4391986   -3.2313151  0.041852628   -4.4391986    1.2078835      8192000 
  706000   0.80433239   -4.4373228   -4.4373228   -3.2308246  0.039406025   -4.4373228    1.2064983      8192000 
  707000   0.80303004   -4.4350169   -4.4350169   -3.2304722  0.034296211   -4.4350169    1.2045448      8192000 
  708000   0.80211476    -4.432973    -4.432973   -3.2298011  0.028749574    -4.432973    1.2031718      8192000 
  709000   0.80100888   -4.4305916   -4.4305916   -3.2290786  0.025433694   -4.4305916     1.201513      8192000 
  710000   0.79986266   -4.4280553   -4.4280553   -3.2282616  0.021603581   -4.4280553    1.1997937      8192000 
  711000   0.79894804   -4.4259417   -4.4259417   -3.2275199  0.016330097   -4.4259417    1.1984218      8192000 
  712000   0.79859417   -4.4245599   -4.4245599    -3.226669 0.0082203542   -4.4245599    1.1978909      8192000 
  713000   0.79760009   -4.4220787   -4.4220787   -3.2256789 0.0046489857   -4.4220787    1.1963998      8192000 
  714000   0.79659005    -4.419597    -4.419597   -3.2247122 0.00092232104    -4.419597    1.1948848      8192000 
  715000   0.79558035   -4.4170463   -4.4170463   -3.2236761 -0.0016921376   -4.4170463    1.1933702      8192000 
  716000   0.79459613   -4.4144461   -4.4144461   -3.2225522 -0.0057508524   -4.4144461    1.1918939      8192000 
  717000   0.79363295   -4.4122266   -4.4122266   -3.2217774 -0.0085429645   -4.4122266    1.1904491      8192000 
  718000   0.79306566    -4.410643    -4.410643   -3.2210448 -0.014500069    -4.410643    1.1895982      8192000 
  719000   0.79231451   -4.4084569   -4.4084569   -3.2199855 -0.017551025   -4.4084569    1.1884715      8192000 
  720000   0.79196154   -4.4069206   -4.4069206   -3.2189786 -0.021085473   -4.4069206     1.187942      8192000 
  721000   0.79120451   -4.4047448   -4.4047448   -3.2179383 -0.023097239   -4.4047448    1.1868065      8192000 
  722000   0.79072198   -4.4031376   -4.4031376   -3.2170549 -0.025721131   -4.4031376    1.1860827      8192000 
  723000   0.78998725   -4.4011228   -4.4011228   -3.2161423 -0.028077154   -4.4011228    1.1849806      8192000 
  724000   0.78947861    -4.399549    -4.399549   -3.2153314    -0.030489    -4.399549    1.1842176      8192000 
  725000   0.78932231   -4.3984184   -4.3984184   -3.2144352 -0.034054876   -4.3984184    1.1839832      8192000 
  726000   0.78899298   -4.3969935   -4.3969935   -3.2135043 -0.034134137   -4.3969935    1.1834892      8192000 
  727000   0.78847714   -4.3956385   -4.3956385   -3.2129231 -0.036531428   -4.3956385    1.1827154      8192000 
  728000   0.78837036   -4.3944807   -4.3944807   -3.2119255 -0.039596267   -4.3944807    1.1825552      8192000 
  729000   0.78791367   -4.3929451   -4.3929451   -3.2110749 -0.038782297   -4.3929451    1.1818702      8192000 
  730000   0.78797207   -4.3923112   -4.3923112   -3.2103533 -0.040237107   -4.3923112    1.1819578      8192000 
  731000   0.78820278   -4.3917553   -4.3917553   -3.2094514 -0.041549065   -4.3917553    1.1823039      8192000 
  732000   0.78784877   -4.3904836   -4.3904836   -3.2087107 -0.041986588   -4.3904836    1.1817729      8192000 
  733000   0.78809198   -4.3897942   -4.3897942   -3.2076565 -0.041567513   -4.3897942    1.1821377      8192000 
  734000   0.78840967   -4.3894313   -4.3894313   -3.2068171 -0.043594253   -4.3894313    1.1826142      8192000 
  735000   0.78804258   -4.3880781   -4.3880781   -3.2060145 -0.040955378   -4.3880781    1.1820636      8192000 
  736000   0.78879277   -4.3884683   -4.3884683   -3.2052794 -0.041746524   -4.3884683    1.1831889      8192000 
  737000     0.788697   -4.3876643   -4.3876643   -3.2046191 -0.039998963   -4.3876643    1.1830452      8192000 
  738000   0.78922846   -4.3878354   -4.3878354   -3.2039931 -0.040925294   -4.3878354    1.1838424      8192000 
  739000   0.78963864   -4.3877832   -4.3877832   -3.2033255 -0.041033155   -4.3877832    1.1844577      8192000 
  740000   0.78985623   -4.3873555   -4.3873555   -3.2025714 -0.039093127   -4.3873555    1.1847841      8192000 
  741000   0.79040376   -4.3875976   -4.3875976   -3.2019922 -0.037491306   -4.3875976    1.1856053      8192000 
  742000   0.79066628   -4.3873796   -4.3873796   -3.2013805  -0.03451534   -4.3873796    1.1859991      8192000 
  743000   0.79106358   -4.3876135   -4.3876135   -3.2010184 -0.032762418   -4.3876135    1.1865951      8192000 
  744000   0.79135126   -4.3876957   -4.3876957   -3.2006691 -0.032727876   -4.3876957    1.1870266      8192000 
  745000   0.79227147   -4.3886938   -4.3886938   -3.2002869 -0.029803808   -4.3886938    1.1884069      8192000 
  746000   0.79263975    -4.388888    -4.388888   -3.1999287 -0.028857543    -4.388888    1.1889593      8192000 
  747000   0.79311795   -4.3891849   -4.3891849   -3.1995082 -0.025417841   -4.3891849    1.1896766      8192000 
  748000   0.79378319   -4.3899421   -4.3899421   -3.1992676 -0.024621834   -4.3899421    1.1906745      8192000 
  749000   0.79437148   -4.3906075   -4.3906075   -3.1990506 -0.023413708   -4.3906075    1.1915569      8192000 
  750000   0.79498605   -4.3913033   -4.3913033   -3.1988245 -0.019557137   -4.3913033    1.1924788      8192000 
  751000   0.79563629   -4.3923677   -4.3923677   -3.1989136 -0.016758844   -4.3923677    1.1934541      8192000 
  752000   0.79626713   -4.3933375   -4.3933375   -3.1989371 -0.014432707   -4.3933375    1.1944004      8192000 
  753000   0.79699343   -4.3942106   -4.3942106   -3.1987208 -0.010482232   -4.3942106    1.1954898      8192000 
  754000   0.79774885   -4.3951954   -4.3951954   -3.1985725 -0.0083512103   -4.3951954     1.196623      8192000 
  755000   0.79891959   -4.3966083   -4.3966083   -3.1982293 -0.0039696514   -4.3966083    1.1983791      8192000 
  756000   0.79910674   -4.3970904   -4.3970904   -3.1984305 -0.00026342212   -4.3970904    1.1986598      8192000 
  757000   0.79994171   -4.3984395   -4.3984395   -3.1985272 0.0021962249   -4.3984395    1.1999123      8192000 
  758000   0.80061142   -4.3996016   -4.3996016   -3.1986848 0.0054602037   -4.3996016    1.2009168      8192000 
  759000    0.8021611   -4.4020653   -4.4020653    -3.198824 0.0058871369   -4.4020653    1.2032413      8192000 
  760000   0.80229242   -4.4023059   -4.4023059   -3.1988676   0.01146988   -4.4023059    1.2034383      8192000 
  761000   0.80305717   -4.4035131   -4.4035131   -3.1989276  0.014905707   -4.4035131    1.2045855      8192000 
  762000   0.80406442   -4.4051281   -4.4051281   -3.1990318  0.014568015   -4.4051281    1.2060963      8192000 
  763000   0.80415233   -4.4054807   -4.4054807   -3.1992525  0.019560188   -4.4054807    1.2062282      8192000 
  764000   0.80490248   -4.4066531   -4.4066531   -3.1992997  0.022021399   -4.4066531    1.2073534      8192000 
  765000    0.8056948   -4.4078494   -4.4078494   -3.1993075  0.025799835   -4.4078494    1.2085419      8192000 
  766000   0.80643806   -4.4090021   -4.4090021   -3.1993454  0.027577703   -4.4090021    1.2096568      8192000 
  767000   0.80690634   -4.4098512   -4.4098512    -3.199492  0.029487991   -4.4098512    1.2103592      8192000 
  768000   0.80765958   -4.4111529   -4.4111529   -3.1996639  0.032883059   -4.4111529    1.2114891      8192000 
  769000   0.80801026   -4.4120703   -4.4120703   -3.2000552  0.035773093   -4.4120703    1.2120151      8192000 
  770000   0.80821495   -4.4126855   -4.4126855   -3.2003634  0.038342812   -4.4126855    1.2123221      8192000 
  771000   0.80893301   -4.4140871   -4.4140871   -3.2006879  0.040006033   -4.4140871    1.2133992      8192000 
  772000   0.80965125   -4.4152301   -4.4152301   -3.2007535  0.041151543   -4.4152301    1.2144766      8192000 
  773000   0.80979291   -4.4153772   -4.4153772   -3.2006881  0.044273144   -4.4153772    1.2146891      8192000 
  774000   0.80970004   -4.4152283   -4.4152283   -3.2006785  0.046467494   -4.4152283    1.2145498      8192000 
  775000    0.8104127    -4.416507    -4.416507   -3.2008882  0.045260714    -4.416507    1.2156187      8192000 
  776000   0.81065572   -4.4173457   -4.4173457   -3.2013624  0.047284108   -4.4173457    1.2159833      8192000 
  777000   0.81122949   -4.4183023   -4.4183023   -3.2014584  0.047841696   -4.4183023    1.2168439      8192000 
  778000    0.8107759    -4.417888    -4.417888   -3.2017245  0.050611334    -4.417888    1.2161636      8192000 
  779000   0.81104596   -4.4182352   -4.4182352   -3.2016666  0.050974839   -4.4182352    1.2165686      8192000 
  780000   0.81065005   -4.4177853   -4.4177853   -3.2018105  0.052754496   -4.4177853    1.2159748      8192000 
  781000    0.8110031   -4.4185653   -4.4185653    -3.202061  0.050053391   -4.4185653    1.2165043      8192000 
  782000   0.81098569    -4.418504    -4.418504   -3.2020257  0.050584126    -4.418504    1.2164782      8192000 
  783000   0.81108584   -4.4184986   -4.4184986   -3.2018702  0.051118315   -4.4184986    1.2166285      8192000 
  784000   0.81061901   -4.4180546   -4.4180546   -3.2021264  0.051312987   -4.4180546    1.2159282      8192000 
  785000   0.81089373   -4.4183039   -4.4183039   -3.2019636  0.050812395   -4.4183039    1.2163403      8192000 
  786000   0.81048827   -4.4176284   -4.4176284   -3.2018963  0.049942144   -4.4176284    1.2157321      8192000 
  787000   0.81058882   -4.4176749   -4.4176749   -3.2017919  0.048432247   -4.4176749    1.2158829      8192000 
  788000   0.81024029   -4.4169713   -4.4169713   -3.2016112  0.048291643   -4.4169713    1.2153601      8192000 
  789000   0.80992053   -4.4163243   -4.4163243   -3.2014439  0.046474752   -4.4163243    1.2148805      8192000 
  790000   0.80993314   -4.4159629   -4.4159629   -3.2010635  0.045350949   -4.4159629    1.2148994      8192000 
  791000    0.8098668   -4.4154635   -4.4154635   -3.2006636  0.044737862   -4.4154635    1.2147999      8192000 
  792000   0.80909069   -4.4140761   -4.4140761   -3.2004404  0.042976655   -4.4140761    1.2136357      8192000 
  793000   0.80921331   -4.4139498   -4.4139498   -3.2001301  0.040732258   -4.4139498    1.2138197      8192000 
  794000   0.80883962   -4.4129866   -4.4129866   -3.1997274  0.039996065   -4.4129866    1.2132591      8192000 
  795000   0.80815315   -4.4114709   -4.4114709   -3.1992415  0.038774828   -4.4114709    1.2122294      8192000 
  796000   0.80827457    -4.411471    -4.411471   -3.1990595  0.033490498    -4.411471    1.2124116      8192000 
  797000   0.80738746   -4.4098353   -4.4098353   -3.1987545  0.031028852   -4.4098353    1.2110809      8192000 
  798000   0.80690022   -4.4085383   -4.4085383   -3.1981883  0.030371736   -4.4085383      1.21035      8192000 
  799000   0.80643213   -4.4072996   -4.4072996   -3.1976517  0.027610723   -4.4072996    1.2096479      8192000 
  800000   0.80623692   -4.4065286   -4.4065286   -3.1971735   0.02397814   -4.4065286    1.2093551      8192000 
  801000   0.80582138   -4.4052182   -4.4052182   -3.1964865  0.021748617   -4.4052182    1.2087318      8192000 
  802000   0.80493899   -4.4032884   -4.4032884   -3.1958802  0.020605949   -4.4032884    1.2074082      8192000 
  803000   0.80473563   -4.4023284   -4.4023284   -3.1952252  0.016717786   -4.4023284    1.2071031      8192000 
  804000   0.80401992   -4.4005415   -4.4005415   -3.1945119  0.016725507   -4.4005415    1.2060296      8192000 
  805000   0.80383432   -4.3996941   -4.3996941   -3.1939429   0.01345131   -4.3996941    1.2057512      8192000 
  806000   0.80353083   -4.3985949   -4.3985949    -3.193299  0.011019694   -4.3985949    1.2052959      8192000 
  807000   0.80330185   -4.3975596   -4.3975596   -3.1926071 0.0064720673   -4.3975596    1.2049525      8192000 
  808000   0.80261325   -4.3960176   -4.3960176    -3.192098 0.0062886913   -4.3960176    1.2039196      8192000 
  809000   0.80190329    -4.394331    -4.394331   -3.1914763 0.0045926587    -4.394331    1.2028546      8192000 
  810000    0.8018682   -4.3935813   -4.3935813   -3.1907793 0.00079933117   -4.3935813     1.202802      8192000 
  811000   0.80140557   -4.3922078   -4.3922078   -3.1900997 0.00012600331   -4.3922078    1.2021081      8192000 
  812000   0.80068738   -4.3903677   -4.3903677   -3.1893369  -0.00166488   -4.3903677    1.2010308      8192000 
  813000   0.80055347    -4.389315    -4.389315   -3.1884851 -0.0032340993    -4.389315    1.2008299      8192000 
  814000   0.80060591   -4.3887986   -4.3887986     -3.18789 -0.0059542951   -4.3887986    1.2009086      8192000 
  815000   0.80001444   -4.3873083   -4.3873083    -3.187287 -0.0080482701   -4.3873083    1.2000214      8192000 
  816000   0.79969941   -4.3859223   -4.3859223   -3.1863735 -0.0098144738   -4.3859223    1.1995488      8192000 
  817000   0.79966681   -4.3852585   -4.3852585   -3.1857586 -0.011281865   -4.3852585    1.1994999      8192000 
  818000   0.79962905   -4.3843354   -4.3843354   -3.1848921 -0.013690482   -4.3843354    1.1994433      8192000 
  819000   0.79917622   -4.3830429   -4.3830429   -3.1842789 -0.013257754   -4.3830429     1.198764      8192000 
  820000   0.79863504   -4.3816595   -4.3816595   -3.1837073 -0.013993863   -4.3816595    1.1979523      8192000 
  821000   0.79881184   -4.3811645   -4.3811645    -3.182947  -0.01471954   -4.3811645    1.1982175      8192000 
  822000   0.79858064   -4.3797249   -4.3797249   -3.1818543  -0.01366685   -4.3797249    1.1978707      8192000 
  823000   0.79891908    -4.379514    -4.379514   -3.1811357 -0.016373608    -4.379514    1.1983783      8192000 
  824000   0.79844996    -4.377778    -4.377778   -3.1801034 -0.015023008    -4.377778    1.1976746      8192000 
  825000    0.7987289   -4.3775621   -4.3775621    -3.179469 -0.016658211   -4.3775621    1.1980931      8192000 
  826000   0.79877641   -4.3768729   -4.3768729   -3.1787086 -0.018024252   -4.3768729    1.1981643      8192000 
  827000   0.79857638   -4.3759366   -4.3759366   -3.1780723  -0.01753884   -4.3759366    1.1978643      8192000 
  828000   0.79893477   -4.3758462   -4.3758462   -3.1774443 -0.018398841   -4.3758462    1.1984019      8192000 
  829000   0.79906027   -4.3754154   -4.3754154   -3.1768253 -0.016739156   -4.3754154    1.1985901      8192000 
  830000   0.79912111   -4.3749034   -4.3749034    -3.176222  -0.01724667   -4.3749034    1.1986814      8192000 
  831000   0.79931205   -4.3745971   -4.3745971   -3.1756293 -0.015618966   -4.3745971    1.1989678      8192000 
  832000   0.79941004   -4.3742311   -4.3742311   -3.1751163 -0.015465624   -4.3742311    1.1991148      8192000 
  833000    0.7994528   -4.3735759   -4.3735759    -3.174397 -0.013715666   -4.3735759    1.1991789      8192000 
  834000   0.79999162   -4.3737569   -4.3737569   -3.1737697 -0.015365887   -4.3737569    1.1999871      8192000 
  835000    0.8001066   -4.3734786   -4.3734786    -3.173319 -0.012762193   -4.3734786    1.2001596      8192000 
  836000   0.80052941   -4.3735226   -4.3735226   -3.1727288 -0.015388717   -4.3735226    1.2007938      8192000 
  837000    0.8004336   -4.3731373   -4.3731373   -3.1724872  -0.01126832   -4.3731373    1.2006501      8192000 
  838000   0.80096268   -4.3734271   -4.3734271   -3.1719834 -0.010977678   -4.3734271    1.2014437      8192000 
  839000    0.8013484   -4.3735938   -4.3735938   -3.1715715 -0.010210589   -4.3735938    1.2020223      8192000 
  840000   0.80172646   -4.3737912   -4.3737912   -3.1712018 -0.0091917972   -4.3737912    1.2025894      8192000 
  841000    0.8024634   -4.3743218   -4.3743218    -3.170627 -0.0095028482   -4.3743218    1.2036948      8192000 
  842000   0.80246563   -4.3738951   -4.3738951    -3.170197 -0.0077722123   -4.3738951    1.2036981      8192000 
  843000   0.80272852   -4.3739552   -4.3739552   -3.1698627 -0.0045724659   -4.3739552    1.2040925      8192000 
  844000   0.80288203    -4.373863    -4.373863   -3.1695403 -0.0024580231    -4.373863    1.2043227      8192000 
  845000   0.80357875    -4.374672    -4.374672   -3.1693041 -0.0032565178    -4.374672    1.2053678      8192000 
  846000   0.80376205   -4.3749165   -4.3749165   -3.1692738 -0.0025569476   -4.3749165    1.2056428      8192000 
  847000   0.80391276   -4.3749004   -4.3749004   -3.1690316 -0.0025580387   -4.3749004    1.2058688      8192000 
  848000    0.8040047   -4.3747655   -4.3747655   -3.1687587 0.0010991318   -4.3747655    1.2060068      8192000 
  849000   0.80481476   -4.3759939   -4.3759939    -3.168772 0.00013024463   -4.3759939    1.2072218      8192000 
  850000   0.80516363   -4.3762262   -4.3762262    -3.168481 0.0018265987   -4.3762262    1.2077451      8192000 
  851000   0.80563083   -4.3766751   -4.3766751   -3.1682292 0.0041061837   -4.3766751    1.2084459      8192000 
  852000   0.80550255   -4.3762688   -4.3762688   -3.1680152 0.0072953338   -4.3762688    1.2082535      8192000 
  853000   0.80617995   -4.3772853   -4.3772853   -3.1680157 0.0079795516   -4.3772853    1.2092696      8192000 
  854000   0.80679873   -4.3782251   -4.3782251   -3.1680273 0.0077592709   -4.3782251    1.2101978      8192000 
  855000   0.80686614   -4.3781392   -4.3781392   -3.1678403  0.010975407   -4.3781392    1.2102989      8192000 
  856000   0.80700873   -4.3782212   -4.3782212   -3.1677084  0.012380125   -4.3782212    1.2105128      8192000 
  857000   0.80745519   -4.3786988   -4.3786988   -3.1675164  0.013321707   -4.3786988    1.2111825      8192000 
  858000   0.80791645   -4.3792697   -4.3792697   -3.1673953  0.014763996   -4.3792697    1.2118744      8192000 
  859000   0.80798523   -4.3794267   -4.3794267   -3.1674491  0.016235077   -4.3794267    1.2119775      8192000 
  860000    0.8089331   -4.3808474   -4.3808474   -3.1674481  0.014887171   -4.3808474    1.2133993      8192000 
  861000    0.8088862   -4.3805749   -4.3805749    -3.167246  0.018370803   -4.3805749     1.213329      8192000 
  862000   0.80912791   -4.3810115   -4.3810115     -3.16732  0.018432352   -4.3810115    1.2136916      8192000 
  863000   0.80952247   -4.3813209   -4.3813209   -3.1670375  0.021084279   -4.3813209    1.2142834      8192000 
  864000   0.81016788   -4.3823025   -4.3823025    -3.167051  0.019530436   -4.3823025    1.2152515      8192000 
  865000   0.80983086   -4.3816957   -4.3816957   -3.1669497  0.023509936   -4.3816957     1.214746      8192000 
  866000   0.81042006   -4.3825731   -4.3825731   -3.1669433  0.023417913   -4.3825731    1.2156298      8192000 
  867000   0.81091329   -4.3831971   -4.3831971   -3.1668274  0.024309804   -4.3831971    1.2163696      8192000 
  868000   0.81099261   -4.3830709   -4.3830709   -3.1665823  0.025918364   -4.3830709    1.2164886      8192000 
  869000   0.81122867   -4.3833836   -4.3833836   -3.1665409  0.027440045   -4.3833836    1.2168427      8192000 
  870000   0.81151289    -4.383627    -4.383627    -3.166358  0.028095303    -4.383627     1.217269      8192000 
  871000   0.81132686   -4.3833252   -4.3833252   -3.1663352  0.029134401   -4.3833252      1.21699      8192000 
  872000   0.81215702   -4.3843955   -4.3843955   -3.1661603  0.028485622   -4.3843955    1.2182352      8192000 
  873000   0.81190629   -4.3838734   -4.3838734   -3.1660142   0.02964284   -4.3838734    1.2178591      8192000 
  874000   0.81254312   -4.3846304   -4.3846304    -3.165816  0.027662397   -4.3846304    1.2188144      8192000 
  875000   0.81186555   -4.3834608   -4.3834608   -3.1656628  0.031348543   -4.3834608     1.217798      8192000 
  876000   0.81245661   -4.3841905   -4.3841905   -3.1655059  0.031056181   -4.3841905    1.2186846      8192000 
  877000   0.81246878   -4.3838476   -4.3838476   -3.1651447  0.031146723   -4.3838476    1.2187029      8192000 
  878000   0.81262061   -4.3839029   -4.3839029   -3.1649723  0.031439205   -4.3839029    1.2189306      8192000 
  879000   0.81273797   -4.3840753   -4.3840753   -3.1649686   0.02923615   -4.3840753    1.2191066      8192000 
  880000    0.8125643   -4.3835196   -4.3835196   -3.1646735  0.030548166   -4.3835196    1.2188461      8192000 
  881000   0.81268596   -4.3834531   -4.3834531   -3.1644245  0.029836853   -4.3834531    1.2190286      8192000 
  882000   0.81245011   -4.3827769   -4.3827769    -3.164102  0.032630555   -4.3827769    1.2186749      8192000 
  883000   0.81225823   -4.3823057   -4.3823057   -3.1639187  0.030827654   -4.3823057     1.218387      8192000 
  884000   0.81250974   -4.3825408   -4.3825408   -3.1637765  0.029484917   -4.3825408    1.2187643      8192000 
  885000   0.81239517   -4.3820288   -4.3820288   -3.1634363  0.031077074   -4.3820288    1.2185925      8192000 
  886000   0.81244737   -4.3817225   -4.3817225   -3.1630517  0.028854013   -4.3817225    1.2186708      8192000 
  887000   0.81206348   -4.3810378   -4.3810378   -3.1629429  0.030254549   -4.3810378    1.2180949      8192000 
  888000   0.81224208    -4.381156    -4.381156   -3.1627932  0.028428808    -4.381156    1.2183628      8192000 
  889000   0.81197645   -4.3805008   -4.3805008   -3.1625364  0.027107478   -4.3805008    1.2179644      8192000 
  890000   0.81189779   -4.3799992   -4.3799992   -3.1621528  0.026117087   -4.3799992    1.2178464      8192000 
  891000   0.81165727   -4.3794051   -4.3794051   -3.1619195  0.025738678   -4.3794051    1.2174856      8192000 
  892000   0.81138692   -4.3784852   -4.3784852   -3.1614051  0.023690441   -4.3784852    1.2170801      8192000 
  893000   0.81136168   -4.3779108   -4.3779108   -3.1608686  0.022267756   -4.3779108    1.2170422      8192000 
  894000   0.81101824   -4.3769759   -4.3769759   -3.1604488  0.023048857   -4.3769759    1.2165271      8192000 
  895000   0.81120864   -4.3768015   -4.3768015   -3.1599889  0.020803394   -4.3768015    1.2168127      8192000 
  896000   0.81096645   -4.3758834   -4.3758834   -3.1594341  0.020192989   -4.3758834    1.2164494      8192000 
  897000   0.81090577   -4.3755895   -4.3755895   -3.1592311  0.018408343   -4.3755895    1.2163583      8192000 
  898000   0.81032802   -4.3742104   -4.3742104   -3.1587187  0.018909122   -4.3742104    1.2154917      8192000 
  899000   0.81049267   -4.3738114   -4.3738114   -3.1580727  0.017631056   -4.3738114    1.2157387      8192000 
  900000   0.81068783   -4.3732752   -4.3732752   -3.1572438  0.016319167   -4.3732752    1.2160314      8192000 
  901000     0.810372   -4.3722602   -4.3722602   -3.1567025  0.015987433   -4.3722602    1.2155577      8192000 
  902000   0.81026083   -4.3718553   -4.3718553   -3.1564644  0.013214994   -4.3718553    1.2153909      8192000 
  903000    0.8099985   -4.3707411   -4.3707411   -3.1557436  0.013697405   -4.3707411    1.2149974      8192000 
  904000   0.80919564   -4.3688666   -4.3688666   -3.1550734  0.014899854   -4.3688666    1.2137932      8192000 
  905000   0.80939753   -4.3686035   -4.3686035   -3.1545075  0.010712346   -4.3686035     1.214096      8192000 
  906000   0.80970523   -4.3686029   -4.3686029   -3.1540453  0.011452543   -4.3686029    1.2145575      8192000 
  907000   0.80875919   -4.3666819   -4.3666819   -3.1535434  0.011875076   -4.3666819    1.2131385      8192000 
  908000   0.80916559   -4.3668191   -4.3668191    -3.153071 0.0066313097   -4.3668191    1.2137481      8192000 
  909000   0.80871091   -4.3652636   -4.3652636   -3.1521975 0.0084823222   -4.3652636    1.2130661      8192000 
  910000   0.80862994   -4.3644874   -4.3644874   -3.1515428 0.0068178892   -4.3644874    1.2129446      8192000 
  911000   0.80856111   -4.3636835   -4.3636835   -3.1508421 0.0078547701   -4.3636835    1.2128414      8192000 
  912000   0.80896244   -4.3637767   -4.3637767   -3.1503333 0.0058477282   -4.3637767    1.2134434      8192000 
  913000    0.8086741   -4.3626523   -4.3626523   -3.1496415 0.0059232804   -4.3626523    1.2130108      8192000 
  914000     0.808906   -4.3623951   -4.3623951   -3.1490364 0.0035805339   -4.3623951    1.2133587      8192000 
  915000   0.80858461   -4.3612895   -4.3612895   -3.1484129 0.0033631908   -4.3612895    1.2128766      8192000 
  916000   0.80858731   -4.3604251   -4.3604251   -3.1475444  0.003202081   -4.3604251    1.2128807      8192000 
  917000   0.80875034   -4.3600073   -4.3600073   -3.1468821 0.0024220234   -4.3600073    1.2131252      8192000 
  918000   0.80849444   -4.3590191   -4.3590191   -3.1462778 0.0021272808   -4.3590191    1.2127414      8192000 
  919000   0.80864206   -4.3586567   -4.3586567   -3.1456939 0.0005182875   -4.3586567    1.2129628      8192000 
  920000   0.80803442   -4.3571668   -4.3571668   -3.1451155 0.0020976857   -4.3571668    1.2120513      8192000 
  921000   0.80840544    -4.357068    -4.357068   -3.1444601 0.0015391956    -4.357068    1.2126079      8192000 
  922000   0.80830036   -4.3562095   -4.3562095   -3.1437593 0.00010430615   -4.3562095    1.2124502      8192000 
  923000   0.80839041   -4.3560068   -4.3560068   -3.1434215 -0.00010170197   -4.3560068    1.2125853      8192000 
  924000   0.80849051   -4.3553086   -4.3553086   -3.1425732 0.0022457358   -4.3553086    1.2127355      8192000 
  925000   0.80898809   -4.3551704   -4.3551704   -3.1416886 0.00045404266   -4.3551704    1.2134818      8192000 
  926000   0.80869862   -4.3543349   -4.3543349   -3.1412873 0.00095322264   -4.3543349    1.2130476      8192000 
  927000   0.80845323   -4.3533165   -4.3533165    -3.140637 0.0020306406   -4.3533165    1.2126795      8192000 
  928000   0.80876046   -4.3531243   -4.3531243   -3.1399839 0.0013901061   -4.3531243    1.2131404      8192000 
  929000   0.80886151   -4.3528045   -4.3528045   -3.1395125 -0.0018380923   -4.3528045     1.213292      8192000 
  930000   0.80858324   -4.3518796   -4.3518796   -3.1390051 -0.0007553876   -4.3518796    1.2128746      8192000 
  931000   0.80837973   -4.3509542   -4.3509542   -3.1383849 0.00044343984   -4.3509542    1.2125693      8192000 
  932000   0.80880048   -4.3511474   -4.3511474    -3.137947 -0.0018591025   -4.3511474    1.2132004      8192000 
  933000   0.80909503   -4.3511797   -4.3511797   -3.1375374 -0.00077205085   -4.3511797    1.2136422      8192000 
  934000   0.80879157   -4.3503034   -4.3503034   -3.1371163 -0.0004991518   -4.3503034     1.213187      8192000 
  935000    0.8090078   -4.3500095   -4.3500095   -3.1364981 -0.00075470161   -4.3500095    1.2135114      8192000 
  936000   0.80939029   -4.3500629   -4.3500629   -3.1359778 0.00013051113   -4.3500629    1.2140851      8192000 
  937000   0.80909508   -4.3493597   -4.3493597   -3.1357174 0.00090668685   -4.3493597    1.2136423      8192000 
  938000   0.80963146   -4.3493428   -4.3493428   -3.1348959 0.0012946453   -4.3493428    1.2144469      8192000 
  939000   0.80994222    -4.349399    -4.349399    -3.134486 0.00016795722    -4.349399     1.214913      8192000 
  940000   0.80970246   -4.3485771   -4.3485771   -3.1340237 0.0029952664   -4.3485771    1.2145534      8192000 
  941000   0.81020798   -4.3488895   -4.3488895   -3.1335779   0.00174409   -4.3488895    1.2153117      8192000 
  942000   0.81056028   -4.3491432   -4.3491432    -3.133303 0.0016086383   -4.3491432    1.2158401      8192000 
  943000   0.81040094   -4.3484464   -4.3484464   -3.1328453 0.0031740648   -4.3484464    1.2156011      8192000 
  944000   0.81067988   -4.3484996   -4.3484996   -3.1324801 0.0026707502   -4.3484996    1.2160195      8192000 
  945000   0.81092638   -4.3481939   -4.3481939   -3.1318047 0.0028172668   -4.3481939    1.2163893      8192000 
  946000   0.81120404   -4.3482089   -4.3482089   -3.1314031 0.0048952653   -4.3482089    1.2168058      8192000 
  947000   0.81142921   -4.3482528   -4.3482528   -3.1311093 0.0055359692   -4.3482528    1.2171435      8192000 
  948000   0.81134599   -4.3476953   -4.3476953   -3.1306766 0.0068765041   -4.3476953    1.2170187      8192000 
  949000    0.8116496    -4.347832    -4.347832   -3.1303579 0.0061728845    -4.347832    1.2174741      8192000 
  950000    0.8117159   -4.3473503   -4.3473503   -3.1297767 0.0083104244   -4.3473503    1.2175735      8192000 
  951000   0.81241126   -4.3483339   -4.3483339   -3.1297173 0.0055172631   -4.3483339    1.2186166      8192000 
  952000   0.81205097   -4.3473814   -4.3473814   -3.1293052 0.0094281909   -4.3473814    1.2180762      8192000 
  953000   0.81282726   -4.3481965   -4.3481965   -3.1289559 0.0081942502   -4.3481965    1.2192406      8192000 
  954000   0.81288127   -4.3480279   -4.3480279   -3.1287063 0.0090928639   -4.3480279    1.2193216      8192000 
  955000   0.81268772   -4.3474664   -4.3474664   -3.1284351   0.01066579   -4.3474664    1.2190313      8192000 
  956000   0.81324144   -4.3479135   -4.3479135   -3.1280517 0.0091294577   -4.3479135    1.2198619      8192000 
  957000   0.81345995   -4.3478759   -4.3478759   -3.1276863  0.011256115   -4.3478759    1.2201896      8192000 
  958000   0.81321526   -4.3474848   -4.3474848   -3.1276622  0.012482085   -4.3474848    1.2198226      8192000 
  959000   0.81375709    -4.347883    -4.347883   -3.1272477 0.0094695869    -4.347883    1.2206353      8192000 
  960000   0.81367754   -4.3475481   -4.3475481   -3.1270321  0.010554748   -4.3475481     1.220516      8192000 
  961000   0.81407791   -4.3477351   -4.3477351   -3.1266185  0.010784083   -4.3477351    1.2211166      8192000 
  962000   0.81401494   -4.3474514   -4.3474514   -3.1264293  0.011754944   -4.3474514    1.2210221      8192000 
  963000   0.81373764    -4.347085    -4.347085   -3.1264788  0.013559495    -4.347085    1.2206061      8192000 
  964000   0.81370922   -4.3469239   -4.3469239   -3.1263603  0.013902409   -4.3469239    1.2205635      8192000 
  965000   0.81409544   -4.3472427   -4.3472427   -3.1260999  0.012364333   -4.3472427    1.2211428      8192000 
  966000   0.81428848   -4.3468647   -4.3468647   -3.1254323  0.015013342   -4.3468647    1.2214324      8192000 
  967000   0.81486128   -4.3474525   -4.3474525   -3.1251609  0.013295692   -4.3474525    1.2222916      8192000 
  968000   0.81478866   -4.3470731   -4.3470731   -3.1248904    0.0142036   -4.3470731    1.2221827      8192000 
  969000   0.81511234   -4.3472734   -4.3472734   -3.1246052  0.015550963   -4.3472734    1.2226682      8192000 
  970000   0.81533173   -4.3472689   -4.3472689   -3.1242716   0.01597642   -4.3472689    1.2229973      8192000 
  971000   0.81505674   -4.3465115   -4.3465115   -3.1239267  0.017628663   -4.3465115    1.2225848      8192000 
  972000   0.81511991   -4.3463228   -4.3463228   -3.1236433  0.017167188   -4.3463228    1.2226796      8192000 
  973000   0.81568642   -4.3467624   -4.3467624   -3.1232331  0.017779808   -4.3467624    1.2235293      8192000 
  974000   0.81614965   -4.3471568   -4.3471568   -3.1229326  0.016867289   -4.3471568    1.2242242      8192000 
  975000   0.81579416   -4.3463433   -4.3463433   -3.1226523   0.01891697   -4.3463433    1.2236909      8192000 
  976000   0.81668257   -4.3472958   -4.3472958   -3.1222723  0.018454368   -4.3472958    1.2250235      8192000 
  977000   0.81633704   -4.3465319   -4.3465319   -3.1220267  0.018204469   -4.3465319    1.2245053      8192000 
  978000   0.81638454   -4.3463549   -4.3463549   -3.1217784  0.019036673   -4.3463549    1.2245765      8192000 
  979000   0.81656651    -4.346145    -4.346145   -3.1212955  0.019668245    -4.346145    1.2248495      8192000 
  980000   0.81655212   -4.3457846   -4.3457846   -3.1209568  0.020051551   -4.3457846    1.2248279      8192000 
  981000   0.81662513   -4.3456067   -4.3456067   -3.1206693  0.020351519   -4.3456067    1.2249374      8192000 
  982000    0.8171863   -4.3459174   -4.3459174   -3.1201383  0.019931918   -4.3459174    1.2257791      8192000 
  983000   0.81715831   -4.3453262   -4.3453262    -3.119589  0.020950972   -4.3453262    1.2257372      8192000 
  984000   0.81721244   -4.3453371   -4.3453371   -3.1195188  0.021282858   -4.3453371    1.2258184      8192000 
  985000   0.81687237   -4.3445635   -4.3445635   -3.1192552  0.023553596   -4.3445635    1.2253082      8192000 
  986000   0.81706453    -4.344386    -4.344386   -3.1187895  0.021266648    -4.344386    1.2255965      8192000 
  987000   0.81712541   -4.3439494   -4.3439494   -3.1182616  0.020674994   -4.3439494    1.2256878      8192000 
  988000   0.81718858   -4.3439813   -4.3439813   -3.1181987  0.020298487   -4.3439813    1.2257826      8192000 
  989000    0.8172648   -4.3437036   -4.3437036   -3.1178067  0.019674566   -4.3437036    1.2258969      8192000 
  990000   0.81708544   -4.3427722   -4.3427722   -3.1171443  0.021297657   -4.3427722    1.2256279      8192000 
  991000    0.8174265   -4.3429456   -4.3429456   -3.1168062  0.018798814   -4.3429456    1.2261394      8192000 
  992000   0.81750822   -4.3428626   -4.3428626   -3.1166006  0.020084335   -4.3428626     1.226262      8192000 
  993000   0.81727342   -4.3420864   -4.3420864   -3.1161766  0.019383852   -4.3420864    1.2259098      8192000 
  994000   0.81707204    -4.341551    -4.341551   -3.1159433  0.018383622    -4.341551    1.2256078      8192000 
  995000   0.81680134   -4.3408604   -4.3408604   -3.1156587  0.018187986   -4.3408604    1.2252017      8192000 
  996000   0.81661722   -4.3402444   -4.3402444   -3.1153188  0.018525161   -4.3402444    1.2249255      8192000 
  997000   0.81691223   -4.3401133   -4.3401133   -3.1147453  0.017991307   -4.3401133     1.225368      8192000 
  998000   0.81705688   -4.3400297   -4.3400297   -3.1144447  0.017995204   -4.3400297     1.225585      8192000 
  999000   0.81691506   -4.3392287   -4.3392287   -3.1138565  0.017451329   -4.3392287    1.2253723      8192000 
 1000000   0.81642803   -4.3382009   -4.3382009   -3.1135591  0.017807452   -4.3382009    1.2246417      8192000 
Loop time of 38047.9 on 128 procs for 1000000 steps with 3993600 atoms

Performance: 5677.056 tau/day, 26.283 timesteps/s
99.5% CPU use with 128 MPI tasks x 1 OpenMP threads

MPI task timing breakdown:
Section |  min time  |  avg time  |  max time  |%varavg|  %CPU | %total
-----------------------------------------------------------------------
Pair    | 9967.1     | 14580      | 22161      |2156.2 |  99.6 | 38.32
Bond    | 0.5252     | 0.69483    | 0.97277    |  11.9 | 100.0 |  0.00
Neigh   | 2325.7     | 3413.5     | 5056.3     |1019.1 | 100.0 |  8.97
Comm    | 8472.3     | 17795      | 23763      |2464.6 |  99.3 | 46.77
Output  | 70         | 70.642     | 70.653     |   0.7 |  98.6 |  0.19
Modify  | 507.77     | 835.21     | 2184.3     |1389.4 |  99.7 |  2.20
Other   |            | 1354       |            |       |       |  3.56

Nlocal:        31200.0 ave       32547 max       29546 min
Histogram: 13 5 5 14 0 29 36 9 1 16
Nghost:        17396.1 ave       19141 max       13394 min
Histogram: 17 14 1 0 0 0 0 1 48 47
Neighs:    1.10494e+06 ave 1.20107e+06 max      968136 min
Histogram: 4 16 8 4 6 10 23 41 0 16

Total # of neighbors = 1.4143175e+08
Ave neighs/atom = 35.414601
Ave special neighs/atom = 0.0000000
Neighbor list builds = 66555
Dangerous builds = 2293
Total wall time: 10:34:12
