LAMMPS (24 Dec 2020)
OMP_NUM_THREADS environment is not set. Defaulting to 1 thread. (src/comm.cpp:94)
  using 1 OpenMP thread(s) per MPI task
#Read the equilibrated lj fluid and add nanocubes

units           lj
atom_style      full
atom_modify     map array first cubes
dimension       3
boundary        p p f
pair_style      lj/smooth/linear 2.0

variable        sigma           equal 1.0
variable        epsilon         equal 1.0
read_restart	restart.dat.5000000
Reading restart file ...
  restart file = 24 Dec 2020, LAMMPS = 24 Dec 2020
WARNING: Restart file used different # of processors: 192 vs. 288 (src/read_restart.cpp:697)
  restoring atom style full from restart
  orthogonal box = (0.0000000 0.0000000 0.0000000) to (80.000000 80.000000 160.00000)
  6 by 4 by 12 MPI processor grid
  restoring pair style lj/smooth/linear from restart
  439061 atoms
Finding 1-2 1-3 1-4 neighbors ...
  special bond factors lj:    0        0        0       
  special bond factors coul:  0        0        0       
     0 = max # of 1-2 neighbors
     0 = max # of 1-3 neighbors
     0 = max # of 1-4 neighbors
     1 = max # of special neighbors
  special bonds CPU = 2.362 seconds
  read_restart CPU = 2.769 seconds

group		solvent type 1
439061 atoms in group solvent

read_data	data_64.cubes group cubes add append
Reading data file ...
  orthogonal box = (0.0000000 0.0000000 0.0000000) to (80.000000 80.000000 160.00000)
  6 by 4 by 12 MPI processor grid
WARNING: Pair style in data file differs from currently defined pair style (src/read_data.cpp:588)
  reading atoms ...
  73152 atoms
  reading velocities ...
  73152 velocities
Finding 1-2 1-3 1-4 neighbors ...
  special bond factors lj:    0        0        0       
  special bond factors coul:  0        0        0       
     0 = max # of 1-2 neighbors
     0 = max # of 1-3 neighbors
     0 = max # of 1-4 neighbors
     1 = max # of special neighbors
  special bonds CPU = 0.056 seconds
  read_data CPU = 0.251 seconds

group 		hull  type 2
28544 atoms in group hull
group 		dummy type 3
44608 atoms in group dummy

neighbor      0.4 bin
neigh_modify  exclude molecule/intra cubes


pair_modify   shift yes

pair_coeff    1 1 1.0 1.0 #solvent
pair_coeff    2 2 1.0 1.0 1.12 #np
pair_coeff    3 3 0.0 0.0 0.0 #dummy
pair_coeff    2 3 0.0 0.0 0.0 #np dummy
pair_coeff    1 2 ${eps} ${sig} ${nscut} #np solvent
pair_coeff    1 2 1.0 ${sig} ${nscut} 
pair_coeff    1 2 1.0 2.0 ${nscut} 
pair_coeff    1 2 1.0 2.0 4.0 
pair_coeff    1 3 0.0 0.0 2.5 #dummy solvent

# delete solvent where the cubes are
delete_atoms  overlap 2.0 solvent cubes
System init for delete_atoms ...
Neighbor list info ...
  update every 1 steps, delay 10 steps, check yes
  max neighbors/atom: 2000, page size: 100000
  master list distance cutoff = 4.4
  ghost atom cutoff = 4.4
  binsize = 2.2, bins = 37 37 73
  2 neighbor lists, perpetual/occasional/extra = 1 1 0
  (1) command delete_atoms, occasional
      attributes: full, newton on
      pair build: full/bin
      stencil: full/bin/3d
      bin: standard
  (2) pair lj/smooth/linear, perpetual
      attributes: half, newton on
      pair build: half/bin/newton
      stencil: half/bin/3d/newton
      bin: standard
WARNING: Delete_atoms cutoff > minimum neighbor cutoff (src/delete_atoms.cpp:307)
WARNING: Ignoring 'compress yes' for molecular system (src/delete_atoms.cpp:125)
Deleted 85864 atoms, new total = 426349



pair_coeff    1 1 1.0 1.0 #solvent
pair_coeff    2 2 1.0 1.0 1.12 #np
pair_coeff    3 3 0.0 0.0 0.0 #dummy
pair_coeff    2 3 0.0 0.0 0.0 #np dummy
pair_coeff    1 2 ${eps} ${sig} ${nscut} #np solvent
pair_coeff    1 2 1.0 ${sig} ${nscut} 
pair_coeff    1 2 1.0 2.0 ${nscut} 
pair_coeff    1 2 1.0 2.0 4.0 
pair_coeff    1 3 0.0 0.0 0.0 #dummy solvent


comm_modify   mode multi cutoff/multi 1 2.0 cutoff/multi 2 2.0 cutoff/multi 3 6.95

reset_timestep 	0

balance 	1.05 shift z 10 1.05
Balancing ...
Neighbor list info ...
  update every 1 steps, delay 10 steps, check yes
  max neighbors/atom: 2000, page size: 100000
  master list distance cutoff = 4.4
  ghost atom cutoff = 6.95
  binsize = 2.2, bins = 37 37 73
  1 neighbor lists, perpetual/occasional/extra = 1 0 0
  (1) pair lj/smooth/linear, perpetual
      attributes: half, newton on
      pair build: half/bin/newton
      stencil: half/bin/3d/newton
      bin: standard
 rebalancing time: 0.004 seconds
  iteration count = 4
  initial/final maximal load/proc = 2230.0000 2237.0000
  initial/final imbalance factor  = 1.5063715 1.5111001
  x cuts: 0.0000000 0.16666667 0.33333333 0.50000000 0.66666667 0.83333333 1.0000000
  y cuts: 0.0000000 0.25000000 0.50000000 0.75000000 1.0000000
  z cuts: 0.0000000 0.057291667 0.11979167 0.17187500 0.23958333 0.28125000 0.34375000 0.41145833 0.46354167 0.51562500 0.59895833 0.64583333 1.0000000

####################### WALLS ###########################

variable       epsilonWall equal 2*${epsilon}
variable       epsilonWall equal 2*1
variable       repulsive   equal   0.7147*${sigma}
variable       repulsive   equal   0.7147*1
variable       full	   equal   3*${sigma}
variable       full	   equal   3*1
region         lowWall block EDGE EDGE EDGE EDGE EDGE 2

fix            topWall all wall/lj93 zhi EDGE 	       ${epsilonWall} ${sigma} ${repulsive} units box
fix            topWall all wall/lj93 zhi EDGE 	       2 ${sigma} ${repulsive} units box
fix            topWall all wall/lj93 zhi EDGE 	       2 1 ${repulsive} units box
fix            topWall all wall/lj93 zhi EDGE 	       2 1 0.7147 units box
fix            lowSol solvent wall/lj93 zlo EDGE                ${epsilonWall} ${sigma} ${full} units box
fix            lowSol solvent wall/lj93 zlo EDGE                2 ${sigma} ${full} units box
fix            lowSol solvent wall/lj93 zlo EDGE                2 1 ${full} units box
fix            lowSol solvent wall/lj93 zlo EDGE                2 1 3 units box
fix 	       lowCub cubes wall/lj93 zlo EDGE                ${epsilonWall} ${sigma} ${repulsive} units box
fix 	       lowCub cubes wall/lj93 zlo EDGE                2 ${sigma} ${repulsive} units box
fix 	       lowCub cubes wall/lj93 zlo EDGE                2 1 ${repulsive} units box
fix 	       lowCub cubes wall/lj93 zlo EDGE                2 1 0.7147 units box


###################### COMPUTES ##########################

compute        bin1 solvent chunk/atom bin/1d z lower 1.0 units box


######################  FIXES ############################


fix             peclet solvent ave/chunk 10 10 10000 bin1 density/number norm                  none ave one file density.profile

fix              temp solvent ave/chunk 10 10 10000 bin1 temp norm                  none ave one file temp.profile

fix             1 cubes rigid/nve/small molecule
  create bodies CPU = 0.024 seconds
  64 rigid bodies with 73152 atoms
  6.9282032 = max distance from body owner to body atom

fix             2 solvent nve# temp ${temp} ${temp} 10


## Thermostat
region          regthermo block EDGE EDGE EDGE EDGE 0 15
group           thermo dynamic solvent region regthermo every 1000
dynamic group thermo defined
fix             3 thermo langevin ${temp} ${temp} 10 156453
fix             3 thermo langevin 0.6 ${temp} 10 156453
fix             3 thermo langevin 0.6 0.6 10 156453


#### Load balancing

fix             bal all balance 1000 1.05 shift z 10 1.05

############### Diagnostics and computes ###################

compute        	com cubes          rigid/local   1 mol x y z
compute        	quat cubes         rigid/local   1 mol quatw quati quatj quatk

compute 	cc2 cubes 	   chunk/atom 	 molecule
compute 	msd cubes 	   msd/chunk 	 cc2

fix 		msd all ave/time  1 1 10000 c_msd[*] file dump.msd ave one mode vector

dump            1 all custom 500000 dump.lammpstrj id mol type x y z
dump		cubetrj hull custom 500000 cubes.lammpstrj id mol type x y z
dump            com cubes local 10000 dump.*.xyz c_com[*]
dump	        xyz hull xyz 100000 cubes.xyz
dump            quat cubes      local 10000 dump.*.quat c_quat[*]
#dump		mol cubes molfile 10000 mol.xyz xyz


dump            2 all image 10000 image.*.png type type zoom 1.5 size 1280 720
dump_modify     2 pad 8
dump		image cubes image 10000 image_cubes.*.png type type zoom 1.5 size 1280 720
dump_modify	image pad 8
dump            3 all movie 5000 movie.avi type type zoom 1.5 size 1280 720
dump		4 cubes movie 5000 movie_cubes.avi type type size 1280 720


thermo          1000
thermo_style    custom step temp epair evdwl etotal press pe ke atoms

restart         1000000 restart.dat
timestep        0.005
timer           full
New timer settings: style=full  mode=nosync  timeout=off

run 		5000000
Per MPI rank memory allocation (min/avg/max) = 13.91 | 19.38 | 22.63 Mbytes
Step Temp E_pair E_vdwl TotEng Press PotEng KinEng Atoms 
       0   0.61139669   -2.0918329   -2.0918329   -1.3318178  -0.41541902   -2.0918329   0.76001512   426349 
    1000   0.71832728   -2.2330362   -2.2330362   -1.3400978   0.11003344   -2.2330362   0.89293841   426349 
    2000   0.72442594   -2.2506681   -2.2506681   -1.3501486   0.12263564   -2.2506681   0.90051954   426349 
    3000    0.7205081   -2.2546781   -2.2546781   -1.3590288   0.12328291   -2.2546781   0.89564936   426349 
    4000    0.7153404   -2.2573464   -2.2573464   -1.3681209   0.11302059   -2.2573464   0.88922549   426349 
    5000   0.70804825   -2.2565827   -2.2565827   -1.3764219   0.11629697   -2.2565827   0.88016076   426349 
    6000   0.70101043   -2.2566995   -2.2566995   -1.3852873   0.10297809   -2.2566995   0.87141219   426349 
    7000   0.69723077   -2.2578819   -2.2578819   -1.3911681  0.085381032   -2.2578819   0.86671376   426349 
    8000   0.69030894     -2.25525     -2.25525   -1.3971407  0.083125424     -2.25525   0.85810937   426349 
    9000   0.68528178   -2.2534254   -2.2534254   -1.4015651   0.07436526   -2.2534254   0.85186021   426349 
   10000   0.67999227   -2.2502688   -2.2502688   -1.4049839  0.072930699   -2.2502688   0.84528492   426349 
   11000    0.6766406    -2.248162    -2.248162   -1.4070434  0.071311033    -2.248162   0.84111853   426349 
   12000    0.6732171   -2.2455693   -2.2455693   -1.4087064  0.060330956   -2.2455693   0.83686285   426349 
   13000   0.67106817   -2.2432543   -2.2432543   -1.4090627  0.062474843   -2.2432543   0.83419155   426349 
   14000   0.66960107   -2.2415334   -2.2415334   -1.4091655  0.049455395   -2.2415334   0.83236783   426349 
   15000   0.66605277   -2.2386442   -2.2386442   -1.4106872  0.065387736   -2.2386442   0.82795701   426349 
   16000   0.66483208   -2.2367834   -2.2367834   -1.4103438  0.053153082   -2.2367834    0.8264396   426349 
   17000   0.66302829   -2.2351267   -2.2351267   -1.4109294  0.051499217   -2.2351267   0.82419734   426349 
   18000   0.66234918   -2.2347746   -2.2347746   -1.4114214  0.052263721   -2.2347746   0.82335316   426349 
   19000   0.66217818    -2.234049    -2.234049   -1.4109084   0.05135276    -2.234049   0.82314058   426349 
   20000   0.66049081    -2.232262    -2.232262   -1.4112189  0.051808034    -2.232262   0.82104305   426349 
   21000   0.66022694    -2.232731    -2.232731    -1.412016   0.05418236    -2.232731   0.82071504   426349 
   22000    0.6605191   -2.2336717   -2.2336717   -1.4125934  0.045504723   -2.2336717   0.82107821   426349 
   23000   0.65947592   -2.2322656   -2.2322656   -1.4124842  0.041144575   -2.2322656   0.81978145   426349 
   24000   0.65996422   -2.2333724   -2.2333724   -1.4129839  0.046228717   -2.2333724   0.82038845   426349 
   25000   0.66121317   -2.2354127   -2.2354127   -1.4134717    0.0588328   -2.2354127     0.821941   426349 
   26000   0.65963509   -2.2341064   -2.2341064   -1.4141271  0.056850386   -2.2341064   0.81997932   426349 
   27000   0.66007438   -2.2351739   -2.2351739   -1.4146485   0.05846221   -2.2351739   0.82052539   426349 
   28000   0.65888299   -2.2348329   -2.2348329   -1.4157885  0.054595366   -2.2348329    0.8190444   426349 
   29000   0.65926077   -2.2345501   -2.2345501    -1.415036  0.050770551   -2.2345501   0.81951401   426349 
   30000   0.65996754   -2.2370874   -2.2370874   -1.4166948  0.060689803   -2.2370874   0.82039258   426349 
   31000   0.65826644   -2.2362137   -2.2362137   -1.4179357  0.062926129   -2.2362137   0.81827798   426349 
   32000   0.65835869   -2.2365063   -2.2365063   -1.4181137   0.06357625   -2.2365063   0.81839266   426349 
   33000   0.65872475   -2.2380828   -2.2380828   -1.4192351  0.049440202   -2.2380828    0.8188477   426349 
   34000   0.65859358   -2.2377238   -2.2377238   -1.4190391  0.052540256   -2.2377238   0.81868464   426349 
   35000   0.65933149    -2.238312    -2.238312   -1.4187101  0.057962076    -2.238312   0.81960192   426349 
   36000   0.65951198   -2.2386566   -2.2386566   -1.4188303  0.061093243   -2.2386566   0.81982628   426349 
   37000   0.65896076   -2.2390894   -2.2390894   -1.4199483  0.058206863   -2.2390894   0.81914108   426349 
   38000   0.65815655    -2.238991    -2.238991   -1.4208496  0.060910688    -2.238991   0.81814138   426349 
   39000   0.65879548    -2.240529    -2.240529   -1.4215934  0.054921121    -2.240529   0.81893562   426349 
   40000   0.65763777   -2.2397834   -2.2397834   -1.4222869  0.057373361   -2.2397834   0.81749649   426349 
   41000   0.65857097   -2.2413618   -2.2413618   -1.4227053  0.058980584   -2.2413618   0.81865653   426349 
   42000   0.65810932    -2.241371    -2.241371   -1.4232883  0.060711028    -2.241371   0.81808266   426349 
   43000   0.65920878   -2.2440708   -2.2440708   -1.4246214  0.058294713   -2.2440708   0.81944938   426349 
   44000   0.65783303   -2.2430537   -2.2430537   -1.4253144  0.055884061   -2.2430537   0.81773922   426349 
   45000   0.65849377   -2.2457255   -2.2457255    -1.427165   0.05707015   -2.2457255   0.81856057   426349 
   46000   0.65785933   -2.2449269   -2.2449269    -1.427155  0.050388747   -2.2449269   0.81777191   426349 
   47000   0.65764846   -2.2450998   -2.2450998     -1.42759   0.05668196   -2.2450998   0.81750978   426349 
   48000   0.65781014   -2.2464985   -2.2464985   -1.4287878  0.049292316   -2.2464985   0.81771077   426349 
   49000    0.6568921   -2.2462876   -2.2462876    -1.429718  0.050973596   -2.2462876   0.81656957   426349 
   50000   0.65764215   -2.2481483   -2.2481483   -1.4306463  0.051300743   -2.2481483   0.81750194   426349 
   51000   0.65608264   -2.2468314   -2.2468314    -1.431268  0.055806702   -2.2468314   0.81556334   426349 
   52000   0.65723653   -2.2483965   -2.2483965   -1.4313988  0.053738864   -2.2483965   0.81699771   426349 
   53000    0.6568238    -2.248838    -2.248838   -1.4323534  0.054540763    -2.248838   0.81648466   426349 
   54000   0.65766772    -2.250189    -2.250189   -1.4326552  0.055528256    -2.250189   0.81753372   426349 
   55000   0.65670498   -2.2503569   -2.2503569   -1.4340199  0.066508249   -2.2503569   0.81633696   426349 
   56000   0.65631137   -2.2507348   -2.2507348   -1.4348872  0.057992937   -2.2507348   0.81584766   426349 
   57000    0.6562702   -2.2510125   -2.2510125    -1.435216  0.057623393   -2.2510125   0.81579649   426349 
   58000   0.65703109   -2.2528993   -2.2528993    -1.436157  0.057298711   -2.2528993   0.81674234   426349 
   59000   0.65859359   -2.2556149   -2.2556149   -1.4369303  0.056167134   -2.2556149   0.81868465   426349 
   60000     0.656024   -2.2534532   -2.2534532   -1.4379628   0.06538348   -2.2534532   0.81549045   426349 
   61000   0.65650782   -2.2551884   -2.2551884   -1.4390965  0.060990938   -2.2551884   0.81609188   426349 
   62000   0.65576817   -2.2548843   -2.2548843   -1.4397119  0.062897199   -2.2548843   0.81517243   426349 
   63000   0.65661837   -2.2577352   -2.2577352    -1.441506  0.065698338   -2.2577352    0.8162293   426349 
   64000   0.65562833   -2.2578388   -2.2578388   -1.4428403   0.06363242   -2.2578388   0.81499859   426349 
   65000   0.65779297   -2.2614288   -2.2614288   -1.4437394  0.060823088   -2.2614288   0.81768941   426349 
   66000   0.65813076   -2.2625602   -2.2625602   -1.4444509   0.05863984   -2.2625602   0.81810932   426349 
   67000   0.65650331    -2.261577    -2.261577   -1.4454907  0.058258148    -2.261577   0.81608627   426349 
   68000   0.65792421    -2.264649    -2.264649   -1.4467965   0.07144494    -2.264649   0.81785256   426349 
   69000   0.65888681   -2.2671155   -2.2671155   -1.4480664  0.065223594   -2.2671155   0.81904915   426349 
   70000   0.65678608   -2.2657088   -2.2657088    -1.449271  0.063175431   -2.2657088   0.81643777   426349 
   71000    0.6573864   -2.2673648   -2.2673648   -1.4501808  0.060905399   -2.2673648   0.81718402   426349 
   72000   0.65794376   -2.2687782   -2.2687782   -1.4509013  0.061710615   -2.2687782   0.81787686   426349 
   73000   0.65771792   -2.2693505   -2.2693505   -1.4517544  0.056995402   -2.2693505   0.81759613   426349 
   74000   0.65869954   -2.2718651   -2.2718651   -1.4530487  0.065471185   -2.2718651   0.81881636   426349 
   75000   0.65756007   -2.2708622   -2.2708622   -1.4534623  0.060517884   -2.2708622   0.81739991   426349 
   76000   0.65783394   -2.2732707   -2.2732707   -1.4555303  0.056892793   -2.2732707   0.81774034   426349 
   77000   0.65794403     -2.27411     -2.27411   -1.4562328  0.068442185     -2.27411   0.81787719   426349 
   78000   0.65809207   -2.2752122   -2.2752122    -1.457151  0.064442857   -2.2752122   0.81806122   426349 
   79000    0.6581841   -2.2753107   -2.2753107   -1.4571351  0.067726848   -2.2753107   0.81817562   426349 
   80000   0.65814727   -2.2759386   -2.2759386   -1.4578088  0.057171088   -2.2759386   0.81812984   426349 
   81000   0.65697187   -2.2755002   -2.2755002   -1.4588315  0.068026671   -2.2755002   0.81666873   426349 
   82000   0.65752367   -2.2766201   -2.2766201   -1.4592654  0.068333783   -2.2766201   0.81735465   426349 
   83000   0.65769987    -2.277277    -2.277277   -1.4597033   0.06247336    -2.277277   0.81757369   426349 
   84000   0.65662011   -2.2764068   -2.2764068   -1.4601754  0.061665263   -2.2764068   0.81623146   426349 
   85000   0.65702917   -2.2782359   -2.2782359   -1.4614959  0.070618197   -2.2782359   0.81673996   426349 
   86000   0.65651584   -2.2781818   -2.2781818   -1.4620799  0.066482539   -2.2781818   0.81610184   426349 
   87000   0.65479957   -2.2775852   -2.2775852   -1.4636168  0.066971059   -2.2775852   0.81396838   426349 
   88000    0.6546965   -2.2782385   -2.2782385   -1.4643982  0.053439934   -2.2782385   0.81384026   426349 
   89000   0.65370289   -2.2776367   -2.2776367   -1.4650316  0.061487711   -2.2776367   0.81260511   426349 
   90000    0.6539159    -2.278402    -2.278402    -1.465532   0.06893408    -2.278402   0.81286991   426349 
   91000   0.65321349   -2.2778044   -2.2778044   -1.4658077  0.048306498   -2.2778044   0.81199676   426349 
   92000    0.6528594   -2.2776458   -2.2776458   -1.4660892  0.061996294   -2.2776458    0.8115566   426349 
   93000   0.65279617   -2.2782316   -2.2782316   -1.4667536  0.057834532   -2.2782316   0.81147799   426349 
   94000   0.65109965    -2.276107    -2.276107   -1.4667379  0.051837905    -2.276107   0.80936908   426349 
   95000   0.65191025   -2.2776039   -2.2776039   -1.4672272  0.057719832   -2.2776039   0.81037672   426349 
   96000   0.65202672   -2.2778452   -2.2778452   -1.4673237  0.059212334   -2.2778452    0.8105215   426349 
   97000   0.65131674   -2.2771545   -2.2771545   -1.4675156  0.055954762   -2.2771545   0.80963895   426349 
   98000   0.65019661   -2.2764753   -2.2764753   -1.4682288   0.05486102   -2.2764753   0.80824653   426349 
   99000   0.65037585   -2.2765292   -2.2765292   -1.4680598  0.050577974   -2.2765292   0.80846934   426349 
  100000   0.64878873   -2.2753166   -2.2753166   -1.4688202   0.04666545   -2.2753166   0.80649643   426349 
  101000   0.64879618   -2.2753632   -2.2753632   -1.4688575  0.052647934   -2.2753632   0.80650568   426349 
  102000   0.64932544   -2.2769241   -2.2769241   -1.4697605  0.060455592   -2.2769241    0.8071636   426349 
  103000   0.64872213   -2.2758936   -2.2758936   -1.4694799  0.056820199   -2.2758936   0.80641364   426349 
  104000   0.64873179   -2.2775672   -2.2775672   -1.4711416  0.051265119   -2.2775672   0.80642564   426349 
  105000   0.64861444   -2.2771457   -2.2771457    -1.470866  0.055354846   -2.2771457   0.80627977   426349 
  106000   0.64600087   -2.2748369   -2.2748369    -1.471806  0.056142236   -2.2748369   0.80303089   426349 
  107000   0.64856891   -2.2776904   -2.2776904   -1.4714672   0.05486598   -2.2776904   0.80622317   426349 
  108000   0.64748354   -2.2767516   -2.2767516   -1.4718777   0.05023678   -2.2767516   0.80487397   426349 
  109000   0.64737258   -2.2764222   -2.2764222   -1.4716861  0.057590063   -2.2764222   0.80473603   426349 
  110000   0.64741948   -2.2771437   -2.2771437   -1.4723493  0.057521051   -2.2771437   0.80479434   426349 
  111000   0.64729997   -2.2771996   -2.2771996   -1.4725539  0.049665458   -2.2771996   0.80464577   426349 
  112000   0.64672033   -2.2766916   -2.2766916   -1.4727663  0.045743991   -2.2766916   0.80392523   426349 
  113000   0.64660393   -2.2774272   -2.2774272   -1.4736467  0.047944245   -2.2774272   0.80378054   426349 
  114000   0.64785471   -2.2786697   -2.2786697   -1.4733343  0.048794948   -2.2786697   0.80533536   426349 
  115000   0.64652733   -2.2772285   -2.2772285   -1.4735432  0.051630346   -2.2772285   0.80368533   426349 
  116000   0.64700227   -2.2782372   -2.2782372   -1.4739615  0.047626004   -2.2782372   0.80427571   426349 
  117000   0.64721835   -2.2788715   -2.2788715   -1.4743272  0.055447465   -2.2788715   0.80454431   426349 
  118000   0.64829233   -2.2805438   -2.2805438   -1.4746644  0.053849439   -2.2805438   0.80587936   426349 
  119000   0.64811413   -2.2810289   -2.2810289    -1.475371  0.065130223   -2.2810289   0.80565784   426349 
  120000   0.64729301   -2.2802184   -2.2802184   -1.4755813  0.050620518   -2.2802184   0.80463712   426349 
  121000   0.64768658   -2.2815859   -2.2815859   -1.4764596  0.062423509   -2.2815859   0.80512636   426349 
  122000   0.64675347   -2.2803818   -2.2803818   -1.4764154  0.055593049   -2.2803818   0.80396644   426349 
  123000   0.64661001   -2.2811747   -2.2811747   -1.4773866  0.046289241   -2.2811747    0.8037881   426349 
  124000   0.64654985   -2.2819053   -2.2819053    -1.478192  0.055748359   -2.2819053   0.80371332   426349 
  125000   0.64600105   -2.2817218   -2.2817218   -1.4786907  0.040929949   -2.2817218   0.80303112   426349 
  126000   0.64660255   -2.2838356   -2.2838356   -1.4800568   0.05062605   -2.2838356   0.80377883   426349 
  127000   0.64524985   -2.2815994   -2.2815994   -1.4795021  0.053158973   -2.2815994   0.80209731   426349 
  128000   0.64687405   -2.2838113   -2.2838113   -1.4796949  0.052001665   -2.2838113   0.80411633   426349 
  129000   0.64662265   -2.2848702   -2.2848702   -1.4810664  0.052017532   -2.2848702   0.80380381   426349 
  130000   0.64514746   -2.2835545   -2.2835545   -1.4815845  0.053889003   -2.2835545   0.80197004   426349 
  131000   0.64607785   -2.2849994   -2.2849994   -1.4818729  0.046804966   -2.2849994   0.80312658   426349 
  132000   0.64459438   -2.2838359   -2.2838359   -1.4825534  0.053429047   -2.2838359   0.80128251   426349 
  133000   0.64545363   -2.2849881   -2.2849881   -1.4826375  0.050201919   -2.2849881   0.80235063   426349 
  134000   0.64606994   -2.2863166   -2.2863166   -1.4831998  0.051686409   -2.2863166   0.80311675   426349 
  135000     0.646694   -2.2881983   -2.2881983   -1.4843058  0.052453605   -2.2881983   0.80389251   426349 
  136000   0.64705103   -2.2889076   -2.2889076   -1.4845712  0.058534161   -2.2889076   0.80433633   426349 
  137000   0.64669306   -2.2888436   -2.2888436   -1.4849523   0.06209532   -2.2888436   0.80389134   426349 
  138000    0.6455938   -2.2892228   -2.2892228    -1.486698   0.05483846   -2.2892228   0.80252488   426349 
  139000   0.64618372   -2.2906442   -2.2906442    -1.487386  0.050846103   -2.2906442   0.80325818   426349 
  140000   0.64542181   -2.2904159   -2.2904159   -1.4881048  0.049945915   -2.2904159   0.80231107   426349 
  141000   0.64566458   -2.2898745   -2.2898745   -1.4872617  0.051558791   -2.2898745   0.80261285   426349 
  142000   0.64649243   -2.2912252   -2.2912252   -1.4875833  0.051652426   -2.2912252   0.80364193   426349 
  143000   0.64449195     -2.28907     -2.28907   -1.4879148   0.05169987     -2.28907   0.80115518   426349 
  144000   0.64618141   -2.2919904   -2.2919904   -1.4887351  0.054841217   -2.2919904   0.80325531   426349 
  145000   0.64574727   -2.2912762   -2.2912762   -1.4885606   0.05953781   -2.2912762   0.80271564   426349 
  146000   0.64680297   -2.2938502   -2.2938502   -1.4898222  0.066359886   -2.2938502   0.80402796   426349 
  147000   0.64717506   -2.2938937   -2.2938937   -1.4894032  0.052168543   -2.2938937    0.8044905   426349 
  148000   0.64628738   -2.2937678   -2.2937678   -1.4903808  0.059467444   -2.2937678   0.80338705   426349 
  149000   0.64548899   -2.2935977   -2.2935977   -1.4912032  0.062039256   -2.2935977   0.80239459   426349 
  150000   0.64664355   -2.2954464   -2.2954464   -1.4916166  0.056578067   -2.2954464   0.80382979   426349 
  151000   0.64601919   -2.2941866   -2.2941866   -1.4911329  0.050535224   -2.2941866   0.80305366   426349 
  152000   0.64631924   -2.2952771   -2.2952771   -1.4918504  0.054822426   -2.2952771   0.80342665   426349 
  153000   0.64626794    -2.295558    -2.295558   -1.4921951  0.056772466    -2.295558   0.80336288   426349 
  154000   0.64658353   -2.2968468   -2.2968468   -1.4930916  0.057861151   -2.2968468   0.80375518   426349 
  155000   0.64577382   -2.2957074   -2.2957074   -1.4929588  0.058429485   -2.2957074   0.80274865   426349 
  156000   0.64510872   -2.2958527   -2.2958527   -1.4939309  0.068441469   -2.2958527   0.80192188   426349 
  157000   0.64522402   -2.2971079   -2.2971079   -1.4950427   0.05444351   -2.2971079    0.8020652   426349 
  158000   0.64616088   -2.2984441   -2.2984441   -1.4952143  0.060273313   -2.2984441    0.8032298   426349 
  159000   0.64603205   -2.2985202   -2.2985202   -1.4954506  0.051290436   -2.2985202   0.80306965   426349 
  160000   0.64503776   -2.2983467   -2.2983467    -1.496513  0.047107045   -2.2983467   0.80183367   426349 
  161000   0.64568518   -2.2992137   -2.2992137   -1.4965753  0.054884195   -2.2992137   0.80263847   426349 
  162000   0.64625828   -2.3004862   -2.3004862   -1.4971353  0.056916145   -2.3004862   0.80335087   426349 
  163000   0.64549808   -2.3000617   -2.3000617   -1.4976558  0.052600121   -2.3000617   0.80240589   426349 
  164000   0.64583861   -2.3001521   -2.3001521   -1.4973229  0.044634647   -2.3001521   0.80282919   426349 
  165000   0.64537523   -2.2998901   -2.2998901   -1.4976369  0.054899257   -2.2998901   0.80225317   426349 
  166000   0.64719418   -2.3023351   -2.3023351   -1.4978208  0.053388267   -2.3023351   0.80451427   426349 
  167000   0.64564438   -2.3006033   -2.3006033   -1.4980156  0.057164631   -2.3006033   0.80258775   426349 
  168000   0.64543109   -2.3009454   -2.3009454   -1.4986228  0.051009418   -2.3009454   0.80232261   426349 
  169000   0.64519337    -2.301001    -2.301001   -1.4989739  0.056490881    -2.301001    0.8020271   426349 
  170000    0.6436643   -2.2990555   -2.2990555   -1.4989292  0.057923138   -2.2990555   0.80012634   426349 
  171000   0.64379711     -2.29991     -2.29991   -1.4996186  0.050284492     -2.29991   0.80029144   426349 
  172000   0.64479066   -2.3013822   -2.3013822   -1.4998557  0.055693054   -2.3013822   0.80152651   426349 
  173000   0.64346166   -2.3000033   -2.3000033   -1.5001289  0.055222401   -2.3000033   0.79987444   426349 
  174000   0.64465746   -2.3017927   -2.3017927   -1.5004318  0.060135964   -2.3017927   0.80136092   426349 
  175000   0.64378486   -2.3005996   -2.3005996   -1.5003234  0.054471737   -2.3005996   0.80027622   426349 
  176000   0.64530227   -2.3032424   -2.3032424     -1.50108  0.056430497   -2.3032424   0.80216248   426349 
  177000   0.64312959   -2.3006416   -2.3006416   -1.5011799  0.053997588   -2.3006416   0.79946167   426349 
  178000    0.6436677   -2.3017798   -2.3017798   -1.5016493  0.053668663   -2.3017798   0.80013058   426349 
  179000   0.64280255   -2.3004996   -2.3004996   -1.5014445  0.057374964   -2.3004996   0.79905512   426349 
  180000   0.64289842   -2.3016191   -2.3016191   -1.5024448  0.053444577   -2.3016191    0.7991743   426349 
  181000    0.6433354   -2.3021444   -2.3021444   -1.5024269  0.049168144   -2.3021444    0.7997175   426349 
  182000   0.64424613   -2.3033007   -2.3033007   -1.5024511  0.063404646   -2.3033007    0.8008496   426349 
  183000   0.64309167   -2.3020117   -2.3020117   -1.5025972  0.048137755   -2.3020117   0.79941452   426349 
  184000   0.64494434   -2.3045886   -2.3045886    -1.502871  0.056330179   -2.3045886   0.80171754   426349 
  185000   0.64347153    -2.303623    -2.303623   -1.5037363  0.057232543    -2.303623   0.79988671   426349 
  186000   0.64346681   -2.3036216   -2.3036216   -1.5037408  0.060407772   -2.3036216   0.79988085   426349 
  187000   0.64397349   -2.3049173   -2.3049173   -1.5044066  0.058755206   -2.3049173    0.8005107   426349 
  188000   0.64281446   -2.3032213   -2.3032213   -1.5041513  0.048592424   -2.3032213   0.79906992   426349 
  189000   0.64479935   -2.3059296   -2.3059296   -1.5043923  0.061853515   -2.3059296    0.8015373   426349 
  190000   0.64260538   -2.3036055   -2.3036055   -1.5047955  0.062284187   -2.3036055   0.79881003   426349 
  191000   0.64295643    -2.304897    -2.304897   -1.5056506  0.054177775    -2.304897   0.79924641   426349 
  192000   0.64326642   -2.3053144   -2.3053144   -1.5056826  0.056614382   -2.3053144   0.79963175   426349 
  193000   0.64130427   -2.3039038   -2.3039038   -1.5067111  0.049628827   -2.3039038   0.79719264   426349 
  194000   0.64276293   -2.3051221   -2.3051221   -1.5061162  0.061194069   -2.3051221   0.79900588   426349 
  195000   0.64170553   -2.3056518   -2.3056518   -1.5079604  0.046989769   -2.3056518   0.79769144   426349 
  196000   0.64271276   -2.3060819   -2.3060819   -1.5071384  0.048070638   -2.3060819   0.79894351   426349 
  197000   0.64269253   -2.3062579   -2.3062579   -1.5073395  0.052184614   -2.3062579   0.79891836   426349 
  198000   0.64304521   -2.3072249   -2.3072249   -1.5078681  0.053080764   -2.3072249   0.79935677   426349 
  199000   0.64316726   -2.3075785   -2.3075785     -1.50807  0.050736189   -2.3075785   0.79950849   426349 
  200000   0.64210641   -2.3069274   -2.3069274   -1.5087376   0.05322116   -2.3069274   0.79818977   426349 
  201000   0.64249634   -2.3079084   -2.3079084   -1.5092339  0.059499446   -2.3079084   0.79867448   426349 
  202000   0.64240825   -2.3077438   -2.3077438   -1.5091789    0.0582768   -2.3077438   0.79856498   426349 
  203000   0.64148665   -2.3072713   -2.3072713   -1.5098519  0.056260942   -2.3072713   0.79741935   426349 
  204000   0.64122465   -2.3079985   -2.3079985   -1.5109049  0.056760624   -2.3079985   0.79709367   426349 
  205000   0.64104605   -2.3076238   -2.3076238   -1.5107521  0.039385332   -2.3076238   0.79687166   426349 
  206000   0.64190177   -2.3095859   -2.3095859   -1.5116505  0.049115148   -2.3095859   0.79793538   426349 
  207000   0.64221254   -2.3099663   -2.3099663   -1.5116446  0.050165159   -2.3099663   0.79832169   426349 
  208000   0.64161738   -2.3092456   -2.3092456   -1.5116638  0.055137427   -2.3092456   0.79758186   426349 
  209000    0.6427615   -2.3100148   -2.3100148   -1.5110107  0.062077147   -2.3100148   0.79900409   426349 
  210000   0.64315149   -2.3116425   -2.3116425   -1.5121536  0.052950009   -2.3116425   0.79948888   426349 
  211000   0.64231177   -2.3106568   -2.3106568   -1.5122118  0.058182773   -2.3106568   0.79844504   426349 
  212000   0.64312278   -2.3119229   -2.3119229   -1.5124697  0.053198429   -2.3119229   0.79945319   426349 
  213000   0.64197272   -2.3113667   -2.3113667   -1.5133431  0.055398176   -2.3113667   0.79802357   426349 
  214000   0.64219639   -2.3111227   -2.3111227   -1.5128211   0.06148045   -2.3111227   0.79830162   426349 
  215000   0.64255819   -2.3128483   -2.3128483    -1.514097  0.051036936   -2.3128483   0.79875137   426349 
  216000   0.64192797     -2.31284     -2.31284    -1.514872  0.053670621     -2.31284   0.79796795   426349 
  217000   0.64291925   -2.3136431   -2.3136431   -1.5144429  0.047184865   -2.3136431   0.79920019   426349 
  218000   0.64214513   -2.3128566   -2.3128566   -1.5146187  0.052949445   -2.3128566   0.79823789   426349 
  219000   0.64205164   -2.3123227   -2.3123227    -1.514201  0.056081842   -2.3123227   0.79812169   426349 
  220000   0.64106517   -2.3112772   -2.3112772   -1.5143818   0.04823186   -2.3112772   0.79689542   426349 
  221000   0.64111557   -2.3121944   -2.3121944   -1.5152363  0.065587389   -2.3121944   0.79695807   426349 
  222000   0.64026462   -2.3113036   -2.3113036   -1.5154034  0.047869131   -2.3113036   0.79590027   426349 
  223000   0.64153755   -2.3131404   -2.3131404   -1.5156578  0.052865835   -2.3131404   0.79748263   426349 
  224000   0.64149615   -2.3140828   -2.3140828   -1.5166516  0.052078621   -2.3140828   0.79743116   426349 
  225000   0.64140764   -2.3146994   -2.3146994   -1.5173783  0.054382544   -2.3146994   0.79732114   426349 
  226000   0.64078147   -2.3143122   -2.3143122   -1.5177694  0.052585159   -2.3143122   0.79654276   426349 
  227000   0.64262791   -2.3165723   -2.3165723   -1.5177343  0.052453757   -2.3165723   0.79883803   426349 
  228000   0.64239664    -2.316792    -2.316792   -1.5182414  0.050838255    -2.316792   0.79855055   426349 
  229000   0.64251915   -2.3161998   -2.3161998    -1.517497  0.053075104   -2.3161998   0.79870283   426349 
  230000   0.64271687   -2.3164737   -2.3164737   -1.5175251  0.052639779   -2.3164737   0.79894862   426349 
  231000   0.64165327   -2.3159219   -2.3159219   -1.5182955  0.050831044   -2.3159219   0.79762648   426349 
  232000   0.64061469   -2.3157558   -2.3157558   -1.5194203  0.059367829   -2.3157558   0.79633544   426349 
  233000   0.64171246   -2.3173273   -2.3173273   -1.5196273  0.048798253   -2.3173273   0.79770005   426349 
  234000   0.64179013    -2.318235    -2.318235   -1.5204384  0.050798164    -2.318235   0.79779661   426349 
  235000   0.64183552   -2.3176276   -2.3176276   -1.5197745  0.055281476   -2.3176276   0.79785303   426349 
  236000   0.64161573   -2.3174236   -2.3174236   -1.5198438  0.052741181   -2.3174236   0.79757981   426349 
  237000   0.64180252   -2.3180986   -2.3180986   -1.5202866  0.045506404   -2.3180986   0.79781201   426349 
  238000   0.64193897   -2.3174301   -2.3174301   -1.5194484  0.055570897   -2.3174301   0.79798163   426349 
  239000    0.6403827   -2.3161127   -2.3161127   -1.5200656  0.051347447   -2.3161127   0.79604705   426349 
  240000   0.64097831    -2.317474    -2.317474   -1.5206865  0.052055881    -2.317474   0.79678745   426349 
  241000   0.64359256   -2.3213834   -2.3213834   -1.5213462   0.05801475   -2.3213834   0.80003717   426349 
  242000   0.64159367   -2.3184036   -2.3184036   -1.5208512  0.051446069   -2.3184036   0.79755239   426349 
  243000   0.64182502   -2.3187134   -2.3187134   -1.5208734  0.055009424   -2.3187134   0.79783997   426349 
  244000      0.64195   -2.3193481   -2.3193481   -1.5213527  0.048612157   -2.3193481   0.79799534   426349 
  245000   0.64149789   -2.3190532   -2.3190532   -1.5216199   0.06077686   -2.3190532   0.79743333   426349 
  246000   0.64174687   -2.3195523   -2.3195523   -1.5218095   0.05696017   -2.3195523   0.79774283   426349 
  247000   0.64043679   -2.3188266   -2.3188266   -1.5227123  0.052490696   -2.3188266    0.7961143   426349 
  248000   0.64080119   -2.3195438   -2.3195438   -1.5229766  0.053822679   -2.3195438   0.79656727   426349 
  249000   0.63956887   -2.3187843   -2.3187843   -1.5237489  0.057704541   -2.3187843    0.7950354   426349 
  250000   0.64077548     -2.32077     -2.32077   -1.5242347  0.050938098     -2.32077   0.79653531   426349 
  251000   0.64054318   -2.3217764   -2.3217764   -1.5255298  0.045414749   -2.3217764   0.79624655   426349 
  252000   0.64058308   -2.3215902   -2.3215902   -1.5252941  0.059457821   -2.3215902   0.79629615   426349 
  253000    0.6406395   -2.3219538   -2.3219538   -1.5255875  0.051514144   -2.3219538   0.79636627   426349 
  254000   0.63929767   -2.3211007   -2.3211007   -1.5264024  0.054212369   -2.3211007   0.79469828   426349 
  255000   0.63999294    -2.321296    -2.321296   -1.5257334  0.048296749    -2.321296   0.79556255   426349 
  256000   0.64132917   -2.3237789   -2.3237789   -1.5265553  0.053136057   -2.3237789   0.79722359   426349 
  257000   0.64014817   -2.3214614   -2.3214614   -1.5257059  0.051507831   -2.3214614   0.79575552   426349 
  258000   0.63968408   -2.3217012   -2.3217012   -1.5265226  0.055913829   -2.3217012   0.79517862   426349 
  259000    0.6410723   -2.3239936   -2.3239936   -1.5270893  0.044667544   -2.3239936   0.79690428   426349 
  260000   0.64034726   -2.3233482   -2.3233482   -1.5273452  0.058992462   -2.3233482     0.796003   426349 
  261000   0.63941774    -2.322343    -2.322343   -1.5274955  0.053783312    -2.322343   0.79484753   426349 
  262000   0.64037314   -2.3235624   -2.3235624   -1.5275272  0.053086516   -2.3235624   0.79603517   426349 
  263000   0.63943958   -2.3225548   -2.3225548   -1.5276801  0.057103587   -2.3225548   0.79487468   426349 
  264000   0.63995961    -2.322763    -2.322763   -1.5272419  0.058266261    -2.322763   0.79552112   426349 
  265000   0.64043527   -2.3241233   -2.3241233   -1.5280109  0.059164261   -2.3241233    0.7961124   426349 
  266000    0.6391956   -2.3230121   -2.3230121   -1.5284407  0.052077654   -2.3230121    0.7945714   426349 
  267000   0.63945351   -2.3241106   -2.3241106   -1.5292186  0.049033287   -2.3241106     0.794892   426349 
  268000   0.63957561   -2.3245288   -2.3245288   -1.5294851  0.056914156   -2.3245288   0.79504378   426349 
  269000   0.64005187   -2.3264058   -2.3264058     -1.53077  0.043861258   -2.3264058   0.79563581   426349 
  270000   0.64089565   -2.3284359   -2.3284359   -1.5317512   0.05127433   -2.3284359   0.79668469   426349 
  271000    0.6409585    -2.328389    -2.328389   -1.5316262  0.046381193    -2.328389   0.79676282   426349 
  272000   0.64011398   -2.3282073   -2.3282073   -1.5324943  0.055462164   -2.3282073   0.79571302   426349 
  273000   0.64043556   -2.3281901   -2.3281901   -1.5320773   0.05438823   -2.3281901   0.79611276   426349 
  274000   0.64032093   -2.3289394   -2.3289394   -1.5329691  0.057656129   -2.3289394   0.79597027   426349 
  275000   0.63920035   -2.3281535   -2.3281535   -1.5335762  0.044608364   -2.3281535    0.7945773   426349 
  276000   0.63941615   -2.3284148   -2.3284148   -1.5335692  0.063548164   -2.3284148   0.79484555   426349 
  277000   0.63925333   -2.3281945   -2.3281945   -1.5335513  0.056144406   -2.3281945   0.79464316   426349 
  278000   0.63949223   -2.3289223   -2.3289223   -1.5339822  0.056915508   -2.3289223   0.79494013   426349 
  279000   0.63939036   -2.3280748   -2.3280748   -1.5332613  0.058266066   -2.3280748    0.7948135   426349 
  280000    0.6392686   -2.3287959   -2.3287959   -1.5341338  0.054411219   -2.3287959   0.79466214   426349 
  281000   0.63990278   -2.3298046   -2.3298046   -1.5343541   0.05026958   -2.3298046   0.79545047   426349 
  282000   0.63879765   -2.3288874   -2.3288874   -1.5348107  0.055940008   -2.3288874   0.79407671   426349 
  283000   0.63955937    -2.329798    -2.329798   -1.5347744  0.054605071    -2.329798   0.79502359   426349 
  284000   0.63934707   -2.3299825   -2.3299825   -1.5352228  0.052392694   -2.3299825   0.79475969   426349 
  285000   0.63860953   -2.3295855   -2.3295855   -1.5357426  0.051535403   -2.3295855   0.79384286   426349 
  286000   0.63867538   -2.3303136   -2.3303136   -1.5363889  0.049067029   -2.3303136   0.79392471   426349 
  287000   0.63894608   -2.3304668   -2.3304668   -1.5362055  0.060030787   -2.3304668   0.79426122   426349 
  288000   0.63902987   -2.3302841   -2.3302841   -1.5359188  0.055014846   -2.3302841   0.79436538   426349 
  289000   0.63959883   -2.3313359   -2.3313359   -1.5362633  0.046186126   -2.3313359   0.79507264   426349 
  290000   0.63850469   -2.3301401   -2.3301401   -1.5364276   0.05807546   -2.3301401   0.79371254   426349 
  291000   0.63914755   -2.3304739   -2.3304739   -1.5359622  0.046954795   -2.3304739   0.79451166   426349 
  292000   0.64051432   -2.3317516   -2.3317516    -1.535541   0.05229457   -2.3317516   0.79621067   426349 
  293000   0.64025698   -2.3315526   -2.3315526   -1.5356618  0.059703954   -2.3315526   0.79589077   426349 
  294000   0.63922742   -2.3309062   -2.3309062   -1.5362952  0.057238964   -2.3309062   0.79461095   426349 
  295000   0.64028724   -2.3325657   -2.3325657   -1.5366373  0.058789593   -2.3325657   0.79592839   426349 
  296000   0.63876068    -2.330643    -2.330643   -1.5366123  0.062553596    -2.330643   0.79403076   426349 
  297000   0.63863279   -2.3312674   -2.3312674   -1.5373956   0.06204984   -2.3312674   0.79387178   426349 
  298000   0.63840313   -2.3299412   -2.3299412   -1.5363549  0.052949604   -2.3299412    0.7935863   426349 
  299000   0.63772818   -2.3299676   -2.3299676   -1.5372203  0.054994823   -2.3299676   0.79274727   426349 
  300000   0.63908303   -2.3318464   -2.3318464    -1.537415  0.054782094   -2.3318464   0.79443146   426349 
  301000    0.6399273   -2.3334598   -2.3334598   -1.5379789  0.055524629   -2.3334598   0.79548095   426349 
  302000   0.63807204   -2.3321281   -2.3321281   -1.5389534  0.050583733   -2.3321281   0.79317472   426349 
  303000   0.63816084   -2.3320279   -2.3320279   -1.5387428  0.055013672   -2.3320279   0.79328511   426349 
  304000   0.63939825    -2.334091    -2.334091   -1.5392677  0.055386502    -2.334091    0.7948233   426349 
  305000   0.63904985   -2.3348531   -2.3348531   -1.5404629  0.046471862   -2.3348531   0.79439021   426349 
  306000    0.6395136    -2.335236    -2.335236   -1.5402693   0.04578478    -2.335236   0.79496669   426349 
  307000   0.63777943   -2.3339828   -2.3339828   -1.5411718  0.053583148   -2.3339828   0.79281098   426349 
  308000   0.63949626   -2.3357514   -2.3357514   -1.5408063   0.05684356   -2.3357514   0.79494514   426349 
  309000   0.63855381   -2.3353255   -2.3353255   -1.5415519  0.053241746   -2.3353255    0.7937736   426349 
  310000   0.63831433   -2.3358155   -2.3358155   -1.5423396  0.051907992   -2.3358155    0.7934759   426349 
  311000   0.63820245   -2.3358936   -2.3358936   -1.5425568  0.049387663   -2.3358936   0.79333683   426349 
  312000   0.63855397   -2.3372793   -2.3372793   -1.5435055  0.045198764   -2.3372793    0.7937738   426349 
  313000   0.63846848   -2.3364626   -2.3364626   -1.5427951  0.058666616   -2.3364626   0.79366753   426349 
  314000   0.63835104   -2.3367231   -2.3367231   -1.5432016  0.041072357   -2.3367231   0.79352154   426349 
  315000   0.63925177   -2.3378334   -2.3378334   -1.5431922  0.050362853   -2.3378334   0.79464122   426349 
  316000   0.63791637   -2.3358029   -2.3358029   -1.5428217  0.061690568   -2.3358029   0.79298121   426349 
  317000   0.63870565   -2.3372917   -2.3372917   -1.5433294  0.049215111   -2.3372917   0.79396235   426349 
  318000   0.63807619   -2.3370964   -2.3370964   -1.5439165    0.0559953   -2.3370964   0.79317988   426349 
  319000   0.63818538   -2.3369984   -2.3369984   -1.5436828   0.05288159   -2.3369984   0.79331561   426349 
  320000   0.63877735   -2.3380017   -2.3380017   -1.5439502   0.05681021   -2.3380017   0.79405148   426349 
  321000    0.6374134    -2.336689    -2.336689   -1.5443331  0.048360334    -2.336689   0.79235597   426349 
  322000    0.6379659   -2.3365037   -2.3365037   -1.5434609  0.059745353   -2.3365037   0.79304278   426349 
  323000   0.63705897   -2.3357706   -2.3357706   -1.5438552  0.044288556   -2.3357706    0.7919154   426349 
  324000   0.63722058   -2.3367576   -2.3367576   -1.5446413  0.052266767   -2.3367576   0.79211629   426349 
  325000   0.63808597   -2.3372073   -2.3372073   -1.5440153  0.048909122   -2.3372073   0.79319203   426349 
  326000   0.63612771   -2.3348296   -2.3348296   -1.5440718  0.053700574   -2.3348296   0.79075776   426349 
  327000   0.63762613   -2.3379509   -2.3379509   -1.5453305  0.048137308   -2.3379509   0.79262042   426349 
  328000   0.63691382   -2.3371042   -2.3371042   -1.5453692  0.059699325   -2.3371042   0.79173496   426349 
  329000   0.63921187    -2.340154    -2.340154   -1.5455624  0.057122659    -2.340154   0.79459161   426349 
  330000   0.63774863   -2.3389498   -2.3389498   -1.5461771  0.050043147   -2.3389498   0.79277269   426349 
  331000   0.63726457   -2.3385703   -2.3385703   -1.5463993  0.053411106   -2.3385703   0.79217097   426349 
  332000   0.63741727   -2.3390449   -2.3390449   -1.5466841   0.05640562   -2.3390449   0.79236078   426349 
  333000   0.63737972   -2.3387868   -2.3387868   -1.5464727  0.043718779   -2.3387868   0.79231411   426349 
  334000   0.63713475   -2.3389324   -2.3389324   -1.5469228  0.046373292   -2.3389324   0.79200959   426349 
  335000   0.63746622   -2.3400763   -2.3400763   -1.5476547  0.049597662   -2.3400763   0.79242163   426349 
  336000   0.63763871   -2.3400887   -2.3400887   -1.5474527  0.050845847   -2.3400887   0.79263605   426349 
  337000   0.63786097   -2.3409574   -2.3409574    -1.548045   0.05605889   -2.3409574   0.79291234   426349 
  338000   0.63788924    -2.342195    -2.342195   -1.5492476   0.05352245    -2.342195   0.79294748   426349 
  339000   0.63820348   -2.3417544   -2.3417544   -1.5484163  0.055186779   -2.3417544   0.79333811   426349 
  340000   0.63620175   -2.3397458   -2.3397458    -1.548896  0.054008777   -2.3397458    0.7908498   426349 
  341000   0.63740047   -2.3417047   -2.3417047   -1.5493648   0.05349795   -2.3417047   0.79233991   426349 
  342000   0.63703874   -2.3414553   -2.3414553   -1.5495651  0.056497466   -2.3414553   0.79189025   426349 
  343000   0.63694386   -2.3415024   -2.3415024   -1.5497301  0.046310446   -2.3415024    0.7917723   426349 
  344000   0.63689664   -2.3410954   -2.3410954   -1.5493818  0.049984913   -2.3410954    0.7917136   426349 
  345000   0.63721616   -2.3414514   -2.3414514   -1.5493406  0.056625025   -2.3414514   0.79211079   426349 
  346000   0.63739201   -2.3418634   -2.3418634   -1.5495341  0.057100922   -2.3418634   0.79232939   426349 
  347000    0.6374099    -2.342507    -2.342507   -1.5501554  0.049955061    -2.342507   0.79235163   426349 
  348000   0.63626122   -2.3415257   -2.3415257    -1.550602  0.052524673   -2.3415257   0.79092373   426349 
  349000   0.63703096   -2.3423022   -2.3423022   -1.5504217  0.055564407   -2.3423022   0.79188057   426349 
  350000   0.63750464   -2.3427183   -2.3427183   -1.5502489  0.045697678   -2.3427183    0.7924694   426349 
  351000   0.63643236     -2.34167     -2.34167   -1.5505336  0.045870083     -2.34167   0.79113646   426349 
  352000   0.63754728    -2.343179    -2.343179   -1.5506566  0.040328155    -2.343179   0.79252241   426349 
  353000   0.63748983   -2.3434954   -2.3434954   -1.5510444  0.058628411   -2.3434954   0.79245098   426349 
  354000   0.63744884   -2.3432689   -2.3432689   -1.5508688  0.052823764   -2.3432689   0.79240003   426349 
  355000   0.63708447   -2.3436036   -2.3436036   -1.5516565  0.052445223   -2.3436036   0.79194709   426349 
  356000   0.63719944   -2.3439526   -2.3439526   -1.5518626  0.049460417   -2.3439526   0.79209001   426349 
  357000   0.63593977   -2.3431148   -2.3431148   -1.5525907  0.047539388   -2.3431148   0.79052413   426349 
  358000    0.6365296   -2.3445956   -2.3445956   -1.5533383  0.060622279   -2.3445956   0.79125734   426349 
  359000   0.63654389   -2.3441666   -2.3441666   -1.5528915  0.052849828   -2.3441666    0.7912751   426349 
  360000   0.63619524   -2.3440944   -2.3440944   -1.5532527  0.051177058   -2.3440944   0.79084171   426349 
  361000   0.63741475   -2.3450599   -2.3450599   -1.5527022  0.058230394   -2.3450599   0.79235765   426349 
  362000   0.63622764   -2.3438056   -2.3438056   -1.5529236  0.048971116   -2.3438056   0.79088198   426349 
  363000   0.63641681    -2.344217    -2.344217   -1.5530999   0.04954539    -2.344217   0.79111713   426349 
  364000   0.63732271   -2.3456926   -2.3456926   -1.5534494  0.051998331   -2.3456926   0.79224324   426349 
  365000   0.63665837   -2.3449816   -2.3449816   -1.5535642  0.047540763   -2.3449816   0.79141741   426349 
  366000   0.63705513    -2.346054    -2.346054   -1.5541433  0.053028552    -2.346054   0.79191062   426349 
  367000   0.63575255   -2.3444829   -2.3444829   -1.5541915  0.054582849   -2.3444829    0.7902914   426349 
  368000   0.63622555   -2.3449609   -2.3449609   -1.5540815  0.049350168   -2.3449609   0.79087938   426349 
  369000   0.63666982   -2.3457082   -2.3457082   -1.5542766  0.049230333   -2.3457082   0.79143164   426349 
  370000   0.63510183   -2.3449459   -2.3449459   -1.5554634  0.053968896   -2.3449459   0.78948251   426349 
  371000   0.63566568   -2.3461709   -2.3461709   -1.5559875  0.054803988   -2.3461709   0.79018342   426349 
  372000   0.63588648   -2.3471654   -2.3471654   -1.5567075  0.054079865   -2.3471654    0.7904579   426349 
  373000   0.63577782   -2.3480304   -2.3480304   -1.5577076  0.052278542   -2.3480304   0.79032282   426349 
  374000   0.63596524   -2.3484278   -2.3484278    -1.557872  0.045266197   -2.3484278    0.7905558   426349 
  375000   0.63578301   -2.3471905   -2.3471905   -1.5568612  0.050341169   -2.3471905   0.79032927   426349 
  376000   0.63603051   -2.3479106   -2.3479106   -1.5572736  0.051850177   -2.3479106   0.79063693   426349 
  377000   0.63771619   -2.3502704   -2.3502704   -1.5575381  0.057752968   -2.3502704   0.79273237   426349 
  378000   0.63595368   -2.3485133   -2.3485133   -1.5579719  0.052288224   -2.3485133   0.79054143   426349 
  379000   0.63603105   -2.3497984   -2.3497984   -1.5591608  0.053678525   -2.3497984    0.7906376   426349 
  380000   0.63529903   -2.3488508   -2.3488508   -1.5591232  0.051623824   -2.3488508   0.78972764   426349 
  381000   0.63661533   -2.3507823   -2.3507823   -1.5594183  0.051329689   -2.3507823   0.79136392   426349 
  382000   0.63523169   -2.3492512   -2.3492512   -1.5596073  0.049565074   -2.3492512   0.78964394   426349 
  383000    0.6360686   -2.3508391   -2.3508391   -1.5601548  0.052238965   -2.3508391   0.79068428   426349 
  384000   0.63489247   -2.3494937   -2.3494937   -1.5602714  0.050954408   -2.3494937   0.78922226   426349 
  385000   0.63608418    -2.350749    -2.350749   -1.5600454  0.058176015    -2.350749   0.79070365   426349 
  386000    0.6366495   -2.3519989   -2.3519989   -1.5605925  0.054036823   -2.3519989   0.79140639   426349 
  387000   0.63563193   -2.3514507   -2.3514507   -1.5613092  0.062004853   -2.3514507   0.79014146   426349 
  388000   0.63660919   -2.3529132   -2.3529132   -1.5615569  0.052011645   -2.3529132   0.79135628   426349 
  389000    0.6363972   -2.3531816   -2.3531816   -1.5620888  0.049530808   -2.3531816   0.79109276   426349 
  390000   0.63672475   -2.3526852   -2.3526852   -1.5611853   0.04969251   -2.3526852   0.79149993   426349 
  391000   0.63731923   -2.3540787   -2.3540787   -1.5618398  0.051116113   -2.3540787   0.79223892   426349 
  392000   0.63685634   -2.3536497   -2.3536497   -1.5619862  0.054447781   -2.3536497    0.7916635   426349 
  393000   0.63675675   -2.3528602   -2.3528602   -1.5613204  0.058195427   -2.3528602   0.79153971   426349 
  394000   0.63629295   -2.3520832   -2.3520832   -1.5611201  0.050056515   -2.3520832   0.79096317   426349 
  395000   0.63619645   -2.3531363   -2.3531363   -1.5622931    0.0509778   -2.3531363   0.79084321   426349 
  396000   0.63703178   -2.3539456   -2.3539456    -1.562064  0.057642823   -2.3539456   0.79188159   426349 
  397000   0.63499891   -2.3525952   -2.3525952   -1.5632407  0.051917482   -2.3525952   0.78935457   426349 
  398000   0.63461343   -2.3526334   -2.3526334    -1.563758  0.046155747   -2.3526334   0.78887539   426349 
  399000   0.63572302   -2.3532636   -2.3532636   -1.5630089  0.055193341   -2.3532636    0.7902547   426349 
  400000   0.63557084   -2.3539102   -2.3539102   -1.5638447  0.059117261   -2.3539102   0.79006552   426349 
  401000   0.63417222   -2.3524999   -2.3524999    -1.564173  0.054573566   -2.3524999   0.78832693   426349 
  402000   0.63482952   -2.3531812   -2.3531812   -1.5640372  0.054639486   -2.3531812   0.78914401   426349 
  403000   0.63588103   -2.3545493   -2.3545493   -1.5640981  0.056444634   -2.3545493   0.79045111   426349 
  404000   0.63564717   -2.3542106   -2.3542106   -1.5640502  0.050891282   -2.3542106   0.79016041   426349 
  405000   0.63585909   -2.3545331   -2.3545331   -1.5641092   0.05072843   -2.3545331   0.79042385   426349 
  406000   0.63645504   -2.3551769   -2.3551769   -1.5640123  0.056127977   -2.3551769   0.79116466   426349 
  407000   0.63632512   -2.3553383   -2.3553383   -1.5643351  0.053328443   -2.3553383   0.79100316   426349 
  408000   0.63533278   -2.3544375   -2.3544375    -1.564668  0.060183584   -2.3544375   0.78976959   426349 
  409000   0.63538506   -2.3541546   -2.3541546     -1.56432    0.0488997   -2.3541546   0.78983458   426349 
  410000   0.63494455   -2.3536421   -2.3536421   -1.5643551    0.0564791   -2.3536421     0.789287   426349 
  411000     0.635762   -2.3540589   -2.3540589   -1.5637558  0.052974357   -2.3540589   0.79030315   426349 
  412000   0.63531679   -2.3533026   -2.3533026   -1.5635529  0.052586612   -2.3533026   0.78974972   426349 
  413000   0.63645797   -2.3556202   -2.3556202   -1.5644518  0.053861415   -2.3556202    0.7911683   426349 
  414000   0.63501919   -2.3535428   -2.3535428    -1.564163   0.05093305   -2.3535428   0.78937978   426349 
  415000   0.63519983   -2.3541053   -2.3541053    -1.564501  0.050259836   -2.3541053   0.78960433   426349 
  416000   0.63452802   -2.3536109   -2.3536109   -1.5648417  0.049580124   -2.3536109   0.78876922   426349 
  417000   0.63430724   -2.3542695   -2.3542695   -1.5657748  0.053917299   -2.3542695   0.78849477   426349 
  418000   0.63534484   -2.3550744   -2.3550744   -1.5652898  0.050145687   -2.3550744   0.78978459   426349 
  419000   0.63479276   -2.3545144   -2.3545144   -1.5654161  0.050753396   -2.3545144   0.78909832   426349 
  420000   0.63260186   -2.3533774   -2.3533774   -1.5670026  0.054875502   -2.3533774   0.78637484   426349 
  421000   0.63440033   -2.3559366   -2.3559366   -1.5673261  0.048739971   -2.3559366   0.78861049   426349 
  422000   0.63484057   -2.3563511   -2.3563511   -1.5671934   0.04829457   -2.3563511   0.78915774   426349 
  423000   0.63509152   -2.3568506   -2.3568506   -1.5673809  0.050000794   -2.3568506   0.78946969   426349 
  424000   0.63445919    -2.356904    -2.356904   -1.5682204  0.044956742    -2.356904   0.78868366   426349 
  425000   0.63470033   -2.3579997   -2.3579997   -1.5690162   0.05456515   -2.3579997   0.78898342   426349 
  426000   0.63459045   -2.3574706   -2.3574706   -1.5686238  0.051224286   -2.3574706   0.78884682   426349 
  427000   0.63449055   -2.3576459   -2.3576459   -1.5689232  0.055862001   -2.3576459   0.78872264   426349 
  428000   0.63395921   -2.3570268   -2.3570268   -1.5689647  0.046922915   -2.3570268   0.78806214   426349 
  429000    0.6343632   -2.3575274   -2.3575274   -1.5689631  0.045817625   -2.3575274   0.78856433   426349 
  430000   0.63374721   -2.3581126   -2.3581126    -1.570314  0.046323421   -2.3581126    0.7877986   426349 
  431000   0.63517523   -2.3592865   -2.3592865   -1.5697127  0.052079993   -2.3592865   0.78957376   426349 
  432000   0.63472109     -2.36007     -2.36007   -1.5710608   0.04221182     -2.36007   0.78900921   426349 
  433000   0.63549326   -2.3609084   -2.3609084   -1.5709393  0.050875253   -2.3609084   0.78996909   426349 
  434000   0.63408353   -2.3592397   -2.3592397    -1.571023  0.055561513   -2.3592397   0.78821668   426349 
  435000   0.63488834   -2.3609387   -2.3609387   -1.5717216   0.05555779   -2.3609387   0.78921713   426349 
  436000   0.63477073    -2.361599    -2.361599    -1.572528  0.050729287    -2.361599   0.78907093   426349 
  437000   0.63453507   -2.3610497   -2.3610497   -1.5722717  0.049276623   -2.3610497   0.78877798   426349 
  438000   0.63520655   -2.3621903   -2.3621903   -1.5725776  0.057398201   -2.3621903   0.78961269   426349 
  439000   0.63402206   -2.3611239   -2.3611239   -1.5729836  0.047575472   -2.3611239   0.78814027   426349 
  440000   0.63541948   -2.3629948   -2.3629948   -1.5731175  0.050729128   -2.3629948   0.78987738   426349 
  441000   0.63630615   -2.3641002   -2.3641002   -1.5731206   0.06029293   -2.3641002   0.79097958   426349 
  442000   0.63643524   -2.3642255   -2.3642255   -1.5730854  0.053414419   -2.3642255   0.79114005   426349 
  443000   0.63557205   -2.3641936   -2.3641936   -1.5741266  0.053084825   -2.3641936   0.79006703   426349 
  444000   0.63576872   -2.3641397   -2.3641397   -1.5738282  0.056538349   -2.3641397    0.7903115   426349 
  445000   0.63606885   -2.3652822   -2.3652822   -1.5745976  0.048984214   -2.3652822    0.7906846   426349 
  446000   0.63566069   -2.3644667   -2.3644667   -1.5742895  0.048082161   -2.3644667   0.79017722   426349 
  447000   0.63470679   -2.3637892   -2.3637892   -1.5747978  0.057385718   -2.3637892   0.78899144   426349 
  448000   0.63604774   -2.3657907   -2.3657907   -1.5751324  0.051078871   -2.3657907   0.79065835   426349 
  449000   0.63537838    -2.364857    -2.364857   -1.5750307  0.050490129    -2.364857   0.78982628   426349 
  450000   0.63535208   -2.3650619   -2.3650619   -1.5752683  0.048320029   -2.3650619   0.78979359   426349 
  451000   0.63439124   -2.3646725   -2.3646725   -1.5760733   0.05532617   -2.3646725   0.78859919   426349 
  452000   0.63424626   -2.3649416   -2.3649416   -1.5765227  0.049531103   -2.3649416   0.78841897   426349 
  453000   0.63500526    -2.365578    -2.365578   -1.5762155  0.053904034    -2.365578   0.78936246   426349 
  454000    0.6352968   -2.3656047   -2.3656047   -1.5758798  0.051381018   -2.3656047   0.78972488   426349 
  455000   0.63394098   -2.3643364   -2.3643364   -1.5762969  0.050530078   -2.3643364   0.78803948   426349 
  456000   0.63563922   -2.3668562   -2.3668562   -1.5767057   0.04889053   -2.3668562   0.79015053   426349 
  457000   0.63485498   -2.3648355   -2.3648355   -1.5756598  0.046888419   -2.3648355   0.78917566   426349 
  458000   0.63422458   -2.3646238   -2.3646238   -1.5762318   0.05251913   -2.3646238   0.78839202   426349 
  459000   0.63551729   -2.3667485   -2.3667485   -1.5767495  0.051204085   -2.3667485   0.78999896   426349 
  460000   0.63467064   -2.3653097   -2.3653097   -1.5763632  0.058664096   -2.3653097   0.78894651   426349 
  461000   0.63339199    -2.364009    -2.364009    -1.576652   0.04684521    -2.364009   0.78735704   426349 
  462000   0.63310545   -2.3635527   -2.3635527   -1.5765519  0.046467007   -2.3635527   0.78700085   426349 
  463000    0.6336007    -2.364355    -2.364355   -1.5767385  0.052124681    -2.364355   0.78761649   426349 
  464000   0.63479847   -2.3662026   -2.3662026   -1.5770972  0.049357306   -2.3662026   0.78910541   426349 
  465000   0.63389092   -2.3650362   -2.3650362   -1.5770589  0.037873894   -2.3650362   0.78797725   426349 
  466000   0.63375027   -2.3644248   -2.3644248   -1.5766224  0.052597738   -2.3644248   0.78780242   426349 
  467000   0.63417473   -2.3649465   -2.3649465   -1.5766165  0.051231004   -2.3649465   0.78833005   426349 
  468000   0.63458612   -2.3657976   -2.3657976   -1.5769561  0.043898039   -2.3657976   0.78884143   426349 
  469000   0.63431134   -2.3658553   -2.3658553   -1.5773554  0.045278702   -2.3658553   0.78849987   426349 
  470000   0.63312326   -2.3643398   -2.3643398   -1.5773168  0.047530005   -2.3643398   0.78702299   426349 
  471000   0.63239846   -2.3642031   -2.3642031   -1.5780811  0.051023427   -2.3642031     0.786122   426349 
  472000   0.63422699   -2.3667771   -2.3667771   -1.5783821  0.051264729   -2.3667771   0.78839501   426349 
  473000   0.63458754   -2.3675877   -2.3675877   -1.5787445  0.046732433   -2.3675877   0.78884321   426349 
  474000   0.63340108   -2.3666272   -2.3666272   -1.5792589  0.045044172   -2.3666272   0.78736834   426349 
  475000   0.63320558   -2.3674817   -2.3674817   -1.5803563  0.049401353   -2.3674817   0.78712531   426349 
  476000   0.63408807   -2.3691309   -2.3691309   -1.5809086  0.053722481   -2.3691309   0.78822232   426349 
  477000   0.63338465   -2.3689052   -2.3689052   -1.5815573  0.053670077   -2.3689052   0.78734792   426349 
  478000   0.63445895    -2.370857    -2.370857   -1.5821737  0.048460997    -2.370857   0.78868336   426349 
  479000    0.6335775   -2.3693768   -2.3693768   -1.5817891  0.051847911   -2.3693768   0.78758765   426349 
  480000   0.63424353   -2.3707329   -2.3707329   -1.5823173   0.05251761   -2.3707329   0.78841557   426349 
  481000   0.63426771   -2.3713442   -2.3713442   -1.5828985  0.043671577   -2.3713442   0.78844563   426349 
  482000   0.63352079   -2.3703086   -2.3703086   -1.5827915  0.048637189   -2.3703086   0.78751715   426349 
  483000   0.63457548   -2.3713825   -2.3713825   -1.5825543  0.054114859   -2.3713825   0.78882821   426349 
  484000   0.63317165   -2.3698878   -2.3698878   -1.5828046  0.056455202   -2.3698878   0.78708315   426349 
  485000   0.63319079   -2.3703839   -2.3703839    -1.583277  0.056375009   -2.3703839   0.78710693   426349 
  486000   0.63385618   -2.3713015   -2.3713015   -1.5833674  0.051226964   -2.3713015   0.78793406   426349 
  487000   0.63367448    -2.371514    -2.371514   -1.5838058  0.047308537    -2.371514    0.7877082   426349 
  488000   0.63303811    -2.371491    -2.371491   -1.5845738  0.045160021    -2.371491   0.78691713   426349 
  489000   0.63310433   -2.3716493   -2.3716493   -1.5846499  0.057074189   -2.3716493   0.78699945   426349 
  490000   0.63357838    -2.372789    -2.372789   -1.5852003  0.051630347    -2.372789   0.78758873   426349 
  491000   0.63334744   -2.3727009   -2.3727009   -1.5853993  0.044352019   -2.3727009   0.78730167   426349 
  492000   0.63270105    -2.371865    -2.371865   -1.5853669  0.056476223    -2.371865   0.78649815   426349 
  493000    0.6317144   -2.3708145   -2.3708145   -1.5855429  0.059227647   -2.3708145   0.78527167   426349 
  494000   0.63264364   -2.3726198   -2.3726198    -1.586193  0.053505454   -2.3726198   0.78642678   426349 
  495000   0.63290987   -2.3729732   -2.3729732   -1.5862155  0.051073668   -2.3729732   0.78675773   426349 
  496000   0.63337975   -2.3734614   -2.3734614   -1.5861196  0.054602119   -2.3734614   0.78734183   426349 
  497000   0.63419834   -2.3755616   -2.3755616   -1.5872022  0.047305709   -2.3755616   0.78835941   426349 
  498000   0.63277836   -2.3738538   -2.3738538   -1.5872596  0.060248067   -2.3738538   0.78659425   426349 
  499000   0.63263459   -2.3748958   -2.3748958   -1.5884802  0.059536105   -2.3748958   0.78641554   426349 
  500000   0.63273834   -2.3748931   -2.3748931   -1.5883486  0.057047898   -2.3748931    0.7865445   426349 
  501000   0.63456171   -2.3771318   -2.3771318   -1.5883207  0.055120014   -2.3771318   0.78881109   426349 
  502000   0.63429194   -2.3767783   -2.3767783   -1.5883026  0.051731381   -2.3767783   0.78847575   426349 
  503000   0.63461497   -2.3776313   -2.3776313    -1.588754  0.045693896   -2.3776313   0.78887731   426349 
  504000   0.63282995   -2.3747635   -2.3747635   -1.5881051  0.050229977   -2.3747635   0.78665837   426349 
  505000   0.63365915    -2.376485    -2.376485   -1.5887958  0.059034302    -2.376485   0.78768915   426349 
  506000   0.63294052   -2.3758455   -2.3758455   -1.5890497  0.052680398   -2.3758455   0.78679583   426349 
  507000   0.63171624   -2.3748423   -2.3748423   -1.5895683  0.056239962   -2.3748423   0.78527395   426349 
  508000   0.63220209   -2.3758034   -2.3758034   -1.5899255  0.050954302   -2.3758034    0.7858779   426349 
  509000    0.6334584   -2.3768321   -2.3768321   -1.5893925  0.052610561   -2.3768321    0.7874396   426349 
  510000   0.63320718   -2.3761457   -2.3761457   -1.5890184  0.053882948   -2.3761457    0.7871273   426349 
  511000   0.63382187   -2.3771941   -2.3771941   -1.5893027   0.05510325   -2.3771941   0.78789142   426349 
  512000   0.63399653   -2.3765663   -2.3765663   -1.5884578  0.057177625   -2.3765663   0.78810853   426349 
  513000   0.63369698   -2.3764124   -2.3764124   -1.5886762  0.051685646   -2.3764124   0.78773617   426349 
  514000   0.63333291   -2.3762694   -2.3762694   -1.5889858  0.060812846   -2.3762694    0.7872836   426349 
  515000   0.63215916   -2.3756211   -2.3756211   -1.5897965  0.057156006   -2.3756211   0.78582454   426349 
  516000   0.63197082   -2.3762527   -2.3762527   -1.5906623  0.056407108   -2.3762527   0.78559042   426349 
  517000   0.63232322   -2.3765567   -2.3765567   -1.5905283  0.043452783   -2.3765567   0.78602847   426349 
  518000   0.63073224   -2.3750735   -2.3750735   -1.5910228  0.050822878   -2.3750735   0.78405075   426349 
  519000   0.63139928   -2.3755556   -2.3755556   -1.5906756  0.055657786   -2.3755556   0.78487994   426349 
  520000   0.63139624   -2.3757188   -2.3757188   -1.5908427  0.042172337   -2.3757188   0.78487616   426349 
  521000   0.63280898   -2.3781784   -2.3781784   -1.5915461  0.043827227   -2.3781784   0.78663232   426349 
  522000   0.63222716   -2.3772257   -2.3772257   -1.5913166  0.046276318   -2.3772257   0.78590907   426349 
  523000   0.63379786   -2.3800381   -2.3800381   -1.5921766  0.053955497   -2.3800381   0.78786158   426349 
  524000    0.6336389   -2.3794534   -2.3794534   -1.5917894  0.053139073   -2.3794534   0.78766397   426349 
  525000   0.63317294   -2.3796268   -2.3796268   -1.5925421  0.048899145   -2.3796268   0.78708474   426349 
  526000   0.63157829   -2.3773772   -2.3773772   -1.5922748  0.053260718   -2.3773772   0.78510247   426349 
  527000   0.63264854   -2.3791249   -2.3791249    -1.592692  0.062675103   -2.3791249   0.78643287   426349 
  528000   0.63267132   -2.3794948   -2.3794948   -1.5930336  0.056247888   -2.3794948   0.78646119   426349 
  529000   0.63233956   -2.3786312   -2.3786312   -1.5925824   0.05162765   -2.3786312   0.78604879   426349 
  530000   0.63289935   -2.3800657   -2.3800657    -1.593321  0.047030482   -2.3800657   0.78674465   426349 
  531000   0.63306389   -2.3808265   -2.3808265   -1.5938774  0.050627561   -2.3808265   0.78694918   426349 
  532000   0.63198615    -2.379015    -2.379015   -1.5934055  0.050075213    -2.379015   0.78560947   426349 
  533000   0.63110918    -2.377565    -2.377565   -1.5930457  0.050013226    -2.377565   0.78451932   426349 
  534000   0.63264196   -2.3801712   -2.3801712   -1.5937465  0.050113773   -2.3801712   0.78642469   426349 
  535000   0.63260095   -2.3806545   -2.3806545   -1.5942808  0.057622882   -2.3806545   0.78637372   426349 
  536000   0.63232766    -2.380238    -2.380238    -1.594204  0.044419768    -2.380238   0.78603399   426349 
  537000   0.63208742     -2.37996     -2.37996   -1.5942246  0.059349196     -2.37996   0.78573535   426349 
  538000   0.63326331   -2.3823962   -2.3823962   -1.5951992   0.04557248   -2.3823962   0.78719708   426349 
  539000   0.63217639   -2.3809082   -2.3809082   -1.5950622  0.052163751   -2.3809082   0.78584595   426349 
  540000   0.63241163   -2.3810935   -2.3810935   -1.5949551  0.042237589   -2.3810935   0.78613838   426349 
  541000   0.63277888   -2.3814724   -2.3814724   -1.5948775  0.042482418   -2.3814724    0.7865949   426349 
  542000    0.6327016   -2.3813201   -2.3813201   -1.5948213  0.058534364   -2.3813201   0.78649883   426349 
  543000   0.63149637   -2.3807019   -2.3807019   -1.5957013  0.054614041   -2.3807019   0.78500063   426349 
  544000   0.63201183   -2.3811487   -2.3811487   -1.5955073  0.051213328   -2.3811487    0.7856414   426349 
  545000   0.63325425   -2.3823253   -2.3823253   -1.5951394  0.056143278   -2.3823253   0.78718582   426349 
  546000   0.63247443   -2.3818127   -2.3818127   -1.5955963  0.053133733   -2.3818127   0.78621644   426349 
  547000    0.6325351   -2.3818932   -2.3818932   -1.5956013   0.05124229   -2.3818932   0.78629186   426349 
  548000   0.63271665   -2.3829331   -2.3829331   -1.5964156  0.055320188   -2.3829331   0.78651754   426349 
  549000   0.63229054   -2.3821096   -2.3821096   -1.5961217  0.041809563   -2.3821096   0.78598785   426349 
  550000   0.63255529    -2.382391    -2.382391   -1.5960741  0.051533686    -2.382391   0.78631695   426349 
  551000   0.63345095   -2.3829305   -2.3829305   -1.5955002  0.050791617   -2.3829305   0.78743034   426349 
  552000   0.63387216   -2.3834366   -2.3834366   -1.5954827  0.054539498   -2.3834366   0.78795393   426349 
  553000   0.63263308   -2.3823665   -2.3823665   -1.5959529  0.052692829   -2.3823665   0.78641365   426349 
  554000   0.63235348   -2.3826922   -2.3826922   -1.5966261  0.053687618   -2.3826922   0.78606609   426349 
  555000   0.63159095   -2.3815475   -2.3815475   -1.5964293  0.053298426   -2.3815475    0.7851182   426349 
  556000   0.63164469   -2.3818964   -2.3818964   -1.5967114  0.055399696   -2.3818964   0.78518501   426349 
  557000   0.63217526   -2.3827126   -2.3827126   -1.5968681  0.054300532   -2.3827126   0.78584454   426349 
  558000   0.63226604   -2.3835367   -2.3835367   -1.5975793  0.050658777   -2.3835367    0.7859574   426349 
  559000   0.63207227   -2.3840187   -2.3840187   -1.5983022  0.051341347   -2.3840187   0.78571653   426349 
  560000   0.63097308   -2.3830707   -2.3830707   -1.5987206  0.046714986   -2.3830707   0.78435014   426349 
  561000   0.63136397   -2.3831444   -2.3831444   -1.5983083  0.044842957   -2.3831444   0.78483605   426349 
  562000   0.63160657   -2.3832209   -2.3832209   -1.5980833  0.052766858   -2.3832209   0.78513762   426349 
  563000    0.6314148    -2.383238    -2.383238   -1.5983388  0.048274629    -2.383238   0.78489924   426349 
  564000   0.63132746   -2.3833856   -2.3833856    -1.598595  0.048414934   -2.3833856   0.78479067   426349 
  565000   0.63200667   -2.3844213   -2.3844213   -1.5987863  0.051195961   -2.3844213   0.78563497   426349 
  566000   0.63138955   -2.3832202   -2.3832202   -1.5983524  0.051929515   -2.3832202   0.78486784   426349 
  567000   0.63094671    -2.382762    -2.382762   -1.5984446   0.05318462    -2.382762   0.78431737   426349 
  568000   0.63169806   -2.3831229   -2.3831229   -1.5978716  0.049566958   -2.3831229   0.78525135   426349 
  569000   0.63177232   -2.3834031   -2.3834031   -1.5980595  0.048075777   -2.3834031   0.78534366   426349 
  570000   0.63105125   -2.3831029   -2.3831029   -1.5986555  0.043612417   -2.3831029   0.78444731   426349 
  571000   0.63220714   -2.3845347   -2.3845347   -1.5986505  0.044498729   -2.3845347   0.78588418   426349 
  572000   0.63214085   -2.3848984   -2.3848984   -1.5990966  0.044816647   -2.3848984   0.78580178   426349 
  573000   0.63224015    -2.385727    -2.385727   -1.5998018  0.049328662    -2.385727   0.78592522   426349 
  574000   0.63209784   -2.3858578   -2.3858578   -1.6001095  0.053479651   -2.3858578   0.78574831   426349 
  575000    0.6326821   -2.3871408   -2.3871408   -1.6006662  0.049065361   -2.3871408   0.78647459   426349 
  576000   0.63106761   -2.3855436   -2.3855436   -1.6010759  0.052124715   -2.3855436   0.78446765   426349 
  577000   0.63018072   -2.3852973   -2.3852973   -1.6019321  0.042659104   -2.3852973   0.78336518   426349 
  578000   0.63059915   -2.3856772   -2.3856772   -1.6017919  0.055643201   -2.3856772   0.78388532   426349 
  579000   0.63081959   -2.3864916   -2.3864916   -1.6023323  0.046124389   -2.3864916   0.78415935   426349 
  580000   0.63168441   -2.3891995   -2.3891995   -1.6039652  0.049252242   -2.3891995   0.78523438   426349 
  581000   0.63200533   -2.3894496   -2.3894496   -1.6038163  0.050614054   -2.3894496   0.78563331   426349 
  582000   0.63210075   -2.3896862   -2.3896862   -1.6039343  0.054428672   -2.3896862   0.78575193   426349 
  583000   0.63258986   -2.3902948   -2.3902948   -1.6039349  0.052311073   -2.3902948   0.78635993   426349 
  584000    0.6315636   -2.3894298   -2.3894298   -1.6043456  0.054828551   -2.3894298    0.7850842   426349 
  585000   0.63110917   -2.3894104   -2.3894104   -1.6048911  0.042238566   -2.3894104   0.78451931   426349 
  586000   0.63197141   -2.3904019   -2.3904019   -1.6048107  0.046864202   -2.3904019   0.78559114   426349 
  587000   0.63147187   -2.3903079   -2.3903079   -1.6053377  0.053283886   -2.3903079   0.78497018   426349 
  588000   0.63179457   -2.3903806   -2.3903806   -1.6050093    0.0593214   -2.3903806   0.78537132   426349 
  589000   0.63092008   -2.3892053   -2.3892053    -1.604921  0.046941213   -2.3892053   0.78428426   426349 
  590000   0.63074891   -2.3886072   -2.3886072   -1.6045357  0.047483354   -2.3886072   0.78407148   426349 
  591000   0.63098473   -2.3888441   -2.3888441   -1.6044795  0.048309182   -2.3888441   0.78436462   426349 
  592000   0.63175886   -2.3898427   -2.3898427   -1.6045158  0.055932054   -2.3898427   0.78532693   426349 
  593000   0.63175807   -2.3899224   -2.3899224   -1.6045965  0.054427603   -2.3899224   0.78532595   426349 
  594000   0.63153897   -2.3897836   -2.3897836     -1.60473  0.039896346   -2.3897836   0.78505359   426349 
  595000   0.63131416   -2.3903421   -2.3903421   -1.6055679  0.054365306   -2.3903421   0.78477414   426349 
  596000    0.6300864   -2.3888441   -2.3888441   -1.6055962  0.054748983   -2.3888441   0.78324793   426349 
  597000   0.63071497   -2.3895017   -2.3895017   -1.6054724  0.051421766   -2.3895017   0.78402929   426349 
  598000   0.63164171   -2.3917523   -2.3917523    -1.606571  0.047869229   -2.3917523    0.7851813   426349 
  599000   0.63117627   -2.3910675   -2.3910675   -1.6064647  0.046566727   -2.3910675   0.78460273   426349 
  600000   0.63168576   -2.3906244   -2.3906244   -1.6053883  0.047598753   -2.3906244   0.78523607   426349 
  601000   0.63158921   -2.3904105   -2.3904105   -1.6052945  0.054595122   -2.3904105   0.78511604   426349 
  602000   0.63248733   -2.3918626   -2.3918626   -1.6056302  0.048676437   -2.3918626   0.78623247   426349 
  603000    0.6319788   -2.3916427   -2.3916427   -1.6060423  0.050581022   -2.3916427   0.78560033   426349 
  604000   0.63063359   -2.3898966   -2.3898966   -1.6059685  0.052916313   -2.3898966   0.78392813   426349 
  605000   0.63095624    -2.391343    -2.391343   -1.6070138  0.046098954    -2.391343   0.78432921   426349 
  606000   0.63054548   -2.3909843   -2.3909843   -1.6071657  0.049066053   -2.3909843    0.7838186   426349 
  607000   0.63073312   -2.3916389   -2.3916389   -1.6075871  0.043909552   -2.3916389   0.78405186   426349 
  608000   0.62937634   -2.3910271   -2.3910271   -1.6086619  0.052302502   -2.3910271   0.78236526   426349 
  609000   0.62999999   -2.3915376   -2.3915376   -1.6083971  0.044957845   -2.3915376   0.78314052   426349 
  610000   0.63132786   -2.3936643   -2.3936643   -1.6088732  0.052732638   -2.3936643   0.78479116   426349 
  611000   0.63075294   -2.3925066   -2.3925066   -1.6084302  0.056120531   -2.3925066   0.78407649   426349 
  612000   0.63212891   -2.3947503   -2.3947503   -1.6089634  0.048839859   -2.3947503   0.78578693   426349 
  613000   0.63059517   -2.3929978   -2.3929978   -1.6091174  0.050983174   -2.3929978   0.78388036   426349 
  614000   0.63058168   -2.3936616   -2.3936616    -1.609798  0.050817328   -2.3936616    0.7838636   426349 
  615000   0.62948114   -2.3918925   -2.3918925   -1.6093969  0.047382351   -2.3918925   0.78249555   426349 
  616000   0.63001483   -2.3926339   -2.3926339   -1.6094749  0.056254331   -2.3926339   0.78315897   426349 
  617000   0.63033148    -2.393114    -2.393114   -1.6095614  0.048970224    -2.393114   0.78355258   426349 
  618000   0.63037511   -2.3940841   -2.3940841   -1.6104773  0.046595548   -2.3940841   0.78360682   426349 
  619000   0.63058865    -2.394221    -2.394221   -1.6103487  0.049014335    -2.394221   0.78387227   426349 
  620000   0.62945097   -2.3943095   -2.3943095   -1.6118515   0.04954255   -2.3943095   0.78245804   426349 
  621000   0.62980311   -2.3943893   -2.3943893   -1.6114935  0.052237816   -2.3943893   0.78289577   426349 
  622000   0.62958327   -2.3932968   -2.3932968   -1.6106743  0.053572419   -2.3932968    0.7826225   426349 
  623000   0.63057048   -2.3949053   -2.3949053   -1.6110556  0.052863671   -2.3949053   0.78384968   426349 
  624000   0.62904553   -2.3934527   -2.3934527   -1.6114986  0.056707384   -2.3934527   0.78195405   426349 
  625000   0.63075462   -2.3959189   -2.3959189   -1.6118403  0.048856545   -2.3959189   0.78407858   426349 
  626000   0.63096686   -2.3963883   -2.3963883   -1.6120459  0.048571092   -2.3963883   0.78434241   426349 
  627000   0.63010787   -2.3957802   -2.3957802   -1.6125056  0.049724978   -2.3957802   0.78327462   426349 
  628000    0.6297157   -2.3953946   -2.3953946   -1.6126074  0.058463137   -2.3953946   0.78278712   426349 
  629000   0.62979661   -2.3955003   -2.3955003   -1.6126126  0.050643903   -2.3955003   0.78288769   426349 
  630000   0.63066524   -2.3967801   -2.3967801   -1.6128127  0.045236143   -2.3967801   0.78396747   426349 
  631000   0.63116397   -2.3975838   -2.3975838   -1.6129964  0.046900216   -2.3975838   0.78458744   426349 
  632000   0.63000782   -2.3956762   -2.3956762    -1.612526  0.045272898   -2.3956762   0.78315024   426349 
  633000   0.63073526   -2.3963576   -2.3963576   -1.6123031  0.054338408   -2.3963576   0.78405451   426349 
  634000   0.63085633    -2.396594    -2.396594    -1.612389  0.047446579    -2.396594   0.78420501   426349 
  635000   0.63027881   -2.3959546   -2.3959546   -1.6124675  0.047418604   -2.3959546    0.7834871   426349 
  636000   0.63041328   -2.3973909   -2.3973909   -1.6137367  0.046304687   -2.3973909   0.78365426   426349 
  637000   0.63196309   -2.3989228   -2.3989228    -1.613342  0.045240209   -2.3989228   0.78558081   426349 
  638000   0.63081371   -2.3984727   -2.3984727   -1.6143207  0.043573363   -2.3984727   0.78415203   426349 
  639000   0.63042782   -2.3988209   -2.3988209   -1.6151486  0.047209294   -2.3988209   0.78367234   426349 
  640000   0.63035536   -2.3984674   -2.3984674   -1.6148851  0.045896385   -2.3984674   0.78358227   426349 
  641000   0.62909537    -2.397366    -2.397366     -1.61535  0.047222335    -2.397366     0.782016   426349 
  642000   0.63017821   -2.3991179   -2.3991179   -1.6157558  0.041929855   -2.3991179   0.78336206   426349 
  643000   0.62942527   -2.3975488   -2.3975488   -1.6151228  0.050883458   -2.3975488    0.7824261   426349 
  644000   0.62992038   -2.3983926   -2.3983926   -1.6153511  0.050148927   -2.3983926   0.78304155   426349 
  645000   0.62998826   -2.3982327   -2.3982327   -1.6151067  0.051401214   -2.3982327   0.78312594   426349 
  646000   0.63091585   -2.3993476   -2.3993476   -1.6150686  0.045068753   -2.3993476     0.784279   426349 
  647000   0.62962953   -2.3980204   -2.3980204   -1.6153404  0.057709427   -2.3980204      0.78268   426349 
  648000   0.63094473   -2.3999024   -2.3999024   -1.6155875  0.056429762   -2.3999024   0.78431491   426349 
  649000   0.62992822   -2.3991681   -2.3991681   -1.6161168  0.052841127   -2.3991681    0.7830513   426349 
  650000   0.63153853   -2.4006865   -2.4006865   -1.6156334  0.048633555   -2.4006865   0.78505304   426349 
  651000   0.62921693   -2.3983881   -2.3983881    -1.616221  0.051785161   -2.3983881   0.78216711   426349 
  652000   0.63063274   -2.4002407   -2.4002407   -1.6163137  0.042953014   -2.4002407   0.78392708   426349 
  653000   0.63129106   -2.4005234   -2.4005234    -1.615778  0.049953417   -2.4005234   0.78474542   426349 
  654000   0.63098791   -2.3999269   -2.3999269   -1.6155583  0.050066918   -2.3999269   0.78436858   426349 
  655000   0.63099463   -2.4006003   -2.4006003   -1.6162233  0.054792113   -2.4006003   0.78437693   426349 
  656000   0.63035283   -2.3995504   -2.3995504   -1.6159713  0.058974493   -2.3995504   0.78357912   426349 
  657000   0.63096394    -2.399833    -2.399833   -1.6154942  0.054919821    -2.399833   0.78433878   426349 
  658000   0.63117981   -2.4001902   -2.4001902   -1.6155831   0.05360129   -2.4001902   0.78460712   426349 
  659000   0.62956396   -2.3986955   -2.3986955    -1.616097   0.05419891   -2.3986955    0.7825985   426349 
  660000   0.62949031   -2.3989507   -2.3989507   -1.6164438  0.049534716   -2.3989507   0.78250694   426349 
  661000   0.62961838    -2.400284    -2.400284   -1.6176178  0.050346476    -2.400284   0.78266614   426349 
  662000   0.62869605   -2.3983941   -2.3983941   -1.6168745  0.051309047   -2.3983941   0.78151961   426349 
  663000   0.62859934   -2.3984543   -2.3984543   -1.6170549  0.043459423   -2.3984543   0.78139939   426349 
  664000   0.62977754   -2.4001096   -2.4001096   -1.6172456   0.04739429   -2.4001096   0.78286399   426349 
  665000   0.62912962   -2.3992205   -2.3992205   -1.6171619  0.039307046   -2.3992205   0.78205857   426349 
  666000   0.62966267   -2.4001472   -2.4001472    -1.617426  0.043560165   -2.4001472    0.7827212   426349 
  667000   0.62903656   -2.3990863   -2.3990863   -1.6171434  0.042996099   -2.3990863   0.78194289   426349 
  668000   0.62997983   -2.4002407   -2.4002407   -1.6171252  0.045770008   -2.4002407   0.78311545   426349 
  669000   0.63062383   -2.4003826   -2.4003826   -1.6164666  0.048526335   -2.4003826     0.783916   426349 
  670000   0.62919581   -2.3999164   -2.3999164   -1.6177755  0.053708016   -2.3999164   0.78214085   426349 
  671000   0.63014587   -2.4009819   -2.4009819   -1.6176601  0.052006895   -2.4009819   0.78332185   426349 
  672000   0.63109981   -2.4020057   -2.4020057    -1.617498  0.051407953   -2.4020057   0.78450767   426349 
  673000   0.62993866   -2.4013911   -2.4013911   -1.6183269  0.052707162   -2.4013911   0.78306428   426349 
  674000    0.6294137   -2.4011334   -2.4011334   -1.6187217  0.047601998   -2.4011334    0.7824117   426349 
  675000   0.62983748   -2.4017428   -2.4017428   -1.6188043  0.045952643   -2.4017428    0.7829385   426349 
  676000   0.62946454   -2.4016185   -2.4016185   -1.6191436  0.048699531   -2.4016185   0.78247491   426349 
  677000   0.63060304   -2.4042072   -2.4042072    -1.620317  0.056384938   -2.4042072   0.78389015   426349 
  678000    0.6288273   -2.4025624   -2.4025624   -1.6208796  0.052538351   -2.4025624   0.78168276   426349 
  679000   0.62963858   -2.4039502   -2.4039502    -1.621259  0.052060606   -2.4039502   0.78269125   426349 
  680000   0.62865253   -2.4028076   -2.4028076   -1.6213421  0.060244862   -2.4028076   0.78146551   426349 
  681000    0.6291943   -2.4033525   -2.4033525   -1.6212135  0.056265951   -2.4033525   0.78213898   426349 
  682000   0.62777457    -2.402062    -2.402062   -1.6216879  0.046278038    -2.402062   0.78037414   426349 
  683000   0.62997756   -2.4043465   -2.4043465   -1.6212338  0.045887662   -2.4043465   0.78311263   426349 
  684000    0.6302561   -2.4053822   -2.4053822   -1.6219234  0.048623359   -2.4053822   0.78345888   426349 
  685000   0.62980859   -2.4043492   -2.4043492   -1.6214466  0.049681954   -2.4043492   0.78290259   426349 
  686000   0.62962648    -2.404621    -2.404621   -1.6219448  0.044442706    -2.404621    0.7826762   426349 
  687000   0.62868914   -2.4030575   -2.4030575   -1.6215465  0.047629899   -2.4030575   0.78151102   426349 
  688000   0.62871144   -2.4039555   -2.4039555   -1.6224168  0.053440452   -2.4039555   0.78153874   426349 
  689000   0.62902993   -2.4042169   -2.4042169   -1.6222823  0.052942999   -2.4042169   0.78193465   426349 
  690000   0.62854871   -2.4036413   -2.4036413   -1.6223048  0.045332468   -2.4036413   0.78133646   426349 
  691000    0.6291869   -2.4038267   -2.4038267    -1.621697  0.052873042   -2.4038267   0.78212977   426349 
  692000   0.62926818    -2.403945    -2.403945   -1.6217142  0.054682625    -2.403945   0.78223082   426349 
  693000   0.62846307   -2.4041276   -2.4041276   -1.6228976  0.040615991   -2.4041276   0.78122999   426349 
  694000   0.62900417   -2.4043751   -2.4043751   -1.6224724  0.045213157   -2.4043751   0.78190263   426349 
  695000   0.62888145   -2.4047433   -2.4047433   -1.6229932  0.039497817   -2.4047433   0.78175008   426349 
  696000   0.62839518   -2.4037044   -2.4037044   -1.6225588  0.049251407   -2.4037044   0.78114561   426349 
  697000    0.6293737    -2.405235    -2.405235    -1.622873  0.052357917    -2.405235   0.78236199   426349 
  698000   0.62878702   -2.4050997   -2.4050997    -1.623467  0.044366728   -2.4050997    0.7816327   426349 
  699000   0.62827701   -2.4044263   -2.4044263   -1.6234276  0.043388428   -2.4044263   0.78099871   426349 
  700000   0.62910776   -2.4057303   -2.4057303   -1.6236989  0.050055615   -2.4057303    0.7820314   426349 
  701000   0.62994843   -2.4068538   -2.4068538   -1.6237774  0.045847125   -2.4068538   0.78307642   426349 
  702000   0.62855795   -2.4056335   -2.4056335   -1.6242855  0.050257114   -2.4056335   0.78134794   426349 
  703000   0.62916349   -2.4059631   -2.4059631   -1.6238624  0.056033188   -2.4059631   0.78210068   426349 
  704000   0.63002908   -2.4066628   -2.4066628   -1.6234861  0.052786825   -2.4066628   0.78317668   426349 
  705000   0.63114733   -2.4080305   -2.4080305   -1.6234638  0.048520233   -2.4080305   0.78456674   426349 
  706000   0.63096006   -2.4088928   -2.4088928   -1.6245588  0.047272067   -2.4088928   0.78433396   426349 
  707000     0.631026   -2.4086253   -2.4086253   -1.6242094  0.044245599   -2.4086253   0.78441593   426349 
  708000   0.62902846   -2.4069846   -2.4069846   -1.6250518  0.054306364   -2.4069846   0.78193283   426349 
  709000   0.62907934   -2.4078872   -2.4078872   -1.6258912  0.057177793   -2.4078872   0.78199607   426349 
  710000     0.628699   -2.4081727   -2.4081727   -1.6266495  0.056270095   -2.4081727   0.78152327   426349 
  711000   0.62822059   -2.4075057   -2.4075057   -1.6265771   0.05511597   -2.4075057   0.78092858   426349 
  712000   0.62856195   -2.4081484   -2.4081484   -1.6267955   0.05263873   -2.4081484   0.78135292   426349 
  713000   0.62868765    -2.408864    -2.408864   -1.6273548  0.043334397    -2.408864   0.78150916   426349 
  714000   0.62958053   -2.4101305   -2.4101305   -1.6275114  0.051166009   -2.4101305   0.78261909   426349 
  715000   0.62664902   -2.4071834   -2.4071834   -1.6282084  0.044349849   -2.4071834   0.77897499   426349 
  716000   0.62893132   -2.4086534   -2.4086534   -1.6268413  0.054082612   -2.4086534   0.78181208   426349 
  717000   0.62879691    -2.409009    -2.409009    -1.627364  0.049174533    -2.409009   0.78164499   426349 
  718000   0.62905497   -2.4101277   -2.4101277   -1.6281619   0.05216203   -2.4101277   0.78196578   426349 
  719000   0.62926501   -2.4103685   -2.4103685   -1.6281417  0.042360032   -2.4103685   0.78222687   426349 
  720000    0.6277574   -2.4082202   -2.4082202   -1.6278674  0.041505375   -2.4082202   0.78035279   426349 
  721000   0.62852732   -2.4087654   -2.4087654   -1.6274556  0.052079426   -2.4087654   0.78130987   426349 
  722000   0.62966467   -2.4098921   -2.4098921   -1.6271684  0.047455551   -2.4098921   0.78272369   426349 
  723000   0.62862177   -2.4083931   -2.4083931   -1.6269658  0.047097803   -2.4083931   0.78142728   426349 
  724000   0.62901435   -2.4096284   -2.4096284   -1.6277131  0.045421655   -2.4096284   0.78191529   426349 
  725000   0.62754974    -2.408291    -2.408291   -1.6281964   0.04152209    -2.408291   0.78009465   426349 
  726000   0.62823955   -2.4092917   -2.4092917   -1.6283396  0.041613618   -2.4092917   0.78095214   426349 
  727000   0.62824367   -2.4095971   -2.4095971   -1.6286398  0.044546758   -2.4095971   0.78095727   426349 
  728000   0.62772942   -2.4089056   -2.4089056   -1.6285876  0.048453095   -2.4089056   0.78031801   426349 
  729000   0.62736294   -2.4088881   -2.4088881   -1.6290257   0.05242081   -2.4088881   0.77986245   426349 
  730000   0.62803352   -2.4097652   -2.4097652   -1.6290691  0.048628569   -2.4097652   0.78069603   426349 
  731000   0.62806904   -2.4088938   -2.4088938   -1.6281536  0.050809758   -2.4088938   0.78074018   426349 
  732000   0.62859737   -2.4097951   -2.4097951   -1.6283982  0.053394716   -2.4097951   0.78139695   426349 
  733000   0.62938902   -2.4104279   -2.4104279   -1.6280469  0.046891684   -2.4104279   0.78238103   426349 
  734000   0.62777839   -2.4094184   -2.4094184   -1.6290395  0.044844563   -2.4094184   0.78037888   426349 
  735000   0.62821307   -2.4106726   -2.4106726   -1.6297534   0.05214414   -2.4106726   0.78091923   426349 
  736000   0.62927755   -2.4114399   -2.4114399   -1.6291975  0.050584382   -2.4114399   0.78224246   426349 
  737000   0.62894659    -2.410972    -2.410972    -1.629141  0.048392505    -2.410972   0.78183106   426349 
  738000   0.62841895   -2.4106836   -2.4106836   -1.6295085  0.048201773   -2.4106836   0.78117515   426349 
  739000   0.62894838   -2.4121066   -2.4121066   -1.6302734  0.045642014   -2.4121066   0.78183327   426349 
  740000    0.6279999   -2.4103604   -2.4103604   -1.6297062  0.044881458   -2.4103604   0.78065425   426349 
  741000   0.62799349    -2.410985    -2.410985   -1.6303388  0.047842079    -2.410985   0.78064628   426349 
  742000   0.62820175   -2.4113077   -2.4113077   -1.6304025  0.052711936   -2.4113077   0.78090515   426349 
  743000   0.62722289   -2.4095292   -2.4095292   -1.6298408  0.050866591   -2.4095292   0.77968835   426349 
  744000   0.62841295   -2.4119668   -2.4119668   -1.6307991  0.060635935   -2.4119668   0.78116769   426349 
  745000   0.62752736   -2.4113145   -2.4113145   -1.6312477  0.048981777   -2.4113145   0.78006683   426349 
  746000   0.62813872   -2.4122054   -2.4122054   -1.6313786  0.052757763   -2.4122054    0.7808268   426349 
  747000   0.62903648   -2.4129053   -2.4129053   -1.6309625   0.05413251   -2.4129053   0.78194279   426349 
  748000   0.62819123   -2.4122315   -2.4122315   -1.6313395  0.043740788   -2.4122315   0.78089208   426349 
  749000   0.62957248   -2.4139374   -2.4139374   -1.6313283  0.049774251   -2.4139374   0.78260909   426349 
  750000   0.62714675   -2.4113545   -2.4113545   -1.6317608  0.056114581   -2.4113545   0.77959371   426349 
  751000   0.62951617   -2.4140112   -2.4140112   -1.6314721  0.044999775   -2.4140112   0.78253909   426349 
  752000   0.62872705   -2.4123793   -2.4123793   -1.6308212  0.052428676   -2.4123793   0.78155815   426349 
  753000   0.62808924   -2.4123594   -2.4123594   -1.6315941  0.046639689   -2.4123594   0.78076529   426349 
  754000   0.62801287   -2.4125494   -2.4125494   -1.6318791  0.051245256   -2.4125494   0.78067036   426349 
  755000    0.6280333   -2.4124851   -2.4124851   -1.6317893  0.057274989   -2.4124851   0.78069576   426349 
  756000   0.62804427   -2.4128191   -2.4128191   -1.6321097  0.043582519   -2.4128191    0.7807094   426349 
  757000   0.62977906   -2.4148959   -2.4148959     -1.63203  0.048285139   -2.4148959   0.78286588   426349 
  758000   0.62788919    -2.413033    -2.413033   -1.6325163   0.04745101    -2.413033   0.78051662   426349 
  759000   0.62870646   -2.4148729   -2.4148729   -1.6333404  0.043227334   -2.4148729   0.78153256   426349 
  760000   0.62741311   -2.4128667   -2.4128667   -1.6329419   0.04760844   -2.4128667   0.77992481   426349 
  761000   0.62880523    -2.414326    -2.414326   -1.6326707  0.045557354    -2.414326   0.78165533   426349 
  762000   0.62724805   -2.4130958   -2.4130958   -1.6333762  0.042892625   -2.4130958   0.77971963   426349 
  763000   0.62794045   -2.4138143   -2.4138143   -1.6332339  0.047800965   -2.4138143   0.78058034   426349 
  764000   0.62847129   -2.4149127   -2.4149127   -1.6336724  0.042257139   -2.4149127   0.78124022   426349 
  765000   0.62829842   -2.4142862   -2.4142862   -1.6332609  0.052620636   -2.4142862   0.78102532   426349 
  766000   0.62926238   -2.4155902   -2.4155902   -1.6333666  0.053772166   -2.4155902    0.7822236   426349 
  767000   0.62838737   -2.4154653   -2.4154653   -1.6343294  0.046815028   -2.4154653    0.7811359   426349 
  768000   0.62809548   -2.4148579   -2.4148579   -1.6340848  0.052166353   -2.4148579   0.78077306   426349 
  769000   0.62881325   -2.4157645   -2.4157645   -1.6340992  0.050549149   -2.4157645    0.7816653   426349 
  770000   0.62892546   -2.4159921   -2.4159921   -1.6341873  0.057233232   -2.4159921   0.78180479   426349 
  771000   0.62859688    -2.415968    -2.415968   -1.6345717  0.049012314    -2.415968   0.78139634   426349 
  772000   0.62762101   -2.4153185   -2.4153185   -1.6351352  0.046768462   -2.4153185   0.78018326   426349 
  773000   0.62842743    -2.415713    -2.415713   -1.6345273  0.051270591    -2.415713   0.78118569   426349 
  774000   0.62889247   -2.4159325   -2.4159325   -1.6341687  0.058911166   -2.4159325   0.78176377   426349 
  775000   0.62844899   -2.4155316   -2.4155316   -1.6343191  0.046676556   -2.4155316   0.78121249   426349 
  776000   0.62786864   -2.4147757   -2.4147757   -1.6342846  0.043498832   -2.4147757   0.78049107   426349 
  777000   0.62792239   -2.4152848   -2.4152848   -1.6347269  0.047736535   -2.4152848   0.78055789   426349 
  778000   0.62832614   -2.4156441   -2.4156441   -1.6345843  0.041737654   -2.4156441   0.78105978   426349 
  779000   0.62896681   -2.4172141   -2.4172141    -1.635358  0.054290223   -2.4172141   0.78185618   426349 
  780000   0.62772356    -2.415326    -2.415326   -1.6350153  0.057929224    -2.415326   0.78031072   426349 
  781000   0.62925328   -2.4167041   -2.4167041   -1.6344918  0.051688453   -2.4167041   0.78221229   426349 
  782000   0.62727675   -2.4150327   -2.4150327   -1.6352774  0.046249025   -2.4150327    0.7797553   426349 
  783000   0.62800692   -2.4162549   -2.4162549   -1.6355919   0.04519387   -2.4162549   0.78066297   426349 
  784000   0.62666539   -2.4150944   -2.4150944    -1.636099  0.048543855   -2.4150944   0.77899534   426349 
  785000   0.62784712   -2.4166839   -2.4166839   -1.6362196  0.049531777   -2.4166839   0.78046433   426349 
  786000   0.62773589   -2.4173271   -2.4173271    -1.637001  0.049408225   -2.4173271   0.78032606   426349 
  787000   0.62765452   -2.4176815   -2.4176815   -1.6374566  0.051522819   -2.4176815    0.7802249   426349 
  788000   0.62735739   -2.4171093   -2.4171093   -1.6372537  0.043298441   -2.4171093   0.77985555   426349 
  789000   0.62728645   -2.4168954   -2.4168954   -1.6371281   0.04953473   -2.4168954   0.77976736   426349 
  790000   0.62759146   -2.4172358   -2.4172358   -1.6370892  0.047032971   -2.4172358   0.78014652   426349 
  791000   0.62714552   -2.4168041   -2.4168041    -1.637212  0.052424011   -2.4168041   0.77959217   426349 
  792000   0.62745508   -2.4175194   -2.4175194   -1.6375425  0.047099154   -2.4175194   0.77997699   426349 
  793000   0.62720865   -2.4182776   -2.4182776    -1.638607   0.04408154   -2.4182776   0.77967065   426349 
  794000   0.62747505   -2.4180179   -2.4180179   -1.6380161  0.047728906   -2.4180179   0.78000181   426349 
  795000   0.62849076   -2.4192606   -2.4192606   -1.6379962  0.042211111   -2.4192606   0.78126442   426349 
  796000   0.62645502   -2.4171344   -2.4171344   -1.6384006  0.049469286   -2.4171344   0.77873383   426349 
  797000   0.62819786   -2.4194847   -2.4194847   -1.6385844  0.041872555   -2.4194847   0.78090033   426349 
  798000   0.62845243   -2.4205167   -2.4205167   -1.6392999  0.051007124   -2.4205167   0.78121677   426349 
  799000   0.62708939   -2.4193374   -2.4193374    -1.639815  0.053462528   -2.4193374   0.77952241   426349 
  800000   0.62681847   -2.4199397   -2.4199397   -1.6407541  0.050854674   -2.4199397   0.77918563   426349 
  801000   0.62654479   -2.4196521   -2.4196521   -1.6408067  0.051712014   -2.4196521   0.77884542   426349 
  802000   0.62696412   -2.4209671   -2.4209671   -1.6416005  0.052402291   -2.4209671   0.77936668   426349 
  803000   0.62874568   -2.4230868   -2.4230868   -1.6415055  0.053009045   -2.4230868    0.7815813   426349 
  804000   0.62813698   -2.4219946   -2.4219946     -1.64117  0.049412208   -2.4219946   0.78082464   426349 
  805000    0.6280162   -2.4222699   -2.4222699   -1.6415954  0.052212382   -2.4222699    0.7806745   426349 
  806000     0.627742   -2.4215249   -2.4215249   -1.6411912  0.055238327   -2.4215249   0.78033366   426349 
  807000   0.62815122   -2.4224708   -2.4224708   -1.6416284  0.054646608   -2.4224708   0.78084235   426349 
  808000   0.62968425   -2.4250367   -2.4250367   -1.6422887  0.047477115   -2.4250367   0.78274802   426349 
  809000    0.6283061   -2.4239607   -2.4239607   -1.6429258  0.048487533   -2.4239607   0.78103487   426349 
  810000   0.62769145   -2.4229155   -2.4229155   -1.6426446  0.050380353   -2.4229155   0.78027081   426349 
  811000   0.62730816    -2.422645    -2.422645   -1.6428506  0.046566492    -2.422645   0.77979435   426349 
  812000   0.62730019   -2.4221877   -2.4221877   -1.6424033  0.054030713   -2.4221877   0.77978444   426349 
  813000   0.62746831   -2.4233763   -2.4233763   -1.6433829  0.052289894   -2.4233763   0.77999343   426349 
  814000   0.62726544   -2.4238528   -2.4238528   -1.6441116   0.04831343   -2.4238528   0.77974124   426349 
  815000   0.62723946   -2.4236495   -2.4236495   -1.6439406  0.047245558   -2.4236495   0.77970896   426349 
  816000   0.62708433   -2.4235481   -2.4235481    -1.644032  0.048637428   -2.4235481   0.77951611   426349 
  817000   0.62767142   -2.4242981   -2.4242981   -1.6440522  0.056114204   -2.4242981   0.78024591   426349 
  818000   0.62606616   -2.4226481   -2.4226481   -1.6443977  0.054864778   -2.4226481   0.77825045   426349 
  819000   0.62514622   -2.4220344   -2.4220344   -1.6449275  0.052710228   -2.4220344   0.77710688   426349 
  820000   0.62607431   -2.4232073   -2.4232073   -1.6449468  0.047127323   -2.4232073   0.77826058   426349 
  821000   0.62582885    -2.422683    -2.422683   -1.6447275  0.048427946    -2.422683   0.77795545   426349 
  822000   0.62779568   -2.4246685   -2.4246685   -1.6442682  0.050099347   -2.4246685   0.78040038   426349 
  823000   0.62664288   -2.4231921   -2.4231921   -1.6442247  0.044016258   -2.4231921   0.77896736   426349 
  824000   0.62584905   -2.4219396   -2.4219396    -1.643959  0.051668521   -2.4219396   0.77798057   426349 
  825000   0.62723221   -2.4233699   -2.4233699     -1.64367  0.044497791   -2.4233699   0.77969994   426349 
  826000   0.62699125   -2.4232011   -2.4232011   -1.6438007  0.040420073   -2.4232011   0.77940041   426349 
  827000    0.6263183   -2.4235209   -2.4235209    -1.644957  0.047380743   -2.4235209   0.77856388   426349 
  828000   0.62628891   -2.4243767   -2.4243767   -1.6458493  0.041757462   -2.4243767   0.77852735   426349 
  829000   0.62586146   -2.4233495   -2.4233495   -1.6453535  0.048296637   -2.4233495   0.77799599   426349 
  830000   0.62492315   -2.4233442   -2.4233442   -1.6465146  0.050612398   -2.4233442    0.7768296   426349 
  831000   0.62498523   -2.4229952   -2.4229952   -1.6460885  0.051370753   -2.4229952   0.77690677   426349 
  832000   0.62553854   -2.4234516   -2.4234516   -1.6458571  0.046154311   -2.4234516   0.77759457   426349 
  833000   0.62504521   -2.4236061   -2.4236061   -1.6466248  0.046507442   -2.4236061   0.77698133   426349 
  834000   0.62542338   -2.4237995   -2.4237995   -1.6463481  0.042651409   -2.4237995   0.77745142   426349 
  835000   0.62520102   -2.4230109   -2.4230109   -1.6458359  0.047133674   -2.4230109   0.77717501   426349 
  836000   0.62562597   -2.4239056   -2.4239056   -1.6462023  0.055754798   -2.4239056   0.77770325   426349 
  837000   0.62632424   -2.4251803   -2.4251803    -1.646609  0.050970087   -2.4251803   0.77857126   426349 
  838000   0.62673628   -2.4255775   -2.4255775    -1.646494   0.04937103   -2.4255775   0.77908346   426349 
  839000   0.62553678   -2.4249618   -2.4249618   -1.6473694  0.048720858   -2.4249618   0.77759239   426349 
  840000   0.62604259   -2.4250548   -2.4250548   -1.6468337  0.039027612   -2.4250548   0.77822115   426349 
  841000   0.62697976   -2.4260311   -2.4260311   -1.6466449  0.054397957   -2.4260311   0.77938613   426349 
  842000    0.6281653   -2.4269117   -2.4269117   -1.6460518  0.050823008   -2.4269117   0.78085985   426349 
  843000   0.62726776    -2.425896    -2.425896   -1.6461518  0.046487135    -2.425896   0.77974413   426349 
  844000   0.62672111   -2.4257337   -2.4257337   -1.6466691  0.054651558   -2.4257337   0.77906461   426349 
  845000   0.62734257   -2.4274812   -2.4274812   -1.6476441   0.05241414   -2.4274812   0.77983712   426349 
  846000   0.62571343   -2.4255982   -2.4255982   -1.6477862   0.04670617   -2.4255982   0.77781198   426349 
  847000   0.62656089   -2.4265339   -2.4265339   -1.6476684  0.052299528   -2.4265339   0.77886544   426349 
  848000   0.62776125   -2.4289542   -2.4289542   -1.6485966  0.055409993   -2.4289542   0.78035758   426349 
  849000   0.62706759   -2.4283577   -2.4283577   -1.6488624  0.053607412   -2.4283577    0.7794953   426349 
  850000   0.62619657   -2.4281347   -2.4281347   -1.6497221  0.050111829   -2.4281347   0.77841255   426349 
  851000     0.625184   -2.4267896   -2.4267896   -1.6496357  0.062685752   -2.4267896   0.77715385   426349 
  852000   0.62630785   -2.4283811   -2.4283811   -1.6498302  0.046044823   -2.4283811   0.77855088   426349 
  853000   0.62611818   -2.4282063   -2.4282063   -1.6498912  0.051459229   -2.4282063   0.77831511   426349 
  854000   0.62603926   -2.4283311   -2.4283311   -1.6501141  0.047033761   -2.4283311   0.77821701   426349 
  855000   0.62636619   -2.4281283   -2.4281283   -1.6495049  0.058288082   -2.4281283   0.77862341   426349 
  856000    0.6265882   -2.4283382   -2.4283382   -1.6494388  0.050337461   -2.4283382   0.77889938   426349 
  857000   0.62620918   -2.4275544   -2.4275544   -1.6491261  0.049444407   -2.4275544   0.77842823   426349 
  858000   0.62661098   -2.4281428   -2.4281428   -1.6492151  0.046868548   -2.4281428    0.7789277   426349 
  859000   0.62580344   -2.4270317   -2.4270317   -1.6491078  0.046396746   -2.4270317   0.77792387   426349 
  860000   0.62645748   -2.4283336   -2.4283336   -1.6495967  0.047010066   -2.4283336   0.77873689   426349 
  861000   0.62642139   -2.4277785   -2.4277785   -1.6490865   0.04937141   -2.4277785   0.77869203   426349 
  862000   0.62644957   -2.4279496   -2.4279496   -1.6492225  0.047911315   -2.4279496   0.77872706   426349 
  863000   0.62686064   -2.4283014   -2.4283014   -1.6490634  0.043410799   -2.4283014   0.77923805   426349 
  864000   0.62541085   -2.4268632   -2.4268632   -1.6494274  0.049825114   -2.4268632   0.77743584   426349 
  865000   0.62721761   -2.4283407   -2.4283407   -1.6486589  0.043063225   -2.4283407    0.7796818   426349 
  866000   0.62551017    -2.426315    -2.426315   -1.6487557  0.050312642    -2.426315    0.7775593   426349 
  867000   0.62538967   -2.4265169   -2.4265169   -1.6491074  0.045888986   -2.4265169   0.77740952   426349 
  868000   0.62664943   -2.4285629   -2.4285629   -1.6495874  0.051085824   -2.4285629   0.77897549   426349 
  869000   0.62612974   -2.4277488   -2.4277488   -1.6494193  0.043814342   -2.4277488   0.77832948   426349 
  870000   0.62632616   -2.4284903   -2.4284903   -1.6499166  0.051687047   -2.4284903   0.77857364   426349 
  871000   0.62616876    -2.428939    -2.428939    -1.650561  0.044940078    -2.428939   0.77837799   426349 
  872000   0.62528375    -2.428634    -2.428634   -1.6513561  0.046728475    -2.428634   0.77727785   426349 
  873000    0.6264243   -2.4298645   -2.4298645   -1.6511688  0.045581174   -2.4298645   0.77869565   426349 
  874000   0.62576119   -2.4290451   -2.4290451   -1.6511737  0.047489336   -2.4290451   0.77787134   426349 
  875000   0.62512162   -2.4280669   -2.4280669   -1.6509906  0.046761868   -2.4280669    0.7770763   426349 
  876000    0.6263428   -2.4301609   -2.4301609   -1.6515666  0.053379278   -2.4301609   0.77859433   426349 
  877000    0.6252634   -2.4285385   -2.4285385    -1.651286  0.046281824   -2.4285385   0.77725255   426349 
  878000   0.62488199   -2.4281742   -2.4281742   -1.6513958  0.039776409   -2.4281742   0.77677843   426349 
  879000   0.62588162   -2.4304716   -2.4304716   -1.6524505  0.051361361   -2.4304716   0.77802105   426349 
  880000   0.62553087   -2.4292718   -2.4292718   -1.6516867  0.051004028   -2.4292718   0.77758504   426349 
  881000   0.62561839   -2.4294307   -2.4294307   -1.6517369  0.053364689   -2.4294307   0.77769383   426349 
  882000   0.62568939   -2.4287578   -2.4287578   -1.6509757  0.040363477   -2.4287578   0.77778209   426349 
  883000   0.62721795   -2.4305442   -2.4305442   -1.6508619  0.045339839   -2.4305442   0.77968222   426349 
  884000   0.62510849    -2.428402    -2.428402    -1.651342  0.047497178    -2.428402   0.77705999   426349 
  885000    0.6263019   -2.4298195   -2.4298195    -1.651276  0.053298653   -2.4298195    0.7785435   426349 
  886000   0.62673745   -2.4296339   -2.4296339    -1.650549  0.044714182   -2.4296339   0.77908492   426349 
  887000   0.62598106   -2.4292208   -2.4292208   -1.6510762  0.046043835   -2.4292208   0.77814466   426349 
  888000   0.62541217   -2.4291759   -2.4291759   -1.6517384  0.045567941   -2.4291759   0.77743748   426349 
  889000   0.62496943   -2.4293048   -2.4293048   -1.6524176  0.048417053   -2.4293048   0.77688712   426349 
  890000    0.6267991   -2.4312984   -2.4312984   -1.6521369  0.048389951   -2.4312984   0.77916155   426349 
  891000   0.62617309   -2.4308992   -2.4308992   -1.6525159  0.055554747   -2.4308992   0.77838336   426349 
  892000   0.62624381   -2.4307794   -2.4307794   -1.6523081  0.059054846   -2.4307794   0.77847128   426349 
  893000   0.62560414    -2.430017    -2.430017   -1.6523408  0.048979475    -2.430017   0.77767612   426349 
  894000    0.6262854   -2.4318024   -2.4318024   -1.6532795   0.04498511   -2.4318024   0.77852298   426349 
  895000   0.62482945   -2.4302795   -2.4302795   -1.6535664  0.041616831   -2.4302795   0.77671312   426349 
  896000   0.62780886   -2.4342011   -2.4342011   -1.6537843  0.048176506   -2.4342011   0.78041677   426349 
  897000   0.62620488   -2.4324307   -2.4324307   -1.6540078  0.049187851   -2.4324307   0.77842288   426349 
  898000   0.62525526   -2.4310765   -2.4310765    -1.653834  0.050228823   -2.4310765   0.77724244   426349 
  899000   0.62641795   -2.4317811   -2.4317811   -1.6530934  0.047998543   -2.4317811   0.77868775   426349 
  900000    0.6260931   -2.4311817   -2.4311817   -1.6528978  0.051000124   -2.4311817   0.77828394   426349 
  901000   0.62556156   -2.4316712   -2.4316712    -1.654048  0.044168309   -2.4316712   0.77762318   426349 
  902000   0.62502072   -2.4306727   -2.4306727   -1.6537219   0.04943808   -2.4306727   0.77695088   426349 
  903000   0.62460388   -2.4309218   -2.4309218   -1.6544891  0.045639523   -2.4309218   0.77643271   426349 
  904000   0.62603983   -2.4319485   -2.4319485   -1.6537308  0.045593104   -2.4319485   0.77821771   426349 
  905000   0.62520384   -2.4313059   -2.4313059   -1.6541273  0.051493384   -2.4313059   0.77717851   426349 
  906000   0.62479491   -2.4307957   -2.4307957   -1.6541255  0.042062277   -2.4307957   0.77667018   426349 
  907000   0.62486034   -2.4306214   -2.4306214   -1.6538699   0.04751144   -2.4306214   0.77675152   426349 
  908000   0.62508792   -2.4310741   -2.4310741   -1.6540397  0.047990233   -2.4310741   0.77703442   426349 
  909000   0.62586905   -2.4315764   -2.4315764    -1.653571  0.052382834   -2.4315764   0.77800542   426349 
  910000    0.6259415   -2.4325503   -2.4325503   -1.6544549   0.05354613   -2.4325503   0.77809548   426349 
  911000   0.62562798   -2.4320699   -2.4320699   -1.6543641  0.062388537   -2.4320699   0.77770576   426349 
  912000   0.62582742   -2.4328896   -2.4328896   -1.6549359  0.043571054   -2.4328896   0.77795367   426349 
  913000    0.6261198   -2.4334755   -2.4334755   -1.6551584  0.051934172   -2.4334755   0.77831713   426349 
  914000   0.62592596   -2.4329008   -2.4329008   -1.6548246  0.046524849   -2.4329008   0.77807616   426349 
  915000     0.626922   -2.4344004   -2.4344004   -1.6550861  0.051597582   -2.4344004   0.77931433   426349 
  916000   0.62648695   -2.4347208   -2.4347208   -1.6559473  0.053419218   -2.4347208   0.77877352   426349 
  917000   0.62505726   -2.4336326   -2.4336326   -1.6566362  0.046607457   -2.4336326   0.77699631   426349 
  918000   0.62394251   -2.4332169   -2.4332169   -1.6576063  0.048588003   -2.4332169   0.77561057   426349 
  919000   0.62542095   -2.4346866   -2.4346866   -1.6572382  0.041830189   -2.4346866   0.77744841   426349 
  920000   0.62523961   -2.4346268   -2.4346268   -1.6574039  0.049864542   -2.4346268   0.77722298   426349 
  921000   0.62464702   -2.4342467   -2.4342467   -1.6577603  0.047631653   -2.4342467   0.77648635   426349 
  922000   0.62540977   -2.4344712   -2.4344712   -1.6570367  0.052291651   -2.4344712    0.7774345   426349 
  923000    0.6253419   -2.4351456   -2.4351456   -1.6577955    0.0470708   -2.4351456   0.77735014   426349 
  924000   0.62611606   -2.4350495   -2.4350495    -1.656737  0.051477127   -2.4350495   0.77831248   426349 
  925000   0.62523017   -2.4339656   -2.4339656   -1.6567543  0.049628454   -2.4339656   0.77721125   426349 
  926000   0.62557276   -2.4339199   -2.4339199   -1.6562828  0.045341376   -2.4339199   0.77763711   426349 
  927000   0.62614388   -2.4354647   -2.4354647   -1.6571176  0.053985017   -2.4354647   0.77834706   426349 
  928000   0.62473094   -2.4340595   -2.4340595   -1.6574689  0.047556816   -2.4340595   0.77659066   426349 
  929000   0.62550807   -2.4357256   -2.4357256   -1.6581689   0.04830276   -2.4357256    0.7775567   426349 
  930000   0.62422137   -2.4344245   -2.4344245   -1.6584672  0.045503231   -2.4344245   0.77595723   426349 
  931000   0.62495463   -2.4352846   -2.4352846   -1.6584158  0.049402187   -2.4352846   0.77686873   426349 
  932000   0.62423645   -2.4352318   -2.4352318   -1.6592558  0.057811875   -2.4352318   0.77597597   426349 
  933000   0.62527347   -2.4364295   -2.4364295   -1.6591645  0.044835146   -2.4364295   0.77726507   426349 
  934000   0.62539015   -2.4371846   -2.4371846   -1.6597745  0.041860521   -2.4371846   0.77741011   426349 
  935000   0.62450636   -2.4366993   -2.4366993   -1.6603878   0.04807931   -2.4366993   0.77631149   426349 
  936000   0.62567703   -2.4382537   -2.4382537    -1.660487  0.044817869   -2.4382537   0.77776673   426349 
  937000   0.62536284   -2.4385856   -2.4385856   -1.6612094  0.045694727   -2.4385856   0.77737616   426349 
  938000   0.62439357   -2.4377593   -2.4377593    -1.661588  0.046319764   -2.4377593   0.77617129   426349 
  939000   0.62591404   -2.4390689   -2.4390689   -1.6610075   0.04908796   -2.4390689   0.77806135   426349 
  940000    0.6239405   -2.4369708   -2.4369708   -1.6613628  0.049340506   -2.4369708   0.77560808   426349 
  941000   0.62421379   -2.4369965   -2.4369965   -1.6610487  0.044360895   -2.4369965    0.7759478   426349 
  942000   0.62542046   -2.4379803   -2.4379803   -1.6605325  0.049951834   -2.4379803   0.77744779   426349 
  943000   0.62541835   -2.4379846   -2.4379846   -1.6605394  0.046986896   -2.4379846   0.77744517   426349 
  944000   0.62540432   -2.4379276   -2.4379276   -1.6604998  0.056102243   -2.4379276   0.77742773   426349 
  945000   0.62452353   -2.4373324   -2.4373324   -1.6609995  0.051986457   -2.4373324   0.77633283   426349 
  946000   0.62446826   -2.4376884   -2.4376884   -1.6614243  0.049000396   -2.4376884   0.77626413   426349 
  947000   0.62474966   -2.4386085   -2.4386085   -1.6619945  0.053635979   -2.4386085   0.77661394   426349 
  948000   0.62460658   -2.4380901   -2.4380901    -1.661654  0.045068589   -2.4380901   0.77643607   426349 
  949000   0.62446638   -2.4374517   -2.4374517   -1.6611899  0.050434831   -2.4374517   0.77626179   426349 
  950000   0.62376647   -2.4372464   -2.4372464   -1.6618547  0.049570359   -2.4372464   0.77539174   426349 
  951000   0.62456848   -2.4374323   -2.4374323   -1.6610436   0.04421541   -2.4374323   0.77638872   426349 
  952000   0.62399542   -2.4373237   -2.4373237   -1.6616474  0.044808229   -2.4373237   0.77567635   426349 
  953000   0.62380278   -2.4370391   -2.4370391   -1.6616022  0.046156185   -2.4370391   0.77543688   426349 
  954000   0.62208797   -2.4350959   -2.4350959   -1.6617907  0.043752398   -2.4350959   0.77330523   426349 
  955000   0.62387705   -2.4371119   -2.4371119   -1.6615827  0.044888958   -2.4371119   0.77552921   426349 
  956000   0.62331737   -2.4362842   -2.4362842   -1.6614507  0.038420776   -2.4362842   0.77483348   426349 
  957000   0.62409461   -2.4367497   -2.4367497     -1.66095  0.052780811   -2.4367497   0.77579965   426349 
  958000   0.62480431   -2.4377674   -2.4377674   -1.6610856  0.049388341   -2.4377674   0.77668186   426349 
  959000   0.62547395   -2.4376887   -2.4376887   -1.6601744  0.047519304   -2.4376887   0.77751428   426349 
  960000   0.62516607   -2.4376622   -2.4376622   -1.6605307  0.053315997   -2.4376622   0.77713157   426349 
  961000   0.62535713   -2.4380711   -2.4380711    -1.660702  0.051818828   -2.4380711   0.77736906   426349 
  962000   0.62516654   -2.4378989   -2.4378989   -1.6607667  0.052819828   -2.4378989   0.77713215   426349 
  963000   0.62407014   -2.4371287   -2.4371287   -1.6613595  0.057505139   -2.4371287   0.77576923   426349 
  964000   0.62502658   -2.4386858   -2.4386858   -1.6617277  0.048780199   -2.4386858   0.77695817   426349 
  965000   0.62412904   -2.4372401   -2.4372401   -1.6613977  0.050861567   -2.4372401   0.77584245   426349 
  966000   0.62643188   -2.4403974   -2.4403974   -1.6616923  0.043684986   -2.4403974   0.77870507   426349 
  967000   0.62485107   -2.4394032   -2.4394032   -1.6626632  0.052808228   -2.4394032      0.77674   426349 
  968000   0.62386978    -2.437535    -2.437535   -1.6620148  0.055293998    -2.437535   0.77552017   426349 
  969000   0.62446725    -2.437327    -2.437327   -1.6610641  0.051710044    -2.437327   0.77626287   426349 
  970000    0.6240862   -2.4378537   -2.4378537   -1.6620645  0.045052131   -2.4378537    0.7757892   426349 
  971000   0.62496311   -2.4390014   -2.4390014   -1.6621221  0.042635719   -2.4390014   0.77687926   426349 
  972000   0.62477753    -2.438536    -2.438536   -1.6618874  0.053033103    -2.438536   0.77664858   426349 
  973000   0.62496369   -2.4391849   -2.4391849   -1.6623049  0.046512695   -2.4391849   0.77687999   426349 
  974000    0.6248218   -2.4401349   -2.4401349   -1.6634313  0.051820496   -2.4401349    0.7767036   426349 
  975000    0.6238733   -2.4393352   -2.4393352   -1.6638106  0.053264381   -2.4393352   0.77552454   426349 
  976000   0.62456026   -2.4401754   -2.4401754   -1.6637969  0.048402117   -2.4401754    0.7763785   426349 
  977000   0.62414849   -2.4405221   -2.4405221   -1.6646555  0.040747626   -2.4405221   0.77586663   426349 
  978000   0.62379894   -2.4392871   -2.4392871    -1.663855  0.049694654   -2.4392871   0.77543211   426349 
  979000   0.62388516   -2.4397367   -2.4397367   -1.6641974  0.051143288   -2.4397367   0.77553929   426349 
  980000   0.62346438   -2.4390869   -2.4390869   -1.6640707  0.050173062   -2.4390869   0.77501623   426349 
  981000   0.62479087   -2.4405113   -2.4405113   -1.6638461  0.053748885   -2.4405113   0.77666516   426349 
  982000   0.62311837   -2.4391902   -2.4391902   -1.6646041  0.041387059   -2.4391902   0.77458611   426349 
  983000   0.62526315   -2.4413074   -2.4413074   -1.6640552  0.041656401   -2.4413074   0.77725224   426349 
  984000   0.62386379   -2.4399789   -2.4399789   -1.6644661  0.046781572   -2.4399789   0.77551272   426349 
  985000   0.62331098   -2.4392195   -2.4392195   -1.6643939  0.052435964   -2.4392195   0.77482554   426349 
  986000    0.6240345   -2.4396599   -2.4396599   -1.6639349  0.047149811   -2.4396599   0.77572494   426349 
  987000   0.62498966    -2.439823    -2.439823   -1.6629107  0.047099919    -2.439823   0.77691228   426349 
  988000   0.62399926   -2.4394423   -2.4394423   -1.6637611   0.04450894   -2.4394423   0.77568113   426349 
  989000   0.62372099   -2.4389469   -2.4389469   -1.6636116  0.045562984   -2.4389469   0.77533522   426349 
  990000   0.62282411   -2.4383964   -2.4383964    -1.664176  0.056511811   -2.4383964   0.77422032   426349 
  991000    0.6246889    -2.440656    -2.440656   -1.6641176  0.050464754    -2.440656    0.7765384   426349 
  992000   0.62416142   -2.4401563   -2.4401563   -1.6642736  0.044829353   -2.4401563    0.7758827   426349 
  993000   0.62440642   -2.4411209   -2.4411209   -1.6649337  0.048392917   -2.4411209   0.77618726   426349 
  994000   0.62369151   -2.4405448   -2.4405448   -1.6652462  0.043558468   -2.4405448   0.77529857   426349 
  995000   0.62340445   -2.4401199   -2.4401199   -1.6651782  0.044696351   -2.4401199   0.77494173   426349 
  996000   0.62470935   -2.4416474   -2.4416474   -1.6650835  0.047590626   -2.4416474   0.77656382   426349 
  997000   0.62459628   -2.4419944   -2.4419944   -1.6655711  0.044540696   -2.4419944   0.77642326   426349 
  998000   0.62387959   -2.4409435   -2.4409435   -1.6654111  0.042335101   -2.4409435   0.77553237   426349 
  999000    0.6247906   -2.4423439   -2.4423439   -1.6656791  0.052081621   -2.4423439   0.77666482   426349 
 1000000   0.62521663   -2.4425334   -2.4425334    -1.665339  0.048144193   -2.4425334   0.77719441   426349 
 1001000   0.62484883   -2.4424167   -2.4424167   -1.6656795  0.049661988   -2.4424167    0.7767372   426349 
 1002000    0.6241173   -2.4419643   -2.4419643   -1.6661365  0.046250742   -2.4419643   0.77582786   426349 
 1003000   0.62446012   -2.4429581   -2.4429581   -1.6667041    0.0332905   -2.4429581   0.77625401   426349 
 1004000   0.62388232   -2.4424337   -2.4424337   -1.6668979  0.053698315   -2.4424337   0.77553576   426349 
 1005000   0.62334381   -2.4427034   -2.4427034   -1.6678371  0.049521621   -2.4427034   0.77486635   426349 
 1006000   0.62418979   -2.4433535   -2.4433535   -1.6674355  0.048556997   -2.4433535   0.77591797   426349 
 1007000    0.6238913   -2.4428563   -2.4428563   -1.6673094  0.044378689   -2.4428563   0.77554693   426349 
 1008000   0.62367793   -2.4432577   -2.4432577    -1.667976  0.049285574   -2.4432577   0.77528168   426349 
 1009000   0.62393382   -2.4421446   -2.4421446   -1.6665448   0.05042359   -2.4421446   0.77559978   426349 
 1010000   0.62394949   -2.4426027   -2.4426027   -1.6669834  0.055021438   -2.4426027   0.77561926   426349 
 1011000   0.62425516   -2.4431336   -2.4431336   -1.6671344  0.053133836   -2.4431336   0.77599923   426349 
 1012000   0.62496391   -2.4439293   -2.4439293    -1.667049  0.048772505   -2.4439293   0.77688026   426349 
 1013000   0.62454199   -2.4438672   -2.4438672   -1.6675115  0.057985941   -2.4438672   0.77635578   426349 
 1014000   0.62456267   -2.4444229   -2.4444229   -1.6680414  0.041841617   -2.4444229   0.77638149   426349 
 1015000   0.62413737   -2.4434579   -2.4434579   -1.6676051  0.051443569   -2.4434579    0.7758528   426349 
 1016000   0.62458098   -2.4435967   -2.4435967   -1.6671925   0.05199079   -2.4435967   0.77640425   426349 
 1017000   0.62390798   -2.4432615   -2.4432615   -1.6676938  0.049484748   -2.4432615   0.77556766   426349 
 1018000   0.62390683    -2.443859    -2.443859   -1.6682927  0.046857268    -2.443859   0.77556622   426349 
 1019000   0.62431777   -2.4443613   -2.4443613   -1.6682842  0.053131808   -2.4443613   0.77607705   426349 
 1020000   0.62197427   -2.4423961   -2.4423961   -1.6692322  0.043544745   -2.4423961   0.77316389   426349 
 1021000    0.6234197   -2.4435701   -2.4435701   -1.6686094  0.049610248   -2.4435701   0.77496068   426349 
 1022000   0.62346689   -2.4441682   -2.4441682   -1.6691488  0.054827903   -2.4441682   0.77501935   426349 
 1023000   0.62305817   -2.4441768   -2.4441768   -1.6696655  0.047547328   -2.4441768   0.77451127   426349 
 1024000   0.62272575   -2.4436921   -2.4436921    -1.669594  0.052296749   -2.4436921   0.77409805   426349 
 1025000    0.6234384   -2.4450864   -2.4450864   -1.6701025   0.04853551   -2.4450864   0.77498394   426349 
 1026000   0.62313579   -2.4455409   -2.4455409   -1.6709331  0.046423973   -2.4455409   0.77460776   426349 
 1027000   0.62231364   -2.4442251   -2.4442251   -1.6706393  0.037627504   -2.4442251   0.77358577   426349 
 1028000   0.62335383   -2.4448315   -2.4448315   -1.6699527  0.052558647   -2.4448315    0.7748788   426349 
 1029000    0.6228756   -2.4454513   -2.4454513    -1.671167  0.042979993   -2.4454513   0.77428432   426349 
 1030000   0.62357431   -2.4453777   -2.4453777   -1.6702248  0.051904499   -2.4453777   0.77515288   426349 
 1031000   0.62317176   -2.4450945   -2.4450945   -1.6704421  0.060718506   -2.4450945   0.77465248   426349 
 1032000   0.62365505   -2.4457508   -2.4457508   -1.6704975   0.05686818   -2.4457508   0.77525324   426349 
 1033000   0.62498851   -2.4464176   -2.4464176   -1.6695068  0.048773084   -2.4464176   0.77691084   426349 
 1034000   0.62425843   -2.4454759   -2.4454759   -1.6694726   0.04870634   -2.4454759    0.7760033   426349 
 1035000   0.62373014    -2.444877    -2.444877   -1.6695305  0.051046818    -2.444877   0.77534658   426349 
 1036000    0.6231779    -2.444699    -2.444699   -1.6700389  0.044555598    -2.444699   0.77466011   426349 
 1037000   0.62372104   -2.4454228   -2.4454228   -1.6700876  0.051294421   -2.4454228   0.77533527   426349 
 1038000   0.62338354   -2.4451858   -2.4451858   -1.6702701  0.041858564   -2.4451858   0.77491573   426349 
 1039000   0.62300271   -2.4451772   -2.4451772   -1.6707349  0.050142613   -2.4451772   0.77444234   426349 
 1040000   0.62376045   -2.4463659   -2.4463659   -1.6709816  0.043695696   -2.4463659   0.77538426   426349 
 1041000   0.62368852   -2.4469994   -2.4469994   -1.6717046  0.042033114   -2.4469994   0.77529485   426349 
 1042000   0.62185083   -2.4450121   -2.4450121   -1.6720017  0.051589078   -2.4450121   0.77301045   426349 
 1043000   0.62519792   -2.4488802   -2.4488802   -1.6717091  0.038036298   -2.4488802   0.77717116   426349 
 1044000   0.62280085   -2.4449633   -2.4449633   -1.6707719  0.052514847   -2.4449633   0.77419141   426349 
 1045000   0.62354555   -2.4462597   -2.4462597   -1.6711426  0.049884109   -2.4462597   0.77511713   426349 
 1046000   0.62267178   -2.4453195   -2.4453195   -1.6712885  0.044514309   -2.4453195   0.77403096   426349 
 1047000   0.62314589   -2.4458462   -2.4458462   -1.6712259  0.049581789   -2.4458462   0.77462032   426349 
 1048000   0.62285042   -2.4453936   -2.4453936   -1.6711406  0.039383197   -2.4453936   0.77425302   426349 
 1049000   0.62309289   -2.4458028   -2.4458028   -1.6712484  0.046868876   -2.4458028   0.77455443   426349 
 1050000   0.62309713   -2.4463912   -2.4463912   -1.6718315  0.042584859   -2.4463912    0.7745597   426349 
 1051000   0.62267756   -2.4459123   -2.4459123   -1.6718742  0.042198616   -2.4459123   0.77403814   426349 
 1052000   0.62210539   -2.4450472   -2.4450472   -1.6717203  0.050384399   -2.4450472   0.77332689   426349 
 1053000   0.62230528   -2.4455542   -2.4455542   -1.6719789  0.047858387   -2.4455542   0.77357537   426349 
 1054000   0.62326808   -2.4464308   -2.4464308   -1.6716586  0.042958846   -2.4464308   0.77477221   426349 
 1055000   0.62250236   -2.4458467   -2.4458467   -1.6720263  0.052388791   -2.4458467   0.77382036   426349 
 1056000   0.62357889   -2.4475505   -2.4475505    -1.672392  0.037083826   -2.4475505   0.77515857   426349 
 1057000   0.62331392   -2.4466341   -2.4466341   -1.6718049  0.055449216   -2.4466341   0.77482919   426349 
 1058000    0.6247862   -2.4480058   -2.4480058   -1.6713465  0.052722928   -2.4480058   0.77665936   426349 
 1059000   0.62450885   -2.4481781   -2.4481781   -1.6718635   0.04219387   -2.4481781   0.77631459   426349 
 1060000   0.62292703   -2.4471303   -2.4471303   -1.6727821  0.044526103   -2.4471303   0.77434825   426349 
 1061000   0.62450104    -2.449087    -2.449087   -1.6727821  0.049387975    -2.449087   0.77630488   426349 
 1062000   0.62397949   -2.4483277   -2.4483277   -1.6726711  0.054730766   -2.4483277   0.77565655   426349 
 1063000   0.62276555   -2.4468904   -2.4468904   -1.6727428   0.05452058   -2.4468904   0.77414753   426349 
 1064000   0.62285239   -2.4485153   -2.4485153   -1.6742599  0.051155847   -2.4485153   0.77425547   426349 
 1065000   0.62363476   -2.4496867   -2.4496867   -1.6744587  0.043539038   -2.4496867   0.77522803   426349 
 1066000   0.62182648   -2.4477548   -2.4477548   -1.6747746  0.052502984   -2.4477548   0.77298019   426349 
 1067000   0.62205748   -2.4478954   -2.4478954   -1.6746281  0.051317431   -2.4478954   0.77326734   426349 
 1068000   0.62327395   -2.4495759   -2.4495759   -1.6747964  0.048999816   -2.4495759    0.7747795   426349 
 1069000   0.62289415   -2.4492102   -2.4492102   -1.6749028  0.050012743   -2.4492102   0.77430738   426349 
 1070000   0.62289414   -2.4497084   -2.4497084    -1.675401  0.050995407   -2.4497084   0.77430737   426349 
 1071000   0.62367129   -2.4506893   -2.4506893   -1.6754159   0.04738023   -2.4506893   0.77527344   426349 
 1072000   0.62272269   -2.4494397   -2.4494397   -1.6753454  0.048095488   -2.4494397   0.77409425   426349 
 1073000   0.62274934   -2.4502793   -2.4502793   -1.6761519  0.047364387   -2.4502793   0.77412737   426349 
 1074000   0.62245452   -2.4498086   -2.4498086   -1.6760478  0.044992901   -2.4498086   0.77376089   426349 
 1075000    0.6228093    -2.450314    -2.450314   -1.6761121   0.04904817    -2.450314   0.77420191   426349 
 1076000   0.62297405   -2.4499106   -2.4499106   -1.6755039  0.043527682   -2.4499106    0.7744067   426349 
 1077000   0.62408453   -2.4509604   -2.4509604   -1.6751733  0.051053478   -2.4509604   0.77578712   426349 
 1078000   0.62403721   -2.4507693   -2.4507693    -1.675041  0.049056938   -2.4507693    0.7757283   426349 
 1079000   0.62291773   -2.4502192   -2.4502192   -1.6758825  0.046121786   -2.4502192    0.7743367   426349 
 1080000   0.62291975   -2.4502064   -2.4502064   -1.6758672  0.042848903   -2.4502064    0.7743392   426349 
 1081000   0.62198224   -2.4493587   -2.4493587   -1.6761849  0.048492911   -2.4493587   0.77317381   426349 
 1082000   0.62338941   -2.4512105   -2.4512105   -1.6762874  0.056541475   -2.4512105   0.77492303   426349 
 1083000   0.62232706   -2.4507556   -2.4507556   -1.6771531  0.043985528   -2.4507556   0.77360245   426349 
 1084000    0.6216657   -2.4497347   -2.4497347   -1.6769544  0.049328743   -2.4497347   0.77278032   426349 
 1085000   0.62365407   -2.4514182   -2.4514182   -1.6761662  0.052917047   -2.4514182   0.77525203   426349 
 1086000   0.62269917   -2.4510542   -2.4510542   -1.6769892  0.045559549   -2.4510542     0.774065   426349 
 1087000   0.62247529   -2.4500382   -2.4500382   -1.6762515  0.038116209   -2.4500382    0.7737867   426349 
 1088000    0.6236335    -2.451255    -2.451255   -1.6760286  0.051849103    -2.451255   0.77522646   426349 
 1089000   0.62291732   -2.4504105   -2.4504105   -1.6760743  0.052370496   -2.4504105   0.77433619   426349 
 1090000   0.62390436   -2.4516428   -2.4516428   -1.6760797  0.039455821   -2.4516428   0.77556315   426349 
 1091000   0.62354026   -2.4512275   -2.4512275   -1.6761169  0.048299763   -2.4512275   0.77511055   426349 
 1092000   0.62341319   -2.4522785   -2.4522785   -1.6773259  0.043438097   -2.4522785   0.77495259   426349 
 1093000   0.62339076   -2.4523681   -2.4523681   -1.6774433  0.047656622   -2.4523681   0.77492471   426349 
 1094000   0.62205617   -2.4509951   -2.4509951   -1.6777294  0.057196153   -2.4509951    0.7732657   426349 
 1095000   0.62323658   -2.4525817   -2.4525817   -1.6778486  0.049709848   -2.4525817   0.77473305   426349 
 1096000   0.62265018   -2.4513003   -2.4513003   -1.6772961  0.044279579   -2.4513003   0.77400411   426349 
 1097000   0.62222426   -2.4512365   -2.4512365   -1.6777619  0.038793232   -2.4512365   0.77347465   426349 
 1098000   0.62295032   -2.4513404   -2.4513404   -1.6769632  0.050002602   -2.4513404   0.77437721   426349 
 1099000   0.62270866    -2.451409    -2.451409   -1.6773322  0.045255234    -2.451409    0.7740768   426349 
 1100000    0.6209453   -2.4491743   -2.4491743   -1.6772895  0.046268238   -2.4491743    0.7718848   426349 
 1101000   0.62159134   -2.4505655   -2.4505655   -1.6778776  0.045281373   -2.4505655   0.77268789   426349 
 1102000   0.62248296   -2.4519406   -2.4519406   -1.6781444  0.043614596   -2.4519406   0.77379624   426349 
 1103000   0.62236267   -2.4521469   -2.4521469   -1.6785002   0.04137461   -2.4521469   0.77364671   426349 
 1104000   0.62232369   -2.4523347   -2.4523347   -1.6787364  0.044487466   -2.4523347   0.77359826   426349 
 1105000   0.62081487   -2.4508601   -2.4508601   -1.6791374  0.043918876   -2.4508601   0.77172268   426349 
 1106000    0.6210868   -2.4513885   -2.4513885   -1.6793278  0.049646941   -2.4513885   0.77206071   426349 
 1107000   0.62210159   -2.4526083   -2.4526083   -1.6792861  0.049661312   -2.4526083   0.77332217   426349 
 1108000   0.62168954   -2.4520984   -2.4520984   -1.6792884    0.0502606   -2.4520984   0.77280995   426349 
 1109000   0.62144976   -2.4517085   -2.4517085   -1.6791966  0.045376774   -2.4517085   0.77251189   426349 
 1110000   0.62130885   -2.4517703   -2.4517703   -1.6794336  0.048634087   -2.4517703   0.77233673   426349 
 1111000   0.62138816   -2.4519054   -2.4519054     -1.67947  0.045277775   -2.4519054   0.77243532   426349 
 1112000    0.6218753   -2.4521647   -2.4521647   -1.6791238  0.049729679   -2.4521647   0.77304087   426349 
 1113000   0.62262418   -2.4534228   -2.4534228    -1.679451  0.046856284   -2.4534228   0.77397178   426349 
 1114000   0.62283975   -2.4537561   -2.4537561   -1.6795163  0.047169989   -2.4537561   0.77423976   426349 
 1115000   0.62186891   -2.4530585   -2.4530585   -1.6800256  0.053817435   -2.4530585   0.77303292   426349 
 1116000   0.62347736   -2.4549315   -2.4549315   -1.6798992  0.051651568   -2.4549315   0.77503236   426349 
 1117000   0.62275441   -2.4545808   -2.4545808   -1.6804471  0.049139235   -2.4545808   0.77413368   426349 
 1118000   0.62202434   -2.4540813   -2.4540813   -1.6808551  0.043469447   -2.4540813   0.77322614   426349 
 1119000   0.62272997   -2.4546546   -2.4546546   -1.6805513  0.039383256   -2.4546546   0.77410329   426349 
 1120000   0.62258803   -2.4551353   -2.4551353   -1.6812084  0.044222701   -2.4551353   0.77392685   426349 
 1121000   0.62177523   -2.4545417   -2.4545417   -1.6816252  0.041901641   -2.4545417   0.77291647   426349 
 1122000   0.62173351   -2.4540947   -2.4540947   -1.6812301  0.052561152   -2.4540947   0.77286461   426349 
 1123000   0.62192512   -2.4552416   -2.4552416   -1.6821388  0.052092542   -2.4552416    0.7731028   426349 
 1124000   0.62249733   -2.4554642   -2.4554642   -1.6816501  0.041382975   -2.4554642   0.77381411   426349 
 1125000   0.62154452   -2.4542288   -2.4542288   -1.6815991   0.04884364   -2.4542288   0.77262969   426349 
 1126000   0.62128658   -2.4543757   -2.4543757   -1.6820667  0.042718826   -2.4543757   0.77230905   426349 
 1127000   0.62259029   -2.4560663   -2.4560663   -1.6821366  0.051024433   -2.4560663   0.77392967   426349 
 1128000   0.62270768   -2.4563842   -2.4563842   -1.6823086  0.055230781   -2.4563842   0.77407559   426349 
 1129000   0.62216703   -2.4569886   -2.4569886   -1.6835851  0.045928262   -2.4569886   0.77340351   426349 
 1130000   0.62166247   -2.4555361   -2.4555361   -1.6827598  0.050434102   -2.4555361   0.77277631   426349 
 1131000   0.62146813   -2.4556002   -2.4556002   -1.6830655  0.050963081   -2.4556002   0.77253472   426349 
 1132000   0.62086282   -2.4548115   -2.4548115   -1.6830293  0.046720295   -2.4548115   0.77178228   426349 
 1133000   0.62161362   -2.4558408   -2.4558408   -1.6831252  0.047415235   -2.4558408   0.77271558   426349 
 1134000   0.62201589    -2.456135    -2.456135   -1.6829194  0.044144734    -2.456135   0.77321563   426349 
 1135000   0.62207955   -2.4557805   -2.4557805   -1.6824857  0.052917236   -2.4557805   0.77329477   426349 
 1136000   0.62196745    -2.455791    -2.455791   -1.6826356  0.038099398    -2.455791   0.77315542   426349 
 1137000   0.62127616     -2.45465     -2.45465   -1.6823539  0.037261012     -2.45465   0.77229609   426349 
 1138000    0.6216208   -2.4557022   -2.4557022   -1.6829777  0.040365033   -2.4557022   0.77272451   426349 
 1139000   0.62188081   -2.4559995   -2.4559995   -1.6829518  0.040844968   -2.4559995   0.77304772   426349 
 1140000   0.62060251   -2.4538772   -2.4538772   -1.6824185  0.049333683   -2.4538772    0.7714587   426349 
 1141000   0.62090376   -2.4543177   -2.4543177   -1.6824845   0.04435961   -2.4543177   0.77183317   426349 
 1142000   0.62012609   -2.4537623   -2.4537623   -1.6828958  0.057045934   -2.4537623   0.77086647   426349 
 1143000   0.62090044   -2.4544274   -2.4544274   -1.6825983  0.046400412   -2.4544274   0.77182905   426349 
 1144000   0.62000247   -2.4538795   -2.4538795   -1.6831667  0.047685971   -2.4538795    0.7707128   426349 
 1145000   0.62063205   -2.4545394   -2.4545394    -1.683044  0.036340908   -2.4545394   0.77149541   426349 
 1146000    0.6224426   -2.4561084   -2.4561084   -1.6823623  0.043740329   -2.4561084   0.77374607   426349 
 1147000   0.62153395   -2.4558389   -2.4558389   -1.6832223  0.046336144   -2.4558389   0.77261654   426349 
 1148000   0.62137431     -2.45587     -2.45587   -1.6834519  0.045872595     -2.45587    0.7724181   426349 
 1149000    0.6216153   -2.4570268   -2.4570268   -1.6843091  0.047702869   -2.4570268   0.77271767   426349 
 1150000   0.62095286   -2.4569306   -2.4569306   -1.6850364  0.046431274   -2.4569306    0.7718942   426349 
 1151000   0.62004147   -2.4549743   -2.4549743   -1.6842131   0.04659524   -2.4549743   0.77076127   426349 
 1152000   0.62216208   -2.4568394   -2.4568394    -1.683442  0.047298641   -2.4568394   0.77339736   426349 
 1153000   0.62228279   -2.4577518   -2.4577518   -1.6842043  0.041689406   -2.4577518   0.77354742   426349 
 1154000    0.6209346   -2.4564022   -2.4564022   -1.6845307  0.044027317   -2.4564022   0.77187151   426349 
 1155000   0.62167986   -2.4576746   -2.4576746   -1.6848767  0.053338424   -2.4576746   0.77279792   426349 
 1156000    0.6221052   -2.4584248   -2.4584248   -1.6850982   0.04722557   -2.4584248   0.77332666   426349 
 1157000   0.62048353   -2.4570764   -2.4570764   -1.6857657  0.047017639   -2.4570764   0.77131079   426349 
 1158000    0.6223581   -2.4593399   -2.4593399   -1.6856988  0.044906444   -2.4593399   0.77364104   426349 
 1159000   0.62189855   -2.4584526   -2.4584526   -1.6853828  0.046617093   -2.4584526   0.77306978   426349 
 1160000   0.62162433   -2.4581739   -2.4581739    -1.685445   0.04505616   -2.4581739   0.77272889   426349 
 1161000   0.61978054    -2.456929    -2.456929   -1.6864921  0.042465479    -2.456929   0.77043692   426349 
 1162000   0.62119892   -2.4582654   -2.4582654   -1.6860653  0.047695403   -2.4582654   0.77220008   426349 
 1163000   0.62146207   -2.4592281   -2.4592281   -1.6867009  0.048162187   -2.4592281    0.7725272   426349 
 1164000   0.62141395   -2.4593781   -2.4593781   -1.6869108  0.036355838   -2.4593781   0.77246738   426349 
 1165000   0.62175973    -2.459138    -2.459138   -1.6862408  0.046167534    -2.459138   0.77289722   426349 
 1166000   0.62225315   -2.4599957   -2.4599957   -1.6864851  0.052788193   -2.4599957   0.77351057   426349 
 1167000   0.62149481   -2.4602588   -2.4602588   -1.6876909  0.045708281   -2.4602588   0.77256789   426349 
 1168000   0.62114513   -2.4595896   -2.4595896   -1.6874564  0.046852025   -2.4595896   0.77213321   426349 
 1169000   0.62144569   -2.4596911   -2.4596911   -1.6871842  0.044692189   -2.4596911   0.77250684   426349 
 1170000   0.62043643   -2.4589882   -2.4589882    -1.687736  0.049507029   -2.4589882   0.77125224   426349 
 1171000   0.62164903   -2.4612293   -2.4612293   -1.6884697  0.048915374   -2.4612293   0.77275959   426349 
 1172000   0.62139749   -2.4607961   -2.4607961   -1.6883492  0.041714921   -2.4607961   0.77244692   426349 
 1173000   0.62162387   -2.4610261   -2.4610261   -1.6882977  0.047534717   -2.4610261   0.77272833   426349 
 1174000   0.62066913   -2.4602392   -2.4602392   -1.6886977  0.043500792   -2.4602392   0.77154151   426349 
 1175000    0.6218008   -2.4621505   -2.4621505   -1.6892022  0.051224608   -2.4621505   0.77294826   426349 
 1176000   0.62153171   -2.4609242   -2.4609242   -1.6883104  0.052529757   -2.4609242   0.77261376   426349 
 1177000   0.62205098   -2.4613048   -2.4613048   -1.6880455  0.039840965   -2.4613048   0.77325925   426349 
 1178000   0.62157972   -2.4612092   -2.4612092   -1.6885357  0.058042304   -2.4612092   0.77267345   426349 
 1179000   0.62125082   -2.4612845   -2.4612845   -1.6890199  0.050784453   -2.4612845   0.77226459   426349 
 1180000   0.62084574   -2.4606353   -2.4606353   -1.6888743  0.046875793   -2.4606353   0.77176105   426349 
 1181000   0.62141743   -2.4617183   -2.4617183   -1.6892466  0.038781358   -2.4617183    0.7724717   426349 
 1182000    0.6204252   -2.4604837   -2.4604837   -1.6892455    0.0454958   -2.4604837   0.77123828   426349 
 1183000   0.61976161   -2.4604796   -2.4604796   -1.6900663  0.042947044   -2.4604796   0.77041339   426349 
 1184000   0.62115649   -2.4613794   -2.4613794   -1.6892321  0.046454289   -2.4613794   0.77214733   426349 
 1185000   0.62059867   -2.4605998   -2.4605998   -1.6891458  0.046933448   -2.4605998   0.77145392   426349 
 1186000   0.62091336    -2.460409    -2.460409   -1.6885639  0.043508588    -2.460409   0.77184511   426349 
 1187000   0.61976138   -2.4597068   -2.4597068   -1.6892937  0.045624903   -2.4597068    0.7704131   426349 
 1188000   0.62050362   -2.4613286   -2.4613286   -1.6899929  0.040875598   -2.4613286   0.77133577   426349 
 1189000   0.61955623   -2.4606621   -2.4606621    -1.690504  0.042357784   -2.4606621   0.77015808   426349 
 1190000   0.61997704   -2.4616186   -2.4616186   -1.6909374  0.043798721   -2.4616186   0.77068118   426349 
 1191000   0.61999873   -2.4610066   -2.4610066   -1.6902984  0.043684445   -2.4610066   0.77070815   426349 
 1192000   0.62003911   -2.4609277   -2.4609277   -1.6901694  0.046882322   -2.4609277   0.77075834   426349 
 1193000   0.62063583   -2.4617153   -2.4617153   -1.6902152  0.056004249   -2.4617153   0.77150011   426349 
 1194000   0.62037625   -2.4619031   -2.4619031   -1.6907257  0.040430318   -2.4619031   0.77117743   426349 
 1195000   0.62061148   -2.4625805   -2.4625805   -1.6911106  0.046311333   -2.4625805   0.77146985   426349 
 1196000   0.62111054   -2.4621923   -2.4621923   -1.6901021  0.047742206   -2.4621923   0.77209021   426349 
 1197000   0.62073534   -2.4628865   -2.4628865   -1.6912627  0.045654724   -2.4628865   0.77162381   426349 
 1198000    0.6209464   -2.4631121   -2.4631121   -1.6912259  0.047071421   -2.4631121   0.77188617   426349 
 1199000   0.62128277   -2.4642341   -2.4642341   -1.6919298  0.045524135   -2.4642341   0.77230431   426349 
 1200000   0.62184214   -2.4641774   -2.4641774   -1.6911778  0.053564087   -2.4641774   0.77299965   426349 
 1201000   0.62125581   -2.4637314   -2.4637314   -1.6914606  0.041210419   -2.4637314   0.77227079   426349 
 1202000   0.62021837    -2.462528    -2.462528   -1.6915469  0.044775101    -2.462528   0.77098118   426349 
 1203000   0.62063203   -2.4632198   -2.4632198   -1.6917244  0.042691084   -2.4632198   0.77149538   426349 
 1204000   0.61955595   -2.4624034   -2.4624034   -1.6922456  0.048820306   -2.4624034   0.77015773   426349 
 1205000   0.62096817   -2.4645765   -2.4645765   -1.6926633  0.057328355   -2.4645765   0.77191324   426349 
 1206000   0.62085127   -2.4639319   -2.4639319    -1.692164  0.049412513   -2.4639319   0.77176791   426349 
 1207000   0.62051911   -2.4637284   -2.4637284   -1.6923734  0.048689215   -2.4637284   0.77135501   426349 
 1208000   0.62081038   -2.4642476   -2.4642476   -1.6925305  0.047140432   -2.4642476   0.77171709   426349 
 1209000   0.62048205   -2.4629563   -2.4629563   -1.6916474  0.051080173   -2.4629563   0.77130895   426349 
 1210000     0.621537   -2.4641548   -2.4641548   -1.6915345  0.044057417   -2.4641548   0.77262034   426349 
 1211000   0.62117059   -2.4645403   -2.4645403   -1.6923755  0.041637561   -2.4645403   0.77216486   426349 
 1212000   0.61943085   -2.4623177   -2.4623177   -1.6923154  0.039858787   -2.4623177   0.77000222   426349 
 1213000   0.62130661   -2.4649943   -2.4649943   -1.6926603  0.053197789   -2.4649943   0.77233394   426349 
 1214000   0.62090145   -2.4650071   -2.4650071   -1.6931769  0.040487089   -2.4650071    0.7718303   426349 
 1215000   0.62196373   -2.4660914   -2.4660914   -1.6929406  0.049469025   -2.4660914    0.7731508   426349 
 1216000    0.6202695   -2.4650211   -2.4650211   -1.6939764  0.038261517   -2.4650211   0.77104474   426349 
 1217000   0.62039007   -2.4656361   -2.4656361   -1.6944414  0.036743605   -2.4656361   0.77119461   426349 
 1218000   0.62016798   -2.4649914   -2.4649914   -1.6940728  0.046497357   -2.4649914   0.77091854   426349 
 1219000   0.62018558   -2.4648833   -2.4648833   -1.6939429   0.04625534   -2.4648833   0.77094041   426349 
 1220000   0.62111193   -2.4654681   -2.4654681   -1.6933762  0.041136528   -2.4654681   0.77209194   426349 
 1221000   0.62116293   -2.4654594   -2.4654594    -1.693304  0.049908697   -2.4654594   0.77215534   426349 
 1222000   0.62045723   -2.4645953   -2.4645953   -1.6933172  0.045432911   -2.4645953    0.7712781   426349 
 1223000   0.62015321   -2.4649592   -2.4649592   -1.6940591  0.054895425   -2.4649592   0.77090017   426349 
 1224000   0.62020386   -2.4646491   -2.4646491    -1.693686  0.051714505   -2.4646491   0.77096313   426349 
 1225000   0.62065019   -2.4646529   -2.4646529    -1.693135  0.049367377   -2.4646529   0.77151796   426349 
 1226000   0.62124925   -2.4652839   -2.4652839   -1.6930213  0.036217141   -2.4652839   0.77226264   426349 
 1227000   0.62025415   -2.4644822   -2.4644822   -1.6934566  0.040503684   -2.4644822   0.77102565   426349 
 1228000   0.61893244   -2.4627822   -2.4627822   -1.6933996  0.047581518   -2.4627822   0.76938266   426349 
 1229000   0.62081731    -2.464462    -2.464462   -1.6927363  0.050819281    -2.464462   0.77172571   426349 
 1230000   0.62064379   -2.4644736   -2.4644736   -1.6929636  0.046180354   -2.4644736      0.77151   426349 
 1231000   0.61894683   -2.4623991   -2.4623991   -1.6929985  0.044319963   -2.4623991   0.76940054   426349 
 1232000   0.61996747   -2.4632588   -2.4632588   -1.6925895  0.036990909   -2.4632588   0.77066929   426349 
 1233000   0.62051261   -2.4639496   -2.4639496   -1.6926027  0.047148319   -2.4639496   0.77134693   426349 
 1234000   0.61869298   -2.4623007   -2.4623007   -1.6932157  0.044794643   -2.4623007     0.769085   426349 
 1235000   0.61922149   -2.4633995   -2.4633995   -1.6936575  0.041656348   -2.4633995   0.76974197   426349 
 1236000   0.61901654   -2.4623614   -2.4623614   -1.6928742  0.042480008   -2.4623614   0.76948721   426349 
 1237000   0.61933551   -2.4628622   -2.4628622   -1.6929785  0.039407099   -2.4628622   0.76988371   426349 
 1238000   0.61967047   -2.4625932   -2.4625932   -1.6922931  0.040240063   -2.4625932    0.7703001   426349 
 1239000   0.62088332   -2.4644914   -2.4644914   -1.6926836  0.045281402   -2.4644914   0.77180777   426349 
 1240000   0.62068227   -2.4638111   -2.4638111   -1.6922533  0.038691187   -2.4638111   0.77155784   426349 
 1241000   0.62019892   -2.4637324   -2.4637324   -1.6927754  0.045608585   -2.4637324   0.77095699   426349 
 1242000   0.61967406   -2.4636579   -2.4636579   -1.6933534  0.047071253   -2.4636579   0.77030455   426349 
 1243000   0.61995721   -2.4649449   -2.4649449   -1.6942884  0.052637506   -2.4649449   0.77065653   426349 
 1244000   0.61958206   -2.4645012   -2.4645012    -1.694311  0.050744166   -2.4645012   0.77019019   426349 
 1245000   0.62004781   -2.4652667   -2.4652667   -1.6944976  0.045906624   -2.4652667   0.77076916   426349 
 1246000    0.6197334   -2.4653268   -2.4653268   -1.6949485  0.042215283   -2.4653268   0.77037832   426349 
 1247000   0.61995221   -2.4662428   -2.4662428   -1.6955925  0.038413048   -2.4662428   0.77065032   426349 
 1248000   0.61922616   -2.4648333   -2.4648333   -1.6950855  0.040043182   -2.4648333   0.76974778   426349 
 1249000   0.61979191   -2.4654769   -2.4654769   -1.6950259  0.045504598   -2.4654769   0.77045105   426349 
 1250000   0.62075527   -2.4664579   -2.4664579   -1.6948093  0.037658891   -2.4664579   0.77164858   426349 
 1251000   0.61975954   -2.4659319   -2.4659319   -1.6955211   0.04528735   -2.4659319   0.77041081   426349 
 1252000   0.62002014   -2.4667352   -2.4667352   -1.6960005  0.038917515   -2.4667352   0.77073476   426349 
 1253000   0.61970994   -2.4668951   -2.4668951    -1.696546  0.049905965   -2.4668951   0.77034915   426349 
 1254000   0.61900423   -2.4660563   -2.4660563   -1.6965844  0.042202059   -2.4660563    0.7694719   426349 
 1255000   0.61998561   -2.4674296   -2.4674296   -1.6967377   0.05102355   -2.4674296   0.77069183   426349 
 1256000    0.6194324   -2.4671296   -2.4671296   -1.6971254  0.052235901   -2.4671296   0.77000415   426349 
 1257000   0.62070228   -2.4684933   -2.4684933   -1.6969106  0.038874323   -2.4684933   0.77158271   426349 
 1258000   0.62232834   -2.4698157   -2.4698157   -1.6962116  0.052551089   -2.4698157   0.77360404   426349 
 1259000   0.62121411   -2.4682571   -2.4682571   -1.6960382  0.046445145   -2.4682571   0.77221896   426349 
 1260000   0.61992463   -2.4668708   -2.4668708   -1.6962548  0.043932703   -2.4668708   0.77061603   426349 
 1261000   0.62082145   -2.4684636   -2.4684636   -1.6967328  0.053009527   -2.4684636   0.77173085   426349 
 1262000   0.61961214   -2.4680721   -2.4680721   -1.6978445  0.042077564   -2.4680721   0.77022758   426349 
 1263000   0.61945598   -2.4682699   -2.4682699   -1.6982365  0.047405352   -2.4682699   0.77003346   426349 
 1264000   0.61911336   -2.4679288   -2.4679288   -1.6983212  0.038529031   -2.4679288   0.76960756   426349 
 1265000   0.61955195   -2.4677038   -2.4677038   -1.6975511  0.037243616   -2.4677038   0.77015277   426349 
 1266000    0.6196682   -2.4677106   -2.4677106   -1.6974134  0.042952288   -2.4677106   0.77029727   426349 
 1267000   0.61958655    -2.467521    -2.467521   -1.6973252  0.048430278    -2.467521   0.77019578   426349 
 1268000   0.61929507   -2.4674142   -2.4674142   -1.6975808  0.038932691   -2.4674142   0.76983344   426349 
 1269000   0.61889147   -2.4666811   -2.4666811   -1.6973493  0.050676138   -2.4666811   0.76933173   426349 
 1270000   0.61852865   -2.4662638   -2.4662638   -1.6973831  0.043232492   -2.4662638   0.76888072   426349 
 1271000   0.62041555   -2.4683487   -2.4683487   -1.6971224  0.036468117   -2.4683487   0.77122629   426349 
 1272000   0.61926784   -2.4666649   -2.4666649   -1.6968653  0.043673684   -2.4666649   0.76979959   426349 
 1273000   0.62075518   -2.4680175   -2.4680175   -1.6963691  0.037320245   -2.4680175   0.77164848   426349 
 1274000   0.62023756    -2.467616    -2.467616   -1.6966109  0.049789327    -2.467616   0.77100503   426349 
 1275000   0.62007174    -2.467625    -2.467625   -1.6968261   0.04140532    -2.467625    0.7707989   426349 
 1276000   0.61943705   -2.4670254   -2.4670254   -1.6970155  0.055393318   -2.4670254   0.77000993   426349 
 1277000   0.62003879   -2.4679761   -2.4679761   -1.6972182  0.039135072   -2.4679761   0.77075794   426349 
 1278000   0.62034936   -2.4686249   -2.4686249   -1.6974809  0.046155282   -2.4686249   0.77114401   426349 
 1279000   0.61929747   -2.4678387   -2.4678387   -1.6980023  0.048802435   -2.4678387   0.76983642   426349 
 1280000   0.61972941   -2.4678692   -2.4678692   -1.6974958  0.047680212   -2.4678692   0.77037336   426349 
 1281000   0.61991501   -2.4681991   -2.4681991    -1.697595  0.046644094   -2.4681991   0.77060408   426349 
 1282000   0.61936727   -2.4677809   -2.4677809   -1.6978577  0.048870841   -2.4677809   0.76992319   426349 
 1283000   0.61952193    -2.467051    -2.467051   -1.6969356  0.043198509    -2.467051   0.77011544   426349 
 1284000   0.61963612   -2.4672435   -2.4672435   -1.6969861  0.043626957   -2.4672435   0.77025739   426349 
 1285000   0.62021168   -2.4686518   -2.4686518    -1.697679   0.04846868   -2.4686518   0.77097286   426349 
 1286000   0.62010821   -2.4683073   -2.4683073    -1.697463  0.046200559   -2.4683073   0.77084424   426349 
 1287000   0.62001647   -2.4683788   -2.4683788   -1.6976486  0.041239771   -2.4683788    0.7707302   426349 
 1288000   0.61972494   -2.4686573   -2.4686573   -1.6982895  0.043058584   -2.4686573    0.7703678   426349 
 1289000   0.61865449   -2.4675127   -2.4675127   -1.6984756  0.056312636   -2.4675127   0.76903715   426349 
 1290000   0.61973662   -2.4696568   -2.4696568   -1.6992744  0.047827199   -2.4696568   0.77038232   426349 
 1291000   0.61956878   -2.4696725   -2.4696725   -1.6994988  0.042392869   -2.4696725   0.77017368   426349 
 1292000   0.61879611   -2.4683372   -2.4683372    -1.699124  0.047122682   -2.4683372   0.76921319   426349 
 1293000    0.6186092   -2.4682968   -2.4682968    -1.699316  0.048723823   -2.4682968   0.76898085   426349 
 1294000    0.6185202    -2.468095    -2.468095   -1.6992248  0.043445405    -2.468095   0.76887021   426349 
 1295000   0.61894773    -2.468567    -2.468567   -1.6991653  0.048727594    -2.468567   0.76940166   426349 
 1296000   0.61909163   -2.4698917   -2.4698917   -1.7003111  0.043563096   -2.4698917   0.76958054   426349 
 1297000   0.62030814   -2.4711688   -2.4711688    -1.700076  0.042660805   -2.4711688   0.77109276   426349 
 1298000   0.61979818   -2.4708805   -2.4708805   -1.7004216  0.047936606   -2.4708805   0.77045885   426349 
 1299000   0.61980569   -2.4708072   -2.4708072    -1.700339  0.050411826   -2.4708072   0.77046818   426349 
 1300000   0.62089934   -2.4724548   -2.4724548   -1.7006271  0.041582483   -2.4724548   0.77182767   426349 
 1301000   0.62052284   -2.4719331   -2.4719331   -1.7005734  0.050771749   -2.4719331   0.77135966   426349 
 1302000   0.61935854   -2.4708813   -2.4708813    -1.700969  0.044890065   -2.4708813   0.76991233   426349 
 1303000   0.62059309   -2.4725324   -2.4725324   -1.7010854  0.039966391   -2.4725324   0.77144698   426349 
 1304000   0.61909847   -2.4711094   -2.4711094   -1.7015204  0.045596355   -2.4711094   0.76958905   426349 
 1305000   0.61928552   -2.4708649   -2.4708649   -1.7010433  0.045717345   -2.4708649   0.76982156   426349 
 1306000   0.62020664   -2.4713764   -2.4713764   -1.7004098  0.049215726   -2.4713764   0.77096659   426349 
 1307000    0.6190984   -2.4705752   -2.4705752   -1.7009862  0.044906311   -2.4705752   0.76958896   426349 
 1308000   0.61914662   -2.4709079   -2.4709079    -1.701259  0.043521996   -2.4709079    0.7696489   426349 
 1309000    0.6187427   -2.4707907   -2.4707907   -1.7016439  0.051787955   -2.4707907   0.76914679   426349 
 1310000   0.61846122   -2.4714029   -2.4714029    -1.702606  0.054883588   -2.4714029    0.7687969   426349 
 1311000   0.61909844   -2.4718895   -2.4718895   -1.7023005   0.04483481   -2.4718895   0.76958901   426349 
 1312000   0.61961563   -2.4725904   -2.4725904   -1.7023585  0.040374964   -2.4725904   0.77023192   426349 
 1313000   0.61920618   -2.4721553   -2.4721553   -1.7024323  0.040498194   -2.4721553   0.76972294   426349 
 1314000   0.61851489   -2.4709552   -2.4709552   -1.7020916  0.041437187   -2.4709552   0.76886361   426349 
 1315000   0.61928596   -2.4720476   -2.4720476   -1.7022255  0.039632146   -2.4720476   0.76982211   426349 
 1316000   0.61889487   -2.4720063   -2.4720063   -1.7026703  0.047484796   -2.4720063   0.76933596   426349 
 1317000   0.61888404   -2.4716729   -2.4716729   -1.7023504  0.039503067   -2.4716729    0.7693225   426349 
 1318000   0.61931196   -2.4719674   -2.4719674   -1.7021129  0.046725924   -2.4719674   0.76985443   426349 
 1319000   0.61986999   -2.4724905   -2.4724905   -1.7019424  0.047081983   -2.4724905   0.77054811   426349 
 1320000   0.61963305   -2.4721404   -2.4721404   -1.7018868  0.045799573   -2.4721404   0.77025357   426349 
 1321000   0.61857915   -2.4715399   -2.4715399   -1.7025964  0.044025792   -2.4715399   0.76894349   426349 
 1322000   0.61905455   -2.4717987   -2.4717987   -1.7022643  0.048029184   -2.4717987   0.76953446   426349 
 1323000   0.62064393   -2.4724848   -2.4724848   -1.7009747  0.048633368   -2.4724848   0.77151018   426349 
 1324000   0.61952829    -2.471573    -2.471573   -1.7014497  0.045831977    -2.471573   0.77012335   426349 
 1325000   0.61891507   -2.4710167   -2.4710167   -1.7016557  0.036812531   -2.4710167   0.76936107   426349 
 1326000   0.61917963    -2.471631    -2.471631   -1.7019411  0.046497943    -2.471631   0.76968994   426349 
 1327000   0.62001246   -2.4726098   -2.4726098   -1.7018846  0.044886114   -2.4726098   0.77072521   426349 
 1328000   0.61906085   -2.4720536   -2.4720536   -1.7025113   0.04522315   -2.4720536   0.76954228   426349 
 1329000   0.61972213   -2.4727438   -2.4727438   -1.7023795  0.042351624   -2.4727438    0.7703643   426349 
 1330000      0.61993   -2.4732815   -2.4732815   -1.7026588  0.047694991   -2.4732815   0.77062271   426349 
 1331000   0.61884243   -2.4721494   -2.4721494   -1.7028787  0.049066872   -2.4721494   0.76927077   426349 
 1332000   0.62028237    -2.473067    -2.473067   -1.7020063  0.049746334    -2.473067   0.77106074   426349 
 1333000    0.6184934   -2.4710747   -2.4710747   -1.7022378  0.048572348   -2.4710747    0.7688369   426349 
 1334000   0.61874729   -2.4714918   -2.4714918   -1.7023393  0.046788667   -2.4714918   0.76915251   426349 
 1335000   0.61935787   -2.4723575   -2.4723575    -1.702446  0.046915547   -2.4723575   0.76991151   426349 
 1336000   0.61937845   -2.4733439   -2.4733439   -1.7034068   0.04645294   -2.4733439   0.76993709   426349 
 1337000      0.61759   -2.4718018   -2.4718018    -1.704088  0.046596111   -2.4718018    0.7677139   426349 
 1338000   0.61921748   -2.4731543   -2.4731543   -1.7034173  0.050420857   -2.4731543   0.76973698   426349 
 1339000   0.61866018   -2.4718707   -2.4718707   -1.7028264  0.052463592   -2.4718707   0.76904421   426349 
 1340000   0.61898954   -2.4727797   -2.4727797   -1.7033261  0.047260609   -2.4727797   0.76945364   426349 
 1341000   0.61940201   -2.4726619   -2.4726619   -1.7026955  0.047578007   -2.4726619   0.76996638   426349 
 1342000   0.61911385    -2.472246    -2.472246   -1.7026379  0.052475724    -2.472246   0.76960817   426349 
 1343000   0.61932614   -2.4731687   -2.4731687   -1.7032966  0.053825609   -2.4731687   0.76987207   426349 
 1344000    0.6188039   -2.4728095   -2.4728095   -1.7035866  0.034442983   -2.4728095   0.76922287   426349 
 1345000   0.61907948   -2.4728922   -2.4728922   -1.7033267  0.047559119   -2.4728922   0.76956545   426349 
 1346000   0.61845952   -2.4724657   -2.4724657    -1.703671  0.049908833   -2.4724657   0.76879478   426349 
 1347000   0.61956835   -2.4736722   -2.4736722    -1.703499   0.04811641   -2.4736722   0.77017314   426349 
 1348000   0.61831843   -2.4722032   -2.4722032   -1.7035838  0.044344159   -2.4722032    0.7686194   426349 
 1349000   0.61925909   -2.4735954   -2.4735954   -1.7038067  0.051801345   -2.4735954   0.76978871   426349 
 1350000   0.61870277     -2.47252     -2.47252   -1.7034228  0.047685939     -2.47252   0.76909716   426349 
 1351000   0.61845094   -2.4720028   -2.4720028   -1.7032187  0.040440589   -2.4720028   0.76878412   426349 
 1352000   0.61887131   -2.4727358   -2.4727358   -1.7034291  0.038767303   -2.4727358   0.76930667   426349 
 1353000   0.61815649   -2.4720376   -2.4720376   -1.7036196  0.050841901   -2.4720376   0.76841809   426349 
 1354000   0.61787823   -2.4726559   -2.4726559   -1.7045837  0.044013163   -2.4726559    0.7680722   426349 
 1355000   0.61908016   -2.4737154   -2.4737154   -1.7041491  0.046722947   -2.4737154   0.76956628   426349 
 1356000   0.61876776    -2.473465    -2.473465    -1.704287  0.044421217    -2.473465   0.76917795   426349 
 1357000   0.61881775   -2.4744199   -2.4744199   -1.7051798  0.042820824   -2.4744199   0.76924009   426349 
 1358000   0.61831651   -2.4737456   -2.4737456   -1.7051286  0.044176323   -2.4737456   0.76861701   426349 
 1359000   0.61791047   -2.4736071   -2.4736071   -1.7054948  0.038572949   -2.4736071   0.76811227   426349 
 1360000   0.61705584   -2.4724543   -2.4724543   -1.7054044  0.049195623   -2.4724543    0.7670499   426349 
 1361000    0.6179266   -2.4741127   -2.4741127   -1.7059803  0.046252362   -2.4741127   0.76813232   426349 
 1362000   0.61834232   -2.4744746   -2.4744746   -1.7058255  0.041722404   -2.4744746   0.76864909   426349 
 1363000   0.61904169   -2.4754573   -2.4754573   -1.7059388  0.048383526   -2.4754573   0.76951847   426349 
 1364000   0.61891209    -2.475706    -2.475706   -1.7063486  0.047321579    -2.475706   0.76935736   426349 
 1365000   0.61905801   -2.4753805   -2.4753805   -1.7058418  0.046156945   -2.4753805   0.76953875   426349 
 1366000   0.61914461   -2.4761088   -2.4761088   -1.7064623  0.038379691   -2.4761088   0.76964641   426349 
 1367000   0.62006637    -2.477084    -2.477084   -1.7062918  0.048818501    -2.477084   0.77079222   426349 
 1368000   0.62023684   -2.4776987   -2.4776987   -1.7066946  0.048509167   -2.4776987   0.77100413   426349 
 1369000   0.61874627   -2.4771189   -2.4771189   -1.7079677  0.049254592   -2.4771189   0.76915124   426349 
 1370000   0.61871656   -2.4775407   -2.4775407   -1.7084264  0.037916955   -2.4775407    0.7691143   426349 
 1371000   0.61951418   -2.4782848   -2.4782848    -1.708179   0.04507761   -2.4782848   0.77010581   426349 
 1372000   0.61898367   -2.4769744   -2.4769744   -1.7075281  0.043626424   -2.4769744   0.76944635   426349 
 1373000   0.61876847   -2.4767403   -2.4767403   -1.7075614  0.045786011   -2.4767403   0.76917884   426349 
 1374000    0.6185006   -2.4764398   -2.4764398    -1.707594  0.039768277   -2.4764398   0.76884585   426349 
 1375000   0.61880086   -2.4758863   -2.4758863   -1.7066672  0.049805938   -2.4758863   0.76921909   426349 
 1376000   0.61964971   -2.4768278   -2.4768278   -1.7065535    0.0432054   -2.4768278   0.77027428   426349 
 1377000   0.61829315   -2.4748514   -2.4748514   -1.7062634  0.043127116   -2.4748514   0.76858798   426349 
 1378000   0.61839273   -2.4753617   -2.4753617     -1.70665  0.053110131   -2.4753617   0.76871175   426349 
 1379000    0.6173187   -2.4745347   -2.4745347    -1.707158  0.038529721   -2.4745347   0.76737665   426349 
 1380000   0.61782855   -2.4752392   -2.4752392   -1.7072287  0.039777499   -2.4752392   0.76801044   426349 
 1381000   0.61825489   -2.4749789   -2.4749789   -1.7064385  0.041141181   -2.4749789   0.76854041   426349 
 1382000    0.6183005   -2.4750985   -2.4750985   -1.7065014  0.043078704   -2.4750985   0.76859711   426349 
 1383000    0.6178332   -2.4753312   -2.4753312    -1.707315  0.039292915   -2.4753312   0.76801622   426349 
 1384000   0.61755761   -2.4750969   -2.4750969   -1.7074233  0.046556521   -2.4750969   0.76767364   426349 
 1385000   0.61765764   -2.4753024   -2.4753024   -1.7075045  0.039315573   -2.4753024   0.76779798   426349 
 1386000    0.6178932   -2.4750016   -2.4750016   -1.7069108   0.03700484   -2.4750016    0.7680908   426349 
 1387000   0.61838707   -2.4750074   -2.4750074   -1.7063027  0.047762868   -2.4750074   0.76870472   426349 
 1388000   0.61773658   -2.4747043   -2.4747043   -1.7068082  0.043976289   -2.4747043   0.76789611   426349 
 1389000   0.61734275    -2.475011    -2.475011   -1.7076045  0.048259768    -2.475011   0.76740655   426349 
 1390000   0.61777471   -2.4748712   -2.4748712   -1.7069277  0.045571125   -2.4748712    0.7679435   426349 
 1391000   0.61869461    -2.476048    -2.476048   -1.7069609  0.038200462    -2.476048   0.76908702   426349 
 1392000   0.61772062   -2.4754661   -2.4754661   -1.7075898  0.049752845   -2.4754661   0.76787627   426349 
 1393000   0.61832185    -2.476382    -2.476382   -1.7077584  0.046299946    -2.476382   0.76862365   426349 
 1394000   0.61882023   -2.4770866   -2.4770866   -1.7078434  0.043306593   -2.4770866   0.76924317   426349 
 1395000   0.61794706   -2.4756929   -2.4756929   -1.7075351   0.04870096   -2.4756929   0.76815776   426349 
 1396000   0.61836757   -2.4770458   -2.4770458   -1.7083654  0.044870564   -2.4770458   0.76868048   426349 
 1397000   0.61792774   -2.4774828   -2.4774828   -1.7093491  0.042470696   -2.4774828   0.76813374   426349 
 1398000   0.61941644   -2.4798057   -2.4798057   -1.7098214  0.042606031   -2.4798057   0.76998431   426349 
 1399000   0.61930077   -2.4799779   -2.4799779   -1.7101374  0.050309603   -2.4799779   0.76984053   426349 
 1400000     0.617364   -2.4774361   -2.4774361   -1.7100031  0.040732239   -2.4774361   0.76743296   426349 
 1401000   0.61913972   -2.4788926   -2.4788926   -1.7092522  0.048723712   -2.4788926   0.76964033   426349 
 1402000   0.62044851   -2.4798231   -2.4798231   -1.7085558  0.049884264   -2.4798231   0.77126726   426349 
 1403000   0.61973332   -2.4797568   -2.4797568   -1.7093786  0.040182595   -2.4797568   0.77037822   426349 
 1404000   0.61869974   -2.4785747   -2.4785747   -1.7094813  0.046583191   -2.4785747   0.76909339   426349 
 1405000   0.61835385   -2.4787492   -2.4787492   -1.7100857  0.045919633   -2.4787492   0.76866343   426349 
 1406000   0.61856737   -2.4787387   -2.4787387   -1.7098099  0.047132748   -2.4787387   0.76892885   426349 
 1407000   0.61903713   -2.4792709   -2.4792709   -1.7097581  0.043904482   -2.4792709    0.7695128   426349 
 1408000    0.6185541   -2.4792843   -2.4792843   -1.7103719  0.050691951   -2.4792843   0.76891236   426349 
 1409000   0.61816816   -2.4787327   -2.4787327   -1.7103001  0.041657224   -2.4787327    0.7684326   426349 
 1410000    0.6167292   -2.4775186   -2.4775186   -1.7108747  0.046928152   -2.4775186   0.76664386   426349 
 1411000   0.61696721   -2.4779483   -2.4779483   -1.7110086  0.043942828   -2.4779483   0.76693973   426349 
 1412000    0.6172981   -2.4778908   -2.4778908   -1.7105398  0.039315809   -2.4778908   0.76735104   426349 
 1413000   0.61755282   -2.4791303   -2.4791303   -1.7114626   0.03882459   -2.4791303   0.76766768   426349 
 1414000   0.61766884   -2.4789887   -2.4789887   -1.7111768  0.051939983   -2.4789887    0.7678119   426349 
 1415000   0.61700554   -2.4784445   -2.4784445   -1.7114571  0.044978291   -2.4784445   0.76698737   426349 
 1416000   0.61600015   -2.4772686   -2.4772686    -1.711531  0.049219803   -2.4772686   0.76573759   426349 
 1417000   0.61614182   -2.4779339   -2.4779339   -1.7120202  0.038030446   -2.4779339   0.76591369   426349 
 1418000   0.61600666   -2.4774904   -2.4774904   -1.7117447  0.045464211   -2.4774904   0.76574568   426349 
 1419000   0.61626645    -2.478425    -2.478425   -1.7123564  0.039001101    -2.478425   0.76606862   426349 
 1420000   0.61726806   -2.4801084   -2.4801084   -1.7127947  0.037087415   -2.4801084   0.76731371   426349 
 1421000   0.61792917   -2.4809095   -2.4809095    -1.712774   0.04519474   -2.4809095   0.76813551   426349 
 1422000   0.61642611   -2.4793503   -2.4793503   -1.7130832   0.04076973   -2.4793503   0.76626709   426349 
 1423000   0.61738558   -2.4802539   -2.4802539   -1.7127941  0.036380676   -2.4802539   0.76745979   426349 
 1424000   0.61878362    -2.481905    -2.481905   -1.7127074  0.043711159    -2.481905   0.76919766   426349 
 1425000   0.61766576    -2.480192    -2.480192   -1.7123839  0.043953041    -2.480192   0.76780808   426349 
 1426000   0.61675753   -2.4793174   -2.4793174   -1.7126384  0.050744695   -2.4793174   0.76667907   426349 
 1427000   0.61941877   -2.4822576   -2.4822576   -1.7122704  0.050348838   -2.4822576   0.76998721   426349 
 1428000   0.61884717   -2.4821934   -2.4821934   -1.7129167  0.049945022   -2.4821934   0.76927667   426349 
 1429000   0.61828425   -2.4813212   -2.4813212   -1.7127442  0.042581127   -2.4813212   0.76857691   426349 
 1430000   0.61841061   -2.4815798   -2.4815798   -1.7128458  0.048513284   -2.4815798   0.76873399   426349 
 1431000   0.61834148   -2.4817541   -2.4817541   -1.7131061  0.044782259   -2.4817541   0.76864806   426349 
 1432000   0.61697044   -2.4804631   -2.4804631   -1.7135194   0.04595015   -2.4804631   0.76694373   426349 
 1433000   0.61694982   -2.4814117   -2.4814117   -1.7144936  0.047538124   -2.4814117   0.76691811   426349 
 1434000   0.61695514   -2.4808517   -2.4808517    -1.713927  0.054206081   -2.4808517   0.76692471   426349 
 1435000   0.61809346   -2.4823702   -2.4823702   -1.7140305  0.049762211   -2.4823702   0.76833974   426349 
 1436000   0.61711218   -2.4814701   -2.4814701   -1.7143501  0.045457605   -2.4814701   0.76711993   426349 
 1437000   0.61770999   -2.4819212   -2.4819212   -1.7140581  0.044081944   -2.4819212   0.76786305   426349 
 1438000   0.61764858    -2.482272    -2.482272   -1.7144853  0.050647919    -2.482272   0.76778672   426349 
 1439000   0.61684521   -2.4807899   -2.4807899   -1.7140018  0.047249475   -2.4807899   0.76678807   426349 
 1440000   0.61836496   -2.4818237   -2.4818237   -1.7131465  0.040644861   -2.4818237   0.76867723   426349 
 1441000   0.61797645    -2.480976    -2.480976   -1.7127817  0.043092564    -2.480976   0.76819429   426349 
 1442000   0.61858916   -2.4818262   -2.4818262   -1.7128702  0.048920648   -2.4818262   0.76895593   426349 
 1443000   0.61786258   -2.4805478   -2.4805478   -1.7124951  0.045237743   -2.4805478   0.76805275   426349 
 1444000    0.6178811   -2.4806219   -2.4806219   -1.7125461  0.043362851   -2.4806219   0.76807576   426349 
 1445000   0.61621661   -2.4796717   -2.4796717    -1.713665  0.045645429   -2.4796717   0.76600666   426349 
 1446000   0.61680096   -2.4806702   -2.4806702   -1.7139371  0.043784313   -2.4806702   0.76673306   426349 
 1447000   0.61602372   -2.4794474   -2.4794474   -1.7136805   0.04314369   -2.4794474   0.76576689   426349 
 1448000   0.61657754   -2.4805502   -2.4805502   -1.7140948  0.045252314   -2.4805502   0.76645533   426349 
 1449000   0.61680195   -2.4798878   -2.4798878   -1.7131535  0.040048288   -2.4798878   0.76673429   426349 
 1450000   0.61614203   -2.4800733   -2.4800733   -1.7141593   0.03808045   -2.4800733   0.76591396   426349 
 1451000    0.6160603   -2.4796653   -2.4796653   -1.7138529  0.043700246   -2.4796653   0.76581236   426349 
 1452000   0.61788964   -2.4818978   -2.4818978   -1.7138115  0.045013773   -2.4818978   0.76808638   426349 
 1453000   0.61639297   -2.4803549   -2.4803549    -1.714129  0.045625912   -2.4803549    0.7662259   426349 
 1454000   0.61715195   -2.4810166   -2.4810166   -1.7138472  0.039559011   -2.4810166   0.76716937   426349 
 1455000     0.618619   -2.4827361   -2.4827361    -1.713743   0.04130384   -2.4827361   0.76899303   426349 
 1456000   0.61706344   -2.4816146   -2.4816146   -1.7145553  0.045082581   -2.4816146   0.76705935   426349 
 1457000   0.61736702   -2.4823236   -2.4823236   -1.7148869  0.045846248   -2.4823236   0.76743671   426349 
 1458000   0.61763408   -2.4821542   -2.4821542   -1.7143855  0.042476194   -2.4821542   0.76776869   426349 
 1459000   0.61737645   -2.4820829   -2.4820829   -1.7146344  0.038616776   -2.4820829   0.76744844   426349 
 1460000   0.61840775   -2.4833912   -2.4833912   -1.7146607   0.03931891   -2.4833912   0.76873043   426349 
 1461000   0.61738769   -2.4813026   -2.4813026   -1.7138401  0.050654459   -2.4813026   0.76746241   426349 
 1462000   0.61680703   -2.4809681   -2.4809681   -1.7142275  0.045804338   -2.4809681   0.76674061   426349 
 1463000   0.61737081   -2.4823008   -2.4823008   -1.7148594  0.044488446   -2.4823008   0.76744144   426349 
 1464000     0.618308   -2.4831329   -2.4831329   -1.7145265  0.045668356   -2.4831329   0.76860644   426349 
 1465000   0.61774062   -2.4827408   -2.4827408   -1.7148396  0.038295685   -2.4827408   0.76790113   426349 
 1466000   0.61767281   -2.4827377   -2.4827377   -1.7149208  0.049450628   -2.4827377   0.76781684   426349 
 1467000   0.61802681   -2.4837852   -2.4837852   -1.7155283  0.050155686   -2.4837852   0.76825689   426349 
 1468000   0.61776666   -2.4833962   -2.4833962   -1.7154627  0.042528212   -2.4833962    0.7679335   426349 
 1469000    0.6167928   -2.4822851   -2.4822851   -1.7155622  0.039699933   -2.4822851   0.76672291   426349 
 1470000    0.6175836   -2.4831105   -2.4831105   -1.7154045   0.04671026   -2.4831105   0.76770595   426349 
 1471000   0.61762492   -2.4832936   -2.4832936   -1.7155363  0.045067618   -2.4832936   0.76775731   426349 
 1472000   0.61746326    -2.483272    -2.483272   -1.7157156  0.035573966    -2.483272   0.76755636   426349 
 1473000    0.6172652   -2.4831297   -2.4831297   -1.7158195  0.040774277   -2.4831297   0.76731015   426349 
 1474000   0.61732286   -2.4824815   -2.4824815   -1.7150997  0.055087071   -2.4824815   0.76738182   426349 
 1475000   0.61805311   -2.4841133   -2.4841133   -1.7158237  0.048603978   -2.4841133   0.76828958   426349 
 1476000    0.6170822    -2.482994    -2.482994   -1.7159113  0.046337771    -2.482994   0.76708267   426349 
 1477000    0.6171454     -2.48319     -2.48319   -1.7160288  0.042786249     -2.48319   0.76716122   426349 
 1478000   0.61809831   -2.4840282   -2.4840282   -1.7156824  0.034810233   -2.4840282   0.76834577   426349 
 1479000   0.61630113   -2.4825722   -2.4825722   -1.7164604  0.040430507   -2.4825722   0.76611173   426349 
 1480000   0.61686094   -2.4837754   -2.4837754   -1.7169677  0.048444828   -2.4837754   0.76680762   426349 
 1481000   0.61657996   -2.4833356   -2.4833356   -1.7168773  0.044434094   -2.4833356   0.76645834   426349 
 1482000   0.61737185   -2.4843717   -2.4843717    -1.716929   0.04805846   -2.4843717   0.76744272   426349 
 1483000   0.61644588   -2.4828826   -2.4828826    -1.716591  0.042873541   -2.4828826   0.76629166   426349 
 1484000   0.61624338   -2.4828431   -2.4828431   -1.7168032  0.047251799   -2.4828431   0.76603994   426349 
 1485000   0.61675211   -2.4834305   -2.4834305   -1.7167582    0.0405226   -2.4834305   0.76667233   426349 
 1486000   0.61660522   -2.4828988   -2.4828988   -1.7164091  0.043210335   -2.4828988   0.76648974   426349 
 1487000    0.6174603   -2.4839893   -2.4839893   -1.7164367  0.044388249   -2.4839893   0.76755267   426349 
 1488000   0.61749117   -2.4846615   -2.4846615   -1.7170704  0.045866645   -2.4846615   0.76759105   426349 
 1489000   0.61726571    -2.484352    -2.484352   -1.7170412  0.041427103    -2.484352   0.76731078   426349 
 1490000    0.6162635   -2.4832891   -2.4832891   -1.7172242   0.04575607   -2.4832891   0.76606496   426349 
 1491000    0.6171495   -2.4841191   -2.4841191   -1.7169528  0.036539083   -2.4841191   0.76716632   426349 
 1492000   0.61653304   -2.4831688   -2.4831688   -1.7167688  0.030552368   -2.4831688   0.76640001   426349 
 1493000   0.61746169   -2.4844627   -2.4844627   -1.7169084  0.041182256   -2.4844627    0.7675544   426349 
 1494000   0.61688524   -2.4835224   -2.4835224   -1.7166846  0.044481154   -2.4835224   0.76683782   426349 
 1495000   0.61656689   -2.4835977   -2.4835977   -1.7171556  0.044792705   -2.4835977   0.76644209   426349 
 1496000   0.61690657   -2.4843677   -2.4843677   -1.7175033  0.039099799   -2.4843677   0.76686434   426349 
 1497000    0.6167815   -2.4840091   -2.4840091   -1.7173002  0.052029399   -2.4840091   0.76670887   426349 
 1498000   0.61775387    -2.484929    -2.484929   -1.7170114  0.046266875    -2.484929    0.7679176   426349 
 1499000   0.61574991   -2.4830648   -2.4830648   -1.7176383  0.047882391   -2.4830648   0.76542653   426349 
 1500000   0.61694112   -2.4844774   -2.4844774   -1.7175701  0.041778125   -2.4844774   0.76690729   426349 
 1501000   0.61708068   -2.4847768   -2.4847768    -1.717696  0.041212395   -2.4847768   0.76708078   426349 
 1502000   0.61739337   -2.4848202   -2.4848202   -1.7173507  0.039691256   -2.4848202   0.76746948   426349 
 1503000   0.61834641   -2.4858851   -2.4858851   -1.7172309  0.046915224   -2.4858851   0.76865418   426349 
 1504000   0.61692343   -2.4848878   -2.4848878   -1.7180025  0.052997079   -2.4848878    0.7668853   426349 
 1505000   0.61636898   -2.4843325   -2.4843325   -1.7181364  0.048941631   -2.4843325   0.76619608   426349 
 1506000    0.6185566   -2.4864243   -2.4864243   -1.7175088  0.040969386   -2.4864243   0.76891546   426349 
 1507000   0.61680015   -2.4848027   -2.4848027   -1.7180706  0.037202762   -2.4848027   0.76673206   426349 
 1508000   0.61803951   -2.4860858   -2.4860858   -1.7178131  0.050414173   -2.4860858   0.76827268   426349 
 1509000   0.61770307   -2.4857248   -2.4857248   -1.7178704  0.042785404   -2.4857248   0.76785445   426349 
 1510000   0.61793142   -2.4858908   -2.4858908   -1.7177525  0.047817667   -2.4858908   0.76813831   426349 
 1511000   0.61843013   -2.4863281   -2.4863281   -1.7175699  0.045490994   -2.4863281   0.76875825   426349 
 1512000   0.61881465   -2.4864636   -2.4864636   -1.7172274  0.044692709   -2.4864636   0.76923624   426349 
 1513000   0.61881829   -2.4855268   -2.4855268   -1.7162861  0.053709326   -2.4855268   0.76924077   426349 
 1514000   0.61813491   -2.4848501   -2.4848501   -1.7164589  0.043826278   -2.4848501   0.76839126   426349 
 1515000    0.6186204   -2.4860663   -2.4860663   -1.7170715  0.042246443   -2.4860663   0.76899477   426349 
 1516000   0.61799894    -2.485744    -2.485744   -1.7175217  0.047655617    -2.485744   0.76822224   426349 
 1517000   0.61781851   -2.4859089   -2.4859089   -1.7179109  0.045429874   -2.4859089   0.76799796   426349 
 1518000   0.61813611    -2.486061    -2.486061   -1.7176683  0.051393555    -2.486061   0.76839276   426349 
 1519000    0.6175839   -2.4859123   -2.4859123    -1.718206  0.045658452   -2.4859123   0.76770632   426349 
 1520000   0.61836697   -2.4871053   -2.4871053   -1.7184256  0.043643229   -2.4871053   0.76867974   426349 
 1521000   0.61717374   -2.4861909   -2.4861909   -1.7189945  0.046095972   -2.4861909   0.76719645   426349 
 1522000   0.61596808    -2.484898    -2.484898   -1.7192003   0.04476384    -2.484898   0.76569773   426349 
 1523000   0.61681421   -2.4861723   -2.4861723   -1.7194228   0.04730445   -2.4861723   0.76674953   426349 
 1524000   0.61635351   -2.4849342   -2.4849342   -1.7187573  0.044704627   -2.4849342   0.76617684   426349 
 1525000   0.61794318    -2.487048    -2.487048    -1.718895  0.035527318    -2.487048   0.76815293   426349 
 1526000   0.61676879   -2.4852154   -2.4852154   -1.7185223   0.03935225   -2.4852154   0.76669308   426349 
 1527000    0.6165723   -2.4850031   -2.4850031   -1.7185543  0.046483533   -2.4850031   0.76644881   426349 
 1528000   0.61733369   -2.4854226   -2.4854226   -1.7180273  0.046719236   -2.4854226   0.76739529   426349 
 1529000   0.61660147   -2.4855019   -2.4855019   -1.7190168  0.044385972   -2.4855019   0.76648508   426349 
 1530000   0.61680141   -2.4862263   -2.4862263   -1.7194927  0.041789012   -2.4862263   0.76673362   426349 
 1531000   0.61613157   -2.4851992   -2.4851992   -1.7192982  0.043928877   -2.4851992   0.76590095   426349 
 1532000   0.61654598   -2.4855407   -2.4855407   -1.7191246  0.050128858   -2.4855407    0.7664161   426349 
 1533000   0.61729222   -2.4871104   -2.4871104   -1.7197667  0.045230039   -2.4871104   0.76734374   426349 
 1534000   0.61699765   -2.4863237   -2.4863237   -1.7193461  0.047841997   -2.4863237   0.76697757   426349 
 1535000   0.61718223   -2.4869588   -2.4869588   -1.7197518  0.047578092   -2.4869588   0.76720701   426349 
 1536000    0.6172367   -2.4875891   -2.4875891   -1.7203144  0.044185119   -2.4875891   0.76727472   426349 
 1537000   0.61583542   -2.4859365   -2.4859365   -1.7204037  0.048085912   -2.4859365   0.76553281   426349 
 1538000   0.61657654   -2.4869271   -2.4869271    -1.720473  0.035872084   -2.4869271   0.76645409   426349 
 1539000   0.61620221   -2.4865159   -2.4865159   -1.7205271  0.039666612   -2.4865159   0.76598877   426349 
 1540000   0.61610066   -2.4866608   -2.4866608   -1.7207982  0.046661382   -2.4866608   0.76586253   426349 
 1541000   0.61592643   -2.4865937   -2.4865937   -1.7209478  0.041586069   -2.4865937   0.76564594   426349 
 1542000   0.61560125   -2.4860836   -2.4860836   -1.7208419  0.051345528   -2.4860836   0.76524173   426349 
 1543000   0.61639056   -2.4872324   -2.4872324   -1.7210095  0.049601049   -2.4872324    0.7662229   426349 
 1544000   0.61684849   -2.4876408   -2.4876408   -1.7208487  0.048908568   -2.4876408   0.76679215   426349 
 1545000   0.61639682   -2.4875139   -2.4875139   -1.7212832  0.044758384   -2.4875139   0.76623069   426349 
 1546000   0.61687487   -2.4881797   -2.4881797   -1.7213548   0.04599986   -2.4881797   0.76682494   426349 
 1547000   0.61707516   -2.4882321   -2.4882321   -1.7211582  0.041701962   -2.4882321   0.76707391   426349 
 1548000   0.61705918    -2.488389    -2.488389    -1.721335  0.048013021    -2.488389   0.76705405   426349 
 1549000    0.6161857   -2.4879652   -2.4879652    -1.721997  0.044117575   -2.4879652   0.76596824   426349 
 1550000   0.61712319   -2.4884845   -2.4884845   -1.7213509  0.041171408   -2.4884845   0.76713362   426349 
 1551000   0.61728784   -2.4891813   -2.4891813    -1.721843  0.035401808   -2.4891813   0.76733829   426349 
 1552000   0.61753685    -2.489658    -2.489658   -1.7220102   0.03783304    -2.489658   0.76764784   426349 
 1553000   0.61704195   -2.4890379   -2.4890379   -1.7220053  0.049104204   -2.4890379   0.76703263   426349 
 1554000   0.61769922   -2.4893173   -2.4893173   -1.7214676  0.039299403   -2.4893173   0.76784967   426349 
 1555000   0.61702227   -2.4881852   -2.4881852   -1.7211771  0.052589728   -2.4881852   0.76700817   426349 
 1556000   0.61726088   -2.4892888   -2.4892888    -1.721984  0.046943774   -2.4892888   0.76730478   426349 
 1557000   0.61668569   -2.4885924   -2.4885924   -1.7220026  0.042535086   -2.4885924   0.76658977   426349 
 1558000   0.61617684   -2.4879507   -2.4879507   -1.7219935  0.049758678   -2.4879507   0.76595723   426349 
 1559000   0.61719786   -2.4894583   -2.4894583   -1.7222319  0.039762477   -2.4894583   0.76722644   426349 
 1560000   0.61605123   -2.4884478   -2.4884478   -1.7226467  0.047855664   -2.4884478   0.76580109   426349 
 1561000   0.61668538   -2.4890715   -2.4890715   -1.7224821  0.039644569   -2.4890715   0.76658938   426349 
 1562000   0.61551243   -2.4878735   -2.4878735   -1.7227422  0.036732811   -2.4878735   0.76513131   426349 
 1563000    0.6180508   -2.4908353   -2.4908353   -1.7225485  0.043223166   -2.4908353   0.76828672   426349 
 1564000   0.61656952   -2.4891822   -2.4891822   -1.7227368  0.047333636   -2.4891822   0.76644536   426349 
 1565000   0.61657209   -2.4890548   -2.4890548   -1.7226062  0.050816499   -2.4890548   0.76644855   426349 
 1566000   0.61586376   -2.4887708   -2.4887708   -1.7232028  0.048389259   -2.4887708   0.76556804   426349 
 1567000   0.61650694   -2.4889625   -2.4889625    -1.722595  0.050512862   -2.4889625   0.76636758   426349 
 1568000   0.61701577   -2.4883681   -2.4883681    -1.721368  0.038466601   -2.4883681   0.76700008   426349 
 1569000   0.61702495   -2.4881431   -2.4881431   -1.7211316  0.045459587   -2.4881431    0.7670115   426349 
 1570000   0.61728074   -2.4888961   -2.4888961   -1.7215667  0.041454503   -2.4888961   0.76732947   426349 
 1571000   0.61553861   -2.4877963   -2.4877963   -1.7226324  0.040516394   -2.4877963   0.76516385   426349 
 1572000   0.61632109   -2.4883026   -2.4883026   -1.7221661  0.043092144   -2.4883026   0.76613654   426349 
 1573000   0.61620585   -2.4887161   -2.4887161   -1.7227228  0.051778711   -2.4887161    0.7659933   426349 
 1574000   0.61674016   -2.4895065   -2.4895065   -1.7228491  0.047552213   -2.4895065   0.76665748   426349 
 1575000   0.61690307   -2.4897857   -2.4897857   -1.7229258  0.044619738   -2.4897857      0.76686   426349 
 1576000   0.61610761   -2.4885801   -2.4885801   -1.7227089  0.055250808   -2.4885801   0.76587117   426349 
 1577000   0.61678306   -2.4891996   -2.4891996   -1.7224888  0.043443052   -2.4891996   0.76671081   426349 
 1578000   0.61628437   -2.4888485   -2.4888485   -1.7227576  0.037431111   -2.4888485    0.7660909   426349 
 1579000   0.61598918   -2.4886331   -2.4886331   -1.7229092   0.04585206   -2.4886331   0.76572395   426349 
 1580000   0.61592496   -2.4889209   -2.4889209   -1.7232768  0.039719606   -2.4889209   0.76564412   426349 
 1581000   0.61609138   -2.4888822   -2.4888822   -1.7230312  0.053794517   -2.4888822     0.765851   426349 
 1582000   0.61525076   -2.4878664   -2.4878664   -1.7230604  0.047640868   -2.4878664   0.76480604   426349 
 1583000   0.61753402   -2.4901371   -2.4901371   -1.7224928  0.035919589   -2.4901371   0.76764432   426349 
 1584000   0.61711003   -2.4892949   -2.4892949   -1.7221776  0.046579191   -2.4892949   0.76711726   426349 
 1585000   0.61717837   -2.4893824   -2.4893824   -1.7221802  0.043236586   -2.4893824   0.76720222   426349 
 1586000   0.61668269   -2.4882992   -2.4882992   -1.7217132  0.045636085   -2.4882992   0.76658604   426349 
 1587000   0.61733196   -2.4894663   -2.4894663   -1.7220732  0.042895096   -2.4894663   0.76739314   426349 
 1588000   0.61725775   -2.4904817   -2.4904817   -1.7231808  0.044515208   -2.4904817   0.76730089   426349 
 1589000   0.61735746   -2.4905305   -2.4905305   -1.7231056  0.044500785   -2.4905305   0.76742484   426349 
 1590000   0.61548833   -2.4885225   -2.4885225   -1.7234211  0.043786016   -2.4885225   0.76510135   426349 
 1591000   0.61548409   -2.4884109   -2.4884109   -1.7233149  0.047774794   -2.4884109   0.76509609   426349 
 1592000   0.61426128   -2.4876141   -2.4876141   -1.7240381   0.03589726   -2.4876141   0.76357604   426349 
 1593000   0.61516742   -2.4888993   -2.4888993   -1.7241969  0.044033384   -2.4888993   0.76470243   426349 
 1594000   0.61621935   -2.4901062   -2.4901062   -1.7240961  0.045332514   -2.4901062   0.76601007   426349 
 1595000   0.61534985   -2.4889873   -2.4889873   -1.7240581  0.036477479   -2.4889873   0.76492922   426349 
 1596000   0.61672246   -2.4900774   -2.4900774    -1.723442  0.046076199   -2.4900774   0.76663548   426349 
 1597000   0.61638284   -2.4912701   -2.4912701   -1.7250568  0.041177457   -2.4912701    0.7662133   426349 
 1598000   0.61632307   -2.4907236   -2.4907236   -1.7245846  0.037956729   -2.4907236     0.766139   426349 
 1599000   0.61596666    -2.490637    -2.490637    -1.724941   0.04344538    -2.490637   0.76569596   426349 
 1600000    0.6148022   -2.4888607   -2.4888607   -1.7246123  0.044904515   -2.4888607   0.76424844   426349 
 1601000   0.61586001   -2.4899998   -2.4899998   -1.7244365  0.045679185   -2.4899998   0.76556338   426349 
 1602000   0.61588837   -2.4906674   -2.4906674   -1.7250688  0.051240687   -2.4906674   0.76559864   426349 
 1603000   0.61624276   -2.4914609   -2.4914609   -1.7254217  0.042135434   -2.4914609   0.76603917   426349 
 1604000   0.61557305   -2.4905703   -2.4905703   -1.7253637  0.038687268   -2.4905703   0.76520667   426349 
 1605000   0.61712209   -2.4923053   -2.4923053    -1.725173  0.041897137   -2.4923053   0.76713225   426349 
 1606000   0.61596851   -2.4915168   -2.4915168   -1.7258185   0.04509571   -2.4915168   0.76569826   426349 
 1607000   0.61588071   -2.4914397   -2.4914397   -1.7258505  0.043069863   -2.4914397   0.76558912   426349 
 1608000   0.61598421   -2.4920128   -2.4920128   -1.7262951  0.045186179   -2.4920128   0.76571778   426349 
 1609000   0.61763217   -2.4946059   -2.4946059   -1.7268395  0.049650217   -2.4946059   0.76776632   426349 
 1610000   0.61548069   -2.4926712   -2.4926712   -1.7275793  0.043129136   -2.4926712   0.76509186   426349 
 1611000   0.61597746   -2.4931947   -2.4931947   -1.7274854  0.042741303   -2.4931947   0.76570938   426349 
 1612000   0.61544053   -2.4922735   -2.4922735   -1.7272315  0.057328368   -2.4922735   0.76504194   426349 
 1613000   0.61642754   -2.4944539   -2.4944539    -1.728185  0.044032687   -2.4944539   0.76626887   426349 
 1614000   0.61574724    -2.493394    -2.493394   -1.7279708  0.044820891    -2.493394    0.7654232   426349 
 1615000   0.61583492   -2.4935942   -2.4935942    -1.728062  0.049181115   -2.4935942    0.7655322   426349 
 1616000    0.6151781   -2.4929262   -2.4929262   -1.7282105  0.039308081   -2.4929262   0.76471571   426349 
 1617000   0.61667017    -2.494177    -2.494177   -1.7276065  0.045189626    -2.494177   0.76657048   426349 
 1618000   0.61592676   -2.4935034   -2.4935034    -1.727857  0.041111307   -2.4935034   0.76564636   426349 
 1619000   0.61609249   -2.4934471   -2.4934471   -1.7275948  0.044118406   -2.4934471   0.76585238   426349 
 1620000   0.61466284   -2.4922404   -2.4922404   -1.7281652  0.046343618   -2.4922404   0.76407521   426349 
 1621000   0.61502571    -2.493146    -2.493146   -1.7286197  0.039836728    -2.493146   0.76452629   426349 
 1622000   0.61539314   -2.4934061   -2.4934061    -1.728423  0.047398806   -2.4934061   0.76498303   426349 
 1623000   0.61572004   -2.4937366   -2.4937366   -1.7283472  0.041981415   -2.4937366   0.76538939   426349 
 1624000   0.61424058   -2.4918431   -2.4918431   -1.7282928  0.042767044   -2.4918431   0.76355031   426349 
 1625000   0.61528212   -2.4921655   -2.4921655   -1.7273205  0.049226289   -2.4921655   0.76484502   426349 
 1626000    0.6155976   -2.4929677   -2.4929677   -1.7277305  0.052114681   -2.4929677   0.76523719   426349 
 1627000   0.61660703   -2.4938095   -2.4938095   -1.7273175  0.041469462   -2.4938095   0.76649199   426349 
 1628000   0.61508584   -2.4915319   -2.4915319   -1.7269309  0.042942093   -2.4915319   0.76460103   426349 
 1629000   0.61597228   -2.4923035   -2.4923035   -1.7266005   0.03757516   -2.4923035   0.76570295   426349 
 1630000    0.6155475   -2.4922397   -2.4922397   -1.7270648   0.03847259   -2.4922397   0.76517491   426349 
 1631000    0.6158235   -2.4922807   -2.4922807   -1.7267627  0.041460714   -2.4922807     0.765518   426349 
 1632000   0.61591171   -2.4930482   -2.4930482   -1.7274205  0.045503971   -2.4930482   0.76562766   426349 
 1633000   0.61648952   -2.4937182   -2.4937182   -1.7273723  0.051530049   -2.4937182   0.76634591   426349 
 1634000   0.61635084   -2.4932792   -2.4932792   -1.7271057   0.04345781   -2.4932792   0.76617352   426349 
 1635000   0.61600943   -2.4924045   -2.4924045   -1.7266554  0.036365437   -2.4924045   0.76574913   426349 
 1636000   0.61509371   -2.4921348   -2.4921348    -1.727524  0.042283912   -2.4921348   0.76461081   426349 
 1637000   0.61558048   -2.4923041   -2.4923041   -1.7270882  0.050276388   -2.4923041   0.76521591   426349 
 1638000   0.61561035   -2.4934061   -2.4934061   -1.7281531  0.046205385   -2.4934061   0.76525304   426349 
 1639000   0.61537575   -2.4928125   -2.4928125   -1.7278511  0.041518393   -2.4928125   0.76496141   426349 
 1640000   0.61421232   -2.4921628   -2.4921628   -1.7286476  0.038038224   -2.4921628   0.76351517   426349 
 1641000   0.61593727   -2.4946448   -2.4946448   -1.7289853  0.040418722   -2.4946448   0.76565943   426349 
 1642000   0.61544784   -2.4936111   -2.4936111   -1.7285601  0.044628946   -2.4936111   0.76505102   426349 
 1643000   0.61567976   -2.4945162   -2.4945162   -1.7291769  0.052184478   -2.4945162   0.76533932   426349 
 1644000    0.6172856   -2.4956327   -2.4956327   -1.7282972  0.040920557   -2.4956327   0.76733551   426349 
 1645000   0.61550483   -2.4938829   -2.4938829    -1.728761  0.048084643   -2.4938829   0.76512187   426349 
 1646000   0.61413551   -2.4925366   -2.4925366   -1.7291169  0.043978901   -2.4925366    0.7634197   426349 
 1647000   0.61494362   -2.4929745   -2.4929745   -1.7285503  0.041736122   -2.4929745   0.76442424   426349 
 1648000   0.61561741   -2.4937901   -2.4937901   -1.7285283   0.04701775   -2.4937901   0.76526182   426349 
 1649000    0.6157464   -2.4937831   -2.4937831   -1.7283609    0.0464661   -2.4937831   0.76542216   426349 
 1650000   0.61686007   -2.4959981   -2.4959981   -1.7291915  0.038132216   -2.4959981   0.76680654   426349 
 1651000   0.61518311   -2.4937435   -2.4937435   -1.7290215  0.047126279   -2.4937435   0.76472195   426349 
 1652000   0.61663538   -2.4960256   -2.4960256   -1.7294984  0.045715068   -2.4960256   0.76652724   426349 
 1653000   0.61592124   -2.4957005   -2.4957005    -1.730061  0.039656095   -2.4957005    0.7656395   426349 
 1654000   0.61564489   -2.4958382   -2.4958382   -1.7305422   0.03849964   -2.4958382   0.76529597   426349 
 1655000    0.6148397   -2.4938602   -2.4938602   -1.7295651  0.044203565   -2.4938602   0.76429506   426349 
 1656000   0.61585332   -2.4951074   -2.4951074   -1.7295523  0.042545473   -2.4951074   0.76555507   426349 
 1657000   0.61530845     -2.49402     -2.49402   -1.7291422   0.04190439     -2.49402   0.76487775   426349 
 1658000    0.6160242    -2.495357    -2.495357   -1.7295895   0.04087016    -2.495357   0.76576748   426349 
 1659000   0.61556576    -2.495027    -2.495027   -1.7298294  0.037574404    -2.495027   0.76519761   426349 
 1660000   0.61623915   -2.4959663   -2.4959663   -1.7299316  0.037680424   -2.4959663   0.76603469   426349 
 1661000   0.61722879   -2.4967533   -2.4967533   -1.7294884  0.039909795   -2.4967533   0.76726488   426349 
 1662000   0.61664635   -2.4969309   -2.4969309     -1.73039  0.051765271   -2.4969309   0.76654087   426349 
 1663000   0.61501341   -2.4942659   -2.4942659   -1.7297549  0.043950636   -2.4942659   0.76451099   426349 
 1664000   0.61544994   -2.4943346   -2.4943346    -1.729281   0.04180729   -2.4943346   0.76505364   426349 
 1665000   0.61498824   -2.4937597   -2.4937597     -1.72928  0.043888564   -2.4937597   0.76447971   426349 
 1666000    0.6155201   -2.4936937   -2.4936937   -1.7285528  0.046557224   -2.4936937   0.76514084   426349 
 1667000   0.61577401   -2.4939793   -2.4939793   -1.7285229  0.040997155   -2.4939793   0.76545648   426349 
 1668000   0.61585316   -2.4936879   -2.4936879    -1.728133  0.052009875   -2.4936879   0.76555486   426349 
 1669000   0.61510621   -2.4933111   -2.4933111   -1.7286847  0.039958051   -2.4933111   0.76462635   426349 
 1670000   0.61543761   -2.4943154   -2.4943154   -1.7292771  0.048635106   -2.4943154    0.7650383   426349 
 1671000   0.61534515    -2.493992    -2.493992   -1.7290686  0.047905763    -2.493992   0.76492337   426349 
 1672000   0.61575266    -2.495299    -2.495299    -1.729869  0.048179385    -2.495299   0.76542994   426349 
 1673000   0.61558719   -2.4946814   -2.4946814   -1.7294571   0.04484854   -2.4946814   0.76522425   426349 
 1674000   0.61531458   -2.4946123   -2.4946123   -1.7297269  0.037403374   -2.4946123   0.76488536   426349 
 1675000   0.61571779   -2.4953498   -2.4953498   -1.7299632  0.044804236   -2.4953498   0.76538659   426349 
 1676000   0.61538812   -2.4951869   -2.4951869   -1.7302101   0.04009813   -2.4951869   0.76497679   426349 
 1677000   0.61547455   -2.4950714   -2.4950714   -1.7299872  0.036558596   -2.4950714   0.76508423   426349 
 1678000    0.6162677   -2.4965459   -2.4965459   -1.7304757  0.045677319   -2.4965459   0.76607017   426349 
 1679000   0.61554105   -2.4957876   -2.4957876   -1.7306207  0.040797229   -2.4957876   0.76516689   426349 
 1680000   0.61525642   -2.4954772   -2.4954772   -1.7306641  0.043157567   -2.4954772   0.76481307   426349 
 1681000   0.61584644   -2.4953778   -2.4953778   -1.7298313  0.035741175   -2.4953778   0.76554651   426349 
 1682000   0.61527423   -2.4946763   -2.4946763   -1.7298411  0.047898051   -2.4946763   0.76483521   426349 
 1683000   0.61553698   -2.4959087   -2.4959087   -1.7307468  0.039419682   -2.4959087   0.76516183   426349 
 1684000   0.61633306   -2.4965239   -2.4965239   -1.7303724  0.040607873   -2.4965239   0.76615142   426349 
 1685000   0.61467364   -2.4947273   -2.4947273   -1.7306387  0.046299877   -2.4947273   0.76408863   426349 
 1686000   0.61645449   -2.4971849   -2.4971849   -1.7308825  0.045953944   -2.4971849   0.76630237   426349 
 1687000   0.61601435   -2.4968429   -2.4968429   -1.7310877  0.036555544   -2.4968429   0.76575524   426349 
 1688000   0.61603825   -2.4967739   -2.4967739    -1.730989  0.045245647   -2.4967739   0.76578495   426349 
 1689000   0.61562549   -2.4964409   -2.4964409    -1.731169   0.04130446   -2.4964409   0.76527186   426349 
 1690000     0.614409   -2.4956937   -2.4956937    -1.731934  0.046843924   -2.4956937   0.76375966   426349 
 1691000   0.61510649   -2.4965868   -2.4965868   -1.7319601  0.041545325   -2.4965868    0.7646267   426349 
 1692000   0.61634565   -2.4983055   -2.4983055   -1.7321384  0.045347159   -2.4983055   0.76616707   426349 
 1693000   0.61478437   -2.4967291   -2.4967291   -1.7325028  0.037860126   -2.4967291   0.76422628   426349 
 1694000   0.61497902   -2.4967448   -2.4967448   -1.7322766  0.042730228   -2.4967448   0.76446824   426349 
 1695000   0.61504233   -2.4965941   -2.4965941   -1.7320471  0.047921755   -2.4965941   0.76454695   426349 
 1696000   0.61418745   -2.4960957   -2.4960957   -1.7326115   0.04219659   -2.4960957   0.76348426   426349 
 1697000   0.61517397     -2.49747     -2.49747   -1.7327594  0.034730053     -2.49747   0.76471058   426349 
 1698000   0.61536343   -2.4979492   -2.4979492   -1.7330031  0.037084007   -2.4979492   0.76494609   426349 
 1699000   0.61572027   -2.4983221   -2.4983221   -1.7329325  0.034656998   -2.4983221   0.76538968   426349 
 1700000   0.61592328   -2.4989415   -2.4989415   -1.7332995  0.041281306   -2.4989415   0.76564204   426349 
 1701000   0.61622125   -2.4997334   -2.4997334   -1.7337209  0.039929044   -2.4997334   0.76601244   426349 
 1702000   0.61589802   -2.4988626   -2.4988626    -1.733252  0.040931051   -2.4988626   0.76561064   426349 
 1703000   0.61653231   -2.4994124   -2.4994124   -1.7330133  0.039785463   -2.4994124    0.7663991   426349 
 1704000   0.61563225   -2.4980836   -2.4980836   -1.7328034  0.041000929   -2.4980836   0.76528025   426349 
 1705000   0.61662725   -2.4988042   -2.4988042    -1.732287  0.053140798   -2.4988042   0.76651712   426349 
 1706000   0.61531446   -2.4977149   -2.4977149   -1.7328297  0.047667926   -2.4977149   0.76488522   426349 
 1707000   0.61742107   -2.4999487   -2.4999487   -1.7324447  0.043520773   -2.4999487   0.76750391   426349 
 1708000   0.61599801   -2.4985215   -2.4985215   -1.7327866  0.044751981   -2.4985215   0.76573493   426349 
 1709000   0.61585147    -2.499046    -2.499046   -1.7334933  0.040246883    -2.499046   0.76555277   426349 
 1710000   0.61540366    -2.498097    -2.498097   -1.7331009  0.046474731    -2.498097    0.7649961   426349 
 1711000   0.61484439   -2.4972181   -2.4972181   -1.7329172  0.045536834   -2.4972181   0.76430089   426349 
 1712000   0.61513815   -2.4972135   -2.4972135   -1.7325475  0.043822185   -2.4972135   0.76466606   426349 
 1713000   0.61619003   -2.4983176   -2.4983176    -1.732344   0.04088441   -2.4983176   0.76597363   426349 
 1714000   0.61576874    -2.498192    -2.498192   -1.7327421  0.046910151    -2.498192   0.76544993   426349 
 1715000   0.61558238   -2.4981774   -2.4981774   -1.7329591  0.037536424   -2.4981774   0.76521826   426349 
 1716000   0.61485971   -2.4974721   -2.4974721   -1.7331522  0.034617028   -2.4974721   0.76431993   426349 
 1717000   0.61464609   -2.4974124   -2.4974124    -1.733358  0.049703782   -2.4974124   0.76405438   426349 
 1718000   0.61391581   -2.4967633   -2.4967633   -1.7336167  0.046576052   -2.4967633   0.76314659   426349 
 1719000   0.61382879   -2.4962752   -2.4962752   -1.7332367  0.041650698   -2.4962752   0.76303842   426349 
 1720000   0.61480532    -2.497329    -2.497329   -1.7330767  0.035423311    -2.497329   0.76425232   426349 
 1721000   0.61425352   -2.4971231   -2.4971231   -1.7335567  0.046752235   -2.4971231   0.76356639   426349 
 1722000   0.61457126    -2.497486    -2.497486   -1.7335247  0.044053212    -2.497486   0.76396137   426349 
 1723000   0.61546143   -2.4983394   -2.4983394   -1.7332715  0.041259678   -2.4983394   0.76506792   426349 
 1724000   0.61381675   -2.4965288   -2.4965288   -1.7335053  0.045316779   -2.4965288   0.76302345   426349 
 1725000   0.61510745   -2.4982763   -2.4982763   -1.7336485  0.039324725   -2.4982763   0.76462789   426349 
 1726000   0.61431446   -2.4983843   -2.4983843   -1.7347421  0.044442149   -2.4983843   0.76364214   426349 
 1727000   0.61587397   -2.4995886   -2.4995886   -1.7340078   0.04179502   -2.4995886   0.76558074   426349 
 1728000   0.61510581   -2.4995652   -2.4995652   -1.7349394  0.043964049   -2.4995652   0.76462586   426349 
 1729000   0.61645585   -2.5009179   -2.5009179   -1.7346138  0.037063429   -2.5009179   0.76630406   426349 
 1730000   0.61475008   -2.4989697   -2.4989697   -1.7347861  0.035562349   -2.4989697   0.76418365   426349 
 1731000   0.61600711   -2.5004133   -2.5004133   -1.7346671  0.040185242   -2.5004133   0.76574624   426349 
 1732000    0.6150372   -2.4997541   -2.4997541   -1.7352135   0.04192104   -2.4997541   0.76454057   426349 
 1733000    0.6157519   -2.5004079   -2.5004079   -1.7349789  0.036384948   -2.5004079   0.76542899   426349 
 1734000   0.61499945   -2.4983357   -2.4983357    -1.733842  0.050916678   -2.4983357   0.76449364   426349 
 1735000   0.61537238   -2.4994284   -2.4994284   -1.7344712  0.042010714   -2.4994284   0.76495722   426349 
 1736000   0.61513371   -2.4997799   -2.4997799   -1.7351194  0.048114151   -2.4997799   0.76466054   426349 
 1737000   0.61549392   -2.4999511   -2.4999511   -1.7348428  0.049882292   -2.4999511    0.7651083   426349 
 1738000   0.61460363   -2.4986443   -2.4986443   -1.7346427   0.04571855   -2.4986443    0.7640016   426349 
 1739000   0.61527007   -2.4997363   -2.4997363   -1.7349062   0.03811172   -2.4997363   0.76483004   426349 
 1740000   0.61346853   -2.4980687   -2.4980687   -1.7354781  0.046181666   -2.4980687   0.76259058   426349 
 1741000   0.61428318     -2.49952     -2.49952   -1.7359168  0.035556736     -2.49952   0.76360326   426349 
 1742000   0.61484175   -2.5007478   -2.5007478   -1.7364502  0.039568166   -2.5007478   0.76429761   426349 
 1743000   0.61449184   -2.4998641   -2.4998641   -1.7360015  0.040739435   -2.4998641   0.76386264   426349 
 1744000   0.61393223   -2.4998095   -2.4998095   -1.7366425  0.043718496   -2.4998095     0.763167   426349 
 1745000   0.61377658   -2.5001798   -2.5001798   -1.7372063  0.042848337   -2.5001798   0.76297352   426349 
 1746000   0.61554066   -2.5019537   -2.5019537   -1.7367873   0.03841717   -2.5019537   0.76516641   426349 
 1747000   0.61503804   -2.5013319   -2.5013319   -1.7367903  0.037194413   -2.5013319   0.76454161   426349 
 1748000   0.61507584    -2.501269    -2.501269   -1.7366804   0.04647265    -2.501269    0.7645886   426349 
 1749000   0.61607093   -2.5019918   -2.5019918   -1.7361662  0.044973268   -2.5019918   0.76582558   426349 
 1750000   0.61511405   -2.5016439   -2.5016439   -1.7370078  0.036381972   -2.5016439   0.76463609   426349 
 1751000   0.61337019   -2.5002456   -2.5002456   -1.7377773  0.041810667   -2.5002456   0.76246834   426349 
 1752000   0.61474127   -2.5016452   -2.5016452   -1.7374725  0.037164659   -2.5016452   0.76417271   426349 
 1753000    0.6136144   -2.5007888   -2.5007888   -1.7380169  0.040569843   -2.5007888   0.76277191   426349 
 1754000    0.6148354   -2.5016439   -2.5016439   -1.7373542  0.036316366   -2.5016439   0.76428971   426349 
 1755000   0.61529016   -2.5023055   -2.5023055   -1.7374505  0.042589196   -2.5023055   0.76485501   426349 
 1756000   0.61514331   -2.5019645   -2.5019645    -1.737292  0.045666207   -2.5019645   0.76467247   426349 
 1757000   0.61650617   -2.5035437   -2.5035437   -1.7371771   0.03973114   -2.5035437   0.76636662   426349 
 1758000    0.6152098   -2.5015086   -2.5015086   -1.7367535  0.050803513   -2.5015086   0.76475512   426349 
 1759000   0.61628925   -2.5031584   -2.5031584   -1.7370614  0.043101602   -2.5031584   0.76609697   426349 
 1760000   0.61553913   -2.5026218   -2.5026218   -1.7374573  0.038435459   -2.5026218   0.76516451   426349 
 1761000   0.61513159   -2.5026822   -2.5026822   -1.7380243  0.047486657   -2.5026822    0.7646579   426349 
 1762000   0.61498584   -2.5025476   -2.5025476   -1.7380709  0.046276183   -2.5025476   0.76447672   426349 
 1763000    0.6145947   -2.5016758   -2.5016758   -1.7376853  0.045255377   -2.5016758   0.76399051   426349 
 1764000   0.61557046   -2.5032641   -2.5032641   -1.7380607  0.042079679   -2.5032641   0.76520345   426349 
 1765000   0.61582781   -2.5037399   -2.5037399   -1.7382165  0.039481849   -2.5037399   0.76552336   426349 
 1766000   0.61443731    -2.500664    -2.500664   -1.7368691  0.045348968    -2.500664   0.76379485   426349 
 1767000   0.61380665   -2.5006483   -2.5006483   -1.7376374  0.044714275   -2.5006483   0.76301089   426349 
 1768000   0.61609713   -2.5037951   -2.5037951   -1.7379369  0.041606657   -2.5037951   0.76585815   426349 
 1769000   0.61458414   -2.5022738   -2.5022738   -1.7382964  0.044910035   -2.5022738   0.76397737   426349 
 1770000   0.61551382   -2.5032733   -2.5032733   -1.7381402   0.04261368   -2.5032733   0.76513304   426349 
 1771000    0.6142412   -2.5016552   -2.5016552   -1.7381041  0.049416179   -2.5016552   0.76355107   426349 
 1772000   0.61419962    -2.501552    -2.501552   -1.7380526  0.045747157    -2.501552   0.76349938   426349 
 1773000   0.61444254   -2.5019965   -2.5019965   -1.7381951  0.052642601   -2.5019965   0.76380136   426349 
 1774000   0.61543509     -2.50272     -2.50272   -1.7376848  0.056596625     -2.50272   0.76503518   426349 
 1775000   0.61457705   -2.5021472   -2.5021472   -1.7381787  0.038970363   -2.5021472   0.76396856   426349 
 1776000   0.61428424    -2.501687    -2.501687   -1.7380824  0.046194842    -2.501687   0.76360458   426349 
 1777000   0.61458827    -2.502123    -2.502123   -1.7381405  0.041280736    -2.502123   0.76398251   426349 
 1778000   0.61378849   -2.5015765   -2.5015765   -1.7385882  0.043469526   -2.5015765   0.76298832   426349 
 1779000    0.6143857   -2.5016608   -2.5016608   -1.7379301  0.038530746   -2.5016608    0.7637307   426349 
 1780000   0.61543699   -2.5028825   -2.5028825    -1.737845  0.040340739   -2.5028825   0.76503753   426349 
 1781000   0.61449828   -2.5023951   -2.5023951   -1.7385244  0.037388169   -2.5023951   0.76387065   426349 
 1782000   0.61489663   -2.5032629   -2.5032629   -1.7388971  0.043453812   -2.5032629   0.76436582   426349 
 1783000   0.61442721   -2.5030399   -2.5030399   -1.7392576  0.040768393   -2.5030399    0.7637823   426349 
 1784000   0.61434769   -2.5026601   -2.5026601   -1.7389766  0.042808498   -2.5026601   0.76368345   426349 
 1785000   0.61482347   -2.5034954   -2.5034954   -1.7392205  0.041449327   -2.5034954   0.76427488   426349 
 1786000   0.61509086   -2.5035198   -2.5035198   -1.7389126  0.041643638   -2.5035198   0.76460727   426349 
 1787000   0.61476001   -2.5030328   -2.5030328   -1.7388368  0.043893235   -2.5030328     0.764196   426349 
 1788000   0.61477544   -2.5030716   -2.5030716   -1.7388564  0.037740072   -2.5030716   0.76421518   426349 
 1789000   0.61502917   -2.5038901   -2.5038901   -1.7393596  0.039838892   -2.5038901   0.76453058   426349 
 1790000   0.61380299   -2.5027293   -2.5027293   -1.7397229  0.042549527   -2.5027293   0.76300634   426349 
 1791000   0.61433986   -2.5032177   -2.5032177    -1.739544  0.037641805   -2.5032177   0.76367371   426349 
 1792000   0.61563523   -2.5048979   -2.5048979   -1.7396139  0.044250762   -2.5048979   0.76528397   426349 
 1793000   0.61385668   -2.5023998   -2.5023998   -1.7393267  0.045129911   -2.5023998   0.76307309   426349 
 1794000   0.61529145   -2.5043501   -2.5043501   -1.7394935  0.042296881   -2.5043501   0.76485662   426349 
 1795000   0.61438846   -2.5029832   -2.5029832   -1.7392491  0.046303905   -2.5029832   0.76373413   426349 
 1796000   0.61452805   -2.5040434   -2.5040434   -1.7401357  0.047668069   -2.5040434   0.76390765   426349 
 1797000   0.61533075   -2.5043372   -2.5043372   -1.7394317  0.047339513   -2.5043372   0.76490547   426349 
 1798000   0.61431662   -2.5031968   -2.5031968   -1.7395519  0.047340676   -2.5031968   0.76364483   426349 
 1799000   0.61423525   -2.5032525   -2.5032525   -1.7397088  0.044919951   -2.5032525   0.76354368   426349 
 1800000   0.61457319   -2.5042269   -2.5042269   -1.7402631  0.037142664   -2.5042269   0.76396376   426349 
 1801000   0.61441871   -2.5036128   -2.5036128   -1.7398411   0.04106235   -2.5036128   0.76377174   426349 
 1802000   0.61514502   -2.5039134   -2.5039134   -1.7392388  0.037706134   -2.5039134   0.76467459   426349 
 1803000   0.61460429   -2.5043622   -2.5043622   -1.7403598  0.041207714   -2.5043622   0.76400242   426349 
 1804000   0.61502065    -2.504794    -2.504794    -1.740274  0.043859538    -2.504794      0.76452   426349 
 1805000   0.61420342   -2.5028785   -2.5028785   -1.7393744  0.041497138   -2.5028785   0.76350411   426349 
 1806000   0.61403986   -2.5026943   -2.5026943   -1.7393935  0.044575229   -2.5026943   0.76330079   426349 
 1807000   0.61457795   -2.5038951   -2.5038951   -1.7399254  0.035626863   -2.5038951   0.76396969   426349 
 1808000   0.61340223   -2.5020944   -2.5020944   -1.7395862  0.050620931   -2.5020944   0.76250817   426349 
 1809000   0.61508996   -2.5033623   -2.5033623   -1.7387561  0.043383641   -2.5033623   0.76460615   426349 
 1810000    0.6135218   -2.5020008   -2.5020008    -1.739344  0.045729268   -2.5020008    0.7626568   426349 
 1811000   0.61315861   -2.5017825   -2.5017825   -1.7395772   0.03363234   -2.5017825   0.76220532   426349 
 1812000   0.61436149   -2.5032199   -2.5032199   -1.7395193   0.03808812   -2.5032199   0.76370061   426349 
 1813000   0.61267881   -2.5017781   -2.5017781   -1.7401692  0.034256067   -2.5017781    0.7616089   426349 
 1814000   0.61262488    -2.501281    -2.501281   -1.7397392  0.047010723    -2.501281   0.76154186   426349 
 1815000    0.6135704   -2.5021893   -2.5021893   -1.7394721  0.038435529   -2.5021893   0.76271722   426349 
 1816000   0.61364455   -2.5025611   -2.5025611   -1.7397517  0.038096673   -2.5025611   0.76280938   426349 
 1817000   0.61485404   -2.5034327   -2.5034327   -1.7391198  0.041464841   -2.5034327   0.76431288   426349 
 1818000    0.6149399   -2.5039326   -2.5039326    -1.739513  0.039159624   -2.5039326   0.76441961   426349 
 1819000   0.61490706   -2.5038942   -2.5038942   -1.7395154  0.044624724   -2.5038942   0.76437879   426349 
 1820000   0.61391429   -2.5032792   -2.5032792   -1.7401344  0.046129708   -2.5032792    0.7631447   426349 
 1821000   0.61520852   -2.5039938   -2.5039938   -1.7392403  0.045590446   -2.5039938   0.76475353   426349 
 1822000   0.61443316   -2.5036034   -2.5036034   -1.7398137  0.043894997   -2.5036034    0.7637897   426349 
 1823000   0.61615109   -2.5051746   -2.5051746   -1.7392494  0.041555521   -2.5051746   0.76592522   426349 
 1824000   0.61510821   -2.5043631   -2.5043631   -1.7397343  0.047836998   -2.5043631   0.76462883   426349 
 1825000   0.61494791   -2.5048417   -2.5048417   -1.7404121   0.04139566   -2.5048417   0.76442957   426349 
 1826000   0.61519757   -2.5037398   -2.5037398   -1.7389999  0.052333759   -2.5037398   0.76473992   426349 
 1827000    0.6158968   -2.5053963   -2.5053963   -1.7397872  0.045235101   -2.5053963   0.76560912   426349 
 1828000   0.61471772   -2.5044088   -2.5044088   -1.7402654  0.046347131   -2.5044088   0.76414343   426349 
 1829000   0.61480311   -2.5048712   -2.5048712   -1.7406217  0.040155738   -2.5048712   0.76424958   426349 
 1830000   0.61580664   -2.5067483   -2.5067483   -1.7412513  0.041921024   -2.5067483   0.76549704   426349 
 1831000    0.6140141   -2.5048626   -2.5048626   -1.7415938  0.049764247   -2.5048626   0.76326877   426349 
 1832000   0.61358297   -2.5050342   -2.5050342   -1.7423013  0.045153904   -2.5050342   0.76273283   426349 
 1833000   0.61478619   -2.5058982   -2.5058982   -1.7416697  0.044089797   -2.5058982   0.76422854   426349 
 1834000   0.61533721   -2.5067098   -2.5067098   -1.7417963  0.039510967   -2.5067098    0.7649135   426349 
 1835000   0.61503216   -2.5060542   -2.5060542   -1.7415199  0.044343612   -2.5060542    0.7645343   426349 
 1836000   0.61463879    -2.505532    -2.505532   -1.7414866  0.036088301    -2.505532   0.76404531   426349 
 1837000   0.61549568   -2.5055459   -2.5055459   -1.7404355  0.042183153   -2.5055459   0.76511049   426349 
 1838000   0.61489023   -2.5052137   -2.5052137   -1.7408558   0.03667552   -2.5052137   0.76435788   426349 
 1839000   0.61463298   -2.5046404   -2.5046404   -1.7406023  0.034173755   -2.5046404   0.76403809   426349 
 1840000   0.61263889    -2.502513    -2.502513   -1.7409538     0.043201    -2.502513   0.76155927   426349 
 1841000   0.61372639    -2.504013    -2.504013   -1.7411019  0.042627185    -2.504013   0.76291112   426349 
 1842000   0.61337493    -2.503532    -2.503532   -1.7410578  0.048407147    -2.503532   0.76247423   426349 
 1843000   0.61473044   -2.5053495   -2.5053495   -1.7411902  0.040826583   -2.5053495   0.76415923   426349 
 1844000   0.61384828   -2.5051337   -2.5051337   -1.7420711  0.039249976   -2.5051337   0.76306264   426349 
 1845000   0.61349031   -2.5044926   -2.5044926   -1.7418749  0.046486185   -2.5044926   0.76261766   426349 
 1846000   0.61366746   -2.5052306   -2.5052306   -1.7423927  0.034641554   -2.5052306   0.76283787   426349 
 1847000    0.6138579   -2.5053976   -2.5053976    -1.742323  0.043479803   -2.5053976    0.7630746   426349 
 1848000   0.61467388   -2.5073267   -2.5073267   -1.7432377  0.045191425   -2.5073267   0.76408893   426349 
 1849000   0.61294756   -2.5047875   -2.5047875   -1.7428445    0.0460782   -2.5047875   0.76194298   426349 
 1850000   0.61429324   -2.5062484   -2.5062484   -1.7426326  0.040702612   -2.5062484   0.76361577   426349 
 1851000    0.6136315     -2.50579     -2.50579   -1.7429969  0.037325235     -2.50579   0.76279316   426349 
 1852000   0.61260792   -2.5050389   -2.5050389   -1.7435181  0.042395457   -2.5050389   0.76152078   426349 
 1853000   0.61478848   -2.5074675   -2.5074675   -1.7432361  0.041567652   -2.5074675   0.76423138   426349 
 1854000   0.61281467    -2.504763    -2.504763   -1.7429852  0.042422747    -2.504763   0.76177778   426349 
 1855000    0.6143715   -2.5061541   -2.5061541    -1.742441  0.048224705   -2.5061541   0.76371305   426349 
 1856000   0.61457786    -2.507098    -2.507098   -1.7431285  0.039489784    -2.507098   0.76396956   426349 
 1857000   0.61339321   -2.5061274   -2.5061274   -1.7436305  0.036745417   -2.5061274   0.76249696   426349 
 1858000   0.61487301   -2.5083842   -2.5083842   -1.7440478  0.047890939   -2.5083842   0.76433646   426349 
 1859000   0.61496989   -2.5088433   -2.5088433   -1.7443864  0.033516734   -2.5088433   0.76445689   426349 
 1860000   0.61357056   -2.5070473   -2.5070473   -1.7443299  0.037377183   -2.5070473   0.76271742   426349 
 1861000   0.61313093   -2.5068223   -2.5068223   -1.7446514  0.040085346   -2.5068223   0.76217092   426349 
 1862000   0.61374473   -2.5077882   -2.5077882   -1.7448542  0.047405647   -2.5077882   0.76293392   426349 
 1863000   0.61389207   -2.5085736   -2.5085736   -1.7454565  0.039264016   -2.5085736   0.76311708   426349 
 1864000   0.61424731   -2.5091186   -2.5091186   -1.7455599  0.051752044   -2.5091186   0.76355867   426349 
 1865000   0.61445562   -2.5098872   -2.5098872   -1.7460696  0.047828632   -2.5098872   0.76381761   426349 
 1866000   0.61465045   -2.5101178   -2.5101178    -1.746058  0.044558366   -2.5101178    0.7640598   426349 
 1867000   0.61424594   -2.5098193   -2.5098193   -1.7462623  0.043704314   -2.5098193   0.76355697   426349 
 1868000   0.61485907   -2.5099869   -2.5099869   -1.7456678  0.044723113   -2.5099869   0.76431914   426349 
 1869000   0.61436234   -2.5096984   -2.5096984   -1.7459967  0.041857168   -2.5096984   0.76370166   426349 
 1870000   0.61364476   -2.5087424   -2.5087424   -1.7459327  0.049195768   -2.5087424   0.76280965   426349 
 1871000   0.61455811   -2.5102632   -2.5102632   -1.7463182  0.044233329   -2.5102632   0.76394502   426349 
 1872000   0.61315832   -2.5092658   -2.5092658   -1.7470608  0.048038604   -2.5092658   0.76220497   426349 
 1873000   0.61349481   -2.5093908   -2.5093908   -1.7467676  0.045881308   -2.5093908   0.76262325   426349 
 1874000   0.61442392   -2.5112657   -2.5112657   -1.7474875  0.044870061   -2.5112657   0.76377821   426349 
 1875000   0.61358921   -2.5105186   -2.5105186    -1.747778  0.037230205   -2.5105186    0.7627406   426349 
 1876000   0.61252848   -2.5091339   -2.5091339   -1.7477118  0.048966859   -2.5091339   0.76142203   426349 
 1877000     0.613221   -2.5099886   -2.5099886   -1.7477058  0.045622917   -2.5099886   0.76228288   426349 
 1878000   0.61377377   -2.5107399   -2.5107399   -1.7477699  0.045577517   -2.5107399   0.76297002   426349 
 1879000   0.61497936   -2.5119586   -2.5119586   -1.7474899  0.048399927   -2.5119586   0.76446867   426349 
 1880000   0.61413554   -2.5101527   -2.5101527   -1.7467329  0.042704873   -2.5101527   0.76341973   426349 
 1881000   0.61430931   -2.5095367   -2.5095367    -1.745901  0.041846392   -2.5095367   0.76363574   426349 
 1882000    0.6142451   -2.5097521   -2.5097521   -1.7461962  0.042347629   -2.5097521   0.76355592   426349 
 1883000   0.61452741   -2.5089102   -2.5089102   -1.7450033  0.039937908   -2.5089102   0.76390685   426349 
 1884000   0.61410662    -2.509281    -2.509281   -1.7458972  0.045319177    -2.509281   0.76338378   426349 
 1885000   0.61269509    -2.509331    -2.509331   -1.7477018  0.037861717    -2.509331   0.76162913   426349 
 1886000   0.61247955   -2.5090769   -2.5090769   -1.7477157  0.041285154   -2.5090769    0.7613612   426349 
 1887000   0.61345856   -2.5098851   -2.5098851   -1.7473069  0.042416124   -2.5098851   0.76257819   426349 
 1888000   0.61356927   -2.5094527   -2.5094527   -1.7467369  0.044276458   -2.5094527   0.76271581   426349 
 1889000   0.61267804   -2.5082502   -2.5082502   -1.7466422  0.045845148   -2.5082502   0.76160794   426349 
 1890000   0.61365512   -2.5092416   -2.5092416   -1.7464191   0.03944657   -2.5092416   0.76282253   426349 
 1891000   0.61337016   -2.5092741   -2.5092741   -1.7468058   0.04727763   -2.5092741   0.76246831   426349 
 1892000   0.61313025   -2.5088903   -2.5088903   -1.7467202  0.038851814   -2.5088903   0.76217007   426349 
 1893000   0.61201609   -2.5075141   -2.5075141    -1.746729  0.047551159   -2.5075141   0.76078508   426349 
 1894000   0.61412803   -2.5094791   -2.5094791   -1.7460687    0.0421419   -2.5094791    0.7634104   426349 
 1895000    0.6141878   -2.5093874   -2.5093874   -1.7459027  0.036871349   -2.5093874   0.76348469   426349 
 1896000   0.61465691   -2.5098108   -2.5098108    -1.745743  0.040627924   -2.5098108   0.76406783   426349 
 1897000   0.61431638   -2.5098761   -2.5098761   -1.7462316  0.038149014   -2.5098761   0.76364453   426349 
 1898000   0.61404261   -2.5091354   -2.5091354   -1.7458312  0.041279899   -2.5091354   0.76330422   426349 
 1899000   0.61528773   -2.5107415   -2.5107415   -1.7458895  0.048624126   -2.5107415     0.764852   426349 
 1900000   0.61430974   -2.5103583   -2.5103583    -1.746722  0.042488629   -2.5103583   0.76363628   426349 
 1901000    0.6134924   -2.5105338   -2.5105338   -1.7479135  0.045405372   -2.5105338   0.76262026   426349 
 1902000   0.61399016   -2.5113309   -2.5113309   -1.7480919  0.042928379   -2.5113309   0.76323901   426349 
 1903000   0.61395844   -2.5113356   -2.5113356    -1.748136  0.044670837   -2.5113356   0.76319958   426349 
 1904000   0.61412359   -2.5115779   -2.5115779    -1.748173  0.038310399   -2.5115779   0.76340488   426349 
 1905000   0.61367877   -2.5113471   -2.5113471   -1.7484951  0.044871424   -2.5113471   0.76285192   426349 
 1906000   0.61257382   -2.5100968   -2.5100968   -1.7486184  0.038079973   -2.5100968   0.76147838   426349 
 1907000   0.61388764   -2.5110211   -2.5110211   -1.7479095   0.04373561   -2.5110211   0.76311157   426349 
 1908000   0.61351263   -2.5107799   -2.5107799   -1.7481345  0.032091828   -2.5107799    0.7626454   426349 
 1909000   0.61416199   -2.5113387   -2.5113387   -1.7478861  0.038600812   -2.5113387   0.76345261   426349 
 1910000   0.61300194   -2.5098062   -2.5098062   -1.7477957  0.050631595   -2.5098062   0.76201057   426349 
 1911000   0.61248556   -2.5089275   -2.5089275   -1.7475589  0.044795061   -2.5089275   0.76136868   426349 
 1912000   0.61459998   -2.5115602   -2.5115602   -1.7475631   0.04650793   -2.5115602   0.76399707   426349 
 1913000     0.613959   -2.5113117   -2.5113117   -1.7481114  0.044336854   -2.5113117   0.76320028   426349 
 1914000   0.61384834     -2.51103     -2.51103   -1.7479673  0.043130475     -2.51103   0.76306271   426349 
 1915000   0.61422429   -2.5110738   -2.5110738   -1.7475437  0.041856092   -2.5110738   0.76353006   426349 
 1916000   0.61317148   -2.5100838   -2.5100838   -1.7478625  0.035524829   -2.5100838   0.76222132   426349 
 1917000   0.61424083   -2.5109934   -2.5109934   -1.7474428  0.035817458   -2.5109934   0.76355061   426349 
 1918000   0.61413939   -2.5107935   -2.5107935    -1.747369  0.046065722   -2.5107935   0.76342451   426349 
 1919000   0.61364165   -2.5104211   -2.5104211   -1.7476153  0.042027182   -2.5104211   0.76280579   426349 
 1920000   0.61437317   -2.5116509   -2.5116509   -1.7479358  0.042459939   -2.5116509   0.76371513   426349 
 1921000   0.61405517   -2.5104475   -2.5104475   -1.7471277    0.0436855   -2.5104475   0.76331982   426349 
 1922000   0.61404006   -2.5114603   -2.5114603   -1.7481592  0.049441486   -2.5114603   0.76330104   426349 
 1923000   0.61382056    -2.511269    -2.511269   -1.7482408  0.038533875    -2.511269   0.76302819   426349 
 1924000   0.61428483   -2.5116381   -2.5116381   -1.7480328  0.034154494   -2.5116381   0.76360531   426349 
 1925000   0.61422509   -2.5114547   -2.5114547   -1.7479236  0.035665036   -2.5114547   0.76353105   426349 
 1926000   0.61244122   -2.5098321   -2.5098321   -1.7485186    0.0380051   -2.5098321   0.76131355   426349 
 1927000   0.61251093   -2.5097274   -2.5097274   -1.7483272  0.044751803   -2.5097274   0.76140021   426349 
 1928000    0.6116612    -2.508662    -2.508662    -1.748318  0.035719654    -2.508662   0.76034392   426349 
 1929000   0.61383785   -2.5107895   -2.5107895   -1.7477398  0.050579052   -2.5107895   0.76304967   426349 
 1930000   0.61267535   -2.5094077   -2.5094077   -1.7478031  0.044594799   -2.5094077   0.76160459   426349 
 1931000   0.61442259   -2.5103595   -2.5103595   -1.7465829  0.043091929   -2.5103595   0.76377656   426349 
 1932000   0.61386886   -2.5110041   -2.5110041   -1.7479158  0.043603849   -2.5110041   0.76308823   426349 
 1933000    0.6146599   -2.5114093   -2.5114093   -1.7473377  0.042947802   -2.5114093   0.76407155   426349 
 1934000   0.61397685   -2.5101309   -2.5101309   -1.7469084  0.033621029   -2.5101309   0.76322246   426349 
 1935000   0.61328094   -2.5092788   -2.5092788   -1.7469214  0.044744219   -2.5092788    0.7623574   426349 
 1936000   0.61376731   -2.5100225   -2.5100225   -1.7470605  0.040981131   -2.5100225   0.76296199   426349 
 1937000   0.61388037   -2.5105967   -2.5105967   -1.7474942  0.040323487   -2.5105967   0.76310253   426349 
 1938000   0.61347658   -2.5106489   -2.5106489   -1.7480483  0.038144169   -2.5106489    0.7626006   426349 
 1939000   0.61295785   -2.5103254   -2.5103254   -1.7483697  0.040421891   -2.5103254   0.76195577   426349 
 1940000   0.61348572   -2.5103643   -2.5103643   -1.7477524  0.044874182   -2.5103643   0.76261195   426349 
 1941000   0.61413356   -2.5111992   -2.5111992   -1.7477819  0.047074518   -2.5111992   0.76341727   426349 
 1942000   0.61419249    -2.511503    -2.511503   -1.7480125  0.039812611    -2.511503   0.76349053   426349 
 1943000   0.61507325   -2.5130103   -2.5130103   -1.7484249  0.041263653   -2.5130103   0.76458538   426349 
 1944000   0.61431564   -2.5123172   -2.5123172   -1.7486736    0.0403329   -2.5123172   0.76364361   426349 
 1945000   0.61370212   -2.5114629   -2.5114629   -1.7485819  0.037455133   -2.5114629   0.76288095   426349 
 1946000   0.61423843   -2.5119624   -2.5119624   -1.7484148  0.040941138   -2.5119624   0.76354764   426349 
 1947000   0.61335488   -2.5115211   -2.5115211   -1.7490718  0.038474645   -2.5115211   0.76244931   426349 
 1948000   0.61382255   -2.5120774   -2.5120774   -1.7490467    0.0479025   -2.5120774   0.76303065   426349 
 1949000   0.61437718   -2.5126556   -2.5126556   -1.7489355  0.036964742   -2.5126556    0.7637201   426349 
 1950000   0.61235396   -2.5097838   -2.5097838   -1.7485787  0.039644596   -2.5097838   0.76120509   426349 
 1951000   0.61251821   -2.5108721   -2.5108721   -1.7494628  0.039330347   -2.5108721   0.76140926   426349 
 1952000   0.61269847   -2.5112639   -2.5112639   -1.7496306  0.045801607   -2.5112639   0.76163334   426349 
 1953000   0.61252604   -2.5103885   -2.5103885   -1.7489695  0.045371588   -2.5103885   0.76141899   426349 
 1954000   0.61266116   -2.5116958   -2.5116958   -1.7501088  0.043312755   -2.5116958   0.76158696   426349 
 1955000   0.61390875   -2.5124677   -2.5124677   -1.7493299  0.039798525   -2.5124677   0.76313781   426349 
 1956000   0.61341476   -2.5123931   -2.5123931   -1.7498694  0.042409479   -2.5123931   0.76252374   426349 
 1957000   0.61400163   -2.5135344   -2.5135344   -1.7502812  0.045418006   -2.5135344   0.76325327   426349 
 1958000   0.61338514   -2.5125467   -2.5125467   -1.7500598  0.041747359   -2.5125467   0.76248693   426349 
 1959000   0.61411824   -2.5124764   -2.5124764   -1.7490781   0.04598806   -2.5124764   0.76339822   426349 
 1960000   0.61403208   -2.5120875   -2.5120875   -1.7487964  0.047092389   -2.5120875   0.76329113   426349 
 1961000   0.61436612   -2.5127663   -2.5127663     -1.74906  0.046196444   -2.5127663   0.76370636   426349 
 1962000   0.61371435   -2.5130775   -2.5130775   -1.7501814  0.050013565   -2.5130775   0.76289615   426349 
 1963000   0.61297695    -2.512216    -2.512216   -1.7502365  0.047345428    -2.512216   0.76197951   426349 
 1964000   0.61283406   -2.5122183   -2.5122183   -1.7504164  0.036059607   -2.5122183   0.76180189   426349 
 1965000   0.61305148   -2.5123334   -2.5123334   -1.7502612  0.038780563   -2.5123334   0.76207216   426349 
 1966000   0.61411709   -2.5133591   -2.5133591   -1.7499623  0.039638908   -2.5133591   0.76339679   426349 
 1967000   0.61460739   -2.5138145   -2.5138145   -1.7498082  0.047713533   -2.5138145   0.76400628   426349 
 1968000   0.61332519   -2.5119793   -2.5119793   -1.7495669   0.04511882   -2.5119793    0.7624124   426349 
 1969000   0.61394954   -2.5126145   -2.5126145    -1.749426  0.045579958   -2.5126145   0.76318852   426349 
 1970000   0.61422762   -2.5130418   -2.5130418   -1.7495076   0.04814382   -2.5130418   0.76353419   426349 
 1971000   0.61432401   -2.5137401   -2.5137401   -1.7500861  0.039826517   -2.5137401   0.76365402   426349 
 1972000   0.61374121   -2.5122405   -2.5122405    -1.749311  0.040733094   -2.5122405   0.76292955   426349 
 1973000   0.61354798   -2.5120149   -2.5120149   -1.7493256  0.044648727   -2.5120149   0.76268935   426349 
 1974000   0.61390566   -2.5129227   -2.5129227   -1.7497887  0.037049058   -2.5129227   0.76313397   426349 
 1975000   0.61350978   -2.5129463   -2.5129463   -1.7503045  0.047538315   -2.5129463   0.76264185   426349 
 1976000   0.61279818   -2.5120138   -2.5120138   -1.7502565  0.049190949   -2.5120138   0.76175729   426349 
 1977000   0.61361212   -2.5124737   -2.5124737   -1.7497046  0.036001517   -2.5124737   0.76276908   426349 
 1978000   0.61302518   -2.5134713   -2.5134713   -1.7514318  0.042832544   -2.5134713   0.76203947   426349 
 1979000   0.61361577    -2.514243    -2.514243   -1.7514694  0.034402103    -2.514243   0.76277361   426349 
 1980000   0.61328647   -2.5130477   -2.5130477   -1.7506834  0.041731891   -2.5130477   0.76236427   426349 
 1981000   0.61271934   -2.5125509   -2.5125509   -1.7508916  0.035896045   -2.5125509   0.76165928   426349 
 1982000   0.61278673   -2.5128544   -2.5128544   -1.7511114  0.033860458   -2.5128544   0.76174305   426349 
 1983000   0.61350116    -2.513306    -2.513306   -1.7506749  0.038643815    -2.513306   0.76263114   426349 
 1984000   0.61284914    -2.512304    -2.512304   -1.7504833  0.035660789    -2.512304   0.76182063   426349 
 1985000     0.613109   -2.5126446   -2.5126446   -1.7505009  0.042977893   -2.5126446   0.76214366   426349 
 1986000   0.61395957    -2.513725    -2.513725    -1.750524  0.042610394    -2.513725   0.76320098   426349 
 1987000   0.61271776   -2.5121657   -2.5121657   -1.7505084   0.04079593   -2.5121657   0.76165731   426349 
 1988000   0.61360981   -2.5137254   -2.5137254   -1.7509592  0.035787023   -2.5137254    0.7627662   426349 
 1989000   0.61392596   -2.5141326   -2.5141326   -1.7509734  0.041688522   -2.5141326    0.7631592   426349 
 1990000   0.61381778   -2.5139426   -2.5139426   -1.7509179  0.043819869   -2.5139426   0.76302473   426349 
 1991000   0.61359059   -2.5140369   -2.5140369   -1.7512946  0.038471868   -2.5140369   0.76274232   426349 
 1992000   0.61388782   -2.5144907   -2.5144907    -1.751379  0.043981171   -2.5144907   0.76311179   426349 
 1993000   0.61492373   -2.5154656   -2.5154656   -1.7510661  0.044530157   -2.5154656   0.76439951   426349 
 1994000   0.61450297   -2.5156199   -2.5156199   -1.7517434  0.043252549   -2.5156199   0.76387648   426349 
 1995000   0.61463142   -2.5153351   -2.5153351   -1.7512989  0.034635403   -2.5153351   0.76403615   426349 
 1996000   0.61265663   -2.5130815   -2.5130815   -1.7515001  0.037567517   -2.5130815   0.76158133   426349 
 1997000   0.61277012   -2.5141606   -2.5141606   -1.7524382   0.04827988   -2.5141606    0.7617224   426349 
 1998000   0.61301946   -2.5151127   -2.5151127   -1.7530804   0.03768172   -2.5151127   0.76203236   426349 
 1999000   0.61305128   -2.5149911   -2.5149911   -1.7529192  0.045751316   -2.5149911   0.76207191   426349 
 2000000   0.61217943    -2.514352    -2.514352   -1.7533639  0.047033787    -2.514352   0.76098813   426349 
 2001000   0.61205645   -2.5139589   -2.5139589   -1.7531237  0.042737843   -2.5139589   0.76083525   426349 
 2002000     0.613834    -2.516568    -2.516568   -1.7535231  0.037920658    -2.516568   0.76304489   426349 
 2003000   0.61358076   -2.5165869   -2.5165869   -1.7538569  0.041887321   -2.5165869   0.76273009   426349 
 2004000   0.61323905   -2.5158619   -2.5158619   -1.7535565  0.043974889   -2.5158619   0.76230532   426349 
 2005000   0.61331602   -2.5164259   -2.5164259   -1.7540249  0.046603118   -2.5164259     0.762401   426349 
 2006000   0.61347715   -2.5159104   -2.5159104   -1.7533091  0.041875982   -2.5159104    0.7626013   426349 
 2007000   0.61380194    -2.516438    -2.516438   -1.7534329  0.038622039    -2.516438   0.76300504   426349 
 2008000   0.61279078   -2.5146929   -2.5146929   -1.7529448  0.049469845   -2.5146929   0.76174808   426349 
 2009000   0.61343268   -2.5154822   -2.5154822   -1.7529361  0.035713604   -2.5154822   0.76254602   426349 
 2010000   0.61301316   -2.5155878   -2.5155878   -1.7535633  0.045728097   -2.5155878   0.76202452   426349 
 2011000   0.61227099   -2.5142642   -2.5142642   -1.7531623  0.042968752   -2.5142642   0.76110194   426349 
 2012000   0.61273851   -2.5146287   -2.5146287   -1.7529456  0.039124065   -2.5146287   0.76168311   426349 
 2013000   0.61304717   -2.5153515   -2.5153515   -1.7532847  0.043055681   -2.5153515   0.76206679   426349 
 2014000    0.6128201   -2.5160104   -2.5160104   -1.7542258  0.045359642   -2.5160104   0.76178454   426349 
 2015000   0.61187732   -2.5146327   -2.5146327   -1.7540202  0.043443904   -2.5146327   0.76061259   426349 
 2016000   0.61351394    -2.516228    -2.516228    -1.753581  0.041654021    -2.516228   0.76264703   426349 
 2017000   0.61296722   -2.5162274   -2.5162274     -1.75426  0.038074367   -2.5162274   0.76196741   426349 
 2018000   0.61259206   -2.5151127   -2.5151127   -1.7536116  0.046423118   -2.5151127   0.76150106   426349 
 2019000    0.6121047   -2.5146396   -2.5146396   -1.7537444  0.047430562   -2.5146396   0.76089523   426349 
 2020000   0.61276284    -2.515631    -2.515631   -1.7539176  0.041429334    -2.515631   0.76171336   426349 
 2021000   0.61189991   -2.5145449   -2.5145449   -1.7539043  0.038230897   -2.5145449   0.76064066   426349 
 2022000   0.61245092   -2.5153563   -2.5153563   -1.7540307   0.03902721   -2.5153563   0.76132561   426349 
 2023000   0.61321912   -2.5161269   -2.5161269   -1.7538463  0.041740931   -2.5161269   0.76228054   426349 
 2024000   0.61321961   -2.5164012   -2.5164012     -1.75412  0.044319531   -2.5164012   0.76228116   426349 
 2025000    0.6135908   -2.5158788   -2.5158788   -1.7531363  0.031208766   -2.5158788   0.76274258   426349 
 2026000    0.6136283    -2.515938    -2.515938   -1.7531488  0.048245874    -2.515938   0.76278919   426349 
 2027000   0.61450936    -2.517906    -2.517906   -1.7540216  0.046051215    -2.517906   0.76388442   426349 
 2028000   0.61312418   -2.5168359   -2.5168359   -1.7546733  0.051215047   -2.5168359   0.76216252   426349 
 2029000   0.61421561   -2.5176832   -2.5176832   -1.7541639  0.049261761   -2.5176832   0.76351926   426349 
 2030000    0.6139776   -2.5171953   -2.5171953   -1.7539719  0.042512253   -2.5171953    0.7632234   426349 
 2031000   0.61366337   -2.5167171   -2.5167171   -1.7538844  0.046230017   -2.5167171   0.76283278   426349 
 2032000   0.61282019   -2.5157449   -2.5157449   -1.7539603  0.046362562   -2.5157449   0.76178464   426349 
 2033000    0.6146195   -2.5183123   -2.5183123    -1.754291  0.041017457   -2.5183123   0.76402133   426349 
 2034000   0.61379702   -2.5169063   -2.5169063   -1.7539074  0.043203896   -2.5169063   0.76299893   426349 
 2035000   0.61312274   -2.5170706   -2.5170706   -1.7549099  0.039419238   -2.5170706   0.76216074   426349 
 2036000   0.61358963   -2.5178949   -2.5178949   -1.7551538  0.037884655   -2.5178949   0.76274111   426349 
 2037000   0.61256596   -2.5166148   -2.5166148   -1.7551462  0.042897617   -2.5166148   0.76146861   426349 
 2038000   0.61271396     -2.51693     -2.51693   -1.7552774  0.045003461     -2.51693   0.76165259   426349 
 2039000   0.61324204   -2.5175456   -2.5175456   -1.7552365  0.039524767   -2.5175456   0.76230903   426349 
 2040000    0.6134488   -2.5165242   -2.5165242   -1.7539581  0.043318905   -2.5165242   0.76256606   426349 
 2041000   0.61299164   -2.5163325   -2.5163325   -1.7543347  0.042999099   -2.5163325   0.76199777   426349 
 2042000   0.61274781   -2.5160367   -2.5160367    -1.754342  0.036245761   -2.5160367   0.76169467   426349 
 2043000   0.61423848   -2.5177962   -2.5177962   -1.7542485   0.03507949   -2.5177962   0.76354769   426349 
 2044000   0.61105731     -2.51379     -2.51379   -1.7541968  0.043904942     -2.51379   0.75959325   426349 
 2045000   0.61192635   -2.5149696   -2.5149696   -1.7542961  0.041657273   -2.5149696   0.76067353   426349 
 2046000   0.61190846   -2.5155454   -2.5155454   -1.7548941  0.048744005   -2.5155454   0.76065129   426349 
 2047000   0.61220344   -2.5151188   -2.5151188   -1.7541008   0.04263808   -2.5151188   0.76101797   426349 
 2048000   0.61218903    -2.516071    -2.516071   -1.7550709  0.038361185    -2.516071   0.76100006   426349 
 2049000   0.61246004   -2.5163402   -2.5163402   -1.7550033   0.03870407   -2.5163402   0.76133694   426349 
 2050000   0.61152971   -2.5151522   -2.5151522   -1.7549717  0.039114513   -2.5151522   0.76018047   426349 
 2051000   0.61232694   -2.5156621   -2.5156621   -1.7544907  0.041601105   -2.5156621   0.76117149   426349 
 2052000   0.61202282   -2.5154538   -2.5154538   -1.7546603  0.040146978   -2.5154538   0.76079345   426349 
 2053000   0.61242661   -2.5161143   -2.5161143   -1.7548189  0.042853706   -2.5161143   0.76129539   426349 
 2054000   0.61270036    -2.517041    -2.517041   -1.7554053  0.037464827    -2.517041   0.76163568   426349 
 2055000   0.61257991   -2.5170527   -2.5170527   -1.7555667  0.038909234   -2.5170527   0.76148596   426349 
 2056000   0.61196112   -2.5165654   -2.5165654   -1.7558487  0.041719464   -2.5165654   0.76071676   426349 
 2057000   0.61358133   -2.5178711   -2.5178711   -1.7551403  0.038752137   -2.5178711    0.7627308   426349 
 2058000    0.6133891   -2.5178919   -2.5178919   -1.7554001   0.04475234   -2.5178919   0.76249184   426349 
 2059000    0.6128764   -2.5176052   -2.5176052   -1.7557507  0.039633211   -2.5176052   0.76185451   426349 
 2060000   0.61371318   -2.5188201   -2.5188201   -1.7559254  0.033967955   -2.5188201    0.7628947   426349 
 2061000   0.61356676   -2.5183111   -2.5183111   -1.7555984  0.045695147   -2.5183111    0.7627127   426349 
 2062000   0.61280682   -2.5179422   -2.5179422   -1.7561742  0.034394069   -2.5179422   0.76176803   426349 
 2063000   0.61357022   -2.5190932   -2.5190932   -1.7563762  0.046901638   -2.5190932   0.76271699   426349 
 2064000   0.61347763    -2.519429    -2.519429   -1.7568271   0.04782575    -2.519429    0.7626019   426349 
 2065000   0.61396747   -2.5204567   -2.5204567   -1.7572459  0.043683851   -2.5204567   0.76321081   426349 
 2066000   0.61338962   -2.5202709   -2.5202709   -1.7577784  0.038831866   -2.5202709    0.7624925   426349 
 2067000   0.61355562   -2.5195378   -2.5195378   -1.7568389  0.046304719   -2.5195378   0.76269885   426349 
 2068000    0.6127456   -2.5192036   -2.5192036   -1.7575116  0.043181556   -2.5192036   0.76169192   426349 
 2069000    0.6130893   -2.5198482   -2.5198482   -1.7577291  0.055248769   -2.5198482   0.76211917   426349 
 2070000   0.61297796   -2.5188833   -2.5188833   -1.7569025  0.042437167   -2.5188833   0.76198076   426349 
 2071000   0.61256938   -2.5188115   -2.5188115   -1.7573386  0.042516827   -2.5188115   0.76147286   426349 
 2072000   0.61191367   -2.5183686   -2.5183686   -1.7577109  0.036013909   -2.5183686   0.76065776   426349 
 2073000   0.61283569   -2.5192794   -2.5192794   -1.7574755  0.040989916   -2.5192794   0.76180391   426349 
 2074000   0.61346236    -2.519878    -2.519878   -1.7572951  0.034178172    -2.519878   0.76258291   426349 
 2075000   0.61322183   -2.5194003   -2.5194003   -1.7571163  0.038354177   -2.5194003   0.76228391   426349 
 2076000   0.61191889   -2.5178075   -2.5178075   -1.7571432  0.038387231   -2.5178075   0.76066426   426349 
 2077000   0.61141796   -2.5167837   -2.5167837   -1.7567422  0.043990058   -2.5167837   0.76004155   426349 
 2078000   0.61134403   -2.5168759   -2.5168759   -1.7569262  0.040094466   -2.5168759   0.75994966   426349 
 2079000     0.612923   -2.5198189   -2.5198189   -1.7579064  0.039138593   -2.5198189   0.76191244   426349 
 2080000    0.6119756   -2.5189504   -2.5189504   -1.7582156  0.040846681   -2.5189504   0.76073476   426349 
 2081000   0.61146878   -2.5185814   -2.5185814   -1.7584767  0.033783876   -2.5185814   0.76010474   426349 
 2082000   0.61231209     -2.51937     -2.51937   -1.7582169  0.040484888     -2.51937   0.76115304   426349 
 2083000   0.61199416   -2.5187018   -2.5187018    -1.757944  0.037900993   -2.5187018   0.76075782   426349 
 2084000   0.61297137   -2.5198963   -2.5198963   -1.7579238  0.036342886   -2.5198963   0.76197257   426349 
 2085000    0.6131627   -2.5202895   -2.5202895   -1.7580791  0.048503085   -2.5202895   0.76221041   426349 
 2086000   0.61380296   -2.5208585   -2.5208585   -1.7578522  0.043516248   -2.5208585   0.76300631   426349 
 2087000   0.61220869   -2.5190633   -2.5190633   -1.7580388  0.042531274   -2.5190633    0.7610245   426349 
 2088000    0.6120424   -2.5190381   -2.5190381   -1.7582204    0.0364879   -2.5190381   0.76081779   426349 
 2089000   0.61305665   -2.5211931   -2.5211931   -1.7591145  0.038769231   -2.5211931   0.76207859   426349 
 2090000   0.61253842   -2.5203018   -2.5203018   -1.7588674  0.041145821   -2.5203018   0.76143438   426349 
 2091000   0.61246441   -2.5203308   -2.5203308   -1.7589884  0.051181948   -2.5203308   0.76134238   426349 
 2092000   0.61167484   -2.5191133   -2.5191133   -1.7587524  0.044011831   -2.5191133   0.76036089   426349 
 2093000   0.61244685   -2.5203084   -2.5203084   -1.7589878   0.03551933   -2.5203084   0.76132056   426349 
 2094000   0.61322729   -2.5212935   -2.5212935   -1.7590028  0.038191385   -2.5212935    0.7622907   426349 
 2095000   0.61237043   -2.5197086   -2.5197086   -1.7584831  0.033726896   -2.5197086   0.76122555   426349 
 2096000   0.61214746   -2.5193848   -2.5193848   -1.7584365  0.041648088   -2.5193848   0.76094838   426349 
 2097000    0.6110859   -2.5179227   -2.5179227   -1.7582939  0.046562707   -2.5179227   0.75962878   426349 
 2098000   0.61274383    -2.520269    -2.520269   -1.7585793  0.040974339    -2.520269   0.76168972   426349 
 2099000   0.61216328   -2.5190873   -2.5190873   -1.7581193  0.035770888   -2.5190873   0.76096805   426349 
 2100000   0.61232279   -2.5191895   -2.5191895   -1.7580232  0.039547727   -2.5191895   0.76116634   426349 
 2101000    0.6122507   -2.5198383   -2.5198383   -1.7587615  0.037937176   -2.5198383   0.76107672   426349 
 2102000   0.61324509   -2.5205595   -2.5205595   -1.7582466  0.045215384   -2.5205595   0.76231283   426349 
 2103000   0.61264916   -2.5206307   -2.5206307   -1.7590586  0.040289022   -2.5206307   0.76157204   426349 
 2104000   0.61205093   -2.5205671   -2.5205671   -1.7597387  0.035893421   -2.5205671   0.76082839   426349 
 2105000   0.61208504   -2.5207448   -2.5207448    -1.759874  0.046538971   -2.5207448   0.76087079   426349 
 2106000   0.61198272   -2.5212394   -2.5212394   -1.7604958  0.034181254   -2.5212394    0.7607436   426349 
 2107000    0.6109157   -2.5196412   -2.5196412    -1.760224  0.039560232   -2.5196412   0.75941721   426349 
 2108000    0.6120474   -2.5215701   -2.5215701   -1.7607461  0.043230835   -2.5215701     0.760824   426349 
 2109000    0.6119236   -2.5208386   -2.5208386   -1.7601684  0.042950828   -2.5208386   0.76067011   426349 
 2110000     0.612425    -2.521311    -2.521311   -1.7600176  0.044371244    -2.521311   0.76129339   426349 
 2111000    0.6121002   -2.5213514   -2.5213514   -1.7604618  0.046697227   -2.5213514   0.76088964   426349 
 2112000   0.61302778   -2.5224807   -2.5224807   -1.7604381  0.046790297   -2.5224807    0.7620427   426349 
 2113000    0.6134334   -2.5234998   -2.5234998   -1.7609529  0.039528229   -2.5234998   0.76254691   426349 
 2114000   0.61262158   -2.5225631   -2.5225631   -1.7610253  0.044231289   -2.5225631   0.76153775   426349 
 2115000   0.61389851   -2.5240084   -2.5240084   -1.7608833  0.037438485   -2.5240084   0.76312508   426349 
 2116000   0.61330138   -2.5228555   -2.5228555   -1.7604727  0.048332832   -2.5228555    0.7623828   426349 
 2117000    0.6122199   -2.5217437   -2.5217437   -1.7607053  0.048809205   -2.5217437   0.76103843   426349 
 2118000   0.61276636   -2.5232015   -2.5232015   -1.7614838  0.042031933   -2.5232015   0.76171772   426349 
 2119000   0.61176065   -2.5226833   -2.5226833   -1.7622158  0.049095508   -2.5226833   0.76046755   426349 
 2120000   0.61149857   -2.5222754   -2.5222754   -1.7621337  0.041614196   -2.5222754   0.76014177   426349 
 2121000   0.61243206   -2.5243565   -2.5243565   -1.7630544  0.033459521   -2.5243565   0.76130217   426349 
 2122000   0.61159631   -2.5228615   -2.5228615   -1.7625982  0.038879747   -2.5228615   0.76026327   426349 
 2123000   0.61248894   -2.5243944   -2.5243944   -1.7630215  0.032253984   -2.5243944   0.76137288   426349 
 2124000   0.61157193   -2.5228656   -2.5228656   -1.7626327  0.036893523   -2.5228656   0.76023296   426349 
 2125000   0.61150586   -2.5229918   -2.5229918    -1.762841  0.042925118   -2.5229918   0.76015083   426349 
 2126000   0.61139059    -2.522214    -2.522214   -1.7622064  0.037959736    -2.522214   0.76000754   426349 
 2127000   0.61078144   -2.5216551   -2.5216551   -1.7624048  0.042488476   -2.5216551   0.75925031   426349 
 2128000   0.61106705   -2.5226012   -2.5226012   -1.7629958   0.04209722   -2.5226012   0.75960535   426349 
 2129000   0.61155206   -2.5224041   -2.5224041   -1.7621958   0.04000006   -2.5224041   0.76020826   426349 
 2130000   0.61272969   -2.5229306   -2.5229306   -1.7612585  0.038249143   -2.5229306   0.76167215   426349 
 2131000   0.61202348   -2.5219496   -2.5219496   -1.7611553  0.045493915   -2.5219496   0.76079427   426349 
 2132000   0.61075405   -2.5206516   -2.5206516   -1.7614353  0.040913312   -2.5206516   0.75921626   426349 
 2133000   0.61111261   -2.5220725   -2.5220725   -1.7624105  0.041749511   -2.5220725   0.75966199   426349 
 2134000   0.61133742   -2.5223914   -2.5223914   -1.7624499  0.041723584   -2.5223914   0.75994145   426349 
 2135000   0.61203986   -2.5234713   -2.5234713   -1.7626567  0.045671383   -2.5234713   0.76081463   426349 
 2136000   0.61141372   -2.5233765   -2.5233765   -1.7633402   0.04187461   -2.5233765   0.76003629   426349 
 2137000   0.61017313    -2.521818    -2.521818   -1.7633239   0.05041013    -2.521818   0.75849413   426349 
 2138000    0.6118106   -2.5235691   -2.5235691   -1.7630395  0.043107698   -2.5235691   0.76052964   426349 
 2139000    0.6117372   -2.5237541   -2.5237541   -1.7633157  0.042123356   -2.5237541    0.7604384   426349 
 2140000   0.61089137   -2.5215676   -2.5215676   -1.7621807  0.049642549   -2.5215676   0.75938697   426349 
 2141000   0.61120363   -2.5214345   -2.5214345   -1.7616594  0.038486632   -2.5214345   0.75977513   426349 
 2142000   0.61143115     -2.52297     -2.52297    -1.762912   0.04113311     -2.52297   0.76005795   426349 
 2143000   0.61157562   -2.5237917   -2.5237917   -1.7635541  0.035028783   -2.5237917   0.76023755   426349 
 2144000   0.61150481   -2.5237929   -2.5237929   -1.7636434  0.043044538   -2.5237929   0.76014952   426349 
 2145000   0.61166542   -2.5235963   -2.5235963   -1.7632472  0.037363401   -2.5235963   0.76034917   426349 
 2146000   0.61082797   -2.5228077   -2.5228077   -1.7634996  0.039971801   -2.5228077   0.75930815   426349 
 2147000   0.61101513   -2.5236177   -2.5236177   -1.7640769  0.037872426   -2.5236177   0.75954081   426349 
 2148000   0.61066981    -2.523243    -2.523243   -1.7641314   0.04133201    -2.523243   0.75911155   426349 
 2149000   0.61222057    -2.525318    -2.525318   -1.7642787  0.046113785    -2.525318   0.76103927   426349 
 2150000   0.61194611   -2.5249658   -2.5249658   -1.7642677  0.039982244   -2.5249658   0.76069809   426349 
 2151000   0.61243764   -2.5256253   -2.5256253   -1.7643162  0.050998544   -2.5256253    0.7613091   426349 
 2152000   0.61177908   -2.5248916   -2.5248916   -1.7644011  0.036236481   -2.5248916   0.76049046   426349 
 2153000   0.61273035   -2.5255147   -2.5255147   -1.7638418  0.046698778   -2.5255147   0.76167296   426349 
 2154000   0.61155932   -2.5236624   -2.5236624   -1.7634451  0.041235484   -2.5236624   0.76021728   426349 
 2155000   0.61204718   -2.5245971   -2.5245971   -1.7637734  0.041661584   -2.5245971   0.76082373   426349 
 2156000   0.61168735    -2.523239    -2.523239   -1.7628626  0.034292263    -2.523239   0.76037643   426349 
 2157000    0.6119068   -2.5238826   -2.5238826   -1.7632334  0.041262016   -2.5238826   0.76064923   426349 
 2158000   0.61093225   -2.5222705   -2.5222705   -1.7628327   0.04391772   -2.5222705   0.75943778   426349 
 2159000   0.61192924   -2.5236033   -2.5236033   -1.7629262  0.042300507   -2.5236033   0.76067713   426349 
 2160000   0.61247266    -2.524665    -2.524665   -1.7633123  0.040290984    -2.524665   0.76135264   426349 
 2161000   0.61202218   -2.5236248   -2.5236248   -1.7628322  0.040114963   -2.5236248   0.76079266   426349 
 2162000   0.61157562   -2.5227874   -2.5227874   -1.7625499  0.041255208   -2.5227874   0.76023755   426349 
 2163000   0.61187184   -2.5235271   -2.5235271   -1.7629213  0.035211002   -2.5235271   0.76060577   426349 
 2164000   0.61171678   -2.5230837   -2.5230837   -1.7626707   0.04302435   -2.5230837   0.76041301   426349 
 2165000   0.61101677   -2.5228814   -2.5228814   -1.7633385  0.032781191   -2.5228814   0.75954285   426349 
 2166000   0.61223075     -2.52397     -2.52397   -1.7629181  0.032500088     -2.52397   0.76105193   426349 
 2167000   0.61109588   -2.5221775   -2.5221775   -1.7625363  0.046914882   -2.5221775   0.75964119   426349 
 2168000   0.61143318   -2.5224864   -2.5224864   -1.7624259  0.035263751   -2.5224864   0.76006048   426349 
 2169000   0.61167321   -2.5236712   -2.5236712   -1.7633123  0.031318523   -2.5236712   0.76035885   426349 
 2170000   0.61114719   -2.5221558   -2.5221558   -1.7624509  0.041207452   -2.5221558   0.75970497   426349 
 2171000   0.61077455   -2.5218043   -2.5218043   -1.7625626  0.035372787   -2.5218043   0.75924175   426349 
 2172000   0.61146132   -2.5230503   -2.5230503   -1.7629549  0.033470859   -2.5230503   0.76009546   426349 
 2173000   0.61147687    -2.523194    -2.523194   -1.7630793  0.047949478    -2.523194   0.76011479   426349 
 2174000   0.61121548   -2.5231528   -2.5231528    -1.763363  0.038085098   -2.5231528   0.75978986   426349 
 2175000   0.61202783   -2.5238208   -2.5238208   -1.7630212  0.038778444   -2.5238208   0.76079968   426349 
 2176000   0.61057091   -2.5229333   -2.5229333   -1.7639447  0.040110735   -2.5229333   0.75898861   426349 
 2177000   0.61206592   -2.5241772   -2.5241772   -1.7633301  0.032239477   -2.5241772   0.76084703   426349 
 2178000   0.61180384   -2.5238057   -2.5238057   -1.7632844  0.044790534   -2.5238057   0.76052124   426349 
 2179000   0.61167736   -2.5235704   -2.5235704   -1.7632063   0.04378581   -2.5235704   0.76036402   426349 
 2180000   0.61326651   -2.5251784   -2.5251784    -1.762839  0.040504008   -2.5251784   0.76233945   426349 
 2181000   0.61044905   -2.5226601   -2.5226601    -1.763823  0.045271321   -2.5226601   0.75883712   426349 
 2182000   0.61249382   -2.5248526   -2.5248526   -1.7634736  0.040081193   -2.5248526   0.76137894   426349 
 2183000   0.61212135   -2.5245756   -2.5245756   -1.7636597  0.039872759   -2.5245756   0.76091593   426349 
 2184000   0.61128915   -2.5235631   -2.5235631   -1.7636817  0.039535827   -2.5235631   0.75988144   426349 
 2185000   0.61290577   -2.5257634   -2.5257634   -1.7638724  0.034639831   -2.5257634   0.76189102   426349 
 2186000   0.61248778   -2.5254195   -2.5254195   -1.7640481  0.033705967   -2.5254195   0.76137143   426349 
 2187000   0.61125347   -2.5231533   -2.5231533   -1.7633162  0.040653281   -2.5231533   0.75983708   426349 
 2188000    0.6121172   -2.5248901   -2.5248901   -1.7639793  0.042895198   -2.5248901   0.76091078   426349 
 2189000   0.61191057   -2.5244746   -2.5244746   -1.7638207  0.038751872   -2.5244746   0.76065392   426349 
 2190000   0.61164091   -2.5242623   -2.5242623   -1.7639436  0.035189423   -2.5242623    0.7603187   426349 
 2191000   0.61223725   -2.5252316   -2.5252316   -1.7641716  0.041985981   -2.5252316      0.76106   426349 
 2192000   0.61096645   -2.5247555   -2.5247555   -1.7652752  0.049527414   -2.5247555    0.7594803   426349 
 2193000    0.6117181   -2.5254843   -2.5254843   -1.7650696  0.035509301   -2.5254843   0.76041466   426349 
 2194000   0.61125414   -2.5253222   -2.5253222   -1.7654842  0.038959609   -2.5253222   0.75983792   426349 
 2195000   0.61100697   -2.5253085   -2.5253085   -1.7657778  0.045483719   -2.5253085   0.75953066   426349 
 2196000   0.61110587   -2.5254176   -2.5254176    -1.765764  0.044560752   -2.5254176   0.75965361   426349 
 2197000    0.6117558   -2.5262567   -2.5262567   -1.7657952   0.04065623   -2.5262567   0.76046152   426349 
 2198000   0.61194252   -2.5257229   -2.5257229   -1.7650293  0.046110737   -2.5257229   0.76069363   426349 
 2199000   0.61202789     -2.52688     -2.52688   -1.7660802  0.040496742     -2.52688   0.76079975   426349 
 2200000   0.61079489   -2.5257901   -2.5257901   -1.7665231   0.03821467   -2.5257901   0.75926703   426349 
 2201000   0.61199429   -2.5272182   -2.5272182   -1.7664602  0.036879086   -2.5272182   0.76075799   426349 
 2202000   0.61208672   -2.5276183   -2.5276183   -1.7667454  0.048545862   -2.5276183   0.76087288   426349 
 2203000   0.61187704   -2.5273718   -2.5273718   -1.7667596  0.040564132   -2.5273718   0.76061223   426349 
 2204000   0.61211104   -2.5275371   -2.5275371    -1.766634  0.040211795   -2.5275371   0.76090311   426349 
 2205000   0.61187553   -2.5272905   -2.5272905   -1.7666801   0.04415652   -2.5272905   0.76061036   426349 
 2206000   0.61151787   -2.5268697   -2.5268697   -1.7667039  0.050342997   -2.5268697   0.76016576   426349 
 2207000   0.61100681   -2.5266274   -2.5266274   -1.7670969  0.036829051   -2.5266274   0.75953047   426349 
 2208000    0.6116898   -2.5278382   -2.5278382   -1.7674588  0.043118973   -2.5278382   0.76037948   426349 
 2209000   0.61077699   -2.5268177   -2.5268177   -1.7675729  0.042758355   -2.5268177   0.75924479   426349 
 2210000   0.61149886   -2.5271476   -2.5271476   -1.7670055  0.039397231   -2.5271476   0.76014213   426349 
 2211000   0.61061994   -2.5267062   -2.5267062   -1.7676567   0.04157001   -2.5267062   0.75904956   426349 
 2212000   0.61051183   -2.5256566   -2.5256566   -1.7667414  0.045218869   -2.5256566   0.75891517   426349 
 2213000   0.61131929   -2.5276792   -2.5276792   -1.7677603  0.044431767   -2.5276792   0.75991891   426349 
 2214000   0.61030382   -2.5260273   -2.5260273   -1.7673707  0.042136015   -2.5260273   0.75865659   426349 
 2215000   0.61059846   -2.5270041   -2.5270041   -1.7679812  0.039049818   -2.5270041   0.75902286   426349 
 2216000   0.61085911   -2.5271419   -2.5271419   -1.7677951  0.044324598   -2.5271419   0.75934686   426349 
 2217000   0.61095669   -2.5272977   -2.5272977   -1.7678295  0.039038539   -2.5272977   0.75946817   426349 
 2218000   0.61137827   -2.5281582   -2.5281582   -1.7681659  0.042695566   -2.5281582   0.75999223   426349 
 2219000   0.61006876   -2.5271028   -2.5271028   -1.7687384  0.040752509   -2.5271028   0.75836439   426349 
 2220000    0.6121011   -2.5291162   -2.5291162   -1.7682255  0.046317146   -2.5291162   0.76089075   426349 
 2221000   0.61099637   -2.5278909   -2.5278909   -1.7683734  0.044497604   -2.5278909   0.75951748   426349 
 2222000   0.61203143   -2.5288174   -2.5288174   -1.7680133  0.046087958   -2.5288174   0.76080415   426349 
 2223000    0.6115454   -2.5282413   -2.5282413   -1.7680413  0.034650214   -2.5282413   0.76019998   426349 
 2224000   0.61167381   -2.5284328   -2.5284328   -1.7680732  0.045666549   -2.5284328    0.7603596   426349 
 2225000   0.61086535   -2.5276139   -2.5276139   -1.7682593  0.050572682   -2.5276139   0.75935462   426349 
 2226000   0.61187258    -2.529415    -2.529415   -1.7688083  0.051829901    -2.529415   0.76060669   426349 
 2227000   0.61248465   -2.5302806   -2.5302806    -1.768913  0.034444742   -2.5302806   0.76136754   426349 
 2228000   0.61078169   -2.5286569   -2.5286569   -1.7694063  0.044528584   -2.5286569   0.75925063   426349 
 2229000   0.61162642   -2.5288129   -2.5288129   -1.7685122   0.04298703   -2.5288129   0.76030069   426349 
 2230000   0.61172212   -2.5281583   -2.5281583   -1.7677387  0.037761046   -2.5281583   0.76041965   426349 
 2231000   0.61155238   -2.5281435   -2.5281435   -1.7679349  0.039850091   -2.5281435   0.76020866   426349 
 2232000   0.61152028   -2.5276018   -2.5276018    -1.767433    0.0407736   -2.5276018   0.76016876   426349 
 2233000   0.61182952   -2.5283395   -2.5283395   -1.7677863  0.048445222   -2.5283395   0.76055316   426349 
 2234000   0.61282198   -2.5301046   -2.5301046   -1.7683178  0.033629407   -2.5301046   0.76178687   426349 
 2235000   0.61201393   -2.5292717   -2.5292717   -1.7684893  0.035645089   -2.5292717    0.7607824   426349 
 2236000   0.61107363   -2.5276296   -2.5276296    -1.768016  0.038835958   -2.5276296   0.75961353   426349 
 2237000   0.61134363   -2.5280712   -2.5280712    -1.768122  0.036904029   -2.5280712   0.75994916   426349 
 2238000   0.61211941   -2.5285563   -2.5285563   -1.7676428  0.043162169   -2.5285563   0.76091352   426349 
 2239000   0.61129572   -2.5272598   -2.5272598   -1.7673702  0.040540854   -2.5272598    0.7598896   426349 
 2240000   0.61105893   -2.5268114   -2.5268114   -1.7672161  0.036845134   -2.5268114   0.75959525   426349 
 2241000   0.61169449   -2.5272964   -2.5272964   -1.7669111  0.028892846   -2.5272964   0.76038531   426349 
 2242000   0.61027607   -2.5254934   -2.5254934   -1.7668713  0.042472584   -2.5254934    0.7586221   426349 
 2243000   0.61114824   -2.5268322   -2.5268322   -1.7671259  0.037598299   -2.5268322   0.75970628   426349 
 2244000    0.6113071   -2.5274642   -2.5274642   -1.7675604  0.040045799   -2.5274642   0.75990375   426349 
 2245000   0.61155304   -2.5277607   -2.5277607   -1.7675512  0.037888856   -2.5277607   0.76020947   426349 
 2246000   0.61190976   -2.5283769   -2.5283769    -1.767724  0.040228967   -2.5283769    0.7606529   426349 
 2247000     0.610552   -2.5269136   -2.5269136   -1.7679485  0.042837522   -2.5269136    0.7589651   426349 
 2248000   0.61056056   -2.5266755   -2.5266755   -1.7676998  0.036833657   -2.5266755   0.75897575   426349 
 2249000   0.61067846   -2.5275293   -2.5275293    -1.768407   0.04519061   -2.5275293    0.7591223   426349 
 2250000   0.61078653   -2.5278373   -2.5278373   -1.7685807  0.033840756   -2.5278373   0.75925664   426349 
 2251000   0.61103805   -2.5294831   -2.5294831   -1.7699138  0.045787117   -2.5294831   0.75956931   426349 
 2252000   0.61056944   -2.5285125   -2.5285125   -1.7695257  0.045055302   -2.5285125   0.75898679   426349 
 2253000   0.61179486   -2.5298161   -2.5298161    -1.769306  0.040859246   -2.5298161   0.76051008   426349 
 2254000   0.61127867   -2.5289799   -2.5289799   -1.7691115  0.038008822   -2.5289799   0.75986841   426349 
 2255000    0.6112899   -2.5292704   -2.5292704    -1.769388   0.04038536   -2.5292704   0.75988237   426349 
 2256000   0.61081035   -2.5288309   -2.5288309   -1.7695446   0.04326695   -2.5288309   0.75928625   426349 
 2257000   0.61140485   -2.5285826   -2.5285826   -1.7685573  0.039036842   -2.5285826   0.76002526   426349 
 2258000    0.6105317   -2.5284016   -2.5284016   -1.7694617  0.041828178   -2.5284016   0.75893987   426349 
 2259000   0.61189272   -2.5295879   -2.5295879   -1.7689562   0.04866198   -2.5295879   0.76063172   426349 
 2260000   0.61056999   -2.5285234   -2.5285234   -1.7695359  0.045020107   -2.5285234   0.75898747   426349 
 2261000    0.6103478   -2.5281605   -2.5281605   -1.7694492  0.044092071   -2.5281605   0.75871126   426349 
 2262000   0.61153757   -2.5290972   -2.5290972   -1.7689069  0.040692918   -2.5290972   0.76019024   426349 
 2263000   0.61102176   -2.5289731   -2.5289731    -1.769424  0.046906415   -2.5289731   0.75954906   426349 
 2264000   0.61175614   -2.5291692   -2.5291692   -1.7687073  0.034896501   -2.5291692   0.76046194   426349 
 2265000   0.61117958   -2.5290064   -2.5290064   -1.7692612  0.045159144   -2.5290064   0.75974523   426349 
 2266000   0.61143299   -2.5286963   -2.5286963    -1.768636   0.04163152   -2.5286963   0.76006024   426349 
 2267000   0.61232515   -2.5300127   -2.5300127   -1.7688434  0.047682099   -2.5300127   0.76116927   426349 
 2268000   0.61285183   -2.5303145   -2.5303145   -1.7684905  0.037850025   -2.5303145   0.76182398   426349 
 2269000   0.61173586   -2.5289384   -2.5289384   -1.7685017  0.035057709   -2.5289384   0.76043673   426349 
 2270000   0.61157656    -2.528748    -2.528748   -1.7685093   0.04125696    -2.528748   0.76023871   426349 
 2271000   0.61135807   -2.5285885   -2.5285885   -1.7686214  0.046835791   -2.5285885   0.75996712   426349 
 2272000   0.61166248   -2.5286335   -2.5286335   -1.7682879   0.04100858   -2.5286335   0.76034551   426349 
 2273000   0.61185294   -2.5295357   -2.5295357   -1.7689534  0.038419233   -2.5295357   0.76058228   426349 
 2274000   0.61161241   -2.5298043   -2.5298043   -1.7695211  0.038683414   -2.5298043   0.76028328   426349 
 2275000   0.60985652   -2.5277991   -2.5277991   -1.7696985  0.040435514   -2.5277991   0.75810057   426349 
 2276000   0.61042081   -2.5279206   -2.5279206   -1.7691186  0.043132976   -2.5279206   0.75880202   426349 
 2277000   0.60959718   -2.5274756   -2.5274756   -1.7696974  0.045971016   -2.5274756   0.75777819   426349 
 2278000   0.60871406    -2.526612    -2.526612   -1.7699316  0.047455413    -2.526612   0.75668039   426349 
 2279000    0.6105848    -2.528338    -2.528338   -1.7693322  0.041633732    -2.528338   0.75900588   426349 
 2280000   0.61071686   -2.5282912   -2.5282912   -1.7691211  0.038552306   -2.5282912   0.75917004   426349 
 2281000   0.61224105   -2.5298165   -2.5298165   -1.7687517  0.044172198   -2.5298165   0.76106473   426349 
 2282000   0.61133065    -2.529033    -2.529033      -1.7691  0.044672787    -2.529033   0.75993302   426349 
 2283000   0.61147818   -2.5293768   -2.5293768   -1.7692604  0.036001357   -2.5293768   0.76011642   426349 
 2284000   0.61154749   -2.5292303   -2.5292303   -1.7690277  0.036737614   -2.5292303   0.76020258   426349 
 2285000   0.61218759   -2.5301489   -2.5301489   -1.7691506  0.042785298   -2.5301489   0.76099827   426349 
 2286000   0.61187252   -2.5306012   -2.5306012   -1.7699946  0.035790309   -2.5306012   0.76060661   426349 
 2287000   0.61039181   -2.5285225   -2.5285225   -1.7697565  0.040370976   -2.5285225   0.75876597   426349 
 2288000   0.61141739   -2.5289711   -2.5289711   -1.7689302  0.046871941   -2.5289711   0.76004085   426349 
 2289000   0.61061148   -2.5284283   -2.5284283   -1.7693892  0.034549398   -2.5284283   0.75903905   426349 
 2290000   0.61094309   -2.5294793   -2.5294793    -1.770028    0.0446627   -2.5294793   0.75945126   426349 
 2291000   0.61330424   -2.5324343   -2.5324343    -1.770048  0.031551874   -2.5324343   0.76238636   426349 
 2292000   0.61187969   -2.5307663   -2.5307663   -1.7701508  0.045811983   -2.5307663   0.76061553   426349 
 2293000   0.61212322   -2.5308129   -2.5308129   -1.7698946  0.041902432   -2.5308129   0.76091825   426349 
 2294000   0.61133194    -2.530404    -2.530404   -1.7704694  0.042827066    -2.530404   0.75993464   426349 
 2295000   0.61165947   -2.5303493   -2.5303493   -1.7700075  0.044228241   -2.5303493   0.76034178   426349 
 2296000   0.61159694   -2.5303872   -2.5303872   -1.7701232  0.039187504   -2.5303872   0.76026404   426349 
 2297000   0.61228374   -2.5313557   -2.5313557   -1.7702379  0.032202701   -2.5313557   0.76111779   426349 
 2298000   0.61113109   -2.5296502   -2.5296502   -1.7699652  0.045080629   -2.5296502   0.75968496   426349 
 2299000   0.61117522   -2.5314882   -2.5314882   -1.7717484  0.038668565   -2.5314882   0.75973982   426349 
 2300000   0.61167272   -2.5311845   -2.5311845   -1.7708263  0.044599827   -2.5311845   0.76035825   426349 
 2301000   0.61084653   -2.5295869   -2.5295869   -1.7702557  0.042358678   -2.5295869   0.75933123   426349 
 2302000   0.61038725   -2.5295257   -2.5295257   -1.7707653  0.042594972   -2.5295257   0.75876031   426349 
 2303000   0.61062339   -2.5298814   -2.5298814   -1.7708276   0.03345233   -2.5298814   0.75905385   426349 
 2304000   0.61062405   -2.5297191   -2.5297191   -1.7706644  0.041837983   -2.5297191   0.75905466   426349 
 2305000   0.61021261   -2.5292127   -2.5292127   -1.7706695  0.043205723   -2.5292127   0.75854322   426349 
 2306000   0.61117634   -2.5307904   -2.5307904   -1.7710492  0.046964298   -2.5307904    0.7597412   426349 
 2307000   0.61140332   -2.5307396   -2.5307396   -1.7707162  0.039945115   -2.5307396   0.76002337   426349 
 2308000   0.61196154   -2.5313412   -2.5313412   -1.7706239  0.040583184   -2.5313412   0.76071727   426349 
 2309000   0.60992489   -2.5288816   -2.5288816    -1.770696  0.046056505   -2.5288816   0.75818556   426349 
 2310000   0.61099051    -2.530584    -2.530584   -1.7710738  0.030789209    -2.530584    0.7595102   426349 
 2311000   0.61063218   -2.5300757   -2.5300757   -1.7710109  0.039054153   -2.5300757   0.75906478   426349 
 2312000   0.61053908   -2.5305176   -2.5305176   -1.7715685  0.037848072   -2.5305176   0.75894904   426349 
 2313000   0.61063821   -2.5303425   -2.5303425   -1.7712702  0.035580435   -2.5303425   0.75907227   426349 
 2314000    0.6099863   -2.5294405   -2.5294405   -1.7711786  0.042425844   -2.5294405   0.75826189   426349 
 2315000   0.61036557   -2.5302946   -2.5302946   -1.7715613  0.041593134   -2.5302946   0.75873335   426349 
 2316000   0.61041686   -2.5309786   -2.5309786   -1.7721815  0.038884181   -2.5309786   0.75879712   426349 
 2317000   0.61040902   -2.5309588   -2.5309588   -1.7721714  0.041059775   -2.5309588   0.75878736   426349 
 2318000   0.61175418   -2.5319996   -2.5319996   -1.7715401  0.039542354   -2.5319996   0.76045951   426349 
 2319000   0.61107389   -2.5308539   -2.5308539   -1.7712401  0.032022427   -2.5308539   0.75961385   426349 
 2320000   0.61085387   -2.5312745   -2.5312745   -1.7719341  0.033398253   -2.5312745   0.75934035   426349 
 2321000   0.60995422   -2.5304311   -2.5304311    -1.772209  0.041732942   -2.5304311   0.75822201   426349 
 2322000   0.61146531   -2.5311312   -2.5311312   -1.7710307  0.034394364   -2.5311312   0.76010042   426349 
 2323000   0.60988603   -2.5300792   -2.5300792   -1.7719419  0.038159964   -2.5300792   0.75813725   426349 
 2324000   0.61147547   -2.5320633   -2.5320633   -1.7719503  0.042277022   -2.5320633   0.76011304   426349 
 2325000   0.60977094   -2.5302771   -2.5302771   -1.7722829  0.039695941   -2.5302771   0.75799419   426349 
 2326000   0.61046016   -2.5315802   -2.5315802   -1.7727293  0.035520613   -2.5315802   0.75885093   426349 
 2327000   0.61219352   -2.5332381   -2.5332381   -1.7722325  0.036458343   -2.5332381   0.76100564   426349 
 2328000   0.61202134    -2.531949    -2.531949   -1.7711574  0.040707152    -2.531949   0.76079161   426349 
 2329000   0.61214596   -2.5322769   -2.5322769   -1.7713304  0.040135614   -2.5322769   0.76094652   426349 
 2330000   0.61177987   -2.5323281   -2.5323281   -1.7718366  0.046004806   -2.5323281   0.76049145   426349 
 2331000     0.611153   -2.5313379   -2.5313379   -1.7716257  0.031614908   -2.5313379   0.75971219   426349 
 2332000   0.61108296   -2.5318533   -2.5318533   -1.7722282  0.042582183   -2.5318533   0.75962513   426349 
 2333000   0.61114124   -2.5316038   -2.5316038   -1.7719063  0.041568246   -2.5316038   0.75969757   426349 
 2334000   0.61147952   -2.5326877   -2.5326877   -1.7725696  0.036616177   -2.5326877   0.76011808   426349 
 2335000   0.61103817   -2.5318948   -2.5318948   -1.7723254  0.038000258   -2.5318948   0.75956946   426349 
 2336000   0.61138237   -2.5318314   -2.5318314   -1.7718341  0.039024539   -2.5318314   0.75999731   426349 
 2337000   0.61236582   -2.5340749   -2.5340749   -1.7728551  0.036338776   -2.5340749   0.76121982   426349 
 2338000   0.61156601   -2.5329054   -2.5329054   -1.7726798  0.040274423   -2.5329054    0.7602256   426349 
 2339000    0.6110053   -2.5321979   -2.5321979   -1.7726693  0.033810209   -2.5321979   0.75952859   426349 
 2340000   0.61099359   -2.5318238   -2.5318238   -1.7723098  0.037263441   -2.5318238   0.75951404   426349 
 2341000   0.61195307   -2.5329502   -2.5329502   -1.7722434  0.039957719   -2.5329502   0.76070674   426349 
 2342000   0.61026134   -2.5312663   -2.5312663   -1.7726626  0.039165652   -2.5312663   0.75860379   426349 
 2343000   0.61171112   -2.5326229   -2.5326229   -1.7722169  0.037928038   -2.5326229   0.76040598   426349 
 2344000   0.61101066   -2.5322618   -2.5322618   -1.7727266  0.044174244   -2.5322618   0.75953525   426349 
 2345000   0.61116648   -2.5322058   -2.5322058   -1.7724769   0.03493641   -2.5322058   0.75972895   426349 
 2346000   0.61071443   -2.5319737   -2.5319737   -1.7728067  0.039327663   -2.5319737   0.75916701   426349 
 2347000    0.6105035   -2.5322692   -2.5322692   -1.7733644  0.050332689   -2.5322692   0.75890481   426349 
 2348000   0.61083124   -2.5329197   -2.5329197   -1.7736075  0.044965592   -2.5329197   0.75931221   426349 
 2349000   0.61045505    -2.532267    -2.532267   -1.7734224  0.048327732    -2.532267   0.75884458   426349 
 2350000   0.61032399   -2.5321697   -2.5321697   -1.7734881  0.041838804   -2.5321697   0.75868166   426349 
 2351000   0.61035943   -2.5321003   -2.5321003   -1.7733746  0.044346352   -2.5321003   0.75872572   426349 
 2352000   0.61080274    -2.532666    -2.532666   -1.7733892    0.0436848    -2.532666   0.75927679   426349 
 2353000   0.61115645   -2.5328406   -2.5328406   -1.7731241  0.039772542   -2.5328406   0.75971648   426349 
 2354000   0.61158942   -2.5331131   -2.5331131   -1.7728584  0.040351266   -2.5331131    0.7602547   426349 
 2355000   0.60993861   -2.5316863   -2.5316863   -1.7734837   0.03855351   -2.5316863   0.75820261   426349 
 2356000   0.61088921   -2.5324633   -2.5324633    -1.773079   0.03987872   -2.5324633   0.75938428   426349 
 2357000   0.61112322   -2.5330968   -2.5330968   -1.7734216  0.039879435   -2.5330968   0.75967517   426349 
 2358000   0.61097148    -2.533073    -2.533073   -1.7735865   0.04577017    -2.533073   0.75948655   426349 
 2359000    0.6090213   -2.5313981   -2.5313981   -1.7743358  0.040765631   -2.5313981   0.75706232   426349 
 2360000   0.61012628   -2.5326111   -2.5326111   -1.7741752  0.040002189   -2.5326111    0.7584359   426349 
 2361000   0.60998094   -2.5329886   -2.5329886   -1.7747333  0.036492491   -2.5329886   0.75825523   426349 
 2362000   0.61007362   -2.5326723   -2.5326723   -1.7743019  0.041084731   -2.5326723   0.75837044   426349 
 2363000   0.60973245   -2.5325076   -2.5325076   -1.7745612  0.044066891   -2.5325076   0.75794634   426349 
 2364000   0.61004219   -2.5336738   -2.5336738   -1.7753424  0.046011391   -2.5336738   0.75833137   426349 
 2365000    0.6091337   -2.5325366   -2.5325366   -1.7753345  0.038393972   -2.5325366   0.75720204   426349 
 2366000   0.61084884   -2.5340971   -2.5340971    -1.774763  0.040465898   -2.5340971    0.7593341   426349 
 2367000   0.61105665   -2.5336561   -2.5336561   -1.7740636  0.045674416   -2.5336561   0.75959243   426349 
 2368000   0.61020307   -2.5332619   -2.5332619   -1.7747306  0.039490689   -2.5332619   0.75853135   426349 
 2369000   0.61083605   -2.5335355   -2.5335355   -1.7742173  0.044592845   -2.5335355    0.7593182   426349 
 2370000   0.61010451    -2.533664    -2.533664   -1.7752552  0.040111162    -2.533664   0.75840884   426349 
 2371000   0.61084896   -2.5342528   -2.5342528   -1.7749185  0.037931383   -2.5342528   0.75933425   426349 
 2372000   0.61183064   -2.5352367   -2.5352367   -1.7746822  0.030144507   -2.5352367   0.76055455   426349 
 2373000   0.61144041    -2.534904    -2.534904   -1.7748345  0.043622379    -2.534904   0.76006947   426349 
 2374000   0.61159906    -2.534653    -2.534653   -1.7743864  0.042500637    -2.534653   0.76026668   426349 
 2375000   0.61153145   -2.5345868   -2.5345868   -1.7744041  0.042249517   -2.5345868   0.76018263   426349 
 2376000   0.61171295   -2.5345808   -2.5345808   -1.7741726  0.042369141   -2.5345808   0.76040825   426349 
 2377000   0.61232834   -2.5348643   -2.5348643   -1.7736911  0.047444381   -2.5348643   0.76117323   426349 
 2378000   0.61199336   -2.5348408   -2.5348408   -1.7740839  0.045419637   -2.5348408   0.76075683   426349 
 2379000   0.61152596   -2.5348784   -2.5348784   -1.7747026  0.044324215   -2.5348784   0.76017582   426349 
 2380000    0.6114855   -2.5346975   -2.5346975    -1.774572  0.046507728   -2.5346975   0.76012551   426349 
 2381000   0.61186449   -2.5348111   -2.5348111   -1.7742144  0.040891567   -2.5348111   0.76059663   426349 
 2382000    0.6104974   -2.5330198   -2.5330198   -1.7741225  0.042983676   -2.5330198   0.75889723   426349 
 2383000   0.61064475   -2.5333179   -2.5333179   -1.7742375  0.045280187   -2.5333179    0.7590804   426349 
 2384000   0.61069689   -2.5334805   -2.5334805   -1.7743353  0.038281777   -2.5334805   0.75914521   426349 
 2385000   0.61051488   -2.5330539   -2.5330539    -1.774135  0.046211674   -2.5330539   0.75891895   426349 
 2386000   0.61122424   -2.5335305   -2.5335305   -1.7737297  0.044350978   -2.5335305   0.75980075   426349 
 2387000   0.61111465   -2.5322311   -2.5322311   -1.7725666   0.04224847   -2.5322311   0.75966452   426349 
 2388000   0.61096959   -2.5319728   -2.5319728   -1.7724886  0.035290259   -2.5319728    0.7594842   426349 
 2389000   0.61126148   -2.5319674   -2.5319674   -1.7721204  0.041656917   -2.5319674   0.75984704   426349 
 2390000    0.6118611   -2.5326321   -2.5326321   -1.7720397  0.045756005   -2.5326321   0.76059242   426349 
 2391000   0.61043527   -2.5310179   -2.5310179   -1.7721979  0.040517547   -2.5310179   0.75881999   426349 
 2392000   0.60999334   -2.5309984   -2.5309984   -1.7727277  0.037470461   -2.5309984   0.75827065   426349 
 2393000   0.60886346   -2.5287393   -2.5287393   -1.7718732  0.042287623   -2.5287393   0.75686611   426349 
 2394000   0.61016553   -2.5307555   -2.5307555   -1.7722709  0.040097722   -2.5307555   0.75848469   426349 
 2395000   0.61037241   -2.5309499   -2.5309499   -1.7722081   0.04014869   -2.5309499   0.75874186   426349 
 2396000   0.61156461   -2.5327581   -2.5327581   -1.7725343  0.038087504   -2.5327581   0.76022386   426349 
 2397000   0.60987453   -2.5303894   -2.5303894   -1.7722664   0.03714335   -2.5303894   0.75812296   426349 
 2398000    0.6103122   -2.5313374   -2.5313374   -1.7726704  0.038341881   -2.5313374   0.75866701   426349 
 2399000   0.60976412   -2.5308312   -2.5308312   -1.7728455  0.048108194   -2.5308312   0.75798571   426349 
 2400000   0.61114304   -2.5322618   -2.5322618    -1.772562  0.052339247   -2.5322618   0.75969981   426349 
 2401000   0.61051795   -2.5328023   -2.5328023   -1.7738795  0.034917972   -2.5328023   0.75892277   426349 
 2402000   0.61183908   -2.5340007   -2.5340007   -1.7734357  0.048547135   -2.5340007   0.76056504   426349 
 2403000   0.61147405   -2.5337611   -2.5337611   -1.7736498  0.041889371   -2.5337611   0.76011128   426349 
 2404000   0.61163486   -2.5341608   -2.5341608   -1.7738497  0.039609861   -2.5341608   0.76031118   426349 
 2405000   0.61238113   -2.5345317   -2.5345317   -1.7732928  0.039496454   -2.5345317   0.76123886   426349 
 2406000   0.61133484   -2.5342975   -2.5342975   -1.7743593  0.038985776   -2.5342975   0.75993824   426349 
 2407000   0.61128761   -2.5344104   -2.5344104   -1.7745308  0.034369481   -2.5344104   0.75987952   426349 
 2408000   0.61185216   -2.5351349   -2.5351349   -1.7745536  0.038583476   -2.5351349    0.7605813   426349 
 2409000   0.61186414   -2.5353825   -2.5353825   -1.7747863  0.039978139   -2.5353825    0.7605962   426349 
 2410000   0.61008735    -2.533608    -2.533608   -1.7752205  0.034581311    -2.533608   0.75838751   426349 
 2411000   0.60933643   -2.5333644   -2.5333644   -1.7759104  0.041493488   -2.5333644   0.75745405   426349 
 2412000    0.6099319   -2.5341362   -2.5341362   -1.7759419  0.040945156   -2.5341362   0.75819427   426349 
 2413000    0.6100825   -2.5343148   -2.5343148   -1.7759333   0.03724001   -2.5343148   0.75838148   426349 
 2414000   0.60930115   -2.5337472   -2.5337472    -1.776337  0.041145729   -2.5337472   0.75741019   426349 
 2415000   0.61128582   -2.5352638   -2.5352638   -1.7753865  0.038750273   -2.5352638   0.75987729   426349 
 2416000   0.61006015   -2.5342368   -2.5342368   -1.7758831  0.045937579   -2.5342368   0.75835369   426349 
 2417000   0.61097142   -2.5353357   -2.5353357   -1.7758492  0.033061466   -2.5353357   0.75948648   426349 
 2418000   0.61081345   -2.5351516   -2.5351516   -1.7758615  0.040696666   -2.5351516    0.7592901   426349 
 2419000    0.6106073   -2.5341798   -2.5341798    -1.775146  0.044562836   -2.5341798   0.75903385   426349 
 2420000   0.61161975   -2.5362739   -2.5362739   -1.7759815  0.043190951   -2.5362739    0.7602924   426349 
 2421000    0.6113429   -2.5359903   -2.5359903   -1.7760421  0.043149991   -2.5359903   0.75994825   426349 
 2422000   0.61103812   -2.5353789   -2.5353789   -1.7758095  0.042812914   -2.5353789   0.75956939   426349 
 2423000   0.61096596   -2.5350303   -2.5350303   -1.7755506  0.037463722   -2.5350303   0.75947969   426349 
 2424000   0.61183597   -2.5362773   -2.5362773   -1.7757162  0.049249307   -2.5362773   0.76056118   426349 
 2425000   0.61224284    -2.536738    -2.536738    -1.775671  0.045633013    -2.536738   0.76106695   426349 
 2426000   0.61192957   -2.5370672   -2.5370672   -1.7763896  0.044449119   -2.5370672   0.76067754   426349 
 2427000   0.61186703   -2.5369553   -2.5369553   -1.7763555  0.044935448   -2.5369553   0.76059979   426349 
 2428000   0.61172317   -2.5365103   -2.5365103   -1.7760893  0.044326337   -2.5365103   0.76042096   426349 
 2429000   0.61076498   -2.5356396   -2.5356396   -1.7764097  0.040758139   -2.5356396   0.75922986   426349 
 2430000   0.60974715   -2.5347657   -2.5347657   -1.7768011  0.048351616   -2.5347657    0.7579646   426349 
 2431000   0.61115514   -2.5361141   -2.5361141   -1.7763993  0.041815405   -2.5361141   0.75971485   426349 
 2432000   0.61085087   -2.5363454   -2.5363454   -1.7770088  0.034262052   -2.5363454   0.75933663   426349 
 2433000    0.6107674   -2.5360344   -2.5360344   -1.7768015   0.04125222   -2.5360344   0.75923286   426349 
 2434000    0.6093814   -2.5346095   -2.5346095   -1.7770996  0.032501527   -2.5346095   0.75750996   426349 
 2435000   0.61038655   -2.5358474   -2.5358474   -1.7770879  0.036807795   -2.5358474   0.75875943   426349 
 2436000   0.60960854   -2.5339079   -2.5339079   -1.7761156  0.040593948   -2.5339079    0.7577923   426349 
 2437000   0.61000481   -2.5340525   -2.5340525   -1.7757676  0.034614818   -2.5340525    0.7582849   426349 
 2438000   0.60904782   -2.5339522   -2.5339522   -1.7768569  0.033794391   -2.5339522   0.75709529   426349 
 2439000   0.60970869   -2.5346691   -2.5346691   -1.7767523  0.036598092   -2.5346691    0.7579168   426349 
 2440000   0.61049117   -2.5361282   -2.5361282   -1.7772387  0.040223739   -2.5361282   0.75888949   426349 
 2441000   0.61064207   -2.5354265   -2.5354265   -1.7763494   0.03840167   -2.5354265   0.75907707   426349 
 2442000   0.61150645   -2.5365024   -2.5365024   -1.7763508  0.047000676   -2.5365024   0.76015156   426349 
 2443000   0.61035767   -2.5354558   -2.5354558   -1.7767323   0.03650725   -2.5354558   0.75872353   426349 
 2444000   0.60923601   -2.5347579   -2.5347579   -1.7774287  0.038502361   -2.5347579   0.75732922   426349 
 2445000   0.60993509   -2.5356256   -2.5356256   -1.7774273   0.03972728   -2.5356256   0.75819823   426349 
 2446000   0.60948989   -2.5350404   -2.5350404   -1.7773956  0.034764441   -2.5350404   0.75764481   426349 
 2447000   0.61053138   -2.5371289   -2.5371289   -1.7781894  0.031921329   -2.5371289   0.75893946   426349 
 2448000   0.61181739   -2.5380574   -2.5380574   -1.7775193  0.039056979   -2.5380574   0.76053809   426349 
 2449000   0.61155415   -2.5371146   -2.5371146   -1.7769037  0.040280885   -2.5371146   0.76021086   426349 
 2450000   0.60989242   -2.5358167   -2.5358167   -1.7776715  0.037954264   -2.5358167    0.7581452   426349 
 2451000   0.60982611   -2.5357998   -2.5357998    -1.777737  0.046461722   -2.5357998   0.75806276   426349 
 2452000   0.61084777   -2.5369514   -2.5369514   -1.7776187  0.037342164   -2.5369514   0.75933277   426349 
 2453000   0.61327985   -2.5389786   -2.5389786   -1.7766226  0.040974297   -2.5389786   0.76235603   426349 
 2454000   0.61146422   -2.5380696   -2.5380696   -1.7779706  0.033897392   -2.5380696   0.76009906   426349 
 2455000   0.61139824   -2.5377048   -2.5377048   -1.7776878  0.035953567   -2.5377048   0.76001705   426349 
 2456000   0.61089144   -2.5374477   -2.5374477   -1.7780607  0.038451229   -2.5374477   0.75938705   426349 
 2457000   0.61143758   -2.5376443   -2.5376443   -1.7775783  0.040450313   -2.5376443   0.76006595   426349 
 2458000   0.61131523   -2.5383652   -2.5383652   -1.7784513  0.051532214   -2.5383652   0.75991386   426349 
 2459000    0.6117044    -2.538583    -2.538583   -1.7781854  0.036900049    -2.538583   0.76039762   426349 
 2460000   0.61067639   -2.5375853   -2.5375853   -1.7784656  0.038603965   -2.5375853   0.75911972   426349 
 2461000   0.61163318   -2.5385887   -2.5385887   -1.7782796  0.040730356   -2.5385887   0.76030909   426349 
 2462000   0.61026176   -2.5380215   -2.5380215   -1.7794172  0.041297116   -2.5380215   0.75860432   426349 
 2463000   0.61113303   -2.5389483   -2.5389483   -1.7792609  0.031663029   -2.5389483   0.75968737   426349 
 2464000   0.61138392   -2.5395331   -2.5395331   -1.7795338  0.039659593   -2.5395331   0.75999925   426349 
 2465000   0.61103931   -2.5389771   -2.5389771   -1.7794062  0.033307464   -2.5389771   0.75957087   426349 
 2466000   0.61181289   -2.5385339   -2.5385339   -1.7780015  0.035488551   -2.5385339   0.76053249   426349 
 2467000    0.6110926   -2.5371476   -2.5371476   -1.7775105  0.037171092   -2.5371476   0.75963711   426349 
 2468000   0.61027912   -2.5359375   -2.5359375   -1.7773116  0.040547145   -2.5359375   0.75862589   426349 
 2469000   0.61047534   -2.5364121   -2.5364121   -1.7775422  0.039886664   -2.5364121   0.75886981   426349 
 2470000   0.61062367   -2.5369733   -2.5369733   -1.7779191  0.041640632   -2.5369733   0.75905419   426349 
 2471000   0.61082645   -2.5379668   -2.5379668   -1.7786606  0.032253117   -2.5379668   0.75930626   426349 
 2472000   0.61100309   -2.5379802   -2.5379802   -1.7784544  0.035955462   -2.5379802   0.75952585   426349 
 2473000   0.61011358   -2.5368275   -2.5368275   -1.7784074  0.030273078   -2.5368275   0.75842011   426349 
 2474000    0.6110599   -2.5377097   -2.5377097   -1.7781132  0.039296891   -2.5377097   0.75959646   426349 
 2475000   0.61018289    -2.536426    -2.536426   -1.7779197  0.038608561    -2.536426   0.75850627   426349 
 2476000   0.61143754   -2.5385585   -2.5385585   -1.7784926  0.036739118   -2.5385585   0.76006589   426349 
 2477000    0.6102563   -2.5373469   -2.5373469   -1.7787494  0.041871286   -2.5373469   0.75859753   426349 
 2478000   0.61154725   -2.5383209   -2.5383209   -1.7781187  0.037360945   -2.5383209   0.76020227   426349 
 2479000   0.61104355   -2.5376887   -2.5376887   -1.7781126  0.043612219   -2.5376887   0.75957614   426349 
 2480000    0.6111884    -2.537993    -2.537993   -1.7782368  0.044182527    -2.537993    0.7597562   426349 
 2481000    0.6123106   -2.5390169   -2.5390169   -1.7778658   0.03412921   -2.5390169   0.76115118   426349 
 2482000   0.61165165   -2.5382819   -2.5382819   -1.7779498  0.041530491   -2.5382819   0.76033206   426349 
 2483000    0.6107683   -2.5374793   -2.5374793   -1.7782453  0.046280639   -2.5374793   0.75923398   426349 
 2484000   0.61228666   -2.5390148   -2.5390148   -1.7778934  0.044143729   -2.5390148   0.76112143   426349 
 2485000    0.6119085   -2.5383539   -2.5383539   -1.7777025   0.03577825   -2.5383539   0.76065134   426349 
 2486000   0.61083212   -2.5373258   -2.5373258   -1.7780125  0.034735045   -2.5373258   0.75931331   426349 
 2487000   0.61176808   -2.5388612   -2.5388612   -1.7783844  0.032724072   -2.5388612   0.76047678   426349 
 2488000   0.61142743   -2.5378479   -2.5378479   -1.7777946  0.042544849   -2.5378479   0.76005333   426349 
 2489000    0.6102531   -2.5367898   -2.5367898   -1.7781963  0.048991678   -2.5367898   0.75859354   426349 
 2490000   0.60968248    -2.535992    -2.535992   -1.7781078  0.039149272    -2.535992   0.75788421   426349 
 2491000   0.61023594   -2.5363356   -2.5363356   -1.7777634  0.037411906   -2.5363356   0.75857222   426349 
 2492000   0.61114095   -2.5362551   -2.5362551   -1.7765578  0.041778267   -2.5362551   0.75969722   426349 
 2493000   0.61015978   -2.5362828   -2.5362828   -1.7778052  0.038343157   -2.5362828   0.75847754   426349 
 2494000   0.61109697   -2.5366809   -2.5366809   -1.7770384  0.033688412   -2.5366809   0.75964254   426349 
 2495000   0.61136864   -2.5370127   -2.5370127   -1.7770324  0.044617871   -2.5370127   0.75998025   426349 
 2496000   0.61128711   -2.5367659   -2.5367659    -1.776887  0.035922505   -2.5367659    0.7598789   426349 
 2497000    0.6109868    -2.536439    -2.536439   -1.7769334  0.034779971    -2.536439   0.75950559   426349 
 2498000    0.6114705   -2.5369166   -2.5369166   -1.7768097  0.031203505   -2.5369166   0.76010687   426349 
 2499000   0.61098684   -2.5357175   -2.5357175   -1.7762119  0.033627862   -2.5357175   0.75950565   426349 
 2500000   0.61072797   -2.5354778   -2.5354778    -1.776294  0.042007931   -2.5354778   0.75918385   426349 
 2501000   0.61044074   -2.5356196   -2.5356196   -1.7767929  0.033577081   -2.5356196   0.75882679   426349 
 2502000   0.61079905   -2.5358568   -2.5358568   -1.7765846  0.034089261   -2.5358568   0.75927221   426349 
 2503000   0.60953018   -2.5357358   -2.5357358   -1.7780409  0.034239684   -2.5357358   0.75769489   426349 
 2504000   0.60967886   -2.5360868   -2.5360868   -1.7782071  0.034690949   -2.5360868   0.75787972   426349 
 2505000    0.6088288   -2.5344395   -2.5344395   -1.7776164  0.046040474   -2.5344395   0.75682303   426349 
 2506000   0.60996578   -2.5361231   -2.5361231   -1.7778867  0.040421836   -2.5361231   0.75823638   426349 
 2507000   0.61040179   -2.5366728   -2.5366728   -1.7778944  0.038043013   -2.5366728   0.75877837   426349 
 2508000   0.61003429   -2.5360706   -2.5360706   -1.7777491  0.035006807   -2.5360706   0.75832155   426349 
 2509000   0.61240847   -2.5390164   -2.5390164   -1.7777435  0.043778653   -2.5390164   0.76127285   426349 
 2510000   0.61072133   -2.5381862   -2.5381862   -1.7790106  0.042787555   -2.5381862   0.75917559   426349 
 2511000   0.61106743    -2.538952    -2.538952   -1.7793462  0.048830729    -2.538952   0.75960582   426349 
 2512000    0.6099104   -2.5379744   -2.5379744   -1.7798069  0.042478139   -2.5379744   0.75816754   426349 
 2513000   0.61106393   -2.5394596   -2.5394596   -1.7798581  0.038895174   -2.5394596   0.75960147   426349 
 2514000   0.61010357   -2.5385689   -2.5385689   -1.7801612  0.038176885   -2.5385689   0.75840766   426349 
 2515000   0.61090104   -2.5394752   -2.5394752   -1.7800762  0.050677459   -2.5394752   0.75939898   426349 
 2516000   0.61065028   -2.5394762   -2.5394762    -1.780389   0.04429835   -2.5394762   0.75908727   426349 
 2517000   0.61019747   -2.5393361   -2.5393361   -1.7808117  0.044569253   -2.5393361   0.75852439   426349 
 2518000   0.61048274   -2.5396429   -2.5396429   -1.7807639  0.044001836   -2.5396429     0.758879   426349 
 2519000   0.61066454   -2.5400002   -2.5400002   -1.7808952   0.04070053   -2.5400002   0.75910499   426349 
 2520000   0.61082657   -2.5411689   -2.5411689   -1.7818625    0.0363778   -2.5411689   0.75930641   426349 
 2521000   0.60961278   -2.5396922   -2.5396922   -1.7818946  0.038839387   -2.5396922   0.75779758   426349 
 2522000   0.60953986   -2.5394166   -2.5394166   -1.7817097  0.040655468   -2.5394166   0.75770693   426349 
 2523000   0.60951108   -2.5387257   -2.5387257   -1.7810545  0.035186049   -2.5387257   0.75767115   426349 
 2524000   0.61060679   -2.5398777   -2.5398777   -1.7808444  0.046481789   -2.5398777   0.75903321   426349 
 2525000   0.60953727   -2.5394997   -2.5394997    -1.781796  0.045351892   -2.5394997   0.75770372   426349 
 2526000   0.60983044   -2.5393179   -2.5393179   -1.7812498  0.040509033   -2.5393179   0.75806815   426349 
 2527000   0.60967021   -2.5392658   -2.5392658   -1.7813968  0.037745645   -2.5392658   0.75786897   426349 
 2528000   0.60990644   -2.5392539   -2.5392539   -1.7810913  0.041862474   -2.5392539   0.75816261   426349 
 2529000   0.61015534   -2.5401348   -2.5401348   -1.7816628  0.044519829   -2.5401348   0.75847202   426349 
 2530000   0.60987454   -2.5394589   -2.5394589    -1.781336  0.031121414   -2.5394589   0.75812296   426349 
 2531000   0.61023912   -2.5396927   -2.5396927   -1.7811165  0.032310178   -2.5396927   0.75857617   426349 
 2532000   0.60982408   -2.5395112   -2.5395112   -1.7814509  0.031228564   -2.5395112   0.75806024   426349 
 2533000   0.61092027     -2.54007     -2.54007   -1.7806471  0.032593515     -2.54007    0.7594229   426349 
 2534000   0.61075476   -2.5399548   -2.5399548   -1.7807377  0.039546088   -2.5399548   0.75921715   426349 
 2535000   0.61024009    -2.539464    -2.539464   -1.7808866  0.046352188    -2.539464   0.75857737   426349 
 2536000    0.6100526   -2.5391516   -2.5391516   -1.7808073   0.03691255   -2.5391516   0.75834431   426349 
 2537000   0.61043075   -2.5397551   -2.5397551   -1.7809407  0.036753223   -2.5397551   0.75881438   426349 
 2538000   0.61017112   -2.5391189   -2.5391189   -1.7806273  0.041988079   -2.5391189   0.75849163   426349 
 2539000   0.61091143   -2.5397972   -2.5397972   -1.7803853  0.039364726   -2.5397972   0.75941191   426349 
 2540000   0.61113877   -2.5398401   -2.5398401   -1.7801456  0.037932291   -2.5398401    0.7596945   426349 
 2541000   0.61123781   -2.5403227   -2.5403227   -1.7805051  0.038374126   -2.5403227   0.75981762   426349 
 2542000   0.61045554   -2.5390737   -2.5390737   -1.7802285  0.047483141   -2.5390737    0.7588452   426349 
 2543000     0.610376   -2.5389695   -2.5389695   -1.7802232  0.042538648   -2.5389695   0.75874632   426349 
 2544000   0.61065267   -2.5393396   -2.5393396   -1.7802493  0.039393552   -2.5393396   0.75909024   426349 
 2545000   0.60973372   -2.5390281   -2.5390281   -1.7810802  0.039998448   -2.5390281   0.75794791   426349 
 2546000   0.61025569   -2.5400704   -2.5400704   -1.7814736  0.040299439   -2.5400704   0.75859677   426349 
 2547000   0.61049421   -2.5399871   -2.5399871   -1.7810939  0.042019343   -2.5399871   0.75889327   426349 
 2548000   0.61079409   -2.5406521   -2.5406521   -1.7813861  0.041564397   -2.5406521   0.75926604   426349 
 2549000   0.60981502   -2.5393609   -2.5393609    -1.781312  0.042244542   -2.5393609   0.75804897   426349 
 2550000   0.60987243    -2.539777    -2.539777   -1.7816567  0.043283577    -2.539777   0.75812035   426349 
 2551000   0.61097227   -2.5407811   -2.5407811   -1.7812935  0.034819954   -2.5407811   0.75948753   426349 
 2552000   0.61024795   -2.5400247   -2.5400247   -1.7814375  0.031763109   -2.5400247   0.75858715   426349 
 2553000   0.60996999    -2.539528    -2.539528   -1.7812864  0.043758414    -2.539528   0.75824161   426349 
 2554000     0.611087   -2.5406766   -2.5406766   -1.7810465  0.044034293   -2.5406766   0.75963015   426349 
 2555000   0.61095819   -2.5405176   -2.5405176   -1.7810476  0.042276324   -2.5405176   0.75947003   426349 
 2556000   0.61109222   -2.5408121   -2.5408121   -1.7811755  0.039131003   -2.5408121   0.75963664   426349 
 2557000   0.61125517   -2.5407063   -2.5407063   -1.7808671  0.039399371   -2.5407063    0.7598392   426349 
 2558000   0.61123014   -2.5421548   -2.5421548   -1.7823467   0.02984661   -2.5421548   0.75980809   426349 
 2559000   0.60993764   -2.5410147   -2.5410147   -1.7828133  0.038154827   -2.5410147   0.75820141   426349 
 2560000   0.61000583   -2.5410928   -2.5410928   -1.7828066  0.034057363   -2.5410928   0.75828617   426349 
 2561000   0.60991418   -2.5404848   -2.5404848   -1.7823125  0.043080342   -2.5404848   0.75817224   426349 
 2562000   0.61089771   -2.5411778   -2.5411778    -1.781783  0.042545355   -2.5411778   0.75939485   426349 
 2563000    0.6111028   -2.5412192   -2.5412192   -1.7815694  0.033940145   -2.5412192   0.75964979   426349 
 2564000   0.61051795   -2.5407548   -2.5407548    -1.781832  0.042288205   -2.5407548   0.75892277   426349 
 2565000   0.61048978   -2.5401069   -2.5401069   -1.7812191  0.048353238   -2.5401069   0.75888776   426349 
 2566000   0.61120724   -2.5408206   -2.5408206    -1.781041  0.044126593   -2.5408206   0.75977961   426349 
 2567000   0.61073556   -2.5405137   -2.5405137   -1.7813204  0.033520109   -2.5405137   0.75919328   426349 
 2568000   0.60953421   -2.5391598   -2.5391598   -1.7814599    0.0366953   -2.5391598    0.7576999   426349 
 2569000   0.60991141   -2.5398156   -2.5398156   -1.7816468  0.039521832   -2.5398156    0.7581688   426349 
 2570000   0.61022061   -2.5401668   -2.5401668   -1.7816136  0.038346501   -2.5401668   0.75855316   426349 
 2571000   0.60916918   -2.5386976   -2.5386976   -1.7814514  0.037140803   -2.5386976   0.75724614   426349 
 2572000   0.60999278    -2.540712    -2.540712   -1.7824421  0.042475508    -2.540712   0.75826995   426349 
 2573000   0.60974133   -2.5398732   -2.5398732   -1.7819158  0.033671439   -2.5398732   0.75795737   426349 
 2574000    0.6099392   -2.5398416   -2.5398416   -1.7816383  0.037727512   -2.5398416   0.75820334   426349 
 2575000   0.61030519   -2.5408686   -2.5408686   -1.7822103  0.036878777   -2.5408686    0.7586583   426349 
 2576000    0.6102688   -2.5402465   -2.5402465   -1.7816334  0.043826218   -2.5402465   0.75861307   426349 
 2577000    0.6104974   -2.5412122   -2.5412122    -1.782315  0.036053359   -2.5412122   0.75889722   426349 
 2578000   0.61032228   -2.5411666   -2.5411666   -1.7824871  0.033684449   -2.5411666   0.75867954   426349 
 2579000   0.60926432   -2.5408658   -2.5408658   -1.7835014   0.03798646   -2.5408658   0.75736441   426349 
 2580000   0.60991207   -2.5413002   -2.5413002   -1.7831306  0.031465163   -2.5413002   0.75816962   426349 
 2581000   0.60971288   -2.5409101   -2.5409101   -1.7829881  0.035344994   -2.5409101   0.75792201   426349 
 2582000   0.61085281   -2.5414693   -2.5414693   -1.7821302  0.043184956   -2.5414693   0.75933904   426349 
 2583000   0.61010307    -2.540954    -2.540954    -1.782547  0.037791273    -2.540954   0.75840705   426349 
 2584000    0.6113418   -2.5423001   -2.5423001   -1.7823532   0.04183747   -2.5423001   0.75994689   426349 
 2585000   0.61068238   -2.5414213   -2.5414213   -1.7822941  0.034942516   -2.5414213   0.75912718   426349 
 2586000   0.61118226     -2.54273     -2.54273   -1.7829814  0.037135167     -2.54273   0.75974857   426349 
 2587000   0.61236999   -2.5435185   -2.5435185   -1.7822935  0.037083769   -2.5435185   0.76122501   426349 
 2588000   0.61245669   -2.5436562   -2.5436562   -1.7823234  0.039890818   -2.5436562   0.76133279   426349 
 2589000   0.61236674   -2.5436842   -2.5436842   -1.7824632  0.038977374   -2.5436842   0.76122097   426349 
 2590000   0.61126735   -2.5431626   -2.5431626   -1.7833082  0.049702122   -2.5431626   0.75985434   426349 
 2591000   0.60980218   -2.5415581   -2.5415581   -1.7835251  0.037975266   -2.5415581   0.75803302   426349 
 2592000   0.60916514   -2.5408403   -2.5408403   -1.7835992  0.041997622   -2.5408403   0.75724113   426349 
 2593000   0.60994409    -2.542229    -2.542229   -1.7840195  0.028976145    -2.542229   0.75820942   426349 
 2594000   0.61034303   -2.5423888   -2.5423888   -1.7836835  0.037356104   -2.5423888   0.75870533   426349 
 2595000   0.61041185   -2.5422522   -2.5422522   -1.7834613  0.036967652   -2.5422522   0.75879088   426349 
 2596000   0.60993882   -2.5406418   -2.5406418   -1.7824389   0.04099658   -2.5406418   0.75820287   426349 
 2597000   0.60966402   -2.5402748   -2.5402748   -1.7824136  0.044985188   -2.5402748   0.75786127   426349 
 2598000   0.60993177   -2.5410376   -2.5410376   -1.7828435   0.03334945   -2.5410376   0.75819411   426349 
 2599000   0.61050533   -2.5420666   -2.5420666   -1.7831595   0.03665913   -2.5420666   0.75890708   426349 
 2600000   0.61067414   -2.5418943   -2.5418943   -1.7827773   0.04373772   -2.5418943   0.75911694   426349 
 2601000   0.60934439   -2.5400184   -2.5400184   -1.7825545  0.032525423   -2.5400184   0.75746394   426349 
 2602000   0.61018305   -2.5406899   -2.5406899   -1.7821834  0.035543886   -2.5406899   0.75850647   426349 
 2603000   0.61109332   -2.5418552   -2.5418552   -1.7822172  0.038900853   -2.5418552   0.75963801   426349 
 2604000   0.61018021   -2.5412375   -2.5412375   -1.7827346  0.037711271   -2.5412375   0.75850294   426349 
 2605000   0.61019937   -2.5411581   -2.5411581   -1.7826313  0.038990122   -2.5411581   0.75852676   426349 
 2606000   0.60958674   -2.5414707   -2.5414707   -1.7837055  0.034098567   -2.5414707    0.7577652   426349 
 2607000   0.60886901   -2.5408141   -2.5408141   -1.7839411  0.035476077   -2.5408141   0.75687301   426349 
 2608000   0.60948523   -2.5409048   -2.5409048   -1.7832657  0.049217836   -2.5409048   0.75763903   426349 
 2609000   0.60938581    -2.540314    -2.540314   -1.7827986   0.05120765    -2.540314   0.75751543   426349 
 2610000   0.61084495   -2.5425784   -2.5425784   -1.7832491  0.036831537   -2.5425784   0.75932926   426349 
 2611000   0.61106755   -2.5431393   -2.5431393   -1.7835333   0.04272229   -2.5431393   0.75960597   426349 
 2612000    0.6106835   -2.5424822   -2.5424822   -1.7833536  0.043305897   -2.5424822   0.75912857   426349 
 2613000   0.61151967   -2.5432134   -2.5432134   -1.7830454  0.039295095   -2.5432134     0.760168   426349 
 2614000    0.6116272   -2.5432958   -2.5432958   -1.7829941  0.033005058   -2.5432958   0.76030166   426349 
 2615000   0.61145965   -2.5429867   -2.5429867   -1.7828933  0.036801868   -2.5429867   0.76009339   426349 
 2616000   0.61060001    -2.542785    -2.542785   -1.7837602  0.032240645    -2.542785   0.75902478   426349 
 2617000   0.61111646   -2.5427984   -2.5427984   -1.7831316  0.036151832   -2.5427984   0.75966678   426349 
 2618000   0.61012808    -2.542191    -2.542191   -1.7837529  0.032259177    -2.542191   0.75843813   426349 
 2619000   0.60955328   -2.5405987   -2.5405987   -1.7828751  0.041060221   -2.5405987   0.75772361   426349 
 2620000   0.60918365   -2.5407149   -2.5407149   -1.7834507  0.037866269   -2.5407149   0.75726414   426349 
 2621000   0.61034893   -2.5418032   -2.5418032   -1.7830905  0.035960136   -2.5418032   0.75871267   426349 
 2622000   0.61035773   -2.5417082   -2.5417082   -1.7829846  0.040217112   -2.5417082   0.75872361   426349 
 2623000   0.60871478   -2.5400703   -2.5400703    -1.783389  0.031772972   -2.5400703    0.7566813   426349 
 2624000   0.60970926   -2.5410044   -2.5410044   -1.7830869  0.040341168   -2.5410044   0.75791751   426349 
 2625000   0.61055714     -2.54164     -2.54164   -1.7826686   0.03970564     -2.54164   0.75897149   426349 
 2626000   0.60921884   -2.5401283   -2.5401283   -1.7828205  0.041949939   -2.5401283   0.75730787   426349 
 2627000   0.61022186   -2.5419015   -2.5419015   -1.7833468  0.037730678   -2.5419015   0.75855471   426349 
 2628000   0.61065789   -2.5418455   -2.5418455   -1.7827488  0.032381571   -2.5418455   0.75909673   426349 
 2629000   0.60927893    -2.540739    -2.540739   -1.7833564  0.046634329    -2.540739   0.75738257   426349 
 2630000   0.61011618   -2.5410574   -2.5410574   -1.7826341  0.038677005   -2.5410574   0.75842335   426349 
 2631000   0.61025622   -2.5414991   -2.5414991   -1.7829017  0.045227487   -2.5414991   0.75859743   426349 
 2632000   0.61067178   -2.5427832   -2.5427832   -1.7836692  0.041538777   -2.5427832     0.759114   426349 
 2633000   0.60974351   -2.5411787   -2.5411787   -1.7832186  0.042589474   -2.5411787   0.75796009   426349 
 2634000   0.60916321   -2.5402164   -2.5402164   -1.7829777  0.037334973   -2.5402164   0.75723872   426349 
 2635000   0.60990329   -2.5415438   -2.5415438   -1.7833851  0.043071506   -2.5415438    0.7581587   426349 
 2636000   0.60966771   -2.5413418   -2.5413418    -1.783476  0.038453829   -2.5413418   0.75786586   426349 
 2637000   0.60988767    -2.541275    -2.541275   -1.7831357  0.035565259    -2.541275   0.75813929   426349 
 2638000    0.6093893   -2.5412763   -2.5412763   -1.7837565  0.046173667   -2.5412763   0.75751978   426349 
 2639000   0.60987919   -2.5412942   -2.5412942   -1.7831655  0.037167265   -2.5412942   0.75812875   426349 
 2640000   0.61024325   -2.5410481   -2.5410481   -1.7824668  0.045787138   -2.5410481    0.7585813   426349 
 2641000   0.61046284    -2.541927    -2.541927   -1.7830727  0.042241959    -2.541927   0.75885427   426349 
 2642000   0.60938278   -2.5404022   -2.5404022   -1.7828905  0.035250075   -2.5404022   0.75751166   426349 
 2643000   0.61089127   -2.5418373   -2.5418373   -1.7824504  0.045369301   -2.5418373   0.75938684   426349 
 2644000    0.6105558   -2.5415876   -2.5415876   -1.7826178  0.036449829   -2.5415876   0.75896983   426349 
 2645000   0.61023125   -2.5411862   -2.5411862   -1.7826198  0.041310806   -2.5411862   0.75856639   426349 
 2646000   0.61100195   -2.5417476   -2.5417476   -1.7822232  0.044852462   -2.5417476   0.75952443   426349 
 2647000   0.61055685   -2.5407297   -2.5407297   -1.7817586  0.040455205   -2.5407297   0.75897113   426349 
 2648000   0.61075941   -2.5408144   -2.5408144   -1.7815915  0.042509791   -2.5408144   0.75922293   426349 
 2649000   0.61020663   -2.5404417   -2.5404417   -1.7819059  0.035651243   -2.5404417   0.75853578   426349 
 2650000   0.61106432   -2.5417066   -2.5417066   -1.7821047  0.033802045   -2.5417066   0.75960195   426349 
 2651000   0.61061341   -2.5417504   -2.5417504    -1.782709  0.040242123   -2.5417504   0.75904144   426349 
 2652000   0.60965737   -2.5410159   -2.5410159   -1.7831629  0.029903822   -2.5410159     0.757853   426349 
 2653000   0.60934342   -2.5402542   -2.5402542   -1.7827915  0.047474441   -2.5402542   0.75746274   426349 
 2654000   0.60933049   -2.5401765   -2.5401765   -1.7827299  0.045347258   -2.5401765   0.75744667   426349 
 2655000   0.60995606   -2.5407107   -2.5407107   -1.7824864  0.039108073   -2.5407107    0.7582243   426349 
 2656000   0.60945761   -2.5409539   -2.5409539   -1.7833492  0.034527823   -2.5409539   0.75760469   426349 
 2657000   0.60913154   -2.5404987   -2.5404987   -1.7832993  0.039834746   -2.5404987   0.75719936   426349 
 2658000    0.6083763   -2.5400832   -2.5400832   -1.7838226  0.043041256   -2.5400832   0.75626054   426349 
 2659000   0.60875264   -2.5406085   -2.5406085   -1.7838802  0.044179688   -2.5406085   0.75672835   426349 
 2660000   0.60871401   -2.5403587   -2.5403587   -1.7836783  0.033016775   -2.5403587   0.75668033   426349 
 2661000   0.60923511   -2.5407071   -2.5407071    -1.783379  0.030259865   -2.5407071   0.75732811   426349 
 2662000   0.60935229   -2.5406441   -2.5406441   -1.7831703  0.032739616   -2.5406441   0.75747377   426349 
 2663000   0.61105552   -2.5426017   -2.5426017   -1.7830107  0.040158654   -2.5426017   0.75959102   426349 
 2664000   0.60994356     -2.54168     -2.54168   -1.7834712  0.038315829     -2.54168   0.75820876   426349 
 2665000   0.60951197   -2.5412626   -2.5412626   -1.7835903  0.045611108   -2.5412626   0.75767226   426349 
 2666000   0.61076086   -2.5425377   -2.5425377   -1.7833129  0.040283689   -2.5425377   0.75922474   426349 
 2667000   0.61043005   -2.5415331   -2.5415331   -1.7827196  0.047659053   -2.5415331   0.75881351   426349 
 2668000   0.61091823   -2.5435282   -2.5435282   -1.7841079  0.042412049   -2.5435282   0.75942035   426349 
 2669000   0.60900833   -2.5409297   -2.5409297   -1.7838835  0.045780669   -2.5409297    0.7570462   426349 
 2670000    0.6102501   -2.5427616   -2.5427616   -1.7841718  0.043465356   -2.5427616   0.75858981   426349 
 2671000   0.60990978   -2.5428206   -2.5428206   -1.7846538  0.035599197   -2.5428206   0.75816677   426349 
 2672000   0.60956225   -2.5423194   -2.5423194   -1.7845847  0.035739387   -2.5423194   0.75773477   426349 
 2673000   0.60996939   -2.5421617   -2.5421617   -1.7839208   0.04219934   -2.5421617   0.75824087   426349 
 2674000   0.61037927   -2.5433307   -2.5433307   -1.7845804   0.04427219   -2.5433307   0.75875039   426349 
 2675000   0.60974379   -2.5431495   -2.5431495   -1.7851891  0.038409983   -2.5431495   0.75796043   426349 
 2676000   0.60890173   -2.5424392   -2.5424392   -1.7855255  0.041421227   -2.5424392   0.75691368   426349 
 2677000   0.61049329   -2.5436614   -2.5436614   -1.7847693    0.0527458   -2.5436614   0.75889212   426349 
 2678000   0.60926659   -2.5423879   -2.5423879   -1.7850206  0.043215891   -2.5423879   0.75736723   426349 
 2679000   0.60912233   -2.5422884   -2.5422884   -1.7851004  0.039952732   -2.5422884   0.75718791   426349 
 2680000   0.60944336   -2.5424406   -2.5424406   -1.7848536  0.036829926   -2.5424406   0.75758697   426349 
 2681000   0.61166303   -2.5450365   -2.5450365   -1.7846903  0.039568943   -2.5450365    0.7603462   426349 
 2682000   0.61049183   -2.5434405   -2.5434405   -1.7845502   0.03796239   -2.5434405   0.75889031   426349 
 2683000   0.61057772   -2.5435717   -2.5435717   -1.7845746  0.048339655   -2.5435717   0.75899707   426349 
 2684000   0.61094725   -2.5439711   -2.5439711   -1.7845147  0.037625309   -2.5439711   0.75945643   426349 
 2685000   0.61081752   -2.5435731   -2.5435731    -1.784278  0.040758045   -2.5435731   0.75929516   426349 
 2686000   0.61011845   -2.5432646   -2.5432646   -1.7848384  0.041754024   -2.5432646   0.75842616   426349 
 2687000   0.61044093     -2.54368     -2.54368   -1.7848529  0.042440755     -2.54368   0.75882704   426349 
 2688000   0.60947043   -2.5419337   -2.5419337   -1.7843131  0.042210049   -2.5419337   0.75762062   426349 
 2689000    0.6099982   -2.5434386   -2.5434386   -1.7851619  0.041078058   -2.5434386   0.75827668   426349 
 2690000   0.60953097   -2.5426595   -2.5426595   -1.7849637  0.038017476   -2.5426595   0.75769587   426349 
 2691000   0.61032062   -2.5432648   -2.5432648   -1.7845873  0.036610498   -2.5432648   0.75867748   426349 
 2692000   0.60892501   -2.5407742   -2.5407742   -1.7838316  0.035019528   -2.5407742   0.75694262   426349 
 2693000   0.60948162   -2.5417538   -2.5417538   -1.7841193  0.044529197   -2.5417538   0.75763454   426349 
 2694000   0.61106157   -2.5429759   -2.5429759   -1.7833774  0.036944032   -2.5429759   0.75959854   426349 
 2695000   0.60867336   -2.5401342   -2.5401342   -1.7835044  0.041857589   -2.5401342    0.7566298   426349 
 2696000   0.60997285   -2.5416302   -2.5416302   -1.7833851  0.045101677   -2.5416302   0.75824518   426349 
 2697000   0.60925798   -2.5414379   -2.5414379   -1.7840814  0.028845272   -2.5414379   0.75735653   426349 
 2698000     0.609443   -2.5408413   -2.5408413   -1.7832548  0.042330495   -2.5408413   0.75758652   426349 
 2699000   0.61097783    -2.542454    -2.542454   -1.7829596  0.036975324    -2.542454   0.75949444   426349 
 2700000   0.61212293   -2.5445242   -2.5445242   -1.7836063  0.033925814   -2.5445242   0.76091789   426349 
 2701000    0.6110644   -2.5432371   -2.5432371   -1.7836351  0.040959162   -2.5432371   0.75960205   426349 
 2702000   0.60954363   -2.5422927   -2.5422927   -1.7845811  0.044343188   -2.5422927   0.75771162   426349 
 2703000   0.60971899   -2.5422191   -2.5422191   -1.7842896  0.036795654   -2.5422191    0.7579296   426349 
 2704000   0.60980175   -2.5425834   -2.5425834   -1.7845509  0.042441296   -2.5425834   0.75803249   426349 
 2705000   0.60943226   -2.5422469   -2.5422469   -1.7846737  0.036598568   -2.5422469   0.75757318   426349 
 2706000   0.61066052   -2.5441351   -2.5441351   -1.7850351  0.041342513   -2.5441351       0.7591   426349 
 2707000    0.6095183   -2.5435199   -2.5435199   -1.7858398   0.03835836   -2.5435199   0.75768013   426349 
 2708000   0.61080297    -2.544666    -2.544666   -1.7853889  0.038145634    -2.544666   0.75927708   426349 
 2709000   0.61019414   -2.5437492   -2.5437492   -1.7852289  0.033944195   -2.5437492   0.75852026   426349 
 2710000   0.61002945   -2.5433303   -2.5433303   -1.7850147  0.031750314   -2.5433303   0.75831553   426349 
 2711000   0.60967802   -2.5428639   -2.5428639   -1.7849852  0.040531426   -2.5428639   0.75787867   426349 
 2712000   0.61018122   -2.5433717   -2.5433717   -1.7848675  0.032172142   -2.5433717    0.7585042   426349 
 2713000   0.61012028   -2.5433202   -2.5433202   -1.7848918  0.044673615   -2.5433202   0.75842844   426349 
 2714000   0.60998271    -2.542736    -2.542736   -1.7844786  0.035604636    -2.542736   0.75825743   426349 
 2715000    0.6109436   -2.5432959   -2.5432959    -1.783844  0.038348411   -2.5432959   0.75945189   426349 
 2716000   0.60976756   -2.5419474   -2.5419474   -1.7839574   0.03314686   -2.5419474   0.75798998   426349 
 2717000   0.61103773   -2.5426409   -2.5426409    -1.783072  0.037701068   -2.5426409   0.75956891   426349 
 2718000   0.61034075   -2.5426582   -2.5426582   -1.7839557   0.03560234   -2.5426582    0.7587025   426349 
 2719000   0.61031738   -2.5429212   -2.5429212   -1.7842478  0.038976081   -2.5429212   0.75867345   426349 
 2720000   0.60974747   -2.5418142   -2.5418142   -1.7838492   0.03708854   -2.5418142   0.75796501   426349 
 2721000   0.61019562   -2.5427908   -2.5427908   -1.7842687  0.045682919   -2.5427908    0.7585221   426349 
 2722000   0.60931965   -2.5420372   -2.5420372    -1.784604  0.036879613   -2.5420372    0.7574332   426349 
 2723000   0.61005676   -2.5426067   -2.5426067   -1.7842572  0.032110018   -2.5426067   0.75834948   426349 
 2724000   0.60992505    -2.542524    -2.542524   -1.7843383  0.041493366    -2.542524   0.75818575   426349 
 2725000   0.60783969   -2.5402981   -2.5402981   -1.7847046  0.045180388   -2.5402981   0.75559348   426349 
 2726000   0.60905911   -2.5414437   -2.5414437   -1.7843344  0.044662087   -2.5414437   0.75710931   426349 
 2727000   0.61010568   -2.5427975   -2.5427975   -1.7843872  0.036498469   -2.5427975   0.75841029   426349 
 2728000   0.61066712   -2.5434671   -2.5434671   -1.7843589  0.039786887   -2.5434671    0.7591082   426349 
 2729000   0.61092771   -2.5439965   -2.5439965   -1.7845644  0.038038899   -2.5439965   0.75943214   426349 
 2730000   0.60852608   -2.5414726   -2.5414726   -1.7850258  0.042035704   -2.5414726   0.75644672   426349 
 2731000   0.60973924   -2.5423976   -2.5423976   -1.7844428  0.031214472   -2.5423976   0.75795477   426349 
 2732000   0.61015084   -2.5422048   -2.5422048   -1.7837383  0.040781733   -2.5422048   0.75846643   426349 
 2733000   0.60863146   -2.5407698   -2.5407698   -1.7841921  0.032896274   -2.5407698   0.75657772   426349 
 2734000   0.61107883   -2.5433284   -2.5433284   -1.7837084  0.040563972   -2.5433284   0.75961999   426349 
 2735000   0.60903637    -2.542029    -2.542029    -1.784948  0.036085243    -2.542029   0.75708105   426349 
 2736000   0.60977012   -2.5427633   -2.5427633   -1.7847701  0.042499853   -2.5427633   0.75799316   426349 
 2737000   0.60935027   -2.5427732   -2.5427732   -1.7853019  0.038727581   -2.5427732   0.75747126   426349 
 2738000   0.61009356   -2.5442894   -2.5442894   -1.7858942  0.035538245   -2.5442894   0.75839522   426349 
 2739000    0.6095727   -2.5430027   -2.5430027   -1.7852549  0.044671718   -2.5430027   0.75774775   426349 
 2740000   0.60948909   -2.5429612   -2.5429612   -1.7853174  0.041985537   -2.5429612   0.75764382   426349 
 2741000   0.61076747   -2.5438906   -2.5438906   -1.7846577  0.039700853   -2.5438906   0.75923295   426349 
 2742000   0.61042912   -2.5438538   -2.5438538   -1.7850414  0.034565591   -2.5438538   0.75881235   426349 
 2743000   0.60953827    -2.542969    -2.542969   -1.7852641  0.039396574    -2.542969   0.75770495   426349 
 2744000   0.61076082   -2.5446642   -2.5446642   -1.7854395  0.044113378   -2.5446642   0.75922468   426349 
 2745000   0.60947655   -2.5437511   -2.5437511   -1.7861229  0.043135425   -2.5437511   0.75762823   426349 
 2746000   0.61097832   -2.5452957   -2.5452957   -1.7858006  0.040392176   -2.5452957   0.75949506   426349 
 2747000   0.61116922   -2.5457651   -2.5457651   -1.7860328  0.046020777   -2.5457651   0.75973236   426349 
 2748000   0.61058851   -2.5459663   -2.5459663   -1.7869558  0.029191732   -2.5459663   0.75901049   426349 
 2749000   0.60973608   -2.5449434   -2.5449434   -1.7869925  0.039101834   -2.5449434   0.75795085   426349 
 2750000   0.61029697   -2.5446435   -2.5446435   -1.7859954  0.040067396   -2.5446435   0.75864808   426349 
 2751000   0.61163733   -2.5473433   -2.5473433    -1.787029  0.052004829   -2.5473433   0.76031425   426349 
 2752000    0.6110683    -2.546797    -2.546797   -1.7871901  0.040628656    -2.546797    0.7596069   426349 
 2753000   0.61112801   -2.5476079   -2.5476079   -1.7879267  0.031403907   -2.5476079   0.75968112   426349 
 2754000   0.61099375   -2.5470089   -2.5470089   -1.7874947  0.038459814   -2.5470089   0.75951423   426349 
 2755000   0.60981356   -2.5463286   -2.5463286   -1.7882815  0.036747603   -2.5463286   0.75804716   426349 
 2756000   0.60859127   -2.5450725   -2.5450725   -1.7885447  0.043468807   -2.5450725   0.75652776   426349 
 2757000    0.6092885   -2.5452794   -2.5452794   -1.7878849  0.042517305   -2.5452794   0.75739447   426349 
 2758000   0.60883214   -2.5446679   -2.5446679   -1.7878408  0.034030947   -2.5446679   0.75682717   426349 
 2759000   0.60868259   -2.5449103   -2.5449103    -1.788269  0.034754573   -2.5449103   0.75664127   426349 
 2760000   0.60757196   -2.5433482   -2.5433482   -1.7880875  0.045131068   -2.5433482   0.75526068   426349 
 2761000   0.60875799   -2.5445157   -2.5445157   -1.7877807  0.046979716   -2.5445157   0.75673501   426349 
 2762000   0.60936941   -2.5450676   -2.5450676   -1.7875726  0.040507224   -2.5450676   0.75749505   426349 
 2763000   0.60820682   -2.5440597   -2.5440597   -1.7880099  0.043975038   -2.5440597   0.75604985   426349 
 2764000   0.60886988   -2.5445438   -2.5445438   -1.7876697  0.039540503   -2.5445438    0.7568741   426349 
 2765000   0.60927185   -2.5458987   -2.5458987   -1.7885249  0.033597864   -2.5458987   0.75737378   426349 
 2766000   0.60916326   -2.5459876   -2.5459876   -1.7887488  0.037538537   -2.5459876   0.75723879   426349 
 2767000   0.60894457   -2.5457463   -2.5457463   -1.7887794  0.038680965   -2.5457463   0.75696694   426349 
 2768000   0.60853518    -2.544418    -2.544418   -1.7879599  0.034745967    -2.544418   0.75645803   426349 
 2769000   0.60927419   -2.5456935   -2.5456935   -1.7883168  0.041265429   -2.5456935   0.75737668   426349 
 2770000   0.60936143   -2.5466315   -2.5466315   -1.7891464  0.038040575   -2.5466315   0.75748513   426349 
 2771000   0.60930475   -2.5461348   -2.5461348   -1.7887201  0.043143788   -2.5461348   0.75741468   426349 
 2772000   0.60883685   -2.5455035   -2.5455035   -1.7886705  0.042056557   -2.5455035   0.75683303   426349 
 2773000   0.60974803   -2.5469644   -2.5469644   -1.7889987  0.042042227   -2.5469644    0.7579657   426349 
 2774000   0.61051785   -2.5472875   -2.5472875   -1.7883649  0.040732964   -2.5472875   0.75892265   426349 
 2775000   0.61088929   -2.5472589   -2.5472589   -1.7878745  0.040539115   -2.5472589   0.75938438   426349 
 2776000   0.61060943   -2.5472554   -2.5472554   -1.7882189  0.039708153   -2.5472554   0.75903649   426349 
 2777000   0.61096106   -2.5482219   -2.5482219   -1.7887483  0.043348549   -2.5482219    0.7594736   426349 
 2778000     0.610039   -2.5472406   -2.5472406   -1.7889132  0.041075119   -2.5472406    0.7583274   426349 
 2779000   0.60902439   -2.5460422   -2.5460422    -1.788976  0.033771723   -2.5460422   0.75706616   426349 
 2780000    0.6091932   -2.5464201   -2.5464201    -1.789144  0.037798351   -2.5464201   0.75727601   426349 
 2781000   0.61012884   -2.5472973   -2.5472973   -1.7888582  0.046992625   -2.5472973   0.75843908   426349 
 2782000   0.60885728   -2.5465314   -2.5465314    -1.789673  0.038998631   -2.5465314   0.75685843   426349 
 2783000   0.60936188   -2.5472832   -2.5472832   -1.7897975  0.045746375   -2.5472832   0.75748569   426349 
 2784000    0.6075015   -2.5458499   -2.5458499   -1.7906768  0.038323294   -2.5458499   0.75517309   426349 
 2785000   0.60811691   -2.5473575   -2.5473575   -1.7914194  0.038408499   -2.5473575    0.7559381   426349 
 2786000   0.60795669   -2.5473742   -2.5473742   -1.7916352  0.032959497   -2.5473742   0.75573893   426349 
 2787000   0.60831123   -2.5467843   -2.5467843   -1.7906047  0.039324953   -2.5467843   0.75617965   426349 
 2788000   0.60892159     -2.54721     -2.54721   -1.7902716  0.035987739     -2.54721   0.75693838   426349 
 2789000   0.60897216   -2.5473141   -2.5473141   -1.7903128  0.036090509   -2.5473141   0.75700123   426349 
 2790000   0.61019575   -2.5481431   -2.5481431   -1.7896208  0.040826728   -2.5481431   0.75852225   426349 
 2791000   0.60996111   -2.5477634   -2.5477634   -1.7895328  0.034640229   -2.5477634   0.75823058   426349 
 2792000   0.61042638   -2.5479406   -2.5479406   -1.7891316  0.049038298   -2.5479406   0.75880895   426349 
 2793000   0.60916015   -2.5471587   -2.5471587   -1.7899238  0.037637499   -2.5471587   0.75723492   426349 
 2794000    0.6091265   -2.5461772   -2.5461772   -1.7889842    0.0372553   -2.5461772    0.7571931   426349 
 2795000   0.60857119   -2.5456617   -2.5456617   -1.7891589  0.037908616   -2.5456617    0.7565028   426349 
 2796000   0.61045324   -2.5477529   -2.5477529   -1.7889106  0.033244183   -2.5477529   0.75884233   426349 
 2797000    0.6096738    -2.547312    -2.547312   -1.7894386  0.038690059    -2.547312   0.75787343   426349 
 2798000   0.60881167   -2.5465575   -2.5465575   -1.7897558  0.043276256   -2.5465575   0.75680173   426349 
 2799000   0.61009098   -2.5488547   -2.5488547   -1.7904627  0.039589622   -2.5488547   0.75839201   426349 
 2800000   0.61082645   -2.5486019   -2.5486019   -1.7892957  0.041563271   -2.5486019   0.75930627   426349 
 2801000   0.60840912   -2.5466645   -2.5466645   -1.7903631  0.026530239   -2.5466645   0.75630133   426349 
 2802000   0.60938961   -2.5482238   -2.5482238   -1.7907036  0.033003205   -2.5482238   0.75752016   426349 
 2803000   0.61108941   -2.5498004   -2.5498004   -1.7901672  0.042115179   -2.5498004   0.75963315   426349 
 2804000   0.61043122     -2.54887     -2.54887    -1.790055  0.030543126     -2.54887   0.75881496   426349 
 2805000   0.60873229   -2.5473868   -2.5473868   -1.7906837  0.041535934   -2.5473868   0.75670306   426349 
 2806000   0.60844452   -2.5475251   -2.5475251   -1.7911797  0.035545705   -2.5475251   0.75634534   426349 
 2807000   0.60893698    -2.548338    -2.548338   -1.7913805  0.034921885    -2.548338    0.7569575   426349 
 2808000   0.60829861   -2.5480227   -2.5480227   -1.7918587  0.033517447   -2.5480227   0.75616396   426349 
 2809000   0.60909656    -2.549045    -2.549045   -1.7918891  0.041262035    -2.549045   0.75715587   426349 
 2810000   0.60884516   -2.5491921   -2.5491921   -1.7923487  0.043536848   -2.5491921   0.75684337   426349 
 2811000   0.60878878   -2.5487872   -2.5487872    -1.792014  0.045151779   -2.5487872   0.75677328   426349 
 2812000   0.60920156   -2.5494046   -2.5494046   -1.7921182  0.037852063   -2.5494046   0.75728639   426349 
 2813000   0.60900316   -2.5486507   -2.5486507    -1.791611  0.035849092   -2.5486507   0.75703977   426349 
 2814000   0.60773763   -2.5474262   -2.5474262   -1.7919595  0.041140507   -2.5474262   0.75546662   426349 
 2815000   0.60889553   -2.5476632   -2.5476632   -1.7907572  0.043304834   -2.5476632   0.75690598   426349 
 2816000   0.61005021   -2.5489417   -2.5489417   -1.7906003  0.034918492   -2.5489417   0.75834134   426349 
 2817000   0.60973352   -2.5492784   -2.5492784   -1.7913308  0.043839047   -2.5492784   0.75794766   426349 
 2818000   0.61022781   -2.5496132   -2.5496132   -1.7910511  0.044668196   -2.5496132    0.7585621   426349 
 2819000   0.61018671   -2.5497306   -2.5497306   -1.7912196  0.047246372   -2.5497306   0.75851102   426349 
 2820000   0.60917822   -2.5480418   -2.5480418   -1.7907844  0.034841773   -2.5480418   0.75725738   426349 
 2821000   0.60938985   -2.5482727   -2.5482727   -1.7907523    0.0415509   -2.5482727   0.75752046   426349 
 2822000   0.60877156   -2.5474726   -2.5474726   -1.7907208  0.038885805   -2.5474726   0.75675188   426349 
 2823000   0.60872287   -2.5476258   -2.5476258   -1.7909345  0.041114769   -2.5476258   0.75669134   426349 
 2824000    0.6088946   -2.5477108   -2.5477108    -1.790806  0.036339733   -2.5477108   0.75690482   426349 
 2825000   0.60825692   -2.5478458   -2.5478458   -1.7917336  0.023210462   -2.5478458   0.75611214   426349 
 2826000   0.60884142   -2.5486404   -2.5486404   -1.7918017  0.035014754   -2.5486404   0.75683871   426349 
 2827000   0.60848054   -2.5475824   -2.5475824   -1.7911923  0.034523295   -2.5475824   0.75639011   426349 
 2828000   0.60808763   -2.5466732   -2.5466732   -1.7907715  0.039629836   -2.5466732   0.75590169   426349 
 2829000   0.60809355   -2.5468133   -2.5468133   -1.7909042  0.036765208   -2.5468133   0.75590906   426349 
 2830000    0.6078855   -2.5462615   -2.5462615   -1.7906111  0.030863559   -2.5462615   0.75565043   426349 
 2831000   0.60789841   -2.5469157   -2.5469157   -1.7912492   0.03725575   -2.5469157   0.75566647   426349 
 2832000   0.60789979   -2.5463234   -2.5463234   -1.7906552  0.039281206   -2.5463234   0.75566819   426349 
 2833000   0.60837264   -2.5471895   -2.5471895   -1.7909336  0.036674744   -2.5471895   0.75625598   426349 
 2834000     0.608397   -2.5458164   -2.5458164   -1.7895302  0.039113831   -2.5458164   0.75628626   426349 
 2835000   0.60873141   -2.5461278   -2.5461278   -1.7894259  0.035256203   -2.5461278   0.75670196   426349 
 2836000   0.60961722   -2.5470783   -2.5470783   -1.7892752  0.034810494   -2.5470783   0.75780309   426349 
 2837000    0.6090424   -2.5470778   -2.5470778   -1.7899892   0.03203296   -2.5470778   0.75708855   426349 
 2838000   0.60732423   -2.5457063   -2.5457063   -1.7907536  0.039789727   -2.5457063   0.75495272   426349 
 2839000   0.60986676   -2.5490086   -2.5490086   -1.7908953  0.036163081   -2.5490086   0.75811329   426349 
 2840000   0.60968079   -2.5493372   -2.5493372   -1.7914551   0.03887616   -2.5493372   0.75788212   426349 
 2841000   0.60934426    -2.549534    -2.549534   -1.7920702  0.034748725    -2.549534   0.75746379   426349 
 2842000   0.60902532   -2.5491403   -2.5491403    -1.792073  0.037229518   -2.5491403   0.75706731   426349 
 2843000   0.60736379   -2.5482618   -2.5482618   -1.7932599  0.041478232   -2.5482618   0.75500191   426349 
 2844000   0.60864929   -2.5497139   -2.5497139    -1.793114  0.041060181   -2.5497139   0.75659988   426349 
 2845000   0.60944696   -2.5515597   -2.5515597   -1.7939682  0.036047917   -2.5515597   0.75759145   426349 
 2846000    0.6091179   -2.5512862   -2.5512862   -1.7941038  0.036897424   -2.5512862    0.7571824   426349 
 2847000   0.60918945   -2.5504278   -2.5504278   -1.7931564  0.045805042   -2.5504278   0.75727135   426349 
 2848000   0.60926388   -2.5504888   -2.5504888   -1.7931249  0.032676543   -2.5504888   0.75736387   426349 
 2849000   0.60963462   -2.5505266   -2.5505266   -1.7927018  0.043714795   -2.5505266   0.75782473   426349 
 2850000   0.61012585   -2.5511388   -2.5511388   -1.7927034  0.046020984   -2.5511388   0.75843536   426349 
 2851000   0.60816637   -2.5494383   -2.5494383   -1.7934387  0.040670388   -2.5494383   0.75599957   426349 
 2852000   0.60775898   -2.5492636   -2.5492636   -1.7937705  0.040253431   -2.5492636   0.75549315   426349 
 2853000   0.60831098   -2.5499745   -2.5499745   -1.7937952  0.036864368   -2.5499745   0.75617934   426349 
 2854000   0.60762787   -2.5496367   -2.5496367   -1.7943066  0.038466394   -2.5496367   0.75533017   426349 
 2855000     0.607931   -2.5500643   -2.5500643   -1.7943573  0.038227237   -2.5500643   0.75570699   426349 
 2856000   0.60784309   -2.5498961   -2.5498961   -1.7942984  0.040950972   -2.5498961   0.75559771   426349 
 2857000   0.60817544   -2.5499809   -2.5499809     -1.79397  0.037763533   -2.5499809   0.75601085   426349 
 2858000   0.60878881   -2.5509989   -2.5509989   -1.7942256  0.037605653   -2.5509989   0.75677331   426349 
 2859000   0.60788849   -2.5494449   -2.5494449   -1.7937908  0.044397261   -2.5494449   0.75565414   426349 
 2860000   0.60780415   -2.5500442   -2.5500442   -1.7944949   0.03789695   -2.5500442    0.7555493   426349 
 2861000   0.60856407   -2.5510064   -2.5510064   -1.7945124  0.026349451   -2.5510064   0.75649395   426349 
 2862000   0.60841739   -2.5496587   -2.5496587   -1.7933471  0.034780009   -2.5496587   0.75631162   426349 
 2863000   0.60808567   -2.5495528   -2.5495528   -1.7936536  0.037126541   -2.5495528   0.75589925   426349 
 2864000   0.60750834   -2.5485495   -2.5485495   -1.7933679  0.033205205   -2.5485495   0.75518159   426349 
 2865000   0.60877716   -2.5505958   -2.5505958   -1.7938369  0.034867341   -2.5505958   0.75675883   426349 
 2866000   0.60884013    -2.550144    -2.550144   -1.7933069  0.040429114    -2.550144   0.75683711   426349 
 2867000   0.60904946   -2.5495879   -2.5495879   -1.7924906  0.036259989   -2.5495879   0.75709733   426349 
 2868000   0.60881237   -2.5501757   -2.5501757   -1.7933731  0.032816954   -2.5501757    0.7568026   426349 
 2869000   0.60771107   -2.5489184   -2.5489184   -1.7934848  0.038360274   -2.5489184   0.75543359   426349 
 2870000   0.60838991   -2.5499126   -2.5499126   -1.7936351  0.037355906   -2.5499126   0.75627745   426349 
 2871000   0.60879058   -2.5502624   -2.5502624   -1.7934869  0.035084541   -2.5502624   0.75677551   426349 
 2872000   0.61032197   -2.5518097   -2.5518097   -1.7931305  0.040175899   -2.5518097   0.75867916   426349 
 2873000   0.61065422   -2.5519159   -2.5519159   -1.7928238  0.039993506   -2.5519159   0.75909217   426349 
 2874000    0.6098203   -2.5506602   -2.5506602   -1.7926047    0.0408127   -2.5506602   0.75805553   426349 
 2875000   0.60997408   -2.5508181   -2.5508181   -1.7925714  0.041404027   -2.5508181    0.7582467   426349 
 2876000   0.60929395   -2.5499121   -2.5499121   -1.7925108  0.042675782   -2.5499121   0.75740124   426349 
 2877000    0.6098017   -2.5503509   -2.5503509   -1.7923185  0.041282447   -2.5503509   0.75803242   426349 
 2878000    0.6087283   -2.5501771   -2.5501771   -1.7934791  0.037317266   -2.5501771   0.75669809   426349 
 2879000    0.6084116   -2.5499656   -2.5499656   -1.7936612  0.043404309   -2.5499656   0.75630441   426349 
 2880000   0.60798089   -2.5492516   -2.5492516   -1.7934826  0.038013998   -2.5492516     0.755769   426349 
 2881000   0.60925266   -2.5512528   -2.5512528   -1.7939029  0.044322463   -2.5512528   0.75734992   426349 
 2882000   0.60997262   -2.5527779   -2.5527779    -1.794533  0.044114004   -2.5527779   0.75824489   426349 
 2883000   0.60832799   -2.5503192   -2.5503192   -1.7941187  0.035678888   -2.5503192   0.75620048   426349 
 2884000   0.60849784   -2.5504942   -2.5504942   -1.7940825  0.042044267   -2.5504942   0.75641161   426349 
 2885000    0.6079175   -2.5501352   -2.5501352    -1.794445  0.040869629   -2.5501352    0.7556902   426349 
 2886000   0.60741319   -2.5499037   -2.5499037   -1.7948404  0.035060096   -2.5499037   0.75506331   426349 
 2887000   0.60852093   -2.5511744   -2.5511744   -1.7947341  0.036711709   -2.5511744   0.75644032   426349 
 2888000   0.60844999   -2.5510252   -2.5510252   -1.7946731  0.039694209   -2.5510252   0.75635213   426349 
 2889000   0.60902915   -2.5512666   -2.5512666   -1.7941946  0.042100316   -2.5512666   0.75707208   426349 
 2890000   0.60839284   -2.5501718   -2.5501718   -1.7938907  0.038500786   -2.5501718    0.7562811   426349 
 2891000   0.60882162   -2.5503076   -2.5503076   -1.7934935  0.042542317   -2.5503076    0.7568141   426349 
 2892000   0.60879754   -2.5508332   -2.5508332    -1.794049  0.040785321   -2.5508332   0.75678417   426349 
 2893000   0.60927361   -2.5513826   -2.5513826   -1.7940066  0.037170759   -2.5513826   0.75737596   426349 
 2894000   0.60911339   -2.5508279   -2.5508279   -1.7936511  0.037781716   -2.5508279   0.75717679   426349 
 2895000   0.60920626    -2.550886    -2.550886   -1.7935938  0.041478789    -2.550886   0.75729224   426349 
 2896000   0.60900876    -2.549981    -2.549981   -1.7929343  0.038072596    -2.549981   0.75704674   426349 
 2897000   0.60913341   -2.5499625   -2.5499625   -1.7927608  0.045280051   -2.5499625   0.75720168   426349 
 2898000   0.60956725   -2.5502818   -2.5502818   -1.7925408  0.037058004   -2.5502818   0.75774098   426349 
 2899000   0.60781487   -2.5487782   -2.5487782   -1.7932156  0.041526072   -2.5487782   0.75556263   426349 
 2900000   0.60855078   -2.5491575   -2.5491575   -1.7926801  0.035107508   -2.5491575   0.75647742   426349 
 2901000   0.60934189    -2.549728    -2.549728   -1.7922672   0.04000938    -2.549728   0.75746084   426349 
 2902000   0.60958358   -2.5503054   -2.5503054   -1.7925441  0.038993523   -2.5503054   0.75776128   426349 
 2903000   0.60842681   -2.5492834   -2.5492834   -1.7929601   0.03503245   -2.5492834   0.75632332   426349 
 2904000   0.60827952   -2.5496427   -2.5496427   -1.7935025  0.041479915   -2.5496427   0.75614022   426349 
 2905000   0.60868617   -2.5505796   -2.5505796   -1.7939338  0.041315426   -2.5505796   0.75664573   426349 
 2906000   0.60797461   -2.5494327   -2.5494327   -1.7936715  0.036662544   -2.5494327    0.7557612   426349 
 2907000    0.6076692   -2.5492476   -2.5492476   -1.7938661  0.039276764   -2.5492476   0.75538155   426349 
 2908000   0.60836015    -2.550196    -2.550196   -1.7939556  0.038772919    -2.550196   0.75624046   426349 
 2909000    0.6091141    -2.550439    -2.550439   -1.7932614  0.035418457    -2.550439   0.75717768   426349 
 2910000   0.60871081     -2.54987     -2.54987   -1.7931936  0.039056742     -2.54987   0.75667636   426349 
 2911000   0.60838684   -2.5495606   -2.5495606    -1.793287  0.027104744   -2.5495606   0.75627363   426349 
 2912000    0.6089178   -2.5502013   -2.5502013   -1.7932677  0.040369303   -2.5502013   0.75693366   426349 
 2913000   0.60935646   -2.5503259   -2.5503259   -1.7928469  0.039843014   -2.5503259   0.75747895   426349 
 2914000   0.60908901   -2.5505838   -2.5505838   -1.7934374  0.038537326   -2.5505838   0.75714649   426349 
 2915000   0.60877334   -2.5502595   -2.5502595   -1.7935054  0.036746721   -2.5502595   0.75675408   426349 
 2916000   0.61021391   -2.5511887   -2.5511887   -1.7926439  0.036620006   -2.5511887   0.75854482   426349 
 2917000   0.61043719   -2.5515147   -2.5515147   -1.7926923  0.039944347   -2.5515147   0.75882239   426349 
 2918000   0.60964782   -2.5501812   -2.5501812   -1.7923401  0.046656212   -2.5501812   0.75784113   426349 
 2919000   0.60935156   -2.5504099   -2.5504099    -1.792937  0.039672875   -2.5504099   0.75747286   426349 
 2920000   0.60886011   -2.5503936   -2.5503936   -1.7935316  0.041169209   -2.5503936   0.75686195   426349 
 2921000   0.60943586   -2.5518126   -2.5518126   -1.7942349  0.037458135   -2.5518126   0.75757764   426349 
 2922000   0.60880063   -2.5517245   -2.5517245   -1.7949365   0.03651585   -2.5517245   0.75678801   426349 
 2923000    0.6089846   -2.5515999   -2.5515999   -1.7945832  0.040764968   -2.5515999    0.7570167   426349 
 2924000   0.60866108   -2.5515925   -2.5515925   -1.7949779  0.043526449   -2.5515925   0.75661453   426349 
 2925000   0.60793002   -2.5508079   -2.5508079   -1.7951021  0.038146496   -2.5508079   0.75570577   426349 
 2926000   0.60877738   -2.5519944   -2.5519944   -1.7952353  0.042315162   -2.5519944    0.7567591   426349 
 2927000   0.60848674   -2.5512697   -2.5512697   -1.7948719  0.035215948   -2.5512697   0.75639782   426349 
 2928000   0.60771211   -2.5507412   -2.5507412   -1.7953063  0.027614718   -2.5507412   0.75543489   426349 
 2929000   0.60789486   -2.5509445   -2.5509445   -1.7952824    0.0445712   -2.5509445   0.75566206   426349 
 2930000   0.60801461   -2.5516027   -2.5516027   -1.7957918  0.045193066   -2.5516027   0.75581092   426349 
 2931000   0.60927559   -2.5527141   -2.5527141   -1.7953356  0.036097111   -2.5527141   0.75737842   426349 
 2932000   0.60953757   -2.5529449   -2.5529449   -1.7952408  0.037140081   -2.5529449   0.75770408   426349 
 2933000   0.60884181   -2.5525944   -2.5525944   -1.7957552  0.033411746   -2.5525944   0.75683919   426349 
 2934000   0.60857793   -2.5524939   -2.5524939   -1.7959828  0.036827664   -2.5524939   0.75651118   426349 
 2935000   0.60865281   -2.5519475   -2.5519475   -1.7953433  0.038115621   -2.5519475   0.75660426   426349 
 2936000    0.6106938   -2.5541648   -2.5541648   -1.7950235  0.039302396   -2.5541648   0.75914138   426349 
 2937000   0.60880695   -2.5536345   -2.5536345   -1.7968387  0.035072835   -2.5536345   0.75679586   426349 
 2938000   0.60996729   -2.5546695   -2.5546695   -1.7964312   0.03926944   -2.5546695   0.75823826   426349 
 2939000   0.60883257   -2.5536663   -2.5536663   -1.7968385  0.035599014   -2.5536663   0.75682772   426349 
 2940000   0.60845004   -2.5531112   -2.5531112    -1.796759  0.031526884   -2.5531112   0.75635219   426349 
 2941000   0.60923557   -2.5540252   -2.5540252   -1.7966966   0.03950313   -2.5540252   0.75732867   426349 
 2942000   0.60894647   -2.5546443   -2.5546443    -1.797675  0.042270559   -2.5546443    0.7569693   426349 
 2943000   0.60873719   -2.5544703   -2.5544703   -1.7977612  0.036099362   -2.5544703   0.75670914   426349 
 2944000   0.60906609   -2.5551513   -2.5551513   -1.7980333  0.032558405   -2.5551513   0.75711799   426349 
 2945000   0.60875763   -2.5550476   -2.5550476    -1.798313  0.041623331   -2.5550476   0.75673456   426349 
 2946000   0.60906719   -2.5549084   -2.5549084    -1.797789  0.040727215   -2.5549084   0.75711937   426349 
 2947000   0.60838228   -2.5541049   -2.5541049   -1.7978369  0.038942303   -2.5541049   0.75626797   426349 
 2948000     0.609184   -2.5544071   -2.5544071   -1.7971425  0.035318748   -2.5544071   0.75726457   426349 
 2949000   0.60892196   -2.5546107   -2.5546107   -1.7976719  0.040416123   -2.5546107   0.75693883   426349 
 2950000   0.60850638   -2.5541717   -2.5541717   -1.7977495   0.03980481   -2.5541717   0.75642223   426349 
 2951000   0.60792939   -2.5543622   -2.5543622   -1.7986572  0.037509082   -2.5543622   0.75570499   426349 
 2952000   0.60805781   -2.5546866   -2.5546866    -1.798822  0.035113198   -2.5546866   0.75586462   426349 
 2953000   0.60899454   -2.5548496   -2.5548496   -1.7978206  0.049329763   -2.5548496   0.75702906   426349 
 2954000   0.60867595   -2.5544819   -2.5544819   -1.7978488  0.036836642   -2.5544819   0.75663302   426349 
 2955000   0.60853018   -2.5542348   -2.5542348    -1.797783  0.039689379   -2.5542348   0.75645181   426349 
 2956000   0.60831524   -2.5538855   -2.5538855   -1.7977008   0.03298571   -2.5538855   0.75618463   426349 
 2957000   0.60757428   -2.5532571   -2.5532571   -1.7979935  0.033977211   -2.5532571   0.75526356   426349 
 2958000   0.60863879   -2.5536732   -2.5536732   -1.7970864  0.040483417   -2.5536732   0.75658683   426349 
 2959000   0.60951281   -2.5546642   -2.5546642   -1.7969909  0.036133463   -2.5546642   0.75767331   426349 
 2960000   0.60807746    -2.552697    -2.552697    -1.796808  0.028788461    -2.552697   0.75588905   426349 
 2961000   0.60870174   -2.5532724   -2.5532724   -1.7966073  0.034136383   -2.5532724   0.75666509   426349 
 2962000   0.60799185   -2.5518718   -2.5518718   -1.7960891  0.037706936   -2.5518718   0.75578263   426349 
 2963000   0.60823571   -2.5525742   -2.5525742   -1.7964884  0.034698097   -2.5525742   0.75608577   426349 
 2964000   0.60919122   -2.5535563   -2.5535563   -1.7962827  0.035578847   -2.5535563   0.75727355   426349 
 2965000   0.60965193   -2.5541931   -2.5541931   -1.7963468  0.038925444   -2.5541931   0.75784624   426349 
 2966000   0.60891736   -2.5534412   -2.5534412   -1.7965081   0.03827694   -2.5534412   0.75693311   426349 
 2967000   0.60811456   -2.5523983   -2.5523983   -1.7964632  0.035892661   -2.5523983   0.75593517   426349 
 2968000    0.6084005   -2.5527106   -2.5527106   -1.7964199  0.035129535   -2.5527106   0.75629062   426349 
 2969000   0.60808935   -2.5520231   -2.5520231   -1.7961193  0.038795649   -2.5520231   0.75590383   426349 
 2970000   0.60876693   -2.5528511   -2.5528511    -1.796105  0.036168055   -2.5528511   0.75674612   426349 
 2971000   0.60904706   -2.5523721   -2.5523721   -1.7952778  0.048699517   -2.5523721   0.75709434   426349 
 2972000   0.60935078   -2.5524759   -2.5524759    -1.795004  0.039704707   -2.5524759   0.75747188   426349 
 2973000   0.60953214   -2.5531202   -2.5531202   -1.7954229   0.04386418   -2.5531202   0.75769734   426349 
 2974000    0.6102732   -2.5530978   -2.5530978   -1.7944793  0.035544559   -2.5530978   0.75861853   426349 
 2975000   0.60941848   -2.5522644   -2.5522644   -1.7947084  0.041184838   -2.5522644   0.75755604   426349 
 2976000   0.60933872   -2.5519625   -2.5519625   -1.7945056  0.046145232   -2.5519625   0.75745689   426349 
 2977000   0.60988978   -2.5520143   -2.5520143   -1.7938724  0.042675284   -2.5520143   0.75814191   426349 
 2978000   0.60976557   -2.5519776   -2.5519776   -1.7939901  0.035876299   -2.5519776   0.75798751   426349 
 2979000   0.60936676   -2.5514093   -2.5514093   -1.7939176  0.039568573   -2.5514093   0.75749176   426349 
 2980000   0.60906026    -2.552011    -2.552011   -1.7949003  0.043554166    -2.552011   0.75711075   426349 
 2981000    0.6091196    -2.552445    -2.552445   -1.7952605   0.04231643    -2.552445   0.75718452   426349 
 2982000   0.60826365   -2.5519242   -2.5519242   -1.7958037  0.044897233   -2.5519242    0.7561205   426349 
 2983000   0.60866599    -2.551774    -2.551774   -1.7951534  0.036349205    -2.551774   0.75662063   426349 
 2984000   0.60907464   -2.5518387   -2.5518387   -1.7947101  0.037142611   -2.5518387   0.75712863   426349 
 2985000   0.60907465   -2.5521882   -2.5521882   -1.7950595  0.044708893   -2.5521882   0.75712864   426349 
 2986000   0.60896642   -2.5514467   -2.5514467   -1.7944526  0.035064412   -2.5514467    0.7569941   426349 
 2987000   0.60788054   -2.5503792   -2.5503792   -1.7947349  0.032881968   -2.5503792   0.75564426   426349 
 2988000   0.60882366   -2.5508505   -2.5508505   -1.7940339  0.031315377   -2.5508505   0.75681664   426349 
 2989000   0.60882878   -2.5513156   -2.5513156   -1.7944926   0.03266298   -2.5513156     0.756823   426349 
 2990000   0.60870832   -2.5510606   -2.5510606   -1.7943873  0.032050886   -2.5510606   0.75667326   426349 
 2991000   0.60938734   -2.5524384   -2.5524384   -1.7949211  0.036603992   -2.5524384   0.75751733   426349 
 2992000   0.60947808   -2.5524466   -2.5524466   -1.7948165  0.041700662   -2.5524466   0.75763014   426349 
 2993000   0.60837038   -2.5512156   -2.5512156   -1.7949624  0.045101937   -2.5512156   0.75625318   426349 
 2994000   0.60897872   -2.5523821   -2.5523821   -1.7953727   0.03377909   -2.5523821   0.75700939   426349 
 2995000   0.60803071       -2.551       -2.551   -1.7951691  0.044757561       -2.551   0.75583094   426349 
 2996000   0.60896069    -2.552531    -2.552531   -1.7955441  0.043067432    -2.552531   0.75698697   426349 
 2997000   0.60902944   -2.5525001   -2.5525001   -1.7954277  0.035521652   -2.5525001   0.75707243   426349 
 2998000   0.60903372   -2.5522921   -2.5522921   -1.7952144  0.041160512   -2.5522921   0.75707776   426349 
 2999000   0.60870769     -2.55278     -2.55278   -1.7961075  0.039146505     -2.55278   0.75667247   426349 
 3000000   0.60885651   -2.5528043   -2.5528043   -1.7959469  0.033432228   -2.5528043   0.75685747   426349 
 3001000   0.60847841   -2.5519861   -2.5519861   -1.7955987  0.037461506   -2.5519861   0.75638746   426349 
 3002000   0.60932871   -2.5533725   -2.5533725    -1.795928  0.033096549   -2.5533725   0.75744446   426349 
 3003000   0.60966314   -2.5541699   -2.5541699   -1.7963097   0.03229593   -2.5541699   0.75786018   426349 
 3004000   0.60822179   -2.5521555   -2.5521555   -1.7960871  0.044872643   -2.5521555   0.75606846   426349 
 3005000   0.60811876   -2.5518698   -2.5518698   -1.7959294  0.039771591   -2.5518698   0.75594039   426349 
 3006000   0.60895494   -2.5527661   -2.5527661   -1.7957863  0.036522752   -2.5527661   0.75697982   426349 
 3007000   0.61015611   -2.5542087   -2.5542087   -1.7957358  0.046247127   -2.5542087   0.75847298   426349 
 3008000   0.60845573   -2.5527366   -2.5527366   -1.7963773  0.049458884   -2.5527366   0.75635927   426349 
 3009000   0.61069068    -2.555194    -2.555194   -1.7960565  0.038709295    -2.555194    0.7591375   426349 
 3010000   0.60936344   -2.5538883   -2.5538883   -1.7964007  0.035856458   -2.5538883   0.75748763   426349 
 3011000   0.60881601    -2.553074    -2.553074   -1.7962669  0.040245188    -2.553074   0.75680713   426349 
 3012000    0.6094163   -2.5537308   -2.5537308   -1.7961774  0.032412522   -2.5537308   0.75755334   426349 
 3013000   0.60954125   -2.5542966   -2.5542966    -1.796588   0.04140015   -2.5542966   0.75770866   426349 
 3014000   0.60832737   -2.5528121   -2.5528121   -1.7966124  0.045672298   -2.5528121   0.75619971   426349 
 3015000   0.60892408   -2.5544272   -2.5544272   -1.7974858  0.039235213   -2.5544272   0.75694147   426349 
 3016000    0.6095974   -2.5546662   -2.5546662   -1.7968877  0.037554535   -2.5546662   0.75777846   426349 
 3017000   0.60857723    -2.553431    -2.553431   -1.7969207  0.038312374    -2.553431    0.7565103   426349 
 3018000   0.60742641   -2.5526692   -2.5526692   -1.7975895  0.036150435   -2.5526692   0.75507974   426349 
 3019000   0.60837837   -2.5529156   -2.5529156   -1.7966525  0.039635879   -2.5529156    0.7562631   426349 
 3020000   0.60738589   -2.5520803   -2.5520803   -1.7970509  0.038663039   -2.5520803   0.75502937   426349 
 3021000   0.60815719   -2.5535594   -2.5535594   -1.7975712   0.04020405   -2.5535594   0.75598817   426349 
 3022000   0.60728815   -2.5523393   -2.5523393   -1.7974314  0.041107551   -2.5523393   0.75490788   426349 
 3023000   0.60813485   -2.5532392   -2.5532392   -1.7972788  0.037741493   -2.5532392   0.75596039   426349 
 3024000   0.60754254   -2.5520672   -2.5520672   -1.7968431  0.042064805   -2.5520672   0.75522411   426349 
 3025000    0.6072946   -2.5517129   -2.5517129    -1.796797  0.036174952   -2.5517129   0.75491589   426349 
 3026000   0.60715938   -2.5506985   -2.5506985   -1.7959506  0.029092458   -2.5506985   0.75474781   426349 
 3027000   0.60782238   -2.5532409   -2.5532409   -1.7976689  0.029959737   -2.5532409   0.75557197   426349 
 3028000   0.60732715   -2.5525407   -2.5525407   -1.7975843  0.032738509   -2.5525407   0.75495635   426349 
 3029000   0.60741324   -2.5519301   -2.5519301   -1.7968667  0.030568783   -2.5519301   0.75506337   426349 
 3030000   0.60833131   -2.5536122   -2.5536122   -1.7974076  0.031177944   -2.5536122    0.7562046   426349 
 3031000   0.60803181    -2.553179    -2.553179   -1.7973467  0.041137348    -2.553179    0.7558323   426349 
 3032000   0.60823053   -2.5530691   -2.5530691   -1.7969897  0.044329741   -2.5530691   0.75607933   426349 
 3033000    0.6089624     -2.55352     -2.55352   -1.7965309  0.040540594     -2.55352    0.7569891   426349 
 3034000   0.60822599   -2.5538029   -2.5538029   -1.7977292  0.038309666   -2.5538029   0.75607369   426349 
 3035000   0.60950079   -2.5549831   -2.5549831   -1.7973247  0.038772434   -2.5549831   0.75765837   426349 
 3036000   0.60984223   -2.5553392   -2.5553392   -1.7972564  0.043969478   -2.5553392    0.7580828   426349 
 3037000   0.61022757   -2.5560589   -2.5560589   -1.7974971  0.046969444   -2.5560589    0.7585618   426349 
 3038000   0.61012683   -2.5558958   -2.5558958   -1.7974592  0.036776133   -2.5558958   0.75843658   426349 
 3039000   0.61073176   -2.5562638   -2.5562638   -1.7970753  0.031855087   -2.5562638   0.75918856   426349 
 3040000   0.60993542   -2.5550791   -2.5550791   -1.7968804  0.042430645   -2.5550791   0.75819865   426349 
 3041000   0.60969802   -2.5550098   -2.5550098   -1.7971063  0.040933617   -2.5550098   0.75790354   426349 
 3042000   0.61098179   -2.5572383   -2.5572383   -1.7977389  0.033585774   -2.5572383   0.75949937   426349 
 3043000   0.60989093   -2.5556565   -2.5556565   -1.7975132  0.042316122   -2.5556565   0.75814334   426349 
 3044000   0.60989215   -2.5556824   -2.5556824   -1.7975376  0.044636593   -2.5556824   0.75814485   426349 
 3045000   0.60859504   -2.5544133   -2.5544133   -1.7978808  0.042813862   -2.5544133   0.75653245   426349 
 3046000   0.60912611   -2.5553111   -2.5553111   -1.7981185   0.03622524   -2.5553111   0.75719261   426349 
 3047000   0.60845453     -2.55436     -2.55436   -1.7980022  0.039760507     -2.55436   0.75635778   426349 
 3048000   0.60874279   -2.5549737   -2.5549737   -1.7982576  0.036838017   -2.5549737   0.75671611   426349 
 3049000   0.60824636   -2.5550284   -2.5550284   -1.7989294  0.030773118   -2.5550284     0.756099   426349 
 3050000   0.60783887   -2.5545449   -2.5545449   -1.7989524  0.035116811   -2.5545449   0.75559246   426349 
 3051000   0.60825018   -2.5544671   -2.5544671   -1.7983634  0.034269357   -2.5544671   0.75610375   426349 
 3052000   0.60807356   -2.5545675   -2.5545675   -1.7986832  0.038370148   -2.5545675   0.75588421   426349 
 3053000    0.6073523   -2.5546371   -2.5546371   -1.7996495  0.035456538   -2.5546371   0.75498762   426349 
 3054000   0.60721334   -2.5544562   -2.5544562   -1.7996413  0.032803649   -2.5544562   0.75481488   426349 
 3055000    0.6076587   -2.5540229   -2.5540229   -1.7986544  0.032999957   -2.5540229    0.7553685   426349 
 3056000   0.60758279   -2.5543401   -2.5543401    -1.799066  0.034258986   -2.5543401   0.75527414   426349 
 3057000   0.60837609    -2.554848    -2.554848   -1.7985877  0.040305936    -2.554848   0.75626028   426349 
 3058000   0.60850724   -2.5550419   -2.5550419   -1.7986186  0.038437422   -2.5550419    0.7564233   426349 
 3059000   0.60852266   -2.5547219   -2.5547219   -1.7982794  0.038249705   -2.5547219   0.75644246   426349 
 3060000   0.60866504   -2.5552498   -2.5552498   -1.7986303   0.04109379   -2.5552498   0.75661945   426349 
 3061000   0.60860386   -2.5552601   -2.5552601   -1.7987167  0.038897971   -2.5552601   0.75654341   426349 
 3062000   0.60819375   -2.5550241   -2.5550241   -1.7989905  0.034358533   -2.5550241   0.75603361   426349 
 3063000   0.60811973   -2.5548347   -2.5548347   -1.7988931  0.042438163   -2.5548347    0.7559416   426349 
 3064000   0.60874144   -2.5555974   -2.5555974    -1.798883  0.040778477   -2.5555974   0.75671443   426349 
 3065000   0.60983182   -2.5564015   -2.5564015   -1.7983317  0.045910751   -2.5564015   0.75806986   426349 
 3066000   0.60922689   -2.5549105   -2.5549105   -1.7975927  0.042438471   -2.5549105   0.75731788   426349 
 3067000   0.60891915   -2.5550019   -2.5550019   -1.7980666  0.042965053   -2.5550019   0.75693534   426349 
 3068000    0.6085234   -2.5549364   -2.5549364    -1.798493  0.041162648   -2.5549364   0.75644339   426349 
 3069000     0.608943   -2.5561092   -2.5561092   -1.7991442   0.04276121   -2.5561092   0.75696499   426349 
 3070000   0.60839857   -2.5548191   -2.5548191   -1.7985309  0.035579627   -2.5548191   0.75628822   426349 
 3071000   0.60887019   -2.5559463   -2.5559463   -1.7990718  0.033044244   -2.5559463   0.75687448   426349 
 3072000   0.60751478    -2.554553    -2.554553   -1.7993634   0.03858073    -2.554553   0.75518959   426349 
 3073000   0.60921787   -2.5568132   -2.5568132   -1.7995066  0.043197316   -2.5568132   0.75730667   426349 
 3074000    0.6081279   -2.5554025   -2.5554025   -1.7994508  0.038466538   -2.5554025   0.75595175   426349 
 3075000   0.60809498   -2.5552665   -2.5552665   -1.7993557  0.039717957   -2.5552665   0.75591083   426349 
 3076000   0.60877454   -2.5557731   -2.5557731   -1.7990176  0.040594536   -2.5557731   0.75675557   426349 
 3077000   0.60772775   -2.5549075   -2.5549075   -1.7994531  0.039041365   -2.5549075   0.75545433   426349 
 3078000   0.60785159   -2.5547234   -2.5547234   -1.7991151  0.037991865   -2.5547234   0.75560827   426349 
 3079000   0.60797927    -2.554589    -2.554589    -1.798822  0.037839233    -2.554589   0.75576699   426349 
 3080000   0.60902167   -2.5557422   -2.5557422   -1.7986794  0.041689668   -2.5557422   0.75706278   426349 
 3081000   0.60818708   -2.5548983   -2.5548983    -1.798873  0.036892229   -2.5548983   0.75602532   426349 
 3082000   0.60797343   -2.5548212   -2.5548212   -1.7990615  0.042509213   -2.5548212   0.75575973   426349 
 3083000   0.60905223    -2.556257    -2.556257   -1.7991562  0.039398837    -2.556257   0.75710077   426349 
 3084000   0.60810733   -2.5556212   -2.5556212    -1.799695  0.041437466   -2.5556212   0.75592618   426349 
 3085000   0.60858967   -2.5547667   -2.5547667    -1.798241  0.029870536   -2.5547667   0.75652577   426349 
 3086000   0.60883975    -2.555181    -2.555181   -1.7983444   0.03673976    -2.555181   0.75683664   426349 
 3087000    0.6095521   -2.5556042   -2.5556042   -1.7978821  0.038987205   -2.5556042   0.75772215   426349 
 3088000   0.60951231   -2.5554981   -2.5554981   -1.7978254  0.035117235   -2.5554981   0.75767269   426349 
 3089000    0.6094314   -2.5560241   -2.5560241    -1.798452  0.026969463   -2.5560241    0.7575721   426349 
 3090000   0.60885743   -2.5553877   -2.5553877   -1.7985291   0.03929586   -2.5553877   0.75685861   426349 
 3091000   0.60746144   -2.5541322   -2.5541322    -1.799009  0.034571059   -2.5541322   0.75512329   426349 
 3092000   0.60765549    -2.554769    -2.554769   -1.7994045  0.041458177    -2.554769   0.75536451   426349 
 3093000   0.60770074   -2.5548496   -2.5548496   -1.7994289  0.038434686   -2.5548496   0.75542076   426349 
 3094000   0.60786672   -2.5557133   -2.5557133   -1.8000862  0.036184932   -2.5557133   0.75562708   426349 
 3095000   0.60776569   -2.5555613   -2.5555613   -1.8000598  0.028044825   -2.5555613   0.75550149   426349 
 3096000   0.60774896   -2.5559584   -2.5559584   -1.8004778   0.03532836   -2.5559584   0.75548069   426349 
 3097000    0.6078132   -2.5558668   -2.5558668   -1.8003063  0.033776334   -2.5558668   0.75556055   426349 
 3098000   0.61006486   -2.5582075   -2.5582075   -1.7998479  0.035852279   -2.5582075   0.75835955   426349 
 3099000   0.60861859   -2.5569039   -2.5569039   -1.8003422  0.029552867   -2.5569039   0.75656172   426349 
 3100000   0.60918718   -2.5575692   -2.5575692   -1.8003007  0.035076249   -2.5575692   0.75726852   426349 
 3101000   0.60827263   -2.5568755   -2.5568755   -1.8007438  0.036006995   -2.5568755   0.75613166   426349 
 3102000   0.60878884   -2.5568091   -2.5568091   -1.8000357  0.041036592   -2.5568091   0.75677336   426349 
 3103000   0.60890599   -2.5569624   -2.5569624   -1.8000434  0.037036693   -2.5569624   0.75691898   426349 
 3104000   0.60904315   -2.5572682   -2.5572682   -1.8001787  0.036000667   -2.5572682   0.75708948   426349 
 3105000   0.60898373   -2.5573118   -2.5573118   -1.8002962  0.039124937   -2.5573118   0.75701561   426349 
 3106000   0.60878715   -2.5571932   -2.5571932    -1.800422  0.046120166   -2.5571932   0.75677126   426349 
 3107000   0.60910802   -2.5576281   -2.5576281    -1.800458  0.032900365   -2.5576281   0.75717011   426349 
 3108000    0.6077472   -2.5559498   -2.5559498   -1.8004713  0.031616316   -2.5559498    0.7554785   426349 
 3109000   0.60840347    -2.557254    -2.557254   -1.8009597  0.033207175    -2.557254    0.7562943   426349 
 3110000   0.60899977   -2.5571386   -2.5571386   -1.8001031  0.042038398   -2.5571386   0.75703555   426349 
 3111000   0.60884449   -2.5561356   -2.5561356   -1.7992931  0.036612324   -2.5561356   0.75684252   426349 
 3112000   0.60922151   -2.5575201   -2.5575201   -1.8002089  0.040744517   -2.5575201    0.7573112   426349 
 3113000   0.60815143   -2.5563338   -2.5563338   -1.8003528  0.035777154   -2.5563338     0.755981   426349 
 3114000   0.60874978   -2.5570427   -2.5570427   -1.8003179  0.040359878   -2.5570427    0.7567248   426349 
 3115000   0.60803725   -2.5560783   -2.5560783   -1.8002392  0.030838281   -2.5560783   0.75583906   426349 
 3116000   0.60928908   -2.5574937   -2.5574937   -1.8000985  0.041963104   -2.5574937    0.7573952   426349 
 3117000    0.6085552    -2.556554    -2.556554   -1.8000711  0.031642232    -2.556554   0.75648291   426349 
 3118000   0.60864684   -2.5565765   -2.5565765   -1.7999797  0.034723418   -2.5565765   0.75659683   426349 
 3119000   0.60788556   -2.5559833   -2.5559833   -1.8003328  0.042288477   -2.5559833   0.75565051   426349 
 3120000    0.6077671   -2.5567366   -2.5567366   -1.8012334  0.036735039   -2.5567366   0.75550325   426349 
 3121000   0.60716825   -2.5562849   -2.5562849   -1.8015261  0.038566809   -2.5562849   0.75475883   426349 
 3122000   0.60842101    -2.557582    -2.557582   -1.8012659  0.038360842    -2.557582   0.75631612   426349 
 3123000    0.6080903   -2.5577533   -2.5577533   -1.8018483  0.038163828   -2.5577533   0.75590501   426349 
 3124000    0.6101135   -2.5594915   -2.5594915   -1.8010715  0.032425771   -2.5594915   0.75842002   426349 
 3125000   0.60884346   -2.5582267   -2.5582267   -1.8013854  0.029632407   -2.5582267   0.75684126   426349 
 3126000   0.60910673   -2.5582814   -2.5582814   -1.8011129  0.048384305   -2.5582814   0.75716851   426349 
 3127000   0.60859495   -2.5580782   -2.5580782   -1.8015458  0.032283208   -2.5580782   0.75653234   426349 
 3128000   0.60964091   -2.5595445   -2.5595445    -1.801712  0.037613211   -2.5595445   0.75783255   426349 
 3129000   0.60733173   -2.5571309   -2.5571309   -1.8021689   0.03535487   -2.5571309   0.75496205   426349 
 3130000   0.60773483   -2.5574802   -2.5574802   -1.8020171  0.033559132   -2.5574802   0.75546313   426349 
 3131000   0.60844933   -2.5583362   -2.5583362   -1.8019849   0.03684561   -2.5583362   0.75635132   426349 
 3132000   0.60947522   -2.5590201   -2.5590201   -1.8013935  0.035502569   -2.5590201   0.75762658   426349 
 3133000   0.60856073   -2.5578816   -2.5578816   -1.8013918  0.037144201   -2.5578816   0.75648979   426349 
 3134000   0.60834119   -2.5572725   -2.5572725   -1.8010556  0.036391243   -2.5572725   0.75621689   426349 
 3135000   0.60877954   -2.5580455   -2.5580455   -1.8012837  0.036790435   -2.5580455   0.75676179   426349 
 3136000   0.60913234   -2.5587692   -2.5587692   -1.8015688   0.03829916   -2.5587692   0.75720035   426349 
 3137000   0.60883347   -2.5585702   -2.5585702   -1.8017414  0.037308209   -2.5585702   0.75682883   426349 
 3138000   0.60858181    -2.558207    -2.558207    -1.801691  0.039435579    -2.558207   0.75651599   426349 
 3139000   0.60853343   -2.5575421   -2.5575421   -1.8010863  0.038503427   -2.5575421   0.75645586   426349 
 3140000   0.60794174   -2.5574183   -2.5574183   -1.8016979  0.041985853   -2.5574183   0.75572034   426349 
 3141000   0.60794695   -2.5562725   -2.5562725   -1.8005456  0.043234013   -2.5562725   0.75572682   426349 
 3142000   0.60956755   -2.5584654   -2.5584654   -1.8007241   0.04644049   -2.5584654   0.75774135   426349 
 3143000   0.60875454   -2.5577047   -2.5577047    -1.800974  0.029284622   -2.5577047   0.75673071   426349 
 3144000   0.60870851   -2.5573407   -2.5573407   -1.8006672  0.031458259   -2.5573407   0.75667349   426349 
 3145000   0.60820943   -2.5568719   -2.5568719   -1.8008188   0.03287266   -2.5568719    0.7560531   426349 
 3146000   0.60777316   -2.5564781   -2.5564781   -1.8009673  0.029297861   -2.5564781   0.75551078   426349 
 3147000   0.60865255   -2.5572926   -2.5572926   -1.8006887  0.038611723   -2.5572926   0.75660393   426349 
 3148000   0.60800939   -2.5562638   -2.5562638   -1.8004594   0.04172881   -2.5562638   0.75580443   426349 
 3149000     0.608145   -2.5570118   -2.5570118   -1.8010388  0.033331314   -2.5570118     0.755973   426349 
 3150000   0.60773138   -2.5561598   -2.5561598    -1.800701  0.033325002   -2.5561598   0.75545884   426349 
 3151000   0.60802077     -2.55611     -2.55611   -1.8002914  0.035613542     -2.55611   0.75581859   426349 
 3152000   0.60767934   -2.5552739   -2.5552739   -1.7998798  0.038694813   -2.5552739   0.75539416   426349 
 3153000   0.60833607   -2.5563711   -2.5563711   -1.8001606   0.03460058   -2.5563711   0.75621052   426349 
 3154000   0.60916211   -2.5571366   -2.5571366   -1.7998992  0.041786837   -2.5571366   0.75723735   426349 
 3155000   0.60964229   -2.5569437   -2.5569437   -1.7991094  0.037598814   -2.5569437   0.75783426   426349 
 3156000   0.60929969   -2.5572793   -2.5572793    -1.799871  0.039740561   -2.5572793   0.75740838   426349 
 3157000   0.60744123   -2.5560048   -2.5560048   -1.8009066  0.038387027   -2.5560048   0.75509816   426349 
 3158000    0.6080584   -2.5562952   -2.5562952   -1.8004299  0.034040776   -2.5562952   0.75586535   426349 
 3159000   0.60888519   -2.5574359   -2.5574359   -1.8005428  0.044223493   -2.5574359   0.75689312   426349 
 3160000   0.60821526   -2.5563041   -2.5563041   -1.8002438  0.041363888   -2.5563041   0.75606034   426349 
 3161000   0.60769744   -2.5563691   -2.5563691   -1.8009525  0.035316506   -2.5563691   0.75541665   426349 
 3162000   0.60785629   -2.5568464   -2.5568464   -1.8012323  0.037697989   -2.5568464   0.75561412   426349 
 3163000   0.60822938   -2.5569332   -2.5569332   -1.8008553  0.031567159   -2.5569332    0.7560779   426349 
 3164000   0.60867925   -2.5580032   -2.5580032   -1.8013661  0.034879054   -2.5580032   0.75663712   426349 
 3165000   0.60865458   -2.5577837   -2.5577837   -1.8011773  0.040222233   -2.5577837   0.75660646   426349 
 3166000   0.60890054   -2.5572904   -2.5572904   -1.8003782  0.034134889   -2.5572904    0.7569122   426349 
 3167000   0.60786961   -2.5566944   -2.5566944   -1.8010637  0.040426416   -2.5566944   0.75563068   426349 
 3168000    0.6080615   -2.5568044   -2.5568044   -1.8009352  0.029702498   -2.5568044   0.75586921   426349 
 3169000   0.60839005   -2.5572614   -2.5572614   -1.8009838  0.040550124   -2.5572614   0.75627763   426349 
 3170000   0.60763357   -2.5567865   -2.5567865   -1.8014492  0.038847745   -2.5567865   0.75533726   426349 
 3171000   0.60722929   -2.5558924   -2.5558924   -1.8010577  0.042054397   -2.5558924   0.75483471   426349 
 3172000    0.6083034   -2.5570517   -2.5570517   -1.8008818  0.033101732   -2.5570517   0.75616991   426349 
 3173000   0.60757056   -2.5566201   -2.5566201   -1.8013611  0.042739725   -2.5566201   0.75525893   426349 
 3174000   0.60901485    -2.558274    -2.558274   -1.8012197   0.03785094    -2.558274    0.7570543   426349 
 3175000   0.60913161   -2.5578422   -2.5578422   -1.8006428  0.042728292   -2.5578422   0.75719944   426349 
 3176000   0.60987233   -2.5594459   -2.5594459   -1.8013257  0.047814157   -2.5594459   0.75812022   426349 
 3177000   0.60806664   -2.5574859   -2.5574859   -1.8016103  0.038858191   -2.5574859    0.7558756   426349 
 3178000   0.60912665   -2.5588311   -2.5588311   -1.8016378  0.040185584   -2.5588311   0.75719328   426349 
 3179000   0.60829448   -2.5576781   -2.5576781   -1.8015193  0.046708232   -2.5576781   0.75615882   426349 
 3180000   0.60903979   -2.5589328   -2.5589328   -1.8018475  0.035389199   -2.5589328    0.7570853   426349 
 3181000   0.60914302   -2.5592303   -2.5592303   -1.8020167  0.041203397   -2.5592303   0.75721363   426349 
 3182000   0.60777726   -2.5578389   -2.5578389    -1.802323  0.034929958   -2.5578389   0.75551587   426349 
 3183000   0.60829227   -2.5586684   -2.5586684   -1.8025124   0.03027215   -2.5586684   0.75615607   426349 
 3184000   0.60806331   -2.5582056   -2.5582056   -1.8023342  0.044535058   -2.5582056   0.75587146   426349 
 3185000   0.60899034   -2.5587699   -2.5587699   -1.8017461  0.037114473   -2.5587699   0.75702384   426349 
 3186000   0.60880579   -2.5593002   -2.5593002   -1.8025058   0.03870886   -2.5593002   0.75679443   426349 
 3187000   0.60843198   -2.5594492   -2.5594492   -1.8031195  0.031994532   -2.5594492   0.75632975   426349 
 3188000   0.60844488   -2.5590342   -2.5590342   -1.8026884  0.037713544   -2.5590342   0.75634578   426349 
 3189000    0.6078025   -2.5587712   -2.5587712    -1.803224  0.038848944   -2.5587712   0.75554725   426349 
 3190000   0.60874325   -2.5591469   -2.5591469   -1.8024302  0.035135241   -2.5591469   0.75671668   426349 
 3191000   0.60648854   -2.5568384   -2.5568384   -1.8029245  0.037958413   -2.5568384    0.7539139   426349 
 3192000   0.60776082   -2.5587652   -2.5587652   -1.8032697   0.04545492   -2.5587652   0.75549544   426349 
 3193000   0.60862741   -2.5589955   -2.5589955   -1.8024228  0.047869388   -2.5589955   0.75657268   426349 
 3194000   0.60866835   -2.5582026   -2.5582026    -1.801579  0.039015152   -2.5582026   0.75662357   426349 
 3195000   0.60801768   -2.5584191   -2.5584191   -1.8026043  0.038850509   -2.5584191   0.75581474   426349 
 3196000   0.60752628   -2.5575525   -2.5575525   -1.8023486  0.040691922   -2.5575525   0.75520389   426349 
 3197000   0.60768503   -2.5571883   -2.5571883   -1.8017871  0.038093949   -2.5571883   0.75540123   426349 
 3198000   0.60771651   -2.5571706   -2.5571706   -1.8017303  0.040858298   -2.5571706   0.75544036   426349 
 3199000   0.60794532   -2.5576154   -2.5576154   -1.8018906  0.034589396   -2.5576154   0.75572479   426349 
 3200000   0.60707282   -2.5564059   -2.5564059   -1.8017657  0.039864775   -2.5564059    0.7546402   426349 
 3201000   0.60715053   -2.5568399   -2.5568399   -1.8021031  0.036347601   -2.5568399    0.7547368   426349 
 3202000   0.60783043   -2.5581719   -2.5581719     -1.80259  0.036806758   -2.5581719   0.75558197   426349 
 3203000   0.60759268   -2.5576558   -2.5576558   -1.8023694  0.034537548   -2.5576558   0.75528643   426349 
 3204000   0.60774104   -2.5570778   -2.5570778    -1.801607  0.038959541   -2.5570778   0.75547085   426349 
 3205000   0.60773191   -2.5569524   -2.5569524   -1.8014929  0.038555303   -2.5569524    0.7554595   426349 
 3206000   0.60801171   -2.5575447   -2.5575447   -1.8017374  0.032442276   -2.5575447   0.75580732   426349 
 3207000   0.60767976    -2.556539    -2.556539   -1.8011443  0.046994444    -2.556539   0.75539467   426349 
 3208000   0.60697554   -2.5563396   -2.5563396   -1.8018204  0.036029575   -2.5563396   0.75451927   426349 
 3209000   0.60845931   -2.5581267   -2.5581267    -1.801763  0.034826346   -2.5581267   0.75636372   426349 
 3210000   0.60871213   -2.5595576   -2.5595576   -1.8028796  0.034698415   -2.5595576     0.756678   426349 
 3211000   0.60812714   -2.5582785   -2.5582785   -1.8023277   0.03299667   -2.5582785   0.75595081   426349 
 3212000   0.60759861    -2.557057    -2.557057   -1.8017632  0.039496405    -2.557057   0.75529381   426349 
 3213000   0.60732151   -2.5572397   -2.5572397   -1.8022903  0.038130925   -2.5572397   0.75494934   426349 
 3214000   0.60769263    -2.557611    -2.557611   -1.8022004  0.035062663    -2.557611   0.75541068   426349 
 3215000   0.60694798   -2.5562903   -2.5562903   -1.8018053  0.041443157   -2.5562903   0.75448501   426349 
 3216000   0.60788536   -2.5575027   -2.5575027   -1.8018524  0.035668832   -2.5575027   0.75565025   426349 
 3217000   0.60933485   -2.5594701   -2.5594701   -1.8020181  0.037023291   -2.5594701   0.75745208   426349 
 3218000   0.60825303    -2.558064    -2.558064   -1.8019567  0.031069672    -2.558064    0.7561073   426349 
 3219000    0.6089854   -2.5584338   -2.5584338   -1.8014161  0.036047028   -2.5584338   0.75701769   426349 
 3220000   0.60797177    -2.557823    -2.557823   -1.8020653  0.036118889    -2.557823   0.75575767   426349 
 3221000   0.60834185   -2.5584163   -2.5584163   -1.8021986  0.038763284   -2.5584163   0.75621771   426349 
 3222000   0.60817378   -2.5572454   -2.5572454   -1.8012366  0.022675404   -2.5572454   0.75600879   426349 
 3223000   0.60867238   -2.5573384   -2.5573384   -1.8007098  0.035284103   -2.5573384   0.75662859   426349 
 3224000    0.6092782   -2.5577247   -2.5577247    -1.800343  0.032909166   -2.5577247   0.75738166   426349 
 3225000   0.60794848   -2.5570749   -2.5570749   -1.8013462  0.037794166   -2.5570749   0.75572871   426349 
 3226000   0.60950791   -2.5585444   -2.5585444   -1.8008772  0.032943564   -2.5585444   0.75766722   426349 
 3227000    0.6094427   -2.5591718   -2.5591718   -1.8015857  0.041811572   -2.5591718   0.75758615   426349 
 3228000   0.60815321   -2.5570592   -2.5570592    -1.801076  0.043127871   -2.5570592   0.75598321   426349 
 3229000   0.60808297   -2.5568356   -2.5568356   -1.8009397  0.035703901   -2.5568356    0.7558959   426349 
 3230000   0.60897725   -2.5587316   -2.5587316    -1.801724  0.043495267   -2.5587316   0.75700757   426349 
 3231000   0.60732434   -2.5571923   -2.5571923   -1.8022395   0.03303675   -2.5571923   0.75495286   426349 
 3232000   0.60760183   -2.5578357   -2.5578357   -1.8025379    0.0316004   -2.5578357    0.7552978   426349 
 3233000   0.60699616   -2.5570496   -2.5570496   -1.8025047   0.04156666   -2.5570496    0.7545449   426349 
 3234000   0.60691796   -2.5567606   -2.5567606   -1.8023129  0.038384055   -2.5567606    0.7544477   426349 
 3235000   0.60703024   -2.5570013   -2.5570013   -1.8024141   0.03009775   -2.5570013   0.75458727   426349 
 3236000   0.60710834   -2.5566295   -2.5566295   -1.8019451  0.039385207   -2.5566295   0.75468436   426349 
 3237000   0.60867397   -2.5581931   -2.5581931   -1.8015626  0.038961985   -2.5581931   0.75663056   426349 
 3238000   0.60758039   -2.5573686   -2.5573686   -1.8020975  0.036925074   -2.5573686   0.75527115   426349 
 3239000   0.60714522   -2.5572675   -2.5572675   -1.8025373  0.036645829   -2.5572675    0.7547302   426349 
 3240000   0.60705102   -2.5567328   -2.5567328   -1.8021197  0.039313952   -2.5567328    0.7546131   426349 
 3241000   0.60784622    -2.557412    -2.557412   -1.8018104  0.044947955    -2.557412    0.7556016   426349 
 3242000   0.60807797   -2.5578979   -2.5578979   -1.8020082  0.041423632   -2.5578979   0.75588969   426349 
 3243000   0.60829064   -2.5588305   -2.5588305   -1.8026765   0.03261657   -2.5588305   0.75615405   426349 
 3244000   0.60767141   -2.5582477   -2.5582477   -1.8028634  0.045415733   -2.5582477    0.7553843   426349 
 3245000   0.60811531   -2.5581936   -2.5581936   -1.8022575  0.046723513   -2.5581936    0.7559361   426349 
 3246000   0.60791197   -2.5585158   -2.5585158   -1.8028325  0.031833226   -2.5585158   0.75568333   426349 
 3247000   0.60847759   -2.5590139   -2.5590139   -1.8026274  0.038460703   -2.5590139   0.75638645   426349 
 3248000   0.60859303   -2.5590564   -2.5590564   -1.8025265  0.040146825   -2.5590564   0.75652995   426349 
 3249000   0.60875924   -2.5595049   -2.5595049   -1.8027683  0.036849757   -2.5595049   0.75673656   426349 
 3250000   0.60777457     -2.55821     -2.55821   -1.8026975  0.036473196     -2.55821   0.75551253   426349 
 3251000    0.6079246   -2.5581558   -2.5581558   -1.8024568  0.028700605   -2.5581558   0.75569903   426349 
 3252000   0.60794144   -2.5580472   -2.5580472   -1.8023273  0.032920922   -2.5580472   0.75571996   426349 
 3253000   0.60715213   -2.5574378   -2.5574378    -1.802699  0.034405341   -2.5574378    0.7547388   426349 
 3254000   0.60631381   -2.5559285   -2.5559285   -1.8022318  0.036937574   -2.5559285   0.75369669   426349 
 3255000    0.6074078   -2.5573795   -2.5573795   -1.8023229  0.038898031   -2.5573795   0.75505661   426349 
 3256000   0.60801493   -2.5585613   -2.5585613     -1.80275  0.038767032   -2.5585613   0.75581132   426349 
 3257000   0.60809097   -2.5591557   -2.5591557   -1.8032498  0.034416975   -2.5591557   0.75590585   426349 
 3258000   0.60879021   -2.5594179   -2.5594179   -1.8026428  0.028868332   -2.5594179   0.75677505   426349 
 3259000   0.60806569   -2.5589448   -2.5589448   -1.8030704  0.043474312   -2.5589448   0.75587442   426349 
 3260000   0.60821263   -2.5589591   -2.5589591    -1.802902  0.035923991   -2.5589591   0.75605708   426349 
 3261000   0.60861617   -2.5596692   -2.5596692   -1.8031105  0.045226224   -2.5596692   0.75655871   426349 
 3262000   0.60835674   -2.5594438   -2.5594438   -1.8032076  0.034145619   -2.5594438   0.75623622   426349 
 3263000   0.60864694   -2.5595204   -2.5595204   -1.8029234  0.031844321   -2.5595204   0.75659696   426349 
 3264000   0.60932837   -2.5603386   -2.5603386   -1.8028946  0.044214116   -2.5603386   0.75744403   426349 
 3265000   0.60968735   -2.5605102   -2.5605102   -1.8026199  0.045735142   -2.5605102   0.75789028   426349 
 3266000   0.60898969   -2.5603672   -2.5603672   -1.8033442  0.048486134   -2.5603672   0.75702303   426349 
 3267000   0.60865056   -2.5601353   -2.5601353   -1.8035339  0.036579102   -2.5601353   0.75660146   426349 
 3268000   0.60888577   -2.5600013   -2.5600013   -1.8031074  0.039447222   -2.5600013   0.75689384   426349 
 3269000   0.60816934   -2.5598721   -2.5598721   -1.8038688  0.044676714   -2.5598721   0.75600326   426349 
 3270000   0.60790903   -2.5598295   -2.5598295   -1.8041498  0.042385148   -2.5598295   0.75567968   426349 
 3271000   0.60926637   -2.5608346   -2.5608346   -1.8034676    0.0374862   -2.5608346   0.75736696   426349 
 3272000   0.60910865   -2.5608616   -2.5608616   -1.8036907  0.033229905   -2.5608616   0.75717091   426349 
 3273000   0.60894127   -2.5601089   -2.5601089   -1.8031461  0.038778923   -2.5601089   0.75696283   426349 
 3274000    0.6074029   -2.5586347   -2.5586347   -1.8035842  0.031829682   -2.5586347   0.75505052   426349 
 3275000   0.60742831   -2.5580632   -2.5580632    -1.802981  0.039028278   -2.5580632   0.75508211   426349 
 3276000   0.60760531   -2.5576844   -2.5576844   -1.8023823  0.036112895   -2.5576844   0.75530212   426349 
 3277000   0.60721746   -2.5580239   -2.5580239   -1.8032039  0.029099074   -2.5580239      0.75482   426349 
 3278000   0.60758547   -2.5579001   -2.5579001   -1.8026227  0.031131348   -2.5579001   0.75527746   426349 
 3279000   0.60512235    -2.555839    -2.555839   -1.8036234  0.042067104    -2.555839   0.75221562   426349 
 3280000   0.60730555   -2.5584998   -2.5584998   -1.8035702  0.037038932   -2.5584998    0.7549295   426349 
 3281000   0.60697725   -2.5577632   -2.5577632   -1.8032418   0.03628726   -2.5577632    0.7545214   426349 
 3282000   0.60723351   -2.5573894   -2.5573894   -1.8025495  0.037812643   -2.5573894   0.75483996   426349 
 3283000   0.60614646   -2.5553974   -2.5553974   -1.8019088  0.047563388   -2.5553974   0.75348866   426349 
 3284000   0.60773992   -2.5572239   -2.5572239   -1.8017545  0.037875676   -2.5572239   0.75546946   426349 
 3285000   0.60731922   -2.5569674   -2.5569674   -1.8020209   0.03639233   -2.5569674   0.75494649   426349 
 3286000   0.60664215   -2.5570443   -2.5570443   -1.8029395  0.036007329   -2.5570443   0.75410484   426349 
 3287000   0.60792254   -2.5588706   -2.5588706   -1.8031741  0.038296454   -2.5588706   0.75569647   426349 
 3288000   0.60900283   -2.5605151   -2.5605151   -1.8034757  0.031343015   -2.5605151   0.75703936   426349 
 3289000   0.60888764    -2.560293    -2.560293   -1.8033968  0.032927099    -2.560293   0.75689617   426349 
 3290000   0.60854309   -2.5603847   -2.5603847   -1.8039169  0.042836153   -2.5603847   0.75646787   426349 
 3291000   0.60890386    -2.560147    -2.560147   -1.8032306   0.03365724    -2.560147   0.75691633   426349 
 3292000   0.60860668   -2.5601484   -2.5601484   -1.8036015   0.04118825   -2.5601484   0.75654691   426349 
 3293000   0.60901999   -2.5612836   -2.5612836   -1.8042229  0.045089221   -2.5612836   0.75706069   426349 
 3294000   0.60872346   -2.5607557   -2.5607557   -1.8040636  0.041989666   -2.5607557   0.75669208   426349 
 3295000   0.60856671   -2.5600835   -2.5600835   -1.8035863  0.035952967   -2.5600835   0.75649723   426349 
 3296000   0.60782232   -2.5595653   -2.5595653   -1.8039934  0.036623633   -2.5595653   0.75557189   426349 
 3297000   0.60842401   -2.5597868   -2.5597868    -1.803467  0.042650821   -2.5597868   0.75631984   426349 
 3298000   0.60814462   -2.5605581   -2.5605581   -1.8045855  0.039109734   -2.5605581   0.75597254   426349 
 3299000   0.60780739   -2.5604186   -2.5604186   -1.8048653   0.03975885   -2.5604186   0.75555333   426349 
 3300000   0.60842413   -2.5608621   -2.5608621   -1.8045421  0.039801588   -2.5608621   0.75631999   426349 
 3301000   0.60915869   -2.5613959   -2.5613959   -1.8041628  0.040078378   -2.5613959   0.75723311   426349 
 3302000   0.60856187   -2.5604245   -2.5604245   -1.8039333  0.042855225   -2.5604245   0.75649121   426349 
 3303000   0.60807616    -2.559869    -2.559869   -1.8039816  0.034490609    -2.559869   0.75588743   426349 
 3304000   0.60831302   -2.5596832   -2.5596832   -1.8035014  0.045642152   -2.5596832   0.75618187   426349 
 3305000   0.60744222   -2.5590477   -2.5590477   -1.8039483  0.036851371   -2.5590477    0.7550994   426349 
 3306000   0.60674447   -2.5585671   -2.5585671   -1.8043351  0.036096292   -2.5585671   0.75423204   426349 
 3307000   0.60855904   -2.5602432   -2.5602432   -1.8037555  0.031389571   -2.5602432   0.75648769   426349 
 3308000   0.60801329   -2.5594113   -2.5594113    -1.803602  0.033514799   -2.5594113   0.75580928   426349 
 3309000   0.60798881   -2.5598425   -2.5598425   -1.8040637  0.035277759   -2.5598425   0.75577885   426349 
 3310000   0.60704702   -2.5577364   -2.5577364   -1.8031283  0.039799366   -2.5577364   0.75460813   426349 
 3311000   0.60872674   -2.5595209   -2.5595209   -1.8028247  0.027847568   -2.5595209   0.75669616   426349 
 3312000   0.60681457   -2.5575975   -2.5575975   -1.8032783  0.042895516   -2.5575975   0.75431918   426349 
 3313000   0.60727416   -2.5584708   -2.5584708   -1.8035803  0.043577657   -2.5584708   0.75489048   426349 
 3314000   0.60804385   -2.5597196   -2.5597196   -1.8038723  0.034236575   -2.5597196   0.75584727   426349 
 3315000   0.60791218   -2.5598309   -2.5598309   -1.8041474  0.037568793   -2.5598309   0.75568359   426349 
 3316000   0.60797507   -2.5599595   -2.5599595   -1.8041977  0.039652169   -2.5599595   0.75576177   426349 
 3317000   0.60807994   -2.5603409   -2.5603409   -1.8044487   0.03895577   -2.5603409   0.75589214   426349 
 3318000   0.60821792   -2.5608861   -2.5608861   -1.8048224  0.040920391   -2.5608861   0.75606365   426349 
 3319000    0.6083628   -2.5611911   -2.5611911   -1.8049473  0.035459901   -2.5611911   0.75624375   426349 
 3320000   0.60731162   -2.5603018   -2.5603018   -1.8053648   0.04081833   -2.5603018   0.75493705   426349 
 3321000   0.60684582   -2.5597816   -2.5597816   -1.8054236  0.040554219   -2.5597816   0.75435803   426349 
 3322000   0.60650621   -2.5602994   -2.5602994   -1.8063635  0.033026556   -2.5602994   0.75393586   426349 
 3323000   0.60809283   -2.5614312   -2.5614312    -1.805523  0.036746847   -2.5614312   0.75590815   426349 
 3324000   0.60754547   -2.5608546   -2.5608546   -1.8056268  0.042593715   -2.5608546   0.75522775   426349 
 3325000   0.60748526   -2.5601544   -2.5601544   -1.8050015  0.045092334   -2.5601544   0.75515289   426349 
 3326000   0.60820486   -2.5604121   -2.5604121   -1.8043647  0.036771011   -2.5604121   0.75604742   426349 
 3327000   0.60829046   -2.5607832   -2.5607832   -1.8046293  0.042071395   -2.5607832   0.75615383   426349 
 3328000    0.6086342   -2.5610656   -2.5610656   -1.8044845  0.041060533   -2.5610656   0.75658113   426349 
 3329000   0.60968805   -2.5615388   -2.5615388   -1.8036476  0.040233912   -2.5615388   0.75789114   426349 
 3330000   0.60784795   -2.5600765   -2.5600765   -1.8044727  0.042324014   -2.5600765   0.75560376   426349 
 3331000   0.60772867    -2.559799    -2.559799   -1.8043435  0.039644148    -2.559799   0.75545547   426349 
 3332000   0.60740475   -2.5599851   -2.5599851   -1.8049323  0.040338287   -2.5599851   0.75505282   426349 
 3333000   0.60748896   -2.5607322   -2.5607322   -1.8055747  0.034285903   -2.5607322    0.7551575   426349 
 3334000   0.60681522   -2.5599075   -2.5599075   -1.8055875  0.042249566   -2.5599075   0.75431999   426349 
 3335000    0.6077881   -2.5604677   -2.5604677   -1.8049383  0.038788893   -2.5604677   0.75552935   426349 
 3336000   0.60723688   -2.5591459   -2.5591459   -1.8043017  0.038732894   -2.5591459   0.75484414   426349 
 3337000    0.6075311   -2.5597801   -2.5597801   -1.8045702  0.043876959   -2.5597801   0.75520988   426349 
 3338000   0.60818354    -2.560333    -2.560333   -1.8043121   0.03284436    -2.560333   0.75602091   426349 
 3339000   0.60858403   -2.5614848   -2.5614848   -1.8049661  0.040523814   -2.5614848   0.75651876   426349 
 3340000   0.60696775   -2.5595367   -2.5595367   -1.8050271  0.035014491   -2.5595367   0.75450959   426349 
 3341000   0.60822852   -2.5609763   -2.5609763   -1.8048995   0.02530454   -2.5609763   0.75607683   426349 
 3342000   0.60867523   -2.5614868   -2.5614868   -1.8048547   0.04020366   -2.5614868   0.75663212   426349 
 3343000   0.60896653   -2.5619364   -2.5619364   -1.8049421  0.038395923   -2.5619364   0.75699424   426349 
 3344000   0.60728113   -2.5601507   -2.5601507   -1.8052516  0.038543382   -2.5601507   0.75489915   426349 
 3345000   0.60751123   -2.5599631   -2.5599631   -1.8047779  0.031957828   -2.5599631   0.75518518   426349 
 3346000   0.60723432   -2.5605046   -2.5605046   -1.8056636  0.035247714   -2.5605046   0.75484097   426349 
 3347000   0.60754148   -2.5612255   -2.5612255   -1.8060027  0.036851147   -2.5612255   0.75522278   426349 
 3348000   0.60675856   -2.5594779   -2.5594779   -1.8052283   0.03207645   -2.5594779   0.75424955   426349 
 3349000    0.6076591   -2.5611707   -2.5611707   -1.8058017  0.041313721   -2.5611707     0.755369   426349 
 3350000   0.60799234   -2.5611737   -2.5611737   -1.8053904   0.03878599   -2.5611737   0.75578324   426349 
 3351000   0.60715202   -2.5599813   -2.5599813   -1.8052427  0.035228273   -2.5599813   0.75473865   426349 
 3352000   0.60898997   -2.5627675   -2.5627675   -1.8057441  0.039999516   -2.5627675   0.75702338   426349 
 3353000   0.60744448   -2.5610229   -2.5610229   -1.8059207  0.036633932   -2.5610229    0.7551022   426349 
 3354000   0.60889613   -2.5623498   -2.5623498   -1.8054431  0.033697043   -2.5623498   0.75690672   426349 
 3355000   0.60817164   -2.5613993   -2.5613993   -1.8053932   0.03687924   -2.5613993   0.75600612   426349 
 3356000   0.60803396   -2.5612523   -2.5612523   -1.8054173  0.035914178   -2.5612523   0.75583498   426349 
 3357000   0.60880769   -2.5626333   -2.5626333   -1.8058365   0.03707238   -2.5626333   0.75679678   426349 
 3358000   0.60783951   -2.5616695   -2.5616695   -1.8060763  0.035707021   -2.5616695   0.75559326   426349 
 3359000     0.607214   -2.5608013   -2.5608013   -1.8059856  0.043803543   -2.5608013    0.7548157   426349 
 3360000   0.60807655   -2.5619407   -2.5619407   -1.8060528  0.036349313   -2.5619407   0.75588792   426349 
 3361000   0.60793138   -2.5619532   -2.5619532   -1.8062458  0.042077986   -2.5619532   0.75570746   426349 
 3362000   0.60860891   -2.5629271   -2.5629271   -1.8063775  0.034318356   -2.5629271   0.75654968   426349 
 3363000   0.60877611    -2.562537    -2.562537   -1.8057795  0.035536311    -2.562537   0.75675753   426349 
 3364000   0.60831139   -2.5617003   -2.5617003   -1.8055204  0.039958637   -2.5617003   0.75617985   426349 
 3365000   0.60669084   -2.5600838   -2.5600838   -1.8059185  0.029238125   -2.5600838   0.75416537   426349 
 3366000    0.6087274   -2.5628449   -2.5628449   -1.8061479  0.033985864   -2.5628449   0.75669698   426349 
 3367000   0.60757217   -2.5610625   -2.5610625   -1.8058015  0.039867674   -2.5610625   0.75526094   426349 
 3368000   0.60713075   -2.5603268   -2.5603268   -1.8056146  0.033658367   -2.5603268   0.75471222   426349 
 3369000    0.6071037   -2.5602196   -2.5602196    -1.805541  0.045169623   -2.5602196   0.75467859   426349 
 3370000   0.60816326   -2.5618894   -2.5618894   -1.8058937  0.040896511   -2.5618894    0.7559957   426349 
 3371000   0.60790801   -2.5621734   -2.5621734   -1.8064949  0.035346893   -2.5621734   0.75567841   426349 
 3372000    0.6075163   -2.5617636   -2.5617636   -1.8065721  0.040898176   -2.5617636   0.75519148   426349 
 3373000   0.60786971   -2.5621694   -2.5621694   -1.8065386  0.042300308   -2.5621694    0.7556308   426349 
 3374000   0.60823289   -2.5627307   -2.5627307   -1.8066484  0.034474082   -2.5627307   0.75608226   426349 
 3375000    0.6085427   -2.5630932   -2.5630932   -1.8066259  0.032186636   -2.5630932   0.75646738   426349 
 3376000   0.60738846    -2.561749    -2.561749   -1.8067164  0.030152496    -2.561749   0.75503256   426349 
 3377000   0.60802128   -2.5622844   -2.5622844   -1.8064652  0.032743286   -2.5622844   0.75581921   426349 
 3378000   0.60741453   -2.5618768   -2.5618768   -1.8068118  0.036303267   -2.5618768   0.75506497   426349 
 3379000   0.60752727   -2.5626441   -2.5626441   -1.8074389   0.04521788   -2.5626441   0.75520512   426349 
 3380000   0.60734165   -2.5626594   -2.5626594    -1.807685  0.042249219   -2.5626594   0.75497438   426349 
 3381000   0.60803714   -2.5626969   -2.5626969    -1.806858  0.042028367   -2.5626969   0.75583893   426349 
 3382000   0.60746282   -2.5624231   -2.5624231   -1.8072981  0.039396702   -2.5624231   0.75512501   426349 
 3383000   0.60839769   -2.5637687   -2.5637687   -1.8074816  0.036599045   -2.5637687   0.75628712   426349 
 3384000   0.60877851   -2.5639669   -2.5639669   -1.8072064  0.031660033   -2.5639669   0.75676051   426349 
 3385000   0.60820936   -2.5630849   -2.5630849   -1.8070319  0.040903976   -2.5630849   0.75605301   426349 
 3386000   0.60778488   -2.5619931   -2.5619931   -1.8064677  0.042817051   -2.5619931   0.75552535   426349 
 3387000   0.60891699   -2.5641167   -2.5641167    -1.807184  0.044448554   -2.5641167   0.75693266   426349 
 3388000   0.60931598   -2.5653272   -2.5653272   -1.8078985  0.042777914   -2.5653272   0.75742863   426349 
 3389000   0.60796872   -2.5636114   -2.5636114   -1.8078575  0.040589698   -2.5636114   0.75575388   426349 
 3390000   0.60781895   -2.5634122   -2.5634122   -1.8078445  0.039642058   -2.5634122    0.7555677   426349 
 3391000   0.60723349   -2.5635874   -2.5635874   -1.8087475  0.036124777   -2.5635874   0.75483992   426349 
 3392000    0.6077414   -2.5637992   -2.5637992   -1.8083279  0.031619515   -2.5637992   0.75547129   426349 
 3393000   0.60741116    -2.563868    -2.563868   -1.8088072   0.04611744    -2.563868   0.75506078   426349 
 3394000   0.60789121   -2.5644294   -2.5644294   -1.8087719  0.033936447   -2.5644294   0.75565752   426349 
 3395000    0.6071756   -2.5633471   -2.5633471   -1.8085792  0.039119876   -2.5633471   0.75476797   426349 
 3396000   0.60656907    -2.562689    -2.562689    -1.808675  0.032136744    -2.562689   0.75401401   426349 
 3397000   0.60773112   -2.5636763   -2.5636763   -1.8082178  0.037983291   -2.5636763   0.75545853   426349 
 3398000   0.60836108   -2.5639168   -2.5639168   -1.8076751  0.037371525   -2.5639168   0.75624161   426349 
 3399000   0.60755404    -2.562497    -2.562497   -1.8072586   0.03078951    -2.562497   0.75523839   426349 
 3400000   0.60688603   -2.5620139   -2.5620139   -1.8076059  0.042950611   -2.5620139   0.75440801   426349 
 3401000   0.60614246   -2.5619306   -2.5619306   -1.8084469   0.03379953   -2.5619306    0.7534837   426349 
 3402000   0.60693117    -2.562889    -2.562889   -1.8084249  0.038434496    -2.562889   0.75446412   426349 
 3403000   0.60689593   -2.5627763   -2.5627763   -1.8083559  0.031832846   -2.5627763   0.75442031   426349 
 3404000   0.60675554   -2.5626051   -2.5626051   -1.8083593  0.043064324   -2.5626051    0.7542458   426349 
 3405000   0.60818902   -2.5643568   -2.5643568   -1.8083291  0.029690827   -2.5643568   0.75602773   426349 
 3406000   0.60789041   -2.5634621   -2.5634621   -1.8078056  0.033259314   -2.5634621   0.75565653   426349 
 3407000   0.60808081   -2.5638481   -2.5638481   -1.8079549  0.033463673   -2.5638481   0.75589322   426349 
 3408000    0.6065204   -2.5623627   -2.5623627   -1.8084092  0.034594977   -2.5623627    0.7539535   426349 
 3409000   0.60745384   -2.5626154   -2.5626154   -1.8075016  0.036557587   -2.5626154   0.75511384   426349 
 3410000   0.60771564   -2.5636621   -2.5636621   -1.8082228  0.037900937   -2.5636621   0.75543928   426349 
 3411000    0.6077426   -2.5637311   -2.5637311   -1.8082583  0.038461646   -2.5637311   0.75547279   426349 
 3412000   0.60854824   -2.5647482   -2.5647482    -1.808274  0.028678508   -2.5647482   0.75647427   426349 
 3413000   0.60688968   -2.5633635   -2.5633635    -1.808951   0.03973117   -2.5633635   0.75441254   426349 
 3414000   0.60872516    -2.564755    -2.564755   -1.8080608  0.037342336    -2.564755    0.7566942   426349 
 3415000    0.6082557   -2.5642701   -2.5642701   -1.8081595  0.041696094   -2.5642701   0.75611062   426349 
 3416000   0.60792939   -2.5634458   -2.5634458   -1.8077408  0.039375829   -2.5634458   0.75570498   426349 
 3417000   0.60829921   -2.5638418   -2.5638418   -1.8076771  0.036757409   -2.5638418    0.7561647   426349 
 3418000    0.6078929   -2.5632152   -2.5632152   -1.8075555  0.038041427   -2.5632152   0.75565962   426349 
 3419000   0.60786906   -2.5626288   -2.5626288   -1.8069988  0.051154715   -2.5626288      0.75563   426349 
 3420000   0.60712433    -2.562462    -2.562462   -1.8077578  0.042290601    -2.562462   0.75470423   426349 
 3421000   0.60741013   -2.5624514   -2.5624514   -1.8073919  0.037705915   -2.5624514    0.7550595   426349 
 3422000   0.60689055   -2.5615802   -2.5615802   -1.8071666  0.038789507   -2.5615802   0.75441363   426349 
 3423000   0.60676876   -2.5617413   -2.5617413    -1.807479  0.032904014   -2.5617413   0.75426223   426349 
 3424000   0.60668817   -2.5626626   -2.5626626   -1.8085005  0.040071525   -2.5626626   0.75416205   426349 
 3425000    0.6066068   -2.5623439   -2.5623439    -1.808283  0.044971781   -2.5623439    0.7540609   426349 
 3426000   0.60679998   -2.5627945   -2.5627945   -1.8084935  0.037208839   -2.5627945   0.75430105   426349 
 3427000   0.60737772   -2.5633342   -2.5633342    -1.808315  0.030938927   -2.5633342   0.75501921   426349 
 3428000   0.60696913   -2.5624656   -2.5624656   -1.8079543  0.037533578   -2.5624656   0.75451131   426349 
 3429000   0.60763193   -2.5631578   -2.5631578   -1.8078226  0.037744066   -2.5631578   0.75533522   426349 
 3430000   0.60667715   -2.5622632   -2.5622632   -1.8081148   0.03800807   -2.5622632   0.75414836   426349 
 3431000    0.6070427   -2.5617973   -2.5617973   -1.8071945  0.042148607   -2.5617973   0.75460276   426349 
 3432000   0.60684862   -2.5620745   -2.5620745    -1.807713  0.041061716   -2.5620745    0.7543615   426349 
 3433000   0.60731215   -2.5635713   -2.5635713   -1.8086336  0.034248962   -2.5635713   0.75493771   426349 
 3434000   0.60783123    -2.563927    -2.563927   -1.8083441  0.035210452    -2.563927   0.75558297   426349 
 3435000    0.6070707   -2.5635875   -2.5635875   -1.8089499  0.035733735   -2.5635875   0.75463757   426349 
 3436000   0.60889185   -2.5655483   -2.5655483   -1.8086469  0.039277384   -2.5655483    0.7569014   426349 
 3437000   0.60823936   -2.5651174   -2.5651174   -1.8090271  0.033968239   -2.5651174    0.7560903   426349 
 3438000   0.60815716   -2.5650924   -2.5650924   -1.8091043  0.042516177   -2.5650924   0.75598812   426349 
 3439000   0.60820688   -2.5649942   -2.5649942   -1.8089443  0.035773602   -2.5649942   0.75604993   426349 
 3440000   0.60839424   -2.5652432   -2.5652432   -1.8089604  0.038552818   -2.5652432   0.75628283   426349 
 3441000   0.60716026   -2.5634866   -2.5634866   -1.8087377  0.050274245   -2.5634866   0.75474889   426349 
 3442000    0.6076956    -2.565164    -2.565164   -1.8097496  0.034311933    -2.565164   0.75541436   426349 
 3443000   0.60734686   -2.5648519   -2.5648519   -1.8098711  0.033702115   -2.5648519   0.75498085   426349 
 3444000    0.6068337   -2.5644218   -2.5644218   -1.8100788   0.03118751   -2.5644218   0.75434295   426349 
 3445000   0.60784302   -2.5653006   -2.5653006    -1.809703  0.037302974   -2.5653006   0.75559762   426349 
 3446000   0.60691083   -2.5645925   -2.5645925   -1.8101536  0.045564159   -2.5645925   0.75443884   426349 
 3447000   0.60614028   -2.5633419   -2.5633419    -1.809861  0.033792959   -2.5633419   0.75348098   426349 
 3448000   0.60707457   -2.5643823   -2.5643823     -1.80974  0.040316073   -2.5643823   0.75464238   426349 
 3449000   0.60855977   -2.5655801   -2.5655801   -1.8090915   0.04061116   -2.5655801   0.75648861   426349 
 3450000    0.6061199   -2.5632737   -2.5632737   -1.8098181  0.038700275   -2.5632737   0.75345564   426349 
 3451000   0.60704821   -2.5640541   -2.5640541   -1.8094445   0.03541604   -2.5640541   0.75460961   426349 
 3452000   0.60728136   -2.5652234   -2.5652234   -1.8103239  0.038150441   -2.5652234   0.75489943   426349 
 3453000   0.60664911   -2.5644012   -2.5644012   -1.8102877  0.041838925   -2.5644012    0.7541135   426349 
 3454000   0.60569938   -2.5635079   -2.5635079    -1.810575  0.039903505   -2.5635079   0.75293291   426349 
 3455000   0.60666776   -2.5648228   -2.5648228   -1.8106861  0.028737783   -2.5648228   0.75413668   426349 
 3456000   0.60652829   -2.5651706   -2.5651706   -1.8112073   0.03593465   -2.5651706   0.75396331   426349 
 3457000   0.60608909    -2.564466    -2.564466   -1.8110486  0.035476007    -2.564466   0.75341735   426349 
 3458000    0.6070646   -2.5650904   -2.5650904   -1.8104605  0.033543333   -2.5650904   0.75462998   426349 
 3459000   0.60695794   -2.5651679   -2.5651679   -1.8106705   0.03371593   -2.5651679    0.7544974   426349 
 3460000   0.60744721   -2.5654352   -2.5654352   -1.8103296  0.041417716   -2.5654352    0.7551056   426349 
 3461000   0.60667249   -2.5652159   -2.5652159   -1.8110734  0.039808886   -2.5652159   0.75414256   426349 
 3462000   0.60713889   -2.5658115   -2.5658115   -1.8110892   0.03678289   -2.5658115   0.75472233   426349 
 3463000   0.60722082   -2.5662917   -2.5662917   -1.8114675    0.0351694   -2.5662917   0.75482417   426349 
 3464000   0.60660057   -2.5657349   -2.5657349   -1.8116817  0.033431292   -2.5657349   0.75405316   426349 
 3465000   0.60761693   -2.5667884   -2.5667884   -1.8114718  0.029124563   -2.5667884   0.75531658   426349 
 3466000   0.60787321    -2.566529    -2.566529   -1.8108939  0.042371089    -2.566529   0.75563516   426349 
 3467000   0.60796746   -2.5668583   -2.5668583    -1.811106  0.044008851   -2.5668583   0.75575232   426349 
 3468000   0.60818825   -2.5674208   -2.5674208    -1.811394  0.037955543   -2.5674208   0.75602677   426349 
 3469000   0.60653335   -2.5657406   -2.5657406    -1.811771  0.041441737   -2.5657406    0.7539696   426349 
 3470000   0.60725851   -2.5660913   -2.5660913   -1.8112203  0.033988241   -2.5660913   0.75487102   426349 
 3471000   0.60738632   -2.5659374   -2.5659374   -1.8109075  0.041400125   -2.5659374   0.75502991   426349 
 3472000   0.60858465   -2.5677147   -2.5677147   -1.8111951   0.02839076   -2.5677147   0.75651953   426349 
 3473000    0.6077592   -2.5666287   -2.5666287   -1.8111352   0.03996941   -2.5666287   0.75549342   426349 
 3474000   0.60691114   -2.5657297   -2.5657297   -1.8112905  0.039413705   -2.5657297   0.75443922   426349 
 3475000   0.60705654   -2.5658351   -2.5658351   -1.8112151  0.042369934   -2.5658351   0.75461997   426349 
 3476000   0.60629403   -2.5655314   -2.5655314   -1.8118593  0.040026188   -2.5655314    0.7536721   426349 
 3477000   0.60763265    -2.567219    -2.567219   -1.8118829  0.038863788    -2.567219   0.75533611   426349 
 3478000   0.60695756   -2.5670747   -2.5670747   -1.8125777  0.030591312   -2.5670747   0.75449693   426349 
 3479000   0.60810743     -2.56854     -2.56854   -1.8126137  0.043118516     -2.56854   0.75592631   426349 
 3480000   0.60801993   -2.5680263   -2.5680263   -1.8122087  0.031003397   -2.5680263   0.75581753   426349 
 3481000   0.60628488   -2.5664746   -2.5664746   -1.8128138  0.036835361   -2.5664746   0.75366073   426349 
 3482000   0.60704956   -2.5673408   -2.5673408   -1.8127295  0.032557076   -2.5673408   0.75461128   426349 
 3483000   0.60661267   -2.5670637   -2.5670637   -1.8129955  0.035465851   -2.5670637    0.7540682   426349 
 3484000   0.60749339   -2.5679347   -2.5679347   -1.8127717  0.033404277   -2.5679347   0.75516301   426349 
 3485000   0.60628865   -2.5662449   -2.5662449   -1.8125795  0.040098909   -2.5662449   0.75366542   426349 
 3486000   0.60680709   -2.5662932   -2.5662932   -1.8119834   0.03815963   -2.5662932   0.75430988   426349 
 3487000   0.60638124   -2.5655443   -2.5655443   -1.8117638  0.038559506   -2.5655443   0.75378051   426349 
 3488000   0.60700919   -2.5667315   -2.5667315   -1.8121704  0.037006112   -2.5667315   0.75456111   426349 
 3489000   0.60707876   -2.5665199   -2.5665199   -1.8118723  0.040110473   -2.5665199   0.75464758   426349 
 3490000   0.60661244   -2.5669564   -2.5669564   -1.8128885  0.037989789   -2.5669564   0.75406792   426349 
 3491000   0.60686705   -2.5668427   -2.5668427   -1.8124583  0.041007142   -2.5668427   0.75438442   426349 
 3492000   0.60560218   -2.5645844   -2.5645844   -1.8117723  0.034091787   -2.5645844   0.75281208   426349 
 3493000   0.60487974   -2.5651355   -2.5651355   -1.8132214  0.032580505   -2.5651355   0.75191403   426349 
 3494000   0.60553512   -2.5659465   -2.5659465   -1.8132177  0.038877142   -2.5659465   0.75272872   426349 
 3495000    0.6059046   -2.5659626   -2.5659626   -1.8127746  0.035461535   -2.5659626   0.75318801   426349 
 3496000    0.6066651   -2.5665313   -2.5665313   -1.8123979  0.029895134   -2.5665313   0.75413338   426349 
 3497000    0.6066613   -2.5664964   -2.5664964   -1.8123678  0.030397161   -2.5664964   0.75412864   426349 
 3498000   0.60585943   -2.5655792   -2.5655792   -1.8124474   0.03966202   -2.5655792   0.75313187   426349 
 3499000   0.60573968   -2.5657548   -2.5657548   -1.8127718  0.031321285   -2.5657548     0.752983   426349 
 3500000   0.60680233    -2.567452    -2.567452    -1.813148  0.036867197    -2.567452   0.75430396   426349 
 3501000   0.60556383   -2.5668346   -2.5668346   -1.8140702  0.035064952   -2.5668346   0.75276441   426349 
 3502000   0.60678787   -2.5672632   -2.5672632   -1.8129772  0.034510927   -2.5672632   0.75428598   426349 
 3503000    0.6066274   -2.5680609   -2.5680609   -1.8139744  0.046245406   -2.5680609    0.7540865   426349 
 3504000   0.60696835   -2.5680097   -2.5680097   -1.8134994  0.037217093   -2.5680097   0.75451034   426349 
 3505000   0.60663467   -2.5681953   -2.5681953   -1.8140997  0.039495473   -2.5681953   0.75409555   426349 
 3506000   0.60783997   -2.5695118   -2.5695118   -1.8139179  0.041102386   -2.5695118   0.75559383   426349 
 3507000   0.60926894   -2.5708575   -2.5708575   -1.8134873  0.036196749   -2.5708575   0.75737015   426349 
 3508000   0.60817435   -2.5697311   -2.5697311   -1.8137216  0.033276471   -2.5697311   0.75600949   426349 
 3509000   0.60679269   -2.5681502   -2.5681502   -1.8138582   0.04242726   -2.5681502   0.75429198   426349 
 3510000   0.60672319   -2.5677029   -2.5677029   -1.8134973  0.034839806   -2.5677029   0.75420558   426349 
 3511000   0.60698345   -2.5688881   -2.5688881    -1.814359  0.032857064   -2.5688881   0.75452911   426349 
 3512000   0.60702263   -2.5687367   -2.5687367   -1.8141589  0.041521883   -2.5687367   0.75457782   426349 
 3513000   0.60699349   -2.5685766   -2.5685766    -1.814035  0.032876694   -2.5685766   0.75454159   426349 
 3514000   0.60706784   -2.5684326   -2.5684326   -1.8137985  0.039769656   -2.5684326   0.75463401   426349 
 3515000   0.60644913   -2.5680914   -2.5680914   -1.8142265  0.039107006   -2.5680914   0.75386491   426349 
 3516000   0.60693592   -2.5692359   -2.5692359   -1.8147659  0.037948054   -2.5692359   0.75447002   426349 
 3517000   0.60657926   -2.5674492   -2.5674492   -1.8134226  0.039470259   -2.5674492   0.75402667   426349 
 3518000   0.60594166   -2.5664853   -2.5664853   -1.8132512  0.052737138   -2.5664853   0.75323408   426349 
 3519000   0.60569983    -2.565734    -2.565734   -1.8128005    0.0344665    -2.565734   0.75293346   426349 
 3520000   0.60647461    -2.566998    -2.566998   -1.8131014  0.032746525    -2.566998   0.75389658   426349 
 3521000   0.60688263   -2.5675966   -2.5675966   -1.8131928  0.029656516   -2.5675966   0.75440378   426349 
 3522000   0.60580101   -2.5665799   -2.5665799   -1.8135206   0.03822151   -2.5665799   0.75305924   426349 
 3523000   0.60689399   -2.5673973   -2.5673973   -1.8129794  0.031222146   -2.5673973    0.7544179   426349 
 3524000   0.60671675   -2.5667594   -2.5667594   -1.8125619  0.035151887   -2.5667594   0.75419758   426349 
 3525000   0.60623558   -2.5662422   -2.5662422   -1.8126427  0.044350095   -2.5662422   0.75359945   426349 
 3526000   0.60650691   -2.5668265   -2.5668265   -1.8128898  0.040447983   -2.5668265   0.75393673   426349 
 3527000   0.60599561   -2.5671651   -2.5671651   -1.8138639  0.037304454   -2.5671651   0.75330115   426349 
 3528000   0.60643795   -2.5677833   -2.5677833   -1.8139323   0.03732449   -2.5677833   0.75385101   426349 
 3529000   0.60794968   -2.5693013   -2.5693013   -1.8135711  0.035517329   -2.5693013   0.75573021   426349 
 3530000   0.60905662   -2.5700378   -2.5700378   -1.8129315  0.047352657   -2.5700378   0.75710623   426349 
 3531000   0.60909002   -2.5696105   -2.5696105   -1.8124628  0.039838375   -2.5696105   0.75714774   426349 
 3532000   0.60816459   -2.5688652   -2.5688652   -1.8128679  0.039439861   -2.5688652   0.75599736   426349 
 3533000   0.60806463   -2.5684312   -2.5684312   -1.8125581   0.03888111   -2.5684312    0.7558731   426349 
 3534000   0.60762107   -2.5679417   -2.5679417   -1.8126199  0.030986089   -2.5679417   0.75532172   426349 
 3535000   0.60795043   -2.5689298   -2.5689298   -1.8131987  0.032688427   -2.5689298   0.75573114   426349 
 3536000   0.60741716   -2.5681063   -2.5681063   -1.8130381  0.036065424   -2.5681063   0.75506825   426349 
 3537000   0.60701825   -2.5672201   -2.5672201   -1.8126477  0.034239592   -2.5672201   0.75457237   426349 
 3538000   0.60678109   -2.5674004   -2.5674004   -1.8131228  0.034089239   -2.5674004   0.75427756   426349 
 3539000   0.60644237   -2.5673927   -2.5673927   -1.8135362  0.024727544   -2.5673927   0.75385651   426349 
 3540000   0.60771888   -2.5686647   -2.5686647   -1.8132214   0.04360409   -2.5686647    0.7554433   426349 
 3541000   0.60716193   -2.5673989   -2.5673989   -1.8126479  0.039499216   -2.5673989   0.75475098   426349 
 3542000   0.60756447   -2.5665716   -2.5665716   -1.8113203  0.038360599   -2.5665716   0.75525136   426349 
 3543000   0.60604497   -2.5649817   -2.5649817   -1.8116192   0.03992817   -2.5649817    0.7533625   426349 
 3544000   0.60778966   -2.5678802   -2.5678802   -1.8123489  0.045553576   -2.5678802   0.75553129   426349 
 3545000   0.60768028   -2.5683589   -2.5683589   -1.8129636  0.035500893   -2.5683589   0.75539532   426349 
 3546000   0.60658176   -2.5674806   -2.5674806   -1.8134509  0.036148769   -2.5674806   0.75402978   426349 
 3547000   0.60512427     -2.56621     -2.56621    -1.813992   0.03695166     -2.56621     0.752218   426349 
 3548000   0.60654004   -2.5679679   -2.5679679     -1.81399  0.034310772   -2.5679679   0.75397791   426349 
 3549000   0.60676704   -2.5683251   -2.5683251    -1.814065  0.036644862   -2.5683251   0.75426009   426349 
 3550000   0.60696621   -2.5680538   -2.5680538   -1.8135461  0.030734478   -2.5680538   0.75450767   426349 
 3551000   0.60724054   -2.5682816   -2.5682816   -1.8134329  0.039551485   -2.5682816   0.75484869   426349 
 3552000   0.60674684    -2.567693    -2.567693    -1.813458  0.040669658    -2.567693   0.75423498   426349 
 3553000   0.60668943   -2.5665353   -2.5665353   -1.8123717  0.040294434   -2.5665353   0.75416362   426349 
 3554000   0.60813437   -2.5688923   -2.5688923   -1.8129325  0.038303769   -2.5688923    0.7559598   426349 
 3555000   0.60746153   -2.5683508   -2.5683508   -1.8132274  0.035261782   -2.5683508    0.7551234   426349 
 3556000    0.6069878   -2.5676019   -2.5676019   -1.8130674  0.040041059   -2.5676019   0.75453451   426349 
 3557000    0.6084784   -2.5702174   -2.5702174     -1.81383   0.03060154   -2.5702174   0.75638745   426349 
 3558000   0.60739954   -2.5685821   -2.5685821   -1.8135358   0.04286943   -2.5685821   0.75504634   426349 
 3559000   0.60787838   -2.5688845   -2.5688845   -1.8132429  0.033740048   -2.5688845   0.75564158   426349 
 3560000   0.60741846   -2.5688088   -2.5688088    -1.813739  0.033016518   -2.5688088   0.75506986   426349 
 3561000   0.60697833   -2.5677644   -2.5677644   -1.8132416  0.036995943   -2.5677644   0.75452275   426349 
 3562000   0.60636541   -2.5674434   -2.5674434   -1.8136826  0.038718909   -2.5674434   0.75376083   426349 
 3563000    0.6070052   -2.5678433   -2.5678433   -1.8132871  0.037791669   -2.5678433   0.75455615   426349 
 3564000    0.6072546   -2.5670898   -2.5670898   -1.8122237  0.034596621   -2.5670898   0.75486617   426349 
 3565000   0.60669129   -2.5668804   -2.5668804   -1.8127144  0.033562851   -2.5668804   0.75416592   426349 
 3566000   0.60671157   -2.5668191   -2.5668191    -1.812628   0.04592899   -2.5668191   0.75419114   426349 
 3567000   0.60718979   -2.5678703   -2.5678703   -1.8130847  0.034393198   -2.5678703    0.7547856   426349 
 3568000   0.60674052   -2.5673349   -2.5673349   -1.8131077  0.041311994   -2.5673349   0.75422712   426349 
 3569000   0.60708154   -2.5680028   -2.5680028   -1.8133518  0.033362187   -2.5680028   0.75465104   426349 
 3570000   0.60744417   -2.5686467   -2.5686467   -1.8135449  0.032241964   -2.5686467   0.75510182   426349 
 3571000   0.60667186   -2.5676227   -2.5676227   -1.8134809   0.03536348   -2.5676227   0.75414178   426349 
 3572000   0.60562546   -2.5665381   -2.5665381   -1.8136971  0.041947841   -2.5665381   0.75284102   426349 
 3573000   0.60684535   -2.5670877   -2.5670877   -1.8127303   0.03753999   -2.5670877   0.75435744   426349 
 3574000   0.60701655    -2.567641    -2.567641   -1.8130708  0.033722706    -2.567641   0.75457025   426349 
 3575000   0.60724184   -2.5679915   -2.5679915   -1.8131412  0.041447216   -2.5679915   0.75485031   426349 
 3576000   0.60708176   -2.5673178   -2.5673178   -1.8126665  0.041417474   -2.5673178   0.75465132   426349 
 3577000   0.60774385   -2.5687436   -2.5687436   -1.8132693  0.038124781   -2.5687436   0.75547435   426349 
 3578000     0.608306   -2.5690081   -2.5690081   -1.8128349  0.040835069   -2.5690081   0.75617315   426349 
 3579000   0.60775672   -2.5680149   -2.5680149   -1.8125246  0.046663012   -2.5680149   0.75549035   426349 
 3580000   0.60665928   -2.5669822   -2.5669822   -1.8128561  0.031840096   -2.5669822   0.75412614   426349 
 3581000   0.60724809   -2.5676223   -2.5676223   -1.8127642  0.036440064   -2.5676223   0.75485808   426349 
 3582000   0.60685364   -2.5679754   -2.5679754   -1.8136077  0.037443365   -2.5679754   0.75436775   426349 
 3583000   0.60710079    -2.567591    -2.567591    -1.812916  0.033968315    -2.567591   0.75467497   426349 
 3584000   0.60704705   -2.5678329   -2.5678329   -1.8132248  0.045000647   -2.5678329   0.75460817   426349 
 3585000   0.60655329    -2.567039    -2.567039   -1.8130446  0.039736442    -2.567039   0.75399438   426349 
 3586000    0.6083568   -2.5692578   -2.5692578   -1.8130215  0.033551977   -2.5692578   0.75623629   426349 
 3587000   0.60742446   -2.5682278   -2.5682278   -1.8131505  0.043447114   -2.5682278   0.75507732   426349 
 3588000   0.60769497   -2.5680489   -2.5680489   -1.8126354   0.04205696   -2.5680489   0.75541359   426349 
 3589000   0.60718854   -2.5671133   -2.5671133   -1.8123293  0.030947938   -2.5671133   0.75478405   426349 
 3590000   0.60785118    -2.567922    -2.567922   -1.8123143  0.034136198    -2.567922   0.75560777   426349 
 3591000   0.60695766    -2.567286    -2.567286   -1.8127889   0.03358748    -2.567286   0.75449705   426349 
 3592000   0.60690702   -2.5668568   -2.5668568   -1.8124227  0.044365082   -2.5668568    0.7544341   426349 
 3593000   0.60581915   -2.5661455   -2.5661455   -1.8130637  0.037029848   -2.5661455   0.75308179   426349 
 3594000   0.60689051   -2.5674077   -2.5674077   -1.8129941  0.037009889   -2.5674077   0.75441357   426349 
 3595000    0.6059633   -2.5668917   -2.5668917   -1.8136307  0.039647839   -2.5668917   0.75326098   426349 
 3596000   0.60799006   -2.5693192   -2.5693192   -1.8135388  0.042082415   -2.5693192    0.7557804   426349 
 3597000   0.60728288   -2.5686444   -2.5686444    -1.813743  0.044980369   -2.5686444   0.75490132   426349 
 3598000   0.60755248   -2.5688753   -2.5688753   -1.8136388  0.038269853   -2.5688753   0.75523645   426349 
 3599000    0.6079041   -2.5684652   -2.5684652   -1.8127917   0.03874889   -2.5684652   0.75567354   426349 
 3600000   0.60694232   -2.5672129   -2.5672129   -1.8127349  0.043850823   -2.5672129   0.75447797   426349 
 3601000   0.60707616   -2.5680444   -2.5680444   -1.8134001  0.035943487   -2.5680444   0.75464436   426349 
 3602000   0.60726784    -2.568566    -2.568566   -1.8136833  0.041966321    -2.568566   0.75488263   426349 
 3603000   0.60763216   -2.5685783   -2.5685783   -1.8132428  0.037066659   -2.5685783   0.75533551   426349 
 3604000   0.60689289    -2.568172    -2.568172   -1.8137555  0.038903824    -2.568172   0.75441653   426349 
 3605000    0.6071622   -2.5681922   -2.5681922   -1.8134409  0.041301997   -2.5681922   0.75475131   426349 
 3606000   0.60759324   -2.5690077   -2.5690077   -1.8137206  0.039315111   -2.5690077   0.75528713   426349 
 3607000   0.60881026   -2.5705089   -2.5705089   -1.8137089  0.040077203   -2.5705089   0.75679998   426349 
 3608000   0.60877634   -2.5692065   -2.5692065   -1.8124487  0.036173264   -2.5692065   0.75675781   426349 
 3609000   0.60824897   -2.5691864   -2.5691864   -1.8130841  0.029639715   -2.5691864   0.75610226   426349 
 3610000   0.60722483   -2.5687172   -2.5687172   -1.8138881  0.026088859   -2.5687172   0.75482917   426349 
 3611000   0.60696532   -2.5682846   -2.5682846   -1.8137781  0.038841234   -2.5682846   0.75450657   426349 
 3612000    0.6070666    -2.568134    -2.568134   -1.8135016  0.033764507    -2.568134   0.75463247   426349 
 3613000   0.60704432   -2.5687977   -2.5687977    -1.814193  0.043613256   -2.5687977   0.75460477   426349 
 3614000   0.60690951   -2.5682648   -2.5682648   -1.8138276  0.034761095   -2.5682648    0.7544372   426349 
 3615000   0.60628092   -2.5674768   -2.5674768   -1.8138209  0.035214679   -2.5674768   0.75365581   426349 
 3616000    0.6066479   -2.5679987   -2.5679987   -1.8138867  0.035806294   -2.5679987   0.75411199   426349 
 3617000   0.60655046   -2.5675107   -2.5675107   -1.8135199  0.040460058   -2.5675107   0.75399086   426349 
 3618000   0.60774478   -2.5682619   -2.5682619   -1.8127863  0.039969038   -2.5682619   0.75547551   426349 
 3619000   0.60710886   -2.5689074   -2.5689074   -1.8142224  0.032592453   -2.5689074   0.75468501   426349 
 3620000   0.60711498   -2.5692377   -2.5692377   -1.8145451  0.033459179   -2.5692377   0.75469262   426349 
 3621000   0.60707813   -2.5692271   -2.5692271   -1.8145803  0.040013501   -2.5692271    0.7546468   426349 
 3622000   0.60757469   -2.5695524   -2.5695524   -1.8142883  0.032655182   -2.5695524   0.75526407   426349 
 3623000   0.60693008   -2.5688683   -2.5688683   -1.8144055  0.036995313   -2.5688683   0.75446276   426349 
 3624000   0.60721802   -2.5692592   -2.5692592   -1.8144385  0.042250048   -2.5692592    0.7548207   426349 
 3625000   0.60738127   -2.5694063   -2.5694063   -1.8143826  0.037075133   -2.5694063   0.75502362   426349 
 3626000   0.60575117   -2.5672921   -2.5672921   -1.8142948  0.042201473   -2.5672921   0.75299728   426349 
 3627000   0.60798097   -2.5689178   -2.5689178   -1.8131487   0.04361457   -2.5689178   0.75576911   426349 
 3628000   0.60575433   -2.5667169   -2.5667169   -1.8137157  0.041853801   -2.5667169   0.75300121   426349 
 3629000   0.60769714   -2.5687613   -2.5687613   -1.8133451  0.038894635   -2.5687613   0.75541629   426349 
 3630000     0.607073   -2.5684906   -2.5684906   -1.8138502  0.038416034   -2.5684906   0.75464043   426349 
 3631000   0.60737965   -2.5684829   -2.5684829   -1.8134613  0.038009721   -2.5684829   0.75502161   426349 
 3632000   0.60805421   -2.5700584   -2.5700584   -1.8141982  0.039633827   -2.5700584   0.75586015   426349 
 3633000   0.60514862   -2.5670401   -2.5670401   -1.8147918  0.035765556   -2.5670401   0.75224827   426349 
 3634000   0.60577976   -2.5680631   -2.5680631   -1.8150303   0.03074536   -2.5680631   0.75303282   426349 
 3635000   0.60559376     -2.56762     -2.56762   -1.8148184   0.03532871     -2.56762   0.75280162   426349 
 3636000   0.60537895   -2.5675641   -2.5675641   -1.8150295  0.042789349   -2.5675641   0.75253458   426349 
 3637000   0.60506463   -2.5679936   -2.5679936   -1.8158498  0.035918296   -2.5679936   0.75214386   426349 
 3638000   0.60612154    -2.569069    -2.569069   -1.8156113  0.037565871    -2.569069   0.75345769   426349 
 3639000   0.60713366   -2.5705565   -2.5705565   -1.8158407  0.029879513   -2.5705565   0.75471583   426349 
 3640000   0.60553897   -2.5687859   -2.5687859   -1.8160524  0.043698112   -2.5687859    0.7527335   426349 
 3641000   0.60651215   -2.5697709   -2.5697709   -1.8158277  0.040300595   -2.5697709   0.75394324   426349 
 3642000   0.60709981   -2.5707064   -2.5707064   -1.8160326  0.031553261   -2.5707064   0.75467376   426349 
 3643000   0.60631313   -2.5689924   -2.5689924   -1.8152966  0.039670379   -2.5689924   0.75369585   426349 
 3644000   0.60747046   -2.5703775   -2.5703775    -1.815243  0.043615766   -2.5703775    0.7551345   426349 
 3645000   0.60673633    -2.569797    -2.569797   -1.8155751  0.045276513    -2.569797   0.75422192   426349 
 3646000   0.60665142   -2.5694756   -2.5694756   -1.8153592  0.037296446   -2.5694756   0.75411637   426349 
 3647000   0.60647489   -2.5708072   -2.5708072   -1.8169103  0.031565759   -2.5708072   0.75389693   426349 
 3648000   0.60575059   -2.5698944   -2.5698944   -1.8168978  0.033982396   -2.5698944   0.75299657   426349 
 3649000    0.6071734   -2.5710835   -2.5710835   -1.8163183  0.038075895   -2.5710835   0.75476523   426349 
 3650000   0.60534705   -2.5689696   -2.5689696   -1.8164747  0.035756975   -2.5689696   0.75249493   426349 
 3651000   0.60514034   -2.5690505   -2.5690505   -1.8168126  0.039403351   -2.5690505   0.75223797   426349 
 3652000   0.60669299   -2.5711159   -2.5711159   -1.8169479  0.038951648   -2.5711159   0.75416805   426349 
 3653000   0.60694847   -2.5718918   -2.5718918   -1.8174062  0.036524371   -2.5718918   0.75448563   426349 
 3654000   0.60683536   -2.5712435   -2.5712435   -1.8168985  0.038631264   -2.5712435   0.75434502   426349 
 3655000   0.60614471   -2.5697822   -2.5697822   -1.8162957  0.034820132   -2.5697822   0.75348648   426349 
 3656000   0.60548401   -2.5692651   -2.5692651   -1.8165999  0.040928567   -2.5692651   0.75266518   426349 
 3657000   0.60649503   -2.5703695   -2.5703695   -1.8164475  0.042331771   -2.5703695   0.75392197   426349 
 3658000   0.60697244   -2.5707777   -2.5707777   -1.8162623  0.032196691   -2.5707777   0.75451542   426349 
 3659000   0.60665665   -2.5711067   -2.5711067   -1.8169839  0.043698489   -2.5711067   0.75412287   426349 
 3660000    0.6057341   -2.5700036   -2.5700036   -1.8170275   0.03692171   -2.5700036   0.75297607   426349 
 3661000   0.60581755   -2.5700356   -2.5700356   -1.8169558  0.034687563   -2.5700356    0.7530798   426349 
 3662000   0.60691422   -2.5719835   -2.5719835   -1.8175405  0.039311025   -2.5719835   0.75444305   426349 
 3663000   0.60606759   -2.5706601   -2.5706601   -1.8172695   0.03895226   -2.5706601   0.75339062   426349 
 3664000   0.60686724   -2.5718087   -2.5718087   -1.8174241  0.042530924   -2.5718087   0.75438465   426349 
 3665000   0.60629303   -2.5714226   -2.5714226   -1.8177517  0.032076231   -2.5714226   0.75367086   426349 
 3666000   0.60589786   -2.5705091   -2.5705091   -1.8173294  0.034489259   -2.5705091   0.75317963   426349 
 3667000   0.60547576   -2.5690991   -2.5690991   -1.8164441  0.037213334   -2.5690991   0.75265493   426349 
 3668000    0.6059313    -2.569017    -2.569017   -1.8157958  0.044471967    -2.569017   0.75322121   426349 
 3669000   0.60540418   -2.5688824   -2.5688824   -1.8163165  0.034246331   -2.5688824   0.75256595   426349 
 3670000   0.60617132   -2.5698315   -2.5698315   -1.8163119  0.039671163   -2.5698315   0.75351956   426349 
 3671000   0.60593353   -2.5696371   -2.5696371   -1.8164131    0.0344481   -2.5696371   0.75322398   426349 
 3672000    0.6057576   -2.5695341   -2.5695341   -1.8165288  0.040091469   -2.5695341   0.75300527   426349 
 3673000   0.60623086   -2.5695236   -2.5695236     -1.81593  0.036286583   -2.5695236   0.75359358   426349 
 3674000   0.60750588   -2.5718718   -2.5718718   -1.8166933  0.032852971   -2.5718718   0.75517854   426349 
 3675000   0.60751611   -2.5719485   -2.5719485   -1.8167572  0.036179705   -2.5719485   0.75519125   426349 
 3676000   0.60749917    -2.571808    -2.571808   -1.8166378  0.040137024    -2.571808   0.75517019   426349 
 3677000   0.60609545   -2.5698397   -2.5698397   -1.8164144  0.038499654   -2.5698397   0.75342525   426349 
 3678000   0.60788113   -2.5716496   -2.5716496   -1.8160046  0.034457853   -2.5716496   0.75564499   426349 
 3679000   0.60670841   -2.5708479   -2.5708479   -1.8166607  0.040355992   -2.5708479   0.75418721   426349 
 3680000   0.60731794   -2.5709486   -2.5709486   -1.8160036  0.032953779   -2.5709486   0.75494491   426349 
 3681000   0.60703899   -2.5718405   -2.5718405   -1.8172423  0.035393871   -2.5718405   0.75459815   426349 
 3682000   0.60669319   -2.5716252   -2.5716252   -1.8174569  0.036788677   -2.5716252   0.75416829   426349 
 3683000    0.6068597   -2.5720881   -2.5720881   -1.8177129  0.039265028   -2.5720881   0.75437528   426349 
 3684000   0.60689627   -2.5719166   -2.5719166   -1.8174958  0.038098415   -2.5719166   0.75442074   426349 
 3685000   0.60662181   -2.5715793   -2.5715793   -1.8174998  0.033223846   -2.5715793   0.75407956   426349 
 3686000   0.60589114   -2.5703677   -2.5703677   -1.8171964   0.04474442   -2.5703677   0.75317128   426349 
 3687000   0.60690249   -2.5714948   -2.5714948   -1.8170664  0.033549532   -2.5714948   0.75442847   426349 
 3688000   0.60540079   -2.5697756   -2.5697756   -1.8172138   0.04052202   -2.5697756   0.75256174   426349 
 3689000   0.60622454   -2.5711388   -2.5711388   -1.8175531  0.032497862   -2.5711388   0.75358572   426349 
 3690000   0.60568698   -2.5708534   -2.5708534   -1.8179359  0.037571134   -2.5708534    0.7529175   426349 
 3691000   0.60629985   -2.5719416   -2.5719416   -1.8182622  0.037598308   -2.5719416   0.75367934   426349 
 3692000   0.60588191   -2.5705225   -2.5705225   -1.8173627  0.034322581   -2.5705225    0.7531598   426349 
 3693000   0.60621745   -2.5713364   -2.5713364   -1.8177595  0.039535889   -2.5713364   0.75357691   426349 
 3694000   0.60580554   -2.5709653   -2.5709653   -1.8179004   0.04209921   -2.5709653   0.75306487   426349 
 3695000   0.60482678   -2.5701335   -2.5701335   -1.8182853  0.027953116   -2.5701335   0.75184819   426349 
 3696000   0.60428976   -2.5697828   -2.5697828   -1.8186022  0.038115954   -2.5697828   0.75118064   426349 
 3697000   0.60517364   -2.5709707   -2.5709707   -1.8186913  0.037690701   -2.5709707   0.75227937   426349 
 3698000   0.60574657   -2.5715187   -2.5715187   -1.8185271  0.033372807   -2.5715187   0.75299157   426349 
 3699000   0.60633901   -2.5707215   -2.5707215   -1.8169935  0.036395791   -2.5707215   0.75372802   426349 
 3700000   0.60546429   -2.5700073   -2.5700073   -1.8173666  0.036369308   -2.5700073   0.75264067   426349 
 3701000    0.6059186   -2.5700068   -2.5700068   -1.8168014  0.041770802   -2.5700068   0.75320541   426349 
 3702000   0.60784948   -2.5721988   -2.5721988   -1.8165931   0.03933561   -2.5721988   0.75560565   426349 
 3703000   0.60601812   -2.5704188   -2.5704188   -1.8170897  0.049136014   -2.5704188   0.75332913   426349 
 3704000   0.60624091   -2.5704698   -2.5704698   -1.8168638  0.039311163   -2.5704698   0.75360607   426349 
 3705000    0.6058939     -2.57081     -2.57081   -1.8176353  0.043813538     -2.57081   0.75317471   426349 
 3706000   0.60516703   -2.5705024   -2.5705024   -1.8182312  0.034022987   -2.5705024   0.75227116   426349 
 3707000   0.60676203   -2.5722855   -2.5722855   -1.8180316   0.03798857   -2.5722855   0.75425386   426349 
 3708000    0.6056037   -2.5712611   -2.5712611   -1.8184472  0.030639919   -2.5712611   0.75281397   426349 
 3709000   0.60526348   -2.5708387   -2.5708387   -1.8184477  0.038731105   -2.5708387   0.75239105   426349 
 3710000    0.6054395   -2.5712717   -2.5712717   -1.8186618  0.039298011   -2.5712717   0.75260985   426349 
 3711000   0.60492252   -2.5707987   -2.5707987   -1.8188315  0.035418268   -2.5707987   0.75196721   426349 
 3712000   0.60574082   -2.5715763   -2.5715763   -1.8185919   0.04255192   -2.5715763   0.75298441   426349 
 3713000   0.60599362   -2.5713573   -2.5713573   -1.8180586  0.034115097   -2.5713573   0.75329867   426349 
 3714000   0.60576909   -2.5717282   -2.5717282   -1.8187086  0.038826831   -2.5717282   0.75301956   426349 
 3715000   0.60675916   -2.5732584   -2.5732584   -1.8190081  0.039031844   -2.5732584    0.7542503   426349 
 3716000   0.60602268   -2.5723862   -2.5723862   -1.8190514  0.036559254   -2.5723862   0.75333479   426349 
 3717000   0.60573445   -2.5721193   -2.5721193   -1.8191428  0.036773313   -2.5721193   0.75297651   426349 
 3718000   0.60551891   -2.5705238   -2.5705238   -1.8178153  0.044771341   -2.5705238   0.75270857   426349 
 3719000   0.60569758   -2.5708143   -2.5708143   -1.8178837  0.036393097   -2.5708143   0.75293067   426349 
 3720000   0.60555255   -2.5710649   -2.5710649   -1.8183145  0.032879838   -2.5710649   0.75275039   426349 
 3721000   0.60527263   -2.5711275   -2.5711275   -1.8187251  0.039860754   -2.5711275   0.75240242   426349 
 3722000   0.60651489   -2.5722479   -2.5722479   -1.8183013  0.028568541   -2.5722479   0.75394666   426349 
 3723000   0.60631492   -2.5728109   -2.5728109   -1.8191129  0.045885639   -2.5728109   0.75369807   426349 
 3724000   0.60584902   -2.5720372   -2.5720372   -1.8189182  0.036079196   -2.5720372   0.75311892   426349 
 3725000   0.60710355   -2.5727743   -2.5727743   -1.8180959  0.031457479   -2.5727743    0.7546784   426349 
 3726000   0.60708001   -2.5729278   -2.5729278   -1.8182787  0.040659429   -2.5729278   0.75464914   426349 
 3727000   0.60653395   -2.5722508   -2.5722508   -1.8182805  0.041516923   -2.5722508   0.75397034   426349 
 3728000   0.60661322   -2.5714794   -2.5714794   -1.8174106  0.034467631   -2.5714794   0.75406888   426349 
 3729000   0.60715828   -2.5727229   -2.5727229   -1.8179764  0.037007157   -2.5727229   0.75474644   426349 
 3730000   0.60665787   -2.5719324   -2.5719324    -1.817808  0.045043208   -2.5719324   0.75412439   426349 
 3731000   0.60670223   -2.5728209   -2.5728209   -1.8186413  0.035691825   -2.5728209   0.75417952   426349 
 3732000   0.60715142   -2.5734119   -2.5734119    -1.818674  0.042298098   -2.5734119   0.75473791   426349 
 3733000   0.60687153   -2.5729763   -2.5729763   -1.8185863   0.03749182   -2.5729763   0.75438999   426349 
 3734000   0.60656727   -2.5720474   -2.5720474   -1.8180357  0.042235207   -2.5720474   0.75401176   426349 
 3735000   0.60758516   -2.5722389   -2.5722389   -1.8169618  0.034711119   -2.5722389   0.75527708   426349 
 3736000   0.60624521   -2.5707758   -2.5707758   -1.8171644  0.036889513   -2.5707758   0.75361142   426349 
 3737000   0.60692879   -2.5717591   -2.5717591    -1.817298  0.045889864   -2.5717591   0.75446117   426349 
 3738000   0.60683643   -2.5713848   -2.5713848   -1.8170385  0.035412084   -2.5713848   0.75434635   426349 
 3739000   0.60665595   -2.5709068   -2.5709068   -1.8167848  0.035430514   -2.5709068     0.754122   426349 
 3740000   0.60615456   -2.5711476   -2.5711476   -1.8176489  0.033652981   -2.5711476   0.75349874   426349 
 3741000   0.60704845   -2.5715393   -2.5715393   -1.8169294  0.037391367   -2.5715393    0.7546099   426349 
 3742000   0.60613232   -2.5710676   -2.5710676   -1.8175965  0.037397544   -2.5710676   0.75347108   426349 
 3743000   0.60644549   -2.5713801   -2.5713801   -1.8175197  0.038230231   -2.5713801   0.75386038   426349 
 3744000   0.60684175   -2.5713956   -2.5713956   -1.8170427  0.043410488   -2.5713956   0.75435296   426349 
 3745000   0.60688556   -2.5718104   -2.5718104    -1.817403  0.031537763   -2.5718104   0.75440742   426349 
 3746000   0.60627213   -2.5703386   -2.5703386   -1.8166937  0.036074267   -2.5703386   0.75364488   426349 
 3747000   0.60675977   -2.5706841   -2.5706841    -1.816433  0.038798996   -2.5706841   0.75425105   426349 
 3748000     0.606434   -2.5706933   -2.5706933   -1.8168472  0.043466263   -2.5706933    0.7538461   426349 
 3749000   0.60626675   -2.5705317   -2.5705317   -1.8168935  0.040609959   -2.5705317    0.7536382   426349 
 3750000   0.60638031   -2.5699413   -2.5699413    -1.816162  0.035082285   -2.5699413   0.75377935   426349 
 3751000   0.60689165   -2.5714253   -2.5714253   -1.8170103  0.040524712   -2.5714253     0.754415   426349 
 3752000   0.60625651   -2.5710941   -2.5710941   -1.8174686  0.030384603   -2.5710941   0.75362546   426349 
 3753000   0.60571103   -2.5694943   -2.5694943   -1.8165469  0.038099032   -2.5694943   0.75294738   426349 
 3754000   0.60658743   -2.5706713   -2.5706713   -1.8166345  0.032061995   -2.5706713   0.75403683   426349 
 3755000   0.60602919     -2.56938     -2.56938   -1.8160371   0.04643967     -2.56938   0.75334289   426349 
 3756000    0.6059737   -2.5694984   -2.5694984   -1.8162245  0.031004947   -2.5694984   0.75327391   426349 
 3757000   0.60576174   -2.5690509   -2.5690509   -1.8160405  0.035030063   -2.5690509   0.75301042   426349 
 3758000   0.60615622   -2.5691338   -2.5691338    -1.815633   0.04718436   -2.5691338    0.7535008   426349 
 3759000   0.60738535   -2.5715457   -2.5715457    -1.816517  0.041555704   -2.5715457    0.7550287   426349 
 3760000   0.60557746   -2.5695025   -2.5695025   -1.8167211  0.033017506   -2.5695025   0.75278135   426349 
 3761000   0.60578685   -2.5699112   -2.5699112   -1.8168696  0.033220867   -2.5699112   0.75304163   426349 
 3762000   0.60565246   -2.5701457   -2.5701457   -1.8172712  0.038683336   -2.5701457   0.75287457   426349 
 3763000   0.60640132   -2.5706303   -2.5706303   -1.8168248  0.028747422   -2.5706303   0.75380548   426349 
 3764000   0.60431677   -2.5684774   -2.5684774   -1.8172631  0.040799015   -2.5684774   0.75121422   426349 
 3765000   0.60572724   -2.5702316   -2.5702316   -1.8172641   0.04111747   -2.5702316   0.75296754   426349 
 3766000    0.6059974   -2.5703731   -2.5703731   -1.8170697  0.040055631   -2.5703731   0.75330338   426349 
 3767000   0.60651511   -2.5711741   -2.5711741   -1.8172272  0.037803831   -2.5711741   0.75394693   426349 
 3768000   0.60666419   -2.5719257   -2.5719257   -1.8177935  0.030686545   -2.5719257   0.75413224   426349 
 3769000   0.60702316   -2.5730852   -2.5730852   -1.8185068  0.038924395   -2.5730852   0.75457847   426349 
 3770000   0.60669096   -2.5728161   -2.5728161   -1.8186506  0.036024365   -2.5728161   0.75416553   426349 
 3771000   0.60655049   -2.5728097   -2.5728097   -1.8188188  0.039148417   -2.5728097    0.7539909   426349 
 3772000   0.60671331   -2.5731237   -2.5731237   -1.8189304  0.037549512   -2.5731237    0.7541933   426349 
 3773000   0.60540424   -2.5709453   -2.5709453   -1.8183793  0.042793196   -2.5709453   0.75256602   426349 
 3774000   0.60608318   -2.5722166   -2.5722166   -1.8188066  0.036015072   -2.5722166      0.75341   426349 
 3775000   0.60606715   -2.5726041   -2.5726041    -1.819214  0.040638851   -2.5726041   0.75339008   426349 
 3776000   0.60525688    -2.572106    -2.572106   -1.8197232  0.033973693    -2.572106   0.75238285   426349 
 3777000    0.6060524   -2.5733428   -2.5733428   -1.8199711  0.036824652   -2.5733428   0.75337174   426349 
 3778000   0.60620317     -2.57293     -2.57293   -1.8193708  0.036026132     -2.57293   0.75355916   426349 
 3779000   0.60603673   -2.5735567   -2.5735567   -1.8202044  0.039574798   -2.5735567   0.75335226   426349 
 3780000   0.60612494   -2.5736297   -2.5736297   -1.8201678  0.036682783   -2.5736297   0.75346191   426349 
 3781000   0.60607433   -2.5738434   -2.5738434   -1.8204444  0.038711862   -2.5738434     0.753399   426349 
 3782000   0.60603672   -2.5736868   -2.5736868   -1.8203346   0.03797996   -2.5736868   0.75335225   426349 
 3783000    0.6061249   -2.5740928   -2.5740928    -1.820631  0.031847889   -2.5740928   0.75346186   426349 
 3784000   0.60661396   -2.5748961   -2.5748961   -1.8208263  0.036679275   -2.5748961    0.7540698   426349 
 3785000    0.6067504   -2.5746889   -2.5746889   -1.8204494  0.038952652   -2.5746889    0.7542394   426349 
 3786000   0.60619529   -2.5742852   -2.5742852   -1.8207358  0.036726127   -2.5742852   0.75354936   426349 
 3787000   0.60468225   -2.5719629   -2.5719629   -1.8202943  0.038405207   -2.5719629   0.75166853   426349 
 3788000    0.6056527   -2.5728684   -2.5728684   -1.8199935  0.038819611   -2.5728684   0.75287488   426349 
 3789000   0.60514748   -2.5729471   -2.5729471   -1.8207002   0.04095667   -2.5729471   0.75224685   426349 
 3790000    0.6061396   -2.5730688   -2.5730688   -1.8195887  0.038102293   -2.5730688   0.75348013   426349 
 3791000   0.60619664   -2.5735495   -2.5735495   -1.8199985  0.034078305   -2.5735495   0.75355104   426349 
 3792000   0.60537254   -2.5719691   -2.5719691   -1.8194425   0.03489162   -2.5719691   0.75252662   426349 
 3793000   0.60591758   -2.5719023   -2.5719023   -1.8186981  0.039244908   -2.5719023   0.75320414   426349 
 3794000   0.60570211   -2.5718205   -2.5718205   -1.8188842  0.033086921   -2.5718205   0.75293629   426349 
 3795000   0.60552352   -2.5713374   -2.5713374   -1.8186231  0.039890752   -2.5713374    0.7527143   426349 
 3796000    0.6068879   -2.5726057   -2.5726057   -1.8181953  0.041766502   -2.5726057   0.75441033   426349 
 3797000    0.6051896   -2.5707245   -2.5707245   -1.8184253  0.042378217   -2.5707245    0.7522992   426349 
 3798000   0.60602466   -2.5722109   -2.5722109   -1.8188736  0.029531878   -2.5722109   0.75333726   426349 
 3799000   0.60566207    -2.570954    -2.570954   -1.8180675  0.033528116    -2.570954   0.75288653   426349 
 3800000   0.60484026   -2.5710647   -2.5710647   -1.8191997  0.037622858   -2.5710647   0.75186495   426349 
 3801000   0.60624352   -2.5722469   -2.5722469   -1.8186376  0.037303619   -2.5722469   0.75360931   426349 
 3802000   0.60412796   -2.5701948   -2.5701948   -1.8192153   0.03987425   -2.5701948    0.7509795   426349 
 3803000   0.60473554   -2.5720926   -2.5720926   -1.8203578  0.035197472   -2.5720926   0.75173478   426349 
 3804000   0.60483683   -2.5710977   -2.5710977    -1.819237  0.033730134   -2.5710977   0.75186069   426349 
 3805000   0.60611499    -2.572301    -2.572301   -1.8188515  0.037759596    -2.572301   0.75344954   426349 
 3806000   0.60494001   -2.5706801   -2.5706801   -1.8186912  0.038151911   -2.5706801   0.75198895   426349 
 3807000   0.60638944   -2.5732626   -2.5732626   -1.8194719  0.037787954   -2.5732626    0.7537907   426349 
 3808000   0.60601208    -2.572286    -2.572286   -1.8189644  0.035423307    -2.572286   0.75332162   426349 
 3809000   0.60720722   -2.5740265   -2.5740265   -1.8192192  0.032199019   -2.5740265   0.75480727   426349 
 3810000   0.60747266   -2.5742606   -2.5742606   -1.8191234  0.038029801   -2.5742606   0.75513724   426349 
 3811000   0.60643399   -2.5730703   -2.5730703   -1.8192243  0.046076827   -2.5730703   0.75384609   426349 
 3812000    0.6061407   -2.5731492   -2.5731492   -1.8196677  0.040178998   -2.5731492    0.7534815   426349 
 3813000   0.60654728   -2.5728586   -2.5728586   -1.8188717  0.036235926   -2.5728586   0.75398692   426349 
 3814000   0.60611057   -2.5729819   -2.5729819   -1.8195379  0.028494074   -2.5729819   0.75344405   426349 
 3815000   0.60505828   -2.5722188   -2.5722188   -1.8200828  0.038874575   -2.5722188   0.75213597   426349 
 3816000   0.60569175   -2.5725157   -2.5725157   -1.8195923  0.038710065   -2.5725157   0.75292342   426349 
 3817000   0.60594169    -2.573012    -2.573012   -1.8197779  0.037894361    -2.573012   0.75323412   426349 
 3818000   0.60629779   -2.5737051   -2.5737051   -1.8200283  0.034535948   -2.5737051   0.75367677   426349 
 3819000   0.60651275   -2.5736474   -2.5736474   -1.8197034  0.033388367   -2.5736474   0.75394399   426349 
 3820000   0.60567531   -2.5719848   -2.5719848   -1.8190818  0.043089864   -2.5719848   0.75290298   426349 
 3821000    0.6057974   -2.5717202   -2.5717202   -1.8186655  0.038805528   -2.5717202   0.75305475   426349 
 3822000    0.6074344   -2.5736349   -2.5736349   -1.8185453  0.036091053   -2.5736349   0.75508968   426349 
 3823000   0.60839586   -2.5744467   -2.5744467   -1.8181618  0.038181976   -2.5744467   0.75628485   426349 
 3824000   0.60729111    -2.573234    -2.573234   -1.8183225  0.033017705    -2.573234   0.75491155   426349 
 3825000     0.605579   -2.5711102   -2.5711102   -1.8183269  0.027968768   -2.5711102   0.75278327   426349 
 3826000   0.60659735   -2.5720947   -2.5720947   -1.8180455  0.039637692   -2.5720947   0.75404916   426349 
 3827000   0.60619114   -2.5709353   -2.5709353   -1.8173911  0.035437336   -2.5709353    0.7535442   426349 
 3828000   0.60657813   -2.5711293   -2.5711293    -1.817104  0.038648184   -2.5711293   0.75402526   426349 
 3829000   0.60511753   -2.5697609   -2.5697609   -1.8175513  0.037836642   -2.5697609   0.75220962   426349 
 3830000   0.60638673   -2.5709381   -2.5709381   -1.8171508  0.038769872   -2.5709381   0.75378734   426349 
 3831000   0.60655434   -2.5710043   -2.5710043   -1.8170086  0.031232457   -2.5710043   0.75399569   426349 
 3832000   0.60587604    -2.570568    -2.570568   -1.8174155  0.027674509    -2.570568   0.75315251   426349 
 3833000   0.60551179   -2.5704689   -2.5704689   -1.8177692  0.032186689   -2.5704689   0.75269972   426349 
 3834000   0.60725271   -2.5730424   -2.5730424   -1.8181786  0.035635422   -2.5730424   0.75486382   426349 
 3835000   0.60674812   -2.5730016   -2.5730016    -1.818765  0.029142716   -2.5730016   0.75423658   426349 
 3836000   0.60566286     -2.57126     -2.57126   -1.8183725  0.032838035     -2.57126    0.7528875   426349 
 3837000   0.60611903   -2.5716598   -2.5716598   -1.8182053    0.0334905   -2.5716598   0.75345457   426349 
 3838000   0.60677618   -2.5724734   -2.5724734   -1.8182019  0.035493101   -2.5724734   0.75427146   426349 
 3839000   0.60637727   -2.5730106   -2.5730106    -1.819235  0.034595686   -2.5730106   0.75377558   426349 
 3840000   0.60495616   -2.5711787   -2.5711787   -1.8191697  0.041163526   -2.5711787   0.75200902   426349 
 3841000   0.60427313   -2.5704707   -2.5704707   -1.8193108  0.035219338   -2.5704707   0.75115996   426349 
 3842000   0.60597007   -2.5728508   -2.5728508   -1.8195814  0.038950592   -2.5728508   0.75326939   426349 
 3843000   0.60552439   -2.5718814   -2.5718814    -1.819166  0.035994858   -2.5718814   0.75271538   426349 
 3844000   0.60534926    -2.571858    -2.571858   -1.8193603   0.03483862    -2.571858   0.75249768   426349 
 3845000   0.60594802   -2.5733932   -2.5733932   -1.8201512   0.04165606   -2.5733932   0.75324199   426349 
 3846000   0.60621844   -2.5734784   -2.5734784   -1.8199003  0.036872583   -2.5734784   0.75357814   426349 
 3847000   0.60608259   -2.5736994   -2.5736994   -1.8202901   0.04093042   -2.5736994   0.75340926   426349 
 3848000    0.6064953   -2.5732198   -2.5732198   -1.8192975  0.042649285   -2.5732198    0.7539223   426349 
 3849000   0.60680227   -2.5745924   -2.5745924   -1.8202886  0.041705579   -2.5745924   0.75430388   426349 
 3850000   0.60762304   -2.5752147   -2.5752147   -1.8198905  0.038523254   -2.5752147   0.75532417   426349 
 3851000   0.60610762    -2.573557    -2.573557   -1.8201166  0.033318969    -2.573557   0.75344039   426349 
 3852000   0.60565241   -2.5733703   -2.5733703   -1.8204958  0.042568068   -2.5733703   0.75287451   426349 
 3853000    0.6054044   -2.5730873   -2.5730873    -1.820521   0.04178634   -2.5730873   0.75256622   426349 
 3854000   0.60659924   -2.5749889   -2.5749889   -1.8209374  0.040070614   -2.5749889   0.75405151   426349 
 3855000   0.60514426   -2.5730261   -2.5730261   -1.8207833  0.038618312   -2.5730261   0.75224285   426349 
 3856000   0.60793978   -2.5760438   -2.5760438   -1.8203259  0.037828562   -2.5760438    0.7557179   426349 
 3857000   0.60786029     -2.57516     -2.57516   -1.8195409  0.037484399     -2.57516    0.7556191   426349 
 3858000   0.60632326   -2.5736337   -2.5736337   -1.8199253   0.02778941   -2.5736337   0.75370844   426349 
 3859000   0.60628732   -2.5736183   -2.5736183   -1.8199545  0.033768712   -2.5736183   0.75366376   426349 
 3860000   0.60623837   -2.5744298   -2.5744298   -1.8208268  0.030093939   -2.5744298   0.75360291   426349 
 3861000   0.60563454   -2.5733291   -2.5733291   -1.8204768   0.03336678   -2.5733291    0.7528523   426349 
 3862000   0.60562961    -2.573317    -2.573317   -1.8204708  0.033609421    -2.573317   0.75284618   426349 
 3863000   0.60579768   -2.5727308   -2.5727308   -1.8196757  0.034947541   -2.5727308    0.7530551   426349 
 3864000   0.60641795    -2.573114    -2.573114   -1.8192878  0.033634054    -2.573114   0.75382615   426349 
 3865000   0.60599059   -2.5728595   -2.5728595   -1.8195646  0.029696204   -2.5728595   0.75329491   426349 
 3866000   0.60603208    -2.572965    -2.572965   -1.8196185  0.030609734    -2.572965   0.75334648   426349 
 3867000   0.60555221   -2.5725211   -2.5725211   -1.8197711  0.033866123   -2.5725211   0.75274996   426349 
 3868000   0.60675489   -2.5742073   -2.5742073   -1.8199623  0.042517308   -2.5742073     0.754245   426349 
 3869000   0.60528601   -2.5723509   -2.5723509   -1.8199318  0.037176938   -2.5723509   0.75241905   426349 
 3870000   0.60700302   -2.5738412   -2.5738412   -1.8192878  0.038561239   -2.5738412   0.75455343   426349 
 3871000   0.60649519   -2.5726951   -2.5726951    -1.818773  0.038172525   -2.5726951   0.75392217   426349 
 3872000   0.60844584   -2.5743225   -2.5743225   -1.8179756  0.040285852   -2.5743225   0.75634697   426349 
 3873000   0.60720491   -2.5732747   -2.5732747   -1.8184703  0.043010369   -2.5732747    0.7548044   426349 
 3874000   0.60674367    -2.573381    -2.573381     -1.81915  0.039036572    -2.573381   0.75423104   426349 
 3875000   0.60649713   -2.5733126   -2.5733126   -1.8193881  0.029026829   -2.5733126   0.75392458   426349 
 3876000   0.60568513    -2.572738    -2.572738   -1.8198228   0.04285201    -2.572738   0.75291519   426349 
 3877000   0.60527216   -2.5718251   -2.5718251   -1.8194232  0.032895107   -2.5718251   0.75240184   426349 
 3878000   0.60659122    -2.573558    -2.573558   -1.8195165  0.033035085    -2.573558   0.75404153   426349 
 3879000   0.60675641   -2.5739692   -2.5739692   -1.8197223  0.038265635   -2.5739692   0.75424688   426349 
 3880000   0.60550922   -2.5728085   -2.5728085   -1.8201119  0.035093274   -2.5728085   0.75269652   426349 
 3881000   0.60582162    -2.573237    -2.573237   -1.8201522  0.036813862    -2.573237   0.75308486   426349 
 3882000   0.60440198   -2.5718897   -2.5718897   -1.8205696  0.033057855   -2.5718897   0.75132014   426349 
 3883000   0.60720806   -2.5744015   -2.5744015   -1.8195931  0.026960936   -2.5744015   0.75480831   426349 
 3884000   0.60557334   -2.5725811   -2.5725811   -1.8198049  0.035898782   -2.5725811   0.75277623   426349 
 3885000   0.60602339   -2.5731912   -2.5731912   -1.8198555  0.037398932   -2.5731912   0.75333568   426349 
 3886000     0.606325   -2.5730221   -2.5730221   -1.8193115  0.029511056   -2.5730221    0.7537106   426349 
 3887000   0.60532112   -2.5716305   -2.5716305   -1.8191678  0.034782404   -2.5716305    0.7524627   426349 
 3888000   0.60529338   -2.5715738   -2.5715738   -1.8191455   0.02991695   -2.5715738   0.75242821   426349 
 3889000   0.60560672   -2.5723174   -2.5723174   -1.8194997  0.033245227   -2.5723174   0.75281772   426349 
 3890000   0.60640162   -2.5730432   -2.5730432   -1.8192374  0.033637943   -2.5730432   0.75380584   426349 
 3891000   0.60759055   -2.5742317   -2.5742317   -1.8189479   0.03635157   -2.5742317   0.75528379   426349 
 3892000   0.60718807   -2.5738201   -2.5738201   -1.8190366  0.041237691   -2.5738201   0.75478347   426349 
 3893000   0.60706735   -2.5735768   -2.5735768   -1.8189434  0.037981729   -2.5735768    0.7546334   426349 
 3894000   0.60829074   -2.5753533   -2.5753533   -1.8191991  0.037490054   -2.5753533   0.75615417   426349 
 3895000   0.60704073   -2.5739142   -2.5739142   -1.8193139  0.034878429   -2.5739142   0.75460031   426349 
 3896000   0.60593041    -2.573297    -2.573297   -1.8200769  0.036266226    -2.573297    0.7532201   426349 
 3897000   0.60748496   -2.5740159   -2.5740159   -1.8188634  0.041397606   -2.5740159   0.75515253   426349 
 3898000   0.60799206   -2.5748024   -2.5748024   -1.8190195  0.039745136   -2.5748024    0.7557829   426349 
 3899000   0.60624088   -2.5736491   -2.5736491   -1.8200431  0.027386678   -2.5736491   0.75360603   426349 
 3900000   0.60669775   -2.5749512   -2.5749512   -1.8207772  0.037885311   -2.5749512   0.75417396   426349 
 3901000    0.6069292   -2.5748018   -2.5748018   -1.8203402  0.036005026   -2.5748018   0.75446167   426349 
 3902000   0.60658209   -2.5753187   -2.5753187   -1.8212886  0.029585422   -2.5753187   0.75403018   426349 
 3903000   0.60570707   -2.5743774   -2.5743774    -1.821435  0.028791842   -2.5743774   0.75294246   426349 
 3904000   0.60525829   -2.5730889   -2.5730889   -1.8207043  0.035388182   -2.5730889    0.7523846   426349 
 3905000   0.60574964   -2.5744558   -2.5744558   -1.8214604    0.0384783   -2.5744558   0.75299538   426349 
 3906000   0.60559895   -2.5736305   -2.5736305   -1.8208224  0.039572915   -2.5736305   0.75280806   426349 
 3907000   0.60565549   -2.5739845   -2.5739845   -1.8211062  0.043376233   -2.5739845   0.75287835   426349 
 3908000   0.60563991   -2.5737586   -2.5737586   -1.8208996  0.039112128   -2.5737586   0.75285898   426349 
 3909000   0.60570829   -2.5740688   -2.5740688   -1.8211249  0.034599708   -2.5740688   0.75294398   426349 
 3910000   0.60562073   -2.5740801   -2.5740801    -1.821245  0.034376897   -2.5740801   0.75283514   426349 
 3911000   0.60535175   -2.5733618   -2.5733618    -1.820861   0.03716674   -2.5733618   0.75250077   426349 
 3912000    0.6058367   -2.5739847   -2.5739847   -1.8208811  0.042244469   -2.5739847    0.7531036   426349 
 3913000   0.60499815   -2.5745091   -2.5745091   -1.8224479  0.037561083   -2.5745091   0.75206122   426349 
 3914000   0.60505167   -2.5737874   -2.5737874   -1.8216597  0.035658863   -2.5737874   0.75212776   426349 
 3915000   0.60513482   -2.5730611   -2.5730611     -1.82083  0.035504717   -2.5730611   0.75223112   426349 
 3916000   0.60688846   -2.5750229   -2.5750229   -1.8206118  0.039586122   -2.5750229   0.75441102   426349 
 3917000   0.60609079   -2.5745885   -2.5745885    -1.821169  0.044668956   -2.5745885   0.75341946   426349 
 3918000   0.60674176   -2.5751164   -2.5751164   -1.8208877  0.037430967   -2.5751164   0.75422867   426349 
 3919000   0.60573606   -2.5742174   -2.5742174   -1.8212389  0.030053491   -2.5742174    0.7529785   426349 
 3920000   0.60517198   -2.5745584   -2.5745584   -1.8222811  0.035583909   -2.5745584    0.7522773   426349 
 3921000   0.60589061   -2.5753739   -2.5753739   -1.8222033  0.044102639   -2.5753739   0.75317063   426349 
 3922000   0.60715931   -2.5764597   -2.5764597    -1.821712   0.03778088   -2.5764597   0.75474771   426349 
 3923000   0.60475149   -2.5736208   -2.5736208   -1.8218662  0.037273552   -2.5736208    0.7517546   426349 
 3924000   0.60613722   -2.5758862   -2.5758862    -1.822409  0.028608601   -2.5758862   0.75347718   426349 
 3925000   0.60661571   -2.5757337   -2.5757337   -1.8216617  0.037269241   -2.5757337   0.75407197   426349 
 3926000   0.60654487   -2.5766231   -2.5766231   -1.8226392  0.035503181   -2.5766231   0.75398392   426349 
 3927000   0.60557885   -2.5751173   -2.5751173   -1.8223342  0.039639746   -2.5751173   0.75278308   426349 
 3928000   0.60596262   -2.5758873   -2.5758873   -1.8226272  0.043920336   -2.5758873   0.75326013   426349 
 3929000   0.60506218    -2.574503    -2.574503   -1.8223622  0.034092558    -2.574503   0.75214081   426349 
 3930000   0.60574777    -2.575442    -2.575442   -1.8224489  0.035545112    -2.575442   0.75299305   426349 
 3931000   0.60623095   -2.5759282   -2.5759282   -1.8223345  0.037687513   -2.5759282   0.75359369   426349 
 3932000   0.60432759   -2.5735812   -2.5735812   -1.8223536  0.039001458   -2.5735812   0.75122766   426349 
 3933000   0.60514315   -2.5746275   -2.5746275   -1.8223861  0.039208104   -2.5746275   0.75224146   426349 
 3934000   0.60555602   -2.5749256   -2.5749256   -1.8221709  0.039962709   -2.5749256    0.7527547   426349 
 3935000   0.60626121   -2.5764362   -2.5764362   -1.8228049  0.034348049   -2.5764362    0.7536313   426349 
 3936000   0.60547882   -2.5752689   -2.5752689   -1.8226102  0.039259873   -2.5752689   0.75265873   426349 
 3937000   0.60575891   -2.5753262   -2.5753262   -1.8223193  0.032710815   -2.5753262    0.7530069   426349 
 3938000   0.60539323   -2.5758679   -2.5758679   -1.8233156  0.029982865   -2.5758679   0.75255234   426349 
 3939000   0.60632932   -2.5764007   -2.5764007   -1.8226848  0.039847503   -2.5764007   0.75371597   426349 
 3940000   0.60700183   -2.5775687   -2.5775687   -1.8230168  0.035980913   -2.5775687   0.75455195   426349 
 3941000   0.60488117   -2.5747438   -2.5747438    -1.822828  0.038965958   -2.5747438   0.75191581   426349 
 3942000   0.60786713   -2.5773816   -2.5773816    -1.821754  0.034842482   -2.5773816   0.75562759   426349 
 3943000   0.60713569   -2.5765609   -2.5765609   -1.8218426  0.036873292   -2.5765609   0.75471835   426349 
 3944000   0.60779338   -2.5780125   -2.5780125   -1.8224766  0.032998294   -2.5780125   0.75553592   426349 
 3945000   0.60837264   -2.5785578   -2.5785578   -1.8223018  0.037853796   -2.5785578   0.75625598   426349 
 3946000    0.6073593   -2.5766869   -2.5766869   -1.8216906  0.038259612   -2.5766869   0.75499631   426349 
 3947000   0.60645031   -2.5761959   -2.5761959   -1.8223295  0.037426474   -2.5761959   0.75386637   426349 
 3948000   0.60709776   -2.5764284   -2.5764284   -1.8217572  0.040919825   -2.5764284   0.75467121   426349 
 3949000      0.60494   -2.5743907   -2.5743907   -1.8224018  0.035864467   -2.5743907   0.75198893   426349 
 3950000   0.60512006   -2.5748288   -2.5748288    -1.822616  0.035054304   -2.5748288   0.75221277   426349 
 3951000    0.6063418   -2.5759143   -2.5759143   -1.8221828  0.032021486   -2.5759143   0.75373148   426349 
 3952000   0.60677321   -2.5765584   -2.5765584   -1.8222906  0.035393005   -2.5765584   0.75426776   426349 
 3953000   0.60558609   -2.5748963   -2.5748963   -1.8221042  0.036337875   -2.5748963   0.75279208   426349 
 3954000    0.6059639    -2.574716    -2.574716   -1.8214543  0.033110701    -2.574716   0.75326173   426349 
 3955000   0.60519361    -2.573709    -2.573709   -1.8214048  0.037601059    -2.573709    0.7523042   426349 
 3956000   0.60430058   -2.5734329   -2.5734329   -1.8222388  0.035671842   -2.5734329   0.75119408   426349 
 3957000   0.60551673   -2.5748011   -2.5748011   -1.8220953  0.040083293   -2.5748011   0.75270586   426349 
 3958000   0.60538581   -2.5748255   -2.5748255   -1.8222824  0.035445405   -2.5748255   0.75254312   426349 
 3959000   0.60503194   -2.5747234   -2.5747234   -1.8226202    0.0335241   -2.5747234   0.75210323   426349 
 3960000   0.60523258   -2.5745464   -2.5745464   -1.8221938  0.047082624   -2.5745464   0.75235264   426349 
 3961000   0.60407341   -2.5736912   -2.5736912   -1.8227795  0.033129756   -2.5736912   0.75091169   426349 
 3962000   0.60545415   -2.5750988   -2.5750988   -1.8224707  0.036274727   -2.5750988   0.75262807   426349 
 3963000   0.60728081   -2.5768786   -2.5768786   -1.8219798  0.035727822   -2.5768786   0.75489875   426349 
 3964000   0.60712297   -2.5762199   -2.5762199   -1.8215174  0.044928059   -2.5762199   0.75470254   426349 
 3965000   0.60861048   -2.5774293   -2.5774293   -1.8208777  0.028825829   -2.5774293   0.75655164   426349 
 3966000   0.60628269   -2.5755009   -2.5755009   -1.8218429  0.032565867   -2.5755009   0.75365801   426349 
 3967000   0.60741642   -2.5770609   -2.5770609   -1.8219936  0.041491505   -2.5770609   0.75506732   426349 
 3968000   0.60643545   -2.5762261   -2.5762261   -1.8223782  0.043367343   -2.5762261    0.7538479   426349 
 3969000   0.60575354   -2.5746226   -2.5746226   -1.8216223  0.034743525   -2.5746226   0.75300024   426349 
 3970000   0.60683907   -2.5763845   -2.5763845   -1.8220348  0.044041078   -2.5763845   0.75434963   426349 
 3971000   0.60637177   -2.5755515   -2.5755515   -1.8217828  0.032445412   -2.5755515   0.75376874   426349 
 3972000   0.60575653    -2.574015    -2.574015   -1.8210111  0.032107537    -2.574015   0.75300395   426349 
 3973000   0.60546706   -2.5743649   -2.5743649   -1.8217208  0.033720574   -2.5743649   0.75264411   426349 
 3974000   0.60587498   -2.5740955   -2.5740955   -1.8209443   0.03462225   -2.5740955   0.75315119   426349 
 3975000   0.60534471   -2.5743195   -2.5743195   -1.8218275  0.048379609   -2.5743195   0.75249202   426349 
 3976000    0.6060006   -2.5754545   -2.5754545   -1.8221472  0.029022139   -2.5754545   0.75330735   426349 
 3977000   0.60634506   -2.5753101   -2.5753101   -1.8215746  0.034113312   -2.5753101   0.75373554   426349 
 3978000   0.60546018   -2.5737529   -2.5737529   -1.8211174  0.030107492   -2.5737529   0.75263556   426349 
 3979000    0.6072012   -2.5751642   -2.5751642   -1.8203645   0.04366803   -2.5751642   0.75479979   426349 
 3980000   0.60481949   -2.5738115   -2.5738115   -1.8219723  0.035238073   -2.5738115   0.75183914   426349 
 3981000   0.60501395   -2.5752156   -2.5752156   -1.8231347  0.040760623   -2.5752156   0.75208086   426349 
 3982000   0.60412362   -2.5740622   -2.5740622   -1.8230881  0.037107084   -2.5740622   0.75097412   426349 
 3983000   0.60566723   -2.5753272   -2.5753272   -1.8224343  0.040229237   -2.5753272   0.75289294   426349 
 3984000   0.60401247   -2.5740711   -2.5740711   -1.8232352  0.034136289   -2.5740711   0.75083594   426349 
 3985000   0.60552101   -2.5752521   -2.5752521   -1.8225409  0.031606279   -2.5752521   0.75271117   426349 
 3986000   0.60614667   -2.5764068   -2.5764068   -1.8229179  0.036844687   -2.5764068   0.75348892   426349 
 3987000   0.60735865   -2.5763582   -2.5763582   -1.8213626  0.033306045   -2.5763582   0.75499552   426349 
 3988000   0.60655265   -2.5758144   -2.5758144   -1.8218208  0.031034188   -2.5758144    0.7539936   426349 
 3989000   0.60598864    -2.575585    -2.575585   -1.8222926  0.035256913    -2.575585   0.75329248   426349 
 3990000   0.60637299   -2.5761341   -2.5761341   -1.8223639  0.040973833   -2.5761341   0.75377025   426349 
 3991000   0.60690116   -2.5769881   -2.5769881   -1.8225613  0.037445934   -2.5769881   0.75442682   426349 
 3992000   0.60587662   -2.5759674   -2.5759674   -1.8228142  0.043664448   -2.5759674   0.75315323   426349 
 3993000   0.60638145    -2.575892    -2.575892   -1.8221113  0.040052339    -2.575892   0.75378078   426349 
 3994000   0.60689859   -2.5762787   -2.5762787    -1.821855  0.030377479   -2.5762787   0.75442362   426349 
 3995000   0.60668853    -2.575738    -2.575738   -1.8215755  0.034274302    -2.575738    0.7541625   426349 
 3996000   0.60673408   -2.5756867   -2.5756867   -1.8214676  0.034792458   -2.5756867   0.75421912   426349 
 3997000   0.60694808   -2.5763176   -2.5763176   -1.8218324  0.035136486   -2.5763176   0.75448514   426349 
 3998000   0.60736681   -2.5770923   -2.5770923   -1.8220867  0.035899714   -2.5770923   0.75500565   426349 
 3999000   0.60683211   -2.5769231   -2.5769231   -1.8225821  0.033646744   -2.5769231   0.75434098   426349 
 4000000   0.60633465   -2.5761627   -2.5761627   -1.8224401  0.035077959   -2.5761627    0.7537226   426349 
 4001000   0.60591801   -2.5749609   -2.5749609   -1.8217562  0.038819838   -2.5749609   0.75320468   426349 
 4002000   0.60576325   -2.5744156   -2.5744156   -1.8214033  0.038802025   -2.5744156    0.7530123   426349 
 4003000   0.60622355   -2.5750834   -2.5750834   -1.8214989  0.030089918   -2.5750834   0.75358449   426349 
 4004000   0.60513973    -2.573637    -2.573637   -1.8213998  0.033215568    -2.573637   0.75223722   426349 
 4005000   0.60657007   -2.5754043   -2.5754043   -1.8213891  0.032047731   -2.5754043   0.75401525   426349 
 4006000    0.6068926   -2.5748705   -2.5748705   -1.8204544  0.046178076   -2.5748705   0.75441618   426349 
 4007000    0.6055981    -2.575063    -2.575063    -1.822256  0.043026802    -2.575063   0.75280701   426349 
 4008000    0.6061783   -2.5748226   -2.5748226   -1.8212943  0.040125024   -2.5748226   0.75352825   426349 
 4009000   0.60689345   -2.5763173   -2.5763173   -1.8219001  0.027989671   -2.5763173   0.75441723   426349 
 4010000    0.6056336   -2.5746396   -2.5746396   -1.8217884  0.029136699   -2.5746396   0.75285114   426349 
 4011000   0.60540508   -2.5737742   -2.5737742   -1.8212071   0.02806736   -2.5737742   0.75256706   426349 
 4012000   0.60519174   -2.5737022   -2.5737022   -1.8214003  0.034520678   -2.5737022   0.75230187   426349 
 4013000   0.60592668   -2.5740391   -2.5740391   -1.8208236  0.034185096   -2.5740391   0.75321546   426349 
 4014000   0.60701299    -2.575292    -2.575292   -1.8207262  0.036222824    -2.575292   0.75456582   426349 
 4015000   0.60682117   -2.5750163   -2.5750163   -1.8206889  0.041043905   -2.5750163   0.75432738   426349 
 4016000   0.60638923   -2.5745931   -2.5745931   -1.8208026  0.045131128   -2.5745931   0.75379044   426349 
 4017000   0.60752735   -2.5752135   -2.5752135   -1.8200083  0.042113957   -2.5752135   0.75520522   426349 
 4018000   0.60625052   -2.5742358   -2.5742358   -1.8206178  0.039866738   -2.5742358   0.75361802   426349 
 4019000   0.60522116   -2.5731817   -2.5731817   -1.8208432  0.031978515   -2.5731817   0.75233844   426349 
 4020000   0.60619227   -2.5747892   -2.5747892   -1.8212436  0.034941686   -2.5747892    0.7535456   426349 
 4021000   0.60437656   -2.5727528   -2.5727528   -1.8214643  0.043855239   -2.5727528   0.75128853   426349 
 4022000   0.60555364   -2.5745794   -2.5745794   -1.8218276  0.035796072   -2.5745794   0.75275174   426349 
 4023000   0.60618771    -2.575166    -2.575166   -1.8216261  0.032726451    -2.575166   0.75353993   426349 
 4024000   0.60657791   -2.5755012   -2.5755012   -1.8214762  0.043013606   -2.5755012   0.75402499   426349 
 4025000   0.60708773   -2.5765531   -2.5765531   -1.8218944  0.038401822   -2.5765531   0.75465874   426349 
 4026000   0.60698179   -2.5757321   -2.5757321    -1.821205  0.040124552   -2.5757321   0.75452704   426349 
 4027000   0.60621176    -2.575726    -2.575726   -1.8221562  0.037877008    -2.575726   0.75356983   426349 
 4028000   0.60491203   -2.5746713   -2.5746713   -1.8227171   0.03450748   -2.5746713   0.75195417   426349 
 4029000    0.6067147   -2.5758369   -2.5758369   -1.8216418  0.031629709   -2.5758369   0.75419503   426349 
 4030000   0.60713526    -2.576852    -2.576852   -1.8221342  0.033144631    -2.576852   0.75471782   426349 
 4031000   0.60625972   -2.5756512   -2.5756512   -1.8220217  0.035185686   -2.5756512   0.75362945   426349 
 4032000   0.60602188   -2.5758239   -2.5758239   -1.8224901  0.035376975   -2.5758239    0.7533338   426349 
 4033000   0.60663717   -2.5766425   -2.5766425   -1.8225438  0.041058882   -2.5766425   0.75409865   426349 
 4034000   0.60657431   -2.5764928   -2.5764928   -1.8224723  0.043577969   -2.5764928   0.75402051   426349 
 4035000   0.60573744   -2.5756346   -2.5756346   -1.8226544  0.049249183   -2.5756346   0.75298022   426349 
 4036000   0.60615392    -2.576667    -2.576667   -1.8231691  0.040600825    -2.576667   0.75349793   426349 
 4037000   0.60684218   -2.5776944   -2.5776944   -1.8233409  0.032309216   -2.5776944    0.7543535   426349 
 4038000   0.60640482   -2.5778729   -2.5778729    -1.824063  0.034844955   -2.5778729   0.75380983   426349 
 4039000   0.60533266   -2.5765049   -2.5765049   -1.8240279  0.049122975   -2.5765049   0.75247705   426349 
 4040000   0.60648447   -2.5777501   -2.5777501   -1.8238412  0.048794904   -2.5777501   0.75390884   426349 
 4041000   0.60659766    -2.577577    -2.577577   -1.8235274  0.050579567    -2.577577   0.75404954   426349 
 4042000   0.60602347   -2.5766316   -2.5766316   -1.8232958  0.035789274   -2.5766316   0.75333578   426349 
 4043000   0.60555588   -2.5758136   -2.5758136   -1.8230591  0.045770587   -2.5758136   0.75275453   426349 
 4044000    0.6060351   -2.5769047   -2.5769047   -1.8235545  0.032748573   -2.5769047   0.75335024   426349 
 4045000   0.60608949   -2.5769624   -2.5769624   -1.8235445  0.029388612   -2.5769624   0.75341785   426349 
 4046000   0.60535085   -2.5758761   -2.5758761   -1.8233765  0.040510464   -2.5758761   0.75249965   426349 
 4047000   0.60665732   -2.5771685   -2.5771685   -1.8230448  0.036521044   -2.5771685    0.7541237   426349 
 4048000   0.60644776   -2.5769767   -2.5769767   -1.8231135  0.036052656   -2.5769767    0.7538632   426349 
 4049000   0.60569133   -2.5763088   -2.5763088   -1.8233859  0.040489284   -2.5763088    0.7529229   426349 
 4050000   0.60619111   -2.5772193   -2.5772193   -1.8236751  0.038302129   -2.5772193   0.75354417   426349 
 4051000    0.6072498    -2.577159    -2.577159   -1.8222988  0.039177741    -2.577159    0.7548602   426349 
 4052000   0.60675706   -2.5774896   -2.5774896   -1.8232419  0.042719696   -2.5774896   0.75424768   426349 
 4053000   0.60696981   -2.5773571   -2.5773571   -1.8228449  0.043442938   -2.5773571   0.75451215   426349 
 4054000   0.60653224   -2.5771922   -2.5771922    -1.823224  0.036440288   -2.5771922   0.75396821   426349 
 4055000   0.60511833   -2.5748475   -2.5748475   -1.8226369  0.031648697   -2.5748475   0.75221061   426349 
 4056000     0.605841   -2.5760301   -2.5760301   -1.8229211   0.02738797   -2.5760301   0.75310895   426349 
 4057000   0.60635054   -2.5768062   -2.5768062   -1.8230638  0.038573107   -2.5768062   0.75374235   426349 
 4058000   0.60495833   -2.5745428   -2.5745428    -1.822531  0.035110086   -2.5745428   0.75201172   426349 
 4059000   0.60641276   -2.5769405   -2.5769405   -1.8231208  0.032208617   -2.5769405    0.7538197   426349 
 4060000   0.60680357   -2.5775334   -2.5775334   -1.8232279   0.03745734   -2.5775334    0.7543055   426349 
 4061000   0.60482773   -2.5751996   -2.5751996   -1.8233502  0.039126943   -2.5751996   0.75184937   426349 
 4062000   0.60515958   -2.5759937   -2.5759937   -1.8237318  0.037227417   -2.5759937   0.75226189   426349 
 4063000   0.60512684   -2.5762853   -2.5762853   -1.8240641   0.03477082   -2.5762853    0.7522212   426349 
 4064000   0.60513515   -2.5762822   -2.5762822   -1.8240507  0.032077954   -2.5762822   0.75223153   426349 
 4065000   0.60513906   -2.5762293   -2.5762293   -1.8239929  0.031557058   -2.5762293   0.75223639   426349 
 4066000   0.60530244   -2.5764218   -2.5764218   -1.8239823  0.031829523   -2.5764218   0.75243947   426349 
 4067000    0.6055385   -2.5771078   -2.5771078   -1.8243749  0.034728238   -2.5771078   0.75273292   426349 
 4068000   0.60538123   -2.5771595   -2.5771595   -1.8246221  0.040071549   -2.5771595   0.75253743   426349 
 4069000   0.60601595   -2.5776861   -2.5776861   -1.8243597  0.043537013   -2.5776861   0.75332642   426349 
 4070000   0.60503844   -2.5764847   -2.5764847   -1.8243734  0.034835707   -2.5764847   0.75211131   426349 
 4071000   0.60638539   -2.5790321   -2.5790321   -1.8252464  0.033639077   -2.5790321   0.75378568   426349 
 4072000   0.60536539   -2.5770436   -2.5770436   -1.8245259  0.041213449   -2.5770436   0.75251773   426349 
 4073000   0.60676071   -2.5784065   -2.5784065   -1.8241543   0.03451516   -2.5784065   0.75425222   426349 
 4074000   0.60616553   -2.5778805   -2.5778805   -1.8243681  0.035424953   -2.5778805   0.75351237   426349 
 4075000   0.60577143   -2.5771172   -2.5771172   -1.8240947  0.036043048   -2.5771172   0.75302247   426349 
 4076000   0.60567039   -2.5777448   -2.5777448   -1.8248479  0.035739646   -2.5777448   0.75289687   426349 
 4077000   0.60654213    -2.578456    -2.578456   -1.8244755  0.036413724    -2.578456   0.75398051   426349 
 4078000   0.60591839   -2.5773315   -2.5773315   -1.8241263  0.030745841   -2.5773315   0.75320515   426349 
 4079000   0.60700646   -2.5781659   -2.5781659   -1.8236082  0.045430946   -2.5781659   0.75455771   426349 
 4080000   0.60652442   -2.5777766   -2.5777766   -1.8238181  0.036939242   -2.5777766    0.7539585   426349 
 4081000   0.60653317   -2.5776284   -2.5776284    -1.823659  0.042598329   -2.5776284   0.75396937   426349 
 4082000    0.6060733    -2.577546    -2.577546   -1.8241483  0.043259552    -2.577546   0.75339772   426349 
 4083000   0.60639048   -2.5785724   -2.5785724   -1.8247804  0.039507072   -2.5785724     0.753792   426349 
 4084000   0.60525284   -2.5778768   -2.5778768    -1.825499  0.039008094   -2.5778768   0.75237782   426349 
 4085000   0.60466207   -2.5770683   -2.5770683   -1.8254248  0.031617024   -2.5770683   0.75164344   426349 
 4086000   0.60550488   -2.5772985   -2.5772985   -1.8246074  0.034638615   -2.5772985   0.75269113   426349 
 4087000   0.60586203   -2.5775911   -2.5775911    -1.824456  0.042987998   -2.5775911    0.7531351   426349 
 4088000   0.60597615   -2.5773758   -2.5773758   -1.8240988   0.03068328   -2.5773758   0.75327695   426349 
 4089000   0.60599877   -2.5770543   -2.5770543   -1.8237493  0.037818307   -2.5770543   0.75330507   426349 
 4090000    0.6053625   -2.5764308   -2.5764308   -1.8239166  0.038004281   -2.5764308   0.75251413   426349 
 4091000   0.60602805    -2.576772    -2.576772   -1.8234305  0.035573821    -2.576772   0.75334147   426349 
 4092000   0.60492491   -2.5757903   -2.5757903   -1.8238202   0.04412224   -2.5757903   0.75197018   426349 
 4093000   0.60675603   -2.5774317   -2.5774317   -1.8231853  0.038253276   -2.5774317    0.7542464   426349 
 4094000   0.60524443   -2.5754324   -2.5754324    -1.823065  0.032131045   -2.5754324   0.75236737   426349 
 4095000   0.60572959   -2.5758371   -2.5758371   -1.8228666  0.033622617   -2.5758371   0.75297046   426349 
 4096000   0.60594147   -2.5760271   -2.5760271   -1.8227932  0.039704833   -2.5760271   0.75323384   426349 
 4097000   0.60561133   -2.5753272   -2.5753272   -1.8225037  0.031006827   -2.5753272   0.75282345   426349 
 4098000   0.60434905   -2.5749955   -2.5749955   -1.8237412  0.034122141   -2.5749955   0.75125434   426349 
 4099000   0.60567702   -2.5765078   -2.5765078   -1.8236027  0.044501864   -2.5765078   0.75290511   426349 
 4100000   0.60549344    -2.576539    -2.576539   -1.8238621  0.037319821    -2.576539   0.75267691   426349 
 4101000   0.60491736   -2.5762677   -2.5762677    -1.824307  0.033505577   -2.5762677   0.75196079   426349 
 4102000    0.6044367   -2.5755615   -2.5755615   -1.8241982  0.037795418   -2.5755615   0.75136329   426349 
 4103000   0.60652792   -2.5782522   -2.5782522   -1.8242893  0.037221862   -2.5782522   0.75396285   426349 
 4104000   0.60580014   -2.5772059   -2.5772059   -1.8241477  0.038245002   -2.5772059   0.75305816   426349 
 4105000   0.60523437   -2.5771528   -2.5771528    -1.824798  0.035226934   -2.5771528   0.75235486   426349 
 4106000   0.60417375   -2.5764371   -2.5764371   -1.8254007  0.032102582   -2.5764371   0.75103642   426349 
 4107000   0.60549068   -2.5788783   -2.5788783   -1.8262049  0.036154672   -2.5788783   0.75267347   426349 
 4108000   0.60593365      -2.5789      -2.5789   -1.8256759  0.035422911      -2.5789   0.75322413   426349 
 4109000   0.60570272   -2.5793595   -2.5793595   -1.8264224  0.037886978   -2.5793595   0.75293706   426349 
 4110000   0.60610955   -2.5794751   -2.5794751   -1.8260323   0.03754604   -2.5794751   0.75344278   426349 
 4111000    0.6056597   -2.5796225   -2.5796225   -1.8267389  0.030569922   -2.5796225   0.75288358   426349 
 4112000   0.60601524   -2.5799534   -2.5799534   -1.8266278  0.040379497   -2.5799534   0.75332555   426349 
 4113000   0.60571915   -2.5787631   -2.5787631   -1.8258056  0.039119319   -2.5787631   0.75295748   426349 
 4114000     0.605809    -2.579974    -2.579974   -1.8269049  0.035613049    -2.579974   0.75306917   426349 
 4115000   0.60530365   -2.5791726   -2.5791726   -1.8267316  0.034148116   -2.5791726   0.75244098   426349 
 4116000   0.60645633   -2.5801897   -2.5801897   -1.8263158  0.038735034   -2.5801897   0.75387386   426349 
 4117000   0.60573662   -2.5784968   -2.5784968   -1.8255176  0.031193663   -2.5784968    0.7529792   426349 
 4118000   0.60625657   -2.5799272   -2.5799272   -1.8263016  0.037754094   -2.5799272   0.75362554   426349 
 4119000   0.60468909   -2.5782762   -2.5782762   -1.8265992  0.033852489   -2.5782762   0.75167704   426349 
 4120000   0.60569958   -2.5793732   -2.5793732     -1.82644  0.040457819   -2.5793732   0.75293316   426349 
 4121000   0.60521218   -2.5784713   -2.5784713    -1.826144  0.032204523   -2.5784713   0.75232728   426349 
 4122000   0.60605781   -2.5795002   -2.5795002   -1.8261218  0.036237477   -2.5795002   0.75337846   426349 
 4123000   0.60593422   -2.5793595   -2.5793595   -1.8261347  0.040289725   -2.5793595   0.75322483   426349 
 4124000    0.6056861   -2.5792768   -2.5792768   -1.8263604  0.030944868   -2.5792768    0.7529164   426349 
 4125000   0.60564494   -2.5791561   -2.5791561   -1.8262909  0.044653181   -2.5791561   0.75286523   426349 
 4126000    0.6059426   -2.5787142   -2.5787142    -1.825479  0.036040235   -2.5787142   0.75323524   426349 
 4127000   0.60614672   -2.5794081   -2.5794081   -1.8259191  0.036953834   -2.5794081   0.75348898   426349 
 4128000   0.60682483   -2.5802896   -2.5802896   -1.8259576  0.041243883   -2.5802896   0.75433193   426349 
 4129000   0.60565345   -2.5791308   -2.5791308    -1.826255  0.041396897   -2.5791308   0.75287581   426349 
 4130000   0.60657729   -2.5803253   -2.5803253   -1.8263011  0.040974861   -2.5803253   0.75402422   426349 
 4131000   0.60746215   -2.5810826   -2.5810826   -1.8259585  0.036834312   -2.5810826   0.75512417   426349 
 4132000   0.60576436   -2.5790506   -2.5790506   -1.8260369  0.039511276   -2.5790506   0.75301368   426349 
 4133000   0.60546998   -2.5779219   -2.5779219   -1.8252742  0.043192479   -2.5779219   0.75264774   426349 
 4134000   0.60465701   -2.5765368   -2.5765368   -1.8248997  0.034977488   -2.5765368   0.75163716   426349 
 4135000   0.60519842   -2.5770701   -2.5770701     -1.82476  0.033367532   -2.5770701   0.75231017   426349 
 4136000   0.60389316   -2.5760919   -2.5760919   -1.8254042  0.038444269   -2.5760919   0.75068763   426349 
 4137000   0.60418901   -2.5759886   -2.5759886   -1.8249332  0.037959049   -2.5759886    0.7510554   426349 
 4138000   0.60441467   -2.5760183   -2.5760183   -1.8246823  0.041981958   -2.5760183   0.75133591   426349 
 4139000   0.60378943   -2.5760157   -2.5760157    -1.825457  0.037344555   -2.5760157   0.75055868   426349 
 4140000   0.60526248   -2.5774624   -2.5774624   -1.8250726  0.031747628   -2.5774624    0.7523898   426349 
 4141000   0.60593467   -2.5779394   -2.5779394    -1.824714  0.040880283   -2.5779394   0.75322539   426349 
 4142000   0.60555234    -2.577647    -2.577647   -1.8248969  0.030438498    -2.577647   0.75275013   426349 
 4143000   0.60475951   -2.5764319   -2.5764319   -1.8246673  0.032080587   -2.5764319   0.75176457   426349 
 4144000   0.60599382   -2.5771333   -2.5771333   -1.8238344  0.043670355   -2.5771333   0.75329892   426349 
 4145000   0.60549269   -2.5758682   -2.5758682   -1.8231923  0.042107731   -2.5758682   0.75267598   426349 
 4146000   0.60634956   -2.5776689   -2.5776689   -1.8239277  0.041000228   -2.5776689   0.75374114   426349 
 4147000   0.60558396   -2.5762763   -2.5762763   -1.8234869  0.042410932   -2.5762763   0.75278944   426349 
 4148000    0.6070315   -2.5782004   -2.5782004   -1.8236116  0.037680397   -2.5782004   0.75458884   426349 
 4149000   0.60659658   -2.5776932   -2.5776932   -1.8236451  0.037443914   -2.5776932    0.7540482   426349 
 4150000   0.60566459   -2.5762188   -2.5762188   -1.8233292  0.037753909   -2.5762188   0.75288966   426349 
 4151000   0.60618463   -2.5772888   -2.5772888   -1.8237527   0.04150557   -2.5772888   0.75353611   426349 
 4152000   0.60745293   -2.5785491   -2.5785491   -1.8234364  0.036666579   -2.5785491    0.7551127   426349 
 4153000   0.60552945   -2.5770746   -2.5770746   -1.8243529  0.029638371   -2.5770746   0.75272167   426349 
 4154000   0.60576591   -2.5775874   -2.5775874   -1.8245718  0.029597911   -2.5775874   0.75301561   426349 
 4155000   0.60555456   -2.5774749   -2.5774749    -1.824722  0.042348128   -2.5774749   0.75275288   426349 
 4156000   0.60572148    -2.577279    -2.577279   -1.8243187  0.034059807    -2.577279   0.75296038   426349 
 4157000   0.60613494   -2.5781099   -2.5781099   -1.8246355  0.030940884   -2.5781099   0.75347435   426349 
 4158000   0.60544617   -2.5773259   -2.5773259   -1.8247078  0.037592817   -2.5773259   0.75261815   426349 
 4159000   0.60613471   -2.5778632   -2.5778632   -1.8243891  0.039932053   -2.5778632   0.75347406   426349 
 4160000   0.60625246   -2.5779359   -2.5779359   -1.8243154  0.036120723   -2.5779359   0.75362043   426349 
 4161000   0.60641488   -2.5785886   -2.5785886   -1.8247662  0.046507788   -2.5785886   0.75382233   426349 
 4162000   0.60721203   -2.5795205   -2.5795205   -1.8247072  0.034808062   -2.5795205   0.75481325   426349 
 4163000   0.60618643   -2.5786703   -2.5786703    -1.825132  0.032680588   -2.5786703   0.75353835   426349 
 4164000   0.60600466   -2.5789186   -2.5789186   -1.8256062  0.035566521   -2.5789186   0.75331239   426349 
 4165000   0.60628022   -2.5798753   -2.5798753   -1.8262203  0.029352275   -2.5798753   0.75365494   426349 
 4166000   0.60500574    -2.578379    -2.578379   -1.8263084  0.041704149    -2.578379   0.75207066   426349 
 4167000   0.60566539   -2.5790398   -2.5790398   -1.8261491  0.033051237   -2.5790398   0.75289066   426349 
 4168000   0.60463737   -2.5770125   -2.5770125   -1.8253998  0.036892197   -2.5770125   0.75161275   426349 
 4169000   0.60564483   -2.5787442   -2.5787442   -1.8258791  0.043432983   -2.5787442    0.7528651   426349 
 4170000   0.60487816   -2.5775523   -2.5775523   -1.8256402  0.035730474   -2.5775523   0.75191206   426349 
 4171000    0.6059062   -2.5791735   -2.5791735   -1.8259835  0.028005695   -2.5791735      0.75319   426349 
 4172000   0.60542437   -2.5789995   -2.5789995   -1.8264084  0.041444807   -2.5789995   0.75259105   426349 
 4173000   0.60642966   -2.5806413   -2.5806413   -1.8268006  0.035203816   -2.5806413    0.7538407   426349 
 4174000   0.60553023   -2.5793545   -2.5793545   -1.8266319  0.035274346   -2.5793545   0.75272264   426349 
 4175000   0.60630138   -2.5803018   -2.5803018   -1.8266206  0.040003268   -2.5803018   0.75368124   426349 
 4176000   0.60646232   -2.5808757   -2.5808757   -1.8269944  0.036551286   -2.5808757   0.75388131   426349 
 4177000   0.60575788    -2.580197    -2.580197   -1.8271914  0.041579332    -2.580197   0.75300562   426349 
 4178000   0.60671585   -2.5810128   -2.5810128   -1.8268163  0.043118414   -2.5810128   0.75419646   426349 
 4179000   0.60574558   -2.5808473   -2.5808473    -1.827857   0.03365521   -2.5808473   0.75299034   426349 
 4180000   0.60630162   -2.5810742   -2.5810742   -1.8273926  0.049712485   -2.5810742   0.75368153   426349 
 4181000   0.60649474   -2.5809585   -2.5809585   -1.8270369  0.042209565   -2.5809585    0.7539216   426349 
 4182000   0.60618361   -2.5805223   -2.5805223   -1.8269875  0.044821075   -2.5805223   0.75353484   426349 
 4183000    0.6067227   -2.5815287   -2.5815287   -1.8273237  0.034966635   -2.5815287   0.75420497   426349 
 4184000   0.60593072   -2.5808274   -2.5808274   -1.8276069  0.035899917   -2.5808274   0.75322049   426349 
 4185000   0.60476827   -2.5794443   -2.5794443   -1.8276688  0.032061649   -2.5794443   0.75177546   426349 
 4186000   0.60402481   -2.5787769   -2.5787769   -1.8279256  0.027228251   -2.5787769   0.75085128   426349 
 4187000   0.60432245   -2.5792422   -2.5792422   -1.8280209  0.038391263   -2.5792422   0.75122127   426349 
 4188000    0.6043226   -2.5787533   -2.5787533   -1.8275318  0.031279868   -2.5787533   0.75122146   426349 
 4189000   0.60374916   -2.5774416   -2.5774416    -1.826933  0.042552898   -2.5774416   0.75050862   426349 
 4190000   0.60372602   -2.5772802   -2.5772802   -1.8268004  0.035574461   -2.5772802   0.75047986   426349 
 4191000   0.60527911   -2.5788954   -2.5788954   -1.8264849  0.035241046   -2.5788954   0.75241048   426349 
 4192000   0.60553079   -2.5784171   -2.5784171   -1.8256938  0.031958156   -2.5784171   0.75272333   426349 
 4193000   0.60571197   -2.5782887   -2.5782887   -1.8253402  0.035689738   -2.5782887   0.75294856   426349 
 4194000   0.60541935   -2.5776186   -2.5776186   -1.8250338  0.039130513   -2.5776186    0.7525848   426349 
 4195000   0.60585559   -2.5787739   -2.5787739   -1.8256468  0.041301751   -2.5787739   0.75312709   426349 
 4196000   0.60663212   -2.5790916   -2.5790916   -1.8249992  0.037306004   -2.5790916   0.75409238   426349 
 4197000   0.60547892   -2.5772374   -2.5772374   -1.8245786  0.047584111   -2.5772374   0.75265885   426349 
 4198000   0.60676503   -2.5790068   -2.5790068   -1.8247492  0.036451317   -2.5790068    0.7542576   426349 
 4199000   0.60507069   -2.5772267   -2.5772267   -1.8250753   0.03755497   -2.5772267    0.7521514   426349 
 4200000   0.60603226   -2.5786538   -2.5786538   -1.8253071  0.028358246   -2.5786538   0.75334671   426349 
 4201000   0.60679334   -2.5791189   -2.5791189   -1.8248261  0.032917422   -2.5791189   0.75429278   426349 
 4202000   0.60668927   -2.5791468   -2.5791468   -1.8249834  0.036415041   -2.5791468   0.75416342   426349 
 4203000   0.60471619   -2.5765858   -2.5765858   -1.8248751  0.039277117   -2.5765858   0.75171072   426349 
 4204000   0.60542493   -2.5780992   -2.5780992   -1.8255075  0.030134911   -2.5780992   0.75259174   426349 
 4205000   0.60560614   -2.5785339   -2.5785339   -1.8257169  0.031352386   -2.5785339     0.752817   426349 
 4206000   0.60539364   -2.5782922   -2.5782922   -1.8257393  0.038976889   -2.5782922   0.75255284   426349 
 4207000   0.60463654   -2.5779334   -2.5779334   -1.8263217  0.039083782   -2.5779334   0.75161172   426349 
 4208000   0.60489304    -2.578517    -2.578517   -1.8265865  0.038282902    -2.578517   0.75193056   426349 
 4209000   0.60575083   -2.5795442   -2.5795442   -1.8265473  0.042065498   -2.5795442   0.75299687   426349 
 4210000   0.60425543   -2.5778963   -2.5778963   -1.8267583  0.036704932   -2.5778963   0.75113796   426349 
 4211000   0.60586442   -2.5796158   -2.5796158   -1.8264778  0.032862665   -2.5796158   0.75313807   426349 
 4212000   0.60630644   -2.5801893   -2.5801893   -1.8265018  0.032195956   -2.5801893   0.75368753   426349 
 4213000   0.60584007   -2.5795815   -2.5795815   -1.8264737  0.046583521   -2.5795815    0.7531078   426349 
 4214000   0.60616043   -2.5800845   -2.5800845   -1.8265785  0.043443796   -2.5800845   0.75350603   426349 
 4215000   0.60704654   -2.5815183   -2.5815183   -1.8269108  0.034309908   -2.5815183   0.75460753   426349 
 4216000   0.60578889   -2.5792099   -2.5792099   -1.8261658  0.041712176   -2.5792099   0.75304417   426349 
 4217000   0.60622945    -2.580342    -2.580342   -1.8267502  0.035456844    -2.580342   0.75359182   426349 
 4218000   0.60672339   -2.5810173   -2.5810173   -1.8268115  0.034664551   -2.5810173   0.75420583   426349 
 4219000    0.6064341   -2.5804742   -2.5804742    -1.826628  0.031363745   -2.5804742   0.75384622   426349 
 4220000   0.60483603   -2.5794927   -2.5794927   -1.8276331  0.032804835   -2.5794927   0.75185969   426349 
 4221000   0.60463627   -2.5791845   -2.5791845   -1.8275731  0.039224997   -2.5791845   0.75161138   426349 
 4222000   0.60495304   -2.5790082   -2.5790082    -1.827003  0.031943692   -2.5790082   0.75200515   426349 
 4223000   0.60471865   -2.5793909   -2.5793909   -1.8276771  0.032754373   -2.5793909   0.75171378   426349 
 4224000    0.6050181   -2.5791831   -2.5791831    -1.827097  0.032377383   -2.5791831   0.75208602   426349 
 4225000   0.60529787   -2.5797888   -2.5797888    -1.827355  0.032911864   -2.5797888    0.7524338   426349 
 4226000    0.6041985   -2.5786084   -2.5786084   -1.8275412  0.028734957   -2.5786084    0.7510672   426349 
 4227000   0.60518609   -2.5789654   -2.5789654   -1.8266706  0.036454089   -2.5789654   0.75229485   426349 
 4228000   0.60505625     -2.57873     -2.57873   -1.8265966  0.033744534     -2.57873   0.75213345   426349 
 4229000   0.60487661   -2.5784205   -2.5784205   -1.8265104  0.030100003   -2.5784205   0.75191014   426349 
 4230000   0.60580826   -2.5793577   -2.5793577   -1.8262894  0.037892654   -2.5793577   0.75306826   426349 
 4231000   0.60608603   -2.5796637   -2.5796637   -1.8262501  0.037749122   -2.5796637   0.75341354   426349 
 4232000   0.60567899   -2.5787297   -2.5787297   -1.8258222   0.04311102   -2.5787297   0.75290756   426349 
 4233000   0.60606015   -2.5798981   -2.5798981   -1.8265167  0.036508364   -2.5798981   0.75338137   426349 
 4234000   0.60541942   -2.5799109   -2.5799109    -1.827326  0.043478514   -2.5799109    0.7525849   426349 
 4235000   0.60596338   -2.5799143   -2.5799143   -1.8266532  0.034904682   -2.5799143   0.75326108   426349 
 4236000   0.60660148   -2.5810627   -2.5810627   -1.8270084  0.042453554   -2.5810627   0.75405429   426349 
 4237000    0.6067707   -2.5805675   -2.5805675   -1.8263029  0.033543175   -2.5805675   0.75426464   426349 
 4238000   0.60556699   -2.5796147   -2.5796147   -1.8268464  0.037278449   -2.5796147   0.75276833   426349 
 4239000   0.60707614   -2.5812321   -2.5812321   -1.8265878  0.035306222   -2.5812321   0.75464433   426349 
 4240000   0.60656079   -2.5808749   -2.5808749   -1.8268711  0.040406259   -2.5808749   0.75400371   426349 
 4241000    0.6064569   -2.5801029   -2.5801029   -1.8262283  0.033898588   -2.5801029   0.75387456   426349 
 4242000   0.60539684   -2.5788938   -2.5788938    -1.826337  0.042398107   -2.5788938   0.75255682   426349 
 4243000   0.60551164   -2.5794566   -2.5794566   -1.8267571  0.040341304   -2.5794566   0.75269953   426349 
 4244000   0.60586437   -2.5801854   -2.5801854   -1.8270474  0.032811953   -2.5801854     0.753138   426349 
 4245000   0.60489008     -2.57888     -2.57888   -1.8269531  0.042713825     -2.57888   0.75192688   426349 
 4246000   0.60455892   -2.5788313   -2.5788313   -1.8273161  0.036053325   -2.5788313   0.75151522   426349 
 4247000   0.60478459   -2.5785818   -2.5785818   -1.8267861  0.036672233   -2.5785818   0.75179575   426349 
 4248000   0.60440446   -2.5782811   -2.5782811   -1.8269579  0.036557276   -2.5782811   0.75132321   426349 
 4249000   0.60426512   -2.5781511   -2.5781511   -1.8270011  0.028728868   -2.5781511   0.75115001   426349 
 4250000   0.60391343   -2.5771578   -2.5771578    -1.826445  0.035206811   -2.5771578   0.75071283   426349 
 4251000   0.60525356   -2.5788623   -2.5788623   -1.8264836  0.034063956   -2.5788623   0.75237871   426349 
 4252000   0.60514123   -2.5783747   -2.5783747   -1.8261356  0.040854077   -2.5783747   0.75223908   426349 
 4253000   0.60398873   -2.5778554   -2.5778554    -1.827049  0.038706774   -2.5778554   0.75080643   426349 
 4254000   0.60542355   -2.5785673   -2.5785673   -1.8259772  0.030614269   -2.5785673   0.75259003   426349 
 4255000   0.60464171   -2.5781188   -2.5781188   -1.8265007  0.036483624   -2.5781188   0.75161813   426349 
 4256000   0.60609662    -2.578547    -2.578547   -1.8251203  0.043930093    -2.578547    0.7534267   426349 
 4257000   0.60653022   -2.5791868   -2.5791868   -1.8252211  0.035258875   -2.5791868   0.75396571   426349 
 4258000   0.60549811   -2.5779023   -2.5779023   -1.8252196  0.040582987   -2.5779023   0.75268271   426349 
 4259000   0.60539628   -2.5778896   -2.5778896   -1.8253335  0.037740818   -2.5778896   0.75255613   426349 
 4260000   0.60670427   -2.5796194   -2.5796194   -1.8254373  0.035305152   -2.5796194   0.75418206   426349 
 4261000   0.60537793   -2.5793996   -2.5793996   -1.8268663  0.040413542   -2.5793996   0.75253331   426349 
 4262000   0.60594437   -2.5794065   -2.5794065    -1.826169  0.027652519   -2.5794065   0.75323745   426349 
 4263000   0.60498608   -2.5786407   -2.5786407   -1.8265945  0.031762857   -2.5786407   0.75204622   426349 
 4264000   0.60495296   -2.5781111   -2.5781111   -1.8261061  0.032279973   -2.5781111   0.75200505   426349 
 4265000   0.60581655   -2.5795364   -2.5795364   -1.8264578  0.037068332   -2.5795364   0.75307856   426349 
 4266000   0.60523079   -2.5789233   -2.5789233   -1.8265728  0.034482809   -2.5789233   0.75235041   426349 
 4267000    0.6050248   -2.5787689   -2.5787689   -1.8266745  0.035400465   -2.5787689   0.75209435   426349 
 4268000   0.60515143   -2.5792803   -2.5792803   -1.8270286   0.03600502   -2.5792803   0.75225176   426349 
 4269000   0.60557838   -2.5794287   -2.5794287   -1.8266463  0.038248206   -2.5794287   0.75278249   426349 
 4270000   0.60501004   -2.5792566   -2.5792566   -1.8271806  0.040330452   -2.5792566   0.75207601   426349 
 4271000   0.60551516   -2.5792108   -2.5792108   -1.8265069   0.03539998   -2.5792108    0.7527039   426349 
 4272000   0.60652377   -2.5808617   -2.5808617    -1.826904  0.031421306   -2.5808617   0.75395769   426349 
 4273000   0.60534895   -2.5797768   -2.5797768   -1.8272795  0.035378663   -2.5797768   0.75249729   426349 
 4274000   0.60582227   -2.5798769   -2.5798769   -1.8267912  0.029339559   -2.5798769   0.75308566   426349 
 4275000   0.60536091   -2.5795182   -2.5795182    -1.827006  0.033280957   -2.5795182   0.75251215   426349 
 4276000   0.60537121   -2.5803456   -2.5803456   -1.8278206  0.039536838   -2.5803456   0.75252497   426349 
 4277000   0.60509177   -2.5798819   -2.5798819   -1.8277043  0.033089154   -2.5798819    0.7521776   426349 
 4278000   0.60385458   -2.5786677   -2.5786677    -1.828028  0.035200343   -2.5786677   0.75063967   426349 
 4279000   0.60455576   -2.5794026   -2.5794026   -1.8278913  0.030544518   -2.5794026   0.75151129   426349 
 4280000    0.6038583   -2.5777424   -2.5777424   -1.8270981  0.045336206   -2.5777424    0.7506443   426349 
 4281000   0.60527068   -2.5798835   -2.5798835   -1.8274835  0.037040511   -2.5798835       0.7524   426349 
 4282000   0.60521238   -2.5800502   -2.5800502   -1.8277227  0.035205215   -2.5800502   0.75232752   426349 
 4283000   0.60556938    -2.579563    -2.579563   -1.8267917  0.040968455    -2.579563   0.75277131   426349 
 4284000   0.60517865    -2.579844    -2.579844   -1.8275584  0.031016126    -2.579844    0.7522856   426349 
 4285000   0.60609212   -2.5800758   -2.5800758   -1.8266547  0.043002482   -2.5800758   0.75342111   426349 
 4286000   0.60546466   -2.5797488   -2.5797488   -1.8271076  0.044712886   -2.5797488   0.75264114   426349 
 4287000   0.60652326   -2.5810843   -2.5810843   -1.8271272  0.033195936   -2.5810843   0.75395706   426349 
 4288000   0.60599589   -2.5811396   -2.5811396   -1.8278381  0.035487433   -2.5811396   0.75330149   426349 
 4289000   0.60565104    -2.580731    -2.580731   -1.8278582  0.036973929    -2.580731   0.75287281   426349 
 4290000   0.60484815   -2.5799821   -2.5799821   -1.8281073  0.034139879   -2.5799821   0.75187476   426349 
 4291000     0.604755   -2.5806157   -2.5806157   -1.8288568  0.030224835   -2.5806157   0.75175896   426349 
 4292000   0.60554138   -2.5812907   -2.5812907   -1.8285542  0.039259109   -2.5812907    0.7527365   426349 
 4293000   0.60504845   -2.5807567   -2.5807567    -1.828633  0.036216726   -2.5807567   0.75212374   426349 
 4294000    0.6057896   -2.5817669   -2.5817669   -1.8287218  0.033718272   -2.5817669   0.75304506   426349 
 4295000    0.6046537   -2.5796878   -2.5796878   -1.8280548  0.040201858   -2.5796878   0.75163304   426349 
 4296000   0.60618642   -2.5814421   -2.5814421   -1.8279038  0.037219923   -2.5814421   0.75353834   426349 
 4297000   0.60621256   -2.5816311   -2.5816311   -1.8280602   0.03342087   -2.5816311   0.75357083   426349 
 4298000   0.60502033   -2.5796285   -2.5796285   -1.8275397  0.033248777   -2.5796285   0.75208879   426349 
 4299000    0.6044623   -2.5799511   -2.5799511    -1.828556  0.035572947   -2.5799511   0.75139511   426349 
 4300000   0.60515295   -2.5808193   -2.5808193   -1.8285656   0.03315898   -2.5808193   0.75225365   426349 
 4301000   0.60579483   -2.5811609   -2.5811609   -1.8281093  0.038670287   -2.5811609   0.75305156   426349 
 4302000   0.60563121   -2.5807328   -2.5807328   -1.8278846  0.035859957   -2.5807328   0.75284816   426349 
 4303000   0.60480974    -2.581002    -2.581002    -1.829175   0.03544388    -2.581002   0.75182702   426349 
 4304000   0.60467645   -2.5806943   -2.5806943   -1.8290329   0.03096783   -2.5806943   0.75166133   426349 
 4305000   0.60458814   -2.5805358   -2.5805358   -1.8289843  0.037776938   -2.5805358   0.75155155   426349 
 4306000   0.60449555   -2.5796937   -2.5796937   -1.8282572  0.034246967   -2.5796937   0.75143645   426349 
 4307000   0.60393485    -2.579325    -2.579325   -1.8285856  0.042433929    -2.579325   0.75073946   426349 
 4308000   0.60386651   -2.5793396   -2.5793396   -1.8286851  0.038578303   -2.5793396   0.75065451   426349 
 4309000   0.60471116   -2.5806533   -2.5806533   -1.8289488  0.035848605   -2.5806533   0.75170448   426349 
 4310000   0.60406877   -2.5798122   -2.5798122   -1.8289063  0.038316869   -2.5798122   0.75090593   426349 
 4311000   0.60501632   -2.5800554   -2.5800554   -1.8279716  0.031424027   -2.5800554   0.75208381   426349 
 4312000   0.60598352   -2.5808193   -2.5808193   -1.8275332  0.044679741   -2.5808193   0.75328612   426349 
 4313000   0.60432848   -2.5797045   -2.5797045   -1.8284757  0.035723166   -2.5797045   0.75122877   426349 
 4314000   0.60446139   -2.5803487   -2.5803487   -1.8289547   0.04206488   -2.5803487   0.75139399   426349 
 4315000   0.60437023   -2.5797622   -2.5797622   -1.8284815  0.038382659   -2.5797622   0.75128066   426349 
 4316000   0.60451943   -2.5805442   -2.5805442   -1.8290781  0.034381277   -2.5805442   0.75146613   426349 
 4317000   0.60392067   -2.5796494   -2.5796494   -1.8289276  0.033615402   -2.5796494   0.75072183   426349 
 4318000   0.60532841   -2.5818646   -2.5818646   -1.8293928  0.037799807   -2.5818646   0.75247177   426349 
 4319000   0.60512516   -2.5809617   -2.5809617   -1.8287426  0.039097726   -2.5809617   0.75221911   426349 
 4320000   0.60567349   -2.5816338   -2.5816338   -1.8287331  0.036541189   -2.5816338   0.75290072   426349 
 4321000   0.60494169   -2.5807865   -2.5807865   -1.8287954  0.038524508   -2.5807865   0.75199104   426349 
 4322000   0.60510301   -2.5810243   -2.5810243   -1.8288328   0.03798261   -2.5810243   0.75219157   426349 
 4323000   0.60545488   -2.5811119   -2.5811119    -1.828483  0.039925521   -2.5811119   0.75262898   426349 
 4324000   0.60667993   -2.5827807   -2.5827807   -1.8286289  0.028462984   -2.5827807   0.75415181   426349 
 4325000   0.60647834    -2.582223    -2.582223   -1.8283217  0.037762241    -2.582223   0.75390122   426349 
 4326000   0.60460786   -2.5797321   -2.5797321    -1.828156  0.043207214   -2.5797321   0.75157606   426349 
 4327000   0.60581877   -2.5804244   -2.5804244   -1.8273431  0.035643107   -2.5804244   0.75308132   426349 
 4328000   0.60510474   -2.5795395   -2.5795395   -1.8273457  0.046599179   -2.5795395   0.75219372   426349 
 4329000   0.60604496    -2.581363    -2.581363   -1.8280005  0.035159927    -2.581363   0.75336249   426349 
 4330000   0.60603883   -2.5811675   -2.5811675   -1.8278126  0.035623575   -2.5811675   0.75335487   426349 
 4331000   0.60610993   -2.5812245   -2.5812245   -1.8277813  0.035217296   -2.5812245   0.75344326   426349 
 4332000    0.6056549   -2.5803039   -2.5803039   -1.8274263  0.040369373   -2.5803039   0.75287761   426349 
 4333000   0.60627038   -2.5811804   -2.5811804   -1.8275377  0.033764666   -2.5811804   0.75364271   426349 
 4334000   0.60495809   -2.5807393   -2.5807393   -1.8287279  0.035802315   -2.5807393   0.75201142   426349 
 4335000   0.60337175    -2.579024    -2.579024   -1.8289845   0.04039534    -2.579024   0.75003948   426349 
 4336000   0.60536983   -2.5809144   -2.5809144   -1.8283911  0.030006924   -2.5809144   0.75252325   426349 
 4337000   0.60480748   -2.5803174   -2.5803174   -1.8284932  0.033577469   -2.5803174    0.7518242   426349 
 4338000   0.60518522   -2.5803517   -2.5803517   -1.8280579  0.042378255   -2.5803517   0.75229376   426349 
 4339000    0.6055787   -2.5808108   -2.5808108   -1.8280279  0.039877879   -2.5808108   0.75278289   426349 
 4340000   0.60498948   -2.5799935   -2.5799935   -1.8279431  0.039214457   -2.5799935   0.75205044   426349 
 4341000   0.60497895   -2.5796672   -2.5796672   -1.8276299  0.039269382   -2.5796672   0.75203736   426349 
 4342000   0.60558155   -2.5807951   -2.5807951   -1.8280086  0.043278623   -2.5807951   0.75278643   426349 
 4343000   0.60583043    -2.580965    -2.580965   -1.8278692  0.031961759    -2.580965   0.75309581   426349 
 4344000   0.60471938   -2.5802917   -2.5802917    -1.828577  0.034824393   -2.5802917   0.75171469   426349 
 4345000    0.6048054     -2.58007     -2.58007   -1.8282484  0.033321111     -2.58007   0.75182162   426349 
 4346000   0.60396185   -2.5790916   -2.5790916   -1.8283186  0.035790553   -2.5790916   0.75077301   426349 
 4347000   0.60455205   -2.5787313   -2.5787313   -1.8272246  0.029823867   -2.5787313   0.75150668   426349 
 4348000   0.60604653   -2.5808151   -2.5808151   -1.8274506  0.035995933   -2.5808151   0.75336445   426349 
 4349000   0.60645099   -2.5812608   -2.5812608   -1.8273936  0.035630601   -2.5812608   0.75386721   426349 
 4350000   0.60564136    -2.580191    -2.580191   -1.8273302  0.043626926    -2.580191   0.75286078   426349 
 4351000   0.60475113    -2.578852    -2.578852   -1.8270979  0.037609587    -2.578852   0.75175415   426349 
 4352000   0.60431588   -2.5782541   -2.5782541    -1.827041  0.032458877   -2.5782541    0.7512131   426349 
 4353000    0.6058013   -2.5801771   -2.5801771   -1.8271175   0.03143469   -2.5801771    0.7530596   426349 
 4354000     0.605438   -2.5787632   -2.5787632   -1.8261552  0.039161518   -2.5787632   0.75260798   426349 
 4355000   0.60576109   -2.5797566   -2.5797566    -1.826747  0.037166042   -2.5797566   0.75300962   426349 
 4356000   0.60560911   -2.5796392   -2.5796392   -1.8268185  0.041548245   -2.5796392   0.75282069   426349 
 4357000   0.60606465   -2.5800081   -2.5800081   -1.8266211  0.029770924   -2.5800081   0.75338696   426349 
 4358000   0.60552105   -2.5788981   -2.5788981   -1.8261869  0.034520653   -2.5788981   0.75271122   426349 
 4359000   0.60631622   -2.5808555   -2.5808555   -1.8271558  0.034990234   -2.5808555   0.75369968   426349 
 4360000    0.6051052   -2.5792664   -2.5792664   -1.8270721  0.036615796   -2.5792664   0.75219429   426349 
 4361000   0.60491519   -2.5791005   -2.5791005   -1.8271424  0.031707418   -2.5791005    0.7519581   426349 
 4362000   0.60606688   -2.5797496   -2.5797496   -1.8263598   0.03399048   -2.5797496   0.75338974   426349 
 4363000   0.60601161   -2.5801465   -2.5801465   -1.8268255  0.039562617   -2.5801465   0.75332103   426349 
 4364000   0.60562525   -2.5801458   -2.5801458    -1.827305  0.037351966   -2.5801458   0.75284076   426349 
 4365000   0.60423949   -2.5785031   -2.5785031    -1.827385  0.032475453   -2.5785031   0.75111815   426349 
 4366000   0.60439279   -2.5781972   -2.5781972   -1.8268885  0.037403044   -2.5781972   0.75130871   426349 
 4367000   0.60583545   -2.5798272   -2.5798272   -1.8267251  0.034998507   -2.5798272   0.75310205   426349 
 4368000   0.60520207   -2.5797462   -2.5797462   -1.8274315   0.04420019   -2.5797462   0.75231471   426349 
 4369000   0.60492194   -2.5798743   -2.5798743   -1.8279079    0.0313424   -2.5798743   0.75196648   426349 
 4370000   0.60519267   -2.5795576   -2.5795576   -1.8272546  0.032661027   -2.5795576   0.75230303   426349 
 4371000   0.60686036   -2.5811002   -2.5811002   -1.8267241  0.037542019   -2.5811002    0.7543761   426349 
 4372000   0.60585988   -2.5801654   -2.5801654    -1.827033  0.042696574   -2.5801654   0.75313242   426349 
 4373000   0.60598548    -2.580318    -2.580318   -1.8270294  0.037337302    -2.580318   0.75328855   426349 
 4374000   0.60503153   -2.5795816   -2.5795816   -1.8274789  0.038005048   -2.5795816   0.75210271   426349 
 4375000   0.60623343   -2.5814682   -2.5814682   -1.8278714  0.038054746   -2.5814682   0.75359677   426349 
 4376000   0.60502046   -2.5798659   -2.5798659    -1.827777  0.041485224   -2.5798659   0.75208895   426349 
 4377000   0.60549891   -2.5799979   -2.5799979   -1.8273142   0.03281663   -2.5799979   0.75268371   426349 
 4378000   0.60467491   -2.5803147   -2.5803147   -1.8286553  0.037577819   -2.5803147    0.7516594   426349 
 4379000   0.60539106   -2.5808843   -2.5808843   -1.8283347  0.036986836   -2.5808843   0.75254964   426349 
 4380000   0.60500807   -2.5797649   -2.5797649   -1.8276913   0.04290765   -2.5797649   0.75207355   426349 
 4381000   0.60566486   -2.5799653   -2.5799653   -1.8270753  0.033758531   -2.5799653      0.75289   426349 
 4382000   0.60507648   -2.5788659   -2.5788659   -1.8267073  0.032487364   -2.5788659    0.7521586   426349 
 4383000   0.60422343   -2.5772113   -2.5772113   -1.8261131  0.032006757   -2.5772113   0.75109818   426349 
 4384000   0.60365048   -2.5777376   -2.5777376   -1.8273517  0.028714395   -2.5777376   0.75038595   426349 
 4385000   0.60477137   -2.5786067   -2.5786067   -1.8268274  0.029163489   -2.5786067   0.75177932   426349 
 4386000   0.60505722    -2.579137    -2.579137   -1.8270023  0.036767503    -2.579137   0.75213465   426349 
 4387000   0.60481199   -2.5796988   -2.5796988    -1.827869  0.043755953   -2.5796988   0.75182981   426349 
 4388000   0.60516694   -2.5797476   -2.5797476   -1.8274765  0.029706419   -2.5797476   0.75227104   426349 
 4389000   0.60531026   -2.5793118   -2.5793118   -1.8268626  0.030326946   -2.5793118    0.7524492   426349 
 4390000   0.60528951   -2.5791278   -2.5791278   -1.8267044  0.029933212   -2.5791278    0.7524234   426349 
 4391000   0.60500775   -2.5782346   -2.5782346   -1.8261614  0.044423055   -2.5782346   0.75207315   426349 
 4392000   0.60519297   -2.5789534   -2.5789534     -1.82665  0.040183458   -2.5789534    0.7523034   426349 
 4393000   0.60424274   -2.5779387   -2.5779387   -1.8268165  0.044446997   -2.5779387   0.75112219   426349 
 4394000   0.60510707   -2.5792448   -2.5792448   -1.8270482  0.034566467   -2.5792448   0.75219661   426349 
 4395000    0.6048352   -2.5793062   -2.5793062   -1.8274475  0.037561818   -2.5793062   0.75185866   426349 
 4396000   0.60441241   -2.5791949   -2.5791949   -1.8278618  0.036168469   -2.5791949    0.7513331   426349 
 4397000    0.6048428   -2.5792521   -2.5792521    -1.827384  0.033203175   -2.5792521    0.7518681   426349 
 4398000   0.60515072   -2.5796979   -2.5796979   -1.8274471  0.037883572   -2.5796979   0.75225088   426349 
 4399000   0.60549793   -2.5798686   -2.5798686   -1.8271861  0.042772788   -2.5798686   0.75268249   426349 
 4400000    0.6066044   -2.5812141   -2.5812141   -1.8271561  0.035356583   -2.5812141   0.75405792   426349 
 4401000   0.60645813   -2.5809965   -2.5809965   -1.8271204  0.047904276   -2.5809965   0.75387609   426349 
 4402000   0.60787083   -2.5824936   -2.5824936   -1.8268614  0.031168316   -2.5824936   0.75563219   426349 
 4403000   0.60714086   -2.5813614   -2.5813614   -1.8266366  0.036076289   -2.5813614   0.75472478   426349 
 4404000   0.60592436   -2.5801933   -2.5801933   -1.8269808  0.042532336   -2.5801933   0.75321257   426349 
 4405000   0.60662299   -2.5804792   -2.5804792   -1.8263982  0.047057154   -2.5804792   0.75408103   426349 
 4406000   0.60598405   -2.5793445   -2.5793445   -1.8260577  0.038234905   -2.5793445   0.75328677   426349 
 4407000   0.60610331   -2.5791214   -2.5791214   -1.8256864  0.051584311   -2.5791214   0.75343503   426349 
 4408000   0.60603732   -2.5789418   -2.5789418   -1.8255888  0.035931216   -2.5789418     0.753353   426349 
 4409000   0.60637707   -2.5796769   -2.5796769   -1.8259016  0.035772044   -2.5796769   0.75377533   426349 
 4410000   0.60525632   -2.5787604   -2.5787604   -1.8263783  0.043863954   -2.5787604   0.75238215   426349 
 4411000   0.60496309   -2.5794306   -2.5794306    -1.827413  0.028298092   -2.5794306   0.75201764   426349 
 4412000   0.60388256   -2.5785185   -2.5785185   -1.8278441  0.034106801   -2.5785185   0.75067445   426349 
 4413000   0.60417634   -2.5786279   -2.5786279   -1.8275883  0.030616023   -2.5786279   0.75103964   426349 
 4414000   0.60435681   -2.5783781   -2.5783781   -1.8271141  0.032194975   -2.5783781   0.75126398   426349 
 4415000   0.60473924   -2.5783606   -2.5783606   -1.8266212  0.035801286   -2.5783606   0.75173938   426349 
 4416000   0.60334505    -2.577715    -2.577715   -1.8277087   0.02591505    -2.577715   0.75000628   426349 
 4417000   0.60440927   -2.5779271   -2.5779271   -1.8265979  0.030514128   -2.5779271    0.7513292   426349 
 4418000   0.60484954   -2.5779317   -2.5779317   -1.8260552  0.039125624   -2.5779317   0.75187649   426349 
 4419000   0.60553447   -2.5788636   -2.5788636   -1.8261357  0.038040704   -2.5788636   0.75272791   426349 
 4420000   0.60436221   -2.5775012   -2.5775012   -1.8262305  0.040942233   -2.5775012    0.7512707   426349 
 4421000   0.60604942   -2.5788664   -2.5788664   -1.8254984  0.040351403   -2.5788664   0.75336803   426349 
 4422000   0.60667498   -2.5799363   -2.5799363   -1.8257907  0.024414117   -2.5799363   0.75414566   426349 
 4423000   0.60480158   -2.5777374   -2.5777374   -1.8259206  0.027871333   -2.5777374   0.75181687   426349 
 4424000   0.60512568    -2.578281    -2.578281   -1.8260612  0.040713604    -2.578281   0.75221975   426349 
 4425000   0.60636794   -2.5795568   -2.5795568   -1.8257928  0.040697904   -2.5795568   0.75376399   426349 
 4426000   0.60565996    -2.578527    -2.578527   -1.8256431   0.03941281    -2.578527   0.75288391   426349 
 4427000   0.60596363   -2.5789271   -2.5789271   -1.8256657  0.037961622   -2.5789271   0.75326139   426349 
 4428000   0.60547741   -2.5768263   -2.5768263   -1.8241693  0.032715311   -2.5768263   0.75265698   426349 
 4429000   0.60572709    -2.577767    -2.577767   -1.8247996  0.031247877    -2.577767   0.75296736   426349 
 4430000   0.60586515   -2.5785808   -2.5785808   -1.8254418  0.033998049   -2.5785808   0.75313897   426349 
 4431000   0.60589877   -2.5788773   -2.5788773   -1.8256966  0.035662103   -2.5788773   0.75318076   426349 
 4432000   0.60629977   -2.5792175   -2.5792175   -1.8255382  0.035458599   -2.5792175   0.75367924   426349 
 4433000   0.60574194   -2.5781473   -2.5781473   -1.8251614  0.036450124   -2.5781473   0.75298581   426349 
 4434000   0.60667804   -2.5800408   -2.5800408   -1.8258913  0.035694574   -2.5800408   0.75414946   426349 
 4435000   0.60504383    -2.578649    -2.578649   -1.8265309  0.036668266    -2.578649   0.75211801   426349 
 4436000    0.6065288   -2.5806825   -2.5806825   -1.8267185  0.032838045   -2.5806825   0.75396395   426349 
 4437000   0.60506037   -2.5780437   -2.5780437   -1.8259051  0.037500842   -2.5780437   0.75213857   426349 
 4438000   0.60534925   -2.5784509   -2.5784509   -1.8259533  0.032864305   -2.5784509   0.75249766   426349 
 4439000   0.60637675   -2.5803763   -2.5803763   -1.8266014  0.035146018   -2.5803763   0.75377494   426349 
 4440000   0.60573908   -2.5790939   -2.5790939   -1.8261116  0.039474501   -2.5790939   0.75298226   426349 
 4441000   0.60490441   -2.5790215   -2.5790215   -1.8270768  0.040995141   -2.5790215    0.7519447   426349 
 4442000   0.60491794   -2.5781729   -2.5781729   -1.8262114  0.038912433   -2.5781729   0.75196152   426349 
 4443000   0.60430438   -2.5771995   -2.5771995   -1.8260007   0.03717689   -2.5771995    0.7511988   426349 
 4444000    0.6053966   -2.5777583   -2.5777583   -1.8252018  0.032740815   -2.5777583   0.75255652   426349 
 4445000   0.60462104   -2.5773663   -2.5773663   -1.8257739  0.030299178   -2.5773663   0.75159244   426349 
 4446000   0.60481439   -2.5775653   -2.5775653   -1.8257325   0.02656145   -2.5775653    0.7518328   426349 
 4447000      0.60493   -2.5770877   -2.5770877   -1.8251111  0.034939968   -2.5770877   0.75197651   426349 
 4448000   0.60461528    -2.577088    -2.577088   -1.8255028  0.042036648    -2.577088   0.75158528   426349 
 4449000   0.60463372   -2.5770694   -2.5770694   -1.8254612  0.040852857   -2.5770694   0.75160821   426349 
 4450000   0.60566449   -2.5776824   -2.5776824   -1.8247928  0.040998839   -2.5776824   0.75288954   426349 
 4451000    0.6047839   -2.5764454   -2.5764454   -1.8246505  0.033825889   -2.5764454   0.75179489   426349 
 4452000    0.6045951   -2.5763843   -2.5763843   -1.8248241  0.037833943   -2.5763843   0.75156019   426349 
 4453000   0.60441153   -2.5769383   -2.5769383   -1.8256063  0.037605483   -2.5769383     0.751332   426349 
 4454000   0.60465617   -2.5776135   -2.5776135   -1.8259774  0.031445683   -2.5776135   0.75163612   426349 
 4455000   0.60472337   -2.5776859   -2.5776859   -1.8259663  0.038827063   -2.5776859   0.75171965   426349 
 4456000   0.60515782   -2.5786882   -2.5786882   -1.8264285  0.029094767   -2.5786882   0.75225971   426349 
 4457000   0.60502775   -2.5787448   -2.5787448   -1.8266467  0.037524571   -2.5787448   0.75209802   426349 
 4458000   0.60516148   -2.5782829   -2.5782829   -1.8260187  0.036476707   -2.5782829   0.75226425   426349 
 4459000   0.60533546   -2.5787561   -2.5787561   -1.8262755   0.03632417   -2.5787561   0.75248053   426349 
 4460000   0.60651489   -2.5805472   -2.5805472   -1.8266005  0.033436248   -2.5805472   0.75394665   426349 
 4461000   0.60677749   -2.5809454   -2.5809454   -1.8266723  0.033872029   -2.5809454   0.75427308   426349 
 4462000   0.60678098   -2.5818329   -2.5818329   -1.8275555  0.034521221   -2.5818329   0.75427742   426349 
 4463000   0.60572297   -2.5809213   -2.5809213    -1.827959  0.028141976   -2.5809213   0.75296223   426349 
 4464000   0.60632847   -2.5811703   -2.5811703   -1.8274554  0.035775409   -2.5811703   0.75371491   426349 
 4465000   0.60613429   -2.5822325   -2.5822325    -1.828759   0.03894041   -2.5822325   0.75347354   426349 
 4466000   0.60521782   -2.5813925   -2.5813925   -1.8290583  0.046040001   -2.5813925   0.75233429   426349 
 4467000   0.60501085   -2.5810825   -2.5810825   -1.8290055   0.03933603   -2.5810825   0.75207701   426349 
 4468000   0.60541248   -2.5821456   -2.5821456   -1.8295693  0.036635717   -2.5821456   0.75257627   426349 
 4469000   0.60479344   -2.5814135   -2.5814135   -1.8296068  0.031410206   -2.5814135   0.75180675   426349 
 4470000   0.60606286   -2.5833479   -2.5833479   -1.8299632  0.029137227   -2.5833479   0.75338473   426349 
 4471000   0.60423069   -2.5807314   -2.5807314   -1.8296242  0.036184062   -2.5807314   0.75110721   426349 
 4472000   0.60348392   -2.5803435   -2.5803435   -1.8301646  0.035208998   -2.5803435   0.75017891   426349 
 4473000   0.60618124   -2.5829814   -2.5829814   -1.8294495  0.037811815   -2.5829814    0.7535319   426349 
 4474000   0.60545136   -2.5819894   -2.5819894   -1.8293648  0.036984749   -2.5819894   0.75262459   426349 
 4475000   0.60512276    -2.581137    -2.581137   -1.8289209  0.042505863    -2.581137   0.75221612   426349 
 4476000   0.60415229    -2.579978    -2.579978   -1.8289683  0.040937884    -2.579978   0.75100975   426349 
 4477000   0.60567854   -2.5821776   -2.5821776   -1.8292706  0.038272037   -2.5821776     0.752907   426349 
 4478000   0.60455802   -2.5803176   -2.5803176   -1.8288034   0.02822084   -2.5803176   0.75151411   426349 
 4479000   0.60376583   -2.5795726   -2.5795726   -1.8290433  0.036988141   -2.5795726   0.75052935   426349 
 4480000   0.60553398   -2.5813933   -2.5813933    -1.828666    0.0377665   -2.5813933   0.75272729   426349 
 4481000   0.60429849   -2.5799519   -2.5799519   -1.8287604  0.032018083   -2.5799519   0.75119149   426349 
 4482000   0.60378179   -2.5791539   -2.5791539   -1.8286048  0.033154444   -2.5791539   0.75054919   426349 
 4483000   0.60472649   -2.5802546   -2.5802546    -1.828531  0.037816241   -2.5802546   0.75172353   426349 
 4484000   0.60402798   -2.5790062   -2.5790062    -1.828151  0.033750626   -2.5790062   0.75085522   426349 
 4485000   0.60477953   -2.5794561   -2.5794561   -1.8276666  0.035664659   -2.5794561   0.75178946   426349 
 4486000   0.60404209   -2.5789234   -2.5789234   -1.8280507  0.039731078   -2.5789234   0.75087276   426349 
 4487000   0.60379992   -2.5789895   -2.5789895   -1.8284178  0.035987492   -2.5789895   0.75057172   426349 
 4488000   0.60366556   -2.5789158   -2.5789158   -1.8285111  0.032142009   -2.5789158   0.75040471   426349 
 4489000    0.6054346   -2.5810118   -2.5810118    -1.828408  0.030744706   -2.5810118   0.75260376   426349 
 4490000   0.60450355   -2.5803236   -2.5803236   -1.8288772  0.030953637   -2.5803236    0.7514464   426349 
 4491000   0.60433894   -2.5798846   -2.5798846   -1.8286428  0.037938862   -2.5798846   0.75124177   426349 
 4492000   0.60458342   -2.5803402   -2.5803402   -1.8287946  0.033397445   -2.5803402   0.75154567   426349 
 4493000   0.60525312   -2.5809741   -2.5809741   -1.8285959  0.032028517   -2.5809741   0.75237816   426349 
 4494000   0.60460122   -2.5799589   -2.5799589   -1.8283911  0.026565016   -2.5799589   0.75156781   426349 
 4495000   0.60487219   -2.5802481   -2.5802481   -1.8283435  0.037744472   -2.5802481   0.75190464   426349 
 4496000   0.60569711   -2.5807321   -2.5807321    -1.827802  0.039091029   -2.5807321   0.75293009   426349 
 4497000   0.60613164   -2.5820251   -2.5820251   -1.8285548  0.031979525   -2.5820251   0.75347024   426349 
 4498000   0.60494428   -2.5816959   -2.5816959   -1.8297016  0.042488797   -2.5816959   0.75199426   426349 
 4499000   0.60502996   -2.5818432   -2.5818432   -1.8297424  0.040223163   -2.5818432   0.75210076   426349 
 4500000   0.60353504   -2.5798552   -2.5798552   -1.8296128   0.03996641   -2.5798552   0.75024246   426349 
 4501000    0.6050216   -2.5815944   -2.5815944    -1.829504  0.038090617   -2.5815944   0.75209037   426349 
 4502000   0.60489351   -2.5816961   -2.5816961   -1.8297649  0.034583911   -2.5816961   0.75193114   426349 
 4503000   0.60371464   -2.5807226   -2.5807226   -1.8302569  0.043355406   -2.5807226   0.75046571   426349 
 4504000   0.60503123   -2.5818778   -2.5818778   -1.8297755  0.038961907   -2.5818778   0.75210234   426349 
 4505000   0.60426496   -2.5815793   -2.5815793   -1.8304295  0.033212276   -2.5815793   0.75114981   426349 
 4506000   0.60457261   -2.5819448   -2.5819448   -1.8304126   0.03275097   -2.5819448   0.75153224   426349 
 4507000   0.60521008   -2.5823378   -2.5823378   -1.8300131  0.041631489   -2.5823378   0.75232466   426349 
 4508000   0.60457795   -2.5816772   -2.5816772   -1.8301383  0.039642866   -2.5816772   0.75153888   426349 
 4509000   0.60503706   -2.5808022   -2.5808022   -1.8286926  0.032251447   -2.5808022   0.75210958   426349 
 4510000   0.60649928    -2.582349    -2.582349   -1.8284218  0.030753818    -2.582349   0.75392724   426349 
 4511000   0.60551407   -2.5817913   -2.5817913   -1.8290888  0.044014159   -2.5817913   0.75270255   426349 
 4512000   0.60520967   -2.5814855   -2.5814855   -1.8291614  0.036171283   -2.5814855   0.75232415   426349 
 4513000   0.60530155   -2.5817152   -2.5817152   -1.8292768  0.035610187   -2.5817152   0.75243837   426349 
 4514000   0.60515471   -2.5821475   -2.5821475   -1.8298917  0.033098102   -2.5821475   0.75225583   426349 
 4515000   0.60529706    -2.583254    -2.583254   -1.8308212  0.041263169    -2.583254   0.75243279   426349 
 4516000   0.60484979   -2.5826353   -2.5826353   -1.8307585  0.030099905   -2.5826353   0.75187679   426349 
 4517000    0.6049145   -2.5819271   -2.5819271   -1.8299698  0.029732187   -2.5819271   0.75195724   426349 
 4518000   0.60440679   -2.5801734   -2.5801734   -1.8288473  0.040500357   -2.5801734   0.75132611   426349 
 4519000   0.60475704   -2.5812871   -2.5812871   -1.8295256  0.033452748   -2.5812871    0.7517615   426349 
 4520000    0.6054834   -2.5823979   -2.5823979   -1.8297334  0.040774611   -2.5823979   0.75266443   426349 
 4521000   0.60467239   -2.5814412   -2.5814412   -1.8297849  0.038986044   -2.5814412   0.75165628   426349 
 4522000   0.60584435    -2.583077    -2.583077   -1.8299639  0.031922987    -2.583077   0.75311312   426349 
 4523000   0.60529369   -2.5822409   -2.5822409   -1.8298123  0.035827345   -2.5822409    0.7524286   426349 
 4524000   0.60544776   -2.5817086   -2.5817086   -1.8290885  0.034570581   -2.5817086   0.75262012   426349 
 4525000   0.60439484   -2.5800715   -2.5800715   -1.8287602  0.031347892   -2.5800715   0.75131126   426349 
 4526000   0.60514019   -2.5805893   -2.5805893   -1.8283515  0.043286716   -2.5805893   0.75223779   426349 
 4527000   0.60573416   -2.5811823   -2.5811823   -1.8282061  0.037957812   -2.5811823   0.75297614   426349 
 4528000   0.60489392   -2.5801468   -2.5801468   -1.8282152  0.037056973   -2.5801468   0.75193165   426349 
 4529000   0.60495328   -2.5804113   -2.5804113   -1.8284059  0.033166855   -2.5804113   0.75200544   426349 
 4530000   0.60596989   -2.5810871   -2.5810871   -1.8278179  0.033890751   -2.5810871   0.75326917   426349 
 4531000   0.60514944   -2.5800238   -2.5800238   -1.8277745  0.033299325   -2.5800238   0.75224929   426349 
 4532000   0.60490482    -2.580248    -2.580248   -1.8283028  0.039608118    -2.580248   0.75194521   426349 
 4533000   0.60412638   -2.5796134   -2.5796134   -1.8286358   0.03417976   -2.5796134   0.75097754   426349 
 4534000   0.60600478   -2.5813972   -2.5813972   -1.8280846  0.033007849   -2.5813972   0.75331254   426349 
 4535000   0.60499315    -2.579085    -2.579085     -1.82703  0.029265018    -2.579085   0.75205501   426349 
 4536000   0.60361803   -2.5786011   -2.5786011   -1.8282555  0.034635675   -2.5786011   0.75034562   426349 
 4537000   0.60510921    -2.579711    -2.579711   -1.8275117  0.037722296    -2.579711   0.75219928   426349 
 4538000   0.60504135   -2.5789219   -2.5789219    -1.826807  0.038076057   -2.5789219   0.75211492   426349 
 4539000   0.60520079    -2.579983    -2.579983   -1.8276698  0.038112053    -2.579983   0.75231312   426349 
 4540000   0.60478843     -2.57927     -2.57927   -1.8274695  0.039062557     -2.57927   0.75180053   426349 
 4541000   0.60561589   -2.5799137   -2.5799137   -1.8270846  0.034414866   -2.5799137   0.75282913   426349 
 4542000   0.60519735   -2.5799787   -2.5799787   -1.8276698   0.03798167   -2.5799787   0.75230884   426349 
 4543000   0.60479804   -2.5793293   -2.5793293   -1.8275169  0.030335127   -2.5793293   0.75181247   426349 
 4544000   0.60456754   -2.5789358   -2.5789358   -1.8274099   0.03364181   -2.5789358   0.75152594   426349 
 4545000    0.6050038   -2.5797196   -2.5797196   -1.8276514  0.031032647   -2.5797196   0.75206825   426349 
 4546000   0.60535216   -2.5799746   -2.5799746   -1.8274734  0.029443963   -2.5799746   0.75250129   426349 
 4547000   0.60509555   -2.5804836   -2.5804836   -1.8283013  0.036261807   -2.5804836   0.75218229   426349 
 4548000    0.6044368   -2.5802796   -2.5802796   -1.8289162  0.028093551   -2.5802796   0.75136341   426349 
 4549000   0.60364314   -2.5787518   -2.5787518   -1.8283749  0.035866371   -2.5787518   0.75037684   426349 
 4550000     0.604803   -2.5803962   -2.5803962   -1.8285775  0.036798026   -2.5803962   0.75181864   426349 
 4551000   0.60547383   -2.5800283   -2.5800283   -1.8273758  0.041921111   -2.5800283   0.75265253   426349 
 4552000   0.60432467   -2.5792783   -2.5792783   -1.8280543  0.042233623   -2.5792783   0.75122403   426349 
 4553000   0.60341933   -2.5786087   -2.5786087   -1.8285101  0.036621537   -2.5786087   0.75009863   426349 
 4554000   0.60357019   -2.5795345   -2.5795345   -1.8292483  0.034258701   -2.5795345   0.75028615   426349 
 4555000    0.6036139   -2.5797792   -2.5797792   -1.8294387  0.034890195   -2.5797792   0.75034049   426349 
 4556000   0.60380765   -2.5798686   -2.5798686   -1.8292873  0.034608059   -2.5798686   0.75058133   426349 
 4557000   0.60351112   -2.5803684   -2.5803684   -1.8301556  0.030841062   -2.5803684   0.75021272   426349 
 4558000   0.60433993   -2.5805796   -2.5805796   -1.8293366  0.036558949   -2.5805796   0.75124301   426349 
 4559000   0.60477747   -2.5819446   -2.5819446   -1.8301577  0.026993172   -2.5819446    0.7517869   426349 
 4560000   0.60508265     -2.58186     -2.58186   -1.8296937  0.039557345     -2.58186   0.75216627   426349 
 4561000   0.60397746   -2.5806078   -2.5806078   -1.8298154  0.038011291   -2.5806078   0.75079242   426349 
 4562000   0.60533331   -2.5817448   -2.5817448   -1.8292669  0.035500965   -2.5817448   0.75247785   426349 
 4563000   0.60515434   -2.5820248   -2.5820248   -1.8297694  0.039078261   -2.5820248   0.75225537   426349 
 4564000   0.60489538   -2.5818557   -2.5818557   -1.8299222   0.04452182   -2.5818557   0.75193347   426349 
 4565000   0.60565162   -2.5825426   -2.5825426   -1.8296691  0.034790173   -2.5825426   0.75287353   426349 
 4566000   0.60579358   -2.5835369   -2.5835369   -1.8304869  0.042881121   -2.5835369      0.75305   426349 
 4567000   0.60565281   -2.5833718   -2.5833718   -1.8304968  0.044293082   -2.5833718   0.75287502   426349 
 4568000   0.60458421   -2.5826576   -2.5826576   -1.8311109  0.035411146   -2.5826576   0.75154667   426349 
 4569000    0.6057064   -2.5838386   -2.5838386   -1.8308969   0.04335901   -2.5838386   0.75294163   426349 
 4570000   0.60466628    -2.581712    -2.581712   -1.8300634  0.034861081    -2.581712   0.75164868   426349 
 4571000   0.60614705   -2.5832493   -2.5832493   -1.8297599    0.0415427   -2.5832493   0.75348939   426349 
 4572000     0.606377   -2.5829576   -2.5829576   -1.8291824  0.032553441   -2.5829576   0.75377524   426349 
 4573000   0.60544186   -2.5814057   -2.5814057   -1.8287929  0.041254393   -2.5814057   0.75261279   426349 
 4574000   0.60502766   -2.5810831   -2.5810831   -1.8289851  0.038280977   -2.5810831   0.75209791   426349 
 4575000   0.60447862   -2.5805603   -2.5805603   -1.8291449  0.030365123   -2.5805603   0.75141541   426349 
 4576000   0.60570064   -2.5822053   -2.5822053   -1.8292708  0.028842677   -2.5822053   0.75293447   426349 
 4577000   0.60561325   -2.5817651   -2.5817651   -1.8289392   0.03402969   -2.5817651   0.75282584   426349 
 4578000   0.60442795   -2.5811096   -2.5811096   -1.8297572  0.037177358   -2.5811096   0.75135241   426349 
 4579000   0.60439922   -2.5806497   -2.5806497    -1.829333  0.034023355   -2.5806497    0.7513167   426349 
 4580000    0.6032919   -2.5796758   -2.5796758   -1.8297356  0.032750457   -2.5796758   0.74994021   426349 
 4581000   0.60544155   -2.5814523   -2.5814523   -1.8288399  0.037115672   -2.5814523    0.7526124   426349 
 4582000   0.60516054   -2.5811603   -2.5811603   -1.8288973   0.03263138   -2.5811603   0.75226309   426349 
 4583000   0.60460883   -2.5803701   -2.5803701   -1.8287928  0.040304379   -2.5803701   0.75157726   426349 
 4584000   0.60483914   -2.5804828   -2.5804828   -1.8286193  0.028287029   -2.5804828   0.75186355   426349 
 4585000     0.605668   -2.5805888   -2.5805888   -1.8276949   0.02917486   -2.5805888    0.7528939   426349 
 4586000   0.60491945   -2.5798518   -2.5798518   -1.8278884  0.032715455   -2.5798518   0.75196339   426349 
 4587000   0.60604275   -2.5818091   -2.5818091   -1.8284494  0.035885535   -2.5818091   0.75335975   426349 
 4588000   0.60654457   -2.5820085   -2.5820085   -1.8280249  0.040126507   -2.5820085   0.75398354   426349 
 4589000    0.6066009    -2.582703    -2.582703   -1.8286495  0.044475664    -2.582703   0.75405357   426349 
 4590000   0.60593448   -2.5822274   -2.5822274   -1.8290023  0.034544066   -2.5822274   0.75322516   426349 
 4591000   0.60471634   -2.5810544   -2.5810544   -1.8293435  0.030442995   -2.5810544    0.7517109   426349 
 4592000   0.60492175   -2.5816097   -2.5816097   -1.8296434  0.033176693   -2.5816097   0.75196625   426349 
 4593000   0.60345578   -2.5804743   -2.5804743   -1.8303303  0.033486135   -2.5804743   0.75014393   426349 
 4594000   0.60524493   -2.5822671   -2.5822671   -1.8298991  0.035531705   -2.5822671   0.75236799   426349 
 4595000   0.60505544   -2.5813627   -2.5813627   -1.8292302  0.043922487   -2.5813627   0.75213243   426349 
 4596000   0.60527302    -2.581471    -2.581471    -1.829068  0.043106168    -2.581471   0.75240291   426349 
 4597000   0.60530882   -2.5812598   -2.5812598   -1.8288124  0.030437571   -2.5812598    0.7524474   426349 
 4598000   0.60457893   -2.5810625   -2.5810625   -1.8295224  0.034533919   -2.5810625    0.7515401   426349 
 4599000   0.60589819   -2.5818957   -2.5818957   -1.8287157  0.032340701   -2.5818957   0.75318004   426349 
 4600000   0.60527496   -2.5815829   -2.5815829   -1.8291776  0.045554539   -2.5815829   0.75240531   426349 
 4601000   0.60596104   -2.5824595   -2.5824595   -1.8292014  0.035074612   -2.5824595   0.75325817   426349 
 4602000   0.60527691    -2.581254    -2.581254   -1.8288463  0.036323897    -2.581254   0.75240775   426349 
 4603000   0.60562063   -2.5813071   -2.5813071   -1.8284721  0.038444762   -2.5813071   0.75283501   426349 
 4604000   0.60632329   -2.5821712   -2.5821712   -1.8284627  0.036111208   -2.5821712   0.75370847   426349 
 4605000   0.60471108    -2.580636    -2.580636   -1.8289316  0.037262329    -2.580636   0.75170438   426349 
 4606000   0.60697747   -2.5829026   -2.5829026   -1.8283809  0.033862901   -2.5829026   0.75452168   426349 
 4607000   0.60439519   -2.5803008   -2.5803008   -1.8289891  0.039645173   -2.5803008   0.75131169   426349 
 4608000   0.60515029   -2.5809528   -2.5809528   -1.8287025  0.037429718   -2.5809528   0.75225035   426349 
 4609000   0.60585318   -2.5815192   -2.5815192   -1.8283952  0.029095681   -2.5815192   0.75312409   426349 
 4610000   0.60549658   -2.5812804   -2.5812804   -1.8285996  0.041675832   -2.5812804   0.75268081   426349 
 4611000   0.60550861   -2.5807339   -2.5807339   -1.8280381  0.041088674   -2.5807339   0.75269576   426349 
 4612000    0.6058913   -2.5809311   -2.5809311   -1.8277596  0.042344334   -2.5809311   0.75317148   426349 
 4613000   0.60700579   -2.5816496   -2.5816496   -1.8270927  0.032238612   -2.5816496   0.75455688   426349 
 4614000   0.60530572   -2.5808168   -2.5808168   -1.8283733  0.028701768   -2.5808168   0.75244355   426349 
 4615000   0.60515412   -2.5814528   -2.5814528   -1.8291977  0.034843601   -2.5814528   0.75225511   426349 
 4616000   0.60440867   -2.5808267   -2.5808267   -1.8294983  0.029319287   -2.5808267   0.75132846   426349 
 4617000   0.60450339   -2.5807987   -2.5807987   -1.8293525  0.040129843   -2.5807987   0.75144619   426349 
 4618000   0.60487954   -2.5808753   -2.5808753   -1.8289615  0.030791103   -2.5808753   0.75191378   426349 
 4619000   0.60464489   -2.5809499   -2.5809499   -1.8293278  0.032315717   -2.5809499   0.75162209   426349 
 4620000   0.60497875   -2.5807393   -2.5807393   -1.8287022  0.033070787   -2.5807393    0.7520371   426349 
 4621000    0.6039567   -2.5797294   -2.5797294   -1.8289628  0.044335123   -2.5797294   0.75076662   426349 
 4622000   0.60464488   -2.5815862   -2.5815862   -1.8299641  0.037848997   -2.5815862   0.75162208   426349 
 4623000   0.60489787   -2.5816601   -2.5816601   -1.8297235  0.034217632   -2.5816601   0.75193656   426349 
 4624000   0.60468362   -2.5812427   -2.5812427   -1.8295724   0.03620369   -2.5812427   0.75167023   426349 
 4625000   0.60457195   -2.5816804   -2.5816804    -1.830149  0.041067787   -2.5816804   0.75153142   426349 
 4626000   0.60594498   -2.5832553   -2.5832553   -1.8300171  0.030208331   -2.5832553   0.75323821   426349 
 4627000   0.60504251   -2.5825798   -2.5825798   -1.8304634  0.034527269   -2.5825798   0.75211636   426349 
 4628000   0.60627282   -2.5834866   -2.5834866   -1.8298409    0.0319845   -2.5834866   0.75364573   426349 
 4629000   0.60500596   -2.5818664   -2.5818664   -1.8297955  0.038257449   -2.5818664   0.75207093   426349 
 4630000   0.60434261   -2.5819697   -2.5819697   -1.8307234  0.034707462   -2.5819697   0.75124634   426349 
 4631000   0.60484814   -2.5831114   -2.5831114   -1.8312366  0.034395817   -2.5831114   0.75187475   426349 
 4632000   0.60466015   -2.5829278   -2.5829278   -1.8312867  0.033622631   -2.5829278   0.75164106   426349 
 4633000   0.60460899   -2.5827856   -2.5827856   -1.8312081  0.036685188   -2.5827856   0.75157747   426349 
 4634000    0.6042732   -2.5824411   -2.5824411   -1.8312811  0.038716311   -2.5824411   0.75116004   426349 
 4635000   0.60651783   -2.5845003   -2.5845003     -1.83055  0.034968954   -2.5845003    0.7539503   426349 
 4636000   0.60597889   -2.5833084   -2.5833084   -1.8300281  0.042622724   -2.5833084   0.75328037   426349 
 4637000   0.60501183   -2.5827406   -2.5827406   -1.8306623   0.03095209   -2.5827406   0.75207823   426349 
 4638000   0.60455491   -2.5821787   -2.5821787   -1.8306684  0.050064424   -2.5821787   0.75151024   426349 
 4639000   0.60517239   -2.5831997   -2.5831997   -1.8309219  0.032610889   -2.5831997   0.75227781   426349 
 4640000   0.60552023   -2.5842676   -2.5842676   -1.8315574  0.042964977   -2.5842676   0.75271021   426349 
 4641000   0.60534504   -2.5841873   -2.5841873   -1.8316949  0.041882684   -2.5841873   0.75249243   426349 
 4642000   0.60545125   -2.5837715   -2.5837715    -1.831147  0.037260305   -2.5837715   0.75262446   426349 
 4643000   0.60606703   -2.5846148   -2.5846148   -1.8312248  0.031911281   -2.5846148   0.75338992   426349 
 4644000   0.60456077   -2.5829031   -2.5829031   -1.8313856  0.037404947   -2.5829031   0.75151752   426349 
 4645000    0.6036381   -2.5814902   -2.5814902   -1.8311196  0.028596014   -2.5814902   0.75037057   426349 
 4646000    0.6034763   -2.5816159   -2.5816159   -1.8314465   0.03526779   -2.5816159   0.75016944   426349 
 4647000   0.60346124   -2.5814822   -2.5814822   -1.8313315  0.031822281   -2.5814822   0.75015071   426349 
 4648000   0.60430413   -2.5822161   -2.5822161   -1.8310176  0.030289047   -2.5822161    0.7511985   426349 
 4649000    0.6043852   -2.5816765   -2.5816765   -1.8303772  0.029102142   -2.5816765   0.75129928   426349 
 4650000    0.6046842   -2.5820288   -2.5820288   -1.8303579  0.043526501   -2.5820288   0.75167096   426349 
 4651000   0.60499213   -2.5823841   -2.5823841   -1.8303304  0.040206183   -2.5823841   0.75205374   426349 
 4652000   0.60480423   -2.5818661   -2.5818661   -1.8300459    0.0379425   -2.5818661   0.75182017   426349 
 4653000   0.60439544   -2.5821238   -2.5821238   -1.8308118  0.033681648   -2.5821238     0.751312   426349 
 4654000   0.60440245   -2.5814653   -2.5814653   -1.8301446  0.036774067   -2.5814653   0.75132071   426349 
 4655000   0.60329998     -2.58052     -2.58052   -1.8305697  0.036278783     -2.58052   0.74995026   426349 
 4656000   0.60440749   -2.5823821   -2.5823821   -1.8310552   0.03283494   -2.5823821   0.75132698   426349 
 4657000   0.60395247   -2.5814494   -2.5814494    -1.830688  0.040856339   -2.5814494   0.75076136   426349 
 4658000   0.60448542   -2.5828066   -2.5828066   -1.8313828  0.037816292   -2.5828066   0.75142386   426349 
 4659000   0.60433356   -2.5822014   -2.5822014   -1.8309663  0.045173046   -2.5822014   0.75123508   426349 
 4660000    0.6049834   -2.5825449   -2.5825449    -1.830502  0.032879133   -2.5825449   0.75204289   426349 
 4661000   0.60467227   -2.5810811   -2.5810811    -1.829425  0.036728197   -2.5810811   0.75165612   426349 
 4662000   0.60597484   -2.5823366   -2.5823366   -1.8290612  0.037527321   -2.5823366   0.75327533   426349 
 4663000   0.60574343    -2.582032    -2.582032   -1.8290443  0.038189903    -2.582032   0.75298767   426349 
 4664000   0.60609927    -2.582747    -2.582747    -1.829317   0.03673114    -2.582747      0.75343   426349 
 4665000   0.60567321   -2.5824041   -2.5824041   -1.8295037  0.040403154   -2.5824041   0.75290037   426349 
 4666000   0.60632957   -2.5831449   -2.5831449   -1.8294286  0.033023983   -2.5831449   0.75371628   426349 
 4667000   0.60440324   -2.5811173   -2.5811173   -1.8297956  0.038666155   -2.5811173    0.7513217   426349 
 4668000   0.60434847   -2.5818451   -2.5818451   -1.8305915  0.036625184   -2.5818451   0.75125361   426349 
 4669000   0.60391986   -2.5805799   -2.5805799   -1.8298591  0.037661849   -2.5805799   0.75072082   426349 
 4670000   0.60476993   -2.5817161   -2.5817161   -1.8299386  0.032351905   -2.5817161   0.75177753   426349 
 4671000   0.60506502   -2.5822474   -2.5822474    -1.830103  0.038694137   -2.5822474   0.75214435   426349 
 4672000   0.60548655   -2.5825817   -2.5825817   -1.8299133  0.037973177   -2.5825817   0.75266834   426349 
 4673000    0.6062324   -2.5830521   -2.5830521   -1.8294566  0.029575942   -2.5830521   0.75359549   426349 
 4674000   0.60480077   -2.5813104   -2.5813104   -1.8294945  0.037976143   -2.5813104   0.75181586   426349 
 4675000    0.6060368   -2.5835233   -2.5835233   -1.8301709  0.025991134   -2.5835233   0.75335235   426349 
 4676000   0.60522276   -2.5825704   -2.5825704     -1.83023  0.033986809   -2.5825704   0.75234043   426349 
 4677000    0.6053626   -2.5820661   -2.5820661   -1.8295518  0.040153436   -2.5820661   0.75251426   426349 
 4678000    0.6061913   -2.5830378   -2.5830378   -1.8294934  0.036130404   -2.5830378    0.7535444   426349 
 4679000   0.60569017   -2.5825764   -2.5825764    -1.829655  0.033030982   -2.5825764   0.75292146   426349 
 4680000   0.60542392   -2.5823316   -2.5823316   -1.8297411  0.032865439   -2.5823316   0.75259049   426349 
 4681000   0.60417707    -2.581692    -2.581692   -1.8306514  0.031831936    -2.581692   0.75104055   426349 
 4682000   0.60565955   -2.5830958   -2.5830958   -1.8302125  0.025864014   -2.5830958   0.75288339   426349 
 4683000   0.60606476   -2.5842562   -2.5842562   -1.8308691  0.041329853   -2.5842562    0.7533871   426349 
 4684000   0.60528314   -2.5829631   -2.5829631   -1.8305476  0.029239305   -2.5829631   0.75241549   426349 
 4685000   0.60472304   -2.5822779   -2.5822779   -1.8305587  0.041034573   -2.5822779   0.75171923   426349 
 4686000   0.60615534   -2.5836478   -2.5836478   -1.8301481  0.030108934   -2.5836478    0.7534997   426349 
 4687000   0.60517007   -2.5835987   -2.5835987   -1.8313238  0.036472936   -2.5835987   0.75227493   426349 
 4688000   0.60494266   -2.5835237   -2.5835237   -1.8315314  0.033570734   -2.5835237   0.75199225   426349 
 4689000   0.60479669   -2.5826607   -2.5826607   -1.8308499  0.032675511   -2.5826607   0.75181079   426349 
 4690000   0.60536541   -2.5829828   -2.5829828   -1.8304651  0.042855571   -2.5829828   0.75251776   426349 
 4691000   0.60533395   -2.5827146   -2.5827146    -1.830236  0.040140354   -2.5827146   0.75247865   426349 
 4692000   0.60485934   -2.5827062   -2.5827062   -1.8308175  0.035350911   -2.5827062   0.75188867   426349 
 4693000   0.60574946   -2.5832498   -2.5832498   -1.8302546  0.042289399   -2.5832498   0.75299516   426349 
 4694000   0.60496207   -2.5819717   -2.5819717   -1.8299553  0.037580631   -2.5819717   0.75201637   426349 
 4695000   0.60514652   -2.5824246   -2.5824246   -1.8301789  0.037097467   -2.5824246   0.75224565   426349 
 4696000   0.60471676   -2.5829613   -2.5829613   -1.8312498  0.040096639   -2.5829613   0.75171144   426349 
 4697000   0.60485602   -2.5828972   -2.5828972   -1.8310127  0.033333878   -2.5828972   0.75188455   426349 
 4698000   0.60407441   -2.5814619   -2.5814619    -1.830549  0.036082922   -2.5814619   0.75091293   426349 
 4699000   0.60422802    -2.582015    -2.582015   -1.8309111  0.034543407    -2.582015   0.75110389   426349 
 4700000   0.60401012   -2.5817252   -2.5817252   -1.8308922  0.037177829   -2.5817252   0.75083301   426349 
 4701000   0.60405019   -2.5819194   -2.5819194   -1.8310366  0.029963443   -2.5819194   0.75088283   426349 
 4702000   0.60406315   -2.5814419   -2.5814419    -1.830543  0.041807132   -2.5814419   0.75089894   426349 
 4703000   0.60438266   -2.5817073   -2.5817073   -1.8304112   0.03714649   -2.5817073   0.75129612   426349 
 4704000   0.60450678   -2.5819023   -2.5819023   -1.8304519  0.037862594   -2.5819023   0.75145041   426349 
 4705000   0.60543361   -2.5834036   -2.5834036   -1.8308011  0.038136786   -2.5834036   0.75260253   426349 
 4706000   0.60443814   -2.5820727   -2.5820727   -1.8307077  0.036837385   -2.5820727   0.75136509   426349 
 4707000   0.60469822   -2.5819913   -2.5819913   -1.8303029  0.035785625   -2.5819913   0.75168839   426349 
 4708000    0.6044389   -2.5817615   -2.5817615   -1.8303955  0.030806662   -2.5817615   0.75136602   426349 
 4709000   0.60609487   -2.5826515   -2.5826515    -1.829227  0.049674936   -2.5826515   0.75342453   426349 
 4710000   0.60445447   -2.5814132   -2.5814132   -1.8300278  0.033437847   -2.5814132   0.75138538   426349 
 4711000   0.60358732   -2.5804359   -2.5804359   -1.8301284  0.035721036   -2.5804359   0.75030745   426349 
 4712000   0.60559927   -2.5827288   -2.5827288   -1.8299203  0.035507322   -2.5827288   0.75280847   426349 
 4713000    0.6056037   -2.5824723   -2.5824723   -1.8296584  0.036425242   -2.5824723   0.75281397   426349 
 4714000   0.60568741   -2.5831306   -2.5831306   -1.8302125  0.031420514   -2.5831306   0.75291802   426349 
 4715000   0.60519085   -2.5832705   -2.5832705   -1.8309697  0.033375429   -2.5832705   0.75230076   426349 
 4716000   0.60398637   -2.5814326   -2.5814326   -1.8306291   0.04832219   -2.5814326    0.7508035   426349 
 4717000    0.6048056   -2.5827582   -2.5827582   -1.8309363  0.040042381   -2.5827582   0.75182186   426349 
 4718000   0.60554984   -2.5833928   -2.5833928   -1.8306458  0.036772459   -2.5833928   0.75274702   426349 
 4719000   0.60439984    -2.582426    -2.582426   -1.8311086  0.044250932    -2.582426   0.75131747   426349 
 4720000    0.6053356   -2.5832361   -2.5832361   -1.8307554   0.03256973   -2.5832361    0.7524807   426349 
 4721000   0.60561166   -2.5840217   -2.5840217   -1.8311978  0.039748373   -2.5840217   0.75282386   426349 
 4722000   0.60491949   -2.5830778   -2.5830778   -1.8311144  0.035207589   -2.5830778   0.75196345   426349 
 4723000   0.60501792   -2.5839185   -2.5839185   -1.8318327  0.043688595   -2.5839185    0.7520858   426349 
 4724000    0.6060991   -2.5848808   -2.5848808    -1.831451  0.037266609   -2.5848808   0.75342979   426349 
 4725000   0.60508321   -2.5838546   -2.5838546   -1.8316876  0.035971905   -2.5838546   0.75216695   426349 
 4726000   0.60612084   -2.5844038   -2.5844038    -1.830947  0.033617755   -2.5844038   0.75345682   426349 
 4727000   0.60689861   -2.5860304   -2.5860304   -1.8316068   0.02442869   -2.5860304   0.75442365   426349 
 4728000   0.60715724   -2.5865454   -2.5865454   -1.8318003  0.040314961   -2.5865454   0.75474514   426349 
 4729000   0.60580536   -2.5848834   -2.5848834   -1.8318187  0.030214919   -2.5848834   0.75306465   426349 
 4730000   0.60590219   -2.5855188   -2.5855188   -1.8323338  0.030021435   -2.5855188   0.75318501   426349 
 4731000   0.60558449   -2.5854941   -2.5854941    -1.832704  0.042541562   -2.5854941   0.75279009   426349 
 4732000   0.60523186   -2.5848291   -2.5848291   -1.8324773  0.039997002   -2.5848291   0.75235174   426349 
 4733000   0.60507552   -2.5857456   -2.5857456   -1.8335882   0.04818629   -2.5857456    0.7521574   426349 
 4734000     0.604926   -2.5858066   -2.5858066   -1.8338351  0.033261404   -2.5858066   0.75197153   426349 
 4735000   0.60447588   -2.5846541   -2.5846541   -1.8332421  0.025669118   -2.5846541     0.751412   426349 
 4736000   0.60539594   -2.5853708   -2.5853708   -1.8328151  0.036100718   -2.5853708    0.7525557   426349 
 4737000    0.6041672   -2.5837469   -2.5837469   -1.8327186  0.030001219   -2.5837469   0.75102829   426349 
 4738000   0.60439347   -2.5842088   -2.5842088   -1.8328993  0.037378704   -2.5842088   0.75130956   426349 
 4739000   0.60504469   -2.5849293   -2.5849293   -1.8328103  0.038293263   -2.5849293   0.75211908   426349 
 4740000   0.60484013   -2.5840039   -2.5840039   -1.8321391  0.041147489   -2.5840039   0.75186479   426349 
 4741000   0.60474838   -2.5839567   -2.5839567   -1.8322059  0.033745398   -2.5839567   0.75175073   426349 
 4742000   0.60408561   -2.5826627   -2.5826627   -1.8317358  0.037281449   -2.5826627   0.75092686   426349 
 4743000   0.60501648   -2.5835294   -2.5835294   -1.8314454  0.039569122   -2.5835294   0.75208401   426349 
 4744000   0.60563878   -2.5842839   -2.5842839   -1.8314263    0.0386463   -2.5842839   0.75285758   426349 
 4745000   0.60410626   -2.5823002   -2.5823002   -1.8313477  0.041249724   -2.5823002   0.75095252   426349 
 4746000   0.60671948    -2.584732    -2.584732    -1.830531  0.038999832    -2.584732   0.75420098   426349 
 4747000    0.6061393   -2.5844823   -2.5844823   -1.8310025  0.035363935   -2.5844823   0.75347976   426349 
 4748000   0.60634883    -2.584897    -2.584897   -1.8311568  0.032197821    -2.584897   0.75374023   426349 
 4749000   0.60465472   -2.5830372   -2.5830372   -1.8314029  0.034747771   -2.5830372   0.75163431   426349 
 4750000   0.60392655   -2.5828289   -2.5828289   -1.8320998  0.038962022   -2.5828289   0.75072914   426349 
 4751000   0.60511207   -2.5836003   -2.5836003   -1.8313975  0.026176527   -2.5836003   0.75220284   426349 
 4752000   0.60563062   -2.5839259   -2.5839259   -1.8310785  0.040500293   -2.5839259   0.75284743   426349 
 4753000   0.60417064   -2.5828071   -2.5828071   -1.8317746  0.030766835   -2.5828071   0.75103256   426349 
 4754000   0.60561239   -2.5845903   -2.5845903   -1.8317655  0.032929851   -2.5845903   0.75282476   426349 
 4755000   0.60590038   -2.5840039   -2.5840039   -1.8308211   0.03266605   -2.5840039   0.75318277   426349 
 4756000    0.6050428     -2.58318     -2.58318   -1.8310632   0.03653809     -2.58318   0.75211672   426349 
 4757000   0.60596386   -2.5844466   -2.5844466   -1.8311849  0.028669779   -2.5844466   0.75326168   426349 
 4758000   0.60641006   -2.5844703   -2.5844703   -1.8306539  0.033424896   -2.5844703   0.75381634   426349 
 4759000   0.60665975   -2.5843171   -2.5843171   -1.8301904  0.036991659   -2.5843171   0.75412673   426349 
 4760000    0.6056297   -2.5830998   -2.5830998   -1.8302535  0.038734044   -2.5830998   0.75284629   426349 
 4761000   0.60509513    -2.582725    -2.582725   -1.8305432  0.041508061    -2.582725   0.75218177   426349 
 4762000   0.60577645   -2.5837088   -2.5837088   -1.8306801  0.037844824   -2.5837088    0.7530287   426349 
 4763000   0.60527787   -2.5827862   -2.5827862   -1.8303773  0.040747076   -2.5827862   0.75240893   426349 
 4764000   0.60571425   -2.5831088   -2.5831088   -1.8301574  0.034020233   -2.5831088   0.75295139   426349 
 4765000   0.60515511    -2.582484    -2.582484   -1.8302277  0.039043721    -2.582484   0.75225633   426349 
 4766000   0.60406424   -2.5814288   -2.5814288   -1.8305285  0.031205661   -2.5814288    0.7509003   426349 
 4767000   0.60496534   -2.5819788   -2.5819788   -1.8299584  0.038225537   -2.5819788   0.75202044   426349 
 4768000   0.60433247   -2.5820722   -2.5820722   -1.8308384  0.025224768   -2.5820722   0.75123373   426349 
 4769000   0.60471983   -2.5827209   -2.5827209   -1.8310057  0.044639127   -2.5827209   0.75171525   426349 
 4770000   0.60373225   -2.5815604   -2.5815604   -1.8310728   0.03314201   -2.5815604    0.7504876   426349 
 4771000   0.60479528   -2.5825011   -2.5825011    -1.830692  0.031108875   -2.5825011   0.75180903   426349 
 4772000   0.60499488   -2.5822822   -2.5822822    -1.830225  0.039354949   -2.5822822   0.75205716   426349 
 4773000   0.60515551   -2.5828031   -2.5828031   -1.8305463  0.035458624   -2.5828031   0.75225683   426349 
 4774000   0.60446598    -2.581639    -2.581639   -1.8302393  0.036250879    -2.581639   0.75139969   426349 
 4775000   0.60528428   -2.5829981   -2.5829981   -1.8305812  0.029565479   -2.5829981    0.7524169   426349 
 4776000   0.60462262   -2.5825656   -2.5825656   -1.8309712  0.036971132   -2.5825656   0.75159441   426349 
 4777000   0.60630516   -2.5851675   -2.5851675   -1.8314815  0.033541667   -2.5851675   0.75368594   426349 
 4778000   0.60649242   -2.5851555   -2.5851555   -1.8312368  0.043655467   -2.5851555   0.75391872   426349 
 4779000   0.60603295   -2.5843651   -2.5843651   -1.8310176  0.037412441   -2.5843651   0.75334756   426349 
 4780000   0.60501119   -2.5830851   -2.5830851   -1.8310076  0.040546173   -2.5830851   0.75207743   426349 
 4781000   0.60488225   -2.5834374   -2.5834374   -1.8315202  0.034733203   -2.5834374   0.75191714   426349 
 4782000   0.60454693   -2.5824318   -2.5824318   -1.8309314   0.03388138   -2.5824318   0.75150031   426349 
 4783000   0.60618666   -2.5841122   -2.5841122   -1.8305736  0.039498237   -2.5841122   0.75353863   426349 
 4784000   0.60646222    -2.585451    -2.585451   -1.8315698   0.02800428    -2.585451   0.75388118   426349 
 4785000   0.60526786   -2.5837732   -2.5837732   -1.8313767  0.044863709   -2.5837732   0.75239649   426349 
 4786000    0.6064895   -2.5857449   -2.5857449   -1.8318299  0.041158412   -2.5857449   0.75391509   426349 
 4787000   0.60522104   -2.5836427   -2.5836427   -1.8313044  0.036939897   -2.5836427   0.75233829   426349 
 4788000   0.60475068    -2.582833    -2.582833   -1.8310795  0.036124597    -2.582833   0.75175359   426349 
 4789000   0.60436875   -2.5831308   -2.5831308   -1.8318519  0.039844588   -2.5831308   0.75127883   426349 
 4790000   0.60456483   -2.5833283   -2.5833283   -1.8318058  0.034638788   -2.5833283   0.75152257   426349 
 4791000   0.60502918   -2.5829231   -2.5829231   -1.8308233  0.032200384   -2.5829231    0.7520998   426349 
 4792000   0.60431631   -2.5821898   -2.5821898   -1.8309761  0.036292151   -2.5821898   0.75121363   426349 
 4793000   0.60495127   -2.5836331   -2.5836331   -1.8316301  0.040887627   -2.5836331   0.75200295   426349 
 4794000   0.60412506   -2.5828985   -2.5828985   -1.8319226  0.035844992   -2.5828985    0.7509759   426349 
 4795000   0.60422441   -2.5826446   -2.5826446   -1.8315452  0.031255791   -2.5826446    0.7510994   426349 
 4796000   0.60396477   -2.5822473   -2.5822473   -1.8314707  0.039451122   -2.5822473   0.75077665   426349 
 4797000   0.60550922   -2.5850783   -2.5850783   -1.8323818  0.036581564   -2.5850783   0.75269653   426349 
 4798000   0.60481601   -2.5830976   -2.5830976   -1.8312628   0.04289187   -2.5830976   0.75183481   426349 
 4799000   0.60547324   -2.5841624   -2.5841624   -1.8315106  0.038890825   -2.5841624    0.7526518   426349 
 4800000   0.60456702   -2.5833319   -2.5833319   -1.8318066  0.036806585   -2.5833319   0.75152529   426349 
 4801000   0.60459396   -2.5840712   -2.5840712   -1.8325124  0.038473173   -2.5840712   0.75155879   426349 
 4802000   0.60503946   -2.5841045   -2.5841045   -1.8319919  0.036927912   -2.5841045   0.75211258   426349 
 4803000    0.6055343   -2.5853743   -2.5853743   -1.8326466  0.030803448   -2.5853743    0.7527277   426349 
 4804000   0.60539704    -2.585579    -2.585579   -1.8330219  0.037080813    -2.585579   0.75255707   426349 
 4805000   0.60341861   -2.5835326   -2.5835326   -1.8334349   0.03005376   -2.5835326   0.75009773   426349 
 4806000   0.60441255   -2.5843544   -2.5843544   -1.8330212  0.028432848   -2.5843544   0.75133327   426349 
 4807000   0.60459805   -2.5844941   -2.5844941   -1.8329302  0.039379483   -2.5844941   0.75156386   426349 
 4808000   0.60444081   -2.5846429   -2.5846429   -1.8332745  0.038648805   -2.5846429   0.75136841   426349 
 4809000   0.60425561   -2.5843933   -2.5843933   -1.8332551  0.036055118   -2.5843933   0.75113818   426349 
 4810000   0.60569386   -2.5851966   -2.5851966   -1.8322706  0.034471241   -2.5851966   0.75292605   426349 
 4811000   0.60429798    -2.584221    -2.584221   -1.8330302  0.034456449    -2.584221   0.75119085   426349 
 4812000   0.60392119   -2.5839983   -2.5839983   -1.8332758  0.047552369   -2.5839983   0.75072248   426349 
 4813000   0.60525508   -2.5861419   -2.5861419   -1.8337613  0.024600337   -2.5861419    0.7523806   426349 
 4814000   0.60473238   -2.5851717   -2.5851717   -1.8334408  0.039525641   -2.5851717   0.75173085   426349 
 4815000   0.60472682   -2.5855334   -2.5855334   -1.8338095  0.038025621   -2.5855334   0.75172394   426349 
 4816000   0.60593817   -2.5870043   -2.5870043   -1.8337745  0.041631053   -2.5870043   0.75322974   426349 
 4817000   0.60553071   -2.5860085   -2.5860085   -1.8332852  0.035098239   -2.5860085   0.75272324   426349 
 4818000   0.60544943    -2.586094    -2.586094   -1.8334718  0.035777531    -2.586094    0.7526222   426349 
 4819000   0.60502754   -2.5854572   -2.5854572   -1.8333595  0.043656676   -2.5854572   0.75209776   426349 
 4820000   0.60440806   -2.5848383   -2.5848383   -1.8335106  0.038414576   -2.5848383   0.75132769   426349 
 4821000   0.60591655   -2.5863666   -2.5863666   -1.8331637  0.038218497   -2.5863666   0.75320286   426349 
 4822000   0.60582629   -2.5859748   -2.5859748   -1.8328841  0.039168014   -2.5859748   0.75309066   426349 
 4823000   0.60587489   -2.5867106   -2.5867106   -1.8335595  0.034811166   -2.5867106   0.75315108   426349 
 4824000   0.60380061   -2.5847046   -2.5847046   -1.8341321  0.043418394   -2.5847046   0.75057258   426349 
 4825000   0.60472553   -2.5856022   -2.5856022   -1.8338799  0.039967611   -2.5856022   0.75172234   426349 
 4826000   0.60410236   -2.5847225   -2.5847225   -1.8337748  0.036188565   -2.5847225   0.75094768   426349 
 4827000   0.60486304   -2.5853472   -2.5853472   -1.8334539  0.039827939   -2.5853472   0.75189327   426349 
 4828000   0.60485217   -2.5858963   -2.5858963   -1.8340165  0.040658946   -2.5858963   0.75187976   426349 
 4829000   0.60572199   -2.5859266   -2.5859266   -1.8329656  0.034486918   -2.5859266   0.75296101   426349 
 4830000   0.60474075   -2.5847119   -2.5847119   -1.8329706  0.038330975   -2.5847119   0.75174125   426349 
 4831000   0.60417156   -2.5840379   -2.5840379   -1.8330042  0.038827376   -2.5840379    0.7510337   426349 
 4832000    0.6057313   -2.5855562   -2.5855562   -1.8325836  0.033618898   -2.5855562   0.75297258   426349 
 4833000   0.60482446   -2.5843378   -2.5843378   -1.8324925  0.033516556   -2.5843378   0.75184532   426349 
 4834000   0.60534232   -2.5846149   -2.5846149   -1.8321259  0.040133587   -2.5846149   0.75248906   426349 
 4835000   0.60506714   -2.5843218   -2.5843218   -1.8321748  0.040037987   -2.5843218   0.75214699   426349 
 4836000   0.60552411    -2.584801    -2.584801    -1.832086  0.040493935    -2.584801   0.75271503   426349 
 4837000   0.60556848   -2.5850628   -2.5850628   -1.8322926  0.042696717   -2.5850628   0.75277019   426349 
 4838000    0.6048891   -2.5843454   -2.5843454   -1.8324198  0.035176775   -2.5843454   0.75192566   426349 
 4839000   0.60443401   -2.5839922   -2.5839922   -1.8326322  0.024695386   -2.5839922   0.75135995   426349 
 4840000   0.60461619   -2.5844213   -2.5844213   -1.8328349  0.036355677   -2.5844213   0.75158641   426349 
 4841000   0.60447164   -2.5840416   -2.5840416   -1.8326348  0.038532359   -2.5840416   0.75140673   426349 
 4842000    0.6055552   -2.5859711   -2.5859711   -1.8332174  0.035112266   -2.5859711   0.75275368   426349 
 4843000    0.6042725   -2.5846815   -2.5846815   -1.8335223  0.040855305   -2.5846815   0.75115918   426349 
 4844000   0.60368769   -2.5834263   -2.5834263   -1.8329941  0.040612459   -2.5834263   0.75043221   426349 
 4845000    0.6032604   -2.5828356   -2.5828356   -1.8329346  0.036523808   -2.5828356   0.74990106   426349 
 4846000   0.60326385   -2.5829308   -2.5829308   -1.8330255  0.032431939   -2.5829308   0.74990535   426349 
 4847000    0.6045192   -2.5845301   -2.5845301   -1.8330643  0.036262697   -2.5845301   0.75146585   426349 
 4848000   0.60485832    -2.585049    -2.585049   -1.8331616  0.037606563    -2.585049    0.7518874   426349 
 4849000   0.60480905   -2.5852409   -2.5852409   -1.8334148  0.033818997   -2.5852409   0.75182616   426349 
 4850000   0.60438546   -2.5857417   -2.5857417   -1.8344421  0.032243918   -2.5857417    0.7512996   426349 
 4851000   0.60348799   -2.5849067   -2.5849067   -1.8347227  0.029076398   -2.5849067   0.75018397   426349 
 4852000   0.60434662   -2.5857073   -2.5857073    -1.834456  0.033425832   -2.5857073   0.75125132   426349 
 4853000   0.60410456   -2.5852191   -2.5852191   -1.8342687   0.03762452   -2.5852191   0.75095041   426349 
 4854000   0.60436741   -2.5855513   -2.5855513   -1.8342742  0.039005184   -2.5855513   0.75127717   426349 
 4855000   0.60398282   -2.5848472   -2.5848472   -1.8340481  0.034923416   -2.5848472   0.75079908   426349 
 4856000   0.60572813   -2.5875641   -2.5875641   -1.8345954  0.036810427   -2.5875641   0.75296865   426349 
 4857000   0.60491605   -2.5870658   -2.5870658   -1.8351066  0.043313457   -2.5870658   0.75195917   426349 
 4858000   0.60540246   -2.5868581   -2.5868581   -1.8342943    0.0302784   -2.5868581   0.75256382   426349 
 4859000   0.60567481   -2.5868336   -2.5868336   -1.8339313  0.041007775   -2.5868336   0.75290237   426349 
 4860000   0.60489342   -2.5865859   -2.5865859   -1.8346549  0.039200405   -2.5865859   0.75193103   426349 
 4861000   0.60432058   -2.5865978   -2.5865978   -1.8353789  0.042671724   -2.5865978   0.75121894   426349 
 4862000   0.60447701   -2.5869096   -2.5869096   -1.8354962  0.039935512   -2.5869096    0.7514134   426349 
 4863000   0.60526233      -2.5873      -2.5873   -1.8349104   0.04104091      -2.5873   0.75238962   426349 
 4864000   0.60534481   -2.5878223   -2.5878223   -1.8353301  0.042243626   -2.5878223   0.75249215   426349 
 4865000   0.60650041   -2.5891894   -2.5891894   -1.8352607  0.039340136   -2.5891894   0.75392865   426349 
 4866000   0.60411057   -2.5865941   -2.5865941   -1.8356362  0.045769069   -2.5865941   0.75095788   426349 
 4867000   0.60496458   -2.5879996   -2.5879996   -1.8359801  0.034496295   -2.5879996   0.75201949   426349 
 4868000   0.60407253   -2.5867567   -2.5867567   -1.8358461  0.036771274   -2.5867567   0.75091061   426349 
 4869000   0.60478009   -2.5888897   -2.5888897   -1.8370996  0.046705539   -2.5888897   0.75179015   426349 
 4870000   0.60536721    -2.589394    -2.589394    -1.836874  0.035454473    -2.589394   0.75251999   426349 
 4871000   0.60410724   -2.5873966   -2.5873966   -1.8364428  0.037905446   -2.5873966   0.75095375   426349 
 4872000   0.60460186   -2.5881982   -2.5881982   -1.8366296  0.030163357   -2.5881982   0.75156859   426349 
 4873000   0.60265864   -2.5851994   -2.5851994   -1.8360464  0.040328669   -2.5851994   0.74915302   426349 
 4874000    0.6027967   -2.5848447   -2.5848447   -1.8355201  0.034250753   -2.5848447   0.74932464   426349 
 4875000   0.60368937   -2.5860629   -2.5860629   -1.8356286  0.039678673   -2.5860629    0.7504343   426349 
 4876000    0.6045463   -2.5864212   -2.5864212   -1.8349217  0.033885878   -2.5864212   0.75149954   426349 
 4877000   0.60540298   -2.5870683   -2.5870683   -1.8345039  0.033064217   -2.5870683   0.75256445   426349 
 4878000   0.60489324   -2.5865478   -2.5865478   -1.8346169  0.037840194   -2.5865478   0.75193082   426349 
 4879000   0.60538453   -2.5863477   -2.5863477   -1.8338061  0.038857071   -2.5863477   0.75254152   426349 
 4880000   0.60515473    -2.585573    -2.585573   -1.8333172  0.037416515    -2.585573   0.75225586   426349 
 4881000   0.60324338   -2.5839067   -2.5839067   -1.8340268  0.031732045   -2.5839067    0.7498799   426349 
 4882000   0.60322392   -2.5836475   -2.5836475   -1.8337918  0.036586174   -2.5836475   0.74985571   426349 
 4883000   0.60306219   -2.5827128   -2.5827128   -1.8330582  0.035890412   -2.5827128   0.74965467   426349 
 4884000   0.60440759   -2.5843853   -2.5843853   -1.8330582  0.034628904   -2.5843853   0.75132711   426349 
 4885000   0.60413306   -2.5843087   -2.5843087   -1.8333228  0.028943154   -2.5843087   0.75098584   426349 
 4886000   0.60346282   -2.5834458   -2.5834458   -1.8332931   0.03151085   -2.5834458   0.75015268   426349 
 4887000   0.60248703     -2.58288     -2.58288   -1.8339403  0.037791827     -2.58288    0.7489397   426349 
 4888000   0.60299797   -2.5839648   -2.5839648     -1.83439  0.034104336   -2.5839648   0.74957484   426349 
 4889000   0.60270266   -2.5839749   -2.5839749   -1.8347672  0.032170499   -2.5839749   0.74920775   426349 
 4890000   0.60339596   -2.5848709   -2.5848709   -1.8348014  0.036304158   -2.5848709   0.75006957   426349 
 4891000   0.60383199   -2.5855088   -2.5855088   -1.8348972   0.03101756   -2.5855088   0.75061159   426349 
 4892000   0.60438708   -2.5862921   -2.5862921   -1.8349905  0.026236104   -2.5862921   0.75130161   426349 
 4893000   0.60403822   -2.5859904   -2.5859904   -1.8351225  0.039103525   -2.5859904   0.75086795   426349 
 4894000   0.60405985   -2.5864408   -2.5864408   -1.8355459  0.034232371   -2.5864408   0.75089483   426349 
 4895000   0.60434683   -2.5863999   -2.5863999   -1.8351483  0.031807905   -2.5863999   0.75125158   426349 
 4896000   0.60302496   -2.5854512   -2.5854512   -1.8358429  0.038337725   -2.5854512   0.74960839   426349 
 4897000   0.60462793   -2.5869995   -2.5869995   -1.8353985  0.040862197   -2.5869995   0.75160101   426349 
 4898000   0.60540511   -2.5879312   -2.5879312   -1.8353641  0.027589138   -2.5879312    0.7525671   426349 
 4899000   0.60520226   -2.5874595   -2.5874595   -1.8351446  0.029994307   -2.5874595   0.75231494   426349 
 4900000   0.60562944   -2.5887025   -2.5887025   -1.8358565  0.040773682   -2.5887025   0.75284597   426349 
 4901000   0.60474799    -2.587794    -2.587794   -1.8360438  0.037405438    -2.587794   0.75175025   426349 
 4902000   0.60519005   -2.5882227   -2.5882227   -1.8359229  0.037421468   -2.5882227   0.75229977   426349 
 4903000   0.60611691   -2.5891919   -2.5891919   -1.8357399  0.038397604   -2.5891919   0.75345193   426349 
 4904000   0.60618088    -2.589788    -2.589788   -1.8362565  0.039228278    -2.589788   0.75353145   426349 
 4905000   0.60567411   -2.5888849   -2.5888849   -1.8359834  0.035525384   -2.5888849   0.75290149   426349 
 4906000   0.60576644   -2.5889946   -2.5889946   -1.8359784  0.041746327   -2.5889946   0.75301627   426349 
 4907000   0.60395772   -2.5869491   -2.5869491   -1.8361812  0.040192744   -2.5869491   0.75076788   426349 
 4908000   0.60494515   -2.5880325   -2.5880325   -1.8360372  0.033610567   -2.5880325   0.75199534   426349 
 4909000   0.60497344   -2.5868083   -2.5868083   -1.8347778  0.032948672   -2.5868083   0.75203051   426349 
 4910000   0.60599943   -2.5883381   -2.5883381   -1.8350322  0.038802606   -2.5883381   0.75330589   426349 
 4911000   0.60465431   -2.5869408   -2.5869408    -1.835307  0.037975071   -2.5869408    0.7516338   426349 
 4912000   0.60392743    -2.585275    -2.585275   -1.8345448  0.037920459    -2.585275   0.75073023   426349 
 4913000   0.60419166   -2.5853175   -2.5853175   -1.8342588    0.0357556   -2.5853175   0.75105869   426349 
 4914000   0.60402644   -2.5859559   -2.5859559   -1.8351026   0.03999972   -2.5859559    0.7508533   426349 
 4915000   0.60419865   -2.5865843   -2.5865843   -1.8355169  0.031963525   -2.5865843   0.75106738   426349 
 4916000   0.60335218   -2.5853682   -2.5853682   -1.8353531  0.035135833   -2.5853682   0.75001515   426349 
 4917000   0.60379092   -2.5863819   -2.5863819   -1.8358214   0.04048535   -2.5863819   0.75056054   426349 
 4918000   0.60444525    -2.586681    -2.586681   -1.8353071  0.032821311    -2.586681   0.75137392   426349 
 4919000   0.60318417   -2.5853324   -2.5853324   -1.8355261  0.034575583   -2.5853324    0.7498063   426349 
 4920000   0.60511519   -2.5876113   -2.5876113   -1.8354046  0.034477035   -2.5876113   0.75220671   426349 
 4921000   0.60328726   -2.5856186   -2.5856186   -1.8356841  0.035919532   -2.5856186   0.74993445   426349 
 4922000    0.6031763   -2.5846346   -2.5846346   -1.8348381  0.033918532   -2.5846346   0.74979651   426349 
 4923000   0.60521613   -2.5871964   -2.5871964   -1.8348642  0.038396264   -2.5871964   0.75233219   426349 
 4924000   0.60395537   -2.5861654   -2.5861654   -1.8354004  0.038722283   -2.5861654   0.75076496   426349 
 4925000   0.60501485   -2.5872498   -2.5872498   -1.8351678  0.042387054   -2.5872498   0.75208198   426349 
 4926000   0.60491653   -2.5871403   -2.5871403   -1.8351805     0.037992   -2.5871403   0.75195976   426349 
 4927000   0.60580976   -2.5878879   -2.5878879   -1.8348178  0.049726582   -2.5878879   0.75307012   426349 
 4928000   0.60588154   -2.5882557   -2.5882557   -1.8350963  0.041179325   -2.5882557   0.75315935   426349 
 4929000   0.60625476   -2.5889185   -2.5889185   -1.8352952  0.040532085   -2.5889185   0.75362328   426349 
 4930000   0.60515051   -2.5872082   -2.5872082   -1.8349576  0.031139626   -2.5872082   0.75225062   426349 
 4931000   0.60522266    -2.587191    -2.587191   -1.8348507  0.042763342    -2.587191    0.7523403   426349 
 4932000   0.60526206   -2.5882864   -2.5882864   -1.8358971  0.038182766   -2.5882864   0.75238928   426349 
 4933000   0.60535254   -2.5882543   -2.5882543   -1.8357525  0.039691491   -2.5882543   0.75250175   426349 
 4934000   0.60546236    -2.588704    -2.588704   -1.8360657  0.041387522    -2.588704   0.75263827   426349 
 4935000   0.60487103   -2.5885749   -2.5885749   -1.8366717  0.034319823   -2.5885749    0.7519032   426349 
 4936000   0.60342784   -2.5870608   -2.5870608   -1.8369516  0.031903846   -2.5870608    0.7501092   426349 
 4937000   0.60365003   -2.5870315   -2.5870315   -1.8366461  0.036896954   -2.5870315    0.7503854   426349 
 4938000   0.60488269   -2.5882403   -2.5882403   -1.8363226  0.030037988   -2.5882403   0.75191769   426349 
 4939000   0.60370599    -2.586591    -2.586591    -1.836136  0.038200871    -2.586591   0.75045496   426349 
 4940000   0.60335169   -2.5868925   -2.5868925   -1.8368779   0.03101494   -2.5868925   0.75001454   426349 
 4941000   0.60467465   -2.5877651   -2.5877651    -1.836106   0.03304712   -2.5877651   0.75165908   426349 
 4942000   0.60384431   -2.5864423   -2.5864423   -1.8358154  0.035012548   -2.5864423    0.7506269   426349 
 4943000   0.60317815   -2.5849133   -2.5849133   -1.8351145  0.043380375   -2.5849133   0.74979881   426349 
 4944000    0.6039718   -2.5863466   -2.5863466   -1.8355612  0.033798401   -2.5863466   0.75078539   426349 
 4945000   0.60418562   -2.5868957   -2.5868957   -1.8358445  0.028675584   -2.5868957   0.75105118   426349 
 4946000   0.60449633    -2.586964    -2.586964   -1.8355266  0.036591558    -2.586964   0.75143741   426349 
 4947000   0.60477382   -2.5865142   -2.5865142   -1.8347319  0.033551957   -2.5865142   0.75178235   426349 
 4948000   0.60409365   -2.5858322   -2.5858322   -1.8348953  0.037450954   -2.5858322   0.75093685   426349 
 4949000   0.60592934   -2.5875525   -2.5875525   -1.8343338  0.039444608   -2.5875525   0.75321877   426349 
 4950000   0.60502154   -2.5865366   -2.5865366   -1.8344463   0.03679159   -2.5865366   0.75209029   426349 
 4951000   0.60422895   -2.5859566   -2.5859566   -1.8348516  0.038441806   -2.5859566   0.75110505   426349 
 4952000   0.60395223     -2.58606     -2.58606   -1.8352989  0.036688087     -2.58606   0.75076106   426349 
 4953000   0.60355493   -2.5859785   -2.5859785   -1.8357114  0.031821493   -2.5859785   0.75026718   426349 
 4954000   0.60270188   -2.5857052   -2.5857052   -1.8364984  0.033458023   -2.5857052   0.74920677   426349 
 4955000   0.60364806   -2.5866678   -2.5866678   -1.8362849  0.036251844   -2.5866678   0.75038295   426349 
 4956000   0.60412287   -2.5872444   -2.5872444   -1.8362713  0.032210113   -2.5872444   0.75097318   426349 
 4957000   0.60431717   -2.5879985   -2.5879985   -1.8367838  0.034473069   -2.5879985   0.75121471   426349 
 4958000   0.60304407   -2.5860931   -2.5860931   -1.8364609  0.040600668   -2.5860931   0.74963214   426349 
 4959000   0.60424692   -2.5876558   -2.5876558   -1.8365285  0.041581599   -2.5876558   0.75112738   426349 
 4960000   0.60513215   -2.5883202   -2.5883202   -1.8360924  0.033222812   -2.5883202    0.7522278   426349 
 4961000   0.60518197   -2.5886257   -2.5886257   -1.8363359  0.033515347   -2.5886257   0.75228973   426349 
 4962000   0.60566418   -2.5894131   -2.5894131   -1.8365239  0.026440061   -2.5894131   0.75288915   426349 
 4963000   0.60535003   -2.5889364   -2.5889364   -1.8364378  0.038117883   -2.5889364   0.75249863   426349 
 4964000   0.60418515   -2.5869858   -2.5869858   -1.8359352  0.038188827   -2.5869858   0.75105059   426349 
 4965000   0.60548366   -2.5884292   -2.5884292   -1.8357645  0.035765555   -2.5884292   0.75266474   426349 
 4966000   0.60439601   -2.5883143   -2.5883143   -1.8370016  0.030368883   -2.5883143   0.75131271   426349 
 4967000   0.60342242   -2.5871153   -2.5871153   -1.8370129  0.032578236   -2.5871153   0.75010246   426349 
 4968000   0.60349557   -2.5877026   -2.5877026   -1.8375092  0.039594184   -2.5877026   0.75019339   426349 
 4969000   0.60282107   -2.5871591   -2.5871591   -1.8378042  0.033403528   -2.5871591   0.74935494   426349 
 4970000   0.60263016   -2.5875174   -2.5875174   -1.8383998  0.033948972   -2.5875174   0.74911762   426349 
 4971000   0.60274857   -2.5875876   -2.5875876   -1.8383227  0.033426544   -2.5875876   0.74926481   426349 
 4972000   0.60275964   -2.5876649   -2.5876649   -1.8383863  0.038934373   -2.5876649   0.74927857   426349 
 4973000   0.60518526   -2.5901677   -2.5901677   -1.8378739  0.039207955   -2.5901677   0.75229382   426349 
 4974000   0.60469233   -2.5904017   -2.5904017   -1.8387206  0.035912048   -2.5904017   0.75168107   426349 
 4975000   0.60350994   -2.5890042   -2.5890042    -1.838793  0.035473369   -2.5890042   0.75021126   426349 
 4976000   0.60340785   -2.5880385   -2.5880385   -1.8379541  0.038729028   -2.5880385   0.75008435   426349 
 4977000   0.60386467   -2.5886458   -2.5886458   -1.8379936  0.041356639   -2.5886458   0.75065221   426349 
 4978000   0.60406164    -2.589193    -2.589193   -1.8382959  0.030311888    -2.589193   0.75089707   426349 
 4979000   0.60487169   -2.5901198   -2.5901198   -1.8382157  0.035599016   -2.5901198   0.75190402   426349 
 4980000    0.6051365   -2.5902539   -2.5902539   -1.8380207  0.040024064   -2.5902539    0.7522332   426349 
 4981000   0.60404047   -2.5892127   -2.5892127    -1.838342  0.032138198   -2.5892127   0.75087074   426349 
 4982000   0.60446153   -2.5884465   -2.5884465   -1.8370524  0.036558624   -2.5884465   0.75139416   426349 
 4983000    0.6048019   -2.5880322   -2.5880322   -1.8362149  0.045877246   -2.5880322   0.75181726   426349 
 4984000   0.60446754    -2.587772    -2.587772   -1.8363703  0.036259672    -2.587772   0.75140163   426349 
 4985000   0.60287841   -2.5866022   -2.5866022    -1.837176   0.03101387   -2.5866022   0.74942622   426349 
 4986000   0.60363479   -2.5881159   -2.5881159   -1.8377495  0.032913379   -2.5881159   0.75036646   426349 
 4987000   0.60429895   -2.5884849   -2.5884849   -1.8372928  0.035295004   -2.5884849   0.75119206   426349 
 4988000   0.60301436   -2.5873368   -2.5873368   -1.8377416  0.032220249   -2.5873368   0.74959521   426349 
 4989000   0.60285673   -2.5863917   -2.5863917   -1.8369924  0.032450026   -2.5863917   0.74939927   426349 
 4990000   0.60356734   -2.5874453   -2.5874453   -1.8371627   0.03222051   -2.5874453   0.75028261   426349 
 4991000   0.60403638   -2.5877429   -2.5877429   -1.8368773  0.037081831   -2.5877429   0.75086567   426349 
 4992000   0.60475922   -2.5886171   -2.5886171   -1.8368528  0.032940041   -2.5886171   0.75176421   426349 
 4993000   0.60402759   -2.5880232   -2.5880232   -1.8371684  0.030202463   -2.5880232   0.75085473   426349 
 4994000   0.60465984    -2.588873    -2.588873   -1.8372324  0.030537369    -2.588873   0.75164068   426349 
 4995000   0.60283674   -2.5872447   -2.5872447   -1.8378703  0.033087478   -2.5872447   0.74937442   426349 
 4996000   0.60392997   -2.5880513   -2.5880513   -1.8373179  0.031569453   -2.5880513   0.75073339   426349 
 4997000   0.60263522   -2.5874495   -2.5874495   -1.8383256  0.032531876   -2.5874495   0.74912391   426349 
 4998000   0.60326189   -2.5875892   -2.5875892   -1.8376863  0.031699174   -2.5875892   0.74990291   426349 
 4999000   0.60299846   -2.5874021   -2.5874021   -1.8378266  0.031835802   -2.5874021   0.74957545   426349 
 5000000    0.6045043   -2.5892321   -2.5892321   -1.8377848  0.032478147   -2.5892321   0.75144732   426349 
Loop time of 11112.2 on 288 procs for 5000000 steps with 426349 atoms

Performance: 194381.614 tau/day, 449.957 timesteps/s
93.5% CPU use with 288 MPI tasks x 1 OpenMP threads

MPI task timing breakdown:
Section |  min time  |  avg time  |  max time  |%varavg|  %CPU | %total
-----------------------------------------------------------------------
Pair    | 431.75     | 1951.2     | 2761.3     |1248.4 |  94.4 | 17.56
Bond    | 3.2375     | 3.4358     | 3.9584     |   5.5 | 100.0 |  0.03
Neigh   | 918.76     | 3154.2     | 4180.4     |1364.7 |  99.2 | 28.38
Comm    | 2236.3     | 3795.2     | 5595.7     |1215.1 |  91.6 | 34.15
Output  | 631.02     | 631.95     | 633.87     |   3.6 |  88.1 |  5.69
Modify  | 848.64     | 1479.6     | 3915.7     |1758.1 |  92.4 | 13.32
Other   |            | 96.63      |            |       |       |  0.87

Nlocal:        1480.38 ave        1732 max        1251 min
Histogram: 3 4 25 72 65 60 26 20 7 6
Nghost:        5917.62 ave        7815 max        2928 min
Histogram: 13 12 20 25 2 22 59 76 49 10
Neighs:        29562.0 ave       46502 max        3336 min
Histogram: 20 4 0 1 20 77 61 68 30 7

Total # of neighbors = 8513846
Ave neighs/atom = 19.969194
Ave special neighs/atom = 0.0000000
Neighbor list builds = 497669
Dangerous builds = 449644

Total wall time: 3:05:17
