LAMMPS (24 Dec 2020)
OMP_NUM_THREADS environment is not set. Defaulting to 1 thread. (src/comm.cpp:94)
  using 1 OpenMP thread(s) per MPI task
# Simple rigid body system
# needed variables:

#variable	startTemp equal 0.5
#variable 	temp 	  equal 0.8

units		lj
atom_style	full
dimension 	3
boundary	p p f
pair_style	lj/cut/opt 2.5


variable 	sigma		equal 1.0
variable 	epsilon 	equal 1.0


region		box block 0 160 0 160 0 160
create_box 	3 box
Created orthogonal box = (0.0000000 0.0000000 0.0000000) to (160.00000 160.00000 160.00000)
  4 by 6 by 8 MPI processor grid
lattice 	sc 1.0
Lattice spacing in x,y,z = 1.0000000 1.0000000 1.0000000

create_atoms 	1 region box
Created 4096000 atoms
  create_atoms CPU = 0.129 seconds

mass		1 1.0
mass		2 1.0
mass		3 1.0


group		solvent type 1
4096000 atoms in group solvent


velocity 	solvent create ${startTemp} 563435 loop geom
velocity 	solvent create 0.5 563435 loop geom

read_data	data.vac add append
Reading data file ...
  orthogonal box = (0.0000000 0.0000000 0.0000000) to (160.00000 160.00000 320.00000)
  6 by 4 by 8 MPI processor grid
Finding 1-2 1-3 1-4 neighbors ...
  special bond factors lj:    0        0        0       
  special bond factors coul:  0        0        0       
     0 = max # of 1-2 neighbors
     0 = max # of 1-3 neighbors
     0 = max # of 1-4 neighbors
     1 = max # of special neighbors
  special bonds CPU = 1.378 seconds
  read_data CPU = 1.408 seconds

neighbor 	0.4 bin

pair_coeff	1 1 1.0 1.0
pair_coeff	2 2 0.0 0.0
pair_coeff	3 3 0.0 0.0
pair_coeff	2 3 0.0 0.0
pair_coeff	1 2*3 0.0 0.0

pair_modify 	shift yes


balance 	1.05 shift z 10 1.05
Balancing ...
Neighbor list info ...
  update every 1 steps, delay 10 steps, check yes
  max neighbors/atom: 2000, page size: 100000
  master list distance cutoff = 2.9
  ghost atom cutoff = 2.9
  binsize = 1.45, bins = 111 111 221
  1 neighbor lists, perpetual/occasional/extra = 1 0 0
  (1) pair lj/cut/opt, perpetual
      attributes: half, newton on
      pair build: half/bin/newton
      stencil: half/bin/3d/newton
      bin: standard
 rebalancing time: 0.048 seconds
  iteration count = 5
  initial/final maximal load/proc = 43200.000 27000.000
  initial/final imbalance factor  = 2.0250000 1.2656250
  x cuts: 0.0000000 0.16666667 0.33333333 0.50000000 0.66666667 0.83333333 1.0000000
  y cuts: 0.0000000 0.25000000 0.50000000 0.75000000 1.0000000
  z cuts: 0.0000000 0.062500000 0.12890625 0.18750000 0.25781250 0.30859375 0.38671875 0.43750000 1.0000000


####################### WALLS ###########################


region	       low block  EDGE EDGE EDGE EDGE 0 2

region 	       top block  EDGE EDGE EDGE EDGE 159 160


delete_atoms   region low
WARNING: Ignoring 'compress yes' for molecular system (src/delete_atoms.cpp:125)
Deleted 76800 atoms, new total = 4019200

delete_atoms   region top
WARNING: Ignoring 'compress yes' for molecular system (src/delete_atoms.cpp:125)
Deleted 25600 atoms, new total = 3993600


variable       epsilonWall equal 2*${epsilon}
variable       epsilonWall equal 2*1

variable       cutoffTop   equal   0.7147*${sigma}
variable       cutoffTop   equal   0.7147*1

variable       cutoffLow   equal   3*${sigma}
variable       cutoffLow   equal   3*1


fix            topWall all wall/lj93 zhi EDGE                ${epsilonWall} ${sigma} ${cutoffTop} units box
fix            topWall all wall/lj93 zhi EDGE                2 ${sigma} ${cutoffTop} units box
fix            topWall all wall/lj93 zhi EDGE                2 1 ${cutoffTop} units box
fix            topWall all wall/lj93 zhi EDGE                2 1 0.7147 units box

fix            lowWall all wall/lj93 zlo EDGE                ${epsilonWall} ${sigma} ${cutoffLow} units box
fix            lowWall all wall/lj93 zlo EDGE                2 ${sigma} ${cutoffLow} units box
fix            lowWall all wall/lj93 zlo EDGE                2 1 ${cutoffLow} units box
fix            lowWall all wall/lj93 zlo EDGE                2 1 3 units box


###################### COMPUTES ##########################

compute        bin1 solvent chunk/atom bin/1d z upper 1.0



######################	FIXES ############################


fix 		peclet solvent ave/chunk 1000 1 1000 bin1 density/number norm 		 none ave one file density.profile

fix 		2 solvent nve

## Thermostat


#region		regthermo block EDGE EDGE EDGE EDGE 0 20

#group 		thermo dynamic solvent region regthermo every 1000

fix 		3 all langevin ${startTemp} ${temp} 10 156453
fix 		3 all langevin 0.5 ${temp} 10 156453
fix 		3 all langevin 0.5 .6 10 156453



#### Load balancing


fix 		bal all balance 1000 1.05 shift z 10 1.05


############### Diagnostics and computes ###################
#compute 	com cube	  rigid/local	1 mol x y z
#compute 	quat cube	  rigid/local	1 mol quatw quati quatj quatk

thermo 		1000
thermo_style 	custom step temp epair evdwl etotal press pe ke vol

dump		1 all custom 100000 dump.lammpstrj id mol type x y z
dump 		2 all image 10000 image.*.png type type
dump 		3 all movie 1000 movie.avi type type
#dump 		com cube local 1000 dump.*.xyz c_com[*]
#dump		quat cube      local 1000 dump.*.quat c_quat[*]


restart 	500000 restart.dat
timestep 	0.0025
timer 		full
New timer settings: style=full  mode=nosync  timeout=off


run		1000000
Per MPI rank memory allocation (min/avg/max) = 21.58 | 28.12 | 30.30 Mbytes
Step Temp E_pair E_vdwl TotEng Press PotEng KinEng Volume 
       0   0.49997217   -3.3137429   -3.3137429   -2.5637849    8.4475947   -3.3137429   0.74995807      8192000 
    1000    1.2331435     -4.96176     -4.96176   -3.1120452    4.2609586     -4.96176    1.8497148      8192000 
    2000    1.0583152   -5.1812581   -5.1812581   -3.5937858    3.1761549   -5.1812581    1.5874724      8192000 
    3000   0.92078655   -5.3402835   -5.3402835    -3.959104    2.3453401   -5.3402835    1.3811795      8192000 
    4000   0.80762505   -5.4417865   -5.4417865   -4.2303492    1.7502783   -5.4417865    1.2114373      8192000 
    5000   0.72213392   -5.5089361   -5.5089361   -4.4257355      1.31853   -5.5089361    1.0832006      8192000 
    6000   0.66310605   -5.5631785   -5.5631785   -4.5685196   0.96723506   -5.5631785   0.99465882      8192000 
    7000   0.62048633   -5.6041393   -5.6041393     -4.67341   0.68630429   -5.6041393   0.93072926      8192000 
    8000   0.58748618   -5.6312979   -5.6312979   -4.7500689   0.47384855   -5.6312979   0.88122905      8192000 
    9000   0.56235447   -5.6490163   -5.6490163   -4.8054848    0.3279758   -5.6490163   0.84353149      8192000 
   10000   0.54468659   -5.6617396   -5.6617396   -4.8447099   0.23722671   -5.6617396   0.81702969      8192000 
   11000   0.53157234   -5.6694312   -5.6694312   -4.8720729   0.18129758   -5.6694312   0.79735831      8192000 
   12000   0.52157142   -5.6734495   -5.6734495   -4.8910926   0.13227118   -5.6734495   0.78235694      8192000 
   13000    0.5138027   -5.6740808   -5.6740808   -4.9033769   0.09232761   -5.6740808   0.77070385      8192000 
   14000   0.50844041   -5.6729847   -5.6729847   -4.9103242  0.059401877   -5.6729847   0.76266042      8192000 
   15000   0.50446127   -5.6707892   -5.6707892   -4.9140975  0.033633635   -5.6707892   0.75669171      8192000 
   16000   0.50188542   -5.6684621   -5.6684621   -4.9156342 0.0085404803   -5.6684621   0.75282795      8192000 
   17000   0.50000596   -5.6653127   -5.6653127   -4.9153039 -0.0090168608   -5.6653127   0.75000875      8192000 
   18000   0.49908639   -5.6621146   -5.6621146   -4.9134852 -0.020530651   -5.6621146   0.74862939      8192000 
   19000   0.49891339   -5.6594851   -5.6594851   -4.9111152 -0.025819065   -5.6594851    0.7483699      8192000 
   20000   0.49872423   -5.6569968   -5.6569968   -4.9089107 -0.028983055   -5.6569968   0.74808616      8192000 
   21000   0.49927471   -5.6558611   -5.6558611   -4.9069493 -0.030745393   -5.6558611   0.74891188      8192000 
   22000   0.50001972   -5.6548373   -5.6548373   -4.9048079 -0.029869753   -5.6548373   0.75002939      8192000 
   23000   0.50051204   -5.6540731   -5.6540731   -4.9033052 -0.026940394   -5.6540731   0.75076787      8192000 
   24000   0.50133923    -5.653999    -5.653999   -4.9019903 -0.024643918    -5.653999   0.75200866      8192000 
   25000   0.50160373    -5.653441    -5.653441   -4.9010356 -0.019884193    -5.653441    0.7524054      8192000 
   26000   0.50207179   -5.6543147   -5.6543147   -4.9012073 -0.018976576   -5.6543147   0.75310749      8192000 
   27000   0.50274799   -5.6547929   -5.6547929   -4.9006711 -0.018312749   -5.6547929    0.7541218      8192000 
   28000   0.50279204   -5.6546878   -5.6546878      -4.9005 -0.016228202   -5.6546878   0.75418787      8192000 
   29000   0.50306772   -5.6549574   -5.6549574    -4.900356 -0.015990116   -5.6549574   0.75460139      8192000 
   30000   0.50351521   -5.6560687   -5.6560687   -4.9007961 -0.015809568   -5.6560687   0.75527263      8192000 
   31000    0.5034625   -5.6562766   -5.6562766   -4.9010831 -0.014330526   -5.6562766   0.75519356      8192000 
   32000   0.50325324   -5.6565858   -5.6565858   -4.9017061 -0.015094273   -5.6565858   0.75487967      8192000 
   33000    0.5034824   -5.6569987   -5.6569987   -4.9017753 -0.014725484   -5.6569987   0.75522341      8192000 
   34000   0.50374021   -5.6578231   -5.6578231   -4.9022129 -0.016587107   -5.6578231   0.75561013      8192000 
   35000   0.50364921   -5.6582598   -5.6582598   -4.9027862 -0.017063214   -5.6582598   0.75547363      8192000 
   36000   0.50403643   -5.6590764   -5.6590764   -4.9030219 -0.017844806   -5.6590764   0.75605445      8192000 
   37000   0.50388432   -5.6590354   -5.6590354   -4.9032091 -0.017171969   -5.6590354   0.75582629      8192000 
   38000    0.5038916   -5.6594144   -5.6594144   -4.9035772 -0.015946198   -5.6594144   0.75583721      8192000 
   39000   0.50405902   -5.6597614   -5.6597614    -4.903673  -0.01598882   -5.6597614   0.75608835      8192000 
   40000   0.50426856   -5.6601992   -5.6601992   -4.9037966 -0.015472119   -5.6601992   0.75640265      8192000 
   41000   0.50434476   -5.6604083   -5.6604083   -4.9038914 -0.014822781   -5.6604083   0.75651696      8192000 
   42000   0.50488232   -5.6611863   -5.6611863    -4.903863 -0.015810042   -5.6611863   0.75732329      8192000 
   43000   0.50497607    -5.661602    -5.661602    -4.904138 -0.016329946    -5.661602   0.75746392      8192000 
   44000    0.5048458   -5.6621827   -5.6621827   -4.9049142 -0.017949738   -5.6621827    0.7572685      8192000 
   45000   0.50506504   -5.6626426   -5.6626426   -4.9050452 -0.018913342   -5.6626426   0.75759737      8192000 
   46000    0.5050336   -5.6628869   -5.6628869   -4.9053367 -0.018719581   -5.6628869   0.75755021      8192000 
   47000    0.5051899   -5.6634367   -5.6634367   -4.9056521 -0.018279615   -5.6634367   0.75778467      8192000 
   48000   0.50565846    -5.664346    -5.664346   -4.9058585 -0.018824906    -5.664346    0.7584875      8192000 
   49000   0.50569667   -5.6649326   -5.6649326   -4.9063878 -0.019964375   -5.6649326   0.75854481      8192000 
   50000   0.50493933   -5.6643242   -5.6643242   -4.9069154 -0.017328377   -5.6643242   0.75740881      8192000 
   51000   0.50542034   -5.6661517   -5.6661517   -4.9080214 -0.021096261   -5.6661517   0.75813032      8192000 
   52000    0.5054417   -5.6666405   -5.6666405   -4.9084781  -0.02177802   -5.6666405   0.75816236      8192000 
   53000   0.50534848   -5.6667482   -5.6667482   -4.9087257 -0.021121422   -5.6667482   0.75802253      8192000 
   54000   0.50546667   -5.6673139   -5.6673139   -4.9091141  -0.02181739   -5.6673139   0.75819982      8192000 
   55000   0.50561455   -5.6674946   -5.6674946    -4.909073 -0.021592768   -5.6674946   0.75842163      8192000 
   56000   0.50588869   -5.6684389   -5.6684389    -4.909606 -0.023647689   -5.6684389   0.75883285      8192000 
   57000   0.50601556   -5.6689933   -5.6689933   -4.9099701 -0.023831035   -5.6689933   0.75902315      8192000 
   58000   0.50609595   -5.6689758   -5.6689758    -4.909832 -0.023188548   -5.6689758   0.75914374      8192000 
   59000   0.50637067    -5.669773    -5.669773   -4.9102172 -0.024072901    -5.669773   0.75955581      8192000 
   60000   0.50648443   -5.6702016   -5.6702016   -4.9104751 -0.025484025   -5.6702016   0.75972646      8192000 
   61000   0.50621449   -5.6701082   -5.6701082   -4.9107867 -0.024009507   -5.6701082   0.75932155      8192000 
   62000   0.50676102   -5.6708605   -5.6708605   -4.9107191 -0.024958967   -5.6708605   0.76014134      8192000 
   63000   0.50678682   -5.6713825   -5.6713825   -4.9112024 -0.024369759   -5.6713825   0.76018005      8192000 
   64000   0.50679873   -5.6716784   -5.6716784   -4.9114805 -0.024862985   -5.6716784    0.7601979      8192000 
   65000   0.50707104   -5.6725681   -5.6725681   -4.9119618  -0.02543175   -5.6725681   0.76060638      8192000 
   66000   0.50708738   -5.6725134   -5.6725134   -4.9118825 -0.024979743   -5.6725134   0.76063088      8192000 
   67000   0.50715958   -5.6734669   -5.6734669   -4.9127277 -0.025720458   -5.6734669   0.76073917      8192000 
   68000   0.50722727   -5.6741858   -5.6741858   -4.9133451 -0.026605181   -5.6741858   0.76084071      8192000 
   69000   0.50757545   -5.6742861   -5.6742861   -4.9129231 -0.025482573   -5.6742861   0.76136298      8192000 
   70000   0.50736762   -5.6746681   -5.6746681   -4.9136168 -0.026325894   -5.6746681   0.76105124      8192000 
   71000   0.50732416   -5.6753617   -5.6753617   -4.9143756 -0.027716817   -5.6753617   0.76098605      8192000 
   72000   0.50752489   -5.6756694   -5.6756694   -4.9143823  -0.02628718   -5.6756694   0.76128715      8192000 
   73000   0.50805864   -5.6761523   -5.6761523   -4.9140645 -0.026433096   -5.6761523   0.76208777      8192000 
   74000   0.50803386   -5.6766643   -5.6766643   -4.9146137 -0.026367696   -5.6766643    0.7620506      8192000 
   75000   0.50823284   -5.6775511   -5.6775511    -4.915202 -0.027235403   -5.6775511   0.76234908      8192000 
   76000   0.50807546   -5.6778556   -5.6778556   -4.9157426 -0.027727572   -5.6778556     0.762113      8192000 
   77000   0.50803385   -5.6784611   -5.6784611   -4.9164106 -0.028569157   -5.6784611   0.76205059      8192000 
   78000    0.5083793   -5.6793402   -5.6793402   -4.9167714 -0.027702425   -5.6793402   0.76256876      8192000 
   79000   0.50863983   -5.6800963   -5.6800963   -4.9171368 -0.028598592   -5.6800963   0.76295956      8192000 
   80000   0.50878605   -5.6808603   -5.6808603   -4.9176815 -0.029647457   -5.6808603   0.76317888      8192000 
   81000   0.50863138    -5.681235    -5.681235   -4.9182881 -0.028811955    -5.681235   0.76294687      8192000 
   82000   0.50904039    -5.681865    -5.681865   -4.9183046 -0.028719674    -5.681865    0.7635604      8192000 
   83000   0.50919654   -5.6820505   -5.6820505   -4.9182559 -0.027584358   -5.6820505   0.76379462      8192000 
   84000   0.50900549   -5.6829212   -5.6829212   -4.9194131 -0.029129489   -5.6829212   0.76350805      8192000 
   85000   0.50924424   -5.6835112   -5.6835112   -4.9196451 -0.029593456   -5.6835112   0.76386616      8192000 
   86000   0.50927632    -5.684041    -5.684041   -4.9201268 -0.029929716    -5.684041   0.76391429      8192000 
   87000    0.5092558   -5.6848922   -5.6848922   -4.9210087 -0.030376771   -5.6848922   0.76388351      8192000 
   88000   0.50925173   -5.6851252   -5.6851252   -4.9212478 -0.030289033   -5.6851252    0.7638774      8192000 
   89000   0.50948917   -5.6859042   -5.6859042   -4.9216706  -0.03099594   -5.6859042   0.76423356      8192000 
   90000   0.50939906   -5.6862693   -5.6862693   -4.9221709  -0.03048141   -5.6862693    0.7640984      8192000 
   91000   0.50928622   -5.6869576   -5.6869576   -4.9230285  -0.03133045   -5.6869576   0.76392914      8192000 
   92000   0.50943251   -5.6873853   -5.6873853   -4.9232367  -0.03196788   -5.6873853   0.76414857      8192000 
   93000   0.50984625   -5.6882211   -5.6882211   -4.9234519  -0.03223512   -5.6882211   0.76476919      8192000 
   94000   0.50981012   -5.6879543   -5.6879543   -4.9232393 -0.030945549   -5.6879543   0.76471499      8192000 
   95000   0.50998713   -5.6883611   -5.6883611   -4.9233806 -0.032161498   -5.6883611   0.76498051      8192000 
   96000   0.51025795   -5.6895031   -5.6895031   -4.9241164 -0.033671553   -5.6895031   0.76538674      8192000 
   97000   0.51028859   -5.6897852   -5.6897852   -4.9243525 -0.032598127   -5.6897852   0.76543269      8192000 
   98000   0.51036968   -5.6904698   -5.6904698   -4.9249154 -0.032214179   -5.6904698   0.76555433      8192000 
   99000   0.51044988   -5.6912179   -5.6912179   -4.9255433 -0.032097357   -5.6912179   0.76567463      8192000 
  100000   0.51075477   -5.6916756   -5.6916756   -4.9255436 -0.031372452   -5.6916756   0.76613196      8192000 
  101000    0.5107486   -5.6926905   -5.6926905   -4.9265678 -0.033715643   -5.6926905   0.76612271      8192000 
  102000   0.51069956   -5.6932258   -5.6932258   -4.9271767 -0.034630727   -5.6932258   0.76604915      8192000 
  103000    0.5107635   -5.6940378   -5.6940378   -4.9278927 -0.034965818   -5.6940378   0.76614506      8192000 
  104000   0.51067596   -5.6944353   -5.6944353   -4.9284216 -0.034299493   -5.6944353   0.76601375      8192000 
  105000   0.51079971   -5.6949181   -5.6949181   -4.9287187 -0.033808524   -5.6949181   0.76619937      8192000 
  106000   0.51118195   -5.6954968   -5.6954968   -4.9287241 -0.033872113   -5.6954968   0.76677274      8192000 
  107000   0.51126079   -5.6959115   -5.6959115   -4.9290205 -0.033602539   -5.6959115   0.76689099      8192000 
  108000   0.51161828   -5.6965867   -5.6965867   -4.9291595 -0.034327976   -5.6965867   0.76742723      8192000 
  109000   0.51158239   -5.6974058   -5.6974058   -4.9300324 -0.034921589   -5.6974058   0.76737339      8192000 
  110000   0.51182717    -5.698681    -5.698681   -4.9309405 -0.037131586    -5.698681   0.76774056      8192000 
  111000   0.51143715   -5.6989054   -5.6989054   -4.9317498 -0.035563306   -5.6989054   0.76715553      8192000 
  112000   0.51197455   -5.6999753   -5.6999753   -4.9320137 -0.037128614   -5.6999753   0.76796163      8192000 
  113000   0.51192547   -5.7002216   -5.7002216   -4.9323336  -0.03505611   -5.7002216   0.76788802      8192000 
  114000    0.5123553   -5.7011323   -5.7011323   -4.9325995 -0.035928681   -5.7011323   0.76853276      8192000 
  115000   0.51217102   -5.7015957   -5.7015957   -4.9333394 -0.036287235   -5.7015957   0.76825634      8192000 
  116000   0.51212532   -5.7021248   -5.7021248    -4.933937 -0.035868552   -5.7021248   0.76818778      8192000 
  117000     0.512423    -5.702598    -5.702598   -4.9339637  -0.03642106    -5.702598   0.76863431      8192000 
  118000    0.5125057   -5.7032391   -5.7032391   -4.9344808 -0.036605682   -5.7032391   0.76875835      8192000 
  119000   0.51283297   -5.7039995   -5.7039995   -4.9347502 -0.036648691   -5.7039995   0.76924926      8192000 
  120000   0.51261007   -5.7043107   -5.7043107   -4.9353958 -0.037604036   -5.7043107   0.76891491      8192000 
  121000   0.51237332   -5.7052452   -5.7052452   -4.9366854 -0.038512121   -5.7052452   0.76855979      8192000 
  122000   0.51279334   -5.7065558   -5.7065558   -4.9373659   -0.0400955   -5.7065558   0.76918982      8192000 
  123000   0.51284021   -5.7067841   -5.7067841    -4.937524 -0.039237532   -5.7067841   0.76926013      8192000 
  124000    0.5129984   -5.7072015   -5.7072015   -4.9377041 -0.038825449   -5.7072015    0.7694974      8192000 
  125000   0.51331624   -5.7085393   -5.7085393   -4.9385651 -0.040632765   -5.7085393   0.76997417      8192000 
  126000   0.51315428    -5.708799    -5.708799   -4.9390678 -0.039409346    -5.708799   0.76973123      8192000 
  127000   0.51340474   -5.7100011   -5.7100011   -4.9398941 -0.041668581   -5.7100011   0.77010691      8192000 
  128000   0.51334666   -5.7101602   -5.7101602   -4.9401403 -0.040563558   -5.7101602    0.7700198      8192000 
  129000    0.5136956   -5.7111209   -5.7111209   -4.9405777 -0.040988579   -5.7111209   0.77054321      8192000 
  130000   0.51343631   -5.7108931   -5.7108931   -4.9407389 -0.039642831   -5.7108931   0.77015427      8192000 
  131000   0.51373568   -5.7119156   -5.7119156   -4.9413123 -0.040900661   -5.7119156   0.77060333      8192000 
  132000   0.51392295   -5.7128523   -5.7128523   -4.9419681 -0.042069979   -5.7128523   0.77088423      8192000 
  133000   0.51366458   -5.7129022   -5.7129022   -4.9424056   -0.0416281   -5.7129022   0.77049667      8192000 
  134000   0.51388652   -5.7134233   -5.7134233   -4.9425937 -0.040248811   -5.7134233   0.77082958      8192000 
  135000   0.51400183   -5.7141962   -5.7141962   -4.9431936  -0.04138436   -5.7141962   0.77100255      8192000 
  136000   0.51403278   -5.7146037   -5.7146037   -4.9435547 -0.040561146   -5.7146037   0.77104897      8192000 
  137000   0.51425762   -5.7154561   -5.7154561   -4.9440699 -0.042100475   -5.7154561   0.77138623      8192000 
  138000   0.51429305   -5.7157115   -5.7157115   -4.9442721 -0.041185645   -5.7157115   0.77143938      8192000 
  139000   0.51452484   -5.7167994   -5.7167994   -4.9450123 -0.042366486   -5.7167994   0.77178706      8192000 
  140000   0.51415505    -5.717254    -5.717254   -4.9460216 -0.042750173    -5.717254   0.77123239      8192000 
  141000   0.51449664   -5.7181529   -5.7181529   -4.9464082 -0.042908043   -5.7181529   0.77174476      8192000 
  142000   0.51494469   -5.7191322   -5.7191322   -4.9467153 -0.045328987   -5.7191322   0.77241685      8192000 
  143000   0.51477286   -5.7192869   -5.7192869   -4.9471278  -0.04401944   -5.7192869   0.77215909      8192000 
  144000   0.51495168   -5.7198227   -5.7198227   -4.9473954 -0.043672614   -5.7198227   0.77242733      8192000 
  145000    0.5151679    -5.720442    -5.720442   -4.9476903 -0.043681535    -5.720442   0.77275165      8192000 
  146000   0.51531519    -5.721287    -5.721287   -4.9483144 -0.044415571    -5.721287   0.77297259      8192000 
  147000   0.51522887   -5.7218847   -5.7218847   -4.9490416 -0.043757095   -5.7218847   0.77284311      8192000 
  148000   0.51556337   -5.7226555   -5.7226555   -4.9493106 -0.043427557   -5.7226555   0.77334487      8192000 
  149000   0.51522782   -5.7230062   -5.7230062   -4.9501647 -0.042575716   -5.7230062   0.77284154      8192000 
  150000   0.51591366   -5.7244103   -5.7244103     -4.95054 -0.044000272   -5.7244103    0.7738703      8192000 
  151000   0.51559264   -5.7240614   -5.7240614   -4.9506726   -0.0429892   -5.7240614   0.77338877      8192000 
  152000   0.51550615   -5.7247087   -5.7247087   -4.9514497 -0.043469699   -5.7247087   0.77325904      8192000 
  153000   0.51564349   -5.7255312   -5.7255312   -4.9520662 -0.045326193   -5.7255312   0.77346504      8192000 
  154000   0.51591875   -5.7266784   -5.7266784   -4.9528005 -0.045877038   -5.7266784   0.77387794      8192000 
  155000   0.51586485   -5.7275204   -5.7275204   -4.9537233 -0.046546614   -5.7275204   0.77379708      8192000 
  156000   0.51606069   -5.7279255   -5.7279255   -4.9538347 -0.045835818   -5.7279255   0.77409084      8192000 
  157000   0.51636064   -5.7284693   -5.7284693   -4.9539285 -0.045379641   -5.7284693   0.77454077      8192000 
  158000   0.51670339   -5.7289288   -5.7289288   -4.9538739 -0.045659148   -5.7289288   0.77505489      8192000 
  159000   0.51668267   -5.7292083   -5.7292083   -4.9541845 -0.045698005   -5.7292083   0.77502382      8192000 
  160000   0.51698604   -5.7297108   -5.7297108   -4.9542319 -0.044917892   -5.7297108   0.77547886      8192000 
  161000   0.51672111   -5.7307849   -5.7307849   -4.9557034 -0.046292912   -5.7307849   0.77508147      8192000 
  162000   0.51682169   -5.7317047   -5.7317047   -4.9564724 -0.047132786   -5.7317047   0.77523234      8192000 
  163000   0.51680285   -5.7324206   -5.7324206   -4.9572165 -0.047970535   -5.7324206   0.77520409      8192000 
  164000   0.51700888   -5.7330156   -5.7330156   -4.9575025 -0.047027936   -5.7330156   0.77551313      8192000 
  165000   0.51676735   -5.7337823   -5.7337823   -4.9586314 -0.047675783   -5.7337823   0.77515083      8192000 
  166000   0.51744061   -5.7347397   -5.7347397    -4.958579 -0.047461028   -5.7347397   0.77616073      8192000 
  167000   0.51763991   -5.7352808   -5.7352808   -4.9588211 -0.047265695   -5.7352808   0.77645967      8192000 
  168000   0.51730399    -5.735844    -5.735844   -4.9598882 -0.048120444    -5.735844   0.77595579      8192000 
  169000   0.51745837   -5.7365097   -5.7365097   -4.9603224 -0.048049212   -5.7365097   0.77618736      8192000 
  170000   0.51756905   -5.7373074   -5.7373074    -4.960954 -0.048359444   -5.7373074   0.77635337      8192000 
  171000   0.51745971   -5.7376896   -5.7376896   -4.9615003 -0.047716212   -5.7376896   0.77618937      8192000 
  172000    0.5177186     -5.73836     -5.73836   -4.9617823  -0.04852956     -5.73836    0.7765777      8192000 
  173000   0.51816576   -5.7396039   -5.7396039   -4.9623555 -0.049841525   -5.7396039   0.77724844      8192000 
  174000   0.51808553   -5.7398995   -5.7398995   -4.9627714 -0.049493725   -5.7398995   0.77712811      8192000 
  175000   0.51810706    -5.740289    -5.740289   -4.9631287 -0.048346588    -5.740289   0.77716039      8192000 
  176000   0.51835376    -5.740962    -5.740962   -4.9634315  -0.04848137    -5.740962   0.77753044      8192000 
  177000   0.51853778   -5.7414182   -5.7414182   -4.9636118 -0.047855268   -5.7414182   0.77780647      8192000 
  178000   0.51883931   -5.7425298   -5.7425298   -4.9642711 -0.048983706   -5.7425298   0.77825876      8192000 
  179000   0.51884168   -5.7434322   -5.7434322   -4.9651699 -0.050735087   -5.7434322   0.77826233      8192000 
  180000   0.51903563   -5.7441796   -5.7441796   -4.9656263 -0.051524864   -5.7441796   0.77855324      8192000 
  181000   0.51913162   -5.7449209   -5.7449209   -4.9662237 -0.052423243   -5.7449209   0.77869724      8192000 
  182000   0.51908484   -5.7454773   -5.7454773   -4.9668502 -0.050379279   -5.7454773   0.77862707      8192000 
  183000   0.51881274    -5.746088    -5.746088   -4.9678691 -0.051700369    -5.746088   0.77821892      8192000 
  184000   0.51905303   -5.7466245   -5.7466245   -4.9680452 -0.051103416   -5.7466245   0.77857935      8192000 
  185000   0.51917625   -5.7472295   -5.7472295   -4.9684653 -0.051287063   -5.7472295   0.77876417      8192000 
  186000   0.51924425   -5.7480733   -5.7480733   -4.9692071  -0.05121312   -5.7480733   0.77886618      8192000 
  187000     0.519119   -5.7488737   -5.7488737   -4.9701954 -0.049862695   -5.7488737    0.7786783      8192000 
  188000   0.51956543   -5.7501904   -5.7501904   -4.9708424 -0.051744687   -5.7501904   0.77934795      8192000 
  189000   0.51959216   -5.7501779   -5.7501779   -4.9707899 -0.049698437   -5.7501779   0.77938804      8192000 
  190000   0.51957352   -5.7509194   -5.7509194   -4.9715593 -0.051571298   -5.7509194   0.77936009      8192000 
  191000    0.5197231   -5.7517889   -5.7517889   -4.9722045 -0.051137351   -5.7517889   0.77958446      8192000 
  192000   0.51992969   -5.7525486   -5.7525486   -4.9726542 -0.051541795   -5.7525486   0.77989434      8192000 
  193000   0.51993647   -5.7527568   -5.7527568   -4.9728523 -0.051120552   -5.7527568   0.77990451      8192000 
  194000   0.52025339   -5.7537843   -5.7537843   -4.9734044 -0.052301631   -5.7537843   0.78037989      8192000 
  195000   0.52028588   -5.7540023   -5.7540023   -4.9735737 -0.050823176   -5.7540023   0.78042863      8192000 
  196000    0.5201414   -5.7546191   -5.7546191   -4.9744072 -0.051195587   -5.7546191   0.78021191      8192000 
  197000    0.5204371   -5.7554731   -5.7554731   -4.9748177 -0.051388695   -5.7554731   0.78065545      8192000 
  198000   0.52040995   -5.7557964   -5.7557964   -4.9751816 -0.050606138   -5.7557964   0.78061473      8192000 
  199000   0.52078128   -5.7569696   -5.7569696   -4.9757979 -0.051344245   -5.7569696   0.78117172      8192000 
  200000   0.52089155   -5.7575942   -5.7575942   -4.9762571 -0.051321472   -5.7575942   0.78133713      8192000 
  201000   0.52059793   -5.7584459   -5.7584459   -4.9775492 -0.052365643   -5.7584459    0.7808967      8192000 
  202000    0.5207978   -5.7591904   -5.7591904   -4.9779939 -0.052165409   -5.7591904    0.7811965      8192000 
  203000    0.5209017   -5.7600655   -5.7600655   -4.9787131 -0.052481437   -5.7600655   0.78135236      8192000 
  204000   0.52099575   -5.7610576   -5.7610576   -4.9795642 -0.054187781   -5.7610576   0.78149343      8192000 
  205000   0.52058814   -5.7608952   -5.7608952   -4.9800132 -0.051951336   -5.7608952   0.78088202      8192000 
  206000   0.52099212   -5.7618213   -5.7618213   -4.9803333 -0.051683894   -5.7618213   0.78148799      8192000 
  207000   0.52117747   -5.7626759   -5.7626759   -4.9809099 -0.052123327   -5.7626759     0.781766      8192000 
  208000   0.52155574   -5.7638553   -5.7638553   -4.9815219 -0.052828985   -5.7638553   0.78233342      8192000 
  209000   0.52127938   -5.7641302   -5.7641302   -4.9822113 -0.052944665   -5.7641302   0.78191887      8192000 
  210000   0.52126903   -5.7647735   -5.7647735   -4.9828702 -0.052100891   -5.7647735   0.78190335      8192000 
  211000   0.52153536   -5.7655269   -5.7655269   -4.9832241 -0.052178553   -5.7655269   0.78230285      8192000 
  212000   0.52191122   -5.7664538   -5.7664538   -4.9835872  -0.05201758   -5.7664538   0.78286664      8192000 
  213000   0.52175422   -5.7670695   -5.7670695   -4.9844384  -0.05293643   -5.7670695   0.78263113      8192000 
  214000   0.52175327   -5.7677917   -5.7677917    -4.985162 -0.054450436   -5.7677917   0.78262971      8192000 
  215000   0.52169895   -5.7681298   -5.7681298   -4.9855816 -0.053587495   -5.7681298   0.78254822      8192000 
  216000     0.522053   -5.7687184   -5.7687184   -4.9856391 -0.053748107   -5.7687184   0.78307931      8192000 
  217000   0.52254471   -5.7694372   -5.7694372   -4.9856203 -0.053864573   -5.7694372   0.78381687      8192000 
  218000   0.52260176   -5.7704118   -5.7704118   -4.9865094 -0.055238653   -5.7704118   0.78390245      8192000 
  219000   0.52260461   -5.7708079   -5.7708079   -4.9869012 -0.054503286   -5.7708079   0.78390672      8192000 
  220000   0.52273073   -5.7713292   -5.7713292   -4.9872333 -0.054489174   -5.7713292    0.7840959      8192000 
  221000   0.52252336   -5.7713191   -5.7713191   -4.9875343 -0.052385414   -5.7713191   0.78378484      8192000 
  222000   0.52282242   -5.7721372   -5.7721372   -4.9879038 -0.053421394   -5.7721372   0.78423343      8192000 
  223000   0.52309156   -5.7731248   -5.7731248   -4.9884877 -0.054214395   -5.7731248   0.78463715      8192000 
  224000   0.52320111   -5.7736921   -5.7736921   -4.9888906 -0.053992926   -5.7736921   0.78480147      8192000 
  225000   0.52315605   -5.7742793   -5.7742793   -4.9895454 -0.053365682   -5.7742793   0.78473388      8192000 
  226000   0.52341454   -5.7747097   -5.7747097   -4.9895881 -0.052046899   -5.7747097   0.78512162      8192000 
  227000   0.52332523   -5.7752634   -5.7752634   -4.9902758 -0.053144054   -5.7752634   0.78498765      8192000 
  228000    0.5235877    -5.776342    -5.776342   -4.9909607 -0.054020379    -5.776342   0.78538135      8192000 
  229000   0.52363338   -5.7767569   -5.7767569    -4.991307 -0.052827087   -5.7767569   0.78544988      8192000 
  230000   0.52391645   -5.7774388   -5.7774388   -4.9915644 -0.052980731   -5.7774388   0.78587448      8192000 
  231000   0.52377301   -5.7784403   -5.7784403    -4.992781  -0.05329181   -5.7784403   0.78565932      8192000 
  232000    0.5240923   -5.7792141   -5.7792141   -4.9930759 -0.054101863   -5.7792141   0.78613825      8192000 
  233000   0.52418116   -5.7802359   -5.7802359   -4.9939644 -0.053982883   -5.7802359   0.78627155      8192000 
  234000    0.5240228   -5.7807185   -5.7807185   -4.9946844 -0.054794556   -5.7807185   0.78603401      8192000 
  235000   0.52426806   -5.7817394   -5.7817394   -4.9953375 -0.054721421   -5.7817394    0.7864019      8192000 
  236000   0.52438695   -5.7822969   -5.7822969   -4.9957166 -0.054571371   -5.7822969   0.78658022      8192000 
  237000   0.52424078   -5.7833794   -5.7833794   -4.9970185 -0.055817204   -5.7833794   0.78636098      8192000 
  238000   0.52405992   -5.7835972   -5.7835972   -4.9975075 -0.054884661   -5.7835972   0.78608969      8192000 
  239000   0.52439333   -5.7845366   -5.7845366   -4.9979468 -0.055251563   -5.7845366   0.78658979      8192000 
  240000   0.52457906   -5.7853892   -5.7853892   -4.9985208 -0.057461127   -5.7853892   0.78686839      8192000 
  241000   0.52459755     -5.78581     -5.78581   -4.9989139 -0.057034211     -5.78581   0.78689613      8192000 
  242000   0.52437832   -5.7860462   -5.7860462   -4.9994789 -0.056825108   -5.7860462   0.78656728      8192000 
  243000   0.52454183   -5.7866083   -5.7866083   -4.9997958 -0.055806553   -5.7866083   0.78681254      8192000 
  244000   0.52520755    -5.787391    -5.787391   -4.9995799 -0.056737513    -5.787391   0.78781113      8192000 
  245000   0.52506625    -5.787776    -5.787776   -5.0001769 -0.056102276    -5.787776   0.78759918      8192000 
  246000   0.52524963   -5.7886825   -5.7886825   -5.0008083 -0.055989146   -5.7886825   0.78787425      8192000 
  247000   0.52506112   -5.7890769   -5.7890769   -5.0014854 -0.055736972   -5.7890769   0.78759148      8192000 
  248000   0.52539476   -5.7894859   -5.7894859    -5.001394 -0.055011892   -5.7894859   0.78809194      8192000 
  249000   0.52558018    -5.790291    -5.790291    -5.001921 -0.055936882    -5.790291   0.78837007      8192000 
  250000    0.5255304   -5.7902075   -5.7902075   -5.0019121 -0.055014599   -5.7902075   0.78829541      8192000 
  251000   0.52565865   -5.7909103   -5.7909103   -5.0024225 -0.056205076   -5.7909103   0.78848778      8192000 
  252000   0.52573681   -5.7916458   -5.7916458   -5.0030408 -0.057067793   -5.7916458   0.78860501      8192000 
  253000   0.52578142    -5.792441    -5.792441   -5.0037691 -0.057550201    -5.792441   0.78867193      8192000 
  254000   0.52594035   -5.7930961   -5.7930961   -5.0041858 -0.057956704   -5.7930961   0.78891032      8192000 
  255000   0.52567615   -5.7932546   -5.7932546   -5.0047405 -0.057136146   -5.7932546   0.78851403      8192000 
  256000   0.52598909   -5.7943184   -5.7943184   -5.0053349 -0.058166427   -5.7943184   0.78898343      8192000 
  257000   0.52643044   -5.7951123   -5.7951123   -5.0054669 -0.058018922   -5.7951123   0.78964546      8192000 
  258000   0.52651442   -5.7955589   -5.7955589   -5.0057875 -0.058135475   -5.7955589   0.78977143      8192000 
  259000   0.52618373   -5.7955367   -5.7955367   -5.0062613 -0.056201426   -5.7955367   0.78927539      8192000 
  260000   0.52657948   -5.7969312   -5.7969312   -5.0070622 -0.058078036   -5.7969312   0.78986903      8192000 
  261000   0.52637509   -5.7976134   -5.7976134    -5.008051 -0.059356046   -5.7976134   0.78956244      8192000 
  262000   0.52664061   -5.7983995   -5.7983995   -5.0084388 -0.060142211   -5.7983995   0.78996072      8192000 
  263000   0.52667536   -5.7987583   -5.7987583   -5.0087455 -0.058207822   -5.7987583   0.79001284      8192000 
  264000   0.52689518   -5.7995722   -5.7995722   -5.0092296 -0.059493801   -5.7995722   0.79034257      8192000 
  265000   0.52697963   -5.7996576   -5.7996576   -5.0091883 -0.057091835   -5.7996576   0.79046924      8192000 
  266000   0.52723462   -5.8005769   -5.8005769   -5.0097251 -0.057351171   -5.8005769   0.79085173      8192000 
  267000   0.52741007   -5.8015695   -5.8015695   -5.0104546 -0.058469358   -5.8015695    0.7911149      8192000 
  268000   0.52748008   -5.8024377   -5.8024377   -5.0112178 -0.058609103   -5.8024377   0.79121992      8192000 
  269000   0.52748725   -5.8027681   -5.8027681   -5.0115374 -0.057747791   -5.8027681   0.79123067      8192000 
  270000   0.52717688   -5.8029353   -5.8029353   -5.0121701 -0.057953248   -5.8029353   0.79076512      8192000 
  271000   0.52741529   -5.8038366   -5.8038366   -5.0127139 -0.059208885   -5.8038366   0.79112274      8192000 
  272000   0.52780092   -5.8043451   -5.8043451   -5.0126439  -0.05961935   -5.8043451   0.79170118      8192000 
  273000   0.52780761   -5.8046606   -5.8046606   -5.0129494 -0.058680557   -5.8046606   0.79171122      8192000 
  274000   0.52804715   -5.8055519   -5.8055519   -5.0134813 -0.059681749   -5.8055519   0.79207052      8192000 
  275000   0.52823039   -5.8064751   -5.8064751   -5.0141297 -0.060414761   -5.8064751   0.79234539      8192000 
  276000   0.52818551   -5.8068284   -5.8068284   -5.0145504 -0.059797431   -5.8068284   0.79227807      8192000 
  277000    0.5284694    -5.807823    -5.807823   -5.0151191 -0.060820101    -5.807823    0.7927039      8192000 
  278000   0.52834794    -5.807904    -5.807904   -5.0153823 -0.058856854    -5.807904   0.79252171      8192000 
  279000    0.5285734   -5.8082449   -5.8082449    -5.015385 -0.058501271   -5.8082449   0.79285991      8192000 
  280000   0.52855823   -5.8091674   -5.8091674   -5.0163303  -0.05955857   -5.8091674   0.79283715      8192000 
  281000   0.52897839   -5.8100381   -5.8100381   -5.0165708 -0.060095199   -5.8100381   0.79346738      8192000 
  282000    0.5289366   -5.8105802   -5.8105802   -5.0171755 -0.059081144   -5.8105802    0.7934047      8192000 
  283000   0.52922601   -5.8115071   -5.8115071   -5.0176683  -0.06052964   -5.8115071   0.79383881      8192000 
  284000   0.52879855   -5.8113463   -5.8113463   -5.0181487 -0.059056502   -5.8113463   0.79319762      8192000 
  285000     0.529051   -5.8123332   -5.8123332   -5.0187569 -0.058852714   -5.8123332    0.7935763      8192000 
  286000   0.52940116   -5.8131229   -5.8131229   -5.0190214 -0.058973053   -5.8131229   0.79410153      8192000 
  287000   0.52963694   -5.8137787   -5.8137787   -5.0193235 -0.058310193   -5.8137787   0.79445521      8192000 
  288000   0.52976512   -5.8143639   -5.8143639   -5.0197165 -0.059364529   -5.8143639   0.79464749      8192000 
  289000   0.52975143   -5.8147022   -5.8147022   -5.0200752 -0.058780359   -5.8147022   0.79462695      8192000 
  290000   0.52957372   -5.8147866   -5.8147866   -5.0204262 -0.058147171   -5.8147866   0.79436039      8192000 
  291000   0.53006769   -5.8161157   -5.8161157   -5.0210143 -0.059359537   -5.8161157   0.79510134      8192000 
  292000   0.52997253   -5.8168896   -5.8168896    -5.021931 -0.060575261   -5.8168896    0.7949586      8192000 
  293000   0.52983087   -5.8170626   -5.8170626   -5.0223165 -0.059027036   -5.8170626   0.79474611      8192000 
  294000   0.53008342   -5.8181206   -5.8181206   -5.0229957 -0.060131408   -5.8181206   0.79512494      8192000 
  295000   0.53018758   -5.8184977   -5.8184977   -5.0232165 -0.059704551   -5.8184977   0.79528117      8192000 
  296000   0.53022552   -5.8193728   -5.8193728   -5.0240347 -0.059742883   -5.8193728   0.79533808      8192000 
  297000   0.53025305   -5.8203747   -5.8203747   -5.0249953 -0.061059946   -5.8203747   0.79537938      8192000 
  298000   0.53049969   -5.8211001   -5.8211001   -5.0253508 -0.060752493   -5.8211001   0.79574934      8192000 
  299000   0.53062166   -5.8222339   -5.8222339   -5.0263016 -0.061399219   -5.8222339   0.79593229      8192000 
  300000   0.53020819   -5.8225511   -5.8225511    -5.027239 -0.060489962   -5.8225511   0.79531208      8192000 
  301000    0.5306371   -5.8231638   -5.8231638   -5.0272084 -0.060903471   -5.8231638   0.79595545      8192000 
  302000   0.53090366   -5.8237194   -5.8237194   -5.0273641 -0.061274337   -5.8237194    0.7963553      8192000 
  303000   0.53097658   -5.8245774   -5.8245774   -5.0281127 -0.062657671   -5.8245774   0.79646466      8192000 
  304000    0.5311621   -5.8252736   -5.8252736   -5.0285306 -0.061201794   -5.8252736   0.79674295      8192000 
  305000   0.53135002   -5.8257841   -5.8257841   -5.0287593 -0.061529102   -5.8257841   0.79702482      8192000 
  306000   0.53154785   -5.8261775   -5.8261775   -5.0288559 -0.059823624   -5.8261775   0.79732157      8192000 
  307000   0.53166724   -5.8267696   -5.8267696   -5.0292689 -0.059912544   -5.8267696   0.79750066      8192000 
  308000   0.53158939   -5.8270487   -5.8270487   -5.0296648 -0.059178385   -5.8270487   0.79738389      8192000 
  309000   0.53173365   -5.8273928   -5.8273928   -5.0297925 -0.058898448   -5.8273928   0.79760028      8192000 
  310000   0.53172393   -5.8279567   -5.8279567    -5.030371  -0.05836699   -5.8279567   0.79758569      8192000 
  311000   0.53202348   -5.8290934   -5.8290934   -5.0310584  -0.06052596   -5.8290934   0.79803502      8192000 
  312000   0.53203915   -5.8295975   -5.8295975    -5.031539 -0.060788253   -5.8295975   0.79805853      8192000 
  313000    0.5321466    -5.831033    -5.831033   -5.0328133 -0.063104909    -5.831033    0.7982197      8192000 
  314000   0.53235605   -5.8317836   -5.8317836   -5.0332497  -0.06453947   -5.8317836   0.79853388      8192000 
  315000   0.53202974   -5.8322233   -5.8322233   -5.0341789 -0.062923532   -5.8322233   0.79804441      8192000 
  316000   0.53251265   -5.8328171   -5.8328171   -5.0340484 -0.063494326   -5.8328171   0.79876877      8192000 
  317000   0.53227074    -5.832832    -5.832832    -5.034426 -0.062567402    -5.832832   0.79840592      8192000 
  318000   0.53218646   -5.8330954   -5.8330954   -5.0348159 -0.060683015   -5.8330954   0.79827949      8192000 
  319000   0.53224457   -5.8344486   -5.8344486    -5.036082 -0.062507075   -5.8344486   0.79836666      8192000 
  320000    0.5325801   -5.8351248   -5.8351248   -5.0362549  -0.06246182   -5.8351248   0.79886996      8192000 
  321000    0.5330054   -5.8361073   -5.8361073   -5.0365994 -0.063096506   -5.8361073    0.7995079      8192000 
  322000    0.5330669   -5.8360525   -5.8360525   -5.0364524 -0.061629563   -5.8360525   0.79960015      8192000 
  323000   0.53315411   -5.8365262   -5.8365262   -5.0367952 -0.062514477   -5.8365262   0.79973096      8192000 
  324000   0.53329522    -5.837868    -5.837868   -5.0379254 -0.064447467    -5.837868   0.79994263      8192000 
  325000   0.53349857   -5.8379628   -5.8379628   -5.0377152 -0.062947112   -5.8379628   0.80024766      8192000 
  326000   0.53363891    -5.838829    -5.838829   -5.0383708 -0.062587937    -5.838829   0.80045817      8192000 
  327000   0.53371662   -5.8392847   -5.8392847   -5.0387099 -0.063135686   -5.8392847   0.80057473      8192000 
  328000   0.53344736   -5.8397665   -5.8397665   -5.0395956 -0.063537799   -5.8397665   0.80017084      8192000 
  329000   0.53356605   -5.8404159   -5.8404159   -5.0400671 -0.063420866   -5.8404159   0.80034887      8192000 
  330000   0.53345395   -5.8404775   -5.8404775   -5.0402968 -0.062665032   -5.8404775   0.80018072      8192000 
  331000   0.53379245   -5.8412889   -5.8412889   -5.0406005 -0.063053544   -5.8412889   0.80068848      8192000 
  332000   0.53362649   -5.8416229   -5.8416229   -5.0411834 -0.062667161   -5.8416229   0.80043953      8192000 
  333000   0.53423894   -5.8426754   -5.8426754   -5.0413172 -0.063981256   -5.8426754   0.80135821      8192000 
  334000   0.53420664   -5.8427671   -5.8427671   -5.0414573 -0.063168358   -5.8427671   0.80130976      8192000 
  335000   0.53408124   -5.8435407   -5.8435407   -5.0424191  -0.06342236   -5.8435407   0.80112166      8192000 
  336000   0.53419427   -5.8448046   -5.8448046   -5.0435133 -0.065525802   -5.8448046   0.80129121      8192000 
  337000   0.53443745   -5.8449976   -5.8449976   -5.0433417 -0.063696732   -5.8449976   0.80165597      8192000 
  338000   0.53444471   -5.8452904   -5.8452904   -5.0436236 -0.064011754   -5.8452904   0.80166687      8192000 
  339000   0.53457054   -5.8461005   -5.8461005   -5.0442449 -0.064935592   -5.8461005   0.80185561      8192000 
  340000   0.53459992   -5.8468879   -5.8468879   -5.0449883  -0.06675889   -5.8468879   0.80189968      8192000 
  341000   0.53409077   -5.8470483   -5.8470483   -5.0459123 -0.065634717   -5.8470483   0.80113596      8192000 
  342000   0.53442203   -5.8477111   -5.8477111   -5.0460782 -0.064775959   -5.8477111   0.80163284      8192000 
  343000   0.53461142   -5.8483107   -5.8483107   -5.0463938 -0.064775887   -5.8483107   0.80191693      8192000 
  344000   0.53481583   -5.8494072   -5.8494072   -5.0471837 -0.064504989   -5.8494072   0.80222355      8192000 
  345000   0.53509198   -5.8504092   -5.8504092   -5.0477715 -0.066329345   -5.8504092   0.80263777      8192000 
  346000   0.53506952   -5.8507942   -5.8507942   -5.0481901 -0.065858124   -5.8507942   0.80260409      8192000 
  347000    0.5351539   -5.8513399   -5.8513399   -5.0486093 -0.065405373   -5.8513399   0.80273065      8192000 
  348000   0.53522511   -5.8513338   -5.8513338   -5.0484963  -0.06295426   -5.8513338   0.80283746      8192000 
  349000   0.53578927   -5.8522836   -5.8522836   -5.0485999 -0.064632643   -5.8522836    0.8036837      8192000 
  350000   0.53573359   -5.8532527   -5.8532527   -5.0496526   -0.0648508   -5.8532527   0.80360018      8192000 
  351000   0.53566002   -5.8534688   -5.8534688    -5.049979 -0.064960094   -5.8534688   0.80348983      8192000 
  352000   0.53590781   -5.8536109   -5.8536109   -5.0497494 -0.063301977   -5.8536109   0.80386152      8192000 
  353000   0.53601019   -5.8543045   -5.8543045   -5.0502895 -0.063479587   -5.8543045   0.80401508      8192000 
  354000   0.53634003   -5.8544965   -5.8544965   -5.0499867 -0.062785262   -5.8544965   0.80450984      8192000 
  355000   0.53602735   -5.8545269   -5.8545269   -5.0504861 -0.062559542   -5.8545269   0.80404083      8192000 
  356000    0.5361938   -5.8556513   -5.8556513   -5.0513608 -0.064822544   -5.8556513   0.80429049      8192000 
  357000   0.53626919   -5.8558037   -5.8558037   -5.0514002 -0.064187429   -5.8558037   0.80440358      8192000 
  358000    0.5366011   -5.8569414   -5.8569414   -5.0520399 -0.065472895   -5.8569414   0.80490144      8192000 
  359000   0.53661012   -5.8577643   -5.8577643   -5.0528493 -0.066586107   -5.8577643   0.80491498      8192000 
  360000   0.53663645   -5.8580677   -5.8580677   -5.0531132 -0.065262387   -5.8580677   0.80495448      8192000 
  361000   0.53705571   -5.8591433   -5.8591433   -5.0535599 -0.065231115   -5.8591433   0.80558336      8192000 
  362000   0.53673934   -5.8590617   -5.8590617   -5.0539529 -0.063031793   -5.8590617   0.80510881      8192000 
  363000   0.53728999   -5.8604723   -5.8604723   -5.0545375 -0.066416479   -5.8604723   0.80593478      8192000 
  364000    0.5368392   -5.8602693   -5.8602693   -5.0550107 -0.064753972   -5.8602693    0.8052586      8192000 
  365000   0.53692042   -5.8609011   -5.8609011   -5.0555207 -0.063988424   -5.8609011   0.80538043      8192000 
  366000   0.53735918   -5.8622045   -5.8622045   -5.0561659 -0.065805505   -5.8622045   0.80603857      8192000 
  367000    0.5369392   -5.8625571   -5.8625571   -5.0571485 -0.064717368   -5.8625571   0.80540859      8192000 
  368000   0.53703548   -5.8631139   -5.8631139   -5.0575609 -0.064694717   -5.8631139   0.80555303      8192000 
  369000   0.53713431   -5.8638711   -5.8638711   -5.0581699 -0.065475875   -5.8638711   0.80570126      8192000 
  370000   0.53722637   -5.8642868   -5.8642868   -5.0584475 -0.064470803   -5.8642868   0.80583936      8192000 
  371000   0.53788197   -5.8653323   -5.8653323   -5.0585096 -0.065349538   -5.8653323   0.80682276      8192000 
  372000   0.53783334   -5.8658257   -5.8658257   -5.0590759 -0.064746375   -5.8658257   0.80674981      8192000 
  373000   0.53789015   -5.8665194   -5.8665194   -5.0596844 -0.064752469   -5.8665194   0.80683502      8192000 
  374000   0.53807611   -5.8671805   -5.8671805   -5.0600665 -0.064500028   -5.8671805   0.80711396      8192000 
  375000   0.53815965   -5.8674691   -5.8674691   -5.0602298 -0.063537574   -5.8674691   0.80723928      8192000 
  376000   0.53827764   -5.8681476   -5.8681476   -5.0607314 -0.063650629   -5.8681476   0.80741626      8192000 
  377000   0.53862755   -5.8692489   -5.8692489   -5.0613078 -0.065106955   -5.8692489   0.80794112      8192000 
  378000   0.53860013   -5.8696653   -5.8696653   -5.0617654 -0.064245585   -5.8696653       0.8079      8192000 
  379000   0.53845443   -5.8700563   -5.8700563   -5.0623749 -0.063687619   -5.8700563   0.80768144      8192000 
  380000   0.53868329   -5.8706106   -5.8706106   -5.0625858 -0.062772704   -5.8706106   0.80802474      8192000 
  381000   0.53885418   -5.8713808   -5.8713808   -5.0630997 -0.063363237   -5.8713808   0.80828107      8192000 
  382000   0.53865661   -5.8712923   -5.8712923   -5.0633075 -0.061428131   -5.8712923   0.80798472      8192000 
  383000   0.53915698   -5.8720097   -5.8720097   -5.0632745 -0.062239889   -5.8720097   0.80873526      8192000 
  384000   0.53902923   -5.8718902   -5.8718902   -5.0633465 -0.061197111   -5.8718902   0.80854364      8192000 
  385000   0.53905774   -5.8724588   -5.8724588   -5.0638724 -0.061805696   -5.8724588    0.8085864      8192000 
  386000   0.53927893   -5.8731176   -5.8731176   -5.0641994  -0.06236331   -5.8731176    0.8089182      8192000 
  387000   0.53918044   -5.8735286   -5.8735286   -5.0647582 -0.061602635   -5.8735286   0.80877046      8192000 
  388000    0.5392305   -5.8743059   -5.8743059   -5.0654604 -0.062635844   -5.8743059   0.80884555      8192000 
  389000   0.53954215   -5.8755581   -5.8755581    -5.066245 -0.065044955   -5.8755581   0.80931302      8192000 
  390000     0.539202   -5.8757523   -5.8757523   -5.0669495 -0.064703943   -5.8757523    0.8088028      8192000 
  391000   0.53942036   -5.8764815   -5.8764815   -5.0673512 -0.064913473   -5.8764815   0.80913034      8192000 
  392000   0.53936523   -5.8770369   -5.8770369   -5.0679893 -0.064887236   -5.8770369   0.80904764      8192000 
  393000   0.53958159   -5.8780697   -5.8780697   -5.0686975 -0.066487419   -5.8780697   0.80937219      8192000 
  394000   0.53989771   -5.8786726   -5.8786726   -5.0688262 -0.066523935   -5.8786726   0.80984637      8192000 
  395000   0.53978832   -5.8784153   -5.8784153    -5.068733 -0.065386745   -5.8784153   0.80968228      8192000 
  396000   0.54036022   -5.8792133   -5.8792133   -5.0686732 -0.065053252   -5.8792133   0.81054013      8192000 
  397000   0.54042678   -5.8797947   -5.8797947   -5.0691547 -0.065724836   -5.8797947   0.81063996      8192000 
  398000   0.54017348   -5.8799476   -5.8799476   -5.0696876 -0.065107961   -5.8799476   0.81026001      8192000 
  399000    0.5398911   -5.8804254   -5.8804254   -5.0705889 -0.065682469   -5.8804254   0.80983645      8192000 
  400000   0.54028272   -5.8809983   -5.8809983   -5.0705744 -0.066433116   -5.8809983   0.81042388      8192000 
  401000   0.54057797   -5.8815966   -5.8815966   -5.0707299 -0.066485996   -5.8815966   0.81086676      8192000 
  402000   0.54054047     -5.88151     -5.88151   -5.0706995 -0.065196259     -5.88151    0.8108105      8192000 
  403000   0.54037234   -5.8816437   -5.8816437   -5.0710854 -0.064209789   -5.8816437   0.81055831      8192000 
  404000    0.5409468   -5.8827784   -5.8827784   -5.0713584 -0.065243928   -5.8827784      0.81142      8192000 
  405000   0.54115353    -5.883474    -5.883474   -5.0717439 -0.065747106    -5.883474   0.81173009      8192000 
  406000   0.54097104   -5.8836043   -5.8836043   -5.0721479 -0.065269506   -5.8836043   0.81145636      8192000 
  407000    0.5411311   -5.8843415   -5.8843415   -5.0726451  -0.06584156   -5.8843415   0.81169644      8192000 
  408000   0.54117335   -5.8846398   -5.8846398     -5.07288 -0.065550108   -5.8846398   0.81175982      8192000 
  409000   0.54115537   -5.8847978   -5.8847978   -5.0730649 -0.064487846   -5.8847978   0.81173284      8192000 
  410000   0.54145846   -5.8855669   -5.8855669   -5.0733794 -0.064169459   -5.8855669   0.81218748      8192000 
  411000   0.54177132   -5.8867015   -5.8867015   -5.0740447 -0.065214817   -5.8867015   0.81265678      8192000 
  412000   0.54164974   -5.8868328   -5.8868328   -5.0743584 -0.064440484   -5.8868328    0.8124744      8192000 
  413000   0.54187713   -5.8870392   -5.8870392   -5.0742237 -0.063434405   -5.8870392   0.81281549      8192000 
  414000   0.54208028   -5.8878162   -5.8878162    -5.074696 -0.065411945   -5.8878162   0.81312022      8192000 
  415000   0.54227627   -5.8885674   -5.8885674   -5.0751532 -0.065240877   -5.8885674    0.8134142      8192000 
  416000   0.54217953    -5.889304    -5.889304   -5.0760349 -0.064965497    -5.889304   0.81326909      8192000 
  417000    0.5423509   -5.8899857   -5.8899857   -5.0764595 -0.065316952   -5.8899857   0.81352615      8192000 
  418000   0.54242481   -5.8902833   -5.8902833   -5.0766462 -0.065285704   -5.8902833   0.81363701      8192000 
  419000    0.5421495   -5.8905353   -5.8905353   -5.0773112 -0.065904766   -5.8905353   0.81322404      8192000 
  420000   0.54239094    -5.890972    -5.890972   -5.0773858 -0.064915772    -5.890972   0.81358621      8192000 
  421000   0.54277145   -5.8922657   -5.8922657   -5.0781087 -0.066689715   -5.8922657   0.81415697      8192000 
  422000   0.54216822   -5.8921433   -5.8921433   -5.0788912 -0.064893846   -5.8921433   0.81325212      8192000 
  423000   0.54235076   -5.8925553   -5.8925553   -5.0790294  -0.06532976   -5.8925553   0.81352593      8192000 
  424000   0.54262352    -5.892702    -5.892702   -5.0787669 -0.064112221    -5.892702   0.81393508      8192000 
  425000   0.54274406   -5.8933221   -5.8933221   -5.0792062 -0.064966392   -5.8933221   0.81411589      8192000 
  426000   0.54315973   -5.8942045   -5.8942045   -5.0794651 -0.066191342   -5.8942045   0.81473938      8192000 
  427000   0.54292594   -5.8942354   -5.8942354   -5.0798467 -0.064188699   -5.8942354    0.8143887      8192000 
  428000   0.54264592    -5.894494    -5.894494   -5.0805253 -0.064358941    -5.894494   0.81396868      8192000 
  429000   0.54340893   -5.8957541   -5.8957541   -5.0806409 -0.064638856   -5.8957541   0.81511319      8192000 
  430000   0.54356423   -5.8960401   -5.8960401    -5.080694  -0.06369209   -5.8960401   0.81534614      8192000 
  431000   0.54333253   -5.8961812   -5.8961812   -5.0811826 -0.063939898   -5.8961812   0.81499859      8192000 
  432000    0.5438437   -5.8970686   -5.8970686   -5.0813032 -0.065144034   -5.8970686   0.81576534      8192000 
  433000   0.54378013   -5.8971838   -5.8971838   -5.0815138  -0.06356242   -5.8971838   0.81566999      8192000 
  434000   0.54397251   -5.8975205   -5.8975205   -5.0815619 -0.063825268   -5.8975205   0.81595856      8192000 
  435000   0.54405461   -5.8977261   -5.8977261   -5.0816444 -0.063716511   -5.8977261   0.81608171      8192000 
  436000   0.54410411   -5.8983856   -5.8983856   -5.0822296 -0.064462638   -5.8983856   0.81615596      8192000 
  437000   0.54405327   -5.8989617   -5.8989617    -5.082882  -0.06461458   -5.8989617    0.8160797      8192000 
  438000   0.54457513   -5.9001645   -5.9001645    -5.083302 -0.066462868   -5.9001645   0.81686248      8192000 
  439000   0.54426361   -5.8999127   -5.8999127   -5.0835174 -0.064613847   -5.8999127   0.81639521      8192000 
  440000   0.54402939   -5.9003787   -5.9003787   -5.0843348 -0.063891362   -5.9003787   0.81604388      8192000 
  441000   0.54449511   -5.9013263   -5.9013263   -5.0845838 -0.065501313   -5.9013263   0.81674245      8192000 
  442000   0.54454914   -5.9018389   -5.9018389   -5.0850154 -0.065629503   -5.9018389    0.8168235      8192000 
  443000   0.54474467   -5.9021613   -5.9021613   -5.0850445  -0.06497578   -5.9021613   0.81711679      8192000 
  444000   0.54499992   -5.9029288   -5.9029288   -5.0854291 -0.065151728   -5.9029288   0.81749968      8192000 
  445000   0.54479531   -5.9028443   -5.9028443   -5.0856515 -0.064850625   -5.9028443   0.81719275      8192000 
  446000   0.54489382   -5.9036724   -5.9036724   -5.0863318 -0.065799655   -5.9036724   0.81734052      8192000 
  447000   0.54481182   -5.9037938   -5.9037938   -5.0865763   -0.0643259   -5.9037938   0.81721752      8192000 
  448000    0.5451468   -5.9043107   -5.9043107   -5.0865907 -0.064243761   -5.9043107      0.81772      8192000 
  449000   0.54506319   -5.9048056   -5.9048056    -5.087211 -0.065321154   -5.9048056   0.81759458      8192000 
  450000   0.54532338   -5.9055389   -5.9055389   -5.0875541 -0.064990145   -5.9055389   0.81798486      8192000 
  451000   0.54544333   -5.9061217   -5.9061217   -5.0879569 -0.065141343   -5.9061217    0.8181648      8192000 
  452000   0.54557548   -5.9069241   -5.9069241   -5.0885611 -0.066116842   -5.9069241   0.81836301      8192000 
  453000    0.5455944   -5.9069634   -5.9069634    -5.088572 -0.064090329   -5.9069634    0.8183914      8192000 
  454000    0.5458439   -5.9075246   -5.9075246   -5.0887589 -0.064189628   -5.9075246   0.81876564      8192000 
  455000   0.54574304   -5.9080594   -5.9080594    -5.089445 -0.064577529   -5.9080594   0.81861436      8192000 
  456000      0.54589   -5.9084673   -5.9084673   -5.0896325 -0.063804767   -5.9084673   0.81883479      8192000 
  457000   0.54624153   -5.9091807   -5.9091807   -5.0898186 -0.064209601   -5.9091807   0.81936208      8192000 
  458000   0.54627328   -5.9097272   -5.9097272   -5.0903175 -0.064141401   -5.9097272   0.81940971      8192000 
  459000   0.54664765   -5.9102105   -5.9102105   -5.0902392 -0.064781781   -5.9102105   0.81997127      8192000 
  460000   0.54678414   -5.9097794   -5.9097794   -5.0896034  -0.06281458   -5.9097794   0.82017601      8192000 
  461000   0.54661113    -5.909568    -5.909568   -5.0896515 -0.061604805    -5.909568   0.81991649      8192000 
  462000   0.54697813   -5.9099232   -5.9099232   -5.0894562 -0.062055465   -5.9099232   0.82046699      8192000 
  463000   0.54709609   -5.9108095   -5.9108095   -5.0901656 -0.062996375   -5.9108095   0.82064393      8192000 
  464000   0.54697859   -5.9113733   -5.9113733   -5.0909056 -0.064152939   -5.9113733   0.82046768      8192000 
  465000   0.54727362   -5.9122383   -5.9122383   -5.0913281 -0.065326386   -5.9122383   0.82091022      8192000 
  466000   0.54701845   -5.9125941   -5.9125941   -5.0920666 -0.064890011   -5.9125941   0.82052747      8192000 
  467000   0.54719115   -5.9134136   -5.9134136   -5.0926271 -0.065203053   -5.9134136   0.82078652      8192000 
  468000   0.54724539   -5.9136119   -5.9136119    -5.092744 -0.064615643   -5.9136119   0.82086788      8192000 
  469000   0.54742132   -5.9144662   -5.9144662   -5.0933344 -0.064031911   -5.9144662   0.82113178      8192000 
  470000   0.54740172   -5.9149997   -5.9149997   -5.0938974  -0.06610216   -5.9149997   0.82110237      8192000 
  471000   0.54738791   -5.9153686   -5.9153686    -5.094287 -0.065549002   -5.9153686   0.82108166      8192000 
  472000   0.54784783   -5.9167738   -5.9167738   -5.0950023 -0.066156686   -5.9167738   0.82177153      8192000 
  473000   0.54822982   -5.9168509   -5.9168509   -5.0945063 -0.064652141   -5.9168509   0.82234453      8192000 
  474000   0.54784326   -5.9173774   -5.9173774   -5.0956127 -0.065809043   -5.9173774   0.82176468      8192000 
  475000   0.54780629   -5.9179308   -5.9179308   -5.0962215 -0.065435383   -5.9179308   0.82170923      8192000 
  476000   0.54797232   -5.9188151   -5.9188151   -5.0968568 -0.066229184   -5.9188151   0.82195828      8192000 
  477000    0.5480328   -5.9191878   -5.9191878   -5.0971388  -0.06489537   -5.9191878     0.822049      8192000 
  478000   0.54841394   -5.9201855   -5.9201855   -5.0975648 -0.066328955   -5.9201855   0.82262071      8192000 
  479000   0.54850344   -5.9203299   -5.9203299    -5.097575 -0.064886594   -5.9203299   0.82275496      8192000 
  480000   0.54837988   -5.9203183   -5.9203183   -5.0977487 -0.064026402   -5.9203183   0.82256961      8192000 
  481000   0.54836682   -5.9205448   -5.9205448   -5.0979948 -0.063465561   -5.9205448   0.82255003      8192000 
  482000   0.54874968   -5.9210427   -5.9210427   -5.0979184 -0.063390793   -5.9210427   0.82312431      8192000 
  483000   0.54878771    -5.921859    -5.921859   -5.0986777 -0.064647301    -5.921859   0.82318136      8192000 
  484000   0.54898426   -5.9225804   -5.9225804   -5.0991042 -0.065530023   -5.9225804   0.82347618      8192000 
  485000   0.54877782   -5.9223755   -5.9223755    -5.099209 -0.064029419   -5.9223755   0.82316653      8192000 
  486000   0.54892412   -5.9229102   -5.9229102   -5.0995242 -0.064407487   -5.9229102   0.82338597      8192000 
  487000   0.54902975   -5.9236124   -5.9236124    -5.100068 -0.065077384   -5.9236124   0.82354442      8192000 
  488000   0.54906329   -5.9239221   -5.9239221   -5.1003274 -0.064510596   -5.9239221   0.82359473      8192000 
  489000   0.54896673   -5.9245713   -5.9245713   -5.1011214 -0.065451108   -5.9245713   0.82344989      8192000 
  490000   0.54899808   -5.9250838   -5.9250838   -5.1015869 -0.065498374   -5.9250838   0.82349691      8192000 
  491000   0.54901967   -5.9253047   -5.9253047   -5.1017754 -0.065990669   -5.9253047    0.8235293      8192000 
  492000   0.54929471   -5.9255409   -5.9255409    -5.101599 -0.066166154   -5.9255409   0.82394186      8192000 
  493000   0.54953477   -5.9261096   -5.9261096   -5.1018077 -0.065480135   -5.9261096   0.82430194      8192000 
  494000    0.5493306   -5.9263982   -5.9263982   -5.1024026 -0.065170056   -5.9263982   0.82399569      8192000 
  495000   0.54976481    -5.926742    -5.926742   -5.1020949 -0.064600757    -5.926742   0.82464701      8192000 
  496000   0.54964145   -5.9266978   -5.9266978   -5.1022359 -0.063956111   -5.9266978   0.82446197      8192000 
  497000   0.55016658   -5.9277758   -5.9277758   -5.1025262 -0.064844119   -5.9277758   0.82524966      8192000 
  498000   0.54995166   -5.9284947   -5.9284947   -5.1035674 -0.064889457   -5.9284947   0.82492728      8192000 
  499000   0.55007924   -5.9286325   -5.9286325   -5.1035138 -0.064421736   -5.9286325   0.82511866      8192000 
  500000   0.55037118   -5.9292997   -5.9292997   -5.1037431 -0.065570931   -5.9292997   0.82555656      8192000 
  501000   0.55041666   -5.9295061   -5.9295061   -5.1038813 -0.064934759   -5.9295061   0.82562479      8192000 
  502000   0.55063197   -5.9302953   -5.9302953   -5.1043476 -0.066339561   -5.9302953   0.82594774      8192000 
  503000   0.55072679   -5.9303694   -5.9303694   -5.1042794 -0.064522805   -5.9303694   0.82608998      8192000 
  504000   0.55080731   -5.9306821   -5.9306821   -5.1044714 -0.064149748   -5.9306821   0.82621076      8192000 
  505000   0.55089026   -5.9305968   -5.9305968   -5.1042616  -0.06392402   -5.9305968   0.82633518      8192000 
  506000   0.55081666   -5.9310574   -5.9310574   -5.1048326 -0.064382448   -5.9310574   0.82622479      8192000 
  507000   0.55117134   -5.9316738   -5.9316738    -5.104917 -0.064542758   -5.9316738    0.8267568      8192000 
  508000   0.55109629   -5.9324865   -5.9324865   -5.1058423  -0.06473778   -5.9324865   0.82664423      8192000 
  509000   0.55149212   -5.9330494   -5.9330494   -5.1058115 -0.064164108   -5.9330494   0.82723798      8192000 
  510000   0.55146685   -5.9330376   -5.9330376   -5.1058375 -0.062998638   -5.9330376   0.82720007      8192000 
  511000   0.55153603   -5.9333728   -5.9333728    -5.106069 -0.062732706   -5.9333728   0.82730384      8192000 
  512000   0.55151683   -5.9338678   -5.9338678   -5.1065928 -0.062861043   -5.9338678   0.82727504      8192000 
  513000   0.55171821   -5.9345386   -5.9345386   -5.1069615 -0.063461744   -5.9345386   0.82757711      8192000 
  514000   0.55181879   -5.9350683   -5.9350683   -5.1073403 -0.064084463   -5.9350683   0.82772798      8192000 
  515000    0.5519772   -5.9359057   -5.9359057   -5.1079401 -0.065596563   -5.9359057    0.8279656      8192000 
  516000   0.55206745    -5.935942    -5.935942   -5.1078411 -0.064665302    -5.935942   0.82810097      8192000 
  517000   0.55197845   -5.9359906   -5.9359906   -5.1080231  -0.06352698   -5.9359906   0.82796747      8192000 
  518000   0.55210438   -5.9365686   -5.9365686   -5.1084122 -0.063460067   -5.9365686   0.82815637      8192000 
  519000   0.55234517   -5.9370574   -5.9370574   -5.1085399 -0.063494553   -5.9370574   0.82851755      8192000 
  520000   0.55233377    -5.937466    -5.937466   -5.1089656  -0.06184287    -5.937466   0.82850045      8192000 
  521000   0.55224821   -5.9382426   -5.9382426   -5.1098705 -0.063783201   -5.9382426   0.82837211      8192000 
  522000   0.55249517    -5.938823    -5.938823   -5.1100804 -0.065450261    -5.938823   0.82874255      8192000 
  523000   0.55255261   -5.9389164   -5.9389164   -5.1100877 -0.064899823   -5.9389164    0.8288287      8192000 
  524000   0.55274684   -5.9392141   -5.9392141    -5.110094 -0.064080545   -5.9392141   0.82912005      8192000 
  525000   0.55243457   -5.9390279   -5.9390279   -5.1103762 -0.063272004   -5.9390279   0.82865165      8192000 
  526000   0.55299756   -5.9399983   -5.9399983   -5.1105022  -0.06317774   -5.9399983   0.82949613      8192000 
  527000   0.55310975   -5.9405872   -5.9405872   -5.1109228  -0.06395166   -5.9405872   0.82966442      8192000 
  528000   0.55311442   -5.9413122   -5.9413122   -5.1116408 -0.064218781   -5.9413122   0.82967143      8192000 
  529000   0.55329346   -5.9415805   -5.9415805   -5.1116406 -0.063299517   -5.9415805   0.82993998      8192000 
  530000   0.55329008    -5.941858    -5.941858   -5.1119231 -0.062853309    -5.941858   0.82993491      8192000 
  531000   0.55330949    -5.942667    -5.942667    -5.112703 -0.064078335    -5.942667   0.82996403      8192000 
  532000   0.55355497   -5.9428665   -5.9428665   -5.1125343 -0.062185214   -5.9428665   0.83033224      8192000 
  533000    0.5537153   -5.9436501   -5.9436501   -5.1130774 -0.063616548   -5.9436501   0.83057274      8192000 
  534000   0.55437969    -5.944373    -5.944373   -5.1128037 -0.062990626    -5.944373   0.83156933      8192000 
  535000   0.55401473   -5.9443914   -5.9443914   -5.1133695 -0.061826656   -5.9443914   0.83102189      8192000 
  536000   0.55388228   -5.9443745   -5.9443745   -5.1135513 -0.060281248   -5.9443745   0.83082321      8192000 
  537000   0.55390291   -5.9449813   -5.9449813   -5.1141272 -0.062297771   -5.9449813   0.83085416      8192000 
  538000   0.55408693   -5.9448743   -5.9448743   -5.1137442 -0.060811697   -5.9448743   0.83113019      8192000 
  539000   0.55471724   -5.9461369   -5.9461369   -5.1140613 -0.062628362   -5.9461369   0.83207565      8192000 
  540000   0.55454768   -5.9461852   -5.9461852   -5.1143639 -0.061418627   -5.9461852   0.83182131      8192000 
  541000   0.55440887   -5.9464081   -5.9464081    -5.114795  -0.06075866   -5.9464081   0.83161309      8192000 
  542000    0.5544578   -5.9467428   -5.9467428   -5.1150563 -0.060354676   -5.9467428   0.83168649      8192000 
  543000   0.55468685   -5.9475348   -5.9475348   -5.1155048   -0.0603893   -5.9475348   0.83203007      8192000 
  544000   0.55454813   -5.9477101   -5.9477101   -5.1158881 -0.061493503   -5.9477101   0.83182199      8192000 
  545000   0.55458687   -5.9482643   -5.9482643   -5.1163842 -0.061457309   -5.9482643    0.8318801      8192000 
  546000   0.55501498   -5.9490193   -5.9490193   -5.1164971 -0.062174978   -5.9490193   0.83252226      8192000 
  547000   0.55495401   -5.9494103   -5.9494103   -5.1169795 -0.062305338   -5.9494103   0.83243081      8192000 
  548000    0.5550984   -5.9496246   -5.9496246   -5.1169772  -0.06208047   -5.9496246   0.83264739      8192000 
  549000    0.5550436    -5.949804    -5.949804   -5.1172388 -0.061530487    -5.949804    0.8325652      8192000 
  550000   0.55523427   -5.9500062   -5.9500062    -5.117155 -0.060851662   -5.9500062   0.83285119      8192000 
  551000   0.55546199   -5.9504078   -5.9504078    -5.117215 -0.061202624   -5.9504078   0.83319278      8192000 
  552000   0.55567447   -5.9507523   -5.9507523   -5.1172408 -0.061227998   -5.9507523    0.8335115      8192000 
  553000   0.55589097   -5.9514611   -5.9514611   -5.1176248 -0.061764493   -5.9514611   0.83383624      8192000 
  554000   0.55578566   -5.9517971   -5.9517971   -5.1181189 -0.062341153   -5.9517971   0.83367828      8192000 
  555000   0.55584996   -5.9516881   -5.9516881   -5.1179134 -0.061568158   -5.9516881   0.83377473      8192000 
  556000   0.55604514   -5.9520137   -5.9520137   -5.1179462 -0.060379618   -5.9520137    0.8340675      8192000 
  557000   0.55572426   -5.9518571   -5.9518571   -5.1182709 -0.058688854   -5.9518571   0.83358618      8192000 
  558000   0.55625123   -5.9530692   -5.9530692   -5.1186925 -0.060980509   -5.9530692   0.83437663      8192000 
  559000   0.55657704   -5.9534048   -5.9534048   -5.1185394 -0.060203562   -5.9534048   0.83486535      8192000 
  560000    0.5568374   -5.9537923   -5.9537923   -5.1185364 -0.060919234   -5.9537923    0.8352559      8192000 
  561000   0.55629926   -5.9535203   -5.9535203   -5.1190716 -0.059570633   -5.9535203   0.83444868      8192000 
  562000   0.55669033   -5.9544588   -5.9544588   -5.1194235 -0.059440205   -5.9544588   0.83503528      8192000 
  563000   0.55650694   -5.9548136   -5.9548136   -5.1200534 -0.060662684   -5.9548136    0.8347602      8192000 
  564000   0.55665691    -5.955239    -5.955239   -5.1202539 -0.060210057    -5.955239   0.83498516      8192000 
  565000   0.55661741   -5.9558565   -5.9558565   -5.1209306  -0.06185221   -5.9558565    0.8349259      8192000 
  566000   0.55676479   -5.9564348   -5.9564348   -5.1212878  -0.06174126   -5.9564348   0.83514698      8192000 
  567000   0.55695048   -5.9568146   -5.9568146   -5.1213891 -0.062216248   -5.9568146   0.83542551      8192000 
  568000   0.55723535   -5.9569382   -5.9569382   -5.1210854 -0.060301563   -5.9569382   0.83585282      8192000 
  569000   0.55717239   -5.9573329   -5.9573329   -5.1215745 -0.059323504   -5.9573329   0.83575838      8192000 
  570000    0.5572373   -5.9574454   -5.9574454   -5.1215897   -0.0588901   -5.9574454   0.83585574      8192000 
  571000    0.5575553   -5.9581341   -5.9581341   -5.1218014 -0.058488425   -5.9581341   0.83633273      8192000 
  572000   0.55750411   -5.9583561   -5.9583561   -5.1221002 -0.058239057   -5.9583561   0.83625596      8192000 
  573000   0.55794755   -5.9588797   -5.9588797   -5.1219586 -0.057570124   -5.9588797   0.83692111      8192000 
  574000   0.55773023   -5.9594544   -5.9594544   -5.1228592 -0.056851788   -5.9594544   0.83659514      8192000 
  575000   0.55789752   -5.9602866   -5.9602866   -5.1234405 -0.057239636   -5.9602866   0.83684608      8192000 
  576000   0.55822054   -5.9601493   -5.9601493   -5.1228187 -0.055425991   -5.9601493    0.8373306      8192000 
  577000   0.55835124   -5.9608749   -5.9608749   -5.1233483 -0.056838601   -5.9608749   0.83752665      8192000 
  578000   0.55822439   -5.9609707   -5.9609707   -5.1236344 -0.057236742   -5.9609707   0.83733638      8192000 
  579000   0.55833913   -5.9611683   -5.9611683   -5.1236598 -0.057235733   -5.9611683   0.83750849      8192000 
  580000   0.55861396    -5.961876    -5.961876   -5.1239552 -0.057593941    -5.961876   0.83792074      8192000 
  581000   0.55837715   -5.9616025   -5.9616025   -5.1240369 -0.056128875   -5.9616025   0.83756551      8192000 
  582000   0.55855773   -5.9622501   -5.9622501   -5.1244137  -0.05650503   -5.9622501   0.83783638      8192000 
  583000   0.55881276    -5.962748    -5.962748   -5.1245291 -0.058773838    -5.962748   0.83821892      8192000 
  584000    0.5584829   -5.9631216   -5.9631216   -5.1253975  -0.05976087   -5.9631216   0.83772415      8192000 
  585000   0.55877385   -5.9635129   -5.9635129   -5.1253523   -0.0592703   -5.9635129   0.83816057      8192000 
  586000   0.55853829   -5.9637331   -5.9637331   -5.1259259 -0.058508995   -5.9637331   0.83780723      8192000 
  587000   0.55855285   -5.9641208   -5.9641208   -5.1262917 -0.058145961   -5.9641208   0.83782906      8192000 
  588000   0.55866928   -5.9643671   -5.9643671   -5.1263634 -0.057787022   -5.9643671   0.83800371      8192000 
  589000   0.55928532   -5.9648239   -5.9648239   -5.1258961 -0.059101512   -5.9648239   0.83892777      8192000 
  590000   0.55928141   -5.9649559   -5.9649559    -5.126034 -0.057864762   -5.9649559   0.83892191      8192000 
  591000   0.55961802     -5.96552     -5.96552   -5.1260932 -0.058676792     -5.96552   0.83942681      8192000 
  592000   0.55946906   -5.9659006   -5.9659006   -5.1266972 -0.058372669   -5.9659006   0.83920338      8192000 
  593000   0.55922132   -5.9656499   -5.9656499   -5.1268181 -0.056594142   -5.9656499   0.83883177      8192000 
  594000   0.55952516   -5.9663221   -5.9663221   -5.1270346 -0.058053235   -5.9663221   0.83928753      8192000 
  595000   0.55961606   -5.9666744   -5.9666744   -5.1272506 -0.058485642   -5.9666744   0.83942388      8192000 
  596000   0.55965286   -5.9667738   -5.9667738   -5.1272947 -0.057510262   -5.9667738   0.83947908      8192000 
  597000   0.55993551   -5.9672365   -5.9672365   -5.1273334 -0.057507547   -5.9672365   0.83990306      8192000 
  598000   0.56004935   -5.9679014   -5.9679014   -5.1278276 -0.056969583   -5.9679014   0.84007381      8192000 
  599000   0.56032436   -5.9682582   -5.9682582   -5.1277718 -0.056911203   -5.9682582   0.84048633      8192000 
  600000   0.56058088   -5.9689959   -5.9689959   -5.1281248 -0.057474273   -5.9689959   0.84087111      8192000 
  601000   0.56036694   -5.9692429   -5.9692429   -5.1286927 -0.056767461   -5.9692429    0.8405502      8192000 
  602000   0.56038201   -5.9696501   -5.9696501   -5.1290773 -0.056569072   -5.9696501   0.84057281      8192000 
  603000   0.56046223   -5.9699875   -5.9699875   -5.1292944 -0.056680023   -5.9699875   0.84069313      8192000 
  604000   0.56059374   -5.9702113   -5.9702113   -5.1293209 -0.056204615   -5.9702113    0.8408904      8192000 
  605000    0.5606762   -5.9705281   -5.9705281    -5.129514 -0.056686723   -5.9705281   0.84101409      8192000 
  606000   0.56098382   -5.9712453   -5.9712453   -5.1297697 -0.057234774   -5.9712453   0.84147551      8192000 
  607000   0.56120431   -5.9712342   -5.9712342    -5.129428 -0.055856656   -5.9712342   0.84180626      8192000 
  608000   0.56135637   -5.9711043   -5.9711043     -5.12907 -0.054467063   -5.9711043   0.84203435      8192000 
  609000   0.56158007   -5.9716069   -5.9716069    -5.129237 -0.055027909   -5.9716069   0.84236989      8192000 
  610000   0.56159623   -5.9721714   -5.9721714   -5.1297772 -0.055983308   -5.9721714   0.84239414      8192000 
  611000   0.56144265   -5.9726301   -5.9726301   -5.1304663 -0.056742775   -5.9726301   0.84216377      8192000 
  612000   0.56165116   -5.9730825   -5.9730825    -5.130606 -0.056283474   -5.9730825   0.84247653      8192000 
  613000   0.56138813   -5.9731821   -5.9731821   -5.1311001 -0.055053384   -5.9731821   0.84208199      8192000 
  614000   0.56165461   -5.9738754   -5.9738754   -5.1313937 -0.056601704   -5.9738754    0.8424817      8192000 
  615000   0.56214748   -5.9741436   -5.9741436   -5.1309226 -0.055978933   -5.9741436   0.84322101      8192000 
  616000   0.56198957   -5.9742828   -5.9742828   -5.1312986 -0.054488178   -5.9742828   0.84298415      8192000 
  617000   0.56224001   -5.9747527   -5.9747527   -5.1313929 -0.055638266   -5.9747527    0.8433598      8192000 
  618000   0.56245755    -5.975052    -5.975052   -5.1313659 -0.055894346    -5.975052   0.84368612      8192000 
  619000   0.56249007   -5.9752455   -5.9752455   -5.1315106  -0.05571195   -5.9752455   0.84373489      8192000 
  620000   0.56237706   -5.9752431   -5.9752431   -5.1316777 -0.054694643   -5.9752431   0.84356538      8192000 
  621000   0.56250443   -5.9758617   -5.9758617   -5.1321053   -0.0546782   -5.9758617   0.84375644      8192000 
  622000   0.56287893   -5.9763825   -5.9763825   -5.1320643 -0.055413319   -5.9763825   0.84431819      8192000 
  623000   0.56277405   -5.9765271   -5.9765271   -5.1323662 -0.053585847   -5.9765271   0.84416087      8192000 
  624000   0.56271465   -5.9772543   -5.9772543   -5.1331826 -0.055881357   -5.9772543   0.84407177      8192000 
  625000   0.56310787   -5.9775348   -5.9775348   -5.1328733 -0.055780473   -5.9775348   0.84466159      8192000 
  626000   0.56269427   -5.9773381   -5.9773381   -5.1332969  -0.05478122   -5.9773381   0.84404119      8192000 
  627000   0.56311909    -5.977853    -5.977853   -5.1331746 -0.054818315    -5.977853   0.84467842      8192000 
  628000   0.56343498   -5.9783854   -5.9783854   -5.1332332 -0.055111336   -5.9783854   0.84515226      8192000 
  629000   0.56307027   -5.9783136   -5.9783136   -5.1337084 -0.054024749   -5.9783136    0.8446052      8192000 
  630000   0.56309298   -5.9782198   -5.9782198   -5.1335806  -0.05300733   -5.9782198   0.84463926      8192000 
  631000   0.56359332    -5.979383    -5.979383   -5.1339933 -0.055831636    -5.979383   0.84538977      8192000 
  632000   0.56333588    -5.979401    -5.979401   -5.1343974 -0.055195183    -5.979401   0.84500361      8192000 
  633000   0.56304838   -5.9794818   -5.9794818   -5.1349094 -0.053831796   -5.9794818   0.84457236      8192000 
  634000   0.56376092    -5.980268    -5.980268   -5.1346268 -0.054573793    -5.980268   0.84564117      8192000 
  635000   0.56382111   -5.9803402   -5.9803402   -5.1346087 -0.054494502   -5.9803402   0.84573145      8192000 
  636000   0.56388683    -5.980653    -5.980653   -5.1348229 -0.054305649    -5.980653   0.84583004      8192000 
  637000   0.56407016   -5.9812845   -5.9812845   -5.1351794 -0.054443159   -5.9812845   0.84610503      8192000 
  638000   0.56385609   -5.9811671   -5.9811671   -5.1353832 -0.052652916   -5.9811671   0.84578392      8192000 
  639000   0.56405705   -5.9815957   -5.9815957   -5.1355104 -0.053536184   -5.9815957   0.84608537      8192000 
  640000   0.56436654   -5.9820209   -5.9820209   -5.1354713 -0.052817224   -5.9820209    0.8465496      8192000 
  641000   0.56419194   -5.9822869   -5.9822869   -5.1359992   -0.0530686   -5.9822869    0.8462877      8192000 
  642000   0.56451399   -5.9826105   -5.9826105   -5.1358397 -0.053176577   -5.9826105   0.84677077      8192000 
  643000   0.56489927   -5.9827945   -5.9827945   -5.1354458 -0.051798576   -5.9827945   0.84734869      8192000 
  644000   0.56486385   -5.9831459   -5.9831459   -5.1358504 -0.051364069   -5.9831459   0.84729557      8192000 
  645000   0.56472991   -5.9831484   -5.9831484   -5.1360538 -0.050574491   -5.9831484   0.84709465      8192000 
  646000   0.56504418   -5.9837914   -5.9837914   -5.1362254 -0.051737403   -5.9837914   0.84756606      8192000 
  647000   0.56494245   -5.9840169   -5.9840169   -5.1366035  -0.05089494   -5.9840169   0.84741347      8192000 
  648000   0.56526612   -5.9844003   -5.9844003   -5.1365013  -0.05098334   -5.9844003   0.84789897      8192000 
  649000   0.56524538   -5.9848925   -5.9848925   -5.1370246 -0.051969105   -5.9848925   0.84786786      8192000 
  650000   0.56543946   -5.9855863   -5.9855863   -5.1374274 -0.052101611   -5.9855863   0.84815897      8192000 
  651000   0.56521616   -5.9855296   -5.9855296   -5.1377056 -0.051300524   -5.9855296   0.84782403      8192000 
  652000   0.56524289   -5.9860844   -5.9860844   -5.1382203 -0.052914399   -5.9860844   0.84786412      8192000 
  653000   0.56494698   -5.9862256   -5.9862256   -5.1388053 -0.054170726   -5.9862256   0.84742026      8192000 
  654000   0.56509983   -5.9866592   -5.9866592   -5.1390097 -0.053629756   -5.9866592   0.84764953      8192000 
  655000   0.56537711    -5.986988    -5.986988   -5.1389226 -0.053598393    -5.986988   0.84806545      8192000 
  656000   0.56551614   -5.9877978   -5.9877978   -5.1395238 -0.054981207   -5.9877978   0.84827399      8192000 
  657000   0.56575342   -5.9877004   -5.9877004   -5.1390704 -0.053303687   -5.9877004   0.84862992      8192000 
  658000   0.56573865   -5.9871663   -5.9871663   -5.1385586 -0.051322634   -5.9871663   0.84860777      8192000 
  659000   0.56601738   -5.9880693   -5.9880693   -5.1390434 -0.052467317   -5.9880693   0.84902586      8192000 
  660000   0.56607457   -5.9885614   -5.9885614   -5.1394497 -0.052754246   -5.9885614   0.84911165      8192000 
  661000   0.56592851   -5.9886825   -5.9886825   -5.1397899  -0.05180673   -5.9886825   0.84889256      8192000 
  662000   0.56644196   -5.9891011   -5.9891011   -5.1394383 -0.052473819   -5.9891011   0.84966273      8192000 
  663000   0.56673538   -5.9898906   -5.9898906   -5.1397877 -0.053066445   -5.9898906   0.85010286      8192000 
  664000   0.56659461   -5.9897937   -5.9897937    -5.139902 -0.051685024   -5.9897937    0.8498917      8192000 
  665000   0.56618776   -5.9900204   -5.9900204    -5.140739 -0.051725739   -5.9900204   0.84928143      8192000 
  666000   0.56683717   -5.9906445   -5.9906445    -5.140389 -0.052026412   -5.9906445   0.85025555      8192000 
  667000   0.56685118   -5.9908737   -5.9908737   -5.1405971 -0.051098405   -5.9908737   0.85027656      8192000 
  668000   0.56704878   -5.9912713   -5.9912713   -5.1406984 -0.051286223   -5.9912713   0.85057295      8192000 
  669000   0.56723492   -5.9911684   -5.9911684   -5.1403162 -0.049173862   -5.9911684   0.85085216      8192000 
  670000    0.5674766   -5.9921709   -5.9921709   -5.1409562 -0.050473322   -5.9921709   0.85121468      8192000 
  671000   0.56744387   -5.9919125   -5.9919125   -5.1407469 -0.048318718   -5.9919125   0.85116559      8192000 
  672000   0.56754175   -5.9927939   -5.9927939   -5.1414815 -0.048894979   -5.9927939   0.85131242      8192000 
  673000   0.56785913    -5.993111    -5.993111   -5.1413225 -0.048299429    -5.993111   0.85178848      8192000 
  674000   0.56770212    -5.992698    -5.992698    -5.141145 -0.047156079    -5.992698   0.85155296      8192000 
  675000   0.56786491   -5.9933271   -5.9933271   -5.1415299 -0.047957684   -5.9933271   0.85179716      8192000 
  676000   0.56754263   -5.9933527   -5.9933527    -5.142039 -0.046669477   -5.9933527   0.85131373      8192000 
  677000   0.56781466   -5.9941069   -5.9941069   -5.1423852 -0.048135823   -5.9941069   0.85172178      8192000 
  678000   0.56803167   -5.9942516   -5.9942516   -5.1422043 -0.047769211   -5.9942516   0.85204729      8192000 
  679000   0.56817214   -5.9947243   -5.9947243   -5.1424663 -0.048842034   -5.9947243   0.85225799      8192000 
  680000   0.56797322   -5.9947862   -5.9947862   -5.1428266 -0.048260741   -5.9947862   0.85195961      8192000 
  681000   0.56814991   -5.9948732   -5.9948732   -5.1426485 -0.048358581   -5.9948732   0.85222465      8192000 
  682000   0.56847833   -5.9957272   -5.9957272   -5.1430099 -0.048832765   -5.9957272   0.85271729      8192000 
  683000   0.56829917    -5.995332    -5.995332   -5.1428835 -0.047301299    -5.995332   0.85244855      8192000 
  684000   0.56873181    -5.996107    -5.996107   -5.1430095 -0.048968557    -5.996107    0.8530975      8192000 
  685000   0.56848852   -5.9956647   -5.9956647   -5.1429321 -0.048543527   -5.9956647   0.85273257      8192000 
  686000   0.56888372    -5.996051    -5.996051   -5.1427256 -0.048076138    -5.996051   0.85332537      8192000 
  687000   0.56908013   -5.9964784   -5.9964784   -5.1428584 -0.048215783   -5.9964784   0.85361998      8192000 
  688000   0.56890899   -5.9957966   -5.9957966   -5.1424334 -0.046303037   -5.9957966   0.85336326      8192000 
  689000   0.56896051   -5.9958399   -5.9958399   -5.1423993 -0.045751996   -5.9958399   0.85344055      8192000 
  690000   0.56927804   -5.9968133   -5.9968133   -5.1428965 -0.047102092   -5.9968133   0.85391684      8192000 
  691000   0.56965911   -5.9969527   -5.9969527   -5.1424643 -0.046390301   -5.9969527   0.85448845      8192000 
  692000   0.56960193   -5.9969681   -5.9969681   -5.1425654 -0.047020443   -5.9969681   0.85440267      8192000 
  693000   0.56922318     -5.99707     -5.99707   -5.1432354 -0.046422936     -5.99707   0.85383455      8192000 
  694000   0.56927229   -5.9975105   -5.9975105   -5.1436023  -0.04738073   -5.9975105   0.85390822      8192000 
  695000   0.56994534   -5.9983311   -5.9983311   -5.1434133 -0.048630336   -5.9983311    0.8549178      8192000 
  696000   0.56994506   -5.9981257   -5.9981257   -5.1432083 -0.046075003   -5.9981257   0.85491738      8192000 
  697000   0.56976679   -5.9984483   -5.9984483   -5.1437983 -0.046538538   -5.9984483   0.85464997      8192000 
  698000   0.56981234   -5.9991279   -5.9991279   -5.1444096  -0.04827887   -5.9991279   0.85471829      8192000 
  699000   0.56937559   -5.9988197   -5.9988197   -5.1447565 -0.046692962   -5.9988197   0.85406317      8192000 
  700000   0.57005693   -5.9998685   -5.9998685   -5.1447833 -0.047531875   -5.9998685   0.85508519      8192000 
  701000   0.56989802   -5.9996785   -5.9996785   -5.1448317 -0.046509335   -5.9996785   0.85484682      8192000 
  702000    0.5704073    -6.000031    -6.000031   -5.1444202 -0.046831047    -6.000031   0.85561074      8192000 
  703000   0.57075286   -6.0002021   -6.0002021   -5.1440731 -0.045684291   -6.0002021   0.85612907      8192000 
  704000   0.57069928   -6.0000014   -6.0000014   -5.1439527 -0.044892197   -6.0000014    0.8560487      8192000 
  705000   0.57092457   -6.0005451   -6.0005451   -5.1441585  -0.04578082   -6.0005451   0.85638664      8192000 
  706000    0.5708127   -6.0003093   -6.0003093   -5.1440904 -0.044893427   -6.0003093   0.85621883      8192000 
  707000   0.57119701   -6.0012817   -6.0012817   -5.1444864 -0.045927761   -6.0012817    0.8567953      8192000 
  708000   0.57120435   -6.0016866   -6.0016866   -5.1448803 -0.045883792   -6.0016866   0.85680631      8192000 
  709000   0.57129068   -6.0022687   -6.0022687   -5.1453329 -0.046173822   -6.0022687    0.8569358      8192000 
  710000   0.57091658   -6.0020558   -6.0020558   -5.1456812 -0.045135403   -6.0020558   0.85637465      8192000 
  711000   0.57118205   -6.0023726   -6.0023726   -5.1455998 -0.045029671   -6.0023726   0.85677287      8192000 
  712000   0.57138211   -6.0032085   -6.0032085   -5.1461356 -0.045485078   -6.0032085   0.85707295      8192000 
  713000   0.57182638   -6.0033255   -6.0033255   -5.1455862 -0.043666823   -6.0033255   0.85773936      8192000 
  714000   0.57178744   -6.0032335   -6.0032335   -5.1455526 -0.043171616   -6.0032335   0.85768094      8192000 
  715000   0.57200113    -6.003915    -6.003915   -5.1459135 -0.044194825    -6.003915   0.85800148      8192000 
  716000   0.57178282   -6.0037451   -6.0037451   -5.1460711 -0.043649539   -6.0037451   0.85767402      8192000 
  717000   0.57152013   -6.0033333   -6.0033333   -5.1460533 -0.042090077   -6.0033333   0.85727999      8192000 
  718000   0.57199334   -6.0045123   -6.0045123   -5.1465225 -0.043836232   -6.0045123    0.8579898      8192000 
  719000   0.57221177   -6.0045423   -6.0045423   -5.1462248 -0.042791996   -6.0045423   0.85831745      8192000 
  720000   0.57197112   -6.0046882   -6.0046882   -5.1467317 -0.042656907   -6.0046882   0.85795647      8192000 
  721000   0.57226808   -6.0052415   -6.0052415   -5.1468396 -0.044137794   -6.0052415    0.8584019      8192000 
  722000   0.57302181   -6.0058895   -6.0058895    -5.146357 -0.044246143   -6.0058895   0.85953249      8192000 
  723000   0.57250394   -6.0054165   -6.0054165   -5.1466608 -0.042277679   -6.0054165   0.85875569      8192000 
  724000    0.5725044   -6.0053597   -6.0053597   -5.1466033 -0.041736836   -6.0053597   0.85875638      8192000 
  725000   0.57259552   -6.0059389   -6.0059389   -5.1470458 -0.041542051   -6.0059389   0.85889306      8192000 
  726000    0.5727665   -6.0063454   -6.0063454   -5.1471959 -0.042610947   -6.0063454   0.85914954      8192000 
  727000   0.57278684   -6.0068482   -6.0068482   -5.1476681 -0.043581365   -6.0068482   0.85918005      8192000 
  728000   0.57299539     -6.00689     -6.00689   -5.1473972 -0.043177097     -6.00689   0.85949287      8192000 
  729000   0.57316173   -6.0072969   -6.0072969   -5.1475545 -0.044062695   -6.0072969   0.85974238      8192000 
  730000   0.57314428   -6.0073804   -6.0073804   -5.1476642 -0.043405926   -6.0073804    0.8597162      8192000 
  731000   0.57297717    -6.007877    -6.007877   -5.1484114 -0.042746384    -6.007877   0.85946554      8192000 
  732000   0.57361437   -6.0084081   -6.0084081   -5.1479867 -0.043204669   -6.0084081   0.86042134      8192000 
  733000   0.57347937   -6.0082507   -6.0082507   -5.1480318 -0.042979383   -6.0082507   0.86021883      8192000 
  734000    0.5734929   -6.0082214   -6.0082214   -5.1479822 -0.041909732   -6.0082214   0.86023913      8192000 
  735000   0.57365169   -6.0087439   -6.0087439   -5.1482666 -0.042729139   -6.0087439   0.86047732      8192000 
  736000   0.57347853   -6.0090012   -6.0090012   -5.1487836 -0.043189681   -6.0090012   0.86021758      8192000 
  737000   0.57383295   -6.0090628   -6.0090628   -5.1483136 -0.042774235   -6.0090628    0.8607492      8192000 
  738000    0.5736805   -6.0087118   -6.0087118   -5.1481913 -0.040407485   -6.0087118   0.86052054      8192000 
  739000   0.57375903   -6.0089146   -6.0089146   -5.1482763 -0.042254109   -6.0089146   0.86063832      8192000 
  740000   0.57403952   -6.0091481   -6.0091481    -5.148089 -0.041161584   -6.0091481   0.86105907      8192000 
  741000   0.57481241   -6.0100786   -6.0100786   -5.1478602 -0.042429077   -6.0100786    0.8622184      8192000 
  742000   0.57464473   -6.0097516   -6.0097516   -5.1477847  -0.04136738   -6.0097516   0.86196688      8192000 
  743000   0.57455399   -6.0096288   -6.0096288   -5.1477981 -0.041278798   -6.0096288   0.86183077      8192000 
  744000   0.57466253   -6.0099099   -6.0099099   -5.1479163 -0.040296408   -6.0099099   0.86199358      8192000 
  745000   0.57483628   -6.0108142   -6.0108142     -5.14856 -0.042655424   -6.0108142    0.8622542      8192000 
  746000   0.57446972   -6.0105532   -6.0105532   -5.1488489 -0.041536773   -6.0105532   0.86170436      8192000 
  747000   0.57459854   -6.0112365   -6.0112365   -5.1493389  -0.04177853   -6.0112365   0.86189759      8192000 
  748000    0.5748378   -6.0112349   -6.0112349   -5.1489784 -0.039781453   -6.0112349   0.86225649      8192000 
  749000   0.57494779   -6.0112174   -6.0112174   -5.1487959 -0.039788819   -6.0112174   0.86242147      8192000 
  750000   0.57544781   -6.0116622   -6.0116622   -5.1484907 -0.040339396   -6.0116622    0.8631715      8192000 
  751000   0.57537036   -6.0116644   -6.0116644   -5.1486091 -0.038694542   -6.0116644   0.86305533      8192000 
  752000   0.57528701   -6.0121879   -6.0121879   -5.1492576  -0.03906431   -6.0121879    0.8629303      8192000 
  753000   0.57567708   -6.0128099   -6.0128099   -5.1492945 -0.040659868   -6.0128099    0.8635154      8192000 
  754000   0.57513992   -6.0124306   -6.0124306   -5.1497209 -0.039362291   -6.0124306   0.86270966      8192000 
  755000   0.57561781   -6.0128066   -6.0128066   -5.1493801 -0.038989206   -6.0128066    0.8634265      8192000 
  756000   0.57581929   -6.0128867   -6.0128867   -5.1491579 -0.037164095   -6.0128867   0.86372873      8192000 
  757000     0.575774   -6.0129901   -6.0129901   -5.1493293   -0.0368358   -6.0129901   0.86366079      8192000 
  758000   0.57578544   -6.0134766   -6.0134766   -5.1497987 -0.037445928   -6.0134766   0.86367794      8192000 
  759000   0.57623121   -6.0141034   -6.0141034   -5.1497568 -0.038010582   -6.0141034    0.8643466      8192000 
  760000   0.57638672   -6.0146985   -6.0146985   -5.1501187 -0.037889361   -6.0146985   0.86457986      8192000 
  761000   0.57630584   -6.0145521   -6.0145521   -5.1500936 -0.036213819   -6.0145521   0.86445854      8192000 
  762000   0.57663248   -6.0150601   -6.0150601   -5.1501116 -0.036393029   -6.0150601   0.86494851      8192000 
  763000   0.57671221   -6.0147098   -6.0147098   -5.1496417 -0.035640468   -6.0147098    0.8650681      8192000 
  764000   0.57663639   -6.0148568   -6.0148568   -5.1499024 -0.034963605   -6.0148568   0.86495437      8192000 
  765000    0.5770171      -6.0153      -6.0153   -5.1497746 -0.035872231      -6.0153   0.86552544      8192000 
  766000    0.5771396   -6.0162038   -6.0162038   -5.1504946 -0.038122055   -6.0162038   0.86570918      8192000 
  767000    0.5767919   -6.0155402   -6.0155402   -5.1503525 -0.035439005   -6.0155402   0.86518764      8192000 
  768000   0.57713735   -6.0163561   -6.0163561   -5.1506503 -0.037185222   -6.0163561   0.86570581      8192000 
  769000   0.57667587   -6.0160308   -6.0160308   -5.1510173 -0.036670943   -6.0160308   0.86501359      8192000 
  770000   0.57697101   -6.0165909   -6.0165909   -5.1511346 -0.038181295   -6.0165909    0.8654563      8192000 
  771000   0.57715815   -6.0167814   -6.0167814   -5.1510444 -0.036582793   -6.0167814     0.865737      8192000 
  772000   0.57712718   -6.0169463   -6.0169463   -5.1512557 -0.037239097   -6.0169463   0.86569056      8192000 
  773000   0.57702104   -6.0170311   -6.0170311   -5.1514998 -0.037455416   -6.0170311   0.86553134      8192000 
  774000   0.57706289   -6.0174339   -6.0174339   -5.1518397 -0.037858803   -6.0174339   0.86559412      8192000 
  775000    0.5775209   -6.0180676   -6.0180676   -5.1517865 -0.038838465   -6.0180676   0.86628113      8192000 
  776000   0.57769766    -6.018189    -6.018189   -5.1516428 -0.037879376    -6.018189   0.86654627      8192000 
  777000   0.57806018   -6.0185122   -6.0185122   -5.1514221 -0.038816954   -6.0185122   0.86709006      8192000 
  778000   0.57764112   -6.0175582   -6.0175582   -5.1510968 -0.036047709   -6.0175582   0.86646147      8192000 
  779000   0.57796199   -6.0180207   -6.0180207    -5.151078 -0.036987617   -6.0180207   0.86694276      8192000 
  780000   0.57788843   -6.0180955   -6.0180955   -5.1512631 -0.035825519   -6.0180955   0.86683243      8192000 
  781000   0.57795523   -6.0188488   -6.0188488   -5.1519162 -0.037576551   -6.0188488   0.86693262      8192000 
  782000    0.5777959   -6.0186211   -6.0186211   -5.1519274 -0.037055066   -6.0186211   0.86669364      8192000 
  783000   0.57798109   -6.0182147   -6.0182147   -5.1512432 -0.035537625   -6.0182147   0.86697141      8192000 
  784000   0.57810154   -6.0184176   -6.0184176   -5.1512655 -0.034418762   -6.0184176    0.8671521      8192000 
  785000   0.57839751   -6.0184032   -6.0184032   -5.1508072 -0.033254449   -6.0184032   0.86759605      8192000 
  786000   0.57871896    -6.018923    -6.018923   -5.1508448 -0.034262169    -6.018923   0.86807823      8192000 
  787000    0.5791594   -6.0199816   -6.0199816   -5.1512427 -0.036125022   -6.0199816   0.86873888      8192000 
  788000    0.5785745   -6.0196501   -6.0196501   -5.1517886 -0.034620052   -6.0196501   0.86786153      8192000 
  789000   0.57881291   -6.0205096   -6.0205096   -5.1522905 -0.036083052   -6.0205096   0.86821915      8192000 
  790000   0.57894102   -6.0203598   -6.0203598   -5.1519485 -0.035375805   -6.0203598   0.86841132      8192000 
  791000   0.57884214   -6.0205031   -6.0205031   -5.1522401 -0.034431734   -6.0205031     0.868263      8192000 
  792000   0.57913366    -6.020797    -6.020797   -5.1520967 -0.034488402    -6.020797   0.86870027      8192000 
  793000   0.57918439   -6.0207825   -6.0207825   -5.1520061 -0.034884089   -6.0207825   0.86877636      8192000 
  794000   0.57938037   -6.0211685   -6.0211685   -5.1520982 -0.034178625   -6.0211685   0.86907033      8192000 
  795000   0.57911591   -6.0207418   -6.0207418   -5.1520682 -0.032728696   -6.0207418   0.86867364      8192000 
  796000   0.57952637    -6.021372    -6.021372   -5.1520827 -0.032188884    -6.021372   0.86928934      8192000 
  797000   0.57996899   -6.0220364   -6.0220364   -5.1520831  -0.03336259   -6.0220364   0.86995327      8192000 
  798000   0.57935761   -6.0214403   -6.0214403   -5.1524041 -0.031556737   -6.0214403   0.86903619      8192000 
  799000   0.57969625   -6.0220369   -6.0220369   -5.1524928 -0.032635157   -6.0220369   0.86954416      8192000 
  800000    0.5797219   -6.0222667   -6.0222667   -5.1526841 -0.033691997   -6.0222667   0.86958263      8192000 
  801000   0.57954183    -6.022002    -6.022002   -5.1526895 -0.031809253    -6.022002   0.86931253      8192000 
  802000   0.58003661   -6.0226093   -6.0226093   -5.1525546 -0.034174516   -6.0226093    0.8700547      8192000 
  803000   0.58032609   -6.0227031   -6.0227031   -5.1522142 -0.032692292   -6.0227031   0.87048892      8192000 
  804000   0.58050258   -6.0227139   -6.0227139   -5.1519602 -0.031649404   -6.0227139   0.87075365      8192000 
  805000   0.58040525   -6.0231691   -6.0231691   -5.1525614 -0.032605379   -6.0231691   0.87060765      8192000 
  806000    0.5804074   -6.0232571   -6.0232571   -5.1526462 -0.031489147   -6.0232571   0.87061088      8192000 
  807000   0.58092244   -6.0237686   -6.0237686   -5.1523851 -0.031857864   -6.0237686   0.87138344      8192000 
  808000   0.58090514   -6.0235456   -6.0235456   -5.1521881 -0.031051802   -6.0235456   0.87135749      8192000 
  809000   0.58110209   -6.0237654   -6.0237654   -5.1521125 -0.030408781   -6.0237654   0.87165292      8192000 
  810000   0.58092322   -6.0231855   -6.0231855   -5.1518009 -0.028894705   -6.0231855    0.8713846      8192000 
  811000   0.58109228   -6.0238446   -6.0238446   -5.1522064 -0.030661189   -6.0238446    0.8716382      8192000 
  812000   0.58099552   -6.0239143   -6.0239143   -5.1524213 -0.030092696   -6.0239143   0.87149306      8192000 
  813000   0.58128556   -6.0243171   -6.0243171    -5.152389 -0.031395029   -6.0243171   0.87192812      8192000 
  814000   0.58149195   -6.0248593   -6.0248593   -5.1526216 -0.032402814   -6.0248593    0.8722377      8192000 
  815000   0.58132768   -6.0251564   -6.0251564   -5.1531651 -0.032671789   -6.0251564    0.8719913      8192000 
  816000   0.58160954   -6.0254592   -6.0254592   -5.1530451 -0.032019735   -6.0254592   0.87241409      8192000 
  817000   0.58143028    -6.025431    -6.025431   -5.1532858 -0.031226794    -6.025431    0.8721452      8192000 
  818000   0.58147745    -6.025568    -6.025568   -5.1533521  -0.03045451    -6.025568   0.87221596      8192000 
  819000   0.58163945   -6.0255866   -6.0255866   -5.1531276 -0.030250592   -6.0255866   0.87245895      8192000 
  820000   0.58203267   -6.0261015   -6.0261015   -5.1530527 -0.030273914   -6.0261015   0.87304878      8192000 
  821000   0.58180301   -6.0258746   -6.0258746   -5.1531703 -0.029009946   -6.0258746    0.8727043      8192000 
  822000   0.58209278   -6.0260223   -6.0260223   -5.1528834 -0.029347583   -6.0260223   0.87313895      8192000 
  823000    0.5821032   -6.0261297   -6.0261297   -5.1529751 -0.028776502   -6.0261297   0.87315458      8192000 
  824000   0.58226426   -6.0264111   -6.0264111   -5.1530149 -0.029816049   -6.0264111   0.87339618      8192000 
  825000   0.58223394   -6.0262047   -6.0262047    -5.152854 -0.028688574   -6.0262047   0.87335069      8192000 
  826000   0.58211723   -6.0265619   -6.0265619   -5.1533863 -0.029085572   -6.0265619   0.87317562      8192000 
  827000   0.58219324   -6.0269069   -6.0269069   -5.1536172  -0.03026683   -6.0269069   0.87328964      8192000 
  828000   0.58248095   -6.0269094   -6.0269094   -5.1531882 -0.029491507   -6.0269094    0.8737212      8192000 
  829000   0.58240265   -6.0265603   -6.0265603   -5.1529565 -0.027662842   -6.0265603   0.87360375      8192000 
  830000   0.58306642   -6.0270797   -6.0270797   -5.1524803 -0.029730424   -6.0270797   0.87459941      8192000 
  831000   0.58286144   -6.0268601   -6.0268601   -5.1525682 -0.028964156   -6.0268601   0.87429194      8192000 
  832000   0.58295911   -6.0273391   -6.0273391   -5.1529007 -0.029478539   -6.0273391   0.87443845      8192000 
  833000   0.58320317   -6.0278793   -6.0278793   -5.1530748 -0.030141025   -6.0278793   0.87480453      8192000 
  834000   0.58285618   -6.0273356   -6.0273356   -5.1530515 -0.027960264   -6.0273356   0.87428406      8192000 
  835000   0.58340615   -6.0278899   -6.0278899   -5.1527809 -0.027667216   -6.0278899   0.87510901      8192000 
  836000   0.58371035   -6.0277151   -6.0277151   -5.1521498 -0.026541823   -6.0277151    0.8755653      8192000 
  837000   0.58417708   -6.0283838   -6.0283838   -5.1521184 -0.027772732   -6.0283838    0.8762654      8192000 
  838000   0.58384409   -6.0280322   -6.0280322   -5.1522663 -0.026268185   -6.0280322   0.87576592      8192000 
  839000   0.58393743   -6.0279758   -6.0279758   -5.1520698 -0.025442938   -6.0279758   0.87590593      8192000 
  840000   0.58440481   -6.0282821   -6.0282821   -5.1516751 -0.026550195   -6.0282821   0.87660699      8192000 
  841000   0.58420514   -6.0283654   -6.0283654   -5.1520579 -0.025669203   -6.0283654    0.8763075      8192000 
  842000   0.58419286   -6.0289919   -6.0289919   -5.1527029 -0.026590894   -6.0289919   0.87628907      8192000 
  843000   0.58409848   -6.0288597   -6.0288597   -5.1527122 -0.026041387   -6.0288597    0.8761475      8192000 
  844000   0.58435238   -6.0290835   -6.0290835   -5.1525552 -0.026550765   -6.0290835   0.87652836      8192000 
  845000   0.58412997   -6.0290774   -6.0290774   -5.1528827 -0.025404178   -6.0290774   0.87619473      8192000 
  846000   0.58460616   -6.0298633   -6.0298633   -5.1529543 -0.027745046   -6.0298633   0.87690903      8192000 
  847000   0.58454699   -6.0293908   -6.0293908   -5.1525706 -0.025320588   -6.0293908   0.87682026      8192000 
  848000   0.58458457    -6.029218    -6.029218   -5.1523414 -0.026009242    -6.029218   0.87687664      8192000 
  849000   0.58449487   -6.0293194   -6.0293194   -5.1525773 -0.026200431   -6.0293194   0.87674208      8192000 
  850000   0.58486172   -6.0298242   -6.0298242   -5.1525318 -0.026815738   -6.0298242   0.87729237      8192000 
  851000    0.5849925   -6.0292537   -6.0292537   -5.1517652 -0.025533444   -6.0292537   0.87748853      8192000 
  852000   0.58522055   -6.0298424   -6.0298424   -5.1520118 -0.027128743   -6.0298424   0.87783061      8192000 
  853000   0.58525852   -6.0297687   -6.0297687   -5.1518811  -0.02628098   -6.0297687   0.87788755      8192000 
  854000   0.58553235   -6.0298269   -6.0298269   -5.1515286 -0.025773672   -6.0298269   0.87829831      8192000 
  855000   0.58487626   -6.0296001   -6.0296001   -5.1522859 -0.024840193   -6.0296001   0.87731417      8192000 
  856000   0.58577774   -6.0304048   -6.0304048   -5.1517384 -0.025707737   -6.0304048    0.8786664      8192000 
  857000   0.58548231   -6.0300567   -6.0300567   -5.1518334   -0.0241281   -6.0300567   0.87822324      8192000 
  858000   0.58556096   -6.0304086   -6.0304086   -5.1520674 -0.024881791   -6.0304086   0.87834122      8192000 
  859000   0.58565686   -6.0302967   -6.0302967   -5.1518116 -0.023823347   -6.0302967   0.87848506      8192000 
  860000   0.58555244    -6.030477    -6.030477   -5.1521486 -0.023369173    -6.030477   0.87832843      8192000 
  861000   0.58548089   -6.0302183   -6.0302183   -5.1519972 -0.021868606   -6.0302183   0.87822112      8192000 
  862000    0.5857219    -6.030552    -6.030552   -5.1519694 -0.022787863    -6.030552   0.87858262      8192000 
  863000   0.58610475   -6.0308716   -6.0308716   -5.1517147 -0.023178367   -6.0308716   0.87915691      8192000 
  864000    0.5862862   -6.0305972   -6.0305972   -5.1511681   -0.0231325   -6.0305972   0.87942907      8192000 
  865000   0.58668816   -6.0311256   -6.0311256   -5.1510936 -0.024342584   -6.0311256   0.88003202      8192000 
  866000   0.58645483    -6.030844    -6.030844    -5.151162 -0.023583436    -6.030844   0.87968202      8192000 
  867000   0.58638216    -6.030274    -6.030274    -5.150701 -0.022706263    -6.030274   0.87957302      8192000 
  868000   0.58665796   -6.0309254   -6.0309254   -5.1509387 -0.024278256   -6.0309254   0.87998673      8192000 
  869000    0.5865158   -6.0307622   -6.0307622   -5.1509887 -0.023570425   -6.0307622   0.87977349      8192000 
  870000   0.58685277   -6.0313178   -6.0313178   -5.1510389 -0.023997486   -6.0313178   0.88027894      8192000 
  871000   0.58684238   -6.0307699   -6.0307699   -5.1505066 -0.023014248   -6.0307699   0.88026335      8192000 
  872000   0.58705278   -6.0310684   -6.0310684   -5.1504894 -0.023093155   -6.0310684   0.88057895      8192000 
  873000   0.58717053     -6.03134     -6.03134   -5.1505844 -0.023322912     -6.03134   0.88075558      8192000 
  874000   0.58728773   -6.0312043   -6.0312043   -5.1502729 -0.022274081   -6.0312043   0.88093137      8192000 
  875000   0.58740446   -6.0311529   -6.0311529   -5.1500464 -0.022021294   -6.0311529   0.88110648      8192000 
  876000   0.58761723   -6.0313787   -6.0313787   -5.1499531 -0.022360448   -6.0313787   0.88142562      8192000 
  877000   0.58728201    -6.031295    -6.031295   -5.1503722 -0.022805204    -6.031295   0.88092279      8192000 
  878000   0.58770037   -6.0316686   -6.0316686   -5.1501182 -0.021859921   -6.0316686   0.88155033      8192000 
  879000   0.58793481   -6.0313417   -6.0313417   -5.1494397 -0.020938231   -6.0313417     0.881902      8192000 
  880000   0.58806754   -6.0315912   -6.0315912   -5.1494901 -0.020555554   -6.0315912   0.88210109      8192000 
  881000   0.58805343   -6.0314798   -6.0314798   -5.1493999 -0.019875947   -6.0314798   0.88207993      8192000 
  882000   0.58842437   -6.0314353   -6.0314353    -5.148799 -0.018522948   -6.0314353   0.88263634      8192000 
  883000   0.58831487   -6.0317331   -6.0317331    -5.149261 -0.019776057   -6.0317331   0.88247209      8192000 
  884000   0.58853783   -6.0321538   -6.0321538   -5.1493473 -0.019735193   -6.0321538   0.88280652      8192000 
  885000   0.58826822   -6.0320739   -6.0320739   -5.1496718 -0.019209823   -6.0320739   0.88240211      8192000 
  886000   0.58855191   -6.0328776   -6.0328776   -5.1500499  -0.02102154   -6.0328776   0.88282765      8192000 
  887000   0.58804952   -6.0319767   -6.0319767   -5.1499026 -0.020209138   -6.0319767   0.88207406      8192000 
  888000   0.58852659   -6.0322612   -6.0322612   -5.1494716 -0.021297493   -6.0322612   0.88278967      8192000 
  889000   0.58857295   -6.0321698   -6.0321698   -5.1493106 -0.020717638   -6.0321698    0.8828592      8192000 
  890000   0.58863382     -6.03182     -6.03182   -5.1488695 -0.019387115     -6.03182   0.88295051      8192000 
  891000   0.58865094   -6.0319231   -6.0319231    -5.148947 -0.019498781   -6.0319231   0.88297619      8192000 
  892000   0.58917352   -6.0323356   -6.0323356   -5.1485756 -0.021050577   -6.0323356   0.88376006      8192000 
  893000   0.58947351   -6.0320552   -6.0320552   -5.1478452 -0.019873986   -6.0320552   0.88421004      8192000 
  894000   0.58940281   -6.0320052   -6.0320052   -5.1479012 -0.019515983   -6.0320052     0.884104      8192000 
  895000   0.58910455   -6.0317926   -6.0317926    -5.148136 -0.018142488   -6.0317926    0.8836566      8192000 
  896000   0.58910005   -6.0317146   -6.0317146   -5.1480647 -0.018568877   -6.0317146   0.88364985      8192000 
  897000   0.58949251   -6.0317693   -6.0317693   -5.1475308 -0.018583477   -6.0317693   0.88423854      8192000 
  898000   0.58958917   -6.0312555   -6.0312555    -5.146872 -0.017393268   -6.0312555   0.88438353      8192000 
  899000   0.58974079   -6.0318396   -6.0318396   -5.1472287 -0.017957045   -6.0318396   0.88461096      8192000 
  900000   0.58988703   -6.0323219   -6.0323219   -5.1474916 -0.018359685   -6.0323219   0.88483033      8192000 
  901000   0.58970488   -6.0326201   -6.0326201    -5.148063 -0.018974042   -6.0326201   0.88455709      8192000 
  902000    0.5896079   -6.0320463   -6.0320463   -5.1476346 -0.017043173   -6.0320463   0.88441162      8192000 
  903000   0.58972572    -6.032121    -6.032121   -5.1475326 -0.016523946    -6.032121   0.88458837      8192000 
  904000   0.58996824   -6.0326304   -6.0326304   -5.1476782 -0.017470257   -6.0326304   0.88495214      8192000 
  905000    0.5900814   -6.0323026   -6.0323026   -5.1471807 -0.017258425   -6.0323026   0.88512187      8192000 
  906000   0.59048986   -6.0327788   -6.0327788   -5.1470442 -0.017824464   -6.0327788   0.88573456      8192000 
  907000   0.59050727   -6.0328689   -6.0328689   -5.1471082 -0.016670273   -6.0328689   0.88576068      8192000 
  908000   0.59063858   -6.0327318   -6.0327318   -5.1467741 -0.017267906   -6.0327318   0.88595765      8192000 
  909000   0.59094469   -6.0326328   -6.0326328    -5.146216 -0.016259259   -6.0326328   0.88641681      8192000 
  910000    0.5911815   -6.0332568   -6.0332568   -5.1464848  -0.01807134   -6.0332568   0.88677203      8192000 
  911000   0.59102445   -6.0326865   -6.0326865   -5.1461501 -0.017173379   -6.0326865   0.88653646      8192000 
  912000   0.59119807   -6.0323027   -6.0323027   -5.1455059 -0.016146598   -6.0323027   0.88679688      8192000 
  913000   0.59110103    -6.032147    -6.032147   -5.1454956 -0.016554282    -6.032147   0.88665133      8192000 
  914000   0.59150562   -6.0327573   -6.0327573   -5.1454991 -0.018589122   -6.0327573   0.88725821      8192000 
  915000   0.59082365   -6.0320464   -6.0320464   -5.1458112 -0.016829357   -6.0320464   0.88623526      8192000 
  916000   0.59100306   -6.0320512   -6.0320512   -5.1455468 -0.017347612   -6.0320512   0.88650437      8192000 
  917000   0.59152513   -6.0325479   -6.0325479   -5.1452604 -0.017808536   -6.0325479   0.88728747      8192000 
  918000   0.59169069   -6.0321742   -6.0321742   -5.1446384 -0.016071324   -6.0321742   0.88753582      8192000 
  919000   0.59191824   -6.0318598   -6.0318598   -5.1439827 -0.015451113   -6.0318598   0.88787714      8192000 
  920000   0.59183434   -6.0319611   -6.0319611   -5.1442098 -0.016367252   -6.0319611   0.88775128      8192000 
  921000   0.59152866   -6.0310584   -6.0310584   -5.1437656 -0.013878829   -6.0310584   0.88729277      8192000 
  922000   0.59197246   -6.0315722   -6.0315722   -5.1436137 -0.016298094   -6.0315722   0.88795847      8192000 
  923000   0.59224539   -6.0322087   -6.0322087   -5.1438408  -0.01711204   -6.0322087   0.88836787      8192000 
  924000   0.59200657   -6.0318986   -6.0318986    -5.143889 -0.015332417   -6.0318986   0.88800964      8192000 
  925000   0.59218751   -6.0318627   -6.0318627   -5.1435817 -0.014249472   -6.0318627   0.88828105      8192000 
  926000   0.59266488   -6.0328561   -6.0328561    -5.143859 -0.015472905   -6.0328561    0.8889971      8192000 
  927000   0.59216485   -6.0321285   -6.0321285   -5.1438814  -0.01295673   -6.0321285   0.88824705      8192000 
  928000   0.59241795   -6.0324819   -6.0324819   -5.1438552 -0.014071973   -6.0324819    0.8886267      8192000 
  929000   0.59214062   -6.0321031   -6.0321031   -5.1438924 -0.013640283   -6.0321031   0.88821071      8192000 
  930000   0.59247342   -6.0325242   -6.0325242   -5.1438143 -0.014669466   -6.0325242   0.88870991      8192000 
  931000   0.59232366   -6.0326258   -6.0326258   -5.1441406 -0.015508363   -6.0326258   0.88848527      8192000 
  932000   0.59254596    -6.032695    -6.032695   -5.1438763  -0.01535827    -6.032695   0.88881872      8192000 
  933000   0.59259371   -6.0323451   -6.0323451   -5.1434548 -0.015250542   -6.0323451   0.88889035      8192000 
  934000   0.59278924   -6.0319086   -6.0319086    -5.142725 -0.014260723   -6.0319086   0.88918364      8192000 
  935000   0.59322841    -6.032525    -6.032525   -5.1426826  -0.01510498    -6.032525    0.8898424      8192000 
  936000   0.59276859   -6.0320141   -6.0320141   -5.1428614 -0.012227293   -6.0320141   0.88915266      8192000 
  937000   0.59318621   -6.0322185   -6.0322185   -5.1424394 -0.012542455   -6.0322185   0.88977909      8192000 
  938000   0.59355876   -6.0321146   -6.0321146   -5.1417767  -0.01160407   -6.0321146   0.89033792      8192000 
  939000   0.59349061   -6.0318769   -6.0318769   -5.1416412 -0.011807397   -6.0318769   0.89023569      8192000 
  940000   0.59392061   -6.0317355   -6.0317355   -5.1408548 -0.011442881   -6.0317355    0.8908807      8192000 
  941000   0.59410989    -6.031493    -6.031493   -5.1403284 -0.0098957091    -6.031493   0.89116461      8192000 
  942000   0.59409659   -6.0315584   -6.0315584   -5.1404137 -0.011298311   -6.0315584   0.89114467      8192000 
  943000   0.59386144   -6.0315569   -6.0315569    -5.140765 -0.011560234   -6.0315569   0.89079194      8192000 
  944000   0.59429162   -6.0312032   -6.0312032    -5.139766 -0.011066535   -6.0312032   0.89143721      8192000 
  945000    0.5943671   -6.0310961   -6.0310961   -5.1395457 -0.0097796251   -6.0310961   0.89155042      8192000 
  946000   0.59460355   -6.0310601   -6.0310601    -5.139155 -0.0095720791   -6.0310601   0.89190511      8192000 
  947000   0.59464426   -6.0305573   -6.0305573   -5.1385911 -0.0070955406   -6.0305573   0.89196617      8192000 
  948000   0.59480275    -6.030937    -6.030937   -5.1387331 -0.0071499094    -6.030937    0.8922039      8192000 
  949000   0.59513159   -6.0319503   -6.0319503   -5.1392532 -0.0089323142   -6.0319503   0.89269716      8192000 
  950000   0.59520575   -6.0318461   -6.0318461   -5.1390377  -0.00818562   -6.0318461    0.8928084      8192000 
  951000   0.59509035   -6.0317825   -6.0317825   -5.1391472 -0.0075674589   -6.0317825   0.89263531      8192000 
  952000   0.59517693   -6.0313332   -6.0313332    -5.138568 -0.0069287866   -6.0313332   0.89276518      8192000 
  953000   0.59453936   -6.0306058   -6.0306058    -5.138797 -0.0059636059   -6.0306058   0.89180881      8192000 
  954000   0.59492074    -6.031128    -6.031128   -5.1387471 -0.0079260991    -6.031128   0.89238089      8192000 
  955000   0.59565945   -6.0318267   -6.0318267   -5.1383377 -0.0093670161   -6.0318267   0.89348895      8192000 
  956000   0.59509402   -6.0309659   -6.0309659   -5.1383251 -0.0081418752   -6.0309659    0.8926408      8192000 
  957000    0.5956066   -6.0312067   -6.0312067    -5.137797 -0.0085792516   -6.0312067   0.89340967      8192000 
  958000   0.59569245   -6.0307987   -6.0307987   -5.1372603 -0.0067886631   -6.0307987   0.89353844      8192000 
  959000   0.59578836   -6.0306846   -6.0306846   -5.1370022 -0.006225178   -6.0306846   0.89368231      8192000 
  960000   0.59596091   -6.0305898   -6.0305898   -5.1366487 -0.0050916783   -6.0305898   0.89394114      8192000 
  961000   0.59637961    -6.031084    -6.031084   -5.1365148 -0.0064540476    -6.031084   0.89456919      8192000 
  962000   0.59583928   -6.0306321   -6.0306321   -5.1368735 -0.004986836   -6.0306321   0.89375869      8192000 
  963000   0.59631489   -6.0309439   -6.0309439   -5.1364718 -0.0061073833   -6.0309439   0.89447211      8192000 
  964000   0.59658085   -6.0307636   -6.0307636   -5.1358926 -0.0050956051   -6.0307636   0.89487105      8192000 
  965000   0.59634678   -6.0303133   -6.0303133   -5.1357933 -0.003504841   -6.0303133   0.89451995      8192000 
  966000   0.59610671   -6.0304452   -6.0304452   -5.1362853 -0.003604849   -6.0304452   0.89415984      8192000 
  967000   0.59622818   -6.0311136   -6.0311136   -5.1367716 -0.0053874725   -6.0311136   0.89434204      8192000 
  968000   0.59646147   -6.0309663   -6.0309663   -5.1362743 -0.0046971051   -6.0309663   0.89469199      8192000 
  969000   0.59683399   -6.0308542   -6.0308542   -5.1356035 -0.0041936387   -6.0308542   0.89525076      8192000 
  970000   0.59716098   -6.0308944   -6.0308944   -5.1351532 -0.0054233587   -6.0308944   0.89574124      8192000 
  971000   0.59722367   -6.0301885   -6.0301885   -5.1343532 -0.0026153223   -6.0301885   0.89583528      8192000 
  972000   0.59711678     -6.02984     -6.02984   -5.1341651 -0.0030666082     -6.02984   0.89567494      8192000 
  973000   0.59726378   -6.0299916   -6.0299916   -5.1340961  -0.00431064   -6.0299916   0.89589544      8192000 
  974000   0.59667785   -6.0292412   -6.0292412   -5.1342247 -0.0034771154   -6.0292412   0.89501655      8192000 
  975000   0.59745551   -6.0298293   -6.0298293   -5.1336462 -0.0057406627   -6.0298293   0.89618304      8192000 
  976000   0.59763132   -6.0298114   -6.0298114   -5.1333647 -0.0049980908   -6.0298114   0.89644675      8192000 
  977000   0.59736395   -6.0297999   -6.0297999   -5.1337542 -0.0050527771   -6.0297999    0.8960457      8192000 
  978000   0.59769678   -6.0297724   -6.0297724   -5.1332274 -0.0050076943   -6.0297724   0.89654494      8192000 
  979000   0.59764761   -6.0293303   -6.0293303   -5.1328591 -0.0039411544   -6.0293303   0.89647119      8192000 
  980000   0.59777301    -6.029559    -6.029559   -5.1328997 -0.0042044174    -6.029559   0.89665929      8192000 
  981000   0.59795355   -6.0294954   -6.0294954   -5.1325653 -0.0040124254   -6.0294954    0.8969301      8192000 
  982000   0.59758398   -6.0289587   -6.0289587    -5.132583 -0.0029353218   -6.0289587   0.89637575      8192000 
  983000   0.59756287   -6.0288674   -6.0288674   -5.1325233 -0.0027629209   -6.0288674   0.89634409      8192000 
  984000   0.59839552   -6.0293806   -6.0293806   -5.1317876 -0.0033522602   -6.0293806   0.89759306      8192000 
  985000   0.59823242   -6.0287027   -6.0287027   -5.1313543 -0.0023648804   -6.0287027    0.8973484      8192000 
  986000   0.59828759   -6.0287352   -6.0287352    -5.131304 -0.0030076308   -6.0287352   0.89743117      8192000 
  987000   0.59849269   -6.0284287   -6.0284287   -5.1306899 -0.0024568873   -6.0284287   0.89773881      8192000 
  988000   0.59866624   -6.0281341   -6.0281341    -5.130135 -0.0030708289   -6.0281341   0.89799914      8192000 
  989000   0.59895075   -6.0281493   -6.0281493   -5.1297234 -0.0023290107   -6.0281493   0.89842589      8192000 
  990000     0.598998   -6.0281213   -6.0281213   -5.1296246 -0.0033990187   -6.0281213   0.89849677      8192000 
  991000   0.59870466   -6.0276063   -6.0276063   -5.1295495 -0.0018761179   -6.0276063   0.89805676      8192000 
  992000   0.59923428   -6.0282867   -6.0282867   -5.1294355 -0.0045977399   -6.0282867    0.8988512      8192000 
  993000   0.59886963   -6.0277629   -6.0277629   -5.1294587 -0.0037113995   -6.0277629   0.89830423      8192000 
  994000   0.59881372   -6.0274153   -6.0274153    -5.129195 -0.0033088512   -6.0274153   0.89822035      8192000 
  995000   0.59927135   -6.0273532   -6.0273532   -5.1284464 -0.0025524994   -6.0273532    0.8989068      8192000 
  996000   0.59930032   -6.0276869   -6.0276869   -5.1287366 -0.003740834   -6.0276869   0.89895025      8192000 
  997000   0.59909031    -6.027487    -6.027487   -5.1288517 -0.0035059268    -6.027487   0.89863525      8192000 
  998000   0.59913359   -6.0270644   -6.0270644   -5.1283642 -0.0014118402   -6.0270644   0.89870016      8192000 
  999000   0.59962104   -6.0277893   -6.0277893    -5.128358 -0.0029502086   -6.0277893   0.89943133      8192000 
 1000000   0.59984422   -6.0275227   -6.0275227   -5.1277566 -0.0020744055   -6.0275227   0.89976611      8192000 
Loop time of 15061.9 on 192 procs for 1000000 steps with 3993600 atoms

Performance: 14340.776 tau/day, 66.392 timesteps/s
99.5% CPU use with 192 MPI tasks x 1 OpenMP threads

MPI task timing breakdown:
Section |  min time  |  avg time  |  max time  |%varavg|  %CPU | %total
-----------------------------------------------------------------------
Pair    | 8085.9     | 9163.6     | 9812.1     | 382.4 |  99.5 | 60.84
Bond    | 0.76972    | 0.88864    | 0.97868    |   4.0 | 100.0 |  0.01
Neigh   | 1632.8     | 1877.3     | 1998.9     | 187.6 |  99.6 | 12.46
Comm    | 1517.9     | 2206.4     | 3405.6     | 819.6 |  99.1 | 14.65
Output  | 64.361     | 64.863     | 64.87      |   0.5 |  98.7 |  0.43
Modify  | 1093       | 1216.2     | 1327.5     | 134.4 |  99.1 |  8.07
Other   |            | 532.7      |            |       |       |  3.54

Nlocal:        20800.0 ave       21688 max       19806 min
Histogram: 2 4 13 23 44 40 33 22 7 4
Nghost:        15312.0 ave       16834 max       11537 min
Histogram: 48 0 0 0 0 0 0 3 20 121
Neighs:        939710.0 ave 1.02709e+06 max      787319 min
Histogram: 10 11 4 4 7 13 43 63 32 5

Total # of neighbors = 1.804244e+08
Ave neighs/atom = 45.178385
Ave special neighs/atom = 0.0000000
Neighbor list builds = 52482
Dangerous builds = 0
write_data	data.lj
System init for write_data ...
WARNING: Not all mixed pair coeffs generated from mixing. Use write_data with 'pair ij' option to store all pair coeffs. (src/write_data.cpp:312)
Total wall time: 4:11:10
