LAMMPS (29 Oct 2020)
  using 1 OpenMP thread(s) per MPI task
# Simple rigid body system
# needed variables:

#variable	startTemp equal 0.5
#variable 	temp 	  equal 0.8

units		lj
atom_style	full
dimension 	3
boundary	p p f
pair_style	lj/cut/opt 2.5

variable 	sigma		equal 1.0
variable 	epsilon 	equal 1.0

region		box block 0 80 0 80 0 160
create_box 	3 box
Created orthogonal box = (0.0000000 0.0000000 0.0000000) to (80.000000 80.000000 160.00000)
  2 by 4 by 8 MPI processor grid



lattice 	sc 0.66
Lattice spacing in x,y,z = 1.1485556 1.1485556 1.1485556
region		fluid block EDGE EDGE EDGE EDGE 2 100 units box
create_atoms 	1 region fluid
Created 421400 atoms
  create_atoms CPU = 0.007 seconds

lattice 	sc 0.045
Lattice spacing in x,y,z = 2.8114422 2.8114422 2.8114422
region		gas block EDGE EDGE EDGE EDGE 101 158 units box
create_atoms    1 region gas
Created 17661 atoms
  create_atoms CPU = 0.006 seconds

group		solvent type 1
439061 atoms in group solvent

mass		1 1.0
mass		2 1.0
mass		3 1.0



neighbor 	0.4 bin

pair_coeff	1 1 1.0 1.0
pair_coeff	2 2 0.0 0.0
pair_coeff	3 3 0.0 0.0
pair_coeff	2 3 0.0 0.0
pair_coeff	1 2*3 0.0 0.0

pair_modify 	shift yes

delete_atoms	overlap 0.5 solvent solvent
System init for delete_atoms ...
Neighbor list info ...
  update every 1 steps, delay 10 steps, check yes
  max neighbors/atom: 2000, page size: 100000
  master list distance cutoff = 2.9
  ghost atom cutoff = 2.9
  binsize = 1.45, bins = 56 56 111
  2 neighbor lists, perpetual/occasional/extra = 1 1 0
  (1) command delete_atoms, occasional
      attributes: full, newton on
      pair build: full/bin
      stencil: full/bin/3d
      bin: standard
  (2) pair lj/cut/opt, perpetual
      attributes: half, newton on
      pair build: half/bin/newton
      stencil: half/bin/3d/newton
      bin: standard
WARNING: Ignoring 'compress yes' for molecular system (src/delete_atoms.cpp:125)
Deleted 0 atoms, new total = 439061

velocity 	solvent create ${startTemp} 563435 loop geom
velocity 	solvent create .65 563435 loop geom

balance 	1.05 shift z 10 1.05
Balancing ...
Neighbor list info ...
  update every 1 steps, delay 10 steps, check yes
  max neighbors/atom: 2000, page size: 100000
  master list distance cutoff = 2.9
  ghost atom cutoff = 2.9
  binsize = 1.45, bins = 56 56 111
  1 neighbor lists, perpetual/occasional/extra = 1 0 0
  (1) pair lj/cut/opt, perpetual
      attributes: half, newton on
      pair build: half/bin/newton
      stencil: half/bin/3d/newton
      bin: standard
 rebalancing time: 0.041 seconds
  iteration count = 5
  initial/final maximal load/proc = 11340.000 8190.0000
  initial/final imbalance factor  = 1.6529822 1.1938204
  x cuts: 0.0000000 0.5 1.0000000
  y cuts: 0.0000000 0.25 0.5 0.75 1.0000000
  z cuts: 0.0000000 0.08984375 0.17578125 0.25390625 0.3359375 0.4140625 0.50390625 0.58203125 1.0000000


####################### WALLS ###########################


variable       epsilonWall equal 2*${epsilon}
variable       epsilonWall equal 2*1

variable       cutoffTop   equal   0.7147*${sigma}
variable       cutoffTop   equal   0.7147*1

variable       cutoffLow   equal   3*${sigma}
variable       cutoffLow   equal   3*1


fix            topWall all wall/lj93 zhi EDGE                ${epsilonWall} ${sigma} ${cutoffTop} units box
fix            topWall all wall/lj93 zhi EDGE                2 ${sigma} ${cutoffTop} units box
fix            topWall all wall/lj93 zhi EDGE                2 1 ${cutoffTop} units box
fix            topWall all wall/lj93 zhi EDGE                2 1 0.7147 units box

fix            lowWall all wall/lj93 zlo EDGE                ${epsilonWall} ${sigma} ${cutoffLow} units box
fix            lowWall all wall/lj93 zlo EDGE                2 ${sigma} ${cutoffLow} units box
fix            lowWall all wall/lj93 zlo EDGE                2 1 ${cutoffLow} units box
fix            lowWall all wall/lj93 zlo EDGE                2 1 3 units box


###################### COMPUTES ##########################

compute        bin1 solvent chunk/atom bin/1d z upper 1.0


######################	FIXES ############################


fix 		peclet solvent ave/chunk 1000 1 1000 bin1 density/number norm 		 none ave one file density.profile

fix 		 temp solvent ave/chunk 1000 1 1000 bin1 temp norm 		 none ave one file temp.profile

fix 		2 solvent nve


## Thermostat


region		regthermo block EDGE EDGE EDGE EDGE 0 20 units box

group 		thermo dynamic solvent region regthermo every 1000
dynamic group thermo defined

fix 		3 thermo langevin ${startTemp} ${temp} 10 156453
fix 		3 thermo langevin .65 ${temp} 10 156453
fix 		3 thermo langevin .65 .65 10 156453



#### Load balancing


fix 		bal all balance 1000 1.05 shift z 10 1.05


############### Diagnostics and computes ###################
#compute 	com cube	  rigid/local	1 mol x y z
#compute 	quat cube	  rigid/local	1 mol quatw quati quatj quatk

thermo 		1000
thermo_style 	custom step temp epair evdwl etotal press pe ke atoms

dump		1 all custom 100000 dump.lammpstrj id mol type x y z
dump 		2 all image 10000 image.*.png type type
dump 		3 all movie 1000 movie.avi type type

#dump 		com cube local 1000 dump.*.xyz c_com[*]
#dump		quat cube      local 1000 dump.*.quat c_quat[*]


restart 	1000000 restart.dat
timestep 	0.005
timer 		full
New timer settings: style=full  mode=nosync  timeout=off

run		5000000
Per MPI rank memory allocation (min/avg/max) = 11.32 | 15.17 | 18.40 Mbytes
Step Temp E_pair E_vdwl TotEng Press PotEng KinEng Atoms 
       0         0.65   -1.2273921   -1.2273921  -0.25239427     3.910554   -1.2273921   0.97499778   439061 
    1000    1.7532329   -3.3820623   -3.3820623  -0.75221895    1.7801658   -3.3820623    2.6298433   439061 
    2000    1.6293599   -3.3846816   -3.3846816  -0.94064739   0.95049996   -3.3846816    2.4440342   439061 
    3000    1.4436796   -3.2806522   -3.2806522   -1.1151378   0.59852982   -3.2806522    2.1655144   439061 
    4000    1.3553736   -3.2828235   -3.2828235   -1.2497677    0.4779751   -3.2828235    2.0330558   439061 
    5000    1.2966295   -3.2751834   -3.2751834   -1.3302436   0.37144399   -3.2751834    1.9449398   439061 
    6000    1.2562757   -3.2580268   -3.2580268   -1.3736176   0.26489202   -3.2580268    1.8844093   439061 
    7000    1.2288193   -3.2442097   -3.2442097    -1.400985    0.2227826   -3.2442097    1.8432247   439061 
    8000    1.2181996   -3.2485744   -3.2485744   -1.4212793   0.23146391   -3.2485744    1.8272952   439061 
    9000    1.2223572   -3.2745861   -3.2745861   -1.4410544   0.27944446   -3.2745861    1.8335317   439061 
   10000    1.2295707   -3.3060426   -3.3060426   -1.4616907   0.33047001   -3.3060426    1.8443519   439061 
   11000    1.2314275   -3.3271691   -3.3271691   -1.4800321   0.35374449   -3.3271691     1.847137   439061 
   12000    1.2232328   -3.3328793   -3.3328793   -1.4980343   0.34015283   -3.3328793    1.8348449   439061 
   13000    1.2161374   -3.3357703   -3.3357703   -1.5115684   0.33139161   -3.3357703    1.8242019   439061 
   14000    1.2048026   -3.3308299   -3.3308299   -1.5236301    0.3260308   -3.3308299    1.8071998   439061 
   15000    1.1925238   -3.3226738   -3.3226738   -1.5338923   0.30357702   -3.3226738    1.7887816   439061 
   16000    1.1716386   -3.3010046   -3.3010046   -1.5435507   0.27156445   -3.3010046    1.7574538   439061 
   17000    1.1495317   -3.2773905   -3.2773905   -1.5530969   0.24595872   -3.2773905    1.7242936   439061 
   18000    1.1314727   -3.2599061   -3.2599061    -1.562701   0.22913467   -3.2599061    1.6972052   439061 
   19000    1.1154742    -3.244618    -3.244618   -1.5714104   0.21382412    -3.244618    1.6732075   439061 
   20000    1.1025351   -3.2366546   -3.2366546   -1.5828557   0.23379059   -3.2366546    1.6537988   439061 
   21000    1.0893497   -3.2356506   -3.2356506   -1.6016297   0.24545265   -3.2356506    1.6340209   439061 
   22000    1.0779637   -3.2424747   -3.2424747   -1.6255328   0.23866363   -3.2424747    1.6169419   439061 
   23000    1.0628996   -3.2403478   -3.2403478   -1.6460019   0.22025509   -3.2403478    1.5943458   439061 
   24000    1.0530752   -3.2428014   -3.2428014   -1.6631922   0.19626436   -3.2428014    1.5796092   439061 
   25000    1.0430842   -3.2438067   -3.2438067    -1.679184    0.1944705   -3.2438067    1.5646227   439061 
   26000    1.0393459   -3.2536976   -3.2536976   -1.6946822   0.19606249   -3.2536976    1.5590153   439061 
   27000    1.0348052   -3.2623155   -3.2623155   -1.7101112   0.19511963   -3.2623155    1.5522042   439061 
   28000    1.0285252   -3.2684504   -3.2684504   -1.7256661   0.19371171   -3.2684504    1.5427843   439061 
   29000    1.0221576   -3.2749665   -3.2749665   -1.7417337   0.18357323   -3.2749665    1.5332328   439061 
   30000    1.0181673   -3.2837232   -3.2837232   -1.7564757   0.17724656   -3.2837232    1.5272475   439061 
   31000    1.0133078   -3.2893307   -3.2893307   -1.7693725   0.17496507   -3.2893307    1.5199582   439061 
   32000    1.0094218    -3.295979    -3.295979   -1.7818496   0.17196594    -3.295979    1.5141293   439061 
   33000    1.0042508   -3.3029231   -3.3029231   -1.7965504   0.16151851   -3.3029231    1.5063727   439061 
   34000   0.99826555   -3.3061605   -3.3061605   -1.8087656   0.16037916   -3.3061605    1.4973949   439061 
   35000   0.99415567   -3.3111147   -3.3111147   -1.8198846   0.15004943   -3.3111147    1.4912301   439061 
   36000   0.98793778   -3.3133045   -3.3133045   -1.8314012   0.14331329   -3.3133045    1.4819033   439061 
   37000   0.98165598   -3.3140915   -3.3140915   -1.8416109    0.1337358   -3.3140915    1.4724806   439061 
   38000   0.97610366   -3.3145489   -3.3145489   -1.8503967   0.13058682   -3.3145489    1.4641521   439061 
   39000   0.97370336   -3.3198504   -3.3198504   -1.8592987   0.12362018   -3.3198504    1.4605517   439061 
   40000   0.96705288   -3.3212584   -3.3212584   -1.8706824   0.11802361   -3.3212584     1.450576   439061 
   41000   0.96320146   -3.3247737   -3.3247737   -1.8799748   0.11326195   -3.3247737    1.4447989   439061 
   42000   0.95879598   -3.3265174   -3.3265174   -1.8883267   0.10784103   -3.3265174    1.4381907   439061 
   43000    0.9513586    -3.324568    -3.324568   -1.8975333   0.10218343    -3.324568    1.4270347   439061 
   44000   0.94879751    -3.328258    -3.328258    -1.905065    0.1008499    -3.328258     1.423193   439061 
   45000   0.94634327   -3.3318695   -3.3318695   -1.9123578  0.097987901   -3.3318695    1.4195117   439061 
   46000   0.94351875   -3.3361324   -3.3361324   -1.9208575  0.092713589   -3.3361324    1.4152749   439061 
   47000   0.94319252   -3.3430895   -3.3430895   -1.9283039  0.087667768   -3.3430895    1.4147856   439061 
   48000   0.94000915   -3.3461682   -3.3461682   -1.9361577  0.082941688   -3.3461682    1.4100105   439061 
   49000   0.93919168   -3.3522335   -3.3522335   -1.9434491  0.086505101   -3.3522335    1.4087843   439061 
   50000   0.93682884    -3.356505    -3.356505   -1.9512649   0.08723529    -3.356505    1.4052401   439061 
   51000   0.93473977   -3.3596648   -3.3596648   -1.9575583  0.079939398   -3.3596648    1.4021065   439061 
   52000   0.93158036   -3.3637874   -3.3637874     -1.96642  0.079062608   -3.3637874    1.3973674   439061 
   53000   0.93216703    -3.371667    -3.371667   -1.9734196  0.078808191    -3.371667    1.3982474   439061 
   54000   0.93097237   -3.3767708   -3.3767708   -1.9803154  0.080795409   -3.3767708    1.3964554   439061 
   55000   0.93105443   -3.3832898   -3.3832898   -1.9867113  0.081464977   -3.3832898    1.3965785   439061 
   56000   0.92806647   -3.3857182   -3.3857182   -1.9936217  0.082179367   -3.3857182    1.3920965   439061 
   57000    0.9295055   -3.3952294   -3.3952294   -2.0009743  0.079128144   -3.3952294    1.3942551   439061 
   58000   0.92855416   -3.3996899   -3.3996899   -2.0068619  0.079595666   -3.3996899    1.3928281   439061 
   59000   0.92607056   -3.4032213   -3.4032213   -2.0141187   0.08206744   -3.4032213    1.3891027   439061 
   60000    0.9241326   -3.4066495   -3.4066495   -2.0204538  0.079829477   -3.4066495    1.3861957   439061 
   61000   0.92337561   -3.4109013   -3.4109013   -2.0258411  0.074847797   -3.4109013    1.3850603   439061 
   62000   0.92121856   -3.4143284   -3.4143284   -2.0325037  0.072636472   -3.4143284    1.3818247   439061 
   63000   0.92150476   -3.4202038   -3.4202038   -2.0379498   0.07771707   -3.4202038     1.382254   439061 
   64000   0.92106155   -3.4254821   -3.4254821   -2.0438929  0.075662037   -3.4254821    1.3815892   439061 
   65000   0.91825574   -3.4277513   -3.4277513   -2.0503708  0.074089409   -3.4277513    1.3773805   439061 
   66000   0.91787349   -3.4330514   -3.4330514   -2.0562443  0.073728038   -3.4330514    1.3768071   439061 
   67000   0.91716931   -3.4391578   -3.4391578   -2.0634069  0.068814662   -3.4391578    1.3757508   439061 
   68000   0.91488356   -3.4411265   -3.4411265   -2.0688043  0.073981992   -3.4411265    1.3723222   439061 
   69000   0.91389831   -3.4464507   -3.4464507   -2.0756063  0.079382002   -3.4464507    1.3708443   439061 
   70000   0.91423727   -3.4530215   -3.4530215   -2.0816687  0.076323212   -3.4530215    1.3713528   439061 
   71000   0.91170064   -3.4560981   -3.4560981   -2.0885502  0.078371698   -3.4560981    1.3675478   439061 
   72000   0.91095286   -3.4603541   -3.4603541   -2.0939279  0.075684602   -3.4603541    1.3664262   439061 
   73000   0.91041137   -3.4652355   -3.4652355   -2.0996216  0.077198728   -3.4652355    1.3656139   439061 
   74000   0.90797523    -3.467218    -3.467218   -2.1052583  0.077559148    -3.467218    1.3619597   439061 
   75000   0.90811484   -3.4727495   -3.4727495   -2.1105804  0.070897101   -3.4727495    1.3621692   439061 
   76000   0.90905183   -3.4791578   -3.4791578   -2.1155831  0.073773937   -3.4791578    1.3635746   439061 
   77000   0.90767021   -3.4841416   -3.4841416   -2.1226394  0.075521538   -3.4841416    1.3615022   439061 
   78000   0.90704564   -3.4880318   -3.4880318   -2.1274665  0.073056774   -3.4880318    1.3605654   439061 
   79000   0.90541537   -3.4927809   -3.4927809    -2.134661  0.074276178   -3.4927809      1.35812   439061 
   80000   0.90503223   -3.4980185   -3.4980185   -2.1404733  0.065576832   -3.4980185    1.3575452   439061 
   81000   0.90520551   -3.5028473   -3.5028473   -2.1450421  0.075066598   -3.5028473    1.3578052   439061 
   82000    0.9049728   -3.5078759   -3.5078759   -2.1504198  0.075665815   -3.5078759    1.3574561   439061 
   83000   0.90426323   -3.5116595   -3.5116595   -2.1552678  0.082120395   -3.5116595    1.3563918   439061 
   84000   0.90463224   -3.5174663   -3.5174663    -2.160521  0.081972323   -3.5174663    1.3569453   439061 
   85000   0.90349131   -3.5207088   -3.5207088   -2.1654749  0.077194271   -3.5207088    1.3552339   439061 
   86000   0.90175465   -3.5234548   -3.5234548   -2.1708259  0.075628068   -3.5234548    1.3526289   439061 
   87000   0.90087303   -3.5277668   -3.5277668   -2.1764603   0.06972306   -3.5277668    1.3513065   439061 
   88000   0.89930941   -3.5303917   -3.5303917   -2.1814307  0.073624077   -3.5303917     1.348961   439061 
   89000   0.90046138   -3.5369622   -3.5369622   -2.1862732  0.072582547   -3.5369622     1.350689   439061 
   90000   0.89965929    -3.540333    -3.540333   -2.1908472  0.075522854    -3.540333    1.3494859   439061 
   91000   0.89983156   -3.5460646   -3.5460646   -2.1963203  0.074923841   -3.5460646    1.3497443   439061 
   92000   0.89872651   -3.5503252   -3.5503252   -2.2022385  0.072304828   -3.5503252    1.3480867   439061 
   93000   0.89740989   -3.5543169   -3.5543169   -2.2082052  0.073406603   -3.5543169    1.3461118   439061 
   94000   0.89546543   -3.5565093   -3.5565093   -2.2133142  0.071560836   -3.5565093    1.3431951   439061 
   95000   0.89607453   -3.5615671   -3.5615671   -2.2174584  0.072204681   -3.5615671    1.3441087   439061 
   96000   0.89383216   -3.5638919   -3.5638919   -2.2231467  0.076418035   -3.5638919    1.3407452   439061 
   97000   0.89533256    -3.570882    -3.570882   -2.2278862  0.074165226    -3.570882    1.3429958   439061 
   98000   0.89318604   -3.5725289   -3.5725289   -2.2327529  0.079644955   -3.5725289     1.339776   439061 
   99000   0.89389828   -3.5786232   -3.5786232   -2.2377788  0.071206463   -3.5786232    1.3408444   439061 
  100000   0.89296193   -3.5802577   -3.5802577   -2.2408179  0.071953332   -3.5802577    1.3394398   439061 
  101000   0.89252742   -3.5832612   -3.5832612   -2.2444732  0.069150287   -3.5832612    1.3387881   439061 
  102000   0.89188615   -3.5880456   -3.5880456   -2.2502194  0.060381625   -3.5880456    1.3378262   439061 
  103000   0.89107555   -3.5919607   -3.5919607   -2.2553504  0.065849845   -3.5919607    1.3366103   439061 
  104000    0.8904625    -3.595448    -3.595448   -2.2597573  0.065062053    -3.595448    1.3356907   439061 
  105000   0.88976138   -3.5987058   -3.5987058   -2.2640668  0.074039971   -3.5987058     1.334639   439061 
  106000   0.88960228   -3.6041922   -3.6041922   -2.2697918  0.065316854   -3.6041922    1.3344004   439061 
  107000    0.8893513   -3.6082486   -3.6082486   -2.2742247  0.068940728   -3.6082486    1.3340239   439061 
  108000   0.88882605   -3.6115804   -3.6115804   -2.2783444  0.067093116   -3.6115804     1.333236   439061 
  109000   0.88623182   -3.6112582   -3.6112582   -2.2819135  0.066550006   -3.6112582    1.3293447   439061 
  110000    0.8853012   -3.6146308   -3.6146308   -2.2866821  0.071111109   -3.6146308    1.3279488   439061 
  111000   0.88529488   -3.6191105   -3.6191105   -2.2911712  0.064931488   -3.6191105    1.3279393   439061 
  112000   0.88602845   -3.6240399   -3.6240399   -2.2950003  0.066222381   -3.6240399    1.3290396   439061 
  113000   0.88485524   -3.6268225   -3.6268225   -2.2995427   0.06893152   -3.6268225    1.3272798   439061 
  114000   0.88461699   -3.6305486   -3.6305486   -2.3036261   0.06287935   -3.6305486    1.3269225   439061 
  115000   0.88343693   -3.6336145   -3.6336145   -2.3084622  0.061892158   -3.6336145    1.3251524   439061 
  116000   0.88253748   -3.6360785   -3.6360785   -2.3122753  0.063656287   -3.6360785    1.3238032   439061 
  117000   0.88165152    -3.640138    -3.640138   -2.3176638  0.062750026    -3.640138    1.3224743   439061 
  118000   0.88261501   -3.6453777   -3.6453777   -2.3214582  0.067232223   -3.6453777    1.3239195   439061 
  119000    0.8809813   -3.6477407   -3.6477407   -2.3262717  0.066920219   -3.6477407    1.3214689   439061 
  120000   0.88017329   -3.6517687   -3.6517687   -2.3315118  0.070464333   -3.6517687    1.3202569   439061 
  121000   0.88011143   -3.6558146   -3.6558146   -2.3356505  0.062617346   -3.6558146    1.3201641   439061 
  122000    0.8795872   -3.6588166   -3.6588166   -2.3394388  0.066190231   -3.6588166    1.3193778   439061 
  123000   0.87952577    -3.663539    -3.663539   -2.3442534  0.068115757    -3.663539    1.3192857   439061 
  124000   0.87905981   -3.6679624   -3.6679624   -2.3493757  0.064939478   -3.6679624    1.3185867   439061 
  125000   0.87998231   -3.6728106   -3.6728106   -2.3528402  0.066530457   -3.6728106    1.3199705   439061 
  126000     0.877641   -3.6738894   -3.6738894   -2.3574309  0.059266575   -3.6738894    1.3164585   439061 
  127000   0.87616198   -3.6766216   -3.6766216   -2.3623816  0.061472585   -3.6766216      1.31424   439061 
  128000   0.87625827   -3.6801851   -3.6801851   -2.3658007  0.067832539   -3.6801851    1.3143844   439061 
  129000   0.87668527   -3.6845121   -3.6845121   -2.3694872  0.064634783   -3.6845121    1.3150249   439061 
  130000   0.87572328   -3.6874308   -3.6874308   -2.3738489  0.068048974   -3.6874308    1.3135819   439061 
  131000   0.87685579   -3.6922782   -3.6922782   -2.3769975  0.064011748   -3.6922782    1.3152807   439061 
  132000   0.87529127   -3.6939691   -3.6939691   -2.3810352  0.063714015   -3.6939691    1.3129339   439061 
  133000   0.87664575   -3.6998423   -3.6998423   -2.3848766  0.057603651   -3.6998423    1.3149656   439061 
  134000   0.87465405   -3.7005056   -3.7005056   -2.3885275  0.067182255   -3.7005056    1.3119781   439061 
  135000   0.87258615   -3.7006507   -3.7006507   -2.3917745  0.071487718   -3.7006507    1.3088762   439061 
  136000   0.87284489    -3.706843    -3.706843   -2.3975787  0.064703811    -3.706843    1.3092643   439061 
  137000   0.87199599   -3.7077276   -3.7077276   -2.3997366  0.069490718   -3.7077276     1.307991   439061 
  138000   0.87368236   -3.7135974   -3.7135974   -2.4030769  0.066330394   -3.7135974    1.3105206   439061 
  139000   0.87313383   -3.7166105   -3.7166105   -2.4069128   0.06576363   -3.7166105    1.3096978   439061 
  140000    0.8718582   -3.7196709   -3.7196709   -2.4118866  0.063882813   -3.7196709    1.3077843   439061 
  141000   0.87113339   -3.7230981   -3.7230981    -2.416401    0.0629021   -3.7230981    1.3066971   439061 
  142000   0.87183697   -3.7264209   -3.7264209   -2.4186684  0.062337641   -3.7264209    1.3077525   439061 
  143000   0.87044135   -3.7278085   -3.7278085   -2.4221494  0.069781497   -3.7278085    1.3056591   439061 
  144000   0.86951083   -3.7303649   -3.7303649   -2.4261016  0.065631049   -3.7303649    1.3042633   439061 
  145000    0.8681274   -3.7308243   -3.7308243   -2.4286361  0.066750933   -3.7308243    1.3021881   439061 
  146000   0.86929943   -3.7376804   -3.7376804   -2.4337343  0.061515578   -3.7376804    1.3039462   439061 
  147000   0.86828003   -3.7398073   -3.7398073   -2.4373903  0.063954791   -3.7398073    1.3024171   439061 
  148000   0.86805299   -3.7420412   -3.7420412   -2.4399647  0.065743445   -3.7420412    1.3020765   439061 
  149000   0.86851393   -3.7458785   -3.7458785   -2.4431106  0.063463335   -3.7458785    1.3027679   439061 
  150000   0.86799335   -3.7482907   -3.7482907   -2.4463036  0.061175701   -3.7482907    1.3019871   439061 
  151000   0.86661175   -3.7504882   -3.7504882   -2.4505735  0.057102459   -3.7504882    1.2999147   439061 
  152000   0.86515682   -3.7516137   -3.7516137   -2.4538814  0.060124312   -3.7516137    1.2977323   439061 
  153000   0.86475568   -3.7541397   -3.7541397   -2.4570092  0.059478408   -3.7541397    1.2971306   439061 
  154000   0.86493307   -3.7590064   -3.7590064   -2.4616098  0.058132615   -3.7590064    1.2973966   439061 
  155000    0.8650842   -3.7624881   -3.7624881   -2.4648647   0.06647592   -3.7624881    1.2976234   439061 
  156000   0.86477147   -3.7656736   -3.7656736   -2.4685194  0.063107354   -3.7656736    1.2971542   439061 
  157000   0.86387372   -3.7683604   -3.7683604   -2.4725528    0.0683514   -3.7683604    1.2958076   439061 
  158000   0.86403821   -3.7717021   -3.7717021   -2.4756477  0.063336168   -3.7717021    1.2960544   439061 
  159000   0.86287978   -3.7728956   -3.7728956   -2.4785789    0.0629447   -3.7728956    1.2943167   439061 
  160000   0.86217424   -3.7772984   -3.7772984     -2.48404  0.054938886   -3.7772984    1.2932584   439061 
  161000    0.8627693   -3.7799652   -3.7799652   -2.4858142  0.058526437   -3.7799652     1.294151   439061 
  162000   0.86087706   -3.7806255   -3.7806255   -2.4893128   0.05968107   -3.7806255    1.2913127   439061 
  163000   0.86195512   -3.7853532   -3.7853532   -2.4924234   0.06256561   -3.7853532    1.2929297   439061 
  164000   0.86013052   -3.7859113   -3.7859113   -2.4957184  0.059034706   -3.7859113    1.2901928   439061 
  165000   0.85954464   -3.7896048   -3.7896048   -2.5002908  0.062332725   -3.7896048     1.289314   439061 
  166000    0.8587151   -3.7929541   -3.7929541   -2.5048844  0.057193298   -3.7929541    1.2880697   439061 
  167000   0.85953494   -3.7982294   -3.7982294   -2.5089299  0.062087991   -3.7982294    1.2892995   439061 
  168000   0.85927846   -3.8018772   -3.8018772   -2.5129625  0.059131096   -3.8018772    1.2889147   439061 
  169000   0.85746492   -3.8024691   -3.8024691   -2.5162746   0.05934237   -3.8024691    1.2861944   439061 
  170000   0.85803173   -3.8065428   -3.8065428   -2.5194981  0.060210858   -3.8065428    1.2870447   439061 
  171000   0.85839931   -3.8093386   -3.8093386   -2.5217425  0.061499973   -3.8093386     1.287596   439061 
  172000   0.85745796   -3.8116653   -3.8116653   -2.5254813   0.06048736   -3.8116653     1.286184   439061 
  173000   0.85723798   -3.8143336   -3.8143336   -2.5284795  0.057877319   -3.8143336     1.285854   439061 
  174000   0.85572138   -3.8137866   -3.8137866   -2.5302075  0.063032195   -3.8137866    1.2835791   439061 
  175000   0.85498449   -3.8161891   -3.8161891   -2.5337153   0.06065441   -3.8161891    1.2824738   439061 
  176000   0.85673652   -3.8213066   -3.8213066   -2.5362047  0.054505235   -3.8213066    1.2851019   439061 
  177000   0.85620304    -3.824048    -3.824048   -2.5397464  0.057430776    -3.824048    1.2843016   439061 
  178000    0.8552251   -3.8257984   -3.8257984   -2.5429637  0.058456015   -3.8257984    1.2828347   439061 
  179000   0.85512363   -3.8293558   -3.8293558   -2.5466733  0.057786182   -3.8293558    1.2826825   439061 
  180000   0.85391082   -3.8309514   -3.8309514   -2.5500881  0.062015544   -3.8309514    1.2808633   439061 
  181000   0.85455887   -3.8337595   -3.8337595   -2.5519241  0.058683635   -3.8337595    1.2818354   439061 
  182000   0.85455019   -3.8375649   -3.8375649   -2.5557426  0.057613474   -3.8375649    1.2818224   439061 
  183000   0.85511885   -3.8414244   -3.8414244    -2.558749   0.05928002   -3.8414244    1.2826754   439061 
  184000   0.85344881   -3.8428024   -3.8428024   -2.5626321  0.059112902   -3.8428024    1.2801703   439061 
  185000   0.85460981   -3.8489195   -3.8489195   -2.5670077  0.060926159   -3.8489195    1.2819118   439061 
  186000   0.85136721   -3.8472619   -3.8472619    -2.570214  0.062775578   -3.8472619    1.2770479   439061 
  187000   0.85269844   -3.8530077   -3.8530077   -2.5739629  0.060203222   -3.8530077    1.2790447   439061 
  188000   0.85205662   -3.8547564   -3.8547564   -2.5766744  0.064457522   -3.8547564     1.278082   439061 
  189000   0.85236573   -3.8584437   -3.8584437    -2.579898  0.060185539   -3.8584437    1.2785457   439061 
  190000     0.851705   -3.8604055   -3.8604055   -2.5828509  0.061384223   -3.8604055    1.2775546   439061 
  191000   0.85116826   -3.8617681   -3.8617681   -2.5850186  0.059095771   -3.8617681    1.2767495   439061 
  192000   0.84973748   -3.8633987   -3.8633987   -2.5887954  0.062246132   -3.8633987    1.2746033   439061 
  193000   0.85031899   -3.8665282   -3.8665282   -2.5910526  0.059080836   -3.8665282    1.2754756   439061 
  194000    0.8485497   -3.8670899   -3.8670899   -2.5942682  0.058799267   -3.8670899    1.2728217   439061 
  195000   0.84798028   -3.8697488   -3.8697488   -2.5977812  0.055322357   -3.8697488    1.2719675   439061 
  196000   0.84822625   -3.8711402   -3.8711402   -2.5988038  0.059540846   -3.8711402    1.2723365   439061 
  197000   0.84805051   -3.8741329   -3.8741329   -2.6020601  0.057057282   -3.8741329    1.2720729   439061 
  198000   0.84898713   -3.8782058   -3.8782058    -2.604728  0.058270676   -3.8782058    1.2734778   439061 
  199000   0.84784211   -3.8797744   -3.8797744   -2.6080142  0.060530637   -3.8797744    1.2717603   439061 
  200000   0.84732856   -3.8819526   -3.8819526   -2.6109626  0.061746238   -3.8819526      1.27099   439061 
  201000   0.84591849   -3.8851916   -3.8851916   -2.6163167   0.06022329   -3.8851916    1.2688748   439061 
  202000   0.84652403   -3.8893646   -3.8893646   -2.6195814  0.056863602   -3.8893646    1.2697832   439061 
  203000   0.84569072   -3.8907766   -3.8907766   -2.6222434  0.063298983   -3.8907766    1.2685332   439061 
  204000   0.84525942   -3.8946235   -3.8946235   -2.6267372  0.057309066   -3.8946235    1.2678862   439061 
  205000   0.84388423    -3.895712    -3.895712   -2.6298885  0.061674911    -3.895712    1.2658235   439061 
  206000   0.84407913   -3.8991852   -3.8991852   -2.6330694  0.058362262   -3.8991852    1.2661158   439061 
  207000    0.8450169    -3.903946    -3.903946   -2.6364235  0.052430242    -3.903946    1.2675225   439061 
  208000   0.84351907    -3.904351    -3.904351   -2.6390753   0.05922525    -3.904351    1.2652757   439061 
  209000   0.84218879   -3.9053129   -3.9053129   -2.6420326   0.05973777   -3.9053129    1.2632803   439061 
  210000   0.84138022   -3.9075748   -3.9075748   -2.6455073  0.052912898   -3.9075748    1.2620675   439061 
  211000   0.84136512   -3.9095267   -3.9095267   -2.6474819  0.055545113   -3.9095267    1.2620448   439061 
  212000   0.84255837    -3.914264    -3.914264   -2.6504293  0.050227536    -3.914264    1.2638347   439061 
  213000    0.8411123   -3.9151132   -3.9151132   -2.6534476  0.056283171   -3.9151132    1.2616656   439061 
  214000   0.84212925   -3.9194777   -3.9194777   -2.6562867  0.058425329   -3.9194777     1.263191   439061 
  215000   0.84088803   -3.9208947   -3.9208947   -2.6595656  0.059486692   -3.9208947    1.2613292   439061 
  216000   0.83941497   -3.9220731   -3.9220731   -2.6629535  0.066279071   -3.9220731    1.2591196   439061 
  217000   0.83901615   -3.9260427   -3.9260427   -2.6675213  0.059914109   -3.9260427    1.2585214   439061 
  218000   0.83987246   -3.9293674   -3.9293674   -2.6695616   0.05974638   -3.9293674    1.2598058   439061 
  219000   0.83962428    -3.932518    -3.932518   -2.6730845  0.058806882    -3.932518    1.2594335   439061 
  220000      0.83929   -3.9351332   -3.9351332   -2.6762011  0.058333613   -3.9351332    1.2589321   439061 
  221000   0.83759826   -3.9350759   -3.9350759   -2.6786814  0.060130194   -3.9350759    1.2563945   439061 
  222000   0.83779126   -3.9373253   -3.9373253   -2.6806413  0.060699273   -3.9373253     1.256684   439061 
  223000   0.83716411   -3.9394013   -3.9394013    -2.683658  0.056650152   -3.9394013    1.2557433   439061 
  224000   0.83757339   -3.9417154   -3.9417154   -2.6853582  0.060755621   -3.9417154    1.2563572   439061 
  225000    0.8379128   -3.9451606   -3.9451606   -2.6882943  0.056509397   -3.9451606    1.2568663   439061 
  226000   0.83684712   -3.9459529   -3.9459529   -2.6906851  0.056204232   -3.9459529    1.2552678   439061 
  227000    0.8361608   -3.9471964   -3.9471964   -2.6929581  0.055668779   -3.9471964    1.2542383   439061 
  228000   0.83522364   -3.9498657   -3.9498657   -2.6970331  0.049753698   -3.9498657    1.2528326   439061 
  229000   0.83374646   -3.9507521   -3.9507521   -2.7001353  0.052016819   -3.9507521    1.2506168   439061 
  230000   0.83351517   -3.9530102   -3.9530102   -2.7027403  0.050512374   -3.9530102    1.2502699   439061 
  231000   0.83296133   -3.9550117   -3.9550117   -2.7055726  0.054872244   -3.9550117    1.2494392   439061 
  232000   0.83297912   -3.9586357   -3.9586357   -2.7091699  0.053131043   -3.9586357    1.2494658   439061 
  233000    0.8334582   -3.9613299   -3.9613299   -2.7111454  0.058864544   -3.9613299    1.2501845   439061 
  234000   0.83377422   -3.9650688   -3.9650688   -2.7144103  0.061264736   -3.9650688    1.2506585   439061 
  235000   0.83371185   -3.9671646   -3.9671646   -2.7165996  0.056064729   -3.9671646    1.2505649   439061 
  236000   0.83158852   -3.9673909   -3.9673909   -2.7200109  0.056732702   -3.9673909    1.2473799   439061 
  237000   0.83193355   -3.9698685   -3.9698685    -2.721971  0.059240056   -3.9698685    1.2478975   439061 
  238000   0.83176045   -3.9727608   -3.9727608    -2.725123  0.055742973   -3.9727608    1.2476378   439061 
  239000   0.83022305   -3.9729676   -3.9729676   -2.7276359  0.061149524   -3.9729676    1.2453317   439061 
  240000   0.83077107   -3.9777688   -3.9777688    -2.731615  0.050515871   -3.9777688    1.2461538   439061 
  241000   0.82940535    -3.979066    -3.979066   -2.7349609  0.050603451    -3.979066    1.2441052   439061 
  242000   0.82875428   -3.9794509   -3.9794509   -2.7363223  0.058166408   -3.9794509    1.2431286   439061 
  243000   0.83024627    -3.984806    -3.984806   -2.7394395  0.055043625    -3.984806    1.2453666   439061 
  244000    0.8288081   -3.9859885   -3.9859885   -2.7427792  0.052430636   -3.9859885    1.2432093   439061 
  245000   0.82960371   -3.9900435   -3.9900435   -2.7456408  0.054400694   -3.9900435    1.2444027   439061 
  246000   0.82916834   -3.9907607   -3.9907607    -2.747011  0.058199129   -3.9907607    1.2437497   439061 
  247000   0.82859587   -3.9932202   -3.9932202   -2.7503293  0.058354493   -3.9932202     1.242891   439061 
  248000   0.82847943   -3.9963774   -3.9963774   -2.7536611  0.057842924   -3.9963774    1.2427163   439061 
  249000   0.82845423     -3.99895     -3.99895   -2.7562715  0.050328553     -3.99895    1.2426785   439061 
  250000    0.8277408   -4.0005804   -4.0005804    -2.758972  0.051574802   -4.0005804    1.2416084   439061 
  251000    0.8274968   -4.0021136   -4.0021136   -2.7608712  0.057210262   -4.0021136    1.2412424   439061 
  252000   0.82740808   -4.0051368   -4.0051368   -2.7640275   0.05703273   -4.0051368    1.2411093   439061 
  253000   0.82558084    -4.004648    -4.004648   -2.7662796   0.05593185    -4.004648    1.2383684   439061 
  254000   0.82557565   -4.0075197   -4.0075197    -2.769159  0.049898199   -4.0075197    1.2383607   439061 
  255000   0.82391704   -4.0080623   -4.0080623   -2.7721895  0.051919181   -4.0080623    1.2358727   439061 
  256000   0.82477701   -4.0104127   -4.0104127     -2.77325  0.050025999   -4.0104127    1.2371627   439061 
  257000   0.82559531   -4.0143061   -4.0143061    -2.775916  0.050768068   -4.0143061    1.2383901   439061 
  258000   0.82514237   -4.0151395   -4.0151395   -2.7774288  0.055371868   -4.0151395    1.2377107   439061 
  259000   0.82433701   -4.0176909   -4.0176909   -2.7811882  0.055247632   -4.0176909    1.2365027   439061 
  260000   0.82480335   -4.0215725   -4.0215725   -2.7843703  0.053731858   -4.0215725    1.2372022   439061 
  261000   0.82214203   -4.0198608   -4.0198608   -2.7866505  0.059441491   -4.0198608    1.2332102   439061 
  262000     0.822284   -4.0243398   -4.0243398   -2.7909166  0.054513133   -4.0243398    1.2334232   439061 
  263000   0.82182087   -4.0278589   -4.0278589   -2.7951304  0.053083958   -4.0278589    1.2327285   439061 
  264000   0.82266478   -4.0308315   -4.0308315   -2.7968371  0.056513332   -4.0308315    1.2339944   439061 
  265000    0.8225113   -4.0330922   -4.0330922   -2.7993281  0.054826989   -4.0330922    1.2337641   439061 
  266000   0.82127151   -4.0330997   -4.0330997   -2.8011953  0.056389436   -4.0330997    1.2319045   439061 
  267000   0.82103493   -4.0362621   -4.0362621   -2.8047125  0.061402178   -4.0362621    1.2315496   439061 
  268000   0.82168185   -4.0386042   -4.0386042   -2.8060843  0.055170038   -4.0386042      1.23252   439061 
  269000   0.82183804   -4.0413667   -4.0413667   -2.8086125  0.058611132   -4.0413667    1.2327542   439061 
  270000   0.82128253   -4.0437865   -4.0437865   -2.8118655  0.048821256   -4.0437865     1.231921   439061 
  271000   0.82035243   -4.0447003   -4.0447003   -2.8141744  0.054805368   -4.0447003    1.2305258   439061 
  272000   0.81874507    -4.046066    -4.046066   -2.8179512  0.054101731    -4.046066    1.2281148   439061 
  273000   0.81870275   -4.0466078   -4.0466078   -2.8185564   0.05419765   -4.0466078    1.2280513   439061 
  274000   0.81702703   -4.0467908   -4.0467908    -2.821253  0.054520531   -4.0467908    1.2255378   439061 
  275000   0.81821588   -4.0503467   -4.0503467   -2.8230256  0.055301624   -4.0503467     1.227321   439061 
  276000   0.81854421   -4.0538909   -4.0538909   -2.8260774  0.055879258   -4.0538909    1.2278135   439061 
  277000   0.81755547   -4.0551704   -4.0551704     -2.82884  0.054393004   -4.0551704    1.2263304   439061 
  278000   0.81657007    -4.056593    -4.056593   -2.8317407  0.055374435    -4.056593    1.2248523   439061 
  279000   0.81637097   -4.0583292   -4.0583292   -2.8337756  0.050052961   -4.0583292    1.2245537   439061 
  280000   0.81679151   -4.0614166   -4.0614166   -2.8362321  0.048095718   -4.0614166    1.2251845   439061 
  281000   0.81599544   -4.0626256   -4.0626256   -2.8386352  0.048407196   -4.0626256    1.2239904   439061 
  282000   0.81708188   -4.0663774   -4.0663774   -2.8407573   0.05495399   -4.0663774      1.22562   439061 
  283000   0.81595794   -4.0670956   -4.0670956   -2.8431615  0.054593035   -4.0670956    1.2239341   439061 
  284000   0.81602717   -4.0695451   -4.0695451   -2.8455072   0.04911721   -4.0695451     1.224038   439061 
  285000   0.81451503   -4.0712036   -4.0712036   -2.8494339  0.058191909   -4.0712036    1.2217698   439061 
  286000   0.81407845   -4.0716545   -4.0716545   -2.8505396  0.055810355   -4.0716545    1.2211149   439061 
  287000   0.81345004   -4.0734326   -4.0734326   -2.8532603   0.05613035   -4.0734326    1.2201723   439061 
  288000    0.8142705   -4.0768623   -4.0768623   -2.8554593  0.051663701   -4.0768623     1.221403   439061 
  289000   0.81356832   -4.0786843   -4.0786843   -2.8583346  0.051582109   -4.0786843    1.2203497   439061 
  290000   0.81297802   -4.0799482   -4.0799482   -2.8604839  0.050891084   -4.0799482    1.2194643   439061 
  291000   0.81252369   -4.0820376   -4.0820376   -2.8632549  0.047643727   -4.0820376    1.2187828   439061 
  292000   0.81247889   -4.0838048   -4.0838048   -2.8650893  0.050981289   -4.0838048    1.2187156   439061 
  293000   0.81094745   -4.0846867   -4.0846867   -2.8682683  0.060210439   -4.0846867    1.2164184   439061 
  294000    0.8120045    -4.087257    -4.087257    -2.869253  0.054216897    -4.087257     1.218004   439061 
  295000   0.81207432   -4.0893598   -4.0893598   -2.8712511  0.053991984   -4.0893598    1.2181087   439061 
  296000   0.81238804    -4.092271    -4.092271   -2.8736918  0.057531988    -4.092271    1.2185793   439061 
  297000   0.81151057    -4.093847    -4.093847   -2.8765839  0.056690657    -4.093847    1.2172631   439061 
  298000   0.81066223   -4.0952816   -4.0952816    -2.879291  0.054264388   -4.0952816    1.2159906   439061 
  299000    0.8102019   -4.0964248   -4.0964248   -2.8811247  0.054004077   -4.0964248    1.2153001   439061 
  300000   0.80838829    -4.095342    -4.095342   -2.8827623  0.058858788    -4.095342    1.2125797   439061 
  301000   0.80990068    -4.100252    -4.100252   -2.8854037  0.050815267    -4.100252    1.2148483   439061 
  302000   0.80932359   -4.1011654   -4.1011654   -2.8871828  0.051573522   -4.1011654    1.2139826   439061 
  303000   0.80824238   -4.1022286   -4.1022286   -2.8898678  0.052412547   -4.1022286    1.2123608   439061 
  304000   0.80790794   -4.1038874   -4.1038874   -2.8920282  0.051510228   -4.1038874    1.2118591   439061 
  305000   0.80872716   -4.1076547   -4.1076547   -2.8945667  0.048061384   -4.1076547     1.213088   439061 
  306000   0.80817599   -4.1090285   -4.1090285   -2.8967672  0.048997791   -4.1090285    1.2122612   439061 
  307000   0.80798613   -4.1119575   -4.1119575   -2.8999811   0.04755765   -4.1119575    1.2119764   439061 
  308000   0.80685422   -4.1123062   -4.1123062   -2.9020276   0.04820352   -4.1123062    1.2102786   439061 
  309000   0.80800338   -4.1155209   -4.1155209   -2.9035186  0.049741473   -4.1155209    1.2120023   439061 
  310000   0.80745837   -4.1173135   -4.1173135   -2.9061287  0.053580829   -4.1173135    1.2111848   439061 
  311000   0.80724916   -4.1190652   -4.1190652   -2.9081942  0.057135266   -4.1190652     1.210871   439061 
  312000   0.80820305   -4.1240366   -4.1240366   -2.9117348  0.051258763   -4.1240366    1.2123018   439061 
  313000   0.80562871   -4.1229111   -4.1229111   -2.9144708  0.056350924   -4.1229111    1.2084403   439061 
  314000   0.80599018   -4.1266856   -4.1266856   -2.9177031  0.051387744   -4.1266856    1.2089825   439061 
  315000   0.80571419   -4.1272005   -4.1272005    -2.918632  0.056660442   -4.1272005    1.2085685   439061 
  316000   0.80575486   -4.1306533   -4.1306533   -2.9220238  0.049434897   -4.1306533    1.2086295   439061 
  317000   0.80508317   -4.1308307   -4.1308307   -2.9232087  0.051227455   -4.1308307     1.207622   439061 
  318000   0.80412642   -4.1319565   -4.1319565   -2.9257696  0.051119236   -4.1319565    1.2061869   439061 
  319000   0.80395451   -4.1337231   -4.1337231    -2.927794  0.045453835   -4.1337231     1.205929   439061 
  320000   0.80343218   -4.1347197   -4.1347197   -2.9295741  0.047893932   -4.1347197    1.2051455   439061 
  321000   0.80243134   -4.1371447   -4.1371447   -2.9335005  0.052378426   -4.1371447    1.2036443   439061 
  322000   0.80317711   -4.1390638   -4.1390638   -2.9343009  0.047588082   -4.1390638    1.2047629   439061 
  323000   0.80276421     -4.13961     -4.13961   -2.9354664  0.053510973     -4.13961    1.2041436   439061 
  324000   0.80355571   -4.1432277   -4.1432277   -2.9378969  0.053712722   -4.1432277    1.2053308   439061 
  325000   0.80227613   -4.1428328   -4.1428328   -2.9394213  0.054440478   -4.1428328    1.2034115   439061 
  326000   0.80107535   -4.1450314   -4.1450314   -2.9434211  0.052673659   -4.1450314    1.2016103   439061 
  327000   0.80067878    -4.146566    -4.146566   -2.9455506  0.052865997    -4.146566    1.2010154   439061 
  328000   0.79984529   -4.1472889   -4.1472889   -2.9475237  0.050290456   -4.1472889    1.1997652   439061 
  329000   0.80021813   -4.1487915   -4.1487915    -2.948467  0.050566396   -4.1487915    1.2003245   439061 
  330000   0.80148751    -4.152599    -4.152599   -2.9503705  0.040596888    -4.152599    1.2022285   439061 
  331000   0.79878229    -4.150168    -4.150168   -2.9519973  0.049241785    -4.150168    1.1981707   439061 
  332000   0.79938689   -4.1535328   -4.1535328   -2.9544552  0.044412809   -4.1535328    1.1990776   439061 
  333000   0.79884155   -4.1544628   -4.1544628   -2.9562032  0.048421923   -4.1544628    1.1982596   439061 
  334000   0.79679935   -4.1552543   -4.1552543    -2.960058  0.048080703   -4.1552543    1.1951963   439061 
  335000   0.79705714    -4.158101    -4.158101   -2.9625181  0.050648835    -4.158101     1.195583   439061 
  336000   0.79810294   -4.1614283   -4.1614283   -2.9642766  0.049310267   -4.1614283    1.1971517   439061 
  337000   0.79888124   -4.1643674   -4.1643674   -2.9660483  0.045598546   -4.1643674    1.1983191   439061 
  338000   0.79713717   -4.1645057   -4.1645057   -2.9688027  0.052169982   -4.1645057     1.195703   439061 
  339000   0.79702086    -4.167224    -4.167224   -2.9716955  0.052182153    -4.167224    1.1955286   439061 
  340000   0.79729183   -4.1695251   -4.1695251   -2.9735901  0.054304091   -4.1695251     1.195935   439061 
  341000   0.79649462   -4.1707802   -4.1707802    -2.976041  0.051558614   -4.1707802    1.1947392   439061 
  342000   0.79660372   -4.1726206   -4.1726206   -2.9777178  0.051423625   -4.1726206    1.1949029   439061 
  343000    0.7967897   -4.1752114   -4.1752114   -2.9800296  0.047042725   -4.1752114    1.1951818   439061 
  344000   0.79601967   -4.1750144   -4.1750144   -2.9809877  0.047992414   -4.1750144    1.1940268   439061 
  345000   0.79750383   -4.1794433   -4.1794433   -2.9831903  0.050972156   -4.1794433     1.196253   439061 
  346000   0.79508021   -4.1783277   -4.1783277   -2.9857101  0.049580732   -4.1783277    1.1926176   439061 
  347000   0.79484784   -4.1788718   -4.1788718   -2.9866028  0.052096047   -4.1788718     1.192269   439061 
  348000   0.79366091   -4.1798181   -4.1798181   -2.9893295  0.045261161   -4.1798181    1.1904887   439061 
  349000   0.79365557   -4.1834032   -4.1834032   -2.9929226  0.044725185   -4.1834032    1.1904806   439061 
  350000   0.79253693   -4.1833517   -4.1833517    -2.994549  0.041442726   -4.1833517    1.1888027   439061 
  351000     0.792682   -4.1838079   -4.1838079   -2.9947876  0.045615398   -4.1838079    1.1890203   439061 
  352000   0.79329027    -4.186275    -4.186275   -2.9963423  0.044535542    -4.186275    1.1899327   439061 
  353000   0.79361374   -4.1899752   -4.1899752   -2.9995573  0.045243211   -4.1899752    1.1904179   439061 
  354000   0.79422286   -4.1932054   -4.1932054   -3.0018738  0.043679826   -4.1932054    1.1913316   439061 
  355000   0.79258925   -4.1928267   -4.1928267   -3.0039456  0.048333733   -4.1928267    1.1888812   439061 
  356000   0.79138736   -4.1947631   -4.1947631   -3.0076848  0.050357119   -4.1947631    1.1870783   439061 
  357000   0.79099269   -4.1961584   -4.1961584   -3.0096721  0.049996041   -4.1961584    1.1864863   439061 
  358000   0.79254089   -4.2001498   -4.2001498   -3.0113412  0.046936694   -4.2001498    1.1888086   439061 
  359000   0.79121471   -4.2010548   -4.2010548   -3.0142354   0.04861908   -4.2010548    1.1868194   439061 
  360000   0.79119711   -4.2033907   -4.2033907   -3.0165977   0.04755027   -4.2033907     1.186793   439061 
  361000   0.78975037   -4.2047498   -4.2047498    -3.020127  0.047151771   -4.2047498    1.1846229   439061 
  362000   0.78978404   -4.2064384   -4.2064384    -3.021765  0.046534922   -4.2064384    1.1846734   439061 
  363000   0.78938004   -4.2071705   -4.2071705   -3.0231031  0.047931117   -4.2071705    1.1840674   439061 
  364000   0.78919401   -4.2092356   -4.2092356   -3.0254472  0.046171634   -4.2092356    1.1837883   439061 
  365000   0.78929604   -4.2113185   -4.2113185   -3.0273772  0.044688739   -4.2113185    1.1839414   439061 
  366000    0.7891863   -4.2140113   -4.2140113   -3.0302346  0.043658461   -4.2140113    1.1837768   439061 
  367000   0.78834235   -4.2134961   -4.2134961   -3.0309853  0.044871513   -4.2134961    1.1825108   439061 
  368000   0.78651713   -4.2141328   -4.2141328   -3.0343598  0.046634009   -4.2141328     1.179773   439061 
  369000   0.78666107   -4.2163304   -4.2163304   -3.0363415  0.044812637   -4.2163304    1.1799889   439061 
  370000   0.78770756   -4.2202596   -4.2202596   -3.0387009  0.042642054   -4.2202596    1.1815586   439061 
  371000   0.78817034   -4.2210805   -4.2210805   -3.0388276  0.044100592   -4.2210805    1.1822528   439061 
  372000   0.78776148   -4.2224887   -4.2224887   -3.0408492  0.047326357   -4.2224887    1.1816395   439061 
  373000   0.78757051   -4.2246554   -4.2246554   -3.0433024  0.048186163   -4.2246554    1.1813531   439061 
  374000   0.78767416   -4.2265681   -4.2265681   -3.0450596   0.04700965   -4.2265681    1.1815085   439061 
  375000   0.78637672   -4.2275586   -4.2275586   -3.0479962  0.045712963   -4.2275586    1.1795624   439061 
  376000   0.78604276   -4.2282632   -4.2282632   -3.0492018  0.047282004   -4.2282632    1.1790615   439061 
  377000   0.78553529   -4.2299111   -4.2299111   -3.0516108  0.044994787   -4.2299111    1.1783003   439061 
  378000   0.78516477   -4.2321115   -4.2321115    -3.054367  0.044182952   -4.2321115    1.1777445   439061 
  379000   0.78368812   -4.2310557   -4.2310557   -3.0555262  0.047742947   -4.2310557    1.1755295   439061 
  380000   0.78409601   -4.2345214   -4.2345214     -3.05838  0.043141388   -4.2345214    1.1761413   439061 
  381000   0.78257071   -4.2344081   -4.2344081   -3.0605547  0.043275243   -4.2344081    1.1738534   439061 
  382000   0.78344132   -4.2369987   -4.2369987   -3.0618394  0.040570872   -4.2369987    1.1751593   439061 
  383000   0.78217089    -4.237587    -4.237587   -3.0643333  0.038434227    -4.237587    1.1732537   439061 
  384000   0.78325523   -4.2414885   -4.2414885   -3.0666084  0.041618696   -4.2414885    1.1748802   439061 
  385000   0.78305383   -4.2422034   -4.2422034   -3.0676253  0.046413524   -4.2422034    1.1745781   439061 
  386000   0.78399898    -4.245959    -4.245959   -3.0699632  0.043219617    -4.245959    1.1759958   439061 
  387000   0.78484336   -4.2488912   -4.2488912   -3.0716288  0.043580251   -4.2488912    1.1772624   439061 
  388000   0.78331127   -4.2485559   -4.2485559   -3.0735916   0.04997796   -4.2485559    1.1749642   439061 
  389000   0.78315995   -4.2500164   -4.2500164   -3.0752792  0.047441207   -4.2500164    1.1747372   439061 
  390000   0.78260238   -4.2520708   -4.2520708   -3.0781699  0.048399133   -4.2520708    1.1739009   439061 
  391000   0.78082562   -4.2524944   -4.2524944   -3.0812586  0.050808649   -4.2524944    1.1712358   439061 
  392000   0.78172039   -4.2564612   -4.2564612   -3.0838833  0.045335966   -4.2564612    1.1725779   439061 
  393000   0.77957817   -4.2541545   -4.2541545   -3.0847899  0.040485317   -4.2541545    1.1693646   439061 
  394000   0.78084843   -4.2574373   -4.2574373   -3.0861674  0.036300955   -4.2574373      1.17127   439061 
  395000   0.77993937   -4.2587048   -4.2587048   -3.0887984  0.040939777   -4.2587048    1.1699064   439061 
  396000   0.77931357   -4.2596543   -4.2596543   -3.0906866  0.039800213   -4.2596543    1.1689677   439061 
  397000   0.77932956   -4.2615764   -4.2615764   -3.0925848  0.041425589   -4.2615764    1.1689917   439061 
  398000   0.78043706   -4.2645232   -4.2645232   -3.0938702  0.040916912   -4.2645232    1.1706529   439061 
  399000   0.77856669   -4.2631404   -4.2631404    -3.095293  0.047554799   -4.2631404    1.1678474   439061 
  400000   0.77841147   -4.2656222   -4.2656222   -3.0980076  0.047256215   -4.2656222    1.1676145   439061 
  401000    0.7801043   -4.2693931   -4.2693931   -3.0992393  0.044717674   -4.2693931    1.1701538   439061 
  402000   0.77946045   -4.2703032   -4.2703032   -3.1011152  0.045500401   -4.2703032     1.169188   439061 
  403000    0.7795386   -4.2719956   -4.2719956   -3.1026903  0.042121148   -4.2719956    1.1693052   439061 
  404000   0.77849961   -4.2732721   -4.2732721   -3.1055253   0.04195276   -4.2732721    1.1677467   439061 
  405000   0.77742968   -4.2746263   -4.2746263   -3.1084844  0.038358842   -4.2746263    1.1661419   439061 
  406000   0.77794907   -4.2757985   -4.2757985   -3.1088775  0.036538138   -4.2757985     1.166921   439061 
  407000   0.77770617   -4.2774182   -4.2774182   -3.1108616  0.037333478   -4.2774182    1.1665566   439061 
  408000   0.77531185   -4.2757684   -4.2757684   -3.1128033  0.042320878   -4.2757684    1.1629651   439061 
  409000   0.77684054   -4.2781871   -4.2781871   -3.1129289   0.03831351   -4.2781871    1.1652582   439061 
  410000   0.77607379   -4.2790405   -4.2790405   -3.1149325  0.043261196   -4.2790405     1.164108   439061 
  411000   0.77680349   -4.2829748   -4.2829748   -3.1177722   0.04097728   -4.2829748    1.1652026   439061 
  412000   0.77564687   -4.2842633   -4.2842633   -3.1207956  0.041681238   -4.2842633    1.1634677   439061 
  413000   0.77578492   -4.2858632   -4.2858632   -3.1221885  0.042688405   -4.2858632    1.1636747   439061 
  414000   0.77526111   -4.2863952   -4.2863952   -3.1235062  0.040484717   -4.2863952     1.162889   439061 
  415000   0.77701568   -4.2897392   -4.2897392   -3.1242183  0.040320624   -4.2897392    1.1655209   439061 
  416000   0.77608781   -4.2896605   -4.2896605   -3.1255315  0.039510459   -4.2896605    1.1641291   439061 
  417000   0.77507755   -4.2902707   -4.2902707    -3.127657  0.038855263   -4.2902707    1.1626137   439061 
  418000   0.77496658    -4.291117    -4.291117   -3.1286698  0.041719215    -4.291117    1.1624472   439061 
  419000   0.77509181   -4.2925203   -4.2925203   -3.1298852  0.034547683   -4.2925203    1.1626351   439061 
  420000   0.77344366   -4.2920707   -4.2920707   -3.1319078  0.041785499   -4.2920707    1.1601628   439061 
  421000   0.77361946    -4.294964    -4.294964   -3.1345375   0.03587944    -4.294964    1.1604265   439061 
  422000   0.77381212     -4.29603     -4.29603   -3.1353145  0.037825597     -4.29603    1.1607155   439061 
  423000   0.77346935   -4.2971339   -4.2971339   -3.1369325  0.036113625   -4.2971339    1.1602014   439061 
  424000   0.77233205   -4.2975577   -4.2975577   -3.1390623  0.044188766   -4.2975577    1.1584954   439061 
  425000   0.77300672   -4.3003879   -4.3003879   -3.1408804  0.041049574   -4.3003879    1.1595074   439061 
  426000   0.77303803   -4.3027765   -4.3027765   -3.1432221  0.035324611   -4.3027765    1.1595544   439061 
  427000   0.77238659   -4.3041283   -4.3041283    -3.145551  0.037301536   -4.3041283    1.1585772   439061 
  428000   0.77169495   -4.3036535   -4.3036535   -3.1461137  0.042144776   -4.3036535    1.1575398   439061 
  429000   0.77171835    -4.304764    -4.304764   -3.1471892  0.040682736    -4.304764    1.1575749   439061 
  430000   0.77072605   -4.3054817   -4.3054817   -3.1493953  0.042557154   -4.3054817    1.1560864   439061 
  431000   0.77144219   -4.3082263   -4.3082263   -3.1510657  0.039050199   -4.3082263    1.1571607   439061 
  432000   0.77124508   -4.3101317   -4.3101317   -3.1532667    0.0354741   -4.3101317     1.156865   439061 
  433000   0.77108167   -4.3117026   -4.3117026   -3.1550828  0.034121249   -4.3117026    1.1566199   439061 
  434000   0.76984818   -4.3125195   -4.3125195   -3.1577499  0.036962522   -4.3125195    1.1547696   439061 
  435000   0.76906067     -4.31229     -4.31229   -3.1587016  0.044192792     -4.31229    1.1535884   439061 
  436000   0.76962883   -4.3143648   -4.3143648   -3.1599241  0.043112152   -4.3143648    1.1544406   439061 
  437000   0.76991839   -4.3171777   -4.3171777   -3.1623027  0.036704722   -4.3171777     1.154875   439061 
  438000   0.77074533   -4.3192895   -4.3192895   -3.1631742  0.035854326   -4.3192895    1.1561154   439061 
  439000   0.76938093   -4.3197726   -4.3197726   -3.1657038  0.040426229   -4.3197726    1.1540688   439061 
  440000   0.76815617   -4.3203266   -4.3203266    -3.168095  0.039630308   -4.3203266    1.1522316   439061 
  441000   0.76930111   -4.3239649   -4.3239649   -3.1700159   0.03901711   -4.3239649     1.153949   439061 
  442000   0.76829593   -4.3247841   -4.3247841   -3.1723428  0.041338103   -4.3247841    1.1524413   439061 
  443000   0.76900114   -4.3282224   -4.3282224   -3.1747233  0.039178311   -4.3282224    1.1534991   439061 
  444000   0.76855182   -4.3278334   -4.3278334   -3.1750083  0.040548255   -4.3278334    1.1528251   439061 
  445000   0.76923385   -4.3307873   -4.3307873   -3.1769392  0.037260721   -4.3307873    1.1538482   439061 
  446000   0.76766038   -4.3296479   -4.3296479     -3.17816  0.037541567   -4.3296479    1.1514879   439061 
  447000   0.76854764   -4.3328152   -4.3328152   -3.1799964  0.036632929   -4.3328152    1.1528188   439061 
  448000   0.76735554   -4.3326559   -4.3326559   -3.1816252  0.037317478   -4.3326559    1.1510307   439061 
  449000   0.76744746   -4.3352474   -4.3352474   -3.1840788  0.034499184   -4.3352474    1.1511686   439061 
  450000   0.76688576    -4.335709    -4.335709    -3.185383  0.032032345    -4.335709     1.150326   439061 
  451000    0.7667393   -4.3370274   -4.3370274   -3.1869211  0.034448841   -4.3370274    1.1501063   439061 
  452000   0.76595509   -4.3381309   -4.3381309   -3.1892009  0.033169861   -4.3381309      1.14893   439061 
  453000   0.76483339   -4.3386643   -4.3386643   -3.1914168  0.033913378   -4.3386643    1.1472475   439061 
  454000   0.76597828   -4.3421582   -4.3421582   -3.1931934  0.031505142   -4.3421582    1.1489648   439061 
  455000   0.76554089   -4.3433206   -4.3433206   -3.1950119  0.038088099   -4.3433206    1.1483087   439061 
  456000   0.76499914   -4.3446855   -4.3446855   -3.1971894  0.038879055   -4.3446855    1.1474961   439061 
  457000   0.76639504   -4.3476608   -4.3476608   -3.1980709  0.039083051   -4.3476608    1.1495899   439061 
  458000   0.76464796   -4.3468733   -4.3468733    -3.199904  0.040507337   -4.3468733    1.1469693   439061 
  459000    0.7646028   -4.3494025   -4.3494025   -3.2025009  0.034801499   -4.3494025    1.1469016   439061 
  460000    0.7633382   -4.3492451   -4.3492451   -3.2042404  0.037845766   -4.3492451    1.1450047   439061 
  461000   0.76373002   -4.3521924   -4.3521924      -3.2066  0.033336564   -4.3521924    1.1455924   439061 
  462000   0.76354864   -4.3529068   -4.3529068   -3.2075864  0.033535719   -4.3529068    1.1453203   439061 
  463000   0.76432607   -4.3562278   -4.3562278   -3.2097413  0.030803139   -4.3562278    1.1464865   439061 
  464000   0.76315143   -4.3552342   -4.3552342   -3.2105097  0.030982117   -4.3552342    1.1447245   439061 
  465000   0.76271162    -4.356282    -4.356282   -3.2122171  0.034637369    -4.356282    1.1440648   439061 
  466000   0.76378647   -4.3593094   -4.3593094   -3.2136323  0.035967887   -4.3593094    1.1456771   439061 
  467000   0.76322162    -4.359495    -4.359495   -3.2146652  0.037632568    -4.359495    1.1448298   439061 
  468000   0.76282677   -4.3602032   -4.3602032   -3.2159657  0.032163158   -4.3602032    1.1442375   439061 
  469000   0.76395641   -4.3622636   -4.3622636   -3.2163316  0.034932301   -4.3622636     1.145932   439061 
  470000   0.76328427   -4.3627937   -4.3627937   -3.2178699  0.033471057   -4.3627937    1.1449238   439061 
  471000   0.76242651   -4.3637303   -4.3637303   -3.2200932   0.03958056   -4.3637303    1.1436372   439061 
  472000   0.76211106   -4.3651807   -4.3651807   -3.2220167  0.035162402   -4.3651807     1.143164   439061 
  473000   0.76276909   -4.3671524   -4.3671524   -3.2230014  0.030833323   -4.3671524     1.144151   439061 
  474000   0.76042426    -4.365515    -4.365515   -3.2248813   0.03549167    -4.365515    1.1406338   439061 
  475000    0.7620497   -4.3699335   -4.3699335   -3.2268616  0.028734983   -4.3699335     1.143072   439061 
  476000   0.76088188   -4.3699239   -4.3699239   -3.2286037  0.033675382   -4.3699239    1.1413202   439061 
  477000   0.76154397   -4.3729532   -4.3729532   -3.2306398  0.031960363   -4.3729532    1.1423134   439061 
  478000   0.76060384    -4.372824    -4.372824   -3.2319208  0.033479527    -4.372824    1.1409032   439061 
  479000   0.75968344    -4.374145    -4.374145   -3.2346225  0.031752233    -4.374145    1.1395226   439061 
  480000    0.7599693   -4.3754511   -4.3754511   -3.2354997  0.034273498   -4.3754511    1.1399514   439061 
  481000   0.76036825   -4.3780056   -4.3780056   -3.2374558   0.03413851   -4.3780056    1.1405498   439061 
  482000   0.75989916    -4.378807    -4.378807   -3.2389609  0.041710137    -4.378807    1.1398461   439061 
  483000    0.7589353   -4.3786028   -4.3786028   -3.2402025  0.038858549   -4.3786028    1.1384004   439061 
  484000   0.75921026   -4.3815825   -4.3815825   -3.2427697  0.031247255   -4.3815825    1.1388128   439061 
  485000   0.75903861   -4.3828152   -4.3828152   -3.2442599  0.031052736   -4.3828152    1.1385553   439061 
  486000   0.75737115   -4.3827436   -4.3827436   -3.2466894  0.033669266   -4.3827436    1.1360541   439061 
  487000   0.75778699   -4.3853115   -4.3853115   -3.2486336  0.032317111   -4.3853115    1.1366779   439061 
  488000   0.75730346   -4.3854785   -4.3854785   -3.2495259  0.037725919   -4.3854785    1.1359526   439061 
  489000   0.75829963   -4.3879692   -4.3879692   -3.2505223  0.034431692   -4.3879692    1.1374469   439061 
  490000   0.75840252   -4.3895934   -4.3895934   -3.2519922  0.030222592   -4.3895934    1.1376012   439061 
  491000    0.7575567   -4.3900041   -4.3900041   -3.2536716  0.033361284   -4.3900041    1.1363325   439061 
  492000   0.75808334   -4.3931909   -4.3931909   -3.2560684  0.034939337   -4.3931909    1.1371224   439061 
  493000   0.75805293   -4.3945653   -4.3945653   -3.2574885  0.033359758   -4.3945653    1.1370768   439061 
  494000   0.75789378   -4.3953865   -4.3953865   -3.2585485  0.034682353   -4.3953865    1.1368381   439061 
  495000   0.75826899   -4.3970852   -4.3970852   -3.2596843  0.032211859   -4.3970852    1.1374009   439061 
  496000    0.7581595   -4.3979475   -4.3979475   -3.2607108  0.033475725   -4.3979475    1.1372367   439061 
  497000    0.7557309   -4.3967631   -4.3967631   -3.2631693  0.030346497   -4.3967631    1.1335938   439061 
  498000   0.75668601    -4.398841    -4.398841   -3.2638146  0.027275109    -4.398841    1.1350264   439061 
  499000   0.75598082   -4.3986727   -4.3986727   -3.2647041  0.028862204   -4.3986727    1.1339686   439061 
  500000   0.75568287   -4.4005152   -4.4005152   -3.2669935  0.026632055   -4.4005152    1.1335217   439061 
  501000   0.75639807   -4.4018218   -4.4018218   -3.2672273  0.025082453   -4.4018218    1.1345945   439061 
  502000   0.75602544   -4.4026544   -4.4026544   -3.2686188  0.028249004   -4.4026544    1.1340356   439061 
  503000   0.75664694   -4.4060455   -4.4060455   -3.2710777  0.025975361   -4.4060455    1.1349678   439061 
  504000   0.75473921   -4.4050337   -4.4050337   -3.2729275  0.034215183   -4.4050337    1.1321062   439061 
  505000    0.7550556   -4.4079703   -4.4079703   -3.2753895  0.033147469   -4.4079703    1.1325808   439061 
  506000   0.75540478   -4.4101541   -4.4101541   -3.2770495  0.035881109   -4.4101541    1.1331046   439061 
  507000   0.75521315   -4.4107744   -4.4107744   -3.2779572  0.036893876   -4.4107744    1.1328171   439061 
  508000   0.75502696   -4.4109814   -4.4109814   -3.2784436  0.038696228   -4.4109814    1.1325379   439061 
  509000   0.75561388   -4.4145665   -4.4145665   -3.2811482  0.036378881   -4.4145665    1.1334182   439061 
  510000   0.75468194   -4.4156939   -4.4156939   -3.2836735  0.035835055   -4.4156939    1.1320203   439061 
  511000   0.75397665   -4.4158519   -4.4158519   -3.2848896  0.031603326   -4.4158519    1.1309624   439061 
  512000    0.7533634   -4.4168427   -4.4168427   -3.2868001  0.029453466   -4.4168427    1.1300425   439061 
  513000   0.75246013   -4.4178044   -4.4178044   -3.2891168  0.030973202   -4.4178044    1.1286876   439061 
  514000    0.7534704   -4.4206115   -4.4206115   -3.2904084  0.023350066   -4.4206115     1.130203   439061 
  515000   0.75275988   -4.4208399   -4.4208399   -3.2917026  0.025759521   -4.4208399    1.1291373   439061 
  516000   0.75326162   -4.4234256   -4.4234256   -3.2935357  0.023628673   -4.4234256    1.1298899   439061 
  517000   0.75209988   -4.4224032   -4.4224032   -3.2942559  0.032303372   -4.4224032    1.1281473   439061 
  518000   0.75262968    -4.426261    -4.426261    -3.297319  0.027887301    -4.426261    1.1289419   439061 
  519000   0.75079299   -4.4261654   -4.4261654   -3.2999785  0.030471822   -4.4261654    1.1261869   439061 
  520000   0.75312879   -4.4310243   -4.4310243   -3.3013337   0.03014891   -4.4310243    1.1296906   439061 
  521000   0.75332481   -4.4315142   -4.4315142   -3.3015295   0.03189003   -4.4315142    1.1299846   439061 
  522000   0.75268861   -4.4325097   -4.4325097   -3.3034794  0.033750064   -4.4325097    1.1290303   439061 
  523000   0.75205953   -4.4338117   -4.4338117    -3.305725  0.031705936   -4.4338117    1.1280867   439061 
  524000   0.75051621   -4.4331715   -4.4331715   -3.3073998  0.034436005   -4.4331715    1.1257718   439061 
  525000   0.75213796   -4.4371841   -4.4371841   -3.3089798  0.028456414   -4.4371841    1.1282044   439061 
  526000   0.74973106   -4.4357515   -4.4357515   -3.3111575   0.02954172   -4.4357515     1.124594   439061 
  527000   0.75042828   -4.4374978   -4.4374978    -3.311858  0.031494508   -4.4374978    1.1256399   439061 
  528000    0.7489459   -4.4365472   -4.4365472   -3.3131309  0.031240572   -4.4365472    1.1234163   439061 
  529000   0.75036015   -4.4398093   -4.4398093   -3.3142716  0.024373909   -4.4398093    1.1255377   439061 
  530000   0.74970606   -4.4404038   -4.4404038   -3.3158473  0.026712819   -4.4404038    1.1245565   439061 
  531000   0.75064952    -4.442215    -4.442215   -3.3162433  0.027224376    -4.442215    1.1259717   439061 
  532000   0.74950731   -4.4414813   -4.4414813   -3.3172229  0.031394213   -4.4414813    1.1242584   439061 
  533000   0.74959951   -4.4415228   -4.4415228   -3.3171261  0.031460626   -4.4415228    1.1243967   439061 
  534000   0.74968064    -4.444366    -4.444366   -3.3198476  0.029243371    -4.444366    1.1245184   439061 
  535000   0.74981448   -4.4455291   -4.4455291   -3.3208099   0.02806243   -4.4455291    1.1247192   439061 
  536000   0.74989698   -4.4467758   -4.4467758   -3.3219329  0.023858784   -4.4467758    1.1248429   439061 
  537000   0.74897333   -4.4470524   -4.4470524    -3.323595  0.027436176   -4.4470524    1.1234574   439061 
  538000   0.74823274   -4.4475309   -4.4475309   -3.3251843  0.021643881   -4.4475309    1.1223465   439061 
  539000   0.74706382   -4.4480669   -4.4480669   -3.3274738  0.022613278   -4.4480669    1.1205932   439061 
  540000   0.74595344   -4.4479939   -4.4479939   -3.3290663  0.026554008   -4.4479939    1.1189276   439061 
  541000   0.74750599   -4.4527113   -4.4527113   -3.3314549   0.02410603   -4.4527113    1.1212564   439061 
  542000   0.74775243   -4.4538339   -4.4538339   -3.3322078  0.029282002   -4.4538339    1.1216261   439061 
  543000   0.74829075   -4.4570019   -4.4570019   -3.3345684    0.0308714   -4.4570019    1.1224336   439061 
  544000   0.74735165   -4.4574481   -4.4574481   -3.3364232   0.03060547   -4.4574481    1.1210249   439061 
  545000   0.74799362   -4.4599737   -4.4599737   -3.3379858  0.032404984   -4.4599737    1.1219879   439061 
  546000   0.74863464   -4.4621583   -4.4621583   -3.3392089  0.028962979   -4.4621583    1.1229494   439061 
  547000   0.74769528   -4.4616212   -4.4616212   -3.3400808  0.032377073   -4.4616212    1.1215404   439061 
  548000   0.74892332   -4.4645016   -4.4645016   -3.3411192  0.027670639   -4.4645016    1.1233824   439061 
  549000    0.7467341   -4.4629669   -4.4629669   -3.3428683  0.025761438   -4.4629669    1.1200986   439061 
  550000   0.74592632   -4.4634706   -4.4634706   -3.3445837   0.02547663   -4.4634706    1.1188869   439061 
  551000   0.74568773   -4.4639764   -4.4639764   -3.3454473  0.025515316   -4.4639764     1.118529   439061 
  552000   0.74506699   -4.4633749   -4.4633749    -3.345777   0.02523697   -4.4633749    1.1175979   439061 
  553000   0.74438017   -4.4638466   -4.4638466   -3.3472789  0.029414456   -4.4638466    1.1165677   439061 
  554000    0.7444875   -4.4661786   -4.4661786   -3.3494499  0.025218948   -4.4661786    1.1167287   439061 
  555000   0.74427963   -4.4672577   -4.4672577   -3.3508408  0.024659526   -4.4672577    1.1164169   439061 
  556000   0.74445401   -4.4685294   -4.4685294   -3.3518509  0.025997914   -4.4685294    1.1166785   439061 
  557000   0.74596684   -4.4719516   -4.4719516   -3.3530039  0.026750611   -4.4719516    1.1189477   439061 
  558000   0.74712172   -4.4739211   -4.4739211   -3.3532411  0.025235373   -4.4739211      1.12068   439061 
  559000   0.74680974   -4.4751771   -4.4751771    -3.354965  0.031296068   -4.4751771    1.1202121   439061 
  560000    0.7452244   -4.4743667   -4.4743667   -3.3565326  0.033871816   -4.4743667    1.1178341   439061 
  561000    0.7461017   -4.4772984   -4.4772984   -3.3581484  0.025734559   -4.4772984      1.11915   439061 
  562000   0.74417005   -4.4765664   -4.4765664   -3.3603139  0.029154508   -4.4765664    1.1162525   439061 
  563000   0.74404341   -4.4771126   -4.4771126     -3.36105  0.027543208   -4.4771126    1.1160626   439061 
  564000   0.74420719   -4.4787858   -4.4787858   -3.3624776  0.023061715   -4.4787858    1.1163082   439061 
  565000   0.74394908   -4.4805062   -4.4805062   -3.3645851  0.020376472   -4.4805062    1.1159211   439061 
  566000   0.74392905   -4.4805914   -4.4805914   -3.3647004   0.02532092   -4.4805914     1.115891   439061 
  567000   0.74315613   -4.4815755   -4.4815755   -3.3668438   0.02386173   -4.4815755    1.1147317   439061 
  568000   0.74282254   -4.4828229   -4.4828229   -3.3685917  0.026422646   -4.4828229    1.1142313   439061 
  569000    0.7437972   -4.4846355   -4.4846355   -3.3689422  0.025442927   -4.4846355    1.1156933   439061 
  570000    0.7436147   -4.4866835   -4.4866835    -3.371264  0.024674063   -4.4866835    1.1154195   439061 
  571000   0.74302113   -4.4870698   -4.4870698   -3.3725406  0.031646436   -4.4870698    1.1145292   439061 
  572000   0.74290362   -4.4886484   -4.4886484   -3.3742955  0.028355511   -4.4886484    1.1143529   439061 
  573000   0.74328113   -4.4914323   -4.4914323   -3.3765132  0.024634225   -4.4914323    1.1149191   439061 
  574000   0.74373309   -4.4925124   -4.4925124   -3.3769153    0.0301166   -4.4925124    1.1155971   439061 
  575000   0.74353244   -4.4931266   -4.4931266   -3.3778305  0.027237068   -4.4931266    1.1152961   439061 
  576000   0.74371013   -4.4938236   -4.4938236   -3.3782609  0.027242139   -4.4938236    1.1155627   439061 
  577000   0.74246007   -4.4939725   -4.4939725   -3.3802849  0.025616158   -4.4939725    1.1136876   439061 
  578000    0.7423805   -4.4949345   -4.4949345   -3.3813663  0.022209366   -4.4949345    1.1135682   439061 
  579000   0.74208853   -4.4949631   -4.4949631   -3.3818328  0.025218535   -4.4949631    1.1131303   439061 
  580000   0.74256047   -4.4973042   -4.4973042    -3.383466  0.022002035   -4.4973042    1.1138382   439061 
  581000   0.74134972   -4.4968085   -4.4968085   -3.3847864   0.02223282   -4.4968085    1.1120221   439061 
  582000   0.74198589    -4.499376    -4.499376   -3.3863997  0.019190938    -4.499376    1.1129763   439061 
  583000   0.74100522   -4.4995315   -4.4995315   -3.3880262  0.023819618   -4.4995315    1.1115053   439061 
  584000   0.74205457   -4.5021402   -4.5021402   -3.3890608  0.023278598   -4.5021402    1.1130793   439061 
  585000   0.74189791   -4.5040682   -4.5040682   -3.3912239  0.027451184   -4.5040682    1.1128443   439061 
  586000   0.73976884   -4.5040944   -4.5040944   -3.3944437  0.027477765   -4.5040944    1.1096507   439061 
  587000   0.73983546   -4.5059994   -4.5059994   -3.3962488  0.025094845   -4.5059994    1.1097507   439061 
  588000   0.74069289    -4.508651    -4.508651   -3.3976142  0.023092349    -4.508651    1.1110368   439061 
  589000   0.74069937   -4.5094899   -4.5094899   -3.3984433  0.026612383   -4.5094899    1.1110465   439061 
  590000   0.74024363   -4.5111468   -4.5111468   -3.4007838  0.027085739   -4.5111468    1.1103629   439061 
  591000   0.74031879   -4.5119431   -4.5119431   -3.4014674  0.025482895   -4.5119431    1.1104757   439061 
  592000   0.74095452    -4.514161    -4.514161   -3.4027318  0.025760151    -4.514161    1.1114293   439061 
  593000    0.7405376   -4.5148473   -4.5148473   -3.4040434  0.024834807   -4.5148473    1.1108039   439061 
  594000    0.7383312    -4.512365    -4.512365   -3.4048707  0.026730634    -4.512365    1.1074943   439061 
  595000   0.73954974   -4.5153735   -4.5153735   -3.4060514  0.026814957   -4.5153735    1.1093221   439061 
  596000   0.73924682   -4.5163769   -4.5163769   -3.4075092  0.025821177   -4.5163769    1.1088677   439061 
  597000   0.73895603   -4.5170356   -4.5170356   -3.4086041  0.025686976   -4.5170356    1.1084315   439061 
  598000   0.73855354   -4.5177889   -4.5177889   -3.4099611  0.021798472   -4.5177889    1.1078278   439061 
  599000   0.73849604   -4.5191681   -4.5191681   -3.4114266  0.017413118   -4.5191681    1.1077415   439061 
  600000   0.73867834   -4.5212989   -4.5212989   -3.4132839  0.019162349   -4.5212989     1.108015   439061 
  601000   0.73789593    -4.520733    -4.520733   -3.4138916  0.027483777    -4.520733    1.1068414   439061 
  602000   0.73811529   -4.5217615   -4.5217615   -3.4145911  0.028383081   -4.5217615    1.1071704   439061 
  603000   0.73771649   -4.5241614   -4.5241614   -3.4175892  0.021390076   -4.5241614    1.1065722   439061 
  604000   0.73779768   -4.5245439   -4.5245439   -3.4178499  0.026512331   -4.5245439     1.106694   439061 
  605000   0.73842352    -4.525789    -4.525789   -3.4181563  0.030088955    -4.525789    1.1076328   439061 
  606000   0.73808369   -4.5264105   -4.5264105   -3.4192875  0.031746452   -4.5264105     1.107123   439061 
  607000   0.73936409   -4.5293006   -4.5293006    -3.420257  0.031331053   -4.5293006    1.1090436   439061 
  608000    0.7380964   -4.5305539   -4.5305539   -3.4234118  0.022773984   -4.5305539    1.1071421   439061 
  609000   0.73703241   -4.5293596   -4.5293596   -3.4238135  0.023378446   -4.5293596    1.1055461   439061 
  610000   0.73596547   -4.5291195   -4.5291195   -3.4251738  0.021823435   -4.5291195    1.1039457   439061 
  611000   0.73674078   -4.5317616   -4.5317616   -3.4266529  0.022986671   -4.5317616    1.1051087   439061 
  612000   0.73677276   -4.5329524   -4.5329524   -3.4277958   0.02438593   -4.5329524    1.1051566   439061 
  613000   0.73517101   -4.5331672   -4.5331672   -3.4304132  0.023370969   -4.5331672     1.102754   439061 
  614000   0.73641584   -4.5352502   -4.5352502   -3.4306289   0.02009341   -4.5352502    1.1046212   439061 
  615000   0.73503179   -4.5349245   -4.5349245   -3.4323793   0.02285545   -4.5349245    1.1025452   439061 
  616000   0.73508034   -4.5367372   -4.5367372   -3.4341192  0.022868177   -4.5367372     1.102618   439061 
  617000    0.7363132   -4.5398221   -4.5398221   -3.4353549  0.021722349   -4.5398221    1.1044673   439061 
  618000   0.73634549   -4.5411342   -4.5411342   -3.4366185  0.020581646   -4.5411342    1.1045157   439061 
  619000   0.73532272   -4.5414383   -4.5414383   -3.4384567  0.017907143   -4.5414383    1.1029816   439061 
  620000   0.73445268   -4.5419702   -4.5419702   -3.4402937  0.023814523   -4.5419702    1.1016765   439061 
  621000    0.7348446   -4.5424484   -4.5424484    -3.440184  0.025852743   -4.5424484    1.1022644   439061 
  622000   0.73565948   -4.5452301   -4.5452301   -3.4417434  0.024513494   -4.5452301    1.1034867   439061 
  623000    0.7342721   -4.5441297   -4.5441297   -3.4427241  0.029590411   -4.5441297    1.1014056   439061 
  624000   0.73542568   -4.5479981   -4.5479981   -3.4448621  0.023816844   -4.5479981     1.103136   439061 
  625000   0.73435054   -4.5471206   -4.5471206   -3.4455973   0.02440682   -4.5471206    1.1015233   439061 
  626000   0.73507448   -4.5501116   -4.5501116   -3.4475024  0.020194285   -4.5501116    1.1026092   439061 
  627000   0.73350174    -4.549516    -4.549516   -3.4492659   0.02020586    -4.549516    1.1002501   439061 
  628000   0.73482156   -4.5520756   -4.5520756   -3.4498458  0.017338388   -4.5520756    1.1022298   439061 
  629000   0.73412173   -4.5524462   -4.5524462   -3.4512661  0.017834959   -4.5524462    1.1011801   439061 
  630000   0.73280434   -4.5511316   -4.5511316   -3.4519276  0.021176955   -4.5511316     1.099204   439061 
  631000   0.73355161   -4.5520974   -4.5520974   -3.4517725  0.021206081   -4.5520974    1.1003249   439061 
  632000   0.73299277   -4.5543867   -4.5543867      -3.4549  0.022643103   -4.5543867    1.0994867   439061 
  633000   0.73239078   -4.5545125   -4.5545125   -3.4559288  0.024830758   -4.5545125    1.0985837   439061 
  634000   0.73191662   -4.5556971   -4.5556971   -3.4578247  0.025757689   -4.5556971    1.0978724   439061 
  635000    0.7327416   -4.5579304   -4.5579304   -3.4588205  0.021106695   -4.5579304    1.0991099   439061 
  636000   0.73337798   -4.5594834   -4.5594834   -3.4594189  0.017721129   -4.5594834    1.1000645   439061 
  637000   0.73312459   -4.5610393   -4.5610393   -3.4613549   0.02508079   -4.5610393    1.0996844   439061 
  638000   0.73261358   -4.5617434   -4.5617434   -3.4628255  0.022484882   -4.5617434    1.0989179   439061 
  639000   0.73163036   -4.5625519   -4.5625519   -3.4651088  0.024199299   -4.5625519     1.097443   439061 
  640000   0.73298967   -4.5655281   -4.5655281   -3.4660461  0.021485824   -4.5655281     1.099482   439061 
  641000   0.73152974   -4.5654101   -4.5654101   -3.4681179  0.023363569   -4.5654101    1.0972921   439061 
  642000   0.73241534   -4.5680841   -4.5680841   -3.4694636  0.019446063   -4.5680841    1.0986205   439061 
  643000   0.73192031   -4.5677493   -4.5677493   -3.4698714  0.024725507   -4.5677493     1.097878   439061 
  644000    0.7312698   -4.5680124   -4.5680124   -3.4711102  0.021873341   -4.5680124    1.0969022   439061 
  645000   0.73198356   -4.5709729   -4.5709729   -3.4730001  0.019553796   -4.5709729    1.0979728   439061 
  646000   0.73076732   -4.5704934   -4.5704934   -3.4743449  0.021512169   -4.5704934    1.0961485   439061 
  647000    0.7305857   -4.5715034   -4.5715034   -3.4756274  0.020051991   -4.5715034    1.0958761   439061 
  648000   0.73185563   -4.5741605   -4.5741605   -3.4763795  0.019662765   -4.5741605    1.0977809   439061 
  649000   0.73015516    -4.573995    -4.573995   -3.4787647  0.021158213    -4.573995    1.0952302   439061 
  650000   0.73066216   -4.5748986   -4.5748986   -3.4789079  0.020332216   -4.5748986    1.0959907   439061 
  651000   0.72855032   -4.5736163   -4.5736163   -3.4807933  0.022404467   -4.5736163     1.092823   439061 
  652000   0.73043724   -4.5767568   -4.5767568   -3.4811035  0.016755814   -4.5767568    1.0956534   439061 
  653000   0.72973888   -4.5770948   -4.5770948    -3.482489   0.01936392   -4.5770948    1.0946058   439061 
  654000   0.73061745   -4.5799613   -4.5799613   -3.4840376  0.018070079   -4.5799613    1.0959237   439061 
  655000    0.7310277   -4.5801262   -4.5801262   -3.4835871  0.016093704   -4.5801262    1.0965391   439061 
  656000   0.73073052   -4.5792333   -4.5792333     -3.48314  0.019989437   -4.5792333    1.0960933   439061 
  657000   0.73024082   -4.5800793   -4.5800793   -3.4847206  0.022822746   -4.5800793    1.0953587   439061 
  658000    0.7317557   -4.5830337   -4.5830337   -3.4854026  0.018815762   -4.5830337    1.0976311   439061 
  659000   0.73102059   -4.5831498   -4.5831498   -3.4866214  0.022902059   -4.5831498    1.0965284   439061 
  660000   0.73072104   -4.5838357   -4.5838357   -3.4877566  0.017284237   -4.5838357    1.0960791   439061 
  661000   0.73008069   -4.5836359   -4.5836359   -3.4885174  0.016392446   -4.5836359    1.0951185   439061 
  662000   0.72870705   -4.5834636   -4.5834636   -3.4904055  0.017741126   -4.5834636    1.0930581   439061 
  663000   0.72973982   -4.5849572   -4.5849572   -3.4903499  0.017958985   -4.5849572    1.0946072   439061 
  664000   0.72911642   -4.5848855   -4.5848855   -3.4912133  0.017783961   -4.5848855    1.0936721   439061 
  665000   0.72944074   -4.5869334   -4.5869334   -3.4927748  0.018540531   -4.5869334    1.0941586   439061 
  666000   0.72801791   -4.5863903   -4.5863903   -3.4943659  0.013964833   -4.5863903    1.0920244   439061 
  667000   0.72816348   -4.5875675   -4.5875675   -3.4953247  0.014293402   -4.5875675    1.0922427   439061 
  668000   0.72892434   -4.5891111   -4.5891111    -3.495727   0.01895466   -4.5891111     1.093384   439061 
  669000   0.72982642   -4.5915073   -4.5915073   -3.4967701  0.024029211   -4.5915073    1.0947371   439061 
  670000   0.72975254   -4.5927161   -4.5927161   -3.4980898  0.022984821   -4.5927161    1.0946263   439061 
  671000   0.72729173   -4.5911671   -4.5911671    -3.500232  0.022164269   -4.5911671    1.0909351   439061 
  672000   0.72771075   -4.5945214   -4.5945214   -3.5029577  0.017858905   -4.5945214    1.0915636   439061 
  673000   0.72739096   -4.5952297   -4.5952297   -3.5041458  0.018186495   -4.5952297     1.091084   439061 
  674000   0.72729687   -4.5961026   -4.5961026   -3.5051598  0.017699116   -4.5961026    1.0909428   439061 
  675000   0.72727032   -4.5979749   -4.5979749   -3.5070719  0.020303341   -4.5979749     1.090903   439061 
  676000   0.72720722   -4.5986912   -4.5986912   -3.5078829  0.014483018   -4.5986912    1.0908083   439061 
  677000   0.72783111   -4.6017944   -4.6017944   -3.5100502  0.013172848   -4.6017944    1.0917442   439061 
  678000   0.72685154   -4.6019202   -4.6019202   -3.5116454  0.016778529   -4.6019202    1.0902748   439061 
  679000   0.72665098   -4.6023719   -4.6023719   -3.5123979  0.020856385   -4.6023719     1.089974   439061 
  680000   0.72661244   -4.6043752   -4.6043752    -3.514459  0.022141572   -4.6043752    1.0899162   439061 
  681000   0.72616177   -4.6051721   -4.6051721   -3.5159319  0.022139228   -4.6051721    1.0892402   439061 
  682000   0.72705551   -4.6065981   -4.6065981   -3.5160174  0.019570506   -4.6065981    1.0905808   439061 
  683000   0.72696573   -4.6076653   -4.6076653   -3.5172192  0.019117956   -4.6076653    1.0904461   439061 
  684000   0.72626996   -4.6084749   -4.6084749   -3.5190725  0.019281851   -4.6084749    1.0894025   439061 
  685000   0.72512899    -4.608347    -4.608347    -3.520656  0.021280251    -4.608347     1.087691   439061 
  686000   0.72404692   -4.6070553   -4.6070553   -3.5209874  0.021107088   -4.6070553    1.0860679   439061 
  687000   0.72534653   -4.6093874   -4.6093874   -3.5213701  0.015968002   -4.6093874    1.0880173   439061 
  688000   0.72534267   -4.6109653   -4.6109653   -3.5229538  0.014202887   -4.6109653    1.0880115   439061 
  689000   0.72506551   -4.6105388   -4.6105388    -3.522943    0.0200001   -4.6105388    1.0875958   439061 
  690000   0.72369333   -4.6099792   -4.6099792   -3.5244417  0.019837847   -4.6099792    1.0855375   439061 
  691000   0.72443964   -4.6122529   -4.6122529   -3.5255959  0.011556529   -4.6122529     1.086657   439061 
  692000   0.72467017   -4.6136237   -4.6136237   -3.5266209  0.011426857   -4.6136237    1.0870028   439061 
  693000   0.72456163   -4.6144768   -4.6144768   -3.5276368  0.017589976   -4.6144768      1.08684   439061 
  694000    0.7245988   -4.6159717   -4.6159717   -3.5290759  0.021215762   -4.6159717    1.0868957   439061 
  695000   0.72612215   -4.6193279   -4.6193279   -3.5301472  0.018005533   -4.6193279    1.0891807   439061 
  696000   0.72441025   -4.6187072   -4.6187072   -3.5320943  0.018833455   -4.6187072    1.0866129   439061 
  697000   0.72407461   -4.6197613   -4.6197613   -3.5336519  0.019163882   -4.6197613    1.0861094   439061 
  698000   0.72346819   -4.6203795   -4.6203795   -3.5351797   0.02012894   -4.6203795    1.0851998   439061 
  699000    0.7247386   -4.6236835   -4.6236835   -3.5365781  0.018312429   -4.6236835    1.0871054   439061 
  700000   0.72358826   -4.6240204   -4.6240204   -3.5386404  0.020237709   -4.6240204    1.0853799   439061 
  701000   0.72313328   -4.6242673   -4.6242673   -3.5395699   0.02032451   -4.6242673    1.0846975   439061 
  702000   0.72169232    -4.622762    -4.622762    -3.540226  0.023021148    -4.622762     1.082536   439061 
  703000   0.72317653    -4.626212    -4.626212   -3.5414496   0.01661113    -4.626212    1.0847623   439061 
  704000   0.72312306   -4.6274459   -4.6274459   -3.5427637  0.022220923   -4.6274459    1.0846821   439061 
  705000    0.7229332   -4.6282528   -4.6282528   -3.5438554  0.020704698   -4.6282528    1.0843973   439061 
  706000   0.72272945   -4.6285636   -4.6285636   -3.5444719  0.016112661   -4.6285636    1.0840917   439061 
  707000   0.72215681   -4.6282797   -4.6282797   -3.5450469  0.015338118   -4.6282797    1.0832327   439061 
  708000   0.72389119   -4.6321746   -4.6321746   -3.5463403  0.013496633   -4.6321746    1.0858343   439061 
  709000   0.72287398    -4.631002    -4.631002   -3.5466935  0.017482138    -4.631002    1.0843085   439061 
  710000   0.72209444   -4.6304548   -4.6304548   -3.5473156   0.01426197   -4.6304548    1.0831392   439061 
  711000   0.72230929   -4.6319024   -4.6319024   -3.5484409  0.014568067   -4.6319024    1.0834615   439061 
  712000   0.72200594   -4.6331358   -4.6331358   -3.5501294  0.011196703   -4.6331358    1.0830064   439061 
  713000   0.72142089   -4.6325793   -4.6325793   -3.5504504  0.014043796   -4.6325793    1.0821289   439061 
  714000    0.7224089   -4.6338362   -4.6338362   -3.5502253  0.017344402   -4.6338362    1.0836109   439061 
  715000   0.72134791   -4.6340951   -4.6340951   -3.5520757  0.016265574   -4.6340951    1.0820194   439061 
  716000   0.72032593   -4.6347027   -4.6347027   -3.5542162  0.017138952   -4.6347027    1.0804864   439061 
  717000   0.72098248   -4.6364157   -4.6364157   -3.5549444  0.014225043   -4.6364157    1.0814713   439061 
  718000   0.72154743   -4.6397016   -4.6397016   -3.5573829  0.011030623   -4.6397016    1.0823187   439061 
  719000   0.72027093   -4.6384371   -4.6384371   -3.5580331  0.021913667   -4.6384371    1.0804039   439061 
  720000   0.72192497   -4.6412212   -4.6412212   -3.5583362  0.018857546   -4.6412212     1.082885   439061 
  721000   0.72266508   -4.6434359   -4.6434359   -3.5594408   0.01604553   -4.6434359    1.0839952   439061 
  722000   0.72126235   -4.6424453   -4.6424453   -3.5605543  0.018757873   -4.6424453    1.0818911   439061 
  723000   0.72110809   -4.6442629   -4.6442629   -3.5626032  0.020219963   -4.6442629    1.0816597   439061 
  724000   0.72018229   -4.6438913   -4.6438913   -3.5636203  0.014998399   -4.6438913     1.080271   439061 
  725000   0.72072213   -4.6458538   -4.6458538    -3.564773  0.017120852   -4.6458538    1.0810807   439061 
  726000   0.72043489   -4.6455263   -4.6455263   -3.5648764  0.016003297   -4.6455263    1.0806499   439061 
  727000   0.71987944   -4.6466863   -4.6466863   -3.5668696  0.011188634   -4.6466863    1.0798167   439061 
  728000   0.71925164   -4.6463695   -4.6463695   -3.5674945   0.01329734   -4.6463695     1.078875   439061 
  729000   0.71831207   -4.6463205   -4.6463205   -3.5688548  0.016159115   -4.6463205    1.0774657   439061 
  730000   0.71857113   -4.6471844   -4.6471844   -3.5693302    0.0208803   -4.6471844    1.0778542   439061 
  731000    0.7194041   -4.6507663   -4.6507663   -3.5716626  0.015608658   -4.6507663    1.0791037   439061 
  732000     0.719159   -4.6513556   -4.6513556   -3.5726196  0.015283233   -4.6513556     1.078736   439061 
  733000   0.71909569   -4.6531755   -4.6531755   -3.5745344  0.017419678   -4.6531755    1.0786411   439061 
  734000   0.71972068    -4.654765    -4.654765   -3.5751864  0.015815381    -4.654765    1.0795786   439061 
  735000   0.71974725    -4.656005    -4.656005   -3.5763865   0.01809072    -4.656005    1.0796184   439061 
  736000   0.71910837   -4.6553863   -4.6553863   -3.5767262  0.023097578   -4.6553863    1.0786601   439061 
  737000   0.71808516    -4.655597    -4.655597   -3.5784717  0.020231719    -4.655597    1.0771253   439061 
  738000   0.71799971   -4.6577288   -4.6577288   -3.5807317  0.013357978   -4.6577288    1.0769971   439061 
  739000     0.718079   -4.6587326   -4.6587326   -3.5816166  0.015750065   -4.6587326    1.0771161   439061 
  740000   0.71898882   -4.6603195   -4.6603195   -3.5818388   0.01623591   -4.6603195    1.0784808   439061 
  741000    0.7170212   -4.6585916   -4.6585916   -3.5830623  0.020036133   -4.6585916    1.0755294   439061 
  742000   0.71772227   -4.6606565   -4.6606565   -3.5840755  0.017471451   -4.6606565     1.076581   439061 
  743000   0.71751768   -4.6610282   -4.6610282   -3.5847541  0.013637197   -4.6610282    1.0762741   439061 
  744000   0.71722828   -4.6623476   -4.6623476   -3.5865077  0.012228339   -4.6623476      1.07584   439061 
  745000   0.71711791   -4.6625769   -4.6625769   -3.5869025   0.01971249   -4.6625769    1.0756744   439061 
  746000   0.71623578    -4.661603    -4.661603   -3.5872518  0.014970641    -4.661603    1.0743512   439061 
  747000   0.71624077   -4.6631395   -4.6631395   -3.5887808  0.016814982   -4.6631395    1.0743587   439061 
  748000   0.71682385   -4.6646755   -4.6646755   -3.5894421  0.012755378   -4.6646755    1.0752333   439061 
  749000   0.71618922     -4.66521     -4.66521   -3.5909286  0.009988184     -4.66521    1.0742814   439061 
  750000   0.71617129   -4.6657867   -4.6657867   -3.5915322  0.012754926   -4.6657867    1.0742545   439061 
  751000    0.7183381    -4.669647    -4.669647   -3.5921423  0.014182879    -4.669647    1.0775047   439061 
  752000   0.71743889   -4.6694321   -4.6694321   -3.5932762  0.018426921   -4.6694321    1.0761559   439061 
  753000   0.71810709   -4.6723114   -4.6723114   -3.5951533  0.014643493   -4.6723114    1.0771582   439061 
  754000   0.71610225     -4.66993     -4.66993    -3.595779   0.02203574     -4.66993    1.0741509   439061 
  755000   0.71519381   -4.6706154   -4.6706154   -3.5978271  0.016736152   -4.6706154    1.0727883   439061 
  756000   0.71454845   -4.6694284   -4.6694284   -3.5976081  0.023865593   -4.6694284    1.0718202   439061 
  757000   0.71725128   -4.6747291   -4.6747291   -3.5988546  0.010409696   -4.6747291    1.0758745   439061 
  758000   0.71569928   -4.6735597   -4.6735597   -3.6000132  0.016393331   -4.6735597    1.0735465   439061 
  759000   0.71532132   -4.6735716   -4.6735716   -3.6005921  0.012664853   -4.6735716    1.0729795   439061 
  760000   0.71602039   -4.6761022   -4.6761022    -3.602074  0.010319712   -4.6761022    1.0740281   439061 
  761000   0.71369331   -4.6748395   -4.6748395   -3.6043019  0.013530269   -4.6748395    1.0705375   439061 
  762000   0.71517197   -4.6768749   -4.6768749   -3.6041194  0.010009108   -4.6768749    1.0727555   439061 
  763000   0.71520374     -4.67815     -4.67815   -3.6053469  0.014325406     -4.67815    1.0728032   439061 
  764000   0.71540896   -4.6796493   -4.6796493   -3.6065383  0.013690497   -4.6796493     1.073111   439061 
  765000    0.7157286   -4.6822525   -4.6822525   -3.6086621  0.015790557   -4.6822525    1.0735904   439061 
  766000   0.71519436   -4.6833657   -4.6833657   -3.6105766  0.011317083   -4.6833657    1.0727891   439061 
  767000   0.71404257   -4.6839087   -4.6839087   -3.6128473   0.01654469   -4.6839087    1.0710614   439061 
  768000   0.71490256   -4.6848646   -4.6848646   -3.6125132  0.020048353   -4.6848646    1.0723514   439061 
  769000   0.71515421   -4.6858753   -4.6858753   -3.6131465  0.019321816   -4.6858753    1.0727289   439061 
  770000   0.71520741   -4.6869404   -4.6869404   -3.6141317  0.016099921   -4.6869404    1.0728087   439061 
  771000   0.71445462   -4.6866964   -4.6866964   -3.6150169  0.018784894   -4.6866964    1.0716795   439061 
  772000   0.71391909   -4.6866185   -4.6866185   -3.6157423  0.012992886   -4.6866185    1.0708762   439061 
  773000   0.71372863    -4.688146    -4.688146   -3.6175555  0.011277043    -4.688146    1.0705905   439061 
  774000    0.7127666   -4.6876874   -4.6876874   -3.6185399  0.012557449   -4.6876874    1.0691475   439061 
  775000   0.71288279   -4.6876004   -4.6876004   -3.6182787 0.0086478386   -4.6876004    1.0693217   439061 
  776000   0.71245666    -4.687752    -4.687752   -3.6190694 0.0071346402    -4.687752    1.0686825   439061 
  777000   0.71290266   -4.6884243   -4.6884243   -3.6190727 0.0099199355   -4.6884243    1.0693516   439061 
  778000   0.71225699   -4.6879864   -4.6879864   -3.6196034  0.010240475   -4.6879864    1.0683831   439061 
  779000   0.71226083   -4.6881082   -4.6881082   -3.6197194  0.012007786   -4.6881082    1.0683888   439061 
  780000   0.71108986   -4.6896961   -4.6896961   -3.6230638  0.014666439   -4.6896961    1.0666324   439061 
  781000   0.71175415   -4.6910473   -4.6910473   -3.6234185  0.016276363   -4.6910473    1.0676288   439061 
  782000   0.71311195   -4.6934871   -4.6934871   -3.6238216  0.012833193   -4.6934871    1.0696655   439061 
  783000   0.71184108   -4.6927367   -4.6927367   -3.6249775  0.017972891   -4.6927367    1.0677592   439061 
  784000   0.71325496   -4.6961766   -4.6961766   -3.6262966    0.0156241   -4.6961766      1.06988   439061 
  785000   0.71341849   -4.6972298   -4.6972298   -3.6271045  0.016165986   -4.6972298    1.0701253   439061 
  786000   0.71112244   -4.6959984   -4.6959984   -3.6293172  0.015089572   -4.6959984    1.0666812   439061 
  787000   0.71086084   -4.6970078   -4.6970078    -3.630719  0.015754586   -4.6970078    1.0662888   439061 
  788000    0.7122204   -4.6997736   -4.6997736   -3.6314454 0.0080422715   -4.6997736    1.0683282   439061 
  789000   0.71126151   -4.6985888   -4.6985888    -3.631699  0.012332818   -4.6985888    1.0668898   439061 
  790000    0.7117331   -4.7003708   -4.7003708   -3.6327736  0.014058852   -4.7003708    1.0675972   439061 
  791000   0.71201693   -4.7006031   -4.7006031   -3.6325801  0.013630496   -4.7006031     1.068023   439061 
  792000    0.7115536   -4.7007315   -4.7007315   -3.6334035  0.012529095   -4.7007315     1.067328   439061 
  793000   0.71088959   -4.7012696   -4.7012696   -3.6349377   0.01166824   -4.7012696     1.066332   439061 
  794000   0.71014704   -4.7020031   -4.7020031    -3.636785   0.01678281   -4.7020031    1.0652181   439061 
  795000   0.71109456   -4.7047576   -4.7047576   -3.6381182 0.0097642459   -4.7047576    1.0666394   439061 
  796000   0.71090113   -4.7053136   -4.7053136   -3.6389643  0.011769656   -4.7053136    1.0663493   439061 
  797000   0.70978221   -4.7052924   -4.7052924   -3.6406215  0.010260608   -4.7052924    1.0646709   439061 
  798000   0.70978946   -4.7063674   -4.7063674   -3.6416856  0.013595787   -4.7063674    1.0646818   439061 
  799000   0.71154749   -4.7088211   -4.7088211   -3.6415023  0.014124135   -4.7088211    1.0673188   439061 
  800000   0.71238401    -4.711214    -4.711214   -3.6426404  0.017701712    -4.711214    1.0685736   439061 
  801000   0.71044122   -4.7099981   -4.7099981   -3.6443387  0.015149602   -4.7099981    1.0656594   439061 
  802000   0.71071419   -4.7110122   -4.7110122   -3.6449433  0.013604272   -4.7110122    1.0660689   439061 
  803000   0.70940299   -4.7097505   -4.7097505   -3.6456485  0.014111577   -4.7097505    1.0641021   439061 
  804000   0.70996965   -4.7114287   -4.7114287   -3.6464767  0.015558857   -4.7114287    1.0649521   439061 
  805000   0.70961522   -4.7122689   -4.7122689   -3.6478484  0.015108544   -4.7122689    1.0644204   439061 
  806000   0.70929237   -4.7113782   -4.7113782   -3.6474421  0.010384147   -4.7113782    1.0639361   439061 
  807000   0.70910167   -4.7114937   -4.7114937   -3.6478437 0.0085826313   -4.7114937    1.0636501   439061 
  808000   0.70865301   -4.7116548   -4.7116548   -3.6486777  0.014819655   -4.7116548    1.0629771   439061 
  809000   0.70968147   -4.7128704   -4.7128704   -3.6483506  0.010017391   -4.7128704    1.0645198   439061 
  810000   0.70920615   -4.7130069   -4.7130069   -3.6492001  0.010021831   -4.7130069    1.0638068   439061 
  811000   0.70777455   -4.7121252   -4.7121252   -3.6504658  0.013466126   -4.7121252    1.0616594   439061 
  812000   0.70924766   -4.7157148   -4.7157148   -3.6518457 0.0045788388   -4.7157148    1.0638691   439061 
  813000   0.70822996   -4.7151933   -4.7151933   -3.6528508  0.013637175   -4.7151933    1.0623425   439061 
  814000   0.70964183   -4.7190984   -4.7190984   -3.6546381  0.011670078   -4.7190984    1.0644603   439061 
  815000   0.70810323   -4.7171833   -4.7171833   -3.6550308  0.015252625   -4.7171833    1.0621524   439061 
  816000   0.70774802   -4.7187847   -4.7187847   -3.6571651  0.015089034   -4.7187847    1.0616196   439061 
  817000   0.70804053   -4.7203353   -4.7203353   -3.6582769  0.012824324   -4.7203353    1.0620584   439061 
  818000   0.70848086   -4.7205802   -4.7205802   -3.6578613   0.01949033   -4.7205802    1.0627189   439061 
  819000    0.7093662   -4.7233011   -4.7233011   -3.6592542  0.012736397   -4.7233011    1.0640469   439061 
  820000   0.70803911   -4.7217544   -4.7217544   -3.6596981   0.01596696   -4.7217544    1.0620562   439061 
  821000   0.70748851   -4.7220739   -4.7220739   -3.6608436  0.014861096   -4.7220739    1.0612303   439061 
  822000   0.70703219   -4.7221111   -4.7221111   -3.6615653  0.016654451   -4.7221111    1.0605459   439061 
  823000   0.70731403   -4.7238417   -4.7238417   -3.6628731  0.013170463   -4.7238417    1.0609686   439061 
  824000   0.70745751   -4.7245092   -4.7245092   -3.6633254  0.010303468   -4.7245092    1.0611838   439061 
  825000   0.70710384   -4.7244538   -4.7244538   -3.6638004  0.011548384   -4.7244538    1.0606533   439061 
  826000    0.7061297   -4.7241749   -4.7241749   -3.6649828  0.010967368   -4.7241749    1.0591921   439061 
  827000   0.70719942   -4.7253526   -4.7253526   -3.6645559  0.010637185   -4.7253526    1.0607967   439061 
  828000     0.707277   -4.7266641   -4.7266641    -3.665751 0.0090585017   -4.7266641    1.0609131   439061 
  829000   0.70724748   -4.7286446   -4.7286446   -3.6677758 0.0071932213   -4.7286446    1.0608688   439061 
  830000   0.70559391   -4.7274845   -4.7274845    -3.669096  0.010624516   -4.7274845    1.0583885   439061 
  831000   0.70680189   -4.7303981   -4.7303981   -3.6701977 0.0070565805   -4.7303981    1.0602004   439061 
  832000   0.70768569   -4.7322516   -4.7322516   -3.6707255 0.0075100408   -4.7322516    1.0615261   439061 
  833000   0.70773101    -4.732921    -4.732921   -3.6713269  0.015032502    -4.732921    1.0615941   439061 
  834000   0.70697009   -4.7325247   -4.7325247    -3.672072  0.017166333   -4.7325247    1.0604527   439061 
  835000   0.70683086   -4.7336086   -4.7336086   -3.6733647  0.017243834   -4.7336086    1.0602439   439061 
  836000   0.70639245   -4.7338934   -4.7338934   -3.6743072  0.014995797   -4.7338934    1.0595863   439061 
  837000   0.70635517   -4.7351225   -4.7351225   -3.6755921  0.010297348   -4.7351225    1.0595303   439061 
  838000   0.70562303   -4.7343853   -4.7343853   -3.6759532  0.012608275   -4.7343853    1.0584321   439061 
  839000    0.7059304   -4.7346762   -4.7346762    -3.675783  0.010169168   -4.7346762    1.0588932   439061 
  840000   0.70510994   -4.7354713   -4.7354713   -3.6778088  0.006946451   -4.7354713    1.0576625   439061 
  841000   0.70560642   -4.7366582   -4.7366582    -3.678251 0.0042752206   -4.7366582    1.0584072   439061 
  842000   0.70517635   -4.7353487   -4.7353487   -3.6775866  0.014929849   -4.7353487    1.0577621   439061 
  843000   0.70430009   -4.7360013   -4.7360013   -3.6795536 0.0095746402   -4.7360013    1.0564477   439061 
  844000   0.70510368   -4.7371353   -4.7371353   -3.6794822 0.0095942948   -4.7371353    1.0576531   439061 
  845000   0.70407297   -4.7386927   -4.7386927   -3.6825857 0.0098865605   -4.7386927    1.0561071   439061 
  846000   0.70479942   -4.7408615   -4.7408615   -3.6836647 0.0086814297   -4.7408615    1.0571967   439061 
  847000   0.70510015   -4.7419902   -4.7419902   -3.6843424 0.0094297515   -4.7419902    1.0576478   439061 
  848000   0.70428361   -4.7414407   -4.7414407   -3.6850177   0.01572284   -4.7414407     1.056423   439061 
  849000      0.70454   -4.7421167   -4.7421167   -3.6853091  0.012359453   -4.7421167    1.0568076   439061 
  850000   0.70478592   -4.7444224   -4.7444224   -3.6872459  0.013122216   -4.7444224    1.0571765   439061 
  851000   0.70570923   -4.7453381   -4.7453381   -3.6867767  0.012030038   -4.7453381    1.0585614   439061 
  852000   0.70557108   -4.7455424   -4.7455424   -3.6871882  0.012121708   -4.7455424    1.0583542   439061 
  853000   0.70384452   -4.7449147   -4.7449147   -3.6891503 0.0069105519   -4.7449147    1.0557644   439061 
  854000   0.70321229   -4.7449162   -4.7449162   -3.6901002 0.0078439514   -4.7449162     1.054816   439061 
  855000   0.70234124    -4.744682    -4.744682   -3.6911725  0.011213475    -4.744682    1.0535095   439061 
  856000   0.70343274   -4.7471038   -4.7471038   -3.6919571 0.0087943365   -4.7471038    1.0551467   439061 
  857000   0.70328211   -4.7468255   -4.7468255   -3.6919048  0.010292653   -4.7468255    1.0549208   439061 
  858000   0.70380788   -4.7480228   -4.7480228   -3.6923133 0.0093356463   -4.7480228    1.0557094   439061 
  859000   0.70375224   -4.7489619   -4.7489619    -3.693336  0.013406446   -4.7489619     1.055626   439061 
  860000    0.7043791   -4.7492331   -4.7492331   -3.6926668  0.012052585   -4.7492331    1.0565662   439061 
  861000   0.70298064    -4.749109    -4.749109   -3.6946404  0.015093605    -4.749109    1.0544686   439061 
  862000    0.7034391   -4.7508528   -4.7508528   -3.6956966  0.011332636   -4.7508528    1.0551563   439061 
  863000   0.70317283   -4.7512292   -4.7512292   -3.6964724  0.013440336   -4.7512292    1.0547568   439061 
  864000   0.70240608   -4.7515072   -4.7515072   -3.6979004  0.015110127   -4.7515072    1.0536067   439061 
  865000    0.7027292   -4.7535108   -4.7535108   -3.6994194 0.0070662627   -4.7535108    1.0540914   439061 
  866000   0.70197458   -4.7534406   -4.7534406   -3.7004812 0.0083437991   -4.7534406    1.0529595   439061 
  867000   0.70196768   -4.7556366   -4.7556366   -3.7026875 0.0023105427   -4.7556366    1.0529491   439061 
  868000   0.70117109   -4.7552405   -4.7552405   -3.7034862  0.012295939   -4.7552405    1.0517542   439061 
  869000   0.70285138   -4.7582823   -4.7582823   -3.7040077  0.011476048   -4.7582823    1.0542747   439061 
  870000   0.70237377   -4.7576824   -4.7576824   -3.7041241  0.011829445   -4.7576824    1.0535583   439061 
  871000    0.7019682   -4.7563627   -4.7563627   -3.7034128  0.015005124   -4.7563627    1.0529499   439061 
  872000    0.7017889   -4.7575884   -4.7575884   -3.7049074  0.015702064   -4.7575884    1.0526809   439061 
  873000   0.70319114   -4.7596233   -4.7596233    -3.704839  0.017237424   -4.7596233    1.0547843   439061 
  874000   0.70261929   -4.7587791   -4.7587791   -3.7048526  0.011865029   -4.7587791    1.0539265   439061 
  875000   0.70164236   -4.7586334   -4.7586334   -3.7061723  0.013353027   -4.7586334    1.0524611   439061 
  876000   0.70163702   -4.7607622   -4.7607622   -3.7083091 0.00097981781   -4.7607622    1.0524531   439061 
  877000   0.70066782   -4.7603092   -4.7603092   -3.7093099 0.0016965514   -4.7603092    1.0509993   439061 
  878000   0.69955589   -4.7591662   -4.7591662   -3.7098347 0.0033986849   -4.7591662    1.0493314   439061 
  879000   0.70040395   -4.7613447   -4.7613447   -3.7107411 0.0015065282   -4.7613447    1.0506035   439061 
  880000   0.70001518    -4.759968    -4.759968   -3.7099476  0.010860206    -4.759968    1.0500204   439061 
  881000   0.70004398   -4.7609868   -4.7609868   -3.7109232  0.011459012   -4.7609868    1.0500636   439061 
  882000   0.70122605   -4.7634513   -4.7634513   -3.7116146  0.010757692   -4.7634513    1.0518367   439061 
  883000   0.70047094   -4.7633562   -4.7633562   -3.7126522  0.016811388   -4.7633562     1.050704   439061 
  884000   0.70144628   -4.7656271   -4.7656271   -3.7134601   0.01635364   -4.7656271     1.052167   439061 
  885000   0.70200502   -4.7672977   -4.7672977   -3.7142926  0.015464008   -4.7672977    1.0530051   439061 
  886000   0.70160571   -4.7670052   -4.7670052    -3.714599  0.016776992   -4.7670052    1.0524062   439061 
  887000   0.70005264   -4.7669262   -4.7669262   -3.7168496   0.01672434   -4.7669262    1.0500766   439061 
  888000   0.70066892   -4.7694168   -4.7694168   -3.7184158 0.0056430968   -4.7694168     1.051001   439061 
  889000   0.69971509   -4.7687515   -4.7687515   -3.7191813 0.0037718233   -4.7687515    1.0495702   439061 
  890000   0.69963712   -4.7695471   -4.7695471   -3.7200939 0.0048173803   -4.7695471    1.0494533   439061 
  891000   0.69905798   -4.7691454   -4.7691454   -3.7205608 0.0065948446   -4.7691454    1.0485846   439061 
  892000   0.69997953   -4.7704248   -4.7704248   -3.7204579 0.0051490768   -4.7704248    1.0499669   439061 
  893000   0.69938949   -4.7697634   -4.7697634   -3.7206816 0.0057846985   -4.7697634    1.0490818   439061 
  894000    0.6991681   -4.7701524   -4.7701524   -3.7214027   0.00885841   -4.7701524    1.0487498   439061 
  895000   0.70008933   -4.7728058   -4.7728058   -3.7226742 0.0092056768   -4.7728058    1.0501316   439061 
  896000   0.69924902   -4.7731937   -4.7731937   -3.7243226  0.011964193   -4.7731937    1.0488711   439061 
  897000   0.69998571   -4.7747848   -4.7747848   -3.7248086 0.0089722665   -4.7747848    1.0499762   439061 
  898000   0.69845681   -4.7734417   -4.7734417   -3.7257589  0.010989115   -4.7734417    1.0476828   439061 
  899000   0.69948002   -4.7753712   -4.7753712   -3.7261536  0.010371577   -4.7753712    1.0492176   439061 
  900000   0.69953631   -4.7759802   -4.7759802   -3.7266781  0.013781534   -4.7759802    1.0493021   439061 
  901000   0.69973272    -4.777732    -4.777732   -3.7281353  0.010495706    -4.777732    1.0495967   439061 
  902000   0.69895755   -4.7769168   -4.7769168   -3.7284829  0.011228858   -4.7769168    1.0484339   439061 
  903000   0.69875823   -4.7756261   -4.7756261   -3.7274911  0.014018181   -4.7756261     1.048135   439061 
  904000   0.69864551   -4.7762081   -4.7762081   -3.7282422  0.013007908   -4.7762081    1.0479659   439061 
  905000   0.69858118   -4.7778027   -4.7778027   -3.7299333 0.0064142267   -4.7778027    1.0478694   439061 
  906000   0.69723907   -4.7768624   -4.7768624   -3.7310062 0.0060350604   -4.7768624    1.0458562   439061 
  907000   0.69855828   -4.7784372   -4.7784372   -3.7306022 0.0039264225   -4.7784372     1.047835   439061 
  908000   0.69824716   -4.7785671   -4.7785671   -3.7311988 0.0017548101   -4.7785671    1.0473684   439061 
  909000   0.69771384   -4.7786634   -4.7786634    -3.732095 0.0048617942   -4.7786634    1.0465684   439061 
  910000   0.69712637   -4.7780382   -4.7780382   -3.7323511  0.010271783   -4.7780382    1.0456872   439061 
  911000   0.69755032   -4.7791952   -4.7791952   -3.7328721 0.0090703047   -4.7791952    1.0463231   439061 
  912000   0.69843477    -4.782043    -4.782043   -3.7343932 0.0066390254    -4.782043    1.0476498   439061 
  913000   0.69858792   -4.7830008   -4.7830008   -3.7351213  0.012118847   -4.7830008    1.0478795   439061 
  914000    0.6975688   -4.7831081   -4.7831081   -3.7367573  0.014174246   -4.7831081    1.0463508   439061 
  915000   0.69710811   -4.7840475   -4.7840475   -3.7383877  0.014199547   -4.7840475    1.0456598   439061 
  916000   0.69704554   -4.7844076   -4.7844076   -3.7388417  0.010044395   -4.7844076    1.0455659   439061 
  917000   0.69737133   -4.7852592   -4.7852592   -3.7392046  0.011800234   -4.7852592    1.0460546   439061 
  918000   0.69696907   -4.7864019   -4.7864019   -3.7409506  0.011284698   -4.7864019    1.0454512   439061 
  919000   0.69677032    -4.786371    -4.786371   -3.7412179  0.010837901    -4.786371    1.0451531   439061 
  920000   0.69642681   -4.7861195   -4.7861195   -3.7414817 0.0069469111   -4.7861195    1.0446378   439061 
  921000   0.69758156   -4.7892528   -4.7892528   -3.7428828 0.0054053293   -4.7892528      1.04637   439061 
  922000   0.69634724   -4.7873172   -4.7873172   -3.7427987   0.00997452   -4.7873172    1.0445185   439061 
  923000    0.6969693    -4.788292    -4.788292   -3.7428404  0.011705141    -4.788292    1.0454516   439061 
  924000   0.69621369   -4.7887856   -4.7887856   -3.7444675 0.0057534728   -4.7887856    1.0443182   439061 
  925000   0.69478497   -4.7880138   -4.7880138   -3.7458387   0.01059255   -4.7880138    1.0421751   439061 
  926000    0.6976457   -4.7920554   -4.7920554   -3.7455892 0.0057698194   -4.7920554    1.0464662   439061 
  927000   0.69650694   -4.7904083   -4.7904083   -3.7456503 0.0079636654   -4.7904083     1.044758   439061 
  928000   0.69674242   -4.7925959   -4.7925959   -3.7474847 0.0057763041   -4.7925959    1.0451112   439061 
  929000   0.69670475   -4.7932334   -4.7932334   -3.7481787  0.010257221   -4.7932334    1.0450547   439061 
  930000   0.69527219   -4.7925644   -4.7925644   -3.7496585 0.0085694252   -4.7925644    1.0429059   439061 
  931000   0.69515191   -4.7923823   -4.7923823   -3.7496568 0.0089563493   -4.7923823    1.0427255   439061 
  932000   0.69576403   -4.7945419   -4.7945419   -3.7508982  0.010496288   -4.7945419    1.0436437   439061 
  933000   0.69580908   -4.7948808   -4.7948808   -3.7511695 0.0090217614   -4.7948808    1.0437112   439061 
  934000    0.6957309    -4.796623    -4.796623    -3.753029   0.00781977    -4.796623     1.043594   439061 
  935000    0.6961822   -4.7965332   -4.7965332   -3.7522623 0.0086838558   -4.7965332    1.0442709   439061 
  936000   0.69487153   -4.7965429   -4.7965429    -3.754238 0.0076512618   -4.7965429    1.0423049   439061 
  937000   0.69571263   -4.7992686   -4.7992686   -3.7557021 0.0042325877   -4.7992686    1.0435666   439061 
  938000   0.69595495   -4.7999986   -4.7999986   -3.7560686 0.0063866152   -4.7999986      1.04393   439061 
  939000   0.69450678   -4.7986781   -4.7986781   -3.7569203 0.0083944967   -4.7986781    1.0417578   439061 
  940000   0.69406484   -4.7993669   -4.7993669    -3.758272 0.0064842778   -4.7993669    1.0410949   439061 
  941000   0.69408821   -4.8001993   -4.8001993   -3.7590694 0.0082908793   -4.8001993    1.0411299   439061 
  942000   0.69426937   -4.8015306   -4.8015306   -3.7601289 0.0086706503   -4.8015306    1.0414017   439061 
  943000   0.69418077   -4.8005965   -4.8005965   -3.7593277  0.012092646   -4.8005965    1.0412688   439061 
  944000   0.69520162    -4.803021    -4.803021   -3.7602209  0.010182845    -4.803021    1.0428001   439061 
  945000   0.69478766   -4.8032809   -4.8032809   -3.7611018 0.0087064842   -4.8032809    1.0421791   439061 
  946000   0.69436268   -4.8038681   -4.8038681   -3.7623264 0.0096034858   -4.8038681    1.0415417   439061 
  947000    0.6916111   -4.8010333   -4.8010333    -3.763619  0.012768141   -4.8010333    1.0374143   439061 
  948000    0.6929824   -4.8037183   -4.8037183    -3.764247 0.0064957951   -4.8037183    1.0394712   439061 
  949000   0.69298819   -4.8040694   -4.8040694   -3.7645895 0.0044051017   -4.8040694    1.0394799   439061 
  950000   0.69325147   -4.8045953   -4.8045953   -3.7647205 0.0042019117   -4.8045953    1.0398748   439061 
  951000    0.6939131   -4.8056786   -4.8056786   -3.7648113  0.007164412   -4.8056786    1.0408673   439061 
  952000   0.69362433   -4.8046489   -4.8046489   -3.7642148  0.013231593   -4.8046489    1.0404341   439061 
  953000   0.69455505   -4.8066639   -4.8066639   -3.7648337  0.012656251   -4.8066639    1.0418302   439061 
  954000   0.69277976   -4.8054288   -4.8054288   -3.7662616 0.0087471052   -4.8054288    1.0391673   439061 
  955000   0.69330791   -4.8061668   -4.8061668   -3.7662073 0.0072929195   -4.8061668    1.0399595   439061 
  956000   0.69283799   -4.8062561   -4.8062561   -3.7670015 0.0081733926   -4.8062561    1.0392546   439061 
  957000    0.6925288   -4.8070851   -4.8070851   -3.7682942 0.0052239383   -4.8070851    1.0387908   439061 
  958000   0.69216831    -4.807912    -4.807912   -3.7696619 0.0082320068    -4.807912    1.0382501   439061 
  959000   0.69203963   -4.8074944   -4.8074944   -3.7694373 0.0071125019   -4.8074944    1.0380571   439061 
  960000   0.69213401   -4.8087842   -4.8087842   -3.7705855  0.013020071   -4.8087842    1.0381987   439061 
  961000   0.69274942    -4.810588    -4.810588   -3.7714662  0.010149944    -4.810588    1.0391218   439061 
  962000   0.69264641    -4.811419    -4.811419   -3.7724518 0.0086714796    -4.811419    1.0389673   439061 
  963000   0.69280924   -4.8111203   -4.8111203   -3.7719088   0.01291641   -4.8111203    1.0392115   439061 
  964000   0.69226541   -4.8112928   -4.8112928    -3.772897   0.01214031   -4.8112928    1.0383958   439061 
  965000   0.69266025   -4.8122108   -4.8122108   -3.7732228  0.012922408   -4.8122108     1.038988   439061 
  966000   0.69380303   -4.8142096   -4.8142096   -3.7735075  0.005269362   -4.8142096    1.0407022   439061 
  967000   0.69092431   -4.8114005   -4.8114005   -3.7750164 0.0087900507   -4.8114005    1.0363841   439061 
  968000   0.69252417   -4.8145026   -4.8145026   -3.7757187  0.007409601   -4.8145026    1.0387839   439061 
  969000   0.69227193     -4.81491     -4.81491   -3.7765045 0.0037532509     -4.81491    1.0384055   439061 
  970000   0.69118826   -4.8141188   -4.8141188   -3.7773387   0.00562776   -4.8141188      1.03678   439061 
  971000   0.69162961   -4.8152826   -4.8152826   -3.7778405 0.0095971126   -4.8152826    1.0374421   439061 
  972000   0.69147179   -4.8166182   -4.8166182   -3.7794129 0.0058553661   -4.8166182    1.0372053   439061 
  973000   0.69077159   -4.8158952   -4.8158952   -3.7797402  0.011510685   -4.8158952     1.036155   439061 
  974000   0.69183517   -4.8183161   -4.8183161   -3.7805657 0.0039779524   -4.8183161    1.0377504   439061 
  975000   0.69101436   -4.8184868   -4.8184868   -3.7819676 0.0070259729   -4.8184868    1.0365192   439061 
  976000   0.69127184   -4.8184974   -4.8184974    -3.781592 0.0088515491   -4.8184974    1.0369054   439061 
  977000   0.69104557   -4.8188411   -4.8188411   -3.7822752   0.01230004   -4.8188411     1.036566   439061 
  978000   0.69097405   -4.8198136   -4.8198136   -3.7833549 0.0054772927   -4.8198136    1.0364587   439061 
  979000   0.69042326   -4.8188579   -4.8188579   -3.7832254  0.010984486   -4.8188579    1.0356325   439061 
  980000   0.69100118   -4.8207785   -4.8207785   -3.7842791 0.0065513772   -4.8207785    1.0364994   439061 
  981000    0.6913487   -4.8223465   -4.8223465   -3.7853259 0.0077680778   -4.8223465    1.0370207   439061 
  982000   0.68885037    -4.819019    -4.819019   -3.7857458  0.010583394    -4.819019    1.0332732   439061 
  983000   0.69008989   -4.8217111   -4.8217111   -3.7865786 0.0058645554   -4.8217111    1.0351325   439061 
  984000   0.69035843   -4.8224901   -4.8224901   -3.7869548 0.0095868209   -4.8224901    1.0355353   439061 
  985000   0.69032363   -4.8232952   -4.8232952   -3.7878121 0.0089227622   -4.8232952    1.0354831   439061 
  986000   0.69069959   -4.8250302   -4.8250302   -3.7889831 0.0053816421   -4.8250302     1.036047   439061 
  987000   0.69095871   -4.8257267   -4.8257267    -3.789291 0.0047977009   -4.8257267    1.0364357   439061 
  988000   0.68985997   -4.8255069   -4.8255069   -3.7907193 0.0026535877   -4.8255069    1.0347876   439061 
  989000    0.6894619    -4.826441    -4.826441   -3.7922505 0.0042452335    -4.826441    1.0341905   439061 
  990000   0.69006475   -4.8271806   -4.8271806   -3.7920859  0.008305719   -4.8271806    1.0350948   439061 
  991000   0.69065277   -4.8279613   -4.8279613   -3.7919845 0.0076330462   -4.8279613    1.0359768   439061 
  992000   0.69026456   -4.8275509   -4.8275509   -3.7921564 0.0075035885   -4.8275509    1.0353945   439061 
  993000   0.69061519   -4.8292271   -4.8292271   -3.7933067 0.0078050698   -4.8292271    1.0359204   439061 
  994000   0.69039528   -4.8299747   -4.8299747   -3.7943841 0.0085408035   -4.8299747    1.0355906   439061 
  995000    0.6909211    -4.830183    -4.830183   -3.7938038 0.0064384905    -4.830183    1.0363793   439061 
  996000   0.68908488   -4.8279283   -4.8279283   -3.7943034  0.010155593   -4.8279283     1.033625   439061 
  997000   0.68929783    -4.828553    -4.828553   -3.7946086 0.0081981511    -4.828553    1.0339444   439061 
  998000   0.68882399   -4.8288539   -4.8288539   -3.7956202 0.0066226211   -4.8288539    1.0332336   439061 
  999000   0.68806944   -4.8289754   -4.8289754   -3.7968736 0.0087698646   -4.8289754    1.0321018   439061 
 1000000    0.6881818   -4.8289134   -4.8289134    -3.796643 0.0067688347   -4.8289134    1.0322703   439061 
 1001000   0.68780362    -4.829007    -4.829007    -3.797304 0.0076348255    -4.829007    1.0317031   439061 
 1002000   0.68816712    -4.830697    -4.830697   -3.7984486 0.0039184363    -4.830697    1.0322483   439061 
 1003000    0.6887859   -4.8322453   -4.8322453   -3.7990688 0.00068872093   -4.8322453    1.0331765   439061 
 1004000   0.68846184    -4.832685    -4.832685   -3.7999946 0.0057461964    -4.832685    1.0326904   439061 
 1005000   0.68797401   -4.8326167   -4.8326167    -3.800658 0.0084073702   -4.8326167    1.0319587   439061 
 1006000   0.68856385   -4.8339561   -4.8339561   -3.8011127  0.010468701   -4.8339561    1.0328434   439061 
 1007000    0.6888346   -4.8354222   -4.8354222   -3.8021726 0.0057173439   -4.8354222    1.0332495   439061 
 1008000   0.68877032   -4.8359999   -4.8359999   -3.8028468  0.008189208   -4.8359999    1.0331531   439061 
 1009000   0.68805081   -4.8352954   -4.8352954   -3.8032215  0.020015435   -4.8352954    1.0320739   439061 
 1010000   0.68982141   -4.8394766   -4.8394766   -3.8047468  0.006215144   -4.8394766    1.0347298   439061 
 1011000   0.68839577   -4.8378951   -4.8378951   -3.8053038 0.0069975953   -4.8378951    1.0325913   439061 
 1012000   0.68589464   -4.8363198   -4.8363198   -3.8074802  0.011712702   -4.8363198    1.0288396   439061 
 1013000   0.68620275   -4.8370861   -4.8370861   -3.8077843   0.01018708   -4.8370861    1.0293018   439061 
 1014000   0.68707611   -4.8398246   -4.8398246   -3.8092127 0.0042236315   -4.8398246    1.0306118   439061 
 1015000   0.68656065   -4.8389446   -4.8389446    -3.809106 0.0089168348   -4.8389446    1.0298386   439061 
 1016000     0.686924   -4.8401007   -4.8401007   -3.8097171 0.0023623965   -4.8401007    1.0303837   439061 
 1017000   0.68689466    -4.839837    -4.839837   -3.8094974 0.0080179909    -4.839837    1.0303396   439061 
 1018000   0.68775388   -4.8419155   -4.8419155   -3.8102871 0.0091320351   -4.8419155    1.0316285   439061 
 1019000   0.68720634   -4.8424237   -4.8424237   -3.8116165  0.010097119   -4.8424237    1.0308072   439061 
 1020000   0.68757841   -4.8431551   -4.8431551   -3.8117898  0.009939023   -4.8431551    1.0313653   439061 
 1021000   0.68620385    -4.842485    -4.842485   -3.8131816  0.013324558    -4.842485    1.0293034   439061 
 1022000   0.68719739   -4.8447188   -4.8447188   -3.8139251 0.0081520208   -4.8447188    1.0307937   439061 
 1023000   0.68689328   -4.8449642   -4.8449642   -3.8146266 0.0074010631   -4.8449642    1.0303376   439061 
 1024000   0.68685285   -4.8447899   -4.8447899    -3.814513  0.011129812   -4.8447899    1.0302769   439061 
 1025000   0.68706595   -4.8461652   -4.8461652   -3.8155686 0.0054224089   -4.8461652    1.0305966   439061 
 1026000   0.68667108   -4.8465548   -4.8465548   -3.8165505 0.0066857647   -4.8465548    1.0300043   439061 
 1027000    0.6865374   -4.8467218   -4.8467218    -3.816918 0.0052065873   -4.8467218    1.0298037   439061 
 1028000   0.68579657   -4.8468793   -4.8468793   -3.8181868 0.0059833991   -4.8468793    1.0286925   439061 
 1029000   0.68532288    -4.847982    -4.847982        -3.82 0.0086360968    -4.847982     1.027982   439061 
 1030000   0.68499126   -4.8477092   -4.8477092   -3.8202247 0.0075253807   -4.8477092    1.0274846   439061 
 1031000   0.68475689   -4.8478673   -4.8478673   -3.8207343 0.0057383032   -4.8478673     1.027133   439061 
 1032000   0.68614703   -4.8502506   -4.8502506   -3.8210323 0.0042548748   -4.8502506    1.0292182   439061 
 1033000   0.68588454   -4.8513062   -4.8513062   -3.8224817 0.0093879151   -4.8513062    1.0288245   439061 
 1034000    0.6858927   -4.8513291   -4.8513291   -3.8224924 0.0032496057   -4.8513291    1.0288367   439061 
 1035000    0.6845278   -4.8501434   -4.8501434    -3.823354 0.0094437344   -4.8501434    1.0267894   439061 
 1036000   0.68488267   -4.8516164   -4.8516164   -3.8242947 0.0099447397   -4.8516164    1.0273217   439061 
 1037000   0.68525938   -4.8517211   -4.8517211   -3.8238344 0.0046385195   -4.8517211    1.0278867   439061 
 1038000   0.68423987   -4.8514563   -4.8514563   -3.8250988   0.01120414   -4.8514563    1.0263575   439061 
 1039000   0.68428901    -4.851717    -4.851717   -3.8252858  0.008351716    -4.851717    1.0264312   439061 
 1040000   0.68396476   -4.8513571   -4.8513571   -3.8254123 0.0077105299   -4.8513571    1.0259448   439061 
 1041000   0.68369488   -4.8517238   -4.8517238   -3.8261838 0.0056967375   -4.8517238      1.02554   439061 
 1042000   0.68353492   -4.8528398   -4.8528398   -3.8275397 0.0074446529   -4.8528398       1.0253   439061 
 1043000   0.68333376   -4.8516997   -4.8516997   -3.8267014 0.0079324508   -4.8516997    1.0249983   439061 
 1044000   0.68534184   -4.8546177   -4.8546177   -3.8266072   0.00379247   -4.8546177    1.0280104   439061 
 1045000   0.68369508   -4.8539936   -4.8539936   -3.8284533 0.0080232233   -4.8539936    1.0255403   439061 
 1046000   0.68315834   -4.8542246   -4.8542246   -3.8294894 0.0073280787   -4.8542246    1.0247352   439061 
 1047000   0.68217402   -4.8548857   -4.8548857    -3.831627 0.0079291438   -4.8548857    1.0232587   439061 
 1048000   0.68452319   -4.8588642   -4.8588642   -3.8320817 0.0027716071   -4.8588642    1.0267824   439061 
 1049000   0.68284456   -4.8563984   -4.8563984   -3.8321339 0.0097406895   -4.8563984    1.0242645   439061 
 1050000   0.68484529   -4.8590267   -4.8590267   -3.8317611 0.0063943291   -4.8590267    1.0272656   439061 
 1051000   0.68502158   -4.8592188   -4.8592188   -3.8316888 0.0070929792   -4.8592188      1.02753   439061 
 1052000   0.68432425   -4.8579307   -4.8579307   -3.8314467   0.01359588   -4.8579307     1.026484   439061 
 1053000   0.68424989   -4.8589517   -4.8589517   -3.8325792 0.0091628503   -4.8589517    1.0263725   439061 
 1054000   0.68268281     -4.85718     -4.85718   -3.8331581 0.0093728923     -4.85718    1.0240219   439061 
 1055000   0.68259078   -4.8581602   -4.8581602   -3.8342764 0.0059343122   -4.8581602    1.0238838   439061 
 1056000   0.68280425   -4.8582768   -4.8582768   -3.8340727 0.0069741186   -4.8582768     1.024204   439061 
 1057000   0.68225586   -4.8580136   -4.8580136   -3.8346322 0.0081228479   -4.8580136    1.0233815   439061 
 1058000   0.68265504   -4.8593508   -4.8593508   -3.8353706 0.0018327781   -4.8593508    1.0239802   439061 
 1059000   0.68178187   -4.8589426   -4.8589426   -3.8362721 0.0054215414   -4.8589426    1.0226705   439061 
 1060000   0.68262777   -4.8600648   -4.8600648   -3.8361255 0.0060388587   -4.8600648    1.0239393   439061 
 1061000   0.68323782   -4.8617854   -4.8617854    -3.836931 0.0070010476   -4.8617854    1.0248544   439061 
 1062000   0.68311087   -4.8624491   -4.8624491   -3.8377852 0.0083122509   -4.8624491     1.024664   439061 
 1063000   0.68319157   -4.8630219   -4.8630219   -3.8382369 0.0039571931   -4.8630219     1.024785   439061 
 1064000   0.68299744   -4.8624311   -4.8624311   -3.8379373  0.012255772   -4.8624311    1.0244938   439061 
 1065000    0.6826252   -4.8632566   -4.8632566   -3.8393211  0.011677866   -4.8632566    1.0239355   439061 
 1066000   0.68260741   -4.8636777   -4.8636777   -3.8397689  0.010845983   -4.8636777    1.0239088   439061 
 1067000   0.68150143   -4.8638528   -4.8638528    -3.841603 0.0061939369   -4.8638528    1.0222498   439061 
 1068000   0.68225946   -4.8656493   -4.8656493   -3.8422624 0.0013333411   -4.8656493    1.0233869   439061 
 1069000   0.68310616   -4.8668924   -4.8668924   -3.8422355 0.0074297075   -4.8668924    1.0246569   439061 
 1070000   0.68202846   -4.8654455   -4.8654455   -3.8424051  0.011476528   -4.8654455    1.0230404   439061 
 1071000     0.680893   -4.8643612   -4.8643612    -3.843024   0.01041241   -4.8643612    1.0213372   439061 
 1072000   0.68136229   -4.8671615   -4.8671615   -3.8451204 0.0073506407   -4.8671615    1.0220411   439061 
 1073000   0.68165194   -4.8676741   -4.8676741   -3.8451985 0.0057276142   -4.8676741    1.0224756   439061 
 1074000   0.68211359   -4.8682562   -4.8682562   -3.8450881 0.0094355738   -4.8682562    1.0231681   439061 
 1075000   0.68341271    -4.869024    -4.869024   -3.8439073 0.0058334684    -4.869024    1.0251167   439061 
 1076000   0.68184405   -4.8681958   -4.8681958   -3.8454321 0.0094924769   -4.8681958    1.0227638   439061 
 1077000   0.68200475   -4.8692403   -4.8692403   -3.8462355  0.006368186   -4.8692403    1.0230048   439061 
 1078000   0.68153825   -4.8690321   -4.8690321   -3.8467271 0.0031727519   -4.8690321     1.022305   439061 
 1079000   0.68132731   -4.8694957   -4.8694957   -3.8475071 0.0064180477   -4.8694957    1.0219886   439061 
 1080000   0.68064767   -4.8681679   -4.8681679   -3.8471987 0.0087573117   -4.8681679    1.0209692   439061 
 1081000   0.68162817   -4.8696943   -4.8696943   -3.8472544 0.0051664273   -4.8696943    1.0224399   439061 
 1082000   0.68062827   -4.8689771   -4.8689771   -3.8480371 0.0034340636   -4.8689771    1.0209401   439061 
 1083000    0.6809394   -4.8700713   -4.8700713   -3.8486645 0.0053801503   -4.8700713    1.0214068   439061 
 1084000   0.68054688   -4.8697837   -4.8697837   -3.8489657 0.0061256481   -4.8697837     1.020818   439061 
 1085000   0.68050443   -4.8694823   -4.8694823    -3.848728 0.0090475266   -4.8694823    1.0207543   439061 
 1086000    0.6800284   -4.8692493   -4.8692493    -3.849209 0.0086370824   -4.8692493    1.0200403   439061 
 1087000   0.68139992   -4.8720702   -4.8720702   -3.8499726 0.0075703604   -4.8720702    1.0220975   439061 
 1088000   0.68027509   -4.8724092   -4.8724092   -3.8519988 0.0072927443   -4.8724092    1.0204103   439061 
 1089000   0.68053359   -4.8730927   -4.8730927   -3.8522946 0.0052274582   -4.8730927    1.0207981   439061 
 1090000   0.68010546   -4.8724895   -4.8724895   -3.8523336 0.0071298409   -4.8724895    1.0201559   439061 
 1091000   0.68041023   -4.8732119   -4.8732119   -3.8525989 0.0096474739   -4.8732119     1.020613   439061 
 1092000   0.68040714   -4.8738231   -4.8738231   -3.8532147 0.0075397656   -4.8738231    1.0206084   439061 
 1093000   0.68098253   -4.8754464   -4.8754464    -3.853975 0.0041951333   -4.8754464    1.0214715   439061 
 1094000   0.67958913   -4.8731653   -4.8731653   -3.8537839    0.0106109   -4.8731653    1.0193814   439061 
 1095000   0.68102429   -4.8760256   -4.8760256   -3.8544915 0.0043680138   -4.8760256    1.0215341   439061 
 1096000   0.67983721   -4.8744359   -4.8744359   -3.8546824 0.0057429366   -4.8744359    1.0197535   439061 
 1097000   0.68044038   -4.8753683   -4.8753683     -3.85471 0.0045924737   -4.8753683    1.0206582   439061 
 1098000   0.68091051   -4.8768755   -4.8768755    -3.855512 0.0037587943   -4.8768755    1.0213634   439061 
 1099000   0.67956358   -4.8758588   -4.8758588   -3.8565157 0.0030100767   -4.8758588    1.0193431   439061 
 1100000   0.67958511   -4.8757159   -4.8757159   -3.8563405 0.0038436325   -4.8757159    1.0193754   439061 
 1101000   0.68050548    -4.877962    -4.877962   -3.8572061 0.0038687719    -4.877962    1.0207559   439061 
 1102000   0.68044945   -4.8787448   -4.8787448    -3.858073  0.006948447   -4.8787448    1.0206718   439061 
 1103000   0.67920758   -4.8779222   -4.8779222   -3.8591131 0.0078868885   -4.8779222    1.0188091   439061 
 1104000   0.67980077   -4.8790535   -4.8790535   -3.8593547 0.0078754972   -4.8790535    1.0196988   439061 
 1105000   0.68123846   -4.8812977   -4.8812977   -3.8594424 0.0064560411   -4.8812977    1.0218554   439061 
 1106000    0.6802197   -4.8800744   -4.8800744   -3.8597472 0.0063967011   -4.8800744    1.0203272   439061 
 1107000   0.68032371   -4.8811634   -4.8811634   -3.8606801 0.0089583752   -4.8811634    1.0204832   439061 
 1108000   0.67933504   -4.8815253   -4.8815253   -3.8625251 0.0034496312   -4.8815253    1.0190002   439061 
 1109000   0.67808083   -4.8806283   -4.8806283   -3.8635094 0.0030416748   -4.8806283    1.0171189   439061 
 1110000   0.67745282   -4.8804984   -4.8804984   -3.8643215 0.0019653337   -4.8804984    1.0161769   439061 
 1111000   0.67734123   -4.8798322   -4.8798322   -3.8638227 0.0059089968   -4.8798322    1.0160095   439061 
 1112000   0.67834204    -4.883213    -4.883213   -3.8657023 0.0030791485    -4.883213    1.0175107   439061 
 1113000   0.67795304   -4.8830613   -4.8830613    -3.866134 0.0085888727   -4.8830613    1.0169272   439061 
 1114000   0.67859006   -4.8833409   -4.8833409   -3.8654581 0.0072023211   -4.8833409    1.0178828   439061 
 1115000   0.67696613   -4.8811305   -4.8811305   -3.8656837  0.012239082   -4.8811305    1.0154469   439061 
 1116000   0.67778692   -4.8826578   -4.8826578   -3.8659798  0.013595429   -4.8826578    1.0166781   439061 
 1117000   0.67859525    -4.883855    -4.883855   -3.8659644  0.013831261    -4.883855    1.0178906   439061 
 1118000   0.67829086    -4.884107    -4.884107    -3.866673 0.0066526149    -4.884107     1.017434   439061 
 1119000   0.67777444    -4.885509    -4.885509   -3.8688496 0.0046860952    -4.885509    1.0166594   439061 
 1120000   0.67758012   -4.8852581   -4.8852581   -3.8688902 0.0022883933   -4.8852581    1.0163679   439061 
 1121000   0.67856986   -4.8865458   -4.8865458   -3.8686933  0.004620996   -4.8865458    1.0178525   439061 
 1122000   0.67878167   -4.8872743   -4.8872743   -3.8691041 0.0066331784   -4.8872743    1.0181702   439061 
 1123000   0.67715514   -4.8855659   -4.8855659   -3.8698355 0.0049478318   -4.8855659    1.0157304   439061 
 1124000   0.67824175   -4.8880804   -4.8880804   -3.8707201  0.002813459   -4.8880804    1.0173603   439061 
 1125000   0.67737548   -4.8868204   -4.8868204   -3.8707595 0.0057393117   -4.8868204    1.0160609   439061 
 1126000   0.67725556   -4.8877234   -4.8877234   -3.8718424 0.0089358009   -4.8877234     1.015881   439061 
 1127000   0.67834349   -4.8889775   -4.8889775   -3.8714646 0.0056849744   -4.8889775    1.0175129   439061 
 1128000   0.67714312   -4.8883506   -4.8883506   -3.8726382 0.0086802984   -4.8883506    1.0157124   439061 
 1129000   0.67810051   -4.8904513   -4.8904513   -3.8733029 0.0061236921   -4.8904513    1.0171485   439061 
 1130000   0.67796934   -4.8899232   -4.8899232   -3.8729715 0.0062219808   -4.8899232    1.0169517   439061 
 1131000   0.67904493    -4.891794    -4.891794   -3.8732289 -0.00058339802    -4.891794    1.0185651   439061 
 1132000   0.67613292   -4.8883383   -4.8883383   -3.8741412  0.008074539   -4.8883383    1.0141971   439061 
 1133000   0.67706305    -4.889434    -4.889434   -3.8738417 0.0040902245    -4.889434    1.0155923   439061 
 1134000   0.67752219   -4.8909054   -4.8909054   -3.8746245 0.0076029627   -4.8909054     1.016281   439061 
 1135000   0.67815617   -4.8924156   -4.8924156   -3.8751837 -0.0010735127   -4.8924156    1.0172319   439061 
 1136000   0.67760338    -4.891676    -4.891676   -3.8752732  0.004661871    -4.891676    1.0164028   439061 
 1137000   0.67648285   -4.8907924   -4.8907924   -3.8760704 0.0047612191   -4.8907924     1.014722   439061 
 1138000   0.67704968   -4.8926192   -4.8926192    -3.877047 0.0052375075   -4.8926192    1.0155722   439061 
 1139000   0.67752608   -4.8932641   -4.8932641   -3.8769773  0.010760654   -4.8932641    1.0162868   439061 
 1140000   0.67709817   -4.8931962   -4.8931962   -3.8775512 0.0092443746   -4.8931962    1.0156449   439061 
 1141000   0.67699264   -4.8937337   -4.8937337   -3.8782471 0.0086114569   -4.8937337    1.0154867   439061 
 1142000   0.67710256   -4.8936551   -4.8936551   -3.8780036 0.0084802172   -4.8936551    1.0156515   439061 
 1143000     0.677138   -4.8943464   -4.8943464   -3.8786417 0.0053684868   -4.8943464    1.0157047   439061 
 1144000    0.6766292   -4.8944552   -4.8944552   -3.8795137  0.002747791   -4.8944552    1.0149415   439061 
 1145000   0.67718769   -4.8951886   -4.8951886   -3.8794094 0.0028674692   -4.8951886    1.0157792   439061 
 1146000   0.67517407   -4.8931064   -4.8931064   -3.8803476 0.00089615302   -4.8931064    1.0127588   439061 
 1147000   0.67550287   -4.8945403   -4.8945403   -3.8812883 -0.00064496546   -4.8945403     1.013252   439061 
 1148000    0.6764855     -4.89634     -4.89634   -3.8816141 -0.0015192493     -4.89634    1.0147259   439061 
 1149000   0.67611482   -4.8969563   -4.8969563   -3.8827864 0.0026674561   -4.8969563    1.0141699   439061 
 1150000   0.67672203    -4.897644    -4.897644   -3.8825633   0.00649234    -4.897644    1.0150807   439061 
 1151000   0.67677579   -4.8971268   -4.8971268   -3.8819654 0.0077149995   -4.8971268    1.0151614   439061 
 1152000   0.67737898   -4.8992768   -4.8992768   -3.8832107 0.0072774521   -4.8992768    1.0160662   439061 
 1153000   0.67670773   -4.8983188   -4.8983188   -3.8832595  0.013205749   -4.8983188    1.0150593   439061 
 1154000   0.67630906   -4.8993258   -4.8993258   -3.8848646 0.0063216438   -4.8993258    1.0144613   439061 
 1155000   0.67656371   -4.8989547   -4.8989547   -3.8841114 0.0083839002   -4.8989547    1.0148433   439061 
 1156000   0.67682251   -4.8997515   -4.8997515     -3.88452 0.0041179279   -4.8997515    1.0152314   439061 
 1157000   0.67556305   -4.8977114   -4.8977114   -3.8843691 0.0040254756   -4.8977114    1.0133423   439061 
 1158000   0.67623569   -4.8986446   -4.8986446   -3.8842933 0.0057659208   -4.8986446    1.0143512   439061 
 1159000   0.67587146   -4.8994152   -4.8994152   -3.8856103 -7.0588998e-05   -4.8994152    1.0138049   439061 
 1160000   0.67491885   -4.8985365   -4.8985365   -3.8861606 0.0014335106   -4.8985365     1.012376   439061 
 1161000   0.67451838   -4.8981978   -4.8981978   -3.8864225 0.0040860401   -4.8981978    1.0117753   439061 
 1162000   0.67453908   -4.8986554   -4.8986554   -3.8868491 0.0073422603   -4.8986554    1.0118063   439061 
 1163000   0.67620709   -4.9006158   -4.9006158   -3.8863075 0.0083082217   -4.9006158    1.0143083   439061 
 1164000   0.67699507   -4.9018044   -4.9018044   -3.8863141   0.01009192   -4.9018044    1.0154903   439061 
 1165000   0.67634304   -4.9021885   -4.9021885   -3.8876763  0.011165096   -4.9021885    1.0145122   439061 
 1166000   0.67545281   -4.9022257   -4.9022257   -3.8890488 0.0085408691   -4.9022257    1.0131769   439061 
 1167000   0.67589696   -4.9031877   -4.9031877   -3.8893446 0.0031231466   -4.9031877    1.0138431   439061 
 1168000    0.6753111    -4.902258    -4.902258   -3.8892936 0.0072853529    -4.902258    1.0129643   439061 
 1169000   0.67460691   -4.9029895   -4.9029895   -3.8910815 0.0030955571   -4.9029895    1.0119081   439061 
 1170000   0.67452456   -4.9034973   -4.9034973   -3.8917128 -0.00019445146   -4.9034973    1.0117845   439061 
 1171000   0.67301589   -4.9020003   -4.9020003   -3.8924787 -0.0020201174   -4.9020003    1.0095215   439061 
 1172000   0.67392033   -4.9026845   -4.9026845   -3.8918063 0.0039315001   -4.9026845    1.0108782   439061 
 1173000   0.67609546   -4.9061294   -4.9061294   -3.8919885 0.0013207569   -4.9061294    1.0141409   439061 
 1174000   0.67461957    -4.905276    -4.905276   -3.8933489 0.0036488072    -4.905276    1.0119271   439061 
 1175000   0.67346048   -4.9041527   -4.9041527   -3.8939642 0.0082867358   -4.9041527    1.0101884   439061 
 1176000   0.67489776   -4.9071131   -4.9071131   -3.8947688 0.0041796426   -4.9071131    1.0123443   439061 
 1177000   0.67419739   -4.9068883   -4.9068883   -3.8955945 0.0077708087   -4.9068883    1.0112938   439061 
 1178000   0.67470372   -4.9084517   -4.9084517   -3.8963985 0.0049972996   -4.9084517    1.0120533   439061 
 1179000   0.67412112   -4.9074192   -4.9074192   -3.8962398  0.013297379   -4.9074192    1.0111794   439061 
 1180000   0.67434201   -4.9084461   -4.9084461   -3.8969354 0.0092519883   -4.9084461    1.0115107   439061 
 1181000   0.67357542   -4.9093656   -4.9093656   -3.8990047   0.00818848   -4.9093656    1.0103608   439061 
 1182000   0.67228656   -4.9071256   -4.9071256    -3.898698  0.010601461   -4.9071256    1.0084275   439061 
 1183000   0.67487597   -4.9108401   -4.9108401   -3.8985284 0.0035352801   -4.9108401    1.0123116   439061 
 1184000   0.67452037   -4.9109629   -4.9109629   -3.8991846 0.0038268446   -4.9109629    1.0117783   439061 
 1185000   0.67338163   -4.9098123   -4.9098123   -3.8997422 0.0015267721   -4.9098123    1.0100701   439061 
 1186000     0.674015   -4.9102934   -4.9102934   -3.8992732 0.0064527678   -4.9102934    1.0110202   439061 
 1187000   0.67300759   -4.9088002   -4.9088002   -3.8992911 0.0065147401   -4.9088002    1.0095091   439061 
 1188000   0.67234215   -4.9091589   -4.9091589    -3.900648 0.0073615419   -4.9091589    1.0085109   439061 
 1189000   0.67329268   -4.9108085   -4.9108085   -3.9008718 0.0024245945   -4.9108085    1.0099367   439061 
 1190000   0.67302016   -4.9103998   -4.9103998   -3.9008719 0.0043802662   -4.9103998    1.0095279   439061 
 1191000   0.67428954     -4.91199     -4.91199    -3.900558 0.0051878813     -4.91199     1.011432   439061 
 1192000   0.67365748   -4.9103066   -4.9103066   -3.8998226 0.0068125696   -4.9103066    1.0104839   439061 
 1193000   0.67493589   -4.9119168   -4.9119168   -3.8995152 0.0030382548   -4.9119168    1.0124015   439061 
 1194000   0.67372964   -4.9106609   -4.9106609   -3.9000687 0.0046734653   -4.9106609    1.0105922   439061 
 1195000   0.67266167   -4.9099281   -4.9099281   -3.9009379  0.005805173   -4.9099281    1.0089902   439061 
 1196000     0.673395   -4.9118249   -4.9118249   -3.9017347 0.0050195769   -4.9118249    1.0100902   439061 
 1197000   0.67311725   -4.9121315   -4.9121315   -3.9024579 0.0043993199   -4.9121315    1.0096736   439061 
 1198000   0.67268348   -4.9120385   -4.9120385   -3.9030155 0.0032923073   -4.9120385    1.0090229   439061 
 1199000   0.67266618   -4.9124616   -4.9124616   -3.9034646 0.0033974023   -4.9124616     1.008997   439061 
 1200000    0.6723698   -4.9120791   -4.9120791   -3.9035267 0.0073662555   -4.9120791    1.0085524   439061 
 1201000   0.67306487   -4.9130825   -4.9130825   -3.9034875 0.0074532682   -4.9130825     1.009595   439061 
 1202000   0.67369401   -4.9139787   -4.9139787     -3.90344 0.0075754902   -4.9139787    1.0105387   439061 
 1203000   0.67314697   -4.9129916   -4.9129916   -3.9032734 0.0094263584   -4.9129916    1.0097182   439061 
 1204000   0.67311413   -4.9146856   -4.9146856   -3.9050167 0.0021230442   -4.9146856    1.0096689   439061 
 1205000   0.67369817   -4.9157041   -4.9157041   -3.9051591 0.0040914357   -4.9157041     1.010545   439061 
 1206000    0.6730617   -4.9151122   -4.9151122   -3.9055219 0.0047985817   -4.9151122    1.0095903   439061 
 1207000   0.67362469   -4.9169487   -4.9169487    -3.906514 0.0059495093   -4.9169487    1.0104347   439061 
 1208000   0.67348985   -4.9176121   -4.9176121   -3.9073796 0.0030816527   -4.9176121    1.0102325   439061 
 1209000   0.67202278   -4.9155427   -4.9155427   -3.9075109 0.0048084213   -4.9155427    1.0080319   439061 
 1210000   0.67233489   -4.9177723   -4.9177723   -3.9092723 0.00094847161   -4.9177723       1.0085   439061 
 1211000   0.67285965    -4.918739    -4.918739   -3.9094518 0.0049697939    -4.918739    1.0092872   439061 
 1212000    0.6718676   -4.9173055   -4.9173055   -3.9095064 0.0064651483   -4.9173055    1.0077991   439061 
 1213000   0.67275047   -4.9190168   -4.9190168   -3.9098934 0.0072834077   -4.9190168    1.0091234   439061 
 1214000   0.67240405   -4.9188066   -4.9188066   -3.9102028 0.0040583182   -4.9188066    1.0086038   439061 
 1215000   0.67299812   -4.9187329   -4.9187329    -3.909238 0.0039558397   -4.9187329    1.0094949   439061 
 1216000   0.67190134   -4.9173377   -4.9173377   -3.9094879 0.0059462909   -4.9173377    1.0078497   439061 
 1217000   0.67224016   -4.9194829   -4.9194829    -3.911125 0.0043229643   -4.9194829    1.0083579   439061 
 1218000   0.67161903   -4.9187518   -4.9187518   -3.9113255 0.00034480907   -4.9187518    1.0074263   439061 
 1219000    0.6721074   -4.9194048   -4.9194048    -3.911246 0.0021235857   -4.9194048    1.0081588   439061 
 1220000   0.67082516   -4.9191835   -4.9191835    -3.912948 0.0021972021   -4.9191835    1.0062354   439061 
 1221000   0.67128858   -4.9198641   -4.9198641   -3.9129335 -0.0002255463   -4.9198641    1.0069306   439061 
 1222000   0.67012135   -4.9178378   -4.9178378   -3.9126581 0.0035672682   -4.9178378    1.0051797   439061 
 1223000    0.6715633   -4.9215602   -4.9215602   -3.9142175 -0.0030582305   -4.9215602    1.0073427   439061 
 1224000   0.67086638   -4.9205017   -4.9205017   -3.9142044 0.0043950003   -4.9205017    1.0062973   439061 
 1225000   0.67191043   -4.9226786   -4.9226786   -3.9148152 0.00080862537   -4.9226786    1.0078633   439061 
 1226000   0.67197653   -4.9225917   -4.9225917   -3.9146292 0.0042050795   -4.9225917    1.0079625   439061 
 1227000   0.67134583   -4.9221242   -4.9221242   -3.9151077  0.007634777   -4.9221242    1.0070165   439061 
 1228000   0.67149986   -4.9226442   -4.9226442   -3.9153967 0.0037550744   -4.9226442    1.0072475   439061 
 1229000   0.67070608   -4.9216949   -4.9216949    -3.915638  0.012582648   -4.9216949    1.0060568   439061 
 1230000   0.67085056   -4.9223221   -4.9223221   -3.9160486 0.0054416848   -4.9223221    1.0062736   439061 
 1231000   0.67115141   -4.9239909   -4.9239909   -3.9172661 0.0021613658   -4.9239909    1.0067248   439061 
 1232000   0.67113423   -4.9241576   -4.9241576   -3.9174585 0.0039593673   -4.9241576    1.0066991   439061 
 1233000   0.67061166   -4.9229211   -4.9229211   -3.9170059 0.0062468521   -4.9229211    1.0059152   439061 
 1234000   0.67038016   -4.9232113   -4.9232113   -3.9176434  0.005711644   -4.9232113    1.0055679   439061 
 1235000   0.67030174   -4.9228759   -4.9228759   -3.9174256 0.0074004111   -4.9228759    1.0054503   439061 
 1236000   0.67208242   -4.9257442   -4.9257442   -3.9176228 -0.00037756618   -4.9257442    1.0081213   439061 
 1237000   0.66962672   -4.9223031   -4.9223031   -3.9178653  0.008179858   -4.9223031    1.0044378   439061 
 1238000   0.67096183   -4.9244917   -4.9244917   -3.9180513 0.0080629271   -4.9244917    1.0064405   439061 
 1239000   0.67032251   -4.9248134   -4.9248134    -3.919332  0.004391156   -4.9248134    1.0054815   439061 
 1240000    0.6705121   -4.9250992   -4.9250992   -3.9193334 0.0054847357   -4.9250992    1.0057659   439061 
 1241000    0.6698152   -4.9249008   -4.9249008   -3.9201803 0.0066197479   -4.9249008    1.0047205   439061 
 1242000   0.66865429    -4.924581    -4.924581   -3.9216019 0.0081914362    -4.924581    1.0029791   439061 
 1243000   0.67077243   -4.9277014   -4.9277014   -3.9215451 0.0049543816   -4.9277014    1.0061563   439061 
 1244000   0.66984151   -4.9273009   -4.9273009    -3.922541 0.0035214593   -4.9273009      1.00476   439061 
 1245000   0.67049949   -4.9272289   -4.9272289   -3.9214819 0.0059585904   -4.9272289    1.0057469   439061 
 1246000   0.66948653   -4.9271118   -4.9271118   -3.9228843 0.0077955634   -4.9271118    1.0042275   439061 
 1247000   0.66986321   -4.9287518   -4.9287518   -3.9239593 0.0076090487   -4.9287518    1.0047925   439061 
 1248000   0.67096817   -4.9297981   -4.9297981   -3.9233482 0.0039539875   -4.9297981      1.00645   439061 
 1249000   0.66980396   -4.9289726   -4.9289726    -3.924269 0.0015311552   -4.9289726    1.0047037   439061 
 1250000   0.66827207   -4.9276028   -4.9276028    -3.925197  0.011314549   -4.9276028    1.0024058   439061 
 1251000   0.67036249    -4.929444    -4.929444   -3.9239025 0.0085500213    -4.929444    1.0055414   439061 
 1252000   0.66999438   -4.9292398   -4.9292398   -3.9242506 0.0059963719   -4.9292398    1.0049893   439061 
 1253000   0.67077242   -4.9298554   -4.9298554    -3.923699 0.0060628082   -4.9298554    1.0061563   439061 
 1254000   0.67023474   -4.9295076   -4.9295076   -3.9241578 0.0017297628   -4.9295076    1.0053498   439061 
 1255000   0.66938511   -4.9280772   -4.9280772   -3.9240018 0.0042315608   -4.9280772    1.0040754   439061 
 1256000   0.66922458   -4.9290276   -4.9290276    -3.925193 0.0043078607   -4.9290276    1.0038346   439061 
 1257000   0.66850569   -4.9291212   -4.9291212   -3.9263649 -0.00071848643   -4.9291212    1.0027563   439061 
 1258000   0.66959018   -4.9293186   -4.9293186   -3.9249356 -0.0002843275   -4.9293186     1.004383   439061 
 1259000   0.67003397   -4.9305266   -4.9305266    -3.925478 0.00026636025   -4.9305266    1.0050487   439061 
 1260000   0.66945056   -4.9301925   -4.9301925    -3.926019 0.0046153762   -4.9301925    1.0041736   439061 
 1261000   0.66848121   -4.9289918   -4.9289918   -3.9262722 0.0049110348   -4.9289918    1.0027195   439061 
 1262000   0.67025125    -4.931466    -4.931466   -3.9260915 0.0025477167    -4.931466    1.0053746   439061 
 1263000   0.66855944   -4.9303671   -4.9303671   -3.9275302 0.0078960952   -4.9303671    1.0028369   439061 
 1264000   0.66972082   -4.9327487   -4.9327487   -3.9281697 0.0081348454   -4.9327487    1.0045789   439061 
 1265000   0.66899667   -4.9326428   -4.9326428     -3.92915 0.0081563485   -4.9326428    1.0034927   439061 
 1266000   0.66857095   -4.9328484   -4.9328484   -3.9299942 0.0068365141   -4.9328484    1.0028541   439061 
 1267000   0.66931097   -4.9331061   -4.9331061    -3.929142 0.0090088953   -4.9331061    1.0039642   439061 
 1268000   0.66951454   -4.9348356   -4.9348356   -3.9305661 0.0064700158   -4.9348356    1.0042695   439061 
 1269000   0.66872349   -4.9335521   -4.9335521   -3.9304691  0.007152022   -4.9335521     1.003083   439061 
 1270000   0.66861246   -4.9337258   -4.9337258   -3.9308094 0.0081190852   -4.9337258    1.0029164   439061 
 1271000   0.66889576    -4.934897    -4.934897   -3.9315556 0.0028952467    -4.934897    1.0033414   439061 
 1272000    0.6688114   -4.9342618   -4.9342618    -3.931047 0.00046455999   -4.9342618    1.0032148   439061 
 1273000   0.66969374   -4.9348288   -4.9348288   -3.9302904 -0.00037456414   -4.9348288    1.0045383   439061 
 1274000   0.66860028   -4.9328511   -4.9328511    -3.929953 0.0052706024   -4.9328511    1.0028981   439061 
 1275000   0.66899508   -4.9346732   -4.9346732   -3.9311829  0.001108231   -4.9346732    1.0034903   439061 
 1276000    0.6692535   -4.9354607   -4.9354607   -3.9315827 0.0010700715   -4.9354607     1.003878   439061 
 1277000   0.66895537   -4.9349998   -4.9349998    -3.931569 -0.00054623315   -4.9349998    1.0034308   439061 
 1278000   0.66871333   -4.9353883   -4.9353883   -3.9323206 0.00083544184   -4.9353883    1.0030677   439061 
 1279000    0.6683206   -4.9358624   -4.9358624   -3.9333838 0.0076144212   -4.9358624    1.0024786   439061 
 1280000   0.66744152   -4.9353236   -4.9353236   -3.9341636  0.006900181   -4.9353236      1.00116   439061 
 1281000   0.66888545   -4.9376032   -4.9376032   -3.9342773 0.0069886801   -4.9376032    1.0033259   439061 
 1282000   0.66793985    -4.938206    -4.938206   -3.9362985 0.0087298185    -4.938206    1.0019075   439061 
 1283000   0.66679891   -4.9373884   -4.9373884   -3.9371924 0.0053876843   -4.9373884    1.0001961   439061 
 1284000   0.66788708    -4.939066    -4.939066   -3.9372376  0.003574637    -4.939066    1.0018283   439061 
 1285000   0.66834682   -4.9394414   -4.9394414   -3.9369234 0.0014497177   -4.9394414    1.0025179   439061 
 1286000   0.66900131   -4.9400183   -4.9400183   -3.9365186 0.0044560036   -4.9400183    1.0034997   439061 
 1287000   0.66884413   -4.9399376   -4.9399376   -3.9366737  0.005438076   -4.9399376    1.0032639   439061 
 1288000    0.6693095    -4.940436    -4.940436    -3.936474 0.0031977206    -4.940436     1.003962   439061 
 1289000   0.66876645    -4.940214    -4.940214   -3.9370666 0.0036031006    -4.940214    1.0031474   439061 
 1290000   0.66794669   -4.9399337   -4.9399337    -3.938016 0.0076406929   -4.9399337    1.0019178   439061 
 1291000   0.66870742   -4.9401979   -4.9401979   -3.9371391 0.0054083789   -4.9401979    1.0030589   439061 
 1292000   0.66827409   -4.9400848   -4.9400848   -3.9376759 0.0015232579   -4.9400848    1.0024088   439061 
 1293000   0.66696239   -4.9387671   -4.9387671   -3.9383258 0.00069000791   -4.9387671    1.0004413   439061 
 1294000    0.6661666   -4.9382131   -4.9382131   -3.9389654 0.0011974095   -4.9382131   0.99924762   439061 
 1295000   0.66689783   -4.9401357   -4.9401357   -3.9397912 0.0020951907   -4.9401357    1.0003445   439061 
 1296000   0.66590976   -4.9377979   -4.9377979   -3.9389356 0.0078765907   -4.9377979   0.99886237   439061 
 1297000   0.66727273    -4.940145    -4.940145   -3.9392381 0.0034407474    -4.940145    1.0009068   439061 
 1298000   0.66738519    -4.940589    -4.940589   -3.9395135 0.0048511377    -4.940589    1.0010755   439061 
 1299000   0.66719619   -4.9410222   -4.9410222   -3.9402302 0.0057655577   -4.9410222     1.000792   439061 
 1300000   0.66739568   -4.9421265   -4.9421265   -3.9410353 0.0023848207   -4.9421265    1.0010912   439061 
 1301000   0.66788722   -4.9426795   -4.9426795   -3.9408509 0.0046062134   -4.9426795    1.0018285   439061 
 1302000   0.66756182   -4.9415974   -4.9415974    -3.940257  0.005832706   -4.9415974    1.0013405   439061 
 1303000   0.66821332   -4.9438531   -4.9438531   -3.9415354 0.00014701012   -4.9438531    1.0023177   439061 
 1304000   0.66756028   -4.9424109   -4.9424109   -3.9410727 0.0036953058   -4.9424109    1.0013381   439061 
 1305000   0.66682486   -4.9416774   -4.9416774   -3.9414424 0.0034609244   -4.9416774     1.000235   439061 
 1306000   0.66799834   -4.9427087   -4.9427087   -3.9407134 0.0064845881   -4.9427087    1.0019952   439061 
 1307000    0.6685266   -4.9441861   -4.9441861   -3.9413984 0.00031450365   -4.9441861    1.0027876   439061 
 1308000    0.6672579   -4.9422487   -4.9422487   -3.9413641 0.0079061672   -4.9422487    1.0008846   439061 
 1309000   0.66711027   -4.9420004   -4.9420004   -3.9413373 0.0032074568   -4.9420004    1.0006631   439061 
 1310000   0.66724539   -4.9426116   -4.9426116   -3.9417458 0.0059606791   -4.9426116    1.0008658   439061 
 1311000   0.66657671    -4.942947    -4.942947   -3.9430842 0.0016371009    -4.942947    0.9998628   439061 
 1312000   0.66702072   -4.9432477   -4.9432477   -3.9427189  0.001038873   -4.9432477    1.0005288   439061 
 1313000   0.66501958   -4.9409309   -4.9409309   -3.9434038 0.0062886516   -4.9409309    0.9975271   439061 
 1314000   0.66707186   -4.9439241   -4.9439241   -3.9433186 -0.0006612419   -4.9439241    1.0006055   439061 
 1315000    0.6677059   -4.9454043   -4.9454043   -3.9438477 0.0034508175   -4.9454043    1.0015566   439061 
 1316000   0.66700431   -4.9440584   -4.9440584   -3.9435542 0.0014711383   -4.9440584    1.0005042   439061 
 1317000    0.6674547   -4.9448176   -4.9448176   -3.9436378 0.0040973782   -4.9448176    1.0011798   439061 
 1318000   0.66762448   -4.9456192   -4.9456192   -3.9441848 0.0052007698   -4.9456192    1.0014344   439061 
 1319000   0.66698197   -4.9459958   -4.9459958   -3.9455251 0.00024768504   -4.9459958    1.0004707   439061 
 1320000   0.66568002   -4.9438409   -4.9438409   -3.9453232 0.0090796622   -4.9438409   0.99851776   439061 
 1321000   0.66617314   -4.9455943   -4.9455943   -3.9463369 0.0043359469   -4.9455943   0.99925743   439061 
 1322000   0.66575789   -4.9456628   -4.9456628   -3.9470282 0.0014250911   -4.9456628   0.99863456   439061 
 1323000   0.66597503   -4.9465013   -4.9465013   -3.9475411 0.0013440881   -4.9465013   0.99896027   439061 
 1324000   0.66611706   -4.9452598   -4.9452598   -3.9460865 0.0050008115   -4.9452598   0.99917331   439061 
 1325000   0.66634165   -4.9459176   -4.9459176   -3.9464074 0.0051670529   -4.9459176    0.9995102   439061 
 1326000   0.66671501   -4.9469677   -4.9469677   -3.9468975 0.0019307963   -4.9469677    1.0000702   439061 
 1327000   0.66675536    -4.947237    -4.947237   -3.9471063 0.0067498879    -4.947237    1.0001308   439061 
 1328000   0.66580296   -4.9465846   -4.9465846   -3.9478824 0.0053290577   -4.9465846   0.99870217   439061 
 1329000   0.66679882   -4.9483585   -4.9483585   -3.9481625 0.0037456442   -4.9483585     1.000196   439061 
 1330000   0.66692463   -4.9491345   -4.9491345   -3.9487498 0.0034059063   -4.9491345    1.0003847   439061 
 1331000   0.66578384   -4.9485895   -4.9485895   -3.9499161 6.4058327e-05   -4.9485895   0.99867349   439061 
 1332000   0.66640895   -4.9487973   -4.9487973   -3.9491861 0.0050779608   -4.9487973   0.99961116   439061 
 1333000   0.66613862   -4.9486344   -4.9486344   -3.9494287 0.00094803538   -4.9486344   0.99920566   439061 
 1334000   0.66716201   -4.9503751   -4.9503751   -3.9496344 0.0059421172   -4.9503751    1.0007407   439061 
 1335000    0.6660258   -4.9488807   -4.9488807   -3.9498443 0.0082272715   -4.9488807   0.99903642   439061 
 1336000   0.66592743   -4.9494055   -4.9494055   -3.9505166 0.0055711841   -4.9494055   0.99888886   439061 
 1337000   0.66481115   -4.9476173   -4.9476173   -3.9504029 0.0019375923   -4.9476173   0.99721445   439061 
 1338000   0.66510226   -4.9497635   -4.9497635   -3.9521124 -0.00050471205   -4.9497635   0.99765111   439061 
 1339000   0.66673491    -4.952328    -4.952328   -3.9522279 -0.00055804099    -4.952328    1.0001001   439061 
 1340000   0.66586307   -4.9492181   -4.9492181   -3.9504258 0.0034565392   -4.9492181   0.99879233   439061 
 1341000   0.66592109   -4.9502417   -4.9502417   -3.9513623 0.0043522019   -4.9502417   0.99887936   439061 
 1342000   0.66513128   -4.9490792   -4.9490792   -3.9513846 0.0058350759   -4.9490792   0.99769464   439061 
 1343000   0.66693221     -4.95148     -4.95148   -3.9510839 0.0065271707     -4.95148     1.000396   439061 
 1344000   0.66692879   -4.9522922   -4.9522922   -3.9519013 0.0041033218   -4.9522922    1.0003909   439061 
 1345000   0.66646869   -4.9506307   -4.9506307     -3.95093  0.006384531   -4.9506307   0.99970076   439061 
 1346000    0.6658066   -4.9505303   -4.9505303   -3.9518226 0.0040412037   -4.9505303   0.99870763   439061 
 1347000   0.66459568    -4.950231    -4.950231   -3.9533398 0.0031162519    -4.950231   0.99689125   439061 
 1348000   0.66575344    -4.952777    -4.952777   -3.9541492 0.00020662432    -4.952777   0.99862789   439061 
 1349000   0.66518073   -4.9513609   -4.9513609   -3.9535921 0.0028283815   -4.9513609   0.99776882   439061 
 1350000   0.66513307   -4.9511501   -4.9511501   -3.9534528 0.0035007361   -4.9511501   0.99769733   439061 
 1351000   0.66513497   -4.9511443   -4.9511443   -3.9534441  0.005837223   -4.9511443   0.99770018   439061 
 1352000   0.66518632   -4.9515606   -4.9515606   -3.9537834 0.0029937703   -4.9515606    0.9977772   439061 
 1353000   0.66500451   -4.9508282   -4.9508282   -3.9533237 0.0088060691   -4.9508282   0.99750449   439061 
 1354000   0.66414352   -4.9514625   -4.9514625   -3.9552495 0.0084090077   -4.9514625   0.99621301   439061 
 1355000    0.6649983   -4.9532325   -4.9532325   -3.9557373 0.0015068879   -4.9532325   0.99749517   439061 
 1356000   0.66426078   -4.9520669   -4.9520669    -3.955678 0.0050594641   -4.9520669   0.99638891   439061 
 1357000   0.66559032   -4.9537711   -4.9537711   -3.9553879 0.0040214436   -4.9537711   0.99838321   439061 
 1358000   0.66403919   -4.9523328   -4.9523328   -3.9562762  0.010213735   -4.9523328   0.99605651   439061 
 1359000   0.66453953   -4.9548514   -4.9548514   -3.9580444 0.0055141098   -4.9548514   0.99680702   439061 
 1360000   0.66328948   -4.9535426   -4.9535426   -3.9586106 0.0032000592   -4.9535426   0.99493195   439061 
 1361000   0.66413302   -4.9547404   -4.9547404   -3.9585432  0.010669174   -4.9547404   0.99619727   439061 
 1362000   0.66587131   -4.9575852   -4.9575852   -3.9587805  0.004996714   -4.9575852   0.99880469   439061 
 1363000   0.66589383   -4.9575772   -4.9575772   -3.9587388 0.0071372528   -4.9575772   0.99883847   439061 
 1364000   0.66517197   -4.9566669   -4.9566669   -3.9589112 0.0072320714   -4.9566669   0.99775568   439061 
 1365000   0.66427631   -4.9559235   -4.9559235   -3.9595113 0.0033916661   -4.9559235    0.9964122   439061 
 1366000   0.66338166   -4.9545937   -4.9545937   -3.9595235 0.0082287466   -4.9545937   0.99507022   439061 
 1367000   0.66397924   -4.9560591   -4.9560591   -3.9600925 0.0045216838   -4.9560591    0.9959666   439061 
 1368000   0.66393008   -4.9568377   -4.9568377   -3.9609449 -0.0017216475   -4.9568377   0.99589285   439061 
 1369000   0.66343851   -4.9556505   -4.9556505    -3.960495 0.0014898884   -4.9556505   0.99515551   439061 
 1370000   0.66365775   -4.9563404   -4.9563404   -3.9608561 0.0022770063   -4.9563404   0.99548436   439061 
 1371000   0.66411282   -4.9579922   -4.9579922   -3.9618253 -0.00044165361   -4.9579922   0.99616696   439061 
 1372000   0.66307751   -4.9566848   -4.9566848   -3.9620708 0.0037454229   -4.9566848     0.994614   439061 
 1373000   0.66310487    -4.956748    -4.956748    -3.962093 0.0091681469    -4.956748   0.99465503   439061 
 1374000   0.66357261   -4.9573759   -4.9573759   -3.9620193 0.0086922163   -4.9573759   0.99535665   439061 
 1375000   0.66470272   -4.9579955   -4.9579955   -3.9609436   0.00763117   -4.9579955   0.99705181   439061 
 1376000   0.66631542   -4.9604795   -4.9604795   -3.9610086 0.0074354825   -4.9604795   0.99947085   439061 
 1377000   0.66366332    -4.957184    -4.957184   -3.9616913  0.012362776    -4.957184   0.99549271   439061 
 1378000   0.66380769   -4.9590092   -4.9590092   -3.9632999 0.0025296475   -4.9590092   0.99570926   439061 
 1379000   0.66182282   -4.9573086   -4.9573086   -3.9645766 0.0016540543   -4.9573086   0.99273197   439061 
 1380000   0.66338717   -4.9589027   -4.9589027   -3.9638242 -0.0035001832   -4.9589027   0.99507849   439061 
 1381000   0.66366643   -4.9588236   -4.9588236   -3.9633262 0.00083778571   -4.9588236   0.99549737   439061 
 1382000   0.66399155   -4.9590616   -4.9590616   -3.9630765 0.0014595619   -4.9590616   0.99598506   439061 
 1383000    0.6644538   -4.9592773   -4.9592773   -3.9625989 0.0049988412   -4.9592773   0.99667843   439061 
 1384000   0.66311834    -4.957677    -4.957677   -3.9630017 0.0069083434    -4.957677   0.99467524   439061 
 1385000   0.66501242   -4.9593061   -4.9593061   -3.9617897 0.0053186792   -4.9593061   0.99751636   439061 
 1386000   0.66422606   -4.9596206   -4.9596206   -3.9632838  0.010523937   -4.9596206   0.99633682   439061 
 1387000   0.66455451   -4.9596557   -4.9596557   -3.9628262 0.0061803255   -4.9596557   0.99682949   439061 
 1388000    0.6635344   -4.9601238   -4.9601238   -3.9648244 0.0023042915   -4.9601238   0.99529934   439061 
 1389000   0.66352953   -4.9591658   -4.9591658   -3.9638738 0.0061020073   -4.9591658   0.99529203   439061 
 1390000   0.66301072   -4.9584601   -4.9584601   -3.9639463 0.0060607367   -4.9584601   0.99451382   439061 
 1391000   0.66348695   -4.9589821   -4.9589821   -3.9637539 0.0013989043   -4.9589821   0.99522816   439061 
 1392000   0.66243069   -4.9581995   -4.9581995   -3.9645557 0.0013593547   -4.9581995   0.99364377   439061 
 1393000   0.66332146   -4.9612451   -4.9612451   -3.9662651 -0.0058739471   -4.9612451   0.99497993   439061 
 1394000   0.66239824   -4.9609661   -4.9609661    -3.967371 0.0020127445   -4.9609661    0.9935951   439061 
 1395000   0.66257201   -4.9603288   -4.9603288    -3.966473 0.0060391611   -4.9603288   0.99385574   439061 
 1396000   0.66398994   -4.9630451   -4.9630451   -3.9670624 0.0073485065   -4.9630451   0.99598264   439061 
 1397000   0.66445707    -4.962726    -4.962726   -3.9660427  0.010980093    -4.962726   0.99668333   439061 
 1398000   0.66394933    -4.962327    -4.962327   -3.9664053 0.0091325413    -4.962327   0.99592173   439061 
 1399000   0.66443684   -4.9642061   -4.9642061   -3.9675531 0.0046503478   -4.9642061   0.99665298   439061 
 1400000   0.66455429   -4.9651761   -4.9651761   -3.9683469  0.006365191   -4.9651761   0.99682917   439061 
 1401000   0.66239199   -4.9606581   -4.9606581   -3.9670724  0.012282117   -4.9606581   0.99358572   439061 
 1402000   0.66328001   -4.9616419   -4.9616419   -3.9667242 0.0024798987   -4.9616419   0.99491775   439061 
 1403000   0.66237924   -4.9606532   -4.9606532   -3.9670866  0.001414193   -4.9606532   0.99356659   439061 
 1404000   0.66141683   -4.9594778   -4.9594778   -3.9673548 0.0010264345   -4.9594778   0.99212299   439061 
 1405000   0.66231441   -4.9610782   -4.9610782   -3.9676089 -0.00070449088   -4.9610782   0.99346935   439061 
 1406000   0.66295866   -4.9608744   -4.9608744   -3.9664386 -0.0014771869   -4.9608744   0.99443572   439061 
 1407000    0.6636306   -4.9619293   -4.9619293   -3.9664856 -0.0026300146   -4.9619293   0.99544363   439061 
 1408000   0.66263894   -4.9602781   -4.9602781   -3.9663219 0.0016773167   -4.9602781   0.99395614   439061 
 1409000   0.66360179   -4.9621571   -4.9621571   -3.9667567 0.0027437239   -4.9621571   0.99540041   439061 
 1410000    0.6641865   -4.9637139   -4.9637139   -3.9674364 0.0056753801   -4.9637139   0.99627748   439061 
 1411000   0.66550784   -4.9643771   -4.9643771   -3.9661176 0.0058400174   -4.9643771   0.99825949   439061 
 1412000   0.66451692   -4.9641636   -4.9641636   -3.9673905 0.0052517752   -4.9641636    0.9967731   439061 
 1413000   0.66457846   -4.9650461   -4.9650461   -3.9681807 0.0050724734   -4.9650461   0.99686542   439061 
 1414000   0.66287469   -4.9619743   -4.9619743   -3.9676645 0.0095182489   -4.9619743   0.99430976   439061 
 1415000   0.66451325   -4.9646951   -4.9646951   -3.9679275 0.0041030164   -4.9646951   0.99676761   439061 
 1416000   0.66234122   -4.9617782   -4.9617782   -3.9682686 0.0043620459   -4.9617782   0.99350957   439061 
 1417000   0.66361351     -4.96423     -4.96423    -3.968812 0.0014660581     -4.96423     0.995418   439061 
 1418000   0.66201883   -4.9613019   -4.9613019   -3.9682759 0.0036001038   -4.9613019   0.99302599   439061 
 1419000   0.66289473   -4.9632775   -4.9632775   -3.9689377 -0.0016901054   -4.9632775   0.99433983   439061 
 1420000   0.66375523   -4.9638392   -4.9638392   -3.9682086 0.0015846304   -4.9638392   0.99563057   439061 
 1421000     0.663021   -4.9622712   -4.9622712    -3.967742  0.004470121   -4.9622712   0.99452923   439061 
 1422000    0.6639629   -4.9655244   -4.9655244   -3.9695823  0.005398946   -4.9655244   0.99594208   439061 
 1423000   0.66359413   -4.9652547   -4.9652547   -3.9698657 0.0054929894   -4.9652547   0.99538892   439061 
 1424000   0.66358987   -4.9673326   -4.9673326   -3.9719501 0.0011644496   -4.9673326   0.99538254   439061 
 1425000   0.66281115   -4.9661226   -4.9661226   -3.9719081 0.0025352199   -4.9661226   0.99421446   439061 
 1426000   0.66278264   -4.9668099   -4.9668099   -3.9726382  0.004564297   -4.9668099    0.9941717   439061 
 1427000   0.66332426    -4.967432    -4.967432   -3.9724479 0.0050082342    -4.967432   0.99498413   439061 
 1428000   0.66398105   -4.9677035   -4.9677035   -3.9717342 0.0045510659   -4.9677035    0.9959693   439061 
 1429000   0.66281418   -4.9668601   -4.9668601   -3.9726411 0.0079613539   -4.9668601     0.994219   439061 
 1430000   0.66324309   -4.9682062   -4.9682062   -3.9733438 0.0040733213   -4.9682062   0.99486237   439061 
 1431000   0.66225611   -4.9671798   -4.9671798   -3.9737979  0.003535338   -4.9671798   0.99338191   439061 
 1432000   0.66163238   -4.9646175   -4.9646175   -3.9721712 0.0049079011   -4.9646175   0.99244631   439061 
 1433000    0.6625946    -4.967306    -4.967306   -3.9734164 0.00082258219    -4.967306   0.99388964   439061 
 1434000   0.66263305   -4.9673795   -4.9673795   -3.9734322 0.0029449559   -4.9673795   0.99394732   439061 
 1435000   0.66175621   -4.9668194   -4.9668194   -3.9741874 0.0028865906   -4.9668194   0.99263205   439061 
 1436000   0.66271488   -4.9690685   -4.9690685   -3.9749984 -0.0021953904   -4.9690685   0.99407005   439061 
 1437000   0.66269403   -4.9690433   -4.9690433   -3.9750045 0.00042419653   -4.9690433   0.99403879   439061 
 1438000    0.6616736   -4.9672854   -4.9672854   -3.9747773 0.0099382011   -4.9672854   0.99250814   439061 
 1439000   0.66340252    -4.969124    -4.969124   -3.9740225 0.0079871349    -4.969124   0.99510152   439061 
 1440000   0.66332161   -4.9694609   -4.9694609   -3.9744807 0.0075025556   -4.9694609   0.99498014   439061 
 1441000   0.66268663   -4.9696195   -4.9696195   -3.9755918  0.004772206   -4.9696195   0.99402768   439061 
 1442000   0.66358532   -4.9704731   -4.9704731   -3.9750973 0.00011768325   -4.9704731   0.99537571   439061 
 1443000   0.66173159   -4.9687051   -4.9687051     -3.97611 0.0012732578   -4.9687051   0.99259512   439061 
 1444000   0.66196455   -4.9679472   -4.9679472   -3.9750026 0.0023999939   -4.9679472   0.99294457   439061 
 1445000   0.66203412   -4.9673714   -4.9673714   -3.9743225 0.0034791065   -4.9673714   0.99304891   439061 
 1446000   0.66137364   -4.9669581   -4.9669581   -3.9748999 0.0039750342   -4.9669581    0.9920582   439061 
 1447000   0.66218236   -4.9679172   -4.9679172   -3.9746459 3.1278222e-05   -4.9679172   0.99327128   439061 
 1448000   0.66236061   -4.9694557   -4.9694557    -3.975917 -0.00025690474   -4.9694557   0.99353865   439061 
 1449000   0.66165126   -4.9683647   -4.9683647   -3.9758901 0.0014854221   -4.9683647   0.99247463   439061 
 1450000   0.66266907   -4.9695243   -4.9695243    -3.975523 0.0038715284   -4.9695243   0.99400134   439061 
 1451000   0.66140205   -4.9683943   -4.9683943   -3.9762935 0.0068662468   -4.9683943   0.99210082   439061 
 1452000   0.66217707   -4.9698728   -4.9698728   -3.9766095 0.0049045101   -4.9698728   0.99326334   439061 
 1453000   0.66296308   -4.9703486   -4.9703486   -3.9759063 0.0055832028   -4.9703486   0.99444236   439061 
 1454000   0.66101865   -4.9695074   -4.9695074   -3.9779817 0.0085127816   -4.9695074   0.99152572   439061 
 1455000   0.66136086   -4.9696397   -4.9696397   -3.9776006 0.0022972396   -4.9696397   0.99203904   439061 
 1456000   0.66235595   -4.9706144   -4.9706144   -3.9770827 0.0038795434   -4.9706144   0.99353166   439061 
 1457000   0.66201327   -4.9716132   -4.9716132   -3.9785956 0.0050225408   -4.9716132   0.99301764   439061 
 1458000   0.66278411   -4.9726659   -4.9726659    -3.978492 0.0049086855   -4.9726659    0.9941739   439061 
 1459000   0.66066628   -4.9695314   -4.9695314   -3.9785342 0.0060808291   -4.9695314   0.99099717   439061 
 1460000   0.66011783   -4.9698817   -4.9698817   -3.9797072 0.0046207898   -4.9698817   0.99017448   439061 
 1461000   0.66146799   -4.9705966   -4.9705966   -3.9783969  0.003581172   -4.9705966   0.99219973   439061 
 1462000   0.66246757   -4.9713352   -4.9713352   -3.9776361 0.0070431797   -4.9713352   0.99369909   439061 
 1463000   0.66193555   -4.9707719   -4.9707719   -3.9778708  0.010256388   -4.9707719   0.99290107   439061 
 1464000   0.66238193   -4.9706518   -4.9706518   -3.9770812 0.0055933493   -4.9706518   0.99357063   439061 
 1465000   0.66213416   -4.9708604   -4.9708604   -3.9776615  0.002099925   -4.9708604   0.99319898   439061 
 1466000   0.66222738   -4.9717093   -4.9717093   -3.9783705 0.0019272203   -4.9717093    0.9933388   439061 
 1467000   0.66166338   -4.9700174   -4.9700174   -3.9775246 0.0075389595   -4.9700174   0.99249281   439061 
 1468000   0.66186626   -4.9707683   -4.9707683   -3.9779712 0.0012648847   -4.9707683   0.99279712   439061 
 1469000   0.66125391   -4.9699151   -4.9699151   -3.9780365 0.0029600889   -4.9699151    0.9918786   439061 
 1470000   0.66126259   -4.9707493   -4.9707493   -3.9788577 -0.0025617472   -4.9707493   0.99189162   439061 
 1471000   0.66072099   -4.9716726   -4.9716726   -3.9805934 -0.0044233501   -4.9716726   0.99107923   439061 
 1472000   0.66091611   -4.9716806   -4.9716806   -3.9803087 0.0035783878   -4.9716806   0.99137191   439061 
 1473000   0.66021631   -4.9707628   -4.9707628   -3.9804406 0.0070476976   -4.9707628   0.99032221   439061 
 1474000   0.66058761   -4.9722476   -4.9722476   -3.9813685 0.0063343043   -4.9722476   0.99087915   439061 
 1475000   0.66128598   -4.9734489   -4.9734489   -3.9815222 0.0045292216   -4.9734489   0.99192672   439061 
 1476000   0.66088514   -4.9736087   -4.9736087   -3.9822833 0.0070424663   -4.9736087   0.99132546   439061 
 1477000   0.66208359   -4.9750513   -4.9750513   -3.9819282  0.010806296   -4.9750513   0.99312313   439061 
 1478000   0.66180966   -4.9745689   -4.9745689   -3.9818567  0.013982128   -4.9745689   0.99271223   439061 
 1479000   0.66222938   -4.9750669   -4.9750669   -3.9817251 0.0088462792   -4.9750669   0.99334181   439061 
 1480000   0.66156632   -4.9733898   -4.9733898   -3.9810425 0.0086577759   -4.9733898   0.99234722   439061 
 1481000   0.66147031   -4.9744269   -4.9744269   -3.9822237 0.0035797383   -4.9744269    0.9922032   439061 
 1482000   0.66059145    -4.974375    -4.974375   -3.9834901 0.0024209351    -4.974375   0.99088491   439061 
 1483000   0.66134651   -4.9744977   -4.9744977   -3.9824802 0.0011182375   -4.9744977   0.99201751   439061 
 1484000   0.65977022   -4.9721717   -4.9721717   -3.9825186 0.0019685937   -4.9721717   0.98965308   439061 
 1485000   0.66096615   -4.9726485   -4.9726485   -3.9812015 0.0040119126   -4.9726485   0.99144697   439061 
 1486000   0.66172423   -4.9740457   -4.9740457   -3.9814617 0.00031676915   -4.9740457   0.99258409   439061 
 1487000   0.66155709   -4.9716734   -4.9716734   -3.9793401  0.004583232   -4.9716734   0.99233338   439061 
 1488000   0.66149357   -4.9734167   -4.9734167   -3.9811786 -0.00037154679   -4.9734167    0.9922381   439061 
 1489000   0.66078056   -4.9730398   -4.9730398   -3.9818713 -0.0028554578   -4.9730398   0.99116859   439061 
 1490000      0.66016   -4.9728625   -4.9728625   -3.9826248 0.0011479264   -4.9728625   0.99023775   439061 
 1491000   0.66136709   -4.9746127   -4.9746127   -3.9825643 0.0039670456   -4.9746127   0.99204837   439061 
 1492000   0.66212313   -4.9749524   -4.9749524   -3.9817699  0.010248719   -4.9749524   0.99318243   439061 
 1493000   0.66090281   -4.9740504   -4.9740504   -3.9826985 0.0041314396   -4.9740504   0.99135195   439061 
 1494000   0.66025619   -4.9744727   -4.9744727   -3.9840907 0.0047305164   -4.9744727   0.99038203   439061 
 1495000   0.66078597    -4.975995    -4.975995   -3.9848183 0.0084543665    -4.975995    0.9911767   439061 
 1496000   0.66145817   -4.9759789   -4.9759789   -3.9837939 0.0084932205   -4.9759789     0.992185   439061 
 1497000   0.66116833   -4.9757208   -4.9757208   -3.9839706 0.0043182732   -4.9757208   0.99175024   439061 
 1498000   0.66075912   -4.9765014   -4.9765014    -3.985365 -0.00053720787   -4.9765014   0.99113643   439061 
 1499000     0.660344   -4.9757475   -4.9757475   -3.9852338 -0.0010890252   -4.9757475   0.99051374   439061 
 1500000   0.66034696   -4.9745663   -4.9745663   -3.9840482 0.0076103731   -4.9745663   0.99051818   439061 
 1501000   0.66004817   -4.9749355   -4.9749355   -3.9848655 0.0050411643   -4.9749355      0.99007   439061 
 1502000   0.66082528   -4.9762107   -4.9762107   -3.9849751 0.0010464999   -4.9762107   0.99123566   439061 
 1503000    0.6606659   -4.9766618   -4.9766618   -3.9856652 0.0046977577   -4.9766618    0.9909966   439061 
 1504000   0.66020973    -4.976395    -4.976395   -3.9860826 0.0046150166    -4.976395   0.99031233   439061 
 1505000   0.66091868   -4.9773065   -4.9773065   -3.9859308 0.0065042356   -4.9773065   0.99137576   439061 
 1506000   0.66050203   -4.9778801   -4.9778801   -3.9871293 0.00048398899   -4.9778801   0.99075078   439061 
 1507000   0.66122166   -4.9788971   -4.9788971   -3.9870668 0.0027584936   -4.9788971   0.99183023   439061 
 1508000   0.66134059   -4.9796148   -4.9796148   -3.9876062 0.00047510317   -4.9796148   0.99200862   439061 
 1509000   0.66080842   -4.9791353   -4.9791353   -3.9879249  0.009054895   -4.9791353   0.99121037   439061 
 1510000   0.65903877   -4.9768717   -4.9768717   -3.9883158 0.0041317449   -4.9768717    0.9885559   439061 
 1511000   0.65940589   -4.9781112   -4.9781112   -3.9890046 0.0061858248   -4.9781112   0.98910658   439061 
 1512000    0.6592555   -4.9780937   -4.9780937   -3.9892127 0.0044357785   -4.9780937     0.988881   439061 
 1513000    0.6620779   -4.9808604   -4.9808604   -3.9877458 0.0054855048   -4.9808604   0.99311459   439061 
 1514000   0.66203555   -4.9803319   -4.9803319   -3.9872809 0.0070417794   -4.9803319   0.99305107   439061 
 1515000   0.66074342   -4.9793856   -4.9793856   -3.9882727 0.0027778414   -4.9793856   0.99111287   439061 
 1516000   0.66028912   -4.9809266   -4.9809266   -3.9904951 -0.0021740634   -4.9809266   0.99043143   439061 
 1517000   0.65917769   -4.9787837   -4.9787837   -3.9900195 0.00039579293   -4.9787837   0.98876428   439061 
 1518000   0.66103209    -4.979681    -4.979681   -3.9881351  0.004867078    -4.979681   0.99154588   439061 
 1519000   0.66118679   -4.9788596   -4.9788596   -3.9870817 0.0032922407   -4.9788596   0.99177793   439061 
 1520000   0.66047143   -4.9780614   -4.9780614   -3.9873565 0.0020093087   -4.9780614   0.99070489   439061 
 1521000   0.66100878   -4.9795313   -4.9795313   -3.9880204 0.0050547503   -4.9795313   0.99151092   439061 
 1522000   0.65962685   -4.9776848   -4.9776848   -3.9882467 0.0058550789   -4.9776848   0.98943802   439061 
 1523000    0.6597405   -4.9791917   -4.9791917   -3.9895832 0.0017248213   -4.9791917   0.98960849   439061 
 1524000   0.65933344   -4.9790172   -4.9790172   -3.9900193 -0.00035587873   -4.9790172   0.98899791   439061 
 1525000   0.65915464   -4.9787016   -4.9787016   -3.9899719 0.0021491816   -4.9787016   0.98872971   439061 
 1526000   0.66108367   -4.9803971   -4.9803971   -3.9887739 0.00060308009   -4.9803971   0.99162325   439061 
 1527000   0.66186125   -4.9819085   -4.9819085   -3.9891189 0.0046007186   -4.9819085   0.99278961   439061 
 1528000   0.66165529   -4.9825102   -4.9825102   -3.9900295 0.0050456169   -4.9825102   0.99248068   439061 
 1529000   0.66039835   -4.9814565   -4.9814565   -3.9908612 0.0065972548   -4.9814565   0.99059527   439061 
 1530000   0.66042118   -4.9815774   -4.9815774   -3.9909479 0.0058875407   -4.9815774   0.99062951   439061 
 1531000   0.65914593   -4.9800155   -4.9800155   -3.9912989 0.0033349325   -4.9800155   0.98871665   439061 
 1532000   0.65966933   -4.9817103   -4.9817103   -3.9922086 0.0028899199   -4.9817103   0.98950175   439061 
 1533000   0.66038208   -4.9819345   -4.9819345   -3.9913636 0.00015434996   -4.9819345   0.99057087   439061 
 1534000   0.65924097   -4.9809562   -4.9809562    -3.992097 -0.0022222073   -4.9809562    0.9888592   439061 
 1535000   0.65979171   -4.9815713   -4.9815713    -3.991886 0.0019799565   -4.9815713   0.98968531   439061 
 1536000   0.65973576    -4.981148    -4.981148   -3.9915467 0.0012397794    -4.981148   0.98960138   439061 
 1537000   0.66099227   -4.9820392   -4.9820392   -3.9905531 0.0031192018   -4.9820392   0.99148615   439061 
 1538000   0.65878934   -4.9796467   -4.9796467   -3.9914649 0.0077261615   -4.9796467   0.98818176   439061 
 1539000   0.66020297   -4.9826593   -4.9826593   -3.9923571 0.0025302911   -4.9826593    0.9903022   439061 
 1540000   0.66046026   -4.9827874   -4.9827874   -3.9920993 0.0033003935   -4.9827874   0.99068814   439061 
 1541000   0.65957282   -4.9821695   -4.9821695   -3.9928125 0.0060540974   -4.9821695   0.98935697   439061 
 1542000   0.66029796    -4.982909    -4.982909   -3.9924643 0.0027309576    -4.982909   0.99044469   439061 
 1543000   0.66052373   -4.9837959   -4.9837959   -3.9930126 0.0042787468   -4.9837959   0.99078333   439061 
 1544000   0.66081621   -4.9844147   -4.9844147   -3.9931926 0.0041000772   -4.9844147   0.99122206   439061 
 1545000   0.65994591   -4.9837841   -4.9837841   -3.9938675 0.0016719771   -4.9837841   0.98991661   439061 
 1546000   0.65892239   -4.9820341   -4.9820341   -3.9936527  0.002418282   -4.9820341   0.98838134   439061 
 1547000   0.66017371   -4.9830396   -4.9830396   -3.9927813 0.0027263517   -4.9830396   0.99025831   439061 
 1548000   0.65940277   -4.9823301   -4.9823301   -3.9932282  0.004681613   -4.9823301   0.98910191   439061 
 1549000   0.65996076   -4.9827349   -4.9827349    -3.992796 0.0047968389   -4.9827349   0.98993888   439061 
 1550000   0.65953619   -4.9825664   -4.9825664   -3.9932644  0.003408775   -4.9825664   0.98930204   439061 
 1551000   0.66012034   -4.9838486   -4.9838486   -3.9936704 0.00034681494   -4.9838486   0.99017826   439061 
 1552000    0.6588258   -4.9820469   -4.9820469   -3.9938105 0.0035842973   -4.9820469   0.98823645   439061 
 1553000   0.65998795    -4.984288    -4.984288   -3.9943083 0.0034008545    -4.984288   0.98997966   439061 
 1554000    0.6599112   -4.9849643   -4.9849643   -3.9950998  0.005042135   -4.9849643   0.98986454   439061 
 1555000   0.65949757   -4.9840432   -4.9840432   -3.9947991 0.0049550798   -4.9840432    0.9892441   439061 
 1556000   0.65983302   -4.9847632   -4.9847632   -3.9950159  0.003998194   -4.9847632   0.98974728   439061 
 1557000    0.6597794   -4.9859607   -4.9859607   -3.9962939 0.0079578033   -4.9859607   0.98966684   439061 
 1558000   0.65951335   -4.9853524   -4.9853524   -3.9960847 0.0047925449   -4.9853524   0.98926778   439061 
 1559000   0.65956774    -4.985147    -4.985147   -3.9957977 0.0087068707    -4.985147   0.98934935   439061 
 1560000   0.65964084   -4.9866235   -4.9866235   -3.9971645 -0.0011728906   -4.9866235   0.98945901   439061 
 1561000   0.65903745    -4.986988    -4.986988   -3.9984341 -0.0026603519    -4.986988   0.98855393   439061 
 1562000   0.65856674   -4.9859241   -4.9859241   -3.9980763 -0.00022920044   -4.9859241   0.98784785   439061 
 1563000   0.65837072   -4.9866582   -4.9866582   -3.9991044 0.0017358241   -4.9866582   0.98755382   439061 
 1564000   0.65897888   -4.9862589   -4.9862589   -3.9977929 0.0033508641   -4.9862589   0.98846607   439061 
 1565000   0.65769458   -4.9857481   -4.9857481   -3.9992085 0.00090784065   -4.9857481   0.98653963   439061 
 1566000   0.65910797   -4.9875665   -4.9875665   -3.9989068 0.0035944486   -4.9875665    0.9886597   439061 
 1567000   0.65943173   -4.9879176   -4.9879176   -3.9987723 0.0058366434   -4.9879176   0.98914534   439061 
 1568000   0.65783608   -4.9867745   -4.9867745   -4.0000226 0.0075921053   -4.9867745   0.98675188   439061 
 1569000   0.65883375   -4.9881954   -4.9881954    -3.999947 0.0044184202   -4.9881954   0.98824838   439061 
 1570000   0.65907519   -4.9895798   -4.9895798   -4.0009692 0.0021019021   -4.9895798   0.98861053   439061 
 1571000   0.65936947   -4.9894972   -4.9894972   -4.0004452 0.0033026537   -4.9894972   0.98905196   439061 
 1572000   0.65868784   -4.9873203   -4.9873203   -3.9992907  0.012297076   -4.9873203   0.98802951   439061 
 1573000    0.6585429   -4.9886338   -4.9886338   -4.0008217 0.0091792447   -4.9886338    0.9878121   439061 
 1574000   0.65863674   -4.9881009   -4.9881009   -4.0001481  0.005553933   -4.9881009   0.98795285   439061 
 1575000   0.65743535   -4.9864219   -4.9864219   -4.0002711 0.0019528333   -4.9864219   0.98615078   439061 
 1576000   0.65794202   -4.9877227   -4.9877227   -4.0008119 -0.0031648972   -4.9877227   0.98691078   439061 
 1577000    0.6578474   -4.9880207   -4.9880207   -4.0012518 -0.0002422394   -4.9880207   0.98676886   439061 
 1578000   0.65814063   -4.9877447   -4.9877447    -4.000536 0.00045743514   -4.9877447    0.9872087   439061 
 1579000   0.65799653   -4.9876862   -4.9876862   -4.0006937 0.0021603874   -4.9876862   0.98699255   439061 
 1580000   0.65865034   -4.9875253   -4.9875253    -3.999552 0.0024283697   -4.9875253   0.98797327   439061 
 1581000   0.65679881   -4.9862715   -4.9862715   -4.0010755 0.0057179287   -4.9862715   0.98519597   439061 
 1582000   0.65898554   -4.9898623   -4.9898623   -4.0013862 0.0047442779   -4.9898623   0.98847607   439061 
 1583000   0.65860662   -4.9890965   -4.9890965   -4.0011888 0.0038978547   -4.9890965   0.98790768   439061 
 1584000   0.65864541   -4.9894599   -4.9894599   -4.0014941   0.00329134   -4.9894599   0.98796587   439061 
 1585000   0.65892649   -4.9895704   -4.9895704    -4.001183 0.0028346857   -4.9895704   0.98838748   439061 
 1586000   0.65851832    -4.988714    -4.988714   -4.0009388 0.0046755814    -4.988714   0.98777524   439061 
 1587000   0.65899882   -4.9887415   -4.9887415   -4.0002455 0.0061654972   -4.9887415   0.98849598   439061 
 1588000   0.65790803   -4.9883173   -4.9883173   -4.0014575 0.0028938408   -4.9883173    0.9868598   439061 
 1589000   0.65756689   -4.9873739   -4.9873739   -4.0010259 0.0034893059   -4.9873739   0.98634809   439061 
 1590000   0.65699158   -4.9869344   -4.9869344   -4.0014493 0.0024000969   -4.9869344   0.98548512   439061 
 1591000   0.65740456   -4.9865183   -4.9865183   -4.0004138 0.0047146969   -4.9865183    0.9861046   439061 
 1592000   0.65832373    -4.988058    -4.988058   -4.0005747 0.00021668659    -4.988058   0.98748335   439061 
 1593000   0.65854764   -4.9887902   -4.9887902    -4.000971 0.0052545822   -4.9887902   0.98781921   439061 
 1594000   0.65845534   -4.9886177   -4.9886177   -4.0009369 0.0029622575   -4.9886177   0.98768077   439061 
 1595000    0.6578178   -4.9881824   -4.9881824   -4.0014579 0.0034177763   -4.9881824   0.98672445   439061 
 1596000     0.657906   -4.9897993   -4.9897993   -4.0029425 0.0017549437   -4.9897993   0.98685675   439061 
 1597000   0.65836924    -4.990428    -4.990428   -4.0028764 0.0014793735    -4.990428   0.98755161   439061 
 1598000   0.65794131   -4.9895005   -4.9895005   -4.0025907 0.0061424965   -4.9895005   0.98690972   439061 
 1599000   0.65840164   -4.9905264   -4.9905264   -4.0029262 0.0089586287   -4.9905264   0.98760022   439061 
 1600000   0.65804678   -4.9896243   -4.9896243   -4.0025564 0.0047907887   -4.9896243   0.98706792   439061 
 1601000   0.65819865   -4.9912906   -4.9912906   -4.0039948  0.003365081   -4.9912906   0.98729573   439061 
 1602000   0.65906715   -4.9920194   -4.9920194   -4.0034209 0.0039964224   -4.9920194   0.98859847   439061 
 1603000   0.65726737    -4.989587    -4.989587   -4.0036882 0.0046046348    -4.989587   0.98589881   439061 
 1604000   0.65897693   -4.9918208   -4.9918208   -4.0033577 0.0021021372   -4.9918208   0.98846314   439061 
 1605000   0.65739843   -4.9896024   -4.9896024    -4.003507 0.0045749658   -4.9896024   0.98609539   439061 
 1606000    0.6575814   -4.9903361   -4.9903361   -4.0039662   0.00146366   -4.9903361   0.98636985   439061 
 1607000   0.65834825   -4.9910546   -4.9910546   -4.0035344 0.00015689352   -4.9910546   0.98752012   439061 
 1608000    0.6581648   -4.9896342   -4.9896342   -4.0023893 0.0043500139   -4.9896342   0.98724494   439061 
 1609000   0.65888182   -4.9897328   -4.9897328   -4.0014123 0.0051760847   -4.9897328   0.98832048   439061 
 1610000    0.6584443   -4.9898299   -4.9898299   -4.0021657 0.0030775017   -4.9898299    0.9876642   439061 
 1611000   0.65765054   -4.9887635   -4.9887635   -4.0022899 -0.00053735909   -4.9887635   0.98647356   439061 
 1612000   0.65833704   -4.9897692   -4.9897692   -4.0022659 -6.7586781e-05   -4.9897692    0.9875033   439061 
 1613000   0.65917826   -4.9899439   -4.9899439   -4.0011788 0.00071147728   -4.9899439   0.98876514   439061 
 1614000   0.65781075   -4.9883311   -4.9883311   -4.0016172 0.0061891371   -4.9883311   0.98671388   439061 
 1615000   0.65733458   -4.9880075   -4.9880075   -4.0020079 0.00083599012   -4.9880075   0.98599962   439061 
 1616000   0.65746719     -4.98847     -4.98847   -4.0022715 0.00047000966     -4.98847   0.98619854   439061 
 1617000   0.65833529   -4.9896478   -4.9896478   -4.0021472 0.0027262211   -4.9896478   0.98750068   439061 
 1618000    0.6586505   -4.9895549   -4.9895549   -4.0015814 0.0018661557   -4.9895549    0.9879735   439061 
 1619000   0.65796142   -4.9896094   -4.9896094   -4.0026696 0.0010591982   -4.9896094   0.98693989   439061 
 1620000   0.65702532   -4.9891474   -4.9891474   -4.0036117 0.0025126238   -4.9891474   0.98553573   439061 
 1621000   0.65652462   -4.9887918   -4.9887918   -4.0040071 0.0020322142   -4.9887918   0.98478469   439061 
 1622000   0.65751363   -4.9901401   -4.9901401   -4.0038719 0.0030227003   -4.9901401    0.9862682   439061 
 1623000   0.65852401   -4.9909961   -4.9909961   -4.0032123 0.0047532599   -4.9909961   0.98778377   439061 
 1624000   0.65904685   -4.9908857   -4.9908857   -4.0023177  0.010941254   -4.9908857   0.98856802   439061 
 1625000   0.65891325   -4.9911665   -4.9911665   -4.0027989  0.007902755   -4.9911665   0.98836762   439061 
 1626000   0.65787943   -4.9906322   -4.9906322   -4.0038153 0.0061746899   -4.9906322    0.9868169   439061 
 1627000   0.65690696   -4.9895815   -4.9895815   -4.0042234 0.0090875876   -4.9895815    0.9853582   439061 
 1628000   0.65848224   -4.9924718   -4.9924718   -4.0047507 0.0018623351   -4.9924718   0.98772111   439061 
 1629000   0.65761821   -4.9912823   -4.9912823   -4.0048573 0.00083088573   -4.9912823   0.98642507   439061 
 1630000   0.65669113   -4.9912187   -4.9912187   -4.0061843 -0.0021772662   -4.9912187   0.98503446   439061 
 1631000   0.65611059   -4.9917821   -4.9917821   -4.0076184 -0.0062173169   -4.9917821   0.98416365   439061 
 1632000   0.65629091   -4.9921684   -4.9921684   -4.0077342 0.0013378717   -4.9921684   0.98443412   439061 
 1633000   0.65633378   -4.9923506   -4.9923506   -4.0078521  0.002374567   -4.9923506   0.98449842   439061 
 1634000   0.65772434   -4.9945807   -4.9945807   -4.0079965 0.0015814411   -4.9945807   0.98658426   439061 
 1635000   0.65741411   -4.9935836   -4.9935836   -4.0074646 0.0077755547   -4.9935836   0.98611892   439061 
 1636000   0.65798873   -4.9948344   -4.9948344   -4.0078535  0.009462939   -4.9948344   0.98698084   439061 
 1637000   0.65857995   -4.9957629   -4.9957629   -4.0078953  0.010175705   -4.9957629   0.98786767   439061 
 1638000   0.65851361   -4.9959271   -4.9959271    -4.008159 0.0081824926   -4.9959271   0.98776817   439061 
 1639000   0.65780854   -4.9958789   -4.9958789   -4.0091684 0.0074428177   -4.9958789   0.98671056   439061 
 1640000   0.65680618    -4.994317    -4.994317     -4.00911 0.0032279513    -4.994317   0.98520703   439061 
 1641000     0.656718   -4.9938536   -4.9938536   -4.0087789 -0.0004853812   -4.9938536   0.98507475   439061 
 1642000   0.65630582   -4.9927829   -4.9927829   -4.0083265 0.0013622979   -4.9927829   0.98445648   439061 
 1643000   0.65609034   -4.9925811   -4.9925811   -4.0084478 -0.00059479959   -4.9925811   0.98413327   439061 
 1644000   0.65632859   -4.9923042   -4.9923042   -4.0078136 0.00051484227   -4.9923042   0.98449064   439061 
 1645000   0.65640223   -4.9911808   -4.9911808   -4.0065797 0.0021708077   -4.9911808   0.98460111   439061 
 1646000   0.65627685   -4.9917593   -4.9917593   -4.0073462 0.0034556856   -4.9917593   0.98441303   439061 
 1647000   0.65671323   -4.9925931   -4.9925931   -4.0075255 0.0026096829   -4.9925931    0.9850676   439061 
 1648000   0.65673915   -4.9922484   -4.9922484   -4.0071419 0.0083528932   -4.9922484   0.98510648   439061 
 1649000   0.65749356   -4.9933612   -4.9933612   -4.0071232  0.005205026   -4.9933612   0.98623809   439061 
 1650000    0.6579407   -4.9951627   -4.9951627   -4.0082539 -0.0010831692   -4.9951627   0.98690881   439061 
 1651000   0.65612542   -4.9932575   -4.9932575   -4.0090716 0.0058258123   -4.9932575   0.98418588   439061 
 1652000   0.65774287   -4.9952653   -4.9952653   -4.0086532 0.0016109032   -4.9952653   0.98661206   439061 
 1653000   0.65725564   -4.9957241   -4.9957241   -4.0098429 -0.0011818521   -4.9957241   0.98588121   439061 
 1654000   0.65625335   -4.9948216   -4.9948216   -4.0104438 0.0057287009   -4.9948216   0.98437779   439061 
 1655000   0.65697945   -4.9941355   -4.9941355   -4.0086686 0.0072023455   -4.9941355   0.98546693   439061 
 1656000   0.65740445   -4.9961222   -4.9961222   -4.0100177 0.00054997986   -4.9961222   0.98610444   439061 
 1657000   0.65657318   -4.9957307   -4.9957307   -4.0108732 0.0025830349   -4.9957307   0.98485753   439061 
 1658000   0.65666161   -4.9960704   -4.9960704   -4.0110802 0.0048244665   -4.9960704   0.98499018   439061 
 1659000   0.65542906   -4.9947084   -4.9947084   -4.0115671 0.0081592432   -4.9947084   0.98314135   439061 
 1660000   0.65603933   -4.9960207   -4.9960207    -4.011964 0.0075296985   -4.9960207   0.98405675   439061 
 1661000   0.65590255   -4.9969273   -4.9969273   -4.0130757 0.0010193034   -4.9969273   0.98385159   439061 
 1662000   0.65661131   -4.9976335   -4.9976335   -4.0127187 -0.00015995689   -4.9976335   0.98491473   439061 
 1663000   0.65716464   -4.9974024   -4.9974024   -4.0116576 0.0020789274   -4.9974024   0.98574471   439061 
 1664000   0.65724828   -4.9968848   -4.9968848   -4.0110146 0.0063701048   -4.9968848   0.98587017   439061 
 1665000   0.65686301   -4.9971123   -4.9971123     -4.01182 0.0080383814   -4.9971123   0.98529226   439061 
 1666000   0.65706234   -4.9970873   -4.9970873   -4.0114961 0.0063654518   -4.9970873   0.98559127   439061 
 1667000   0.65583511   -4.9961186   -4.9961186   -4.0123681 0.0043851802   -4.9961186   0.98375043   439061 
 1668000   0.65526435   -4.9948438   -4.9948438   -4.0119495 0.0023267795   -4.9948438   0.98289429   439061 
 1669000   0.65710426   -4.9983411   -4.9983411    -4.012687 0.00019391129   -4.9983411   0.98565414   439061 
 1670000    0.6574945   -4.9984456   -4.9984456   -4.0122061 0.00022153281   -4.9984456   0.98623951   439061 
 1671000   0.65559921    -4.994652    -4.994652   -4.0112554 0.0029642097    -4.994652   0.98339657   439061 
 1672000   0.65605074   -4.9953521   -4.9953521   -4.0112783 0.0078424369   -4.9953521   0.98407386   439061 
 1673000   0.65651893    -4.997181    -4.997181   -4.0124048 0.00039069103    -4.997181   0.98477616   439061 
 1674000   0.65627324   -4.9959975   -4.9959975   -4.0115899 0.0031798134   -4.9959975   0.98440761   439061 
 1675000   0.65676675   -4.9972526   -4.9972526   -4.0121048 0.0011929668   -4.9972526   0.98514788   439061 
 1676000   0.65523099   -4.9954387   -4.9954387   -4.0125945 0.0033012291   -4.9954387   0.98284424   439061 
 1677000   0.65714734   -4.9978939   -4.9978939   -4.0121752   0.00295786   -4.9978939   0.98571876   439061 
 1678000   0.65717552   -4.9963753   -4.9963753   -4.0106143 0.0079908996   -4.9963753   0.98576103   439061 
 1679000    0.6574022   -4.9973386   -4.9973386   -4.0112376 0.00085652362   -4.9973386   0.98610106   439061 
 1680000   0.65704982   -4.9977827   -4.9977827   -4.0122102 0.0021600784   -4.9977827   0.98557249   439061 
 1681000    0.6553058    -4.995055    -4.995055   -4.0120986 0.0064557394    -4.995055   0.98295647   439061 
 1682000   0.65691463   -4.9970171   -4.9970171   -4.0116474 0.0036967165   -4.9970171    0.9853697   439061 
 1683000   0.65714709   -4.9977038   -4.9977038   -4.0119854 0.0021800103   -4.9977038    0.9857184   439061 
 1684000   0.65614635   -4.9958933   -4.9958933   -4.0116761 0.0040889432   -4.9958933   0.98421728   439061 
 1685000   0.65553949   -4.9950276   -4.9950276   -4.0117206 0.0020352998   -4.9950276     0.983307   439061 
 1686000   0.65520116   -4.9944861   -4.9944861   -4.0116866 0.0048527647   -4.9944861    0.9827995   439061 
 1687000   0.65655243    -4.996789    -4.996789   -4.0119626 0.00016563366    -4.996789    0.9848264   439061 
 1688000   0.65559404   -4.9944674   -4.9944674   -4.0110786 0.0071373613   -4.9944674   0.98338881   439061 
 1689000   0.65589638   -4.9950844   -4.9950844   -4.0112421 4.6906763e-05   -4.9950844   0.98384233   439061 
 1690000   0.65564176   -4.9948832   -4.9948832   -4.0114228 0.0035389681   -4.9948832    0.9834604   439061 
 1691000   0.65563356   -4.9963997   -4.9963997   -4.0129516  0.001241236   -4.9963997    0.9834481   439061 
 1692000   0.65608755   -4.9975863   -4.9975863   -4.0134572 0.0010199045   -4.9975863   0.98412909   439061 
 1693000   0.65534187   -4.9977961   -4.9977961   -4.0147856 0.00056874215   -4.9977961   0.98301056   439061 
 1694000   0.65676867   -4.9991386   -4.9991386   -4.0139878 0.0030448601   -4.9991386   0.98515076   439061 
 1695000   0.65625011   -4.9990271   -4.9990271   -4.0146542 0.0063281111   -4.9990271   0.98437292   439061 
 1696000    0.6563436   -4.9984742   -4.9984742   -4.0139611  0.010372143   -4.9984742   0.98451316   439061 
 1697000   0.65718282   -5.0001887   -5.0001887   -4.0144167  0.010766516   -5.0001887   0.98577199   439061 
 1698000   0.65685104   -5.0004363   -5.0004363    -4.015162 0.0093355807   -5.0004363   0.98527431   439061 
 1699000   0.65659909   -5.0002105   -5.0002105   -4.0153141 0.0055325337   -5.0002105    0.9848964   439061 
 1700000   0.65660447   -4.9990225   -4.9990225    -4.014118 0.0045737086   -4.9990225   0.98490447   439061 
 1701000    0.6556965   -4.9992471   -4.9992471   -4.0157046 -0.00095653392   -4.9992471   0.98354251   439061 
 1702000   0.65471481   -4.9980308   -4.9980308   -4.0159608 -0.0015443853   -4.9980308   0.98206998   439061 
 1703000   0.65505783   -4.9979137   -4.9979137   -4.0153292 0.00039198365   -4.9979137   0.98258451   439061 
 1704000   0.65469856   -4.9973936   -4.9973936    -4.015348 -0.0023829673   -4.9973936    0.9820456   439061 
 1705000   0.65541075   -4.9976729   -4.9976729    -4.014559 0.00021584788   -4.9976729   0.98311388   439061 
 1706000   0.65681139   -4.9986182   -4.9986182   -4.0134033 0.0030811501   -4.9986182   0.98521484   439061 
 1707000   0.65803348   -5.0004699   -5.0004699   -4.0134219 0.0036793714   -5.0004699   0.98704797   439061 
 1708000   0.65602607   -4.9974734   -4.9974734   -4.0134365 0.0098573865   -4.9974734   0.98403687   439061 
 1709000   0.65670163   -4.9993413   -4.9993413   -4.0142911 0.0043509217   -4.9993413    0.9850502   439061 
 1710000   0.65532986   -4.9981622   -4.9981622   -4.0151697 0.0074308229   -4.9981622   0.98299255   439061 
 1711000   0.65635454   -5.0001345   -5.0001345    -4.015605 0.0060303331   -5.0001345   0.98452956   439061 
 1712000   0.65532116   -4.9984095   -4.9984095     -4.01543 0.00097961793   -4.9984095    0.9829795   439061 
 1713000   0.65453878    -4.996922    -4.996922    -4.015116 0.0034273619    -4.996922   0.98180593   439061 
 1714000   0.65515087   -4.9977326   -4.9977326   -4.0150085 0.00036645079   -4.9977326   0.98272407   439061 
 1715000   0.65553811   -4.9994437   -4.9994437   -4.0161388 0.0038930253   -4.9994437   0.98330493   439061 
 1716000   0.65578655   -5.0004366   -5.0004366    -4.016759 -0.0013377051   -5.0004366   0.98367759   439061 
 1717000    0.6555462   -4.9994819   -4.9994819   -4.0161649  0.001161267   -4.9994819   0.98331707   439061 
 1718000   0.65621708   -4.9998128   -4.9998128   -4.0154894 -0.00012075272   -4.9998128   0.98432338   439061 
 1719000   0.65534384   -4.9986088   -4.9986088   -4.0155953  0.010132145   -4.9986088   0.98301352   439061 
 1720000   0.65666265   -5.0016111   -5.0016111   -4.0166194 0.0090170741   -5.0016111   0.98499174   439061 
 1721000   0.65573277   -5.0009234   -5.0009234   -4.0173265 0.0079158199   -5.0009234   0.98359691   439061 
 1722000   0.65554666   -4.9994684   -4.9994684   -4.0161506 0.0072896679   -4.9994684   0.98331775   439061 
 1723000    0.6562154   -5.0009239   -5.0009239    -4.016603 0.00077237374   -5.0009239   0.98432086   439061 
 1724000   0.65629142   -4.9999985   -4.9999985   -4.0155636 0.0073375223   -4.9999985   0.98443489   439061 
 1725000   0.65706724   -5.0000918   -5.0000918   -4.0144932 0.0070259056   -5.0000918   0.98559861   439061 
 1726000   0.65510986   -4.9981552   -4.9981552   -4.0154927 0.0031021031   -4.9981552   0.98266254   439061 
 1727000   0.65469736   -4.9991306   -4.9991306   -4.0170868 -0.0036667986   -4.9991306   0.98204381   439061 
 1728000   0.65457874   -4.9992987   -4.9992987   -4.0174328 -0.0073129944   -4.9992987   0.98186588   439061 
 1729000   0.65561785   -4.9993376   -4.9993376   -4.0159131 -0.0047462708   -4.9993376   0.98342454   439061 
 1730000   0.65690414   -5.0002945   -5.0002945   -4.0149405 0.0020728691   -5.0002945   0.98535397   439061 
 1731000   0.65587878   -4.9993805   -4.9993805   -4.0155645 0.0042882579   -4.9993805   0.98381593   439061 
 1732000   0.65577199   -4.9996378   -4.9996378    -4.015982  0.007756805   -4.9996378   0.98365574   439061 
 1733000   0.65644821   -5.0017621   -5.0017621   -4.0170921 0.0059641257   -5.0017621   0.98467007   439061 
 1734000   0.65609975   -5.0028986   -5.0028986   -4.0187512 0.0070758757   -5.0028986   0.98414739   439061 
 1735000   0.65622673   -5.0021628   -5.0021628   -4.0178249 0.0078436999   -5.0021628   0.98433785   439061 
 1736000   0.65667792    -5.002861    -5.002861   -4.0178463 0.0073168854    -5.002861   0.98501464   439061 
 1737000   0.65572293   -5.0011828   -5.0011828   -4.0176007 0.0056913869   -5.0011828   0.98358215   439061 
 1738000   0.65606006   -5.0007633   -5.0007633   -4.0166754 0.0076601146   -5.0007633   0.98408785   439061 
 1739000   0.65566801   -5.0000315   -5.0000315   -4.0165318 0.0052416109   -5.0000315   0.98349977   439061 
 1740000   0.65579384   -5.0002292   -5.0002292   -4.0165407 0.0020247515   -5.0002292   0.98368851   439061 
 1741000   0.65481425   -4.9982082   -4.9982082    -4.015989 0.00025280248   -4.9982082   0.98221914   439061 
 1742000   0.65621485   -4.9994741   -4.9994741    -4.015154 0.00037629047   -4.9994741   0.98432003   439061 
 1743000   0.65530353   -4.9991975   -4.9991975   -4.0162445 -0.0053357102   -4.9991975   0.98295306   439061 
 1744000   0.65630034   -4.9997944   -4.9997944   -4.0153461 -0.00026068007   -4.9997944   0.98444826   439061 
 1745000   0.65606009   -4.9986665   -4.9986665   -4.0145787 0.0056017798   -4.9986665   0.98408789   439061 
 1746000   0.65607742   -5.0001741   -5.0001741   -4.0160602 0.0050459972   -5.0001741   0.98411389   439061 
 1747000   0.65592872   -4.9988301   -4.9988301   -4.0149392  0.006849281   -4.9988301   0.98389083   439061 
 1748000   0.65650294   -5.0009816   -5.0009816   -4.0162294 0.0037668186   -5.0009816   0.98475217   439061 
 1749000   0.65581823   -5.0016417   -5.0016417   -4.0179166 0.0042945623   -5.0016417   0.98372511   439061 
 1750000   0.65659202   -5.0018785   -5.0018785   -4.0169928 0.0053259624   -5.0018785   0.98488579   439061 
 1751000   0.65669172   -5.0019547   -5.0019547   -4.0169194  0.004723912   -5.0019547   0.98503534   439061 
 1752000   0.65691602   -5.0020862   -5.0020862   -4.0167144  0.002188067   -5.0020862   0.98537178   439061 
 1753000   0.65604013    -5.002195    -5.002195   -4.0181371  0.001714714    -5.002195   0.98405796   439061 
 1754000   0.65599855   -5.0018167   -5.0018167   -4.0178211 0.0011400414   -5.0018167   0.98399558   439061 
 1755000   0.65507594   -4.9994273   -4.9994273   -4.0168156 0.0029863839   -4.9994273   0.98261168   439061 
 1756000   0.65555199   -5.0004869   -5.0004869   -4.0171612 0.0017414943   -5.0004869   0.98332574   439061 
 1757000   0.65531551   -5.0002887   -5.0002887   -4.0173176 0.0044476415   -5.0002887   0.98297102   439061 
 1758000   0.65573884   -5.0010354   -5.0010354   -4.0174294 0.0062224989   -5.0010354   0.98360602   439061 
 1759000   0.65486308   -5.0006131   -5.0006131   -4.0183207 0.0013839345   -5.0006131   0.98229238   439061 
 1760000   0.65563367   -5.0031957   -5.0031957   -4.0197474 0.0010073373   -5.0031957   0.98344826   439061 
 1761000   0.65545236   -5.0026884   -5.0026884   -4.0195121 0.0022491935   -5.0026884    0.9831763   439061 
 1762000    0.6559856   -5.0031943   -5.0031943   -4.0192182 0.0058272892   -5.0031943   0.98397616   439061 
 1763000   0.65607541   -5.0018576   -5.0018576   -4.0177467  0.008955602   -5.0018576   0.98411087   439061 
 1764000   0.65583684   -5.0034262   -5.0034262   -4.0196732 0.0076803776   -5.0034262   0.98375302   439061 
 1765000   0.65510251   -5.0016243   -5.0016243   -4.0189727 0.0019599597   -5.0016243   0.98265153   439061 
 1766000   0.65442768   -5.0022946   -5.0022946   -4.0206553 0.0025136778   -5.0022946   0.98163929   439061 
 1767000   0.65528273   -5.0024478   -5.0024478    -4.019526 0.0052955248   -5.0024478   0.98292186   439061 
 1768000   0.65486201    -5.002745    -5.002745   -4.0204542 0.0035724409    -5.002745   0.98229078   439061 
 1769000    0.6547179   -5.0020182   -5.0020182   -4.0199436 0.0010800496   -5.0020182   0.98207462   439061 
 1770000   0.65557252    -5.004748    -5.004748   -4.0213915 -0.0011848766    -5.004748   0.98335654   439061 
 1771000     0.655362   -5.0037328   -5.0037328   -4.0206921 -0.0034468266   -5.0037328   0.98304076   439061 
 1772000   0.65527816   -5.0034763   -5.0034763   -4.0205613 -0.0002060396   -5.0034763     0.982915   439061 
 1773000   0.65540393   -5.0037552   -5.0037552   -4.0206515 0.0025629001   -5.0037552   0.98310365   439061 
 1774000   0.65486584   -5.0042576   -5.0042576   -4.0219611 0.0044307088   -5.0042576   0.98229652   439061 
 1775000   0.65601596   -5.0051396   -5.0051396   -4.0211179 0.0044880273   -5.0051396    0.9840217   439061 
 1776000   0.65519572   -5.0042002   -5.0042002   -4.0214089 0.0047363118   -5.0042002   0.98279134   439061 
 1777000   0.65533329   -5.0053163   -5.0053163   -4.0223186 0.0055806004   -5.0053163    0.9829977   439061 
 1778000    0.6547586   -5.0039395   -5.0039395   -4.0218039 0.0053079766   -5.0039395   0.98213566   439061 
 1779000   0.65464496   -5.0034596   -5.0034596   -4.0214944 0.0062672435   -5.0034596   0.98196521   439061 
 1780000   0.65514594   -5.0039103   -5.0039103   -4.0211937 0.0018279457   -5.0039103   0.98271668   439061 
 1781000   0.65555104   -5.0041829   -5.0041829   -4.0208586 0.0013553182   -5.0041829   0.98332431   439061 
 1782000   0.65506173   -5.0041423   -5.0041423    -4.021552 0.00075065696   -5.0041423   0.98259035   439061 
 1783000    0.6539027   -5.0023234   -5.0023234   -4.0214715 0.0023179199   -5.0023234   0.98085182   439061 
 1784000   0.65462775   -5.0032495   -5.0032495   -4.0213101 -0.001049551   -5.0032495   0.98193939   439061 
 1785000   0.65470258   -5.0036635   -5.0036635   -4.0216118 -0.0040579208   -5.0036635   0.98205163   439061 
 1786000   0.65552728   -5.0037209   -5.0037209   -4.0204322 0.0048532292   -5.0037209   0.98328868   439061 
 1787000   0.65487945    -5.003419    -5.003419   -4.0211021 0.0061422243    -5.003419   0.98231693   439061 
 1788000   0.65526813   -5.0034418   -5.0034418   -4.0205418 0.0067103311   -5.0034418   0.98289996   439061 
 1789000   0.65666259     -5.00623     -5.00623   -4.0212383 0.0067692215     -5.00623   0.98499164   439061 
 1790000   0.65658242   -5.0065945   -5.0065945   -4.0217231 0.0032439719   -5.0065945   0.98487139   439061 
 1791000    0.6562472   -5.0052177   -5.0052177   -4.0208492 0.0047758458   -5.0052177   0.98436856   439061 
 1792000   0.65682207   -5.0058894   -5.0058894   -4.0206586 0.0032194132   -5.0058894   0.98523086   439061 
 1793000   0.65489262   -5.0043668   -5.0043668   -4.0220301 0.0030513103   -5.0043668    0.9823367   439061 
 1794000   0.65532054   -5.0043378   -5.0043378   -4.0213592 0.0058507149   -5.0043378   0.98297857   439061 
 1795000   0.65450662   -5.0025661   -5.0025661   -4.0208084 0.0067126513   -5.0025661   0.98175769   439061 
 1796000   0.65382463   -5.0016575   -5.0016575   -4.0209228 0.0031563677   -5.0016575   0.98073471   439061 
 1797000    0.6543488   -5.0030085   -5.0030085   -4.0214875 -0.0002191854   -5.0030085   0.98152096   439061 
 1798000   0.65386278   -5.0037309   -5.0037309    -4.022939 -0.0025813816   -5.0037309   0.98079194   439061 
 1799000   0.65369091   -5.0033198   -5.0033198   -4.0227857 0.0020952347   -5.0033198   0.98053413   439061 
 1800000   0.65382051   -5.0034454   -5.0034454   -4.0227168  0.002293019   -5.0034454   0.98072853   439061 
 1801000   0.65443916   -5.0039812   -5.0039812   -4.0223247 0.0069190994   -5.0039812    0.9816565   439061 
 1802000   0.65573744   -5.0053086   -5.0053086   -4.0217047 0.0074769174   -5.0053086   0.98360392   439061 
 1803000   0.65468511   -5.0049444   -5.0049444    -4.022919 0.0090155458   -5.0049444   0.98202543   439061 
 1804000   0.65445117   -5.0057604   -5.0057604   -4.0240859 0.0093949025   -5.0057604   0.98167451   439061 
 1805000   0.65530984   -5.0072841   -5.0072841   -4.0243215 0.0044425297   -5.0072841   0.98296253   439061 
 1806000     0.654525   -5.0052974   -5.0052974   -4.0235121 0.0082957597   -5.0052974   0.98178527   439061 
 1807000   0.65469909   -5.0060292   -5.0060292   -4.0239828 0.0017632984   -5.0060292    0.9820464   439061 
 1808000   0.65455064   -5.0060381   -5.0060381   -4.0242144 0.00067620275   -5.0060381   0.98182372   439061 
 1809000   0.65467508   -5.0053541   -5.0053541   -4.0233437 0.0022289847   -5.0053541   0.98201038   439061 
 1810000   0.65458488   -5.0064246   -5.0064246   -4.0245495 -0.0031488901   -5.0064246   0.98187509   439061 
 1811000   0.65393688    -5.004928    -5.004928   -4.0240249 0.00089809548    -5.004928   0.98090309   439061 
 1812000   0.65490868   -5.0062366   -5.0062366   -4.0238758 -0.00055405042   -5.0062366   0.98236079   439061 
 1813000   0.65454026   -5.0047316   -5.0047316   -4.0229234 0.0011478863   -5.0047316   0.98180816   439061 
 1814000   0.65397979   -5.0042872   -5.0042872   -4.0233197  0.005093548   -5.0042872   0.98096745   439061 
 1815000   0.65412848   -5.0041602   -5.0041602   -4.0229697   0.00786109   -5.0041602   0.98119049   439061 
 1816000   0.65591438   -5.0064414   -5.0064414   -4.0225721 -1.1498487e-05   -5.0064414   0.98386932   439061 
 1817000   0.65544206   -5.0051869   -5.0051869    -4.022026 0.0070498751   -5.0051869   0.98316085   439061 
 1818000   0.65435256   -5.0047118   -5.0047118   -4.0231852 0.0022821687   -5.0047118    0.9815266   439061 
 1819000   0.65519635   -5.0057694   -5.0057694   -4.0229771 5.6857366e-06   -5.0057694   0.98279228   439061 
 1820000   0.65473194   -5.0042011   -5.0042011   -4.0221054 0.0010338689   -5.0042011   0.98209568   439061 
 1821000   0.65466521   -5.0045739   -5.0045739   -4.0225784  0.004559742   -5.0045739   0.98199557   439061 
 1822000   0.65481034   -5.0056646   -5.0056646   -4.0234513 -0.0038217939   -5.0056646   0.98221327   439061 
 1823000   0.65405734   -5.0039588   -5.0039588    -4.022875 0.0035767627   -5.0039588   0.98108378   439061 
 1824000   0.65407978   -5.0049969   -5.0049969   -4.0238794 0.00088346884   -5.0049969   0.98111744   439061 
 1825000   0.65448065   -5.0053493   -5.0053493   -4.0236306 0.00082359392   -5.0053493   0.98171874   439061 
 1826000   0.65514041   -5.0048544   -5.0048544   -4.0221461 0.0062146375   -5.0048544   0.98270838   439061 
 1827000    0.6556977   -5.0064025   -5.0064025   -4.0228582 0.0023048752   -5.0064025    0.9835443   439061 
 1828000   0.65459419   -5.0044252   -5.0044252   -4.0225361 0.0088120991   -5.0044252   0.98188905   439061 
 1829000   0.65557408   -5.0064552   -5.0064552   -4.0230963 0.0050663494   -5.0064552   0.98335887   439061 
 1830000   0.65462456   -5.0052972   -5.0052972   -4.0233625 0.0037779439   -5.0052972   0.98193461   439061 
 1831000   0.65494598   -5.0060593   -5.0060593   -4.0236426 0.0045274489   -5.0060593   0.98241673   439061 
 1832000   0.65559106    -5.007022    -5.007022   -4.0236377 0.0025142823    -5.007022   0.98338435   439061 
 1833000   0.65455487   -5.0048624   -5.0048624   -4.0230323 0.0038548098   -5.0048624   0.98183007   439061 
 1834000   0.65488838   -5.0048944   -5.0048944   -4.0225641 0.0022944485   -5.0048944   0.98233034   439061 
 1835000   0.65456841   -5.0044528   -5.0044528   -4.0226024 0.00065085756   -5.0044528   0.98185037   439061 
 1836000   0.65379818    -5.004335    -5.004335   -4.0236399 0.0010355209    -5.004335   0.98069503   439061 
 1837000   0.65427219   -5.0039878   -5.0039878   -4.0225818 -0.0007831933   -5.0039878   0.98140605   439061 
 1838000   0.65398119   -5.0042091   -5.0042091   -4.0232396 -0.00032763623   -5.0042091   0.98096955   439061 
 1839000   0.65491586   -5.0060072   -5.0060072   -4.0236356 -5.0123903e-06   -5.0060072   0.98237155   439061 
 1840000   0.65435577   -5.0062324   -5.0062324    -4.024701 0.0040328273   -5.0062324   0.98153142   439061 
 1841000   0.65459497   -5.0064433   -5.0064433   -4.0245531 0.0064955183   -5.0064433   0.98189022   439061 
 1842000    0.6551858   -5.0080271   -5.0080271   -4.0252506 0.00042235813   -5.0080271   0.98277647   439061 
 1843000   0.65400805   -5.0072424   -5.0072424   -4.0262326  0.003723676   -5.0072424   0.98100985   439061 
 1844000   0.65474979   -5.0090915   -5.0090915    -4.026969 -0.00026914554   -5.0090915   0.98212245   439061 
 1845000   0.65425517   -5.0079614   -5.0079614   -4.0265809 0.0063094712   -5.0079614   0.98138052   439061 
 1846000    0.6544983   -5.0098278   -5.0098278   -4.0280826 -5.5565885e-05   -5.0098278   0.98174521   439061 
 1847000   0.65474468   -5.0091555   -5.0091555   -4.0270407 4.7415645e-05   -5.0091555   0.98211479   439061 
 1848000   0.65436814   -5.0096557   -5.0096557   -4.0281057 -0.0014348142   -5.0096557   0.98154998   439061 
 1849000   0.65417846    -5.008634    -5.008634   -4.0273686 0.0022435443    -5.008634   0.98126546   439061 
 1850000   0.65366896    -5.008291    -5.008291   -4.0277898 0.0029254233    -5.008291   0.98050121   439061 
 1851000    0.6536723   -5.0084543   -5.0084543   -4.0279481 0.00023958313   -5.0084543   0.98050622   439061 
 1852000   0.65385983   -5.0089428   -5.0089428   -4.0281553 0.0028146188   -5.0089428    0.9807875   439061 
 1853000    0.6549398   -5.0100853   -5.0100853   -4.0276779 0.0014349803   -5.0100853   0.98240747   439061 
 1854000    0.6546435    -5.009681    -5.009681   -4.0277179 0.0040185825    -5.009681   0.98196302   439061 
 1855000   0.65246492   -5.0075408   -5.0075408   -4.0288457 0.0020665683   -5.0075408   0.97869515   439061 
 1856000   0.65395421   -5.0094648   -5.0094648   -4.0285357 -0.00041830042   -5.0094648   0.98092908   439061 
 1857000   0.65329903   -5.0104229   -5.0104229   -4.0304766 0.00033760565   -5.0104229   0.97994631   439061 
 1858000   0.65344813   -5.0094776   -5.0094776   -4.0293077 -0.0019891824   -5.0094776   0.98016996   439061 
 1859000   0.65421986   -5.0104175   -5.0104175   -4.0290899 0.0059274744   -5.0104175   0.98132755   439061 
 1860000   0.65424575   -5.0104777   -5.0104777   -4.0291113 0.0051861542   -5.0104777   0.98136639   439061 
 1861000   0.65332645   -5.0094482   -5.0094482   -4.0294608 0.0083910636   -5.0094482   0.97998744   439061 
 1862000   0.65374993   -5.0096618   -5.0096618   -4.0290391  0.006631737   -5.0096618   0.98062265   439061 
 1863000   0.65336925   -5.0093143   -5.0093143   -4.0292627  0.006574567   -5.0093143   0.98005165   439061 
 1864000   0.65451927   -5.0101998   -5.0101998   -4.0284231 0.0038847304   -5.0101998   0.98177667   439061 
 1865000   0.65448134   -5.0083396   -5.0083396   -4.0266198 0.0027801352   -5.0083396   0.98171977   439061 
 1866000   0.65333259   -5.0085459   -5.0085459   -4.0285492 -0.0028603597   -5.0085459   0.97999665   439061 
 1867000   0.65274492   -5.0080626   -5.0080626   -4.0289475 0.00088550843   -5.0080626   0.97911515   439061 
 1868000   0.65478807   -5.0096003   -5.0096003   -4.0274204 -0.0048459842   -5.0096003   0.98217987   439061 
 1869000   0.65274184   -5.0067774   -5.0067774   -4.0276668 0.00088250164   -5.0067774   0.97911053   439061 
 1870000    0.6550548   -5.0096221   -5.0096221   -4.0270422 -0.0041568235   -5.0096221   0.98257996   439061 
 1871000   0.65344015   -5.0073028   -5.0073028   -4.0271448 0.0068006788   -5.0073028   0.98015799   439061 
 1872000   0.65430081   -5.0081677   -5.0081677   -4.0267187 0.0072511457   -5.0081677   0.98144898   439061 
 1873000   0.65497619   -5.0099533   -5.0099533   -4.0274912 0.0012948504   -5.0099533   0.98246205   439061 
 1874000   0.65442141   -5.0094115   -5.0094115   -4.0277816 0.0036068656   -5.0094115   0.98162988   439061 
 1875000   0.65452249   -5.0097752   -5.0097752   -4.0279937 0.0035573599   -5.0097752    0.9817815   439061 
 1876000   0.65444943   -5.0100541   -5.0100541   -4.0283822 0.0029949165   -5.0100541    0.9816719   439061 
 1877000   0.65388632   -5.0105483   -5.0105483   -4.0297211 0.0005435794   -5.0105483   0.98082725   439061 
 1878000   0.65326751   -5.0092266   -5.0092266   -4.0293275 0.00083930311   -5.0092266   0.97989903   439061 
 1879000   0.65290862   -5.0089469   -5.0089469   -4.0295862 -0.00072691447   -5.0089469    0.9793607   439061 
 1880000   0.65378413   -5.0098736   -5.0098736   -4.0291997 0.00099389527   -5.0098736   0.98067397   439061 
 1881000   0.65472705   -5.0111511   -5.0111511   -4.0290628 0.0024519357   -5.0111511   0.98208834   439061 
 1882000   0.65322029   -5.0083987   -5.0083987   -4.0285705 0.0056189435   -5.0083987   0.97982821   439061 
 1883000   0.65405705   -5.0094279   -5.0094279   -4.0283445 0.0046713431   -5.0094279   0.98108334   439061 
 1884000   0.65475002   -5.0102225   -5.0102225   -4.0280997 0.0065838002   -5.0102225   0.98212279   439061 
 1885000   0.65426366   -5.0098643   -5.0098643    -4.028471 0.0084671715   -5.0098643   0.98139326   439061 
 1886000   0.65523561   -5.0121782   -5.0121782    -4.029327 0.0032547252   -5.0121782   0.98285118   439061 
 1887000   0.65316891   -5.0086846   -5.0086846   -4.0289335 0.0036615702   -5.0086846   0.97975113   439061 
 1888000   0.65387784    -5.010655    -5.010655   -4.0298405 -0.001341575    -5.010655   0.98081453   439061 
 1889000   0.65390684   -5.0105123   -5.0105123   -4.0296542 0.0012560789   -5.0105123   0.98085803   439061 
 1890000   0.65413152    -5.009451    -5.009451   -4.0282559 0.0010856757    -5.009451   0.98119504   439061 
 1891000   0.65474454   -5.0107893   -5.0107893   -4.0286747 0.0016406911   -5.0107893   0.98211458   439061 
 1892000    0.6540337     -5.00827     -5.00827   -4.0272217 0.0026642183     -5.00827   0.98104832   439061 
 1893000   0.65457745   -5.0090629   -5.0090629   -4.0271989 0.0032304423   -5.0090629   0.98186394   439061 
 1894000   0.65449733   -5.0097192   -5.0097192   -4.0279755  0.001654167   -5.0097192   0.98174377   439061 
 1895000   0.65358695   -5.0087295   -5.0087295   -4.0283513 -0.00097300026   -5.0087295   0.98037819   439061 
 1896000   0.65325563   -5.0079894   -5.0079894   -4.0281082 0.00020579056   -5.0079894   0.97988121   439061 
 1897000   0.65352202   -5.0085347   -5.0085347   -4.0282539 0.00058503724   -5.0085347   0.98028079   439061 
 1898000    0.6553786   -5.0105858   -5.0105858   -4.0275201 0.00058088373   -5.0105858   0.98306566   439061 
 1899000   0.65397725   -5.0088842   -5.0088842   -4.0279206  0.004721782   -5.0088842   0.98096364   439061 
 1900000   0.65410504   -5.0092632   -5.0092632   -4.0281079 0.0023025707   -5.0092632   0.98115533   439061 
 1901000   0.65404285   -5.0100532   -5.0100532   -4.0289911 -0.0026982138   -5.0100532   0.98106204   439061 
 1902000   0.65310866    -5.009266    -5.009266   -4.0296052 0.00027903093    -5.009266   0.97966075   439061 
 1903000   0.65357243   -5.0101646   -5.0101646   -4.0298082 0.0017449952   -5.0101646   0.98035642   439061 
 1904000   0.65376302   -5.0105034   -5.0105034   -4.0298611 -0.0011677295   -5.0105034    0.9806423   439061 
 1905000   0.65425383   -5.0108068   -5.0108068   -4.0294283 0.0022104871   -5.0108068   0.98137851   439061 
 1906000   0.65328552   -5.0103935   -5.0103935   -4.0304674 0.0024736014   -5.0103935   0.97992605   439061 
 1907000   0.65415528   -5.0117346   -5.0117346    -4.030504 0.0054243116   -5.0117346   0.98123069   439061 
 1908000   0.65339262   -5.0105385   -5.0105385   -4.0304518 0.0019135527   -5.0105385    0.9800867   439061 
 1909000   0.65240302   -5.0093968   -5.0093968   -4.0307945 0.0031024206   -5.0093968    0.9786023   439061 
 1910000   0.65388815   -5.0111511   -5.0111511   -4.0303211 0.0055940752   -5.0111511   0.98082999   439061 
 1911000   0.65362673   -5.0110494   -5.0110494   -4.0306116 0.0057656075   -5.0110494   0.98043787   439061 
 1912000   0.65355492   -5.0113873   -5.0113873   -4.0310571 0.0048532689   -5.0113873   0.98033015   439061 
 1913000   0.65313212   -5.0099596   -5.0099596   -4.0302637 0.0016527996   -5.0099596   0.97969594   439061 
 1914000   0.65436635   -5.0122813   -5.0122813    -4.030734 -0.00079338876   -5.0122813   0.98154728   439061 
 1915000   0.65378162   -5.0110374   -5.0110374   -4.0303672 0.0016302234   -5.0110374   0.98067019   439061 
 1916000   0.65375584   -5.0094384   -5.0094384   -4.0288069 0.00086354741   -5.0094384   0.98063152   439061 
 1917000   0.65360458   -5.0092202   -5.0092202   -4.0288156 0.0023389406   -5.0092202   0.98040464   439061 
 1918000   0.65352122   -5.0095073   -5.0095073   -4.0292277 -0.00021212145   -5.0095073    0.9802796   439061 
 1919000   0.65270807   -5.0086237   -5.0086237   -4.0295638 0.00081219498   -5.0086237   0.97905988   439061 
 1920000   0.65209668   -5.0077808   -5.0077808    -4.029638 0.00020724454   -5.0077808    0.9781428   439061 
 1921000   0.65252073   -5.0087921   -5.0087921   -4.0300133 0.00075659867   -5.0087921   0.97877886   439061 
 1922000   0.65280677   -5.0095026   -5.0095026   -4.0302947 -0.00045675653   -5.0095026   0.97920792   439061 
 1923000   0.65246082   -5.0094703   -5.0094703   -4.0307813 0.0034147746   -5.0094703     0.978689   439061 
 1924000   0.65306672   -5.0115862   -5.0115862   -4.0319884 0.0017284318   -5.0115862   0.97959784   439061 
 1925000   0.65317691    -5.011554    -5.011554   -4.0317909 0.0051242077    -5.011554   0.97976313   439061 
 1926000   0.65373416   -5.0132496   -5.0132496   -4.0326506   0.00483426   -5.0132496   0.98059901   439061 
 1927000   0.65390258   -5.0126653   -5.0126653   -4.0318137 0.0081901153   -5.0126653   0.98085163   439061 
 1928000   0.65381266   -5.0124093   -5.0124093   -4.0316925 0.0093075248   -5.0124093   0.98071675   439061 
 1929000   0.65364811   -5.0133849   -5.0133849   -4.0329149 0.0062422949   -5.0133849   0.98046993   439061 
 1930000   0.65249287   -5.0120823   -5.0120823   -4.0333452 0.0038040242   -5.0120823   0.97873708   439061 
 1931000   0.65338549   -5.0122577   -5.0122577   -4.0321817 0.0001683544   -5.0122577     0.980076   439061 
 1932000   0.65361638   -5.0119677   -5.0119677   -4.0315454 -0.00086265237   -5.0119677   0.98042233   439061 
 1933000   0.65354905   -5.0117009   -5.0117009   -4.0313796 -0.0025338402   -5.0117009   0.98032134   439061 
 1934000   0.65331701   -5.0115262   -5.0115262   -4.0315529 0.00034048578   -5.0115262   0.97997328   439061 
 1935000     0.652443   -5.0101201   -5.0101201   -4.0314579 0.00026211588   -5.0101201   0.97866227   439061 
 1936000   0.65249465   -5.0112604   -5.0112604   -4.0325206 -0.0020518414   -5.0112604   0.97873975   439061 
 1937000   0.65233007   -5.0109554   -5.0109554   -4.0324626 0.0012575062   -5.0109554   0.97849287   439061 
 1938000   0.65347474   -5.0125234   -5.0125234   -4.0323135 0.0025891941   -5.0125234   0.98020987   439061 
 1939000   0.65404992   -5.0131406   -5.0131406    -4.032068 0.0035758834   -5.0131406   0.98107265   439061 
 1940000   0.65323837    -5.011934    -5.011934   -4.0320787  0.011802539    -5.011934   0.97985533   439061 
 1941000   0.65395623   -5.0130982   -5.0130982   -4.0321661 0.0083686406   -5.0130982   0.98093211   439061 
 1942000    0.6540881   -5.0141294   -5.0141294   -4.0329995 0.0061823115   -5.0141294   0.98112991   439061 
 1943000   0.65382421   -5.0132766   -5.0132766   -4.0325425 0.0029967096   -5.0132766   0.98073409   439061 
 1944000   0.65332917    -5.013753    -5.013753   -4.0337615 -0.00027243509    -5.013753   0.97999153   439061 
 1945000   0.65183507   -5.0101912   -5.0101912   -4.0324408 0.0056934974   -5.0101912   0.97775037   439061 
 1946000    0.6533391   -5.0128929   -5.0128929   -4.0328865 -0.0037489671   -5.0128929   0.98000642   439061 
 1947000   0.65421875   -5.0135065   -5.0135065   -4.0321807 -0.0037048883   -5.0135065   0.98132589   439061 
 1948000   0.65254489   -5.0107801   -5.0107801    -4.031965 0.0027901188   -5.0107801   0.97881511   439061 
 1949000   0.65297124   -5.0118192   -5.0118192   -4.0323646 0.00069545527   -5.0118192   0.97945462   439061 
 1950000   0.65289968   -5.0123365   -5.0123365   -4.0329892 0.0019589269   -5.0123365   0.97934729   439061 
 1951000   0.65413796   -5.0132067   -5.0132067    -4.032002 0.0025460538   -5.0132067   0.98120471   439061 
 1952000   0.65288048   -5.0130581   -5.0130581   -4.0337396 -0.0019130881   -5.0130581   0.97931849   439061 
 1953000   0.65340723    -5.013909    -5.013909   -4.0338003 -8.083977e-05    -5.013909   0.98010862   439061 
 1954000   0.65281254    -5.013415    -5.013415   -4.0341985 0.0029025916    -5.013415   0.97921658   439061 
 1955000   0.65374221   -5.0148424   -5.0148424   -4.0342314 0.0067792181   -5.0148424   0.98061107   439061 
 1956000   0.65346953    -5.014121    -5.014121   -4.0339189 0.0081503526    -5.014121   0.98020206   439061 
 1957000   0.65302339   -5.0127193   -5.0127193   -4.0331864 0.0077744496   -5.0127193   0.97953286   439061 
 1958000   0.65344081    -5.014603    -5.014603    -4.034444 0.0038884916    -5.014603   0.98015898   439061 
 1959000   0.65309925   -5.0144432   -5.0144432   -4.0347965 0.00013038701   -5.0144432   0.97964664   439061 
 1960000   0.65244269   -5.0128068   -5.0128068    -4.034145 0.0017956217   -5.0128068    0.9786618   439061 
 1961000   0.65162116   -5.0122445   -5.0122445   -4.0348149 0.0010101419   -5.0122445   0.97742951   439061 
 1962000   0.65246224   -5.0142773   -5.0142773   -4.0355861 -0.0020347949   -5.0142773   0.97869113   439061 
 1963000   0.65289941   -5.0141993   -5.0141993   -4.0348524 -0.00062320975   -5.0141993   0.97934688   439061 
 1964000   0.65229379     -5.01264     -5.01264   -4.0342016 0.0010585162     -5.01264   0.97843845   439061 
 1965000    0.6526477   -5.0135882   -5.0135882   -4.0346188 0.0001992372   -5.0135882   0.97896933   439061 
 1966000    0.6531665   -5.0139716   -5.0139716   -4.0342241  0.006871037   -5.0139716   0.97974751   439061 
 1967000   0.65334989   -5.0142216   -5.0142216    -4.034199  0.002929759   -5.0142216    0.9800226   439061 
 1968000   0.65259259   -5.0142711   -5.0142711   -4.0353844 0.0047126598   -5.0142711   0.97888665   439061 
 1969000   0.65184099   -5.0144793   -5.0144793     -4.03672 0.0013507789   -5.0144793   0.97775926   439061 
 1970000   0.65274078   -5.0168215   -5.0168215   -4.0377126 -0.0018066975   -5.0168215   0.97910894   439061 
 1971000   0.65282131    -5.016172    -5.016172   -4.0369422 0.0022332612    -5.016172   0.97922974   439061 
 1972000   0.65232484   -5.0147114   -5.0147114   -4.0362264 0.0069366772   -5.0147114   0.97848503   439061 
 1973000   0.65420439   -5.0160618   -5.0160618   -4.0347575 0.0044414539   -5.0160618   0.98130435   439061 
 1974000   0.65364431   -5.0149747   -5.0149747   -4.0345105 0.0064062033   -5.0149747   0.98046423   439061 
 1975000    0.6529989   -5.0151874   -5.0151874   -4.0356913 0.0058778711   -5.0151874   0.97949611   439061 
 1976000   0.65257464   -5.0142191   -5.0142191   -4.0353593 0.0025821998   -5.0142191   0.97885973   439061 
 1977000   0.65145385   -5.0123119   -5.0123119   -4.0351334 -0.0012745908   -5.0123119   0.97717854   439061 
 1978000    0.6517217   -5.0123236   -5.0123236   -4.0347433 -0.00080341739   -5.0123236   0.97758033   439061 
 1979000   0.65318878   -5.0144205   -5.0144205   -4.0346396 -0.00053389761   -5.0144205   0.97978094   439061 
 1980000   0.65226436   -5.0122042   -5.0122042   -4.0338099 0.0018372565   -5.0122042   0.97839431   439061 
 1981000   0.65356345   -5.0142663   -5.0142663   -4.0339234 -0.0026094308   -5.0142663   0.98034294   439061 
 1982000   0.65307159   -5.0145608   -5.0145608   -4.0349557 9.6876293e-06   -5.0145608   0.97960515   439061 
 1983000   0.65378035   -5.0139082   -5.0139082   -4.0332399 0.0025069336   -5.0139082   0.98066829   439061 
 1984000   0.65405152   -5.0147037   -5.0147037   -4.0336287 0.0046926356   -5.0147037   0.98107505   439061 
 1985000   0.65487129   -5.0151096   -5.0151096    -4.032805 0.0066762503   -5.0151096    0.9823047   439061 
 1986000   0.65273377   -5.0129818   -5.0129818   -4.0338834 0.0063479589   -5.0129818   0.97909843   439061 
 1987000   0.65267288   -5.0135743   -5.0135743   -4.0345672 0.0034545922   -5.0135743   0.97900709   439061 
 1988000    0.6526814   -5.0136508   -5.0136508   -4.0346309 0.0049550707   -5.0136508   0.97901987   439061 
 1989000   0.65317218   -5.0131854   -5.0131854   -4.0334293 0.0054523121   -5.0131854   0.97975603   439061 
 1990000   0.65321806   -5.0122761   -5.0122761   -4.0324512 0.0029199112   -5.0122761   0.97982486   439061 
 1991000    0.6531706   -5.0134853   -5.0134853   -4.0337317 0.00096892526   -5.0134853   0.97975367   439061 
 1992000   0.65222405   -5.0122716   -5.0122716   -4.0339377 0.0030178651   -5.0122716   0.97833384   439061 
 1993000    0.6530884   -5.0134782   -5.0134782   -4.0338479 -0.00013867383   -5.0134782   0.97963037   439061 
 1994000   0.65209564    -5.011391    -5.011391   -4.0332498 0.0048030208    -5.011391   0.97814123   439061 
 1995000   0.65265907   -5.0135576   -5.0135576   -4.0345712 -0.0040933248   -5.0135576   0.97898638   439061 
 1996000   0.65274035   -5.0136734   -5.0136734   -4.0345652 -0.0013093918   -5.0136734   0.97910829   439061 
 1997000   0.65229812   -5.0130163   -5.0130163   -4.0345714 0.0054732756   -5.0130163   0.97844496   439061 
 1998000   0.65283718   -5.0133649   -5.0133649   -4.0341114 0.0026947138   -5.0133649   0.97925353   439061 
 1999000   0.65273907   -5.0139671   -5.0139671   -4.0348607 0.0015795638   -5.0139671   0.97910638   439061 
 2000000   0.65403102   -5.0151815   -5.0151815   -4.0341372 0.0042849218   -5.0151815    0.9810443   439061 
 2001000   0.65356578   -5.0158534   -5.0158534    -4.035507 0.0044739288   -5.0158534   0.98034643   439061 
 2002000    0.6533584   -5.0161177   -5.0161177   -4.0360823  0.002158474   -5.0161177   0.98003537   439061 
 2003000   0.65326865   -5.0167044   -5.0167044   -4.0368037 -0.00071106957   -5.0167044   0.97990074   439061 
 2004000    0.6526319   -5.0154095   -5.0154095   -4.0364639 0.0024372677   -5.0154095   0.97894562   439061 
 2005000   0.65374827   -5.0178536   -5.0178536   -4.0372334 0.0030494127   -5.0178536   0.98062017   439061 
 2006000   0.65332455   -5.0161867   -5.0161867   -4.0362021 0.0048424312   -5.0161867   0.97998459   439061 
 2007000   0.65364085   -5.0171211   -5.0171211   -4.0366621 0.0046358634   -5.0171211   0.98045904   439061 
 2008000   0.65251165   -5.0159422   -5.0159422    -4.037177 0.0021214239   -5.0159422   0.97876525   439061 
 2009000   0.65261636   -5.0160752   -5.0160752   -4.0371529 0.0024914041   -5.0160752   0.97892231   439061 
 2010000   0.65186532   -5.0142404   -5.0142404   -4.0364447 0.0035989382   -5.0142404   0.97779575   439061 
 2011000   0.65154506   -5.0137294   -5.0137294    -4.036414 0.0018015061   -5.0137294   0.97731537   439061 
 2012000    0.6527448   -5.0152288   -5.0152288   -4.0361138 0.0046395948   -5.0152288   0.97911496   439061 
 2013000   0.65173534   -5.0141033   -5.0141033   -4.0365025 0.0057208753   -5.0141033   0.97760078   439061 
 2014000   0.65219021   -5.0131468   -5.0131468   -4.0348637 0.0044757528   -5.0131468   0.97828309   439061 
 2015000   0.65281927   -5.0129939   -5.0129939   -4.0337672 0.0039152721   -5.0129939   0.97922667   439061 
 2016000   0.65162685   -5.0129348   -5.0129348   -4.0354967 0.0057669154   -5.0129348   0.97743805   439061 
 2017000   0.65282685   -5.0143224   -5.0143224   -4.0350844 0.0040616952   -5.0143224   0.97923804   439061 
 2018000    0.6520723   -5.0133477   -5.0133477   -4.0352415 -0.00035289686   -5.0133477   0.97810622   439061 
 2019000   0.65293615   -5.0146441   -5.0146441   -4.0352421 0.0018502364   -5.0146441   0.97940199   439061 
 2020000   0.65293074    -5.015018    -5.015018   -4.0356241 0.0034992865    -5.015018   0.97939389   439061 
 2021000   0.65202024   -5.0147069   -5.0147069   -4.0366788 0.0041998956   -5.0147069   0.97802813   439061 
 2022000   0.65264505   -5.0147891   -5.0147891   -4.0358237 0.0030164527   -5.0147891   0.97896534   439061 
 2023000   0.65272576   -5.0148964   -5.0148964     -4.03581 0.0047078176   -5.0148964   0.97908641   439061 
 2024000   0.65389306   -5.0163616   -5.0163616   -4.0355243 0.0079960012   -5.0163616   0.98083736   439061 
 2025000   0.65335444   -5.0157476   -5.0157476   -4.0357181  0.011924678   -5.0157476   0.98002943   439061 
 2026000   0.65314013   -5.0157667   -5.0157667   -4.0360588 0.0042971206   -5.0157667   0.97970796   439061 
 2027000   0.65386931   -5.0161291   -5.0161291   -4.0353273 -0.0010248689   -5.0161291   0.98080173   439061 
 2028000   0.65234708   -5.0143728   -5.0143728   -4.0358544 0.0021676041   -5.0143728   0.97851839   439061 
 2029000   0.65159727   -5.0130298   -5.0130298   -4.0356362 -0.0029606836   -5.0130298   0.97739368   439061 
 2030000   0.65122406   -5.0131887   -5.0131887   -4.0363548 0.0014816233   -5.0131887   0.97683387   439061 
 2031000   0.65101113   -5.0138896   -5.0138896   -4.0373752 -0.001359147   -5.0138896   0.97651447   439061 
 2032000   0.65130334   -5.0137483   -5.0137483   -4.0367955  0.001526269   -5.0137483   0.97695279   439061 
 2033000   0.65119021   -5.0131037   -5.0131037   -4.0363207 0.0014040638   -5.0131037   0.97678309   439061 
 2034000   0.65265854   -5.0158818   -5.0158818   -4.0368962 0.0021758676   -5.0158818   0.97898557   439061 
 2035000   0.65255645   -5.0161789   -5.0161789   -4.0373464 -0.00047403303   -5.0161789   0.97883244   439061 
 2036000   0.65264635   -5.0175917   -5.0175917   -4.0386244 0.00077047113   -5.0175917   0.97896729   439061 
 2037000   0.65147528   -5.0158631   -5.0158631   -4.0386524 0.0048324777   -5.0158631   0.97721069   439061 
 2038000   0.65371872   -5.0185428   -5.0185428    -4.037967 0.0063793266   -5.0185428   0.98057585   439061 
 2039000   0.65391599   -5.0190395   -5.0190395   -4.0381677 0.0067383614   -5.0190395   0.98087174   439061 
 2040000   0.65321037   -5.0183837   -5.0183837   -4.0385704 0.0073434174   -5.0183837   0.97981332   439061 
 2041000   0.65366444   -5.0188535   -5.0188535   -4.0383591  0.006848933   -5.0188535   0.98049442   439061 
 2042000   0.65290897   -5.0174807   -5.0174807   -4.0381195 0.0044531739   -5.0174807   0.97936123   439061 
 2043000   0.65222271   -5.0163676   -5.0163676   -4.0380358 0.0041436292   -5.0163676   0.97833184   439061 
 2044000   0.65210093   -5.0159586   -5.0159586   -4.0378094 0.0032909115   -5.0159586   0.97814917   439061 
 2045000   0.65302627   -5.0163127   -5.0163127   -4.0367755 -0.0046523777   -5.0163127   0.97953718   439061 
 2046000    0.6512278   -5.0135815   -5.0135815    -4.036742 -0.0006006871   -5.0135815   0.97683948   439061 
 2047000   0.65108623    -5.013465    -5.013465   -4.0368379 0.00099364875    -5.013465   0.97662712   439061 
 2048000   0.65081862   -5.0132701   -5.0132701   -4.0370444 5.1537574e-05   -5.0132701    0.9762257   439061 
 2049000   0.65283583   -5.0161756   -5.0161756   -4.0369241 0.00068319424   -5.0161756   0.97925151   439061 
 2050000   0.65226206   -5.0156786   -5.0156786   -4.0372878 0.0025607769   -5.0156786   0.97839086   439061 
 2051000   0.65287037   -5.0163682   -5.0163682   -4.0370649 0.0073635359   -5.0163682   0.97930333   439061 
 2052000   0.65243053   -5.0153411   -5.0153411   -4.0366975 0.0080751374   -5.0153411   0.97864357   439061 
 2053000   0.65223773   -5.0156392   -5.0156392   -4.0372849  0.006168443   -5.0156392   0.97835437   439061 
 2054000   0.65291279   -5.0172694   -5.0172694   -4.0379024 0.0018412777   -5.0172694   0.97936696   439061 
 2055000   0.65237531   -5.0180815   -5.0180815   -4.0395208 0.0017516528   -5.0180815   0.97856074   439061 
 2056000   0.65103392    -5.016313    -5.016313   -4.0397643 0.0046628269    -5.016313   0.97654865   439061 
 2057000   0.65184756   -5.0165094   -5.0165094   -4.0387403 0.0031843033   -5.0165094   0.97776912   439061 
 2058000   0.65257151   -5.0169168   -5.0169168   -4.0380618 0.0031868003   -5.0169168   0.97885503   439061 
 2059000   0.65183348   -5.0168599   -5.0168599   -4.0391119 0.0023734176   -5.0168599     0.977748   439061 
 2060000   0.65192174   -5.0156742   -5.0156742   -4.0377939 0.0045725506   -5.0156742   0.97788038   439061 
 2061000   0.65301453   -5.0174587   -5.0174587   -4.0379391 -0.0025057066   -5.0174587   0.97951957   439061 
 2062000   0.65108968   -5.0155927   -5.0155927   -4.0389605 0.0028555633   -5.0155927   0.97663229   439061 
 2063000     0.651925   -5.0166791   -5.0166791   -4.0387939 -0.00046026424   -5.0166791   0.97788527   439061 
 2064000   0.65240943   -5.0163213   -5.0163213   -4.0377094 0.0060736365   -5.0163213   0.97861191   439061 
 2065000   0.65232138   -5.0168716   -5.0168716   -4.0383918 0.0022495798   -5.0168716   0.97847984   439061 
 2066000   0.65173587    -5.016072    -5.016072   -4.0384704 0.0032378015    -5.016072   0.97760158   439061 
 2067000    0.6521256   -5.0161371   -5.0161371   -4.0379509 0.0022650749   -5.0161371   0.97818617   439061 
 2068000   0.65255246   -5.0156223   -5.0156223   -4.0367959 0.0040790619   -5.0156223   0.97882646   439061 
 2069000   0.65274389   -5.0166751   -5.0166751   -4.0375614   0.00822303   -5.0166751   0.97911361   439061 
 2070000   0.65271854   -5.0165553   -5.0165553   -4.0374797 0.0063133879   -5.0165553   0.97907558   439061 
 2071000   0.65235432   -5.0168359   -5.0168359   -4.0383066 -0.0015071693   -5.0168359   0.97852926   439061 
 2072000   0.65179824   -5.0168188   -5.0168188   -4.0391237 0.0020164642   -5.0168188   0.97769514   439061 
 2073000   0.65115329   -5.0162549   -5.0162549   -4.0395272 0.0068533508   -5.0162549   0.97672771   439061 
 2074000    0.6520993   -5.0165275   -5.0165275   -4.0383808 0.0075187601   -5.0165275   0.97814672   439061 
 2075000    0.6532521   -5.0177236   -5.0177236   -4.0378477 0.0011974931   -5.0177236   0.97987592   439061 
 2076000   0.65324848   -5.0172252   -5.0172252   -4.0373547 0.0011038292   -5.0172252   0.97987049   439061 
 2077000   0.65172718   -5.0172446   -5.0172446    -4.039656  0.001868052   -5.0172446   0.97758854   439061 
 2078000   0.65145609   -5.0177324   -5.0177324   -4.0405505 0.00052517976   -5.0177324   0.97718192   439061 
 2079000   0.65234698   -5.0179982   -5.0179982   -4.0394799 -7.8109498e-05   -5.0179982   0.97851824   439061 
 2080000   0.65133799   -5.0165636   -5.0165636   -4.0395588 -0.0021405514   -5.0165636   0.97700476   439061 
 2081000   0.65260987   -5.0188092   -5.0188092   -4.0398966 -0.00043693341   -5.0188092   0.97891257   439061 
 2082000   0.65284699   -5.0187071   -5.0187071   -4.0394388 0.0020370823   -5.0187071   0.97926826   439061 
 2083000   0.65357772   -5.0186536   -5.0186536   -4.0382892 0.0035932689   -5.0186536   0.98036435   439061 
 2084000   0.65294631   -5.0178679   -5.0178679   -4.0384506 0.0043664762   -5.0178679   0.97941723   439061 
 2085000   0.65164358   -5.0170008   -5.0170008   -4.0395377  0.005636929   -5.0170008   0.97746315   439061 
 2086000   0.65164911   -5.0170134   -5.0170134    -4.039542 0.0025884238   -5.0170134   0.97747144   439061 
 2087000   0.65187796   -5.0177755   -5.0177755   -4.0399607 0.0004006704   -5.0177755   0.97781471   439061 
 2088000   0.65205052   -5.0172662   -5.0172662   -4.0391926 0.0022832239   -5.0172662   0.97807355   439061 
 2089000   0.65246135   -5.0159987   -5.0159987   -4.0373088 0.0050290057   -5.0159987    0.9786898   439061 
 2090000   0.65277591   -5.0165486   -5.0165486   -4.0373869 -0.001758611   -5.0165486   0.97916164   439061 
 2091000   0.65215454   -5.0165186   -5.0165186    -4.038289 0.0047745568   -5.0165186   0.97822959   439061 
 2092000   0.65242466   -5.0173314   -5.0173314   -4.0386967 0.0012686056   -5.0173314   0.97863475   439061 
 2093000   0.65222866   -5.0167824   -5.0167824   -4.0384416 0.0036423804   -5.0167824   0.97834075   439061 
 2094000   0.65153251   -5.0166351   -5.0166351   -4.0393386 0.0015880836   -5.0166351   0.97729654   439061 
 2095000   0.65230552   -5.0182635   -5.0182635   -4.0398074  0.001301044   -5.0182635   0.97845605   439061 
 2096000   0.65319476   -5.0195736   -5.0195736   -4.0397837 -0.0043881649   -5.0195736   0.97978991   439061 
 2097000   0.65315481   -5.0188588   -5.0188588   -4.0391288 0.0039802364   -5.0188588   0.97972999   439061 
 2098000   0.65259631   -5.0186324   -5.0186324   -4.0397401 0.0058092097   -5.0186324   0.97889224   439061 
 2099000   0.65207732   -5.0182405   -5.0182405   -4.0401267 0.0041315633   -5.0182405   0.97811375   439061 
 2100000   0.65172999   -5.0180055   -5.0180055   -4.0404128 0.0045431135   -5.0180055   0.97759276   439061 
 2101000   0.65174423   -5.0180214   -5.0180214   -4.0404073 0.0048386898   -5.0180214   0.97761412   439061 
 2102000   0.65208178   -5.0176606   -5.0176606   -4.0395401 0.0062675856   -5.0176606   0.97812044   439061 
 2103000   0.65169444   -5.0173613   -5.0173613   -4.0398218 0.0034276491   -5.0173613   0.97753943   439061 
 2104000   0.65165932   -5.0179393   -5.0179393   -4.0404525 0.0024948836   -5.0179393   0.97748676   439061 
 2105000   0.65076116   -5.0177833   -5.0177833   -4.0416438 0.0031720274   -5.0177833   0.97613952   439061 
 2106000    0.6518089    -5.019058    -5.019058   -4.0413469 -0.0009875091    -5.019058   0.97771112   439061 
 2107000   0.65098265   -5.0177395   -5.0177395   -4.0412677 0.0024021102   -5.0177395   0.97647175   439061 
 2108000    0.6520117   -5.0186029   -5.0186029   -4.0405875 -0.0013101061   -5.0186029   0.97801532   439061 
 2109000   0.65214468   -5.0192018   -5.0192018    -4.040987  0.004686512   -5.0192018    0.9782148   439061 
 2110000   0.65306738   -5.0204121   -5.0204121   -4.0408132 0.0020780341   -5.0204121   0.97959885   439061 
 2111000   0.65143817   -5.0184767   -5.0184767   -4.0413217 0.0029583686   -5.0184767   0.97715504   439061 
 2112000   0.65244154   -5.0192196   -5.0192196   -4.0405596 0.0010910958   -5.0192196   0.97866008   439061 
 2113000    0.6524126   -5.0193738   -5.0193738   -4.0407571 0.0036326733   -5.0193738   0.97861667   439061 
 2114000   0.65237278   -5.0189703   -5.0189703   -4.0404133 0.0044639719   -5.0189703   0.97855695   439061 
 2115000   0.65235051   -5.0198012   -5.0198012   -4.0412776 0.0022948136   -5.0198012   0.97852354   439061 
 2116000   0.65146072   -5.0196158   -5.0196158    -4.042427 -0.0015555901   -5.0196158   0.97718885   439061 
 2117000   0.65091865   -5.0194829   -5.0194829   -4.0431071 0.00065954163   -5.0194829   0.97637575   439061 
 2118000   0.65148621   -5.0197472   -5.0197472   -4.0425201 -0.0010354882   -5.0197472   0.97722709   439061 
 2119000   0.65135609   -5.0186597   -5.0186597   -4.0416278 0.0081472176   -5.0186597    0.9770319   439061 
 2120000   0.65217098   -5.0201825   -5.0201825   -4.0419283 0.0020396378   -5.0201825   0.97825424   439061 
 2121000   0.65208753   -5.0203232   -5.0203232   -4.0421942 0.0035408501   -5.0203232   0.97812906   439061 
 2122000   0.65125483   -5.0204809   -5.0204809   -4.0436009 -0.0011041246   -5.0204809   0.97688002   439061 
 2123000   0.65091474   -5.0197603   -5.0197603   -4.0433904 0.0060756989   -5.0197603   0.97636989   439061 
 2124000   0.65198232   -5.0208785   -5.0208785   -4.0429072 0.0048970811   -5.0208785   0.97797125   439061 
 2125000   0.65217784   -5.0205173   -5.0205173   -4.0422528 0.0032779934   -5.0205173   0.97826453   439061 
 2126000   0.65289261   -5.0214952   -5.0214952   -4.0421586 0.0052536977   -5.0214952   0.97933669   439061 
 2127000   0.65152797   -5.0202115   -5.0202115   -4.0429218 0.0052207395   -5.0202115   0.97728973   439061 
 2128000   0.65051016   -5.0196772   -5.0196772   -4.0439142 0.00031130549   -5.0196772   0.97576301   439061 
 2129000   0.64991565   -5.0197165   -5.0197165   -4.0448453 -0.00018686431   -5.0197165   0.97487126   439061 
 2130000   0.65098856   -5.0213414   -5.0213414   -4.0448608 0.0021883423   -5.0213414   0.97648062   439061 
 2131000   0.65079654   -5.0202228   -5.0202228   -4.0440303 0.0055381775   -5.0202228   0.97619258   439061 
 2132000   0.65173191   -5.0214727   -5.0214727   -4.0438771 0.0041782059   -5.0214727   0.97759564   439061 
 2133000   0.65203118   -5.0221933   -5.0221933   -4.0441488 0.0016913101   -5.0221933   0.97804454   439061 
 2134000   0.65223454   -5.0208279   -5.0208279   -4.0424783 0.0049513562   -5.0208279   0.97834957   439061 
 2135000   0.65269931   -5.0214084   -5.0214084   -4.0423616 0.0061301552   -5.0214084   0.97904674   439061 
 2136000   0.65167576   -5.0198749   -5.0198749   -4.0423635 0.0054206312   -5.0198749   0.97751142   439061 
 2137000    0.6511562    -5.019141    -5.019141   -4.0424089 0.0023703386    -5.019141   0.97673207   439061 
 2138000   0.65024809   -5.0187223   -5.0187223   -4.0433524 0.00096311627   -5.0187223   0.97536991   439061 
 2139000   0.65012273    -5.019052    -5.019052   -4.0438701 -0.0018462278    -5.019052   0.97518188   439061 
 2140000   0.65070773   -5.0198734   -5.0198734    -4.043814 -0.0028264045   -5.0198734   0.97605937   439061 
 2141000   0.65072227   -5.0198972   -5.0198972    -4.043816 0.0010730265   -5.0198972   0.97608118   439061 
 2142000   0.65116821   -5.0212028   -5.0212028   -4.0444527  0.001507341   -5.0212028   0.97675008   439061 
 2143000   0.65203523   -5.0223885   -5.0223885   -4.0443379 -0.0031197776   -5.0223885   0.97805061   439061 
 2144000    0.6522942   -5.0233538   -5.0233538   -4.0449147 0.0026025473   -5.0233538   0.97843908   439061 
 2145000   0.65185231   -5.0237724   -5.0237724   -4.0459962 0.0040807154   -5.0237724   0.97777624   439061 
 2146000    0.6520243   -5.0234086   -5.0234086   -4.0453744 0.0085507157   -5.0234086   0.97803422   439061 
 2147000   0.65258011   -5.0234685   -5.0234685   -4.0446006 0.0070763061   -5.0234685   0.97886794   439061 
 2148000   0.65175328   -5.0226058   -5.0226058   -4.0449781  0.013083893   -5.0226058    0.9776277   439061 
 2149000   0.65190328   -5.0227264   -5.0227264   -4.0448737 0.0070949535   -5.0227264    0.9778527   439061 
 2150000   0.65166129   -5.0221382   -5.0221382   -4.0446485 0.0071645121   -5.0221382    0.9774897   439061 
 2151000   0.65167848   -5.0210128   -5.0210128   -4.0434973 0.0005622997   -5.0210128    0.9775155   439061 
 2152000   0.65057811   -5.0197806   -5.0197806   -4.0439157 -0.0013861698   -5.0197806   0.97586494   439061 
 2153000   0.65019831   -5.0191755   -5.0191755   -4.0438803 -0.0063086625   -5.0191755   0.97529524   439061 
 2154000   0.65054929   -5.0177603   -5.0177603   -4.0419386 -0.0076089553   -5.0177603   0.97582172   439061 
 2155000   0.65120695   -5.0181456   -5.0181456   -4.0413374 -0.0059275826   -5.0181456    0.9768082   439061 
 2156000   0.65036761   -5.0168403   -5.0168403   -4.0412911 -0.00042110898   -5.0168403   0.97554919   439061 
 2157000   0.65177025   -5.0188796   -5.0188796   -4.0412265 0.0013767706   -5.0188796   0.97765315   439061 
 2158000   0.65132268   -5.0179107   -5.0179107   -4.0409289 0.00018591493   -5.0179107    0.9769818   439061 
 2159000   0.65227522   -5.0184914   -5.0184914   -4.0400808 0.0055610225   -5.0184914   0.97841061   439061 
 2160000   0.65259166   -5.0204987   -5.0204987   -4.0416134 0.0047729343   -5.0204987   0.97888527   439061 
 2161000    0.6529485   -5.0207258   -5.0207258   -4.0413053  0.011687064   -5.0207258   0.97942052   439061 
 2162000   0.65206162   -5.0206759   -5.0206759   -4.0425857  0.006160143   -5.0206759    0.9780902   439061 
 2163000   0.65109689    -5.019957    -5.019957   -4.0433139  0.010442096    -5.019957   0.97664311   439061 
 2164000   0.65160728   -5.0201947   -5.0201947    -4.042786 0.0030908726   -5.0201947   0.97740869   439061 
 2165000   0.65261592   -5.0221111   -5.0221111   -4.0431895 -0.0018029801   -5.0221111   0.97892164   439061 
 2166000   0.65197959    -5.019733    -5.019733   -4.0417658  0.004155152    -5.019733   0.97796716   439061 
 2167000   0.65089002    -5.018966    -5.018966   -4.0426332 0.00048909162    -5.018966   0.97633281   439061 
 2168000   0.65143778   -5.0198592   -5.0198592   -4.0427047 -0.0040067801   -5.0198592   0.97715444   439061 
 2169000   0.65235219    -5.019884    -5.019884   -4.0413579 -0.004276233    -5.019884   0.97852606   439061 
 2170000   0.65220007   -5.0192272   -5.0192272   -4.0409293 0.0019146742   -5.0192272   0.97829787   439061 
 2171000   0.65175588    -5.018322    -5.018322   -4.0406904 0.0060228129    -5.018322   0.97763159   439061 
 2172000   0.65297672   -5.0206426   -5.0206426   -4.0411798 0.0054057143   -5.0206426   0.97946285   439061 
 2173000   0.65288567   -5.0198244   -5.0198244   -4.0404981 -0.0011404528   -5.0198244   0.97932628   439061 
 2174000    0.6513153   -5.0178979   -5.0178979   -4.0409272 0.0038410289   -5.0178979   0.97697073   439061 
 2175000   0.65213782     -5.01937     -5.01937   -4.0411655 0.0057981045     -5.01937    0.9782045   439061 
 2176000   0.65176279   -5.0186902   -5.0186902   -4.0410483 0.0055759659   -5.0186902   0.97764195   439061 
 2177000   0.65145321   -5.0190222   -5.0190222   -4.0418446 0.00092402963   -5.0190222   0.97717759   439061 
 2178000   0.65113085   -5.0194157   -5.0194157   -4.0427217 0.0023473594   -5.0194157   0.97669405   439061 
 2179000   0.65083679   -5.0189266   -5.0189266   -4.0426737 -0.0007071483   -5.0189266   0.97625297   439061 
 2180000   0.65305012   -5.0220828   -5.0220828   -4.0425099 0.0023684251   -5.0220828   0.97957295   439061 
 2181000   0.65125262   -5.0185438   -5.0185438   -4.0416671 0.0069730676   -5.0185438   0.97687671   439061 
 2182000   0.65202981    -5.021435    -5.021435   -4.0433925 0.0023695864    -5.021435   0.97804249   439061 
 2183000   0.65144139   -5.0211636   -5.0211636   -4.0440037 0.0018298747   -5.0211636   0.97715986   439061 
 2184000   0.65152617   -5.0209105   -5.0209105   -4.0436235 -0.0038940402   -5.0209105   0.97728703   439061 
 2185000   0.65068161   -5.0207486   -5.0207486   -4.0447284 -0.00064726995   -5.0207486    0.9760202   439061 
 2186000   0.65140818   -5.0209209   -5.0209209   -4.0438108 0.0030020752   -5.0209209   0.97711004   439061 
 2187000   0.65135028   -5.0206436   -5.0206436   -4.0436204 0.0063662522   -5.0206436    0.9770232   439061 
 2188000   0.65345896   -5.0231964   -5.0231964   -4.0430102 0.0028045472   -5.0231964    0.9801862   439061 
 2189000   0.65087652   -5.0193101   -5.0193101   -4.0429976 0.0051340616   -5.0193101   0.97631255   439061 
 2190000   0.65206679   -5.0206148   -5.0206148   -4.0425168 0.0057282854   -5.0206148   0.97809796   439061 
 2191000   0.65199865   -5.0207925   -5.0207925   -4.0427968 0.0039679295   -5.0207925   0.97799575   439061 
 2192000   0.65206165   -5.0195619   -5.0195619   -4.0414716 0.0060023171   -5.0195619   0.97809024   439061 
 2193000   0.65181726   -5.0208658   -5.0208658   -4.0431421 0.00033245342   -5.0208658   0.97772366   439061 
 2194000   0.64963193   -5.0186013   -5.0186013   -4.0441556 -0.00030335474   -5.0186013   0.97444568   439061 
 2195000   0.65132355    -5.020494    -5.020494   -4.0435109 -0.0038927551    -5.020494    0.9769831   439061 
 2196000   0.65234026     -5.02177     -5.02177   -4.0432619 -0.002389459     -5.02177   0.97850817   439061 
 2197000   0.65153526   -5.0195342   -5.0195342   -4.0422336 0.0047982082   -5.0195342   0.97730067   439061 
 2198000   0.65210792   -5.0214667   -5.0214667    -4.043307 0.0020798014   -5.0214667   0.97815965   439061 
 2199000   0.65215006   -5.0210075   -5.0210075   -4.0427846 0.0058516305   -5.0210075   0.97822286   439061 
 2200000   0.65304079   -5.0221116   -5.0221116   -4.0425527 0.0064187289   -5.0221116   0.97955896   439061 
 2201000   0.65186485   -5.0207666   -5.0207666   -4.0429715 0.0062337367   -5.0207666   0.97779504   439061 
 2202000   0.65109544   -5.0200573   -5.0200573   -4.0434164 0.0088698308   -5.0200573   0.97664094   439061 
 2203000   0.65035828   -5.0206211   -5.0206211   -4.0450859   0.00318419   -5.0206211   0.97553519   439061 
 2204000   0.65121724   -5.0213938   -5.0213938   -4.0445701 0.0022616732   -5.0213938   0.97682364   439061 
 2205000   0.65062723   -5.0204889   -5.0204889   -4.0445503 0.0022064706   -5.0204889   0.97593862   439061 
 2206000   0.65122154   -5.0196089   -5.0196089   -4.0427788 0.0027958957   -5.0196089   0.97683009   439061 
 2207000   0.65122786   -5.0191321   -5.0191321   -4.0422925 0.0026050091   -5.0191321   0.97683957   439061 
 2208000   0.65064953   -5.0189107   -5.0189107   -4.0429386   0.00814707   -5.0189107   0.97597207   439061 
 2209000   0.65199721   -5.0207807   -5.0207807   -4.0427871 0.00088528178   -5.0207807   0.97799359   439061 
 2210000   0.65099985   -5.0182105   -5.0182105   -4.0417129 0.0037083533   -5.0182105   0.97649756   439061 
 2211000   0.65130159   -5.0186311   -5.0186311   -4.0416809 0.00058362617   -5.0186311   0.97695017   439061 
 2212000   0.65113567   -5.0184822   -5.0184822   -4.0417809 0.0038963961   -5.0184822   0.97670128   439061 
 2213000   0.65250956   -5.0201792   -5.0201792   -4.0414171 0.00030063972   -5.0201792   0.97876211   439061 
 2214000   0.65150483   -5.0189054   -5.0189054   -4.0416504 0.0010903459   -5.0189054   0.97725501   439061 
 2215000   0.65151697   -5.0197472   -5.0197472   -4.0424739 -0.0027793861   -5.0197472   0.97727322   439061 
 2216000   0.65112865   -5.0182157   -5.0182157    -4.041525 0.0040236747   -5.0182157   0.97669075   439061 
 2217000   0.65189148   -5.0193234   -5.0193234   -4.0414884 0.0082716025   -5.0193234     0.977835   439061 
 2218000   0.65271985   -5.0204848   -5.0204848   -4.0414073 0.0041647202   -5.0204848   0.97907754   439061 
 2219000   0.65247399   -5.0205513   -5.0205513   -4.0418426 0.0010989655   -5.0205513   0.97870876   439061 
 2220000   0.65144313   -5.0197348   -5.0197348   -4.0425724 0.0017272593   -5.0197348   0.97716246   439061 
 2221000   0.65089703   -5.0182747   -5.0182747   -4.0419314 -2.1947815e-05   -5.0182747   0.97634332   439061 
 2222000   0.65018442   -5.0181115   -5.0181115    -4.042837 0.0063512855   -5.0181115   0.97527441   439061 
 2223000   0.65077786   -5.0198371   -5.0198371   -4.0436726  0.002818095   -5.0198371   0.97616456   439061 
 2224000   0.65011506   -5.0191871   -5.0191871   -4.0440168 0.0017265711   -5.0191871   0.97517037   439061 
 2225000   0.65197598   -5.0201107   -5.0201107    -4.042149 -0.00068263843   -5.0201107   0.97796174   439061 
 2226000   0.65065714   -5.0180669   -5.0180669   -4.0420834 0.0070856171   -5.0180669   0.97598349   439061 
 2227000   0.65164987   -5.0193348   -5.0193348   -4.0418622 0.0016309877   -5.0193348   0.97747258   439061 
 2228000   0.65187652    -5.020072    -5.020072   -4.0422594  0.009047183    -5.020072   0.97781255   439061 
 2229000   0.65214646   -5.0201493   -5.0201493   -4.0419318  0.002818715   -5.0201493   0.97821747   439061 
 2230000   0.65212191   -5.0212526   -5.0212526   -4.0430719 -0.0041094782   -5.0212526   0.97818064   439061 
 2231000   0.65079515   -5.0192747   -5.0192747   -4.0430842 -0.00076148672   -5.0192747   0.97619051   439061 
 2232000   0.65055402   -5.0179801   -5.0179801   -4.0421513 0.0051522275   -5.0179801    0.9758288   439061 
 2233000   0.65147719   -5.0195936   -5.0195936     -4.04238 -0.0012464749   -5.0195936   0.97721356   439061 
 2234000   0.65130481   -5.0196647   -5.0196647   -4.0427098 0.0031447553   -5.0196647   0.97695499   439061 
 2235000   0.65131754   -5.0192437   -5.0192437   -4.0422696 0.0058241461   -5.0192437   0.97697408   439061 
 2236000   0.65159609   -5.0187565   -5.0187565   -4.0413646 0.0085894332   -5.0187565    0.9773919   439061 
 2237000   0.65128407   -5.0192798   -5.0192798   -4.0423559 0.0077915963   -5.0192798   0.97692388   439061 
 2238000   0.65158058   -5.0207402   -5.0207402   -4.0433716 0.0052919669   -5.0207402   0.97736865   439061 
 2239000   0.65127827   -5.0193435   -5.0193435   -4.0424283 0.0052761578   -5.0193435   0.97691517   439061 
 2240000   0.65142223   -5.0201689   -5.0201689   -4.0430378 0.0038656026   -5.0201689   0.97713112   439061 
 2241000   0.65118813   -5.0196761   -5.0196761   -4.0428961 0.0018445981   -5.0196761   0.97677996   439061 
 2242000   0.65156803   -5.0193324   -5.0193324   -4.0419826 -0.00050877853   -5.0193324   0.97734982   439061 
 2243000    0.6503236   -5.0174317   -5.0174317   -4.0419485  0.004629359   -5.0174317   0.97548318   439061 
 2244000   0.65132369   -5.0197721   -5.0197721   -4.0427888 0.0014519537   -5.0197721   0.97698331   439061 
 2245000    0.6515195   -5.0193171   -5.0193171   -4.0420401 0.00098747178   -5.0193171   0.97727702   439061 
 2246000   0.65140521   -5.0183554   -5.0183554   -4.0412498 0.00056253356   -5.0183554   0.97710559   439061 
 2247000   0.65060431   -5.0185069   -5.0185069   -4.0426026 0.0048952861   -5.0185069   0.97590424   439061 
 2248000   0.65202971   -5.0200193   -5.0200193    -4.041977 0.00081410846   -5.0200193   0.97804234   439061 
 2249000   0.65074333   -5.0195585   -5.0195585   -4.0434457  0.001669157   -5.0195585   0.97611278   439061 
 2250000   0.65205434   -5.0208675   -5.0208675   -4.0427882 -0.0024229948   -5.0208675   0.97807929   439061 
 2251000   0.65318124   -5.0222845   -5.0222845   -4.0425149 -6.7062952e-05   -5.0222845   0.97976963   439061 
 2252000   0.65254054   -5.0206981   -5.0206981   -4.0418895 0.0068791391   -5.0206981   0.97880859   439061 
 2253000   0.65204407   -5.0199648   -5.0199648   -4.0419009 0.0056996762   -5.0199648   0.97806387   439061 
 2254000   0.65268112   -5.0203741   -5.0203741   -4.0413547 8.1820933e-05   -5.0203741   0.97901944   439061 
 2255000   0.65095203   -5.0183444   -5.0183444   -4.0419186 0.0058863399   -5.0183444   0.97642582   439061 
 2256000   0.65164626   -5.0196742   -5.0196742    -4.042207 0.0033431068   -5.0196742   0.97746716   439061 
 2257000   0.65175357   -5.0196433   -5.0196433   -4.0420152 0.0023429755   -5.0196433   0.97762813   439061 
 2258000    0.6514696   -5.0194999   -5.0194999   -4.0422977 0.0012315165   -5.0194999   0.97720218   439061 
 2259000   0.65079223   -5.0185637   -5.0185637   -4.0423776 0.0013056449   -5.0185637   0.97618612   439061 
 2260000   0.65097745   -5.0189909   -5.0189909    -4.042527 0.00084131487   -5.0189909   0.97646396   439061 
 2261000   0.65144986   -5.0201395   -5.0201395    -4.042967 0.0040653274   -5.0201395   0.97717256   439061 
 2262000    0.6508074   -5.0189741   -5.0189741   -4.0427653 0.0050107953   -5.0189741   0.97620888   439061 
 2263000   0.65175091   -5.0204417   -5.0204417   -4.0428175 0.0031061881   -5.0204417   0.97762413   439061 
 2264000   0.65253143   -5.0212421   -5.0212421   -4.0424472 0.0011361694   -5.0212421   0.97879491   439061 
 2265000   0.65230045   -5.0207421   -5.0207421   -4.0422937 0.0074315121   -5.0207421   0.97844844   439061 
 2266000   0.65202444   -5.0206764   -5.0206764   -4.0426419  0.004008146   -5.0206764   0.97803443   439061 
 2267000   0.65160272   -5.0202725   -5.0202725   -4.0428707 0.0054446104   -5.0202725   0.97740186   439061 
 2268000   0.65132878   -5.0194471   -5.0194471   -4.0424561 0.0070423285   -5.0194471   0.97699095   439061 
 2269000    0.6515323   -5.0204402   -5.0204402    -4.043144 0.0023528025   -5.0204402   0.97729622   439061 
 2270000   0.65112417   -5.0192965   -5.0192965   -4.0426125  0.002959261   -5.0192965   0.97668403   439061 
 2271000   0.65186684   -5.0208167   -5.0208167   -4.0430187 -0.0017543212   -5.0208167   0.97779803   439061 
 2272000   0.65064834   -5.0193042   -5.0193042   -4.0433339 -9.8476112e-05   -5.0193042   0.97597029   439061 
 2273000   0.65106632   -5.0199598   -5.0199598   -4.0433625 -0.0025046998   -5.0199598   0.97659726   439061 
 2274000   0.65097858   -5.0196224   -5.0196224   -4.0431568 0.0011640525   -5.0196224   0.97646564   439061 
 2275000   0.65197994   -5.0198576   -5.0198576   -4.0418899 0.0021458328   -5.0198576   0.97796768   439061 
 2276000   0.65237601   -5.0214571   -5.0214571   -4.0428953 0.0033314615   -5.0214571   0.97856179   439061 
 2277000   0.65236859   -5.0211592   -5.0211592   -4.0426085  0.006927681   -5.0211592   0.97855066   439061 
 2278000   0.65160599   -5.0204217   -5.0204217   -4.0430149 0.0025527662   -5.0204217   0.97740676   439061 
 2279000   0.65228078    -5.020721    -5.020721    -4.042302 0.0053065812    -5.020721   0.97841894   439061 
 2280000   0.65118956   -5.0209981   -5.0209981    -4.044216 -0.0011351264   -5.0209981   0.97678211   439061 
 2281000   0.65104857   -5.0204464   -5.0204464   -4.0438757 0.00095386562   -5.0204464   0.97657064   439061 
 2282000   0.65097899    -5.020324    -5.020324   -4.0438578 0.00041088844    -5.020324   0.97646625   439061 
 2283000   0.65115522   -5.0204265   -5.0204265   -4.0436959 0.0024857334   -5.0204265    0.9767306   439061 
 2284000   0.65100404   -5.0195844   -5.0195844   -4.0430806 0.0044358402   -5.0195844   0.97650383   439061 
 2285000   0.65155791   -5.0194686   -5.0194686    -4.042134 0.0096954352   -5.0194686   0.97733463   439061 
 2286000   0.65221634   -5.0203077   -5.0203077   -4.0419854 0.0065725588   -5.0203077   0.97832229   439061 
 2287000   0.65134827   -5.0190824   -5.0190824   -4.0420623 0.0037973805   -5.0190824   0.97702018   439061 
 2288000   0.65116878   -5.0183658   -5.0183658   -4.0416149  0.004949917   -5.0183658   0.97675094   439061 
 2289000   0.65086555   -5.0181122   -5.0181122   -4.0418161 0.0049480892   -5.0181122    0.9762961   439061 
 2290000   0.65079827   -5.0190017   -5.0190017   -4.0428065 -0.0038634061   -5.0190017   0.97619518   439061 
 2291000   0.65045588   -5.0183408   -5.0183408   -4.0426592 0.00047874867   -5.0183408   0.97568159   439061 
 2292000    0.6507139   -5.0189961   -5.0189961   -4.0429275  0.002154272   -5.0189961   0.97606862   439061 
 2293000   0.65225686   -5.0203394   -5.0203394   -4.0419563 0.0027995371   -5.0203394   0.97838307   439061 
 2294000   0.65179629   -5.0211592   -5.0211592    -4.043467 0.00051876564   -5.0211592   0.97769221   439061 
 2295000   0.65082038   -5.0193545   -5.0193545   -4.0431262 0.0028660256   -5.0193545   0.97622834   439061 
 2296000   0.65165419   -5.0213464   -5.0213464   -4.0438673 0.0064902648   -5.0213464   0.97747906   439061 
 2297000   0.65218286   -5.0214278   -5.0214278   -4.0431557 0.0075469853   -5.0214278   0.97827206   439061 
 2298000   0.65325562   -5.0219152   -5.0219152    -4.042034 0.0065391404   -5.0219152    0.9798812   439061 
 2299000   0.65179985   -5.0213497   -5.0213497   -4.0436521 0.0023404427   -5.0213497   0.97769755   439061 
 2300000   0.65224565   -5.0218826   -5.0218826   -4.0435163  0.003767756   -5.0218826   0.97836625   439061 
 2301000   0.64921973   -5.0183294   -5.0183294    -4.044502  0.002716581   -5.0183294   0.97382737   439061 
 2302000   0.64957053   -5.0188278   -5.0188278   -4.0444743 0.00020807955   -5.0188278   0.97435358   439061 
 2303000   0.65082251   -5.0215859   -5.0215859   -4.0453543 -0.0025483229   -5.0215859   0.97623155   439061 
 2304000   0.65133265   -5.0201225   -5.0201225   -4.0431257 0.00048238597   -5.0201225   0.97699675   439061 
 2305000   0.65127721   -5.0206408   -5.0206408   -4.0437272 0.0056757527   -5.0206408    0.9769136   439061 
 2306000   0.65125455    -5.020649    -5.020649   -4.0437695  0.002117612    -5.020649   0.97687959   439061 
 2307000   0.65181231   -5.0204643   -5.0204643    -4.042748 0.0063351366   -5.0204643   0.97771624   439061 
 2308000   0.65190581   -5.0210734   -5.0210734   -4.0432169 0.0088290945   -5.0210734   0.97785649   439061 
 2309000    0.6527481   -5.0223411   -5.0223411   -4.0432211 0.0034259373   -5.0223411   0.97911993   439061 
 2310000     0.652073    -5.021939    -5.021939   -4.0438318 0.0090027366    -5.021939   0.97810727   439061 
 2311000   0.65161911   -5.0218746   -5.0218746   -4.0444481 0.0014875351   -5.0218746   0.97742644   439061 
 2312000   0.65200798   -5.0211573   -5.0211573   -4.0431476 -0.0013710684   -5.0211573   0.97800975   439061 
 2313000   0.65067403   -5.0206323   -5.0206323   -4.0446235 -0.0010058424   -5.0206323   0.97600882   439061 
 2314000   0.65161106    -5.020809    -5.020809   -4.0433947 -0.00067966878    -5.020809   0.97741436   439061 
 2315000   0.65175696   -5.0195256   -5.0195256   -4.0418923 0.0059981993   -5.0195256   0.97763321   439061 
 2316000   0.65143788   -5.0183865   -5.0183865   -4.0412319 0.0012193924   -5.0183865   0.97715459   439061 
 2317000   0.65023965   -5.0180277   -5.0180277   -4.0426704 0.0038495468   -5.0180277   0.97535726   439061 
 2318000   0.65193949   -5.0203323   -5.0203323   -4.0424253 0.0042469368   -5.0203323     0.977907   439061 
 2319000    0.6524708   -5.0216923   -5.0216923   -4.0429884 0.0030938934   -5.0216923   0.97870397   439061 
 2320000   0.65196334   -5.0216274   -5.0216274   -4.0436846 0.0005627894   -5.0216274   0.97794279   439061 
 2321000   0.65338956   -5.0225908   -5.0225908   -4.0425087 0.00095618486   -5.0225908   0.98008211   439061 
 2322000    0.6518584   -5.0203243   -5.0203243   -4.0425389 0.0082296242   -5.0203243   0.97778538   439061 
 2323000   0.65263188   -5.0223989   -5.0223989   -4.0434533 0.0031769687   -5.0223989   0.97894559   439061 
 2324000   0.65229374   -5.0223569   -5.0223569   -4.0439185 0.0034416113   -5.0223569   0.97843838   439061 
 2325000   0.65033066   -5.0200631   -5.0200631   -4.0445693 0.0054126192   -5.0200631   0.97549377   439061 
 2326000   0.65125343   -5.0212249   -5.0212249    -4.044347 0.0013747784   -5.0212249   0.97687793   439061 
 2327000   0.65098518   -5.0205479   -5.0205479   -4.0440724 0.0048002931   -5.0205479   0.97647554   439061 
 2328000   0.65102536   -5.0213636   -5.0213636   -4.0448278 -0.00031238768   -5.0213636   0.97653582   439061 
 2329000   0.65074607    -5.021707    -5.021707   -4.0455901 -0.0046386019    -5.021707   0.97611688   439061 
 2330000   0.65153453   -5.0220744   -5.0220744   -4.0447749 -0.0030522885   -5.0220744   0.97729956   439061 
 2331000    0.6518873   -5.0218031   -5.0218031   -4.0439743 5.1012515e-05   -5.0218031   0.97782872   439061 
 2332000   0.65228921   -5.0215073   -5.0215073   -4.0430757 0.0020281103   -5.0215073   0.97843158   439061 
 2333000   0.65292822   -5.0234118   -5.0234118   -4.0440217 0.0023594904   -5.0234118    0.9793901   439061 
 2334000   0.65144742   -5.0207516   -5.0207516   -4.0435827  0.003242867   -5.0207516   0.97716891   439061 
 2335000   0.65108071   -5.0207948   -5.0207948   -4.0441759 0.0076080714   -5.0207948   0.97661884   439061 
 2336000   0.65165475   -5.0219598   -5.0219598   -4.0444799 0.0019015238   -5.0219598    0.9774799   439061 
 2337000   0.65077612   -5.0211378   -5.0211378   -4.0449758 0.0056274446   -5.0211378   0.97616196   439061 
 2338000   0.65071428   -5.0202297   -5.0202297   -4.0441605 0.0037565404   -5.0202297    0.9760692   439061 
 2339000    0.6515373   -5.0213874   -5.0213874   -4.0440837 -0.00092492679   -5.0213874   0.97730373   439061 
 2340000   0.65064938   -5.0203503   -5.0203503   -4.0443785 0.0070402433   -5.0203503   0.97597185   439061 
 2341000    0.6511141   -5.0214759   -5.0214759   -4.0448069 0.0041214684   -5.0214759   0.97666892   439061 
 2342000   0.65122768   -5.0217067   -5.0217067   -4.0448674  0.005605875   -5.0217067   0.97683929   439061 
 2343000   0.65035614   -5.0205348   -5.0205348   -4.0450028 0.0028403623   -5.0205348   0.97553198   439061 
 2344000   0.65060503   -5.0210926   -5.0210926   -4.0451872 0.0038416912   -5.0210926   0.97590532   439061 
 2345000   0.65087643   -5.0209362   -5.0209362   -4.0446238 0.0051812752   -5.0209362   0.97631242   439061 
 2346000   0.65196261   -5.0227035   -5.0227035   -4.0447618 0.0036070478   -5.0227035   0.97794169   439061 
 2347000   0.65183855    -5.022998    -5.022998   -4.0452424 0.0022495838    -5.022998    0.9777556   439061 
 2348000   0.65162911   -5.0214361   -5.0214361   -4.0439946 0.0043927943   -5.0214361   0.97744144   439061 
 2349000   0.65119111   -5.0223901   -5.0223901   -4.0456056 0.0048806074   -5.0223901   0.97678445   439061 
 2350000   0.65148533   -5.0230213   -5.0230213   -4.0457955 0.00084950342   -5.0230213   0.97722577   439061 
 2351000    0.6510761   -5.0217002   -5.0217002   -4.0450883  0.003831639   -5.0217002   0.97661193   439061 
 2352000   0.65035903   -5.0205209   -5.0205209   -4.0449846 0.0043959465   -5.0205209   0.97553633   439061 
 2353000   0.65154226   -5.0226782   -5.0226782    -4.045367  0.004391475   -5.0226782   0.97731116   439061 
 2354000   0.65103174   -5.0214192   -5.0214192   -4.0448738 0.0026096668   -5.0214192   0.97654539   439061 
 2355000   0.65074918   -5.0203035   -5.0203035    -4.044182 0.0035751854   -5.0203035   0.97612154   439061 
 2356000   0.65023358   -5.0204376   -5.0204376   -4.0450894 0.0039996246   -5.0204376   0.97534815   439061 
 2357000   0.65148751   -5.0212157   -5.0212157   -4.0439867 0.0058273587   -5.0212157   0.97722904   439061 
 2358000   0.65257264   -5.0222888   -5.0222888    -4.043432 0.0034304249   -5.0222888   0.97885673   439061 
 2359000   0.65154099   -5.0200259   -5.0200259   -4.0427167 0.0080382471   -5.0200259   0.97730925   439061 
 2360000   0.65118265   -5.0194384   -5.0194384   -4.0426667 0.0076137608   -5.0194384   0.97677174   439061 
 2361000   0.65119458   -5.0206484   -5.0206484   -4.0438587 0.0019194521   -5.0206484   0.97678965   439061 
 2362000   0.65164017   -5.0207015   -5.0207015   -4.0432435 -0.0022898063   -5.0207015   0.97745803   439061 
 2363000   0.65104116   -5.0191946   -5.0191946   -4.0426351 -0.0034552913   -5.0191946   0.97655951   439061 
 2364000   0.65207958   -5.0205237   -5.0205237   -4.0424066 -0.0026660103   -5.0205237   0.97811715   439061 
 2365000   0.65182194    -5.018738    -5.018738   -4.0410073 0.0065181528    -5.018738   0.97773068   439061 
 2366000   0.65369144   -5.0217387   -5.0217387   -4.0412037 0.0015999734   -5.0217387   0.98053493   439061 
 2367000   0.65218419    -5.019908    -5.019908   -4.0416339 0.0028103545    -5.019908   0.97827406   439061 
 2368000   0.65222728   -5.0200896   -5.0200896   -4.0417509 0.0048274504   -5.0200896   0.97833869   439061 
 2369000   0.65048362   -5.0191186   -5.0191186   -4.0433954 0.0028156986   -5.0191186    0.9757232   439061 
 2370000   0.65159668   -5.0215918   -5.0215918    -4.044199 -0.0014496616   -5.0215918   0.97739279   439061 
 2371000   0.64952889   -5.0192418   -5.0192418   -4.0449507 -0.002566601   -5.0192418   0.97429112   439061 
 2372000   0.64997032    -5.020171    -5.020171   -4.0452177 -0.00044067172    -5.020171   0.97495326   439061 
 2373000   0.65030379   -5.0208512   -5.0208512   -4.0453978 0.00036082874   -5.0208512   0.97545346   439061 
 2374000   0.65129493   -5.0229624   -5.0229624   -4.0460222 0.00091711895   -5.0229624   0.97694016   439061 
 2375000   0.65171867   -5.0239291   -5.0239291   -4.0463533  0.003333126   -5.0239291   0.97757577   439061 
 2376000   0.65194644   -5.0244446   -5.0244446   -4.0465272 0.0041506553   -5.0244446   0.97791744   439061 
 2377000   0.65239447   -5.0241447   -5.0241447   -4.0455552 0.0083475892   -5.0241447   0.97858948   439061 
 2378000   0.65301191    -5.024457    -5.024457   -4.0449414 0.0095467882    -5.024457   0.97951563   439061 
 2379000   0.65195661    -5.023569    -5.023569   -4.0456363 0.0062988595    -5.023569   0.97793269   439061 
 2380000   0.65190745   -5.0229383   -5.0229383   -4.0450794 0.0048954424   -5.0229383   0.97785895   439061 
 2381000   0.65075042   -5.0212208   -5.0212208   -4.0450974 0.0040641125   -5.0212208   0.97612341   439061 
 2382000   0.65161041   -5.0218806   -5.0218806   -4.0444672 -0.0025194977   -5.0218806   0.97741338   439061 
 2383000   0.65037933   -5.0188779   -5.0188779   -4.0433112 0.0016784534   -5.0188779   0.97556677   439061 
 2384000   0.64911863    -5.018156    -5.018156   -4.0444802 -0.0041877888    -5.018156   0.97367573   439061 
 2385000   0.64987796   -5.0194297   -5.0194297    -4.044615 -0.0053784924   -5.0194297   0.97481473   439061 
 2386000   0.65013086   -5.0197486   -5.0197486   -4.0445545 -0.0012090739   -5.0197486   0.97519408   439061 
 2387000   0.65118422   -5.0210698   -5.0210698   -4.0442956 0.00071252958   -5.0210698   0.97677411   439061 
 2388000   0.65127014   -5.0213559   -5.0213559   -4.0444529 0.0023637728   -5.0213559   0.97690299   439061 
 2389000   0.65150185   -5.0229006   -5.0229006     -4.04565 0.0007432712   -5.0229006   0.97725056   439061 
 2390000   0.65182731   -5.0233959   -5.0233959   -4.0456571 0.0055730509   -5.0233959   0.97773873   439061 
 2391000   0.65101604   -5.0242793   -5.0242793   -4.0477575 0.0069513461   -5.0242793   0.97652184   439061 
 2392000   0.65183984   -5.0255141   -5.0255141   -4.0477566 0.0075556186   -5.0255141   0.97775753   439061 
 2393000   0.65140081   -5.0239361   -5.0239361   -4.0468371 0.0091046535   -5.0239361     0.977099   439061 
 2394000   0.65177301   -5.0238431   -5.0238431   -4.0461858 0.0073368051   -5.0238431   0.97765729   439061 
 2395000   0.65104193   -5.0246909   -5.0246909   -4.0481302 0.0065647307   -5.0246909   0.97656067   439061 
 2396000   0.65043856   -5.0243107   -5.0243107    -4.048655 0.0033640575   -5.0243107   0.97565561   439061 
 2397000    0.6500975   -5.0239353   -5.0239353   -4.0487912 -0.0015016371   -5.0239353   0.97514403   439061 
 2398000   0.64921312   -5.0218558   -5.0218558   -4.0480384 -0.00071720153   -5.0218558   0.97381746   439061 
 2399000   0.65139288   -5.0236179   -5.0236179   -4.0465308 0.00078104725   -5.0236179   0.97708709   439061 
 2400000   0.65081473   -5.0222142   -5.0222142   -4.0459943 0.0036222463   -5.0222142   0.97621987   439061 
 2401000   0.65169694   -5.0237701   -5.0237701   -4.0462269 0.0012395062   -5.0237701   0.97754319   439061 
 2402000   0.65034194   -5.0211313   -5.0211313   -4.0456207 0.0059015965   -5.0211313   0.97551069   439061 
 2403000   0.65085175   -5.0233335   -5.0233335   -4.0470581 -0.0013606725   -5.0233335    0.9762754   439061 
 2404000   0.65031789    -5.023385    -5.023385   -4.0479104 0.00021849168    -5.023385   0.97547462   439061 
 2405000   0.65119809   -5.0248555   -5.0248555   -4.0480605 0.00077903417   -5.0248555   0.97679491   439061 
 2406000   0.65086467   -5.0238989   -5.0238989   -4.0476041 0.0013419162   -5.0238989   0.97629478   439061 
 2407000   0.65166633   -5.0249566   -5.0249566   -4.0474594 0.0028840696   -5.0249566   0.97749727   439061 
 2408000   0.65113673   -5.0227897   -5.0227897   -4.0460869 0.0082348909   -5.0227897   0.97670287   439061 
 2409000   0.65122392   -5.0230853   -5.0230853   -4.0462517 0.0029159418   -5.0230853   0.97683366   439061 
 2410000   0.65087721   -5.0237303   -5.0237303   -4.0474167 0.0036681575   -5.0237303   0.97631359   439061 
 2411000   0.64988811   -5.0223495   -5.0223495   -4.0475195 0.0029310527   -5.0223495   0.97482995   439061 
 2412000   0.65028538   -5.0233306   -5.0233306   -4.0479048 -0.00049593437   -5.0233306   0.97542586   439061 
 2413000   0.65030383   -5.0223484   -5.0223484   -4.0468949 -0.00060271819   -5.0223484   0.97545353   439061 
 2414000   0.65137536   -5.0229372   -5.0229372   -4.0458764 0.00099511672   -5.0229372   0.97706081   439061 
 2415000   0.65195335   -5.0236022   -5.0236022   -4.0456744 0.0011253687   -5.0236022    0.9779278   439061 
 2416000   0.65033417   -5.0205831   -5.0205831   -4.0450841 0.0065129769   -5.0205831   0.97549903   439061 
 2417000   0.65112008   -5.0223944   -5.0223944   -4.0457165  0.002293694   -5.0223944    0.9766779   439061 
 2418000   0.65135237   -5.0229116   -5.0229116   -4.0458853 0.00091378243   -5.0229116   0.97702633   439061 
 2419000   0.65065681   -5.0245783   -5.0245783   -4.0485953 0.0010777958   -5.0245783     0.975983   439061 
 2420000   0.65113294   -5.0245208   -5.0245208   -4.0478236 -0.0017821473   -5.0245208   0.97669719   439061 
 2421000   0.65081048   -5.0229183   -5.0229183   -4.0467048 0.00090955444   -5.0229183   0.97621349   439061 
 2422000   0.65149296   -5.0243823   -5.0243823    -4.047145 0.0024628055   -5.0243823   0.97723721   439061 
 2423000    0.6519445   -5.0252329   -5.0252329   -4.0473184 0.0032096367   -5.0252329   0.97791452   439061 
 2424000   0.65294812   -5.0256988   -5.0256988   -4.0462788 0.0067203383   -5.0256988   0.97941995   439061 
 2425000   0.65163353   -5.0245026   -5.0245026   -4.0470546 0.0058034389   -5.0245026   0.97744807   439061 
 2426000   0.65106455   -5.0231776   -5.0231776    -4.046583 0.0083114097   -5.0231776   0.97659461   439061 
 2427000   0.65006669   -5.0217428   -5.0217428    -4.046645  0.007130843   -5.0217428   0.97509782   439061 
 2428000   0.65148633   -5.0234069   -5.0234069   -4.0461796 0.00026280174   -5.0234069   0.97722727   439061 
 2429000   0.65098594     -5.02168     -5.02168   -4.0452033 0.0023951588     -5.02168   0.97647668   439061 
 2430000   0.64999895   -5.0203177   -5.0203177   -4.0453215 0.0014396261   -5.0203177    0.9749962   439061 
 2431000    0.6508966   -5.0206119   -5.0206119   -4.0442693 0.0036059012   -5.0206119   0.97634268   439061 
 2432000   0.65147608   -5.0212321   -5.0212321   -4.0440202 -0.0015317682   -5.0212321    0.9772119   439061 
 2433000   0.65068375   -5.0203235   -5.0203235   -4.0443001 -0.0011068977   -5.0203235   0.97602339   439061 
 2434000   0.65116644   -5.0199364   -5.0199364    -4.043189 0.00083868117   -5.0199364   0.97674743   439061 
 2435000   0.65093716   -5.0201561   -5.0201561   -4.0437526 -0.002373136   -5.0201561   0.97640351   439061 
 2436000   0.65020252   -5.0197758   -5.0197758   -4.0444743 -0.001785532   -5.0197758   0.97530155   439061 
 2437000   0.65044388   -5.0205925   -5.0205925   -4.0449289 -0.0015980942   -5.0205925   0.97566359   439061 
 2438000     0.650676   -5.0203885   -5.0203885   -4.0443768 0.0045449555   -5.0203885   0.97601177   439061 
 2439000   0.65169409   -5.0217434   -5.0217434   -4.0442044 0.0077338411   -5.0217434   0.97753891   439061 
 2440000   0.65141309   -5.0224027   -5.0224027   -4.0452853 0.0066130608   -5.0224027    0.9771174   439061 
 2441000   0.65150404    -5.022462    -5.022462   -4.0452082 0.0013925657    -5.022462   0.97725384   439061 
 2442000   0.64995343   -5.0222882   -5.0222882   -4.0473603 0.0017731796   -5.0222882   0.97492792   439061 
 2443000   0.65065598   -5.0226373   -5.0226373   -4.0466556 0.0025407476   -5.0226373   0.97598175   439061 
 2444000   0.65142542   -5.0239187   -5.0239187   -4.0467828 0.0030346383   -5.0239187   0.97713591   439061 
 2445000   0.65084817   -5.0219177   -5.0219177   -4.0456476 0.0043123077   -5.0219177   0.97627004   439061 
 2446000   0.65053007   -5.0217261   -5.0217261   -4.0459332 0.0064296198   -5.0217261   0.97579288   439061 
 2447000   0.65070977   -5.0219406   -5.0219406   -4.0458782 0.0020948272   -5.0219406   0.97606243   439061 
 2448000   0.65086991   -5.0222618   -5.0222618   -4.0459592 0.0042633046   -5.0222618   0.97630265   439061 
 2449000    0.6508105   -5.0229068   -5.0229068   -4.0466933 -0.00050060045   -5.0229068   0.97621353   439061 
 2450000   0.65057159   -5.0223839   -5.0223839   -4.0465287 0.00043937842   -5.0223839   0.97585516   439061 
 2451000   0.65102976   -5.0233524   -5.0233524   -4.0468099 0.0013290623   -5.0233524   0.97654242   439061 
 2452000   0.64974957    -5.021281    -5.021281   -4.0466588 0.0045334268    -5.021281   0.97462214   439061 
 2453000    0.6509475   -5.0228631   -5.0228631    -4.046444 0.0027486235   -5.0228631   0.97641903   439061 
 2454000   0.65015757    -5.022571    -5.022571   -4.0473369 0.0045280977    -5.022571   0.97523413   439061 
 2455000   0.65183859   -5.0249868   -5.0249868   -4.0472312 -0.0021011772   -5.0249868   0.97775566   439061 
 2456000   0.65016714   -5.0223187   -5.0223187   -4.0470702 0.0026860214   -5.0223187   0.97524849   439061 
 2457000   0.65141813   -5.0232328   -5.0232328   -4.0461078 0.0030317264   -5.0232328   0.97712497   439061 
 2458000   0.64998736    -5.022193    -5.022193   -4.0472142 0.0021717269    -5.022193   0.97497882   439061 
 2459000    0.6509687   -5.0238507   -5.0238507   -4.0473998 0.0014431262   -5.0238507   0.97645082   439061 
 2460000   0.64954654   -5.0212121   -5.0212121   -4.0468945 0.0085024159   -5.0212121   0.97431759   439061 
 2461000   0.65060497    -5.023245    -5.023245   -4.0473398 0.0048800928    -5.023245   0.97590523   439061 
 2462000    0.6499924     -5.02343     -5.02343   -4.0484437 0.0033221102     -5.02343   0.97498638   439061 
 2463000   0.65007534   -5.0235048   -5.0235048    -4.048394 0.0037571214   -5.0235048    0.9751108   439061 
 2464000   0.65003007   -5.0233983   -5.0233983   -4.0483554 -0.0028787416   -5.0233983   0.97504289   439061 
 2465000   0.65001544    -5.023563    -5.023563    -4.048542 0.0029185588    -5.023563   0.97502094   439061 
 2466000   0.65114647    -5.024066    -5.024066   -4.0473485 0.0084147588    -5.024066   0.97671747   439061 
 2467000   0.65218133    -5.026528    -5.026528   -4.0482583 0.0020344037    -5.026528   0.97826977   439061 
 2468000   0.65056213   -5.0239582   -5.0239582   -4.0481172 0.0048248176   -5.0239582   0.97584098   439061 
 2469000   0.65063775    -5.024303    -5.024303   -4.0483486 -0.0015878988    -5.024303    0.9759544   439061 
 2470000   0.65051747   -5.0245882   -5.0245882   -4.0488143 0.0028056028   -5.0245882   0.97577399   439061 
 2471000   0.64970564   -5.0230256   -5.0230256   -4.0484694 0.0045752433   -5.0230256   0.97455624   439061 
 2472000   0.64994852   -5.0232822   -5.0232822   -4.0483617 0.0026011056   -5.0232822   0.97492057   439061 
 2473000   0.64968344   -5.0232053   -5.0232053   -4.0486823 0.0017549587   -5.0232053   0.97452293   439061 
 2474000   0.65081112   -5.0243961   -5.0243961   -4.0481816 0.00081134365   -5.0243961   0.97621446   439061 
 2475000   0.65064997   -5.0237524   -5.0237524   -4.0477796 0.0015416961   -5.0237524   0.97597273   439061 
 2476000   0.65051755   -5.0234252   -5.0234252   -4.0476511 0.0016366587   -5.0234252    0.9757741   439061 
 2477000   0.65011191   -5.0236994   -5.0236994   -4.0485337 -0.0029813687   -5.0236994   0.97516565   439061 
 2478000   0.64979348   -5.0233766   -5.0233766   -4.0486886 0.0027452488   -5.0233766     0.974688   439061 
 2479000    0.6503074   -5.0238607   -5.0238607   -4.0484018 0.0021685529   -5.0238607   0.97545888   439061 
 2480000   0.65139344   -5.0242686   -5.0242686   -4.0471807   0.00045984   -5.0242686   0.97708794   439061 
 2481000   0.65066235   -5.0238123   -5.0238123    -4.047821 0.0052856226   -5.0238123    0.9759913   439061 
 2482000   0.65079901   -5.0237255   -5.0237255   -4.0475292 0.0059487225   -5.0237255   0.97619629   439061 
 2483000   0.65014288   -5.0243606   -5.0243606   -4.0491485 -0.0019126765   -5.0243606    0.9752121   439061 
 2484000   0.65021579   -5.0243908   -5.0243908   -4.0490693  0.002613069   -5.0243908   0.97532147   439061 
 2485000   0.65005405   -5.0234006   -5.0234006   -4.0483217 0.0036279177   -5.0234006   0.97507886   439061 
 2486000   0.64986538   -5.0228827   -5.0228827   -4.0480869 0.0044557572   -5.0228827   0.97479585   439061 
 2487000    0.6497321   -5.0236462   -5.0236462   -4.0490503 0.0017649621   -5.0236462   0.97459593   439061 
 2488000   0.65163863   -5.0253162   -5.0253162   -4.0478605 0.00077650879   -5.0253162   0.97745571   439061 
 2489000   0.65079933   -5.0241064   -5.0241064   -4.0479097 0.0020236577   -5.0241064   0.97619677   439061 
 2490000   0.65085616    -5.023852    -5.023852     -4.04757 0.0055585178    -5.023852   0.97628201   439061 
 2491000   0.65048146   -5.0238623   -5.0238623   -4.0481423 0.0027928853   -5.0238623   0.97571997   439061 
 2492000   0.65095338   -5.0253283   -5.0253283   -4.0489005 -0.00019322705   -5.0253283   0.97642785   439061 
 2493000   0.65074019   -5.0262451   -5.0262451    -4.050137 -0.0011024934   -5.0262451   0.97610805   439061 
 2494000   0.64960458   -5.0236008   -5.0236008   -4.0491962 0.0032856922   -5.0236008   0.97440464   439061 
 2495000   0.65141598   -5.0249069   -5.0249069   -4.0477851 -0.00054329258   -5.0249069   0.97712175   439061 
 2496000   0.65058633   -5.0243075   -5.0243075   -4.0484302 0.0035017669   -5.0243075   0.97587728   439061 
 2497000   0.65033208   -5.0243493   -5.0243493   -4.0488534 0.0044649806   -5.0243493   0.97549589   439061 
 2498000   0.65000896   -5.0231836   -5.0231836   -4.0481723 8.8233612e-05   -5.0231836   0.97501123   439061 
 2499000   0.64963935   -5.0234547   -5.0234547   -4.0489979 0.0013088113   -5.0234547    0.9744568   439061 
 2500000   0.65059891   -5.0240193   -5.0240193   -4.0481231 0.0027281811   -5.0240193   0.97589615   439061 
 2501000   0.65101466   -5.0246066   -5.0246066   -4.0480868 0.0028886003   -5.0246066   0.97651976   439061 
 2502000   0.65133639   -5.0252455   -5.0252455   -4.0482432 0.0027965591   -5.0252455   0.97700237   439061 
 2503000   0.65131884   -5.0241143   -5.0241143   -4.0471383 0.0036347578   -5.0241143   0.97697603   439061 
 2504000   0.65116305   -5.0237064   -5.0237064   -4.0469641 0.00057613681   -5.0237064   0.97674234   439061 
 2505000    0.6510603   -5.0237544   -5.0237544   -4.0471662 0.0044658516   -5.0237544   0.97658823   439061 
 2506000   0.65094418   -5.0236491   -5.0236491    -4.047235 0.00028848251   -5.0236491   0.97641405   439061 
 2507000   0.65114354   -5.0235303   -5.0235303   -4.0468172 -0.0058040702   -5.0235303   0.97671309   439061 
 2508000   0.64990781   -5.0224944   -5.0224944   -4.0476349 -0.0021718917   -5.0224944    0.9748595   439061 
 2509000   0.64965246   -5.0228629   -5.0228629   -4.0483864 -0.0028535476   -5.0228629   0.97447647   439061 
 2510000   0.65057274    -5.023461    -5.023461   -4.0476041 0.0033179539    -5.023461   0.97585688   439061 
 2511000   0.65042751   -5.0231198   -5.0231198   -4.0474807 0.0025791257   -5.0231198   0.97563905   439061 
 2512000   0.65094187   -5.0235104   -5.0235104   -4.0470999 0.0046515651   -5.0235104   0.97641058   439061 
 2513000   0.65090859   -5.0234913   -5.0234913   -4.0471307 0.0055662426   -5.0234913   0.97636067   439061 
 2514000   0.65020531   -5.0229762   -5.0229762   -4.0476704 0.0047234693   -5.0229762   0.97530574   439061 
 2515000   0.65050979   -5.0232862   -5.0232862   -4.0475237 0.00078743654   -5.0232862   0.97576246   439061 
 2516000   0.65049603   -5.0226009   -5.0226009   -4.0468591 0.0033282471   -5.0226009   0.97574182   439061 
 2517000   0.65117865   -5.0243628   -5.0243628    -4.047597 0.0037681292   -5.0243628   0.97676575   439061 
 2518000   0.65089063   -5.0232631   -5.0232631   -4.0469294 0.0026060689   -5.0232631   0.97633373   439061 
 2519000    0.6513112   -5.0242262   -5.0242262   -4.0472616 0.0005939804   -5.0242262   0.97696457   439061 
 2520000   0.65065266   -5.0222727   -5.0222727   -4.0462959 0.00082628193   -5.0222727   0.97597677   439061 
 2521000   0.65180513   -5.0236439   -5.0236439   -4.0459385 0.0083721132   -5.0236439   0.97770546   439061 
 2522000   0.65048107   -5.0219436   -5.0219436   -4.0462242 0.0073432694   -5.0219436   0.97571938   439061 
 2523000   0.65159382   -5.0235749   -5.0235749   -4.0461864 0.0022648627   -5.0235749    0.9773885   439061 
 2524000   0.65058608   -5.0223596   -5.0223596   -4.0464827 0.00095020284   -5.0223596    0.9758769   439061 
 2525000   0.65080862    -5.021588    -5.021588   -4.0453773 0.0017337675    -5.021588   0.97621071   439061 
 2526000   0.64943027   -5.0204129   -5.0204129   -4.0462697 0.0028357009   -5.0204129   0.97414319   439061 
 2527000   0.65046147   -5.0210769   -5.0210769   -4.0453869 0.0017237917   -5.0210769   0.97568999   439061 
 2528000   0.65011452    -5.021292    -5.021292   -4.0461224 -0.0043730272    -5.021292   0.97516956   439061 
 2529000   0.65126104   -5.0222599   -5.0222599   -4.0453706 -0.0011482508   -5.0222599   0.97688933   439061 
 2530000    0.6515785   -5.0225935   -5.0225935   -4.0452279 0.0038134724   -5.0225935   0.97736552   439061 
 2531000   0.65175862   -5.0237593   -5.0237593   -4.0461236 0.0038597681   -5.0237593    0.9776357   439061 
 2532000   0.65166051    -5.023613    -5.023613   -4.0461245 0.00014539529    -5.023613   0.97748854   439061 
 2533000   0.65183158   -5.0233144   -5.0233144   -4.0455693 0.0035666804   -5.0233144   0.97774514   439061 
 2534000   0.65176814   -5.0235131   -5.0235131   -4.0458631 0.0017500118   -5.0235131   0.97764999   439061 
 2535000    0.6511076   -5.0228482   -5.0228482    -4.046189 0.0047053916   -5.0228482   0.97665918   439061 
 2536000    0.6502901   -5.0221079   -5.0221079    -4.046675 0.0032582061   -5.0221079   0.97543293   439061 
 2537000    0.6507916    -5.023155    -5.023155   -4.0469698  0.002535014    -5.023155   0.97618518   439061 
 2538000    0.6507251   -5.0213909   -5.0213909   -4.0453055  0.007260865   -5.0213909   0.97608543   439061 
 2539000    0.6523839   -5.0233155   -5.0233155   -4.0447418 0.0018590693   -5.0233155   0.97857362   439061 
 2540000   0.65200809   -5.0235639   -5.0235639   -4.0455539 0.00063816294   -5.0235639   0.97800991   439061 
 2541000   0.65089737   -5.0228615   -5.0228615   -4.0465177 -0.0014327372   -5.0228615   0.97634383   439061 
 2542000   0.65042311   -5.0228259   -5.0228259   -4.0471935 0.0034476004   -5.0228259   0.97563244   439061 
 2543000   0.64972948   -5.0224688   -5.0224688   -4.0478768 0.0023505371   -5.0224688     0.974592   439061 
 2544000   0.65044949   -5.0223544   -5.0223544   -4.0466824 -8.9846913e-05   -5.0223544   0.97567201   439061 
 2545000    0.6496575   -5.0223658   -5.0223658   -4.0478817 0.0024768502   -5.0223658   0.97448404   439061 
 2546000   0.65117491   -5.0239011   -5.0239011   -4.0471409  0.001579926   -5.0239011   0.97676014   439061 
 2547000   0.65114326   -5.0230596   -5.0230596   -4.0463469 0.0068458705   -5.0230596   0.97671267   439061 
 2548000   0.65218502   -5.0255171   -5.0255171   -4.0472417 0.0033671097   -5.0255171   0.97827531   439061 
 2549000   0.65175862   -5.0253204   -5.0253204   -4.0476847 -0.00014709145   -5.0253204   0.97763571   439061 
 2550000   0.65120629   -5.0259159   -5.0259159   -4.0491087 -0.00070086545   -5.0259159    0.9768072   439061 
 2551000   0.65015004   -5.0235794   -5.0235794   -4.0483565 0.0081786324   -5.0235794   0.97522284   439061 
 2552000   0.65103935   -5.0257542   -5.0257542   -4.0491974 0.0035316024   -5.0257542    0.9765568   439061 
 2553000   0.64985346   -5.0234835   -5.0234835   -4.0487055 0.0057926398   -5.0234835   0.97477797   439061 
 2554000   0.65013781   -5.0233126   -5.0233126   -4.0481081 0.0060208802   -5.0233126   0.97520449   439061 
 2555000   0.65127165   -5.0241266   -5.0241266   -4.0472213 0.0063441798   -5.0241266   0.97690525   439061 
 2556000   0.65201227    -5.023394    -5.023394   -4.0453778 0.0037374154    -5.023394   0.97801618   439061 
 2557000   0.65034335   -5.0214425   -5.0214425   -4.0459297 0.0020983876   -5.0214425    0.9755128   439061 
 2558000   0.65149646   -5.0236339   -5.0236339   -4.0463915 -0.0019701004   -5.0236339   0.97724246   439061 
 2559000   0.65009498   -5.0211833   -5.0211833    -4.046043 0.0024639284   -5.0211833   0.97514025   439061 
 2560000   0.64985992   -5.0213014   -5.0213014   -4.0465138 0.0044726802   -5.0213014   0.97478766   439061 
 2561000   0.65101631   -5.0218916   -5.0218916   -4.0453694 -0.0021876849   -5.0218916   0.97652224   439061 
 2562000   0.65086512   -5.0216297   -5.0216297   -4.0453343 0.0012904563   -5.0216297   0.97629546   439061 
 2563000   0.65069921    -5.021665    -5.021665   -4.0456184 0.0030919467    -5.021665   0.97604659   439061 
 2564000   0.65137635   -5.0226068   -5.0226068   -4.0455445 0.0050802691   -5.0226068    0.9770623   439061 
 2565000   0.65108788   -5.0239016   -5.0239016    -4.047272 0.0010419546   -5.0239016    0.9766296   439061 
 2566000   0.65030526   -5.0227789   -5.0227789   -4.0473232 0.0025617788   -5.0227789   0.97545566   439061 
 2567000   0.65021276   -5.0227235   -5.0227235   -4.0474066 0.0068678374   -5.0227235   0.97531692   439061 
 2568000   0.65301137   -5.0268741   -5.0268741   -4.0473593 0.00067852789   -5.0268741   0.97951482   439061 
 2569000   0.65053106   -5.0240503   -5.0240503   -4.0482559 0.0079497293   -5.0240503   0.97579437   439061 
 2570000   0.65093086   -5.0249415   -5.0249415   -4.0485474 0.0056297668   -5.0249415   0.97639407   439061 
 2571000   0.65091752   -5.0246188   -5.0246188   -4.0482447 0.0027337256   -5.0246188   0.97637406   439061 
 2572000   0.65105679   -5.0249865   -5.0249865   -4.0484035 0.0058064919   -5.0249865   0.97658297   439061 
 2573000   0.64988392    -5.022824    -5.022824   -4.0480004  0.003583774    -5.022824   0.97482367   439061 
 2574000   0.65088952   -5.0242439   -5.0242439   -4.0479119 -0.0035036808   -5.0242439   0.97633205   439061 
 2575000   0.65021771    -5.024526    -5.024526   -4.0492017 -0.00034606839    -5.024526   0.97532434   439061 
 2576000   0.65016806   -5.0227883   -5.0227883   -4.0475385 0.0007044084   -5.0227883   0.97524987   439061 
 2577000   0.65120464   -5.0250262   -5.0250262   -4.0482214 0.00053411335   -5.0250262   0.97680474   439061 
 2578000   0.64994853   -5.0241398   -5.0241398   -4.0492192 -0.0038807529   -5.0241398   0.97492057   439061 
 2579000   0.65015784   -5.0239433   -5.0239433   -4.0487088 0.0043721396   -5.0239433   0.97523454   439061 
 2580000   0.65101168   -5.0252922   -5.0252922   -4.0487769 0.0032438497   -5.0252922    0.9765153   439061 
 2581000   0.65128824   -5.0254072   -5.0254072    -4.048477  0.003541629   -5.0254072   0.97693013   439061 
 2582000    0.6513578   -5.0258959   -5.0258959   -4.0488614 0.0066954409   -5.0258959   0.97703447   439061 
 2583000   0.65119877   -5.0265137   -5.0265137   -4.0497178 0.0031829968   -5.0265137   0.97679593   439061 
 2584000   0.65125895   -5.0262354   -5.0262354   -4.0493492 0.0056329331   -5.0262354   0.97688621   439061 
 2585000   0.65065947   -5.0257022   -5.0257022   -4.0497152 0.00011535622   -5.0257022   0.97598698   439061 
 2586000   0.65115696   -5.0263968   -5.0263968   -4.0496636 -0.0046409039   -5.0263968   0.97673322   439061 
 2587000   0.64941125   -5.0227159   -5.0227159   -4.0486013 0.0055338964   -5.0227159   0.97411466   439061 
 2588000   0.64952169   -5.0230908   -5.0230908   -4.0488105 0.0027930105   -5.0230908   0.97428031   439061 
 2589000   0.64992918   -5.0229637   -5.0229637   -4.0480721 -0.00095727354   -5.0229637   0.97489155   439061 
 2590000    0.6510457   -5.0236333   -5.0236333    -4.047067 -0.00063187836   -5.0236333   0.97656633   439061 
 2591000   0.65203246   -5.0248065   -5.0248065     -4.04676 0.00034786147   -5.0248065   0.97804646   439061 
 2592000   0.65001552   -5.0225944   -5.0225944   -4.0475734 0.0023078484   -5.0225944   0.97502107   439061 
 2593000   0.65017341   -5.0216021   -5.0216021   -4.0463442 0.00015775693   -5.0216021   0.97525789   439061 
 2594000    0.6507413   -5.0237096   -5.0237096   -4.0475998 0.0019631568   -5.0237096   0.97610972   439061 
 2595000   0.65105098   -5.0242435   -5.0242435   -4.0476693 0.0046359535   -5.0242435   0.97657425   439061 
 2596000   0.65123857    -5.024592    -5.024592   -4.0477363 0.0056177045    -5.024592   0.97685563   439061 
 2597000   0.65167804   -5.0256929   -5.0256929   -4.0481781 0.0049389532   -5.0256929   0.97751484   439061 
 2598000   0.64995457   -5.0233878   -5.0233878   -4.0484582 0.0085391918   -5.0233878   0.97492963   439061 
 2599000   0.65157069   -5.0255761   -5.0255761   -4.0482223 0.0031872509   -5.0255761   0.97735382   439061 
 2600000   0.65067366   -5.0246342   -5.0246342   -4.0486259 0.0048693466   -5.0246342   0.97600827   439061 
 2601000   0.65181941   -5.0255122   -5.0255122   -4.0477853 0.00090972301   -5.0255122   0.97772689   439061 
 2602000   0.65067415   -5.0237562   -5.0237562   -4.0477472 0.0043404591   -5.0237562   0.97600901   439061 
 2603000   0.64996998   -5.0228904   -5.0228904   -4.0479376 0.0027080285   -5.0228904   0.97495275   439061 
 2604000   0.65119744    -5.023669    -5.023669    -4.046875 -0.0029295858    -5.023669   0.97679393   439061 
 2605000   0.65085236   -5.0233862   -5.0233862   -4.0471099 0.00068370562   -5.0233862   0.97627632   439061 
 2606000   0.65086247   -5.0244672   -5.0244672   -4.0481757 -0.0013644853   -5.0244672   0.97629149   439061 
 2607000   0.65030811   -5.0231873   -5.0231873   -4.0477274 0.0017078826   -5.0231873   0.97545994   439061 
 2608000   0.65109533   -5.0248683   -5.0248683   -4.0482275 -0.0011156554   -5.0248683   0.97664077   439061 
 2609000   0.65083457   -5.0236652   -5.0236652   -4.0474156 0.0029809268   -5.0236652   0.97624964   439061 
 2610000    0.6512652   -5.0247598   -5.0247598   -4.0478643 0.0017641998   -5.0247598   0.97689558   439061 
 2611000   0.65196341   -5.0265741   -5.0265741   -4.0486312 0.00075441177   -5.0265741   0.97794289   439061 
 2612000   0.65049493   -5.0242047   -5.0242047   -4.0484646 0.0036714554   -5.0242047   0.97574017   439061 
 2613000   0.65092379   -5.0235165   -5.0235165    -4.047133 0.0062383058   -5.0235165   0.97638346   439061 
 2614000   0.65311363   -5.0261029   -5.0261029   -4.0464347 0.0057540436   -5.0261029   0.97966821   439061 
 2615000   0.65183965    -5.024738    -5.024738   -4.0469807 0.0076214563    -5.024738   0.97775725   439061 
 2616000   0.65142726   -5.0231505   -5.0231505   -4.0460119 0.0030461229   -5.0231505   0.97713867   439061 
 2617000    0.6514281    -5.022733    -5.022733   -4.0455931 0.0039763168    -5.022733   0.97713992   439061 
 2618000   0.65141862   -5.0221133   -5.0221133   -4.0449876 -0.00089134766   -5.0221133   0.97712571   439061 
 2619000   0.65043166   -5.0194104   -5.0194104   -4.0437651  0.001057466   -5.0194104   0.97564527   439061 
 2620000   0.65095392   -5.0198645   -5.0198645   -4.0434358 -0.0027437697   -5.0198645   0.97642866   439061 
 2621000   0.64979337   -5.0177784   -5.0177784   -4.0430906 -0.0031367596   -5.0177784   0.97468784   439061 
 2622000   0.65068145    -5.018715    -5.018715   -4.0426951 -0.0032929963    -5.018715   0.97601995   439061 
 2623000    0.6510735   -5.0195731   -5.0195731   -4.0429651 -0.0028443536   -5.0195731   0.97660802   439061 
 2624000   0.65077801   -5.0196863   -5.0196863   -4.0435215 0.0020857973   -5.0196863   0.97616479   439061 
 2625000   0.65179086    -5.020912    -5.020912   -4.0432279 -0.00041510929    -5.020912   0.97768406   439061 
 2626000   0.65151137   -5.0210724   -5.0210724   -4.0438076 0.0046804505   -5.0210724   0.97726483   439061 
 2627000   0.65184644   -5.0227192   -5.0227192   -4.0449518  0.010804082   -5.0227192   0.97776743   439061 
 2628000   0.65287488    -5.023602    -5.023602   -4.0442919 0.0048095476    -5.023602   0.97931009   439061 
 2629000   0.65227842   -5.0235173   -5.0235173   -4.0451019  0.005457592   -5.0235173    0.9784154   439061 
 2630000   0.65178339   -5.0226757   -5.0226757   -4.0450029   0.01111533   -5.0226757   0.97767287   439061 
 2631000   0.65206304   -5.0227252   -5.0227252   -4.0446328 0.0055017462   -5.0227252   0.97809234   439061 
 2632000   0.65100543   -5.0212843   -5.0212843   -4.0447784  0.004707564   -5.0212843   0.97650592   439061 
 2633000   0.65113611   -5.0213233   -5.0213233   -4.0446214 0.0037079121   -5.0213233   0.97670194   439061 
 2634000   0.65094243    -5.021476    -5.021476   -4.0450646 -0.0040279729    -5.021476   0.97641143   439061 
 2635000   0.65106246   -5.0214619   -5.0214619   -4.0448704 -0.0036539531   -5.0214619   0.97659147   439061 
 2636000   0.64981875   -5.0203084   -5.0203084   -4.0455825 -0.0029528244   -5.0203084   0.97472591   439061 
 2637000   0.64968003   -5.0195774   -5.0195774   -4.0450596 -0.001110431   -5.0195774   0.97451783   439061 
 2638000   0.65127297   -5.0211843   -5.0211843   -4.0442771 4.6366225e-05   -5.0211843   0.97690723   439061 
 2639000   0.65196565    -5.022321    -5.022321   -4.0443748 0.0066860775    -5.022321   0.97794625   439061 
 2640000    0.6516172   -5.0209728   -5.0209728   -4.0435492 0.0067233073   -5.0209728   0.97742358   439061 
 2641000   0.65166694   -5.0216887   -5.0216887   -4.0441905 0.0066737824   -5.0216887   0.97749818   439061 
 2642000   0.65122321   -5.0225263   -5.0225263   -4.0456937 0.0047014941   -5.0225263   0.97683259   439061 
 2643000    0.6515817   -5.0230032   -5.0230032   -4.0456328  0.003181408   -5.0230032   0.97737033   439061 
 2644000   0.65104322   -5.0228043   -5.0228043   -4.0462417 0.00027107567   -5.0228043    0.9765626   439061 
 2645000   0.65103781   -5.0229512   -5.0229512   -4.0463967 0.0026177117   -5.0229512    0.9765545   439061 
 2646000   0.65146407   -5.0231651   -5.0231651   -4.0459712 -4.3396179e-05   -5.0231651   0.97719388   439061 
 2647000   0.65046091   -5.0218519   -5.0218519   -4.0461627 0.0021427812   -5.0218519   0.97568914   439061 
 2648000   0.65112719     -5.02144     -5.02144   -4.0447514 0.0029412485     -5.02144   0.97668855   439061 
 2649000   0.65182101   -5.0236207   -5.0236207   -4.0458915 0.0015536127   -5.0236207   0.97772929   439061 
 2650000   0.65094021   -5.0232192   -5.0232192   -4.0468111 0.00025037318   -5.0232192   0.97640808   439061 
 2651000   0.65123595   -5.0241433   -5.0241433   -4.0472916 2.3094245e-05   -5.0241433    0.9768517   439061 
 2652000   0.65042221   -5.0223282   -5.0223282   -4.0466971 0.0030072863   -5.0223282   0.97563109   439061 
 2653000   0.65071385   -5.0225817   -5.0225817   -4.0465132 0.0024659564   -5.0225817   0.97606855   439061 
 2654000   0.65110176   -5.0245281   -5.0245281   -4.0478777  0.002105936   -5.0245281   0.97665041   439061 
 2655000   0.65084154     -5.02313     -5.02313     -4.04687 0.0051739553     -5.02313   0.97626008   439061 
 2656000   0.65084483   -5.0240515   -5.0240515   -4.0477864 0.0016802677   -5.0240515   0.97626502   439061 
 2657000   0.65089072    -5.024464    -5.024464   -4.0481302 0.0024472931    -5.024464   0.97633386   439061 
 2658000   0.65058564   -5.0234462   -5.0234462     -4.04757 0.0018791394   -5.0234462   0.97587624   439061 
 2659000   0.64921146   -5.0220832   -5.0220832   -4.0482682 0.0050297345   -5.0220832   0.97381498   439061 
 2660000   0.65027981   -5.0254476   -5.0254476   -4.0500301 -0.0043917431   -5.0254476    0.9754175   439061 
 2661000   0.64984504   -5.0248917   -5.0248917   -4.0501264 -0.0015083921   -5.0248917   0.97476534   439061 
 2662000   0.65057957   -5.0242653   -5.0242653   -4.0483981 0.0067255902   -5.0242653   0.97586713   439061 
 2663000   0.64995481   -5.0234555   -5.0234555   -4.0485255 0.0071691347   -5.0234555   0.97492999   439061 
 2664000   0.65091792   -5.0244755   -5.0244755   -4.0481009  0.013416224   -5.0244755   0.97637466   439061 
 2665000   0.65117839   -5.0258821   -5.0258821   -4.0491167 0.0032054956   -5.0258821   0.97676536   439061 
 2666000   0.65048743    -5.024872    -5.024872   -4.0491431 0.0065221938    -5.024872   0.97572892   439061 
 2667000    0.6503835   -5.0246415   -5.0246415   -4.0490685 0.0023618028   -5.0246415   0.97557303   439061 
 2668000   0.65030006   -5.0247144   -5.0247144   -4.0492665 0.0038156641   -5.0247144   0.97544786   439061 
 2669000   0.64991079   -5.0245371   -5.0245371   -4.0496732 9.1285659e-05   -5.0245371   0.97486396   439061 
 2670000    0.6494716   -5.0250002   -5.0250002    -4.050795 -0.0057941128   -5.0250002   0.97420518   439061 
 2671000   0.64993701   -5.0261821   -5.0261821   -4.0512788 -0.0030342999   -5.0261821    0.9749033   439061 
 2672000   0.65019514   -5.0261674   -5.0261674   -4.0508769 0.0017586444   -5.0261674   0.97529049   439061 
 2673000   0.65118689   -5.0264586   -5.0264586   -4.0496805 0.0042661615   -5.0264586   0.97677811   439061 
 2674000   0.65162034   -5.0263033   -5.0263033    -4.048875 0.0074217715   -5.0263033   0.97742828   439061 
 2675000   0.65161512   -5.0267087   -5.0267087   -4.0492883 0.0047959207   -5.0267087   0.97742045   439061 
 2676000   0.65240406   -5.0283945   -5.0283945   -4.0497907 0.0064812585   -5.0283945   0.97860386   439061 
 2677000   0.65087937   -5.0252858   -5.0252858   -4.0489689 0.0091537039   -5.0252858   0.97631683   439061 
 2678000   0.65034825   -5.0260037   -5.0260037   -4.0504835 -0.0015178612   -5.0260037   0.97552015   439061 
 2679000    0.6506439   -5.0269728   -5.0269728   -4.0510092 0.00013739077   -5.0269728   0.97596363   439061 
 2680000   0.65010978   -5.0241804   -5.0241804    -4.049018 0.0028908568   -5.0241804   0.97516244   439061 
 2681000   0.65101202   -5.0258173   -5.0258173   -4.0493015 0.0018447085   -5.0258173   0.97651581   439061 
 2682000   0.65049502   -5.0249898   -5.0249898   -4.0492495  -0.00133332   -5.0249898   0.97574031   439061 
 2683000   0.64906763   -5.0227005   -5.0227005   -4.0491012 0.0026454534   -5.0227005   0.97359923   439061 
 2684000   0.64883096   -5.0224267   -5.0224267   -4.0491825 0.0036565761   -5.0224267   0.97324422   439061 
 2685000   0.65040099   -5.0255098   -5.0255098   -4.0499106 -0.0029007622   -5.0255098   0.97559926   439061 
 2686000   0.65001179   -5.0241748   -5.0241748   -4.0491593 0.0035427305   -5.0241748   0.97501546   439061 
 2687000   0.65141205   -5.0258658   -5.0258658   -4.0487499 0.00023016265   -5.0258658   0.97711585   439061 
 2688000   0.65112684   -5.0252204   -5.0252204   -4.0485324 0.0015820327   -5.0252204   0.97668804   439061 
 2689000    0.6506818    -5.025595    -5.025595   -4.0495745 0.0010025662    -5.025595   0.97602048   439061 
 2690000   0.65056381   -5.0252823   -5.0252823   -4.0494388 0.0059722758   -5.0252823    0.9758435   439061 
 2691000   0.65119155   -5.0262983   -5.0262983   -4.0495132 0.0043566569   -5.0262983    0.9767851   439061 
 2692000   0.65071736   -5.0268256   -5.0268256   -4.0507517 0.0015787866   -5.0268256   0.97607382   439061 
 2693000   0.65144265   -5.0276043   -5.0276043   -4.0504425 -0.0049711755   -5.0276043   0.97716175   439061 
 2694000   0.64969551   -5.0260826   -5.0260826   -4.0515416 0.0084815093   -5.0260826   0.97454104   439061 
 2695000   0.65009776   -5.0268437   -5.0268437   -4.0516993 0.0034217615   -5.0268437   0.97514441   439061 
 2696000   0.64997814   -5.0264087   -5.0264087   -4.0514437 0.0024909744   -5.0264087   0.97496499   439061 
 2697000   0.65042361   -5.0261817   -5.0261817   -4.0505485 0.0043543989   -5.0261817    0.9756332   439061 
 2698000   0.65092565   -5.0273433   -5.0273433    -4.050957 0.0030499951   -5.0273433   0.97638625   439061 
 2699000   0.65046625   -5.0264285   -5.0264285   -4.0507314 0.0017799062   -5.0264285   0.97569715   439061 
 2700000    0.6516828   -5.0275741   -5.0275741   -4.0500521 -0.0019947809   -5.0275741   0.97752197   439061 
 2701000    0.6510575   -5.0260934   -5.0260934   -4.0495094 -0.0022155483   -5.0260934   0.97658403   439061 
 2702000   0.65115599   -5.0269117   -5.0269117     -4.05018 0.0016088261   -5.0269117   0.97673176   439061 
 2703000   0.65001576   -5.0248565   -5.0248565    -4.049835 0.0036713601   -5.0248565   0.97502142   439061 
 2704000   0.64923786   -5.0251906   -5.0251906    -4.051336 -0.0010689462   -5.0251906   0.97385458   439061 
 2705000   0.65002268   -5.0254872   -5.0254872   -4.0504554 -0.0042177378   -5.0254872    0.9750318   439061 
 2706000   0.65030467   -5.0250751   -5.0250751   -4.0496203 0.0030208745   -5.0250751   0.97545479   439061 
 2707000   0.65068046   -5.0252982   -5.0252982   -4.0492797 0.0063241355   -5.0252982   0.97601847   439061 
 2708000    0.6518673   -5.0262963   -5.0262963   -4.0484976 0.0061815587   -5.0262963   0.97779873   439061 
 2709000    0.6512342   -5.0254738   -5.0254738   -4.0486247 0.0043936255   -5.0254738   0.97684908   439061 
 2710000   0.64953372   -5.0239152   -5.0239152   -4.0496168 0.0035891628   -5.0239152   0.97429836   439061 
 2711000   0.64903399   -5.0237729   -5.0237729   -4.0502241 0.0034648476   -5.0237729   0.97354877   439061 
 2712000   0.65033211   -5.0261394   -5.0261394   -4.0506434 0.00095570573   -5.0261394   0.97549594   439061 
 2713000   0.64966367   -5.0250565   -5.0250565   -4.0505633 0.0018397024   -5.0250565   0.97449329   439061 
 2714000   0.65026701   -5.0253421   -5.0253421   -4.0499438 0.00073862533   -5.0253421   0.97539829   439061 
 2715000   0.65050253   -5.0271853   -5.0271853   -4.0514338 -0.0036715702   -5.0271853   0.97575157   439061 
 2716000   0.65068114   -5.0270192   -5.0270192   -4.0509997 0.0007414864   -5.0270192   0.97601949   439061 
 2717000   0.65182294   -5.0279315   -5.0279315   -4.0501993  0.005030157   -5.0279315   0.97773218   439061 
 2718000   0.65079412   -5.0261504   -5.0261504   -4.0499614 0.0033286679   -5.0261504   0.97618895   439061 
 2719000   0.65062551   -5.0257211   -5.0257211    -4.049785 0.0091439803   -5.0257211   0.97593605   439061 
 2720000   0.65214602   -5.0277717   -5.0277717   -4.0495549 0.0027307031   -5.0277717    0.9782168   439061 
 2721000   0.65208062   -5.0267941   -5.0267941   -4.0486754 0.0080870789   -5.0267941    0.9781187   439061 
 2722000   0.65090144   -5.0252635   -5.0252635   -4.0489136  0.004835012   -5.0252635   0.97634993   439061 
 2723000   0.65040906   -5.0244851   -5.0244851   -4.0488738 -0.001087716   -5.0244851   0.97561137   439061 
 2724000   0.64943716   -5.0228208   -5.0228208   -4.0486673 -0.00082848797   -5.0228208   0.97415352   439061 
 2725000   0.64831483   -5.0214625   -5.0214625   -4.0489925 -0.0022921205   -5.0214625   0.97247003   439061 
 2726000   0.64891707   -5.0222052   -5.0222052   -4.0488318 -0.00098244837   -5.0222052   0.97337339   439061 
 2727000   0.64920313   -5.0227446   -5.0227446   -4.0489421 0.0013331856   -5.0227446   0.97380248   439061 
 2728000   0.64940796   -5.0229083   -5.0229083   -4.0487986 -0.0034184411   -5.0229083   0.97410971   439061 
 2729000   0.64895013   -5.0238277   -5.0238277   -4.0504047 -0.0011784764   -5.0238277   0.97342298   439061 
 2730000   0.65123051    -5.026756    -5.026756   -4.0499124 0.0041561848    -5.026756   0.97684355   439061 
 2731000   0.65198492   -5.0276191   -5.0276191    -4.049644 0.0058644496   -5.0276191   0.97797516   439061 
 2732000   0.65204859   -5.0282695   -5.0282695   -4.0501988 0.0076290345   -5.0282695   0.97807066   439061 
 2733000   0.64968581   -5.0256567   -5.0256567   -4.0511301  0.014071538   -5.0256567    0.9745265   439061 
 2734000   0.65068347   -5.0268187   -5.0268187   -4.0507957 0.0095977941   -5.0268187   0.97602299   439061 
 2735000   0.65173805     -5.02909     -5.02909   -4.0514851 0.0033181343     -5.02909   0.97760486   439061 
 2736000   0.65034159   -5.0265591   -5.0265591    -4.051049 0.0062469056   -5.0265591   0.97551016   439061 
 2737000   0.65050942   -5.0266232   -5.0266232   -4.0508613 0.0020185083   -5.0266232   0.97576191   439061 
 2738000    0.6496278   -5.0258216   -5.0258216   -4.0513821 -0.0027870299   -5.0258216   0.97443949   439061 
 2739000   0.64934094   -5.0246361   -5.0246361   -4.0506269 0.00049649414   -5.0246361   0.97400919   439061 
 2740000   0.64908192   -5.0235515   -5.0235515   -4.0499308 0.00038417963   -5.0235515   0.97362066   439061 
 2741000    0.6495882   -5.0253847   -5.0253847   -4.0510047 -0.0050771983   -5.0253847   0.97438007   439061 
 2742000   0.65004015   -5.0257512   -5.0257512   -4.0506932 -0.0015132206   -5.0257512   0.97505801   439061 
 2743000   0.64944208   -5.0247719   -5.0247719    -4.050611 0.0002296033   -5.0247719    0.9741609   439061 
 2744000     0.650846    -5.026646    -5.026646   -4.0503792 -0.00042675755    -5.026646   0.97626677   439061 
 2745000    0.6499287   -5.0260931   -5.0260931   -4.0512023 0.0076849567   -5.0260931   0.97489083   439061 
 2746000   0.64991878   -5.0262846   -5.0262846   -4.0514087 0.0027820952   -5.0262846   0.97487595   439061 
 2747000   0.65038882   -5.0281533   -5.0281533   -4.0525723 0.0019637906   -5.0281533     0.975581   439061 
 2748000   0.65019082   -5.0267401   -5.0267401   -4.0514561 0.0032317253   -5.0267401   0.97528402   439061 
 2749000   0.64939494   -5.0265194   -5.0265194   -4.0524293 0.0033047248   -5.0265194   0.97409019   439061 
 2750000   0.65070633   -5.0278503   -5.0278503   -4.0517931 0.0051629442   -5.0278503   0.97605727   439061 
 2751000   0.64978871   -5.0269542   -5.0269542   -4.0522733 0.0027453638   -5.0269542   0.97468085   439061 
 2752000   0.65127443   -5.0274159   -5.0274159   -4.0505064   0.00627376   -5.0274159   0.97690942   439061 
 2753000    0.6517657   -5.0290431   -5.0290431   -4.0513967 0.0052482304   -5.0290431   0.97764632   439061 
 2754000   0.64902809   -5.0256911   -5.0256911   -4.0521511 0.0044836762   -5.0256911   0.97353992   439061 
 2755000   0.64913664   -5.0253404   -5.0253404   -4.0516377 -0.0024504475   -5.0253404   0.97370274   439061 
 2756000   0.64962953    -5.027533    -5.027533   -4.0530909 8.1323335e-05    -5.027533   0.97444208   439061 
 2757000   0.64887705   -5.0257238   -5.0257238   -4.0524105 0.0054831386   -5.0257238   0.97331337   439061 
 2758000    0.6491531    -5.025146    -5.025146   -4.0514185 0.00088828824    -5.025146   0.97372744   439061 
 2759000   0.64824806   -5.0241647   -5.0241647   -4.0517949 0.0086730879   -5.0241647   0.97236987   439061 
 2760000   0.64981246   -5.0265643   -5.0265643   -4.0518478 -0.0011278538   -5.0265643   0.97471647   439061 
 2761000   0.65034267   -5.0267584   -5.0267584   -4.0512466 0.0038150379   -5.0267584   0.97551178   439061 
 2762000   0.65074666    -5.027156    -5.027156   -4.0510382 0.0055506389    -5.027156   0.97611777   439061 
 2763000   0.65012583   -5.0261549   -5.0261549   -4.0509684 0.0017942863   -5.0261549   0.97518652   439061 
 2764000   0.64960813   -5.0259939   -5.0259939   -4.0515839 0.0011855687   -5.0259939   0.97440998   439061 
 2765000   0.64923002   -5.0260524   -5.0260524   -4.0522095 0.00085317935   -5.0260524   0.97384282   439061 
 2766000   0.65001935   -5.0258372   -5.0258372   -4.0508104 0.0025569833   -5.0258372   0.97502681   439061 
 2767000   0.65024568   -5.0270056   -5.0270056   -4.0516393 -0.0011160949   -5.0270056   0.97536629   439061 
 2768000   0.64972791   -5.0268728   -5.0268728   -4.0522832 0.0034806245   -5.0268728   0.97458965   439061 
 2769000   0.65061144   -5.0278909   -5.0278909    -4.051976 -0.0045895613   -5.0278909   0.97591493   439061 
 2770000   0.64965238   -5.0268247   -5.0268247   -4.0523484 0.0015384475   -5.0268247   0.97447635   439061 
 2771000   0.65020075   -5.0266896   -5.0266896   -4.0513907 0.0055473132   -5.0266896    0.9752989   439061 
 2772000   0.64946155   -5.0262865   -5.0262865   -4.0520963 0.0047948711   -5.0262865   0.97419011   439061 
 2773000   0.65007569   -5.0279666   -5.0279666   -4.0528553  0.001314337   -5.0279666   0.97511132   439061 
 2774000   0.65042704   -5.0271531   -5.0271531   -4.0515148  0.001687466   -5.0271531   0.97563833   439061 
 2775000   0.65019376   -5.0279239   -5.0279239   -4.0526355 -0.00026419791   -5.0279239   0.97528842   439061 
 2776000   0.65026608   -5.0281661   -5.0281661   -4.0527692 0.0016410308   -5.0281661    0.9753969   439061 
 2777000   0.65032139    -5.028122    -5.028122   -4.0526421 0.0052057662    -5.028122   0.97547987   439061 
 2778000   0.64987814   -5.0285704   -5.0285704   -4.0537554 0.0036902774   -5.0285704   0.97481499   439061 
 2779000   0.65035854   -5.0302492   -5.0302492   -4.0547136 0.0019089731   -5.0302492   0.97553559   439061 
 2780000   0.64905649   -5.0281315   -5.0281315   -4.0545489 0.0023711042   -5.0281315   0.97358252   439061 
 2781000    0.6495818   -5.0285817   -5.0285817   -4.0542112 0.0019449672   -5.0285817   0.97437048   439061 
 2782000   0.64999881   -5.0292018   -5.0292018   -4.0542058 0.0021154295   -5.0292018     0.974996   439061 
 2783000   0.64867198   -5.0277088   -5.0277088   -4.0547031 0.0040578795   -5.0277088   0.97300575   439061 
 2784000   0.64883277   -5.0277577   -5.0277577   -4.0545108 0.0033563676   -5.0277577   0.97324693   439061 
 2785000   0.64943562   -5.0287578   -5.0287578   -4.0546066 -0.00064631937   -5.0287578   0.97415121   439061 
 2786000   0.64939236   -5.0291235   -5.0291235   -4.0550372 0.0020870211   -5.0291235   0.97408633   439061 
 2787000   0.65001181   -5.0289401   -5.0289401   -4.0539246 0.0089331244   -5.0289401   0.97501549   439061 
 2788000   0.65024787   -5.0303269   -5.0303269   -4.0549573  0.001933815   -5.0303269   0.97536958   439061 
 2789000   0.65060093   -5.0307661   -5.0307661    -4.054867 0.00048051095   -5.0307661   0.97589917   439061 
 2790000   0.65013715   -5.0307129   -5.0307129   -4.0555094 0.0039342714   -5.0307129    0.9752035   439061 
 2791000   0.64981473    -5.029487    -5.029487   -4.0547671  0.005481749    -5.029487   0.97471987   439061 
 2792000   0.65023956    -5.030914    -5.030914   -4.0555569 0.0061758559    -5.030914   0.97535712   439061 
 2793000   0.64915605     -5.02876     -5.02876   -4.0550281 0.0014219003     -5.02876   0.97373185   439061 
 2794000    0.6489605   -5.0294799   -5.0294799   -4.0560413 -0.00061176241   -5.0294799   0.97343854   439061 
 2795000    0.6491813   -5.0291172   -5.0291172   -4.0553475 0.0018135568   -5.0291172   0.97376973   439061 
 2796000   0.64980968   -5.0288408   -5.0288408   -4.0541285 0.0023040127   -5.0288408   0.97471229   439061 
 2797000   0.64916382   -5.0280018   -5.0280018   -4.0542583 0.0018528633   -5.0280018   0.97374351   439061 
 2798000   0.64974447   -5.0296693   -5.0296693   -4.0550549 0.0028113111   -5.0296693   0.97461448   439061 
 2799000    0.6490809   -5.0279857   -5.0279857   -4.0543665 0.0026419871   -5.0279857   0.97361914   439061 
 2800000   0.65026873   -5.0289465   -5.0289465   -4.0535456   0.00409962   -5.0289465   0.97540087   439061 
 2801000   0.65046947   -5.0279986   -5.0279986   -4.0522966 0.0061604125   -5.0279986   0.97570198   439061 
 2802000   0.65021376   -5.0274384   -5.0274384     -4.05212 0.0072378166   -5.0274384   0.97531842   439061 
 2803000   0.64973543   -5.0272267   -5.0272267   -4.0526258 0.0049527466   -5.0272267   0.97460093   439061 
 2804000   0.64983636   -5.0274769   -5.0274769   -4.0527246 0.0031036643   -5.0274769   0.97475232   439061 
 2805000   0.64945274   -5.0272362   -5.0272362   -4.0530593 -0.0011106434   -5.0272362    0.9741769   439061 
 2806000   0.64894133   -5.0269184   -5.0269184   -4.0535086 -0.00065439904   -5.0269184   0.97340977   439061 
 2807000    0.6497458   -5.0277427   -5.0277427   -4.0531262 0.00083794234   -5.0277427   0.97461649   439061 
 2808000   0.64969881   -5.0284547   -5.0284547   -4.0539087 -0.0010465979   -5.0284547     0.974546   439061 
 2809000   0.64956559   -5.0274828   -5.0274828   -4.0531367 -0.0022553344   -5.0274828   0.97434617   439061 
 2810000   0.64969118    -5.027287    -5.027287   -4.0527524 -0.00059714046    -5.027287   0.97453455   439061 
 2811000   0.64975765   -5.0280059   -5.0280059   -4.0533717 0.0059374987   -5.0280059   0.97463426   439061 
 2812000   0.65011592   -5.0279196   -5.0279196   -4.0527479 0.0066155659   -5.0279196   0.97517166   439061 
 2813000   0.65062751   -5.0285283   -5.0285283   -4.0525892 0.0066525125   -5.0285283   0.97593904   439061 
 2814000   0.65087353   -5.0299991   -5.0299991   -4.0536911 -7.6713712e-05   -5.0299991   0.97630806   439061 
 2815000    0.6507047   -5.0307136   -5.0307136   -4.0546588 0.00058217555   -5.0307136   0.97605482   439061 
 2816000   0.65055523   -5.0298126   -5.0298126    -4.053982 0.0026738469   -5.0298126   0.97583063   439061 
 2817000   0.65002756   -5.0283663   -5.0283663   -4.0533272 0.0049311169   -5.0283663   0.97503913   439061 
 2818000    0.6498621   -5.0280891   -5.0280891   -4.0532982 0.0031386475   -5.0280891   0.97479093   439061 
 2819000   0.64950152   -5.0274492   -5.0274492   -4.0531992 0.0021740568   -5.0274492   0.97425007   439061 
 2820000   0.65007233   -5.0281848   -5.0281848   -4.0530785 -0.00063120487   -5.0281848   0.97510628   439061 
 2821000   0.64942681   -5.0264651   -5.0264651   -4.0523271 0.0007615315   -5.0264651     0.974138   439061 
 2822000   0.65052284   -5.0273873   -5.0273873   -4.0516052 0.0046085255   -5.0273873   0.97578204   439061 
 2823000   0.65033529   -5.0280065   -5.0280065   -4.0525058  0.003498658   -5.0280065   0.97550072   439061 
 2824000   0.65002678   -5.0275297   -5.0275297   -4.0524918 0.0039614688   -5.0275297   0.97503795   439061 
 2825000   0.64939065   -5.0269217   -5.0269217   -4.0528379 0.00043851821   -5.0269217   0.97408376   439061 
 2826000   0.65051402     -5.02771     -5.02771   -4.0519412 0.00083426212     -5.02771   0.97576881   439061 
 2827000   0.65075601   -5.0279527   -5.0279527   -4.0518209 0.00030926894   -5.0279527   0.97613179   439061 
 2828000   0.64919579   -5.0253313   -5.0253313   -4.0515398   0.01160261   -5.0253313   0.97379146   439061 
 2829000   0.65149635   -5.0291616   -5.0291616   -4.0519193 0.00091869406   -5.0291616    0.9772423   439061 
 2830000   0.64960054   -5.0273161   -5.0273161   -4.0529175 -1.3320818e-05   -5.0273161   0.97439859   439061 
 2831000    0.6485812   -5.0262648   -5.0262648   -4.0533952 0.0024553313   -5.0262648   0.97286959   439061 
 2832000   0.64849253   -5.0276564   -5.0276564   -4.0549199 -0.0017122843   -5.0276564   0.97273658   439061 
 2833000   0.64911442    -5.028525    -5.028525   -4.0548556 -0.00016886164    -5.028525   0.97366941   439061 
 2834000   0.64918993   -5.0279143   -5.0279143   -4.0541317 0.0065011364   -5.0279143   0.97378268   439061 
 2835000   0.64967554   -5.0305692   -5.0305692   -4.0560581 0.0022656461   -5.0305692    0.9745111   439061 
 2836000   0.65054228   -5.0309121   -5.0309121   -4.0551009 0.0046902216   -5.0309121    0.9758112   439061 
 2837000   0.65128461   -5.0327886   -5.0327886   -4.0558639 -0.0033791311   -5.0327886   0.97692469   439061 
 2838000   0.64963387   -5.0304854   -5.0304854   -4.0560368  0.010542715   -5.0304854   0.97444859   439061 
 2839000   0.65075028   -5.0325639   -5.0325639   -4.0564407  0.003881546   -5.0325639    0.9761232   439061 
 2840000   0.64969625    -5.030922    -5.030922   -4.0563798 0.0040283654    -5.030922   0.97454215   439061 
 2841000   0.64841688   -5.0294606   -5.0294606   -4.0568375 0.0067495747   -5.0294606   0.97262311   439061 
 2842000   0.64857606   -5.0293426   -5.0293426   -4.0564807 0.0036495872   -5.0293426   0.97286188   439061 
 2843000   0.64848436    -5.028347    -5.028347   -4.0556226 9.0158627e-05    -5.028347   0.97272432   439061 
 2844000   0.65049048   -5.0313143   -5.0313143   -4.0555808 -0.0058025583   -5.0313143   0.97573349   439061 
 2845000   0.64911107   -5.0288934   -5.0288934    -4.055229 0.0047580521   -5.0288934   0.97366439   439061 
 2846000   0.64990899    -5.029102    -5.029102   -4.0542407   0.00592052    -5.029102   0.97486126   439061 
 2847000   0.65008047   -5.0291231   -5.0291231   -4.0540046 0.0043958173   -5.0291231   0.97511848   439061 
 2848000   0.64944114   -5.0284015   -5.0284015    -4.054242 -0.002083209   -5.0284015   0.97415949   439061 
 2849000   0.64947394   -5.0288299   -5.0288299   -4.0546212 -0.0040208729   -5.0288299   0.97420869   439061 
 2850000   0.64841303   -5.0277324   -5.0277324   -4.0551151 -0.0010062042   -5.0277324   0.97261732   439061 
 2851000   0.64907515   -5.0279821   -5.0279821   -4.0543716 -2.0283597e-05   -5.0279821   0.97361051   439061 
 2852000   0.64988625   -5.0290008   -5.0290008   -4.0541737 0.0048297577   -5.0290008   0.97482716   439061 
 2853000   0.64970267   -5.0289761   -5.0289761   -4.0544243 0.0021380857   -5.0289761   0.97455178   439061 
 2854000   0.65038071   -5.0304249   -5.0304249   -4.0548561 -0.00083994565   -5.0304249   0.97556884   439061 
 2855000   0.65039076   -5.0303533   -5.0303533   -4.0547694 0.0016508562   -5.0303533   0.97558392   439061 
 2856000   0.65082271   -5.0309351   -5.0309351   -4.0547033 0.0056588998   -5.0309351   0.97623184   439061 
 2857000   0.65035822   -5.0303039   -5.0303039   -4.0547688 0.0071567208   -5.0303039   0.97553511   439061 
 2858000   0.64963864   -5.0306867   -5.0306867    -4.056231 0.0063572695   -5.0306867   0.97445575   439061 
 2859000   0.64869694   -5.0304451   -5.0304451   -4.0574019 0.0029370263   -5.0304451   0.97304319   439061 
 2860000   0.64855824   -5.0312652   -5.0312652     -4.05843 0.0020561035   -5.0312652   0.97283515   439061 
 2861000   0.64922103   -5.0309803   -5.0309803    -4.057151 -0.0016511974   -5.0309803   0.97382933   439061 
 2862000   0.64976646   -5.0313599   -5.0313599   -4.0567124 -0.0015067432   -5.0313599   0.97464747   439061 
 2863000   0.65041655   -5.0314461   -5.0314461   -4.0558235 0.0011964234   -5.0314461    0.9756226   439061 
 2864000   0.64963634   -5.0302091   -5.0302091   -4.0557569 0.0045666857   -5.0302091   0.97445229   439061 
 2865000   0.65016446    -5.031368    -5.031368   -4.0561235 0.0046266713    -5.031368   0.97524447   439061 
 2866000   0.65116492   -5.0312714   -5.0312714   -4.0545262 0.0018466698   -5.0312714   0.97674516   439061 
 2867000   0.65152705   -5.0325243   -5.0325243    -4.055236 0.0018356834   -5.0325243   0.97728835   439061 
 2868000   0.64963528   -5.0304554   -5.0304554   -4.0560047 0.0046348456   -5.0304554    0.9744507   439061 
 2869000   0.64926948   -5.0304887   -5.0304887   -4.0565867 0.00055863931   -5.0304887   0.97390201   439061 
 2870000   0.64955827   -5.0290063   -5.0290063   -4.0546711 0.0025187698   -5.0290063   0.97433519   439061 
 2871000   0.64901065   -5.0287192   -5.0287192   -4.0552055  0.001935984   -5.0287192   0.97351376   439061 
 2872000   0.64955077   -5.0298295   -5.0298295   -4.0555055 0.0031677265   -5.0298295   0.97432393   439061 
 2873000   0.65060895   -5.0308634   -5.0308634   -4.0549522 -0.0026566369   -5.0308634    0.9759112   439061 
 2874000   0.64841097   -5.0274651   -5.0274651   -4.0548509 0.00050577299   -5.0274651   0.97261423   439061 
 2875000   0.64824026   -5.0272944   -5.0272944   -4.0549362 0.0020620852   -5.0272944   0.97235818   439061 
 2876000   0.64937395   -5.0298189   -5.0298189   -4.0557602 0.0027807117   -5.0298189   0.97405871   439061 
 2877000   0.64958102   -5.0292111   -5.0292111   -4.0548417 0.0026595252   -5.0292111   0.97436932   439061 
 2878000   0.65010933   -5.0312078   -5.0312078   -4.0560461 -0.00050812485   -5.0312078   0.97516178   439061 
 2879000    0.6493003   -5.0300451   -5.0300451   -4.0560969 0.00032526048   -5.0300451   0.97394823   439061 
 2880000   0.65026176   -5.0312389   -5.0312389   -4.0558485 -0.0030947891   -5.0312389   0.97539042   439061 
 2881000   0.64976226   -5.0297691   -5.0297691   -4.0551279 0.0083903581   -5.0297691   0.97464117   439061 
 2882000   0.64884574   -5.0296797   -5.0296797   -4.0564133  0.005480824   -5.0296797   0.97326639   439061 
 2883000   0.65041439   -5.0307098   -5.0307098   -4.0550905 0.0034408695   -5.0307098   0.97561936   439061 
 2884000   0.64942519   -5.0293773   -5.0293773   -4.0552417 0.0039781832   -5.0293773   0.97413557   439061 
 2885000   0.64985819    -5.030784    -5.030784   -4.0559989 0.0070790981    -5.030784   0.97478507   439061 
 2886000   0.65014848   -5.0297382   -5.0297382   -4.0545177 0.0036709004   -5.0297382    0.9752205   439061 
 2887000   0.64989292   -5.0293518   -5.0293518   -4.0545147 -0.00049386883   -5.0293518   0.97483716   439061 
 2888000   0.64924822    -5.029276    -5.029276   -4.0554059  0.002577912    -5.029276   0.97387011   439061 
 2889000   0.64943018   -5.0302433   -5.0302433   -4.0561003 -0.0027331935   -5.0302433   0.97414305   439061 
 2890000   0.64890963   -5.0279909   -5.0279909   -4.0546287 0.0031754839   -5.0279909   0.97336224   439061 
 2891000   0.64995942   -5.0286063   -5.0286063   -4.0536694 0.0011368194   -5.0286063   0.97493691   439061 
 2892000   0.64916498   -5.0275541   -5.0275541   -4.0538089 -0.0026085295   -5.0275541   0.97374526   439061 
 2893000    0.6492738   -5.0279635   -5.0279635    -4.054055 0.0063295201   -5.0279635   0.97390848   439061 
 2894000   0.64944702   -5.0278938   -5.0278938   -4.0537255 0.0030171993   -5.0278938   0.97416832   439061 
 2895000   0.64851283   -5.0278674   -5.0278674   -4.0551004 0.0058657242   -5.0278674   0.97276703   439061 
 2896000   0.64956513   -5.0292987   -5.0292987   -4.0549532 -0.00032520328   -5.0292987   0.97434548   439061 
 2897000   0.65031009   -5.0307307   -5.0307307   -4.0552678 -0.00023519278   -5.0307307   0.97546291   439061 
 2898000   0.65083592   -5.0308358   -5.0308358   -4.0545841 0.0049020517   -5.0308358   0.97625166   439061 
 2899000   0.65067111   -5.0300431   -5.0300431   -4.0540386  0.005690423   -5.0300431   0.97600445   439061 
 2900000   0.65009055   -5.0296278   -5.0296278   -4.0544942 0.0026423391   -5.0296278    0.9751336   439061 
 2901000   0.65021645   -5.0303909   -5.0303909   -4.0550684 0.0043560673   -5.0303909   0.97532245   439061 
 2902000   0.64874152   -5.0283313   -5.0283313   -4.0552212 0.0017497394   -5.0283313   0.97311006   439061 
 2903000     0.649791   -5.0303014   -5.0303014   -4.0556171 -0.0047065352   -5.0303014   0.97468428   439061 
 2904000   0.64933384   -5.0297292   -5.0297292   -4.0557307 -0.0033638472   -5.0297292   0.97399855   439061 
 2905000   0.64840628   -5.0286894   -5.0286894   -4.0560822 -0.00080047602   -5.0286894    0.9726072   439061 
 2906000   0.64971396   -5.0306128   -5.0306128   -4.0560441 0.0034441221   -5.0306128   0.97456872   439061 
 2907000   0.64985515   -5.0308326   -5.0308326   -4.0560521 0.0015189899   -5.0308326    0.9747805   439061 
 2908000   0.64899819   -5.0298939   -5.0298939   -4.0563989 0.0047392778   -5.0298939   0.97349506   439061 
 2909000   0.64958164   -5.0306485   -5.0306485   -4.0562782 0.0035307405   -5.0306485   0.97437024   439061 
 2910000    0.6507697   -5.0324148   -5.0324148   -4.0562625 0.0019292289   -5.0324148   0.97615233   439061 
 2911000   0.65009903   -5.0310979   -5.0310979   -4.0559516 0.0020825184   -5.0310979   0.97514633   439061 
 2912000   0.64946026     -5.02965     -5.02965   -4.0554619 0.0051610873     -5.02965   0.97418817   439061 
 2913000   0.64920901   -5.0307348   -5.0307348   -4.0569235 -0.00046122789   -5.0307348   0.97381129   439061 
 2914000   0.64831785   -5.0291628   -5.0291628   -4.0566883 -0.0019527379   -5.0291628   0.97247456   439061 
 2915000   0.64905928    -5.029795    -5.029795   -4.0562083 -0.0038393816    -5.029795    0.9735867   439061 
 2916000    0.6494337   -5.0308437   -5.0308437   -4.0566953 0.0023972182   -5.0308437   0.97414834   439061 
 2917000   0.64940373   -5.0295713   -5.0295713   -4.0554679  0.001216035   -5.0295713   0.97410337   439061 
 2918000   0.64919315   -5.0294959   -5.0294959   -4.0557084 0.0024318373   -5.0294959    0.9737875   439061 
 2919000   0.64788815   -5.0291355   -5.0291355   -4.0573054 0.0054078096   -5.0291355   0.97183002   439061 
 2920000   0.64919326   -5.0307594   -5.0307594   -4.0569717 0.0014800483   -5.0307594   0.97378767   439061 
 2921000   0.65068646   -5.0328105   -5.0328105   -4.0567831 0.0026029733   -5.0328105   0.97602747   439061 
 2922000   0.65083936   -5.0321897   -5.0321897   -4.0559328 0.0028900505   -5.0321897   0.97625682   439061 
 2923000   0.65039961   -5.0319064   -5.0319064   -4.0563092 0.0008504339   -5.0319064   0.97559719   439061 
 2924000   0.64986226   -5.0305082   -5.0305082    -4.055717  0.004781947   -5.0305082   0.97479118   439061 
 2925000   0.64901931   -5.0306336   -5.0306336   -4.0571068 0.0018665796   -5.0306336   0.97352675   439061 
 2926000   0.64948264   -5.0303131   -5.0303131   -4.0560913  0.001409015   -5.0303131   0.97422174   439061 
 2927000   0.64854199   -5.0288529   -5.0288529   -4.0560421 0.0062041603   -5.0288529   0.97281077   439061 
 2928000   0.64894885   -5.0301783   -5.0301783   -4.0567573 0.0023520365   -5.0301783   0.97342106   439061 
 2929000   0.64974977   -5.0313633   -5.0313633   -4.0567409 -0.0044139137   -5.0313633   0.97462244   439061 
 2930000   0.64937835   -5.0307402   -5.0307402   -4.0566749 7.8744522e-05   -5.0307402    0.9740653   439061 
 2931000   0.64936285   -5.0299195   -5.0299195   -4.0558775 0.0014774344   -5.0299195   0.97404206   439061 
 2932000   0.65008613   -5.0306835   -5.0306835   -4.0555565 0.0054641261   -5.0306835   0.97512697   439061 
 2933000   0.64948837   -5.0296982   -5.0296982   -4.0554679 0.0088387903   -5.0296982   0.97423033   439061 
 2934000   0.65001389   -5.0305931   -5.0305931   -4.0555745 0.0058682155   -5.0305931   0.97501861   439061 
 2935000   0.64970624    -5.029584    -5.029584   -4.0550268 0.0068388327    -5.029584   0.97455714   439061 
 2936000   0.64928156   -5.0285394   -5.0285394   -4.0546193 0.0076561681   -5.0285394   0.97392012   439061 
 2937000   0.65083098   -5.0313235   -5.0313235   -4.0550793 -0.0013547721   -5.0313235   0.97624425   439061 
 2938000    0.6493301   -5.0289651   -5.0289651   -4.0549722 0.00025758517   -5.0289651   0.97399293   439061 
 2939000   0.64987606   -5.0292389   -5.0292389    -4.054427 0.0022550423   -5.0292389   0.97481186   439061 
 2940000   0.64884474    -5.030016    -5.030016   -4.0567511 6.8026451e-06    -5.030016   0.97326489   439061 
 2941000   0.64974496    -5.030712    -5.030712   -4.0560967 -0.0023417503    -5.030712   0.97461523   439061 
 2942000   0.64844623   -5.0285889   -5.0285889   -4.0559217 0.0033080935   -5.0285889   0.97266712   439061 
 2943000   0.64915004   -5.0286003   -5.0286003   -4.0548775 0.0041881381   -5.0286003   0.97372285   439061 
 2944000    0.6504581   -5.0308452   -5.0308452   -4.0551603 0.0041296969   -5.0308452   0.97568493   439061 
 2945000   0.65125964   -5.0326634   -5.0326634   -4.0557762 -0.001443765   -5.0326634   0.97688723   439061 
 2946000   0.64956403   -5.0303951   -5.0303951   -4.0560513 0.0026019741   -5.0303951   0.97434382   439061 
 2947000   0.64901863   -5.0294855   -5.0294855   -4.0559598 0.0035638825   -5.0294855   0.97352572   439061 
 2948000   0.64953917   -5.0315241   -5.0315241   -4.0572175 -0.00026887148   -5.0315241   0.97430654   439061 
 2949000   0.64957304   -5.0307157   -5.0307157   -4.0563583 0.00042145491   -5.0307157   0.97435734   439061 
 2950000   0.64984569   -5.0307812   -5.0307812   -4.0560148 0.0014254937   -5.0307812   0.97476631   439061 
 2951000   0.64971773   -5.0305884   -5.0305884    -4.056014 -0.0017729761   -5.0305884   0.97457437   439061 
 2952000   0.64904759   -5.0295509   -5.0295509   -4.0559818 -0.00057928218   -5.0295509   0.97356916   439061 
 2953000   0.64898425   -5.0292793   -5.0292793   -4.0558052 0.0015705822   -5.0292793   0.97347415   439061 
 2954000   0.64891936   -5.0293583   -5.0293583   -4.0559815 0.0026015744   -5.0293583   0.97337683   439061 
 2955000    0.6485583   -5.0287942   -5.0287942   -4.0559589 0.0055219762   -5.0287942   0.97283523   439061 
 2956000   0.64894897   -5.0299083   -5.0299083    -4.056487 0.0028883125   -5.0299083   0.97342124   439061 
 2957000   0.65000996   -5.0309547   -5.0309547    -4.055942  0.002238719   -5.0309547   0.97501272   439061 
 2958000   0.64967838   -5.0301416   -5.0301416   -4.0556262 0.0039288352   -5.0301416   0.97451535   439061 
 2959000   0.64994972   -5.0307388   -5.0307388   -4.0558164 0.0076215831   -5.0307388   0.97492235   439061 
 2960000   0.64984444   -5.0308776   -5.0308776   -4.0561131 0.0022142528   -5.0308776   0.97476444   439061 
 2961000   0.64828862   -5.0290464   -5.0290464   -4.0566157 -0.0017404574   -5.0290464   0.97243071   439061 
 2962000   0.64857924   -5.0290059   -5.0290059   -4.0561393 0.0040245977   -5.0290059   0.97286664   439061 
 2963000    0.6493807   -5.0302068   -5.0302068    -4.056138 0.0020106816   -5.0302068   0.97406883   439061 
 2964000   0.64855406   -5.0293617   -5.0293617   -4.0565328 0.0063193517   -5.0293617   0.97282887   439061 
 2965000   0.64922734   -5.0294933   -5.0294933   -4.0556546 0.0019193889   -5.0294933   0.97383879   439061 
 2966000    0.6491504   -5.0301506   -5.0301506   -4.0564272 0.0026291988   -5.0301506   0.97372338   439061 
 2967000    0.6485852   -5.0304061   -5.0304061   -4.0575305 -0.0043039592   -5.0304061   0.97287559   439061 
 2968000   0.64873334   -5.0300352   -5.0300352   -4.0569374 0.00080040883   -5.0300352    0.9730978   439061 
 2969000   0.64926658   -5.0297347   -5.0297347    -4.055837 0.0048600574   -5.0297347   0.97389765   439061 
 2970000   0.65054551   -5.0320693   -5.0320693   -4.0562532 0.0013149397   -5.0320693   0.97581605   439061 
 2971000   0.64915894   -5.0306093   -5.0306093   -4.0568731 0.0014671549   -5.0306093   0.97373619   439061 
 2972000   0.65047299   -5.0321047   -5.0321047   -4.0563975 0.0026553283   -5.0321047   0.97570726   439061 
 2973000   0.65017176   -5.0311179   -5.0311179   -4.0558624 0.0019500159   -5.0311179   0.97525542   439061 
 2974000   0.64983379   -5.0311013   -5.0311013   -4.0563528 0.0022763024   -5.0311013   0.97474846   439061 
 2975000   0.64819797   -5.0298941   -5.0298941   -4.0575994 0.0012713423   -5.0298941   0.97229474   439061 
 2976000   0.64909145   -5.0307258   -5.0307258   -4.0570908 -5.5684945e-06   -5.0307258   0.97363496   439061 
 2977000   0.64888894   -5.0314877   -5.0314877   -4.0581566 -0.0010299323   -5.0314877   0.97333119   439061 
 2978000   0.65076337    -5.034224    -5.034224   -4.0580812 -0.0014711591    -5.034224   0.97614284   439061 
 2979000   0.64902643   -5.0315044   -5.0315044    -4.057967 -0.0023832564   -5.0315044   0.97353742   439061 
 2980000   0.65001335   -5.0318053   -5.0318053   -4.0567875 0.0021911081   -5.0318053    0.9750178   439061 
 2981000   0.64945852   -5.0316354   -5.0316354   -4.0574498  0.003014244   -5.0316354   0.97418556   439061 
 2982000   0.64925293   -5.0310791   -5.0310791   -4.0572019 0.0080738205   -5.0310791   0.97387717   439061 
 2983000    0.6495571   -5.0319333   -5.0319333   -4.0575999 0.0058112837   -5.0319333   0.97433343   439061 
 2984000   0.65000963   -5.0323601   -5.0323601   -4.0573479 0.0039118989   -5.0323601   0.97501223   439061 
 2985000   0.64973785   -5.0321882   -5.0321882   -4.0575836 0.0011664853   -5.0321882   0.97460455   439061 
 2986000   0.64853719    -5.030701    -5.030701   -4.0578974 -0.00067526802    -5.030701   0.97280357   439061 
 2987000    0.6488325   -5.0312323   -5.0312323   -4.0579857 0.0017345409   -5.0312323   0.97324654   439061 
 2988000   0.64852613   -5.0301929   -5.0301929   -4.0574059 0.0028527256   -5.0301929   0.97278697   439061 
 2989000   0.64783501   -5.0281534   -5.0281534   -4.0564031 0.0040638564   -5.0281534   0.97175031   439061 
 2990000   0.64831217   -5.0298406   -5.0298406   -4.0573745 0.0037792874   -5.0298406   0.97246604   439061 
 2991000   0.64807527   -5.0293646   -5.0293646   -4.0572539 0.0025739866   -5.0293646   0.97211069   439061 
 2992000   0.64766008   -5.0283253   -5.0283253   -4.0568374 0.0044799538   -5.0283253    0.9714879   439061 
 2993000   0.64827631   -5.0310102   -5.0310102   -4.0585979 -0.0011363685   -5.0310102   0.97241225   439061 
 2994000   0.64787804   -5.0298025   -5.0298025   -4.0579877 0.0051285278   -5.0298025   0.97181485   439061 
 2995000   0.64940057   -5.0319516   -5.0319516    -4.057853 -0.00053267761   -5.0319516   0.97409864   439061 
 2996000   0.64948269   -5.0326311   -5.0326311   -4.0584092 0.0065920585   -5.0326311   0.97422182   439061 
 2997000   0.64982397   -5.0330069   -5.0330069   -4.0582732 0.0076113742   -5.0330069   0.97473373   439061 
 2998000   0.65020611   -5.0323934   -5.0323934   -4.0570864 0.0085888147   -5.0323934   0.97530694   439061 
 2999000    0.6486085   -5.0309909   -5.0309909   -4.0580804  0.010926696   -5.0309909   0.97291053   439061 
 3000000   0.64834951   -5.0317734   -5.0317734   -4.0592514 0.0021842508   -5.0317734   0.97252205   439061 
 3001000   0.65012413   -5.0336985   -5.0336985   -4.0585145 -0.0014471865   -5.0336985   0.97518398   439061 
 3002000   0.64985572   -5.0319357   -5.0319357   -4.0571543 0.0027512828   -5.0319357   0.97478137   439061 
 3003000   0.64977934   -5.0307203   -5.0307203   -4.0560535 0.00034646776   -5.0307203   0.97466679   439061 
 3004000   0.64996356   -5.0300135   -5.0300135   -4.0550704 0.0023610507   -5.0300135   0.97494312   439061 
 3005000    0.6493286   -5.0295855   -5.0295855   -4.0555948 -0.001395809   -5.0295855   0.97399069   439061 
 3006000    0.6492337    -5.029855    -5.029855   -4.0560067 -0.00021680697    -5.029855   0.97384834   439061 
 3007000   0.64883515   -5.0294075   -5.0294075    -4.056157 -0.0036128208   -5.0294075   0.97325051   439061 
 3008000   0.64892961    -5.029466    -5.029466   -4.0560738 0.0022692434    -5.029466   0.97339219   439061 
 3009000   0.64874735   -5.0293856   -5.0293856   -4.0562668 0.0024923155   -5.0293856   0.97311881   439061 
 3010000   0.64957827    -5.030772    -5.030772   -4.0564068 0.0026561079    -5.030772   0.97436519   439061 
 3011000   0.64986315   -5.0318843   -5.0318843   -4.0570918 -0.00032986202   -5.0318843   0.97479251   439061 
 3012000   0.64854449   -5.0297186   -5.0297186   -4.0569041 0.0055240318   -5.0297186   0.97281452   439061 
 3013000   0.65007027    -5.031476    -5.031476   -4.0563728 0.0033563021    -5.031476   0.97510318   439061 
 3014000   0.64998445   -5.0310703   -5.0310703   -4.0560958 0.0091347183   -5.0310703   0.97497446   439061 
 3015000   0.64962448   -5.0296822   -5.0296822   -4.0552478 0.0067465162   -5.0296822    0.9744345   439061 
 3016000   0.65037874   -5.0301173   -5.0301173   -4.0545514 0.0071817948   -5.0301173   0.97556589   439061 
 3017000    0.6486085   -5.0278703   -5.0278703   -4.0549598 0.0073125881   -5.0278703   0.97291054   439061 
 3018000   0.64948429   -5.0289532   -5.0289532    -4.054729 0.0012230924   -5.0289532   0.97422421   439061 
 3019000   0.64896712   -5.0293741   -5.0293741   -4.0559257 -0.0053077658   -5.0293741   0.97344846   439061 
 3020000   0.64833047   -5.0279781   -5.0279781   -4.0554846 -0.0050879102   -5.0279781   0.97249349   439061 
 3021000   0.64865877    -5.029191    -5.029191    -4.056205 -0.0038538165    -5.029191   0.97298593   439061 
 3022000   0.64889118   -5.0278597   -5.0278597   -4.0545251 0.00052051876   -5.0278597   0.97333456   439061 
 3023000   0.64964204   -5.0290767   -5.0290767   -4.0546159 0.0010635662   -5.0290767   0.97446084   439061 
 3024000   0.64887256   -5.0281382   -5.0281382   -4.0548316 0.0043224513   -5.0281382   0.97330663   439061 
 3025000   0.64979762   -5.0300226   -5.0300226   -4.0553284 0.0055587079   -5.0300226   0.97469421   439061 
 3026000   0.65018237    -5.030847    -5.030847   -4.0555757 0.0050233667    -5.030847   0.97527134   439061 
 3027000   0.64993287   -5.0312301   -5.0312301    -4.056333 0.0082444057   -5.0312301   0.97489708   439061 
 3028000   0.65094269   -5.0331944   -5.0331944   -4.0567826 0.0056703561   -5.0331944   0.97641181   439061 
 3029000   0.65000984   -5.0310369   -5.0310369   -4.0560244 0.0072088254   -5.0310369   0.97501253   439061 
 3030000   0.65014616   -5.0309757   -5.0309757   -4.0557587 0.0046921319   -5.0309757   0.97521702   439061 
 3031000   0.65013483   -5.0310437   -5.0310437   -4.0558437 0.00038841821   -5.0310437   0.97520003   439061 
 3032000    0.6497827   -5.0301589   -5.0301589    -4.055487 0.00012970366   -5.0301589   0.97467184   439061 
 3033000    0.6499579    -5.031131    -5.031131   -4.0561964 -0.0046492362    -5.031131   0.97493463   439061 
 3034000    0.6493704   -5.0300867   -5.0300867   -4.0560333 -0.0016785516   -5.0300867   0.97405338   439061 
 3035000   0.65029001   -5.0306623   -5.0306623   -4.0552295 -0.0034707195   -5.0306623    0.9754328   439061 
 3036000    0.6492971   -5.0283151   -5.0283151   -4.0543717 0.0022870344   -5.0283151   0.97394343   439061 
 3037000   0.64916789   -5.0285065   -5.0285065   -4.0547569 0.0055282101   -5.0285065   0.97374962   439061 
 3038000   0.64920452   -5.0290493   -5.0290493   -4.0552448 0.0010905814   -5.0290493   0.97380456   439061 
 3039000   0.64934658   -5.0283152   -5.0283152   -4.0542975 0.0034473494   -5.0283152   0.97401765   439061 
 3040000    0.6494982   -5.0282142   -5.0282142   -4.0539691 0.00090505241   -5.0282142   0.97424508   439061 
 3041000   0.64918415   -5.0278725   -5.0278725   -4.0540985 0.0052967596   -5.0278725   0.97377401   439061 
 3042000   0.64919042   -5.0290663   -5.0290663   -4.0552828 0.0040990694   -5.0290663   0.97378342   439061 
 3043000   0.65026557   -5.0301267   -5.0301267   -4.0547305 0.00077909654   -5.0301267   0.97539613   439061 
 3044000   0.64927958   -5.0291086   -5.0291086   -4.0551914 -0.0011200769   -5.0291086   0.97391716   439061 
 3045000    0.6485042   -5.0285403   -5.0285403   -4.0557862 -0.002391591   -5.0285403   0.97275408   439061 
 3046000   0.64926528   -5.0278077   -5.0278077    -4.053912 0.0026064005   -5.0278077    0.9738957   439061 
 3047000   0.64999728   -5.0304096   -5.0304096   -4.0554159 0.0021177057   -5.0304096   0.97499371   439061 
 3048000   0.64970634   -5.0300768   -5.0300768   -4.0555195 -0.00058664485   -5.0300768   0.97455729   439061 
 3049000   0.64885151   -5.0293228   -5.0293228   -4.0560478 0.0021017374   -5.0293228   0.97327505   439061 
 3050000   0.64881682   -5.0299736   -5.0299736   -4.0567506 0.0026903005   -5.0299736   0.97322301   439061 
 3051000   0.64891288   -5.0308385   -5.0308385   -4.0574714 -0.0014246483   -5.0308385    0.9733671   439061 
 3052000    0.6496635   -5.0309778   -5.0309778   -4.0564848 0.00052657591   -5.0309778   0.97449303   439061 
 3053000   0.64987737   -5.0318044   -5.0318044   -4.0569906 0.0010226387   -5.0318044   0.97481383   439061 
 3054000   0.64929245    -5.030871    -5.030871   -4.0569346 0.0038131885    -5.030871   0.97393646   439061 
 3055000   0.64874226   -5.0304417   -5.0304417   -4.0573305 0.0036033868   -5.0304417   0.97311118   439061 
 3056000    0.6495313   -5.0310377   -5.0310377   -4.0567429 0.0022693189   -5.0310377   0.97429474   439061 
 3057000   0.64939409   -5.0313221   -5.0313221   -4.0572332 0.0044581858   -5.0313221   0.97408892   439061 
 3058000   0.64985123   -5.0319508   -5.0319508   -4.0571761 -0.00035188219   -5.0319508   0.97477462   439061 
 3059000   0.64906939   -5.0303528   -5.0303528   -4.0567509 0.00063150885   -5.0303528   0.97360186   439061 
 3060000   0.64915925   -5.0298473   -5.0298473   -4.0561106 0.0014423978   -5.0298473   0.97373666   439061 
 3061000    0.6491259   -5.0295696   -5.0295696   -4.0558829 0.0026288121   -5.0295696   0.97368663   439061 
 3062000   0.64921145   -5.0304918   -5.0304918   -4.0566769 -0.0021516505   -5.0304918   0.97381496   439061 
 3063000   0.64890052   -5.0301976   -5.0301976   -4.0568491 -0.002314154   -5.0301976   0.97334857   439061 
 3064000   0.64781862    -5.028359    -5.028359   -4.0566333 -0.00045099851    -5.028359   0.97172572   439061 
 3065000   0.64940699   -5.0295219   -5.0295219   -4.0554136 0.0024680097   -5.0295219   0.97410826   439061 
 3066000   0.64899704   -5.0296602   -5.0296602   -4.0561669 0.0037911056   -5.0296602   0.97349334   439061 
 3067000   0.64976732    -5.031445    -5.031445   -4.0567962  0.001127651    -5.031445   0.97464876   439061 
 3068000   0.64952512   -5.0301855   -5.0301855      -4.0559 0.0011731567   -5.0301855   0.97428546   439061 
 3069000   0.64991366   -5.0310211   -5.0310211   -4.0561528 0.0030538879   -5.0310211   0.97486827   439061 
 3070000   0.64875583   -5.0296875   -5.0296875    -4.056556 0.0067754276   -5.0296875   0.97313153   439061 
 3071000   0.64933189   -5.0302578   -5.0302578   -4.0562621 0.0058376542   -5.0302578   0.97399562   439061 
 3072000   0.64930726   -5.0311877   -5.0311877    -4.057229 -0.00075600442   -5.0311877   0.97395868   439061 
 3073000   0.64853414   -5.0307394   -5.0307394   -4.0579404 0.0084049137   -5.0307394     0.972799   439061 
 3074000   0.64809025   -5.0300196   -5.0300196   -4.0578864 0.00073010627   -5.0300196   0.97213316   439061 
 3075000   0.64869576   -5.0294688   -5.0294688   -4.0564274 -0.00081396962   -5.0294688   0.97304143   439061 
 3076000   0.64850016   -5.0307871   -5.0307871    -4.058039 0.0026548375   -5.0307871   0.97274803   439061 
 3077000   0.64981265   -5.0325381   -5.0325381   -4.0578213 0.00042505968   -5.0325381   0.97471675   439061 
 3078000    0.6493789   -5.0308833   -5.0308833   -4.0568171 -0.00086550078   -5.0308833   0.97406613   439061 
 3079000   0.64862437   -5.0293261   -5.0293261   -4.0563917 0.0024273012   -5.0293261   0.97293433   439061 
 3080000   0.64999881   -5.0321774   -5.0321774   -4.0571814 0.0022558564   -5.0321774   0.97499599   439061 
 3081000     0.649073   -5.0302574   -5.0302574   -4.0566501 0.0088870888   -5.0302574   0.97360729   439061 
 3082000   0.64934257   -5.0304363   -5.0304363   -4.0564247 0.0042967929   -5.0304363   0.97401164   439061 
 3083000   0.64924205   -5.0309455   -5.0309455   -4.0570846 0.0048052289   -5.0309455   0.97386086   439061 
 3084000   0.64898128   -5.0303884   -5.0303884   -4.0569187 0.00026159068   -5.0303884   0.97346971   439061 
 3085000   0.64935196    -5.030519    -5.030519   -4.0564933 0.0037458871    -5.030519   0.97402573   439061 
 3086000   0.64893707    -5.030199    -5.030199   -4.0567956 0.0011996877    -5.030199   0.97340338   439061 
 3087000   0.64880336    -5.029218    -5.029218   -4.0560151 0.0002758708    -5.029218   0.97320282   439061 
 3088000   0.64907216   -5.0296487   -5.0296487   -4.0560426 -0.0014608708   -5.0296487   0.97360602   439061 
 3089000   0.64954718   -5.0307705   -5.0307705   -4.0564519 2.6599079e-05   -5.0307705   0.97431856   439061 
 3090000   0.64942724   -5.0300535   -5.0300535   -4.0559149 0.0041188287   -5.0300535   0.97413864   439061 
 3091000   0.64857435   -5.0294046   -5.0294046   -4.0565453 0.0037236316   -5.0294046   0.97285931   439061 
 3092000   0.64988664   -5.0306064   -5.0306064   -4.0557787 0.0013589232   -5.0306064   0.97482775   439061 
 3093000   0.64973165    -5.029845    -5.029845   -4.0552497 0.0037764717    -5.029845   0.97459525   439061 
 3094000   0.65001974   -5.0306273   -5.0306273   -4.0555999 0.0073010719   -5.0306273   0.97502739   439061 
 3095000   0.64942045   -5.0309649   -5.0309649   -4.0568364 0.0008064371   -5.0309649   0.97412846   439061 
 3096000   0.64967343    -5.031301    -5.031301   -4.0567931 0.0011392662    -5.031301   0.97450792   439061 
 3097000   0.64895365   -5.0309706   -5.0309706   -4.0575423 0.00080579038   -5.0309706   0.97342825   439061 
 3098000    0.6483607   -5.0308885   -5.0308885   -4.0583496  0.001274223   -5.0308885   0.97253884   439061 
 3099000   0.64891867   -5.0308361   -5.0308361   -4.0574603 -8.8559121e-05   -5.0308361   0.97337579   439061 
 3100000   0.64997623   -5.0316967   -5.0316967   -4.0567346 0.0028014799   -5.0316967   0.97496213   439061 
 3101000    0.6487368   -5.0305725   -5.0305725   -4.0574695 0.0034588961   -5.0305725   0.97310299   439061 
 3102000   0.64975462   -5.0317074   -5.0317074   -4.0570777 0.00099389794   -5.0317074   0.97462971   439061 
 3103000   0.64921679   -5.0308324   -5.0308324   -4.0570094 0.0073751384   -5.0308324   0.97382297   439061 
 3104000   0.64861298   -5.0308487   -5.0308487   -4.0579314 0.0057666286   -5.0308487   0.97291725   439061 
 3105000    0.6492987   -5.0316917   -5.0316917   -4.0577459 0.0010516975   -5.0316917   0.97394583   439061 
 3106000   0.64876123   -5.0315685   -5.0315685   -4.0584288 -0.0041647477   -5.0315685   0.97313963   439061 
 3107000   0.64793621   -5.0296455   -5.0296455   -4.0577434 0.00015802052   -5.0296455    0.9719021   439061 
 3108000   0.64793135   -5.0302323   -5.0302323   -4.0583375 0.0014793711   -5.0302323   0.97189481   439061 
 3109000   0.65022411    -5.033958    -5.033958    -4.058624 -0.001181948    -5.033958   0.97533394   439061 
 3110000   0.64925986   -5.0331221   -5.0331221   -4.0592345 -0.0031079505   -5.0331221   0.97388758   439061 
 3111000   0.64912318   -5.0321835   -5.0321835    -4.058501 0.0035526019   -5.0321835   0.97368255   439061 
 3112000   0.64956136   -5.0324728   -5.0324728   -4.0581329 0.0015531422   -5.0324728   0.97433982   439061 
 3113000   0.64994942   -5.0324054   -5.0324054   -4.0574835 0.0059601251   -5.0324054   0.97492191   439061 
 3114000   0.65005922   -5.0325271   -5.0325271   -4.0574404 0.0083390992   -5.0325271   0.97508661   439061 
 3115000   0.64900054   -5.0312254   -5.0312254   -4.0577269 0.0063088547   -5.0312254   0.97349859   439061 
 3116000   0.64894352   -5.0303395   -5.0303395   -4.0569265 0.0027928035   -5.0303395   0.97341307   439061 
 3117000   0.64836396    -5.030214    -5.030214   -4.0576703 0.0020824178    -5.030214   0.97254372   439061 
 3118000   0.64746263      -5.0281      -5.0281   -4.0569083 0.0073953717      -5.0281   0.97119173   439061 
 3119000   0.64964483   -5.0313802   -5.0313802   -4.0569152 0.00088680582   -5.0313802   0.97446503   439061 
 3120000   0.64947172   -5.0294184   -5.0294184   -4.0552131 0.0022049287   -5.0294184   0.97420536   439061 
 3121000   0.64905012   -5.0291126   -5.0291126   -4.0555397 -0.00072920453   -5.0291126   0.97357297   439061 
 3122000    0.6491251   -5.0289608   -5.0289608   -4.0552753 0.0025863668   -5.0289608   0.97368543   439061 
 3123000   0.64955966   -5.0298907   -5.0298907   -4.0555534 0.00017888143   -5.0298907   0.97433727   439061 
 3124000    0.6482277   -5.0286941   -5.0286941   -4.0563548 -0.0010227677   -5.0286941   0.97233933   439061 
 3125000   0.64850857   -5.0296585   -5.0296585   -4.0568979 0.0026057884   -5.0296585   0.97276064   439061 
 3126000   0.64908966   -5.0293089   -5.0293089   -4.0556766  0.005651938   -5.0293089   0.97363228   439061 
 3127000   0.65001714   -5.0302461   -5.0302461   -4.0552226 0.0062852907   -5.0302461    0.9750235   439061 
 3128000   0.64992329   -5.0305066   -5.0305066   -4.0556239 0.0059700749   -5.0305066   0.97488272   439061 
 3129000   0.64912688   -5.0303936   -5.0303936   -4.0567055 0.0018139255   -5.0303936   0.97368811   439061 
 3130000   0.65020883   -5.0324967   -5.0324967   -4.0571857 0.0031412266   -5.0324967   0.97531102   439061 
 3131000   0.64901179   -5.0311692   -5.0311692   -4.0576537 0.0012044842   -5.0311692   0.97351547   439061 
 3132000   0.64813117   -5.0307253   -5.0307253   -4.0585307 -0.00085345014   -5.0307253   0.97219454   439061 
 3133000   0.64747357   -5.0294958   -5.0294958   -4.0582876 0.0019921621   -5.0294958   0.97120814   439061 
 3134000   0.64843132     -5.03011     -5.03011   -4.0574652 0.0044452486     -5.03011   0.97264476   439061 
 3135000   0.64918736   -5.0318533   -5.0318533   -4.0580745 0.0007535827   -5.0318533   0.97377882   439061 
 3136000   0.65043604   -5.0324764   -5.0324764   -4.0568246 -0.0011599998   -5.0324764   0.97565184   439061 
 3137000   0.64855926   -5.0297531   -5.0297531   -4.0569164 0.0039778336   -5.0297531   0.97283668   439061 
 3138000   0.64882693   -5.0319614   -5.0319614   -4.0587233 0.0014214988   -5.0319614   0.97323818   439061 
 3139000    0.6493835    -5.031779    -5.031779    -4.057706 0.0030199823    -5.031779   0.97407304   439061 
 3140000   0.64842166   -5.0304831   -5.0304831   -4.0578529 -0.00049070749   -5.0304831   0.97263027   439061 
 3141000   0.64893884   -5.0302098   -5.0302098   -4.0568038 0.0018963319   -5.0302098   0.97340604   439061 
 3142000   0.64973184   -5.0312308   -5.0312308   -4.0566352 0.0050601453   -5.0312308   0.97459555   439061 
 3143000   0.64897679   -5.0306021   -5.0306021   -4.0571391 0.0070157849   -5.0306021   0.97346296   439061 
 3144000   0.64944428   -5.0304129   -5.0304129   -4.0562487 0.0057459772   -5.0304129    0.9741642   439061 
 3145000   0.64877177   -5.0296207   -5.0296207   -4.0564653 -1.9924737e-05   -5.0296207   0.97315544   439061 
 3146000   0.64810825   -5.0294471   -5.0294471   -4.0572869 -0.0017991907   -5.0294471   0.97216016   439061 
 3147000    0.6491114   -5.0297723   -5.0297723   -4.0561074 0.0021433327   -5.0297723   0.97366489   439061 
 3148000   0.64925407   -5.0304744   -5.0304744   -4.0565955 -0.0026295611   -5.0304744   0.97387888   439061 
 3149000     0.648247   -5.0284348   -5.0284348   -4.0560665 0.0023957359   -5.0284348   0.97236828   439061 
 3150000    0.6490364   -5.0297336   -5.0297336   -4.0561812 -0.0017598373   -5.0297336   0.97355238   439061 
 3151000   0.64968861   -5.0316898   -5.0316898   -4.0571591 -6.9284961e-05   -5.0316898   0.97453069   439061 
 3152000   0.64970197   -5.0307727   -5.0307727   -4.0562219 -7.7120234e-05   -5.0307727   0.97455073   439061 
 3153000   0.64893061   -5.0311659   -5.0311659   -4.0577723 -0.0016694742   -5.0311659    0.9733937   439061 
 3154000   0.64882381   -5.0305512   -5.0305512   -4.0573177 0.0038391718   -5.0305512    0.9732335   439061 
 3155000   0.64918708   -5.0316676   -5.0316676   -4.0578892 0.0041389017   -5.0316676    0.9737784   439061 
 3156000   0.64876476   -5.0298975   -5.0298975   -4.0567526  0.011322943   -5.0298975   0.97314492   439061 
 3157000   0.65011087   -5.0306953   -5.0306953   -4.0555312 0.0098812528   -5.0306953   0.97516408   439061 
 3158000   0.65077818   -5.0321121   -5.0321121    -4.055947 0.0049615002   -5.0321121   0.97616505   439061 
 3159000   0.64907827   -5.0288805   -5.0288805   -4.0552653 0.0040922853   -5.0288805   0.97361519   439061 
 3160000   0.64990903   -5.0295603   -5.0295603    -4.054699 0.0033532228   -5.0295603   0.97486133   439061 
 3161000   0.64777753   -5.0265908   -5.0265908   -4.0549267  0.004151851   -5.0265908   0.97166408   439061 
 3162000   0.65005369   -5.0285321   -5.0285321   -4.0534538 -0.00082889535   -5.0285321   0.97507832   439061 
 3163000   0.64879708   -5.0275562   -5.0275562   -4.0543628 -0.0018545288   -5.0275562    0.9731934   439061 
 3164000   0.64906173    -5.027539    -5.027539   -4.0539487 -0.0053706695    -5.027539   0.97359037   439061 
 3165000   0.64852688   -5.0278476   -5.0278476   -4.0550595 -0.00087844017   -5.0278476   0.97278811   439061 
 3166000    0.6485691   -5.0276568   -5.0276568   -4.0548053 -0.002441903   -5.0276568   0.97285144   439061 
 3167000   0.64934172   -5.0293836   -5.0293836   -4.0553732 0.0011235143   -5.0293836   0.97401035   439061 
 3168000    0.6504386   -5.0310259   -5.0310259   -4.0553702 0.0013015285   -5.0310259   0.97565569   439061 
 3169000   0.64984019   -5.0310187   -5.0310187   -4.0562606 0.0050562511   -5.0310187   0.97475806   439061 
 3170000   0.65072026   -5.0325684   -5.0325684   -4.0564903 0.0047761663   -5.0325684   0.97607816   439061 
 3171000   0.65006595   -5.0325715   -5.0325715   -4.0574748 0.0083042994   -5.0325715    0.9750967   439061 
 3172000   0.64967925   -5.0311847   -5.0311847   -4.0566681 0.0045909987   -5.0311847   0.97451666   439061 
 3173000   0.64845809   -5.0305346   -5.0305346   -4.0578497 0.0058410705   -5.0305346   0.97268492   439061 
 3174000   0.64918421   -5.0310134   -5.0310134   -4.0572394 0.0017609495   -5.0310134    0.9737741   439061 
 3175000    0.6492258   -5.0311955   -5.0311955    -4.057359 0.00013132875   -5.0311955   0.97383648   439061 
 3176000   0.64767459   -5.0300133   -5.0300133   -4.0585037 0.0029000642   -5.0300133   0.97150967   439061 
 3177000   0.64878482    -5.030152    -5.030152    -4.056977 0.0017374235    -5.030152   0.97317502   439061 
 3178000   0.64824216   -5.0300093   -5.0300093   -4.0576482 -0.0017264669   -5.0300093   0.97236102   439061 
 3179000   0.64834129   -5.0301583   -5.0301583   -4.0576486 0.0015103363   -5.0301583   0.97250972   439061 
 3180000   0.64938725   -5.0312446   -5.0312446   -4.0571659 -0.0024359895   -5.0312446   0.97407865   439061 
 3181000   0.64903821   -5.0304334   -5.0304334   -4.0568783 0.0058106616   -5.0304334   0.97355509   439061 
 3182000   0.64904152   -5.0305854   -5.0305854   -4.0570253 0.0042831146   -5.0305854   0.97356007   439061 
 3183000   0.64905426   -5.0311319   -5.0311319   -4.0575527 0.0059055141   -5.0311319   0.97357917   439061 
 3184000   0.64999797   -5.0328747   -5.0328747     -4.05788 0.0040587888   -5.0328747   0.97499474   439061 
 3185000   0.64894155   -5.0315616   -5.0315616   -4.0581515 0.0023230609   -5.0315616    0.9734101   439061 
 3186000   0.64881483   -5.0319067   -5.0319067   -4.0586867 0.0071263445   -5.0319067   0.97322002   439061 
 3187000   0.64916709   -5.0322673   -5.0322673   -4.0585188 0.0056948789   -5.0322673   0.97374842   439061 
 3188000   0.64984254   -5.0315314   -5.0315314   -4.0567698 0.0033821362   -5.0315314   0.97476159   439061 
 3189000    0.6501339    -5.032636    -5.032636   -4.0574373 0.0037773458    -5.032636   0.97519863   439061 
 3190000   0.65008318   -5.0327712   -5.0327712   -4.0576486 0.0029618072   -5.0327712   0.97512255   439061 
 3191000    0.6487837   -5.0308676   -5.0308676   -4.0576943 0.0030166915   -5.0308676   0.97317334   439061 
 3192000   0.64815352    -5.029267    -5.029267   -4.0570389  0.005393433    -5.029267   0.97222807   439061 
 3193000   0.64777855   -5.0300265   -5.0300265   -4.0583609 0.0021183125   -5.0300265   0.97166561   439061 
 3194000   0.64898979   -5.0303868   -5.0303868   -4.0569043 0.0048240649   -5.0303868   0.97348247   439061 
 3195000   0.64860743   -5.0292567   -5.0292567   -4.0563478 0.0053688699   -5.0292567   0.97290892   439061 
 3196000    0.6489008   -5.0297876   -5.0297876   -4.0564386 0.0023256055   -5.0297876   0.97334899   439061 
 3197000   0.64979848   -5.0313565   -5.0313565    -4.056661 -0.0013391222   -5.0313565    0.9746955   439061 
 3198000   0.64940419   -5.0303961   -5.0303961    -4.056292 0.0025327201   -5.0303961   0.97410406   439061 
 3199000    0.6493108   -5.0301938   -5.0301938   -4.0562299 0.0013514648   -5.0301938   0.97396397   439061 
 3200000   0.64886887   -5.0287068   -5.0287068   -4.0554057 0.0035090899   -5.0287068   0.97330109   439061 
 3201000   0.65015348   -5.0301786   -5.0301786   -4.0549506 0.0024790832   -5.0301786     0.975228   439061 
 3202000   0.64978524   -5.0297707   -5.0297707   -4.0550951 0.0049368705   -5.0297707   0.97467565   439061 
 3203000   0.64931345   -5.0289909   -5.0289909   -4.0550229 0.0062121437   -5.0289909   0.97396795   439061 
 3204000   0.64863373   -5.0287326   -5.0287326   -4.0557842 0.0058997198   -5.0287326   0.97294839   439061 
 3205000   0.64977658   -5.0296598   -5.0296598   -4.0549972 0.0030795493   -5.0296598   0.97466264   439061 
 3206000   0.64912544   -5.0290038   -5.0290038   -4.0553179  0.005093393   -5.0290038   0.97368594   439061 
 3207000    0.6487129    -5.029107    -5.029107   -4.0560399 -0.0048866498    -5.029107   0.97306714   439061 
 3208000   0.64850292   -5.0282244   -5.0282244   -4.0554723 0.0012297603   -5.0282244   0.97275216   439061 
 3209000   0.64797467   -5.0280081   -5.0280081   -4.0560484  0.001069587   -5.0280081   0.97195979   439061 
 3210000   0.64935256   -5.0308495   -5.0308495   -4.0568228 -0.0036311597   -5.0308495   0.97402662   439061 
 3211000   0.64869953   -5.0312186   -5.0312186   -4.0581715 -0.0005271008   -5.0312186   0.97304708   439061 
 3212000   0.64904132   -5.0305291   -5.0305291   -4.0569694 0.0041373534   -5.0305291   0.97355977   439061 
 3213000   0.64828371   -5.0304442   -5.0304442   -4.0580208  0.004958945   -5.0304442   0.97242334   439061 
 3214000   0.64907336   -5.0314652   -5.0314652   -4.0578574 0.0095775028   -5.0314652   0.97360782   439061 
 3215000   0.65111237   -5.0334353   -5.0334353    -4.056769 0.0090989972   -5.0334353   0.97666634   439061 
 3216000    0.6509265   -5.0325967   -5.0325967   -4.0562092 0.0078712443   -5.0325967   0.97638753   439061 
 3217000   0.65083139     -5.03225     -5.03225   -4.0560051 0.0051237107     -5.03225   0.97624487   439061 
 3218000   0.64892418   -5.0302066   -5.0302066   -4.0568226 0.0075911431   -5.0302066   0.97338405   439061 
 3219000   0.64853398   -5.0289745   -5.0289745   -4.0561757 0.0041532952   -5.0289745   0.97279876   439061 
 3220000   0.64889793   -5.0290093   -5.0290093   -4.0556646 -0.00078042446   -5.0290093   0.97334467   439061 
 3221000   0.65053766   -5.0311361   -5.0311361   -4.0553318 -0.0065347455   -5.0311361   0.97580427   439061 
 3222000   0.64805087    -5.028723    -5.028723   -4.0566489  0.001802265    -5.028723   0.97207409   439061 
 3223000   0.64860181   -5.0290976   -5.0290976   -4.0561971 -0.0005251028   -5.0290976   0.97290049   439061 
 3224000   0.64916638   -5.0299674   -5.0299674     -4.05622 -0.0007662099   -5.0299674   0.97374735   439061 
 3225000   0.65018431   -5.0305987   -5.0305987   -4.0553245 0.00042935537   -5.0305987   0.97527424   439061 
 3226000   0.64998104   -5.0297243   -5.0297243   -4.0547549 0.0083263114   -5.0297243   0.97496934   439061 
 3227000   0.65072275   -5.0302049   -5.0302049    -4.054123 0.0041867988   -5.0302049   0.97608191   439061 
 3228000   0.65006087   -5.0295026   -5.0295026   -4.0544135  0.002482183   -5.0295026   0.97508908   439061 
 3229000   0.64961884   -5.0292553   -5.0292553   -4.0548293 0.0033066412   -5.0292553   0.97442604   439061 
 3230000   0.65087098   -5.0308832   -5.0308832    -4.054579 0.00087893462   -5.0308832   0.97630424   439061 
 3231000   0.64979164   -5.0292276   -5.0292276   -4.0545424  0.001878111   -5.0292276   0.97468524   439061 
 3232000   0.64968847    -5.029264    -5.029264   -4.0547335 0.0043997702    -5.029264   0.97453048   439061 
 3233000   0.64930188   -5.0289475   -5.0289475   -4.0549969 0.00010197394   -5.0289475    0.9739506   439061 
 3234000   0.64995794   -5.0287496   -5.0287496   -4.0538149 0.0012479189   -5.0287496   0.97493469   439061 
 3235000   0.65019834   -5.0289686   -5.0289686   -4.0536733 -6.6484536e-05   -5.0289686   0.97529529   439061 
 3236000   0.64875516   -5.0269268   -5.0269268   -4.0537962 9.6142031e-05   -5.0269268   0.97313052   439061 
 3237000   0.64952147   -5.0280168   -5.0280168   -4.0537368 -0.00079048342   -5.0280168   0.97427998   439061 
 3238000    0.6498744   -5.0282198   -5.0282198   -4.0534104 -0.0040208346   -5.0282198   0.97480938   439061 
 3239000   0.64848091   -5.0273652   -5.0273652    -4.054646 0.0019617716   -5.0273652   0.97271914   439061 
 3240000   0.65048874   -5.0298934   -5.0298934   -4.0541625 0.0017215798   -5.0298934   0.97573089   439061 
 3241000   0.64985666   -5.0290532   -5.0290532   -4.0542704 0.0026074051   -5.0290532   0.97478278   439061 
 3242000   0.64923669   -5.0284154   -5.0284154   -4.0545626 0.0065440536   -5.0284154   0.97385282   439061 
 3243000   0.64983184    -5.029663    -5.029663   -4.0549174 0.0020150985    -5.029663   0.97474555   439061 
 3244000   0.64871864   -5.0276115   -5.0276115   -4.0545357 0.0059341196   -5.0276115   0.97307575   439061 
 3245000   0.65038101   -5.0312002   -5.0312002   -4.0556309 0.0042806693   -5.0312002   0.97556929   439061 
 3246000   0.65059528   -5.0307692   -5.0307692   -4.0548785 0.0040015391   -5.0307692    0.9758907   439061 
 3247000   0.64839921   -5.0268894   -5.0268894   -4.0542928 0.0083483705   -5.0268894   0.97259661   439061 
 3248000   0.64931198   -5.0286793   -5.0286793   -4.0547136 0.0049839006   -5.0286793   0.97396575   439061 
 3249000   0.64965089   -5.0294393   -5.0294393   -4.0549652 0.0020819199   -5.0294393   0.97447412   439061 
 3250000   0.64825774    -5.028284    -5.028284   -4.0558996 0.0040048588    -5.028284    0.9723844   439061 
 3251000    0.6484732   -5.0278705   -5.0278705   -4.0551629 -0.0035751512   -5.0278705   0.97270758   439061 
 3252000   0.64950606   -5.0295123   -5.0295123   -4.0552555 -0.00042811221   -5.0295123   0.97425687   439061 
 3253000   0.64973885   -5.0281949   -5.0281949   -4.0535888 0.0011472239   -5.0281949   0.97460606   439061 
 3254000   0.64935319   -5.0289596   -5.0289596    -4.054932  0.004042942   -5.0289596   0.97402757   439061 
 3255000   0.65041359   -5.0298967   -5.0298967   -4.0542785 0.0025255259   -5.0298967   0.97561816   439061 
 3256000   0.64922214   -5.0298666   -5.0298666   -4.0560356 0.0019023215   -5.0298666   0.97383099   439061 
 3257000    0.6495394   -5.0298828   -5.0298828   -4.0555759 0.0034941748   -5.0298828   0.97430689   439061 
 3258000   0.64862395   -5.0292873   -5.0292873   -4.0563535 0.0062672766   -5.0292873   0.97293371   439061 
 3259000   0.65005804   -5.0309574   -5.0309574   -4.0558726 0.0054996559   -5.0309574   0.97508484   439061 
 3260000    0.6495609   -5.0303762   -5.0303762   -4.0560371 0.0084986996   -5.0303762   0.97433913   439061 
 3261000   0.64917131   -5.0299611   -5.0299611   -4.0562064 0.0076292866   -5.0299611   0.97375475   439061 
 3262000   0.64963707   -5.0302855   -5.0302855   -4.0558321  0.006886147   -5.0302855   0.97445339   439061 
 3263000   0.64902495   -5.0299201   -5.0299201   -4.0563849 0.0086808423   -5.0299201   0.97353521   439061 
 3264000   0.64954458    -5.030538    -5.030538   -4.0562234 0.0011196458    -5.030538   0.97431466   439061 
 3265000    0.6499769   -5.0308697   -5.0308697   -4.0559066 0.0017706243   -5.0308697   0.97496313   439061 
 3266000   0.64858392   -5.0286025   -5.0286025   -4.0557288 -0.0012293631   -5.0286025   0.97287367   439061 
 3267000   0.64795759   -5.0288568   -5.0288568   -4.0569227 -0.0031672409   -5.0288568   0.97193417   439061 
 3268000    0.6481492   -5.0299823   -5.0299823   -4.0577607 -0.0068291368   -5.0299823   0.97222158   439061 
 3269000   0.64830714   -5.0301695   -5.0301695    -4.057711 0.00031324761   -5.0301695    0.9724585   439061 
 3270000   0.64820501   -5.0298115   -5.0298115   -4.0575062 0.0059035399   -5.0298115   0.97230529   439061 
 3271000   0.64882938   -5.0317163   -5.0317163   -4.0584744 0.0032974314   -5.0317163   0.97324186   439061 
 3272000   0.64849074   -5.0300926   -5.0300926   -4.0573587 0.0071625688   -5.0300926   0.97273389   439061 
 3273000   0.65052748   -5.0335269   -5.0335269   -4.0577379 0.0048187966   -5.0335269     0.975789   439061 
 3274000    0.6503417   -5.0341949   -5.0341949   -4.0586845 0.0051717852   -5.0341949   0.97551032   439061 
 3275000   0.64973701   -5.0331563   -5.0331563    -4.058553 0.0088399109   -5.0331563    0.9746033   439061 
 3276000   0.64939539   -5.0328893   -5.0328893   -4.0587985 0.0026472078   -5.0328893   0.97409086   439061 
 3277000   0.64935975   -5.0316066   -5.0316066   -4.0575692 0.0020215905   -5.0316066    0.9740374   439061 
 3278000   0.64875674   -5.0302033   -5.0302033   -4.0570704 0.0058442378   -5.0302033   0.97313289   439061 
 3279000   0.64866296   -5.0301487   -5.0301487   -4.0571565 0.0012778937   -5.0301487   0.97299223   439061 
 3280000   0.64880013   -5.0298048   -5.0298048   -4.0566068 -0.0018110002   -5.0298048   0.97319798   439061 
 3281000   0.64769352   -5.0271168   -5.0271168   -4.0555787 -0.0025061449   -5.0271168   0.97153807   439061 
 3282000    0.6486982   -5.0288491   -5.0288491    -4.055804 -0.00025186632   -5.0288491   0.97304509   439061 
 3283000    0.6484798   -5.0281745   -5.0281745    -4.055457 -0.0042766777   -5.0281745   0.97271749   439061 
 3284000   0.64986034   -5.0299578   -5.0299578   -4.0551695 -0.0059078252   -5.0299578   0.97478829   439061 
 3285000    0.6487596   -5.0290507   -5.0290507   -4.0559136 0.00052608102   -5.0290507   0.97313719   439061 
 3286000   0.64999211   -5.0318111   -5.0318111   -4.0568251 0.0016732452   -5.0318111   0.97498595   439061 
 3287000   0.65010457   -5.0318864   -5.0318864   -4.0567317 0.0043046188   -5.0318864   0.97515463   439061 
 3288000   0.64994345   -5.0311353   -5.0311353   -4.0562224 0.0063252436   -5.0311353   0.97491295   439061 
 3289000   0.65011137   -5.0318122   -5.0318122   -4.0566474  0.010034405   -5.0318122   0.97516484   439061 
 3290000   0.65113748   -5.0331468   -5.0331468   -4.0564428  0.007191219   -5.0331468     0.976704   439061 
 3291000   0.64986317   -5.0323829   -5.0323829   -4.0575904 0.0073195891   -5.0323829   0.97479254   439061 
 3292000   0.64978612   -5.0313682   -5.0313682   -4.0566912  0.004372234   -5.0313682   0.97467697   439061 
 3293000   0.64974517   -5.0310012   -5.0310012   -4.0563857 0.0013054076   -5.0310012   0.97461553   439061 
 3294000   0.64860909   -5.0292809   -5.0292809   -4.0563694 0.0025981357   -5.0292809   0.97291142   439061 
 3295000   0.64927193   -5.0301824   -5.0301824   -4.0562767 -0.0010787582   -5.0301824   0.97390567   439061 
 3296000   0.64826107   -5.0285752   -5.0285752   -4.0561858 0.0021414367   -5.0285752   0.97238939   439061 
 3297000    0.6486899   -5.0272789   -5.0272789   -4.0542463 0.0025977041   -5.0272789   0.97303263   439061 
 3298000   0.64926331   -5.0278653   -5.0278653   -4.0539725  -0.00128598   -5.0278653   0.97389275   439061 
 3299000   0.64983041   -5.0286511   -5.0286511   -4.0539078 0.0037067749   -5.0286511   0.97474339   439061 
 3300000   0.64967253   -5.0283062   -5.0283062   -4.0537996  0.005198268   -5.0283062   0.97450657   439061 
 3301000   0.64947341   -5.0297332   -5.0297332   -4.0555253 0.0002361095   -5.0297332   0.97420789   439061 
 3302000    0.6482431   -5.0292624   -5.0292624      -4.0569  2.39776e-05   -5.0292624   0.97236244   439061 
 3303000   0.64975239   -5.0312831   -5.0312831   -4.0566567 0.0042998875   -5.0312831   0.97462637   439061 
 3304000   0.64996245   -5.0310295   -5.0310295   -4.0560881 0.0017742481   -5.0310295   0.97494146   439061 
 3305000   0.65031517     -5.03199     -5.03199   -4.0565195 0.0019371222     -5.03199   0.97547054   439061 
 3306000    0.6504423   -5.0322259   -5.0322259   -4.0565647 0.0032617343   -5.0322259   0.97566123   439061 
 3307000   0.65087756   -5.0322265   -5.0322265   -4.0559124 0.0049838821   -5.0322265   0.97631411   439061 
 3308000   0.65059209   -5.0318552   -5.0318552   -4.0559693 0.0054233097   -5.0318552   0.97588591   439061 
 3309000   0.64890251   -5.0300799   -5.0300799   -4.0567284 0.0046586041   -5.0300799   0.97335154   439061 
 3310000   0.64903613   -5.0292046   -5.0292046   -4.0556526 0.0019451559   -5.0292046   0.97355198   439061 
 3311000   0.65020085   -5.0306258   -5.0306258   -4.0553268 0.0022663677   -5.0306258   0.97529905   439061 
 3312000   0.64914535   -5.0285744   -5.0285744   -4.0548586 0.0041270225   -5.0285744   0.97371581   439061 
 3313000   0.64933917    -5.029766    -5.029766   -4.0557595 -0.0027892459    -5.029766   0.97400654   439061 
 3314000   0.64947273   -5.0297976   -5.0297976   -4.0555907 -0.005533172   -5.0297976   0.97420688   439061 
 3315000   0.64866491   -5.0278933   -5.0278933   -4.0548981 -0.00062013053   -5.0278933   0.97299516   439061 
 3316000   0.65014902   -5.0292563   -5.0292563    -4.054035 0.00081869145   -5.0292563   0.97522132   439061 
 3317000   0.64937412   -5.0271598   -5.0271598   -4.0531008 0.0049018365   -5.0271598   0.97405897   439061 
 3318000   0.65000843   -5.0282325   -5.0282325   -4.0532221 0.0058648919   -5.0282325   0.97501042   439061 
 3319000   0.65035346   -5.0296052   -5.0296052   -4.0540773  0.001265147   -5.0296052   0.97552797   439061 
 3320000     0.650752   -5.0299922   -5.0299922   -4.0538664 -0.00090840005   -5.0299922   0.97612578   439061 
 3321000   0.64927766   -5.0278687   -5.0278687   -4.0539544  0.006125744   -5.0278687   0.97391427   439061 
 3322000   0.65057126   -5.0289779   -5.0289779   -4.0531232 0.0042468172   -5.0289779   0.97585467   439061 
 3323000   0.65076346    -5.029412    -5.029412    -4.053269 0.0027108733    -5.029412   0.97614297   439061 
 3324000   0.65026729   -5.0285587   -5.0285587     -4.05316 0.0027636699   -5.0285587   0.97539872   439061 
 3325000   0.65015962   -5.0283764   -5.0283764   -4.0531392 0.00014980459   -5.0283764    0.9752372   439061 
 3326000   0.64925899    -5.026401    -5.026401   -4.0525147 0.0024979495    -5.026401   0.97388627   439061 
 3327000   0.65002171   -5.0277624   -5.0277624    -4.052732 -0.0019879782   -5.0277624   0.97503034   439061 
 3328000   0.64939236   -5.0271367   -5.0271367   -4.0530504 0.0035431373   -5.0271367   0.97408633   439061 
 3329000   0.64883845   -5.0275185   -5.0275185   -4.0542631 0.0019507995   -5.0275185   0.97325545   439061 
 3330000   0.65010009   -5.0287358   -5.0287358   -4.0535878 0.00038124018   -5.0287358   0.97514791   439061 
 3331000   0.64924938   -5.0277014   -5.0277014   -4.0538295 -0.00084767908   -5.0277014   0.97387185   439061 
 3332000     0.649813   -5.0280699   -5.0280699   -4.0533526 0.0049572548   -5.0280699   0.97471728   439061 
 3333000   0.64935534   -5.0282748   -5.0282748    -4.054244 0.0053305766   -5.0282748    0.9740308   439061 
 3334000   0.64959468   -5.0287721   -5.0287721   -4.0543823 -0.0020393061   -5.0287721    0.9743898   439061 
 3335000   0.65015446   -5.0293248   -5.0293248   -4.0540953 -0.00031779419   -5.0293248   0.97522947   439061 
 3336000   0.65077952   -5.0304724   -5.0304724   -4.0543053 0.0029528037   -5.0304724   0.97616706   439061 
 3337000   0.64991388   -5.0291539   -5.0291539   -4.0542853 0.0066102423   -5.0291539    0.9748686   439061 
 3338000   0.65002583   -5.0296499   -5.0296499   -4.0546134 0.0061355395   -5.0296499   0.97503653   439061 
 3339000   0.64914383   -5.0280219   -5.0280219   -4.0543084  0.005477912   -5.0280219   0.97371353   439061 
 3340000   0.64865953   -5.0284201   -5.0284201   -4.0554331 0.0014399478   -5.0284201   0.97298708   439061 
 3341000   0.64866479    -5.027981    -5.027981    -4.054986 0.00051289537    -5.027981   0.97299497   439061 
 3342000   0.64994864   -5.0289423   -5.0289423   -4.0540215 -0.0016941723   -5.0289423   0.97492074   439061 
 3343000   0.64976117   -5.0281593   -5.0281593   -4.0535197 0.00067504382   -5.0281593   0.97463953   439061 
 3344000   0.64977968   -5.0273767   -5.0273767   -4.0527094  0.002054003   -5.0273767    0.9746673   439061 
 3345000   0.64988367   -5.0279552   -5.0279552   -4.0531319 0.0023978683   -5.0279552   0.97482329   439061 
 3346000   0.65060953   -5.0285725   -5.0285725   -4.0526605 0.0029953321   -5.0285725   0.97591207   439061 
 3347000   0.64919827   -5.0278539   -5.0278539   -4.0540588 -0.0011530421   -5.0278539   0.97379519   439061 
 3348000   0.64971855   -5.0287035   -5.0287035   -4.0541279 0.0010116831   -5.0287035   0.97457561   439061 
 3349000   0.65083078   -5.0294587   -5.0294587   -4.0532148 0.0061110207   -5.0294587   0.97624394   439061 
 3350000   0.64992334   -5.0290121   -5.0290121   -4.0541293 0.0073997427   -5.0290121   0.97488279   439061 
 3351000    0.6505329   -5.0294096   -5.0294096   -4.0536125   0.00287793   -5.0294096   0.97579714   439061 
 3352000   0.64923044   -5.0280127   -5.0280127   -4.0541693 -0.0010348419   -5.0280127   0.97384345   439061 
 3353000     0.649415   -5.0273515   -5.0273515   -4.0532312 0.00011580758   -5.0273515   0.97412027   439061 
 3354000   0.64967943   -5.0287008   -5.0287008   -4.0541838 0.0040942306   -5.0287008   0.97451693   439061 
 3355000    0.6492121   -5.0272711   -5.0272711   -4.0534552 0.0051378544   -5.0272711   0.97381592   439061 
 3356000   0.64959761   -5.0276442   -5.0276442   -4.0532501 -0.0015417243   -5.0276442   0.97439419   439061 
 3357000   0.64934662   -5.0275687   -5.0275687    -4.053551 -0.0028705023   -5.0275687   0.97401771   439061 
 3358000   0.64865331   -5.0275069   -5.0275069   -4.0545291 -0.0039944269   -5.0275069   0.97297775   439061 
 3359000   0.64936817   -5.0281445   -5.0281445   -4.0540945 0.0031629589   -5.0281445   0.97405003   439061 
 3360000   0.64960518   -5.0285729   -5.0285729   -4.0541674 0.0029074492   -5.0285729   0.97440555   439061 
 3361000   0.64927938   -5.0293192   -5.0293192   -4.0554023 0.0031850827   -5.0293192   0.97391685   439061 
 3362000   0.65030112   -5.0300827   -5.0300827   -4.0546333 0.0051721172   -5.0300827   0.97544946   439061 
 3363000   0.65029392   -5.0297477   -5.0297477    -4.054309 0.0026948361   -5.0297477   0.97543865   439061 
 3364000   0.65077546   -5.0307199   -5.0307199    -4.054559 0.0059671396   -5.0307199   0.97616097   439061 
 3365000   0.64917617   -5.0297943   -5.0297943   -4.0560322 0.0068863073   -5.0297943   0.97376204   439061 
 3366000   0.64991475   -5.0292533   -5.0292533   -4.0543834 0.0058740839   -5.0292533   0.97486991   439061 
 3367000   0.64988397   -5.0279613   -5.0279613   -4.0531376 0.0072991946   -5.0279613   0.97482373   439061 
 3368000   0.65000922    -5.028063    -5.028063   -4.0530514 0.0050422434    -5.028063    0.9750116   439061 
 3369000   0.64971345   -5.0270514   -5.0270514   -4.0524834  0.004180576   -5.0270514   0.97456795   439061 
 3370000   0.64807993   -5.0260425   -5.0260425   -4.0539248 -0.00079344502   -5.0260425   0.97211768   439061 
 3371000   0.64959653   -5.0275675   -5.0275675   -4.0531749 -0.0031306063   -5.0275675   0.97439258   439061 
 3372000   0.64898368   -5.0262505   -5.0262505   -4.0527772 -0.0013162847   -5.0262505    0.9734733   439061 
 3373000   0.64945288   -5.0267644   -5.0267644   -4.0525873 -0.00035486518   -5.0267644    0.9741771   439061 
 3374000   0.64910272   -5.0262998   -5.0262998    -4.052648 0.0082297963   -5.0262998   0.97365186   439061 
 3375000   0.64949703    -5.026754    -5.026754   -4.0525106 0.0039215794    -5.026754   0.97424333   439061 
 3376000   0.64929669   -5.0263703   -5.0263703   -4.0524275 0.0072241982   -5.0263703   0.97394281   439061 
 3377000   0.64953469   -5.0275971   -5.0275971   -4.0532973 0.0038275242   -5.0275971   0.97429982   439061 
 3378000   0.65012225   -5.0296166   -5.0296166   -4.0544355 0.0016997335   -5.0296166   0.97518115   439061 
 3379000   0.65043739   -5.0295706   -5.0295706   -4.0539167 0.00046398739   -5.0295706   0.97565387   439061 
 3380000   0.64967825   -5.0270428   -5.0270428   -4.0525276 0.0099449737   -5.0270428   0.97451516   439061 
 3381000   0.64999636   -5.0279174   -5.0279174    -4.052925 0.0043829365   -5.0279174   0.97499232   439061 
 3382000    0.6502637   -5.0295744   -5.0295744    -4.054181 0.0018099606   -5.0295744   0.97539333   439061 
 3383000   0.64983513   -5.0279039   -5.0279039   -4.0531534 0.0036132137   -5.0279039   0.97475048   439061 
 3384000   0.64983896   -5.0275797   -5.0275797   -4.0528235 0.0027889712   -5.0275797   0.97475623   439061 
 3385000    0.6503385   -5.0286534   -5.0286534   -4.0531479 -0.0019746419   -5.0286534   0.97550553   439061 
 3386000   0.64873066   -5.0272238   -5.0272238   -4.0541301 0.0016600391   -5.0272238   0.97309378   439061 
 3387000   0.64918958    -5.026917    -5.026917   -4.0531349 3.8639771e-05    -5.026917   0.97378215   439061 
 3388000   0.64890923   -5.0267352   -5.0267352   -4.0533736 0.0008686326   -5.0267352   0.97336162   439061 
 3389000   0.64902541   -5.0255906   -5.0255906   -4.0520547 0.0022539271   -5.0255906   0.97353589   439061 
 3390000   0.65065288   -5.0271897   -5.0271897   -4.0512126 0.0032504758   -5.0271897    0.9759771   439061 
 3391000    0.6505914   -5.0273679   -5.0273679   -4.0514831 0.0031002377   -5.0273679   0.97588488   439061 
 3392000   0.64979667   -5.0269205   -5.0269205   -4.0522277 0.0035768619   -5.0269205   0.97469279   439061 
 3393000   0.65128348   -5.0284988   -5.0284988   -4.0515758 0.0030724187   -5.0284988   0.97692299   439061 
 3394000   0.65036824   -5.0271341   -5.0271341    -4.051584 0.0012914867   -5.0271341   0.97555014   439061 
 3395000   0.64963099    -5.026861    -5.026861   -4.0524167 0.0061489406    -5.026861   0.97444426   439061 
 3396000   0.65106469   -5.0285538   -5.0285538    -4.051959 0.0029125366   -5.0285538   0.97659482   439061 
 3397000   0.65034343   -5.0266522   -5.0266522   -4.0511393 0.0046653567   -5.0266522   0.97551293   439061 
 3398000    0.6501685   -5.0265829   -5.0265829   -4.0513323  0.006573331   -5.0265829   0.97525053   439061 
 3399000   0.65024722   -5.0271428   -5.0271428   -4.0517742 0.0045210295   -5.0271428   0.97536861   439061 
 3400000   0.65078049   -5.0275158   -5.0275158   -4.0513473 0.0029966592   -5.0275158   0.97616852   439061 
 3401000   0.65179088   -5.0288556   -5.0288556   -4.0511715  0.003205873   -5.0288556   0.97768409   439061 
 3402000   0.65062526   -5.0276831   -5.0276831   -4.0517474 0.0025547609   -5.0276831   0.97593566   439061 
 3403000   0.65019725   -5.0268881   -5.0268881   -4.0515944 -0.00037083856   -5.0268881   0.97529365   439061 
 3404000   0.64960486   -5.0264224   -5.0264224   -4.0520173 0.0004769837   -5.0264224   0.97440507   439061 
 3405000   0.64994918   -5.0259239   -5.0259239   -4.0510024 0.00017837754   -5.0259239   0.97492154   439061 
 3406000   0.65058148   -5.0260318   -5.0260318   -4.0501618 0.00042438424   -5.0260318      0.97587   439061 
 3407000   0.65090302    -5.025438    -5.025438   -4.0490857  0.001121667    -5.025438   0.97635231   439061 
 3408000    0.6513028   -5.0260185   -5.0260185   -4.0490666 0.0038557784   -5.0260185   0.97695197   439061 
 3409000   0.65008946    -5.025006    -5.025006    -4.049874 0.0037547443    -5.025006   0.97513197   439061 
 3410000   0.65067953   -5.0260734   -5.0260734   -4.0500564 0.00087428277   -5.0260734   0.97601707   439061 
 3411000   0.64983182   -5.0256574   -5.0256574   -4.0509118 0.0035553522   -5.0256574   0.97474551   439061 
 3412000   0.65115005   -5.0278963   -5.0278963   -4.0511734 8.1138014e-05   -5.0278963   0.97672284   439061 
 3413000   0.65143849    -5.028034    -5.028034   -4.0508784 0.0020762055    -5.028034    0.9771555   439061 
 3414000   0.65051022   -5.0277484   -5.0277484   -4.0519853 0.0020007983   -5.0277484    0.9757631   439061 
 3415000   0.65003218    -5.026831    -5.026831   -4.0517849 0.0027651978    -5.026831   0.97504605   439061 
 3416000     0.650532   -5.0282931   -5.0282931   -4.0524973 0.0010283122   -5.0282931   0.97579578   439061 
 3417000   0.64964544   -5.0271804   -5.0271804   -4.0527144 0.0045019253   -5.0271804   0.97446593   439061 
 3418000   0.65026117   -5.0285471   -5.0285471   -4.0531576 -0.0020858595   -5.0285471   0.97538953   439061 
 3419000   0.64979005   -5.0270594   -5.0270594   -4.0523766 0.0043704386   -5.0270594   0.97468286   439061 
 3420000   0.65051609   -5.0277112   -5.0277112   -4.0519393 0.0064480806   -5.0277112   0.97577192   439061 
 3421000   0.65035922   -5.0273064   -5.0273064   -4.0517698 0.0017301413   -5.0273064   0.97553661   439061 
 3422000   0.65024413   -5.0276218   -5.0276218   -4.0522578 0.0025948265   -5.0276218   0.97536398   439061 
 3423000   0.64942827   -5.0261493   -5.0261493   -4.0520091 0.0044703943   -5.0261493   0.97414018   439061 
 3424000   0.64963276   -5.0266272   -5.0266272   -4.0521803 0.00084547096   -5.0266272   0.97444691   439061 
 3425000   0.64899254   -5.0269838   -5.0269838   -4.0534972 0.0034702379   -5.0269838   0.97348659   439061 
 3426000   0.65001432   -5.0267974   -5.0267974   -4.0517781 0.0027677446   -5.0267974   0.97501925   439061 
 3427000   0.65020419   -5.0268578   -5.0268578   -4.0515537 -0.00075418696   -5.0268578   0.97530406   439061 
 3428000   0.64961402   -5.0248872   -5.0248872   -4.0504684 0.0050928449   -5.0248872   0.97441881   439061 
 3429000   0.64966746   -5.0265946   -5.0265946   -4.0520956 0.0024916751   -5.0265946   0.97449897   439061 
 3430000   0.65008311   -5.0261045   -5.0261045    -4.050982 0.0049599739   -5.0261045   0.97512245   439061 
 3431000   0.65010135   -5.0275311   -5.0275311   -4.0523813 0.00055362085   -5.0275311   0.97514981   439061 
 3432000   0.64866904   -5.0250766   -5.0250766   -4.0520752 0.0023642685   -5.0250766   0.97300135   439061 
 3433000   0.64984858   -5.0283275   -5.0283275   -4.0535569 0.0024787424   -5.0283275   0.97477066   439061 
 3434000   0.64943077   -5.0279432   -5.0279432   -4.0537992 0.0054758095   -5.0279432   0.97414394   439061 
 3435000   0.65014575   -5.0286626   -5.0286626   -4.0534462 0.0033259115   -5.0286626   0.97521641   439061 
 3436000   0.64954856   -5.0276705   -5.0276705   -4.0533499 0.0017993238   -5.0276705   0.97432061   439061 
 3437000   0.64999859   -5.0284566   -5.0284566   -4.0534609 0.0044137346   -5.0284566   0.97499566   439061 
 3438000   0.65004545    -5.029148    -5.029148    -4.054082 0.0059470667    -5.029148   0.97506596   439061 
 3439000   0.64911129    -5.027363    -5.027363   -4.0536983  0.010575854    -5.027363   0.97366472   439061 
 3440000   0.64952289   -5.0283175   -5.0283175   -4.0540354 0.0057416422   -5.0283175   0.97428212   439061 
 3441000   0.65042966   -5.0303554   -5.0303554   -4.0547131 -0.00040539501   -5.0303554   0.97564227   439061 
 3442000   0.65029172   -5.0310018   -5.0310018   -4.0555665 -0.0018922221   -5.0310018   0.97543536   439061 
 3443000   0.65000058   -5.0298317   -5.0298317   -4.0548331 -0.0013708754   -5.0298317   0.97499865   439061 
 3444000   0.64932567   -5.0288727   -5.0288727   -4.0548864 0.00090049463   -5.0288727   0.97398629   439061 
 3445000   0.64940956   -5.0272895   -5.0272895   -4.0531774 0.0037264084   -5.0272895   0.97411212   439061 
 3446000   0.65059864   -5.0282578   -5.0282578    -4.052362 0.0035605022   -5.0282578   0.97589574   439061 
 3447000   0.65008433   -5.0269966   -5.0269966   -4.0518723 0.0076842693   -5.0269966   0.97512427   439061 
 3448000   0.65051148   -5.0275398   -5.0275398   -4.0517748 -0.00097349487   -5.0275398   0.97576499   439061 
 3449000   0.64952657    -5.027366    -5.027366   -4.0530783 -0.0004865662    -5.027366   0.97428764   439061 
 3450000   0.64849108   -5.0258607   -5.0258607   -4.0531263 0.00034721918   -5.0258607    0.9727344   439061 
 3451000   0.64889141   -5.0259145   -5.0259145   -4.0525796 0.0011144068   -5.0259145    0.9733349   439061 
 3452000    0.6495858   -5.0274914   -5.0274914    -4.053115 0.0011195001   -5.0274914   0.97437648   439061 
 3453000   0.65045565   -5.0276876   -5.0276876   -4.0520064 3.3254266e-05   -5.0276876   0.97568125   439061 
 3454000   0.65038093   -5.0277627   -5.0277627   -4.0521935 0.0032435153   -5.0277627   0.97556917   439061 
 3455000   0.65011784   -5.0285759   -5.0285759   -4.0534013  0.004437284   -5.0285759   0.97517454   439061 
 3456000   0.64936443   -5.0270378   -5.0270378   -4.0529934 0.0048726833   -5.0270378   0.97404443   439061 
 3457000   0.64981127   -5.0283185   -5.0283185   -4.0536038 0.0022032963   -5.0283185   0.97471468   439061 
 3458000   0.64932872   -5.0279835   -5.0279835   -4.0539926 0.0010655494   -5.0279835   0.97399086   439061 
 3459000   0.65094591    -5.029677    -5.029677   -4.0532603 0.0035146415    -5.029677   0.97641664   439061 
 3460000   0.65141658   -5.0280953   -5.0280953   -4.0509726 0.0085275375   -5.0280953   0.97712265   439061 
 3461000   0.65142725    -5.027898    -5.027898   -4.0507594 0.0086413294    -5.027898   0.97713864   439061 
 3462000   0.65104383   -5.0282299   -5.0282299   -4.0516664 0.0042196877   -5.0282299   0.97656352   439061 
 3463000   0.64973184   -5.0276731   -5.0276731   -4.0530776 0.0018511375   -5.0276731   0.97459553   439061 
 3464000   0.64996161   -5.0272164   -5.0272164   -4.0522762 0.0056623032   -5.0272164   0.97494019   439061 
 3465000   0.64982403   -5.0276073   -5.0276073   -4.0528735 0.0019830649   -5.0276073   0.97473382   439061 
 3466000   0.64947825   -5.0268022   -5.0268022    -4.052587 0.0011907001   -5.0268022   0.97421515   439061 
 3467000   0.65074996   -5.0279117   -5.0279117    -4.051789 -0.0021794743   -5.0279117   0.97612271   439061 
 3468000   0.64958833   -5.0262584   -5.0262584   -4.0518782 0.00011669798   -5.0262584   0.97438028   439061 
 3469000   0.65037492   -5.0285189   -5.0285189   -4.0529588 0.0022107275   -5.0285189   0.97556016   439061 
 3470000   0.65052214   -5.0285334   -5.0285334   -4.0527524 0.0007905981   -5.0285334   0.97578099   439061 
 3471000   0.65030128   -5.0276802   -5.0276802   -4.0522305 0.0054250201   -5.0276802   0.97544969   439061 
 3472000   0.65071629   -5.0278803   -5.0278803   -4.0518081 0.0093616176   -5.0278803   0.97607221   439061 
 3473000    0.6505052   -5.0291336   -5.0291336    -4.053378 0.0031047724   -5.0291336   0.97575558   439061 
 3474000   0.65012254   -5.0290299   -5.0290299   -4.0538483 0.0066938388   -5.0290299   0.97518159   439061 
 3475000   0.65147254   -5.0303849   -5.0303849   -4.0531783 0.0010661206   -5.0303849   0.97720658   439061 
 3476000   0.65031364   -5.0291683   -5.0291683   -4.0537001 0.0012084542   -5.0291683   0.97546823   439061 
 3477000   0.64972605   -5.0283208   -5.0283208    -4.053734 0.0032046202   -5.0283208   0.97458685   439061 
 3478000   0.65010451   -5.0273884   -5.0273884   -4.0522338 0.0026702777   -5.0273884   0.97515455   439061 
 3479000   0.64960723   -5.0260347   -5.0260347   -4.0516261 0.00091735136   -5.0260347   0.97440863   439061 
 3480000   0.65041344   -5.0281157   -5.0281157   -4.0524978 0.0025070698   -5.0281157   0.97561793   439061 
 3481000   0.65034217   -5.0269496   -5.0269496   -4.0514386 0.0029234221   -5.0269496   0.97551104   439061 
 3482000   0.65028211   -5.0269179   -5.0269179    -4.051497 0.00080940705   -5.0269179   0.97542094   439061 
 3483000   0.64937314   -5.0251424   -5.0251424    -4.051085 0.0026021839   -5.0251424   0.97405749   439061 
 3484000   0.64998244   -5.0264099   -5.0264099   -4.0514384 -0.0036968869   -5.0264099   0.97497144   439061 
 3485000    0.6497483   -5.0270646   -5.0270646   -4.0524443 0.0019720519   -5.0270646   0.97462023   439061 
 3486000   0.65092005   -5.0291126   -5.0291126   -4.0527348 -0.00070978575   -5.0291126   0.97637786   439061 
 3487000   0.65032143   -5.0276284   -5.0276284   -4.0521484 0.0048490557   -5.0276284   0.97547993   439061 
 3488000   0.65033253   -5.0286206   -5.0286206    -4.053124 0.0061469801   -5.0286206   0.97549658   439061 
 3489000   0.65061781   -5.0287411   -5.0287411   -4.0528166 0.0080953187   -5.0287411   0.97592449   439061 
 3490000   0.65046055   -5.0292614   -5.0292614   -4.0535727 0.0038633173   -5.0292614   0.97568861   439061 
 3491000   0.64974959   -5.0286002   -5.0286002   -4.0539781 0.0048598338   -5.0286002   0.97462217   439061 
 3492000   0.65014044   -5.0287173   -5.0287173   -4.0535089 0.0037612559   -5.0287173   0.97520845   439061 
 3493000   0.65017708   -5.0290536   -5.0290536   -4.0537902 0.0034490836   -5.0290536    0.9752634   439061 
 3494000   0.65018431   -5.0280959   -5.0280959   -4.0528217 0.0023950808   -5.0280959   0.97527424   439061 
 3495000   0.64908249   -5.0264256   -5.0264256   -4.0528041 0.0020822986   -5.0264256   0.97362152   439061 
 3496000   0.64943927   -5.0262686   -5.0262686   -4.0521119 0.0030406048   -5.0262686   0.97415669   439061 
 3497000   0.64931471   -5.0253831   -5.0253831   -4.0514133 0.0017376153   -5.0253831   0.97396985   439061 
 3498000   0.65104613   -5.0284327   -5.0284327   -4.0518657 -0.005579914   -5.0284327   0.97656697   439061 
 3499000   0.64914984   -5.0256092   -5.0256092   -4.0518867 -0.0017332256   -5.0256092   0.97372254   439061 
 3500000   0.64904078   -5.0254233   -5.0254233   -4.0518644 0.0022717192   -5.0254233   0.97355895   439061 
 3501000   0.65070277    -5.028543    -5.028543   -4.0524911 -0.00011023269    -5.028543   0.97605193   439061 
 3502000   0.65121999   -5.0285116   -5.0285116   -4.0516839 0.0060675852   -5.0285116   0.97682776   439061 
 3503000   0.65115867   -5.0272199   -5.0272199   -4.0504841 0.0094768193   -5.0272199   0.97673577   439061 
 3504000   0.65132832   -5.0278612   -5.0278612   -4.0508709 0.0071458098   -5.0278612   0.97699025   439061 
 3505000   0.65102667   -5.0285133   -5.0285133   -4.0519755 0.0080713621   -5.0285133   0.97653778   439061 
 3506000   0.65055611   -5.0278654   -5.0278654   -4.0520334 0.0059575676   -5.0278654   0.97583194   439061 
 3507000   0.65120416   -5.0287354   -5.0287354   -4.0519314  0.002120725   -5.0287354   0.97680401   439061 
 3508000   0.64981191   -5.0264568   -5.0264568   -4.0517411 0.0026273827   -5.0264568   0.97471564   439061 
 3509000   0.65063629   -5.0281347   -5.0281347   -4.0521825 0.00033287875   -5.0281347   0.97595222   439061 
 3510000   0.65048213   -5.0271515   -5.0271515   -4.0514306 0.0013472559   -5.0271515   0.97572097   439061 
 3511000   0.64924921   -5.0252704   -5.0252704   -4.0513988 -0.0024694479   -5.0252704   0.97387159   439061 
 3512000   0.64888615   -5.0243352   -5.0243352   -4.0510082 -0.00090417144   -5.0243352   0.97332701   439061 
 3513000   0.64947609   -5.0248116   -5.0248116   -4.0505997  0.002441228   -5.0248116   0.97421191   439061 
 3514000   0.65074714   -5.0263766   -5.0263766   -4.0502581  0.000759875   -5.0263766   0.97611849   439061 
 3515000     0.650974   -5.0270563   -5.0270563   -4.0505976 0.0028676837   -5.0270563   0.97645877   439061 
 3516000    0.6503663   -5.0275861   -5.0275861   -4.0520389 0.00060956259   -5.0275861   0.97554724   439061 
 3517000   0.65115586   -5.0280889   -5.0280889   -4.0513574  0.002143706   -5.0280889   0.97673157   439061 
 3518000   0.65025402   -5.0273309   -5.0273309   -4.0519521 0.0063295202   -5.0273309   0.97537881   439061 
 3519000   0.65100107   -5.0283414   -5.0283414    -4.051842 0.0066598649   -5.0283414   0.97649937   439061 
 3520000    0.6511492   -5.0284954   -5.0284954   -4.0517738 0.0039322227   -5.0284954   0.97672158   439061 
 3521000   0.65024732   -5.0281521   -5.0281521   -4.0527834 0.0039371505   -5.0281521   0.97536876   439061 
 3522000   0.64923203   -5.0266853   -5.0266853   -4.0528394 -0.0010219647   -5.0266853   0.97384583   439061 
 3523000    0.6497234   -5.0285219   -5.0285219   -4.0539391 -0.00016333595   -5.0285219   0.97458288   439061 
 3524000   0.64907864   -5.0277674   -5.0277674   -4.0541516 -0.002652862   -5.0277674   0.97361575   439061 
 3525000    0.6496545   -5.0282831   -5.0282831   -4.0538036 0.0045974093   -5.0282831   0.97447953   439061 
 3526000   0.64913076   -5.0279941   -5.0279941   -4.0543001 0.00053769593   -5.0279941   0.97369392   439061 
 3527000   0.64991435   -5.0288805   -5.0288805   -4.0540111 0.0022428862   -5.0288805   0.97486931   439061 
 3528000   0.65025872   -5.0292147   -5.0292147   -4.0538288 0.0073368206   -5.0292147   0.97538586   439061 
 3529000   0.65106392   -5.0282785   -5.0282785   -4.0516848 0.0089099108   -5.0282785   0.97659365   439061 
 3530000   0.65068472   -5.0291222   -5.0291222   -4.0530974 0.0021208957   -5.0291222   0.97602485   439061 
 3531000   0.65119891   -5.0288624   -5.0288624   -4.0520662 0.0044099525   -5.0288624   0.97679614   439061 
 3532000   0.65041482   -5.0269194   -5.0269194   -4.0512994 0.0026962973   -5.0269194   0.97562001   439061 
 3533000   0.65207828   -5.0287603   -5.0287603   -4.0506451 -0.0018985098   -5.0287603    0.9781152   439061 
 3534000   0.65009688   -5.0262469   -5.0262469   -4.0511038 -0.0012544785   -5.0262469    0.9751431   439061 
 3535000   0.64918298   -5.0261912   -5.0261912    -4.052419 -0.0012459238   -5.0261912   0.97377225   439061 
 3536000    0.6501192   -5.0267091   -5.0267091   -4.0515325 -0.0038632863   -5.0267091   0.97517658   439061 
 3537000   0.64996746   -5.0269431   -5.0269431   -4.0519942 -0.0014272212   -5.0269431   0.97494897   439061 
 3538000    0.6514958   -5.0271878   -5.0271878   -4.0499463 0.0053177317   -5.0271878   0.97724148   439061 
 3539000   0.65201861    -5.028553    -5.028553   -4.0505273  0.002500929    -5.028553   0.97802569   439061 
 3540000   0.65069335   -5.0269686   -5.0269686   -4.0509308 0.0028233902   -5.0269686    0.9760378   439061 
 3541000   0.65165868   -5.0277286   -5.0277286   -4.0502428 0.0048974623   -5.0277286   0.97748579   439061 
 3542000   0.65113858   -5.0272206   -5.0272206   -4.0505149 0.0081424922   -5.0272206   0.97670565   439061 
 3543000   0.64994428   -5.0257124   -5.0257124   -4.0507982 0.0087532893   -5.0257124    0.9749142   439061 
 3544000   0.65151013   -5.0273932   -5.0273932   -4.0501302 0.00078301713   -5.0273932   0.97726296   439061 
 3545000   0.64967858   -5.0245298   -5.0245298   -4.0500141 0.0026229967   -5.0245298   0.97451565   439061 
 3546000   0.64942275   -5.0236237   -5.0236237   -4.0494918 -0.00034745169   -5.0236237    0.9741319   439061 
 3547000   0.64907065   -5.0247241   -5.0247241   -4.0511204 0.00043321971   -5.0247241   0.97360376   439061 
 3548000   0.64980625   -5.0262186   -5.0262186   -4.0515114 -0.00051187992   -5.0262186   0.97470715   439061 
 3549000   0.64961072   -5.0257649   -5.0257649    -4.051351 -0.0034371109   -5.0257649   0.97441385   439061 
 3550000   0.64937139   -5.0262693   -5.0262693   -4.0522145 -0.0031030613   -5.0262693   0.97405487   439061 
 3551000   0.64903968   -5.0265688   -5.0265688   -4.0530115 0.0036982277   -5.0265688   0.97355731   439061 
 3552000    0.6495351   -5.0275323   -5.0275323   -4.0532319 0.0074073195   -5.0275323   0.97430043   439061 
 3553000   0.65137126   -5.0283575   -5.0283575   -4.0513029   0.00794757   -5.0283575   0.97705467   439061 
 3554000   0.65119463    -5.029299    -5.029299   -4.0525092  0.011635459    -5.029299   0.97678973   439061 
 3555000   0.65041845    -5.028381    -5.028381   -4.0527556  0.011949477    -5.028381   0.97562545   439061 
 3556000   0.65124543   -5.0299608   -5.0299608   -4.0530949 0.0051778504   -5.0299608   0.97686592   439061 
 3557000   0.65005551   -5.0282037   -5.0282037   -4.0531227 0.0046305328   -5.0282037   0.97508105   439061 
 3558000   0.64998415    -5.028387    -5.028387    -4.053413 0.0024563193    -5.028387     0.974974   439061 
 3559000   0.65008741    -5.028424    -5.028424   -4.0532951 0.0020511904    -5.028424    0.9751289   439061 
 3560000    0.6484657   -5.0257611   -5.0257611   -4.0530648 -0.00066379156   -5.0257611   0.97269634   439061 
 3561000   0.64896499   -5.0264118   -5.0264118   -4.0529666 -0.0037417879   -5.0264118   0.97344527   439061 
 3562000   0.64887676   -5.0262994   -5.0262994   -4.0529865 -0.0057731554   -5.0262994   0.97331293   439061 
 3563000   0.64885077   -5.0270424   -5.0270424   -4.0537684 -0.0015829109   -5.0270424   0.97327394   439061 
 3564000    0.6497402   -5.0282002   -5.0282002   -4.0535921 0.0063212037   -5.0282002   0.97460808   439061 
 3565000   0.65026778   -5.0278263   -5.0278263   -4.0524268 0.0066660702   -5.0278263   0.97539944   439061 
 3566000    0.6510266   -5.0278977   -5.0278977     -4.05136 0.0074933638   -5.0278977   0.97653768   439061 
 3567000   0.65036025   -5.0282796   -5.0282796   -4.0527414  0.011237374   -5.0282796   0.97553816   439061 
 3568000   0.65094916   -5.0294349   -5.0294349   -4.0530134 0.0045519107   -5.0294349   0.97642152   439061 
 3569000   0.65130897   -5.0293517   -5.0293517   -4.0523904 0.0021074671   -5.0293517   0.97696123   439061 
 3570000   0.65104567   -5.0285639   -5.0285639   -4.0519976 0.00071757714   -5.0285639   0.97656628   439061 
 3571000   0.64998646   -5.0268486   -5.0268486   -4.0518711 -0.0030998723   -5.0268486   0.97497746   439061 
 3572000   0.64905811   -5.0255828   -5.0255828   -4.0519978 0.0011432857   -5.0255828   0.97358495   439061 
 3573000   0.64853204   -5.0249376   -5.0249376   -4.0521418 -0.0033195197   -5.0249376   0.97279584   439061 
 3574000   0.64953469   -5.0264583   -5.0264583   -4.0521585 -0.0058247616   -5.0264583   0.97429982   439061 
 3575000   0.64882251   -5.0251839   -5.0251839   -4.0519524 0.0011550924   -5.0251839   0.97323154   439061 
 3576000   0.65043472   -5.0273257   -5.0273257   -4.0516759 -0.00036683581   -5.0273257   0.97564986   439061 
 3577000   0.65072747   -5.0279621   -5.0279621   -4.0518731  0.001677578   -5.0279621   0.97608898   439061 
 3578000   0.65094811   -5.0273273   -5.0273273   -4.0509073 0.0064222759   -5.0273273   0.97641994   439061 
 3579000   0.65052175   -5.0271266   -5.0271266   -4.0513461 0.0080905067   -5.0271266    0.9757804   439061 
 3580000   0.65045226   -5.0280188   -5.0280188   -4.0523426 0.0031762691   -5.0280188   0.97567617   439061 
 3581000   0.65060826   -5.0272193   -5.0272193   -4.0513091 0.0065795998   -5.0272193   0.97591016   439061 
 3582000   0.65075843   -5.0280811   -5.0280811   -4.0519457 0.0036063446   -5.0280811   0.97613543   439061 
 3583000   0.64945563    -5.027386    -5.027386   -4.0532048 0.00091477092    -5.027386   0.97418122   439061 
 3584000   0.64851375   -5.0256513   -5.0256513   -4.0528829 0.0012273784   -5.0256513   0.97276841   439061 
 3585000   0.64995582   -5.0268166   -5.0268166   -4.0518851 0.0018927568   -5.0268166    0.9749315   439061 
 3586000   0.64970166    -5.027686    -5.027686   -4.0531357 0.00053023827    -5.027686   0.97455026   439061 
 3587000   0.64956924    -5.027608    -5.027608   -4.0532563 -8.7838628e-05    -5.027608   0.97435163   439061 
 3588000   0.65017302   -5.0280333   -5.0280333    -4.052776 -0.002515721   -5.0280333   0.97525731   439061 
 3589000   0.65003487   -5.0286497   -5.0286497   -4.0535996 -0.0028404154   -5.0286497   0.97505009   439061 
 3590000   0.64956396   -5.0277327   -5.0277327   -4.0533889 0.0055636252   -5.0277327   0.97434372   439061 
 3591000   0.65056543   -5.0283087   -5.0283087   -4.0524628 0.0020827272   -5.0283087   0.97584592   439061 
 3592000    0.6508594   -5.0289102   -5.0289102   -4.0526234 0.0039683162   -5.0289102   0.97628687   439061 
 3593000   0.65069141   -5.0293063   -5.0293063   -4.0532714 0.0056635924   -5.0293063    0.9760349   439061 
 3594000   0.64976627   -5.0290606   -5.0290606   -4.0544134 -0.00052223068   -5.0290606   0.97464719   439061 
 3595000   0.64921609   -5.0279716   -5.0279716   -4.0541497 0.0011943001   -5.0279716   0.97382192   439061 
 3596000   0.64958226   -5.0300032   -5.0300032    -4.055632 0.00057095205   -5.0300032   0.97437118   439061 
 3597000   0.65024273   -5.0298126   -5.0298126   -4.0544507 0.0033564964   -5.0298126   0.97536187   439061 
 3598000   0.65095606   -5.0293038   -5.0293038   -4.0528719 0.0045461483   -5.0293038   0.97643186   439061 
 3599000   0.64963965   -5.0289739   -5.0289739   -4.0545167 0.0022038041   -5.0289739   0.97445725   439061 
 3600000    0.6500158   -5.0300533   -5.0300533   -4.0550318 0.0021130253   -5.0300533   0.97502147   439061 
 3601000   0.64955713   -5.0282618   -5.0282618   -4.0539283 0.0033636673   -5.0282618   0.97433348   439061 
 3602000   0.64871257   -5.0276587   -5.0276587    -4.054592 0.0053049764   -5.0276587   0.97306663   439061 
 3603000   0.64879663   -5.0281729   -5.0281729   -4.0549802 0.0051949473   -5.0281729   0.97319272   439061 
 3604000   0.64998505   -5.0294371   -5.0294371   -4.0544617 0.0020803013   -5.0294371   0.97497536   439061 
 3605000   0.64936121   -5.0278545   -5.0278545   -4.0538149 0.0021631233   -5.0278545   0.97403959   439061 
 3606000   0.65022812   -5.0282871   -5.0282871   -4.0529471 0.00052227369   -5.0282871   0.97533996   439061 
 3607000   0.65065085   -5.0295159   -5.0295159   -4.0535419 -0.002433386   -5.0295159   0.97597405   439061 
 3608000   0.64893935   -5.0268502   -5.0268502   -4.0534434 0.0022371147   -5.0268502    0.9734068   439061 
 3609000   0.64900016   -5.0266812   -5.0266812   -4.0531832 0.0023738901   -5.0266812   0.97349802   439061 
 3610000     0.649933   -5.0281297   -5.0281297   -4.0532324 0.00086430558   -5.0281297   0.97489727   439061 
 3611000   0.64949415   -5.0284577   -5.0284577   -4.0542187 -0.0018337222   -5.0284577   0.97423901   439061 
 3612000   0.65065273    -5.029577    -5.029577   -4.0536002 0.0034290456    -5.029577   0.97597687   439061 
 3613000   0.64995553   -5.0294438   -5.0294438   -4.0545127 0.0028040177   -5.0294438   0.97493107   439061 
 3614000   0.65082102   -5.0301402   -5.0301402   -4.0539109 0.0048074321   -5.0301402    0.9762293   439061 
 3615000   0.65096404    -5.028651    -5.028651   -4.0522072 0.0042663071    -5.028651   0.97644384   439061 
 3616000   0.65023229   -5.0284477   -5.0284477   -4.0531015 0.0012779255   -5.0284477   0.97534621   439061 
 3617000   0.65008035     -5.02861     -5.02861   -4.0534917 0.0027046405     -5.02861   0.97511831   439061 
 3618000   0.65121784   -5.0286571   -5.0286571   -4.0518326 0.00092750455   -5.0286571   0.97682454   439061 
 3619000   0.65065753   -5.0274384   -5.0274384   -4.0514543 0.00032965651   -5.0274384   0.97598407   439061 
 3620000   0.64968738   -5.0263939   -5.0263939   -4.0518651 -0.0032912759   -5.0263939   0.97452886   439061 
 3621000   0.64797025   -5.0246814   -5.0246814   -4.0527283 -0.0041934609   -5.0246814   0.97195316   439061 
 3622000   0.64890298    -5.026044    -5.026044   -4.0526918 -0.0011285828    -5.026044   0.97335226   439061 
 3623000   0.64835481   -5.0243345   -5.0243345   -4.0518045 0.0011454732   -5.0243345      0.97253   439061 
 3624000   0.64844106   -5.0244159   -5.0244159   -4.0517565 -0.0014927061   -5.0244159   0.97265938   439061 
 3625000   0.65027101   -5.0267086   -5.0267086   -4.0513043 0.0024963708   -5.0267086   0.97540429   439061 
 3626000   0.65031183   -5.0267653   -5.0267653   -4.0512998 0.0049645157   -5.0267653   0.97546553   439061 
 3627000   0.65023141   -5.0275177   -5.0275177   -4.0521728 0.0049899942   -5.0275177   0.97534489   439061 
 3628000   0.65064999   -5.0289569   -5.0289569   -4.0529841 0.0044415826   -5.0289569   0.97597276   439061 
 3629000   0.64930375   -5.0277127   -5.0277127   -4.0537593  0.003021469   -5.0277127   0.97395341   439061 
 3630000   0.65006852   -5.0283193   -5.0283193   -4.0532188 0.0086442045   -5.0283193   0.97510056   439061 
 3631000   0.64943224   -5.0274302   -5.0274302   -4.0532841 0.0072401043   -5.0274302   0.97414615   439061 
 3632000   0.64954224   -5.0266346   -5.0266346   -4.0523235 0.0069833034   -5.0266346   0.97431114   439061 
 3633000   0.64999155   -5.0266273   -5.0266273   -4.0516422 0.0034802941   -5.0266273    0.9749851   439061 
 3634000   0.64996961   -5.0256824   -5.0256824   -4.0507302 0.0026933889   -5.0256824   0.97495219   439061 
 3635000   0.64980338    -5.025239    -5.025239   -4.0505361 0.0011135811    -5.025239   0.97470285   439061 
 3636000   0.65009978   -5.0240316   -5.0240316   -4.0488841 -0.00031468469   -5.0240316   0.97514745   439061 
 3637000    0.6508352   -5.0244213   -5.0244213   -4.0481707 -0.0010794287   -5.0244213   0.97625058   439061 
 3638000    0.6508817   -5.0247134   -5.0247134   -4.0483931 -0.0035246635   -5.0247134   0.97632033   439061 
 3639000   0.65012169   -5.0249978   -5.0249978   -4.0498175 0.0013208407   -5.0249978   0.97518031   439061 
 3640000   0.64946936    -5.023836    -5.023836   -4.0496342 -0.00084468672    -5.023836   0.97420182   439061 
 3641000   0.64897116   -5.0237486   -5.0237486   -4.0502941 0.0041916872   -5.0237486   0.97345452   439061 
 3642000   0.65019698    -5.026002    -5.026002   -4.0507088 0.0022960528    -5.026002   0.97529326   439061 
 3643000   0.64950947   -5.0243546   -5.0243546   -4.0500926 0.0077814041   -5.0243546   0.97426199   439061 
 3644000   0.65042214   -5.0259398   -5.0259398   -4.0503088  0.006402116   -5.0259398   0.97563099   439061 
 3645000   0.65104013    -5.026929    -5.026929    -4.050371 0.0078166132    -5.026929   0.97655798   439061 
 3646000   0.65123133   -5.0279284   -5.0279284   -4.0510836 0.0052726981   -5.0279284   0.97684476   439061 
 3647000   0.65028516   -5.0261528   -5.0261528   -4.0507273 0.0096035825   -5.0261528   0.97542552   439061 
 3648000   0.65054886   -5.0263127   -5.0263127   -4.0504917 0.0044308833   -5.0263127   0.97582107   439061 
 3649000   0.65039793   -5.0264352   -5.0264352   -4.0508405 -0.00025005262   -5.0264352   0.97559467   439061 
 3650000   0.65008419   -5.0255587   -5.0255587   -4.0504346 0.00012896242   -5.0255587   0.97512406   439061 
 3651000   0.65085401   -5.0261938   -5.0261938    -4.049915 -0.0072106968   -5.0261938    0.9762788   439061 
 3652000   0.65061592    -5.025834    -5.025834   -4.0499123 -0.0073627652    -5.025834   0.97592166   439061 
 3653000   0.64899858   -5.0237109   -5.0237109   -4.0502153 0.00075946217   -5.0237109   0.97349565   439061 
 3654000   0.65037543   -5.0253589   -5.0253589    -4.049798 -0.00078587842   -5.0253589   0.97556092   439061 
 3655000   0.65151268   -5.0261862   -5.0261862   -4.0489194 -0.0011517094   -5.0261862    0.9772668   439061 
 3656000   0.65132874   -5.0261866   -5.0261866   -4.0491958 -0.0022735541   -5.0261866   0.97699089   439061 
 3657000   0.65057832   -5.0257305   -5.0257305   -4.0498653 0.0044156711   -5.0257305   0.97586525   439061 
 3658000   0.65127182   -5.0273712   -5.0273712   -4.0504657 0.00081613512   -5.0273712    0.9769055   439061 
 3659000    0.6502163   -5.0274459   -5.0274459   -4.0521236 0.0018705698   -5.0274459   0.97532223   439061 
 3660000   0.65033461   -5.0279652   -5.0279652   -4.0524655 0.0051164116   -5.0279652   0.97549969   439061 
 3661000   0.65020848   -5.0282285   -5.0282285    -4.052918 0.00077731141   -5.0282285    0.9753105   439061 
 3662000   0.64982834   -5.0278997   -5.0278997   -4.0531594 0.0067552159   -5.0278997   0.97474029   439061 
 3663000   0.64981419   -5.0279746   -5.0279746   -4.0532556 0.0066650777   -5.0279746   0.97471907   439061 
 3664000   0.64969255   -5.0291219   -5.0291219   -4.0545853 0.0016365235   -5.0291219   0.97453661   439061 
 3665000   0.64923397   -5.0289259   -5.0289259   -4.0550771 0.0032977062   -5.0289259   0.97384873   439061 
 3666000   0.64934181    -5.029332    -5.029332   -4.0553215 0.0024362516    -5.029332    0.9740105   439061 
 3667000   0.64927381   -5.0288791   -5.0288791   -4.0549706 0.0031242993   -5.0288791   0.97390849   439061 
 3668000    0.6497863   -5.0283653   -5.0283653   -4.0536881 0.0048744014   -5.0283653   0.97467723   439061 
 3669000   0.65027386   -5.0294394   -5.0294394   -4.0540309  0.007060182   -5.0294394   0.97540856   439061 
 3670000   0.65060856   -5.0291377   -5.0291377   -4.0532271 0.0043332875   -5.0291377   0.97591061   439061 
 3671000   0.65031994   -5.0290409   -5.0290409   -4.0535632  0.003847263   -5.0290409   0.97547769   439061 
 3672000   0.64946945   -5.0279824   -5.0279824   -4.0537805 0.0036652709   -5.0279824   0.97420195   439061 
 3673000   0.64925095   -5.0274959   -5.0274959   -4.0536217 -0.0021092478   -5.0274959   0.97387421   439061 
 3674000   0.64924313   -5.0273695   -5.0273695    -4.053507 -0.0038473614   -5.0273695   0.97386248   439061 
 3675000   0.65004071   -5.0273212   -5.0273212   -4.0522624 -0.0026016948   -5.0273212   0.97505885   439061 
 3676000   0.64992399   -5.0262292   -5.0262292   -4.0513455 0.0034542224   -5.0262292   0.97488376   439061 
 3677000   0.64982559   -5.0259409   -5.0259409   -4.0512047 0.0016369194   -5.0259409   0.97473616   439061 
 3678000   0.64979825   -5.0265461   -5.0265461   -4.0518509 0.0020697475   -5.0265461   0.97469516   439061 
 3679000      0.64994   -5.0258822   -5.0258822   -4.0509745 0.0067520502   -5.0258822   0.97490777   439061 
 3680000   0.65012348   -5.0257772   -5.0257772   -4.0505942 0.0049292965   -5.0257772     0.975183   439061 
 3681000   0.65092475   -5.0272481   -5.0272481   -4.0508632 0.0056974593   -5.0272481   0.97638489   439061 
 3682000    0.6507195   -5.0276465   -5.0276465   -4.0515695 0.0011600693   -5.0276465   0.97607703   439061 
 3683000   0.65020274   -5.0264434   -5.0264434   -4.0511415 0.0034778286   -5.0264434   0.97530189   439061 
 3684000   0.65036172   -5.0264558   -5.0264558   -4.0509154 0.00054721326   -5.0264558   0.97554036   439061 
 3685000   0.65001168    -5.025724    -5.025724   -4.0507087 0.0035574049    -5.025724    0.9750153   439061 
 3686000   0.64964856   -5.0258606   -5.0258606     -4.05139 0.0028847996   -5.0258606   0.97447061   439061 
 3687000   0.64981171   -5.0266116   -5.0266116   -4.0518962 -0.0027703181   -5.0266116   0.97471534   439061 
 3688000   0.64950172   -5.0261487   -5.0261487   -4.0518984 -0.00029010228   -5.0261487   0.97425037   439061 
 3689000   0.65002961   -5.0250081   -5.0250081   -4.0499659 0.0031425595   -5.0250081   0.97504219   439061 
 3690000   0.64954362   -5.0247872   -5.0247872    -4.050474 0.0075052077   -5.0247872    0.9743132   439061 
 3691000   0.65031428   -5.0261693   -5.0261693   -4.0507001 0.0057076924   -5.0261693    0.9754692   439061 
 3692000   0.65110689   -5.0281311   -5.0281311    -4.051473 0.0038308217   -5.0281311   0.97665812   439061 
 3693000   0.65062715   -5.0273494   -5.0273494   -4.0514109 0.0053764451   -5.0273494    0.9759385   439061 
 3694000   0.65015442   -5.0266558   -5.0266558   -4.0514264 0.0058932496   -5.0266558   0.97522941   439061 
 3695000   0.64975558    -5.026799    -5.026799   -4.0521678 -0.00030720955    -5.026799   0.97463116   439061 
 3696000   0.64894449   -5.0251925   -5.0251925    -4.051778 0.0066521747   -5.0251925   0.97341452   439061 
 3697000   0.65010542   -5.0264446   -5.0264446   -4.0512887 0.0042498266   -5.0264446    0.9751559   439061 
 3698000   0.64982565   -5.0267854   -5.0267854   -4.0520491 0.0036461449   -5.0267854   0.97473625   439061 
 3699000   0.65006723   -5.0277227   -5.0277227    -4.052624 0.0023640565   -5.0277227   0.97509862   439061 
 3700000   0.65039502   -5.0286079   -5.0286079   -4.0530176 0.0041294074   -5.0286079    0.9755903   439061 
 3701000   0.65020015   -5.0283666   -5.0283666   -4.0530686 0.0040275366   -5.0283666   0.97529801   439061 
 3702000   0.65038075   -5.0280793   -5.0280793   -4.0525104 0.0029624823   -5.0280793   0.97556891   439061 
 3703000   0.64901435   -5.0259491   -5.0259491   -4.0524298 0.0085494472   -5.0259491    0.9735193   439061 
 3704000   0.65039976   -5.0279955   -5.0279955   -4.0523981 0.0048220479   -5.0279955   0.97559741   439061 
 3705000   0.65087433   -5.0287586   -5.0287586   -4.0524493 0.0030451254   -5.0287586   0.97630928   439061 
 3706000   0.64988937   -5.0273668   -5.0273668   -4.0525349 0.0028078171   -5.0273668   0.97483184   439061 
 3707000   0.64893275   -5.0261232   -5.0261232   -4.0527263  0.001772399   -5.0261232   0.97339691   439061 
 3708000   0.64967669   -5.0267212   -5.0267212   -4.0522084  -0.00226426   -5.0267212   0.97451281   439061 
 3709000   0.64948559    -5.026805    -5.026805   -4.0525788 0.0060728136    -5.026805   0.97422616   439061 
 3710000   0.65130197   -5.0293193   -5.0293193   -4.0523685 0.0016227343   -5.0293193   0.97695074   439061 
 3711000   0.64929858   -5.0259761   -5.0259761   -4.0520305 0.0033629327   -5.0259761   0.97394565   439061 
 3712000   0.64934744   -5.0271275   -5.0271275   -4.0531086 0.0017264578   -5.0271275   0.97401894   439061 
 3713000   0.65003107   -5.0274483   -5.0274483   -4.0524039 0.0013462071   -5.0274483   0.97504438   439061 
 3714000    0.6508598   -5.0280764   -5.0280764   -4.0517889 0.0027516726   -5.0280764   0.97628748   439061 
 3715000   0.65110761    -5.028833    -5.028833   -4.0521738 -0.0024401027    -5.028833   0.97665919   439061 
 3716000    0.6495955   -5.0280206   -5.0280206   -4.0536296 -0.0011597234   -5.0280206   0.97439103   439061 
 3717000   0.64945839   -5.0276722   -5.0276722   -4.0534868 0.0040228859   -5.0276722   0.97418536   439061 
 3718000   0.65120533   -5.0291732   -5.0291732   -4.0523674 0.0061120043   -5.0291732   0.97680577   439061 
 3719000   0.65208482   -5.0288076   -5.0288076   -4.0506826 0.0040137922   -5.0288076     0.978125   439061 
 3720000    0.6511018   -5.0276257   -5.0276257   -4.0509753 0.0036617759   -5.0276257   0.97665048   439061 
 3721000    0.6491931   -5.0266574   -5.0266574     -4.05287 0.0024279781   -5.0266574   0.97378744   439061 
 3722000   0.65026126   -5.0272551   -5.0272551   -4.0518654 0.0037508971   -5.0272551   0.97538967   439061 
 3723000   0.65002988   -5.0270372   -5.0270372   -4.0519946 -0.00040085163   -5.0270372   0.97504261   439061 
 3724000   0.64977699    -5.026275    -5.026275   -4.0516117 -0.0023547385    -5.026275   0.97466326   439061 
 3725000   0.64832818   -5.0247441   -5.0247441    -4.052254 0.0024106499   -5.0247441   0.97249006   439061 
 3726000   0.65031667   -5.0277037   -5.0277037   -4.0522309 -0.0013772643   -5.0277037   0.97547278   439061 
 3727000   0.64991428   -5.0263706   -5.0263706   -4.0515014 -0.0012125713   -5.0263706    0.9748692   439061 
 3728000   0.64882346   -5.0251317   -5.0251317   -4.0518987 0.0048494828   -5.0251317   0.97323298   439061 
 3729000   0.65030412   -5.0273888   -5.0273888   -4.0519348 0.0040584958   -5.0273888   0.97545396   439061 
 3730000   0.64990454   -5.0269299   -5.0269299   -4.0520753 0.0032805967   -5.0269299   0.97485459   439061 
 3731000   0.65055943   -5.0275767   -5.0275767   -4.0517398 0.0029548185   -5.0275767   0.97583692   439061 
 3732000   0.65104989   -5.0280394   -5.0280394   -4.0514668 0.0057233938   -5.0280394    0.9765726   439061 
 3733000      0.65018   -5.0274917   -5.0274917   -4.0522239 0.0039142509   -5.0274917   0.97526778   439061 
 3734000   0.64960046   -5.0266614   -5.0266614   -4.0522629 0.0007699292   -5.0266614   0.97439847   439061 
 3735000   0.65071098   -5.0278073   -5.0278073   -4.0517431 0.0025485091   -5.0278073   0.97606425   439061 
 3736000   0.64981487   -5.0261246   -5.0261246   -4.0514045 0.0013668651   -5.0261246   0.97472008   439061 
 3737000   0.65018791   -5.0271894   -5.0271894   -4.0519098 0.00042680046   -5.0271894   0.97527964   439061 
 3738000   0.65058548   -5.0276689   -5.0276689   -4.0517929 0.0011311071   -5.0276689     0.975876   439061 
 3739000   0.64947765   -5.0263165   -5.0263165   -4.0521023 1.2297039e-05   -5.0263165   0.97421426   439061 
 3740000   0.65029939   -5.0277702   -5.0277702   -4.0523234 -0.0028431204   -5.0277702   0.97544686   439061 
 3741000   0.64986187   -5.0265023   -5.0265023   -4.0517118 0.0054529636   -5.0265023   0.97479058   439061 
 3742000   0.65045502   -5.0275956   -5.0275956   -4.0519153 0.0072282951   -5.0275956   0.97568031   439061 
 3743000   0.64992281   -5.0270272   -5.0270272   -4.0521452 0.00098076855   -5.0270272   0.97488199   439061 
 3744000   0.65098132   -5.0277622   -5.0277622   -4.0512925 0.0027432464   -5.0277622   0.97646975   439061 
 3745000   0.65136071   -5.0277389   -5.0277389      -4.0507 0.0054487648   -5.0277389   0.97703883   439061 
 3746000   0.65110376    -5.027097    -5.027097   -4.0504436  0.005399463    -5.027097   0.97665342   439061 
 3747000   0.65010838   -5.0262053   -5.0262053   -4.0510449 0.0039266786   -5.0262053   0.97516035   439061 
 3748000   0.65088613   -5.0254427   -5.0254427   -4.0491158 0.0027364926   -5.0254427   0.97632697   439061 
 3749000   0.65093006   -5.0261212   -5.0261212   -4.0497283 0.00091632741   -5.0261212   0.97639287   439061 
 3750000   0.65034775   -5.0264346   -5.0264346   -4.0509152 -0.0014962699   -5.0264346   0.97551941   439061 
 3751000   0.64984127   -5.0254768   -5.0254768   -4.0507171 -0.0039283998   -5.0254768   0.97475968   439061 
 3752000    0.6483557   -5.0231934   -5.0231934    -4.050662 -0.0017645474   -5.0231934   0.97253133   439061 
 3753000   0.65069467   -5.0257857   -5.0257857   -4.0497459  0.001899571   -5.0257857   0.97603979   439061 
 3754000   0.65067358   -5.0250357   -5.0250357   -4.0490275 0.0033309106   -5.0250357   0.97600814   439061 
 3755000   0.65118141   -5.0250047   -5.0250047   -4.0482348 0.0091916884   -5.0250047   0.97676988   439061 
 3756000   0.65174416   -5.0266964   -5.0266964   -4.0490824 0.00068621727   -5.0266964   0.97761401   439061 
 3757000   0.65079606   -5.0256395   -5.0256395   -4.0494477 -4.6291273e-06   -5.0256395   0.97619187   439061 
 3758000   0.65037397   -5.0259346   -5.0259346   -4.0503759 0.0040141849   -5.0259346   0.97555873   439061 
 3759000   0.65136422   -5.0271975   -5.0271975   -4.0501534 0.0051160879   -5.0271975    0.9770441   439061 
 3760000   0.65141965   -5.0269922   -5.0269922   -4.0498649 0.0031853198   -5.0269922   0.97712724   439061 
 3761000   0.65024731   -5.0258548   -5.0258548    -4.050486 0.0023319663   -5.0258548   0.97536874   439061 
 3762000   0.64837583   -5.0244482   -5.0244482   -4.0518867 -9.3866787e-05   -5.0244482   0.97256153   439061 
 3763000    0.6495945   -5.0249095   -5.0249095   -4.0505199 0.0041601182   -5.0249095   0.97438953   439061 
 3764000   0.65003171   -5.0254498   -5.0254498   -4.0504045 0.0068780671   -5.0254498   0.97504535   439061 
 3765000   0.64982709   -5.0251737   -5.0251737   -4.0504353 0.0057967358   -5.0251737   0.97473841   439061 
 3766000   0.65032071   -5.0267108   -5.0267108   -4.0512319 -0.00077324646   -5.0267108   0.97547885   439061 
 3767000   0.64942295   -5.0259488   -5.0259488   -4.0518166 -0.00093890614   -5.0259488   0.97413221   439061 
 3768000   0.65015486    -5.027273    -5.027273   -4.0520429 -0.0034512322    -5.027273   0.97523007   439061 
 3769000   0.65016789   -5.0274962   -5.0274962   -4.0522466 0.0037261331   -5.0274962   0.97524961   439061 
 3770000   0.65050828   -5.0282113   -5.0282113   -4.0524512 0.0024349263   -5.0282113   0.97576019   439061 
 3771000   0.64921392   -5.0267375   -5.0267375   -4.0529188 0.0032699002   -5.0267375   0.97381866   439061 
 3772000    0.6495351   -5.0274358   -5.0274358   -4.0531354 0.0043380151   -5.0274358   0.97430042   439061 
 3773000   0.65089312   -5.0305102   -5.0305102   -4.0541728 0.0036737158   -5.0305102   0.97633745   439061 
 3774000    0.6501381   -5.0288126   -5.0288126   -4.0536076 0.0040883921   -5.0288126   0.97520493   439061 
 3775000   0.65033912   -5.0295054   -5.0295054   -4.0539989 0.0025328729   -5.0295054   0.97550646   439061 
 3776000   0.64967493   -5.0287484   -5.0287484   -4.0542382 -0.00090892885   -5.0287484   0.97451017   439061 
 3777000   0.65121243   -5.0299906   -5.0299906   -4.0531742 0.0056467596   -5.0299906   0.97681641   439061 
 3778000   0.65021568   -5.0285588   -5.0285588   -4.0532375  0.010873619   -5.0285588    0.9753213   439061 
 3779000   0.65107714   -5.0294471   -5.0294471   -4.0528336 0.0033699748   -5.0294471   0.97661348   439061 
 3780000   0.64835606    -5.026988    -5.026988   -4.0544561 -0.0028631971    -5.026988   0.97253188   439061 
 3781000   0.64933009   -5.0277074   -5.0277074   -4.0537145 -0.00014230885   -5.0277074   0.97399292   439061 
 3782000   0.64800966   -5.0263346   -5.0263346   -4.0543223 0.0020676384   -5.0263346   0.97201227   439061 
 3783000   0.64965294   -5.0285619   -5.0285619   -4.0540847 0.0024226788   -5.0285619   0.97447719   439061 
 3784000    0.6475886   -5.0250318   -5.0250318   -4.0536511 0.0011956888   -5.0250318   0.97138069   439061 
 3785000   0.64888531   -5.0273877   -5.0273877   -4.0540619 0.0034016973   -5.0273877   0.97332575   439061 
 3786000    0.6498107   -5.0281293   -5.0281293   -4.0534154 0.0029738198   -5.0281293   0.97471383   439061 
 3787000   0.65059365   -5.0282567   -5.0282567   -4.0523684 0.0084275505   -5.0282567   0.97588826   439061 
 3788000   0.65069184   -5.0285806   -5.0285806    -4.052545 0.0080939207   -5.0285806   0.97603554   439061 
 3789000   0.65171124   -5.0286148   -5.0286148   -4.0510501 0.00076804499   -5.0286148   0.97756463   439061 
 3790000   0.65030164   -5.0281218   -5.0281218   -4.0526716 0.0046971213   -5.0281218   0.97545024   439061 
 3791000   0.65002875    -5.026273    -5.026273   -4.0512321 0.0077274224    -5.026273   0.97504091   439061 
 3792000   0.64944322   -5.0263498   -5.0263498   -4.0521872 -0.001677794   -5.0263498   0.97416261   439061 
 3793000   0.64995703   -5.0275071   -5.0275071   -4.0525738 -0.0024317131   -5.0275071   0.97493333   439061 
 3794000   0.64903379     -5.02501     -5.02501   -4.0514615 -0.0043119586     -5.02501   0.97354847   439061 
 3795000   0.64941905    -5.024463    -5.024463   -4.0503367 -0.00033757843    -5.024463   0.97412636   439061 
 3796000   0.64916245    -5.024258    -5.024258   -4.0505165 0.0027901601    -5.024258   0.97374146   439061 
 3797000   0.65050468    -5.026502    -5.026502   -4.0507472 -0.0010014689    -5.026502    0.9757548   439061 
 3798000   0.64914954   -5.0243483   -5.0243483   -4.0506262 0.0049331831   -5.0243483    0.9737221   439061 
 3799000   0.64965456   -5.0271248   -5.0271248   -4.0526452 -0.0027885579   -5.0271248   0.97447962   439061 
 3800000   0.64968041   -5.0273819   -5.0273819   -4.0528635 0.0064296117   -5.0273819    0.9745184   439061 
 3801000   0.64981933   -5.0279158   -5.0279158   -4.0531891 0.0059508818   -5.0279158   0.97472677   439061 
 3802000   0.64986569   -5.0273097   -5.0273097   -4.0525134  0.014076037   -5.0273097   0.97479632   439061 
 3803000   0.64915246   -5.0262791   -5.0262791   -4.0525527  0.014532849   -5.0262791   0.97372648   439061 
 3804000   0.65035397   -5.0277417   -5.0277417    -4.052213 0.0065487923   -5.0277417   0.97552874   439061 
 3805000   0.64932235   -5.0259886   -5.0259886   -4.0520073 0.0092241285   -5.0259886   0.97398131   439061 
 3806000   0.65027479   -5.0287181   -5.0287181   -4.0533081 0.00043605492   -5.0287181   0.97540996   439061 
 3807000   0.64959215   -5.0271576   -5.0271576   -4.0527716 -0.0029718011   -5.0271576     0.974386   439061 
 3808000   0.64927278   -5.0271617   -5.0271617   -4.0532547 -0.0039843316   -5.0271617   0.97390695   439061 
 3809000   0.64948393   -5.0267084   -5.0267084   -4.0524847 0.0017615613   -5.0267084   0.97422368   439061 
 3810000   0.64923192   -5.0283216   -5.0283216   -4.0544759 -0.00034166502   -5.0283216   0.97384567   439061 
 3811000   0.64913876   -5.0275606   -5.0275606   -4.0538546  0.002048606   -5.0275606   0.97370593   439061 
 3812000   0.64899713   -5.0277779   -5.0277779   -4.0542844 -0.00037288216   -5.0277779   0.97349348   439061 
 3813000   0.64829393   -5.0277577   -5.0277577    -4.055319  0.005482576   -5.0277577   0.97243868   439061 
 3814000   0.65028761   -5.0303294   -5.0303294   -4.0549003 0.0062670738   -5.0303294   0.97542919   439061 
 3815000   0.65109148   -5.0305012   -5.0305012   -4.0538662 0.0074283111   -5.0305012   0.97663499   439061 
 3816000   0.65054105    -5.029552    -5.029552   -4.0537426 0.0072169144    -5.029552   0.97580935   439061 
 3817000   0.64995244   -5.0285494   -5.0285494    -4.053623 0.0078290776   -5.0285494   0.97492643   439061 
 3818000   0.65033245   -5.0284509   -5.0284509   -4.0529545 0.0066937853   -5.0284509   0.97549646   439061 
 3819000   0.65063632   -5.0289794   -5.0289794   -4.0530272 0.0020449976   -5.0289794   0.97595225   439061 
 3820000   0.64951806   -5.0269452   -5.0269452   -4.0526703 0.0019259361   -5.0269452   0.97427487   439061 
 3821000   0.64924915   -5.0267263   -5.0267263   -4.0528548 -0.0038266165   -5.0267263    0.9738715   439061 
 3822000   0.64819379   -5.0245899   -5.0245899   -4.0523015 -0.0023595751   -5.0245899   0.97228848   439061 
 3823000    0.6495613   -5.0260454   -5.0260454   -4.0517057 -0.0038308613   -5.0260454   0.97433973   439061 
 3824000   0.64902813    -5.025325    -5.025325    -4.051785 0.00080229036    -5.025325   0.97353998   439061 
 3825000   0.64998204   -5.0281403   -5.0281403   -4.0531695 -0.0032385469   -5.0281403   0.97497084   439061 
 3826000   0.64928944   -5.0272292   -5.0272292   -4.0532972 -0.00085084754   -5.0272292   0.97393194   439061 
 3827000   0.65001128   -5.0282185   -5.0282185   -4.0532038 0.0017409865   -5.0282185    0.9750147   439061 
 3828000   0.65039397   -5.0281857   -5.0281857    -4.052597 0.0056267016   -5.0281857   0.97558874   439061 
 3829000   0.65106143   -5.0297356   -5.0297356   -4.0531457 0.0029322806   -5.0297356   0.97658992   439061 
 3830000   0.64986814   -5.0278413   -5.0278413   -4.0530413 0.0043349386   -5.0278413   0.97479999   439061 
 3831000   0.64953378   -5.0278203   -5.0278203   -4.0535218 0.0048984998   -5.0278203   0.97429845   439061 
 3832000   0.65084506   -5.0297267   -5.0297267   -4.0534613 0.0050652583   -5.0297267   0.97626537   439061 
 3833000   0.65026041   -5.0283296   -5.0283296   -4.0529412 0.0083521552   -5.0283296   0.97538839   439061 
 3834000    0.6503981   -5.0279516   -5.0279516   -4.0523566 -0.0016957697   -5.0279516   0.97559493   439061 
 3835000   0.65016571   -5.0276598   -5.0276598   -4.0524134 -0.0030501975   -5.0276598   0.97524634   439061 
 3836000   0.64985962   -5.0266349   -5.0266349   -4.0518477 0.0021466024   -5.0266349   0.97478721   439061 
 3837000   0.64984827   -5.0270059   -5.0270059   -4.0522357 0.0011681101   -5.0270059   0.97477018   439061 
 3838000   0.65098111    -5.026845    -5.026845   -4.0503756 -0.0029494219    -5.026845   0.97646944   439061 
 3839000   0.64920144   -5.0247573   -5.0247573   -4.0509574 0.0030558787   -5.0247573   0.97379994   439061 
 3840000   0.64833155   -5.0246521   -5.0246521    -4.052157 -0.0010555344   -5.0246521   0.97249511   439061 
 3841000   0.65032853   -5.0270105   -5.0270105   -4.0515199 -0.00089033269   -5.0270105   0.97549058   439061 
 3842000   0.64985914    -5.026528    -5.026528   -4.0517415 0.0017797433    -5.026528   0.97478648   439061 
 3843000   0.64974218   -5.0257039   -5.0257039   -4.0510928 0.0066825836   -5.0257039   0.97461104   439061 
 3844000   0.65042829    -5.026959    -5.026959   -4.0513188 0.0050126908    -5.026959   0.97564022   439061 
 3845000   0.65081346   -5.0270772   -5.0270772   -4.0508592 0.0073274452   -5.0270772   0.97621796   439061 
 3846000   0.64960659   -5.0270002   -5.0270002   -4.0525925  0.005298568   -5.0270002   0.97440766   439061 
 3847000    0.6496232   -5.0267115   -5.0267115   -4.0522789 0.0033569272   -5.0267115   0.97443259   439061 
 3848000   0.65077481   -5.0286558   -5.0286558   -4.0524958 -0.0018562114   -5.0286558      0.97616   439061 
 3849000   0.64945921   -5.0270695   -5.0270695   -4.0528829 0.0015297982   -5.0270695    0.9741866   439061 
 3850000   0.64865186   -5.0265253   -5.0265253   -4.0535498  -0.00091485   -5.0265253   0.97297557   439061 
 3851000   0.64936047   -5.0265711   -5.0265711   -4.0525326 -0.0015340416   -5.0265711   0.97403849   439061 
 3852000    0.6495182   -5.0268918   -5.0268918   -4.0526167 0.0030243945   -5.0268918   0.97427508   439061 
 3853000   0.64932607   -5.0263711   -5.0263711   -4.0523843 0.0067795903   -5.0263711   0.97398689   439061 
 3854000   0.65017445   -5.0283432   -5.0283432   -4.0530837 0.0067851603   -5.0283432   0.97525946   439061 
 3855000   0.65090077   -5.0287981   -5.0287981   -4.0524491 -0.00050743549   -5.0287981   0.97634893   439061 
 3856000   0.64984128   -5.0275549   -5.0275549   -4.0527952 0.0019667267   -5.0275549    0.9747597   439061 
 3857000   0.65007707   -5.0282843   -5.0282843    -4.053171  0.003927734   -5.0282843   0.97511338   439061 
 3858000   0.65070214   -5.0286302   -5.0286302   -4.0525792  0.002369838   -5.0286302   0.97605098   439061 
 3859000   0.64933472   -5.0276029   -5.0276029   -4.0536031 0.0020443679   -5.0276029   0.97399985   439061 
 3860000   0.64876107   -5.0279384   -5.0279384    -4.054799 -0.0027297002   -5.0279384   0.97313938   439061 
 3861000   0.64892052   -5.0285264   -5.0285264   -4.0551478 -0.0055497929   -5.0285264   0.97337857   439061 
 3862000   0.64974479   -5.0281138   -5.0281138   -4.0534988 0.00089671788   -5.0281138   0.97461497   439061 
 3863000    0.6503393   -5.0297863   -5.0297863   -4.0542796 0.0011255628   -5.0297863   0.97550672   439061 
 3864000    0.6492899   -5.0278981   -5.0278981   -4.0539655  0.007675828   -5.0278981   0.97393263   439061 
 3865000   0.65012667   -5.0286844   -5.0286844   -4.0534966 0.0036635117   -5.0286844   0.97518778   439061 
 3866000   0.65041374   -5.0293014   -5.0293014    -4.053683 0.0065092055   -5.0293014   0.97561839   439061 
 3867000   0.65048523   -5.0299282   -5.0299282   -4.0542026 -0.00076066714   -5.0299282   0.97572563   439061 
 3868000   0.64958726   -5.0280699   -5.0280699   -4.0536913 0.0040343648   -5.0280699   0.97437868   439061 
 3869000   0.65019032   -5.0284424   -5.0284424   -4.0531591  0.005494514   -5.0284424   0.97528326   439061 
 3870000   0.65005229   -5.0285685   -5.0285685   -4.0534923  0.001795386   -5.0285685   0.97507621   439061 
 3871000   0.64957539   -5.0270447   -5.0270447   -4.0526839 0.0040735674   -5.0270447   0.97436087   439061 
 3872000   0.64992173   -5.0280983   -5.0280983   -4.0532179 -0.00065634627   -5.0280983   0.97488037   439061 
 3873000     0.648965    -5.025733    -5.025733   -4.0522877 -0.0016776716    -5.025733   0.97344528   439061 
 3874000    0.6488941   -5.0261387   -5.0261387   -4.0527998  0.004402125   -5.0261387   0.97333893   439061 
 3875000     0.648695   -5.0261725   -5.0261725   -4.0531322 -0.0016044893   -5.0261725   0.97304028   439061 
 3876000   0.64911144   -5.0261666   -5.0261666   -4.0525017 0.0041866911   -5.0261666   0.97366494   439061 
 3877000   0.64970725   -5.0288924   -5.0288924   -4.0543338 -0.0012551645   -5.0288924   0.97455866   439061 
 3878000   0.64868085    -5.025995    -5.025995    -4.052976  0.003884486    -5.025995   0.97301906   439061 
 3879000   0.65047157   -5.0298266   -5.0298266   -4.0541215 -0.0012093943   -5.0298266   0.97570514   439061 
 3880000   0.65110001   -5.0290568   -5.0290568    -4.052409 0.0083201314   -5.0290568    0.9766478   439061 
 3881000   0.65099735   -5.0296559   -5.0296559   -4.0531621 0.0073515561   -5.0296559    0.9764938   439061 
 3882000   0.65093714   -5.0302542   -5.0302542   -4.0538507 0.0034303382   -5.0302542   0.97640348   439061 
 3883000   0.64990834   -5.0281025   -5.0281025   -4.0532422 0.0057928113   -5.0281025   0.97486029   439061 
 3884000   0.65022873   -5.0283421   -5.0283421   -4.0530012 0.0030434751   -5.0283421   0.97534088   439061 
 3885000   0.65027953    -5.029169    -5.029169   -4.0537519 0.0031795435    -5.029169   0.97541707   439061 
 3886000   0.64966044    -5.027011    -5.027011   -4.0525225 0.0053094683    -5.027011   0.97448845   439061 
 3887000   0.64947926   -5.0259809   -5.0259809   -4.0517642 -0.00083473323   -5.0259809   0.97421667   439061 
 3888000   0.64981915   -5.0265656   -5.0265656   -4.0518391 -9.1668947e-05   -5.0265656   0.97472651   439061 
 3889000   0.64902498    -5.025231    -5.025231   -4.0516957 0.0056928657    -5.025231   0.97353526   439061 
 3890000   0.65011016   -5.0257308   -5.0257308   -4.0505678 0.0004045896   -5.0257308   0.97516302   439061 
 3891000   0.64957251   -5.0243635   -5.0243635    -4.050007 -0.00098001806   -5.0243635   0.97435654   439061 
 3892000   0.64975695   -5.0248941   -5.0248941   -4.0502609 -0.0060678834   -5.0248941   0.97463321   439061 
 3893000   0.65062026   -5.0250982   -5.0250982     -4.04917 -0.0013459703   -5.0250982   0.97592817   439061 
 3894000   0.65100579   -5.0267658   -5.0267658   -4.0502594 0.0022270083   -5.0267658   0.97650646   439061 
 3895000   0.65069547   -5.0265001   -5.0265001   -4.0504591 0.00030224653   -5.0265001   0.97604099   439061 
 3896000    0.6505648   -5.0256338   -5.0256338   -4.0497888 0.0050264068   -5.0256338   0.97584498   439061 
 3897000    0.6512455   -5.0273427   -5.0273427   -4.0504767 0.0017557543   -5.0273427   0.97686603   439061 
 3898000   0.65072106   -5.0272297   -5.0272297   -4.0511503 0.0085339508   -5.0272297   0.97607937   439061 
 3899000   0.65073535   -5.0261741   -5.0261741   -4.0500733 0.0079302992   -5.0261741    0.9761008   439061 
 3900000   0.65157111   -5.0287291   -5.0287291   -4.0513747 -0.00068432318   -5.0287291   0.97735443   439061 
 3901000   0.64889344   -5.0260377   -5.0260377   -4.0526998 0.0041135081   -5.0260377   0.97333794   439061 
 3902000   0.65013136   -5.0269883   -5.0269883   -4.0517935  0.003011757   -5.0269883   0.97519481   439061 
 3903000   0.65072933   -5.0275534   -5.0275534   -4.0514617 0.0037953937   -5.0275534   0.97609178   439061 
 3904000   0.65040288   -5.0263753   -5.0263753   -4.0507732 0.0019539923   -5.0263753    0.9756021   439061 
 3905000   0.64974757    -5.026043    -5.026043   -4.0514239 0.0031815525    -5.026043   0.97461913   439061 
 3906000   0.64945878   -5.0266828   -5.0266828   -4.0524969  0.001990838   -5.0266828   0.97418595   439061 
 3907000   0.65031804   -5.0282292   -5.0282292   -4.0527543 -0.0031093295   -5.0282292   0.97547484   439061 
 3908000   0.64915408   -5.0261239   -5.0261239    -4.052395 0.0052445794   -5.0261239   0.97372891   439061 
 3909000   0.65013709   -5.0270076   -5.0270076   -4.0518042  0.003571941   -5.0270076   0.97520341   439061 
 3910000   0.65045038   -5.0273986   -5.0273986   -4.0517252 0.0030011403   -5.0273986   0.97567334   439061 
 3911000   0.65005529   -5.0273205   -5.0273205   -4.0522398 0.0036381681   -5.0273205   0.97508072   439061 
 3912000   0.65010306   -5.0273017   -5.0273017   -4.0521493 0.0032364067   -5.0273017   0.97515236   439061 
 3913000   0.64983898   -5.0270054   -5.0270054   -4.0522491 0.0060958241   -5.0270054   0.97475624   439061 
 3914000   0.65077046    -5.027515    -5.027515   -4.0513615  0.004989267    -5.027515   0.97615347   439061 
 3915000   0.64855512   -5.0264295   -5.0264295    -4.053599 0.0011051529   -5.0264295   0.97283046   439061 
 3916000   0.64933647   -5.0268068   -5.0268068   -4.0528043 -0.0035773059   -5.0268068   0.97400248   439061 
 3917000   0.64925782   -5.0265692   -5.0265692   -4.0526847 0.0065180486   -5.0265692   0.97388452   439061 
 3918000   0.65050698   -5.0290271   -5.0290271   -4.0532689  0.006215517   -5.0290271   0.97575825   439061 
 3919000   0.64989939   -5.0284089   -5.0284089   -4.0535621 0.0024681397   -5.0284089   0.97484687   439061 
 3920000   0.64987233   -5.0284496   -5.0284496   -4.0536434 -0.0013095412   -5.0284496   0.97480627   439061 
 3921000   0.64917085   -5.0274815   -5.0274815   -4.0537274    0.0034932   -5.0274815   0.97375406   439061 
 3922000   0.64841354   -5.0273143   -5.0273143   -4.0546962 0.0082985149   -5.0273143    0.9726181   439061 
 3923000   0.65113304   -5.0300234   -5.0300234    -4.053326 0.0023677881   -5.0300234   0.97669733   439061 
 3924000   0.65043097   -5.0281102   -5.0281102   -4.0524659 -0.0011233272   -5.0281102   0.97564424   439061 
 3925000   0.64944405   -5.0262893   -5.0262893   -4.0521254 0.0088881704   -5.0262893   0.97416386   439061 
 3926000   0.65153938   -5.0301812   -5.0301812   -4.0528744 0.00023452836   -5.0301812   0.97730684   439061 
 3927000   0.64966912   -5.0264552   -5.0264552   -4.0519538 0.0031126585   -5.0264552   0.97450146   439061 
 3928000   0.64911432    -5.025898    -5.025898   -4.0522287 0.0017720945    -5.025898   0.97366926   439061 
 3929000   0.64879967    -5.025193    -5.025193   -4.0519957 0.0033026737    -5.025193   0.97319729   439061 
 3930000   0.64939667   -5.0262809   -5.0262809   -4.0521881 0.0029177064   -5.0262809   0.97409279   439061 
 3931000   0.64938879    -5.026834    -5.026834    -4.052753 0.0017960299    -5.026834   0.97408097   439061 
 3932000     0.648639   -5.0253315   -5.0253315   -4.0523752 0.0020865987   -5.0253315   0.97295628   439061 
 3933000   0.64935156   -5.0265046   -5.0265046   -4.0524795 -0.00040186597   -5.0265046   0.97402512   439061 
 3934000   0.64972786   -5.0275387   -5.0275387   -4.0529491 -0.001040962   -5.0275387   0.97458957   439061 
 3935000   0.64960737   -5.0278927   -5.0278927   -4.0534839 0.0071346023   -5.0278927   0.97440883   439061 
 3936000   0.65130034   -5.0300682   -5.0300682   -4.0531199 0.0021796875   -5.0300682   0.97694828   439061 
 3937000   0.65044068   -5.0288608   -5.0288608    -4.053202 0.0040583173   -5.0288608   0.97565879   439061 
 3938000   0.65016603   -5.0293997   -5.0293997   -4.0541529 0.0074051575   -5.0293997   0.97524683   439061 
 3939000   0.65066569   -5.0304481   -5.0304481   -4.0544518 0.0025567478   -5.0304481   0.97599632   439061 
 3940000   0.64988838   -5.0291529   -5.0291529   -4.0543226 0.0054044181   -5.0291529   0.97483035   439061 
 3941000   0.65096841   -5.0301699   -5.0301699   -4.0537195 0.00082973234   -5.0301699   0.97645039   439061 
 3942000   0.65054518    -5.030464    -5.030464   -4.0546484 0.0012308736    -5.030464   0.97581555   439061 
 3943000   0.64988216   -5.0295784   -5.0295784   -4.0547573 0.00036823509   -5.0295784   0.97482102   439061 
 3944000   0.64982796   -5.0278209   -5.0278209   -4.0530812 0.00022808737   -5.0278209   0.97473971   439061 
 3945000   0.65080042   -5.0301152   -5.0301152   -4.0539168 -0.00017271327   -5.0301152   0.97619841   439061 
 3946000   0.64990577   -5.0277632   -5.0277632   -4.0529067 0.0017160283   -5.0277632   0.97485644   439061 
 3947000   0.65018655   -5.0278745   -5.0278745   -4.0525969 -0.0053185416   -5.0278745   0.97527761   439061 
 3948000    0.6504499   -5.0279592   -5.0279592   -4.0522866 -0.0015460428   -5.0279592   0.97567263   439061 
 3949000   0.64892627   -5.0256892   -5.0256892    -4.052302 0.0050480878   -5.0256892   0.97338719   439061 
 3950000    0.6502189   -5.0271742   -5.0271742   -4.0518481 0.0056403918   -5.0271742   0.97532612   439061 
 3951000   0.64951702   -5.0261782   -5.0261782   -4.0519048 0.0044832745   -5.0261782   0.97427332   439061 
 3952000   0.64966972   -5.0277055   -5.0277055   -4.0532031 0.0028461948   -5.0277055   0.97450237   439061 
 3953000   0.65090946   -5.0283051   -5.0283051   -4.0519431 0.0049477797   -5.0283051   0.97636197   439061 
 3954000   0.65026037   -5.0277852   -5.0277852   -4.0523969 0.0074159334   -5.0277852   0.97538833   439061 
 3955000   0.65052421   -5.0273782   -5.0273782   -4.0515941 0.0066249169   -5.0273782    0.9757841   439061 
 3956000    0.6506186   -5.0281271   -5.0281271   -4.0522015 0.0050126704   -5.0281271   0.97592567   439061 
 3957000   0.65106145   -5.0282134   -5.0282134   -4.0516234 0.0035269482   -5.0282134   0.97658995   439061 
 3958000   0.65038237   -5.0270656   -5.0270656   -4.0514943 0.0061874184   -5.0270656   0.97557134   439061 
 3959000   0.65100636   -5.0274581   -5.0274581   -4.0509508 0.0026286759   -5.0274581   0.97650732   439061 
 3960000   0.64924049   -5.0252704   -5.0252704   -4.0514119  0.001458934   -5.0252704   0.97385851   439061 
 3961000   0.64860995    -5.024194    -5.024194   -4.0512813 0.00014985999    -5.024194   0.97291271   439061 
 3962000   0.64986957   -5.0256164   -5.0256164   -4.0508143 -0.0040990146   -5.0256164   0.97480214   439061 
 3963000   0.64854195   -5.0237346   -5.0237346   -4.0509239 -0.00039347981   -5.0237346   0.97281072   439061 
 3964000   0.64801853   -5.0232249   -5.0232249   -4.0511993 0.0024847313   -5.0232249   0.97202559   439061 
 3965000   0.64984332   -5.0261489   -5.0261489   -4.0513861 -0.0022052455   -5.0261489   0.97476276   439061 
 3966000   0.64986077   -5.0264931   -5.0264931   -4.0517042 0.0048354661   -5.0264931   0.97478894   439061 
 3967000    0.6494333   -5.0258329   -5.0258329   -4.0516852 0.0028959186   -5.0258329   0.97414773   439061 
 3968000   0.65112056   -5.0277629   -5.0277629   -4.0510843 0.0051808712   -5.0277629   0.97667862   439061 
 3969000   0.65220199   -5.0293254   -5.0293254   -4.0510247 0.0043829481   -5.0293254   0.97830075   439061 
 3970000   0.65177674   -5.0288246   -5.0288246   -4.0511617 0.0026935301   -5.0288246   0.97766289   439061 
 3971000   0.65101647   -5.0280112   -5.0280112   -4.0514888 0.0049674598   -5.0280112   0.97652248   439061 
 3972000    0.6507896   -5.0262226   -5.0262226   -4.0500404 0.0056198279   -5.0262226   0.97618217   439061 
 3973000   0.65122596   -5.0267008   -5.0267008   -4.0498641 0.0075826212   -5.0267008   0.97683671   439061 
 3974000   0.64873996   -5.0249222   -5.0249222   -4.0518145 0.0023099402   -5.0249222   0.97310773   439061 
 3975000   0.64966848   -5.0269532   -5.0269532   -4.0524527 -0.0052874962   -5.0269532    0.9745005   439061 
 3976000   0.64780637   -5.0230921   -5.0230921   -4.0513847 -0.0040886085   -5.0230921   0.97170734   439061 
 3977000   0.64905154   -5.0251614   -5.0251614   -4.0515863 -0.0035724787   -5.0251614   0.97357509   439061 
 3978000   0.64963412   -5.0265188   -5.0265188   -4.0520698 -0.00051356137   -5.0265188   0.97444896   439061 
 3979000   0.64906965   -5.0251987   -5.0251987   -4.0515964  0.001439052   -5.0251987   0.97360226   439061 
 3980000   0.65187634   -5.0286768   -5.0286768   -4.0508645  0.002543488   -5.0286768   0.97781229   439061 
 3981000   0.65053751   -5.0276992   -5.0276992   -4.0518951 0.0056361011   -5.0276992   0.97580404   439061 
 3982000   0.65048821   -5.0288651   -5.0288651    -4.053135 0.0087222685   -5.0288651   0.97573009   439061 
 3983000   0.65086073   -5.0288504   -5.0288504   -4.0525615 0.0049604767   -5.0288504   0.97628888   439061 
 3984000   0.65031497   -5.0285443   -5.0285443    -4.053074 0.0035570066   -5.0285443   0.97547024   439061 
 3985000   0.64904367   -5.0277657   -5.0277657   -4.0542024 0.0057710994   -5.0277657   0.97356329   439061 
 3986000    0.6507704   -5.0290676   -5.0290676   -4.0529142 0.0035989607   -5.0290676   0.97615338   439061 
 3987000    0.6500503   -5.0286944   -5.0286944   -4.0536211 0.0039442359   -5.0286944   0.97507323   439061 
 3988000   0.65035859   -5.0286131   -5.0286131   -4.0530774 -0.0024750333   -5.0286131   0.97553566   439061 
 3989000   0.64942991   -5.0268141   -5.0268141   -4.0526714 0.00010204175   -5.0268141   0.97414264   439061 
 3990000   0.65035939   -5.0273983   -5.0273983   -4.0518615 0.0021875836   -5.0273983   0.97553686   439061 
 3991000   0.65008446   -5.0263359   -5.0263359   -4.0512114  0.003369572   -5.0263359   0.97512447   439061 
 3992000   0.64955314   -5.0267707   -5.0267707   -4.0524432 0.0020717667   -5.0267707   0.97432749   439061 
 3993000   0.64952297   -5.0253967   -5.0253967   -4.0511145 -0.00013260864   -5.0253967   0.97428224   439061 
 3994000   0.65019447   -5.0274555   -5.0274555    -4.052166 -0.004508307   -5.0274555   0.97528948   439061 
 3995000   0.65008039   -5.0273949   -5.0273949   -4.0522765 0.0024173884   -5.0273949   0.97511836   439061 
 3996000   0.65031421   -5.0275034   -5.0275034   -4.0520343 1.5221424e-05   -5.0275034    0.9754691   439061 
 3997000   0.64876163    -5.026009    -5.026009   -4.0528688 0.0050873901    -5.026009   0.97314023   439061 
 3998000   0.64978248   -5.0269055   -5.0269055    -4.052234 0.0013128243   -5.0269055   0.97467151   439061 
 3999000   0.65046654   -5.0278512   -5.0278512   -4.0521536 0.0072326623   -5.0278512   0.97569758   439061 
 4000000     0.651668    -5.029449    -5.029449   -4.0519493 0.0029728587    -5.029449   0.97749977   439061 
 4001000   0.65063632   -5.0279044   -5.0279044   -4.0519521 0.0074439638   -5.0279044   0.97595226   439061 
 4002000   0.64991991   -5.0271986   -5.0271986    -4.052321 0.0031496331   -5.0271986   0.97487765   439061 
 4003000   0.65121352   -5.0284049   -5.0284049   -4.0515869 0.00080581565   -5.0284049   0.97681805   439061 
 4004000   0.64971132   -5.0261247   -5.0261247   -4.0515599 0.0054950983   -5.0261247   0.97456476   439061 
 4005000   0.64916094   -5.0260386   -5.0260386   -4.0522994 -0.00055066463   -5.0260386   0.97373919   439061 
 4006000   0.64910247   -5.0262473   -5.0262473   -4.0525958 0.00046329518   -5.0262473   0.97365149   439061 
 4007000   0.64973246    -5.027488    -5.027488   -4.0528915 -0.0080565328    -5.027488   0.97459647   439061 
 4008000   0.64926357   -5.0265129   -5.0265129   -4.0526198 -0.0063193306   -5.0265129   0.97389314   439061 
 4009000   0.64784202   -5.0249601   -5.0249601   -4.0531993 0.0049205983   -5.0249601   0.97176081   439061 
 4010000   0.65024881   -5.0295136   -5.0295136   -4.0541426 -5.6002744e-05   -5.0295136   0.97537099   439061 
 4011000   0.65131523   -5.0303008   -5.0303008   -4.0533301 0.0037116779   -5.0303008   0.97697062   439061 
 4012000   0.65035735   -5.0287121   -5.0287121   -4.0531783 0.0074430513   -5.0287121    0.9755338   439061 
 4013000   0.65114007   -5.0308256   -5.0308256   -4.0541177 0.0041029435   -5.0308256   0.97670788   439061 
 4014000    0.6509557   -5.0298303   -5.0298303    -4.053399 0.0045031018   -5.0298303   0.97643133   439061 
 4015000   0.65013674   -5.0287553   -5.0287553   -4.0535524 0.0058780724   -5.0287553   0.97520289   439061 
 4016000   0.64972012   -5.0276158   -5.0276158   -4.0530378 0.0093279981   -5.0276158   0.97457797   439061 
 4017000   0.65099813   -5.0281593   -5.0281593   -4.0516643 0.0031432829   -5.0281593   0.97649498   439061 
 4018000   0.65088989   -5.0267647   -5.0267647   -4.0504321 0.0061323034   -5.0267647   0.97633261   439061 
 4019000   0.65129608   -5.0271237   -5.0271237   -4.0501818 -2.3361953e-05   -5.0271237   0.97694189   439061 
 4020000   0.65039092   -5.0263097   -5.0263097   -4.0507256 -0.00022714305   -5.0263097   0.97558415   439061 
 4021000   0.65088191   -5.0261186   -5.0261186   -4.0497979 -0.002167446   -5.0261186   0.97632063   439061 
 4022000   0.64975417   -5.0235609   -5.0235609   -4.0489319 0.00064318658   -5.0235609   0.97462904   439061 
 4023000   0.65008507   -5.0245617   -5.0245617   -4.0494363 0.00073433967   -5.0245617   0.97512538   439061 
 4024000   0.64913788   -5.0234846   -5.0234846     -4.04978 -0.00079116163   -5.0234846    0.9737046   439061 
 4025000   0.65001367   -5.0254648   -5.0254648   -4.0504466 -0.0016590171   -5.0254648   0.97501829   439061 
 4026000   0.64937354   -5.0248522   -5.0248522   -4.0507941 -0.0039052104   -5.0248522    0.9740581   439061 
 4027000   0.65022744    -5.025668    -5.025668    -4.050329  0.003155206    -5.025668   0.97533893   439061 
 4028000   0.65028101   -5.0258638   -5.0258638   -4.0504445 0.0078032622   -5.0258638   0.97541929   439061 
 4029000   0.65228009    -5.028794    -5.028794   -4.0503761 0.0055215893    -5.028794   0.97841791   439061 
 4030000   0.65164035   -5.0280974   -5.0280974   -4.0506391 0.0038718193   -5.0280974    0.9774583   439061 
 4031000   0.64986594   -5.0269419   -5.0269419   -4.0521452  0.007802841   -5.0269419   0.97479668   439061 
 4032000   0.65028162   -5.0282428   -5.0282428   -4.0528226 0.0041900133   -5.0282428   0.97542022   439061 
 4033000   0.64797622   -5.0249102   -5.0249102   -4.0529481 0.0070025591   -5.0249102   0.97196212   439061 
 4034000    0.6498971   -5.0263114   -5.0263114   -4.0514679 0.00015688674   -5.0263114   0.97484344   439061 
 4035000   0.65067386   -5.0275378   -5.0275378   -4.0515293 0.0013742934   -5.0275378   0.97600857   439061 
 4036000   0.65051817   -5.0263891   -5.0263891   -4.0506141 0.0048836708   -5.0263891   0.97577503   439061 
 4037000   0.65026205   -5.0258208   -5.0258208     -4.05043 0.0017651556   -5.0258208   0.97539085   439061 
 4038000   0.65030854   -5.0259722   -5.0259722   -4.0505116 -0.0031275071   -5.0259722   0.97546059   439061 
 4039000   0.64948431   -5.0245464   -5.0245464   -4.0503222 -0.00035625622   -5.0245464   0.97422424   439061 
 4040000   0.65044014   -5.0258457   -5.0258457   -4.0501877 -0.00085630161   -5.0258457   0.97565799   439061 
 4041000     0.650439    -5.024817    -5.024817   -4.0491608 0.0019334066    -5.024817   0.97565628   439061 
 4042000   0.65094329   -5.0265443   -5.0265443   -4.0501316 -0.0044566982   -5.0265443   0.97641271   439061 
 4043000    0.6497047    -5.025101    -5.025101   -4.0505462 0.0038713533    -5.025101   0.97455482   439061 
 4044000   0.65037753   -5.0261137   -5.0261137   -4.0505496 0.0034733338   -5.0261137   0.97556408   439061 
 4045000   0.65069899   -5.0280383   -5.0280383    -4.051992 0.0014155362   -5.0280383   0.97604626   439061 
 4046000   0.65035621   -5.0276699   -5.0276699   -4.0521378 0.0050248667   -5.0276699   0.97553209   439061 
 4047000   0.65044079   -5.0274347   -5.0274347   -4.0517757 0.0090941193   -5.0274347   0.97565896   439061 
 4048000   0.65042041    -5.027807    -5.027807   -4.0521786 0.0070367407    -5.027807   0.97562839   439061 
 4049000   0.65049545   -5.0275318   -5.0275318   -4.0517908 0.0062134195   -5.0275318   0.97574095   439061 
 4050000   0.64952331   -5.0268195   -5.0268195   -4.0525368 0.0032752496   -5.0268195   0.97428275   439061 
 4051000   0.64967301   -5.0270517   -5.0270517   -4.0525444 0.0056120864   -5.0270517   0.97450729   439061 
 4052000   0.64992893   -5.0282008   -5.0282008   -4.0533096  0.001370918   -5.0282008   0.97489117   439061 
 4053000   0.64954945   -5.0279999   -5.0279999    -4.053678 0.0037737209   -5.0279999   0.97432195   439061 
 4054000   0.64908594    -5.026429    -5.026429   -4.0528023 0.0025804957    -5.026429    0.9736267   439061 
 4055000   0.64974315   -5.0281256   -5.0281256   -4.0535131 0.0020752884   -5.0281256    0.9746125   439061 
 4056000   0.64981418     -5.02743     -5.02743    -4.052711 0.0060527162     -5.02743   0.97471905   439061 
 4057000   0.65022515   -5.0276429   -5.0276429   -4.0523074 0.0039403546   -5.0276429   0.97533551   439061 
 4058000   0.65081295   -5.0279657   -5.0279657   -4.0517485 0.0032023375   -5.0279657    0.9762172   439061 
 4059000    0.6500834   -5.0272879   -5.0272879    -4.052165 0.0046729883   -5.0272879   0.97512287   439061 
 4060000   0.65100398   -5.0284591   -5.0284591   -4.0519553 0.0028285139   -5.0284591   0.97650374   439061 
 4061000   0.64968579   -5.0279434   -5.0279434   -4.0534169 0.0028735986   -5.0279434   0.97452646   439061 
 4062000   0.64963067   -5.0278145   -5.0278145   -4.0533707 0.0021559239   -5.0278145   0.97444378   439061 
 4063000   0.64968945   -5.0275268   -5.0275268   -4.0529948 0.0029370235   -5.0275268   0.97453196   439061 
 4064000   0.64974507   -5.0273132   -5.0273132   -4.0526978 0.0024049728   -5.0273132   0.97461539   439061 
 4065000    0.6493262   -5.0278315   -5.0278315   -4.0538444 -9.5213734e-05   -5.0278315   0.97398708   439061 
 4066000   0.65017104   -5.0289643   -5.0289643   -4.0537099  0.001661646   -5.0289643   0.97525434   439061 
 4067000   0.65001477   -5.0290357   -5.0290357   -4.0540158 0.00091222614   -5.0290357   0.97501993   439061 
 4068000   0.65109098   -5.0308381   -5.0308381   -4.0542039  0.002308582   -5.0308381   0.97663425   439061 
 4069000   0.65065353   -5.0297564   -5.0297564   -4.0537783 0.0011289922   -5.0297564   0.97597808   439061 
 4070000   0.65024861    -5.028466    -5.028466   -4.0530953 0.0034024957    -5.028466    0.9753707   439061 
 4071000    0.6508135   -5.0288026   -5.0288026   -4.0525845 0.0032670218   -5.0288026   0.97621802   439061 
 4072000   0.64980584   -5.0276913   -5.0276913   -4.0529847 0.0045862637   -5.0276913   0.97470653   439061 
 4073000   0.64981212   -5.0266187   -5.0266187   -4.0519028 0.0025020293   -5.0266187   0.97471595   439061 
 4074000   0.65015805   -5.0276943   -5.0276943   -4.0524594 0.0021866192   -5.0276943   0.97523485   439061 
 4075000   0.64788317    -5.024072    -5.024072   -4.0522495 0.0072759708    -5.024072   0.97182254   439061 
 4076000   0.64948464   -5.0266225   -5.0266225   -4.0523977 -0.0015397288   -5.0266225   0.97422474   439061 
 4077000   0.64965886   -5.0280586   -5.0280586   -4.0535725 -0.0055706173   -5.0280586   0.97448606   439061 
 4078000    0.6477572   -5.0258345   -5.0258345    -4.054201 -0.0026916708   -5.0258345   0.97163359   439061 
 4079000   0.64970579   -5.0288913   -5.0288913   -4.0543349 -0.0036164548   -5.0288913   0.97455647   439061 
 4080000   0.64945414   -5.0289944   -5.0289944   -4.0548154  0.004819508   -5.0289944     0.974179   439061 
 4081000   0.65032377    -5.029829    -5.029829   -4.0543455 0.0080530891    -5.029829   0.97548344   439061 
 4082000   0.65026688   -5.0301866   -5.0301866   -4.0547885 0.0089382942   -5.0301866    0.9753981   439061 
 4083000   0.65051306   -5.0315592   -5.0315592   -4.0557918 0.0060010085   -5.0315592   0.97576737   439061 
 4084000   0.65055727   -5.0310989   -5.0310989   -4.0552653  0.010793959   -5.0310989   0.97583369   439061 
 4085000   0.65042387   -5.0301267   -5.0301267   -4.0544931  0.013256022   -5.0301267   0.97563358   439061 
 4086000   0.64968502   -5.0293212   -5.0293212   -4.0547959  0.006588186   -5.0293212   0.97452531   439061 
 4087000   0.64937572   -5.0285252   -5.0285252   -4.0544639 0.0032320383   -5.0285252   0.97406136   439061 
 4088000   0.65051215   -5.0302857   -5.0302857   -4.0545197 -0.0011369981   -5.0302857     0.975766   439061 
 4089000   0.64952497   -5.0271491   -5.0271491   -4.0528639 0.0018221427   -5.0271491   0.97428523   439061 
 4090000   0.64858551   -5.0254336   -5.0254336   -4.0525575 0.00084128719   -5.0254336   0.97287606   439061 
 4091000   0.64865459   -5.0261106   -5.0261106   -4.0531309 0.00055616138   -5.0261106   0.97297967   439061 
 4092000   0.64927964   -5.0260674   -5.0260674   -4.0521502 0.0012220572   -5.0260674   0.97391724   439061 
 4093000   0.64971997   -5.0263897   -5.0263897    -4.051812 -0.0011115954   -5.0263897   0.97457774   439061 
 4094000   0.64981197   -5.0264349   -5.0264349   -4.0517192 0.0027345813   -5.0264349   0.97471573   439061 
 4095000    0.6494137   -5.0260558   -5.0260558   -4.0519375 0.0036984976   -5.0260558   0.97411833   439061 
 4096000   0.65008974   -5.0273216   -5.0273216   -4.0521893  0.002690322   -5.0273216   0.97513239   439061 
 4097000   0.65057668   -5.0281126   -5.0281126   -4.0522498 0.0027093311   -5.0281126    0.9758628   439061 
 4098000   0.64933682   -5.0269019   -5.0269019   -4.0528989 0.0064098162   -5.0269019   0.97400301   439061 
 4099000   0.65030452    -5.028001    -5.028001   -4.0525465 0.0013174587    -5.028001   0.97545455   439061 
 4100000   0.64981028   -5.0264697   -5.0264697   -4.0517565 0.0074657244   -5.0264697   0.97471319   439061 
 4101000   0.64975917   -5.0273358   -5.0273358   -4.0526993 0.0040730741   -5.0273358   0.97463654   439061 
 4102000   0.64942921   -5.0263351   -5.0263351   -4.0521935 0.0017158038   -5.0263351   0.97414159   439061 
 4103000   0.64960948   -5.0267796   -5.0267796   -4.0523676 0.0018876671   -5.0267796   0.97441201   439061 
 4104000    0.6492149    -5.026586    -5.026586   -4.0527658 4.858601e-05    -5.026586   0.97382013   439061 
 4105000   0.65028851    -5.028118    -5.028118   -4.0526875 -0.0018244792    -5.028118   0.97543054   439061 
 4106000   0.64932123   -5.0273891   -5.0273891   -4.0534095 -0.0014902356   -5.0273891   0.97397963   439061 
 4107000   0.64966307    -5.027146    -5.027146   -4.0526536 0.0052120052    -5.027146   0.97449238   439061 
 4108000   0.65122312    -5.030078    -5.030078   -4.0532456 0.0034707083    -5.030078   0.97683246   439061 
 4109000   0.65069426   -5.0292978   -5.0292978   -4.0532586 0.0067843499   -5.0292978   0.97603917   439061 
 4110000   0.65108702   -5.0288703   -5.0288703    -4.052242 0.0066851001   -5.0288703   0.97662831   439061 
 4111000   0.64993641    -5.026558    -5.026558   -4.0516556  0.011808586    -5.026558   0.97490239   439061 
 4112000   0.65000482   -5.0274427   -5.0274427   -4.0524377 0.0036544966   -5.0274427   0.97500501   439061 
 4113000   0.65048038   -5.0279802   -5.0279802   -4.0522618 0.00031746098   -5.0279802   0.97571835   439061 
 4114000   0.64942065   -5.0261262   -5.0261262   -4.0519974 0.0017748869   -5.0261262   0.97412876   439061 
 4115000   0.64993101   -5.0265485   -5.0265485   -4.0516542 0.00027489971   -5.0265485   0.97489429   439061 
 4116000   0.65045782   -5.0255236   -5.0255236   -4.0498391 -0.00033782554   -5.0255236   0.97568451   439061 
 4117000   0.65080145   -5.0262191   -5.0262191   -4.0500191 0.00021747856   -5.0262191   0.97619996   439061 
 4118000   0.65162753   -5.0265247   -5.0265247   -4.0490857 -0.0033238234   -5.0265247   0.97743906   439061 
 4119000   0.64970554   -5.0240879   -5.0240879   -4.0495318 0.0012686267   -5.0240879   0.97455609   439061 
 4120000   0.65001447   -5.0256399   -5.0256399   -4.0506204 -0.0034512231   -5.0256399   0.97501949   439061 
 4121000    0.6503142   -5.0250448   -5.0250448   -4.0495758 0.00079956647   -5.0250448   0.97546907   439061 
 4122000   0.65096051    -5.025953    -5.025953   -4.0495144 0.0030608707    -5.025953   0.97643854   439061 
 4123000   0.65251205   -5.0275935   -5.0275935   -4.0488277 0.0043205604   -5.0275935   0.97876584   439061 
 4124000   0.65164943   -5.0265975   -5.0265975   -4.0491256 0.0021669132   -5.0265975   0.97747192   439061 
 4125000   0.65115634    -5.026048    -5.026048   -4.0493157  0.005370908    -5.026048   0.97673229   439061 
 4126000   0.65022201   -5.0254708   -5.0254708     -4.05014 0.0030399994   -5.0254708   0.97533079   439061 
 4127000   0.65086591    -5.026044    -5.026044   -4.0497474 -0.0023213639    -5.026044   0.97629664   439061 
 4128000   0.65084433   -5.0265051   -5.0265051   -4.0502408 0.0020593728   -5.0265051   0.97626427   439061 
 4129000   0.65112376   -5.0276878   -5.0276878   -4.0510044 0.00016076882   -5.0276878   0.97668342   439061 
 4130000   0.64914686   -5.0246068   -5.0246068   -4.0508887 0.0024497605   -5.0246068   0.97371807   439061 
 4131000   0.64934041   -5.0250036   -5.0250036   -4.0509952 0.00018085876   -5.0250036    0.9740084   439061 
 4132000   0.65095285   -5.0272852   -5.0272852   -4.0508582 -0.0023633135   -5.0272852   0.97642706   439061 
 4133000    0.6501443   -5.0262149   -5.0262149   -4.0510007 0.0056403307   -5.0262149   0.97521423   439061 
 4134000   0.65011473   -5.0264145   -5.0264145   -4.0512446 0.0049245246   -5.0264145   0.97516988   439061 
 4135000   0.65124334   -5.0270486   -5.0270486   -4.0501858 -0.0002747578   -5.0270486   0.97686279   439061 
 4136000    0.6494485   -5.0257805   -5.0257805     -4.05161 0.00060752945   -5.0257805   0.97417053   439061 
 4137000   0.64988198   -5.0259479   -5.0259479   -4.0511272 0.0077807149   -5.0259479   0.97482074   439061 
 4138000   0.64959083    -5.024317    -5.024317    -4.049933  0.011440808    -5.024317   0.97438403   439061 
 4139000   0.65108427   -5.0258953   -5.0258953   -4.0492712  0.007011807   -5.0258953   0.97662417   439061 
 4140000   0.64964938   -5.0245356   -5.0245356   -4.0500638 0.0052241378   -5.0245356   0.97447184   439061 
 4141000   0.64979662   -5.0254827   -5.0254827     -4.05079 0.0010184488   -5.0254827    0.9746927   439061 
 4142000   0.64983833   -5.0245604   -5.0245604   -4.0498051 0.0024227363   -5.0245604   0.97475528   439061 
 4143000   0.65030589   -5.0257037   -5.0257037   -4.0502471 -0.0007714545   -5.0257037   0.97545661   439061 
 4144000   0.65019166   -5.0247651   -5.0247651   -4.0494799 0.00043590826   -5.0247651   0.97528527   439061 
 4145000   0.65067383   -5.0254966   -5.0254966   -4.0494881 0.0022626446   -5.0254966   0.97600852   439061 
 4146000   0.64976351   -5.0243517   -5.0243517   -4.0497087  0.002013223   -5.0243517   0.97464305   439061 
 4147000   0.65026059   -5.0249578   -5.0249578   -4.0495692 0.00020819053   -5.0249578   0.97538866   439061 
 4148000   0.65030961   -5.0238969   -5.0238969   -4.0484348 -0.00040508124   -5.0238969   0.97546219   439061 
 4149000   0.65060861   -5.0258591   -5.0258591   -4.0499484 0.00091743498   -5.0258591   0.97591069   439061 
 4150000   0.65106744   -5.0255427   -5.0255427   -4.0489438 0.0044928484   -5.0255427   0.97659893   439061 
 4151000   0.64952629   -5.0251952   -5.0251952   -4.0509079 -0.0038193031   -5.0251952   0.97428722   439061 
 4152000   0.65024487   -5.0265474   -5.0265474   -4.0511823 -0.0014810573   -5.0265474   0.97536509   439061 
 4153000   0.65011652   -5.0267698   -5.0267698   -4.0515973 0.0039913595   -5.0267698   0.97517256   439061 
 4154000   0.65137879   -5.0280962   -5.0280962   -4.0510302 0.0033692621   -5.0280962   0.97706596   439061 
 4155000   0.65064844   -5.0276788   -5.0276788   -4.0517084 0.0084213392   -5.0276788   0.97597044   439061 
 4156000   0.65020653   -5.0262065   -5.0262065   -4.0508989 0.0079685436   -5.0262065   0.97530757   439061 
 4157000   0.65010793   -5.0267999   -5.0267999   -4.0516402 0.0052165109   -5.0267999   0.97515968   439061 
 4158000   0.65016538   -5.0262725   -5.0262725   -4.0510266 0.0031470852   -5.0262725   0.97524585   439061 
 4159000   0.65025866    -5.026864    -5.026864   -4.0514782    0.0045093    -5.026864   0.97538577   439061 
 4160000   0.65017251   -5.0259895   -5.0259895   -4.0507329 0.0067531978   -5.0259895   0.97525655   439061 
 4161000   0.64971457   -5.0260496   -5.0260496     -4.05148  0.004743541   -5.0260496   0.97456964   439061 
 4162000   0.64988376   -5.0269662   -5.0269662   -4.0521427 -0.0018887407   -5.0269662   0.97482343   439061 
 4163000   0.64907893   -5.0249757   -5.0249757   -4.0513595 0.00073212417   -5.0249757   0.97361617   439061 
 4164000   0.64967594   -5.0265377   -5.0265377    -4.052026 -0.00066452193   -5.0265377   0.97451169   439061 
 4165000   0.64965705   -5.0261597   -5.0261597   -4.0516763 5.9442752e-06   -5.0261597   0.97448336   439061 
 4166000   0.64999356    -5.027112    -5.027112   -4.0521238 0.0014984638    -5.027112   0.97498812   439061 
 4167000   0.64881129   -5.0252022   -5.0252022   -4.0519875 0.0069109227   -5.0252022   0.97321471   439061 
 4168000   0.65080052   -5.0280376   -5.0280376   -4.0518391 0.0066501216   -5.0280376   0.97619855   439061 
 4169000   0.65080084   -5.0277923   -5.0277923   -4.0515932 0.0088177487   -5.0277923   0.97619904   439061 
 4170000   0.65033808   -5.0268242   -5.0268242   -4.0513193 0.0073929778   -5.0268242   0.97550489   439061 
 4171000   0.65002041   -5.0271503   -5.0271503   -4.0521219 0.0041204617   -5.0271503   0.97502839   439061 
 4172000   0.64986036   -5.0274463   -5.0274463    -4.052658 0.0017529626   -5.0274463   0.97478832   439061 
 4173000   0.64874055   -5.0254541   -5.0254541   -4.0523455 0.0025750244   -5.0254541   0.97310861   439061 
 4174000   0.64901135   -5.0260265   -5.0260265   -4.0525117 0.0014397567   -5.0260265    0.9735148   439061 
 4175000    0.6499786   -5.0268684   -5.0268684   -4.0519028   0.00229745   -5.0268684   0.97496569   439061 
 4176000   0.64909048   -5.0263805   -5.0263805    -4.052747 -0.0046800341   -5.0263805    0.9736335   439061 
 4177000   0.64968971   -5.0276838   -5.0276838   -4.0531515 -0.0013781315   -5.0276838   0.97453235   439061 
 4178000   0.64987252   -5.0266181   -5.0266181   -4.0518116 0.0062302981   -5.0266181   0.97480656   439061 
 4179000   0.65071718   -5.0275304   -5.0275304   -4.0514569 0.0035595211   -5.0275304   0.97607354   439061 
 4180000   0.65090361   -5.0272979   -5.0272979   -4.0509447 0.0043187212   -5.0272979    0.9763532   439061 
 4181000   0.64986734   -5.0269631   -5.0269631   -4.0521643 0.0049798809   -5.0269631   0.97479879   439061 
 4182000   0.64978711   -5.0264734   -5.0264734    -4.051795 0.0033369038   -5.0264734   0.97467844   439061 
 4183000   0.65043021   -5.0266331   -5.0266331     -4.05099 0.0020766524   -5.0266331   0.97564309   439061 
 4184000   0.65115388   -5.0277486   -5.0277486     -4.05102 0.0011995113   -5.0277486    0.9767286   439061 
 4185000   0.65015584   -5.0272314   -5.0272314   -4.0519999  0.001633195   -5.0272314   0.97523154   439061 
 4186000   0.64824828   -5.0245906   -5.0245906   -4.0522204 0.0013998153   -5.0245906   0.97237021   439061 
 4187000   0.64927067   -5.0262222   -5.0262222   -4.0523184 -0.0031991484   -5.0262222   0.97390379   439061 
 4188000    0.6491556   -5.0258802   -5.0258802    -4.052149 0.0040945327   -5.0258802   0.97373118   439061 
 4189000   0.64936975   -5.0267516   -5.0267516   -4.0526991 0.0039321777   -5.0267516   0.97405241   439061 
 4190000   0.64953539   -5.0263072   -5.0263072   -4.0520063  0.006075235   -5.0263072   0.97430087   439061 
 4191000   0.65005593   -5.0274218   -5.0274218   -4.0523401  0.004493524   -5.0274218   0.97508168   439061 
 4192000   0.65064005   -5.0283053   -5.0283053   -4.0523474 0.0030402926   -5.0283053   0.97595785   439061 
 4193000   0.65071693   -5.0291271   -5.0291271   -4.0530539   0.00178871   -5.0291271   0.97607317   439061 
 4194000   0.65070826   -5.0301732   -5.0301732    -4.054113 0.0026218443   -5.0301732   0.97606017   439061 
 4195000    0.6488856   -5.0272011   -5.0272011   -4.0538749 0.0036272013   -5.0272011   0.97332618   439061 
 4196000    0.6501331   -5.0288406   -5.0288406   -4.0536432 0.0034868916   -5.0288406   0.97519742   439061 
 4197000   0.64966126   -5.0280261   -5.0280261   -4.0535364 0.0043002404   -5.0280261   0.97448968   439061 
 4198000   0.64950381    -5.027125    -5.027125   -4.0528715 0.0035536927    -5.027125    0.9742535   439061 
 4199000   0.65057622   -5.0283067   -5.0283067   -4.0524446 0.0018737181   -5.0283067   0.97586211   439061 
 4200000   0.64959041    -5.027501    -5.027501   -4.0531176 0.00042904377    -5.027501   0.97438339   439061 
 4201000   0.64897585   -5.0265156   -5.0265156    -4.053054 0.0041085652   -5.0265156   0.97346156   439061 
 4202000   0.65037954   -5.0273829   -5.0273829   -4.0518158 0.0017662279   -5.0273829   0.97556709   439061 
 4203000   0.64984532   -5.0265312   -5.0265312   -4.0517654 0.0016474324   -5.0265312   0.97476576   439061 
 4204000   0.64994397   -5.0262748   -5.0262748   -4.0513611 -0.0014026965   -5.0262748   0.97491373   439061 
 4205000   0.65073695   -5.0273147   -5.0273147   -4.0512115 0.0036677987   -5.0273147    0.9761032   439061 
 4206000   0.64896763   -5.0251629   -5.0251629   -4.0517137 0.0026039308   -5.0251629   0.97344924   439061 
 4207000   0.64928745   -5.0256462   -5.0256462   -4.0517173 0.0013535312   -5.0256462   0.97392895   439061 
 4208000   0.65069722   -5.0264287   -5.0264287   -4.0503851 -0.0020235333   -5.0264287    0.9760436   439061 
 4209000   0.65134751    -5.028359    -5.028359     -4.05134 -0.00087543517    -5.028359   0.97701903   439061 
 4210000   0.64951503   -5.0259016   -5.0259016   -4.0516313 0.0050300283   -5.0259016   0.97427033   439061 
 4211000   0.65082117   -5.0272028   -5.0272028   -4.0509732 0.0046319213   -5.0272028   0.97622953   439061 
 4212000   0.65069105    -5.027296    -5.027296   -4.0512616 0.0057012364    -5.027296   0.97603435   439061 
 4213000   0.65028174    -5.026795    -5.026795   -4.0513747 0.0045118185    -5.026795   0.97542039   439061 
 4214000    0.6504741   -5.0267001   -5.0267001   -4.0509912 0.0096787129   -5.0267001   0.97570893   439061 
 4215000   0.65006268   -5.0272136   -5.0272136   -4.0521218 0.0054824088   -5.0272136    0.9750918   439061 
 4216000   0.64965977   -5.0264867   -5.0264867   -4.0519993 0.00077874766   -5.0264867   0.97448743   439061 
 4217000   0.64957269   -5.0261823   -5.0261823   -4.0518255 0.0061395484   -5.0261823   0.97435681   439061 
 4218000   0.64998235   -5.0280012   -5.0280012   -4.0530299 -0.0014318352   -5.0280012    0.9749713   439061 
 4219000   0.64941684   -5.0261727   -5.0261727   -4.0520497 0.0005732032   -5.0261727   0.97412305   439061 
 4220000   0.65042958   -5.0278995   -5.0278995   -4.0522573  0.000832982   -5.0278995   0.97564215   439061 
 4221000    0.6495342   -5.0266932   -5.0266932   -4.0523942 -0.0025974964   -5.0266932   0.97429908   439061 
 4222000   0.65134216   -5.0279264   -5.0279264   -4.0509154 0.0033593996   -5.0279264   0.97701101   439061 
 4223000   0.65012347   -5.0259919   -5.0259919   -4.0508089 0.0056686214   -5.0259919   0.97518298   439061 
 4224000     0.650663   -5.0268146   -5.0268146   -4.0508223 0.0077093357   -5.0268146   0.97599227   439061 
 4225000   0.65155902   -5.0283655   -5.0283655   -4.0510292 0.0046267581   -5.0283655    0.9773363   439061 
 4226000   0.65023125   -5.0262402   -5.0262402   -4.0508956 0.0061160894   -5.0262402   0.97534466   439061 
 4227000   0.65079451   -5.0277724   -5.0277724   -4.0515828 -0.0020962112   -5.0277724   0.97618955   439061 
 4228000   0.64954521   -5.0253346   -5.0253346    -4.051019 -0.0016149769   -5.0253346    0.9743156   439061 
 4229000   0.65029264   -5.0244853   -5.0244853   -4.0490486 0.0026454362   -5.0244853   0.97543673   439061 
 4230000   0.65088076   -5.0246678   -5.0246678   -4.0483489  0.003623055   -5.0246678   0.97631891   439061 
 4231000   0.65146567   -5.0256408   -5.0256408   -4.0484445 0.0013652389   -5.0256408   0.97719628   439061 
 4232000   0.64978426   -5.0239541   -5.0239541     -4.04928 0.0010428372   -5.0239541   0.97467416   439061 
 4233000   0.65020054   -5.0249751   -5.0249751   -4.0496765 -0.0010953377   -5.0249751   0.97529859   439061 
 4234000   0.65063888   -5.0253707   -5.0253707   -4.0494146 0.0018343637   -5.0253707    0.9759561   439061 
 4235000   0.65031387   -5.0246586   -5.0246586     -4.04919  0.004714171   -5.0246586   0.97546858   439061 
 4236000   0.64987355   -5.0233502   -5.0233502   -4.0485421 0.0087188818   -5.0233502    0.9748081   439061 
 4237000   0.65025371   -5.0246338   -5.0246338   -4.0492554 0.0053913331   -5.0246338   0.97537835   439061 
 4238000   0.65019413   -5.0246817   -5.0246817   -4.0493927  0.005437265   -5.0246817   0.97528898   439061 
 4239000   0.64985331   -5.0261826   -5.0261826   -4.0514049 0.00053712049   -5.0261826   0.97477774   439061 
 4240000   0.65011191   -5.0261846   -5.0261846    -4.051019 0.00074200063   -5.0261846   0.97516564   439061 
 4241000   0.65132003   -5.0272471   -5.0272471   -4.0502693 -4.9693437e-05   -5.0272471   0.97697782   439061 
 4242000   0.64981781   -5.0247823   -5.0247823   -4.0500578 0.0090865864   -5.0247823   0.97472449   439061 
 4243000    0.6514237    -5.027345    -5.027345   -4.0502117 0.00049296532    -5.027345   0.97713332   439061 
 4244000   0.65115142   -5.0263443   -5.0263443   -4.0496194 0.0050376678   -5.0263443   0.97672491   439061 
 4245000   0.65022487   -5.0256592   -5.0256592   -4.0503241 0.00099228793   -5.0256592   0.97533508   439061 
 4246000   0.65010018   -5.0258936   -5.0258936   -4.0507456 0.0024774187   -5.0258936   0.97514805   439061 
 4247000   0.64929323   -5.0255642   -5.0255642   -4.0516265 -0.0019479577   -5.0255642   0.97393763   439061 
 4248000   0.64959793    -5.025283    -5.025283   -4.0508883 0.0033335681    -5.025283   0.97439467   439061 
 4249000    0.6498484   -5.0258741   -5.0258741   -4.0511037 0.0018128122   -5.0258741   0.97477038   439061 
 4250000   0.65163471   -5.0271565   -5.0271565   -4.0497067 0.0054492867   -5.0271565   0.97744984   439061 
 4251000   0.65141114   -5.0272444   -5.0272444   -4.0501299 0.0027759159   -5.0272444   0.97711448   439061 
 4252000   0.65007069   -5.0261608   -5.0261608    -4.051057 -0.001764219   -5.0261608   0.97510381   439061 
 4253000   0.65031646   -5.0265784   -5.0265784   -4.0511059 0.0011013028   -5.0265784   0.97547247   439061 
 4254000   0.64989234    -5.025877    -5.025877   -4.0510407 0.0062970154    -5.025877   0.97483629   439061 
 4255000   0.65054151   -5.0264443   -5.0264443   -4.0506343 0.0058989767   -5.0264443   0.97581004   439061 
 4256000   0.65048626   -5.0264346   -5.0264346   -4.0507074 0.0028274646   -5.0264346   0.97572717   439061 
 4257000   0.64995478   -5.0257809   -5.0257809   -4.0508509 0.0031011648   -5.0257809   0.97492995   439061 
 4258000   0.65064165     -5.02618     -5.02618   -4.0502198 0.0011770546     -5.02618   0.97596025   439061 
 4259000   0.65056376    -5.026491    -5.026491   -4.0506476 0.0030446759    -5.026491   0.97584342   439061 
 4260000   0.65044306   -5.0257183   -5.0257183    -4.050056  0.001686512   -5.0257183   0.97566236   439061 
 4261000   0.64940952   -5.0254478   -5.0254478   -4.0513358 0.0013782742   -5.0254478   0.97411206   439061 
 4262000   0.64921908   -5.0246879   -5.0246879   -4.0508615 0.0057153432   -5.0246879   0.97382641   439061 
 4263000   0.65065634   -5.0264576   -5.0264576   -4.0504753 0.0026629003   -5.0264576   0.97598228   439061 
 4264000   0.65059266   -5.0264975   -5.0264975   -4.0506108 0.00080065659   -5.0264975   0.97588677   439061 
 4265000   0.65082483   -5.0270083   -5.0270083   -4.0507733 0.0026369486   -5.0270083   0.97623503   439061 
 4266000   0.64943401   -5.0252834   -5.0252834   -4.0511346 0.0005782723   -5.0252834   0.97414879   439061 
 4267000   0.65096386   -5.0280363   -5.0280363   -4.0515927 -5.6464873e-05   -5.0280363   0.97644356   439061 
 4268000   0.65089671   -5.0277865   -5.0277865   -4.0514437 0.0039807784   -5.0277865   0.97634284   439061 
 4269000   0.65049658   -5.0268884   -5.0268884   -4.0511457  0.004905576   -5.0268884   0.97574265   439061 
 4270000   0.65129274   -5.0267437   -5.0267437   -4.0498069 -0.00013166892   -5.0267437   0.97693689   439061 
 4271000   0.65196213   -5.0265773   -5.0265773   -4.0486363 0.0011287797   -5.0265773   0.97794096   439061 
 4272000   0.65067894   -5.0250037   -5.0250037   -4.0489875 0.0050323492   -5.0250037   0.97601619   439061 
 4273000   0.65135124   -5.0262323   -5.0262323   -4.0492077 0.0014450694   -5.0262323   0.97702464   439061 
 4274000   0.65041806   -5.0242153   -5.0242153   -4.0485904 0.0033236427   -5.0242153   0.97562486   439061 
 4275000   0.64985983   -5.0229676   -5.0229676     -4.04818 0.0013340626   -5.0229676   0.97478752   439061 
 4276000   0.65100245    -5.024529    -5.024529   -4.0480275 -0.0024750026    -5.024529   0.97650145   439061 
 4277000   0.65129432   -5.0236876   -5.0236876   -4.0467483 0.0022585044   -5.0236876   0.97693925   439061 
 4278000      0.65052   -5.0222077   -5.0222077   -4.0464299 0.0015185936   -5.0222077   0.97577778   439061 
 4279000   0.65128212   -5.0226235   -5.0226235   -4.0457026 -0.00048876903   -5.0226235   0.97692095   439061 
 4280000   0.64961775   -5.0209898   -5.0209898   -4.0465654 -0.0010191219   -5.0209898    0.9744244   439061 
 4281000    0.6519083   -5.0241952   -5.0241952    -4.046335 -0.0059699532   -5.0241952   0.97786023   439061 
 4282000    0.6507247   -5.0235153   -5.0235153   -4.0474305 -0.00083390051   -5.0235153   0.97608483   439061 
 4283000   0.65022849   -5.0231973   -5.0231973   -4.0478568 0.00011770087   -5.0231973   0.97534051   439061 
 4284000   0.64985871   -5.0225619   -5.0225619    -4.047776 0.0032919836   -5.0225619   0.97478584   439061 
 4285000   0.65068644   -5.0246731   -5.0246731   -4.0486457 0.0049399249   -5.0246731   0.97602743   439061 
 4286000     0.651268   -5.0258806   -5.0258806   -4.0489809 0.0046006474   -5.0258806   0.97689978   439061 
 4287000   0.65076281   -5.0249276   -5.0249276   -4.0487856 0.0057647059   -5.0249276   0.97614198   439061 
 4288000   0.65244002   -5.0271937   -5.0271937   -4.0485359 0.0018750771   -5.0271937    0.9786578   439061 
 4289000   0.64975084   -5.0236662   -5.0236662   -4.0490422 0.0094741692   -5.0236662   0.97462404   439061 
 4290000   0.65065747   -5.0256164   -5.0256164   -4.0496325 -0.0012058736   -5.0256164   0.97598398   439061 
 4291000   0.65080874   -5.0258088   -5.0258088   -4.0495979  0.001667743   -5.0258088   0.97621089   439061 
 4292000   0.65019245   -5.0242502   -5.0242502   -4.0489638 0.0021041705   -5.0242502   0.97528645   439061 
 4293000   0.64961821   -5.0241421   -5.0241421    -4.049717 0.0016104314   -5.0241421    0.9744251   439061 
 4294000   0.64972875   -5.0241357   -5.0241357   -4.0495448 -0.0011036324   -5.0241357   0.97459091   439061 
 4295000    0.6495225   -5.0243014   -5.0243014   -4.0500199 -0.0035742718   -5.0243014   0.97428154   439061 
 4296000   0.65141184   -5.0261891   -5.0261891   -4.0490735 -0.00082243414   -5.0261891   0.97711554   439061 
 4297000   0.65126637   -5.0262019   -5.0262019   -4.0493046 0.0010331973   -5.0262019   0.97689732   439061 
 4298000   0.65131734   -5.0258139   -5.0258139   -4.0488401 0.0032729465   -5.0258139   0.97697379   439061 
 4299000   0.65015524   -5.0250352   -5.0250352   -4.0498045   0.00360309   -5.0250352   0.97523064   439061 
 4300000   0.64983333   -5.0242768   -5.0242768   -4.0495291  0.008042814   -5.0242768   0.97474777   439061 
 4301000   0.65092819   -5.0265503   -5.0265503   -4.0501602 0.0054097133   -5.0265503   0.97639007   439061 
 4302000   0.65105297   -5.0262965   -5.0262965   -4.0497192 0.0037414198   -5.0262965   0.97657723   439061 
 4303000   0.65049159    -5.024736    -5.024736   -4.0490008 0.0016333135    -5.024736   0.97573517   439061 
 4304000   0.65048615    -5.025761    -5.025761    -4.050034 0.0014200756    -5.025761   0.97572701   439061 
 4305000   0.65020933   -5.0242942   -5.0242942   -4.0489825 0.0064992732   -5.0242942   0.97531178   439061 
 4306000   0.65145873   -5.0249179   -5.0249179    -4.047732 0.0024967199   -5.0249179   0.97718588   439061 
 4307000   0.65030203   -5.0231112   -5.0231112   -4.0476604 0.0015002009   -5.0231112   0.97545082   439061 
 4308000   0.65042842   -5.0231179   -5.0231179   -4.0474775 0.0041212319   -5.0231179   0.97564041   439061 
 4309000   0.65040972   -5.0232175   -5.0232175   -4.0476052  0.002428491   -5.0232175   0.97561236   439061 
 4310000   0.65100368    -5.023835    -5.023835   -4.0473317 0.00092674757    -5.023835   0.97650329   439061 
 4311000   0.64936869   -5.0223576   -5.0223576   -4.0483068 0.0019787295   -5.0223576   0.97405082   439061 
 4312000   0.64964512   -5.0231391   -5.0231391   -4.0486737 0.0018085061   -5.0231391   0.97446546   439061 
 4313000   0.65091512   -5.0254826   -5.0254826   -4.0491121 -0.00017755271   -5.0254826   0.97637045   439061 
 4314000   0.65126568   -5.0264953   -5.0264953    -4.049599 0.0044546687   -5.0264953    0.9768963   439061 
 4315000    0.6507278   -5.0260781   -5.0260781   -4.0499887 0.0029107624   -5.0260781   0.97608947   439061 
 4316000   0.65019551   -5.0258461   -5.0258461    -4.050555  0.003750542   -5.0258461   0.97529104   439061 
 4317000   0.64993499   -5.0263025   -5.0263025   -4.0514022 0.0057439854   -5.0263025   0.97490027   439061 
 4318000   0.65002154   -5.0260874   -5.0260874   -4.0510573 0.0018802264   -5.0260874   0.97503009   439061 
 4319000   0.65027671   -5.0266242   -5.0266242   -4.0512114 0.0062780425   -5.0266242   0.97541285   439061 
 4320000   0.65067916   -5.0265638   -5.0265638   -4.0505473 0.0045391452   -5.0265638   0.97601652   439061 
 4321000   0.64986953   -5.0255758   -5.0255758   -4.0507737 0.0047578169   -5.0255758   0.97480208   439061 
 4322000   0.65050358   -5.0259394   -5.0259394   -4.0501862 0.0038161206   -5.0259394   0.97575314   439061 
 4323000   0.65097173   -5.0274678   -5.0274678   -4.0510125 0.0018822053   -5.0274678   0.97645537   439061 
 4324000   0.64972069   -5.0256896   -5.0256896   -4.0511107 -0.0012863481   -5.0256896   0.97457881   439061 
 4325000   0.65025228   -5.0276278   -5.0276278   -4.0522516 -0.0053621949   -5.0276278    0.9753762   439061 
 4326000   0.65005787   -5.0262852   -5.0262852   -4.0512006 0.00065006028   -5.0262852   0.97508458   439061 
 4327000   0.65059499   -5.0273204   -5.0273204   -4.0514301 0.0007458847   -5.0273204   0.97589027   439061 
 4328000   0.65128291   -5.0274592   -5.0274592    -4.050537 0.0027051748   -5.0274592   0.97692213   439061 
 4329000   0.65124499   -5.0267906   -5.0267906   -4.0499254 0.0057157869   -5.0267906   0.97686526   439061 
 4330000   0.65027017    -5.025664    -5.025664    -4.050261 0.0080141744    -5.025664   0.97540303   439061 
 4331000   0.65022715   -5.0257399   -5.0257399   -4.0504014 0.0063550076   -5.0257399    0.9753385   439061 
 4332000   0.65086533   -5.0255013   -5.0255013   -4.0492055 0.0037908032   -5.0255013   0.97629578   439061 
 4333000   0.65011489   -5.0247145   -5.0247145   -4.0495444 -0.00012174097   -5.0247145   0.97517011   439061 
 4334000   0.65190899     -5.02712     -5.02712   -4.0492588 -0.0066344305     -5.02712   0.97786125   439061 
 4335000   0.64936503   -5.0230545   -5.0230545   -4.0490092  0.002104315   -5.0230545   0.97404532   439061 
 4336000   0.64894213   -5.0233957   -5.0233957   -4.0499847 -0.0010656869   -5.0233957   0.97341098   439061 
 4337000    0.6510702   -5.0261877   -5.0261877   -4.0495846 -0.0017879025   -5.0261877   0.97660307   439061 
 4338000   0.64951935   -5.0225689   -5.0225689   -4.0482921 0.0068527708   -5.0225689   0.97427681   439061 
 4339000   0.65061536   -5.0228939   -5.0228939   -4.0469731 0.0083381744   -5.0228939   0.97592082   439061 
 4340000   0.65149533   -5.0249926   -5.0249926   -4.0477518  0.010431226   -5.0249926   0.97724076   439061 
 4341000   0.65220049   -5.0251023   -5.0251023   -4.0468038 0.0066687628   -5.0251023    0.9782985   439061 
 4342000   0.65126287   -5.0250138   -5.0250138   -4.0481217 0.0047788237   -5.0250138   0.97689208   439061 
 4343000   0.65056947   -5.0241024   -5.0241024   -4.0482504 0.0040731096   -5.0241024   0.97585199   439061 
 4344000   0.65017101   -5.0239621   -5.0239621   -4.0487078 0.0014578299   -5.0239621    0.9752543   439061 
 4345000   0.65081679   -5.0236311   -5.0236311   -4.0474082 0.0010293893   -5.0236311   0.97622296   439061 
 4346000   0.65064825   -5.0235855   -5.0235855   -4.0476154 -0.0035866101   -5.0235855   0.97597015   439061 
 4347000    0.6508618   -5.0229333   -5.0229333   -4.0466428 -0.0016571016   -5.0229333   0.97629048   439061 
 4348000   0.65125291   -5.0240121   -5.0240121   -4.0471349 -0.00022579621   -5.0240121   0.97687715   439061 
 4349000   0.65003412   -5.0225844   -5.0225844   -4.0475354 0.0021030019   -5.0225844   0.97504896   439061 
 4350000   0.65039556   -5.0231329   -5.0231329   -4.0475418 0.00079591225   -5.0231329   0.97559111   439061 
 4351000   0.65087101   -5.0239692   -5.0239692   -4.0476649 0.0017954482   -5.0239692   0.97630429   439061 
 4352000   0.65047188   -5.0243686   -5.0243686    -4.048663 0.0071210437   -5.0243686   0.97570559   439061 
 4353000    0.6521301   -5.0261979   -5.0261979    -4.048005 0.00076378346   -5.0261979   0.97819292   439061 
 4354000   0.65171196   -5.0264974   -5.0264974   -4.0489317 -0.0016609453   -5.0264974   0.97756572   439061 
 4355000   0.65095098   -5.0260947   -5.0260947   -4.0496704 0.00093140968   -5.0260947   0.97642425   439061 
 4356000   0.65052481   -5.0241865   -5.0241865   -4.0484015 0.0058230212   -5.0241865     0.975785   439061 
 4357000   0.65207382   -5.0267977   -5.0267977   -4.0486892  0.006031446   -5.0267977   0.97810851   439061 
 4358000   0.65101971   -5.0255762   -5.0255762   -4.0490489 0.0049576301   -5.0255762   0.97652735   439061 
 4359000   0.65035952   -5.0251644   -5.0251644   -4.0496274 0.0042955978   -5.0251644   0.97553706   439061 
 4360000   0.65059873     -5.02561     -5.02561   -4.0497141 0.00074105133     -5.02561   0.97589587   439061 
 4361000   0.64999595   -5.0248653   -5.0248653   -4.0498736 0.00036109529   -5.0248653   0.97499171   439061 
 4362000   0.64981783   -5.0256724   -5.0256724   -4.0509479 0.0049467837   -5.0256724   0.97472453   439061 
 4363000   0.64932274   -5.0252576   -5.0252576   -4.0512757 0.00025044087   -5.0252576   0.97398189   439061 
 4364000   0.65081392   -5.0265321   -5.0265321   -4.0503134 0.0014668299   -5.0265321   0.97621865   439061 
 4365000   0.64894943   -5.0251184   -5.0251184   -4.0516965 0.0052612659   -5.0251184   0.97342192   439061 
 4366000   0.64991777    -5.026707    -5.026707   -4.0518325 0.0043142835    -5.026707   0.97487443   439061 
 4367000    0.6495921   -5.0257102   -5.0257102   -4.0513242  0.006856078   -5.0257102   0.97438593   439061 
 4368000   0.65095142   -5.0267213   -5.0267213   -4.0502964 0.0022387236   -5.0267213   0.97642491   439061 
 4369000   0.65128995   -5.0274115   -5.0274115   -4.0504788 0.0032816231   -5.0274115    0.9769327   439061 
 4370000   0.65089085   -5.0261746   -5.0261746   -4.0498406 0.0054597783   -5.0261746   0.97633405   439061 
 4371000   0.65039531   -5.0247765   -5.0247765   -4.0491857 0.0039320236   -5.0247765   0.97559074   439061 
 4372000   0.65059157   -5.0241692   -5.0241692   -4.0482841  0.003658174   -5.0241692   0.97588514   439061 
 4373000   0.65132457   -5.0258256   -5.0258256    -4.048841 0.0015308078   -5.0258256   0.97698463   439061 
 4374000   0.64968909   -5.0227878   -5.0227878   -4.0482564 0.00050766065   -5.0227878   0.97453141   439061 
 4375000   0.65013691   -5.0233593   -5.0233593   -4.0481562 -0.0028472506   -5.0233593   0.97520315   439061 
 4376000   0.65019387      -5.0243      -5.0243   -4.0490114 -0.0054311972      -5.0243   0.97528859   439061 
 4377000   0.65016753   -5.0245291   -5.0245291     -4.04928 -0.0049384547   -5.0245291   0.97524908   439061 
 4378000   0.65026861   -5.0243694   -5.0243694   -4.0489687 -6.4002201e-05   -5.0243694    0.9754007   439061 
 4379000   0.65153353   -5.0253886   -5.0253886   -4.0480905 -9.6489705e-05   -5.0253886   0.97729806   439061 
 4380000    0.6502114   -5.0240182   -5.0240182   -4.0487033 0.0057132298   -5.0240182   0.97531488   439061 
 4381000   0.65111373   -5.0262427   -5.0262427   -4.0495743 0.0044789249   -5.0262427   0.97666836   439061 
 4382000   0.65101814   -5.0252614   -5.0252614   -4.0487365  0.005566547   -5.0252614   0.97652499   439061 
 4383000   0.65121754   -5.0258033   -5.0258033   -4.0489792 0.0026328026   -5.0258033   0.97682408   439061 
 4384000   0.65060618   -5.0255238   -5.0255238   -4.0496167 0.0042628979   -5.0255238   0.97590705   439061 
 4385000   0.65116262    -5.025603    -5.025603   -4.0488613 0.0022826047    -5.025603    0.9767417   439061 
 4386000    0.6506613   -5.0258003   -5.0258003   -4.0498106 0.0039528972   -5.0258003   0.97598972   439061 
 4387000   0.65083829   -5.0249899   -5.0249899   -4.0487347 0.0029043694   -5.0249899   0.97625521   439061 
 4388000   0.65098002   -5.0253889   -5.0253889   -4.0489211 -0.0027984028   -5.0253889    0.9764678   439061 
 4389000   0.65115604   -5.0255731   -5.0255731   -4.0488413 -0.0028163827   -5.0255731   0.97673184   439061 
 4390000   0.65068424   -5.0250987   -5.0250987   -4.0490746 0.00085412042   -5.0250987   0.97602414   439061 
 4391000   0.64983486   -5.0241455   -5.0241455   -4.0493954 0.00018967278   -5.0241455   0.97475007   439061 
 4392000   0.65044294   -5.0246669   -5.0246669   -4.0490047 0.00089440929   -5.0246669   0.97566218   439061 
 4393000   0.64965678   -5.0234829   -5.0234829   -4.0489999 0.0037052152   -5.0234829   0.97448295   439061 
 4394000   0.65124013   -5.0254387   -5.0254387   -4.0485808 0.0048507584   -5.0254387   0.97685797   439061 
 4395000   0.65141233   -5.0260307   -5.0260307   -4.0489145 0.0091912782   -5.0260307   0.97711626   439061 
 4396000   0.65179641   -5.0257939   -5.0257939   -4.0481015 0.0054192456   -5.0257939   0.97769238   439061 
 4397000   0.65159741   -5.0254522   -5.0254522   -4.0480583 0.0048261378   -5.0254522   0.97739388   439061 
 4398000   0.65101193   -5.0250565   -5.0250565   -4.0485408 0.0094038171   -5.0250565   0.97651566   439061 
 4399000   0.65069765   -5.0250822   -5.0250822   -4.0490379 0.0056918482   -5.0250822   0.97604425   439061 
 4400000   0.65028572   -5.0247985   -5.0247985   -4.0493721  0.002275158   -5.0247985   0.97542636   439061 
 4401000   0.64953292   -5.0238107   -5.0238107   -4.0495135 0.0017189924   -5.0238107   0.97429717   439061 
 4402000   0.65056994   -5.0230401   -5.0230401   -4.0471874 -0.00061667163   -5.0230401   0.97585269   439061 
 4403000   0.65072997   -5.0228985   -5.0228985   -4.0468058 -0.0020273576   -5.0228985   0.97609274   439061 
 4404000   0.65066314   -5.0235466   -5.0235466   -4.0475541 0.00093202024   -5.0235466   0.97599248   439061 
 4405000   0.64997394    -5.022179    -5.022179   -4.0472203 0.0065397961    -5.022179   0.97495869   439061 
 4406000   0.65174309   -5.0250911   -5.0250911   -4.0474787 -0.0021722953   -5.0250911   0.97761241   439061 
 4407000   0.65028815   -5.0234462   -5.0234462   -4.0480162 -0.0024266774   -5.0234462   0.97543001   439061 
 4408000   0.65126312   -5.0244321   -5.0244321   -4.0475396 0.0025483679   -5.0244321   0.97689246   439061 
 4409000   0.65161136   -5.0251765   -5.0251765   -4.0477617  0.006652681   -5.0251765   0.97741482   439061 
 4410000   0.65204826   -5.0250326   -5.0250326   -4.0469624 0.0026886444   -5.0250326   0.97807016   439061 
 4411000   0.65167618   -5.0260476   -5.0260476   -4.0485355 0.0015280579   -5.0260476   0.97751205   439061 
 4412000   0.65121488   -5.0256813   -5.0256813   -4.0488612 0.0013578797   -5.0256813    0.9768201   439061 
 4413000   0.64956573    -5.023256    -5.023256   -4.0489096 0.0066697085    -5.023256   0.97434638   439061 
 4414000   0.65031781   -5.0242008   -5.0242008   -4.0487263 0.0033334031   -5.0242008   0.97547449   439061 
 4415000    0.6503006   -5.0244178   -5.0244178   -4.0489691 0.0022947715   -5.0244178   0.97544867   439061 
 4416000   0.65149836   -5.0265354   -5.0265354   -4.0492901 -0.0017167231   -5.0265354   0.97724532   439061 
 4417000    0.6514955    -5.025333    -5.025333   -4.0480919 0.0014786619    -5.025333   0.97724103   439061 
 4418000   0.65056122   -5.0252844   -5.0252844   -4.0494448 -0.00082538385   -5.0252844    0.9758396   439061 
 4419000   0.65063383   -5.0237509   -5.0237509   -4.0478024  0.002393123   -5.0237509   0.97594853   439061 
 4420000   0.64953551   -5.0220751   -5.0220751   -4.0477741 0.0067506549   -5.0220751   0.97430104   439061 
 4421000   0.65054927    -5.024142    -5.024142   -4.0483203 0.0035558867    -5.024142   0.97582168   439061 
 4422000   0.65101686   -5.0241842   -5.0241842   -4.0476611 0.0031748785   -5.0241842   0.97652306   439061 
 4423000   0.65088036   -5.0242482   -5.0242482   -4.0479299 0.0031960745   -5.0242482   0.97631831   439061 
 4424000   0.65112126   -5.0249877   -5.0249877    -4.048308 0.0015149917   -5.0249877   0.97667966   439061 
 4425000    0.6499859   -5.0237966   -5.0237966     -4.04882 0.00079082649   -5.0237966   0.97497663   439061 
 4426000   0.65014164   -5.0251255   -5.0251255   -4.0499152 0.0017086736   -5.0251255   0.97521024   439061 
 4427000   0.64947535   -5.0235791   -5.0235791   -4.0493683 0.0047495727   -5.0235791   0.97421081   439061 
 4428000   0.65058956   -5.0243625   -5.0243625   -4.0484804 0.0051292982   -5.0243625   0.97588212   439061 
 4429000   0.65075928   -5.0239668   -5.0239668   -4.0478301 0.0064194027   -5.0239668    0.9761367   439061 
 4430000   0.65223792   -5.0268549   -5.0268549   -4.0485003 0.0014804907   -5.0268549   0.97835466   439061 
 4431000   0.65050327    -5.025586    -5.025586   -4.0498333 0.0029192896    -5.025586   0.97575268   439061 
 4432000   0.65022717   -5.0238318   -5.0238318   -4.0484933 0.0082290166   -5.0238318   0.97533853   439061 
 4433000   0.65114639   -5.0246053   -5.0246053    -4.047888 0.0080180133   -5.0246053   0.97671736   439061 
 4434000   0.65073949   -5.0241441   -5.0241441   -4.0480371 0.0030572868   -5.0241441   0.97610701   439061 
 4435000   0.64946608   -5.0229825   -5.0229825   -4.0487856 0.0062614036   -5.0229825   0.97419691   439061 
 4436000   0.65056522   -5.0243932   -5.0243932   -4.0485476 0.0013752376   -5.0243932   0.97584561   439061 
 4437000   0.65016254   -5.0230972   -5.0230972   -4.0478556 0.0020786748   -5.0230972   0.97524159   439061 
 4438000   0.65048191   -5.0235683   -5.0235683   -4.0478476 -0.00076015512   -5.0235683   0.97572065   439061 
 4439000   0.65079843    -5.024451    -5.024451   -4.0482556 0.00042063856    -5.024451   0.97619543   439061 
 4440000   0.65127592   -5.0245285   -5.0245285   -4.0476168 -0.00030547311   -5.0245285   0.97691166   439061 
 4441000   0.65055361   -5.0242048   -5.0242048   -4.0483766 0.0007672528   -5.0242048    0.9758282   439061 
 4442000   0.65146109   -5.0255572   -5.0255572   -4.0483678 -0.0023663824   -5.0255572   0.97718941   439061 
 4443000   0.64980508   -5.0232234   -5.0232234    -4.048518 0.0033024415   -5.0232234    0.9747054   439061 
 4444000   0.65094361   -5.0253522   -5.0253522    -4.048939 0.0024749946   -5.0253522   0.97641318   439061 
 4445000   0.65132138   -5.0249994   -5.0249994   -4.0480195  0.002418651   -5.0249994   0.97697984   439061 
 4446000   0.65122173   -5.0243171   -5.0243171   -4.0474867 0.0050917521   -5.0243171   0.97683037   439061 
 4447000   0.65180697   -5.0249997   -5.0249997   -4.0472915 0.0059879102   -5.0249997   0.97770823   439061 
 4448000   0.65138476   -5.0250431   -5.0250431   -4.0479682 0.00074253003   -5.0250431   0.97707492   439061 
 4449000   0.65108902    -5.024454    -5.024454   -4.0478227 0.0025609003    -5.024454    0.9766313   439061 
 4450000   0.65096282   -5.0230289   -5.0230289   -4.0465869 0.0013720958   -5.0230289     0.976442   439061 
 4451000   0.65007112   -5.0225792   -5.0225792   -4.0474747 0.0048938607   -5.0225792   0.97510445   439061 
 4452000   0.65067826   -5.0233799   -5.0233799   -4.0473648 -0.0027097118   -5.0233799   0.97601516   439061 
 4453000   0.65087803     -5.02421     -5.02421   -4.0478952 -0.0013597315     -5.02421   0.97631482   439061 
 4454000   0.65049562    -5.023467    -5.023467   -4.0477257 0.0046167339    -5.023467   0.97574121   439061 
 4455000   0.65114549   -5.0239382   -5.0239382   -4.0472222 0.0008462085   -5.0239382   0.97671601   439061 
 4456000    0.6511423   -5.0242369   -5.0242369   -4.0475257 0.0010506643   -5.0242369   0.97671122   439061 
 4457000   0.65034149   -5.0239931   -5.0239931    -4.048483 0.0046543553   -5.0239931   0.97551002   439061 
 4458000   0.65114837   -5.0247756   -5.0247756   -4.0480552 0.00011065723   -5.0247756   0.97672033   439061 
 4459000   0.65214675   -5.0249727   -5.0249727   -4.0467548 0.0045951949   -5.0249727    0.9782179   439061 
 4460000   0.65077151   -5.0243994   -5.0243994   -4.0482444 0.0036956144   -5.0243994   0.97615503   439061 
 4461000   0.65133573   -5.0261515   -5.0261515   -4.0491501 -7.625411e-05   -5.0261515   0.97700137   439061 
 4462000   0.64981844   -5.0244599   -5.0244599   -4.0497344 0.0044878607   -5.0244599   0.97472543   439061 
 4463000    0.6507236   -5.0244523   -5.0244523   -4.0483691 0.0069111793   -5.0244523   0.97608317   439061 
 4464000   0.65068969   -5.0239916   -5.0239916   -4.0479593 0.0033219347   -5.0239916   0.97603231   439061 
 4465000   0.65022685    -5.023367    -5.023367    -4.048029 0.0046461825    -5.023367   0.97533806   439061 
 4466000   0.65023746   -5.0231032   -5.0231032   -4.0477493 0.0031737218   -5.0231032   0.97535397   439061 
 4467000   0.65205476   -5.0249748   -5.0249748   -4.0468949 0.00042757144   -5.0249748   0.97807991   439061 
 4468000   0.64919254   -5.0197377   -5.0197377   -4.0459511  0.008567138   -5.0197377   0.97378659   439061 
 4469000   0.65107358   -5.0223816   -5.0223816   -4.0457735 0.0025988419   -5.0223816   0.97660815   439061 
 4470000   0.65086849   -5.0218374   -5.0218374   -4.0455369 0.00022840972   -5.0218374   0.97630051   439061 
 4471000   0.65147629   -5.0224128   -5.0224128   -4.0452006 0.00013300799   -5.0224128   0.97721221   439061 
 4472000   0.65102492    -5.021085    -5.021085   -4.0445498 0.00019323362    -5.021085   0.97653516   439061 
 4473000   0.65115611   -5.0212467   -5.0212467   -4.0445147 0.0021086304   -5.0212467   0.97673194   439061 
 4474000   0.65074183   -5.0215853   -5.0215853   -4.0454748 0.0023901606   -5.0215853   0.97611052   439061 
 4475000   0.65023394   -5.0211496   -5.0211496   -4.0458009 0.0023407746   -5.0211496    0.9753487   439061 
 4476000   0.65150648   -5.0223454   -5.0223454    -4.045088 0.0029771864   -5.0223454   0.97725749   439061 
 4477000   0.65160813   -5.0225833   -5.0225833   -4.0451733 0.0047795544   -5.0225833   0.97740997   439061 
 4478000   0.65144792   -5.0229255   -5.0229255   -4.0457558 0.0018674809   -5.0229255   0.97716965   439061 
 4479000   0.64978662   -5.0212044   -5.0212044   -4.0465267 0.0078387452   -5.0212044   0.97467771   439061 
 4480000   0.65066308   -5.0225867   -5.0225867   -4.0465943 0.0055004912   -5.0225867    0.9759924   439061 
 4481000   0.65232748   -5.0251252   -5.0251252   -4.0466362 -0.00028283364   -5.0251252   0.97848899   439061 
 4482000   0.65164509   -5.0236444   -5.0236444    -4.046179 0.0037237522   -5.0236444   0.97746541   439061 
 4483000   0.65076619   -5.0230705   -5.0230705   -4.0469234 0.0045400962   -5.0230705   0.97614707   439061 
 4484000   0.65071842    -5.023816    -5.023816   -4.0477406 -9.0441571e-05    -5.023816    0.9760754   439061 
 4485000   0.65041007   -5.0225197   -5.0225197   -4.0469068 0.0058956646   -5.0225197   0.97561289   439061 
 4486000   0.65083106   -5.0235991   -5.0235991   -4.0473548 -0.00058805579   -5.0235991   0.97624436   439061 
 4487000   0.64995475   -5.0223141   -5.0223141   -4.0473842 0.0053822271   -5.0223141   0.97492991   439061 
 4488000   0.65089061   -5.0237758   -5.0237758   -4.0474421 -0.0011633973   -5.0237758   0.97633369   439061 
 4489000   0.65043901   -5.0235616   -5.0235616   -4.0479053  0.002226747   -5.0235616   0.97565629   439061 
 4490000   0.65192588   -5.0249437   -5.0249437   -4.0470571 0.00078084113   -5.0249437    0.9778866   439061 
 4491000   0.65098463   -5.0239613   -5.0239613   -4.0474866 0.0081252511   -5.0239613   0.97647473   439061 
 4492000   0.65139637   -5.0238108   -5.0238108   -4.0467185 0.0042980522   -5.0238108   0.97709233   439061 
 4493000   0.65110242   -5.0235513   -5.0235513   -4.0468999 0.0065559809   -5.0235513   0.97665141   439061 
 4494000   0.65194625   -5.0255639   -5.0255639   -4.0476467 0.0032049854   -5.0255639   0.97791715   439061 
 4495000   0.65177201    -5.025408    -5.025408   -4.0477522 0.0028384757    -5.025408   0.97765578   439061 
 4496000   0.65163637   -5.0252264   -5.0252264   -4.0477741 0.0009700505   -5.0252264   0.97745233   439061 
 4497000   0.65107528   -5.0245168   -5.0245168   -4.0479061 -0.0017627579   -5.0245168    0.9766107   439061 
 4498000   0.65007491   -5.0225972   -5.0225972   -4.0474871  -0.00264786   -5.0225972   0.97511014   439061 
 4499000   0.65004746   -5.0231727   -5.0231727   -4.0481037 0.0019270188   -5.0231727   0.97506897   439061 
 4500000   0.65049538    -5.023544    -5.023544   -4.0478031 0.0049257254    -5.023544   0.97574084   439061 
 4501000   0.65111917    -5.024931    -5.024931   -4.0482545 0.00068160866    -5.024931   0.97667653   439061 
 4502000   0.65079082   -5.0246096   -5.0246096   -4.0484256 0.0019214527   -5.0246096   0.97618401   439061 
 4503000   0.65149763   -5.0252467   -5.0252467   -4.0480024 0.0014039729   -5.0252467   0.97724423   439061 
 4504000   0.65062134   -5.0245427   -5.0245427   -4.0486129 0.00039959684   -5.0245427   0.97592979   439061 
 4505000   0.65125983   -5.0243645   -5.0243645    -4.047477 0.0054130318   -5.0243645   0.97688752   439061 
 4506000   0.64993132   -5.0226489   -5.0226489   -4.0477541 0.0051714764   -5.0226489   0.97489476   439061 
 4507000   0.65134066   -5.0239666   -5.0239666   -4.0469579 0.0044901204   -5.0239666   0.97700876   439061 
 4508000   0.65140778   -5.0233898   -5.0233898   -4.0462804 0.0074522507   -5.0233898   0.97710945   439061 
 4509000   0.65159523    -5.023155    -5.023155   -4.0457644 0.0063201555    -5.023155   0.97739062   439061 
 4510000    0.6523547   -5.0238703   -5.0238703   -4.0453405 -0.00023653414   -5.0238703   0.97852982   439061 
 4511000   0.65155609   -5.0234609   -5.0234609    -4.046129 -0.0030761592   -5.0234609   0.97733191   439061 
 4512000   0.64976373   -5.0220047   -5.0220047   -4.0473613 0.0018164023   -5.0220047   0.97464337   439061 
 4513000   0.65094419    -5.023665    -5.023665   -4.0472509 -0.0027419772    -5.023665   0.97641406   439061 
 4514000   0.65048089   -5.0226771   -5.0226771    -4.046958 0.00073396692   -5.0226771   0.97571912   439061 
 4515000   0.65081344   -5.0229335   -5.0229335   -4.0467156 0.0028452351   -5.0229335   0.97621794   439061 
 4516000   0.65190492   -5.0236845   -5.0236845   -4.0458294 0.0011422005   -5.0236845   0.97785516   439061 
 4517000   0.65103818   -5.0235185   -5.0235185   -4.0469635 0.0032705882   -5.0235185   0.97655504   439061 
 4518000     0.651005   -5.0236691   -5.0236691   -4.0471638 0.0035157632   -5.0236691   0.97650527   439061 
 4519000   0.65078899   -5.0224933   -5.0224933    -4.046312 0.0086049311   -5.0224933   0.97618126   439061 
 4520000   0.65212039   -5.0251574   -5.0251574   -4.0469791 0.0041207179   -5.0251574   0.97817836   439061 
 4521000   0.65136251   -5.0229153   -5.0229153   -4.0458737 0.0093546161   -5.0229153   0.97704154   439061 
 4522000   0.65192004   -5.0233951   -5.0233951   -4.0455173 0.0074295038   -5.0233951   0.97787784   439061 
 4523000   0.65040213   -5.0219353   -5.0219353   -4.0463343 0.0065807943   -5.0219353   0.97560097   439061 
 4524000   0.65088037   -5.0230603   -5.0230603   -4.0467419  0.002211988   -5.0230603   0.97631833   439061 
 4525000   0.65082592    -5.023267    -5.023267   -4.0470303 -0.0022728286    -5.023267   0.97623666   439061 
 4526000   0.65034169    -5.022491    -5.022491   -4.0469807 -0.0016464346    -5.022491   0.97551031   439061 
 4527000   0.64981618   -5.0218919   -5.0218919   -4.0471698 -0.00085341052   -5.0218919   0.97472205   439061 
 4528000   0.65019821   -5.0236474   -5.0236474   -4.0483523 -0.0019694193   -5.0236474   0.97529509   439061 
 4529000   0.64945019   -5.0229594   -5.0229594   -4.0487863 -0.0012947539   -5.0229594   0.97417307   439061 
 4530000   0.64985993   -5.0234633   -5.0234633   -4.0486756 0.0058361693   -5.0234633   0.97478767   439061 
 4531000    0.6510926    -5.026066    -5.026066   -4.0494294 0.0032046306    -5.026066   0.97663667   439061 
 4532000    0.6507927   -5.0250546   -5.0250546   -4.0488678 0.0086777907   -5.0250546   0.97618683   439061 
 4533000   0.65172051   -5.0261757   -5.0261757   -4.0485971 0.0054368392   -5.0261757   0.97757854   439061 
 4534000   0.65255331   -5.0271611   -5.0271611   -4.0483334 0.0087682092   -5.0271611   0.97882774   439061 
 4535000   0.65177603   -5.0265301   -5.0265301   -4.0488682 0.0073466116   -5.0265301   0.97766182   439061 
 4536000   0.65081681   -5.0256836   -5.0256836   -4.0494606 0.0079150065   -5.0256836     0.976223   439061 
 4537000   0.65142669   -5.0262727   -5.0262727   -4.0491349 -0.0011984806   -5.0262727    0.9771378   439061 
 4538000   0.65013298   -5.0245825   -5.0245825   -4.0493852 -0.0016966843   -5.0245825   0.97519725   439061 
 4539000   0.65034152   -5.0232321   -5.0232321    -4.047722 -0.0021838981   -5.0232321   0.97551005   439061 
 4540000   0.65041251   -5.0235605   -5.0235605    -4.047944 -0.00080348879   -5.0235605   0.97561654   439061 
 4541000   0.65100208   -5.0233252   -5.0233252   -4.0468243 -0.0002952236   -5.0233252    0.9765009   439061 
 4542000    0.6505972   -5.0223326   -5.0223326    -4.046439 -0.0022941327   -5.0223326   0.97589358   439061 
 4543000   0.65000923   -5.0211645   -5.0211645   -4.0461528 0.0044807949   -5.0211645   0.97501163   439061 
 4544000   0.65213078   -5.0234614   -5.0234614   -4.0452675 0.00016592356   -5.0234614   0.97819395   439061 
 4545000   0.65195987   -5.0241521   -5.0241521   -4.0462145 0.0018034351   -5.0241521   0.97793758   439061 
 4546000   0.65136872   -5.0233304   -5.0233304   -4.0462795 0.0061862304   -5.0233304   0.97705086   439061 
 4547000   0.65227453   -5.0264906   -5.0264906    -4.048081 0.0011154873   -5.0264906   0.97840957   439061 
 4548000   0.65005212   -5.0236035   -5.0236035   -4.0485275 0.0066404662   -5.0236035   0.97507595   439061 
 4549000   0.65119906   -5.0260178   -5.0260178   -4.0492214 0.0046595093   -5.0260178   0.97679636   439061 
 4550000   0.65096253   -5.0251725   -5.0251725   -4.0487309 0.0044776584   -5.0251725   0.97644156   439061 
 4551000   0.65147806   -5.0252914   -5.0252914   -4.0480766 0.0034501029   -5.0252914   0.97721486   439061 
 4552000   0.65108981   -5.0258062   -5.0258062   -4.0491737 0.00037734422   -5.0258062    0.9766325   439061 
 4553000   0.65044612   -5.0237636   -5.0237636   -4.0480966 0.0076008992   -5.0237636   0.97566695   439061 
 4554000   0.65090132   -5.0253831   -5.0253831   -4.0490333 0.0024012861   -5.0253831   0.97634975   439061 
 4555000   0.65025917   -5.0247802   -5.0247802   -4.0493936 -6.1229422e-05   -5.0247802   0.97538653   439061 
 4556000   0.65000194   -5.0238543   -5.0238543   -4.0488536 -0.0015082442   -5.0238543   0.97500069   439061 
 4557000   0.65035336   -5.0242988   -5.0242988    -4.048771 0.0045477928   -5.0242988   0.97552781   439061 
 4558000   0.65203252   -5.0262675   -5.0262675   -4.0482209 0.0027707761   -5.0262675   0.97804655   439061 
 4559000   0.65103779   -5.0252482   -5.0252482   -4.0486938 0.0052385699   -5.0252482   0.97655446   439061 
 4560000   0.65089794   -5.0254449   -5.0254449   -4.0491003 0.0022808921   -5.0254449   0.97634468   439061 
 4561000   0.65068063   -5.0248135   -5.0248135   -4.0487948 0.0008979626   -5.0248135   0.97601872   439061 
 4562000   0.65001599   -5.0248891   -5.0248891   -4.0498673 0.00094898531   -5.0248891   0.97502177   439061 
 4563000   0.65033906   -5.0238933   -5.0238933   -4.0483869 0.0095604115   -5.0238933   0.97550637   439061 
 4564000   0.65114928   -5.0254567   -5.0254567    -4.048735 0.0010712755   -5.0254567    0.9767217   439061 
 4565000   0.65094764   -5.0260174   -5.0260174   -4.0495982 -8.4041481e-05   -5.0260174   0.97641923   439061 
 4566000   0.64940086   -5.0247727   -5.0247727   -4.0506736 0.00086135285   -5.0247727   0.97409907   439061 
 4567000   0.65096969   -5.0274562   -5.0274562   -4.0510039 -0.00050359149   -5.0274562   0.97645231   439061 
 4568000    0.6499661   -5.0251249   -5.0251249    -4.050178 0.0019077554   -5.0251249   0.97494693   439061 
 4569000   0.65035121   -5.0261303   -5.0261303   -4.0506057  0.005395145   -5.0261303    0.9755246   439061 
 4570000   0.64984264   -5.0257585   -5.0257585   -4.0509968 0.0048915998   -5.0257585   0.97476174   439061 
 4571000   0.65101313   -5.0264684   -5.0264684   -4.0499509 0.0029381895   -5.0264684   0.97651747   439061 
 4572000   0.64997158   -5.0252781   -5.0252781   -4.0503229 0.0029768943   -5.0252781   0.97495516   439061 
 4573000   0.65058221   -5.0268044   -5.0268044   -4.0509333  0.001962507   -5.0268044    0.9758711   439061 
 4574000    0.6492695   -5.0248542   -5.0248542   -4.0509522  0.003155443   -5.0248542   0.97390204   439061 
 4575000   0.64989167   -5.0252702   -5.0252702   -4.0504349 0.0043905641   -5.0252702   0.97483529   439061 
 4576000   0.65036414   -5.0258732   -5.0258732   -4.0503293 0.0026359489   -5.0258732   0.97554398   439061 
 4577000   0.64928798   -5.0237708   -5.0237708    -4.049841 0.0049157429   -5.0237708   0.97392975   439061 
 4578000    0.6503012   -5.0253406   -5.0253406    -4.049891  0.000872615   -5.0253406   0.97544958   439061 
 4579000   0.65018706   -5.0259677   -5.0259677   -4.0506893 -0.00074384149   -5.0259677   0.97527837   439061 
 4580000   0.65075515   -5.0253066   -5.0253066   -4.0491761  0.001016508   -5.0253066   0.97613051   439061 
 4581000   0.65067728   -5.0249429   -5.0249429   -4.0489292 0.0065517711   -5.0249429    0.9760137   439061 
 4582000   0.65118902     -5.02563     -5.02563   -4.0488487 0.00046246071     -5.02563   0.97678131   439061 
 4583000   0.64990852   -5.0257498   -5.0257498   -4.0508892 0.0055056808   -5.0257498   0.97486056   439061 
 4584000   0.65095069   -5.0269819   -5.0269819   -4.0505581 0.0024168492   -5.0269819   0.97642382   439061 
 4585000   0.65040331    -5.026426    -5.026426   -4.0508233 0.0042113175    -5.026426   0.97560275   439061 
 4586000   0.65033455    -5.025438    -5.025438   -4.0499384 0.0061651432    -5.025438    0.9754996   439061 
 4587000   0.65108398   -5.0260267   -5.0260267   -4.0494029 0.0084456939   -5.0260267   0.97662375   439061 
 4588000   0.65161858   -5.0258445   -5.0258445   -4.0484189   0.00760149   -5.0258445   0.97742564   439061 
 4589000   0.65128973    -5.025398    -5.025398   -4.0484657 -3.5490942e-05    -5.025398   0.97693237   439061 
 4590000    0.6505534   -5.0240711   -5.0240711   -4.0482432 0.0021448835   -5.0240711   0.97582787   439061 
 4591000   0.65090192   -5.0246116   -5.0246116    -4.048261 -0.00052564108   -5.0246116   0.97635065   439061 
 4592000   0.65013885   -5.0241247   -5.0241247   -4.0489186 -0.0022477723   -5.0241247   0.97520606   439061 
 4593000   0.64906789   -5.0209611   -5.0209611   -4.0473615 -0.0014020496   -5.0209611   0.97359961   439061 
 4594000   0.64870834    -5.021564    -5.021564   -4.0485037 -0.0019567269    -5.021564    0.9730603   439061 
 4595000    0.6502733   -5.0239581   -5.0239581   -4.0485504 -0.004196873   -5.0239581   0.97540773   439061 
 4596000   0.65060818   -5.0239625   -5.0239625   -4.0480524 -0.0027541046   -5.0239625   0.97591004   439061 
 4597000   0.65121192   -5.0240724   -5.0240724   -4.0472567 0.0047236028   -5.0240724   0.97681566   439061 
 4598000   0.65266374   -5.0272782   -5.0272782   -4.0482848  0.006214997   -5.0272782   0.97899338   439061 
 4599000   0.65197523   -5.0266668   -5.0266668   -4.0487062 0.0065523344   -5.0266668   0.97796061   439061 
 4600000    0.6515014    -5.025231    -5.025231   -4.0479812 0.0065179033    -5.025231   0.97724987   439061 
 4601000   0.65147502   -5.0259644   -5.0259644   -4.0487541 0.0032450337   -5.0259644   0.97721031   439061 
 4602000   0.65045061   -5.0248471   -5.0248471   -4.0491734 0.0043675159   -5.0248471   0.97567369   439061 
 4603000   0.65004565   -5.0246557   -5.0246557   -4.0495895 -0.001457787   -5.0246557   0.97506625   439061 
 4604000   0.64965374   -5.0235866   -5.0235866   -4.0491082 -0.00034423547   -5.0235866   0.97447839   439061 
 4605000   0.64919702   -5.0233548   -5.0233548   -4.0495615  0.002729455   -5.0233548   0.97379331   439061 
 4606000   0.64972321   -5.0240475   -5.0240475   -4.0494649 -0.00061295727   -5.0240475   0.97458259   439061 
 4607000    0.6506519   -5.0244552   -5.0244552   -4.0484796 -0.0014410206   -5.0244552   0.97597563   439061 
 4608000   0.64912254   -5.0221952   -5.0221952   -4.0485136 0.0030554952   -5.0221952   0.97368159   439061 
 4609000   0.64988529   -5.0220724   -5.0220724   -4.0472467 0.0054590618   -5.0220724   0.97482571   439061 
 4610000    0.6524806   -5.0273402   -5.0273402   -4.0486216 0.00095042879   -5.0273402   0.97871866   439061 
 4611000   0.65082077   -5.0248693   -5.0248693   -4.0486403  0.002237101   -5.0248693   0.97622893   439061 
 4612000   0.65124383   -5.0257271   -5.0257271   -4.0488636  0.003570691   -5.0257271   0.97686353   439061 
 4613000   0.65203084   -5.0259256   -5.0259256   -4.0478816 9.2867236e-05   -5.0259256   0.97804403   439061 
 4614000   0.65065957   -5.0237487   -5.0237487   -4.0477616 0.0095470094   -5.0237487   0.97598714   439061 
 4615000   0.65044414   -5.0253839   -5.0253839   -4.0497199 -0.0005098156   -5.0253839   0.97566399   439061 
 4616000   0.65093319   -5.0261167   -5.0261167   -4.0497191 -0.0046655763   -5.0261167   0.97639756   439061 
 4617000   0.65048291   -5.0246765   -5.0246765   -4.0489543 -0.0019527551   -5.0246765   0.97572215   439061 
 4618000   0.65010383   -5.0247351   -5.0247351   -4.0495815 -0.0010535179   -5.0247351   0.97515352   439061 
 4619000    0.6504491   -5.0250642   -5.0250642   -4.0493928  0.004320962   -5.0250642   0.97567143   439061 
 4620000   0.65182114   -5.0270952   -5.0270952   -4.0493657 -0.0014765248   -5.0270952   0.97772948   439061 
 4621000   0.65047094   -5.0257669   -5.0257669   -4.0500627 0.0051330226   -5.0257669   0.97570419   439061 
 4622000   0.65220964   -5.0280766   -5.0280766   -4.0497643 0.0012296714   -5.0280766   0.97831223   439061 
 4623000   0.65077194   -5.0273932   -5.0273932   -4.0512375 -0.0010300959   -5.0273932   0.97615569   439061 
 4624000   0.65068336   -5.0262477   -5.0262477   -4.0502249 0.0015027264   -5.0262477   0.97602281   439061 
 4625000   0.65142111   -5.0265869   -5.0265869   -4.0494574 0.0037860856   -5.0265869   0.97712944   439061 
 4626000   0.65134351   -5.0270762   -5.0270762   -4.0500632 0.0052835329   -5.0270762   0.97701304   439061 
 4627000    0.6515232   -5.0271323   -5.0271323   -4.0498497 0.0031507746   -5.0271323   0.97728258   439061 
 4628000   0.65034764   -5.0259359   -5.0259359   -4.0504167 0.0011220348   -5.0259359   0.97551923   439061 
 4629000   0.65005344   -5.0254743   -5.0254743   -4.0503964 0.00016852088   -5.0254743   0.97507794   439061 
 4630000   0.65045618   -5.0259294   -5.0259294   -4.0502473 0.0045950046   -5.0259294   0.97568205   439061 
 4631000   0.64992629   -5.0243502   -5.0243502    -4.049463 0.0039853268   -5.0243502   0.97488722   439061 
 4632000    0.6501858   -5.0245321   -5.0245321   -4.0492556 0.0027062118   -5.0245321   0.97527648   439061 
 4633000   0.65093112   -5.0254956   -5.0254956   -4.0491012 -0.00045047186   -5.0254956   0.97639446   439061 
 4634000   0.65078539   -5.0253143   -5.0253143   -4.0491384 0.0037176915   -5.0253143   0.97617587   439061 
 4635000   0.65032063   -5.0244416   -5.0244416   -4.0489629 0.0043751329   -5.0244416   0.97547872   439061 
 4636000   0.65029608   -5.0243901   -5.0243901   -4.0489482 0.0021755007   -5.0243901    0.9754419   439061 
 4637000   0.65039788   -5.0254919   -5.0254919   -4.0498973 -0.0018349947   -5.0254919   0.97559461   439061 
 4638000   0.65056787    -5.025224    -5.025224   -4.0493744 -0.0021596078    -5.025224   0.97584958   439061 
 4639000   0.65009134   -5.0248656   -5.0248656   -4.0497308 0.0042461615   -5.0248656   0.97513479   439061 
 4640000   0.64928384   -5.0238119   -5.0238119   -4.0498884  0.003909982   -5.0238119   0.97392353   439061 
 4641000     0.651236   -5.0255511   -5.0255511   -4.0486993 0.00099254285   -5.0255511   0.97685177   439061 
 4642000   0.65078072   -5.0251753   -5.0251753   -4.0490064  0.008181692   -5.0251753   0.97616886   439061 
 4643000   0.65156588   -5.0260527   -5.0260527   -4.0487061 0.0048135124   -5.0260527   0.97734659   439061 
 4644000    0.6506711   -5.0246884   -5.0246884   -4.0486839 6.2444631e-05   -5.0246884   0.97600443   439061 
 4645000   0.65029194   -5.0246024   -5.0246024   -4.0491667 0.0033918493   -5.0246024   0.97543569   439061 
 4646000   0.65040405   -5.0243979   -5.0243979    -4.048794 0.0034138722   -5.0243979   0.97560385   439061 
 4647000    0.6496639   -5.0249773   -5.0249773   -4.0504837 0.0021188353   -5.0249773   0.97449363   439061 
 4648000   0.65071023   -5.0256007   -5.0256007   -4.0495375 0.0015148315   -5.0256007   0.97606313   439061 
 4649000   0.65041712   -5.0259759   -5.0259759   -4.0503524 0.0022991584   -5.0259759   0.97562346   439061 
 4650000   0.64989791   -5.0261901   -5.0261901   -4.0513455 0.0030689373   -5.0261901   0.97484465   439061 
 4651000   0.64941431   -5.0262567   -5.0262567   -4.0521374 0.0037001323   -5.0262567   0.97411925   439061 
 4652000   0.64927147   -5.0265126   -5.0265126   -4.0526076 0.0090924072   -5.0265126   0.97390499   439061 
 4653000   0.65003727   -5.0274003   -5.0274003   -4.0523467 0.0060068167   -5.0274003   0.97505368   439061 
 4654000   0.65054975   -5.0277041   -5.0277041   -4.0518817 0.0045504248   -5.0277041   0.97582241   439061 
 4655000   0.64926966   -5.0271318   -5.0271318   -4.0532296 0.0062715697   -5.0271318   0.97390227   439061 
 4656000   0.64968352   -5.0274585   -5.0274585   -4.0529355 0.0069174893   -5.0274585   0.97452307   439061 
 4657000   0.65060267   -5.0278859   -5.0278859   -4.0519841 0.0039918908   -5.0278859   0.97590178   439061 
 4658000   0.65033532   -5.0277382   -5.0277382   -4.0522374   0.00842988   -5.0277382   0.97550076   439061 
 4659000   0.65037713   -5.0272747   -5.0272747   -4.0517112 0.0070905009   -5.0272747   0.97556348   439061 
 4660000    0.6493823   -5.0252898   -5.0252898   -4.0512186 0.0083386403   -5.0252898   0.97407123   439061 
 4661000   0.65001574   -5.0269795   -5.0269795   -4.0519581 -0.0030569954   -5.0269795    0.9750214   439061 
 4662000   0.64963908   -5.0275123   -5.0275123   -4.0530559 -0.0039281604   -5.0275123    0.9744564   439061 
 4663000   0.65023902   -5.0265528   -5.0265528   -4.0511965  -0.00133804   -5.0265528   0.97535631   439061 
 4664000   0.64959118   -5.0256983   -5.0256983   -4.0513137 -0.003418106   -5.0256983   0.97438454   439061 
 4665000   0.64871109   -5.0244802   -5.0244802   -4.0514158 0.0014564954   -5.0244802   0.97306442   439061 
 4666000   0.64994194   -5.0259785   -5.0259785   -4.0510678 -0.0019421993   -5.0259785   0.97491068   439061 
 4667000   0.65078508   -5.0268013   -5.0268013   -4.0506259 0.00039788762   -5.0268013    0.9761754   439061 
 4668000   0.65204843   -5.0283317   -5.0283317   -4.0502613 0.0028040364   -5.0283317   0.97807042   439061 
 4669000   0.65126625   -5.0273389   -5.0273389   -4.0504418 0.0091099862   -5.0273389   0.97689714   439061 
 4670000   0.65133056   -5.0281474   -5.0281474   -4.0511538 0.0069221192   -5.0281474   0.97699362   439061 
 4671000   0.65046605    -5.027544    -5.027544   -4.0518471 0.00061212603    -5.027544   0.97569685   439061 
 4672000   0.64993761   -5.0262936   -5.0262936   -4.0513894 0.0028564127   -5.0262936   0.97490419   439061 
 4673000   0.64991534   -5.0264046   -5.0264046   -4.0515338 0.0017202173   -5.0264046   0.97487079   439061 
 4674000   0.65003653   -5.0268605   -5.0268605   -4.0518079 0.0017329326   -5.0268605   0.97505258   439061 
 4675000   0.64877519   -5.0259926   -5.0259926   -4.0528321 0.0025097982   -5.0259926   0.97316056   439061 
 4676000    0.6498857   -5.0282745   -5.0282745   -4.0534481 -0.0014525369   -5.0282745   0.97482634   439061 
 4677000   0.64786239   -5.0252775   -5.0252775   -4.0534861 0.0074895002   -5.0252775   0.97179136   439061 
 4678000   0.65043549   -5.0279927   -5.0279927   -4.0523417 0.0034261729   -5.0279927   0.97565101   439061 
 4679000   0.64962075   -5.0271999   -5.0271999    -4.052771 0.0074906567   -5.0271999   0.97442891   439061 
 4680000   0.65043171   -5.0297535   -5.0297535   -4.0541082 0.0049280324   -5.0297535   0.97564534   439061 
 4681000   0.65034652   -5.0284087   -5.0284087   -4.0528912 0.0078954491   -5.0284087   0.97551756   439061 
 4682000   0.65111306   -5.0287972   -5.0287972   -4.0521298 0.0063934203   -5.0287972   0.97666737   439061 
 4683000    0.6505395   -5.0283743   -5.0283743   -4.0525673 0.0081506889   -5.0283743   0.97580702   439061 
 4684000   0.65134317   -5.0297298   -5.0297298   -4.0527173 0.0026245009   -5.0297298   0.97701254   439061 
 4685000   0.64890584   -5.0263807   -5.0263807   -4.0530241 0.0055514324   -5.0263807   0.97335654   439061 
 4686000    0.6500636   -5.0283068   -5.0283068   -4.0532136 -0.0011011662   -5.0283068   0.97509318   439061 
 4687000   0.65027681   -5.0284381   -5.0284381   -4.0530251 -0.0041693028   -5.0284381   0.97541299   439061 
 4688000   0.65018672   -5.0274338   -5.0274338   -4.0521559 0.0029150847   -5.0274338   0.97527786   439061 
 4689000   0.64937621   -5.0260741   -5.0260741    -4.052012 0.0057124339   -5.0260741   0.97406209   439061 
 4690000   0.65046817   -5.0276198   -5.0276198   -4.0519197 -0.0026289976   -5.0276198   0.97570004   439061 
 4691000   0.65013516   -5.0281067   -5.0281067   -4.0529062 -0.00069703591   -5.0281067   0.97520052   439061 
 4692000   0.65075199   -5.0281626   -5.0281626   -4.0520368 0.0027739895   -5.0281626   0.97612575   439061 
 4693000   0.65058589   -5.0279491   -5.0279491   -4.0520725 -0.00053189188   -5.0279491   0.97587661   439061 
 4694000   0.65141252   -5.0284798   -5.0284798   -4.0513632 0.0059733656   -5.0284798   0.97711656   439061 
 4695000   0.65079154   -5.0273458   -5.0273458   -4.0511607 0.0063891724   -5.0273458   0.97618508   439061 
 4696000   0.65058105   -5.0276887   -5.0276887   -4.0518194  0.004997402   -5.0276887   0.97586936   439061 
 4697000   0.65008841   -5.0263071   -5.0263071   -4.0511767 0.00085932688   -5.0263071    0.9751304   439061 
 4698000   0.64928812   -5.0253953   -5.0253953   -4.0514653 0.0014344984   -5.0253953   0.97392996   439061 
 4699000   0.64903254   -5.0262197   -5.0262197   -4.0526731 0.0009539816   -5.0262197    0.9735466   439061 
 4700000   0.64968693   -5.0269735   -5.0269735   -4.0524453 0.0015683473   -5.0269735   0.97452817   439061 
 4701000   0.64955364   -5.0271495   -5.0271495   -4.0528213 -0.0045342925   -5.0271495   0.97432823   439061 
 4702000   0.64978135   -5.0269775   -5.0269775   -4.0523077 -0.0053755281   -5.0269775   0.97466981   439061 
 4703000   0.65059461   -5.0278725   -5.0278725   -4.0519828 0.00086365358   -5.0278725    0.9758897   439061 
 4704000   0.65151101    -5.028641    -5.028641   -4.0513767 0.0053714484    -5.028641   0.97726429   439061 
 4705000   0.64967168   -5.0275034   -5.0275034   -4.0529981 0.0078803828   -5.0275034    0.9745053   439061 
 4706000      0.65058   -5.0282412   -5.0282412   -4.0523735 0.0084087182   -5.0282412   0.97586777   439061 
 4707000   0.65069266   -5.0297189   -5.0297189   -4.0536821 0.0041199197   -5.0297189   0.97603677   439061 
 4708000   0.65112844   -5.0299703   -5.0299703   -4.0532799 0.0027438622   -5.0299703   0.97669044   439061 
 4709000    0.6512967   -5.0296123   -5.0296123   -4.0526695 0.0046196912   -5.0296123   0.97694283   439061 
 4710000   0.65116921     -5.02888     -5.02888   -4.0521284 0.0032356942     -5.02888    0.9767516   439061 
 4711000   0.64971622   -5.0281098   -5.0281098   -4.0535377 0.0015962066   -5.0281098   0.97457211   439061 
 4712000   0.64832935   -5.0261195   -5.0261195   -4.0536277 8.5249864e-05   -5.0261195   0.97249181   439061 
 4713000   0.64895158   -5.0262393   -5.0262393   -4.0528141 0.00061673986   -5.0262393   0.97342515   439061 
 4714000   0.65025231   -5.0274008   -5.0274008   -4.0520245 -0.0051494277   -5.0274008   0.97537625   439061 
 4715000   0.64967267   -5.0258913   -5.0258913   -4.0513845 0.0031579637   -5.0258913   0.97450679   439061 
 4716000   0.64999801   -5.0270079   -5.0270079   -4.0520132 0.0033198923   -5.0270079   0.97499479   439061 
 4717000   0.65110817   -5.0284191   -5.0284191   -4.0517591 -0.0064145451   -5.0284191   0.97666003   439061 
 4718000   0.65030334   -5.0280736   -5.0280736   -4.0526208 0.0023558878   -5.0280736   0.97545278   439061 
 4719000   0.65011136   -5.0279621   -5.0279621   -4.0527973 0.0012185121   -5.0279621   0.97516482   439061 
 4720000   0.65154845   -5.0294449   -5.0294449   -4.0521244 0.00042379853   -5.0294449   0.97732045   439061 
 4721000   0.65102292   -5.0277205   -5.0277205   -4.0511884 0.0071788542   -5.0277205   0.97653215   439061 
 4722000   0.65033208   -5.0257509   -5.0257509    -4.050255 0.0063143527   -5.0257509    0.9754959   439061 
 4723000   0.65072198   -5.0273957   -5.0273957   -4.0513149 0.0050519413   -5.0273957   0.97608074   439061 
 4724000   0.64932488   -5.0250334   -5.0250334   -4.0510483 0.0083946256   -5.0250334    0.9739851   439061 
 4725000   0.65037672   -5.0277246   -5.0277246   -4.0521617 0.0022535754   -5.0277246   0.97556286   439061 
 4726000   0.64912877    -5.026313    -5.026313   -4.0526221  0.003538895    -5.026313   0.97369094   439061 
 4727000   0.64895098   -5.0258435   -5.0258435   -4.0524193 0.0029366905   -5.0258435   0.97342425   439061 
 4728000   0.64958246   -5.0266212   -5.0266212   -4.0522498 -0.0016435459   -5.0266212   0.97437147   439061 
 4729000   0.64916791    -5.026054    -5.026054   -4.0523043 0.0045954511    -5.026054   0.97374965   439061 
 4730000   0.64898734   -5.0257982   -5.0257982   -4.0523194  0.001017099   -5.0257982   0.97347879   439061 
 4731000   0.65040425   -5.0268016   -5.0268016   -4.0511974 0.0026484089   -5.0268016   0.97560415   439061 
 4732000    0.6503193   -5.0266129   -5.0266129   -4.0511361 -0.00020214952   -5.0266129   0.97547673   439061 
 4733000   0.65062028   -5.0274632   -5.0274632    -4.051535 0.0039673898   -5.0274632    0.9759282   439061 
 4734000    0.6502711   -5.0271346   -5.0271346   -4.0517301 0.0035548833   -5.0271346   0.97540443   439061 
 4735000    0.6501494   -5.0271086   -5.0271086   -4.0518867 0.0067182282   -5.0271086   0.97522187   439061 
 4736000   0.64989624   -5.0270756   -5.0270756   -4.0522335 0.0027079768   -5.0270756   0.97484214   439061 
 4737000   0.65014982   -5.0277222   -5.0277222   -4.0524996 0.0041442062   -5.0277222    0.9752225   439061 
 4738000   0.65053824   -5.0282792   -5.0282792   -4.0524741 0.0011872916   -5.0282792   0.97580514   439061 
 4739000   0.65032917   -5.0262959   -5.0262959   -4.0508044 0.0048423545   -5.0262959   0.97549153   439061 
 4740000   0.64944374   -5.0240473   -5.0240473   -4.0498839 0.0041923457   -5.0240473   0.97416339   439061 
 4741000    0.6493784   -5.0247618   -5.0247618   -4.0506964 0.0015636656   -5.0247618   0.97406539   439061 
 4742000   0.64876699   -5.0250754   -5.0250754   -4.0519272 0.0014362101   -5.0250754   0.97314827   439061 
 4743000   0.65058925    -5.028452    -5.028452   -4.0525704 -0.002247399    -5.028452   0.97588165   439061 
 4744000   0.64958873   -5.0265939   -5.0265939   -4.0522131 0.00071297531   -5.0265939   0.97438087   439061 
 4745000   0.65010489    -5.026903    -5.026903   -4.0517479 0.0039719843    -5.026903   0.97515511   439061 
 4746000    0.6503643   -5.0273753   -5.0273753   -4.0518311 0.0056344044   -5.0273753   0.97554423   439061 
 4747000    0.6506908    -5.027062    -5.027062    -4.051028 0.0061516071    -5.027062   0.97603397   439061 
 4748000   0.64984462   -5.0266305   -5.0266305   -4.0518658 0.0067577864   -5.0266305   0.97476472   439061 
 4749000   0.65153562    -5.028226    -5.028226   -4.0509248  0.004972116    -5.028226    0.9773012   439061 
 4750000    0.6502877   -5.0259311   -5.0259311   -4.0505018 0.0073788126   -5.0259311   0.97542933   439061 
 4751000   0.65149083   -5.0282494   -5.0282494   -4.0510154 0.0054049746   -5.0282494   0.97723402   439061 
 4752000   0.64976943   -5.0251534   -5.0251534   -4.0505014 0.00032069111   -5.0251534   0.97465192   439061 
 4753000   0.64998983   -5.0262023   -5.0262023   -4.0512198 0.0035026229   -5.0262023   0.97498253   439061 
 4754000   0.64996802   -5.0258466   -5.0258466   -4.0508967 -0.0007743795   -5.0258466   0.97494981   439061 
 4755000   0.64888163   -5.0240961   -5.0240961   -4.0507759 -0.0016579589   -5.0240961   0.97332023   439061 
 4756000   0.64979398   -5.0252751   -5.0252751   -4.0505864 -0.0017404535   -5.0252751   0.97468876   439061 
 4757000    0.6507911   -5.0252803   -5.0252803   -4.0490958 -0.001964468   -5.0252803   0.97618443   439061 
 4758000   0.64965738   -5.0247192   -5.0247192   -4.0502353 0.0034898537   -5.0247192   0.97448385   439061 
 4759000   0.65106253   -5.0260893   -5.0260893   -4.0494977 0.0041465729   -5.0260893   0.97659157   439061 
 4760000   0.65085099   -5.0258469   -5.0258469   -4.0495727 0.0066714058   -5.0258469   0.97627427   439061 
 4761000   0.65099957   -5.0266389   -5.0266389   -4.0501417 0.0051870985   -5.0266389   0.97649713   439061 
 4762000   0.64989894     -5.02563     -5.02563   -4.0507838 0.0030106109     -5.02563   0.97484619   439061 
 4763000   0.64963164   -5.0256958   -5.0256958   -4.0512505 0.0062747055   -5.0256958   0.97444524   439061 
 4764000    0.6502723   -5.0259337   -5.0259337   -4.0505275 0.0058836762   -5.0259337   0.97540623   439061 
 4765000   0.65074294   -5.0273373   -5.0273373   -4.0512251 0.0030621285   -5.0273373   0.97611218   439061 
 4766000   0.65083133   -5.0265379   -5.0265379   -4.0502931 0.0047982434   -5.0265379   0.97624478   439061 
 4767000   0.65111246   -5.0283328   -5.0283328   -4.0516664 0.0027196454   -5.0283328   0.97666646   439061 
 4768000   0.64941258   -5.0264848   -5.0264848   -4.0523681 0.0049998798   -5.0264848   0.97411665   439061 
 4769000   0.65093839   -5.0281669   -5.0281669   -4.0517615 0.0028781083   -5.0281669   0.97640537   439061 
 4770000   0.65015523   -5.0256394   -5.0256394   -4.0504088 0.0050477184   -5.0256394   0.97523062   439061 
 4771000   0.65077351   -5.0267833   -5.0267833   -4.0506253 0.0055753971   -5.0267833   0.97615805   439061 
 4772000   0.65101458   -5.0272664   -5.0272664   -4.0507467 0.0032567333   -5.0272664   0.97651965   439061 
 4773000   0.65068578   -5.0268705   -5.0268705    -4.050844 0.00043183146   -5.0268705   0.97602645   439061 
 4774000   0.64966234   -5.0259844   -5.0259844   -4.0514931 0.0015877982   -5.0259844   0.97449129   439061 
 4775000   0.64846626    -5.024555    -5.024555   -4.0518578 0.0020683873    -5.024555   0.97269717   439061 
 4776000   0.64894682   -5.0251385   -5.0251385   -4.0517205 0.00042751019   -5.0251385   0.97341801   439061 
 4777000   0.65081747   -5.0272392   -5.0272392   -4.0510152 0.0011047461   -5.0272392   0.97622398   439061 
 4778000   0.64941135   -5.0253577   -5.0253577   -4.0512429 0.0056715941   -5.0253577    0.9741148   439061 
 4779000   0.65051413   -5.0265948   -5.0265948   -4.0508259 0.0053571199   -5.0265948   0.97576898   439061 
 4780000   0.65179614   -5.0289617   -5.0289617   -4.0512697 0.0034798887   -5.0289617   0.97769198   439061 
 4781000   0.65036556   -5.0276618   -5.0276618   -4.0521157 0.0031601362   -5.0276618   0.97554611   439061 
 4782000    0.6489917   -5.0255078   -5.0255078   -4.0520225 0.0087305294   -5.0255078   0.97348533   439061 
 4783000   0.65013516   -5.0268001   -5.0268001   -4.0515996 0.0069636248   -5.0268001   0.97520052   439061 
 4784000    0.6508599    -5.026897    -5.026897   -4.0506093  0.003897803    -5.026897   0.97628762   439061 
 4785000   0.65103712   -5.0272971   -5.0272971   -4.0507436 0.0018372724   -5.0272971   0.97655346   439061 
 4786000   0.65000074   -5.0264947   -5.0264947   -4.0514959 -0.0017808401   -5.0264947   0.97499889   439061 
 4787000   0.64944661   -5.0263751   -5.0263751   -4.0522074 -0.00046189521   -5.0263751    0.9741677   439061 
 4788000   0.64963115   -5.0258629   -5.0258629   -4.0514184 -0.0033704029   -5.0258629   0.97444451   439061 
 4789000   0.65009595   -5.0258814   -5.0258814   -4.0507397 0.0032606983   -5.0258814    0.9751417   439061 
 4790000   0.65011454   -5.0269158   -5.0269158   -4.0517462 0.0045405105   -5.0269158   0.97516959   439061 
 4791000   0.64987951   -5.0265901   -5.0265901   -4.0517731  0.011121212   -5.0265901   0.97481705   439061 
 4792000   0.65110859   -5.0290319   -5.0290319   -4.0523712 0.0062788499   -5.0290319   0.97666067   439061 
 4793000   0.65034992   -5.0280795   -5.0280795   -4.0525569 0.0046574415   -5.0280795   0.97552265   439061 
 4794000   0.65077993   -5.0279462   -5.0279462   -4.0517785 0.0034223604   -5.0279462   0.97616767   439061 
 4795000   0.65009737    -5.026125    -5.026125   -4.0509812 0.0081242314    -5.026125   0.97514384   439061 
 4796000    0.6507068    -5.027238    -5.027238     -4.05118 0.0013076278    -5.027238   0.97605798   439061 
 4797000    0.6503699   -5.0261261   -5.0261261   -4.0505735  0.002009686   -5.0261261   0.97555263   439061 
 4798000   0.65034927    -5.026889    -5.026889   -4.0513673 -0.001384571    -5.026889   0.97552169   439061 
 4799000   0.64903539   -5.0259428   -5.0259428    -4.052392 -0.0040046646   -5.0259428   0.97355086   439061 
 4800000   0.64816866   -5.0239859   -5.0239859   -4.0517351 0.0026154945   -5.0239859   0.97225078   439061 
 4801000   0.65047819   -5.0270712   -5.0270712   -4.0513562 0.0020088775   -5.0270712   0.97571506   439061 
 4802000   0.65005326   -5.0262919   -5.0262919   -4.0512142 0.0050487038   -5.0262919   0.97507766   439061 
 4803000    0.6502459   -5.0274669   -5.0274669   -4.0521003 0.0091867492   -5.0274669   0.97536663   439061 
 4804000   0.65076568   -5.0283145   -5.0283145   -4.0521682 0.0071391697   -5.0283145    0.9761463   439061 
 4805000    0.6504376   -5.0292161   -5.0292161   -4.0535619 0.0034038962   -5.0292161   0.97565419   439061 
 4806000    0.6500313   -5.0287782   -5.0287782   -4.0537334 0.0017978622   -5.0287782   0.97504473   439061 
 4807000   0.65005431   -5.0277889   -5.0277889   -4.0527096 0.0059092342   -5.0277889   0.97507925   439061 
 4808000   0.65115441   -5.0302077   -5.0302077   -4.0534783 -0.00038973212   -5.0302077   0.97672939   439061 
 4809000   0.64971475   -5.0270276   -5.0270276   -4.0524577 0.0049650543   -5.0270276   0.97456991   439061 
 4810000   0.65003181   -5.0270096   -5.0270096   -4.0519641 0.0058302949   -5.0270096   0.97504549   439061 
 4811000   0.64927035    -5.027027    -5.027027   -4.0531237 0.0037817814    -5.027027   0.97390331   439061 
 4812000   0.65019035   -5.0282016   -5.0282016   -4.0529183 0.00027358447   -5.0282016    0.9752833   439061 
 4813000     0.649161   -5.0269906   -5.0269906   -4.0532513 0.0015701753   -5.0269906   0.97373928   439061 
 4814000   0.64918258   -5.0264563   -5.0264563   -4.0526846 -0.001831542   -5.0264563   0.97377166   439061 
 4815000   0.64972488   -5.0274055   -5.0274055   -4.0528204 0.0022376268   -5.0274055   0.97458511   439061 
 4816000   0.65012626   -5.0273567   -5.0273567   -4.0521695 0.0012454039   -5.0273567   0.97518717   439061 
 4817000   0.64955547   -5.0263026   -5.0263026   -4.0519717 0.0065792313   -5.0263026   0.97433098   439061 
 4818000   0.65026425   -5.0269246   -5.0269246   -4.0515305 0.0021484228   -5.0269246   0.97539415   439061 
 4819000   0.65104691   -5.0280182   -5.0280182     -4.05145 0.0060628211   -5.0280182   0.97656814   439061 
 4820000   0.65058058    -5.029045    -5.029045   -4.0531764 0.0024826494    -5.029045   0.97586864   439061 
 4821000   0.64949962   -5.0282416   -5.0282416   -4.0539944 0.0052939038   -5.0282416   0.97424721   439061 
 4822000   0.64987467   -5.0277529   -5.0277529   -4.0529431 0.0050406177   -5.0277529   0.97480979   439061 
 4823000   0.65075603   -5.0294301   -5.0294301   -4.0532983 0.0018568499   -5.0294301   0.97613182   439061 
 4824000   0.64967332   -5.0280474   -5.0280474   -4.0535396 0.0033752379   -5.0280474   0.97450776   439061 
 4825000   0.64912776   -5.0276699   -5.0276699   -4.0539805 0.0018486585   -5.0276699   0.97368943   439061 
 4826000    0.6500605   -5.0285913   -5.0285913   -4.0535028 0.0033932399   -5.0285913   0.97508853   439061 
 4827000   0.65079151   -5.0286487   -5.0286487   -4.0524637 0.0061205744   -5.0286487   0.97618504   439061 
 4828000   0.65042528   -5.0281098   -5.0281098   -4.0524741  0.011974712   -5.0281098   0.97563569   439061 
 4829000   0.64973435   -5.0270934   -5.0270934   -4.0524941 0.0026193708   -5.0270934    0.9745993   439061 
 4830000   0.64896095   -5.0258092   -5.0258092   -4.0523699 0.00024104525   -5.0258092   0.97343921   439061 
 4831000   0.64920912   -5.0263813   -5.0263813   -4.0525698 0.0018299378   -5.0263813   0.97381146   439061 
 4832000    0.6500281   -5.0269554   -5.0269554   -4.0519155 0.0026012339   -5.0269554   0.97503994   439061 
 4833000   0.65036786   -5.0268264   -5.0268264   -4.0512768 -0.00029889709   -5.0268264   0.97554957   439061 
 4834000   0.64921714   -5.0247693   -5.0247693   -4.0509458 0.0065971992   -5.0247693   0.97382349   439061 
 4835000   0.64950664   -5.0259869   -5.0259869   -4.0517292 -0.00092541556   -5.0259869   0.97425774   439061 
 4836000   0.64976855   -5.0259417   -5.0259417   -4.0512911 0.0074296363   -5.0259417    0.9746506   439061 
 4837000    0.6508959   -5.0272807   -5.0272807   -4.0509391 0.00076497158   -5.0272807   0.97634162   439061 
 4838000   0.64940439   -5.0257066   -5.0257066   -4.0516023 0.0059382719   -5.0257066   0.97410437   439061 
 4839000   0.65039635   -5.0273182   -5.0273182   -4.0517259 0.0017316024   -5.0273182    0.9755923   439061 
 4840000   0.64976659   -5.0267589   -5.0267589   -4.0521113 0.0062611346   -5.0267589   0.97464767   439061 
 4841000   0.65067758   -5.0283326   -5.0283326   -4.0523185 0.0050042101   -5.0283326   0.97601415   439061 
 4842000   0.64986059   -5.0256829   -5.0256829   -4.0508942  0.011171054   -5.0256829   0.97478866   439061 
 4843000   0.65051312   -5.0273895   -5.0273895    -4.051622 0.0011415249   -5.0273895   0.97576746   439061 
 4844000   0.65055379   -5.0272053   -5.0272053   -4.0513768 0.0023233614   -5.0272053   0.97582847   439061 
 4845000    0.6507063   -5.0273718   -5.0273718   -4.0513146 0.0011976387   -5.0273718   0.97605723   439061 
 4846000    0.6498497   -5.0259974   -5.0259974    -4.051225 0.0043708319   -5.0259974   0.97477233   439061 
 4847000   0.64974469   -5.0264057   -5.0264057   -4.0517909 -0.00052263673   -5.0264057   0.97461481   439061 
 4848000   0.65010817   -5.0265114   -5.0265114   -4.0513514 -0.0042920081   -5.0265114   0.97516004   439061 
 4849000   0.65053865   -5.0269752   -5.0269752   -4.0511695 -0.0029677235   -5.0269752   0.97580575   439061 
 4850000   0.64984453   -5.0253409   -5.0253409   -4.0505763 0.0028409498   -5.0253409   0.97476458   439061 
 4851000   0.64991823   -5.0259461   -5.0259461   -4.0510709 0.0042304528   -5.0259461   0.97487513   439061 
 4852000   0.65026031   -5.0264813   -5.0264813   -4.0510931 0.0050163462   -5.0264813   0.97538824   439061 
 4853000   0.65036597   -5.0272651   -5.0272651   -4.0517183 0.0031777011   -5.0272651   0.97554673   439061 
 4854000   0.64998491   -5.0266694   -5.0266694   -4.0516943 0.0020595907   -5.0266694   0.97497515   439061 
 4855000   0.65053105   -5.0267091   -5.0267091   -4.0509148 0.0065540481   -5.0267091   0.97579435   439061 
 4856000   0.65082099   -5.0278828   -5.0278828   -4.0516536 0.0045463273   -5.0278828   0.97622926   439061 
 4857000   0.65135465   -5.0285082   -5.0285082   -4.0514784   0.00517758   -5.0285082   0.97702974   439061 
 4858000   0.65021641   -5.0262746   -5.0262746   -4.0509522 0.0027181158   -5.0262746   0.97532239   439061 
 4859000    0.6502733    -5.026963    -5.026963   -4.0515553 0.0017723822    -5.026963   0.97540773   439061 
 4860000   0.64950254   -5.0259094   -5.0259094   -4.0516578 0.0028216482   -5.0259094   0.97425159   439061 
 4861000   0.65068693   -5.0272388   -5.0272388   -4.0512107 0.0041611619   -5.0272388   0.97602818   439061 
 4862000   0.64988368   -5.0261836   -5.0261836   -4.0513603  0.003633653   -5.0261836    0.9748233   439061 
 4863000   0.64972193    -5.024346    -5.024346   -4.0497654 0.0025443786    -5.024346   0.97458067   439061 
 4864000    0.6500919   -5.0257262   -5.0257262   -4.0505906 -0.00022612266   -5.0257262   0.97513563   439061 
 4865000   0.65117134   -5.0277638   -5.0277638    -4.051009 -0.0021377749   -5.0277638   0.97675479   439061 
 4866000   0.64970036   -5.0249263   -5.0249263   -4.0503779 0.0037519232   -5.0249263   0.97454832   439061 
 4867000   0.64989056   -5.0250829   -5.0250829   -4.0502493 0.0030685084   -5.0250829   0.97483362   439061 
 4868000   0.65030883   -5.0248864   -5.0248864   -4.0494254 0.0026047665   -5.0248864   0.97546102   439061 
 4869000   0.65069585   -5.0261245   -5.0261245   -4.0500829 0.0029040725   -5.0261245   0.97604155   439061 
 4870000    0.6498426   -5.0265966   -5.0265966    -4.051835 0.0010893228   -5.0265966   0.97476167   439061 
 4871000   0.64947712   -5.0256209   -5.0256209   -4.0514074 0.0047377511   -5.0256209   0.97421346   439061 
 4872000    0.6503473   -5.0270186   -5.0270186   -4.0514998 -0.0025128425   -5.0270186   0.97551873   439061 
 4873000   0.65144197   -5.0272773   -5.0272773   -4.0501166 0.0019556513   -5.0272773   0.97716072   439061 
 4874000   0.65188937   -5.0275428   -5.0275428    -4.049711 0.0055478067   -5.0275428   0.97783183   439061 
 4875000   0.65027664   -5.0259762   -5.0259762   -4.0505635  0.007101348   -5.0259762   0.97541274   439061 
 4876000    0.6510458   -5.0277988   -5.0277988   -4.0512324 0.0048556922   -5.0277988   0.97656648   439061 
 4877000   0.65044067   -5.0269108   -5.0269108    -4.051252  0.001728903   -5.0269108   0.97565879   439061 
 4878000   0.64955327   -5.0256758   -5.0256758   -4.0513481 0.00068786111   -5.0256758   0.97432769   439061 
 4879000   0.64985945   -5.0251289   -5.0251289    -4.050342  0.004204088   -5.0251289   0.97478695   439061 
 4880000   0.65119135   -5.0269248   -5.0269248     -4.05014 -0.0013361443   -5.0269248    0.9767848   439061 
 4881000   0.64966243   -5.0250667   -5.0250667   -4.0505752 0.0047695738   -5.0250667   0.97449143   439061 
 4882000   0.64933315   -5.0251774   -5.0251774   -4.0511799 0.0016147151   -5.0251774    0.9739975   439061 
 4883000   0.64899007   -5.0261363   -5.0261363   -4.0526534 -0.0013753397   -5.0261363   0.97348288   439061 
 4884000   0.64917429   -5.0245754   -5.0245754   -4.0508161 0.0032080773   -5.0245754   0.97375922   439061 
 4885000   0.65061422   -5.0251948   -5.0251948   -4.0492757 0.0059335305   -5.0251948   0.97591911   439061 
 4886000   0.65066036   -5.0245612   -5.0245612   -4.0485729 0.0069289522   -5.0245612   0.97598832   439061 
 4887000   0.65341999   -5.0281632   -5.0281632   -4.0480354 0.0067889453   -5.0281632   0.98012775   439061 
 4888000   0.65209912   -5.0258905   -5.0258905   -4.0477441 0.0049400898   -5.0258905   0.97814645   439061 
 4889000   0.65184752   -5.0254003   -5.0254003   -4.0476313 0.0022622055   -5.0254003   0.97776905   439061 
 4890000   0.65042436   -5.0245722   -5.0245722   -4.0489379 0.0018763553   -5.0245722   0.97563432   439061 
 4891000   0.65014095   -5.0244636   -5.0244636   -4.0492544 0.0004141386   -5.0244636   0.97520921   439061 
 4892000   0.64937591   -5.0237517   -5.0237517   -4.0496901 -0.0040017291   -5.0237517   0.97406164   439061 
 4893000   0.64943482     -5.02334     -5.02334     -4.04919 -0.0033089371     -5.02334   0.97415001   439061 
 4894000   0.64893888   -5.0228086   -5.0228086   -4.0494024 0.0017635281   -5.0228086   0.97340611   439061 
 4895000    0.6519794   -5.0273998   -5.0273998    -4.049433 -0.0035717035   -5.0273998   0.97796687   439061 
 4896000   0.65028331   -5.0253814   -5.0253814   -4.0499586 0.0038593464   -5.0253814   0.97542274   439061 
 4897000   0.65005666   -5.0252268   -5.0252268    -4.050144 0.0057238894   -5.0252268   0.97508276   439061 
 4898000   0.65079186   -5.0271005   -5.0271005    -4.050915 0.0027199617   -5.0271005   0.97618557   439061 
 4899000   0.65083368   -5.0266025   -5.0266025   -4.0503542  0.008218439   -5.0266025    0.9762483   439061 
 4900000   0.65074213   -5.0271552   -5.0271552   -4.0510443 0.0099462603   -5.0271552   0.97611098   439061 
 4901000   0.65086438   -5.0276288   -5.0276288   -4.0513345 0.0078037403   -5.0276288   0.97629434   439061 
 4902000   0.64936715   -5.0261548   -5.0261548   -4.0521063 0.0059199913   -5.0261548   0.97404851   439061 
 4903000   0.64996961   -5.0265627   -5.0265627   -4.0516105 0.0028471898   -5.0265627   0.97495219   439061 
 4904000   0.64990935   -5.0256787   -5.0256787   -4.0508169 0.0045712797   -5.0256787   0.97486181   439061 
 4905000   0.65085254   -5.0267462   -5.0267462   -4.0504696 0.0030915476   -5.0267462   0.97627659   439061 
 4906000   0.65040395   -5.0249055   -5.0249055   -4.0493018 -0.0015417015   -5.0249055    0.9756037   439061 
 4907000   0.64873456   -5.0229291   -5.0229291   -4.0498294 0.0014098387   -5.0229291   0.97309963   439061 
 4908000   0.64966419    -5.024599    -5.024599    -4.050105 -0.0025277041    -5.024599   0.97449407   439061 
 4909000   0.64975944   -5.0260279   -5.0260279   -4.0513909 -0.0046177461   -5.0260279   0.97463694   439061 
 4910000   0.65047537   -5.0260857   -5.0260857   -4.0503749 -0.0056194538   -5.0260857   0.97571083   439061 
 4911000   0.64893076   -5.0239644   -5.0239644   -4.0505705 0.0012430179   -5.0239644   0.97339393   439061 
 4912000   0.64957904    -5.024507    -5.024507   -4.0501406 0.0018267463    -5.024507   0.97436634   439061 
 4913000   0.65049557   -5.0274126   -5.0274126   -4.0516715 0.00070637537   -5.0274126   0.97574113   439061 
 4914000   0.65028581   -5.0269272   -5.0269272   -4.0515007 0.0023730748   -5.0269272    0.9754265   439061 
 4915000   0.65233602   -5.0297741   -5.0297741   -4.0512723 0.0048852806   -5.0297741   0.97850181   439061 
 4916000   0.65109786   -5.0276294   -5.0276294   -4.0509848 0.0078977282   -5.0276294   0.97664456   439061 
 4917000   0.65085548   -5.0278665   -5.0278665   -4.0515855 0.0068775598   -5.0278665   0.97628099   439061 
 4918000   0.65042342   -5.0275546   -5.0275546   -4.0519217 0.0033018567   -5.0275546   0.97563291   439061 
 4919000   0.64999079   -5.0265526   -5.0265526   -4.0515686  0.003780083   -5.0265526   0.97498397   439061 
 4920000   0.64939156   -5.0258112   -5.0258112   -4.0517261 3.6955686e-06   -5.0258112   0.97408512   439061 
 4921000   0.64883776   -5.0255058   -5.0255058   -4.0522514 -0.0015697951   -5.0255058   0.97325443   439061 
 4922000   0.64924355   -5.0254079   -5.0254079   -4.0515447 -0.0022499926   -5.0254079   0.97386311   439061 
 4923000   0.64915778   -5.0249513   -5.0249513   -4.0512169 -1.0768154e-05   -5.0249513   0.97373446   439061 
 4924000   0.65016532   -5.0253025   -5.0253025   -4.0500567 -0.0010945223   -5.0253025   0.97524576   439061 
 4925000   0.65127495    -5.027918    -5.027918   -4.0510078 -0.0012527515    -5.027918    0.9769102   439061 
 4926000   0.64912127   -5.0254114   -5.0254114   -4.0517317   0.00111268   -5.0254114   0.97367969   439061 
 4927000   0.64968805   -5.0262377   -5.0262377   -4.0517078 0.0032109583   -5.0262377   0.97452986   439061 
 4928000   0.65042822   -5.0266696   -5.0266696   -4.0510295 0.0045084676   -5.0266696   0.97564011   439061 
 4929000   0.64965137   -5.0257787   -5.0257787   -4.0513038 0.0070493824   -5.0257787   0.97447484   439061 
 4930000   0.65012517   -5.0269993   -5.0269993   -4.0518138 0.0056691491   -5.0269993   0.97518553   439061 
 4931000   0.65025547   -5.0274836   -5.0274836   -4.0521026 0.0029646574   -5.0274836   0.97538098   439061 
 4932000   0.64972128   -5.0267351   -5.0267351   -4.0521555 0.0040016638   -5.0267351    0.9745797   439061 
 4933000   0.65051816   -5.0278328   -5.0278328   -4.0520578 -0.00022992294   -5.0278328   0.97577501   439061 
 4934000   0.64988446   -5.0253902   -5.0253902   -4.0505657 0.0029281509   -5.0253902   0.97482447   439061 
 4935000    0.6511736   -5.0268281   -5.0268281   -4.0500699 0.0046989661   -5.0268281   0.97675818   439061 
 4936000   0.65041322   -5.0258614   -5.0258614   -4.0502438 0.0060647211   -5.0258614    0.9756176   439061 
 4937000   0.65160408   -5.0263118   -5.0263118   -4.0489079 0.0032933239   -5.0263118    0.9774039   439061 
 4938000   0.65167531   -5.0267219   -5.0267219   -4.0492111 -0.00051528142   -5.0267219   0.97751074   439061 
 4939000   0.65019706    -5.026171    -5.026171   -4.0508777 0.00058193885    -5.026171   0.97529337   439061 
 4940000   0.65074219   -5.0257822   -5.0257822   -4.0496712 -0.0023534292   -5.0257822   0.97611106   439061 
 4941000   0.64913623    -5.023287    -5.023287   -4.0495848 0.00027973919    -5.023287   0.97370213   439061 
 4942000   0.64930635   -5.0241847   -5.0241847   -4.0502274  0.003959104   -5.0241847   0.97395731   439061 
 4943000   0.65045293   -5.0268933   -5.0268933   -4.0512161 -0.0022654273   -5.0268933   0.97567717   439061 
 4944000   0.65106769   -5.0257528   -5.0257528   -4.0491535 7.604753e-05   -5.0257528   0.97659931   439061 
 4945000   0.65082004   -5.0250022   -5.0250022   -4.0487743 0.00049044491   -5.0250022   0.97622784   439061 
 4946000   0.65055082   -5.0240335   -5.0240335   -4.0482095  0.009013608   -5.0240335     0.975824   439061 
 4947000    0.6507182   -5.0255242   -5.0255242   -4.0494492  0.006512807   -5.0255242   0.97607508   439061 
 4948000   0.65048033    -5.025882    -5.025882   -4.0501637 0.0036621474    -5.025882   0.97571827   439061 
 4949000   0.64926438   -5.0244288   -5.0244288   -4.0505344 0.0029723216   -5.0244288   0.97389436   439061 
 4950000   0.64988871   -5.0257202   -5.0257202   -4.0508893 0.0015391469   -5.0257202   0.97483085   439061 
 4951000   0.65007313   -5.0270493   -5.0270493   -4.0519418 -0.0011841318   -5.0270493   0.97510748   439061 
 4952000   0.64905436   -5.0246681   -5.0246681   -4.0510888 0.0017743117   -5.0246681   0.97357932   439061 
 4953000   0.64929776   -5.0261913   -5.0261913   -4.0522469 -0.0047168653   -5.0261913   0.97394443   439061 
 4954000   0.64976804   -5.0266903   -5.0266903   -4.0520404 -0.0030515473   -5.0266903   0.97464984   439061 
 4955000   0.64843165   -5.0252163   -5.0252163    -4.052571  0.003077207   -5.0252163   0.97264527   439061 
 4956000    0.6490947   -5.0264706   -5.0264706   -4.0528308 0.0042103235   -5.0264706   0.97363983   439061 
 4957000    0.6496582   -5.0259219   -5.0259219   -4.0514368   0.01050868   -5.0259219   0.97448508   439061 
 4958000      0.65009   -5.0260062   -5.0260062   -4.0508735 0.0091714269   -5.0260062   0.97513277   439061 
 4959000   0.65117964   -5.0278219   -5.0278219   -4.0510547 0.0092518023   -5.0278219   0.97676723   439061 
 4960000   0.65021965   -5.0269003   -5.0269003   -4.0515731 0.0081114377   -5.0269003   0.97532725   439061 
 4961000   0.64952079   -5.0260919   -5.0260919   -4.0518129 0.0040326877   -5.0260919   0.97427897   439061 
 4962000   0.65023497   -5.0260364   -5.0260364   -4.0506861 0.0030114831   -5.0260364   0.97535023   439061 
 4963000   0.65040488   -5.0259039   -5.0259039   -4.0502988 0.0020178798   -5.0259039   0.97560511   439061 
 4964000   0.65033577    -5.024906    -5.024906   -4.0494045 0.0030569718    -5.024906   0.97550143   439061 
 4965000   0.64990284   -5.0240589   -5.0240589   -4.0492068 0.00013824245   -5.0240589   0.97485204   439061 
 4966000   0.64986413   -5.0252731   -5.0252731   -4.0504791 -0.0026372668   -5.0252731   0.97479398   439061 
 4967000    0.6486252   -5.0233382   -5.0233382   -4.0504026 0.00081832127   -5.0233382   0.97293558   439061 
 4968000   0.64938581    -5.023545    -5.023545   -4.0494685 0.0034192063    -5.023545    0.9740765   439061 
 4969000   0.64993231   -5.0239048   -5.0239048   -4.0490085 0.0023356555   -5.0239048   0.97489624   439061 
 4970000   0.64947447   -5.0234175   -5.0234175    -4.049208 0.0042380721   -5.0234175   0.97420949   439061 
 4971000   0.65074825   -5.0260184   -5.0260184   -4.0498982 0.0018424245   -5.0260184   0.97612015   439061 
 4972000   0.65012986   -5.0249414   -5.0249414   -4.0497489 0.0052487155   -5.0249414   0.97519257   439061 
 4973000   0.65100081   -5.0271582   -5.0271582   -4.0506592 0.0043290787   -5.0271582   0.97649899   439061 
 4974000   0.65126577    -5.027533    -5.027533   -4.0506366 0.0048639441    -5.027533   0.97689644   439061 
 4975000   0.65025892   -5.0253385   -5.0253385   -4.0499524  0.010247867   -5.0253385   0.97538616   439061 
 4976000   0.65057097   -5.0257268   -5.0257268   -4.0498725 0.0039487438   -5.0257268   0.97585423   439061 
 4977000   0.65003767   -5.0259062   -5.0259062   -4.0508519 0.0041637803   -5.0259062   0.97505428   439061 
 4978000   0.65015778   -5.0268315   -5.0268315    -4.051597 0.00034331093   -5.0268315   0.97523445   439061 
 4979000   0.64965097   -5.0259144   -5.0259144   -4.0514401 0.00083771703   -5.0259144   0.97447424   439061 
 4980000   0.64904793   -5.0254867   -5.0254867    -4.051917 -0.0011021747   -5.0254867   0.97356968   439061 
 4981000    0.6487323   -5.0263363   -5.0263363     -4.05324 -0.00069647721   -5.0263363   0.97309623   439061 
 4982000   0.64872622   -5.0259686   -5.0259686   -4.0528815 -0.00027636855   -5.0259686   0.97308712   439061 
 4983000   0.64974716   -5.0254623   -5.0254623   -4.0508438 0.0092066812   -5.0254623   0.97461851   439061 
 4984000   0.65148593   -5.0279019   -5.0279019   -4.0506753 0.0057729959   -5.0279019   0.97722667   439061 
 4985000   0.65075509   -5.0272541   -5.0272541   -4.0511236  0.007918358   -5.0272541   0.97613041   439061 
 4986000   0.65092533   -5.0270075   -5.0270075   -4.0506217  0.010474918   -5.0270075   0.97638577   439061 
 4987000   0.65073835   -5.0279561   -5.0279561   -4.0518508 0.0054906221   -5.0279561    0.9761053   439061 
 4988000   0.65075086    -5.026845    -5.026845   -4.0507209 0.0066672889    -5.026845   0.97612407   439061 
 4989000   0.64999531   -5.0257006   -5.0257006   -4.0507099 0.0047160834   -5.0257006   0.97499075   439061 
 4990000   0.64911842   -5.0242924   -5.0242924    -4.050617 0.0034507678   -5.0242924   0.97367541   439061 
 4991000   0.64911119    -5.023341    -5.023341   -4.0496764 0.0014626346    -5.023341   0.97366457   439061 
 4992000   0.64949996   -5.0246899   -5.0246899   -4.0504422 -0.0030340646   -5.0246899   0.97424773   439061 
 4993000   0.65027424   -5.0254344   -5.0254344   -4.0500253 -0.0059512534   -5.0254344   0.97540914   439061 
 4994000   0.65050457   -5.0252029   -5.0252029   -4.0494482 -0.003571596   -5.0252029   0.97575464   439061 
 4995000   0.65020378    -5.025317    -5.025317   -4.0500136 -0.00064796852    -5.025317   0.97530345   439061 
 4996000   0.64957858   -5.0246904   -5.0246904   -4.0503248 0.0050802859   -5.0246904   0.97436565   439061 
 4997000   0.65016227   -5.0247433   -5.0247433   -4.0495021 0.0047759312   -5.0247433   0.97524118   439061 
 4998000     0.650669     -5.02573     -5.02573   -4.0497287 0.00026876669     -5.02573   0.97600128   439061 
 4999000   0.64945997   -5.0245242   -5.0245242   -4.0503365 0.0098177667   -5.0245242   0.97418773   439061 
 5000000   0.64939952   -5.0240284   -5.0240284   -4.0499313  0.011093929   -5.0240284   0.97409706   439061 
Loop time of 30538.1 on 64 procs for 5000000 steps with 439061 atoms

Performance: 70731.205 tau/day, 163.730 timesteps/s
98.7% CPU use with 64 MPI tasks x 1 OpenMP threads

MPI task timing breakdown:
Section |  min time  |  avg time  |  max time  |%varavg|  %CPU | %total
-----------------------------------------------------------------------
Pair    | 13052      | 16699      | 17677      | 991.3 |  98.5 | 54.68
Bond    | 2.2269     | 4.1739     | 7.0726     |  89.5 | 100.0 |  0.01
Neigh   | 4304.1     | 5488.2     | 5811.3     | 557.8 |  99.7 | 17.97
Comm    | 4711.1     | 6776.1     | 11799      |2293.2 |  98.1 | 22.19
Output  | 213.1      | 213.37     | 213.42     |   0.3 |  98.7 |  0.70
Modify  | 517.59     | 919.56     | 2241.8     |2220.8 |  99.4 |  3.01
Other   |            | 437.8      |            |       |       |  1.43

Nlocal:        6860.33 ave        7001 max        6462 min
Histogram: 1 1 0 0 1 1 9 37 6 8
Nghost:        8144.58 ave        8939 max        5909 min
Histogram: 16 0 0 0 0 0 0 0 0 48
Neighs:       272449.0 ave      282758 max      221762 min
Histogram: 2 1 5 0 0 0 0 0 16 40

Total # of neighbors = 17436725
Ave neighs/atom = 39.713673
Ave special neighs/atom = 0.0000000
Neighbor list builds = 500000
Dangerous builds = 492650
write_data	data.lj
System init for write_data ...
WARNING: Not all mixed pair coeffs generated from mixing. Use write_data with 'pair ij' option to store all pair coeffs. (src/write_data.cpp:312)


## Evaporation
#region          regevap block EDGE EDGE EDGE EDGE 140 EDGE units box
#fix             4 solvent evaporate ${evap} 1 regevap 156415

#run 		20000000
Total wall time: 8:29:02
