LAMMPS (3 Mar 2020)
  using 1 OpenMP thread(s) per MPI task
#Read the equilibrated lj fluid and add nanocubes



units           lj
atom_style      full
atom_modify     map array first cubes
dimension       3
boundary        p p f
pair_style      lj/cut/opt 4.4

variable        sigma           equal 1.0
variable        epsilon         equal 1.0
read_data	data.restart
Reading data file ...
  orthogonal box = (0 0 0) to (80 80 160)
  2 by 2 by 8 MPI processor grid
  reading atoms ...
  489200 atoms
  reading velocities ...
  489200 velocities
Finding 1-2 1-3 1-4 neighbors ...
  special bond factors lj:   0          0          0         
  special bond factors coul: 0          0          0         
  0 = max # of 1-2 neighbors
  0 = max # of 1-3 neighbors
  0 = max # of 1-4 neighbors
  1 = max # of special neighbors
  special bonds CPU = 0.326738 secs
  read_data CPU = 2.02131 secs

group		solvent type 1
489200 atoms in group solvent

read_data	data.cubes group cubes add append
Reading data file ...
  orthogonal box = (0 0 0) to (80 80 160)
  2 by 2 by 8 MPI processor grid
  reading atoms ...
  73152 atoms
  reading velocities ...
  73152 velocities
Finding 1-2 1-3 1-4 neighbors ...
  special bond factors lj:   0          0          0         
  special bond factors coul: 0          0          0         
  0 = max # of 1-2 neighbors
  0 = max # of 1-3 neighbors
  0 = max # of 1-4 neighbors
  1 = max # of special neighbors
  special bonds CPU = 0.0111131 secs
  read_data CPU = 0.169046 secs

neighbor      0.4 bin
neigh_modify  exclude molecule/intra cubes

pair_modify   shift yes
pair_coeff    1 1 1.0 1.0 4.4 #solvent
pair_coeff    2 2 0.6 1.0 2.2 #np
pair_coeff    3 3 0.0 0.0 0.0 #dummy
pair_coeff    2 3 0.0 0.0 0.0 #np dummy
pair_coeff    1 2 0.8 1.0 4.4 #np solvent
pair_coeff    1 3 0.0 0.0 0.0 #dummy solvent

delete_atoms  overlap 1.0 solvent cubes
System init for delete_atoms ...
Neighbor list info ...
  update every 1 steps, delay 10 steps, check yes
  max neighbors/atom: 2000, page size: 100000
  master list distance cutoff = 4.8
  ghost atom cutoff = 4.8
  binsize = 2.4, bins = 34 34 67
  2 neighbor lists, perpetual/occasional/extra = 1 1 0
  (1) command delete_atoms, occasional
      attributes: full, newton on
      pair build: full/bin
      stencil: full/bin/3d
      bin: standard
  (2) pair lj/cut/opt, perpetual
      attributes: half, newton on
      pair build: half/bin/newton
      stencil: half/bin/3d/newton
      bin: standard
WARNING: Delete_atoms cutoff > minimum neighbor cutoff (src/delete_atoms.cpp:338)
WARNING: Ignoring 'compress yes' for molecular system (src/delete_atoms.cpp:125)
Deleted 40261 atoms, new total = 522091

comm_modify     cutoff 6.95

reset_timestep 	0
balance 	1.05 shift z 10 1.05
Balancing ...
Neighbor list info ...
  update every 1 steps, delay 10 steps, check yes
  max neighbors/atom: 2000, page size: 100000
  master list distance cutoff = 4.8
  ghost atom cutoff = 6.95
  binsize = 2.4, bins = 34 34 67
  1 neighbor lists, perpetual/occasional/extra = 1 0 0
  (1) pair lj/cut/opt, perpetual
      attributes: half, newton on
      pair build: half/bin/newton
      stencil: half/bin/3d/newton
      bin: standard
  rebalancing time: 0.0231211 seconds
  iteration count = 5
  initial/final max load/proc = 24745 17591
  initial/final imbalance factor = 1.51667 1.07819
  x cuts: 0 0.5 1
  y cuts: 0 0.5 1
  z cuts: 0 0.0820312 0.167969 0.253906 0.335938 0.429688 0.507812 0.605469 1

####################### WALLS ###########################

variable       epsilonWall equal 2*${epsilon}
variable       epsilonWall equal 2*1

variable       cutoffTop   equal   0.7147*${sigma}
variable       cutoffTop   equal   0.7147*1

variable       cutoffLow   equal   3*${sigma}
variable       cutoffLow   equal   3*1

region         lowWall block EDGE EDGE EDGE EDGE EDGE 2

delete_atoms   region lowWall
WARNING: Ignoring 'compress yes' for molecular system (src/delete_atoms.cpp:125)
Deleted 6661 atoms, new total = 515430



fix            topWall all wall/lj93 zhi EDGE 	       ${epsilonWall} ${sigma} ${cutoffTop} units box
fix            topWall all wall/lj93 zhi EDGE 	       2 ${sigma} ${cutoffTop} units box
fix            topWall all wall/lj93 zhi EDGE 	       2 1 ${cutoffTop} units box
fix            topWall all wall/lj93 zhi EDGE 	       2 1 0.7147 units box

fix            lowWall all wall/lj93 zlo EDGE                ${epsilonWall} ${sigma} ${cutoffLow} units box
fix            lowWall all wall/lj93 zlo EDGE                2 ${sigma} ${cutoffLow} units box
fix            lowWall all wall/lj93 zlo EDGE                2 1 ${cutoffLow} units box
fix            lowWall all wall/lj93 zlo EDGE                2 1 3 units box


######################  FIXES ############################


fix             1 cubes rigid/nvt/small molecule temp 1.0 1.0 0.25
  create bodies CPU = 0.00792026 secs
64 rigid bodies with 73152 atoms
  6.94564 = max distance from body owner to body atom

fix             2 solvent nve


## Thermostat


region          regthermo block EDGE EDGE EDGE EDGE 0 20

group           thermo dynamic solvent region regthermo every 1000
dynamic group thermo defined

fix             3 thermo langevin 1.0 1.0 0.1 156453




#### Load balancing

fix             bal all balance 1000 1.05 shift z 10 1.05

############### Diagnostics and computes ###################
#compute        com cube          rigid/local   1 mol x y z
#compute        quat cube         rigid/local   1 mol quatw quati quatj quatk

thermo          1000
thermo_style    custom step temp epair evdwl etotal press pe ke vol

dump            1 all custom 100000 dump.lammpstrj id mol type x y z
dump            2 all image 10000 image.*.png type type

dump_modify     2 pad 8


dump		image cubes image 10000 image.*.png type type

dump_modify	2 pad 8

dump            3 all movie 5000 movie.avi type type
#dump           com cube local 1000 dump.*.xyz c_com[*]
#dump           quat cube      local 1000 dump.*.quat c_quat[*]


restart         500000 restart.dat
timestep        0.0025
timer           full
New timer settings: style=full  mode=nosync  timeout=off

run            1000000
Setting up Verlet run ...
  Unit style    : lj
  Current step  : 0
  Time step     : 0.0025
Per MPI rank memory allocation (min/avg/max) = 50.3 | 60.23 | 64.61 Mbytes
Step Temp E_pair E_vdwl TotEng Press PotEng KinEng Volume 
       0   0.98761916   -3.9573298   -3.9573298   -2.6857866 -0.012303543   -3.9573298    1.2715431      1024000 
    1000   0.98691268   -3.9505446   -3.9505446   -2.6799111 -0.013428317   -3.9505446    1.2706336      1024000 
    2000   0.98638035   -3.9466191   -3.9466191   -2.6766709 -0.014139966   -3.9466191    1.2699482      1024000 
    3000   0.98559265   -3.9417137   -3.9417137   -2.6727797 -0.014865524   -3.9417137    1.2689341      1024000 
    4000   0.98733754   -3.9425455   -3.9425455    -2.671365 -0.001881508   -3.9425455    1.2711806      1024000 
    5000   0.98936208   -3.9436337   -3.9436337   -2.6698466 0.0066875536   -3.9436337    1.2737871      1024000 
    6000   0.99178594    -3.946974    -3.946974   -2.6700662 0.0046215611    -3.946974    1.2769078      1024000 
    7000   0.99265856   -3.9472764   -3.9472764   -2.6692451  0.016967757   -3.9472764    1.2780313      1024000 
    8000   0.99488951   -3.9511442   -3.9511442   -2.6702406  0.033197185   -3.9511442    1.2809036      1024000 
    9000   0.99637912   -3.9530015   -3.9530015     -2.67018  0.017472432   -3.9530015    1.2828214      1024000 
   10000   0.99812075   -3.9536875   -3.9536875   -2.6686238  0.041505353   -3.9536875    1.2850638      1024000 
   11000   0.99713945   -3.9545213   -3.9545213    -2.670721  0.030731821   -3.9545213    1.2838004      1024000 
   12000   0.99835403   -3.9554286   -3.9554286   -2.6700645  0.042178022   -3.9554286    1.2853641      1024000 
   13000    1.0014725     -3.96091     -3.96091   -2.6715309  0.043873424     -3.96091    1.2893791      1024000 
   14000    1.0018622   -3.9618111   -3.9618111   -2.6719303  0.035081367   -3.9618111    1.2898808      1024000 
   15000    1.0000988   -3.9636664   -3.9636664    -2.676056  0.055739159   -3.9636664    1.2876105      1024000 
   16000    1.0022993    -3.965363    -3.965363   -2.6749195  0.046738462    -3.965363    1.2904436      1024000 
   17000     1.003435   -3.9668526   -3.9668526   -2.6749469  0.061165129   -3.9668526    1.2919057      1024000 
   18000    1.0042894   -3.9695445   -3.9695445   -2.6765387  0.051729509   -3.9695445    1.2930058      1024000 
   19000    1.0049006   -3.9700668   -3.9700668   -2.6762741  0.058826007   -3.9700668    1.2937927      1024000 
   20000    1.0040584   -3.9703526   -3.9703526   -2.6776443   0.05335611   -3.9703526    1.2927084      1024000 
   21000    1.0045703   -3.9718608   -3.9718608   -2.6784933   0.05206384   -3.9718608    1.2933674      1024000 
   22000    1.0041116   -3.9721918   -3.9721918   -2.6794149  0.055301416   -3.9721918    1.2927768      1024000 
   23000    1.0026371   -3.9699708   -3.9699708   -2.6790922  0.051700112   -3.9699708    1.2908785      1024000 
   24000    1.0035716   -3.9722997   -3.9722997   -2.6802181  0.046423637   -3.9722997    1.2920816      1024000 
   25000    1.0008508   -3.9697246   -3.9697246    -2.681146  0.044461488   -3.9697246    1.2885786      1024000 
   26000    1.0012754   -3.9696501   -3.9696501   -2.6805247  0.037078136   -3.9696501    1.2891254      1024000 
   27000   0.99789622   -3.9667957   -3.9667957    -2.682021  0.038309404   -3.9667957    1.2847747      1024000 
   28000   0.99723064   -3.9664409   -3.9664409   -2.6825232  0.031957321   -3.9664409    1.2839178      1024000 
   29000   0.99876116   -3.9674712   -3.9674712   -2.6815829  0.032899697   -3.9674712    1.2858883      1024000 
   30000    0.9994295   -3.9680011   -3.9680011   -2.6812524  0.027987734   -3.9680011    1.2867488      1024000 
   31000   0.99694296   -3.9668513   -3.9668513   -2.6833039  0.032298357   -3.9668513    1.2835474      1024000 
   32000   0.99618802   -3.9659677   -3.9659677   -2.6833923  0.031058334   -3.9659677    1.2825754      1024000 
   33000   0.99697451   -3.9655155   -3.9655155   -2.6819275  0.022048795   -3.9655155     1.283588      1024000 
   34000   0.99496388   -3.9626253   -3.9626253   -2.6816259  0.022088082   -3.9626253    1.2809993      1024000 
   35000   0.99314527   -3.9615305   -3.9615305   -2.6828726  0.018301316   -3.9615305    1.2786579      1024000 
   36000   0.99560759   -3.9621456   -3.9621456   -2.6803175  0.018806724   -3.9621456    1.2818281      1024000 
   37000   0.99385433    -3.960203    -3.960203   -2.6806322  0.020505649    -3.960203    1.2795708      1024000 
   38000   0.99241888   -3.9590507   -3.9590507    -2.681328  0.017506884   -3.9590507    1.2777227      1024000 
   39000   0.99126336   -3.9584981   -3.9584981   -2.6822631  0.021040287   -3.9584981     1.276235      1024000 
   40000   0.99165104   -3.9570293   -3.9570293   -2.6802951  0.012144065   -3.9570293    1.2767341      1024000 
   41000   0.99181555    -3.959323    -3.959323   -2.6823771  0.021234263    -3.959323    1.2769459      1024000 
   42000   0.99352142   -3.9628183   -3.9628183   -2.6836761 0.0063510737   -3.9628183    1.2791422      1024000 
   43000   0.99441162   -3.9612958   -3.9612958   -2.6810075  0.023228998   -3.9612958    1.2802883      1024000 
   44000   0.99447817   -3.9622004   -3.9622004   -2.6818264  0.017897352   -3.9622004     1.280374      1024000 
   45000   0.99234105    -3.960643    -3.960643   -2.6830205  0.027940083    -3.960643    1.2776225      1024000 
   46000   0.99498119   -3.9624847   -3.9624847   -2.6814631  0.024587232   -3.9624847    1.2810216      1024000 
   47000   0.99329068   -3.9612393   -3.9612393   -2.6823942  0.021418596   -3.9612393    1.2788451      1024000 
   48000   0.99265663    -3.962805    -3.962805   -2.6847762  0.024402402    -3.962805    1.2780288      1024000 
   49000   0.99473568   -3.9644094   -3.9644094   -2.6837038   0.02925436   -3.9644094    1.2807055      1024000 
   50000    0.9948885   -3.9646301   -3.9646301   -2.6837278   0.02298639   -3.9646301    1.2809023      1024000 
   51000    0.9960237   -3.9661935   -3.9661935   -2.6838297  0.023779379   -3.9661935    1.2823638      1024000 
   52000   0.99705225   -3.9679196   -3.9679196   -2.6842315  0.030525691   -3.9679196    1.2836881      1024000 
   53000   0.99779598   -3.9691778   -3.9691778   -2.6845321  0.041884058   -3.9691778    1.2846456      1024000 
   54000   0.99747962   -3.9705791   -3.9705791   -2.6863408    0.0308867   -3.9705791    1.2842383      1024000 
   55000   0.99810033   -3.9715978   -3.9715978   -2.6865603  0.038857488   -3.9715978    1.2850375      1024000 
   56000   0.99799371    -3.970975    -3.970975   -2.6860748  0.039595933    -3.970975    1.2849002      1024000 
   57000   0.99827159   -3.9717572   -3.9717572   -2.6864992  0.038711691   -3.9717572     1.285258      1024000 
   58000   0.99750025   -3.9725783   -3.9725783   -2.6883135  0.040948329   -3.9725783    1.2842649      1024000 
   59000   0.99783272   -3.9736776   -3.9736776   -2.6889846  0.050126551   -3.9736776    1.2846929      1024000 
   60000     0.998291   -3.9742859   -3.9742859    -2.689003  0.037907496   -3.9742859     1.285283      1024000 
   61000   0.99787244   -3.9730486   -3.9730486   -2.6883045  0.045599603   -3.9730486    1.2847441      1024000 
   62000   0.99678489   -3.9738672   -3.9738672   -2.6905233  0.039373744   -3.9738672    1.2833439      1024000 
   63000   0.99718394   -3.9740493   -3.9740493   -2.6901917   0.03896995   -3.9740493    1.2838576      1024000 
   64000   0.99783995    -3.973551    -3.973551   -2.6888488  0.041978137    -3.973551    1.2847022      1024000 
   65000   0.99752797   -3.9732451   -3.9732451   -2.6889446  0.042101784   -3.9732451    1.2843006      1024000 
   66000   0.99697894   -3.9734645   -3.9734645   -2.6898708  0.043640192   -3.9734645    1.2835937      1024000 
   67000   0.99673441   -3.9731695   -3.9731695   -2.6898906  0.036092517   -3.9731695    1.2832789      1024000 
   68000   0.99611673   -3.9723877   -3.9723877   -2.6899041  0.033661751   -3.9723877    1.2824836      1024000 
   69000   0.99614169    -3.973337    -3.973337   -2.6908212  0.040678077    -3.973337    1.2825158      1024000 
   70000    0.9964741    -3.974831    -3.974831   -2.6918873  0.031442495    -3.974831    1.2829437      1024000 
   71000   0.99490892   -3.9705252   -3.9705252   -2.6895966  0.027531746   -3.9705252    1.2809286      1024000 
   72000   0.99389007   -3.9710547   -3.9710547   -2.6914379  0.024425262   -3.9710547    1.2796168      1024000 
   73000   0.99356182   -3.9730165   -3.9730165   -2.6938223  0.028760965   -3.9730165    1.2791942      1024000 
   74000     0.994479   -3.9718697   -3.9718697   -2.6914947  0.029574479   -3.9718697    1.2803751      1024000 
   75000   0.99370309   -3.9727877   -3.9727877   -2.6934116  0.027746928   -3.9727877    1.2793761      1024000 
   76000   0.99452208   -3.9738413   -3.9738413   -2.6934108  0.032141384   -3.9738413    1.2804305      1024000 
   77000   0.99446327   -3.9716165   -3.9716165   -2.6912617  0.030054153   -3.9716165    1.2803548      1024000 
   78000   0.99376949   -3.9729074   -3.9729074   -2.6934458  0.035420218   -3.9729074    1.2794616      1024000 
   79000   0.99603698   -3.9745851   -3.9745851   -2.6922042  0.032816393   -3.9745851    1.2823809      1024000 
   80000   0.99526814   -3.9741244   -3.9741244   -2.6927334  0.029189667   -3.9741244    1.2813911      1024000 
   81000   0.99727246   -3.9740012   -3.9740012   -2.6900296  0.029296331   -3.9740012    1.2839716      1024000 
   82000   0.99488501    -3.972141    -3.972141   -2.6912432  0.039699777    -3.972141    1.2808978      1024000 
   83000   0.99434153   -3.9729385   -3.9729385   -2.6927404  0.030600225   -3.9729385    1.2801981      1024000 
   84000   0.99474226   -3.9742131   -3.9742131   -2.6934991  0.033189059   -3.9742131     1.280714      1024000 
   85000   0.99251759   -3.9730317   -3.9730317   -2.6951819  0.032265444   -3.9730317    1.2778498      1024000 
   86000   0.99294536   -3.9731401   -3.9731401   -2.6947396  0.029145269   -3.9731401    1.2784005      1024000 
   87000   0.99373102   -3.9753952   -3.9753952   -2.6959831  0.030038295   -3.9753952    1.2794121      1024000 
   88000   0.99375071   -3.9754784   -3.9754784    -2.696041  0.030356725   -3.9754784    1.2794374      1024000 
   89000    0.9951828   -3.9796112   -3.9796112     -2.69833  0.026515468   -3.9796112    1.2812812      1024000 
   90000   0.99337477   -3.9767011   -3.9767011   -2.6977477  0.027006395   -3.9767011    1.2789534      1024000 
   91000   0.99245158   -3.9779142   -3.9779142   -2.7001494  0.039613367   -3.9779142    1.2777648      1024000 
   92000   0.99312469   -3.9770225   -3.9770225    -2.698391  0.043782843   -3.9770225    1.2786314      1024000 
   93000   0.99476392    -3.978379    -3.978379   -2.6976371  0.034454218    -3.978379    1.2807419      1024000 
   94000   0.99525462   -3.9798333   -3.9798333   -2.6984596  0.035701919   -3.9798333    1.2813737      1024000 
   95000   0.99561516   -3.9801473   -3.9801473   -2.6983094  0.035314289   -3.9801473    1.2818379      1024000 
   96000   0.99360876   -3.9800065   -3.9800065   -2.7007519  0.031763596   -3.9800065    1.2792546      1024000 
   97000   0.99460786   -3.9806682   -3.9806682   -2.7001272  0.036286419   -3.9806682     1.280541      1024000 
   98000   0.99543448   -3.9805174   -3.9805174   -2.6989121  0.027628766   -3.9805174    1.2816052      1024000 
   99000    0.9947935   -3.9800853   -3.9800853   -2.6993053  0.039125042   -3.9800853      1.28078      1024000 
  100000   0.99431343   -3.9813217   -3.9813217   -2.7011598   0.04276338   -3.9813217    1.2801619      1024000 
  101000   0.99533451   -3.9823088   -3.9823088   -2.7008323  0.032647897   -3.9823088    1.2814765      1024000 
  102000   0.99485622   -3.9816769   -3.9816769   -2.7008161  0.037952772   -3.9816769    1.2808607      1024000 
  103000   0.99561664   -3.9824876   -3.9824876   -2.7006479  0.039326397   -3.9824876    1.2818398      1024000 
  104000    0.9950493   -3.9839932   -3.9839932   -2.7028839  0.041746884   -3.9839932    1.2811093      1024000 
  105000   0.99384533   -3.9816039   -3.9816039   -2.7020447  0.036479794   -3.9816039    1.2795592      1024000 
  106000   0.99581551   -3.9845542   -3.9845542   -2.7024584  0.032054145   -3.9845542    1.2820958      1024000 
  107000   0.99513609   -3.9844764   -3.9844764   -2.7032553  0.037110355   -3.9844764    1.2812211      1024000 
  108000   0.99526828   -3.9837829   -3.9837829   -2.7023917  0.037417772   -3.9837829    1.2813913      1024000 
  109000   0.99393072   -3.9835093   -3.9835093   -2.7038401  0.044402363   -3.9835093    1.2796692      1024000 
  110000    0.9947221   -3.9835872   -3.9835872   -2.7028992  0.035987346   -3.9835872    1.2806881      1024000 
  111000   0.99479066   -3.9840156   -3.9840156   -2.7032393    0.0413543   -3.9840156    1.2807763      1024000 
  112000   0.99328097   -3.9825596   -3.9825596    -2.703727  0.041690992   -3.9825596    1.2788326      1024000 
  113000   0.99405885   -3.9847115   -3.9847115   -2.7048774  0.032649159   -3.9847115    1.2798341      1024000 
  114000   0.99273198   -3.9845699   -3.9845699    -2.706444  0.041829228   -3.9845699    1.2781258      1024000 
  115000   0.99392132   -3.9848559   -3.9848559   -2.7051988  0.031632313   -3.9848559    1.2796571      1024000 
  116000   0.99311566    -3.984339    -3.984339   -2.7057192   0.03447218    -3.984339    1.2786198      1024000 
  117000   0.99051799   -3.9825151   -3.9825151   -2.7072398  0.034401189   -3.9825151    1.2752753      1024000 
  118000   0.99177584   -3.9834806   -3.9834806   -2.7065858  0.044234284   -3.9834806    1.2768948      1024000 
  119000   0.99225308   -3.9852273   -3.9852273   -2.7077181  0.030261611   -3.9852273    1.2775092      1024000 
  120000   0.99272119   -3.9849217   -3.9849217   -2.7068098  0.046009554   -3.9849217    1.2781119      1024000 
  121000   0.99426245   -3.9875675   -3.9875675   -2.7074712   0.04042902   -3.9875675    1.2800963      1024000 
  122000   0.99168545   -3.9849783   -3.9849783   -2.7081999  0.046055324   -3.9849783    1.2767784      1024000 
  123000    0.9958678   -3.9891582   -3.9891582   -2.7069951  0.032233004   -3.9891582    1.2821631      1024000 
  124000   0.99312953   -3.9862257   -3.9862257    -2.707588  0.042120615   -3.9862257    1.2786376      1024000 
  125000   0.99251997   -3.9871146   -3.9871146   -2.7092618  0.035638072   -3.9871146    1.2778528      1024000 
  126000   0.99196968    -3.985835    -3.985835   -2.7086907  0.033430495    -3.985835    1.2771444      1024000 
  127000   0.99298513    -3.989173    -3.989173   -2.7107212  0.046455326    -3.989173    1.2784517      1024000 
  128000   0.99309794   -3.9890646   -3.9890646   -2.7104676  0.033796134   -3.9890646     1.278597      1024000 
  129000   0.99412326   -3.9928411   -3.9928411    -2.712924   0.02773495   -3.9928411    1.2799171      1024000 
  130000   0.99272536   -3.9910704   -3.9910704   -2.7129531  0.044853718   -3.9910704    1.2781173      1024000 
  131000   0.99286007   -3.9903753   -3.9903753   -2.7120845  0.043777201   -3.9903753    1.2782907      1024000 
  132000   0.99378835   -3.9915219   -3.9915219    -2.712036  0.039464316   -3.9915219    1.2794859      1024000 
  133000   0.99400671   -3.9925738   -3.9925738   -2.7128068  0.042849074   -3.9925738     1.279767      1024000 
  134000   0.99342347   -3.9915693   -3.9915693   -2.7125532  0.048675104   -3.9915693    1.2790161      1024000 
  135000   0.99251208   -3.9904932   -3.9904932   -2.7126505   0.05910063   -3.9904932    1.2778427      1024000 
  136000   0.99351935   -3.9929943   -3.9929943   -2.7138547  0.054882416   -3.9929943    1.2791395      1024000 
  137000   0.99386064   -3.9931461   -3.9931461   -2.7135672   0.05472023   -3.9931461    1.2795789      1024000 
  138000   0.99479463    -3.993583    -3.993583   -2.7128016  0.058429311    -3.993583    1.2807814      1024000 
  139000   0.99549957   -3.9952521   -3.9952521    -2.713563  0.049618471   -3.9952521     1.281689      1024000 
  140000   0.99304012   -3.9928017   -3.9928017   -2.7142791  0.055513582   -3.9928017    1.2785225      1024000 
  141000   0.99305717   -3.9943319   -3.9943319   -2.7157874  0.047475101   -3.9943319    1.2785445      1024000 
  142000   0.99449666   -3.9968834   -3.9968834   -2.7164856  0.038673178   -3.9968834    1.2803978      1024000 
  143000    0.9931549   -3.9948033   -3.9948033    -2.716133  0.056243304   -3.9948033    1.2786703      1024000 
  144000   0.99248065   -3.9954133   -3.9954133    -2.717611  0.056405871   -3.9954133    1.2778022      1024000 
  145000   0.99160119   -3.9946923   -3.9946923   -2.7180224  0.043033363   -3.9946923    1.2766699      1024000 
  146000   0.99312274   -3.9960299   -3.9960299    -2.717401  0.043348814   -3.9960299    1.2786289      1024000 
  147000   0.99072657   -3.9940007   -3.9940007   -2.7184568  0.035308007   -3.9940007    1.2755439      1024000 
  148000    0.9924577   -3.9951628   -3.9951628   -2.7173901  0.043981911   -3.9951628    1.2777727      1024000 
  149000   0.99154264   -3.9944604   -3.9944604   -2.7178659   0.04796675   -3.9944604    1.2765946      1024000 
  150000   0.99363442   -3.9951402   -3.9951402   -2.7158525  0.033144566   -3.9951402    1.2792877      1024000 
  151000   0.99305305   -3.9947141   -3.9947141   -2.7161749  0.047802099   -3.9947141    1.2785392      1024000 
  152000   0.99230412    -3.995038    -3.995038   -2.7174631  0.046232593    -3.995038    1.2775749      1024000 
  153000   0.99197041   -3.9944684   -3.9944684   -2.7173231  0.054120896   -3.9944684    1.2771453      1024000 
  154000   0.99247826   -3.9967198   -3.9967198   -2.7189206  0.043719201   -3.9967198    1.2777992      1024000 
  155000   0.99266164    -3.996385    -3.996385   -2.7183498  0.041710365    -3.996385    1.2780353      1024000 
  156000   0.99154116   -3.9947231   -3.9947231   -2.7181304  0.049911091   -3.9947231    1.2765927      1024000 
  157000   0.99082991   -3.9943351   -3.9943351   -2.7186582  0.047702756   -3.9943351    1.2756769      1024000 
  158000   0.99234104    -3.996631    -3.996631   -2.7190085   0.03799598    -3.996631    1.2776225      1024000 
  159000   0.99217989   -3.9955965   -3.9955965   -2.7181815  0.044068277   -3.9955965     1.277415      1024000 
  160000   0.99332262   -3.9977586   -3.9977586   -2.7188723  0.050171382   -3.9977586    1.2788863      1024000 
  161000   0.99376694   -3.9974817   -3.9974817   -2.7180234  0.048999321   -3.9974817    1.2794583      1024000 
  162000   0.99300347    -3.998688    -3.998688   -2.7202127  0.048020321    -3.998688    1.2784753      1024000 
  163000   0.99476278      -4.0002      -4.0002   -2.7194596  0.044131331      -4.0002    1.2807404      1024000 
  164000   0.99519724   -3.9998978   -3.9998978    -2.718598  0.055626402   -3.9998978    1.2812998      1024000 
  165000   0.99209999   -3.9979009   -3.9979009   -2.7205888  0.054520413   -3.9979009    1.2773121      1024000 
  166000   0.99448007   -3.9998731   -3.9998731   -2.7194967  0.051013374   -3.9998731    1.2803765      1024000 
  167000    0.9944151    -3.999345    -3.999345   -2.7190522  0.059567414    -3.999345    1.2802928      1024000 
  168000   0.99385746   -4.0004133   -4.0004133   -2.7208385  0.060594415   -4.0004133    1.2795748      1024000 
  169000   0.99394926   -4.0011123   -4.0011123   -2.7214193  0.066381132   -4.0011123     1.279693      1024000 
  170000   0.99352027   -4.0008393   -4.0008393   -2.7216986  0.051078909   -4.0008393    1.2791407      1024000 
  171000   0.99231498   -4.0006819   -4.0006819    -2.723093  0.053585931   -4.0006819    1.2775889      1024000 
  172000   0.99321425   -4.0012649   -4.0012649   -2.7225182  0.045642022   -4.0012649    1.2787467      1024000 
  173000   0.99242533   -3.9984458   -3.9984458   -2.7207148  0.052399445   -3.9984458     1.277731      1024000 
  174000   0.99221795     -3.99918     -3.99918    -2.721716  0.048639552     -3.99918     1.277464      1024000 
  175000   0.99160448   -3.9979832   -3.9979832    -2.721309  0.049258228   -3.9979832    1.2766742      1024000 
  176000   0.99179063   -4.0011912   -4.0011912   -2.7242774  0.049001725   -4.0011912    1.2769138      1024000 
  177000   0.99252373   -4.0006041   -4.0006041   -2.7227464  0.047184046   -4.0006041    1.2778577      1024000 
  178000   0.99136214   -4.0006611   -4.0006611    -2.724299  0.051798029   -4.0006611    1.2763622      1024000 
  179000   0.99073109   -4.0010312   -4.0010312   -2.7254815   0.05880505   -4.0010312    1.2755497      1024000 
  180000   0.99291008   -4.0025124   -4.0025124   -2.7241573  0.055150615   -4.0025124    1.2783551      1024000 
  181000   0.99275091   -4.0011712   -4.0011712    -2.723021  0.054161289   -4.0011712    1.2781502      1024000 
  182000   0.99167912   -4.0014055   -4.0014055   -2.7246353  0.048894991   -4.0014055    1.2767703      1024000 
  183000   0.99211988   -4.0029968   -4.0029968   -2.7256591  0.044076723   -4.0029968    1.2773377      1024000 
  184000   0.99019249   -4.0004677   -4.0004677   -2.7256115  0.044352891   -4.0004677    1.2748563      1024000 
  185000   0.99153671   -4.0030138   -4.0030138   -2.7264269  0.043688244   -4.0030138    1.2765869      1024000 
  186000   0.99056494   -4.0011736   -4.0011736   -2.7258378  0.050343556   -4.0011736    1.2753358      1024000 
  187000   0.99149939   -4.0013353   -4.0013353   -2.7247965  0.061772109   -4.0013353    1.2765389      1024000 
  188000   0.99238171   -4.0033624   -4.0033624   -2.7256875  0.052756221   -4.0033624    1.2776748      1024000 
  189000   0.99465577    -4.003759    -4.003759   -2.7231563  0.059159225    -4.003759    1.2806027      1024000 
  190000   0.99378243   -4.0048352   -4.0048352   -2.7253569   0.05693909   -4.0048352    1.2794783      1024000 
  191000   0.99217716   -4.0041434   -4.0041434   -2.7267319  0.057739727   -4.0041434    1.2774115      1024000 
  192000   0.99365069   -4.0046162   -4.0046162   -2.7253075  0.067332319   -4.0046162    1.2793086      1024000 
  193000    0.9929319   -4.0037824   -4.0037824   -2.7253992   0.06333373   -4.0037824    1.2783832      1024000 
  194000    0.9933028   -4.0054443   -4.0054443   -2.7265836  0.058798261   -4.0054443    1.2788607      1024000 
  195000   0.99248194   -4.0045916   -4.0045916   -2.7267877  0.054174114   -4.0045916    1.2778039      1024000 
  196000   0.99336767   -4.0052317   -4.0052317   -2.7262874  0.057422235   -4.0052317    1.2789442      1024000 
  197000   0.99299308   -4.0045234   -4.0045234   -2.7260614   0.06035055   -4.0045234     1.278462      1024000 
  198000    0.9937895   -4.0075903   -4.0075903   -2.7281029  0.055116598   -4.0075903    1.2794874      1024000 
  199000   0.99203541   -4.0057726   -4.0057726   -2.7285436  0.054650988   -4.0057726     1.277229      1024000 
  200000   0.99166329    -4.007787    -4.007787   -2.7310371  0.048576717    -4.007787    1.2767499      1024000 
  201000   0.99198796   -4.0066835   -4.0066835   -2.7295156  0.060310292   -4.0066835    1.2771679      1024000 
  202000    0.9909836   -4.0064664   -4.0064664   -2.7305916  0.056176708   -4.0064664    1.2758748      1024000 
  203000    0.9928063   -4.0069075   -4.0069075    -2.728686  0.056087861   -4.0069075    1.2782215      1024000 
  204000   0.99237126   -4.0052884   -4.0052884    -2.727627  0.056890054   -4.0052884    1.2776614      1024000 
  205000   0.99102392   -4.0054777   -4.0054777    -2.729551  0.050298498   -4.0054777    1.2759267      1024000 
  206000   0.99130163   -4.0035293   -4.0035293    -2.727245  0.067953363   -4.0035293    1.2762843      1024000 
  207000   0.99324805    -4.007429    -4.007429   -2.7286388  0.049779463    -4.007429    1.2787902      1024000 
  208000   0.99193101   -4.0046706   -4.0046706    -2.727576  0.062452075   -4.0046706    1.2770946      1024000 
  209000   0.99362479   -4.0073798   -4.0073798   -2.7281045  0.056681214   -4.0073798    1.2792753      1024000 
  210000   0.99305562   -4.0076346   -4.0076346   -2.7290921  0.052331608   -4.0076346    1.2785425      1024000 
  211000   0.99277106   -4.0054929   -4.0054929   -2.7273168  0.068154948   -4.0054929    1.2781761      1024000 
  212000    0.9924894   -4.0041212   -4.0041212   -2.7263077  0.070554091   -4.0041212    1.2778135      1024000 
  213000    0.9927453   -4.0065933   -4.0065933   -2.7284503  0.059608377   -4.0065933     1.278143      1024000 
  214000   0.99304796   -4.0061094   -4.0061094   -2.7275767  0.055471299   -4.0061094    1.2785326      1024000 
  215000   0.99139289   -4.0051058   -4.0051058   -2.7287041  0.055368377   -4.0051058    1.2764018      1024000 
  216000   0.99257664   -4.0055391   -4.0055391   -2.7276133  0.052887141   -4.0055391    1.2779258      1024000 
  217000   0.99105173   -4.0048944   -4.0048944   -2.7289319  0.051219782   -4.0048944    1.2759625      1024000 
  218000   0.98920297   -4.0031481   -4.0031481   -2.7295658   0.05723641   -4.0031481    1.2735823      1024000 
  219000   0.99170283   -4.0046684   -4.0046684   -2.7278676  0.066434218   -4.0046684    1.2768008      1024000 
  220000   0.99296286   -4.0073662   -4.0073662   -2.7289431  0.055168459   -4.0073662    1.2784231      1024000 
  221000   0.99185321   -4.0068761   -4.0068761   -2.7298817  0.054701455   -4.0068761    1.2769944      1024000 
  222000   0.99147682   -4.0053383   -4.0053383   -2.7288284  0.054594466   -4.0053383    1.2765098      1024000 
  223000    0.9917647   -4.0055147   -4.0055147   -2.7286342  0.058277008   -4.0055147    1.2768805      1024000 
  224000   0.99239972   -4.0083211   -4.0083211    -2.730623  0.052452508   -4.0083211     1.277698      1024000 
  225000   0.99375004   -4.0082452   -4.0082452   -2.7288086  0.056464572   -4.0082452    1.2794366      1024000 
  226000   0.99350085   -4.0074931   -4.0074931   -2.7283774  0.056308235   -4.0074931    1.2791157      1024000 
  227000   0.99127157   -4.0050027   -4.0050027   -2.7287571   0.06997104   -4.0050027    1.2762456      1024000 
  228000   0.99364591   -4.0071802   -4.0071802   -2.7278778  0.065992835   -4.0071802    1.2793025      1024000 
  229000   0.99194146   -4.0060017   -4.0060017   -2.7288937  0.053890167   -4.0060017     1.277108      1024000 
  230000   0.99269909    -4.006084    -4.006084   -2.7280005  0.055127729    -4.006084    1.2780835      1024000 
  231000   0.99238054   -4.0062695   -4.0062695   -2.7285961  0.050828066   -4.0062695    1.2776733      1024000 
  232000   0.99220531    -4.006688    -4.006688   -2.7292403  0.061887841    -4.006688    1.2774477      1024000 
  233000   0.99369619   -4.0076057   -4.0076057   -2.7282385  0.063406933   -4.0076057    1.2793672      1024000 
  234000   0.99242868   -4.0078296   -4.0078296   -2.7300942  0.059328547   -4.0078296    1.2777353      1024000 
  235000   0.99308078   -4.0072486   -4.0072486   -2.7286737  0.058963035   -4.0072486    1.2785749      1024000 
  236000   0.99337594   -4.0082978   -4.0082978   -2.7293429  0.059437875   -4.0082978    1.2789549      1024000 
  237000   0.99255235    -4.006496    -4.006496   -2.7286014   0.05260577    -4.006496    1.2778945      1024000 
  238000    0.9929013   -4.0081195   -4.0081195   -2.7297757  0.043015256   -4.0081195    1.2783438      1024000 
  239000   0.98970304   -4.0033751   -4.0033751    -2.729149  0.058638647   -4.0033751    1.2742261      1024000 
  240000   0.99209728   -4.0064708   -4.0064708   -2.7291621  0.060362777   -4.0064708    1.2773086      1024000 
  241000    0.9919592   -4.0079971   -4.0079971   -2.7308663  0.056344093   -4.0079971    1.2771309      1024000 
  242000   0.99280496   -4.0076983   -4.0076983   -2.7294785  0.051098608   -4.0076983    1.2782198      1024000 
  243000   0.99245501   -4.0084449   -4.0084449   -2.7306757  0.060124059   -4.0084449    1.2777692      1024000 
  244000   0.99109335   -4.0061942   -4.0061942   -2.7301781  0.060036697   -4.0061942    1.2760161      1024000 
  245000   0.99202896    -4.006842    -4.006842   -2.7296213  0.062721585    -4.006842    1.2772207      1024000 
  246000   0.99287689   -4.0080738   -4.0080738   -2.7297614  0.054170284   -4.0080738    1.2783124      1024000 
  247000   0.99182395   -4.0068052   -4.0068052   -2.7298484   0.06178739   -4.0068052    1.2769567      1024000 
  248000   0.99085636   -4.0051951   -4.0051951   -2.7294841   0.07155831   -4.0051951     1.275711      1024000 
  249000   0.99167146   -4.0052775   -4.0052775    -2.728517  0.060962881   -4.0052775    1.2767604      1024000 
  250000   0.99189043   -4.0058233   -4.0058233    -2.728781  0.065007602   -4.0058233    1.2770423      1024000 
  251000   0.99099975   -4.0046533   -4.0046533   -2.7287577  0.065799179   -4.0046533    1.2758956      1024000 
  252000   0.99256667   -4.0085191   -4.0085191   -2.7306061  0.052301823   -4.0085191     1.277913      1024000 
  253000   0.99324282   -4.0082312   -4.0082312   -2.7294477   0.06125077   -4.0082312    1.2787835      1024000 
  254000   0.99343107   -4.0078189   -4.0078189    -2.728793  0.068763365   -4.0078189    1.2790259      1024000 
  255000   0.99280388   -4.0074605   -4.0074605   -2.7292421    0.0614962   -4.0074605    1.2782184      1024000 
  256000     0.993328   -4.0082534   -4.0082534   -2.7293603  0.059629661   -4.0082534    1.2788932      1024000 
  257000   0.99231972   -4.0065672   -4.0065672   -2.7289722  0.059379969   -4.0065672     1.277595      1024000 
  258000   0.99230877   -4.0083806   -4.0083806   -2.7307996  0.053640008   -4.0083806    1.2775809      1024000 
  259000   0.99042521   -4.0077873   -4.0077873   -2.7326315  0.058587905   -4.0077873    1.2751559      1024000 
  260000   0.99195848   -4.0080544   -4.0080544   -2.7309244  0.056418733   -4.0080544    1.2771299      1024000 
  261000    0.9908801   -4.0072332   -4.0072332   -2.7314917  0.059284703   -4.0072332    1.2757415      1024000 
  262000   0.99224992   -4.0070356   -4.0070356   -2.7295304  0.065151177   -4.0070356    1.2775052      1024000 
  263000   0.99281073   -4.0071979   -4.0071979   -2.7289707  0.055493209   -4.0071979    1.2782272      1024000 
  264000   0.99162416   -4.0076542   -4.0076542   -2.7309546  0.062050767   -4.0076542    1.2766995      1024000 
  265000   0.99150636   -4.0073515   -4.0073515   -2.7308037  0.063044841   -4.0073515    1.2765478      1024000 
  266000   0.99168458     -4.00811     -4.00811   -2.7313327  0.061056226     -4.00811    1.2767773      1024000 
  267000   0.99195658   -4.0091133   -4.0091133   -2.7319858  0.058237281   -4.0091133    1.2771275      1024000 
  268000   0.99064639   -4.0078259   -4.0078259   -2.7323853  0.061061233   -4.0078259    1.2754406      1024000 
  269000   0.98971971   -4.0075767   -4.0075767   -2.7333291  0.060447131   -4.0075767    1.2742476      1024000 
  270000   0.99182822   -4.0091432   -4.0091432    -2.732181  0.059837785   -4.0091432    1.2769622      1024000 
  271000   0.99050209     -4.00963     -4.00963   -2.7343752  0.057413512     -4.00963    1.2752549      1024000 
  272000    0.9902554   -4.0091922   -4.0091922   -2.7342549  0.058215622   -4.0091922    1.2749373      1024000 
  273000    0.9919865   -4.0103077   -4.0103077   -2.7331417  0.058846651   -4.0103077     1.277166      1024000 
  274000   0.99198525   -4.0101774   -4.0101774    -2.733013  0.057699927   -4.0101774    1.2771644      1024000 
  275000   0.99255994   -4.0096806   -4.0096806   -2.7317763  0.064229178   -4.0096806    1.2779043      1024000 
  276000   0.99170665   -4.0115334   -4.0115334   -2.7347277  0.062034829   -4.0115334    1.2768057      1024000 
  277000   0.99095763   -4.0100171   -4.0100171   -2.7341757  0.067779101   -4.0100171    1.2758414      1024000 
  278000   0.99402876   -4.0121635   -4.0121635   -2.7323681  0.071260409   -4.0121635    1.2797954      1024000 
  279000   0.99334487   -4.0109456   -4.0109456   -2.7320307  0.072614428   -4.0109456    1.2789149      1024000 
  280000   0.99340504   -4.0128697   -4.0128697   -2.7338773  0.062864618   -4.0128697    1.2789924      1024000 
  281000   0.99275469   -4.0121533   -4.0121533   -2.7339982   0.06989656   -4.0121533     1.278155      1024000 
  282000   0.99342503   -4.0129723   -4.0129723   -2.7339542  0.071205386   -4.0129723    1.2790181      1024000 
  283000   0.99464778   -4.0142181   -4.0142181   -2.7336257  0.066677942   -4.0142181    1.2805924      1024000 
  284000   0.99154099   -4.0107286   -4.0107286   -2.7341362  0.079158714   -4.0107286    1.2765924      1024000 
  285000   0.99184985   -4.0107274   -4.0107274   -2.7337374  0.075426167   -4.0107274    1.2769901      1024000 
  286000   0.99016552   -4.0108963   -4.0108963   -2.7360747  0.070951918   -4.0108963    1.2748215      1024000 
  287000   0.99306087   -4.0126698   -4.0126698   -2.7341205  0.070542137   -4.0126698    1.2785493      1024000 
  288000   0.99200323   -4.0126017   -4.0126017   -2.7354141    0.0634468   -4.0126017    1.2771876      1024000 
  289000   0.99284307   -4.0117769   -4.0117769   -2.7335081  0.066141322   -4.0117769    1.2782688      1024000 
  290000   0.99343139   -4.0139692   -4.0139692   -2.7349429  0.061500114   -4.0139692    1.2790263      1024000 
  291000    0.9931386   -4.0130234   -4.0130234    -2.734374  0.069766139   -4.0130234    1.2786493      1024000 
  292000   0.99248293   -4.0122287   -4.0122287   -2.7344235  0.068000218   -4.0122287    1.2778052      1024000 
  293000   0.99105987    -4.011596    -4.011596    -2.735623  0.061499622    -4.011596     1.275973      1024000 
  294000   0.99127994   -4.0110261   -4.0110261   -2.7347698  0.064257448   -4.0110261    1.2762563      1024000 
  295000   0.99093129   -4.0106411   -4.0106411   -2.7348336  0.056817622   -4.0106411    1.2758075      1024000 
  296000   0.98944431   -4.0086716   -4.0086716   -2.7347787  0.057253456   -4.0086716     1.273893      1024000 
  297000   0.99065829   -4.0113111   -4.0113111   -2.7358552  0.055706488   -4.0113111     1.275456      1024000 
  298000   0.98945491   -4.0095285   -4.0095285   -2.7356218   0.06172584   -4.0095285    1.2739066      1024000 
  299000   0.99054105   -4.0090499   -4.0090499   -2.7337449  0.058970725   -4.0090499     1.275305      1024000 
  300000   0.98979092   -4.0073841   -4.0073841   -2.7330449  0.061995297   -4.0073841    1.2743393      1024000 
  301000   0.99010163   -4.0076804   -4.0076804   -2.7329411  0.068181524   -4.0076804    1.2747393      1024000 
  302000   0.99191771    -4.009286    -4.009286   -2.7322085   0.05990974    -4.009286    1.2770774      1024000 
  303000   0.99238537   -4.0090226   -4.0090226   -2.7313431  0.061912295   -4.0090226    1.2776796      1024000 
  304000   0.99422115   -4.0105503   -4.0105503   -2.7305072  0.053581823   -4.0105503    1.2800431      1024000 
  305000   0.99086034   -4.0071157   -4.0071157   -2.7313996  0.055513844   -4.0071157    1.2757161      1024000 
  306000   0.99140958   -4.0085271   -4.0085271   -2.7321038  0.060157328   -4.0085271    1.2764232      1024000 
  307000   0.98937643   -4.0068291   -4.0068291   -2.7330235  0.064894676   -4.0068291    1.2738056      1024000 
  308000   0.99106573   -4.0088816   -4.0088816   -2.7329011  0.056728843   -4.0088816    1.2759805      1024000 
  309000   0.98921355   -4.0079309   -4.0079309    -2.734335  0.059748814   -4.0079309    1.2735959      1024000 
  310000    0.9908108   -4.0086629   -4.0086629   -2.7330106  0.060900873   -4.0086629    1.2756523      1024000 
  311000   0.98805331     -4.00481     -4.00481   -2.7327079  0.069011369     -4.00481    1.2721021      1024000 
  312000   0.98966067   -4.0083184   -4.0083184   -2.7341469  0.067691934   -4.0083184    1.2741715      1024000 
  313000    0.9914788   -4.0102468   -4.0102468   -2.7337344  0.055046501   -4.0102468    1.2765124      1024000 
  314000    0.9902169   -4.0087593   -4.0087593   -2.7338716  0.068338385   -4.0087593    1.2748877      1024000 
  315000   0.99189633   -4.0109584   -4.0109584   -2.7339085  0.063106669   -4.0109584    1.2770499      1024000 
  316000   0.99036122   -4.0096757   -4.0096757   -2.7346022  0.069345661   -4.0096757    1.2750735      1024000 
  317000   0.99099905   -4.0102851   -4.0102851   -2.7343904  0.071175151   -4.0102851    1.2758947      1024000 
  318000   0.99268934   -4.0114969   -4.0114969    -2.733426  0.060882342   -4.0114969    1.2780709      1024000 
  319000   0.99117353   -4.0081655   -4.0081655   -2.7320461  0.066770692   -4.0081655    1.2761193      1024000 
  320000   0.99128527   -4.0078404   -4.0078404   -2.7315772   0.06153043   -4.0078404    1.2762632      1024000 
  321000   0.99111704   -4.0106223   -4.0106223   -2.7345757  0.067251762   -4.0106223    1.2760466      1024000 
  322000   0.99103389    -4.009816    -4.009816   -2.7338764  0.067476328    -4.009816    1.2759396      1024000 
  323000   0.99027035   -4.0091835   -4.0091835    -2.734227  0.068397964   -4.0091835    1.2749565      1024000 
  324000    0.9914823   -4.0110823   -4.0110823   -2.7345654  0.062020716   -4.0110823    1.2765169      1024000 
  325000   0.99221377   -4.0105644   -4.0105644   -2.7331058  0.064593005   -4.0105644    1.2774586      1024000 
  326000     0.992229   -4.0117178   -4.0117178   -2.7342396  0.060579756   -4.0117178    1.2774782      1024000 
  327000   0.99232843   -4.0115114   -4.0115114   -2.7339052  0.065554738   -4.0115114    1.2776063      1024000 
  328000   0.99215918   -4.0105824   -4.0105824    -2.733194  0.057889829   -4.0105824    1.2773883      1024000 
  329000   0.99111651   -4.0102352   -4.0102352   -2.7341893  0.063640707   -4.0102352    1.2760459      1024000 
  330000   0.99102545   -4.0100358   -4.0100358   -2.7341071  0.068893885   -4.0100358    1.2759287      1024000 
  331000   0.99026936   -4.0092871   -4.0092871   -2.7343319  0.057122144   -4.0092871    1.2749552      1024000 
  332000   0.98903463   -4.0089804   -4.0089804   -2.7356149  0.059001843   -4.0089804    1.2733655      1024000 
  333000   0.99022477   -4.0087129   -4.0087129   -2.7338151   0.06272839   -4.0087129    1.2748978      1024000 
  334000   0.99051033   -4.0089279   -4.0089279   -2.7336624  0.061415452   -4.0089279    1.2752655      1024000 
  335000   0.99060873   -4.0106059   -4.0106059   -2.7352137  0.063172222   -4.0106059    1.2753922      1024000 
  336000   0.99230974   -4.0110379   -4.0110379   -2.7334558  0.069174919   -4.0110379    1.2775822      1024000 
  337000   0.99199331   -4.0101886   -4.0101886   -2.7330139    0.0670568   -4.0101886    1.2771748      1024000 
  338000    0.9906986   -4.0089016   -4.0089016   -2.7333937  0.075717168   -4.0089016    1.2755079      1024000 
  339000   0.99213721   -4.0110158   -4.0110158   -2.7336558  0.069507719   -4.0110158    1.2773601      1024000 
  340000   0.99208396   -4.0100876   -4.0100876   -2.7327961  0.071942784   -4.0100876    1.2772915      1024000 
  341000   0.99104217   -4.0090749   -4.0090749   -2.7331247  0.071868543   -4.0090749    1.2759502      1024000 
  342000   0.99018719   -4.0091366   -4.0091366   -2.7342872  0.058361233   -4.0091366    1.2748494      1024000 
  343000   0.98897991   -4.0081164   -4.0081164   -2.7348213  0.061236316   -4.0081164    1.2732951      1024000 
  344000    0.9912564   -4.0111817   -4.0111817   -2.7349556  0.047441188   -4.0111817     1.276226      1024000 
  345000   0.99196135   -4.0115483   -4.0115483   -2.7344147  0.060023623   -4.0115483    1.2771336      1024000 
  346000   0.99185503   -4.0104581   -4.0104581   -2.7334613  0.063908231   -4.0104581    1.2769967      1024000 
  347000   0.99014429   -4.0092202   -4.0092202    -2.734426  0.068604353   -4.0092202    1.2747942      1024000 
  348000   0.99035908   -4.0097068   -4.0097068    -2.734636  0.060709074   -4.0097068    1.2750707      1024000 
  349000   0.99148847   -4.0080151   -4.0080151   -2.7314903  0.073165904   -4.0080151    1.2765248      1024000 
  350000   0.99012993   -4.0081924   -4.0081924   -2.7334167  0.071401238   -4.0081924    1.2747757      1024000 
  351000   0.99187984   -4.0085342   -4.0085342   -2.7315055  0.068754405   -4.0085342    1.2770287      1024000 
  352000   0.98985319   -4.0094923   -4.0094923   -2.7350729  0.060483001   -4.0094923    1.2744194      1024000 
  353000   0.99054598   -4.0102514   -4.0102514     -2.73494  0.056920476   -4.0102514    1.2753114      1024000 
  354000   0.99012242   -4.0098926   -4.0098926   -2.7351266  0.065021247   -4.0098926     1.274766      1024000 
  355000    0.9915873   -4.0096132   -4.0096132   -2.7329612    0.0671835   -4.0096132    1.2766521      1024000 
  356000   0.98975079   -4.0087858   -4.0087858   -2.7344982  0.064711532   -4.0087858    1.2742876      1024000 
  357000   0.98920811   -4.0088452   -4.0088452   -2.7352564   0.06362995   -4.0088452    1.2735889      1024000 
  358000   0.99075185   -4.0111096   -4.0111096   -2.7355332  0.051437011   -4.0111096    1.2755764      1024000 
  359000   0.99026981   -4.0106568   -4.0106568    -2.735701  0.059583391   -4.0106568    1.2749558      1024000 
  360000   0.98894647   -4.0095014   -4.0095014   -2.7362493  0.064105482   -4.0095014     1.273252      1024000 
  361000   0.98926644   -4.0089653   -4.0089653   -2.7353013  0.069990768   -4.0089653     1.273664      1024000 
  362000    0.9892192    -4.009202    -4.009202   -2.7355989  0.061119951    -4.009202    1.2736032      1024000 
  363000   0.98961847   -4.0102665   -4.0102665   -2.7361493  0.064336404   -4.0102665    1.2741172      1024000 
  364000   0.99164584   -4.0126385   -4.0126385    -2.735911   0.05661106   -4.0126385    1.2767274      1024000 
  365000   0.99153328   -4.0136962   -4.0136962   -2.7371137  0.065403236   -4.0136962    1.2765825      1024000 
  366000   0.98969177   -4.0112417   -4.0112417   -2.7370301  0.059826938   -4.0112417    1.2742116      1024000 
  367000    0.9901363   -4.0127973   -4.0127973   -2.7380134  0.065576018   -4.0127973    1.2747839      1024000 
  368000   0.98965182   -4.0106368   -4.0106368   -2.7364767  0.064735039   -4.0106368    1.2741602      1024000 
  369000   0.99089413   -4.0106989   -4.0106989   -2.7349393  0.065734164   -4.0106989    1.2757596      1024000 
  370000   0.99050034   -4.0116196   -4.0116196    -2.736367  0.061214834   -4.0116196    1.2752526      1024000 
  371000   0.99070207     -4.01192     -4.01192   -2.7364077   0.06054251     -4.01192    1.2755123      1024000 
  372000   0.99115896   -4.0130974   -4.0130974   -2.7369968  0.065484518   -4.0130974    1.2761006      1024000 
  373000   0.99244466   -4.0147555   -4.0147555   -2.7369996  0.059592423   -4.0147555    1.2777559      1024000 
  374000   0.99157949    -4.012941    -4.012941    -2.736299  0.071744095    -4.012941     1.276642      1024000 
  375000    0.9898292   -4.0126771   -4.0126771   -2.7382886  0.070892387   -4.0126771    1.2743885      1024000 
  376000   0.99152375   -4.0118825   -4.0118825   -2.7353123  0.073476232   -4.0118825    1.2765702      1024000 
  377000   0.99254033   -4.0136638   -4.0136638   -2.7357847  0.065293031   -4.0136638    1.2778791      1024000 
  378000   0.99319691   -4.0143063   -4.0143063   -2.7355819  0.071657271   -4.0143063    1.2787244      1024000 
  379000   0.99285103    -4.014119    -4.014119   -2.7358399  0.068903639    -4.014119    1.2782791      1024000 
  380000   0.99302841   -4.0139908   -4.0139908   -2.7354833  0.069759097   -4.0139908    1.2785075      1024000 
  381000   0.99355643   -4.0143953   -4.0143953    -2.735208  0.070882686   -4.0143953    1.2791873      1024000 
  382000   0.99360437   -4.0139236   -4.0139236   -2.7346746   0.08691491   -4.0139236     1.279249      1024000 
  383000   0.99207642   -4.0130643   -4.0130643   -2.7357825  0.071400445   -4.0130643    1.2772818      1024000 
  384000   0.99225386   -4.0115627   -4.0115627   -2.7340524  0.076614428   -4.0115627    1.2775102      1024000 
  385000   0.99289542   -4.0120897   -4.0120897   -2.7337535  0.072310772   -4.0120897    1.2783362      1024000 
  386000   0.99171728   -4.0127641   -4.0127641   -2.7359447  0.071628168   -4.0127641    1.2768194      1024000 
  387000   0.99254815    -4.013482    -4.013482   -2.7355928  0.070851061    -4.013482    1.2778891      1024000 
  388000   0.99222082    -4.013788    -4.013788   -2.7363203  0.063706538    -4.013788    1.2774677      1024000 
  389000   0.99055682   -4.0117675   -4.0117675   -2.7364422  0.065860025   -4.0117675    1.2753253      1024000 
  390000   0.99166878   -4.0106655   -4.0106655   -2.7339085  0.059569224   -4.0106655     1.276757      1024000 
  391000   0.99031225    -4.007739    -4.007739   -2.7327285  0.075704215    -4.007739    1.2750104      1024000 
  392000   0.99012473    -4.009065    -4.009065    -2.734296  0.067163485    -4.009065     1.274769      1024000 
  393000   0.99191999   -4.0101959   -4.0101959   -2.7331155   0.06216285   -4.0101959    1.2770804      1024000 
  394000   0.98985706   -4.0090972   -4.0090972   -2.7346728  0.058627012   -4.0090972    1.2744244      1024000 
  395000   0.98997663   -4.0076099   -4.0076099   -2.7330316  0.062640529   -4.0076099    1.2745783      1024000 
  396000   0.99121124   -4.0089211   -4.0089211   -2.7327532  0.057540756   -4.0089211    1.2761679      1024000 
  397000   0.99296937   -4.0097379   -4.0097379   -2.7313064  0.062880482   -4.0097379    1.2784314      1024000 
  398000   0.98878062   -4.0066068   -4.0066068   -2.7335683  0.060647219   -4.0066068    1.2730385      1024000 
  399000   0.99081247   -4.0066285   -4.0066285    -2.730974  0.069599933   -4.0066285    1.2756545      1024000 
  400000   0.99154367   -4.0082273   -4.0082273   -2.7316314   0.05088404   -4.0082273    1.2765959      1024000 
  401000   0.98864518   -4.0061531   -4.0061531    -2.733289  0.055268235   -4.0061531    1.2728641      1024000 
  402000   0.98914211   -4.0061579   -4.0061579    -2.732654   0.05759353   -4.0061579    1.2735039      1024000 
  403000   0.99035219   -4.0075301   -4.0075301   -2.7324682   0.05762081   -4.0075301    1.2750619      1024000 
  404000   0.99061455   -4.0079715   -4.0079715   -2.7325718  0.060944745   -4.0079715    1.2753997      1024000 
  405000   0.98933312   -4.0066633   -4.0066633   -2.7329134  0.055833024   -4.0066633    1.2737498      1024000 
  406000   0.98941316   -4.0083116   -4.0083116   -2.7344588  0.054619374   -4.0083116    1.2738529      1024000 
  407000   0.98777798   -4.0050904   -4.0050904   -2.7333428  0.064322218   -4.0050904    1.2717476      1024000 
  408000   0.98778057   -4.0054859   -4.0054859    -2.733735   0.05661706   -4.0054859    1.2717509      1024000 
  409000   0.98901832   -4.0066824   -4.0066824   -2.7333378  0.051585501   -4.0066824    1.2733445      1024000 
  410000   0.98860331   -4.0084241   -4.0084241   -2.7356139  0.055189294   -4.0084241    1.2728102      1024000 
  411000   0.98852801   -4.0070503   -4.0070503    -2.734337  0.055750604   -4.0070503    1.2727133      1024000 
  412000   0.99013844   -4.0090431   -4.0090431   -2.7342564  0.069230989   -4.0090431    1.2747867      1024000 
  413000   0.99068256   -4.0086155   -4.0086155   -2.7331283  0.067001453   -4.0086155    1.2754872      1024000 
  414000     0.990793   -4.0102333   -4.0102333   -2.7346039  0.072003005   -4.0102333    1.2756294      1024000 
  415000    0.9911844   -4.0109536   -4.0109536   -2.7348202  0.054979716   -4.0109536    1.2761333      1024000 
  416000   0.98975051   -4.0093547   -4.0093547   -2.7350675  0.071067441   -4.0093547    1.2742872      1024000 
  417000   0.98963999   -4.0099154   -4.0099154   -2.7357705  0.069437426   -4.0099154    1.2741449      1024000 
  418000   0.98982255   -4.0103263   -4.0103263   -2.7359463  0.070049031   -4.0103263      1.27438      1024000 
  419000    0.9906656    -4.010972    -4.010972   -2.7355066  0.067398457    -4.010972    1.2754654      1024000 
  420000   0.99136258   -4.0107193   -4.0107193   -2.7343566  0.076874587   -4.0107193    1.2763627      1024000 
  421000   0.99063237   -4.0113827   -4.0113827   -2.7359601  0.075576812   -4.0113827    1.2754226      1024000 
  422000   0.99215483   -4.0131239   -4.0131239   -2.7357412  0.062333642   -4.0131239    1.2773827      1024000 
  423000   0.99366937   -4.0131645   -4.0131645   -2.7338318  0.073086953   -4.0131645    1.2793327      1024000 
  424000   0.99350529   -4.0135304   -4.0135304    -2.734409  0.069259593   -4.0135304    1.2791214      1024000 
  425000   0.99305591   -4.0118007   -4.0118007   -2.7332578  0.077455673   -4.0118007    1.2785429      1024000 
  426000   0.99285407   -4.0136531   -4.0136531   -2.7353701  0.068184499   -4.0136531     1.278283      1024000 
  427000   0.99373257   -4.0147153   -4.0147153   -2.7353013  0.064943379   -4.0147153    1.2794141      1024000 
  428000   0.99189813   -4.0115771   -4.0115771   -2.7345248  0.073272123   -4.0115771    1.2770522      1024000 
  429000   0.99148099   -4.0114498   -4.0114498   -2.7349346  0.067477879   -4.0114498    1.2765152      1024000 
  430000    0.9905208   -4.0098681   -4.0098681   -2.7345892   0.07312043   -4.0098681     1.275279      1024000 
  431000    0.9910109   -4.0111798   -4.0111798   -2.7352699  0.068217869   -4.0111798      1.27591      1024000 
  432000    0.9903977   -4.0112786   -4.0112786   -2.7361582  0.071309053   -4.0112786    1.2751205      1024000 
  433000   0.99009829   -4.0111449   -4.0111449     -2.73641  0.064787253   -4.0111449     1.274735      1024000 
  434000   0.99097164   -4.0105867   -4.0105867   -2.7347273  0.066590026   -4.0105867    1.2758594      1024000 
  435000   0.99065836   -4.0097958   -4.0097958   -2.7343397  0.056181077   -4.0097958    1.2754561      1024000 
  436000   0.99109636   -4.0104448   -4.0104448   -2.7344248  0.064730152   -4.0104448      1.27602      1024000 
  437000   0.98928408   -4.0072738   -4.0072738   -2.7335871  0.064816362   -4.0072738    1.2736867      1024000 
  438000   0.99102264   -4.0080744   -4.0080744   -2.7321493  0.065693403   -4.0080744    1.2759251      1024000 
  439000   0.99109784   -4.0096199   -4.0096199    -2.733598   0.06439481   -4.0096199    1.2760219      1024000 
  440000   0.99111861   -4.0092922   -4.0092922   -2.7332436  0.056263375   -4.0092922    1.2760486      1024000 
  441000   0.99073839   -4.0093226   -4.0093226   -2.7337635  0.060001654   -4.0093226    1.2755591      1024000 
  442000   0.98987723   -4.0095522   -4.0095522   -2.7351018  0.060522902   -4.0095522    1.2744504      1024000 
  443000   0.99004773   -4.0074801   -4.0074801   -2.7328102  0.067255221   -4.0074801    1.2746699      1024000 
  444000   0.99063024    -4.008991    -4.008991   -2.7335711  0.059704256    -4.008991    1.2754199      1024000 
  445000   0.99032864   -4.0080146   -4.0080146   -2.7329831  0.058946981   -4.0080146    1.2750316      1024000 
  446000   0.98955463   -4.0079345   -4.0079345   -2.7338994  0.059833641   -4.0079345     1.274035      1024000 
  447000   0.99134708   -4.0080233   -4.0080233   -2.7316805   0.05543554   -4.0080233    1.2763428      1024000 
  448000   0.98958859   -4.0074521   -4.0074521   -2.7333734   0.05595971   -4.0074521    1.2740787      1024000 
  449000   0.98948972   -4.0067847   -4.0067847   -2.7328332  0.058011426   -4.0067847    1.2739515      1024000 
  450000   0.99090141   -4.0076093   -4.0076093   -2.7318403  0.065792907   -4.0076093     1.275769      1024000 
  451000   0.99101826   -4.0096468   -4.0096468   -2.7337273  0.069259824   -4.0096468    1.2759194      1024000 
  452000   0.99090636   -4.0092922   -4.0092922   -2.7335168  0.070120762   -4.0092922    1.2757754      1024000 
  453000   0.99162288   -4.0096057   -4.0096057   -2.7329078  0.064791745   -4.0096057    1.2766979      1024000 
  454000   0.99214475   -4.0090904   -4.0090904   -2.7317206   0.07581232   -4.0090904    1.2773698      1024000 
  455000   0.99013096   -4.0076886   -4.0076886   -2.7329116  0.072479498   -4.0076886     1.274777      1024000 
  456000    0.9913049    -4.007563    -4.007563   -2.7312746  0.070171037    -4.007563    1.2762885      1024000 
  457000   0.98999186   -4.0056075   -4.0056075   -2.7310095  0.073332397   -4.0056075     1.274598      1024000 
  458000   0.99027301   -4.0067292   -4.0067292   -2.7317692  0.072102999   -4.0067292    1.2749599      1024000 
  459000   0.99014793   -4.0075435   -4.0075435   -2.7327446  0.068555255   -4.0075435    1.2747989      1024000 
  460000   0.98989828   -4.0082179   -4.0082179   -2.7337404  0.065439686   -4.0082179    1.2744775      1024000 
  461000   0.99308818   -4.0115003   -4.0115003   -2.7329159  0.059315937   -4.0115003    1.2785844      1024000 
  462000   0.99169076   -4.0100975   -4.0100975   -2.7333123  0.070631624   -4.0100975    1.2767853      1024000 
  463000   0.99189124   -4.0107072   -4.0107072   -2.7336638  0.058417804   -4.0107072    1.2770434      1024000 
  464000   0.99107322   -4.0100858   -4.0100858   -2.7340956  0.070554172   -4.0100858    1.2759902      1024000 
  465000   0.99075081   -4.0097994   -4.0097994   -2.7342243  0.071675913   -4.0097994    1.2755751      1024000 
  466000   0.99062774   -4.0079734   -4.0079734   -2.7325567  0.073770039   -4.0079734    1.2754166      1024000 
  467000   0.99187476   -4.0086773   -4.0086773   -2.7316551  0.077095897   -4.0086773    1.2770222      1024000 
  468000   0.99021348   -4.0097908   -4.0097908   -2.7349075  0.067492097   -4.0097908    1.2748833      1024000 
  469000   0.99186885   -4.0084709   -4.0084709   -2.7314563  0.070294306   -4.0084709    1.2770145      1024000 
  470000   0.99118031   -4.0089315   -4.0089315   -2.7328035  0.059908421   -4.0089315    1.2761281      1024000 
  471000   0.99224178   -4.0103511   -4.0103511   -2.7328564  0.070229573   -4.0103511    1.2774947      1024000 
  472000     0.992999    -4.010372    -4.010372   -2.7319024    0.0624064    -4.010372    1.2784696      1024000 
  473000   0.99168928   -4.0093315   -4.0093315   -2.7325481  0.067147281   -4.0093315    1.2767834      1024000 
  474000   0.99209762   -4.0084893   -4.0084893   -2.7311802  0.071241787   -4.0084893    1.2773091      1024000 
  475000   0.99130921   -4.0086893   -4.0086893   -2.7323953  0.067814708   -4.0086893     1.276294      1024000 
  476000   0.99262265   -4.0082434   -4.0082434   -2.7302584  0.078405327   -4.0082434    1.2779851      1024000 
  477000    0.9914856   -4.0065244   -4.0065244   -2.7300033  0.068957278   -4.0065244    1.2765211      1024000 
  478000   0.99139354   -4.0072995   -4.0072995   -2.7308969  0.065149515   -4.0072995    1.2764026      1024000 
  479000   0.99221946   -4.0070781   -4.0070781   -2.7296121   0.07564205   -4.0070781     1.277466      1024000 
  480000   0.99127403     -4.00623     -4.00623   -2.7299813  0.077156307     -4.00623    1.2762487      1024000 
  481000   0.99125478   -4.0067592   -4.0067592   -2.7305352  0.071671528   -4.0067592    1.2762239      1024000 
  482000   0.98991149   -4.0055943   -4.0055943   -2.7310998   0.06930794   -4.0055943    1.2744945      1024000 
  483000   0.98931559   -4.0055417   -4.0055417   -2.7318144  0.061790771   -4.0055417    1.2737273      1024000 
  484000   0.99001458   -4.0076071   -4.0076071   -2.7329799  0.073116681   -4.0076071    1.2746272      1024000 
  485000    0.9895042   -4.0064453   -4.0064453   -2.7324752  0.059405274   -4.0064453    1.2739701      1024000 
  486000   0.98990554    -4.006781    -4.006781   -2.7322942  0.059432102    -4.006781    1.2744868      1024000 
  487000   0.98944103    -4.004803    -4.004803   -2.7309142  0.068617636    -4.004803    1.2738888      1024000 
  488000   0.99046845   -4.0073773   -4.0073773   -2.7321657  0.054813987   -4.0073773    1.2752116      1024000 
  489000   0.98967125   -4.0057798   -4.0057798   -2.7315946  0.067627176   -4.0057798    1.2741852      1024000 
  490000   0.99050427   -4.0065731   -4.0065731   -2.7313155  0.057664646   -4.0065731    1.2752577      1024000 
  491000    0.9909791   -4.0046691   -4.0046691   -2.7288001  0.064722631   -4.0046691     1.275869      1024000 
  492000   0.99114241   -4.0061579   -4.0061579   -2.7300786  0.064992686   -4.0061579    1.2760793      1024000 
  493000   0.99202103   -4.0069601   -4.0069601   -2.7297496  0.067471809   -4.0069601    1.2772105      1024000 
  494000   0.99096356   -4.0050662   -4.0050662   -2.7292172   0.07019482   -4.0050662     1.275849      1024000 
  495000   0.99137604   -4.0077999   -4.0077999   -2.7314198  0.062044486   -4.0077999    1.2763801      1024000 
  496000   0.99118055   -4.0071681   -4.0071681   -2.7310397  0.066124116   -4.0071681    1.2761284      1024000 
  497000    0.9911982   -4.0054398   -4.0054398   -2.7292888  0.069270779   -4.0054398    1.2761511      1024000 
  498000   0.99275449   -4.0085685   -4.0085685   -2.7304137  0.058618678   -4.0085685    1.2781548      1024000 
  499000   0.99255488   -4.0091836   -4.0091836   -2.7312858  0.070393364   -4.0091836    1.2778978      1024000 
  500000    0.9922632   -4.0088979   -4.0088979   -2.7313756  0.071575138   -4.0088979    1.2775223      1024000 
  501000   0.99246483    -4.008167    -4.008167   -2.7303852  0.075184828    -4.008167    1.2777819      1024000 
  502000   0.99246688   -4.0075145   -4.0075145     -2.72973  0.075370991   -4.0075145    1.2777845      1024000 
  503000   0.99235104   -4.0093835   -4.0093835   -2.7317482  0.072938297   -4.0093835    1.2776354      1024000 
  504000   0.99279497   -4.0084286   -4.0084286   -2.7302217  0.080289098   -4.0084286    1.2782069      1024000 
  505000   0.99296578   -4.0073844   -4.0073844   -2.7289576   0.07601735   -4.0073844    1.2784268      1024000 
  506000   0.99322373   -4.0091604   -4.0091604   -2.7304014  0.065531557   -4.0091604    1.2787589      1024000 
  507000   0.99400583   -4.0097289   -4.0097289   -2.7299631  0.065227588   -4.0097289    1.2797659      1024000 
  508000   0.99280408    -4.009523    -4.009523   -2.7313043     0.066794    -4.009523    1.2782186      1024000 
  509000   0.99229772   -4.0089747   -4.0089747    -2.731408  0.053751241   -4.0089747    1.2775667      1024000 
  510000   0.99239916   -4.0087443   -4.0087443    -2.731047  0.064637123   -4.0087443    1.2776973      1024000 
  511000   0.99275832   -4.0096527   -4.0096527   -2.7314929  0.063881808   -4.0096527    1.2781597      1024000 
  512000   0.99042409   -4.0072349   -4.0072349   -2.7320805  0.071816903   -4.0072349    1.2751544      1024000 
  513000   0.99124693   -4.0077831   -4.0077831   -2.7315693   0.06943812   -4.0077831    1.2762138      1024000 
  514000   0.99234531   -4.0077637   -4.0077637   -2.7301357  0.059670091   -4.0077637     1.277628      1024000 
  515000   0.98852227   -4.0044205   -4.0044205   -2.7317146  0.066713819   -4.0044205    1.2727059      1024000 
  516000    0.9893647   -4.0058864   -4.0058864   -2.7320959  0.064652833   -4.0058864    1.2737905      1024000 
  517000   0.98990488   -4.0054236   -4.0054236   -2.7309377  0.064327341   -4.0054236     1.274486      1024000 
  518000   0.99147532   -4.0068693   -4.0068693   -2.7303614  0.064734001   -4.0068693    1.2765079      1024000 
  519000    0.9926461   -4.0078803   -4.0078803    -2.729865  0.067293588   -4.0078803    1.2780152      1024000 
  520000   0.99196371   -4.0065756   -4.0065756   -2.7294389  0.077727462   -4.0065756    1.2771367      1024000 
  521000   0.99344601   -4.0066258   -4.0066258   -2.7275807  0.068941299   -4.0066258    1.2790451      1024000 
  522000    0.9923275   -4.0071782   -4.0071782   -2.7295732  0.066335845   -4.0071782     1.277605      1024000 
  523000    0.9911786   -4.0059794   -4.0059794   -2.7298536  0.073662637   -4.0059794    1.2761259      1024000 
  524000   0.99209146   -4.0073846   -4.0073846   -2.7300835  0.077827519   -4.0073846    1.2773012      1024000 
  525000   0.99001867   -4.0061367   -4.0061367   -2.7315042   0.07513273   -4.0061367    1.2746325      1024000 
  526000   0.99163814   -4.0054156   -4.0054156    -2.728698  0.063930403   -4.0054156    1.2767175      1024000 
  527000   0.99189363    -4.006602    -4.006602   -2.7295555   0.05873065    -4.006602    1.2770465      1024000 
  528000    0.9929259   -4.0082315   -4.0082315    -2.729856  0.059767904   -4.0082315    1.2783755      1024000 
  529000   0.99244721   -4.0069603   -4.0069603   -2.7292011  0.068435533   -4.0069603    1.2777592      1024000 
  530000     0.991682   -4.0077774   -4.0077774   -2.7310034  0.069860067   -4.0077774     1.276774      1024000 
  531000   0.99337259   -4.0088828   -4.0088828   -2.7299322  0.070476376   -4.0088828    1.2789506      1024000 
  532000   0.99144274   -4.0065283   -4.0065283   -2.7300624  0.075218822   -4.0065283    1.2764659      1024000 
  533000    0.9910963   -4.0062561   -4.0062561   -2.7302362  0.071651878   -4.0062561    1.2760199      1024000 
  534000   0.99150885   -4.0061154   -4.0061154   -2.7295643  0.068969674   -4.0061154    1.2765511      1024000 
  535000    0.9916029   -4.0061064   -4.0061064   -2.7294342  0.083634715   -4.0061064    1.2766721      1024000 
  536000   0.99080189   -4.0062248   -4.0062248   -2.7305839  0.075455172   -4.0062248    1.2756409      1024000 
  537000   0.99171411   -4.0052295   -4.0052295   -2.7284142   0.07634878   -4.0052295    1.2768153      1024000 
  538000   0.99014639   -4.0055643   -4.0055643   -2.7307674    0.0727342   -4.0055643    1.2747969      1024000 
  539000   0.99131202   -4.0064435   -4.0064435   -2.7301459  0.055784574   -4.0064435    1.2762976      1024000 
  540000   0.99057705   -4.0045681   -4.0045681   -2.7292167  0.064220965   -4.0045681    1.2753514      1024000 
  541000   0.99162186   -4.0063025   -4.0063025   -2.7296059  0.065315631   -4.0063025    1.2766966      1024000 
  542000   0.99195138   -4.0050012   -4.0050012   -2.7278804  0.064347934   -4.0050012    1.2771208      1024000 
  543000   0.99238605   -4.0063192   -4.0063192   -2.7286387  0.064298374   -4.0063192    1.2776804      1024000 
  544000   0.99182595   -4.0060194   -4.0060194   -2.7290601  0.058353537   -4.0060194    1.2769593      1024000 
  545000   0.99308422   -4.0053239   -4.0053239   -2.7267446  0.063213035   -4.0053239    1.2785793      1024000 
  546000   0.99291486   -4.0042586   -4.0042586   -2.7258974  0.064671585   -4.0042586    1.2783613      1024000 
  547000   0.99228421   -4.0032982   -4.0032982   -2.7257488  0.073738618   -4.0032982    1.2775493      1024000 
  548000   0.99177797   -4.0048769   -4.0048769   -2.7279793  0.058485096   -4.0048769    1.2768975      1024000 
  549000   0.99114284     -4.00344     -4.00344   -2.7273601  0.072505822     -4.00344    1.2760798      1024000 
  550000   0.99179717   -4.0047589   -4.0047589   -2.7278366  0.070031132   -4.0047589    1.2769223      1024000 
  551000   0.99133402    -4.004042    -4.004042   -2.7277161    0.0573047    -4.004042     1.276326      1024000 
  552000   0.99208677    -4.004433    -4.004433   -2.7271379  0.055720539    -4.004433    1.2772951      1024000 
  553000   0.99272208   -4.0041461   -4.0041461    -2.726033  0.068857859   -4.0041461    1.2781131      1024000 
  554000   0.99080245   -4.0026256   -4.0026256    -2.726984  0.067337067   -4.0026256    1.2756416      1024000 
  555000   0.99161796    -4.003268    -4.003268   -2.7265765   0.06594075    -4.003268    1.2766915      1024000 
  556000   0.99126435    -4.003056    -4.003056   -2.7268197  0.063377332    -4.003056    1.2762363      1024000 
  557000   0.99230403   -4.0039741   -4.0039741   -2.7263992  0.067527958   -4.0039741    1.2775748      1024000 
  558000   0.99143774   -4.0030008   -4.0030008   -2.7265413  0.064867197   -4.0030008    1.2764595      1024000 
  559000    0.9926779   -4.0038734   -4.0038734   -2.7258172  0.067339325   -4.0038734    1.2780562      1024000 
  560000   0.99256576   -4.0051229   -4.0051229   -2.7272111  0.063267799   -4.0051229    1.2779118      1024000 
  561000   0.99187794   -4.0031766   -4.0031766   -2.7261504  0.060312575   -4.0031766    1.2770262      1024000 
  562000    0.9917872   -4.0030698   -4.0030698   -2.7261604  0.063104808   -4.0030698    1.2769094      1024000 
  563000   0.99132447   -4.0031465   -4.0031465   -2.7268328  0.067209024   -4.0031465    1.2763137      1024000 
  564000   0.99331643   -4.0055212   -4.0055212   -2.7266429   0.06428066   -4.0055212    1.2788783      1024000 
  565000   0.99452059   -4.0067024   -4.0067024   -2.7262738  0.072486579   -4.0067024    1.2804286      1024000 
  566000   0.99546929   -4.0045136   -4.0045136   -2.7228636  0.087704039   -4.0045136    1.2816501      1024000 
  567000   0.99272995   -4.0040784   -4.0040784   -2.7259552  0.073677595   -4.0040784    1.2781232      1024000 
  568000   0.99199809   -4.0035616   -4.0035616   -2.7263806  0.067328781   -4.0035616    1.2771809      1024000 
  569000   0.99339473   -4.0053473   -4.0053473   -2.7263682  0.071042604   -4.0053473    1.2789791      1024000 
  570000   0.99255904   -4.0034685   -4.0034685   -2.7255653  0.068624202   -4.0034685    1.2779032      1024000 
  571000    0.9919099   -4.0028746   -4.0028746   -2.7258072  0.068271221   -4.0028746    1.2770674      1024000 
  572000   0.99062725   -4.0016904   -4.0016904   -2.7262744  0.070129471   -4.0016904     1.275416      1024000 
  573000   0.99079411   -4.0026832   -4.0026832   -2.7270524  0.061954978   -4.0026832    1.2756308      1024000 
  574000   0.99156729   -4.0032987   -4.0032987   -2.7266724  0.068903035   -4.0032987    1.2766263      1024000 
  575000   0.98986294   -4.0020579   -4.0020579    -2.727626  0.061126693   -4.0020579     1.274432      1024000 
  576000   0.99163141   -4.0034938   -4.0034938   -2.7267849  0.057181222   -4.0034938    1.2767089      1024000 
  577000   0.99013151   -4.0015925   -4.0015925   -2.7268148  0.056513091   -4.0015925    1.2747777      1024000 
  578000   0.99169748   -4.0031916   -4.0031916   -2.7263977  0.062094301   -4.0031916    1.2767939      1024000 
  579000   0.99215586   -4.0029629   -4.0029629   -2.7255789  0.062262267   -4.0029629    1.2773841      1024000 
  580000   0.99208411   -4.0025301   -4.0025301   -2.7252384  0.068524788   -4.0025301    1.2772917      1024000 
  581000   0.99149116   -4.0024794   -4.0024794   -2.7259511  0.074792298   -4.0024794    1.2765283      1024000 
  582000   0.99087872   -4.0013507   -4.0013507    -2.725611  0.060189206   -4.0013507    1.2757398      1024000 
  583000   0.99236018   -4.0030513   -4.0030513   -2.7254042  0.058458054   -4.0030513    1.2776471      1024000 
  584000   0.99425144   -4.0037215   -4.0037215   -2.7236394  0.059252662   -4.0037215    1.2800821      1024000 
  585000   0.99309157   -4.0034664   -4.0034664   -2.7248776  0.057617473   -4.0034664    1.2785888      1024000 
  586000   0.99156817   -4.0019173   -4.0019173   -2.7252899  0.068181159   -4.0019173    1.2766274      1024000 
  587000   0.99372908   -4.0045456   -4.0045456   -2.7251361  0.064347474   -4.0045456    1.2794096      1024000 
  588000   0.99460619   -4.0052804   -4.0052804   -2.7247416  0.063951078   -4.0052804    1.2805388      1024000 
  589000   0.99295494   -4.0047813   -4.0047813   -2.7263685  0.060602644   -4.0047813    1.2784129      1024000 
  590000   0.99101577   -4.0020613   -4.0020613    -2.726145  0.064432708   -4.0020613    1.2759162      1024000 
  591000   0.99223015   -4.0036553   -4.0036553   -2.7261756   0.07012472   -4.0036553    1.2774797      1024000 
  592000   0.99286896    -4.004109    -4.004109   -2.7258069  0.073833321    -4.004109    1.2783022      1024000 
  593000   0.99354429   -4.0047966   -4.0047966    -2.725625  0.071185539   -4.0047966    1.2791716      1024000 
  594000   0.99449193   -4.0062629   -4.0062629   -2.7258712  0.070363977   -4.0062629    1.2803917      1024000 
  595000   0.99255407   -4.0049423   -4.0049423   -2.7270456  0.063314878   -4.0049423    1.2778968      1024000 
  596000   0.99271365    -4.006123    -4.006123   -2.7280208  0.076570436    -4.006123    1.2781022      1024000 
  597000   0.99296069   -4.0046403   -4.0046403     -2.72622   0.07718213   -4.0046403    1.2784203      1024000 
  598000   0.99362889   -4.0049886   -4.0049886   -2.7257081  0.075408554   -4.0049886    1.2792806      1024000 
  599000   0.99226294   -4.0061322   -4.0061322   -2.7286102  0.058365646   -4.0061322    1.2775219      1024000 
  600000   0.99257447   -4.0056006   -4.0056006   -2.7276776  0.068475461   -4.0056006     1.277923      1024000 
  601000   0.99215283   -4.0053154   -4.0053154   -2.7279352  0.078510384   -4.0053154    1.2773802      1024000 
  602000   0.99176132   -4.0059149   -4.0059149   -2.7290388  0.075509429   -4.0059149    1.2768761      1024000 
  603000   0.99189382    -4.005709    -4.005709   -2.7286624  0.066540974    -4.005709    1.2770467      1024000 
  604000   0.99211046   -4.0054302   -4.0054302   -2.7281046  0.058892878   -4.0054302    1.2773256      1024000 
  605000   0.99253867   -4.0057859   -4.0057859    -2.727909  0.076087977   -4.0057859    1.2778769      1024000 
  606000   0.99188212   -4.0051628   -4.0051628   -2.7281311  0.070487185   -4.0051628    1.2770316      1024000 
  607000   0.99328269   -4.0047646   -4.0047646   -2.7259297  0.074270711   -4.0047646    1.2788348      1024000 
  608000   0.99199779   -4.0048426   -4.0048426   -2.7276621  0.067793349   -4.0048426    1.2771806      1024000 
  609000   0.99160801   -4.0067979   -4.0067979   -2.7301192  0.060338699   -4.0067979    1.2766787      1024000 
  610000   0.99224671    -4.004026    -4.004026    -2.726525   0.07546592    -4.004026     1.277501      1024000 
  611000     0.992236   -4.0058827   -4.0058827   -2.7283954  0.064646556   -4.0058827    1.2774872      1024000 
  612000   0.99136612   -4.0055333   -4.0055333    -2.729166  0.066751541   -4.0055333    1.2763673      1024000 
  613000   0.99390256   -4.0068487   -4.0068487   -2.7272158  0.069590673   -4.0068487    1.2796329      1024000 
  614000    0.9922408   -4.0054064   -4.0054064   -2.7279129  0.065444863   -4.0054064    1.2774934      1024000 
  615000   0.99280997   -4.0068009   -4.0068009   -2.7285747  0.068451013   -4.0068009    1.2782262      1024000 
  616000   0.99258246   -4.0058595   -4.0058595   -2.7279262  0.060299536   -4.0058595    1.2779333      1024000 
  617000   0.99090659   -4.0036643   -4.0036643   -2.7278887  0.064584552   -4.0036643    1.2757757      1024000 
  618000   0.99142757    -4.004154    -4.004154   -2.7277076  0.072185178    -4.004154    1.2764464      1024000 
  619000   0.99040588   -4.0036302   -4.0036302   -2.7284992  0.072105917   -4.0036302     1.275131      1024000 
  620000   0.99172294   -4.0046963   -4.0046963   -2.7278696   0.06078856   -4.0046963    1.2768267      1024000 
  621000   0.99216293    -4.004922    -4.004922   -2.7275289  0.064796075    -4.004922    1.2773932      1024000 
  622000   0.99264035   -4.0046929   -4.0046929    -2.726685  0.069097362   -4.0046929    1.2780078      1024000 
  623000   0.99154329   -4.0027235   -4.0027235   -2.7261281  0.073198185   -4.0027235    1.2765954      1024000 
  624000    0.9904094   -4.0029493   -4.0029493   -2.7278138  0.065676258   -4.0029493    1.2751355      1024000 
  625000   0.99273225   -4.0051743   -4.0051743   -2.7270481  0.069024291   -4.0051743    1.2781262      1024000 
  626000   0.99047287   -4.0035994   -4.0035994   -2.7283821  0.070996797   -4.0035994    1.2752172      1024000 
  627000   0.99118815   -4.0040981   -4.0040981     -2.72796  0.056396736   -4.0040981    1.2761382      1024000 
  628000   0.99040813   -4.0023316   -4.0023316   -2.7271977  0.073711834   -4.0023316    1.2751339      1024000 
  629000   0.99056961   -4.0030468   -4.0030468    -2.727705  0.060366582   -4.0030468    1.2753418      1024000 
  630000    0.9895937   -4.0033433   -4.0033433   -2.7292579  0.063792041   -4.0033433    1.2740853      1024000 
  631000   0.99087423   -4.0032014   -4.0032014   -2.7274674  0.053991308   -4.0032014     1.275734      1024000 
  632000   0.99254035   -4.0053928   -4.0053928   -2.7275137   0.06498545   -4.0053928    1.2778791      1024000 
  633000   0.99133958   -4.0034941   -4.0034941   -2.7271609  0.068228856   -4.0034941    1.2763331      1024000 
  634000   0.99179035   -4.0034024   -4.0034024   -2.7264889  0.072775371   -4.0034024    1.2769135      1024000 
  635000   0.99103435   -4.0025389   -4.0025389   -2.7265987  0.063035196   -4.0025389    1.2759401      1024000 
  636000   0.99326765   -4.0042014   -4.0042014    -2.725386  0.067893104   -4.0042014    1.2788155      1024000 
  637000   0.99199644   -4.0042378   -4.0042378    -2.727059  0.078099413   -4.0042378    1.2771788      1024000 
  638000   0.99240474   -4.0053541   -4.0053541   -2.7276496  0.076223438   -4.0053541    1.2777045      1024000 
  639000   0.99333395   -4.0051435   -4.0051435   -2.7262426   0.06833067   -4.0051435    1.2789008      1024000 
  640000   0.99143676   -4.0042392   -4.0042392    -2.727781  0.070308542   -4.0042392    1.2764582      1024000 
  641000   0.99164377   -4.0049608   -4.0049608    -2.728236  0.067812404   -4.0049608    1.2767248      1024000 
  642000   0.99108453   -4.0031441   -4.0031441   -2.7271394  0.070165359   -4.0031441    1.2760048      1024000 
  643000   0.99189764   -4.0054332   -4.0054332   -2.7283816   0.06197985   -4.0054332    1.2770516      1024000 
  644000   0.99252581   -4.0058063   -4.0058063   -2.7279459  0.063471737   -4.0058063    1.2778604      1024000 
  645000   0.99199312    -4.005337    -4.005337   -2.7281625  0.070351114    -4.005337    1.2771745      1024000 
  646000   0.99151077   -4.0052646   -4.0052646   -2.7287111  0.081002222   -4.0052646    1.2765535      1024000 
  647000   0.99216214   -4.0057859   -4.0057859   -2.7283938  0.065260028   -4.0057859    1.2773922      1024000 
  648000   0.99201763   -4.0059958   -4.0059958   -2.7287897  0.065686436   -4.0059958    1.2772061      1024000 
  649000   0.98966079   -4.0031834   -4.0031834   -2.7290117  0.081028412   -4.0031834    1.2741717      1024000 
  650000   0.99266345   -4.0054274   -4.0054274   -2.7273898  0.075413619   -4.0054274    1.2780376      1024000 
  651000   0.99230283   -4.0040069   -4.0040069   -2.7264336  0.070720198   -4.0040069    1.2775733      1024000 
  652000   0.99147248   -4.0037762   -4.0037762    -2.727272  0.074280647   -4.0037762    1.2765042      1024000 
  653000   0.99144303   -4.0039865   -4.0039865   -2.7275202  0.075636092   -4.0039865    1.2764663      1024000 
  654000   0.99311345   -4.0056781   -4.0056781   -2.7270612  0.071613802   -4.0056781     1.278617      1024000 
  655000   0.99314273   -4.0056979   -4.0056979   -2.7270433  0.069577859   -4.0056979    1.2786547      1024000 
  656000   0.99208539   -4.0049036   -4.0049036   -2.7276102  0.072995065   -4.0049036    1.2772933      1024000 
  657000   0.99117692   -4.0038598   -4.0038598   -2.7277361  0.067029343   -4.0038598    1.2761237      1024000 
  658000   0.99162836   -4.0031075   -4.0031075   -2.7264025  0.058914533   -4.0031075    1.2767049      1024000 
  659000   0.99150995   -4.0027597   -4.0027597   -2.7262072  0.067796895   -4.0027597    1.2765525      1024000 
  660000   0.99105967   -4.0027309   -4.0027309   -2.7267582  0.059398092   -4.0027309    1.2759727      1024000 
  661000   0.99078425   -4.0024615   -4.0024615   -2.7268433  0.063733368   -4.0024615    1.2756181      1024000 
  662000   0.99161862   -4.0028475   -4.0028475   -2.7261552  0.059281875   -4.0028475    1.2766924      1024000 
  663000   0.99160359   -4.0025965   -4.0025965   -2.7259234  0.081545933   -4.0025965     1.276673      1024000 
  664000    0.9913237   -4.0022035   -4.0022035   -2.7258908  0.063398714   -4.0022035    1.2763127      1024000 
  665000   0.99145583   -4.0015746   -4.0015746   -2.7250918  0.076081365   -4.0015746    1.2764828      1024000 
  666000   0.98994417   -4.0010441   -4.0010441   -2.7265075  0.063580289   -4.0010441    1.2745366      1024000 
  667000   0.99048275   -4.0011885   -4.0011885   -2.7259585  0.068194033   -4.0011885      1.27523      1024000 
  668000   0.99000193   -4.0013312   -4.0013312   -2.7267203  0.076124741   -4.0013312    1.2746109      1024000 
  669000   0.99372332   -4.0047417   -4.0047417   -2.7253396  0.078021783   -4.0047417    1.2794021      1024000 
  670000   0.99124434   -4.0021866   -4.0021866    -2.725976  0.068207211   -4.0021866    1.2762105      1024000 
  671000    0.9932601   -4.0035666   -4.0035666   -2.7247608  0.063038251   -4.0035666    1.2788058      1024000 
  672000   0.99223979    -4.003808    -4.003808   -2.7263159  0.069768396    -4.003808    1.2774921      1024000 
  673000    0.9933685   -4.0030471   -4.0030471   -2.7241018  0.068112085   -4.0030471    1.2789453      1024000 
  674000   0.99170253   -4.0037735   -4.0037735   -2.7269731  0.062715094   -4.0037735    1.2768004      1024000 
  675000   0.99150474   -4.0025131   -4.0025131   -2.7259673  0.069779474   -4.0025131    1.2765458      1024000 
  676000    0.9936201   -4.0039736   -4.0039736   -2.7247043  0.074698924   -4.0039736    1.2792693      1024000 
  677000   0.99389856      -4.0049      -4.0049   -2.7252722  0.058516589      -4.0049    1.2796278      1024000 
  678000   0.99533951   -4.0049281   -4.0049281   -2.7234451  0.062539051   -4.0049281     1.281483      1024000 
  679000   0.99311305   -4.0043053   -4.0043053   -2.7256889  0.072329836   -4.0043053    1.2786164      1024000 
  680000   0.99399927   -4.0046189   -4.0046189   -2.7248615  0.070067108   -4.0046189    1.2797574      1024000 
  681000   0.99237891   -4.0036527   -4.0036527   -2.7259814  0.069931271   -4.0036527    1.2776712      1024000 
  682000   0.99259006   -4.0034965   -4.0034965   -2.7255534  0.068499421   -4.0034965    1.2779431      1024000 
  683000   0.99236003   -4.0033028   -4.0033028   -2.7256559  0.065873816   -4.0033028    1.2776469      1024000 
  684000   0.99336461     -4.00392     -4.00392   -2.7249797  0.068627956     -4.00392    1.2789403      1024000 
  685000   0.99030752   -4.0023657   -4.0023657   -2.7273613  0.068498513   -4.0023657    1.2750044      1024000 
  686000   0.99143933   -4.0033348   -4.0033348   -2.7268732  0.070027084   -4.0033348    1.2764616      1024000 
  687000   0.99307158   -4.0037955   -4.0037955   -2.7252325  0.072459226   -4.0037955     1.278563      1024000 
  688000   0.99325225    -4.003033    -4.003033   -2.7242374  0.072576387    -4.003033    1.2787957      1024000 
  689000   0.99286611   -4.0052164   -4.0052164   -2.7269179  0.065377349   -4.0052164    1.2782985      1024000 
  690000    0.9915953   -4.0020683   -4.0020683    -2.725406  0.068933167   -4.0020683    1.2766624      1024000 
  691000   0.99388307   -4.0043967   -4.0043967   -2.7247889  0.069132637   -4.0043967    1.2796078      1024000 
  692000    0.9915403   -4.0027291   -4.0027291   -2.7261375  0.074164853   -4.0027291    1.2765915      1024000 
  693000   0.99207895   -4.0034403   -4.0034403   -2.7261553  0.065530172   -4.0034403    1.2772851      1024000 
  694000   0.99332888   -4.0037791   -4.0037791   -2.7248848  0.065912234   -4.0037791    1.2788943      1024000 
  695000   0.99124034   -4.0015566   -4.0015566   -2.7253512  0.067891385   -4.0015566    1.2762054      1024000 
  696000   0.99227714   -4.0026028   -4.0026028   -2.7250626   0.06690107   -4.0026028    1.2775402      1024000 
  697000   0.99219556   -4.0039556   -4.0039556   -2.7265204  0.061044259   -4.0039556    1.2774352      1024000 
  698000   0.99160094   -4.0016445   -4.0016445   -2.7249749  0.076583103   -4.0016445    1.2766696      1024000 
  699000   0.99101688   -3.9999484   -3.9999484   -2.7240308   0.07459061   -3.9999484    1.2759177      1024000 
  700000   0.99198723   -4.0018848   -4.0018848   -2.7247179  0.072144166   -4.0018848     1.277167      1024000 
  701000   0.99322874   -4.0031363   -4.0031363   -2.7243709  0.062575276   -4.0031363    1.2787654      1024000 
  702000   0.99172775   -4.0014079   -4.0014079    -2.724575  0.076788497   -4.0014079    1.2768329      1024000 
  703000   0.99369388   -4.0033054   -4.0033054   -2.7239411  0.064149847   -4.0033054    1.2793642      1024000 
  704000   0.99280096   -4.0033806   -4.0033806    -2.725166  0.069224101   -4.0033806    1.2782146      1024000 
  705000   0.99112123    -4.001084    -4.001084    -2.725032  0.066384162    -4.001084     1.276052      1024000 
  706000   0.99196496   -4.0023757   -4.0023757   -2.7252374  0.075325127   -4.0023757    1.2771383      1024000 
  707000   0.99337498   -4.0032339   -4.0032339   -2.7242802  0.065918918   -4.0032339    1.2789537      1024000 
  708000   0.99238755   -4.0024631   -4.0024631   -2.7247807  0.071510814   -4.0024631    1.2776824      1024000 
  709000   0.99183826   -4.0022252   -4.0022252     -2.72525   0.07408778   -4.0022252    1.2769752      1024000 
  710000   0.99376873   -4.0026602   -4.0026602   -2.7231996  0.075585816   -4.0026602    1.2794606      1024000 
  711000   0.99182437   -4.0020758   -4.0020758   -2.7251185   0.06807052   -4.0020758    1.2769573      1024000 
  712000   0.99262904   -4.0024115   -4.0024115   -2.7244182  0.072879731   -4.0024115    1.2779933      1024000 
  713000   0.99193514    -4.001099    -4.001099   -2.7239991  0.084754263    -4.001099    1.2770999      1024000 
  714000   0.99256428   -4.0020705   -4.0020705   -2.7241606  0.062039461   -4.0020705    1.2779099      1024000 
  715000   0.99185813   -4.0016204   -4.0016204   -2.7246196  0.067170598   -4.0016204    1.2770007      1024000 
  716000   0.99341588   -4.0023046   -4.0023046   -2.7232983  0.075407639   -4.0023046    1.2790063      1024000 
  717000   0.99305443    -4.000727    -4.000727    -2.722186  0.073940894    -4.000727     1.278541      1024000 
  718000   0.99551194   -4.0021088   -4.0021088   -2.7204038  0.062083658   -4.0021088     1.281705      1024000 
  719000   0.99275648   -4.0005472   -4.0005472   -2.7223898  0.077822551   -4.0005472    1.2781574      1024000 
  720000   0.99340343   -4.0016988   -4.0016988   -2.7227085  0.062629513   -4.0016988    1.2789903      1024000 
  721000   0.99171211   -3.9995017   -3.9995017    -2.722689   0.06784255   -3.9995017    1.2768128      1024000 
  722000   0.99114802    -3.999873    -3.999873   -2.7237865  0.063113463    -3.999873    1.2760865      1024000 
  723000    0.9918503   -4.0002078   -4.0002078   -2.7232171  0.060791961   -4.0002078    1.2769907      1024000 
  724000   0.99286386   -4.0017428   -4.0017428   -2.7234472   0.06371654   -4.0017428    1.2782956      1024000 
  725000    0.9917845   -3.9992859   -3.9992859     -2.72238  0.069441915   -3.9992859    1.2769059      1024000 
  726000   0.99260447    -3.999282    -3.999282   -2.7213203  0.065302232    -3.999282    1.2779616      1024000 
  727000   0.99168733   -3.9998029   -3.9998029   -2.7230221  0.059180147   -3.9998029    1.2767808      1024000 
  728000   0.99262269   -3.9988303   -3.9988303   -2.7208452  0.069316207   -3.9988303    1.2779851      1024000 
  729000   0.99368897   -4.0000328   -4.0000328   -2.7206748   0.07013385   -4.0000328    1.2793579      1024000 
  730000   0.99460617   -4.0003357   -4.0003357   -2.7197969  0.066165266   -4.0003357    1.2805388      1024000 
  731000    0.9941307   -4.0003639   -4.0003639   -2.7204373  0.069713683   -4.0003639    1.2799266      1024000 
  732000    0.9940188   -4.0010853   -4.0010853   -2.7213027  0.070885594   -4.0010853    1.2797826      1024000 
  733000   0.99454378   -4.0009436   -4.0009436   -2.7204851  0.069529288   -4.0009436    1.2804585      1024000 
  734000   0.99381178   -3.9991218   -3.9991218   -2.7196057  0.070806217   -3.9991218     1.279516      1024000 
  735000   0.99308272   -3.9995595   -3.9995595   -2.7209821  0.069799587   -3.9995595    1.2785774      1024000 
  736000   0.99469404   -4.0010015   -4.0010015   -2.7203496  0.065865388   -4.0010015    1.2806519      1024000 
  737000   0.99341834   -4.0001477   -4.0001477   -2.7211382  0.075669392   -4.0001477    1.2790095      1024000 
  738000   0.99138032   -3.9981308   -3.9981308   -2.7217452  0.077300283   -3.9981308    1.2763856      1024000 
  739000   0.99386848   -4.0006357   -4.0006357   -2.7210466  0.064961783   -4.0006357     1.279589      1024000 
  740000   0.99497562   -4.0006488   -4.0006488   -2.7196344  0.072935991   -4.0006488    1.2810145      1024000 
  741000   0.99356618    -4.000662    -4.000662   -2.7214621  0.076197705    -4.000662    1.2791998      1024000 
  742000   0.99335539   -4.0006613   -4.0006613   -2.7217329   0.07124793   -4.0006613    1.2789284      1024000 
  743000   0.99363434   -3.9990115   -3.9990115    -2.719724  0.078682551   -3.9990115    1.2792876      1024000 
  744000   0.99470411    -4.001167    -4.001167   -2.7205021  0.066156845    -4.001167    1.2806649      1024000 
  745000   0.99418918    -4.000088    -4.000088    -2.720086  0.070101996    -4.000088    1.2800019      1024000 
  746000   0.99394243   -4.0003852   -4.0003852   -2.7207009  0.069297549   -4.0003852    1.2796842      1024000 
  747000   0.99425062   -4.0004739   -4.0004739   -2.7203929  0.077766474   -4.0004739     1.280081      1024000 
  748000   0.99399949   -4.0011346   -4.0011346   -2.7213769  0.075466269   -4.0011346    1.2797577      1024000 
  749000   0.99242743   -3.9985719   -3.9985719   -2.7208382  0.073163761   -3.9985719    1.2777337      1024000 
  750000    0.9941542   -4.0019006   -4.0019006   -2.7219437  0.066543469   -4.0019006    1.2799569      1024000 
  751000   0.99104249   -3.9977064   -3.9977064   -2.7217558  0.077517677   -3.9977064    1.2759506      1024000 
  752000   0.99236328   -3.9988478   -3.9988478   -2.7211967  0.064777546   -3.9988478    1.2776511      1024000 
  753000   0.99015233   -3.9976022   -3.9976022   -2.7227976  0.073313724   -3.9976022    1.2748046      1024000 
  754000   0.99172313   -3.9994138   -3.9994138   -2.7225869  0.056707218   -3.9994138    1.2768269      1024000 
  755000   0.99203416   -3.9986157   -3.9986157   -2.7213884  0.068400305   -3.9986157    1.2772274      1024000 
  756000   0.99295215   -3.9988304   -3.9988304   -2.7204212  0.070144622   -3.9988304    1.2784093      1024000 
  757000    0.9926694   -3.9989464   -3.9989464   -2.7209012  0.080782596   -3.9989464    1.2780452      1024000 
  758000   0.99221248    -3.998901    -3.998901    -2.721444  0.065705082    -3.998901     1.277457      1024000 
  759000   0.99440454   -4.0014647   -4.0014647   -2.7211855  0.064259272   -4.0014647    1.2802792      1024000 
  760000   0.99480052   -4.0014105   -4.0014105   -2.7206215  0.072891929   -4.0014105     1.280789      1024000 
  761000   0.99426121   -4.0006503   -4.0006503   -2.7205556   0.07609494   -4.0006503    1.2800947      1024000 
  762000   0.99478497    -4.001379    -4.001379     -2.72061  0.064414144    -4.001379     1.280769      1024000 
  763000   0.99419257   -4.0013051   -4.0013051   -2.7212988  0.074580555   -4.0013051    1.2800063      1024000 
  764000   0.99511758   -3.9998587   -3.9998587   -2.7186614   0.07128541   -3.9998587    1.2811972      1024000 
  765000    0.9936286   -3.9999243   -3.9999243   -2.7206441  0.063647364   -3.9999243    1.2792802      1024000 
  766000   0.99187434   -3.9989422   -3.9989422   -2.7219206   0.07166356   -3.9989422    1.2770216      1024000 
  767000   0.99255054   -3.9986797   -3.9986797   -2.7207875   0.06915222   -3.9986797    1.2778922      1024000 
  768000   0.99276873   -3.9983052   -3.9983052   -2.7201321  0.079548622   -3.9983052    1.2781731      1024000 
  769000   0.99313074   -3.9996948   -3.9996948   -2.7210556  0.073416464   -3.9996948    1.2786392      1024000 
  770000   0.99449256   -4.0005541   -4.0005541   -2.7201615  0.066032115   -4.0005541    1.2803925      1024000 
  771000   0.99415955   -3.9987523   -3.9987523   -2.7187885  0.069164255   -3.9987523    1.2799638      1024000 
  772000   0.99260865    -3.998731    -3.998731    -2.720764  0.073773567    -3.998731     1.277967      1024000 
  773000   0.99284039   -3.9997273   -3.9997273   -2.7214619   0.06936018   -3.9997273    1.2782654      1024000 
  774000   0.99075642   -3.9962982   -3.9962982   -2.7207159  0.074337823   -3.9962982    1.2755823      1024000 
  775000   0.99203144    -3.997556    -3.997556   -2.7203322  0.072363269    -3.997556    1.2772239      1024000 
  776000    0.9920052   -3.9973643   -3.9973643   -2.7201742  0.071435145   -3.9973643    1.2771901      1024000 
  777000   0.99192705   -3.9969846   -3.9969846   -2.7198951  0.054715158   -3.9969846    1.2770895      1024000 
  778000   0.99189436   -3.9978592   -3.9978592   -2.7208118   0.06795246   -3.9978592    1.2770474      1024000 
  779000   0.99185231    -3.996748    -3.996748   -2.7197548  0.068118741    -3.996748    1.2769932      1024000 
  780000   0.99253965   -3.9963986   -3.9963986   -2.7185205  0.066823371   -3.9963986    1.2778782      1024000 
  781000   0.99151536   -3.9966592   -3.9966592   -2.7200997  0.068337212   -3.9966592    1.2765594      1024000 
  782000   0.99235988   -3.9973851   -3.9973851   -2.7197384  0.067509787   -3.9973851    1.2776467      1024000 
  783000   0.99291739   -3.9984276   -3.9984276   -2.7200631   0.06693207   -3.9984276    1.2783645      1024000 
  784000   0.99436484   -4.0001761   -4.0001761    -2.719948   0.05539307   -4.0001761    1.2802281      1024000 
  785000   0.99376203   -3.9975014   -3.9975014   -2.7180494  0.065372792   -3.9975014     1.279452      1024000 
  786000   0.99361603   -3.9983848   -3.9983848   -2.7191208  0.079401076   -3.9983848     1.279264      1024000 
  787000   0.99414505   -3.9975577   -3.9975577   -2.7176126  0.071699482   -3.9975577    1.2799451      1024000 
  788000   0.99235118   -3.9971352   -3.9971352   -2.7194997  0.068956282   -3.9971352    1.2776355      1024000 
  789000     0.991897   -3.9961963   -3.9961963   -2.7191455  0.071220333   -3.9961963    1.2770508      1024000 
  790000   0.99373212   -3.9982774   -3.9982774   -2.7188639  0.058545432   -3.9982774    1.2794135      1024000 
  791000   0.99285095   -3.9968266   -3.9968266   -2.7185476  0.073424748   -3.9968266     1.278279      1024000 
  792000   0.99252446   -3.9982971   -3.9982971   -2.7204385  0.062514337   -3.9982971    1.2778586      1024000 
  793000    0.9918368   -3.9989195   -3.9989195   -2.7219462  0.067558327   -3.9989195    1.2769733      1024000 
  794000   0.99296358    -3.997127    -3.997127    -2.718703  0.072850411    -3.997127     1.278424      1024000 
  795000   0.99348046   -3.9976063   -3.9976063   -2.7185168  0.067319857   -3.9976063    1.2790895      1024000 
  796000      0.99456   -3.9984372   -3.9984372   -2.7179578  0.066219337   -3.9984372    1.2804794      1024000 
  797000    0.9943175   -3.9980629   -3.9980629   -2.7178957  0.073855407   -3.9980629    1.2801671      1024000 
  798000   0.99559051    -3.998869    -3.998869   -2.7170628  0.063648855    -3.998869    1.2818061      1024000 
  799000   0.99298327   -3.9967042   -3.9967042   -2.7182549  0.070633671   -3.9967042    1.2784493      1024000 
  800000   0.99356501   -3.9982899   -3.9982899   -2.7190916  0.068084319   -3.9982899    1.2791983      1024000 
  801000   0.99321203    -3.997909    -3.997909   -2.7191652  0.074820287    -3.997909    1.2787439      1024000 
  802000   0.99389108   -3.9991773   -3.9991773   -2.7195591  0.065277446   -3.9991773    1.2796181      1024000 
  803000   0.99370606   -3.9988223   -3.9988223   -2.7194424  0.068692061   -3.9988223    1.2793799      1024000 
  804000   0.99076364   -3.9941944   -3.9941944   -2.7186028  0.075515153   -3.9941944    1.2755916      1024000 
  805000   0.99406272   -3.9978265   -3.9978265   -2.7179874  0.070923915   -3.9978265    1.2798391      1024000 
  806000   0.99387154   -3.9984872   -3.9984872   -2.7188942  0.067523343   -3.9984872     1.279593      1024000 
  807000   0.99313555   -3.9960185   -3.9960185   -2.7173731  0.067123204   -3.9960185    1.2786454      1024000 
  808000   0.99326147   -3.9961223   -3.9961223   -2.7173148  0.067417786   -3.9961223    1.2788075      1024000 
  809000    0.9945898   -3.9993094   -3.9993094   -2.7187917  0.063712397   -3.9993094    1.2805177      1024000 
  810000   0.99486124    -3.996897    -3.996897   -2.7160298  0.065100854    -3.996897    1.2808672      1024000 
  811000   0.99331696   -3.9954011   -3.9954011   -2.7165221  0.077874964   -3.9954011     1.278879      1024000 
  812000   0.99363625   -3.9959997   -3.9959997   -2.7167096  0.088216002   -3.9959997      1.27929      1024000 
  813000   0.99191034   -3.9949997   -3.9949997   -2.7179318  0.076275275   -3.9949997     1.277068      1024000 
  814000    0.9924294   -3.9969974   -3.9969974   -2.7192612   0.06513509   -3.9969974    1.2777362      1024000 
  815000   0.99333144   -3.9961707   -3.9961707   -2.7172731  0.063777672   -3.9961707    1.2788976      1024000 
  816000   0.99348684   -3.9943934   -3.9943934   -2.7152957  0.076385914   -3.9943934    1.2790977      1024000 
  817000   0.99295089   -3.9962972   -3.9962972   -2.7178895   0.05726168   -3.9962972    1.2784077      1024000 
  818000   0.99124215   -3.9927717   -3.9927717    -2.716564  0.064123736   -3.9927717    1.2762077      1024000 
  819000   0.99266811   -3.9943757   -3.9943757   -2.7163322  0.062097114   -3.9943757    1.2780436      1024000 
  820000   0.99283941   -3.9946691   -3.9946691   -2.7164049  0.060480715   -3.9946691    1.2782641      1024000 
  821000   0.99284626   -3.9954039   -3.9954039    -2.717131  0.060186049   -3.9954039     1.278273      1024000 
  822000   0.99175863   -3.9955407   -3.9955407   -2.7186681  0.067135837   -3.9955407    1.2768726      1024000 
  823000   0.99158465   -3.9925198   -3.9925198   -2.7158712  0.070562383   -3.9925198    1.2766487      1024000 
  824000   0.99294522   -3.9943544   -3.9943544   -2.7159541  0.061690291   -3.9943544    1.2784004      1024000 
  825000   0.99296818   -3.9944665   -3.9944665   -2.7160366  0.067739281   -3.9944665    1.2784299      1024000 
  826000   0.99492572   -3.9978824   -3.9978824   -2.7169322  0.061696749   -3.9978824    1.2809502      1024000 
  827000   0.99357845   -3.9941237   -3.9941237   -2.7149081  0.074427939   -3.9941237    1.2792156      1024000 
  828000   0.99252174   -3.9952895   -3.9952895   -2.7174344   0.06346205   -3.9952895    1.2778551      1024000 
  829000   0.99326384   -3.9946217   -3.9946217   -2.7158111  0.063220136   -3.9946217    1.2788106      1024000 
  830000    0.9923271   -3.9933867   -3.9933867   -2.7157821  0.065873386   -3.9933867    1.2776045      1024000 
  831000   0.99272985   -3.9941724   -3.9941724   -2.7160493  0.064882381   -3.9941724    1.2781231      1024000 
  832000    0.9921942   -3.9940891   -3.9940891   -2.7166557  0.061197922   -3.9940891    1.2774334      1024000 
  833000   0.99382731     -3.99489     -3.99489    -2.715354  0.066045111     -3.99489     1.279536      1024000 
  834000   0.99243119   -3.9940863   -3.9940863   -2.7163478  0.060075556   -3.9940863    1.2777385      1024000 
  835000   0.99499119   -3.9966827   -3.9966827   -2.7156482  0.072728482   -3.9966827    1.2810345      1024000 
  836000   0.99252126   -3.9954076   -3.9954076   -2.7175531  0.067186117   -3.9954076    1.2778545      1024000 
  837000   0.99295595   -3.9967351   -3.9967351   -2.7183209  0.056924335   -3.9967351    1.2784142      1024000 
  838000   0.99447113   -3.9967082   -3.9967082   -2.7163433  0.073928683   -3.9967082    1.2803649      1024000 
  839000   0.99298048   -3.9958048   -3.9958048   -2.7173591  0.067528565   -3.9958048    1.2784457      1024000 
  840000   0.99292384   -3.9963775   -3.9963775   -2.7180047  0.069060887   -3.9963775    1.2783728      1024000 
  841000   0.99387372   -3.9973001   -3.9973001   -2.7177043  0.063378437   -3.9973001    1.2795958      1024000 
  842000   0.99292886   -3.9979281   -3.9979281   -2.7195488  0.069239457   -3.9979281    1.2783793      1024000 
  843000   0.99351093   -3.9970542   -3.9970542   -2.7179255  0.075715852   -3.9970542    1.2791287      1024000 
  844000   0.99329257   -3.9980819   -3.9980819   -2.7192343  0.067279471   -3.9980819    1.2788476      1024000 
  845000   0.99464578    -3.999494    -3.999494   -2.7189042  0.070632465    -3.999494    1.2805898      1024000 
  846000   0.99304429   -3.9978311   -3.9978311   -2.7193032  0.072795332   -3.9978311    1.2785279      1024000 
  847000   0.99403506   -3.9990126   -3.9990126    -2.719209  0.065293128   -3.9990126    1.2798035      1024000 
  848000   0.99514801   -3.9995869   -3.9995869   -2.7183505  0.079704074   -3.9995869    1.2812364      1024000 
  849000   0.99348547   -3.9987354   -3.9987354   -2.7196395  0.070594925   -3.9987354    1.2790959      1024000 
  850000   0.99335981   -3.9969269   -3.9969269   -2.7179928   0.07079337   -3.9969269    1.2789341      1024000 
  851000   0.99308624   -3.9982172   -3.9982172   -2.7196352  0.069998888   -3.9982172    1.2785819      1024000 
  852000   0.99443885   -3.9994489   -3.9994489   -2.7191255  0.084208343   -3.9994489    1.2803234      1024000 
  853000   0.99470614   -3.9995205   -3.9995205    -2.718853  0.070660902   -3.9995205    1.2806675      1024000 
  854000   0.99265868   -3.9965456   -3.9965456   -2.7185142  0.074179921   -3.9965456    1.2780314      1024000 
  855000   0.99441154     -3.99798     -3.99798   -2.7176918  0.068811493     -3.99798    1.2802882      1024000 
  856000     0.993767   -3.9977656   -3.9977656   -2.7183072  0.067580303   -3.9977656    1.2794584      1024000 
  857000   0.99489185   -3.9984047   -3.9984047   -2.7174981  0.069302385   -3.9984047    1.2809066      1024000 
  858000   0.99414659   -3.9970093   -3.9970093   -2.7170622  0.074767767   -3.9970093    1.2799471      1024000 
  859000   0.99360907   -3.9963338   -3.9963338   -2.7170787  0.068367877   -3.9963338    1.2792551      1024000 
  860000    0.9931739   -3.9969061   -3.9969061   -2.7182113  0.068450804   -3.9969061    1.2786948      1024000 
  861000   0.99260721   -3.9950116   -3.9950116   -2.7170465  0.076328233   -3.9950116    1.2779652      1024000 
  862000   0.99275893   -3.9938332   -3.9938332   -2.7156727  0.067979625   -3.9938332    1.2781605      1024000 
  863000   0.99275282   -3.9936819   -3.9936819   -2.7155293  0.069540407   -3.9936819    1.2781526      1024000 
  864000   0.99315029    -3.995255    -3.995255   -2.7165907  0.065046739    -3.995255    1.2786644      1024000 
  865000   0.99316763   -3.9943167   -3.9943167     -2.71563  0.068167722   -3.9943167    1.2786867      1024000 
  866000   0.99151137   -3.9944413   -3.9944413    -2.717887  0.062248998   -3.9944413    1.2765543      1024000 
  867000   0.99196812   -3.9934748   -3.9934748   -2.7163325  0.070150886   -3.9934748    1.2771424      1024000 
  868000   0.99351184   -3.9938204   -3.9938204   -2.7146905  0.065042841   -3.9938204    1.2791299      1024000 
  869000   0.99480254   -3.9942574   -3.9942574   -2.7134658  0.065401365   -3.9942574    1.2807916      1024000 
  870000   0.99407305   -3.9937281   -3.9937281   -2.7138757  0.062412276   -3.9937281    1.2798524      1024000 
  871000   0.99295096   -3.9937386   -3.9937386   -2.7153308  0.060526191   -3.9937386    1.2784077      1024000 
  872000   0.99346942   -3.9931869   -3.9931869   -2.7141117  0.065679692   -3.9931869    1.2790753      1024000 
  873000   0.99307505   -3.9932622   -3.9932622   -2.7146947  0.062974276   -3.9932622    1.2785675      1024000 
  874000   0.99370438   -3.9951446   -3.9951446   -2.7157668  0.058325048   -3.9951446    1.2793778      1024000 
  875000   0.99367996   -3.9943505   -3.9943505   -2.7150042  0.065924283   -3.9943505    1.2793463      1024000 
  876000   0.99304966   -3.9913142   -3.9913142   -2.7127794   0.07267101   -3.9913142    1.2785348      1024000 
  877000   0.99298767   -3.9925961   -3.9925961   -2.7141411  0.062440016   -3.9925961     1.278455      1024000 
  878000   0.99245476   -3.9946502   -3.9946502   -2.7168813  0.066573585   -3.9946502    1.2777689      1024000 
  879000   0.99261389   -3.9939928   -3.9939928   -2.7160191  0.063325244   -3.9939928    1.2779738      1024000 
  880000   0.99154198   -3.9939677   -3.9939677   -2.7173739  0.065303108   -3.9939677    1.2765937      1024000 
  881000   0.99311586   -3.9951585   -3.9951585   -2.7165384  0.055347653   -3.9951585      1.27862      1024000 
  882000   0.99245813   -3.9954413   -3.9954413   -2.7176681  0.070375499   -3.9954413    1.2777732      1024000 
  883000   0.99320964   -3.9962505   -3.9962505   -2.7175097  0.069143611   -3.9962505    1.2787408      1024000 
  884000   0.99298978   -3.9956616   -3.9956616   -2.7172039  0.078699582   -3.9956616    1.2784577      1024000 
  885000    0.9956235   -3.9994612   -3.9994612   -2.7176126  0.061555805   -3.9994612    1.2818486      1024000 
  886000   0.99415239   -3.9969407   -3.9969407   -2.7169862  0.079830172   -3.9969407    1.2799546      1024000 
  887000   0.99350683   -3.9959348   -3.9959348   -2.7168114   0.07529767   -3.9959348    1.2791234      1024000 
  888000   0.99373281   -3.9975044   -3.9975044     -2.71809  0.069195613   -3.9975044    1.2794144      1024000 
  889000   0.99423268   -3.9959335   -3.9959335   -2.7158756  0.085245091   -3.9959335    1.2800579      1024000 
  890000   0.99480704   -3.9971754   -3.9971754    -2.716378  0.083085527   -3.9971754    1.2807974      1024000 
  891000   0.99531134   -3.9964863   -3.9964863   -2.7150396  0.084401179   -3.9964863    1.2814467      1024000 
  892000   0.99470664   -3.9979357   -3.9979357   -2.7172676  0.067714641   -3.9979357    1.2806682      1024000 
  893000   0.99528251   -3.9974752   -3.9974752   -2.7160656  0.073557977   -3.9974752    1.2814096      1024000 
  894000   0.99465744   -3.9985743   -3.9985743   -2.7179695  0.068922646   -3.9985743    1.2806048      1024000 
  895000   0.99406987   -3.9969387   -3.9969387   -2.7170904  0.078921399   -3.9969387    1.2798483      1024000 
  896000   0.99416709   -3.9966659   -3.9966659   -2.7166924  0.071255491   -3.9966659    1.2799735      1024000 
  897000    0.9947118   -3.9972142   -3.9972142   -2.7165394  0.062238281   -3.9972142    1.2806748      1024000 
  898000   0.99154837   -3.9953677   -3.9953677   -2.7187657  0.074370227   -3.9953677    1.2766019      1024000 
  899000   0.99380655    -3.996844    -3.996844   -2.7173347   0.06839502    -3.996844    1.2795093      1024000 
  900000   0.99211779    -3.994443    -3.994443    -2.717108  0.063510349    -3.994443     1.277335      1024000 
  901000   0.99221917   -3.9953115   -3.9953115   -2.7178459  0.066911268   -3.9953115    1.2774656      1024000 
  902000   0.99381596   -3.9968658   -3.9968658   -2.7173444  0.065276387   -3.9968658    1.2795214      1024000 
  903000    0.9918164   -3.9930646   -3.9930646   -2.7161176  0.070186123   -3.9930646     1.276947      1024000 
  904000   0.99203998   -3.9934879   -3.9934879    -2.716253  0.072116739   -3.9934879    1.2772349      1024000 
  905000   0.99214713   -3.9942262   -3.9942262   -2.7168534  0.071057262   -3.9942262    1.2773728      1024000 
  906000   0.99128881   -3.9940208   -3.9940208    -2.717753  0.064336061   -3.9940208    1.2762678      1024000 
  907000   0.99518382   -3.9976647   -3.9976647   -2.7163822  0.068293069   -3.9976647    1.2812825      1024000 
  908000   0.99318646   -3.9943408   -3.9943408   -2.7156298  0.071954446   -3.9943408    1.2787109      1024000 
  909000   0.99226544   -3.9941307   -3.9941307   -2.7166055  0.070108903   -3.9941307    1.2775251      1024000 
  910000   0.99469486   -3.9956728   -3.9956728   -2.7150198  0.065677191   -3.9956728     1.280653      1024000 
  911000   0.99272657   -3.9918756   -3.9918756   -2.7137567  0.074207891   -3.9918756    1.2781189      1024000 
  912000   0.99234177   -3.9929714   -3.9929714    -2.715348  0.066199925   -3.9929714    1.2776234      1024000 
  913000   0.99253261   -3.9934123   -3.9934123   -2.7155432  0.066070815   -3.9934123    1.2778691      1024000 
  914000   0.99464445   -3.9943564   -3.9943564   -2.7137683  0.067956769   -3.9943564    1.2805881      1024000 
  915000   0.99423928   -3.9944494   -3.9944494    -2.714383   0.06820937   -3.9944494    1.2800664      1024000 
  916000   0.99292226    -3.993865    -3.993865   -2.7154942  0.073535563    -3.993865    1.2783708      1024000 
  917000   0.99316036   -3.9932839   -3.9932839   -2.7146066   0.07070543   -3.9932839    1.2786774      1024000 
  918000   0.99348318   -3.9933525   -3.9933525   -2.7142595   0.07112898   -3.9933525     1.279093      1024000 
  919000   0.99310208   -3.9936563   -3.9936563    -2.715054  0.064389879   -3.9936563    1.2786023      1024000 
  920000    0.9910317   -3.9901982   -3.9901982   -2.7142615  0.064565677   -3.9901982    1.2759367      1024000 
  921000   0.99332622   -3.9923907   -3.9923907   -2.7134998  0.063531799   -3.9923907    1.2788909      1024000 
  922000   0.99094657   -3.9906012   -3.9906012    -2.714774   0.07371288   -3.9906012    1.2758271      1024000 
  923000   0.99366864   -3.9925974   -3.9925974   -2.7132656  0.069566664   -3.9925974    1.2793317      1024000 
  924000   0.99271632   -3.9920278   -3.9920278   -2.7139222  0.071896156   -3.9920278    1.2781056      1024000 
  925000   0.99410437   -3.9940247   -3.9940247   -2.7141319  0.061929842   -3.9940247    1.2798927      1024000 
  926000   0.99454719   -3.9930808   -3.9930808   -2.7126179  0.067669981   -3.9930808    1.2804629      1024000 
  927000   0.99385548   -3.9926087   -3.9926087   -2.7130364  0.075324923   -3.9926087    1.2795723      1024000 
  928000    0.9948021   -3.9930261   -3.9930261   -2.7122351  0.070143045   -3.9930261    1.2807911      1024000 
  929000   0.99410214   -3.9911572   -3.9911572   -2.7112673  0.066195853   -3.9911572    1.2798899      1024000 
  930000   0.99529891   -3.9937536   -3.9937536   -2.7123229  0.064962364   -3.9937536    1.2814307      1024000 
  931000   0.99354012   -3.9921747   -3.9921747   -2.7130085  0.073723417   -3.9921747    1.2791663      1024000 
  932000   0.99411131   -3.9911159   -3.9911159   -2.7112142  0.063945968   -3.9911159    1.2799017      1024000 
  933000   0.99286626   -3.9906971   -3.9906971   -2.7123984  0.076015043   -3.9906971    1.2782987      1024000 
  934000    0.9944063   -3.9938087   -3.9938087   -2.7135272  0.056880298   -3.9938087    1.2802815      1024000 
  935000   0.99150456   -3.9925291   -3.9925291   -2.7159835  0.068846804   -3.9925291    1.2765455      1024000 
  936000   0.99195512   -3.9915899   -3.9915899   -2.7144643  0.062409461   -3.9915899    1.2771256      1024000 
  937000   0.99248691   -3.9917318   -3.9917318   -2.7139215  0.070163795   -3.9917318    1.2778103      1024000 
  938000   0.99182178   -3.9916875   -3.9916875   -2.7147336  0.068097004   -3.9916875    1.2769539      1024000 
  939000   0.99283785   -3.9918812   -3.9918812   -2.7136191  0.071481351   -3.9918812    1.2782621      1024000 
  940000   0.99265953   -3.9927445   -3.9927445    -2.714712  0.068206428   -3.9927445    1.2780325      1024000 
  941000   0.99334641    -3.990897    -3.990897   -2.7119801  0.072493223    -3.990897    1.2789169      1024000 
  942000   0.99293213   -3.9924272   -3.9924272   -2.7140437  0.059237662   -3.9924272    1.2783835      1024000 
  943000   0.99210254    -3.991542    -3.991542   -2.7142266  0.069739478    -3.991542    1.2773154      1024000 
  944000    0.9924914   -3.9915879   -3.9915879   -2.7137718  0.071410596   -3.9915879    1.2778161      1024000 
  945000   0.99326081   -3.9918091   -3.9918091   -2.7130025  0.070756864   -3.9918091    1.2788067      1024000 
  946000   0.99330393   -3.9912972   -3.9912972    -2.712435  0.077558553   -3.9912972    1.2788622      1024000 
  947000   0.99455768   -3.9937548   -3.9937548   -2.7132784  0.062821442   -3.9937548    1.2804764      1024000 
  948000   0.99402762    -3.992621    -3.992621    -2.712827  0.071898569    -3.992621    1.2797939      1024000 
  949000   0.99728687   -3.9971883   -3.9971883   -2.7131982  0.061365933   -3.9971883    1.2839902      1024000 
  950000   0.99408188   -3.9940833   -3.9940833   -2.7142195  0.073898714   -3.9940833    1.2798638      1024000 
  951000   0.99506774   -3.9942702   -3.9942702   -2.7131371  0.072524421   -3.9942702    1.2811331      1024000 
  952000   0.99622883   -3.9948866   -3.9948866   -2.7122587  0.071832153   -3.9948866     1.282628      1024000 
  953000   0.99312626   -3.9925729   -3.9925729   -2.7139395  0.071648404   -3.9925729    1.2786334      1024000 
  954000   0.99309169   -3.9911488   -3.9911488   -2.7125599  0.081970024   -3.9911488    1.2785889      1024000 
  955000   0.99303203   -3.9924803   -3.9924803   -2.7139681  0.068826371   -3.9924803    1.2785121      1024000 
  956000   0.99457558   -3.9932792   -3.9932792   -2.7127798  0.075234846   -3.9932792    1.2804994      1024000 
  957000   0.99466146   -3.9934744   -3.9934744   -2.7128644  0.067868247   -3.9934744      1.28061      1024000 
  958000   0.99395967   -3.9931554   -3.9931554    -2.713449  0.064667906   -3.9931554    1.2797064      1024000 
  959000   0.99426866   -3.9921711   -3.9921711   -2.7120669  0.078557626   -3.9921711    1.2801043      1024000 
  960000    0.9942274   -3.9928377   -3.9928377   -2.7127866   0.07162444   -3.9928377    1.2800511      1024000 
  961000   0.99499059   -3.9931492   -3.9931492   -2.7121155  0.066301147   -3.9931492    1.2810337      1024000 
  962000   0.99334981   -3.9921289   -3.9921289   -2.7132076  0.068977754   -3.9921289    1.2789213      1024000 
  963000   0.99376742   -3.9911575   -3.9911575   -2.7116986  0.074812459   -3.9911575    1.2794589      1024000 
  964000   0.99500413   -3.9925849   -3.9925849   -2.7115338  0.062477245   -3.9925849    1.2810512      1024000 
  965000   0.99450546   -3.9924771   -3.9924771    -2.712068  0.072581754   -3.9924771    1.2804091      1024000 
  966000   0.99608266   -3.9950617   -3.9950617   -2.7126219  0.070840287   -3.9950617    1.2824398      1024000 
  967000   0.99480396    -3.992066    -3.992066   -2.7112726  0.063861639    -3.992066    1.2807935      1024000 
  968000   0.99271147   -3.9918325   -3.9918325   -2.7137331  0.064950673   -3.9918325    1.2780994      1024000 
  969000   0.99325382   -3.9917568   -3.9917568   -2.7129591  0.071248922   -3.9917568    1.2787977      1024000 
  970000   0.99041297   -3.9896443   -3.9896443   -2.7145042  0.078953043   -3.9896443    1.2751401      1024000 
  971000   0.99382364   -3.9926094   -3.9926094   -2.7130781  0.061533932   -3.9926094    1.2795313      1024000 
  972000   0.99339562   -3.9911799   -3.9911799   -2.7121997  0.070214665   -3.9911799    1.2789802      1024000 
  973000   0.99313841   -3.9924553   -3.9924553   -2.7138062  0.062560734   -3.9924553    1.2786491      1024000 
  974000   0.99310323   -3.9914459   -3.9914459   -2.7128421  0.062879088   -3.9914459    1.2786038      1024000 
  975000   0.99488938   -3.9932191   -3.9932191   -2.7123156  0.059030618   -3.9932191    1.2809034      1024000 
  976000   0.99450289   -3.9932013   -3.9932013   -2.7127955  0.067545166   -3.9932013    1.2804058      1024000 
  977000   0.99358668   -3.9916183   -3.9916183   -2.7123921  0.064360776   -3.9916183    1.2792262      1024000 
  978000   0.99611271   -3.9935864   -3.9935864   -2.7111079  0.072421161   -3.9935864    1.2824784      1024000 
  979000   0.99314713   -3.9912607   -3.9912607   -2.7126004  0.072197517   -3.9912607    1.2786603      1024000 
  980000   0.99224983   -3.9900295   -3.9900295   -2.7125244  0.066905656   -3.9900295    1.2775051      1024000 
  981000   0.99356634   -3.9918788   -3.9918788   -2.7126788  0.060057308   -3.9918788       1.2792      1024000 
  982000   0.99280572   -3.9906049   -3.9906049   -2.7123841  0.073735824   -3.9906049    1.2782208      1024000 
  983000   0.99250279   -3.9912303   -3.9912303   -2.7133996  0.076774831   -3.9912303    1.2778307      1024000 
  984000   0.99156111   -3.9912163   -3.9912163   -2.7145979  0.077213551   -3.9912163    1.2766183      1024000 
  985000   0.99409594   -3.9925107   -3.9925107   -2.7126288  0.080154369   -3.9925107    1.2798819      1024000 
  986000   0.99564174   -3.9938464   -3.9938464   -2.7119743  0.067357327   -3.9938464    1.2818721      1024000 
  987000   0.99472661   -3.9942459   -3.9942459    -2.713552  0.068033734   -3.9942459    1.2806939      1024000 
  988000   0.99404097   -3.9931424   -3.9931424   -2.7133312  0.079479997   -3.9931424    1.2798111      1024000 
  989000   0.99282663   -3.9924272   -3.9924272   -2.7141795   0.07314112   -3.9924272    1.2782477      1024000 
  990000    0.9933915   -3.9930388   -3.9930388   -2.7140638  0.076781427   -3.9930388    1.2789749      1024000 
  991000   0.99421597     -3.99293     -3.99293   -2.7128936  0.072014206     -3.99293    1.2800364      1024000 
  992000   0.99413978   -3.9940673   -3.9940673    -2.714129  0.068878507   -3.9940673    1.2799383      1024000 
  993000   0.99410293   -3.9932328   -3.9932328   -2.7133419  0.079692325   -3.9932328    1.2798909      1024000 
  994000   0.99455767   -3.9932035   -3.9932035   -2.7127271  0.065824215   -3.9932035    1.2804764      1024000 
  995000    0.9949461   -3.9935655   -3.9935655   -2.7125891  0.072564733   -3.9935655    1.2809765      1024000 
  996000   0.99350586   -3.9915669   -3.9915669   -2.7124447  0.075377141   -3.9915669    1.2791222      1024000 
  997000   0.99511606    -3.994203    -3.994203   -2.7130077   0.07132202    -3.994203    1.2811953      1024000 
  998000   0.99577995   -3.9933879   -3.9933879   -2.7113378  0.070349102   -3.9933879      1.28205      1024000 
  999000   0.99426316   -3.9930675   -3.9930675   -2.7129704  0.067143638   -3.9930675    1.2800972      1024000 
 1000000   0.99486084   -3.9931875   -3.9931875   -2.7123208  0.062187233   -3.9931875    1.2808667      1024000 
Loop time of 71116.4 on 32 procs for 1000000 steps with 515430 atoms

Performance: 3037.275 tau/day, 14.061 timesteps/s
99.3% CPU use with 32 MPI tasks x 1 OpenMP threads

MPI task timing breakdown:
Section |  min time  |  avg time  |  max time  |%varavg|  %CPU | %total
-----------------------------------------------------------------------
Pair    | 23499      | 36170      | 44897      |2565.7 |  99.5 | 50.86
Bond    | 0.53508    | 0.74638    | 0.89002    |   7.2 | 100.0 |  0.00
Neigh   | 6912.8     | 13381      | 16268      |1934.3 |  99.9 | 18.82
Comm    | 4989.8     | 15498      | 35610      |6419.6 |  97.7 | 21.79
Output  | 20.535     | 25.336     | 50.528     | 193.1 | 100.0 |  0.04
Modify  | 1116.2     | 5786       | 14562      |5510.6 |  99.5 |  8.14
Other   |            | 254.5      |            |       |       |  0.36

Nlocal:    16107.2 ave 16708 max 15278 min
Histogram: 1 1 1 3 5 6 3 8 3 1
Nghost:    39813.9 ave 47940 max 26656 min
Histogram: 8 0 0 0 0 0 0 15 1 8
Neighs:    2.23374e+06 ave 2.63064e+06 max 1.68031e+06 min
Histogram: 3 1 0 0 7 9 4 0 4 4

Total # of neighbors = 71479665
Ave neighs/atom = 138.68
Ave special neighs/atom = 0
Neighbor list builds = 65525
Dangerous builds = 0
Total wall time: 19:45:20
