LAMMPS (24 Dec 2020)
OMP_NUM_THREADS environment is not set. Defaulting to 1 thread. (src/comm.cpp:94)
  using 1 OpenMP thread(s) per MPI task
#Read the equilibrated lj fluid and add nanocubes

units           lj
atom_style      full
atom_modify     map array first cubes
dimension       3
boundary        p p f
pair_style      lj/cut/opt 2.5

variable        sigma           equal 1.0
variable        epsilon         equal 1.0
read_restart	restart.dat.3000000
Reading restart file ...
  restart file = 24 Dec 2020, LAMMPS = 24 Dec 2020
WARNING: Restart file used different # of processors: 48 vs. 288 (src/read_restart.cpp:697)
  restoring atom style full from restart
  orthogonal box = (0.0000000 0.0000000 0.0000000) to (80.000000 80.000000 160.00000)
  6 by 4 by 12 MPI processor grid
  restoring pair style lj/cut/opt from restart
  518400 atoms
Finding 1-2 1-3 1-4 neighbors ...
  special bond factors lj:    0        0        0       
  special bond factors coul:  0        0        0       
     0 = max # of 1-2 neighbors
     0 = max # of 1-3 neighbors
     0 = max # of 1-4 neighbors
     1 = max # of special neighbors
  special bonds CPU = 2.366 seconds
  read_restart CPU = 2.696 seconds

group		solvent type 1
518400 atoms in group solvent

read_data	data_64.cubes group cubes add append
Reading data file ...
  orthogonal box = (0.0000000 0.0000000 0.0000000) to (80.000000 80.000000 160.00000)
  6 by 4 by 12 MPI processor grid
  reading atoms ...
  85184 atoms
  reading velocities ...
  85184 velocities
Finding 1-2 1-3 1-4 neighbors ...
  special bond factors lj:    0        0        0       
  special bond factors coul:  0        0        0       
     0 = max # of 1-2 neighbors
     0 = max # of 1-3 neighbors
     0 = max # of 1-4 neighbors
     1 = max # of special neighbors
  special bonds CPU = 0.065 seconds
  read_data CPU = 0.396 seconds

group 		hull  type 2
38528 atoms in group hull
group 		dummy type 3
46656 atoms in group dummy

neighbor      0.4 bin
neigh_modify  exclude molecule/intra cubes


pair_modify   shift yes

pair_coeff    1 1 1.0 1.0 #solvent
pair_coeff    2 2 1.0 1.0 1.12 #np
pair_coeff    3 3 0.0 0.0 0.0 #dummy
pair_coeff    2 3 0.0 0.0 0.0 #np dummy
pair_coeff    1 2 ${sol} 1.0 #np solvent
pair_coeff    1 2 1.0 1.0 
pair_coeff    1 3 0.0 0.0 2.5 #dummy solvent

# delete solvent where the cubes are
delete_atoms  overlap 1.0 solvent cubes
System init for delete_atoms ...
Neighbor list info ...
  update every 1 steps, delay 10 steps, check yes
  max neighbors/atom: 2000, page size: 100000
  master list distance cutoff = 2.9
  ghost atom cutoff = 2.9
  binsize = 1.45, bins = 56 56 111
  2 neighbor lists, perpetual/occasional/extra = 1 1 0
  (1) command delete_atoms, occasional
      attributes: full, newton on
      pair build: full/bin
      stencil: full/bin/3d
      bin: standard
  (2) pair lj/cut/opt, perpetual
      attributes: half, newton on
      pair build: half/bin/newton
      stencil: half/bin/3d/newton
      bin: standard
WARNING: Delete_atoms cutoff > minimum neighbor cutoff (src/delete_atoms.cpp:307)
WARNING: Ignoring 'compress yes' for molecular system (src/delete_atoms.cpp:125)
Deleted 56086 atoms, new total = 547498



pair_coeff    1 1 1.0 1.0 #solvent
pair_coeff    2 2 1.0 1.0 1.12 #np
pair_coeff    3 3 0.0 0.0 0.0 #dummy
pair_coeff    2 3 0.0 0.0 0.0 #np dummy
pair_coeff    1 2 ${sol} 1.0 #np solvent
pair_coeff    1 2 1.0 1.0 
pair_coeff    1 3 0.0 0.0 0.0 #dummy solvent


comm_modify   mode multi cutoff/multi 1 2.5 cutoff/multi 2 2.5 cutoff/multi 3 8.67

reset_timestep 	0

balance 	1.05 shift z 10 1.05
Balancing ...
Neighbor list info ...
  update every 1 steps, delay 10 steps, check yes
  max neighbors/atom: 2000, page size: 100000
  master list distance cutoff = 2.9
  ghost atom cutoff = 8.67
  binsize = 1.45, bins = 56 56 111
  1 neighbor lists, perpetual/occasional/extra = 1 0 0
  (1) pair lj/cut/opt, perpetual
      attributes: half, newton on
      pair build: half/bin/newton
      stencil: half/bin/3d/newton
      bin: standard
 rebalancing time: 0.007 seconds
  iteration count = 4
  initial/final maximal load/proc = 2540.0000 2922.0000
  initial/final imbalance factor  = 1.3361145 1.5370577
  x cuts: 0.0000000 0.16666667 0.33333333 0.50000000 0.66666667 0.83333333 1.0000000
  y cuts: 0.0000000 0.25000000 0.50000000 0.75000000 1.0000000
  z cuts: 0.0000000 0.078125000 0.15104167 0.25520833 0.34895833 0.42187500 0.48437500 0.55729167 0.63020833 0.71354167 0.78645833 0.85937500 1.0000000

####################### WALLS ###########################

variable       epsilonWall equal 2*${epsilon}
variable       epsilonWall equal 2*1
variable       repulsive   equal   0.7147*${sigma}
variable       repulsive   equal   0.7147*1
variable       full	   equal   3*${sigma}
variable       full	   equal   3*1
region         lowWall block EDGE EDGE EDGE EDGE EDGE 2

fix            topWall all wall/lj93 zhi EDGE 	       ${epsilonWall} ${sigma} ${repulsive} units box
fix            topWall all wall/lj93 zhi EDGE 	       2 ${sigma} ${repulsive} units box
fix            topWall all wall/lj93 zhi EDGE 	       2 1 ${repulsive} units box
fix            topWall all wall/lj93 zhi EDGE 	       2 1 0.7147 units box
fix            lowSol solvent wall/lj93 zlo EDGE                ${epsilonWall} ${sigma} ${full} units box
fix            lowSol solvent wall/lj93 zlo EDGE                2 ${sigma} ${full} units box
fix            lowSol solvent wall/lj93 zlo EDGE                2 1 ${full} units box
fix            lowSol solvent wall/lj93 zlo EDGE                2 1 3 units box
fix 	       lowCub cubes wall/lj93 zlo EDGE                ${epsilonWall} ${sigma} ${repulsive} units box
fix 	       lowCub cubes wall/lj93 zlo EDGE                2 ${sigma} ${repulsive} units box
fix 	       lowCub cubes wall/lj93 zlo EDGE                2 1 ${repulsive} units box
fix 	       lowCub cubes wall/lj93 zlo EDGE                2 1 0.7147 units box


###################### COMPUTES ##########################

compute        bin1 solvent chunk/atom bin/1d z lower 1.0 units box


######################  FIXES ############################


fix             peclet solvent ave/chunk 10 10 10000 bin1 density/number norm                  none ave one file density.profile

fix              temp solvent ave/chunk 10 10 10000 bin1 temp norm                  none ave one file temp.profile

fix             1 cubes rigid/nve/small molecule
  create bodies CPU = 0.002 seconds
  64 rigid bodies with 85184 atoms
  8.6602540 = max distance from body owner to body atom

fix             2 solvent nve# temp ${temp} ${temp} 10


## Thermostat
region          regthermo block EDGE EDGE EDGE EDGE 0 15
group           thermo dynamic solvent region regthermo every 1000
dynamic group thermo defined
fix             3 thermo langevin ${temp} ${temp} 10 156453
fix             3 thermo langevin 1.0 ${temp} 10 156453
fix             3 thermo langevin 1.0 1.0 10 156453


#### Load balancing

fix             bal all balance 1000 1.05 shift z 10 1.05

############### Diagnostics and computes ###################

compute        	com cubes          rigid/local   1 mol x y z
compute        	quat cubes         rigid/local   1 mol quatw quati quatj quatk

compute 	cc2 cubes 	   chunk/atom 	 molecule
compute 	msd cubes 	   msd/chunk 	 cc2

fix 		msd all ave/time  1 1 10000 c_msd[*] file dump.msd ave one mode vector

dump            1 all custom 500000 dump.lammpstrj id mol type x y z
dump		cubetrj hull custom 500000 cubes.lammpstrj id mol type x y z
dump            com cubes local 10000 dump.*.xyz c_com[*]
dump	        xyz hull xyz 100000 cubes.xyz
dump            quat cubes      local 10000 dump.*.quat c_quat[*]
#dump		mol cubes molfile 10000 mol.xyz xyz


dump            2 all image 10000 image.*.png type type zoom 2.0
dump_modify     2 pad 8
dump		image cubes image 10000 image_cubes.*.png type type zoom 2.0
dump_modify	image pad 8
dump            3 all movie 5000 movie.avi type type zoom 2.0
dump		4 cubes movie 5000 movie_cubes.avi type type zoom 2.0


thermo          1000
thermo_style    custom step temp epair evdwl etotal press pe ke atoms

restart         1000000 restart.dat
timestep        0.005
timer           full
New timer settings: style=full  mode=nosync  timeout=off

run 		4000000
Per MPI rank memory allocation (min/avg/max) = 14.71 | 18.86 | 23.07 Mbytes
Step Temp E_pair E_vdwl TotEng Press PotEng KinEng Atoms 
       0   0.98819495   -2.8594116   -2.8594116   -1.6074019 -0.093390046   -2.8594116    1.2520097   547498 
    1000    1.0067957   -2.8844107   -2.8844107   -1.6088345  0.052079892   -2.8844107    1.2755762   547498 
    2000    1.0084279   -2.8892899   -2.8892899   -1.6116458  0.060021384   -2.8892899    1.2776441   547498 
    3000    1.0107842   -2.8939849   -2.8939849   -1.6133554  0.067740696   -2.8939849    1.2806295   547498 
    4000    1.0072133   -2.8922105   -2.8922105   -1.6161052  0.060290996   -2.8922105    1.2761053   547498 
    5000    1.0084468   -2.8956761   -2.8956761    -1.618008  0.062893936   -2.8956761     1.277668   547498 
    6000    1.0075618   -2.8964199   -2.8964199    -1.619873  0.061480572   -2.8964199    1.2765469   547498 
    7000    1.0082438   -2.8977198   -2.8977198   -1.6203089  0.060439333   -2.8977198    1.2774109   547498 
    8000    1.0074104   -2.8986068   -2.8986068   -1.6222518  0.052694695   -2.8986068     1.276355   547498 
    9000    1.0055851   -2.8984941   -2.8984941   -1.6244518  0.054228213   -2.8984941    1.2740424   547498 
   10000    1.0062773   -2.9008019   -2.9008019   -1.6258826  0.055865865   -2.9008019    1.2749194   547498 
   11000     1.005313   -2.9009096   -2.9009096   -1.6272119  0.056674126   -2.9009096    1.2736977   547498 
   12000    1.0051358    -2.900592    -2.900592   -1.6271188  0.051432206    -2.900592    1.2734732   547498 
   13000    1.0056402   -2.9018334   -2.9018334   -1.6277211  0.056009295   -2.9018334    1.2741122   547498 
   14000    1.0052838   -2.9039865   -2.9039865   -1.6303259  0.058596299   -2.9039865    1.2736606   547498 
   15000    1.0036984   -2.9028965   -2.9028965   -1.6312445  0.062150969   -2.9028965     1.271652   547498 
   16000    1.0058901   -2.9053694   -2.9053694   -1.6309405  0.049178668   -2.9053694    1.2744289   547498 
   17000    1.0053049   -2.9048783   -2.9048783    -1.631191  0.059670012   -2.9048783    1.2736873   547498 
   18000     1.006331   -2.9067814   -2.9067814   -1.6317939  0.059600722   -2.9067814    1.2749875   547498 
   19000    1.0064143   -2.9063812   -2.9063812   -1.6312882  0.056398997   -2.9063812     1.275093   547498 
   20000    1.0064716    -2.906776    -2.906776   -1.6316104  0.059718435    -2.906776    1.2751656   547498 
   21000    1.0072316   -2.9079052   -2.9079052   -1.6317767  0.058468473   -2.9079052    1.2761285   547498 
   22000    1.0084426   -2.9096739   -2.9096739   -1.6320112  0.072209938   -2.9096739    1.2776627   547498 
   23000     1.008448   -2.9113223   -2.9113223   -1.6336528  0.063835768   -2.9113223    1.2776696   547498 
   24000    1.0076613   -2.9107063   -2.9107063   -1.6340334  0.065330082   -2.9107063    1.2766729   547498 
   25000     1.005441   -2.9092402   -2.9092402   -1.6353803  0.058106637   -2.9092402    1.2738599   547498 
   26000     1.006192   -2.9096098   -2.9096098   -1.6347984  0.062420157   -2.9096098    1.2748113   547498 
   27000    1.0047948   -2.9078753   -2.9078753   -1.6348342  0.060022751   -2.9078753    1.2730411   547498 
   28000    1.0047411   -2.9091909   -2.9091909   -1.6362178  0.064940542   -2.9091909    1.2729731   547498 
   29000    1.0052015   -2.9107786   -2.9107786   -1.6372222  0.057063061   -2.9107786    1.2735564   547498 
   30000    1.0041261   -2.9085078   -2.9085078   -1.6363139  0.054034495   -2.9085078    1.2721939   547498 
   31000    1.0046141   -2.9093433   -2.9093433   -1.6365311  0.057506876   -2.9093433    1.2728122   547498 
   32000    1.0062774   -2.9125274   -2.9125274   -1.6376079  0.056803659   -2.9125274    1.2749195   547498 
   33000    1.0038579   -2.9106161   -2.9106161   -1.6387619  0.054902433   -2.9106161    1.2718542   547498 
   34000    1.0020492   -2.9085683   -2.9085683   -1.6390057  0.057820593   -2.9085683    1.2695626   547498 
   35000    1.0038011   -2.9104225   -2.9104225   -1.6386404  0.055959145   -2.9104225    1.2717821   547498 
   36000    1.0050757   -2.9117889   -2.9117889   -1.6383919  0.062440501   -2.9117889     1.273397   547498 
   37000     1.004897   -2.9118985   -2.9118985   -1.6387279  0.056793443   -2.9118985    1.2731706   547498 
   38000    1.0040808   -2.9112516   -2.9112516   -1.6391151  0.057670179   -2.9112516    1.2721365   547498 
   39000    1.0036273   -2.9104771   -2.9104771   -1.6389152  0.058402854   -2.9104771     1.271562   547498 
   40000    1.0033481   -2.9101331   -2.9101331    -1.638925  0.051010696   -2.9101331    1.2712082   547498 
   41000     1.003032   -2.9096201   -2.9096201   -1.6388124  0.063555477   -2.9096201    1.2708077   547498 
   42000    1.0051186   -2.9137673   -2.9137673    -1.640316  0.071685413   -2.9137673    1.2734513   547498 
   43000     1.003695   -2.9120217   -2.9120217    -1.640374  0.067097381   -2.9120217    1.2716477   547498 
   44000    1.0031194    -2.912291    -2.912291   -1.6413726  0.065519363    -2.912291    1.2709184   547498 
   45000    1.0036667   -2.9135997   -2.9135997   -1.6419878  0.061970418   -2.9135997    1.2716119   547498 
   46000    1.0048822   -2.9149802   -2.9149802   -1.6418284  0.056097466   -2.9149802    1.2731518   547498 
   47000    1.0042541    -2.914748    -2.914748   -1.6423919  0.061581114    -2.914748    1.2723561   547498 
   48000    1.0052831     -2.91664     -2.91664   -1.6429802  0.061874204     -2.91664    1.2736598   547498 
   49000    1.0051522   -2.9170656   -2.9170656   -1.6435717  0.066405762   -2.9170656    1.2734939   547498 
   50000    1.0042094   -2.9149926   -2.9149926   -1.6426932  0.059407059   -2.9149926    1.2722994   547498 
   51000    1.0038396   -2.9153837   -2.9153837   -1.6435528  0.055036942   -2.9153837    1.2718309   547498 
   52000     1.004075   -2.9149305   -2.9149305   -1.6428013  0.058680393   -2.9149305    1.2721292   547498 
   53000     1.002612    -2.913855    -2.913855   -1.6435793  0.062798751    -2.913855    1.2702756   547498 
   54000    1.0029493   -2.9141744   -2.9141744   -1.6434715  0.056628711   -2.9141744    1.2707029   547498 
   55000    1.0022022   -2.9130529   -2.9130529   -1.6432965  0.058994081   -2.9130529    1.2697563   547498 
   56000    1.0048293   -2.9162257   -2.9162257   -1.6431408  0.064225349   -2.9162257    1.2730849   547498 
   57000    1.0046639    -2.916351    -2.916351   -1.6434757  0.057209987    -2.916351    1.2728752   547498 
   58000    1.0048482   -2.9164261   -2.9164261   -1.6433174  0.063793098   -2.9164261    1.2731088   547498 
   59000    1.0039833   -2.9153124   -2.9153124   -1.6432995  0.057547908   -2.9153124     1.272013   547498 
   60000    1.0043737   -2.9159529   -2.9159529   -1.6434454  0.058996164   -2.9159529    1.2725076   547498 
   61000     1.004337   -2.9148791   -2.9148791   -1.6424181   0.06945169   -2.9148791     1.272461   547498 
   62000    1.0048173   -2.9161629   -2.9161629   -1.6430933  0.070059029   -2.9161629    1.2730696   547498 
   63000    1.0049232   -2.9158454   -2.9158454   -1.6426416  0.062857748   -2.9158454    1.2732037   547498 
   64000    1.0054339   -2.9173116   -2.9173116   -1.6434608  0.063060677   -2.9173116    1.2738508   547498 
   65000    1.0042583   -2.9161527   -2.9161527   -1.6437913  0.053990514   -2.9161527    1.2723614   547498 
   66000    1.0020772   -2.9135844   -2.9135844   -1.6439864   0.06942299   -2.9135844     1.269598   547498 
   67000    1.0029529   -2.9153067   -2.9153067   -1.6445992  0.052543427   -2.9153067    1.2707075   547498 
   68000     1.002366    -2.915038    -2.915038   -1.6450741   0.06089702    -2.915038    1.2699639   547498 
   69000    1.0025149   -2.9160989   -2.9160989   -1.6459464  0.058301825   -2.9160989    1.2701525   547498 
   70000    1.0028263   -2.9156482   -2.9156482   -1.6451011  0.061846758   -2.9156482    1.2705471   547498 
   71000     1.003771   -2.9167677   -2.9167677   -1.6450236  0.061467754   -2.9167677    1.2717441   547498 
   72000    1.0056847   -2.9196795   -2.9196795   -1.6455109  0.055255336   -2.9196795    1.2741686   547498 
   73000    1.0047486   -2.9185069   -2.9185069   -1.6455243  0.061032244   -2.9185069    1.2729825   547498 
   74000    1.0032164   -2.9173832   -2.9173832   -1.6463418  0.059774904   -2.9173832    1.2710414   547498 
   75000    1.0043422   -2.9189979   -2.9189979   -1.6465302  0.059990803   -2.9189979    1.2724677   547498 
   76000    1.0048333   -2.9195533   -2.9195533   -1.6464633    0.0562015   -2.9195533      1.27309   547498 
   77000    1.0031301   -2.9181118   -2.9181118   -1.6471798  0.068185236   -2.9181118     1.270932   547498 
   78000    1.0032486   -2.9173744   -2.9173744   -1.6462923  0.049192883   -2.9173744    1.2710822   547498 
   79000    1.0050541   -2.9196327   -2.9196327   -1.6462631  0.060711329   -2.9196327    1.2733696   547498 
   80000     1.005383   -2.9215548   -2.9215548   -1.6477684  0.054091919   -2.9215548    1.2737864   547498 
   81000    1.0046171   -2.9202604   -2.9202604   -1.6474444  0.063593367   -2.9202604    1.2728159   547498 
   82000    1.0042941   -2.9196894   -2.9196894   -1.6472826  0.065066846   -2.9196894    1.2724068   547498 
   83000    1.0015311   -2.9172163   -2.9172163   -1.6483102  0.053999211   -2.9172163    1.2689062   547498 
   84000    1.0029245   -2.9189366   -2.9189366   -1.6482652  0.058591421   -2.9189366    1.2706715   547498 
   85000    1.0026561   -2.9188782   -2.9188782   -1.6485468  0.061836978   -2.9188782    1.2703314   547498 
   86000    1.0016931   -2.9166608   -2.9166608   -1.6475494  0.057070942   -2.9166608    1.2691114   547498 
   87000    1.0030945   -2.9185652   -2.9185652   -1.6476784  0.063014962   -2.9185652    1.2708868   547498 
   88000    1.0043691    -2.919578    -2.919578   -1.6470762  0.062503417    -2.919578    1.2725018   547498 
   89000    1.0023457   -2.9180568   -2.9180568   -1.6481186  0.059991606   -2.9180568    1.2699382   547498 
   90000    1.0032977   -2.9199078   -2.9199078   -1.6487635  0.063793913   -2.9199078    1.2711444   547498 
   91000    1.0038549   -2.9203583   -2.9203583    -1.648508  0.050563032   -2.9203583    1.2718503   547498 
   92000    1.0013196   -2.9177492   -2.9177492    -1.649111  0.062329487   -2.9177492    1.2686382   547498 
   93000    1.0043005   -2.9207695   -2.9207695   -1.6483547  0.065610227   -2.9207695    1.2724149   547498 
   94000      1.00641   -2.9224815   -2.9224815    -1.647394  0.071030728   -2.9224815    1.2750875   547498 
   95000    1.0056663   -2.9212391   -2.9212391   -1.6470938  0.060601649   -2.9212391    1.2741452   547498 
   96000    1.0040054   -2.9196738   -2.9196738   -1.6476328   0.06108172   -2.9196738     1.272041   547498 
   97000     1.004221   -2.9210318   -2.9210318   -1.6487177   0.05370391   -2.9210318    1.2723141   547498 
   98000    1.0030645   -2.9183814   -2.9183814   -1.6475326  0.056648107   -2.9183814    1.2708489   547498 
   99000      1.00289    -2.918695    -2.918695   -1.6480672  0.056065707    -2.918695    1.2706278   547498 
  100000    1.0025164   -2.9184978   -2.9184978   -1.6483433  0.060572825   -2.9184978    1.2701545   547498 
  101000     1.002898   -2.9190952   -2.9190952   -1.6484573  0.054668667   -2.9190952    1.2706379   547498 
  102000    1.0018896   -2.9182722   -2.9182722   -1.6489119  0.065158701   -2.9182722    1.2693603   547498 
  103000    1.0020412   -2.9181432   -2.9181432   -1.6485908   0.05057203   -2.9181432    1.2695524   547498 
  104000    1.0013838   -2.9169488   -2.9169488   -1.6482293  0.055375616   -2.9169488    1.2687195   547498 
  105000    1.0039494   -2.9209503   -2.9209503   -1.6489802   0.05626232   -2.9209503      1.27197   547498 
  106000    1.0032329   -2.9203046   -2.9203046   -1.6492423  0.067515009   -2.9203046    1.2710622   547498 
  107000    1.0032883   -2.9214489   -2.9214489   -1.6503165  0.060240551   -2.9214489    1.2711324   547498 
  108000    1.0036891    -2.922157    -2.922157   -1.6505168  0.062697192    -2.922157    1.2716402   547498 
  109000    1.0031424   -2.9212824   -2.9212824   -1.6503348  0.059170944   -2.9212824    1.2709476   547498 
  110000    1.0034619   -2.9211739   -2.9211739   -1.6498216  0.062433901   -2.9211739    1.2713523   547498 
  111000    1.0034537   -2.9215989   -2.9215989   -1.6502569  0.056447955   -2.9215989     1.271342   547498 
  112000    1.0047608   -2.9217637   -2.9217637   -1.6487657  0.056035002   -2.9217637     1.272998   547498 
  113000    1.0033284   -2.9206003   -2.9206003   -1.6494171  0.058592633   -2.9206003    1.2711832   547498 
  114000    1.0027011   -2.9200624   -2.9200624    -1.649674  0.062098192   -2.9200624    1.2703885   547498 
  115000    1.0025373    -2.920855    -2.920855   -1.6506741  0.057022607    -2.920855    1.2701809   547498 
  116000    1.0037783   -2.9220692   -2.9220692   -1.6503159  0.059257937   -2.9220692    1.2717533   547498 
  117000    1.0022847   -2.9203841   -2.9203841   -1.6505232  0.066818473   -2.9203841    1.2698609   547498 
  118000    1.0018802   -2.9199451   -2.9199451   -1.6505967  0.064689372   -2.9199451    1.2693484   547498 
  119000    1.0037774   -2.9227123   -2.9227123   -1.6509602  0.067893273   -2.9227123    1.2717521   547498 
  120000    1.0026699   -2.9217716   -2.9217716   -1.6514227  0.058839614   -2.9217716    1.2703489   547498 
  121000    1.0027333   -2.9220421   -2.9220421   -1.6516128  0.064098817   -2.9220421    1.2704292   547498 
  122000    1.0035282     -2.92228     -2.92228   -1.6508436  0.057497342     -2.92228    1.2714364   547498 
  123000     1.003041   -2.9216078   -2.9216078   -1.6507887  0.062099885   -2.9216078    1.2708191   547498 
  124000    1.0035153   -2.9220772   -2.9220772   -1.6506572  0.062982033   -2.9220772      1.27142   547498 
  125000     1.003292   -2.9219602   -2.9219602    -1.650823  0.058086237   -2.9219602    1.2711372   547498 
  126000    1.0035537   -2.9229071   -2.9229071   -1.6514383  0.057948269   -2.9229071    1.2714687   547498 
  127000     1.003947   -2.9227616   -2.9227616   -1.6507946  0.060721298   -2.9227616     1.271967   547498 
  128000    1.0038617   -2.9226075   -2.9226075   -1.6507487  0.066877203   -2.9226075    1.2718589   547498 
  129000    1.0039613   -2.9231593   -2.9231593   -1.6511742  0.058289374   -2.9231593    1.2719851   547498 
  130000    1.0045309   -2.9227932   -2.9227932   -1.6500864    0.0574766   -2.9227932    1.2727068   547498 
  131000    1.0025123   -2.9209995   -2.9209995   -1.6508502  0.062755116   -2.9209995    1.2701493   547498 
  132000    1.0030099   -2.9212511   -2.9212511   -1.6504713  0.063285215   -2.9212511    1.2707798   547498 
  133000     1.001741   -2.9196476   -2.9196476   -1.6504755  0.063591312   -2.9196476    1.2691721   547498 
  134000    1.0018072   -2.9195167   -2.9195167   -1.6502608  0.062788704   -2.9195167    1.2692559   547498 
  135000    1.0021186   -2.9198919   -2.9198919   -1.6502414   0.05779198   -2.9198919    1.2696505   547498 
  136000    1.0024056   -2.9194297   -2.9194297   -1.6494156  0.056915758   -2.9194297    1.2700141   547498 
  137000    1.0039405    -2.921944    -2.921944   -1.6499853  0.055216061    -2.921944    1.2719587   547498 
  138000    1.0034371    -2.921263    -2.921263    -1.649942   0.05488576    -2.921263     1.271321   547498 
  139000    1.0032116   -2.9218233   -2.9218233    -1.650788  0.055425814   -2.9218233    1.2710353   547498 
  140000    1.0040419   -2.9231079   -2.9231079   -1.6510207  0.062010945   -2.9231079    1.2720872   547498 
  141000    1.0048507   -2.9238112   -2.9238112   -1.6506992  0.062960891   -2.9238112     1.273112   547498 
  142000    1.0038529   -2.9233312   -2.9233312   -1.6514835  0.063190009   -2.9233312    1.2718477   547498 
  143000    1.0045605   -2.9242864   -2.9242864   -1.6515421  0.056220131   -2.9242864    1.2727443   547498 
  144000    1.0036741   -2.9234522   -2.9234522    -1.651831  0.060057489   -2.9234522    1.2716212   547498 
  145000    1.0031636   -2.9230613   -2.9230613   -1.6520868  0.065004028   -2.9230613    1.2709745   547498 
  146000    1.0030581   -2.9237057   -2.9237057   -1.6528649  0.056749757   -2.9237057    1.2708408   547498 
  147000    1.0030329   -2.9238883   -2.9238883   -1.6530794  0.060518402   -2.9238883    1.2708089   547498 
  148000    1.0020124   -2.9222903   -2.9222903   -1.6527743  0.066849947   -2.9222903    1.2695159   547498 
  149000    1.0033971   -2.9241858   -2.9241858   -1.6529155  0.060433038   -2.9241858    1.2712703   547498 
  150000    1.0028426   -2.9242276   -2.9242276   -1.6536598  0.059917572   -2.9242276    1.2705678   547498 
  151000    1.0055416   -2.9268681   -2.9268681   -1.6528808  0.058694417   -2.9268681    1.2739873   547498 
  152000    1.0046412   -2.9258336   -2.9258336   -1.6529871   0.06130999   -2.9258336    1.2728465   547498 
  153000     1.003699   -2.9245091   -2.9245091   -1.6528563  0.073526534   -2.9245091    1.2716527   547498 
  154000    1.0054938   -2.9258859   -2.9258859   -1.6519593  0.062688649   -2.9258859    1.2739267   547498 
  155000    1.0051914   -2.9261006   -2.9261006    -1.652557  0.058366111   -2.9261006    1.2735436   547498 
  156000    1.0039564   -2.9240147   -2.9240147   -1.6520358  0.055521243   -2.9240147    1.2719789   547498 
  157000    1.0028118   -2.9226643   -2.9226643   -1.6521357   0.06111918   -2.9226643    1.2705287   547498 
  158000    1.0022212    -2.922157    -2.922157   -1.6523764   0.05735649    -2.922157    1.2697805   547498 
  159000    1.0033597   -2.9242422   -2.9242422   -1.6530192  0.054016631   -2.9242422     1.271223   547498 
  160000    1.0021996   -2.9228306   -2.9228306   -1.6530775  0.055829132   -2.9228306    1.2697531   547498 
  161000    1.0031633   -2.9242908   -2.9242908   -1.6533167   0.06339628   -2.9242908    1.2709741   547498 
  162000    1.0037322   -2.9251983   -2.9251983   -1.6535035  0.064959436   -2.9251983    1.2716948   547498 
  163000    1.0023565   -2.9237016   -2.9237016   -1.6537497   0.06122957   -2.9237016    1.2699519   547498 
  164000    1.0035104    -2.925896    -2.925896   -1.6544821  0.061318281    -2.925896    1.2714139   547498 
  165000    1.0025476   -2.9243281   -2.9243281   -1.6541341  0.063992152   -2.9243281     1.270194   547498 
  166000    1.0039568   -2.9257573   -2.9257573   -1.6537778  0.059793878   -2.9257573    1.2719794   547498 
  167000    1.0036473   -2.9256841   -2.9256841   -1.6540968  0.068677473   -2.9256841    1.2715873   547498 
  168000    1.0036351    -2.925528    -2.925528   -1.6539562  0.060201018    -2.925528    1.2715718   547498 
  169000    1.0033505   -2.9252776   -2.9252776   -1.6540664   0.06058181   -2.9252776    1.2712113   547498 
  170000     1.003014   -2.9255013   -2.9255013   -1.6547164  0.065561918   -2.9255013    1.2707849   547498 
  171000     1.003267   -2.9258145   -2.9258145   -1.6547091    0.0542519   -2.9258145    1.2711055   547498 
  172000    1.0023754   -2.9244858   -2.9244858     -1.65451  0.074516438   -2.9244858    1.2699758   547498 
  173000    1.0045105    -2.927848    -2.927848   -1.6551671  0.060698271    -2.927848    1.2726809   547498 
  174000     1.002474    -2.925245    -2.925245   -1.6551443  0.062107226    -2.925245    1.2701007   547498 
  175000    1.0026541   -2.9256796   -2.9256796   -1.6553507  0.053592432   -2.9256796    1.2703289   547498 
  176000    1.0022268   -2.9258967   -2.9258967   -1.6561091  0.060530936   -2.9258967    1.2697876   547498 
  177000    1.0029081    -2.926905    -2.926905   -1.6562543  0.068268519    -2.926905    1.2706507   547498 
  178000    1.0046678   -2.9287509   -2.9287509   -1.6558707  0.065394063   -2.9287509    1.2728802   547498 
  179000    1.0029493   -2.9268643   -2.9268643   -1.6561613  0.066201869   -2.9268643     1.270703   547498 
  180000    1.0029819   -2.9266838   -2.9266838   -1.6559395   0.06008949   -2.9266838    1.2707443   547498 
  181000    1.0044008   -2.9283056   -2.9283056   -1.6557637  0.056236727   -2.9283056    1.2725419   547498 
  182000    1.0029918   -2.9260689   -2.9260689   -1.6553122  0.070198431   -2.9260689    1.2707568   547498 
  183000    1.0030047   -2.9257666   -2.9257666   -1.6549935  0.058315741   -2.9257666    1.2707731   547498 
  184000    1.0020801   -2.9244624   -2.9244624   -1.6548607  0.059680442   -2.9244624    1.2696017   547498 
  185000    1.0011743   -2.9236344   -2.9236344   -1.6551804  0.063309758   -2.9236344     1.268454   547498 
  186000    1.0023426   -2.9251069   -2.9251069   -1.6551727  0.061500858   -2.9251069    1.2699342   547498 
  187000    1.0029713   -2.9251061   -2.9251061   -1.6543753  0.057971743   -2.9251061    1.2707308   547498 
  188000    1.0018256   -2.9245096   -2.9245096   -1.6552303  0.054511494   -2.9245096    1.2692792   547498 
  189000    1.0026346   -2.9261941   -2.9261941   -1.6558899  0.055563712   -2.9261941    1.2703042   547498 
  190000    1.0022361   -2.9254637   -2.9254637   -1.6556643  0.061987959   -2.9254637    1.2697994   547498 
  191000    1.0028745     -2.92669     -2.92669   -1.6560819  0.056314836     -2.92669    1.2706081   547498 
  192000    1.0032977   -2.9268422   -2.9268422   -1.6556978  0.071883377   -2.9268422    1.2711444   547498 
  193000    1.0035614   -2.9269409   -2.9269409   -1.6554624  0.069804249   -2.9269409    1.2714784   547498 
  194000    1.0043129   -2.9266614   -2.9266614   -1.6542309   0.06438131   -2.9266614    1.2724305   547498 
  195000    1.0019711   -2.9247853   -2.9247853   -1.6553217  0.068854958   -2.9247853    1.2694636   547498 
  196000    1.0042129   -2.9270351   -2.9270351   -1.6547312  0.056275617   -2.9270351    1.2723038   547498 
  197000    1.0023232   -2.9248682   -2.9248682   -1.6549584   0.06195795   -2.9248682    1.2699098   547498 
  198000    1.0029285   -2.9258007   -2.9258007   -1.6551242  0.065025587   -2.9258007    1.2706765   547498 
  199000    1.0035688   -2.9267764   -2.9267764   -1.6552886  0.061905021   -2.9267764    1.2714878   547498 
  200000     1.003726   -2.9272385   -2.9272385   -1.6555515  0.056913542   -2.9272385     1.271687   547498 
  201000    1.0055923    -2.929271    -2.929271   -1.6552195  0.052768566    -2.929271    1.2740516   547498 
  202000    1.0040788   -2.9275878   -2.9275878   -1.6554539  0.071202683   -2.9275878     1.272134   547498 
  203000    1.0035263   -2.9277277   -2.9277277   -1.6562937  0.062397788   -2.9277277     1.271434   547498 
  204000     1.002718    -2.927226    -2.927226    -1.656816  0.060450317    -2.927226    1.2704099   547498 
  205000    1.0022486   -2.9264841   -2.9264841   -1.6566688  0.062922638   -2.9264841    1.2698152   547498 
  206000     1.003316   -2.9281248   -2.9281248   -1.6569572  0.072924316   -2.9281248    1.2711676   547498 
  207000    1.0026154   -2.9261863   -2.9261863   -1.6559064   0.06094309   -2.9261863    1.2702799   547498 
  208000    1.0033227   -2.9279135   -2.9279135   -1.6567375  0.058482219   -2.9279135    1.2711761   547498 
  209000    1.0028372   -2.9269101   -2.9269101   -1.6563492   0.05503194   -2.9269101    1.2705609   547498 
  210000    1.0026025    -2.926945    -2.926945   -1.6566814   0.05950494    -2.926945    1.2702636   547498 
  211000    1.0016864   -2.9265766   -2.9265766   -1.6574737  0.058836616   -2.9265766    1.2691029   547498 
  212000    1.0038902   -2.9295914   -2.9295914   -1.6576963  0.051275184   -2.9295914    1.2718951   547498 
  213000    1.0052271   -2.9304984   -2.9304984   -1.6569096  0.060477044   -2.9304984    1.2735888   547498 
  214000    1.0050243   -2.9299899   -2.9299899    -1.656658   0.07454543   -2.9299899    1.2733319   547498 
  215000    1.0043726   -2.9299433   -2.9299433   -1.6574371  0.063857936   -2.9299433    1.2725062   547498 
  216000    1.0035421   -2.9298541   -2.9298541   -1.6584001  0.059936325   -2.9298541     1.271454   547498 
  217000    1.0044979   -2.9308946   -2.9308946   -1.6582296  0.060733014   -2.9308946     1.272665   547498 
  218000    1.0046304   -2.9314729   -2.9314729     -1.65864  0.064819273   -2.9314729    1.2728329   547498 
  219000    1.0034336    -2.929247    -2.929247   -1.6579304  0.063787036    -2.929247    1.2713166   547498 
  220000    1.0035975   -2.9296195   -2.9296195   -1.6580954  0.056937471   -2.9296195    1.2715241   547498 
  221000    1.0018547   -2.9268657   -2.9268657   -1.6575496  0.070997723   -2.9268657    1.2693161   547498 
  222000    1.0018656   -2.9269744   -2.9269744   -1.6576445  0.070554383   -2.9269744      1.26933   547498 
  223000    1.0015779   -2.9264894   -2.9264894    -1.657524  0.051287942   -2.9264894    1.2689654   547498 
  224000    1.0031524   -2.9282726   -2.9282726   -1.6573123   0.05789463   -2.9282726    1.2709603   547498 
  225000    1.0027525   -2.9276997   -2.9276997   -1.6572461   0.06635186   -2.9276997    1.2704536   547498 
  226000     1.002773   -2.9284972   -2.9284972   -1.6580177  0.069339986   -2.9284972    1.2704795   547498 
  227000    1.0036379   -2.9293081   -2.9293081   -1.6577327   0.07542912   -2.9293081    1.2715754   547498 
  228000    1.0048558   -2.9312955   -2.9312955    -1.658177   0.07727864   -2.9312955    1.2731184   547498 
  229000    1.0039876   -2.9300966   -2.9300966   -1.6580782  0.057461886   -2.9300966    1.2720184   547498 
  230000    1.0036805   -2.9301152   -2.9301152   -1.6584858  0.058704671   -2.9301152    1.2716294   547498 
  231000    1.0035454   -2.9291602   -2.9291602    -1.657702  0.060688057   -2.9291602    1.2714581   547498 
  232000     1.004208   -2.9309804   -2.9309804   -1.6586828  0.057036236   -2.9309804    1.2722976   547498 
  233000    1.0030724   -2.9288724   -2.9288724   -1.6580135  0.062120431   -2.9288724    1.2708589   547498 
  234000    1.0029906   -2.9283169   -2.9283169   -1.6575616  0.058854321   -2.9283169    1.2707553   547498 
  235000    1.0027498   -2.9277939   -2.9277939   -1.6573438  0.058503856   -2.9277939    1.2704501   547498 
  236000    1.0016066   -2.9272462   -2.9272462   -1.6582444  0.065758158   -2.9272462    1.2690018   547498 
  237000    1.0014069     -2.92622     -2.92622   -1.6574712  0.061046825     -2.92622    1.2687487   547498 
  238000    1.0024374   -2.9278265   -2.9278265   -1.6577722  0.063860448   -2.9278265    1.2700544   547498 
  239000    1.0027285   -2.9284873   -2.9284873    -1.658064  0.063581717   -2.9284873    1.2704233   547498 
  240000    1.0035342    -2.929012    -2.929012    -1.657568  0.052452692    -2.929012     1.271444   547498 
  241000    1.0021488   -2.9279305   -2.9279305   -1.6582417   0.07303425   -2.9279305    1.2696888   547498 
  242000    1.0031805   -2.9301941   -2.9301941   -1.6591983  0.058421182   -2.9301941    1.2709958   547498 
  243000    1.0024039    -2.928994    -2.928994    -1.658982  0.072692656    -2.928994     1.270012   547498 
  244000    1.0030028   -2.9297172   -2.9297172   -1.6589464  0.061590977   -2.9297172    1.2707708   547498 
  245000    1.0027097    -2.929118    -2.929118   -1.6587186     0.066819    -2.929118    1.2703994   547498 
  246000     1.002825   -2.9290202   -2.9290202   -1.6584748  0.070847313   -2.9290202    1.2705455   547498 
  247000    1.0022803    -2.929306    -2.929306   -1.6594507  0.057783105    -2.929306    1.2698553   547498 
  248000    1.0030665   -2.9308676   -2.9308676   -1.6600163  0.063586782   -2.9308676    1.2708514   547498 
  249000    1.0014559   -2.9291752   -2.9291752   -1.6603644  0.064814982   -2.9291752    1.2688108   547498 
  250000    1.0010616   -2.9292713   -2.9292713     -1.66096  0.062574402   -2.9292713    1.2683113   547498 
  251000    1.0020643   -2.9303899   -2.9303899   -1.6608083  0.069748819   -2.9303899    1.2695816   547498 
  252000    1.0030769   -2.9317224   -2.9317224   -1.6608579  0.050368426   -2.9317224    1.2708645   547498 
  253000    1.0026253    -2.930832    -2.930832   -1.6605396  0.062903298    -2.930832    1.2702924   547498 
  254000    1.0016774   -2.9294504   -2.9294504   -1.6603589  0.067811376   -2.9294504    1.2690915   547498 
  255000    1.0042569   -2.9310747   -2.9310747   -1.6587151  0.065123567   -2.9310747    1.2723596   547498 
  256000    1.0044642   -2.9312256   -2.9312256   -1.6586033   0.06440895   -2.9312256    1.2726223   547498 
  257000    1.0019704   -2.9285121   -2.9285121   -1.6590494  0.063643756   -2.9285121    1.2694627   547498 
  258000    1.0017408   -2.9287922   -2.9287922   -1.6596204   0.06219212   -2.9287922    1.2691718   547498 
  259000    1.0028193   -2.9305201   -2.9305201   -1.6599819  0.063336714   -2.9305201    1.2705383   547498 
  260000    1.0017356   -2.9290796   -2.9290796   -1.6599144  0.070539942   -2.9290796    1.2691652   547498 
  261000     1.001988   -2.9293425   -2.9293425   -1.6598575  0.054867607   -2.9293425     1.269485   547498 
  262000     1.001552   -2.9283105   -2.9283105   -1.6593779   0.06391231   -2.9283105    1.2689327   547498 
  263000    1.0019843   -2.9293453   -2.9293453    -1.659865  0.054887799   -2.9293453    1.2694803   547498 
  264000    1.0013785   -2.9285516   -2.9285516   -1.6598388   0.06171669   -2.9285516    1.2687128   547498 
  265000    1.0008696   -2.9274578   -2.9274578   -1.6593897  0.064867532   -2.9274578    1.2680681   547498 
  266000    1.0022026   -2.9289781   -2.9289781   -1.6592212  0.055840045   -2.9289781    1.2697569   547498 
  267000    1.0029204   -2.9300715   -2.9300715   -1.6594052  0.063371232   -2.9300715    1.2706663   547498 
  268000    1.0030182   -2.9302073   -2.9302073   -1.6594171  0.073915745   -2.9302073    1.2707903   547498 
  269000    1.0038894   -2.9314636   -2.9314636   -1.6595696  0.055864354   -2.9314636     1.271894   547498 
  270000    1.0027725   -2.9311283   -2.9311283   -1.6606494  0.060931439   -2.9311283    1.2704789   547498 
  271000    1.0027802   -2.9318443   -2.9318443   -1.6613556  0.064002952   -2.9318443    1.2704887   547498 
  272000    1.0037374   -2.9328062   -2.9328062   -1.6611047  0.064209501   -2.9328062    1.2717015   547498 
  273000    1.0032255   -2.9308726   -2.9308726   -1.6598197  0.064782454   -2.9308726    1.2710528   547498 
  274000    1.0032135   -2.9306588   -2.9306588   -1.6596212  0.063419001   -2.9306588    1.2710376   547498 
  275000    1.0052836   -2.9319004   -2.9319004     -1.65824  0.054624388   -2.9319004    1.2736604   547498 
  276000    1.0011886   -2.9281013   -2.9281013    -1.659629  0.060126544   -2.9281013    1.2684722   547498 
  277000    1.0028793   -2.9305647   -2.9305647   -1.6599504  0.064061938   -2.9305647    1.2706143   547498 
  278000    1.0014543   -2.9288779   -2.9288779    -1.660069  0.066550056   -2.9288779    1.2688089   547498 
  279000    1.0015935   -2.9300917   -2.9300917   -1.6611065  0.066158627   -2.9300917    1.2689852   547498 
  280000    1.0018047   -2.9297631   -2.9297631   -1.6605104  0.061580156   -2.9297631    1.2692527   547498 
  281000    1.0020161   -2.9306801   -2.9306801   -1.6611596  0.062673934   -2.9306801    1.2695206   547498 
  282000    1.0019475   -2.9309926   -2.9309926   -1.6615589   0.05949894   -2.9309926    1.2694337   547498 
  283000    1.0011394   -2.9294953   -2.9294953   -1.6610854  0.056342313   -2.9294953    1.2684099   547498 
  284000    1.0002381   -2.9286573   -2.9286573   -1.6613894  0.060802997   -2.9286573    1.2672679   547498 
  285000    1.0003712   -2.9288317   -2.9288317   -1.6613951  0.061297225   -2.9288317    1.2674365   547498 
  286000    1.0013887   -2.9302006   -2.9302006   -1.6614749  0.070956383   -2.9302006    1.2687257   547498 
  287000    1.0010779   -2.9289747   -2.9289747   -1.6606428  0.053651449   -2.9289747    1.2683319   547498 
  288000    1.0027978   -2.9315197   -2.9315197   -1.6610087  0.051267899   -2.9315197     1.270511   547498 
  289000    1.0025195   -2.9310436   -2.9310436   -1.6608852  0.063717185   -2.9310436    1.2701584   547498 
  290000    1.0037103   -2.9325608   -2.9325608   -1.6608938  0.055065539   -2.9325608    1.2716671   547498 
  291000    1.0037051   -2.9327164   -2.9327164    -1.661056  0.064884398   -2.9327164    1.2716605   547498 
  292000    1.0034821   -2.9320401   -2.9320401   -1.6606621  0.047550344   -2.9320401     1.271378   547498 
  293000    1.0043601   -2.9338326   -2.9338326   -1.6613421  0.064144414   -2.9338326    1.2724904   547498 
  294000    1.0036139   -2.9329158   -2.9329158   -1.6613708  0.058672254   -2.9329158     1.271545   547498 
  295000    1.0032928   -2.9323224   -2.9323224   -1.6611843  0.063903569   -2.9323224    1.2711381   547498 
  296000    1.0018626   -2.9311541   -2.9311541   -1.6618279  0.053197574   -2.9311541    1.2693262   547498 
  297000    1.0032765   -2.9325873   -2.9325873   -1.6614698  0.070877754   -2.9325873    1.2711174   547498 
  298000    1.0027543   -2.9331339   -2.9331339   -1.6626781  0.060430827   -2.9331339    1.2704558   547498 
  299000    1.0014341   -2.9318384   -2.9318384   -1.6630551  0.059293471   -2.9318384    1.2687833   547498 
  300000    1.0018199   -2.9320135   -2.9320135   -1.6627416  0.051121689   -2.9320135     1.269272   547498 
  301000    1.0017563    -2.931624    -2.931624   -1.6624326  0.063866522    -2.931624    1.2691914   547498 
  302000    1.0017204    -2.932034    -2.932034    -1.662888  0.065668077    -2.932034     1.269146   547498 
  303000    1.0035679   -2.9336447   -2.9336447   -1.6621581  0.059024037   -2.9336447    1.2714866   547498 
  304000    1.0008804   -2.9307155   -2.9307155   -1.6626338  0.061011674   -2.9307155    1.2680817   547498 
  305000    1.0013911   -2.9307491   -2.9307491   -1.6620204  0.054394942   -2.9307491    1.2687287   547498 
  306000     1.001638   -2.9313065   -2.9313065    -1.662265  0.056988734   -2.9313065    1.2690415   547498 
  307000    1.0013666   -2.9316523   -2.9316523   -1.6629546   0.06242039   -2.9316523    1.2686977   547498 
  308000    1.0009763   -2.9321056   -2.9321056   -1.6639024  0.060942221   -2.9321056    1.2682032   547498 
  309000     1.001802   -2.9324993   -2.9324993   -1.6632499  0.058324451   -2.9324993    1.2692494   547498 
  310000    1.0013592   -2.9323918   -2.9323918   -1.6637035  0.057586659   -2.9323918    1.2686883   547498 
  311000    1.0022006   -2.9327911   -2.9327911   -1.6630367  0.063564131   -2.9327911    1.2697544   547498 
  312000    1.0022304   -2.9336118   -2.9336118   -1.6638197  0.058224406   -2.9336118    1.2697921   547498 
  313000    1.0015667   -2.9323596   -2.9323596   -1.6634083  0.049687769   -2.9323596    1.2689512   547498 
  314000    1.0000042   -2.9314152   -2.9314152   -1.6644436  0.054003126   -2.9314152    1.2669716   547498 
  315000    1.0013833   -2.9331384   -2.9331384   -1.6644195  0.054947545   -2.9331384    1.2687189   547498 
  316000    1.0010818    -2.931979    -2.931979   -1.6636422  0.057441514    -2.931979    1.2683368   547498 
  317000    1.0025826   -2.9339225   -2.9339225   -1.6636841  0.055367711   -2.9339225    1.2702383   547498 
  318000    1.0000307    -2.930945    -2.930945   -1.6639398  0.065949426    -2.930945    1.2670052   547498 
  319000     1.001064   -2.9317158   -2.9317158   -1.6634015  0.050178281   -2.9317158    1.2683144   547498 
  320000    1.0007756    -2.931323    -2.931323   -1.6633741   0.05819226    -2.931323    1.2679489   547498 
  321000    1.0034016   -2.9349887   -2.9349887   -1.6637127  0.055148817   -2.9349887     1.271276   547498 
  322000     1.001725   -2.9320496   -2.9320496   -1.6628979  0.059136621   -2.9320496    1.2691517   547498 
  323000    1.0024099   -2.9327225   -2.9327225   -1.6627029  0.057780763   -2.9327225    1.2700196   547498 
  324000    1.0015045   -2.9318503   -2.9318503   -1.6629778  0.060482735   -2.9318503    1.2688725   547498 
  325000    1.0001616   -2.9294205   -2.9294205   -1.6622495  0.065321693   -2.9294205     1.267171   547498 
  326000    1.0027244   -2.9327615   -2.9327615   -1.6623435  0.055578766   -2.9327615     1.270418   547498 
  327000    1.0024007   -2.9323771   -2.9323771   -1.6623693    0.0688037   -2.9323771    1.2700078   547498 
  328000    1.0021232    -2.932916    -2.932916   -1.6632597  0.062335634    -2.932916    1.2696564   547498 
  329000    1.0030747   -2.9338645   -2.9338645   -1.6630026  0.066150625   -2.9338645    1.2708619   547498 
  330000    1.0028053   -2.9339908   -2.9339908   -1.6634703  0.056717202   -2.9339908    1.2705205   547498 
  331000    1.0024309   -2.9335244   -2.9335244   -1.6634783   0.06562791   -2.9335244    1.2700461   547498 
  332000    1.0031854   -2.9344017   -2.9344017   -1.6633996  0.061385888   -2.9344017    1.2710021   547498 
  333000    1.0027607   -2.9342582   -2.9342582   -1.6637942  0.058199364   -2.9342582    1.2704639   547498 
  334000    1.0026918   -2.9343726   -2.9343726    -1.663996  0.060485909   -2.9343726    1.2703767   547498 
  335000    1.0037311   -2.9353722   -2.9353722   -1.6636787  0.054767175   -2.9353722    1.2716935   547498 
  336000    1.0010356   -2.9331292   -2.9331292   -1.6648508  0.059623247   -2.9331292    1.2682783   547498 
  337000    1.0026188   -2.9339045   -2.9339045   -1.6636203  0.059100995   -2.9339045    1.2702842   547498 
  338000    1.0019207   -2.9335007   -2.9335007   -1.6641009  0.064913483   -2.9335007    1.2693998   547498 
  339000    1.0022579   -2.9331894   -2.9331894   -1.6633624  0.062291858   -2.9331894     1.269827   547498 
  340000    1.0017436   -2.9327035   -2.9327035   -1.6635282  0.050721775   -2.9327035    1.2691754   547498 
  341000    1.0029342   -2.9338065   -2.9338065   -1.6631227  0.066759035   -2.9338065    1.2706838   547498 
  342000    1.0022834   -2.9330678   -2.9330678   -1.6632085  0.065872709   -2.9330678    1.2698592   547498 
  343000    1.0021101   -2.9332159   -2.9332159   -1.6635761  0.067345304   -2.9332159    1.2696397   547498 
  344000    1.0038388   -2.9350006   -2.9350006   -1.6631707  0.066076532   -2.9350006    1.2718299   547498 
  345000    1.0035247   -2.9343349   -2.9343349   -1.6629029  0.072358594   -2.9343349     1.271432   547498 
  346000    1.0050141   -2.9362042   -2.9362042   -1.6628852  0.063848217   -2.9362042     1.273319   547498 
  347000     1.002339    -2.933563    -2.933563   -1.6636333  0.055559479    -2.933563    1.2699297   547498 
  348000    1.0012442   -2.9319186   -2.9319186    -1.663376  0.067897663   -2.9319186    1.2685426   547498 
  349000    1.0007946   -2.9317044   -2.9317044   -1.6637314  0.052571951   -2.9317044     1.267973   547498 
  350000    1.0017702    -2.932499    -2.932499     -1.66329   0.06303743    -2.932499     1.269209   547498 
  351000    1.0014019   -2.9327772   -2.9327772   -1.6640348  0.068045787   -2.9327772    1.2687424   547498 
  352000    1.0028387    -2.933937    -2.933937   -1.6633742  0.064728947    -2.933937    1.2705628   547498 
  353000    1.0029373    -2.934061    -2.934061   -1.6633732  0.059012339    -2.934061    1.2706878   547498 
  354000    1.0008022   -2.9316865   -2.9316865   -1.6637038  0.065437924   -2.9316865    1.2679826   547498 
  355000    1.0019398   -2.9331539   -2.9331539     -1.66373  0.050852885   -2.9331539    1.2694239   547498 
  356000     1.002813   -2.9338352   -2.9338352   -1.6633049  0.053921354   -2.9338352    1.2705303   547498 
  357000    1.0033781   -2.9343391   -2.9343391    -1.663093  0.047598714   -2.9343391    1.2712462   547498 
  358000    1.0009488    -2.931872    -2.931872   -1.6637036  0.062556704    -2.931872    1.2681684   547498 
  359000    1.0014963   -2.9331334   -2.9331334   -1.6642714  0.066314924   -2.9331334     1.268862   547498 
  360000    1.0018946   -2.9331013   -2.9331013   -1.6637347  0.064318731   -2.9331013    1.2693666   547498 
  361000     1.001911    -2.933948    -2.933948   -1.6645606  0.063420836    -2.933948    1.2693875   547498 
  362000    1.0026361   -2.9347849   -2.9347849   -1.6644788  0.059501525   -2.9347849    1.2703061   547498 
  363000    1.0036534   -2.9366271   -2.9366271   -1.6650321  0.068812841   -2.9366271     1.271595   547498 
  364000    1.0037651   -2.9371255   -2.9371255    -1.665389   0.05284791   -2.9371255    1.2717365   547498 
  365000    1.0038668   -2.9373147   -2.9373147   -1.6654493  0.062703191   -2.9373147    1.2718654   547498 
  366000    1.0007319     -2.93368     -2.93368   -1.6657864  0.063070783     -2.93368    1.2678936   547498 
  367000    1.0024178   -2.9366924   -2.9366924   -1.6666629  0.060418606   -2.9366924    1.2700295   547498 
  368000    1.0009543   -2.9351427   -2.9351427   -1.6669674    0.0627969   -2.9351427    1.2681754   547498 
  369000    1.0000779   -2.9335188   -2.9335188   -1.6664538  0.058862913   -2.9335188     1.267065   547498 
  370000   0.99981772   -2.9319339   -2.9319339   -1.6651986  0.064386855   -2.9319339    1.2667353   547498 
  371000    1.0011636   -2.9347868   -2.9347868   -1.6663464  0.054214439   -2.9347868    1.2684405   547498 
  372000     1.000557   -2.9334031   -2.9334031    -1.665731  0.050694408   -2.9334031     1.267672   547498 
  373000    1.0017512   -2.9350229   -2.9350229   -1.6658379  0.048353532   -2.9350229     1.269185   547498 
  374000    1.0003094   -2.9338061   -2.9338061   -1.6664478  0.056542295   -2.9338061    1.2673583   547498 
  375000    1.0025047   -2.9365949   -2.9365949   -1.6664552  0.051660336   -2.9365949    1.2701396   547498 
  376000    1.0009126    -2.935614    -2.935614   -1.6674915  0.063017917    -2.935614    1.2681225   547498 
  377000    1.0003292   -2.9358581   -2.9358581   -1.6684748  0.059133446   -2.9358581    1.2673833   547498 
  378000    1.0024488   -2.9384659   -2.9384659    -1.668397  0.059618817   -2.9384659    1.2700689   547498 
  379000    1.0018893   -2.9370853   -2.9370853   -1.6677253  0.073278152   -2.9370853    1.2693599   547498 
  380000    1.0024126   -2.9380124   -2.9380124   -1.6679894  0.068413833   -2.9380124     1.270023   547498 
  381000    1.0011204   -2.9368278   -2.9368278    -1.668442   0.06651066   -2.9368278    1.2683858   547498 
  382000    1.0002789   -2.9361117   -2.9361117   -1.6687921  0.054937181   -2.9361117    1.2673196   547498 
  383000    1.0015237   -2.9390681   -2.9390681   -1.6701714  0.053897049   -2.9390681    1.2688968   547498 
  384000     1.003001   -2.9400166   -2.9400166   -1.6692481  0.055958749   -2.9400166    1.2707685   547498 
  385000    1.0021145   -2.9384059   -2.9384059   -1.6687606  0.058820214   -2.9384059    1.2696452   547498 
  386000    1.0007887   -2.9361224   -2.9361224   -1.6681568  0.060136961   -2.9361224    1.2679656   547498 
  387000    1.0011532    -2.935977    -2.935977   -1.6675496  0.053253981    -2.935977    1.2684274   547498 
  388000    1.0002139    -2.934958    -2.934958   -1.6677208  0.060976261    -2.934958    1.2672372   547498 
  389000    1.0028368   -2.9375333   -2.9375333   -1.6669729  0.061150294   -2.9375333    1.2705604   547498 
  390000    1.0014355   -2.9370256   -2.9370256   -1.6682405  0.068364629   -2.9370256     1.268785   547498 
  391000    1.0016434   -2.9377954   -2.9377954   -1.6687471  0.060533975   -2.9377954    1.2690484   547498 
  392000    1.0015938   -2.9381056   -2.9381056   -1.6691201  0.069342216   -2.9381056    1.2689855   547498 
  393000    1.0021663   -2.9379897   -2.9379897   -1.6682788  0.065193943   -2.9379897    1.2697109   547498 
  394000    1.0016015   -2.9384548   -2.9384548   -1.6694595  0.059837071   -2.9384548    1.2689954   547498 
  395000    1.0014251   -2.9376853   -2.9376853   -1.6689134  0.057115841   -2.9376853    1.2687718   547498 
  396000    1.0004937   -2.9369478   -2.9369478    -1.669356  0.055675502   -2.9369478    1.2675918   547498 
  397000    1.0019896   -2.9388832   -2.9388832   -1.6693961  0.064532825   -2.9388832     1.269487   547498 
  398000    1.0001268   -2.9365255   -2.9365255   -1.6693985  0.056711568   -2.9365255     1.267127   547498 
  399000    1.0011213   -2.9373376   -2.9373376   -1.6689507  0.067819317   -2.9373376     1.268387   547498 
  400000    1.0009255   -2.9374879   -2.9374879   -1.6693491  0.054022387   -2.9374879    1.2681388   547498 
  401000    1.0003642   -2.9377865   -2.9377865   -1.6703588   0.05442342   -2.9377865    1.2674277   547498 
  402000   0.99932918   -2.9361363   -2.9361363     -1.67002   0.05310505   -2.9361363    1.2661164   547498 
  403000    0.9996183   -2.9364548   -2.9364548   -1.6699721  0.062331881   -2.9364548    1.2664827   547498 
  404000    1.0001972   -2.9386356   -2.9386356   -1.6714195  0.051485505   -2.9386356    1.2672161   547498 
  405000   0.99993124   -2.9373944   -2.9373944   -1.6705153  0.059745948   -2.9373944    1.2668792   547498 
  406000    1.0002946   -2.9375616   -2.9375616   -1.6702221  0.068799981   -2.9375616    1.2673395   547498 
  407000    1.0004616   -2.9377604   -2.9377604   -1.6702092  0.058854903   -2.9377604    1.2675512   547498 
  408000    1.0005419   -2.9378964   -2.9378964   -1.6702436  0.072632988   -2.9378964    1.2676528   547498 
  409000   0.99933587   -2.9372501   -2.9372501   -1.6711253  0.055807331   -2.9372501    1.2661248   547498 
  410000   0.99955505   -2.9377892   -2.9377892   -1.6713867  0.057998609   -2.9377892    1.2664025   547498 
  411000   0.99924411   -2.9382916   -2.9382916    -1.672283  0.043244696   -2.9382916    1.2660086   547498 
  412000   0.99828893   -2.9368949   -2.9368949   -1.6720965  0.060760517   -2.9368949    1.2647984   547498 
  413000   0.99927274     -2.93827     -2.93827   -1.6722252  0.054354858     -2.93827    1.2660449   547498 
  414000   0.99960669   -2.9388895   -2.9388895   -1.6724216   0.05798156   -2.9388895     1.266468   547498 
  415000    1.0000229   -2.9388867   -2.9388867   -1.6718913  0.048151961   -2.9388867    1.2669953   547498 
  416000    1.0028105   -2.9423681   -2.9423681   -1.6718411  0.064425465   -2.9423681     1.270527   547498 
  417000    1.0000967   -2.9387269   -2.9387269   -1.6716381  0.067376396   -2.9387269    1.2670888   547498 
  418000    1.0015437   -2.9407296   -2.9407296   -1.6718075   0.06432993   -2.9407296    1.2689221   547498 
  419000     1.000702   -2.9396465   -2.9396465   -1.6717908  0.065098953   -2.9396465    1.2678557   547498 
  420000    1.0031303   -2.9418473   -2.9418473    -1.670915  0.056410577   -2.9418473    1.2709323   547498 
  421000    1.0026419   -2.9412465   -2.9412465   -1.6709331  0.058238186   -2.9412465    1.2703134   547498 
  422000    1.0001465   -2.9381336   -2.9381336   -1.6709817  0.068050392   -2.9381336    1.2671519   547498 
  423000    1.0004421   -2.9389051   -2.9389051   -1.6713786  0.063411204   -2.9389051    1.2675264   547498 
  424000     1.000491   -2.9391178   -2.9391178   -1.6715295  0.055173148   -2.9391178    1.2675883   547498 
  425000    1.0007016   -2.9402592   -2.9402592   -1.6724041  0.065903041   -2.9402592    1.2678551   547498 
  426000    1.0008705   -2.9401206   -2.9401206   -1.6720515  0.066114685   -2.9401206    1.2680691   547498 
  427000   0.99825513   -2.9364859   -2.9364859   -1.6717304  0.055555348   -2.9364859    1.2647556   547498 
  428000   0.99987823   -2.9393103   -2.9393103   -1.6724983  0.047860426   -2.9393103     1.266812   547498 
  429000   0.99999614   -2.9388197   -2.9388197   -1.6718584  0.051754928   -2.9388197    1.2669614   547498 
  430000    1.0005984   -2.9391059   -2.9391059   -1.6713814  0.060996025   -2.9391059    1.2677244   547498 
  431000    1.0007822   -2.9400436   -2.9400436   -1.6720862  0.053370721   -2.9400436    1.2679573   547498 
  432000     1.000782   -2.9397028   -2.9397028   -1.6717457  0.059457733   -2.9397028    1.2679571   547498 
  433000    1.0006935   -2.9392113   -2.9392113   -1.6713665  0.059184078   -2.9392113    1.2678449   547498 
  434000   0.99878621   -2.9377376   -2.9377376   -1.6723091  0.062403589   -2.9377376    1.2654284   547498 
  435000    1.0012686   -2.9403724   -2.9403724   -1.6717988  0.061251396   -2.9403724    1.2685735   547498 
  436000     1.002796   -2.9418595   -2.9418595   -1.6713508  0.062470047   -2.9418595    1.2705087   547498 
  437000    1.0026032   -2.9417303   -2.9417303   -1.6714659  0.066335208   -2.9417303    1.2702644   547498 
  438000     1.002456    -2.942298    -2.942298   -1.6722201  0.063999997    -2.942298    1.2700779   547498 
  439000    1.0026875   -2.9409661   -2.9409661   -1.6705947  0.070872545   -2.9409661    1.2703713   547498 
  440000    1.0001845   -2.9382682   -2.9382682   -1.6710681  0.058806758   -2.9382682    1.2672001   547498 
  441000    1.0014186   -2.9403377   -2.9403377   -1.6715741  0.065329538   -2.9403377    1.2687636   547498 
  442000    1.0011524   -2.9392118   -2.9392118   -1.6707854  0.057294888   -2.9392118    1.2684264   547498 
  443000    1.0001488   -2.9369949   -2.9369949   -1.6698401   0.05414726   -2.9369949    1.2671548   547498 
  444000    1.0011373   -2.9388618   -2.9388618   -1.6704546  0.060436223   -2.9388618    1.2684072   547498 
  445000    1.0003266   -2.9378847   -2.9378847   -1.6705046  0.043335955   -2.9378847    1.2673801   547498 
  446000   0.99996686   -2.9377252   -2.9377252   -1.6708009  0.062683244   -2.9377252    1.2669243   547498 
  447000    1.0006943   -2.9380901   -2.9380901   -1.6702442  0.067702202   -2.9380901    1.2678459   547498 
  448000    1.0013106   -2.9397512   -2.9397512   -1.6711245  0.058957155   -2.9397512    1.2686267   547498 
  449000    1.0013388   -2.9402681   -2.9402681   -1.6716056  0.055818208   -2.9402681    1.2686625   547498 
  450000    1.0019448   -2.9412656   -2.9412656   -1.6718353   0.06099462   -2.9412656    1.2694303   547498 
  451000    1.0028394   -2.9433346   -2.9433346   -1.6727709  0.061674092   -2.9433346    1.2705637   547498 
  452000    1.0020255   -2.9419234   -2.9419234    -1.672391  0.066265547   -2.9419234    1.2695325   547498 
  453000    1.0024057   -2.9429015   -2.9429015   -1.6728873   0.06484291   -2.9429015    1.2700142   547498 
  454000     1.001487   -2.9418685   -2.9418685   -1.6730182  0.062467228   -2.9418685    1.2688502   547498 
  455000    1.0010185   -2.9404955   -2.9404955   -1.6722388  0.064659127   -2.9404955    1.2682567   547498 
  456000   0.99999771   -2.9394066   -2.9394066   -1.6724432  0.053669004   -2.9394066    1.2669634   547498 
  457000    1.0002099   -2.9393462   -2.9393462   -1.6721139  0.061510031   -2.9393462    1.2672322   547498 
  458000    1.0012091   -2.9402502   -2.9402502    -1.671752  0.062717336   -2.9402502    1.2684981   547498 
  459000    1.0011662   -2.9411173   -2.9411173   -1.6726735  0.066283559   -2.9411173    1.2684438   547498 
  460000     1.000108   -2.9401087   -2.9401087   -1.6730056  0.059328834   -2.9401087    1.2671031   547498 
  461000    1.0005576   -2.9409068   -2.9409068    -1.673234  0.057908515   -2.9409068    1.2676728   547498 
  462000    0.9998768   -2.9402009   -2.9402009   -1.6733907  0.056962567   -2.9402009    1.2668102   547498 
  463000    1.0007126   -2.9421421   -2.9421421    -1.674273  0.058349339   -2.9421421    1.2678691   547498 
  464000    1.0013565   -2.9435559   -2.9435559    -1.674871  0.058473799   -2.9435559    1.2686849   547498 
  465000     1.001685   -2.9433857   -2.9433857   -1.6742846    0.0621473   -2.9433857    1.2691011   547498 
  466000    1.0022295   -2.9441093   -2.9441093   -1.6743184  0.069414971   -2.9441093     1.269791   547498 
  467000    1.0012608   -2.9426202   -2.9426202   -1.6740566  0.061614329   -2.9426202    1.2685636   547498 
  468000    1.0008552   -2.9429404   -2.9429404   -1.6748906  0.066422508   -2.9429404    1.2680497   547498 
  469000    1.0003752   -2.9430307   -2.9430307    -1.675589  0.061716929   -2.9430307    1.2674416   547498 
  470000    1.0005568   -2.9420361   -2.9420361   -1.6743644  0.052705112   -2.9420361    1.2676718   547498 
  471000   0.99989691   -2.9418462   -2.9418462   -1.6750105  0.055436343   -2.9418462    1.2668357   547498 
  472000    1.0006325   -2.9419591   -2.9419591   -1.6741915  0.048968372   -2.9419591    1.2677677   547498 
  473000   0.99942629   -2.9403304   -2.9403304    -1.674091  0.055654441   -2.9403304    1.2662394   547498 
  474000    1.0015633   -2.9430529   -2.9430529    -1.674106  0.059479222   -2.9430529     1.268947   547498 
  475000    1.0011482   -2.9421457   -2.9421457   -1.6737247  0.063758652   -2.9421457    1.2684211   547498 
  476000    1.0020177   -2.9437773   -2.9437773   -1.6742548  0.061864389   -2.9437773    1.2695226   547498 
  477000    1.0013364    -2.943417    -2.943417   -1.6747576  0.054937212    -2.943417    1.2686594   547498 
  478000    1.0011786   -2.9425179   -2.9425179   -1.6740584  0.065352224   -2.9425179    1.2684595   547498 
  479000    1.0011023   -2.9420698   -2.9420698   -1.6737068  0.053532226   -2.9420698    1.2683629   547498 
  480000     1.003239   -2.9444803   -2.9444803   -1.6734103  0.062605501   -2.9444803      1.27107   547498 
  481000    1.0019193    -2.942979    -2.942979    -1.673581  0.062862618    -2.942979     1.269398   547498 
  482000    1.0009262   -2.9429991   -2.9429991   -1.6748594  0.067760778   -2.9429991    1.2681398   547498 
  483000    1.0015601   -2.9448394   -2.9448394   -1.6758966  0.053294815   -2.9448394    1.2689428   547498 
  484000     1.001074   -2.9440696   -2.9440696   -1.6757426  0.056395758   -2.9440696     1.268327   547498 
  485000    1.0010949   -2.9445873   -2.9445873   -1.6762338  0.061991592   -2.9445873    1.2683535   547498 
  486000    1.0009397   -2.9439595   -2.9439595   -1.6758026  0.058279861   -2.9439595    1.2681569   547498 
  487000    1.0016271   -2.9451138   -2.9451138   -1.6760861  0.057069486   -2.9451138    1.2690277   547498 
  488000    1.0001935    -2.943602    -2.943602   -1.6763906  0.064509417    -2.943602    1.2672114   547498 
  489000   0.99981838   -2.9430299   -2.9430299   -1.6762937  0.050938152   -2.9430299    1.2667362   547498 
  490000   0.99991753   -2.9427954   -2.9427954   -1.6759336  0.061322784   -2.9427954    1.2668618   547498 
  491000    1.0017478   -2.9458725   -2.9458725   -1.6766918  0.057949495   -2.9458725    1.2691807   547498 
  492000    1.0008242   -2.9441193   -2.9441193   -1.6761088   0.06919583   -2.9441193    1.2680105   547498 
  493000    1.0010473   -2.9447979   -2.9447979   -1.6765048  0.061900307   -2.9447979    1.2682931   547498 
  494000    1.0011198   -2.9448256   -2.9448256   -1.6764405  0.059705909   -2.9448256    1.2683851   547498 
  495000   0.99955991     -2.94323     -2.94323   -1.6768213  0.063623404     -2.94323    1.2664087   547498 
  496000      1.00124   -2.9447535   -2.9447535   -1.6762162   0.06163969   -2.9447535    1.2685373   547498 
  497000    1.0031966   -2.9475743   -2.9475743   -1.6765581  0.056846302   -2.9475743    1.2710162   547498 
  498000    1.0021441   -2.9457048   -2.9457048   -1.6760221  0.066520953   -2.9457048    1.2696827   547498 
  499000     1.001356   -2.9442873   -2.9442873   -1.6756029  0.055784416   -2.9442873    1.2686843   547498 
  500000    1.0018643   -2.9452003   -2.9452003    -1.675872  0.062289772   -2.9452003    1.2693283   547498 
  501000    1.0016724   -2.9449192   -2.9449192    -1.675834  0.061266486   -2.9449192    1.2690852   547498 
  502000    1.0001415    -2.943665    -2.943665   -1.6765195  0.066829504    -2.943665    1.2671455   547498 
  503000   0.99990743   -2.9435672   -2.9435672   -1.6767182  0.065117178   -2.9435672     1.266849   547498 
  504000    1.0007545   -2.9444751   -2.9444751   -1.6765529  0.058907071   -2.9444751    1.2679222   547498 
  505000    1.0010504   -2.9459924   -2.9459924   -1.6776953  0.056174547   -2.9459924    1.2682971   547498 
  506000    1.0004403   -2.9454248   -2.9454248   -1.6779007  0.064118704   -2.9454248    1.2675241   547498 
  507000     1.001471    -2.945882    -2.945882    -1.677052   0.05589109    -2.945882      1.26883   547498 
  508000   0.99990321   -2.9437738   -2.9437738   -1.6769301  0.058342713   -2.9437738    1.2668436   547498 
  509000    1.0011764   -2.9459875   -2.9459875   -1.6775308  0.053861187   -2.9459875    1.2684567   547498 
  510000    1.0016637   -2.9462117   -2.9462117   -1.6771375  0.060821427   -2.9462117    1.2690742   547498 
  511000    1.0029703   -2.9474874   -2.9474874   -1.6767578  0.051713149   -2.9474874    1.2707296   547498 
  512000    1.0006589   -2.9445225   -2.9445225   -1.6767215  0.064670052   -2.9445225    1.2678011   547498 
  513000    1.0007224   -2.9450548   -2.9450548   -1.6771733  0.055769452   -2.9450548    1.2678815   547498 
  514000    1.0015569   -2.9463756   -2.9463756   -1.6774369  0.059846923   -2.9463756    1.2689388   547498 
  515000    1.0019443   -2.9470238   -2.9470238   -1.6775941  0.070741203   -2.9470238    1.2694297   547498 
  516000    1.0006677    -2.946138    -2.946138   -1.6783258  0.061179616    -2.946138    1.2678122   547498 
  517000   0.99966371   -2.9456267   -2.9456267   -1.6790865  0.057287907   -2.9456267    1.2665402   547498 
  518000    1.0013746   -2.9466022   -2.9466022   -1.6778943  0.060284352   -2.9466022    1.2687078   547498 
  519000     1.000506   -2.9453689   -2.9453689   -1.6777615  0.051752262   -2.9453689    1.2676074   547498 
  520000   0.99992882   -2.9448204   -2.9448204   -1.6779443  0.060069063   -2.9448204    1.2668761   547498 
  521000    1.0003606   -2.9444275   -2.9444275   -1.6770044  0.059512196   -2.9444275    1.2674232   547498 
  522000   0.99924531   -2.9441421   -2.9441421    -1.678132  0.056985771   -2.9441421    1.2660101   547498 
  523000    1.0007606   -2.9444581   -2.9444581   -1.6765281  0.050194119   -2.9444581      1.26793   547498 
  524000    1.0005151   -2.9447038   -2.9447038   -1.6770849  0.058037262   -2.9447038    1.2676189   547498 
  525000   0.99935169   -2.9428487   -2.9428487   -1.6767038  0.063823233   -2.9428487    1.2661449   547498 
  526000    1.0012199   -2.9445138   -2.9445138   -1.6760019  0.056645699   -2.9445138    1.2685119   547498 
  527000    1.0004873   -2.9436073   -2.9436073   -1.6760237  0.065337692   -2.9436073    1.2675836   547498 
  528000    1.0009619    -2.944279    -2.944279   -1.6760941  0.049421655    -2.944279    1.2681849   547498 
  529000    0.9997078   -2.9419783   -2.9419783   -1.6753823  0.066100722   -2.9419783    1.2665961   547498 
  530000     1.003386   -2.9457594   -2.9457594   -1.6745033  0.053898296   -2.9457594    1.2712562   547498 
  531000    1.0018913   -2.9437538   -2.9437538   -1.6743914  0.055476149   -2.9437538    1.2693625   547498 
  532000    1.0010868   -2.9428048   -2.9428048   -1.6744616  0.061961221   -2.9428048    1.2683432   547498 
  533000    1.0027777   -2.9435679   -2.9435679   -1.6730823    0.0648664   -2.9435679    1.2704855   547498 
  534000    1.0011301   -2.9423521   -2.9423521    -1.673954  0.060755991   -2.9423521    1.2683981   547498 
  535000    1.0029798   -2.9441721   -2.9441721   -1.6734305  0.060441771   -2.9441721    1.2707416   547498 
  536000    1.0025783   -2.9445719   -2.9445719    -1.674339  0.060556511   -2.9445719    1.2702329   547498 
  537000    1.0013471    -2.943948    -2.943948    -1.675275  0.051248796    -2.943948     1.268673   547498 
  538000    1.0014903   -2.9435983   -2.9435983   -1.6747438   0.05326341   -2.9435983    1.2688545   547498 
  539000    1.0011136   -2.9433769   -2.9433769   -1.6749998  0.065761671   -2.9433769    1.2683771   547498 
  540000    1.0005441   -2.9423823   -2.9423823   -1.6747266  0.063374066   -2.9423823    1.2676557   547498 
  541000    1.0000495   -2.9407792   -2.9407792   -1.6737502  0.052555831   -2.9407792     1.267029   547498 
  542000    1.0015226   -2.9422444   -2.9422444   -1.6733491  0.063201971   -2.9422444    1.2688953   547498 
  543000    1.0006912   -2.9417714   -2.9417714   -1.6739295  0.063541468   -2.9417714     1.267842   547498 
  544000    1.0024276   -2.9435866   -2.9435866   -1.6735447  0.059219171   -2.9435866     1.270042   547498 
  545000   0.99995472   -2.9407527   -2.9407527   -1.6738437  0.067173157   -2.9407527    1.2669089   547498 
  546000    1.0014838   -2.9427008   -2.9427008   -1.6738546  0.055975348   -2.9427008    1.2688462   547498 
  547000   0.99997199    -2.941239    -2.941239   -1.6743082  0.066268987    -2.941239    1.2669308   547498 
  548000    1.0004794   -2.9412219   -2.9412219   -1.6736483  0.056744607   -2.9412219    1.2675737   547498 
  549000   0.99960981   -2.9405148   -2.9405148   -1.6740429  0.051780815   -2.9405148    1.2664719   547498 
  550000   0.99909064   -2.9410492   -2.9410492   -1.6752351  0.050917712   -2.9410492    1.2658141   547498 
  551000   0.99941475   -2.9410967   -2.9410967   -1.6748719  0.047780412   -2.9410967    1.2662248   547498 
  552000   0.99968972   -2.9416309   -2.9416309   -1.6750578  0.050828024   -2.9416309    1.2665732   547498 
  553000   0.99975516   -2.9416559   -2.9416559   -1.6749998  0.061631126   -2.9416559    1.2666561   547498 
  554000    1.0009799   -2.9435269   -2.9435269    -1.675319  0.067316097   -2.9435269    1.2682078   547498 
  555000    1.0002927   -2.9426704   -2.9426704   -1.6753333  0.062640854   -2.9426704    1.2673372   547498 
  556000    1.0017172    -2.943594    -2.943594   -1.6744521  0.056015973    -2.943594    1.2691419   547498 
  557000    1.0017507   -2.9437489   -2.9437489   -1.6745645  0.062469182   -2.9437489    1.2691843   547498 
  558000    1.0012627   -2.9429831   -2.9429831   -1.6744171  0.061954488   -2.9429831     1.268566   547498 
  559000    1.0028215   -2.9451791   -2.9451791   -1.6746381  0.056577538   -2.9451791     1.270541   547498 
  560000    1.0012992   -2.9433938   -2.9433938   -1.6747816  0.062399555   -2.9433938    1.2686123   547498 
  561000    1.0000867   -2.9423993   -2.9423993   -1.6753233  0.066671468   -2.9423993    1.2670761   547498 
  562000    1.0001875    -2.943932    -2.943932   -1.6767282  0.050624086    -2.943932    1.2672038   547498 
  563000   0.99977601   -2.9435685   -2.9435685    -1.676886  0.058411252   -2.9435685    1.2666825   547498 
  564000   0.99823839   -2.9420331   -2.9420331   -1.6772987  0.054677398   -2.9420331    1.2647344   547498 
  565000    1.0001117   -2.9440368   -2.9440368    -1.676929  0.052013649   -2.9440368    1.2671078   547498 
  566000   0.99915346   -2.9429716   -2.9429716   -1.6770779  0.051783276   -2.9429716    1.2658937   547498 
  567000   0.99929271   -2.9430243   -2.9430243   -1.6769541  0.065338073   -2.9430243    1.2660702   547498 
  568000    1.0015194   -2.9458905   -2.9458905   -1.6769993  0.057981489   -2.9458905    1.2688913   547498 
  569000    1.0002618   -2.9449815   -2.9449815   -1.6776836  0.059262827   -2.9449815     1.267298   547498 
  570000    1.0007648    -2.945748    -2.945748   -1.6778128  0.058495877    -2.945748    1.2679352   547498 
  571000    1.0015841   -2.9456236   -2.9456236   -1.6766503  0.064276332   -2.9456236    1.2689733   547498 
  572000    1.0025333   -2.9469289   -2.9469289    -1.676753  0.064378674   -2.9469289    1.2701759   547498 
  573000    1.0022177   -2.9462492   -2.9462492   -1.6764732  0.055094768   -2.9462492     1.269776   547498 
  574000    1.0033048   -2.9474184   -2.9474184    -1.676265  0.068504953   -2.9474184    1.2711534   547498 
  575000    1.0022955   -2.9471009   -2.9471009   -1.6772264  0.058392753   -2.9471009    1.2698745   547498 
  576000    1.0028722   -2.9477916   -2.9477916   -1.6771863  0.066198175   -2.9477916    1.2706053   547498 
  577000    1.0028325    -2.947681    -2.947681   -1.6771261  0.061630567    -2.947681    1.2705549   547498 
  578000    1.0017221   -2.9460154   -2.9460154   -1.6768672  0.057712752   -2.9460154    1.2691482   547498 
  579000    1.0007424   -2.9439653   -2.9439653   -1.6760584   0.06432953   -2.9439653    1.2679069   547498 
  580000    1.0015952   -2.9450891   -2.9450891   -1.6761018   0.06762275   -2.9450891    1.2689873   547498 
  581000    1.0004747   -2.9438624   -2.9438624   -1.6762947  0.065446632   -2.9438624    1.2675678   547498 
  582000    1.0010301   -2.9442788   -2.9442788   -1.6760075  0.058802015   -2.9442788    1.2682713   547498 
  583000   0.99873953   -2.9415175   -2.9415175   -1.6761482  0.056773117   -2.9415175    1.2653693   547498 
  584000    1.0011627   -2.9439402   -2.9439402   -1.6755008  0.065202552   -2.9439402    1.2684394   547498 
  585000    1.0015292   -2.9458431   -2.9458431   -1.6769393   0.05467786   -2.9458431    1.2689037   547498 
  586000   0.99985455   -2.9443308   -2.9443308   -1.6775489  0.058265057   -2.9443308     1.266782   547498 
  587000    1.0001561   -2.9450385   -2.9450385   -1.6778745  0.068748618   -2.9450385     1.267164   547498 
  588000    1.0004317    -2.946035    -2.946035   -1.6785218  0.064665589    -2.946035    1.2675132   547498 
  589000    1.0013816   -2.9467494   -2.9467494   -1.6780327  0.064418446   -2.9467494    1.2687167   547498 
  590000    1.0018608   -2.9461732   -2.9461732   -1.6768493  0.062813887   -2.9461732    1.2693239   547498 
  591000    1.0033145   -2.9490983   -2.9490983   -1.6779327  0.051912119   -2.9490983    1.2711657   547498 
  592000    1.0025233   -2.9491943   -2.9491943   -1.6790311  0.058073394   -2.9491943    1.2701632   547498 
  593000     1.002326    -2.949758    -2.949758   -1.6798448  0.056198901    -2.949758    1.2699132   547498 
  594000    1.0025672   -2.9491128   -2.9491128    -1.678894  0.065497744   -2.9491128    1.2702188   547498 
  595000    1.0007776   -2.9473229   -2.9473229   -1.6793714  0.056756248   -2.9473229    1.2679515   547498 
  596000    1.0012487   -2.9468443   -2.9468443   -1.6782959  0.055742909   -2.9468443    1.2685484   547498 
  597000    1.0003662   -2.9456839   -2.9456839   -1.6782538  0.067128186   -2.9456839    1.2674302   547498 
  598000   0.99994489   -2.9463469   -2.9463469   -1.6794504  0.058339887   -2.9463469    1.2668964   547498 
  599000    1.0002661   -2.9465825   -2.9465825   -1.6792791  0.047914268   -2.9465825    1.2673034   547498 
  600000   0.99988746   -2.9464687   -2.9464687    -1.679645  0.062226392   -2.9464687    1.2668237   547498 
  601000    1.0005784    -2.947966    -2.947966   -1.6802669  0.056145033    -2.947966    1.2676991   547498 
  602000    1.0009361   -2.9480048   -2.9480048   -1.6798526  0.055374488   -2.9480048    1.2681522   547498 
  603000    1.0011952   -2.9481094   -2.9481094   -1.6796288  0.054679761   -2.9481094    1.2684806   547498 
  604000    1.0011161   -2.9474218   -2.9474218   -1.6790414  0.067036996   -2.9474218    1.2683804   547498 
  605000    1.0012765   -2.9489048   -2.9489048   -1.6803212  0.060838259   -2.9489048    1.2685836   547498 
  606000    1.0009577   -2.9478457   -2.9478457   -1.6796659  0.049839294   -2.9478457    1.2681797   547498 
  607000     1.001941   -2.9483482   -2.9483482   -1.6789228  0.057261527   -2.9483482    1.2694254   547498 
  608000    1.0019373   -2.9485679   -2.9485679   -1.6791471  0.061021626   -2.9485679    1.2694208   547498 
  609000    1.0008853   -2.9476221   -2.9476221   -1.6795341  0.064607537   -2.9476221    1.2680879   547498 
  610000    1.0000803   -2.9467162   -2.9467162   -1.6796482  0.066391747   -2.9467162     1.267068   547498 
  611000    1.0009148   -2.9473388   -2.9473388   -1.6792134  0.051272128   -2.9473388    1.2681253   547498 
  612000     1.000042   -2.9457633   -2.9457633   -1.6787438  0.070704604   -2.9457633    1.2670195   547498 
  613000   0.99985538   -2.9454241   -2.9454241   -1.6786411  0.060215771   -2.9454241     1.266783   547498 
  614000    1.0001872   -2.9461775   -2.9461775   -1.6789741  0.061175306   -2.9461775    1.2672034   547498 
  615000   0.99931115   -2.9450319   -2.9450319   -1.6789384  0.049984938   -2.9450319    1.2660935   547498 
  616000    1.0007446    -2.946073    -2.946073   -1.6781634  0.061900389    -2.946073    1.2679096   547498 
  617000      1.00196   -2.9462891   -2.9462891   -1.6768396  0.062348543   -2.9462891    1.2694496   547498 
  618000    1.0010722   -2.9465024   -2.9465024   -1.6781776  0.059799411   -2.9465024    1.2683247   547498 
  619000    1.0013966   -2.9470856   -2.9470856   -1.6783499  0.063571657   -2.9470856    1.2687357   547498 
  620000    1.0022432   -2.9479525   -2.9479525   -1.6781442  0.059665568   -2.9479525    1.2698083   547498 
  621000    1.0001204   -2.9455227   -2.9455227   -1.6784038  0.061205317   -2.9455227    1.2671189   547498 
  622000    1.0009107   -2.9466676   -2.9466676   -1.6785475  0.057291419   -2.9466676    1.2681201   547498 
  623000    1.0012732   -2.9472947   -2.9472947   -1.6787154  0.059412308   -2.9472947    1.2685793   547498 
  624000   0.99989874   -2.9460017   -2.9460017   -1.6791637  0.058625829   -2.9460017     1.266838   547498 
  625000    0.9998851    -2.946522    -2.946522   -1.6797013  0.060558168    -2.946522    1.2668207   547498 
  626000    1.0010096    -2.948146    -2.948146   -1.6799006  0.061884501    -2.948146    1.2682454   547498 
  627000    1.0007138   -2.9480736   -2.9480736    -1.680203  0.057842446   -2.9480736    1.2678706   547498 
  628000    1.0000035   -2.9472077   -2.9472077   -1.6802369  0.053299033   -2.9472077    1.2669707   547498 
  629000    1.0014232   -2.9492328   -2.9492328   -1.6804634   0.05078871   -2.9492328    1.2687694   547498 
  630000    1.0011646     -2.94842     -2.94842   -1.6799782  0.059505574     -2.94842    1.2684418   547498 
  631000    1.0015033   -2.9485421   -2.9485421   -1.6796712  0.055859129   -2.9485421    1.2688708   547498 
  632000   0.99863312   -2.9447279   -2.9447279   -1.6794934  0.063353061   -2.9447279    1.2652345   547498 
  633000   0.99905776   -2.9452844   -2.9452844   -1.6795119  0.062182472   -2.9452844    1.2657725   547498 
  634000   0.99980929    -2.946478    -2.946478   -1.6797533  0.055005822    -2.946478    1.2667246   547498 
  635000    1.0002362   -2.9472651   -2.9472651   -1.6799996  0.057844912   -2.9472651    1.2672655   547498 
  636000   0.99935738   -2.9466017   -2.9466017   -1.6804496  0.059256069   -2.9466017    1.2661521   547498 
  637000    1.0016458   -2.9493698   -2.9493698   -1.6803183  0.057179556   -2.9493698    1.2690515   547498 
  638000    1.0024327   -2.9500022   -2.9500022   -1.6799538  0.055954125   -2.9500022    1.2700484   547498 
  639000   0.99976088   -2.9471869   -2.9471869   -1.6805236  0.064016301   -2.9471869    1.2666633   547498 
  640000    1.0005071   -2.9481794   -2.9481794   -1.6805706   0.06129756   -2.9481794    1.2676087   547498 
  641000   0.99904185   -2.9469881   -2.9469881   -1.6812358  0.062636228   -2.9469881    1.2657523   547498 
  642000     1.000186    -2.947904    -2.947904   -1.6807021  0.066266727    -2.947904    1.2672019   547498 
  643000   0.99896401   -2.9464781   -2.9464781   -1.6808244  0.064444546   -2.9464781    1.2656537   547498 
  644000   0.99835495   -2.9458587   -2.9458587   -1.6809767  0.062834705   -2.9458587    1.2648821   547498 
  645000    1.0015517   -2.9494469   -2.9494469   -1.6805146  0.068319216   -2.9494469    1.2689322   547498 
  646000   0.99915499   -2.9476311   -2.9476311   -1.6817354  0.061491151   -2.9476311    1.2658957   547498 
  647000    1.0007079   -2.9491215   -2.9491215   -1.6812584   0.05710461   -2.9491215    1.2678631   547498 
  648000    1.0014597   -2.9506632   -2.9506632   -1.6818476  0.055402757   -2.9506632    1.2688156   547498 
  649000     1.001113   -2.9501278   -2.9501278   -1.6817514  0.059061195   -2.9501278    1.2683764   547498 
  650000    1.0004547   -2.9494366   -2.9494366   -1.6818943  0.064837186   -2.9494366    1.2675423   547498 
  651000    1.0007966   -2.9491475   -2.9491475   -1.6811719  0.059872665   -2.9491475    1.2679756   547498 
  652000   0.99982144    -2.948218    -2.948218   -1.6814779  0.056922017    -2.948218      1.26674   547498 
  653000    1.0004249   -2.9490491   -2.9490491   -1.6815446  0.057003294   -2.9490491    1.2675046   547498 
  654000   0.99814218   -2.9458535   -2.9458535   -1.6812411  0.058772168   -2.9458535    1.2646125   547498 
  655000   0.99833207   -2.9464918   -2.9464918   -1.6816387  0.069585318   -2.9464918    1.2648531   547498 
  656000    1.0011547   -2.9499903   -2.9499903    -1.681561  0.057921901   -2.9499903    1.2684292   547498 
  657000    1.0009588   -2.9496236   -2.9496236   -1.6814426  0.055679978   -2.9496236     1.268181   547498 
  658000   0.99913812   -2.9477335   -2.9477335   -1.6818592  0.051748186   -2.9477335    1.2658743   547498 
  659000    1.0001302   -2.9488946   -2.9488946   -1.6817633  0.059521216   -2.9488946    1.2671312   547498 
  660000   0.99987062   -2.9488683   -2.9488683   -1.6820659  0.055102975   -2.9488683    1.2668024   547498 
  661000    1.0005682   -2.9496898   -2.9496898   -1.6820036  0.051772081   -2.9496898    1.2676862   547498 
  662000    1.0015005   -2.9500043   -2.9500043   -1.6811369  0.058753565   -2.9500043    1.2688674   547498 
  663000   0.99965267   -2.9484986   -2.9484986   -1.6819724  0.064130972   -2.9484986    1.2665262   547498 
  664000     1.000957   -2.9502973   -2.9502973   -1.6821186  0.061851929   -2.9502973    1.2681788   547498 
  665000    1.0005732   -2.9496731   -2.9496731   -1.6819806  0.061609208   -2.9496731    1.2676925   547498 
  666000   0.99982471   -2.9493499   -2.9493499   -1.6826057  0.056964548   -2.9493499    1.2667442   547498 
  667000   0.99757412   -2.9464429   -2.9464429   -1.6825501  0.048448576   -2.9464429    1.2638928   547498 
  668000   0.99725824    -2.945917    -2.945917   -1.6824245  0.061575195    -2.945917    1.2634926   547498 
  669000    0.9983226   -2.9465619   -2.9465619   -1.6817208  0.060945648   -2.9465619    1.2648411   547498 
  670000   0.99869333    -2.948652    -2.948652   -1.6833412  0.056604722    -2.948652    1.2653108   547498 
  671000   0.99971525   -2.9489808   -2.9489808   -1.6823753  0.059225765   -2.9489808    1.2666055   547498 
  672000   0.99751661   -2.9470005   -2.9470005   -1.6831806  0.055609203   -2.9470005    1.2638199   547498 
  673000   0.99986674   -2.9498942   -2.9498942   -1.6830968  0.062211722   -2.9498942    1.2667974   547498 
  674000   0.99966143   -2.9498886   -2.9498886   -1.6833513  0.063107599   -2.9498886    1.2665373   547498 
  675000    1.0003804   -2.9508411   -2.9508411   -1.6833929  0.059666689   -2.9508411    1.2674483   547498 
  676000    1.0013666   -2.9523678   -2.9523678   -1.6836701  0.063829566   -2.9523678    1.2686977   547498 
  677000    1.0016721   -2.9508256   -2.9508256   -1.6817408  0.064789615   -2.9508256    1.2690847   547498 
  678000    1.0012616       -2.951       -2.951   -1.6824352  0.059658522       -2.951    1.2685647   547498 
  679000    1.0005731   -2.9501036   -2.9501036   -1.6824113  0.054684926   -2.9501036    1.2676923   547498 
  680000     1.002673   -2.9523934   -2.9523934   -1.6820404  0.061663491   -2.9523934    1.2703529   547498 
  681000    1.0006068   -2.9498301   -2.9498301   -1.6820951  0.060277571   -2.9498301    1.2677351   547498 
  682000    1.0002227   -2.9504316   -2.9504316   -1.6831832  0.057601134   -2.9504316    1.2672484   547498 
  683000   0.99796607   -2.9472764   -2.9472764   -1.6828871  0.060562726   -2.9472764    1.2643894   547498 
  684000   0.99894148   -2.9490851   -2.9490851     -1.68346  0.057982468   -2.9490851    1.2656252   547498 
  685000    1.0002055   -2.9516606   -2.9516606    -1.684434  0.043262598   -2.9516606    1.2672267   547498 
  686000   0.99775311   -2.9482453   -2.9482453   -1.6841258  0.059262968   -2.9482453    1.2641195   547498 
  687000   0.99841256   -2.9485611   -2.9485611    -1.683606  0.057284209   -2.9485611     1.264955   547498 
  688000    1.0005271      -2.9515      -2.9515   -1.6838659  0.055538333      -2.9515    1.2676341   547498 
  689000   0.99840876   -2.9498621   -2.9498621   -1.6849119   0.06833964   -2.9498621    1.2649502   547498 
  690000    1.0016917   -2.9544439   -2.9544439   -1.6853344  0.067717933   -2.9544439    1.2691095   547498 
  691000    1.0025453   -2.9557017   -2.9557017   -1.6855106  0.062415311   -2.9557017    1.2701911   547498 
  692000    1.0027812   -2.9555772   -2.9555772   -1.6850873  0.061691174   -2.9555772    1.2704899   547498 
  693000    1.0030688   -2.9579005   -2.9579005   -1.6870462  0.057415715   -2.9579005    1.2708544   547498 
  694000    1.0025194   -2.9574901   -2.9574901   -1.6873318  0.065132714   -2.9574901    1.2701583   547498 
  695000     1.001975   -2.9557116   -2.9557116   -1.6862431  0.052752968   -2.9557116    1.2694685   547498 
  696000     1.001152   -2.9542952   -2.9542952   -1.6858693  0.064778719   -2.9542952    1.2684258   547498 
  697000    1.0015929   -2.9548736   -2.9548736   -1.6858892  0.063460286   -2.9548736    1.2689844   547498 
  698000    1.0003116   -2.9534643   -2.9534643   -1.6861032  0.058015713   -2.9534643     1.267361   547498 
  699000   0.99892211   -2.9513041   -2.9513041   -1.6857035  0.054131242   -2.9513041    1.2656006   547498 
  700000    0.9989766   -2.9514429   -2.9514429   -1.6857733  0.060108024   -2.9514429    1.2656697   547498 
  701000    0.9982765   -2.9506459   -2.9506459   -1.6858632  0.052253943   -2.9506459    1.2647827   547498 
  702000   0.99936393   -2.9514729   -2.9514729   -1.6853125  0.058472729   -2.9514729    1.2661604   547498 
  703000   0.99734052    -2.948945    -2.948945   -1.6853482  0.065542956    -2.948945    1.2635968   547498 
  704000   0.99923252   -2.9514771   -2.9514771   -1.6854832   0.05480117   -2.9514771    1.2659939   547498 
  705000   0.99933889   -2.9519073   -2.9519073   -1.6857786  0.065195974   -2.9519073    1.2661287   547498 
  706000   0.99970664   -2.9517486   -2.9517486    -1.685154   0.06609271   -2.9517486    1.2665946   547498 
  707000    1.0001888   -2.9520792   -2.9520792   -1.6848736  0.064134285   -2.9520792    1.2672055   547498 
  708000    1.0005055   -2.9513617   -2.9513617    -1.683755  0.047657415   -2.9513617    1.2676067   547498 
  709000    1.0009379   -2.9523054   -2.9523054   -1.6841508  0.056460275   -2.9523054    1.2681546   547498 
  710000   0.99944675    -2.950713    -2.950713   -1.6844477   0.05839657    -2.950713    1.2662653   547498 
  711000   0.99954721    -2.950448    -2.950448   -1.6840554  0.058305151    -2.950448    1.2663926   547498 
  712000   0.99891987   -2.9493993   -2.9493993   -1.6838015  0.062895906   -2.9493993    1.2655978   547498 
  713000    1.0004596    -2.951082    -2.951082   -1.6835334  0.056447391    -2.951082    1.2675486   547498 
  714000    0.9994783   -2.9505484   -2.9505484   -1.6842431  0.066164541   -2.9505484    1.2663053   547498 
  715000    0.9997291   -2.9504584   -2.9504584   -1.6838354  0.059572906   -2.9504584    1.2666231   547498 
  716000   0.99803914   -2.9492629   -2.9492629    -1.684781  0.060429471   -2.9492629    1.2644819   547498 
  717000   0.99888898   -2.9508113   -2.9508113   -1.6852527  0.057493912   -2.9508113    1.2655587   547498 
  718000   0.99966216   -2.9511107   -2.9511107   -1.6845725  0.062627765   -2.9511107    1.2665382   547498 
  719000   0.99901452   -2.9510669   -2.9510669   -1.6853492  0.059250972   -2.9510669    1.2657177   547498 
  720000   0.99946354   -2.9521352   -2.9521352   -1.6858486  0.057211309   -2.9521352    1.2662866   547498 
  721000   0.99950051   -2.9528015   -2.9528015   -1.6864681  0.057596358   -2.9528015    1.2663334   547498 
  722000    1.0013204   -2.9540721   -2.9540721   -1.6854329  0.058958431   -2.9540721    1.2686392   547498 
  723000   0.99858409   -2.9515946   -2.9515946   -1.6864223  0.071242565   -2.9515946    1.2651724   547498 
  724000   0.99819299   -2.9511546   -2.9511546   -1.6864777  0.059958031   -2.9511546    1.2646769   547498 
  725000   0.99879302   -2.9520376   -2.9520376   -1.6866005  0.064822172   -2.9520376    1.2654371   547498 
  726000   0.99949115   -2.9526883   -2.9526883   -1.6863667  0.057743745   -2.9526883    1.2663216   547498 
  727000    1.0010217   -2.9541965   -2.9541965   -1.6859358  0.042322039   -2.9541965    1.2682607   547498 
  728000   0.99910892   -2.9514099   -2.9514099   -1.6855726  0.060157715   -2.9514099    1.2658373   547498 
  729000   0.99759333   -2.9504445   -2.9504445   -1.6865274   0.05720881   -2.9504445    1.2639171   547498 
  730000   0.99988961   -2.9526088   -2.9526088   -1.6857824  0.051632405   -2.9526088    1.2668264   547498 
  731000   0.99978752   -2.9527178   -2.9527178   -1.6860207  0.061261655   -2.9527178    1.2666971   547498 
  732000    1.0006385   -2.9543195   -2.9543195   -1.6865443  0.051795326   -2.9543195    1.2677752   547498 
  733000    0.9988681    -2.952256    -2.952256   -1.6867238  0.060782625    -2.952256    1.2655322   547498 
  734000   0.99953197   -2.9531912   -2.9531912   -1.6868179  0.058835731   -2.9531912    1.2663733   547498 
  735000    1.0011188    -2.953706    -2.953706   -1.6853222  0.064542242    -2.953706    1.2683837   547498 
  736000    1.0010491   -2.9539872   -2.9539872   -1.6856917  0.053380852   -2.9539872    1.2682954   547498 
  737000    1.0012136   -2.9541353   -2.9541353   -1.6856315  0.070094106   -2.9541353    1.2685038   547498 
  738000   0.99966644   -2.9529082   -2.9529082   -1.6863645  0.064537362   -2.9529082    1.2665437   547498 
  739000    1.0026825   -2.9565822   -2.9565822   -1.6862173   0.05147561   -2.9565822    1.2703649   547498 
  740000    1.0012431   -2.9540442   -2.9540442   -1.6855029  0.062459555   -2.9540442    1.2685413   547498 
  741000    1.0008177   -2.9535232   -2.9535232   -1.6855209  0.056813508   -2.9535232    1.2680023   547498 
  742000   0.99962354   -2.9528606   -2.9528606   -1.6863713  0.055482468   -2.9528606    1.2664893   547498 
  743000    1.0000359   -2.9529131   -2.9529131   -1.6859014  0.057938945   -2.9529131    1.2670117   547498 
  744000   0.99945946   -2.9513296   -2.9513296   -1.6850482  0.063387638   -2.9513296    1.2662814   547498 
  745000    1.0012618   -2.9552622   -2.9552622   -1.6866972  0.060676662   -2.9552622     1.268565   547498 
  746000    1.0003089   -2.9545501   -2.9545501   -1.6871924  0.058934551   -2.9545501    1.2673577   547498 
  747000    1.0009694   -2.9549768   -2.9549768   -1.6867823  0.053701763   -2.9549768    1.2681945   547498 
  748000    1.0000086   -2.9537007   -2.9537007   -1.6867236  0.055523134   -2.9537007    1.2669771   547498 
  749000   0.99915483   -2.9521667   -2.9521667   -1.6862713  0.054489917   -2.9521667    1.2658955   547498 
  750000     1.000648   -2.9532376   -2.9532376   -1.6854504  0.060830149   -2.9532376    1.2677872   547498 
  751000   0.99934655   -2.9512829   -2.9512829   -1.6851445  0.056040834   -2.9512829    1.2661384   547498 
  752000   0.99858455   -2.9506733   -2.9506733   -1.6855004  0.056384318   -2.9506733    1.2651729   547498 
  753000   0.99926973   -2.9518468   -2.9518468   -1.6858057  0.055533268   -2.9518468     1.266041   547498 
  754000    1.0005832   -2.9537038   -2.9537038   -1.6859986  0.057290377   -2.9537038    1.2677052   547498 
  755000    1.0014194   -2.9539271   -2.9539271   -1.6851625  0.062743755   -2.9539271    1.2687646   547498 
  756000   0.99986406   -2.9516092   -2.9516092   -1.6848151  0.063205852   -2.9516092     1.266794   547498 
  757000    1.0004353   -2.9523243   -2.9523243   -1.6848065  0.061409162   -2.9523243    1.2675178   547498 
  758000   0.99992703   -2.9514879   -2.9514879   -1.6846141  0.055191043   -2.9514879    1.2668738   547498 
  759000   0.99940562   -2.9498092   -2.9498092    -1.683596  0.059916242   -2.9498092    1.2662132   547498 
  760000   0.99962109   -2.9498319   -2.9498319   -1.6833457  0.067585124   -2.9498319    1.2664862   547498 
  761000     0.999712   -2.9500928   -2.9500928   -1.6834914  0.052294158   -2.9500928    1.2666014   547498 
  762000    1.0003626     -2.95097     -2.95097   -1.6835442  0.057664605     -2.95097    1.2674257   547498 
  763000   0.99984805   -2.9497712   -2.9497712   -1.6829974  0.067828211   -2.9497712    1.2667738   547498 
  764000    1.0012065     -2.95145     -2.95145   -1.6829552   0.05512272     -2.95145    1.2684948   547498 
  765000   0.99945563   -2.9497463   -2.9497463   -1.6834697  0.053265116   -2.9497463    1.2662766   547498 
  766000   0.99907871   -2.9491496   -2.9491496   -1.6833506  0.053164042   -2.9491496     1.265799   547498 
  767000   0.99916803   -2.9498963   -2.9498963   -1.6839841  0.062767489   -2.9498963    1.2659122   547498 
  768000   0.99982221    -2.949936    -2.949936    -1.683195  0.064501977    -2.949936     1.266741   547498 
  769000    1.0005849   -2.9509986   -2.9509986   -1.6832913   0.05749342   -2.9509986    1.2677073   547498 
  770000   0.99998589   -2.9504917   -2.9504917   -1.6835433  0.061065241   -2.9504917    1.2669484   547498 
  771000    1.0008248   -2.9509902   -2.9509902   -1.6829789  0.058313798   -2.9509902    1.2680112   547498 
  772000    1.0000208   -2.9510245   -2.9510245   -1.6840319  0.061353915   -2.9510245    1.2669926   547498 
  773000    1.0022634   -2.9539726   -2.9539726   -1.6841387  0.065193218   -2.9539726    1.2698339   547498 
  774000    0.9996512   -2.9519872   -2.9519872   -1.6854628  0.053500636   -2.9519872    1.2665243   547498 
  775000    1.0002608   -2.9529712   -2.9529712   -1.6856745  0.061114788   -2.9529712    1.2672967   547498 
  776000   0.99944353   -2.9524134   -2.9524134   -1.6861522  0.055570981   -2.9524134    1.2662612   547498 
  777000   0.99980792    -2.953118    -2.953118   -1.6863951  0.056461701    -2.953118    1.2667229   547498 
  778000   0.99962873   -2.9533365   -2.9533365   -1.6868407  0.048264148   -2.9533365    1.2664959   547498 
  779000    1.0006387   -2.9540641   -2.9540641   -1.6862886   0.05634885   -2.9540641    1.2677755   547498 
  780000    1.0000272   -2.9535065   -2.9535065   -1.6865058  0.054871092   -2.9535065    1.2670007   547498 
  781000   0.99839548   -2.9523787   -2.9523787   -1.6874453  0.067862271   -2.9523787    1.2649334   547498 
  782000   0.99936586   -2.9539609   -2.9539609   -1.6877981  0.047922837   -2.9539609    1.2661628   547498 
  783000   0.99835036   -2.9523905   -2.9523905   -1.6875143  0.052604321   -2.9523905    1.2648762   547498 
  784000   0.99855813   -2.9528236   -2.9528236   -1.6876841  0.061042157   -2.9528236    1.2651395   547498 
  785000   0.99825878   -2.9521255   -2.9521255   -1.6873653   0.06119802   -2.9521255    1.2647602   547498 
  786000    0.9995919   -2.9533001   -2.9533001   -1.6868509  0.051993916   -2.9533001    1.2664492   547498 
  787000    1.0000708   -2.9548865   -2.9548865   -1.6878305  0.051896242   -2.9548865     1.267056   547498 
  788000    0.9984781   -2.9530408   -2.9530408   -1.6880027  0.062409875   -2.9530408    1.2650381   547498 
  789000    1.0006323    -2.955205    -2.955205   -1.6874377  0.074419304    -2.955205    1.2677673   547498 
  790000    1.0020551   -2.9574902   -2.9574902   -1.6879201  0.054453768   -2.9574902      1.26957   547498 
  791000    1.0008053   -2.9559375   -2.9559375    -1.687951  0.060445642   -2.9559375    1.2679865   547498 
  792000    1.0014074   -2.9563987   -2.9563987   -1.6876493  0.054111865   -2.9563987    1.2687494   547498 
  793000    1.0019783   -2.9561753   -2.9561753   -1.6867026  0.067284142   -2.9561753    1.2694727   547498 
  794000    1.0000584   -2.9539978   -2.9539978   -1.6869576  0.064919081   -2.9539978    1.2670402   547498 
  795000   0.99929511   -2.9532585   -2.9532585   -1.6871853  0.055862084   -2.9532585    1.2660732   547498 
  796000   0.99976798   -2.9533534   -2.9533534   -1.6866811  0.052771029   -2.9533534    1.2666723   547498 
  797000   0.99911828   -2.9523713   -2.9523713   -1.6865221  0.063147332   -2.9523713    1.2658492   547498 
  798000    0.9995013   -2.9528935   -2.9528935    -1.686559  0.055252892   -2.9528935    1.2663344   547498 
  799000   0.99830626    -2.951071    -2.951071   -1.6862506   0.05169727    -2.951071    1.2648204   547498 
  800000   0.99889688   -2.9516705   -2.9516705   -1.6861019  0.059853134   -2.9516705    1.2655687   547498 
  801000   0.99856555   -2.9524996   -2.9524996   -1.6873507  0.056659994   -2.9524996    1.2651489   547498 
  802000    1.0019908   -2.9561157   -2.9561157   -1.6866271  0.054717018   -2.9561157    1.2694886   547498 
  803000    1.0001521   -2.9530999   -2.9530999   -1.6859409  0.070526831   -2.9530999     1.267159   547498 
  804000    1.0011799   -2.9547491   -2.9547491   -1.6862879  0.061659211   -2.9547491    1.2684612   547498 
  805000    1.0005452   -2.9536955   -2.9536955   -1.6860385   0.05818584   -2.9536955     1.267657   547498 
  806000    1.0009399   -2.9538231   -2.9538231   -1.6856661  0.055485159   -2.9538231     1.268157   547498 
  807000    1.0003817   -2.9536605   -2.9536605   -1.6862106  0.059074335   -2.9536605    1.2674499   547498 
  808000   0.99879801   -2.9514038   -2.9514038   -1.6859605  0.067010003   -2.9514038    1.2654434   547498 
  809000   0.99676554   -2.9488126   -2.9488126   -1.6859442  0.067432718   -2.9488126    1.2628683   547498 
  810000   0.99769958   -2.9503382   -2.9503382   -1.6862865  0.059277602   -2.9503382    1.2640517   547498 
  811000   0.99878033   -2.9519571   -2.9519571   -1.6865361  0.055524785   -2.9519571     1.265421   547498 
  812000   0.99939842   -2.9531587   -2.9531587   -1.6869546  0.063304146   -2.9531587    1.2662041   547498 
  813000   0.99925426   -2.9524069   -2.9524069   -1.6863855  0.058031475   -2.9524069    1.2660214   547498 
  814000   0.99898131    -2.952676    -2.952676   -1.6870004  0.058746655    -2.952676    1.2656756   547498 
  815000   0.99938456   -2.9527116   -2.9527116    -1.686525  0.065620176   -2.9527116    1.2661865   547498 
  816000    0.9991828   -2.9531662   -2.9531662   -1.6872353  0.062807057   -2.9531662    1.2659309   547498 
  817000     0.999187   -2.9533587   -2.9533587   -1.6874225  0.057361564   -2.9533587    1.2659362   547498 
  818000    1.0002454   -2.9547389   -2.9547389   -1.6874617  0.060669709   -2.9547389    1.2672771   547498 
  819000     1.000384   -2.9555102   -2.9555102   -1.6880574  0.068503841   -2.9555102    1.2674528   547498 
  820000    1.0009983   -2.9571721   -2.9571721    -1.688941  0.059458133   -2.9571721     1.268231   547498 
  821000     1.000439   -2.9566771   -2.9566771   -1.6891546   0.06508747   -2.9566771    1.2675225   547498 
  822000   0.99983967   -2.9564059   -2.9564059   -1.6896427  0.064412946   -2.9564059    1.2667631   547498 
  823000   0.99986196   -2.9563721   -2.9563721   -1.6895807  0.057935665   -2.9563721    1.2667914   547498 
  824000   0.99967338   -2.9560863   -2.9560863   -1.6895338  0.057859459   -2.9560863    1.2665525   547498 
  825000   0.99916982   -2.9561629   -2.9561629   -1.6902484  0.065467447   -2.9561629    1.2659145   547498 
  826000    1.0007585    -2.957986    -2.957986   -1.6900587  0.066557436    -2.957986    1.2679273   547498 
  827000   0.99947351   -2.9562827   -2.9562827   -1.6899834  0.062035817   -2.9562827    1.2662992   547498 
  828000    1.0000277   -2.9567779   -2.9567779   -1.6897765  0.063875389   -2.9567779    1.2670014   547498 
  829000   0.99829072   -2.9553089   -2.9553089   -1.6905082  0.059983355   -2.9553089    1.2648007   547498 
  830000   0.99917444   -2.9560896   -2.9560896   -1.6901693  0.057849404   -2.9560896    1.2659203   547498 
  831000   0.99762166   -2.9546119   -2.9546119   -1.6906589  0.061877872   -2.9546119     1.263953   547498 
  832000   0.99915393    -2.955773    -2.955773   -1.6898787  0.062337298    -2.955773    1.2658943   547498 
  833000   0.99924346   -2.9555208   -2.9555208    -1.689513  0.059203833   -2.9555208    1.2660078   547498 
  834000   0.99879447    -2.954474    -2.954474   -1.6890351  0.048671676    -2.954474    1.2654389   547498 
  835000    0.9990524   -2.9545485   -2.9545485   -1.6887828  0.061242227   -2.9545485    1.2657657   547498 
  836000   0.99847712   -2.9529725   -2.9529725   -1.6879357  0.061032226   -2.9529725    1.2650368   547498 
  837000   0.99960536   -2.9538249   -2.9538249   -1.6873586   0.04896159   -2.9538249    1.2664663   547498 
  838000   0.99786811   -2.9522978   -2.9522978   -1.6880325  0.054072104   -2.9522978    1.2642652   547498 
  839000   0.99944043   -2.9547706   -2.9547706   -1.6885133  0.054900607   -2.9547706    1.2662573   547498 
  840000   0.99922944   -2.9551371   -2.9551371   -1.6891471  0.062607326   -2.9551371      1.26599   547498 
  841000   0.99843441   -2.9530567   -2.9530567    -1.688074  0.062335056   -2.9530567    1.2649827   547498 
  842000   0.99698827   -2.9519512   -2.9519512   -1.6888007  0.061102312   -2.9519512    1.2631505   547498 
  843000   0.99880611   -2.9534671   -2.9534671   -1.6880134  0.052277258   -2.9534671    1.2654536   547498 
  844000   0.99882688   -2.9534707   -2.9534707   -1.6879907  0.056873212   -2.9534707      1.26548   547498 
  845000   0.99869611   -2.9525395   -2.9525395   -1.6872252  0.060180809   -2.9525395    1.2653143   547498 
  846000    1.0004504   -2.9545051   -2.9545051   -1.6869681  0.057940636   -2.9545051     1.267537   547498 
  847000    0.9981948   -2.9521359   -2.9521359   -1.6874568  0.063031777   -2.9521359    1.2646791   547498 
  848000   0.99851566   -2.9539322   -2.9539322   -1.6888466  0.064009242   -2.9539322    1.2650857   547498 
  849000   0.99958626   -2.9551106   -2.9551106   -1.6886685  0.049601837   -2.9551106    1.2664421   547498 
  850000   0.99976801   -2.9567947   -2.9567947   -1.6901224  0.060323506   -2.9567947    1.2666723   547498 
  851000   0.99963431   -2.9577225   -2.9577225   -1.6912196   0.06512132   -2.9577225    1.2665029   547498 
  852000   0.99997615   -2.9577815   -2.9577815   -1.6908455  0.060406255   -2.9577815    1.2669361   547498 
  853000    1.0005753   -2.9584535   -2.9584535   -1.6907583  0.057192156   -2.9584535    1.2676952   547498 
  854000    1.0004693   -2.9583333   -2.9583333   -1.6907724  0.059431252   -2.9583333    1.2675608   547498 
  855000   0.99875622   -2.9571513   -2.9571513   -1.6917609  0.070495785   -2.9571513    1.2653904   547498 
  856000    1.0001201   -2.9589117   -2.9589117   -1.6917933   0.05758355   -2.9589117    1.2671184   547498 
  857000   0.99915819   -2.9581276   -2.9581276   -1.6922279   0.05986801   -2.9581276    1.2658997   547498 
  858000    0.9987578   -2.9572234   -2.9572234   -1.6918309  0.056810962   -2.9572234    1.2653924   547498 
  859000   0.99794889   -2.9563741   -2.9563741   -1.6920065   0.06342601   -2.9563741    1.2643676   547498 
  860000   0.99943174   -2.9591741   -2.9591741   -1.6929277  0.060922825   -2.9591741    1.2662463   547498 
  861000    1.0000198   -2.9581629   -2.9581629   -1.6911716  0.057462056   -2.9581629    1.2669913   547498 
  862000   0.99936317   -2.9565862   -2.9565862   -1.6904267  0.061282121   -2.9565862    1.2661594   547498 
  863000    1.0001461   -2.9574988   -2.9574988   -1.6903474  0.050853315   -2.9574988    1.2671514   547498 
  864000    0.9997716   -2.9570479   -2.9570479    -1.690371   0.05684145   -2.9570479    1.2666769   547498 
  865000   0.99903273   -2.9561859   -2.9561859   -1.6904452  0.056156026   -2.9561859    1.2657408   547498 
  866000   0.99957491   -2.9573644   -2.9573644   -1.6909367  0.055342177   -2.9573644    1.2664277   547498 
  867000    1.0010298   -2.9588507   -2.9588507   -1.6905796  0.064127032   -2.9588507     1.268271   547498 
  868000    1.0003324   -2.9585223   -2.9585223   -1.6911349  0.054619998   -2.9585223    1.2673874   547498 
  869000   0.99918445   -2.9585051   -2.9585051   -1.6925721  0.047851412   -2.9585051     1.265933   547498 
  870000   0.99880298   -2.9561715   -2.9561715   -1.6907219  0.057232007   -2.9561715    1.2654497   547498 
  871000   0.99996344   -2.9581298   -2.9581298   -1.6912098  0.056090933   -2.9581298      1.26692   547498 
  872000   0.99929152   -2.9578228   -2.9578228   -1.6917541  0.054108375   -2.9578228    1.2660687   547498 
  873000    1.0002098   -2.9584898   -2.9584898   -1.6912578  0.057715056   -2.9584898     1.267232   547498 
  874000   0.99884633   -2.9572859   -2.9572859   -1.6917813  0.064070055   -2.9572859    1.2655046   547498 
  875000     0.997224   -2.9558204   -2.9558204   -1.6923712  0.061109896   -2.9558204    1.2634492   547498 
  876000   0.99845436    -2.957315    -2.957315    -1.692307  0.059757275    -2.957315     1.265008   547498 
  877000   0.99884533   -2.9574552   -2.9574552   -1.6919518  0.052861266   -2.9574552    1.2655033   547498 
  878000   0.99764297   -2.9564416   -2.9564416   -1.6924616  0.060724122   -2.9564416      1.26398   547498 
  879000   0.99934012   -2.9585676   -2.9585676   -1.6924374   0.05459585   -2.9585676    1.2661302   547498 
  880000   0.99744852   -2.9567608   -2.9567608   -1.6930272  0.060305628   -2.9567608    1.2637336   547498 
  881000   0.99755218   -2.9560905   -2.9560905   -1.6922255  0.059696827   -2.9560905     1.263865   547498 
  882000   0.99825397   -2.9561414   -2.9561414   -1.6913873  0.064124163   -2.9561414    1.2647541   547498 
  883000    1.0011321   -2.9595429   -2.9595429   -1.6911423  0.051824885   -2.9595429    1.2684007   547498 
  884000    1.0005256   -2.9591424   -2.9591424   -1.6915102  0.053089737   -2.9591424    1.2676322   547498 
  885000   0.99880582   -2.9569924   -2.9569924   -1.6915392  0.064480917   -2.9569924    1.2654533   547498 
  886000    0.9986628   -2.9572696   -2.9572696   -1.6919975    0.0472898   -2.9572696    1.2652721   547498 
  887000   0.99866302    -2.958041    -2.958041   -1.6927687  0.054430119    -2.958041    1.2652724   547498 
  888000   0.99894019   -2.9575469   -2.9575469   -1.6919234  0.055962392   -2.9575469    1.2656235   547498 
  889000   0.99832215   -2.9565231   -2.9565231   -1.6916826  0.062340977   -2.9565231    1.2648405   547498 
  890000   0.99774397   -2.9569724   -2.9569724   -1.6928644  0.063199312   -2.9569724     1.264108   547498 
  891000   0.99935181   -2.9573998   -2.9573998   -1.6912547  0.057934963   -2.9573998     1.266145   547498 
  892000   0.99937945    -2.957476    -2.957476   -1.6912959  0.062632013    -2.957476    1.2661801   547498 
  893000    1.0000824   -2.9586453   -2.9586453   -1.6915746  0.056629698   -2.9586453    1.2670706   547498 
  894000   0.99930633   -2.9578076   -2.9578076   -1.6917202  0.062425495   -2.9578076    1.2660874   547498 
  895000   0.99954761   -2.9585838   -2.9585838   -1.6921906  0.056352804   -2.9585838    1.2663931   547498 
  896000   0.99974901   -2.9593419   -2.9593419   -1.6926937  0.057460568   -2.9593419    1.2666483   547498 
  897000   0.99796791   -2.9577002   -2.9577002   -1.6933085  0.059320289   -2.9577002    1.2643917   547498 
  898000   0.99854862   -2.9596152   -2.9596152   -1.6944878    0.0589348   -2.9596152    1.2651274   547498 
  899000   0.99865675   -2.9585975   -2.9585975   -1.6933331  0.059958117   -2.9585975    1.2652644   547498 
  900000    1.0004381   -2.9606847   -2.9606847   -1.6931635  0.051023142   -2.9606847    1.2675213   547498 
  901000   0.99921185    -2.958163    -2.958163   -1.6921953  0.056511601    -2.958163    1.2659677   547498 
  902000    1.0005178   -2.9599216   -2.9599216   -1.6922994  0.060864484   -2.9599216    1.2676223   547498 
  903000    1.0001897   -2.9592877   -2.9592877   -1.6920811  0.060629504   -2.9592877    1.2672066   547498 
  904000    1.0017971   -2.9608937   -2.9608937   -1.6916505  0.065778924   -2.9608937    1.2692432   547498 
  905000    1.0005976   -2.9600503   -2.9600503   -1.6923269  0.058686334   -2.9600503    1.2677234   547498 
  906000   0.99962311   -2.9591045   -2.9591045   -1.6926158  0.061381786   -2.9591045    1.2664888   547498 
  907000   0.99987694    -2.959528    -2.959528   -1.6927177    0.0576656    -2.959528    1.2668104   547498 
  908000   0.99971057   -2.9597095   -2.9597095     -1.69311  0.055724029   -2.9597095    1.2665996   547498 
  909000   0.99967167   -2.9602337   -2.9602337   -1.6936834  0.064624342   -2.9602337    1.2665503   547498 
  910000    1.0001323   -2.9610313   -2.9610313   -1.6938974   0.05516403   -2.9610313    1.2671339   547498 
  911000    1.0004115   -2.9602778   -2.9602778   -1.6927902  0.056790651   -2.9602778    1.2674876   547498 
  912000    1.0005724   -2.9607615   -2.9607615     -1.69307   0.05526389   -2.9607615    1.2676915   547498 
  913000   0.99921211   -2.9594707   -2.9594707   -1.6935026   0.06440626   -2.9594707     1.265968   547498 
  914000   0.99849319   -2.9588908   -2.9588908   -1.6938336  0.053250236   -2.9588908    1.2650572   547498 
  915000   0.99968525    -2.959778    -2.959778   -1.6932105  0.053517047    -2.959778    1.2665675   547498 
  916000    0.9995555     -2.95933     -2.95933   -1.6929269  0.065510925     -2.95933    1.2664031   547498 
  917000    1.0000037   -2.9593466   -2.9593466   -1.6923757  0.069542782   -2.9593466    1.2669709   547498 
  918000    1.0003987   -2.9593046   -2.9593046   -1.6918332  0.056971526   -2.9593046    1.2674714   547498 
  919000   0.99772077   -2.9558248   -2.9558248   -1.6917463  0.067541352   -2.9558248    1.2640786   547498 
  920000   0.99946958   -2.9582186   -2.9582186   -1.6919243  0.053754555   -2.9582186    1.2662942   547498 
  921000    0.9992627    -2.958683    -2.958683   -1.6926508  0.063220394    -2.958683    1.2660321   547498 
  922000    1.0003885   -2.9603765   -2.9603765   -1.6929181  0.058109098   -2.9603765    1.2674584   547498 
  923000     0.999683   -2.9587112   -2.9587112   -1.6921465  0.059544144   -2.9587112    1.2665646   547498 
  924000   0.99920748   -2.9575432   -2.9575432    -1.691581  0.054782521   -2.9575432    1.2659622   547498 
  925000    1.0001828   -2.9588815   -2.9588815   -1.6916836  0.060916502   -2.9588815    1.2671979   547498 
  926000   0.99955972   -2.9584274   -2.9584274   -1.6920189  0.062230867   -2.9584274    1.2664085   547498 
  927000   0.99991143   -2.9588968   -2.9588968   -1.6920427  0.051929499   -2.9588968    1.2668541   547498 
  928000   0.99959649   -2.9587387   -2.9587387   -1.6922836  0.051896944   -2.9587387     1.266455   547498 
  929000   0.99977206   -2.9581805   -2.9581805    -1.691503  0.051968155   -2.9581805    1.2666775   547498 
  930000   0.99915638   -2.9580197   -2.9580197   -1.6921223  0.057002058   -2.9580197    1.2658974   547498 
  931000   0.99895606   -2.9574847   -2.9574847   -1.6918411  0.048583354   -2.9574847    1.2656436   547498 
  932000   0.99991627   -2.9593353   -2.9593353   -1.6924751  0.054089273   -2.9593353    1.2668602   547498 
  933000    0.9978441   -2.9567273   -2.9567273   -1.6924925  0.055617034   -2.9567273    1.2642348   547498 
  934000   0.99836357    -2.957311    -2.957311   -1.6924181  0.055723782    -2.957311     1.264893   547498 
  935000   0.99837118   -2.9565504   -2.9565504   -1.6916478  0.052896523   -2.9565504    1.2649026   547498 
  936000      1.00019   -2.9589033   -2.9589033   -1.6916963  0.063127112   -2.9589033     1.267207   547498 
  937000   0.99985027   -2.9593229   -2.9593229   -1.6925463  0.059324453   -2.9593229    1.2667766   547498 
  938000   0.99952559    -2.958148    -2.958148   -1.6917828  0.067247157    -2.958148    1.2663652   547498 
  939000    1.0004652    -2.959869    -2.959869   -1.6923134  0.056100867    -2.959869    1.2675557   547498 
  940000   0.99918085   -2.9594015   -2.9594015   -1.6934731  0.053345711   -2.9594015    1.2659284   547498 
  941000    1.0003852   -2.9607925   -2.9607925   -1.6933382  0.053795384   -2.9607925    1.2674543   547498 
  942000   0.99965313   -2.9604032   -2.9604032   -1.6938764  0.060786983   -2.9604032    1.2665268   547498 
  943000   0.99904232   -2.9594132   -2.9594132   -1.6936603   0.05771981   -2.9594132    1.2657529   547498 
  944000    1.0003565    -2.961381    -2.961381    -1.693963  0.069091161    -2.961381    1.2674179   547498 
  945000   0.99881422   -2.9587968   -2.9587968   -1.6933329  0.059814688   -2.9587968    1.2654639   547498 
  946000   0.99914149   -2.9605046   -2.9605046   -1.6946261  0.058974499   -2.9605046    1.2658786   547498 
  947000   0.99709623   -2.9576618   -2.9576618   -1.6943745  0.052582664   -2.9576618    1.2632873   547498 
  948000   0.99818167   -2.9596811   -2.9596811   -1.6950186  0.059817056   -2.9596811    1.2646625   547498 
  949000   0.99856875   -2.9597184   -2.9597184   -1.6945655  0.058871149   -2.9597184    1.2651529   547498 
  950000   0.99806808    -2.959627    -2.959627   -1.6951084  0.053261646    -2.959627    1.2645186   547498 
  951000   0.99830688   -2.9590592   -2.9590592   -1.6942381  0.042021309   -2.9590592    1.2648211   547498 
  952000   0.99715164   -2.9575191   -2.9575191   -1.6941616  0.054998332   -2.9575191    1.2633575   547498 
  953000    1.0004265    -2.961421    -2.961421   -1.6939144  0.055114211    -2.961421    1.2675066   547498 
  954000   0.99941001   -2.9603611   -2.9603611   -1.6941423   0.05032888   -2.9603611    1.2662188   547498 
  955000   0.99696493   -2.9575161   -2.9575161   -1.6943952  0.062966544   -2.9575161    1.2631209   547498 
  956000   0.99724534   -2.9573472   -2.9573472   -1.6938709  0.055908785   -2.9573472    1.2634762   547498 
  957000   0.99858316   -2.9587643   -2.9587643   -1.6935931  0.069622241   -2.9587643    1.2651712   547498 
  958000   0.99712324    -2.957227    -2.957227   -1.6939054  0.050299608    -2.957227    1.2633215   547498 
  959000   0.99965413   -2.9590733   -2.9590733   -1.6925452  0.069527964   -2.9590733    1.2665281   547498 
  960000   0.99884861   -2.9588318   -2.9588318   -1.6933243   0.06311672   -2.9588318    1.2655075   547498 
  961000   0.99949916    -2.959466    -2.959466   -1.6931343  0.060670427    -2.959466    1.2663317   547498 
  962000   0.99971646    -2.960623    -2.960623   -1.6940159  0.054650419    -2.960623     1.266607   547498 
  963000    0.9990961   -2.9604107   -2.9604107   -1.6945897  0.046487142   -2.9604107    1.2658211   547498 
  964000   0.99948564   -2.9608941   -2.9608941   -1.6945795  0.058531486   -2.9608941    1.2663146   547498 
  965000   0.99983368   -2.9617811   -2.9617811   -1.6950255  0.062657408   -2.9617811    1.2667556   547498 
  966000   0.99823159   -2.9604499   -2.9604499   -1.6957242  0.063719008   -2.9604499    1.2647258   547498 
  967000   0.99776873   -2.9597767   -2.9597767   -1.6956374  0.060006111   -2.9597767    1.2641393   547498 
  968000   0.99966097   -2.9616299   -2.9616299   -1.6950932  0.063580065   -2.9616299    1.2665367   547498 
  969000   0.99818372   -2.9603984   -2.9603984   -1.6957333  0.053348729   -2.9603984    1.2646651   547498 
  970000   0.99955221   -2.9614737   -2.9614737   -1.6950748  0.056203809   -2.9614737    1.2663989   547498 
  971000   0.99886976   -2.9608218   -2.9608218   -1.6952875  0.059119013   -2.9608218    1.2655343   547498 
  972000   0.99804013   -2.9597533   -2.9597533   -1.6952701  0.062892213   -2.9597533    1.2644832   547498 
  973000   0.99873607   -2.9598593   -2.9598593   -1.6944944  0.070297949   -2.9598593    1.2653649   547498 
  974000     1.000212    -2.962089    -2.962089   -1.6948542  0.058431321    -2.962089    1.2672349   547498 
  975000    1.0013869   -2.9629147   -2.9629147   -1.6941913  0.057480359   -2.9629147    1.2687235   547498 
  976000    1.0002035   -2.9620211   -2.9620211    -1.694797  0.058663239   -2.9620211    1.2672241   547498 
  977000    1.0014623   -2.9630216   -2.9630216   -1.6942026  0.059747333   -2.9630216     1.268819   547498 
  978000    1.0005263   -2.9617696   -2.9617696   -1.6941366  0.062635452   -2.9617696     1.267633   547498 
  979000   0.99893485   -2.9601081   -2.9601081   -1.6944913  0.051991877   -2.9601081    1.2656168   547498 
  980000    1.0003337   -2.9620155   -2.9620155   -1.6946265  0.058440302   -2.9620155     1.267389   547498 
  981000    1.0003732   -2.9612759   -2.9612759   -1.6938368  0.050459427   -2.9612759    1.2674391   547498 
  982000    0.9990581   -2.9598288   -2.9598288   -1.6940559  0.060314915   -2.9598288    1.2657729   547498 
  983000    1.0008899   -2.9622736   -2.9622736   -1.6941799  0.056731372   -2.9622736    1.2680938   547498 
  984000    1.0009204   -2.9628565   -2.9628565   -1.6947241  0.058156234   -2.9628565    1.2681323   547498 
  985000    1.0000071   -2.9621514   -2.9621514   -1.6951761  0.057633774   -2.9621514    1.2669753   547498 
  986000    0.9992782   -2.9629045   -2.9629045   -1.6968527  0.057252586   -2.9629045    1.2660518   547498 
  987000   0.99986855   -2.9639853   -2.9639853   -1.6971856  0.066223392   -2.9639853    1.2667997   547498 
  988000   0.99899948   -2.9639117   -2.9639117    -1.698213  0.062818568   -2.9639117    1.2656986   547498 
  989000   0.99862236    -2.962553    -2.962553   -1.6973322  0.065981461    -2.962553    1.2652208   547498 
  990000   0.99891353   -2.9630934   -2.9630934   -1.6975037  0.058754377   -2.9630934    1.2655897   547498 
  991000   0.99956991   -2.9643184   -2.9643184   -1.6978971   0.06244001   -2.9643184    1.2664214   547498 
  992000    0.9991772   -2.9637976   -2.9637976   -1.6978738  0.055725069   -2.9637976    1.2659238   547498 
  993000   0.99927484   -2.9627721   -2.9627721   -1.6967246  0.060015451   -2.9627721    1.2660475   547498 
  994000   0.99946348   -2.9632284   -2.9632284   -1.6969419  0.061744943   -2.9632284    1.2662865   547498 
  995000   0.99930184   -2.9639679   -2.9639679   -1.6978862  0.063784451   -2.9639679    1.2660817   547498 
  996000   0.99986959   -2.9646116   -2.9646116   -1.6978106  0.055995579   -2.9646116     1.266801   547498 
  997000   0.99848571   -2.9627813   -2.9627813   -1.6977335  0.052171038   -2.9627813    1.2650477   547498 
  998000   0.99956736    -2.964192    -2.964192   -1.6977739  0.050517638    -2.964192    1.2664181   547498 
  999000   0.99811082    -2.963615    -2.963615   -1.6990422  0.060620297    -2.963615    1.2645727   547498 
 1000000    0.9988367   -2.9635885   -2.9635885   -1.6980961  0.054090228   -2.9635885    1.2654924   547498 
 1001000   0.99801243   -2.9632201   -2.9632201    -1.698772  0.059610271   -2.9632201    1.2644481   547498 
 1002000   0.99753936   -2.9628265   -2.9628265   -1.6989778  0.053223109   -2.9628265    1.2638487   547498 
 1003000   0.99906209   -2.9640264   -2.9640264   -1.6982484  0.059080792   -2.9640264     1.265778   547498 
 1004000    0.9987897   -2.9635497   -2.9635497   -1.6981169  0.063821813   -2.9635497    1.2654329   547498 
 1005000    1.0003779   -2.9656021   -2.9656021   -1.6981571  0.053964082   -2.9656021     1.267445   547498 
 1006000   0.99938402   -2.9650216   -2.9650216   -1.6988358  0.048426074   -2.9650216    1.2661858   547498 
 1007000   0.99930156   -2.9646098   -2.9646098   -1.6985285  0.059887065   -2.9646098    1.2660814   547498 
 1008000   0.99826722   -2.9643318   -2.9643318   -1.6995609    0.0610158   -2.9643318    1.2647709   547498 
 1009000   0.99822635   -2.9642425   -2.9642425   -1.6995234  0.047322263   -2.9642425    1.2647191   547498 
 1010000   0.99856873   -2.9643955   -2.9643955   -1.6992426  0.057843901   -2.9643955    1.2651529   547498 
 1011000   0.99850502   -2.9645407   -2.9645407   -1.6994685  0.062839004   -2.9645407    1.2650722   547498 
 1012000   0.99858746   -2.9646462   -2.9646462   -1.6994695  0.054882699   -2.9646462    1.2651766   547498 
 1013000   0.99949644   -2.9654632   -2.9654632    -1.699135  0.064322019   -2.9654632    1.2663283   547498 
 1014000    1.0000175   -2.9657955   -2.9657955    -1.698807  0.067838911   -2.9657955    1.2669884   547498 
 1015000   0.99928938   -2.9651835   -2.9651835   -1.6991176   0.06673917   -2.9651835    1.2660659   547498 
 1016000    1.0009917   -2.9679634   -2.9679634   -1.6997407  0.061158375   -2.9679634    1.2682227   547498 
 1017000    1.0007407   -2.9671439   -2.9671439   -1.6992392  0.064705482   -2.9671439    1.2679047   547498 
 1018000   0.99999376   -2.9661238   -2.9661238   -1.6991655  0.063387234   -2.9661238    1.2669584   547498 
 1019000   0.99952259   -2.9645889   -2.9645889   -1.6982275  0.057275594   -2.9645889    1.2663614   547498 
 1020000   0.99997496   -2.9649637   -2.9649637   -1.6980292  0.055364214   -2.9649637    1.2669346   547498 
 1021000    1.0006295   -2.9658552   -2.9658552   -1.6980913  0.056850718   -2.9658552    1.2677638   547498 
 1022000    1.0000771   -2.9656844   -2.9656844   -1.6986205  0.063614361   -2.9656844    1.2670639   547498 
 1023000    1.0007932   -2.9657237   -2.9657237   -1.6977524  0.064323646   -2.9657237    1.2679712   547498 
 1024000    1.0004333   -2.9657076   -2.9657076   -1.6981923  0.065874313   -2.9657076    1.2675153   547498 
 1025000     1.000979   -2.9660699   -2.9660699   -1.6978632  0.057198694   -2.9660699    1.2682066   547498 
 1026000   0.99824768    -2.963562    -2.963562   -1.6988159   0.06052908    -2.963562    1.2647461   547498 
 1027000   0.99853591   -2.9627692   -2.9627692   -1.6976579  0.059538496   -2.9627692    1.2651113   547498 
 1028000   0.99998662   -2.9636885   -2.9636885   -1.6967392  0.050410676   -2.9636885    1.2669493   547498 
 1029000    1.0000086   -2.9642503   -2.9642503    -1.697273  0.050682983   -2.9642503    1.2669772   547498 
 1030000    0.9996067    -2.963929    -2.963929    -1.697461  0.049517014    -2.963929     1.266468   547498 
 1031000   0.99913949   -2.9626198   -2.9626198   -1.6967437  0.055397492   -2.9626198     1.265876   547498 
 1032000    1.0003064   -2.9635016   -2.9635016   -1.6961471  0.059293566   -2.9635016    1.2673545   547498 
 1033000    1.0001427   -2.9635652   -2.9635652    -1.696418  0.056723402   -2.9635652    1.2671471   547498 
 1034000   0.99882427   -2.9616857   -2.9616857   -1.6962091  0.056419606   -2.9616857    1.2654767   547498 
 1035000    1.0005345   -2.9644608   -2.9644608   -1.6968174  0.058751692   -2.9644608    1.2676434   547498 
 1036000   0.99964269    -2.963968    -2.963968   -1.6974544  0.061106792    -2.963968    1.2665136   547498 
 1037000     0.998459   -2.9630639   -2.9630639     -1.69805  0.061602198   -2.9630639    1.2650139   547498 
 1038000    0.9975129   -2.9623846   -2.9623846   -1.6985694  0.048778583   -2.9623846    1.2638152   547498 
 1039000   0.99844275   -2.9642767   -2.9642767   -1.6992834  0.050705352   -2.9642767    1.2649933   547498 
 1040000   0.99815472   -2.9631922   -2.9631922   -1.6985638  0.064084526   -2.9631922    1.2646284   547498 
 1041000   0.99900714   -2.9646784   -2.9646784     -1.69897  0.053886334   -2.9646784    1.2657084   547498 
 1042000   0.99872274   -2.9642188   -2.9642188   -1.6988707  0.060008307   -2.9642188     1.265348   547498 
 1043000    1.0005488    -2.966352    -2.966352   -1.6986904  0.053900991    -2.966352    1.2676616   547498 
 1044000   0.99987267   -2.9658364   -2.9658364   -1.6990314  0.046260688   -2.9658364     1.266805   547498 
 1045000   0.99904454   -2.9642251   -2.9642251   -1.6984693  0.056121604   -2.9642251    1.2657557   547498 
 1046000    0.9998468   -2.9656162   -2.9656162   -1.6988441  0.061754509   -2.9656162    1.2667722   547498 
 1047000    1.0004232   -2.9659246   -2.9659246   -1.6984221  0.054842412   -2.9659246    1.2675025   547498 
 1048000    1.0007385    -2.965821    -2.965821    -1.697919  0.059494701    -2.965821    1.2679019   547498 
 1049000     1.000682   -2.9655054   -2.9655054    -1.697675  0.066952227   -2.9655054    1.2678304   547498 
 1050000    1.0016988   -2.9661652   -2.9661652   -1.6970466  0.068482928   -2.9661652    1.2691186   547498 
 1051000    1.0031295   -2.9666532   -2.9666532    -1.695722  0.063491157   -2.9666532    1.2709312   547498 
 1052000    1.0015524   -2.9664989   -2.9664989   -1.6975657  0.054835123   -2.9664989    1.2689331   547498 
 1053000    1.0020173   -2.9669547   -2.9669547   -1.6974326  0.057775669   -2.9669547    1.2695222   547498 
 1054000    1.0014457   -2.9662934   -2.9662934   -1.6974955  0.055538758   -2.9662934    1.2687979   547498 
 1055000    0.9986544   -2.9634239   -2.9634239   -1.6981624  0.058881176   -2.9634239    1.2652614   547498 
 1056000   0.99928768   -2.9638612   -2.9638612   -1.6977974  0.055841338   -2.9638612    1.2660638   547498 
 1057000   0.99888405   -2.9631873   -2.9631873   -1.6976349  0.054303084   -2.9631873    1.2655524   547498 
 1058000    1.0004008   -2.9645198   -2.9645198   -1.6970458   0.04902082   -2.9645198    1.2674741   547498 
 1059000   0.99952427   -2.9637618   -2.9637618   -1.6973982  0.060343583   -2.9637618    1.2663635   547498 
 1060000   0.99800613   -2.9629708   -2.9629708   -1.6985307  0.051970457   -2.9629708    1.2644401   547498 
 1061000   0.99942716   -2.9651194   -2.9651194   -1.6988789  0.063633863   -2.9651194    1.2662405   547498 
 1062000   0.99905537   -2.9649217   -2.9649217   -1.6991523   0.06258028   -2.9649217    1.2657695   547498 
 1063000   0.99946406    -2.964914    -2.964914   -1.6986267  0.065364214    -2.964914    1.2662873   547498 
 1064000    1.0009129   -2.9672295   -2.9672295   -1.6991067   0.05844396   -2.9672295    1.2681228   547498 
 1065000    1.0005474   -2.9662359   -2.9662359   -1.6985761  0.056709343   -2.9662359    1.2676598   547498 
 1066000   0.99983824   -2.9663918   -2.9663918   -1.6996305  0.047579678   -2.9663918    1.2667613   547498 
 1067000    1.0004466   -2.9672106   -2.9672106   -1.6996785  0.057410446   -2.9672106    1.2675321   547498 
 1068000     1.001131     -2.96772     -2.96772   -1.6993208  0.056868299     -2.96772    1.2683993   547498 
 1069000    1.0002304   -2.9665752   -2.9665752    -1.699317  0.053723061   -2.9665752    1.2672582   547498 
 1070000   0.99891674   -2.9642806   -2.9642806   -1.6986868  0.059134352   -2.9642806    1.2655938   547498 
 1071000    1.0007045   -2.9658726   -2.9658726   -1.6980137  0.058684611   -2.9658726    1.2678589   547498 
 1072000    1.0014305   -2.9674477   -2.9674477   -1.6986691  0.056187989   -2.9674477    1.2687786   547498 
 1073000    1.0013626   -2.9682987   -2.9682987   -1.6996061  0.050700383   -2.9682987    1.2686926   547498 
 1074000   0.99899449   -2.9650824   -2.9650824     -1.69939  0.062115265   -2.9650824    1.2656923   547498 
 1075000   0.99888961   -2.9659309   -2.9659309   -1.7003715   0.05374242   -2.9659309    1.2655594   547498 
 1076000    1.0001999   -2.9663212   -2.9663212   -1.6991017  0.053634199   -2.9663212    1.2672195   547498 
 1077000     1.000243   -2.9659663   -2.9659663   -1.6986922  0.059920433   -2.9659663    1.2672741   547498 
 1078000    1.0007813   -2.9675458   -2.9675458   -1.6995896  0.059129374   -2.9675458    1.2679561   547498 
 1079000   0.99828449   -2.9653614   -2.9653614   -1.7005686  0.059938654   -2.9653614    1.2647928   547498 
 1080000    1.0007288   -2.9675638   -2.9675638   -1.6996742  0.057229957   -2.9675638    1.2678896   547498 
 1081000   0.99982194   -2.9666819   -2.9666819   -1.6999412  0.059593377   -2.9666819    1.2667407   547498 
 1082000    1.0003647   -2.9669071   -2.9669071   -1.6994788  0.070861078   -2.9669071    1.2674283   547498 
 1083000    1.0014719   -2.9675162   -2.9675162   -1.6986851  0.058181493   -2.9675162    1.2688311   547498 
 1084000   0.99867156   -2.9648987   -2.9648987   -1.6996155  0.055551272   -2.9648987    1.2652832   547498 
 1085000   0.99812597   -2.9645647   -2.9645647   -1.6999728  0.051070916   -2.9645647    1.2645919   547498 
 1086000   0.99921643    -2.966356    -2.966356   -1.7003825  0.059254393    -2.966356    1.2659735   547498 
 1087000   0.99966583   -2.9669405   -2.9669405   -1.7003976  0.056858226   -2.9669405    1.2665429   547498 
 1088000    1.0002717    -2.968289    -2.968289   -1.7009784  0.054411674    -2.968289    1.2673105   547498 
 1089000    1.0006754   -2.9682906   -2.9682906   -1.7004687  0.056843806   -2.9682906     1.267822   547498 
 1090000    1.0004552   -2.9691468   -2.9691468   -1.7016038  0.058256603   -2.9691468     1.267543   547498 
 1091000   0.99936315   -2.9681837   -2.9681837   -1.7020243  0.056175158   -2.9681837    1.2661594   547498 
 1092000    1.0000097    -2.968586    -2.968586   -1.7016074  0.061838015    -2.968586    1.2669786   547498 
 1093000   0.99845223   -2.9663313   -2.9663313    -1.701326  0.060454315   -2.9663313    1.2650053   547498 
 1094000   0.99862808   -2.9671144   -2.9671144   -1.7018863   0.05723313   -2.9671144    1.2652281   547498 
 1095000   0.99792659   -2.9659755   -2.9659755   -1.7016361  0.055281373   -2.9659755    1.2643393   547498 
 1096000   0.99958377   -2.9673028   -2.9673028   -1.7008639  0.051354504   -2.9673028    1.2664389   547498 
 1097000   0.99846434   -2.9672891   -2.9672891   -1.7022685  0.051735065   -2.9672891    1.2650206   547498 
 1098000   0.99941482   -2.9683047   -2.9683047   -1.7020798  0.052680893   -2.9683047    1.2662249   547498 
 1099000    1.0003481   -2.9685463   -2.9685463    -1.701139  0.062414481   -2.9685463    1.2674073   547498 
 1100000   0.99936276    -2.967372    -2.967372   -1.7012131  0.057728324    -2.967372    1.2661589   547498 
 1101000    0.9975984   -2.9660908   -2.9660908   -1.7021673  0.056884343   -2.9660908    1.2639235   547498 
 1102000   0.99882861   -2.9676398   -2.9676398   -1.7021576  0.063802739   -2.9676398    1.2654822   547498 
 1103000    1.0003761    -2.969513    -2.969513   -1.7020702  0.054947578    -2.969513    1.2674427   547498 
 1104000   0.99998987   -2.9693594   -2.9693594   -1.7024059  0.062577845   -2.9693594    1.2669534   547498 
 1105000   0.99944759   -2.9687465   -2.9687465   -1.7024801  0.064644217   -2.9687465    1.2662664   547498 
 1106000   0.99915126   -2.9691674   -2.9691674   -1.7032765  0.068701617   -2.9691674    1.2658909   547498 
 1107000    0.9981798   -2.9670473   -2.9670473   -1.7023871  0.063315197   -2.9670473    1.2646601   547498 
 1108000   0.99901334   -2.9679168   -2.9679168   -1.7022006  0.063395515   -2.9679168    1.2657162   547498 
 1109000   0.99905138   -2.9683101   -2.9683101   -1.7025457  0.058412873   -2.9683101    1.2657644   547498 
 1110000   0.99973716   -2.9696599   -2.9696599   -1.7030266  0.060746439   -2.9696599    1.2666333   547498 
 1111000   0.99977714   -2.9689027   -2.9689027   -1.7022188  0.059484583   -2.9689027    1.2666839   547498 
 1112000   0.99993984   -2.9696724   -2.9696724   -1.7027824  0.067060432   -2.9696724    1.2668901   547498 
 1113000    1.0009823   -2.9712669   -2.9712669   -1.7030561  0.060717679   -2.9712669    1.2682108   547498 
 1114000    1.0005453   -2.9708545   -2.9708545   -1.7031974   0.06620658   -2.9708545    1.2676572   547498 
 1115000    1.0002114   -2.9705331   -2.9705331   -1.7032991  0.057956318   -2.9705331    1.2672341   547498 
 1116000   0.99898322   -2.9681451   -2.9681451    -1.702467   0.05988176   -2.9681451     1.265678   547498 
 1117000    1.0001106   -2.9706685   -2.9706685   -1.7035621  0.049687318   -2.9706685    1.2671063   547498 
 1118000    1.0000086   -2.9713762   -2.9713762   -1.7043991  0.066282214   -2.9713762    1.2669772   547498 
 1119000   0.99880775   -2.9693872   -2.9693872   -1.7039315  0.061542561   -2.9693872    1.2654557   547498 
 1120000   0.99963625   -2.9703834   -2.9703834    -1.703878  0.057459019   -2.9703834    1.2665054   547498 
 1121000   0.99969539   -2.9696749   -2.9696749   -1.7030946  0.064333731   -2.9696749    1.2665803   547498 
 1122000   0.99859465     -2.96984     -2.96984   -1.7046543   0.06894317     -2.96984    1.2651857   547498 
 1123000    1.0002035    -2.971579    -2.971579   -1.7043549  0.063169318    -2.971579    1.2672241   547498 
 1124000   0.99917501   -2.9698759   -2.9698759   -1.7039548  0.053815803   -2.9698759     1.265921   547498 
 1125000   0.99937757   -2.9711905   -2.9711905   -1.7050128  0.050713156   -2.9711905    1.2661777   547498 
 1126000   0.99906867   -2.9697848   -2.9697848   -1.7039984  0.060648358   -2.9697848    1.2657863   547498 
 1127000    1.0005262   -2.9721441   -2.9721441   -1.7045112  0.060251238   -2.9721441    1.2676329   547498 
 1128000    1.0003314   -2.9719046   -2.9719046   -1.7045184  0.059927329   -2.9719046    1.2673862   547498 
 1129000    1.0023623   -2.9741614   -2.9741614   -1.7042021  0.062197551   -2.9741614    1.2699593   547498 
 1130000    1.0010724   -2.9715511   -2.9715511   -1.7032261  0.047866716   -2.9715511     1.268325   547498 
 1131000    1.0000342   -2.9701284   -2.9701284   -1.7031189  0.063798654   -2.9701284    1.2670095   547498 
 1132000   0.99873654   -2.9692158   -2.9692158   -1.7038503  0.065103091   -2.9692158    1.2653655   547498 
 1133000    1.0031193   -2.9743004   -2.9743004   -1.7033821  0.055233131   -2.9743004    1.2709183   547498 
 1134000   0.99988073   -2.9698899   -2.9698899   -1.7030747   0.06631194   -2.9698899    1.2668152   547498 
 1135000    1.0006546   -2.9710046   -2.9710046    -1.703209   0.05427278   -2.9710046    1.2677956   547498 
 1136000    1.0007571   -2.9712206   -2.9712206   -1.7032951  0.056927534   -2.9712206    1.2679255   547498 
 1137000   0.99982802   -2.9699731   -2.9699731   -1.7032248  0.068336314   -2.9699731    1.2667484   547498 
 1138000   0.99811867   -2.9687378   -2.9687378   -1.7041551  0.065392186   -2.9687378    1.2645827   547498 
 1139000   0.99880444    -2.969879    -2.969879   -1.7044275  0.061209286    -2.969879    1.2654515   547498 
 1140000   0.99898212    -2.969911    -2.969911   -1.7042344  0.053954508    -2.969911    1.2656767   547498 
 1141000   0.99883325   -2.9692914   -2.9692914   -1.7038034  0.050820829   -2.9692914     1.265488   547498 
 1142000   0.99846624   -2.9694065   -2.9694065   -1.7043835   0.05943128   -2.9694065     1.265023   547498 
 1143000   0.99990231   -2.9705937   -2.9705937   -1.7037512  0.054537043   -2.9705937    1.2668425   547498 
 1144000   0.99887698   -2.9694394   -2.9694394    -1.703896  0.047897248   -2.9694394    1.2655434   547498 
 1145000   0.99838834   -2.9681535   -2.9681535   -1.7032291  0.061924252   -2.9681535    1.2649244   547498 
 1146000   0.99887181   -2.9684948   -2.9684948   -1.7029579  0.062282769   -2.9684948    1.2655369   547498 
 1147000   0.99867387    -2.968811    -2.968811   -1.7035248  0.051837272    -2.968811    1.2652861   547498 
 1148000   0.99940914   -2.9699148   -2.9699148   -1.7036972  0.054785562   -2.9699148    1.2662177   547498 
 1149000   0.99894349    -2.969737    -2.969737   -1.7041093  0.060407816    -2.969737    1.2656277   547498 
 1150000   0.99863642   -2.9699055   -2.9699055   -1.7046669  0.056275613   -2.9699055    1.2652387   547498 
 1151000   0.99943985   -2.9713266   -2.9713266     -1.70507   0.05848281   -2.9713266    1.2662566   547498 
 1152000   0.99868074   -2.9707334   -2.9707334   -1.7054386  0.056322573   -2.9707334    1.2652948   547498 
 1153000    0.9991925   -2.9709179   -2.9709179   -1.7049747  0.060377314   -2.9709179    1.2659432   547498 
 1154000   0.99881132    -2.969829    -2.969829   -1.7043688   0.06208664    -2.969829    1.2654603   547498 
 1155000    1.0013886   -2.9726584   -2.9726584   -1.7039328  0.062405594   -2.9726584    1.2687256   547498 
 1156000   0.99969049   -2.9707646   -2.9707646   -1.7041905  0.063724331   -2.9707646    1.2665741   547498 
 1157000     1.001988   -2.9736821   -2.9736821   -1.7041972  0.057976408   -2.9736821     1.269485   547498 
 1158000    1.0011732   -2.9726846   -2.9726846   -1.7042319  0.066325583   -2.9726846    1.2684527   547498 
 1159000    1.0012838    -2.973204    -2.973204   -1.7046112  0.062060953    -2.973204    1.2685928   547498 
 1160000   0.99930929   -2.9711389   -2.9711389   -1.7050477  0.067733058   -2.9711389    1.2660912   547498 
 1161000     1.001009    -2.973128    -2.973128   -1.7048834  0.062987796    -2.973128    1.2682446   547498 
 1162000    1.0008657   -2.9726791   -2.9726791   -1.7046161  0.060379374   -2.9726791    1.2680631   547498 
 1163000    0.9996567   -2.9719001   -2.9719001   -1.7053688  0.057654579   -2.9719001    1.2665313   547498 
 1164000   0.99864476   -2.9703614   -2.9703614   -1.7051122  0.061582523   -2.9703614    1.2652492   547498 
 1165000   0.99972804    -2.972207    -2.972207   -1.7055853  0.064209446    -2.972207    1.2666217   547498 
 1166000     1.001228   -2.9733778   -2.9733778   -1.7048557  0.061865047   -2.9733778    1.2685221   547498 
 1167000    1.0016556   -2.9739413   -2.9739413   -1.7048775  0.067205539   -2.9739413    1.2690638   547498 
 1168000    1.0001679   -2.9723302   -2.9723302   -1.7051511  0.057129214   -2.9723302    1.2671791   547498 
 1169000    1.0016943   -2.9733077   -2.9733077   -1.7041948  0.058948022   -2.9733077    1.2691129   547498 
 1170000    1.0010313   -2.9726664   -2.9726664   -1.7043935  0.063567107   -2.9726664    1.2682728   547498 
 1171000    1.0012407    -2.972885    -2.972885   -1.7043468  0.065013053    -2.972885    1.2685382   547498 
 1172000    1.0007133   -2.9718234   -2.9718234   -1.7039534  0.068032019   -2.9718234      1.26787   547498 
 1173000    1.0009095   -2.9719976   -2.9719976    -1.703879  0.059369698   -2.9719976    1.2681186   547498 
 1174000    1.0000537   -2.9709974   -2.9709974   -1.7039631   0.05793919   -2.9709974    1.2670343   547498 
 1175000     1.000385   -2.9708221   -2.9708221    -1.703368  0.066216511   -2.9708221    1.2674541   547498 
 1176000   0.99960995   -2.9709136   -2.9709136   -1.7044415  0.055343391   -2.9709136    1.2664721   547498 
 1177000    1.0012319   -2.9730522   -2.9730522   -1.7045252  0.056436452   -2.9730522     1.268527   547498 
 1178000   0.99986394   -2.9712592   -2.9712592   -1.7044653  0.060830864   -2.9712592    1.2667939   547498 
 1179000   0.99915445   -2.9712108   -2.9712108   -1.7053158  0.051197846   -2.9712108     1.265895   547498 
 1180000   0.99794589   -2.9695215   -2.9695215   -1.7051577  0.062339454   -2.9695215    1.2643638   547498 
 1181000   0.99843488   -2.9701656   -2.9701656   -1.7051822  0.054497686   -2.9701656    1.2649833   547498 
 1182000   0.99916016   -2.9715852   -2.9715852    -1.705683  0.061129626   -2.9715852    1.2659022   547498 
 1183000   0.99937311   -2.9717476   -2.9717476   -1.7055756  0.054734718   -2.9717476     1.266172   547498 
 1184000   0.99886768   -2.9707475   -2.9707475   -1.7052159  0.051837932   -2.9707475    1.2655317   547498 
 1185000   0.99898454   -2.9708809   -2.9708809   -1.7052012  0.058454978   -2.9708809    1.2656797   547498 
 1186000   0.99776603   -2.9693373   -2.9693373   -1.7052013  0.055966289   -2.9693373    1.2641359   547498 
 1187000    0.9997235   -2.9720571   -2.9720571   -1.7054412  0.056779425   -2.9720571     1.266616   547498 
 1188000   0.99940705   -2.9711292   -2.9711292   -1.7049142  0.056034577   -2.9711292     1.266215   547498 
 1189000   0.99955399   -2.9713485   -2.9713485   -1.7049473  0.063392415   -2.9713485    1.2664012   547498 
 1190000    1.0002932   -2.9717736   -2.9717736   -1.7044358  0.057342007   -2.9717736    1.2673378   547498 
 1191000    1.0002434   -2.9723504   -2.9723504   -1.7050758  0.067568612   -2.9723504    1.2672746   547498 
 1192000   0.99904219   -2.9707372   -2.9707372   -1.7049845  0.061533523   -2.9707372    1.2657528   547498 
 1193000   0.99872823   -2.9705906   -2.9705906   -1.7052356  0.059545629   -2.9705906     1.265355   547498 
 1194000    1.0003281   -2.9721066   -2.9721066   -1.7047246  0.057984811   -2.9721066     1.267382   547498 
 1195000    1.0006581   -2.9721376   -2.9721376   -1.7043375  0.061533138   -2.9721376    1.2678001   547498 
 1196000    1.0002366   -2.9721074   -2.9721074   -1.7048413   0.05851295   -2.9721074    1.2672661   547498 
 1197000    1.0002913   -2.9730785   -2.9730785   -1.7057432  0.063965902   -2.9730785    1.2673353   547498 
 1198000    1.0004267   -2.9729808   -2.9729808   -1.7054739  0.062652687   -2.9729808    1.2675068   547498 
 1199000   0.99977874   -2.9724854   -2.9724854   -1.7057994  0.052403397   -2.9724854    1.2666859   547498 
 1200000   0.99930361   -2.9720387   -2.9720387   -1.7059547  0.064175109   -2.9720387     1.266084   547498 
 1201000    1.0002527   -2.9736526   -2.9736526   -1.7063662  0.063763316   -2.9736526    1.2672864   547498 
 1202000    1.0008675   -2.9729059   -2.9729059   -1.7048406  0.059378201   -2.9729059    1.2680653   547498 
 1203000     1.000337   -2.9726356   -2.9726356   -1.7052424  0.055191256   -2.9726356    1.2673932   547498 
 1204000     1.000408   -2.9738606   -2.9738606   -1.7063774  0.073716713   -2.9738606    1.2674832   547498 
 1205000    1.0012762   -2.9750863   -2.9750863   -1.7065031  0.063694654   -2.9750863    1.2685832   547498 
 1206000    1.0000611   -2.9743672   -2.9743672   -1.7073235  0.070970193   -2.9743672    1.2670437   547498 
 1207000   0.99924921   -2.9731278   -2.9731278   -1.7071127  0.065783947   -2.9731278     1.266015   547498 
 1208000     1.000936   -2.9752571   -2.9752571    -1.707105  0.054949158   -2.9752571    1.2681521   547498 
 1209000    1.0017034   -2.9767925   -2.9767925   -1.7076682  0.053453825   -2.9767925    1.2691244   547498 
 1210000   0.99964961   -2.9743642   -2.9743642   -1.7078419  0.062787319   -2.9743642    1.2665223   547498 
 1211000   0.99952981   -2.9739015   -2.9739015   -1.7075309  0.063787213   -2.9739015    1.2663706   547498 
 1212000   0.99947173    -2.974417    -2.974417     -1.70812  0.064591498    -2.974417     1.266297   547498 
 1213000      1.00026   -2.9754678   -2.9754678   -1.7081722  0.061400454   -2.9754678    1.2672957   547498 
 1214000    1.0007939   -2.9760545   -2.9760545   -1.7080823  0.050135286   -2.9760545    1.2679722   547498 
 1215000   0.99904238   -2.9746301   -2.9746301   -1.7088771  0.061349321   -2.9746301     1.265753   547498 
 1216000    0.9999564   -2.9751779   -2.9751779   -1.7082669  0.061132928   -2.9751779     1.266911   547498 
 1217000   0.99791304   -2.9723344   -2.9723344   -1.7080123  0.068223515   -2.9723344    1.2643222   547498 
 1218000    1.0000093   -2.9757373   -2.9757373   -1.7087593  0.051881303   -2.9757373     1.266978   547498 
 1219000    1.0000408   -2.9760187   -2.9760187   -1.7090007  0.055557886   -2.9760187    1.2670179   547498 
 1220000   0.99870091   -2.9741873   -2.9741873   -1.7088669  0.061059628   -2.9741873    1.2653204   547498 
 1221000     1.001632   -2.9777084   -2.9777084   -1.7086745  0.057744654   -2.9777084    1.2690339   547498 
 1222000   0.99998072   -2.9756717   -2.9756717   -1.7087298  0.058356022   -2.9756717    1.2669418   547498 
 1223000   0.99841925    -2.973942    -2.973942   -1.7089785  0.060781427    -2.973942    1.2649635   547498 
 1224000    1.0001577   -2.9766729   -2.9766729   -1.7095068  0.062970056   -2.9766729    1.2671661   547498 
 1225000    1.0000602   -2.9762367   -2.9762367   -1.7091942  0.050372063   -2.9762367    1.2670425   547498 
 1226000    0.9996497   -2.9749018   -2.9749018   -1.7083793  0.059244083   -2.9749018    1.2665224   547498 
 1227000   0.99959682   -2.9745065   -2.9745065    -1.708051  0.061632683   -2.9745065    1.2664555   547498 
 1228000   0.99931614   -2.9751105   -2.9751105   -1.7090106  0.063011829   -2.9751105    1.2660998   547498 
 1229000   0.99914445   -2.9743308   -2.9743308   -1.7084485  0.063686043   -2.9743308    1.2658823   547498 
 1230000    1.0013207   -2.9774484   -2.9774484   -1.7088089  0.064183573   -2.9774484    1.2686396   547498 
 1231000    1.0006928      -2.9768      -2.9768    -1.708956  0.049272798      -2.9768    1.2678441   547498 
 1232000   0.99990403    -2.975334    -2.975334   -1.7084893  0.067307114    -2.975334    1.2668447   547498 
 1233000   0.99953224   -2.9752054   -2.9752054   -1.7088317  0.057281457   -2.9752054    1.2663736   547498 
 1234000   0.99976116   -2.9753093   -2.9753093   -1.7086457  0.062555126   -2.9753093    1.2666637   547498 
 1235000    1.0010433   -2.9779617   -2.9779617   -1.7096736  0.065792363   -2.9779617     1.268288   547498 
 1236000   0.99968977   -2.9770347   -2.9770347   -1.7104614  0.055268956   -2.9770347    1.2665732   547498 
 1237000   0.99773009   -2.9746942   -2.9746942   -1.7106038  0.056085538   -2.9746942    1.2640904   547498 
 1238000    1.0004635   -2.9779253   -2.9779253   -1.7103719  0.056026683   -2.9779253    1.2675535   547498 
 1239000   0.99866047    -2.976052    -2.976052   -1.7107829  0.066663782    -2.976052    1.2652691   547498 
 1240000   0.99945062   -2.9761052   -2.9761052   -1.7098349  0.059744904   -2.9761052    1.2662702   547498 
 1241000    1.0014379   -2.9783038   -2.9783038   -1.7095157  0.066372652   -2.9783038    1.2687881   547498 
 1242000   0.99981345   -2.9761543   -2.9761543   -1.7094244    0.0562653   -2.9761543    1.2667299   547498 
 1243000    0.9997739    -2.976117    -2.976117   -1.7094372  0.065194293    -2.976117    1.2666798   547498 
 1244000    1.0012324   -2.9773625   -2.9773625   -1.7088348  0.056768269   -2.9773625    1.2685277   547498 
 1245000     1.001557   -2.9772565   -2.9772565   -1.7083175  0.056919469   -2.9772565    1.2689389   547498 
 1246000   0.99959199   -2.9753704   -2.9753704   -1.7089211  0.066956467   -2.9753704    1.2664493   547498 
 1247000   0.99980667   -2.9762539   -2.9762539   -1.7095325  0.073633445   -2.9762539    1.2667213   547498 
 1248000     1.001499   -2.9777311   -2.9777311   -1.7088656  0.052175153   -2.9777311    1.2688655   547498 
 1249000   0.99995264   -2.9757847   -2.9757847   -1.7088785  0.067378625   -2.9757847    1.2669063   547498 
 1250000    1.0002089   -2.9775571   -2.9775571   -1.7103262  0.067033846   -2.9775571     1.267231   547498 
 1251000   0.99886062   -2.9760203   -2.9760203   -1.7104976  0.060144735   -2.9760203    1.2655227   547498 
 1252000   0.99858256   -2.9762547   -2.9762547   -1.7110843  0.062381789   -2.9762547    1.2651704   547498 
 1253000   0.99995416    -2.977315    -2.977315   -1.7104068  0.062094978    -2.977315    1.2669082   547498 
 1254000   0.99868143   -2.9771631   -2.9771631   -1.7118674  0.053662485   -2.9771631    1.2652957   547498 
 1255000   0.99908378   -2.9761473   -2.9761473   -1.7103418  0.056296575   -2.9761473    1.2658055   547498 
 1256000   0.99798792   -2.9753707   -2.9753707   -1.7109537  0.048858057   -2.9753707     1.264417   547498 
 1257000   0.99851343   -2.9752878   -2.9752878   -1.7102049  0.067513882   -2.9752878    1.2650828   547498 
 1258000   0.99765605   -2.9734531   -2.9734531   -1.7094565  0.063116378   -2.9734531    1.2639966   547498 
 1259000    1.0003143   -2.9760938   -2.9760938   -1.7087293  0.064095835   -2.9760938    1.2673645   547498 
 1260000    0.9996287   -2.9760901   -2.9760901   -1.7095942  0.060823726   -2.9760901    1.2664958   547498 
 1261000   0.99880581   -2.9751628   -2.9751628   -1.7097095  0.066366214   -2.9751628    1.2654533   547498 
 1262000    0.9984861   -2.9756685   -2.9756685   -1.7106203  0.059038742   -2.9756685    1.2650482   547498 
 1263000   0.99970824   -2.9763917   -2.9763917   -1.7097951  0.063173449   -2.9763917    1.2665966   547498 
 1264000   0.99975638   -2.9777918   -2.9777918   -1.7111342  0.051174414   -2.9777918    1.2666576   547498 
 1265000   0.99964297    -2.975998    -2.975998   -1.7094841   0.05908386    -2.975998    1.2665139   547498 
 1266000   0.99917227   -2.9764011   -2.9764011   -1.7104835  0.063381789   -2.9764011    1.2659176   547498 
 1267000   0.99893646   -2.9764793   -2.9764793   -1.7108605  0.054883724   -2.9764793    1.2656188   547498 
 1268000   0.99861422   -2.9750889   -2.9750889   -1.7098783  0.060458252   -2.9750889    1.2652105   547498 
 1269000     1.000871   -2.9783667   -2.9783667   -1.7102969  0.063638488   -2.9783667    1.2680698   547498 
 1270000   0.99927463   -2.9762748   -2.9762748   -1.7102275   0.05551005   -2.9762748    1.2660472   547498 
 1271000   0.99970412   -2.9767373   -2.9767373   -1.7101459  0.060486515   -2.9767373    1.2665914   547498 
 1272000    1.0002633   -2.9772511   -2.9772511   -1.7099512  0.060488413   -2.9772511    1.2672999   547498 
 1273000   0.99981472   -2.9769011   -2.9769011   -1.7101695  0.052579951   -2.9769011    1.2667315   547498 
 1274000   0.99859765   -2.9759825   -2.9759825   -1.7107929  0.049994108   -2.9759825    1.2651895   547498 
 1275000   0.99800302   -2.9760998   -2.9760998   -1.7116637  0.058527061   -2.9760998    1.2644362   547498 
 1276000   0.99803167   -2.9763243   -2.9763243   -1.7118518  0.061370148   -2.9763243    1.2644725   547498 
 1277000   0.99892329   -2.9766773   -2.9766773   -1.7110752  0.055950194   -2.9766773    1.2656021   547498 
 1278000    1.0004802   -2.9786047   -2.9786047     -1.71103  0.056924424   -2.9786047    1.2675747   547498 
 1279000   0.99964272   -2.9771095   -2.9771095   -1.7105958  0.062946262   -2.9771095    1.2665136   547498 
 1280000    1.0006285   -2.9775665   -2.9775665   -1.7098039  0.065696867   -2.9775665    1.2677626   547498 
 1281000   0.99939481   -2.9762088   -2.9762088   -1.7100093  0.055102431   -2.9762088    1.2661995   547498 
 1282000    1.0006869   -2.9766034   -2.9766034   -1.7087669  0.061581503   -2.9766034    1.2678365   547498 
 1283000    1.0000024   -2.9768866   -2.9768866   -1.7099173  0.061481942   -2.9768866    1.2669693   547498 
 1284000    1.0009521   -2.9769066   -2.9769066   -1.7087341  0.052213041   -2.9769066    1.2681725   547498 
 1285000    1.0013047   -2.9779565   -2.9779565   -1.7093372  0.051024687   -2.9779565    1.2686193   547498 
 1286000    1.0011727   -2.9780149   -2.9780149   -1.7095628  0.064634939   -2.9780149    1.2684521   547498 
 1287000    1.0017464   -2.9789808   -2.9789808   -1.7098019  0.063275009   -2.9789808    1.2691789   547498 
 1288000   0.99944329    -2.975863    -2.975863    -1.709602  0.061717659    -2.975863    1.2662609   547498 
 1289000   0.99969841   -2.9757811   -2.9757811   -1.7091969  0.066353911   -2.9757811    1.2665842   547498 
 1290000    1.0005872   -2.9776281   -2.9776281   -1.7099179  0.061841593   -2.9776281    1.2677102   547498 
 1291000   0.99866713   -2.9770238   -2.9770238   -1.7117462  0.064326149   -2.9770238    1.2652776   547498 
 1292000    0.9981589    -2.975554    -2.975554   -1.7109203  0.056207125    -2.975554    1.2646337   547498 
 1293000    0.9987504   -2.9768737   -2.9768737   -1.7114906   0.06510953   -2.9768737    1.2653831   547498 
 1294000   0.99780147   -2.9766371   -2.9766371   -1.7124563  0.061246943   -2.9766371    1.2641808   547498 
 1295000   0.99983886   -2.9786111   -2.9786111    -1.711849  0.055494595   -2.9786111    1.2667621   547498 
 1296000   0.99926117   -2.9779624   -2.9779624   -1.7119322  0.055931551   -2.9779624    1.2660302   547498 
 1297000   0.99893916   -2.9767889   -2.9767889   -1.7111667  0.063444046   -2.9767889    1.2656222   547498 
 1298000   0.99900462   -2.9768846   -2.9768846   -1.7111794  0.050563617   -2.9768846    1.2657052   547498 
 1299000   0.99858076   -2.9764056   -2.9764056   -1.7112375  0.060732891   -2.9764056    1.2651681   547498 
 1300000    1.0003889   -2.9785492   -2.9785492   -1.7110902   0.06970305   -2.9785492     1.267459   547498 
 1301000   0.99987712    -2.977884    -2.977884   -1.7110734  0.062796926    -2.977884    1.2668106   547498 
 1302000    1.0002971    -2.979111    -2.979111   -1.7117683   0.05459539    -2.979111    1.2673427   547498 
 1303000    1.0010658   -2.9793033   -2.9793033   -1.7109868  0.065957033   -2.9793033    1.2683166   547498 
 1304000   0.99906072   -2.9780942   -2.9780942   -1.7123179  0.060835177   -2.9780942    1.2657762   547498 
 1305000    1.0008154   -2.9797783   -2.9797783    -1.711779  0.060870117   -2.9797783    1.2679994   547498 
 1306000    1.0007453   -2.9795365   -2.9795365   -1.7116259  0.061442666   -2.9795365    1.2679105   547498 
 1307000    1.0004335    -2.979388    -2.979388   -1.7118725  0.065934021    -2.979388    1.2675155   547498 
 1308000   0.99873033   -2.9768088   -2.9768088   -1.7114511  0.062344364   -2.9768088    1.2653576   547498 
 1309000   0.99844741    -2.977786    -2.977786   -1.7127868  0.057416557    -2.977786    1.2649992   547498 
 1310000   0.99808262   -2.9773229   -2.9773229   -1.7127859  0.051898835   -2.9773229     1.264537   547498 
 1311000    0.9982084    -2.977911    -2.977911   -1.7132146   0.06079256    -2.977911    1.2646964   547498 
 1312000   0.99943142   -2.9794623   -2.9794623   -1.7132164  0.063809038   -2.9794623    1.2662459   547498 
 1313000   0.99856703   -2.9776404   -2.9776404   -1.7124897  0.056704122   -2.9776404    1.2651507   547498 
 1314000   0.99902677   -2.9777008   -2.9777008   -1.7119675  0.068032902   -2.9777008    1.2657332   547498 
 1315000   0.99926895   -2.9780946   -2.9780946   -1.7120546  0.061194307   -2.9780946    1.2660401   547498 
 1316000    1.0001749   -2.9792678   -2.9792678   -1.7120799  0.069941857   -2.9792678    1.2671879   547498 
 1317000    0.9994615   -2.9792809   -2.9792809   -1.7129969  0.064551088   -2.9792809     1.266284   547498 
 1318000   0.99985348   -2.9802664   -2.9802664   -1.7134858  0.069510932   -2.9802664    1.2667806   547498 
 1319000   0.99942472   -2.9800243   -2.9800243   -1.7137869  0.065961379   -2.9800243    1.2662374   547498 
 1320000   0.99982168   -2.9802661   -2.9802661   -1.7135258  0.063830247   -2.9802661    1.2667403   547498 
 1321000   0.99977501   -2.9807616   -2.9807616   -1.7140804  0.064150027   -2.9807616    1.2666812   547498 
 1322000   0.99836094   -2.9790727   -2.9790727    -1.714183  0.067307701   -2.9790727    1.2648896   547498 
 1323000   0.99959328     -2.98053     -2.98053    -1.714079  0.058692767     -2.98053     1.266451   547498 
 1324000    0.9997999   -2.9800415   -2.9800415   -1.7133287  0.060216684   -2.9800415    1.2667127   547498 
 1325000   0.99845818   -2.9785768   -2.9785768   -1.7135639  0.059674954   -2.9785768    1.2650128   547498 
 1326000   0.99775348   -2.9782243   -2.9782243   -1.7141043  0.054654835   -2.9782243      1.26412   547498 
 1327000   0.99789687   -2.9784355   -2.9784355   -1.7141339  0.058636171   -2.9784355    1.2643017   547498 
 1328000   0.99882987   -2.9795019   -2.9795019   -1.7140181  0.061809015   -2.9795019    1.2654838   547498 
 1329000   0.99850937   -2.9786459   -2.9786459   -1.7135682    0.0608968   -2.9786459    1.2650777   547498 
 1330000    0.9994263   -2.9789496   -2.9789496   -1.7127102  0.061657356   -2.9789496    1.2662394   547498 
 1331000   0.99822169   -2.9780695   -2.9780695   -1.7133563  0.059424569   -2.9780695    1.2647132   547498 
 1332000   0.99921328   -2.9795469   -2.9795469   -1.7135774  0.064604036   -2.9795469    1.2659695   547498 
 1333000    0.9999174   -2.9795515   -2.9795515   -1.7126899  0.060492964   -2.9795515    1.2668616   547498 
 1334000    1.0010117    -2.980925    -2.980925   -1.7126769  0.055395777    -2.980925    1.2682481   547498 
 1335000   0.99909441    -2.978766    -2.978766   -1.7129471  0.068518269    -2.978766    1.2658189   547498 
 1336000   0.99850105    -2.978004    -2.978004   -1.7129368  0.052019532    -2.978004    1.2650672   547498 
 1337000    0.9994439   -2.9774462   -2.9774462   -1.7111844  0.059479666   -2.9774462    1.2662617   547498 
 1338000   0.99990373   -2.9783569   -2.9783569   -1.7115126   0.05943441   -2.9783569    1.2668443   547498 
 1339000   0.99969705   -2.9781849   -2.9781849   -1.7116025  0.057819286   -2.9781849    1.2665824   547498 
 1340000    0.9994645   -2.9791861   -2.9791861   -1.7128983  0.060402762   -2.9791861    1.2662878   547498 
 1341000   0.99954542   -2.9797126   -2.9797126   -1.7133223  0.057739565   -2.9797126    1.2663903   547498 
 1342000   0.99961187   -2.9794853   -2.9794853   -1.7130108   0.06329041   -2.9794853    1.2664745   547498 
 1343000   0.99935437   -2.9789249   -2.9789249   -1.7127766  0.062722299   -2.9789249    1.2661483   547498 
 1344000     0.999226   -2.9793365   -2.9793365   -1.7133508   0.06179706   -2.9793365    1.2659856   547498 
 1345000    1.0013824    -2.981318    -2.981318   -1.7126003  0.062733105    -2.981318    1.2687177   547498 
 1346000    0.9999648   -2.9782274   -2.9782274   -1.7113058  0.067306991   -2.9782274    1.2669217   547498 
 1347000     1.002241    -2.981746    -2.981746   -1.7119404  0.063107631    -2.981746    1.2698056   547498 
 1348000     1.001554   -2.9804859   -2.9804859   -1.7115507  0.064180421   -2.9804859    1.2689352   547498 
 1349000    1.0009949   -2.9797826   -2.9797826   -1.7115558  0.069770614   -2.9797826    1.2682268   547498 
 1350000   0.99967989   -2.9789075   -2.9789075   -1.7123468  0.056564427   -2.9789075    1.2665607   547498 
 1351000    1.0001463   -2.9795884   -2.9795884   -1.7124368  0.070230977   -2.9795884    1.2671516   547498 
 1352000    1.0010232   -2.9814128   -2.9814128   -1.7131502  0.060589837   -2.9814128    1.2682626   547498 
 1353000   0.99957971   -2.9803717   -2.9803717   -1.7139379  0.059907895   -2.9803717    1.2664338   547498 
 1354000   0.99947971   -2.9793222   -2.9793222   -1.7130151  0.064877414   -2.9793222    1.2663071   547498 
 1355000   0.99881395   -2.9784437   -2.9784437   -1.7129801  0.064892403   -2.9784437    1.2654636   547498 
 1356000    1.0021093   -2.9817671   -2.9817671   -1.7121285  0.056724014   -2.9817671    1.2696386   547498 
 1357000    1.0004992   -2.9801388   -2.9801388     -1.71254  0.061914333   -2.9801388    1.2675988   547498 
 1358000    1.0015438   -2.9819375   -2.9819375   -1.7130153   0.06686517   -2.9819375    1.2689222   547498 
 1359000    1.0001171   -2.9813278   -2.9813278   -1.7142132  0.061609836   -2.9813278    1.2671146   547498 
 1360000   0.99905239   -2.9793914   -2.9793914   -1.7136257  0.061009367   -2.9793914    1.2657657   547498 
 1361000   0.99802535   -2.9781091   -2.9781091   -1.7136446  0.069395604   -2.9781091    1.2644645   547498 
 1362000    1.0000783   -2.9800111   -2.9800111   -1.7129456  0.062213857   -2.9800111    1.2670655   547498 
 1363000   0.99925488   -2.9780474   -2.9780474   -1.7120251  0.062369527   -2.9780474    1.2660222   547498 
 1364000    1.0003953   -2.9806005   -2.9806005   -1.7131333  0.061026781   -2.9806005    1.2674672   547498 
 1365000    1.0004739   -2.9802892   -2.9802892   -1.7127225  0.062425729   -2.9802892    1.2675667   547498 
 1366000   0.99909497   -2.9781407   -2.9781407   -1.7123211    0.0649253   -2.9781407    1.2658196   547498 
 1367000    1.0006598   -2.9804379   -2.9804379   -1.7126356   0.06438428   -2.9804379    1.2678022   547498 
 1368000    1.0010066   -2.9807717   -2.9807717     -1.71253  0.058629114   -2.9807717    1.2682416   547498 
 1369000   0.99975562   -2.9799549   -2.9799549   -1.7132982  0.065105197   -2.9799549    1.2666567   547498 
 1370000   0.99869288   -2.9790109   -2.9790109   -1.7137007  0.062602511   -2.9790109    1.2653102   547498 
 1371000   0.99842566   -2.9794314   -2.9794314   -1.7144598   0.06486305   -2.9794314    1.2649716   547498 
 1372000   0.99881681   -2.9793336   -2.9793336   -1.7138664  0.058841319   -2.9793336    1.2654672   547498 
 1373000   0.99744278   -2.9779588   -2.9779588   -1.7142324  0.063061484   -2.9779588    1.2637264   547498 
 1374000   0.99747895   -2.9779893   -2.9779893   -1.7142171  0.058477666   -2.9779893    1.2637722   547498 
 1375000   0.99848449   -2.9788843   -2.9788843   -1.7138381  0.053578885   -2.9788843    1.2650462   547498 
 1376000   0.99664036   -2.9769237   -2.9769237    -1.714214  0.058353072   -2.9769237    1.2627097   547498 
 1377000   0.99851442   -2.9788717   -2.9788717   -1.7137876  0.063113082   -2.9788717    1.2650841   547498 
 1378000   0.99777361   -2.9779872   -2.9779872   -1.7138417  0.065945247   -2.9779872    1.2641455   547498 
 1379000   0.99633777   -2.9765517   -2.9765517   -1.7142254  0.060869782   -2.9765517    1.2623264   547498 
 1380000   0.99949226   -2.9794056   -2.9794056   -1.7130826  0.052401117   -2.9794056     1.266323   547498 
 1381000   0.99870171   -2.9782142   -2.9782142   -1.7128928  0.060643009   -2.9782142    1.2653214   547498 
 1382000   0.99846439   -2.9784846   -2.9784846   -1.7134639  0.066250589   -2.9784846    1.2650207   547498 
 1383000   0.99776928   -2.9768792   -2.9768792   -1.7127392  0.071589301   -2.9768792      1.26414   547498 
 1384000   0.99948918   -2.9798737   -2.9798737   -1.7135546  0.060851914   -2.9798737    1.2663191   547498 
 1385000    1.0000044   -2.9797073   -2.9797073   -1.7127355  0.063321756   -2.9797073    1.2669718   547498 
 1386000     1.000488   -2.9811926   -2.9811926   -1.7136081  0.060595937   -2.9811926    1.2675846   547498 
 1387000     1.000005   -2.9797742   -2.9797742   -1.7128017  0.063482303   -2.9797742    1.2669726   547498 
 1388000    1.0001348   -2.9796992   -2.9796992   -1.7125622  0.059941622   -2.9796992     1.267137   547498 
 1389000    1.0004996   -2.9801029   -2.9801029   -1.7125037   0.06860271   -2.9801029    1.2675992   547498 
 1390000    1.0002289   -2.9797293   -2.9797293    -1.712473    0.0571493   -2.9797293    1.2672563   547498 
 1391000   0.99980134   -2.9787208   -2.9787208   -1.7120062  0.067717558   -2.9787208    1.2667146   547498 
 1392000    1.0016655   -2.9805648   -2.9805648   -1.7114884  0.055721633   -2.9805648    1.2690764   547498 
 1393000    1.0005124   -2.9802522   -2.9802522   -1.7126367  0.065979025   -2.9802522    1.2676155   547498 
 1394000   0.99978011   -2.9797366   -2.9797366   -1.7130489   0.05117348   -2.9797366    1.2666877   547498 
 1395000    1.0002516   -2.9807707   -2.9807707   -1.7134857  0.061811438   -2.9807707     1.267285   547498 
 1396000   0.99871677   -2.9788792   -2.9788792   -1.7135387  0.060451379   -2.9788792    1.2653405   547498 
 1397000     1.001003   -2.9809584   -2.9809584   -1.7127214  0.057098717   -2.9809584     1.268237   547498 
 1398000     1.001235   -2.9805515   -2.9805515   -1.7120206  0.066781594   -2.9805515    1.2685309   547498 
 1399000     1.000628   -2.9786839   -2.9786839    -1.710922  0.065111411   -2.9786839    1.2677619   547498 
 1400000    1.0000367   -2.9787644   -2.9787644   -1.7117516  0.068903404   -2.9787644    1.2670128   547498 
 1401000   0.99928661   -2.9787139   -2.9787139   -1.7126514  0.062915673   -2.9787139    1.2660624   547498 
 1402000    1.0008686   -2.9804695   -2.9804695   -1.7124028  0.059098654   -2.9804695    1.2680667   547498 
 1403000    1.0007325   -2.9799653   -2.9799653   -1.7120709  0.063942312   -2.9799653    1.2678943   547498 
 1404000    1.0008768   -2.9805929   -2.9805929   -1.7125158  0.071510369   -2.9805929    1.2680771   547498 
 1405000    1.0003727   -2.9804767   -2.9804767   -1.7130382  0.060854715   -2.9804767    1.2674384   547498 
 1406000    1.0017052   -2.9823561   -2.9823561   -1.7132294  0.052312964   -2.9823561    1.2691267   547498 
 1407000   0.99916782   -2.9798113   -2.9798113   -1.7138994  0.059635062   -2.9798113    1.2659119   547498 
 1408000   0.99823362   -2.9797421   -2.9797421   -1.7150138  0.058025284   -2.9797421    1.2647283   547498 
 1409000   0.99944223   -2.9812432   -2.9812432   -1.7149836   0.05723726   -2.9812432    1.2662596   547498 
 1410000   0.99735512   -2.9791814   -2.9791814   -1.7155661  0.049638943   -2.9791814    1.2636153   547498 
 1411000   0.99860865   -2.9799552   -2.9799552   -1.7147518  0.052725192   -2.9799552    1.2652035   547498 
 1412000   0.99845397   -2.9787759   -2.9787759   -1.7137684  0.059054288   -2.9787759    1.2650075   547498 
 1413000   0.99735999   -2.9779827   -2.9779827   -1.7143612  0.062364644   -2.9779827    1.2636215   547498 
 1414000   0.99770144   -2.9791351   -2.9791351    -1.715081  0.055759656   -2.9791351    1.2640541   547498 
 1415000   0.99853712   -2.9802328   -2.9802328     -1.71512  0.055614096   -2.9802328    1.2651128   547498 
 1416000   0.99823916   -2.9796304   -2.9796304    -1.714895  0.064070165   -2.9796304    1.2647353   547498 
 1417000   0.99827662   -2.9794915   -2.9794915   -1.7147087  0.053407745   -2.9794915    1.2647828   547498 
 1418000   0.99884639   -2.9807329   -2.9807329   -1.7152282  0.048031082   -2.9807329    1.2655047   547498 
 1419000   0.99899172   -2.9805645   -2.9805645   -1.7148757  0.057736754   -2.9805645    1.2656888   547498 
 1420000    1.0006314     -2.98217     -2.98217   -1.7144037  0.065523953     -2.98217    1.2677663   547498 
 1421000   0.99930019   -2.9802891   -2.9802891   -1.7142095  0.063386245   -2.9802891    1.2660796   547498 
 1422000   0.99935359   -2.9806931   -2.9806931   -1.7145458  0.058824213   -2.9806931    1.2661473   547498 
 1423000   0.99987953   -2.9816771   -2.9816771   -1.7148635  0.049051843   -2.9816771    1.2668136   547498 
 1424000    1.0009658   -2.9833763   -2.9833763   -1.7151864  0.060248527   -2.9833763    1.2681899   547498 
 1425000   0.99908316   -2.9820939   -2.9820939   -1.7162892   0.06845347   -2.9820939    1.2658047   547498 
 1426000   0.99776253   -2.9808065   -2.9808065    -1.716675  0.064963867   -2.9808065    1.2641315   547498 
 1427000   0.99963912   -2.9823579   -2.9823579   -1.7158489  0.065731405   -2.9823579     1.266509   547498 
 1428000    1.0006022   -2.9847002   -2.9847002   -1.7169709  0.063682251   -2.9847002    1.2677293   547498 
 1429000   0.99983943   -2.9830228   -2.9830228     -1.71626  0.072640478   -2.9830228    1.2667628   547498 
 1430000    0.9993143   -2.9825948   -2.9825948   -1.7164973  0.064544731   -2.9825948    1.2660975   547498 
 1431000   0.99891537   -2.9821956   -2.9821956   -1.7166036  0.066457392   -2.9821956    1.2655921   547498 
 1432000   0.99735409   -2.9796974   -2.9796974   -1.7160834   0.07213981   -2.9796974     1.263614   547498 
 1433000   0.99963277   -2.9821491   -2.9821491   -1.7156481  0.068201608   -2.9821491     1.266501   547498 
 1434000   0.99907567    -2.981659    -2.981659   -1.7158638  0.061985177    -2.981659    1.2657952   547498 
 1435000   0.99976439   -2.9826406   -2.9826406   -1.7159728  0.068319414   -2.9826406    1.2666678   547498 
 1436000    1.0001162   -2.9828139   -2.9828139   -1.7157004  0.066264656   -2.9828139    1.2671134   547498 
 1437000   0.99902929   -2.9821286   -2.9821286   -1.7163922  0.067945873   -2.9821286    1.2657364   547498 
 1438000    1.0002017   -2.9835544   -2.9835544   -1.7163326  0.078377656   -2.9835544    1.2672218   547498 
 1439000    1.0001091   -2.9830406   -2.9830406   -1.7159361  0.063390745   -2.9830406    1.2671045   547498 
 1440000    1.0004921   -2.9826353   -2.9826353   -1.7150456  0.069043043   -2.9826353    1.2675897   547498 
 1441000    1.0005699   -2.9827192   -2.9827192   -1.7150308  0.064901103   -2.9827192    1.2676883   547498 
 1442000    1.0003017   -2.9831908   -2.9831908   -1.7158423  0.059396548   -2.9831908    1.2673485   547498 
 1443000   0.99956071   -2.9819653   -2.9819653   -1.7155555  0.061444897   -2.9819653    1.2664097   547498 
 1444000   0.99865366   -2.9815318   -2.9815318   -1.7162713  0.059099058   -2.9815318    1.2652605   547498 
 1445000   0.99736417    -2.979738    -2.979738   -1.7161113   0.06172253    -2.979738    1.2636268   547498 
 1446000    1.0002938   -2.9826133   -2.9826133   -1.7152748  0.058087577   -2.9826133    1.2673385   547498 
 1447000   0.99905153   -2.9821985   -2.9821985   -1.7164339  0.060047152   -2.9821985    1.2657646   547498 
 1448000   0.99715701    -2.979441    -2.979441   -1.7160767  0.059492525    -2.979441    1.2633643   547498 
 1449000   0.99756944   -2.9803895   -2.9803895   -1.7165027  0.056379641   -2.9803895    1.2638868   547498 
 1450000   0.99868049   -2.9803187   -2.9803187   -1.7150242  0.067706243   -2.9803187    1.2652945   547498 
 1451000   0.99916525   -2.9811572   -2.9811572   -1.7152485  0.065423052   -2.9811572    1.2659087   547498 
 1452000   0.99745055   -2.9790776   -2.9790776   -1.7153414  0.061858625   -2.9790776    1.2637362   547498 
 1453000   0.99932248   -2.9807415   -2.9807415   -1.7146336  0.058495276   -2.9807415    1.2661079   547498 
 1454000   0.99932297   -2.9804821   -2.9804821   -1.7143736  0.061411413   -2.9804821    1.2661085   547498 
 1455000   0.99827819   -2.9793976   -2.9793976   -1.7146128  0.063430238   -2.9793976    1.2647848   547498 
 1456000    0.9992917   -2.9806343   -2.9806343   -1.7145654  0.068610516   -2.9806343    1.2660689   547498 
 1457000   0.99878773   -2.9802023   -2.9802023    -1.714772   0.06286145   -2.9802023    1.2654304   547498 
 1458000   0.99914197   -2.9801565   -2.9801565   -1.7142774  0.060009869   -2.9801565    1.2658792   547498 
 1459000   0.99879161   -2.9784544   -2.9784544   -1.7130191  0.055759262   -2.9784544    1.2654353   547498 
 1460000   0.99935679   -2.9791226   -2.9791226   -1.7129713  0.065374778   -2.9791226    1.2661514   547498 
 1461000   0.99873697   -2.9785985   -2.9785985   -1.7132324  0.061233432   -2.9785985    1.2653661   547498 
 1462000   0.99922904   -2.9787365   -2.9787365    -1.712747  0.070095616   -2.9787365    1.2659895   547498 
 1463000    1.0002248   -2.9800699   -2.9800699   -1.7128188   0.05931339   -2.9800699    1.2672511   547498 
 1464000   0.99964319   -2.9801068   -2.9801068   -1.7135926  0.071175966   -2.9801068    1.2665142   547498 
 1465000   0.99934621   -2.9799532   -2.9799532   -1.7138153  0.067871737   -2.9799532    1.2661379   547498 
 1466000   0.99942545   -2.9802098   -2.9802098   -1.7139715  0.065644912   -2.9802098    1.2662383   547498 
 1467000   0.99818872   -2.9792383   -2.9792383   -1.7145669  0.058515073   -2.9792383    1.2646714   547498 
 1468000    0.9989605   -2.9800566   -2.9800566   -1.7144073  0.064040042   -2.9800566    1.2656493   547498 
 1469000   0.99965225   -2.9809552   -2.9809552   -1.7144295   0.06497232   -2.9809552    1.2665257   547498 
 1470000   0.99913795   -2.9804224   -2.9804224   -1.7145483  0.063122497   -2.9804224    1.2658741   547498 
 1471000   0.99961139   -2.9814978   -2.9814978   -1.7150239  0.067810058   -2.9814978    1.2664739   547498 
 1472000   0.99915833    -2.981039    -2.981039   -1.7151391  0.061797144    -2.981039    1.2658999   547498 
 1473000    1.0016652   -2.9835031   -2.9835031   -1.7144271  0.057023373   -2.9835031     1.269076   547498 
 1474000    0.9994495   -2.9809784   -2.9809784   -1.7147096  0.058955962   -2.9809784    1.2662688   547498 
 1475000   0.99976017   -2.9818938   -2.9818938   -1.7152314  0.061276196   -2.9818938    1.2666624   547498 
 1476000    1.0001732   -2.9821838   -2.9821838   -1.7149981  0.058649282   -2.9821838    1.2671857   547498 
 1477000   0.99928303   -2.9803637   -2.9803637   -1.7143058  0.064876722   -2.9803637    1.2660579   547498 
 1478000   0.99981035   -2.9816317   -2.9816317   -1.7149058  0.059035977   -2.9816317     1.266726   547498 
 1479000   0.99767129   -2.9796562   -2.9796562   -1.7156403  0.070819197   -2.9796562    1.2640159   547498 
 1480000   0.99735627   -2.9783419   -2.9783419   -1.7147252  0.053696646   -2.9783419    1.2636168   547498 
 1481000    0.9980389   -2.9802396   -2.9802396    -1.715758  0.060563659   -2.9802396    1.2644816   547498 
 1482000   0.99882269   -2.9813479   -2.9813479   -1.7158732  0.062123271   -2.9813479    1.2654747   547498 
 1483000   0.99899009   -2.9804357   -2.9804357    -1.714749  0.060563451   -2.9804357    1.2656868   547498 
 1484000   0.99987838   -2.9811624   -2.9811624   -1.7143502  0.060906299   -2.9811624    1.2668122   547498 
 1485000   0.99977516   -2.9814381   -2.9814381   -1.7147566  0.057636117   -2.9814381    1.2666814   547498 
 1486000   0.99976171   -2.9814975   -2.9814975   -1.7148332  0.058301838   -2.9814975    1.2666644   547498 
 1487000   0.99959367   -2.9804634   -2.9804634   -1.7140119  0.067891222   -2.9804634    1.2664515   547498 
 1488000    1.0002805   -2.9810376   -2.9810376    -1.713716  0.057145238   -2.9810376    1.2673216   547498 
 1489000   0.99983627   -2.9812939   -2.9812939   -1.7145351  0.062146385   -2.9812939    1.2667588   547498 
 1490000   0.99860667    -2.979592    -2.979592    -1.714391   0.06897204    -2.979592     1.265201   547498 
 1491000   0.99914159   -2.9805041   -2.9805041   -1.7146254  0.057500928   -2.9805041    1.2658787   547498 
 1492000   0.99812227   -2.9801539   -2.9801539   -1.7155667  0.061444343   -2.9801539    1.2645873   547498 
 1493000   0.99862931   -2.9802247   -2.9802247    -1.714995  0.058965299   -2.9802247    1.2652297   547498 
 1494000   0.99720179   -2.9780752   -2.9780752   -1.7146542  0.062933431   -2.9780752     1.263421   547498 
 1495000   0.99944741   -2.9815107   -2.9815107   -1.7152446  0.062910138   -2.9815107    1.2662662   547498 
 1496000   0.99852127   -2.9798511   -2.9798511   -1.7147584  0.064678841   -2.9798511    1.2650928   547498 
 1497000   0.99886263    -2.980583    -2.980583   -1.7150577  0.062971458    -2.980583    1.2655253   547498 
 1498000   0.99773999   -2.9793448   -2.9793448   -1.7152419  0.051706405   -2.9793448    1.2641029   547498 
 1499000   0.99887308   -2.9807291   -2.9807291   -1.7151906  0.060804969   -2.9807291    1.2655385   547498 
 1500000   0.99896624   -2.9815305   -2.9815305   -1.7158739  0.062031264   -2.9815305    1.2656565   547498 
 1501000   0.99882666   -2.9810426   -2.9810426   -1.7155629  0.060670629   -2.9810426    1.2654797   547498 
 1502000   0.99942305   -2.9808319   -2.9808319   -1.7145966  0.067611784   -2.9808319    1.2662353   547498 
 1503000   0.99885482   -2.9808499   -2.9808499   -1.7153346  0.071126041   -2.9808499    1.2655154   547498 
 1504000   0.99803075   -2.9803656   -2.9803656   -1.7158943  0.058273795   -2.9803656    1.2644713   547498 
 1505000   0.99888631   -2.9810565   -2.9810565   -1.7155013  0.059703583   -2.9810565    1.2655553   547498 
 1506000    0.9985447   -2.9800164   -2.9800164   -1.7148939   0.06337814   -2.9800164    1.2651225   547498 
 1507000   0.99813103   -2.9796898   -2.9796898   -1.7150915  0.061402208   -2.9796898    1.2645983   547498 
 1508000   0.99857238   -2.9795049   -2.9795049   -1.7143474  0.064880726   -2.9795049    1.2651575   547498 
 1509000   0.99947183   -2.9801676   -2.9801676   -1.7138705  0.065539881   -2.9801676    1.2662971   547498 
 1510000   0.99930491   -2.9795738   -2.9795738   -1.7134882  0.058625356   -2.9795738    1.2660856   547498 
 1511000   0.99916209   -2.9803584   -2.9803584   -1.7144537  0.066187227   -2.9803584    1.2659047   547498 
 1512000   0.99874811   -2.9809107   -2.9809107   -1.7155305   0.06948081   -2.9809107    1.2653802   547498 
 1513000   0.99922966   -2.9809056   -2.9809056   -1.7149154  0.061982373   -2.9809056    1.2659903   547498 
 1514000    0.9998656   -2.9811177   -2.9811177   -1.7143217  0.066445784   -2.9811177     1.266796   547498 
 1515000   0.99854147   -2.9802076   -2.9802076   -1.7150893  0.066608217   -2.9802076    1.2651184   547498 
 1516000     1.000829   -2.9821041   -2.9821041   -1.7140875  0.068830397   -2.9821041    1.2680166   547498 
 1517000    1.0013065   -2.9828133   -2.9828133   -1.7141918  0.062731754   -2.9828133    1.2686215   547498 
 1518000    1.0011092   -2.9822979   -2.9822979   -1.7139263  0.065368787   -2.9822979    1.2683716   547498 
 1519000   0.99961827     -2.98114     -2.98114   -1.7146574  0.059642546     -2.98114    1.2664826   547498 
 1520000   0.99930711    -2.980151    -2.980151   -1.7140626  0.068674973    -2.980151    1.2660884   547498 
 1521000   0.99719915   -2.9782591   -2.9782591   -1.7148414  0.074796159   -2.9782591    1.2634177   547498 
 1522000   0.99919372   -2.9811189   -2.9811189   -1.7151741  0.069654159   -2.9811189    1.2659447   547498 
 1523000   0.99908737   -2.9806929   -2.9806929   -1.7148829  0.065505304   -2.9806929      1.26581   547498 
 1524000   0.99813121   -2.9792875   -2.9792875   -1.7146889   0.06731235   -2.9792875    1.2645986   547498 
 1525000   0.99898332   -2.9803493   -2.9803493   -1.7146711  0.069735524   -2.9803493    1.2656782   547498 
 1526000    1.0000371   -2.9813167   -2.9813167   -1.7143034  0.059309129   -2.9813167    1.2670133   547498 
 1527000    0.9994664   -2.9800108   -2.9800108   -1.7137206  0.066244696   -2.9800108    1.2662902   547498 
 1528000   0.99976831   -2.9794229   -2.9794229   -1.7127502  0.062885809   -2.9794229    1.2666727   547498 
 1529000   0.99939899   -2.9790187   -2.9790187   -1.7128139  0.063831588   -2.9790187    1.2662048   547498 
 1530000   0.99903797   -2.9783549   -2.9783549   -1.7126075  0.061383097   -2.9783549    1.2657474   547498 
 1531000    1.0002539   -2.9803121   -2.9803121   -1.7130241  0.061321409   -2.9803121     1.267288   547498 
 1532000   0.99817078   -2.9775936   -2.9775936   -1.7129449   0.06926536   -2.9775936    1.2646487   547498 
 1533000   0.99833625   -2.9785381   -2.9785381   -1.7136797  0.061457051   -2.9785381    1.2648584   547498 
 1534000   0.99870696   -2.9788432   -2.9788432   -1.7135152  0.070029276   -2.9788432     1.265328   547498 
 1535000   0.99903259   -2.9798785   -2.9798785   -1.7141379  0.054892283   -2.9798785    1.2657406   547498 
 1536000   0.99858396   -2.9788017   -2.9788017   -1.7136295  0.064890899   -2.9788017    1.2651722   547498 
 1537000   0.99745248   -2.9776855   -2.9776855   -1.7139468  0.060492036   -2.9776855    1.2637387   547498 
 1538000   0.99705342   -2.9777483   -2.9777483   -1.7145152  0.062737188   -2.9777483    1.2632331   547498 
 1539000   0.99694376   -2.9777411   -2.9777411    -1.714647  0.058072018   -2.9777411    1.2630941   547498 
 1540000   0.99750828   -2.9779051   -2.9779051   -1.7140958  0.047916535   -2.9779051    1.2638093   547498 
 1541000   0.99715115   -2.9773955   -2.9773955   -1.7140386  0.065847628   -2.9773955    1.2633569   547498 
 1542000   0.99724016   -2.9780474   -2.9780474   -1.7145778  0.054739826   -2.9780474    1.2634696   547498 
 1543000   0.99997799   -2.9800625   -2.9800625   -1.7131241  0.053710491   -2.9800625    1.2669384   547498 
 1544000    1.0002794   -2.9798789   -2.9798789   -1.7125587  0.062767783   -2.9798789    1.2673202   547498 
 1545000    1.0010486   -2.9808176   -2.9808176   -1.7125227  0.057057981   -2.9808176    1.2682948   547498 
 1546000    1.0005141   -2.9810292   -2.9810292   -1.7134116  0.056831247   -2.9810292    1.2676176   547498 
 1547000    1.0010804   -2.9811113   -2.9811113   -1.7127762  0.069813875   -2.9811113    1.2683352   547498 
 1548000    1.0017693   -2.9819919   -2.9819919   -1.7127839  0.062202296   -2.9819919    1.2692079   547498 
 1549000    1.0003674   -2.9807071   -2.9807071   -1.7132753  0.063753786   -2.9807071    1.2674318   547498 
 1550000    1.0009457   -2.9810932   -2.9810932   -1.7129288  0.061218692   -2.9810932    1.2681645   547498 
 1551000    1.0011784   -2.9806375   -2.9806375   -1.7121782  0.069711877   -2.9806375    1.2684593   547498 
 1552000     1.001296    -2.981808    -2.981808   -1.7131997  0.070371938    -2.981808    1.2686083   547498 
 1553000    1.0001291   -2.9808152   -2.9808152   -1.7136853  0.060433376   -2.9808152    1.2671299   547498 
 1554000   0.99994483   -2.9800978   -2.9800978   -1.7132015  0.062165453   -2.9800978    1.2668964   547498 
 1555000   0.99930078   -2.9806454   -2.9806454    -1.714565  0.057169888   -2.9806454    1.2660804   547498 
 1556000    0.9988451   -2.9796822   -2.9796822   -1.7141792  0.056750232   -2.9796822    1.2655031   547498 
 1557000   0.99908485    -2.980343    -2.980343   -1.7145362  0.062844098    -2.980343    1.2658068   547498 
 1558000   0.99862584   -2.9796324   -2.9796324   -1.7144071  0.063922419   -2.9796324    1.2652253   547498 
 1559000   0.99821026   -2.9793666   -2.9793666   -1.7146679  0.057653826   -2.9793666    1.2646987   547498 
 1560000   0.99915211   -2.9812257   -2.9812257   -1.7153337  0.055770854   -2.9812257     1.265892   547498 
 1561000   0.99947436   -2.9806069   -2.9806069   -1.7143066    0.0616133   -2.9806069    1.2663003   547498 
 1562000    1.0003711   -2.9817786   -2.9817786   -1.7143421  0.061350011   -2.9817786    1.2674365   547498 
 1563000    1.0010627   -2.9830909   -2.9830909   -1.7147782  0.060852678   -2.9830909    1.2683127   547498 
 1564000    1.0005397   -2.9815247   -2.9815247   -1.7138746  0.065513327   -2.9815247    1.2676501   547498 
 1565000   0.99977926   -2.9811576   -2.9811576    -1.714471  0.062877481   -2.9811576    1.2666866   547498 
 1566000   0.99877679    -2.980776    -2.980776   -1.7153595  0.070868721    -2.980776    1.2654165   547498 
 1567000    0.9996108   -2.9813408   -2.9813408   -1.7148676  0.066981156   -2.9813408    1.2664732   547498 
 1568000    1.0008445   -2.9817538   -2.9817538   -1.7137176  0.066988698   -2.9817538    1.2680362   547498 
 1569000     1.000392   -2.9813913   -2.9813913   -1.7139283  0.066575239   -2.9813913     1.267463   547498 
 1570000   0.99884281   -2.9800951   -2.9800951   -1.7145949  0.061139466   -2.9800951    1.2655002   547498 
 1571000   0.99811271   -2.9797434   -2.9797434   -1.7151682  0.062152635   -2.9797434    1.2645751   547498 
 1572000   0.99785964   -2.9790696   -2.9790696   -1.7148151  0.064069585   -2.9790696    1.2642545   547498 
 1573000    0.9996829     -2.98056     -2.98056   -1.7139954  0.071614394     -2.98056    1.2665645   547498 
 1574000    0.9989099    -2.979494    -2.979494   -1.7139089  0.064037548    -2.979494    1.2655852   547498 
 1575000   0.99926746   -2.9801853   -2.9801853   -1.7141471  0.072013724   -2.9801853    1.2660382   547498 
 1576000   0.99959701    -2.980037    -2.980037   -1.7135813  0.067920881    -2.980037    1.2664557   547498 
 1577000     1.000661   -2.9807926   -2.9807926   -1.7129889  0.062106404   -2.9807926    1.2678037   547498 
 1578000   0.99906939   -2.9797666   -2.9797666   -1.7139794  0.068018861   -2.9797666    1.2657872   547498 
 1579000   0.99921884   -2.9796682   -2.9796682   -1.7136916  0.068987646   -2.9796682    1.2659766   547498 
 1580000   0.99964216   -2.9797062   -2.9797062   -1.7131933   0.05879775   -2.9797062    1.2665129   547498 
 1581000    0.9990584   -2.9793074   -2.9793074   -1.7135341  0.070677857   -2.9793074    1.2657733   547498 
 1582000   0.99687868   -2.9778829   -2.9778829   -1.7148712   0.06078121   -2.9778829    1.2630117   547498 
 1583000   0.99809845   -2.9793948   -2.9793948   -1.7148378   0.06482702   -2.9793948    1.2645571   547498 
 1584000   0.99876553   -2.9795883   -2.9795883   -1.7141861  0.063853542   -2.9795883    1.2654022   547498 
 1585000   0.99926832   -2.9801734   -2.9801734   -1.7141341   0.05612557   -2.9801734    1.2660393   547498 
 1586000   0.99841468   -2.9790205   -2.9790205   -1.7140628  0.068932467   -2.9790205    1.2649577   547498 
 1587000   0.99812912   -2.9794583   -2.9794583   -1.7148624  0.061744256   -2.9794583    1.2645959   547498 
 1588000   0.99881526   -2.9794873   -2.9794873   -1.7140221  0.061638011   -2.9794873    1.2654653   547498 
 1589000    0.9995369   -2.9796542   -2.9796542   -1.7132747  0.053358966   -2.9796542    1.2663795   547498 
 1590000    1.0009319   -2.9810946   -2.9810946   -1.7129476    0.0590365   -2.9810946     1.268147   547498 
 1591000    1.0004311   -2.9817252   -2.9817252   -1.7142128  0.070802253   -2.9817252    1.2675124   547498 
 1592000   0.99975937   -2.9799381   -2.9799381   -1.7132767  0.064346024   -2.9799381    1.2666614   547498 
 1593000    1.0001979   -2.9801341   -2.9801341   -1.7129171  0.064608227   -2.9801341     1.267217   547498 
 1594000    1.0011786   -2.9811062   -2.9811062   -1.7126467  0.054841525   -2.9811062    1.2684595   547498 
 1595000    1.0004458   -2.9808698   -2.9808698   -1.7133388  0.060882786   -2.9808698     1.267531   547498 
 1596000    1.0012255   -2.9812859   -2.9812859    -1.712767   0.06470987   -2.9812859    1.2685189   547498 
 1597000   0.99941743   -2.9788141   -2.9788141    -1.712586  0.065608114   -2.9788141    1.2662282   547498 
 1598000   0.99937291   -2.9785225   -2.9785225   -1.7123508   0.06243718   -2.9785225    1.2661718   547498 
 1599000    1.0007469   -2.9804116   -2.9804116   -1.7124991  0.069272986   -2.9804116    1.2679125   547498 
 1600000   0.99884205   -2.9785914   -2.9785914   -1.7130922  0.060669366   -2.9785914    1.2654992   547498 
 1601000   0.99810565    -2.977497    -2.977497   -1.7129308  0.064147742    -2.977497    1.2645662   547498 
 1602000   0.99981047   -2.9794582   -2.9794582    -1.712732  0.065443514   -2.9794582    1.2667261   547498 
 1603000   0.99901933   -2.9779315   -2.9779315   -1.7122077  0.062617293   -2.9779315    1.2657238   547498 
 1604000   0.99874234    -2.978068    -2.978068   -1.7126951  0.056260645    -2.978068    1.2653729   547498 
 1605000    0.9982141    -2.977123    -2.977123   -1.7124194  0.063046287    -2.977123    1.2647036   547498 
 1606000   0.99828534   -2.9773978   -2.9773978   -1.7126039     0.062287   -2.9773978    1.2647939   547498 
 1607000   0.99837135    -2.977702    -2.977702   -1.7127992  0.058736387    -2.977702    1.2649028   547498 
 1608000   0.99826328   -2.9778464   -2.9778464   -1.7130805  0.057517829   -2.9778464    1.2647659   547498 
 1609000   0.99913884   -2.9782809   -2.9782809   -1.7124057  0.055577721   -2.9782809    1.2658752   547498 
 1610000   0.99859437   -2.9773291   -2.9773291   -1.7121437  0.058091001   -2.9773291    1.2651854   547498 
 1611000   0.99704943   -2.9754483   -2.9754483   -1.7122203  0.059945688   -2.9754483     1.263228   547498 
 1612000   0.99860958   -2.9769149   -2.9769149   -1.7117103  0.067455165   -2.9769149    1.2652047   547498 
 1613000   0.99856969   -2.9776408   -2.9776408   -1.7124866  0.055826088   -2.9776408    1.2651541   547498 
 1614000   0.99908112   -2.9774065   -2.9774065   -1.7116044  0.058761749   -2.9774065    1.2658021   547498 
 1615000   0.99869958   -2.9769115   -2.9769115   -1.7115929  0.067060181   -2.9769115    1.2653187   547498 
 1616000   0.99790817   -2.9764885   -2.9764885   -1.7121725   0.05999041   -2.9764885     1.264316   547498 
 1617000   0.99899933   -2.9777485   -2.9777485     -1.71205  0.060615222   -2.9777485    1.2656985   547498 
 1618000    1.0005057   -2.9807749   -2.9807749   -1.7131679  0.057571108   -2.9807749     1.267607   547498 
 1619000   0.99871392   -2.9782047   -2.9782047   -1.7128678  0.066941847   -2.9782047    1.2653369   547498 
 1620000    1.0002977   -2.9793992   -2.9793992   -1.7120558  0.070000003   -2.9793992    1.2673435   547498 
 1621000    1.0003998   -2.9788159   -2.9788159    -1.711343  0.069944556   -2.9788159    1.2674729   547498 
 1622000   0.99920454    -2.977749    -2.977749   -1.7117906  0.061878091    -2.977749    1.2659585   547498 
 1623000   0.99861287    -2.977128    -2.977128   -1.7119192  0.064478706    -2.977128    1.2652088   547498 
 1624000    1.0002933   -2.9797592   -2.9797592   -1.7124214   0.07787547   -2.9797592    1.2673378   547498 
 1625000    1.0002827   -2.9788503   -2.9788503   -1.7115258  0.062700405   -2.9788503    1.2673244   547498 
 1626000    1.0002143    -2.979369    -2.979369   -1.7121312  0.066715566    -2.979369    1.2672378   547498 
 1627000   0.99995456   -2.9792834   -2.9792834   -1.7123747  0.059389856   -2.9792834    1.2669087   547498 
 1628000    1.0005403   -2.9804726   -2.9804726   -1.7128218  0.064171255   -2.9804726    1.2676508   547498 
 1629000    1.0008732   -2.9798591   -2.9798591   -1.7117866  0.058135043   -2.9798591    1.2680726   547498 
 1630000   0.99932492    -2.978903    -2.978903    -1.712792  0.057160623    -2.978903     1.266111   547498 
 1631000   0.99901302   -2.9787462   -2.9787462   -1.7130304  0.065665602   -2.9787462    1.2657158   547498 
 1632000    1.0006861   -2.9823629   -2.9823629   -1.7145274  0.060414781   -2.9823629    1.2678356   547498 
 1633000    1.0011465   -2.9822905   -2.9822905   -1.7138717  0.063329666   -2.9822905    1.2684188   547498 
 1634000    1.0010566   -2.9817301   -2.9817301   -1.7134251  0.050958445   -2.9817301    1.2683049   547498 
 1635000    1.0001954    -2.980761    -2.980761   -1.7135472  0.065920728    -2.980761    1.2672138   547498 
 1636000    0.9989874   -2.9792735   -2.9792735   -1.7135901   0.05860251   -2.9792735    1.2656833   547498 
 1637000   0.99924974   -2.9798005   -2.9798005   -1.7137848  0.060470413   -2.9798005    1.2660157   547498 
 1638000   0.99890704   -2.9778976   -2.9778976   -1.7123161   0.06534321   -2.9778976    1.2655815   547498 
 1639000    1.0002805   -2.9795819   -2.9795819   -1.7122603  0.056689524   -2.9795819    1.2673217   547498 
 1640000    1.0009308   -2.9816266   -2.9816266   -1.7134811  0.066034617   -2.9816266    1.2681455   547498 
 1641000    1.0007266   -2.9799562   -2.9799562   -1.7120693  0.066337218   -2.9799562    1.2678869   547498 
 1642000   0.99964276   -2.9792422   -2.9792422   -1.7127285  0.070086525   -2.9792422    1.2665137   547498 
 1643000   0.99960641   -2.9794367   -2.9794367   -1.7129691  0.072496026   -2.9794367    1.2664676   547498 
 1644000   0.99983382   -2.9799772   -2.9799772   -1.7132214  0.070686855   -2.9799772    1.2667557   547498 
 1645000   0.99918911   -2.9790507   -2.9790507   -1.7131118   0.05871108   -2.9790507    1.2659389   547498 
 1646000    1.0004805   -2.9802698   -2.9802698   -1.7126947  0.064781541   -2.9802698     1.267575   547498 
 1647000   0.99970762   -2.9791478   -2.9791478    -1.712552    0.0636497   -2.9791478    1.2665958   547498 
 1648000    0.9997454   -2.9783291   -2.9783291   -1.7116854   0.06393556   -2.9783291    1.2666437   547498 
 1649000   0.99819869    -2.977494    -2.977494   -1.7128099  0.060872192    -2.977494    1.2646841   547498 
 1650000   0.99855296   -2.9763888   -2.9763888   -1.7112559  0.059694975   -2.9763888    1.2651329   547498 
 1651000   0.99784491    -2.975102    -2.975102   -1.7108662  0.071293936    -2.975102    1.2642359   547498 
 1652000    0.9980659   -2.9755413   -2.9755413   -1.7110255  0.062144572   -2.9755413    1.2645158   547498 
 1653000   0.99982223   -2.9779537   -2.9779537   -1.7112127  0.071181293   -2.9779537     1.266741   547498 
 1654000   0.99919255   -2.9777809   -2.9777809   -1.7118376  0.068308661   -2.9777809    1.2659433   547498 
 1655000   0.99882249    -2.976386    -2.976386   -1.7109116  0.061004851    -2.976386    1.2654744   547498 
 1656000   0.99896612   -2.9767616   -2.9767616   -1.7111052  0.060607803   -2.9767616    1.2656564   547498 
 1657000   0.99934578   -2.9771897   -2.9771897   -1.7110523  0.065640859   -2.9771897    1.2661374   547498 
 1658000   0.99993486   -2.9775253   -2.9775253   -1.7106415  0.066461676   -2.9775253    1.2668837   547498 
 1659000   0.99961149   -2.9770929   -2.9770929   -1.7106189  0.055967252   -2.9770929     1.266474   547498 
 1660000   0.99740335   -2.9742945   -2.9742945   -1.7106181  0.061672118   -2.9742945    1.2636764   547498 
 1661000   0.99893842   -2.9764493   -2.9764493    -1.710828  0.070579502   -2.9764493    1.2656213   547498 
 1662000   0.99866197   -2.9757688   -2.9757688   -1.7104977  0.070217002   -2.9757688     1.265271   547498 
 1663000   0.99799651   -2.9748658   -2.9748658   -1.7104379  0.061405443   -2.9748658    1.2644279   547498 
 1664000   0.99841877   -2.9756899   -2.9756899    -1.710727  0.063159697   -2.9756899    1.2649629   547498 
 1665000    0.9992206   -2.9768331   -2.9768331   -1.7108543  0.060404498   -2.9768331    1.2659788   547498 
 1666000    1.0001915   -2.9772304   -2.9772304   -1.7100215  0.060979013   -2.9772304    1.2672089   547498 
 1667000   0.99995766   -2.9767843   -2.9767843   -1.7098716  0.059351207   -2.9767843    1.2669126   547498 
 1668000    1.0005611   -2.9776698   -2.9776698   -1.7099926  0.060598338   -2.9776698    1.2676772   547498 
 1669000    0.9994792   -2.9760392   -2.9760392   -1.7097328  0.065113396   -2.9760392    1.2663064   547498 
 1670000   0.99810106    -2.975001    -2.975001   -1.7104406  0.067051649    -2.975001    1.2645604   547498 
 1671000    1.0007801   -2.9782876   -2.9782876   -1.7103329  0.056819614   -2.9782876    1.2679547   547498 
 1672000   0.99913185   -2.9764066   -2.9764066   -1.7105402  0.067429939   -2.9764066    1.2658664   547498 
 1673000    1.0019708    -2.979124    -2.979124   -1.7096608  0.067364617    -2.979124    1.2694632   547498 
 1674000    1.0000988   -2.9760329   -2.9760329   -1.7089414  0.063400918   -2.9760329    1.2670915   547498 
 1675000    1.0016399    -2.978463    -2.978463   -1.7094191  0.061401184    -2.978463    1.2690439   547498 
 1676000    1.0000694   -2.9771289   -2.9771289   -1.7100747  0.066465717   -2.9771289    1.2670543   547498 
 1677000   0.99992102   -2.9770011   -2.9770011   -1.7101349  0.070556796   -2.9770011    1.2668662   547498 
 1678000    1.0008408   -2.9783648   -2.9783648   -1.7103332  0.060736392   -2.9783648    1.2680316   547498 
 1679000   0.99964806   -2.9764591   -2.9764591   -1.7099388  0.078946852   -2.9764591    1.2665204   547498 
 1680000   0.99896602   -2.9768987   -2.9768987   -1.7112424  0.066842049   -2.9768987    1.2656563   547498 
 1681000   0.99964263    -2.977986    -2.977986   -1.7114725  0.068538085    -2.977986    1.2665135   547498 
 1682000   0.99982061   -2.9787415   -2.9787415   -1.7120025  0.055430997   -2.9787415     1.266739   547498 
 1683000    1.0004571   -2.9793804   -2.9793804    -1.711835  0.070648782   -2.9793804    1.2675454   547498 
 1684000   0.99902703   -2.9775999   -2.9775999   -1.7118664    0.0718971   -2.9775999    1.2657336   547498 
 1685000   0.99852139   -2.9764685   -2.9764685   -1.7113756  0.054249273   -2.9764685    1.2650929   547498 
 1686000   0.99863779   -2.9768539   -2.9768539   -1.7116135  0.065506223   -2.9768539    1.2652404   547498 
 1687000    1.0006464   -2.9789098   -2.9789098   -1.7111245  0.059037394   -2.9789098    1.2677853   547498 
 1688000    0.9986267    -2.976459    -2.976459   -1.7112326    0.0669733    -2.976459    1.2652263   547498 
 1689000   0.99888084   -2.9764303   -2.9764303   -1.7108819   0.07163853   -2.9764303    1.2655483   547498 
 1690000   0.99955181   -2.9783291   -2.9783291   -1.7119306  0.065953679   -2.9783291    1.2663984   547498 
 1691000   0.99996665    -2.978034    -2.978034     -1.71111  0.062442249    -2.978034     1.266924   547498 
 1692000   0.99937643   -2.9766542   -2.9766542    -1.710478  0.057775769   -2.9766542    1.2661762   547498 
 1693000    1.0009862   -2.9794945   -2.9794945   -1.7112788  0.061037784   -2.9794945    1.2682157   547498 
 1694000   0.99960602   -2.9770264   -2.9770264   -1.7105592  0.060409037   -2.9770264    1.2664671   547498 
 1695000   0.99952308   -2.9778318   -2.9778318   -1.7114698  0.072490985   -2.9778318     1.266362   547498 
 1696000   0.99943354   -2.9783307   -2.9783307   -1.7120821  0.055565645   -2.9783307    1.2662486   547498 
 1697000   0.99902386   -2.9776495   -2.9776495     -1.71192  0.061861607   -2.9776495    1.2657295   547498 
 1698000    0.9998039   -2.9778605   -2.9778605   -1.7111426  0.060457158   -2.9778605    1.2667178   547498 
 1699000   0.99961085    -2.978875    -2.978875   -1.7124017  0.068168108    -2.978875    1.2664732   547498 
 1700000   0.99868158   -2.9776952   -2.9776952   -1.7123993  0.057613255   -2.9776952    1.2652959   547498 
 1701000   0.99664624   -2.9749008   -2.9749008   -1.7121836   0.07317047   -2.9749008    1.2627172   547498 
 1702000   0.99794231   -2.9764962   -2.9764962   -1.7121369  0.056977781   -2.9764962    1.2643592   547498 
 1703000   0.99935254   -2.9772872   -2.9772872   -1.7111413   0.05337238   -2.9772872     1.266146   547498 
 1704000   0.99873602   -2.9774902   -2.9774902   -1.7121254  0.066940362   -2.9774902    1.2653648   547498 
 1705000   0.99965227   -2.9784537   -2.9784537    -1.711928  0.062648341   -2.9784537    1.2665257   547498 
 1706000     1.000378   -2.9797604   -2.9797604   -1.7123152  0.069092829   -2.9797604    1.2674452   547498 
 1707000    1.0007163   -2.9798203   -2.9798203   -1.7119465  0.063981949   -2.9798203    1.2678738   547498 
 1708000    1.0022159   -2.9815174   -2.9815174   -1.7117437  0.075825809   -2.9815174    1.2697737   547498 
 1709000    1.0011593   -2.9802527   -2.9802527   -1.7118177  0.070287546   -2.9802527     1.268435   547498 
 1710000     1.001508   -2.9797812   -2.9797812   -1.7109043  0.067591196   -2.9797812    1.2688768   547498 
 1711000    1.0022456   -2.9805461   -2.9805461   -1.7107347  0.067885815   -2.9805461    1.2698114   547498 
 1712000    1.0024836   -2.9799484   -2.9799484   -1.7098355  0.068819615   -2.9799484    1.2701129   547498 
 1713000    1.0028056   -2.9799797   -2.9799797   -1.7094589  0.062030004   -2.9799797    1.2705208   547498 
 1714000    1.0010847    -2.978641    -2.978641   -1.7103004  0.068738783    -2.978641    1.2683406   547498 
 1715000    1.0026432   -2.9804807   -2.9804807   -1.7101655  0.058531487   -2.9804807    1.2703152   547498 
 1716000    1.0007737   -2.9792506   -2.9792506   -1.7113042   0.06660256   -2.9792506    1.2679465   547498 
 1717000    1.0021802   -2.9805096   -2.9805096   -1.7107811  0.052990748   -2.9805096    1.2697286   547498 
 1718000   0.99993617   -2.9781489   -2.9781489   -1.7112635  0.070144789   -2.9781489    1.2668854   547498 
 1719000   0.99942773   -2.9775149   -2.9775149   -1.7112737   0.06874873   -2.9775149    1.2662412   547498 
 1720000    1.0007165   -2.9790136   -2.9790136   -1.7111396  0.062824847   -2.9790136     1.267874   547498 
 1721000    1.0011602   -2.9795012   -2.9795012    -1.711065  0.060670952   -2.9795012    1.2684362   547498 
 1722000    1.0004807   -2.9778817   -2.9778817   -1.7103064  0.070164801   -2.9778817    1.2675752   547498 
 1723000   0.99965712   -2.9779437   -2.9779437   -1.7114118  0.066587239   -2.9779437    1.2665319   547498 
 1724000   0.99964741   -2.9785405   -2.9785405    -1.712021  0.056307696   -2.9785405    1.2665196   547498 
 1725000   0.99874068    -2.977492    -2.977492   -1.7121213  0.065002924    -2.977492    1.2653708   547498 
 1726000   0.99890362   -2.9782196   -2.9782196   -1.7126424  0.064322276   -2.9782196    1.2655772   547498 
 1727000   0.99817606   -2.9774009   -2.9774009   -1.7127455  0.056679613   -2.9774009    1.2646554   547498 
 1728000   0.99873708   -2.9778043   -2.9778043   -1.7124381  0.073765545   -2.9778043    1.2653662   547498 
 1729000    0.9981126   -2.9767679   -2.9767679   -1.7121929  0.060003203   -2.9767679     1.264575   547498 
 1730000   0.99660146   -2.9736333   -2.9736333   -1.7109729  0.055584657   -2.9736333    1.2626604   547498 
 1731000    1.0000473    -2.977527    -2.977527   -1.7105008  0.058097576    -2.977527    1.2670262   547498 
 1732000   0.99858901   -2.9757048   -2.9757048   -1.7105262  0.064705123   -2.9757048    1.2651786   547498 
 1733000   0.99843685   -2.9759417   -2.9759417   -1.7109558  0.055422296   -2.9759417    1.2649858   547498 
 1734000   0.99766278   -2.9753559   -2.9753559   -1.7113508  0.066332041   -2.9753559    1.2640051   547498 
 1735000   0.99815987   -2.9770287   -2.9770287   -1.7123938  0.057318836   -2.9770287    1.2646349   547498 
 1736000    1.0007602   -2.9788066   -2.9788066   -1.7108772  0.062310715   -2.9788066    1.2679294   547498 
 1737000    1.0003465   -2.9781232   -2.9781232    -1.710718  0.073324693   -2.9781232    1.2674052   547498 
 1738000    1.0010127   -2.9790427   -2.9790427   -1.7107935  0.065534123   -2.9790427    1.2682493   547498 
 1739000   0.99991327    -2.977819    -2.977819   -1.7109626  0.061903523    -2.977819    1.2668564   547498 
 1740000    1.0006775   -2.9783853   -2.9783853   -1.7105606    0.0676899   -2.9783853    1.2678246   547498 
 1741000    1.0019184   -2.9800938   -2.9800938    -1.710697  0.058347906   -2.9800938    1.2693968   547498 
 1742000     1.000662   -2.9796841   -2.9796841   -1.7118792  0.056511604   -2.9796841     1.267805   547498 
 1743000    1.0007751   -2.9803077   -2.9803077   -1.7123594  0.069683747   -2.9803077    1.2679483   547498 
 1744000    1.0009552   -2.9801886   -2.9801886   -1.7120121  0.067216681   -2.9801886    1.2681765   547498 
 1745000   0.99912622    -2.978785    -2.978785   -1.7129258  0.065052376    -2.978785    1.2658592   547498 
 1746000   0.99879353   -2.9776056   -2.9776056   -1.7121679  0.061311676   -2.9776056    1.2654377   547498 
 1747000   0.99823595   -2.9780934   -2.9780934   -1.7133621  0.067895398   -2.9780934    1.2647313   547498 
 1748000   0.99976602   -2.9793653   -2.9793653   -1.7126955  0.062238249   -2.9793653    1.2666698   547498 
 1749000   0.99925627   -2.9790286   -2.9790286   -1.7130046  0.062146876   -2.9790286     1.266024   547498 
 1750000   0.99919525   -2.9793232   -2.9793232   -1.7133765  0.069401321   -2.9793232    1.2659467   547498 
 1751000    1.0005182   -2.9809751   -2.9809751   -1.7133523  0.059121155   -2.9809751    1.2676228   547498 
 1752000    1.0017003   -2.9809443   -2.9809443   -1.7118238  0.068689217   -2.9809443    1.2691205   547498 
 1753000    1.0021818   -2.9821817   -2.9821817   -1.7124511  0.064452867   -2.9821817    1.2697306   547498 
 1754000    1.0006073   -2.9812069   -2.9812069   -1.7134712  0.068792029   -2.9812069    1.2677357   547498 
 1755000    1.0000882   -2.9799113   -2.9799113   -1.7128333  0.063918418   -2.9799113     1.267078   547498 
 1756000   0.99961396    -2.980046    -2.980046   -1.7135689  0.058351586    -2.980046    1.2664772   547498 
 1757000    1.0002708   -2.9812627   -2.9812627   -1.7139534  0.058832213   -2.9812627    1.2673093   547498 
 1758000    1.0005466   -2.9806576   -2.9806576   -1.7129987   0.06409667   -2.9806576    1.2676588   547498 
 1759000   0.99952674   -2.9799136   -2.9799136   -1.7135469  0.054744397   -2.9799136    1.2663667   547498 
 1760000    1.0010006   -2.9828915   -2.9828915   -1.7146576  0.063379768   -2.9828915    1.2682339   547498 
 1761000   0.99944456   -2.9810195   -2.9810195    -1.714757  0.063450824   -2.9810195    1.2662625   547498 
 1762000    1.0001884   -2.9817647   -2.9817647   -1.7145598  0.061364224   -2.9817647    1.2672049   547498 
 1763000   0.99971815   -2.9802296   -2.9802296   -1.7136204  0.063684904   -2.9802296    1.2666092   547498 
 1764000   0.99851046   -2.9794095   -2.9794095   -1.7143304  0.059679811   -2.9794095    1.2650791   547498 
 1765000   0.99859739   -2.9796171   -2.9796171   -1.7144279  0.070644237   -2.9796171    1.2651892   547498 
 1766000    0.9990378   -2.9801425   -2.9801425   -1.7143953  0.065436212   -2.9801425    1.2657472   547498 
 1767000   0.99859905   -2.9800127   -2.9800127   -1.7148214  0.062087672   -2.9800127    1.2651913   547498 
 1768000   0.99911691   -2.9797148   -2.9797148   -1.7138674  0.070277739   -2.9797148    1.2658474   547498 
 1769000   0.99857462   -2.9786643   -2.9786643    -1.713504  0.062930996   -2.9786643    1.2651604   547498 
 1770000   0.99848949   -2.9789422   -2.9789422   -1.7138897  0.059404071   -2.9789422    1.2650525   547498 
 1771000   0.99760195   -2.9778178   -2.9778178   -1.7138897  0.061386095   -2.9778178     1.263928   547498 
 1772000   0.99665694   -2.9763318   -2.9763318    -1.713601  0.064691516   -2.9763318    1.2627307   547498 
 1773000   0.99854078   -2.9792531   -2.9792531   -1.7141356  0.058747745   -2.9792531    1.2651175   547498 
 1774000    1.0002664   -2.9803423   -2.9803423   -1.7130386  0.061232601   -2.9803423    1.2673038   547498 
 1775000    1.0002741   -2.9795634   -2.9795634   -1.7122499  0.063989178   -2.9795634    1.2673135   547498 
 1776000    1.0000128   -2.9789464   -2.9789464    -1.711964  0.071030958   -2.9789464    1.2669825   547498 
 1777000    1.0012246   -2.9799584   -2.9799584   -1.7114406  0.070426405   -2.9799584    1.2685178   547498 
 1778000    1.0015176   -2.9808341   -2.9808341    -1.711945  0.064070263   -2.9808341    1.2688891   547498 
 1779000    1.0006739   -2.9799839   -2.9799839   -1.7121639  0.060233125   -2.9799839      1.26782   547498 
 1780000    1.0006459   -2.9797784   -2.9797784   -1.7119938  0.070486973   -2.9797784    1.2677846   547498 
 1781000    1.0003609   -2.9794618   -2.9794618   -1.7120382   0.04651234   -2.9794618    1.2674236   547498 
 1782000   0.99994214   -2.9784975   -2.9784975   -1.7116045  0.063783871   -2.9784975     1.266893   547498 
 1783000    1.0008554   -2.9796996   -2.9796996   -1.7116496  0.058324432   -2.9796996      1.26805   547498 
 1784000    1.0006412   -2.9788784   -2.9788784   -1.7110998  0.055992098   -2.9788784    1.2677786   547498 
 1785000   0.99968947   -2.9777162   -2.9777162   -1.7111434  0.060638985   -2.9777162    1.2665728   547498 
 1786000   0.99901315   -2.9767924   -2.9767924   -1.7110764  0.056291904   -2.9767924     1.265716   547498 
 1787000    1.0005971   -2.9790125   -2.9790125   -1.7112898  0.058108481   -2.9790125    1.2677228   547498 
 1788000    0.9988815   -2.9774179   -2.9774179   -1.7118688  0.066312577   -2.9774179    1.2655492   547498 
 1789000   0.99959733   -2.9766326   -2.9766326   -1.7101765  0.053489097   -2.9766326    1.2664561   547498 
 1790000    1.0003412   -2.9785054   -2.9785054   -1.7111068  0.069212305   -2.9785054    1.2673986   547498 
 1791000   0.99928323   -2.9776751   -2.9776751    -1.711617   0.06075554   -2.9776751    1.2660581   547498 
 1792000   0.99981827   -2.9775567   -2.9775567   -1.7108206    0.0682307   -2.9775567     1.266736   547498 
 1793000   0.99927012    -2.976099    -2.976099   -1.7100574   0.06741764    -2.976099    1.2660415   547498 
 1794000    1.0008403   -2.9792761   -2.9792761   -1.7112452  0.071387959   -2.9792761    1.2680309   547498 
 1795000    1.0002153   -2.9781686   -2.9781686   -1.7109295  0.067872483   -2.9781686     1.267239   547498 
 1796000    1.0017929   -2.9795617   -2.9795617   -1.7103238  0.062632017   -2.9795617    1.2692379   547498 
 1797000    1.0001248   -2.9773349   -2.9773349   -1.7102104  0.059482536   -2.9773349    1.2671244   547498 
 1798000    1.0014224   -2.9799165   -2.9799165    -1.711148  0.068821451   -2.9799165    1.2687685   547498 
 1799000    1.0009715   -2.9784843   -2.9784843   -1.7102871  0.064679921   -2.9784843    1.2681972   547498 
 1800000    1.0009725   -2.9792517   -2.9792517   -1.7110533  0.060601242   -2.9792517    1.2681984   547498 
 1801000    1.0014901   -2.9800969   -2.9800969   -1.7112427   0.05931866   -2.9800969    1.2688542   547498 
 1802000     1.001041   -2.9794252   -2.9794252   -1.7111401   0.05031245   -2.9794252    1.2682851   547498 
 1803000      1.00011   -2.9787311   -2.9787311   -1.7116254  0.067025306   -2.9787311    1.2671057   547498 
 1804000   0.99986585   -2.9786942   -2.9786942   -1.7118979  0.071786482   -2.9786942    1.2667963   547498 
 1805000    1.0006601   -2.9791062   -2.9791062   -1.7113036  0.059293692   -2.9791062    1.2678026   547498 
 1806000     1.000227   -2.9793323   -2.9793323   -1.7120784  0.059066186   -2.9793323    1.2672539   547498 
 1807000   0.99924716   -2.9792842   -2.9792842   -1.7132718  0.065006252   -2.9792842    1.2660125   547498 
 1808000   0.99947702   -2.9796863   -2.9796863   -1.7133826  0.064152294   -2.9796863    1.2663037   547498 
 1809000    1.0003785   -2.9803735   -2.9803735   -1.7129277   0.05884879   -2.9803735    1.2674458   547498 
 1810000   0.99928298   -2.9798982   -2.9798982   -1.7138404  0.055495657   -2.9798982    1.2660578   547498 
 1811000   0.99839192   -2.9785424   -2.9785424   -1.7136135  0.069290756   -2.9785424    1.2649289   547498 
 1812000   0.99974275   -2.9796872   -2.9796872   -1.7130469  0.073062686   -2.9796872    1.2666403   547498 
 1813000   0.99983094    -2.979545    -2.979545   -1.7127929  0.060641053    -2.979545    1.2667521   547498 
 1814000    1.0003918   -2.9807688   -2.9807688   -1.7133061  0.069575797   -2.9807688    1.2674627   547498 
 1815000    1.0003039   -2.9811411   -2.9811411   -1.7137898  0.059134272   -2.9811411    1.2673513   547498 
 1816000    1.0004918    -2.981754    -2.981754   -1.7141647  0.052669009    -2.981754    1.2675893   547498 
 1817000    1.0007146   -2.9825595   -2.9825595   -1.7146879  0.055907139   -2.9825595    1.2678716   547498 
 1818000   0.99985032    -2.980728    -2.980728   -1.7139514  0.068901984    -2.980728    1.2667766   547498 
 1819000    1.0011724   -2.9828617   -2.9828617     -1.71441  0.058326979   -2.9828617    1.2684517   547498 
 1820000    1.0003993   -2.9814547   -2.9814547   -1.7139825  0.074161098   -2.9814547    1.2674722   547498 
 1821000   0.99974315   -2.9809901   -2.9809901   -1.7143493  0.065019927   -2.9809901    1.2666409   547498 
 1822000   0.99948857     -2.98026     -2.98026   -1.7139417  0.064405944     -2.98026    1.2663183   547498 
 1823000   0.99991828   -2.9806061   -2.9806061   -1.7137434  0.069596112   -2.9806061    1.2668627   547498 
 1824000    1.0003512   -2.9809646   -2.9809646   -1.7135533  0.071951754   -2.9809646    1.2674113   547498 
 1825000    1.0007871   -2.9815482   -2.9815482   -1.7135847  0.072819237   -2.9815482    1.2679635   547498 
 1826000    1.0008259   -2.9819439   -2.9819439   -1.7139313  0.066595268   -2.9819439    1.2680127   547498 
 1827000    1.0001968   -2.9825378   -2.9825378   -1.7153222  0.063416374   -2.9825378    1.2672156   547498 
 1828000   0.99942821   -2.9809271   -2.9809271   -1.7146853  0.062883449   -2.9809271    1.2662418   547498 
 1829000   0.99906514   -2.9800717   -2.9800717   -1.7142899  0.065598853   -2.9800717    1.2657818   547498 
 1830000   0.99899078   -2.9798079   -2.9798079   -1.7141202  0.067400486   -2.9798079    1.2656876   547498 
 1831000   0.99844023   -2.9798845   -2.9798845   -1.7148944   0.06147349   -2.9798845    1.2649901   547498 
 1832000   0.99939806   -2.9804365   -2.9804365   -1.7142329  0.065245002   -2.9804365    1.2662036   547498 
 1833000   0.99919537   -2.9813259   -2.9813259    -1.715379  0.069189524   -2.9813259    1.2659468   547498 
 1834000   0.99877453   -2.9793053   -2.9793053   -1.7138917   0.06596633   -2.9793053    1.2654136   547498 
 1835000   0.99976356   -2.9803777   -2.9803777    -1.713711  0.054403514   -2.9803777    1.2666667   547498 
 1836000    1.0009171   -2.9813694   -2.9813694   -1.7132413  0.061196944   -2.9813694    1.2681282   547498 
 1837000    1.0002492   -2.9795541   -2.9795541   -1.7122721  0.066173192   -2.9795541     1.267282   547498 
 1838000    1.0002548   -2.9793447   -2.9793447   -1.7120557  0.061991788   -2.9793447     1.267289   547498 
 1839000    1.0014861   -2.9803792   -2.9803792   -1.7115302  0.069705352   -2.9803792    1.2688491   547498 
 1840000   0.99937977   -2.9785102   -2.9785102   -1.7123297  0.065542662   -2.9785102    1.2661805   547498 
 1841000    1.0010592   -2.9814864   -2.9814864   -1.7131781  0.070180506   -2.9814864    1.2683083   547498 
 1842000    1.0017822   -2.9811207   -2.9811207   -1.7118964  0.069067554   -2.9811207    1.2692243   547498 
 1843000   0.99963719   -2.9794986   -2.9794986    -1.712992  0.070561262   -2.9794986    1.2665066   547498 
 1844000   0.99856103   -2.9784052   -2.9784052    -1.713262  0.076527731   -2.9784052    1.2651431   547498 
 1845000    1.0000699   -2.9799808   -2.9799808   -1.7129259  0.068075432   -2.9799808    1.2670549   547498 
 1846000   0.99912886   -2.9790872   -2.9790872   -1.7132246  0.061441431   -2.9790872    1.2658626   547498 
 1847000   0.99883477   -2.9789274   -2.9789274   -1.7134374  0.058991567   -2.9789274      1.26549   547498 
 1848000   0.99932595   -2.9792978   -2.9792978   -1.7131855  0.068948952   -2.9792978    1.2661123   547498 
 1849000   0.99778435   -2.9789646   -2.9789646   -1.7148055   0.06824781   -2.9789646    1.2641591   547498 
 1850000   0.99920582   -2.9802115   -2.9802115   -1.7142514  0.049207919   -2.9802115    1.2659601   547498 
 1851000   0.99815635   -2.9785406   -2.9785406   -1.7139101  0.065867853   -2.9785406    1.2646304   547498 
 1852000   0.99821282   -2.9789975   -2.9789975   -1.7142955   0.06936243   -2.9789975     1.264702   547498 
 1853000   0.99861084   -2.9793231   -2.9793231   -1.7141169  0.070342434   -2.9793231    1.2652063   547498 
 1854000    1.0004947   -2.9818062   -2.9818062   -1.7142132  0.065395456   -2.9818062     1.267593   547498 
 1855000    1.0001929   -2.9813351   -2.9813351   -1.7141244  0.059621148   -2.9813351    1.2672107   547498 
 1856000   0.99997254   -2.9804607   -2.9804607   -1.7135292  0.062154092   -2.9804607    1.2669315   547498 
 1857000   0.99959545   -2.9805097   -2.9805097    -1.714056  0.068080511   -2.9805097    1.2664537   547498 
 1858000    0.9994502   -2.9805148   -2.9805148   -1.7142451  0.060797177   -2.9805148    1.2662697   547498 
 1859000   0.99979172   -2.9807852   -2.9807852   -1.7140828  0.065983479   -2.9807852    1.2667024   547498 
 1860000   0.99834724   -2.9794966   -2.9794966   -1.7146243  0.068405283   -2.9794966    1.2648723   547498 
 1861000    1.0001949   -2.9817182   -2.9817182    -1.714505  0.065156412   -2.9817182    1.2672132   547498 
 1862000    1.0001061   -2.9800065   -2.9800065   -1.7129058  0.061582982   -2.9800065    1.2671007   547498 
 1863000     1.000005   -2.9801328   -2.9801328   -1.7131602  0.071983136   -2.9801328    1.2669726   547498 
 1864000   0.99964135   -2.9803555   -2.9803555   -1.7138436  0.078003191   -2.9803555    1.2665119   547498 
 1865000    1.0008798   -2.9819342   -2.9819342   -1.7138532  0.068264331   -2.9819342     1.268081   547498 
 1866000    1.0011356   -2.9832014   -2.9832014   -1.7147964   0.06175918   -2.9832014     1.268405   547498 
 1867000   0.99905615   -2.9801786   -2.9801786   -1.7144082  0.070241961   -2.9801786    1.2657704   547498 
 1868000   0.99994285   -2.9810489   -2.9810489    -1.714155  0.069800459   -2.9810489    1.2668939   547498 
 1869000   0.99997524   -2.9811299   -2.9811299    -1.714195   0.06142905   -2.9811299    1.2669349   547498 
 1870000   0.99900359    -2.981247    -2.981247   -1.7155431  0.060230291    -2.981247    1.2657038   547498 
 1871000    1.0011679   -2.9835015   -2.9835015   -1.7150555   0.06064503   -2.9835015     1.268446   547498 
 1872000     1.000604   -2.9822292   -2.9822292   -1.7144977  0.068531813   -2.9822292    1.2677315   547498 
 1873000   0.99899801    -2.980984    -2.980984   -1.7152872  0.064559114    -2.980984    1.2656968   547498 
 1874000    1.0011621   -2.9814979   -2.9814979   -1.7130593  0.068245283   -2.9814979    1.2684386   547498 
 1875000    1.0004295   -2.9811534   -2.9811534    -1.713643  0.065829886   -2.9811534    1.2675104   547498 
 1876000    1.0004514   -2.9812759   -2.9812759   -1.7137377  0.060232077   -2.9812759    1.2675382   547498 
 1877000    1.0001514   -2.9803325   -2.9803325   -1.7131744  0.063835961   -2.9803325     1.267158   547498 
 1878000    1.0015103   -2.9816019   -2.9816019   -1.7127222  0.059602986   -2.9816019    1.2688797   547498 
 1879000    1.0016294   -2.9830316   -2.9830316    -1.714001  0.062010039   -2.9830316    1.2690307   547498 
 1880000    1.0019715   -2.9836459   -2.9836459   -1.7141818  0.071584103   -2.9836459    1.2694641   547498 
 1881000    1.0006615   -2.9817965   -2.9817965   -1.7139921  0.058122871   -2.9817965    1.2678044   547498 
 1882000   0.99978992   -2.9805983   -2.9805983   -1.7138982  0.068997768   -2.9805983    1.2667001   547498 
 1883000    1.0010963   -2.9818655   -2.9818655   -1.7135103  0.071225729   -2.9818655    1.2683552   547498 
 1884000    1.0008058   -2.9812839   -2.9812839   -1.7132967    0.0574713   -2.9812839    1.2679872   547498 
 1885000    1.0009584   -2.9804459   -2.9804459   -1.7122653  0.063780555   -2.9804459    1.2681806   547498 
 1886000    1.0015681   -2.9804072   -2.9804072   -1.7114542  0.067061296   -2.9804072     1.268953   547498 
 1887000    0.9995637   -2.9789227   -2.9789227   -1.7125092  0.069818337   -2.9789227    1.2664135   547498 
 1888000    0.9999481   -2.9792004   -2.9792004   -1.7122999   0.06570686   -2.9792004    1.2669005   547498 
 1889000    1.0007669   -2.9804953   -2.9804953   -1.7125574  0.057534113   -2.9804953    1.2679379   547498 
 1890000   0.99966811   -2.9785342   -2.9785342   -1.7119885  0.053314476   -2.9785342    1.2665458   547498 
 1891000    1.0000401   -2.9793655   -2.9793655   -1.7123485  0.065473544   -2.9793655     1.267017   547498 
 1892000    0.9989019   -2.9780221   -2.9780221   -1.7124471  0.059726096   -2.9780221     1.265575   547498 
 1893000   0.99926054   -2.9785327   -2.9785327   -1.7125033  0.069105643   -2.9785327    1.2660294   547498 
 1894000   0.99872247   -2.9778775   -2.9778775   -1.7125298  0.054899008   -2.9778775    1.2653477   547498 
 1895000   0.99833542   -2.9780216   -2.9780216   -1.7131643   0.05943306   -2.9780216    1.2648573   547498 
 1896000   0.99927671   -2.9783484   -2.9783484   -1.7122985  0.062361296   -2.9783484    1.2660499   547498 
 1897000   0.99766269   -2.9754461   -2.9754461   -1.7114411  0.063289819   -2.9754461     1.264005   547498 
 1898000   0.99683552   -2.9747569   -2.9747569   -1.7117999  0.057485182   -2.9747569     1.262957   547498 
 1899000   0.99895575   -2.9771033   -2.9771033     -1.71146  0.060479979   -2.9771033    1.2656432   547498 
 1900000    1.0003295   -2.9779015   -2.9779015   -1.7105177   0.05602527   -2.9779015    1.2673838   547498 
 1901000   0.99959477   -2.9765763   -2.9765763   -1.7101234  0.066770343   -2.9765763    1.2664529   547498 
 1902000   0.99966502   -2.9766707   -2.9766707   -1.7101288  0.058834793   -2.9766707    1.2665419   547498 
 1903000    1.0014439   -2.9782111   -2.9782111   -1.7094155  0.071012171   -2.9782111    1.2687957   547498 
 1904000   0.99968619   -2.9773566   -2.9773566    -1.710788  0.055931574   -2.9773566    1.2665687   547498 
 1905000   0.99882085   -2.9764084   -2.9764084   -1.7109361  0.063866972   -2.9764084    1.2654723   547498 
 1906000   0.99897182   -2.9757644   -2.9757644   -1.7101008  0.072776673   -2.9757644    1.2656636   547498 
 1907000    1.0001918   -2.9775203   -2.9775203   -1.7103111  0.065738214   -2.9775203    1.2672092   547498 
 1908000   0.99921676   -2.9765821   -2.9765821   -1.7106082  0.060713032   -2.9765821    1.2659739   547498 
 1909000      1.00056   -2.9777383   -2.9777383   -1.7100626  0.076735311   -2.9777383    1.2676758   547498 
 1910000   0.99927692   -2.9769454   -2.9769454   -1.7108953  0.064992271   -2.9769454    1.2660502   547498 
 1911000    1.0005712   -2.9780232   -2.9780232   -1.7103332  0.064819961   -2.9780232      1.26769   547498 
 1912000    1.0008545   -2.9776956   -2.9776956   -1.7096466  0.063318175   -2.9776956    1.2680489   547498 
 1913000    1.0005318   -2.9785347   -2.9785347   -1.7108946  0.060948674   -2.9785347    1.2676401   547498 
 1914000   0.99972195   -2.9783393   -2.9783393   -1.7117253  0.059855929   -2.9783393     1.266614   547498 
 1915000    1.0006665    -2.978645    -2.978645   -1.7108343  0.067305883    -2.978645    1.2678107   547498 
 1916000   0.99926736    -2.977153    -2.977153    -1.711115  0.066830049    -2.977153     1.266038   547498 
 1917000   0.99865478   -2.9763464   -2.9763464   -1.7110845  0.066991739   -2.9763464    1.2652619   547498 
 1918000   0.99864302   -2.9769443   -2.9769443   -1.7116973  0.070563242   -2.9769443     1.265247   547498 
 1919000   0.99946864   -2.9770115   -2.9770115   -1.7107184  0.069505889   -2.9770115    1.2662931   547498 
 1920000    1.0012445   -2.9792703   -2.9792703   -1.7107272  0.061416894   -2.9792703     1.268543   547498 
 1921000    1.0025505   -2.9801338   -2.9801338   -1.7099361  0.059512957   -2.9801338    1.2701977   547498 
 1922000    1.0004919   -2.9780284   -2.9780284    -1.710439  0.056744108   -2.9780284    1.2675895   547498 
 1923000     1.001879   -2.9796702   -2.9796702   -1.7103233  0.072506424   -2.9796702    1.2693469   547498 
 1924000    1.0003542    -2.977907    -2.977907    -1.710492  0.077225578    -2.977907     1.267415   547498 
 1925000    1.0009017   -2.9784666   -2.9784666   -1.7103578  0.067577412   -2.9784666    1.2681087   547498 
 1926000     1.002567   -2.9807657   -2.9807657   -1.7105471  0.064429011   -2.9807657    1.2702186   547498 
 1927000    1.0010309   -2.9798481   -2.9798481   -1.7115758  0.056160006   -2.9798481    1.2682723   547498 
 1928000    1.0011465   -2.9802523   -2.9802523   -1.7118335  0.063349333   -2.9802523    1.2684189   547498 
 1929000    1.0003128   -2.9798118   -2.9798118   -1.7124492  0.055247491   -2.9798118    1.2673625   547498 
 1930000   0.99995334   -2.9797001   -2.9797001    -1.712793  0.057675641   -2.9797001    1.2669072   547498 
 1931000   0.99962786   -2.9787125   -2.9787125   -1.7122177  0.062287499   -2.9787125    1.2664948   547498 
 1932000   0.99837827   -2.9778674   -2.9778674   -1.7129558     0.068851   -2.9778674    1.2649116   547498 
 1933000    0.9989422   -2.9787777   -2.9787777   -1.7131516  0.059624697   -2.9787777    1.2656261   547498 
 1934000   0.99870338   -2.9777929   -2.9777929   -1.7124694  0.067667223   -2.9777929    1.2653235   547498 
 1935000   0.99944223   -2.9786332   -2.9786332   -1.7123736   0.06270086   -2.9786332    1.2662596   547498 
 1936000   0.99995992   -2.9793045   -2.9793045    -1.712389  0.058331246   -2.9793045    1.2669155   547498 
 1937000    1.0018103   -2.9807018   -2.9807018   -1.7114419  0.056984799   -2.9807018    1.2692599   547498 
 1938000    1.0003318   -2.9792991   -2.9792991   -1.7119125  0.061330144   -2.9792991    1.2673866   547498 
 1939000     1.000084   -2.9787594   -2.9787594   -1.7116868  0.067849954   -2.9787594    1.2670727   547498 
 1940000    1.0014577   -2.9798524   -2.9798524   -1.7110393  0.065758552   -2.9798524    1.2688131   547498 
 1941000    1.0009384   -2.9798494   -2.9798494   -1.7116942  0.064915452   -2.9798494    1.2681552   547498 
 1942000    1.0010156   -2.9786023   -2.9786023   -1.7103494  0.072465466   -2.9786023     1.268253   547498 
 1943000    1.0027849   -2.9801661   -2.9801661   -1.7096714  0.062504138   -2.9801661    1.2704947   547498 
 1944000    1.0013961   -2.9782431   -2.9782431   -1.7095081  0.057195702   -2.9782431     1.268735   547498 
 1945000     1.002026   -2.9792798   -2.9792798   -1.7097467  0.067985989   -2.9792798    1.2695331   547498 
 1946000    1.0008562   -2.9785079   -2.9785079   -1.7104568  0.059498857   -2.9785079    1.2680511   547498 
 1947000    1.0017306   -2.9799977   -2.9799977   -1.7108388   0.06347519   -2.9799977    1.2691589   547498 
 1948000    1.0012698   -2.9790504   -2.9790504   -1.7104753  0.071155323   -2.9790504    1.2685751   547498 
 1949000    1.0000565   -2.9778229   -2.9778229    -1.710785  0.062099934   -2.9778229    1.2670379   547498 
 1950000     1.000425   -2.9789086   -2.9789086   -1.7114038  0.066056336   -2.9789086    1.2675048   547498 
 1951000    1.0006016   -2.9791881   -2.9791881   -1.7114596  0.064119162   -2.9791881    1.2677285   547498 
 1952000   0.99944765   -2.9777597   -2.9777597   -1.7114933  0.066794282   -2.9777597    1.2662665   547498 
 1953000    0.9998644   -2.9777543   -2.9777543   -1.7109599  0.067851509   -2.9777543    1.2667945   547498 
 1954000    1.0004024   -2.9776749   -2.9776749   -1.7101988  0.055422257   -2.9776749    1.2674761   547498 
 1955000    1.0004255   -2.9784666   -2.9784666   -1.7109612  0.060784152   -2.9784666    1.2675053   547498 
 1956000    1.0011752   -2.9794849   -2.9794849   -1.7110297  0.068516272   -2.9794849    1.2684552   547498 
 1957000     1.001521   -2.9779973   -2.9779973    -1.709104  0.074299421   -2.9779973    1.2688933   547498 
 1958000    1.0005246   -2.9789832   -2.9789832   -1.7113522   0.07209519   -2.9789832     1.267631   547498 
 1959000    1.0010566   -2.9801055   -2.9801055   -1.7118005  0.059183816   -2.9801055    1.2683049   547498 
 1960000    1.0003325   -2.9792964   -2.9792964   -1.7119089  0.060733277   -2.9792964    1.2673875   547498 
 1961000    1.0000818   -2.9788069   -2.9788069    -1.711737  0.059719533   -2.9788069      1.26707   547498 
 1962000    1.0007512   -2.9791308   -2.9791308   -1.7112127  0.063977407   -2.9791308    1.2679181   547498 
 1963000    1.0008993   -2.9792228   -2.9792228   -1.7111172  0.063157354   -2.9792228    1.2681056   547498 
 1964000    1.0006001   -2.9791402   -2.9791402   -1.7114135  0.063121277   -2.9791402    1.2677266   547498 
 1965000    1.0001615   -2.9797057   -2.9797057   -1.7125349  0.064503552   -2.9797057    1.2671709   547498 
 1966000    1.0010203   -2.9799932   -2.9799932   -1.7117343  0.054676265   -2.9799932    1.2682589   547498 
 1967000     1.000593    -2.979566    -2.979566   -1.7118485  0.077359234    -2.979566    1.2677175   547498 
 1968000    1.0001755   -2.9782187   -2.9782187   -1.7110301  0.061063085   -2.9782187    1.2671886   547498 
 1969000      1.00142   -2.9794196   -2.9794196   -1.7106542  0.053276817   -2.9794196    1.2687654   547498 
 1970000    1.0007138   -2.9784375   -2.9784375   -1.7105669   0.05713602   -2.9784375    1.2678707   547498 
 1971000    1.0029302   -2.9810694   -2.9810694   -1.7103906  0.059104772   -2.9810694    1.2706788   547498 
 1972000    1.0009722   -2.9787119   -2.9787119   -1.7105138  0.071594299   -2.9787119    1.2681981   547498 
 1973000    1.0022883   -2.9803468   -2.9803468   -1.7104814  0.070165853   -2.9803468    1.2698654   547498 
 1974000    1.0031684   -2.9807533   -2.9807533   -1.7097728  0.069886798   -2.9807533    1.2709805   547498 
 1975000    1.0008943   -2.9789447   -2.9789447   -1.7108454  0.069174453   -2.9789447    1.2680993   547498 
 1976000   0.99985863   -2.9781525   -2.9781525   -1.7113653  0.067753985   -2.9781525    1.2667872   547498 
 1977000    1.0002076   -2.9780337   -2.9780337   -1.7108045  0.065230167   -2.9780337    1.2672293   547498 
 1978000   0.99983783   -2.9786818   -2.9786818    -1.711921  0.063889339   -2.9786818    1.2667608   547498 
 1979000    1.0002216    -2.978033    -2.978033    -1.710786  0.068985045    -2.978033     1.267247   547498 
 1980000     1.001877   -2.9800121   -2.9800121   -1.7106678  0.064139284   -2.9800121    1.2693443   547498 
 1981000   0.99783176   -2.9758926   -2.9758926   -1.7116735  0.061750512   -2.9758926    1.2642192   547498 
 1982000   0.99784741   -2.9769763   -2.9769763   -1.7127373  0.060343115   -2.9769763     1.264239   547498 
 1983000    1.0004682   -2.9786336   -2.9786336   -1.7110742  0.063662769   -2.9786336    1.2675595   547498 
 1984000    1.0002343   -2.9788392   -2.9788392   -1.7115761  0.062165528   -2.9788392    1.2672631   547498 
 1985000    1.0019498   -2.9793739   -2.9793739   -1.7099372  0.058768519   -2.9793739    1.2694366   547498 
 1986000   0.99969096   -2.9774589   -2.9774589   -1.7108842  0.061282521   -2.9774589    1.2665747   547498 
 1987000      1.00011   -2.9769795   -2.9769795   -1.7098738  0.060212812   -2.9769795    1.2671057   547498 
 1988000    1.0005961   -2.9772194   -2.9772194   -1.7094979  0.077510614   -2.9772194    1.2677215   547498 
 1989000    0.9998998   -2.9775294   -2.9775294   -1.7106901   0.05985536   -2.9775294    1.2668393   547498 
 1990000    1.0005463   -2.9780795   -2.9780795   -1.7104211  0.065243695   -2.9780795    1.2676584   547498 
 1991000    1.0011916    -2.979031    -2.979031    -1.710555  0.064746629    -2.979031     1.268476   547498 
 1992000    1.0011468   -2.9790449   -2.9790449   -1.7106256  0.061609023   -2.9790449    1.2684192   547498 
 1993000    1.0015298   -2.9794101   -2.9794101   -1.7105056  0.056889735   -2.9794101    1.2689045   547498 
 1994000    1.0004381   -2.9789226   -2.9789226   -1.7114012  0.059674132   -2.9789226    1.2675213   547498 
 1995000     1.001013   -2.9784109   -2.9784109   -1.7101611  0.070469742   -2.9784109    1.2682497   547498 
 1996000    1.0013723   -2.9788765   -2.9788765   -1.7101715  0.060240629   -2.9788765    1.2687049   547498 
 1997000    1.0006087   -2.9773612   -2.9773612   -1.7096237  0.064163254   -2.9773612    1.2677374   547498 
 1998000    1.0002209   -2.9772781   -2.9772781   -1.7100319  0.065753173   -2.9772781    1.2672461   547498 
 1999000    1.0013644   -2.9794912   -2.9794912   -1.7107963  0.063916464   -2.9794912    1.2686949   547498 
 2000000    1.0016715   -2.9797066   -2.9797066   -1.7106227  0.060915073   -2.9797066    1.2690839   547498 
 2001000    1.0003998   -2.9786688   -2.9786688    -1.711196  0.063284634   -2.9786688    1.2674729   547498 
 2002000   0.99876499   -2.9773363   -2.9773363   -1.7119347  0.061292835   -2.9773363    1.2654016   547498 
 2003000    1.0007286   -2.9790338   -2.9790338   -1.7111444  0.075409485   -2.9790338    1.2678894   547498 
 2004000    1.0022761   -2.9808553   -2.9808553   -1.7110053  0.064011629   -2.9808553      1.26985   547498 
 2005000    1.0005228   -2.9788669   -2.9788669   -1.7112383  0.067316124   -2.9788669    1.2676286   547498 
 2006000    1.0012525   -2.9781825   -2.9781825   -1.7096293  0.059661761   -2.9781825    1.2685532   547498 
 2007000    1.0015515   -2.9775688   -2.9775688   -1.7086368  0.068285645   -2.9775688     1.268932   547498 
 2008000    1.0011919   -2.9783664   -2.9783664   -1.7098901  0.061653555   -2.9783664    1.2684763   547498 
 2009000    1.0016583   -2.9784239   -2.9784239   -1.7093566    0.0630811   -2.9784239    1.2690673   547498 
 2010000    1.0017359   -2.9783553   -2.9783553   -1.7091897   0.06047149   -2.9783553    1.2691656   547498 
 2011000    1.0008661    -2.977355    -2.977355   -1.7092914  0.070483294    -2.977355    1.2680636   547498 
 2012000    1.0009294   -2.9768553   -2.9768553   -1.7087115  0.059821561   -2.9768553    1.2681438   547498 
 2013000    1.0008123   -2.9774357   -2.9774357   -1.7094403  0.064647902   -2.9774357    1.2679954   547498 
 2014000   0.99909462   -2.9763736   -2.9763736   -1.7105544   0.06783762   -2.9763736    1.2658192   547498 
 2015000   0.99996773   -2.9769678   -2.9769678   -1.7100424  0.068739977   -2.9769678    1.2669254   547498 
 2016000   0.99773525   -2.9730473   -2.9730473   -1.7089504  0.074605426   -2.9730473    1.2640969   547498 
 2017000    1.0000573   -2.9754744   -2.9754744   -1.7084356  0.061511856   -2.9754744    1.2670389   547498 
 2018000   0.99997336    -2.975539    -2.975539   -1.7086065  0.063346278    -2.975539    1.2669325   547498 
 2019000     1.000551    -2.976798    -2.976798   -1.7091336  0.069652414    -2.976798    1.2676643   547498 
 2020000    1.0003324   -2.9753219   -2.9753219   -1.7079344  0.062244441   -2.9753219    1.2673874   547498 
 2021000   0.99985403   -2.9741649   -2.9741649   -1.7073836  0.061191744   -2.9741649    1.2667813   547498 
 2022000   0.99973355   -2.9749908   -2.9749908   -1.7083621  0.067619669   -2.9749908    1.2666287   547498 
 2023000    1.0004981   -2.9751694   -2.9751694    -1.707572  0.061963034   -2.9751694    1.2675974   547498 
 2024000   0.99930193   -2.9732014   -2.9732014   -1.7071196  0.074341844   -2.9732014    1.2660818   547498 
 2025000   0.99903806   -2.9737221   -2.9737221   -1.7079745  0.058736312   -2.9737221    1.2657475   547498 
 2026000   0.99921015    -2.974984    -2.974984   -1.7090185  0.072733526    -2.974984    1.2659656   547498 
 2027000     1.000348   -2.9762758   -2.9762758   -1.7088687   0.05716857   -2.9762758    1.2674071   547498 
 2028000   0.99864262   -2.9744977   -2.9744977   -1.7092511  0.064093584   -2.9744977    1.2652465   547498 
 2029000    1.0000264   -2.9761805   -2.9761805   -1.7091808  0.046656447   -2.9761805    1.2669997   547498 
 2030000   0.99906141   -2.9743209   -2.9743209   -1.7085438  0.056578777   -2.9743209    1.2657771   547498 
 2031000   0.99977961   -2.9750042   -2.9750042   -1.7083171  0.062628623   -2.9750042     1.266687   547498 
 2032000    1.0003109   -2.9755967   -2.9755967   -1.7082366  0.061855412   -2.9755967    1.2673601   547498 
 2033000     1.000095   -2.9760668   -2.9760668   -1.7089802  0.061313189   -2.9760668    1.2670866   547498 
 2034000    1.0005544   -2.9774159   -2.9774159   -1.7097472  0.065482679   -2.9774159    1.2676687   547498 
 2035000     1.000374   -2.9769431   -2.9769431   -1.7095029  0.070379285   -2.9769431    1.2674402   547498 
 2036000    1.0000103   -2.9759865   -2.9759865   -1.7090072  0.060191929   -2.9759865    1.2669794   547498 
 2037000    0.9967629   -2.9729726   -2.9729726   -1.7101076  0.068992664   -2.9729726     1.262865   547498 
 2038000   0.99996507   -2.9765897   -2.9765897   -1.7096677   0.06227657   -2.9765897     1.266922   547498 
 2039000    1.0001642   -2.9768237   -2.9768237   -1.7096494  0.069239805   -2.9768237    1.2671743   547498 
 2040000    1.0003872   -2.9775488   -2.9775488    -1.710092  0.068956507   -2.9775488    1.2674568   547498 
 2041000    1.0000997   -2.9766872   -2.9766872   -1.7095946  0.068391878   -2.9766872    1.2670926   547498 
 2042000    1.0026791   -2.9796198   -2.9796198   -1.7092593  0.067375831   -2.9796198    1.2703606   547498 
 2043000    1.0009579   -2.9781623   -2.9781623   -1.7099825   0.06960948   -2.9781623    1.2681798   547498 
 2044000    1.0013947   -2.9791512   -2.9791512   -1.7104179  0.070715994   -2.9791512    1.2687333   547498 
 2045000    1.0010748   -2.9789074   -2.9789074   -1.7105793  0.066787213   -2.9789074     1.268328   547498 
 2046000    1.0012648   -2.9789923   -2.9789923   -1.7104236  0.066864046   -2.9789923    1.2685687   547498 
 2047000    1.0022172   -2.9792802   -2.9792802   -1.7095049  0.060464238   -2.9792802    1.2697753   547498 
 2048000    1.0003695   -2.9780257   -2.9780257   -1.7105912  0.063763591   -2.9780257    1.2674345   547498 
 2049000    1.0001202   -2.9776947   -2.9776947   -1.7105761  0.070458726   -2.9776947    1.2671186   547498 
 2050000   0.99987543   -2.9779199   -2.9779199   -1.7111115  0.067137842   -2.9779199    1.2668084   547498 
 2051000   0.99943354   -2.9770026   -2.9770026    -1.710754  0.067156241   -2.9770026    1.2662486   547498 
 2052000    1.0009595   -2.9797014   -2.9797014   -1.7115195  0.056929119   -2.9797014    1.2681819   547498 
 2053000   0.99963545   -2.9788004   -2.9788004    -1.712296  0.070760061   -2.9788004    1.2665044   547498 
 2054000    1.0001671   -2.9790721   -2.9790721   -1.7118941  0.070581852   -2.9790721     1.267178   547498 
 2055000    1.0006271   -2.9798696   -2.9798696   -1.7121088  0.061968618   -2.9798696    1.2677608   547498 
 2056000    1.0000046   -2.9787471   -2.9787471   -1.7117749  0.054466724   -2.9787471    1.2669721   547498 
 2057000    1.0005645    -2.979588    -2.979588   -1.7119066  0.066217529    -2.979588    1.2676815   547498 
 2058000   0.99999523   -2.9786207   -2.9786207   -1.7116605  0.066068056   -2.9786207    1.2669602   547498 
 2059000   0.99965758   -2.9785667   -2.9785667   -1.7120343  0.070503625   -2.9785667    1.2665324   547498 
 2060000    1.0007918   -2.9799018   -2.9799018   -1.7119323  0.058655202   -2.9799018    1.2679694   547498 
 2061000    1.0003046    -2.979335    -2.979335   -1.7119828   0.05760478    -2.979335    1.2673522   547498 
 2062000     1.000591   -2.9803385   -2.9803385   -1.7126235  0.065542858   -2.9803385     1.267715   547498 
 2063000    1.0010612   -2.9807308   -2.9807308     -1.71242  0.062011238   -2.9807308    1.2683108   547498 
 2064000    1.0004979   -2.9801208   -2.9801208   -1.7125237  0.068719038   -2.9801208    1.2675971   547498 
 2065000    1.0003152   -2.9790807   -2.9790807    -1.711715  0.059330032   -2.9790807    1.2673656   547498 
 2066000    1.0022677   -2.9819439   -2.9819439   -1.7121045  0.065901341   -2.9819439    1.2698394   547498 
 2067000   0.99920096   -2.9783307   -2.9783307   -1.7123768  0.063727593   -2.9783307    1.2659539   547498 
 2068000   0.99915565   -2.9790832   -2.9790832   -1.7131867  0.071121861   -2.9790832    1.2658965   547498 
 2069000    1.0009909    -2.981259    -2.981259   -1.7130373  0.059735267    -2.981259    1.2682217   547498 
 2070000     1.000518   -2.9812585   -2.9812585    -1.713636  0.067032998   -2.9812585    1.2676225   547498 
 2071000    1.0012271   -2.9822359   -2.9822359    -1.713715  0.061985571   -2.9822359    1.2685209   547498 
 2072000     1.001136   -2.9817758   -2.9817758   -1.7133703  0.062192638   -2.9817758    1.2684055   547498 
 2073000    1.0007114   -2.9799707   -2.9799707   -1.7121031  0.073827606   -2.9799707    1.2678676   547498 
 2074000    1.0005887   -2.9795342   -2.9795342    -1.711822  0.072137968   -2.9795342    1.2677122   547498 
 2075000    1.0014674   -2.9804577   -2.9804577   -1.7116323  0.063770319   -2.9804577    1.2688254   547498 
 2076000    1.0030583   -2.9814524   -2.9814524   -1.7106114   0.06437986   -2.9814524     1.270841   547498 
 2077000    1.0015496   -2.9792227   -2.9792227   -1.7102931  0.062536538   -2.9792227    1.2689296   547498 
 2078000    1.0007136   -2.9792378   -2.9792378   -1.7113674  0.070269374   -2.9792378    1.2678704   547498 
 2079000     1.000942   -2.9788548   -2.9788548   -1.7106951    0.0542189   -2.9788548    1.2681597   547498 
 2080000    1.0004064   -2.9785002   -2.9785002    -1.711019  0.070544842   -2.9785002    1.2674812   547498 
 2081000     1.000881   -2.9793959   -2.9793959   -1.7113134  0.061962998   -2.9793959    1.2680824   547498 
 2082000    1.0007298   -2.9789722   -2.9789722   -1.7110813  0.068007388   -2.9789722    1.2678909   547498 
 2083000     1.000412   -2.9777052   -2.9777052    -1.710217  0.060829096   -2.9777052    1.2674882   547498 
 2084000   0.99957242   -2.9769279   -2.9769279   -1.7105034  0.063186357   -2.9769279    1.2664245   547498 
 2085000    1.0006899   -2.9784915   -2.9784915   -1.7106511  0.058164523   -2.9784915    1.2678404   547498 
 2086000    1.0010886   -2.9784161   -2.9784161   -1.7100706  0.060469798   -2.9784161    1.2683455   547498 
 2087000    1.0002254   -2.9772433   -2.9772433   -1.7099914  0.058613867   -2.9772433    1.2672519   547498 
 2088000   0.99965186   -2.9768018   -2.9768018   -1.7102766  0.056464611   -2.9768018    1.2665252   547498 
 2089000   0.99813383   -2.9744007   -2.9744007   -1.7097988  0.058778393   -2.9744007    1.2646019   547498 
 2090000    1.0000794   -2.9765471   -2.9765471   -1.7094802  0.062239143   -2.9765471    1.2670668   547498 
 2091000   0.99926352    -2.976141    -2.976141   -1.7101078  0.063924851    -2.976141    1.2660332   547498 
 2092000   0.99910659   -2.9746389   -2.9746389   -1.7088046  0.068491016   -2.9746389    1.2658343   547498 
 2093000   0.99940596   -2.9763513   -2.9763513   -1.7101377  0.061264544   -2.9763513    1.2662136   547498 
 2094000   0.99922699   -2.9753134   -2.9753134   -1.7093265  0.069615074   -2.9753134    1.2659869   547498 
 2095000    1.0000772   -2.9770478   -2.9770478   -1.7099837  0.063317804   -2.9770478    1.2670641   547498 
 2096000    1.0013757   -2.9780618   -2.9780618   -1.7093526  0.070133868   -2.9780618    1.2687093   547498 
 2097000    1.0000345   -2.9768015   -2.9768015   -1.7097915  0.058800544   -2.9768015      1.26701   547498 
 2098000   0.99972657   -2.9766126   -2.9766126   -1.7099928  0.060244901   -2.9766126    1.2666198   547498 
 2099000    1.0001924   -2.9764678   -2.9764678   -1.7092578  0.068222431   -2.9764678      1.26721   547498 
 2100000    1.0017165   -2.9778686   -2.9778686   -1.7087276  0.063301455   -2.9778686     1.269141   547498 
 2101000    1.0014487   -2.9766206   -2.9766206   -1.7078188  0.059774476   -2.9766206    1.2688018   547498 
 2102000    1.0015406   -2.9774533   -2.9774533   -1.7085351  0.063042615   -2.9774533    1.2689182   547498 
 2103000    1.0004063   -2.9767852   -2.9767852   -1.7093042  0.062436456   -2.9767852     1.267481   547498 
 2104000     1.001274   -2.9779768   -2.9779768   -1.7093965  0.066997175   -2.9779768    1.2685804   547498 
 2105000    1.0008911   -2.9784246   -2.9784246   -1.7103293  0.065224665   -2.9784246    1.2680953   547498 
 2106000    1.0002539   -2.9773868   -2.9773868   -1.7100989  0.061923995   -2.9773868    1.2672879   547498 
 2107000    0.9996568   -2.9772714   -2.9772714     -1.71074  0.060774379   -2.9772714    1.2665314   547498 
 2108000    0.9991422   -2.9764001   -2.9764001   -1.7105207  0.055919085   -2.9764001    1.2658795   547498 
 2109000   0.99913361   -2.9768339   -2.9768339   -1.7109653  0.059942879   -2.9768339    1.2658686   547498 
 2110000   0.99865744   -2.9762282   -2.9762282   -1.7109629  0.065601938   -2.9762282    1.2652653   547498 
 2111000   0.99741894   -2.9756356   -2.9756356   -1.7119395   0.06173889   -2.9756356    1.2636962   547498 
 2112000    1.0002656   -2.9785247   -2.9785247   -1.7112219  0.066706291   -2.9785247    1.2673027   547498 
 2113000    1.0002268   -2.9785465   -2.9785465   -1.7112929  0.060596062   -2.9785465    1.2672536   547498 
 2114000    1.0006664   -2.9781776   -2.9781776    -1.710367  0.049965239   -2.9781776    1.2678106   547498 
 2115000    1.0001951   -2.9779826   -2.9779826   -1.7107691  0.058791765   -2.9779826    1.2672135   547498 
 2116000    1.0013979   -2.9787482   -2.9787482   -1.7100109  0.063750504   -2.9787482    1.2687373   547498 
 2117000    1.0001575   -2.9786258   -2.9786258   -1.7114601  0.064006441   -2.9786258    1.2671658   547498 
 2118000    1.0006836   -2.9794758   -2.9794758   -1.7116434  0.065009437   -2.9794758    1.2678324   547498 
 2119000   0.99905685   -2.9773153   -2.9773153   -1.7115439  0.064690826   -2.9773153    1.2657713   547498 
 2120000    1.0007124   -2.9790005   -2.9790005   -1.7111317   0.06799258   -2.9790005    1.2678688   547498 
 2121000    1.0020662   -2.9802781   -2.9802781   -1.7106939  0.069820686   -2.9802781    1.2695841   547498 
 2122000   0.99972522   -2.9779104   -2.9779104   -1.7112923  0.063086337   -2.9779104    1.2666181   547498 
 2123000    1.0000527    -2.977188    -2.977188   -1.7101549  0.063135324    -2.977188    1.2670331   547498 
 2124000   0.99950027   -2.9767712   -2.9767712   -1.7104381  0.061075662   -2.9767712    1.2663331   547498 
 2125000    1.0000656   -2.9781187   -2.9781187   -1.7110693  0.067623651   -2.9781187    1.2670494   547498 
 2126000   0.99967107   -2.9773607   -2.9773607   -1.7108111    0.0714304   -2.9773607    1.2665495   547498 
 2127000   0.99940748   -2.9774369   -2.9774369   -1.7112213  0.065258886   -2.9774369    1.2662156   547498 
 2128000   0.99904081   -2.9778492   -2.9778492   -1.7120982  0.063221386   -2.9778492     1.265751   547498 
 2129000   0.99885769   -2.9767229   -2.9767229   -1.7112039  0.064028869   -2.9767229     1.265519   547498 
 2130000    0.9998083   -2.9771195   -2.9771195   -1.7103961  0.055581231   -2.9771195    1.2667234   547498 
 2131000   0.99966443   -2.9772172   -2.9772172   -1.7106761  0.064766699   -2.9772172    1.2665411   547498 
 2132000   0.99955655   -2.9765034   -2.9765034    -1.710099  0.068385891   -2.9765034    1.2664044   547498 
 2133000    1.0003913   -2.9772172   -2.9772172   -1.7097552  0.073059183   -2.9772172     1.267462   547498 
 2134000    1.0004292   -2.9768082   -2.9768082   -1.7092982  0.066242805   -2.9768082      1.26751   547498 
 2135000    1.0008007   -2.9771131   -2.9771131   -1.7091324  0.067941515   -2.9771131    1.2679807   547498 
 2136000    1.0006662   -2.9771977   -2.9771977   -1.7093873  0.062314999   -2.9771977    1.2678104   547498 
 2137000   0.99977398   -2.9772125   -2.9772125   -1.7105326  0.064249054   -2.9772125    1.2666799   547498 
 2138000    1.0005895    -2.977718    -2.977718   -1.7100049  0.072918582    -2.977718    1.2677131   547498 
 2139000    1.0007702   -2.9771531   -2.9771531    -1.709211  0.059904945   -2.9771531     1.267942   547498 
 2140000   0.99953746   -2.9760989   -2.9760989   -1.7097187  0.061718817   -2.9760989    1.2663802   547498 
 2141000    1.0004731    -2.976395    -2.976395   -1.7088294  0.059285491    -2.976395    1.2675656   547498 
 2142000    1.0003666   -2.9764409   -2.9764409   -1.7090101  0.066703417   -2.9764409    1.2674308   547498 
 2143000    1.0004478   -2.9773289   -2.9773289   -1.7097952  0.062582403   -2.9773289    1.2675337   547498 
 2144000   0.99981083   -2.9759288   -2.9759288   -1.7092022  0.057471927   -2.9759288    1.2667266   547498 
 2145000    0.9993887   -2.9756544   -2.9756544   -1.7094627  0.071476187   -2.9756544    1.2661918   547498 
 2146000   0.99868238   -2.9756671   -2.9756671   -1.7103702  0.061393605   -2.9756671    1.2652969   547498 
 2147000   0.99977248   -2.9769438   -2.9769438   -1.7102658  0.058397241   -2.9769438     1.266678   547498 
 2148000   0.99947271   -2.9756752   -2.9756752    -1.709377  0.069000093   -2.9756752    1.2662982   547498 
 2149000    1.0002114   -2.9762685   -2.9762685   -1.7090344  0.060707493   -2.9762685    1.2672341   547498 
 2150000   0.99915606   -2.9754093   -2.9754093   -1.7095123  0.067985767   -2.9754093     1.265897   547498 
 2151000   0.99928526   -2.9762288   -2.9762288   -1.7101681  0.061721235   -2.9762288    1.2660607   547498 
 2152000    1.0010818   -2.9792384   -2.9792384   -1.7109016  0.062487657   -2.9792384    1.2683368   547498 
 2153000    1.0010565   -2.9797541   -2.9797541   -1.7114492  0.069077862   -2.9797541    1.2683049   547498 
 2154000    1.0008337   -2.9793622   -2.9793622   -1.7113396  0.065800639   -2.9793622    1.2680225   547498 
 2155000     1.000336   -2.9794518   -2.9794518   -1.7120598  0.065412006   -2.9794518     1.267392   547498 
 2156000   0.99915258   -2.9777952   -2.9777952   -1.7119026  0.069462738   -2.9777952    1.2658926   547498 
 2157000    1.0002926   -2.9793884   -2.9793884   -1.7120514  0.063705443   -2.9793884     1.267337   547498 
 2158000   0.99930227   -2.9778151   -2.9778151   -1.7117329  0.055218783   -2.9778151    1.2660823   547498 
 2159000    1.0008656   -2.9805535   -2.9805535   -1.7124904   0.05625372   -2.9805535     1.268063   547498 
 2160000    1.0008124   -2.9807121   -2.9807121   -1.7127166  0.058848478   -2.9807121    1.2679955   547498 
 2161000    1.0002793   -2.9792834   -2.9792834   -1.7119633  0.058055633   -2.9792834    1.2673201   547498 
 2162000    1.0008822   -2.9790961   -2.9790961   -1.7110121  0.063917368   -2.9790961    1.2680839   547498 
 2163000    0.9991256   -2.9780572   -2.9780572   -1.7121988  0.064990525   -2.9780572    1.2658584   547498 
 2164000    1.0003193   -2.9786953   -2.9786953   -1.7113245  0.073080363   -2.9786953    1.2673708   547498 
 2165000    1.0010672   -2.9796302   -2.9796302   -1.7113118  0.060356107   -2.9796302    1.2683184   547498 
 2166000    1.0017835   -2.9801467   -2.9801467   -1.7109208  0.067685075   -2.9801467    1.2692259   547498 
 2167000    1.0000842   -2.9780499   -2.9780499   -1.7109769  0.065325587   -2.9780499     1.267073   547498 
 2168000    1.0023518   -2.9798328   -2.9798328   -1.7098869  0.063037279   -2.9798328    1.2699459   547498 
 2169000     1.002768   -2.9802219   -2.9802219   -1.7097486   0.05328932   -2.9802219    1.2704732   547498 
 2170000    1.0024434   -2.9798776   -2.9798776   -1.7098157   0.05500187   -2.9798776    1.2700619   547498 
 2171000    1.0032502   -2.9810642   -2.9810642     -1.70998  0.066708628   -2.9810642    1.2710841   547498 
 2172000    1.0020024    -2.979417    -2.979417   -1.7099137  0.066679635    -2.979417    1.2695033   547498 
 2173000    1.0023536   -2.9802104   -2.9802104   -1.7102622  0.073196935   -2.9802104    1.2699482   547498 
 2174000      1.00239   -2.9802372   -2.9802372   -1.7102429  0.064805293   -2.9802372    1.2699943   547498 
 2175000    1.0018309   -2.9802056   -2.9802056   -1.7109197  0.062689857   -2.9802056     1.269286   547498 
 2176000    1.0017196   -2.9808561   -2.9808561   -1.7117112  0.062330639   -2.9808561    1.2691449   547498 
 2177000   0.99956215   -2.9778253   -2.9778253   -1.7114138  0.061953404   -2.9778253    1.2664115   547498 
 2178000    1.0004037   -2.9781807   -2.9781807    -1.710703  0.054710746   -2.9781807    1.2674777   547498 
 2179000   0.99912101   -2.9776891   -2.9776891   -1.7118365  0.062163698   -2.9776891    1.2658526   547498 
 2180000    1.0002312   -2.9783787   -2.9783787   -1.7111195   0.06076238   -2.9783787    1.2672592   547498 
 2181000   0.99900749   -2.9767207   -2.9767207   -1.7110119  0.058316636   -2.9767207    1.2657088   547498 
 2182000     1.000103   -2.9784134   -2.9784134   -1.7113167  0.054564372   -2.9784134    1.2670968   547498 
 2183000   0.99901317   -2.9765887   -2.9765887   -1.7108728  0.071152123   -2.9765887     1.265716   547498 
 2184000     1.001893   -2.9788086   -2.9788086    -1.709444  0.049688536   -2.9788086    1.2693646   547498 
 2185000   0.99987591   -2.9758273   -2.9758273   -1.7090183  0.063948222   -2.9758273    1.2668091   547498 
 2186000   0.99993189   -2.9765453   -2.9765453   -1.7096653  0.067082764   -2.9765453      1.26688   547498 
 2187000    1.0014197    -2.977872    -2.977872    -1.709107  0.071319981    -2.977872     1.268765   547498 
 2188000    1.0002091   -2.9763187   -2.9763187   -1.7090875  0.063497657   -2.9763187    1.2672312   547498 
 2189000    1.0012028   -2.9769848   -2.9769848   -1.7084946  0.065298646   -2.9769848    1.2684902   547498 
 2190000    1.0024913   -2.9773387   -2.9773387    -1.707216  0.062444586   -2.9773387    1.2701227   547498 
 2191000     1.000553   -2.9744716   -2.9744716   -1.7068047  0.064508626   -2.9744716    1.2676669   547498 
 2192000      1.00205   -2.9769976   -2.9769976    -1.707434  0.067906385   -2.9769976    1.2695636   547498 
 2193000    1.0015865   -2.9769611   -2.9769611   -1.7079847  0.066135338   -2.9769611    1.2689763   547498 
 2194000    1.0001956   -2.9749052   -2.9749052    -1.707691  0.072609009   -2.9749052    1.2672141   547498 
 2195000    1.0009483   -2.9759906   -2.9759906   -1.7078228  0.062027804   -2.9759906    1.2681677   547498 
 2196000    1.0010132    -2.976666    -2.976666    -1.708416  0.059765049    -2.976666      1.26825   547498 
 2197000   0.99940052   -2.9745313   -2.9745313   -1.7083245  0.059244846   -2.9745313    1.2662067   547498 
 2198000   0.99751433    -2.972979    -2.972979   -1.7091619  0.059010533    -2.972979     1.263817   547498 
 2199000   0.99674451   -2.9718008   -2.9718008   -1.7089592  0.066416959   -2.9718008    1.2628417   547498 
 2200000   0.99930032   -2.9742063   -2.9742063   -1.7081265   0.06463225   -2.9742063    1.2660798   547498 
 2201000   0.99962184   -2.9748608   -2.9748608   -1.7083736  0.064489912   -2.9748608    1.2664872   547498 
 2202000    1.0000852   -2.9757964   -2.9757964   -1.7087222  0.063236569   -2.9757964    1.2670742   547498 
 2203000    0.9993854   -2.9758638   -2.9758638   -1.7096762  0.063547538   -2.9758638    1.2661876   547498 
 2204000   0.99946354   -2.9756079   -2.9756079   -1.7093213  0.068850289   -2.9756079    1.2662866   547498 
 2205000   0.99947092   -2.9750695   -2.9750695   -1.7087735  0.061534357   -2.9750695    1.2662959   547498 
 2206000    1.0005155   -2.9755094   -2.9755094   -1.7078901   0.05589364   -2.9755094    1.2676194   547498 
 2207000   0.99917986   -2.9738903   -2.9738903   -1.7079631  0.074961303   -2.9738903    1.2659272   547498 
 2208000    1.0002892   -2.9750581   -2.9750581   -1.7077254  0.064864866   -2.9750581    1.2673327   547498 
 2209000    1.0002602    -2.974853    -2.974853   -1.7075571  0.062517439    -2.974853     1.267296   547498 
 2210000    1.0003189   -2.9748604   -2.9748604   -1.7074901  0.066775258   -2.9748604    1.2673703   547498 
 2211000   0.99899048   -2.9733753   -2.9733753    -1.707688  0.063856566   -2.9733753    1.2656872   547498 
 2212000    1.0013029    -2.977324    -2.977324   -1.7087069     0.057716    -2.977324    1.2686171   547498 
 2213000   0.99924705   -2.9750938   -2.9750938   -1.7090815  0.067802072   -2.9750938    1.2660123   547498 
 2214000    1.0006517   -2.9770798   -2.9770798   -1.7092878  0.069016796   -2.9770798     1.267792   547498 
 2215000    1.0022197   -2.9771743   -2.9771743   -1.7073957  0.068883052   -2.9771743    1.2697786   547498 
 2216000    1.0000797   -2.9756838   -2.9756838   -1.7086165  0.077844362   -2.9756838    1.2670672   547498 
 2217000    1.0007734   -2.9768261   -2.9768261     -1.70888  0.065528038   -2.9768261    1.2679461   547498 
 2218000   0.99987319   -2.9757155   -2.9757155   -1.7089099  0.064888612   -2.9757155    1.2668056   547498 
 2219000    1.0006525   -2.9783452   -2.9783452   -1.7105522  0.064956326   -2.9783452     1.267793   547498 
 2220000    1.0010867    -2.978535    -2.978535    -1.710192  0.057634988    -2.978535     1.268343   547498 
 2221000    1.0017791    -2.978889    -2.978889   -1.7096686   0.07280653    -2.978889    1.2692203   547498 
 2222000    1.0010102   -2.9790969   -2.9790969   -1.7108507  0.062602441   -2.9790969    1.2682462   547498 
 2223000   0.99984985   -2.9773287   -2.9773287   -1.7105526  0.080623248   -2.9773287     1.266776   547498 
 2224000    1.0012801   -2.9785498   -2.9785498   -1.7099616  0.054378903   -2.9785498    1.2685881   547498 
 2225000    1.0013297   -2.9784397   -2.9784397   -1.7097888   0.06963821   -2.9784397    1.2686509   547498 
 2226000    1.0019784   -2.9797215   -2.9797215   -1.7102486   0.05906032   -2.9797215    1.2694729   547498 
 2227000    1.0002483   -2.9777554   -2.9777554   -1.7104745  0.066715446   -2.9777554    1.2672809   547498 
 2228000    1.0010728   -2.9777364   -2.9777364   -1.7094109  0.065665028   -2.9777364    1.2683255   547498 
 2229000     1.000176   -2.9761488   -2.9761488   -1.7089596  0.073853151   -2.9761488    1.2671893   547498 
 2230000     1.001111   -2.9773131   -2.9773131   -1.7089392   0.07041615   -2.9773131    1.2683738   547498 
 2231000    1.0021054   -2.9790233   -2.9790233   -1.7093897  0.066311869   -2.9790233    1.2696337   547498 
 2232000    1.0007061   -2.9767479   -2.9767479    -1.708887  0.069488831   -2.9767479    1.2678609   547498 
 2233000    1.0021936   -2.9788891   -2.9788891   -1.7091435  0.070218122   -2.9788891    1.2697455   547498 
 2234000    1.0020197   -2.9783337   -2.9783337   -1.7088085  0.077758449   -2.9783337    1.2695252   547498 
 2235000     1.002977   -2.9787145   -2.9787145   -1.7079765  0.065068966   -2.9787145     1.270738   547498 
 2236000    1.0020108   -2.9788487   -2.9788487   -1.7093348  0.065269658   -2.9788487    1.2695139   547498 
 2237000    1.0022498    -2.979386    -2.979386   -1.7095693  0.069762999    -2.979386    1.2698166   547498 
 2238000    1.0002736   -2.9763443   -2.9763443   -1.7090313  0.057218024   -2.9763443    1.2673129   547498 
 2239000    1.0020737   -2.9779357   -2.9779357   -1.7083421   0.06050355   -2.9779357    1.2695936   547498 
 2240000    1.0012672   -2.9761032   -2.9761032   -1.7075314  0.066629125   -2.9761032    1.2685718   547498 
 2241000    1.0019878   -2.9777614   -2.9777614   -1.7082767  0.065108326   -2.9777614    1.2694847   547498 
 2242000    1.0000111    -2.976198    -2.976198   -1.7092177  0.061968953    -2.976198    1.2669803   547498 
 2243000   0.99951929   -2.9744409   -2.9744409   -1.7080836  0.071351842   -2.9744409    1.2663572   547498 
 2244000    1.0006849    -2.976603    -2.976603    -1.708769  0.057418492    -2.976603     1.267834   547498 
 2245000    1.0008122   -2.9763796   -2.9763796   -1.7083843  0.068034273   -2.9763796    1.2679953   547498 
 2246000    1.0007037   -2.9763186   -2.9763186   -1.7084607  0.064713844   -2.9763186    1.2678578   547498 
 2247000    1.0012136   -2.9767844   -2.9767844   -1.7082805  0.069638124   -2.9767844    1.2685039   547498 
 2248000    1.0005687   -2.9763145   -2.9763145   -1.7086277  0.071039772   -2.9763145    1.2676867   547498 
 2249000    1.0016925   -2.9768849   -2.9768849   -1.7077743  0.056729019   -2.9768849    1.2691106   547498 
 2250000    1.0014861   -2.9763816   -2.9763816   -1.7075324  0.066855131   -2.9763816    1.2688492   547498 
 2251000    1.0016841   -2.9747198   -2.9747198   -1.7056198  0.061384872   -2.9747198    1.2690999   547498 
 2252000     1.002385   -2.9748565   -2.9748565   -1.7048685  0.070303533   -2.9748565     1.269988   547498 
 2253000    1.0031894   -2.9768962   -2.9768962    -1.705889  0.060102174   -2.9768962    1.2710072   547498 
 2254000    1.0022348   -2.9756501   -2.9756501   -1.7058524  0.057813393   -2.9756501    1.2697977   547498 
 2255000    1.0023942   -2.9763901   -2.9763901   -1.7063904  0.071460272   -2.9763901    1.2699997   547498 
 2256000    1.0010569   -2.9737465   -2.9737465   -1.7054411  0.068108066   -2.9737465    1.2683054   547498 
 2257000    1.0023928   -2.9740004   -2.9740004   -1.7040026  0.066755643   -2.9740004    1.2699979   547498 
 2258000    1.0033441   -2.9757527   -2.9757527   -1.7045495  0.066177958   -2.9757527    1.2712032   547498 
 2259000      1.00151   -2.9733083   -2.9733083   -1.7044289   0.07059936   -2.9733083    1.2688794   547498 
 2260000    1.0028713   -2.9752449   -2.9752449   -1.7046408  0.056449387   -2.9752449    1.2706041   547498 
 2261000    1.0018125   -2.9744652   -2.9744652   -1.7052025  0.067460554   -2.9744652    1.2692627   547498 
 2262000    1.0001945   -2.9723996   -2.9723996   -1.7051869  0.069312304   -2.9723996    1.2672127   547498 
 2263000    1.0013687   -2.9745679   -2.9745679   -1.7058676  0.060731273   -2.9745679    1.2687004   547498 
 2264000    1.0020946   -2.9752663   -2.9752663   -1.7056462  0.063816127   -2.9752663    1.2696201   547498 
 2265000    1.0005425   -2.9724985   -2.9724985   -1.7048449  0.067372945   -2.9724985    1.2676536   547498 
 2266000    1.0022176   -2.9748709   -2.9748709   -1.7050949   0.06856024   -2.9748709    1.2697759   547498 
 2267000     1.001984   -2.9734096   -2.9734096   -1.7039297  0.064285103   -2.9734096    1.2694799   547498 
 2268000    1.0009442   -2.9713929   -2.9713929   -1.7032303  0.065292746   -2.9713929    1.2681626   547498 
 2269000    1.0025471    -2.974161    -2.974161   -1.7039677  0.055936954    -2.974161    1.2701933   547498 
 2270000    1.0014845   -2.9725285   -2.9725285   -1.7036814  0.069823549   -2.9725285    1.2688471   547498 
 2271000    1.0005642   -2.9712368   -2.9712368   -1.7035557  0.064729587   -2.9712368    1.2676811   547498 
 2272000    1.0021183   -2.9733673   -2.9733673   -1.7037173  0.066245226   -2.9733673    1.2696501   547498 
 2273000    1.0031894   -2.9749951   -2.9749951    -1.703988  0.060251629   -2.9749951    1.2710071   547498 
 2274000    1.0018511   -2.9737987   -2.9737987   -1.7044871  0.069846566   -2.9737987    1.2693116   547498 
 2275000    1.0024158   -2.9749239   -2.9749239   -1.7048969  0.064246746   -2.9749239    1.2700269   547498 
 2276000    1.0013597   -2.9732301   -2.9732301   -1.7045411  0.065224288   -2.9732301     1.268689   547498 
 2277000    1.0014986   -2.9730717   -2.9730717   -1.7042068  0.058173766   -2.9730717    1.2688649   547498 
 2278000    1.0017432   -2.9732217   -2.9732217   -1.7040468  0.064058572   -2.9732217    1.2691749   547498 
 2279000    1.0015675   -2.9737482   -2.9737482    -1.704796  0.055374012   -2.9737482    1.2689522   547498 
 2280000     1.000652   -2.9725613   -2.9725613    -1.704769  0.057154515   -2.9725613    1.2677923   547498 
 2281000     1.001044   -2.9727265   -2.9727265   -1.7044375  0.065946479   -2.9727265     1.268289   547498 
 2282000    1.0003339   -2.9731042   -2.9731042   -1.7057149  0.068305614   -2.9731042    1.2673893   547498 
 2283000     1.000775   -2.9732021   -2.9732021   -1.7052539  0.069620812   -2.9732021    1.2679482   547498 
 2284000    1.0005018   -2.9731677   -2.9731677   -1.7055657  0.072928777   -2.9731677    1.2676021   547498 
 2285000    1.0014325   -2.9746462   -2.9746462    -1.705865  0.070986058   -2.9746462    1.2687812   547498 
 2286000    1.0024007   -2.9756865   -2.9756865   -1.7056787  0.070338541   -2.9756865    1.2700078   547498 
 2287000     1.000792   -2.9737786   -2.9737786   -1.7058089   0.06482091   -2.9737786    1.2679697   547498 
 2288000    1.0014692   -2.9747769   -2.9747769   -1.7059492  0.069324802   -2.9747769    1.2688277   547498 
 2289000    1.0023324   -2.9752664   -2.9752664    -1.705345  0.063119995   -2.9752664    1.2699214   547498 
 2290000    1.0035501   -2.9761334   -2.9761334   -1.7046693  0.069437631   -2.9761334    1.2714641   547498 
 2291000    1.0021424   -2.9743739   -2.9743739   -1.7046933  0.073623601   -2.9743739    1.2696806   547498 
 2292000    1.0029154   -2.9759465   -2.9759465   -1.7052866  0.068683868   -2.9759465    1.2706599   547498 
 2293000    1.0028302   -2.9759011   -2.9759011   -1.7053491  0.065753468   -2.9759011     1.270552   547498 
 2294000    1.0012209   -2.9738939   -2.9738939   -1.7053807  0.070176902   -2.9738939    1.2685132   547498 
 2295000    1.0021028   -2.9750695   -2.9750695   -1.7054391  0.064589742   -2.9750695    1.2696304   547498 
 2296000    1.0037226   -2.9763048   -2.9763048   -1.7046221  0.058744805   -2.9763048    1.2716826   547498 
 2297000      1.00298   -2.9751288   -2.9751288    -1.704387  0.071058251   -2.9751288    1.2707418   547498 
 2298000    1.0021474   -2.9743337   -2.9743337   -1.7046468  0.070675673   -2.9743337    1.2696869   547498 
 2299000    1.0035507   -2.9759155   -2.9759155   -1.7044506  0.058233995   -2.9759155    1.2714648   547498 
 2300000    1.0035235   -2.9769963   -2.9769963   -1.7055659  0.063085429   -2.9769963    1.2714304   547498 
 2301000    1.0037763   -2.9765649   -2.9765649   -1.7048143  0.066388181   -2.9765649    1.2717507   547498 
 2302000     1.001577   -2.9741809   -2.9741809   -1.7052167  0.054731244   -2.9741809    1.2689642   547498 
 2303000    1.0014216   -2.9728301   -2.9728301   -1.7040628  0.064761777   -2.9728301    1.2687673   547498 
 2304000    1.0015674   -2.9727946   -2.9727946   -1.7038424  0.056133138   -2.9727946    1.2689521   547498 
 2305000    1.0013776   -2.9721343   -2.9721343   -1.7034227   0.06986992   -2.9721343    1.2687117   547498 
 2306000     1.000806   -2.9725312   -2.9725312   -1.7045437  0.066292397   -2.9725312    1.2679875   547498 
 2307000   0.99965468   -2.9706808   -2.9706808    -1.704152  0.066821767   -2.9706808    1.2665288   547498 
 2308000    1.0011016   -2.9720747   -2.9720747   -1.7037128  0.059714439   -2.9720747    1.2683619   547498 
 2309000    1.0008239   -2.9711645   -2.9711645   -1.7031544  0.064847566   -2.9711645    1.2680101   547498 
 2310000     1.001372   -2.9730232   -2.9730232   -1.7043187  0.063279539   -2.9730232    1.2687045   547498 
 2311000     1.000442   -2.9722906   -2.9722906   -1.7047644  0.061093978   -2.9722906    1.2675262   547498 
 2312000    1.0014562   -2.9730126   -2.9730126   -1.7042013   0.06677332   -2.9730126    1.2688113   547498 
 2313000    1.0013374   -2.9733855   -2.9733855   -1.7047248  0.062781055   -2.9733855    1.2686607   547498 
 2314000    1.0017947   -2.9733383   -2.9733383   -1.7040983  0.073816259   -2.9733383      1.26924   547498 
 2315000    1.0008429   -2.9720743   -2.9720743   -1.7040401  0.069209053   -2.9720743    1.2680342   547498 
 2316000    1.0011364    -2.971774    -2.971774   -1.7033679  0.064199538    -2.971774    1.2684061   547498 
 2317000    1.0000876   -2.9708206   -2.9708206   -1.7037434  0.055699288   -2.9708206    1.2670772   547498 
 2318000   0.99915179   -2.9704981   -2.9704981   -1.7046065  0.061015726   -2.9704981    1.2658916   547498 
 2319000    1.0003827   -2.9722841   -2.9722841    -1.704833   0.05597705   -2.9722841    1.2674512   547498 
 2320000    1.0009664   -2.9731491   -2.9731491   -1.7049584  0.069358373   -2.9731491    1.2681907   547498 
 2321000    1.0009398   -2.9725032   -2.9725032   -1.7043462  0.065946448   -2.9725032     1.268157   547498 
 2322000    1.0010676   -2.9721396   -2.9721396   -1.7038207  0.060092852   -2.9721396    1.2683189   547498 
 2323000    1.0005312   -2.9727771   -2.9727771   -1.7051378  0.061614098   -2.9727771    1.2676393   547498 
 2324000   0.99994121   -2.9717707   -2.9717707   -1.7048789  0.064664481   -2.9717707    1.2668918   547498 
 2325000    1.0005694   -2.9723444   -2.9723444   -1.7046566  0.059027854   -2.9723444    1.2676877   547498 
 2326000    1.0021976   -2.9748524   -2.9748524   -1.7051019  0.064098117   -2.9748524    1.2697505   547498 
 2327000    1.0018089   -2.9735814   -2.9735814   -1.7043233  0.072781957   -2.9735814    1.2692581   547498 
 2328000     1.002127   -2.9746085   -2.9746085   -1.7049475  0.059749452   -2.9746085    1.2696611   547498 
 2329000    1.0011273   -2.9737968   -2.9737968   -1.7054022  0.062440409   -2.9737968    1.2683946   547498 
 2330000    1.0014312   -2.9737967   -2.9737967   -1.7050172   0.06674818   -2.9737967    1.2687796   547498 
 2331000    1.0012415   -2.9739864   -2.9739864   -1.7054472  0.066930896   -2.9739864    1.2685392   547498 
 2332000     1.001671   -2.9738786   -2.9738786   -1.7047952  0.061781912   -2.9738786    1.2690834   547498 
 2333000     1.001342    -2.974383    -2.974383   -1.7057164  0.071279492    -2.974383    1.2686666   547498 
 2334000    1.0015429   -2.9738034   -2.9738034   -1.7048824  0.064715457   -2.9738034    1.2689211   547498 
 2335000    1.0015287   -2.9741792   -2.9741792    -1.705276  0.063672075   -2.9741792    1.2689031   547498 
 2336000    1.0012103   -2.9744632   -2.9744632   -1.7059635  0.063013895   -2.9744632    1.2684997   547498 
 2337000    1.0009858   -2.9745753   -2.9745753     -1.70636  0.052911548   -2.9745753    1.2682152   547498 
 2338000    1.0004376   -2.9741577   -2.9741577    -1.706637  0.060042326   -2.9741577    1.2675207   547498 
 2339000    1.0021459   -2.9757206   -2.9757206   -1.7060357  0.060885007   -2.9757206     1.269685   547498 
 2340000     1.001824   -2.9752901   -2.9752901   -1.7060128  0.064990004   -2.9752901    1.2692773   547498 
 2341000    1.0025933   -2.9761644   -2.9761644   -1.7059125  0.065340073   -2.9761644    1.2702518   547498 
 2342000    1.0028485    -2.975818    -2.975818   -1.7052427  0.066365145    -2.975818    1.2705753   547498 
 2343000    1.0022344   -2.9763424   -2.9763424   -1.7065452  0.065124595   -2.9763424    1.2697972   547498 
 2344000    1.0013827   -2.9754927   -2.9754927   -1.7067746  0.059325187   -2.9754927    1.2687181   547498 
 2345000    1.0009818   -2.9743572   -2.9743572    -1.706147  0.074544083   -2.9743572    1.2682102   547498 
 2346000    1.0007455   -2.9747396   -2.9747396   -1.7068288  0.054680895   -2.9747396    1.2679108   547498 
 2347000    1.0014076    -2.976726    -2.976726   -1.7079763  0.058410624    -2.976726    1.2687497   547498 
 2348000    1.0012799   -2.9769131   -2.9769131   -1.7083252  0.063221979   -2.9769131    1.2685879   547498 
 2349000    1.0007692   -2.9760731   -2.9760731   -1.7081322  0.057314962   -2.9760731    1.2679409   547498 
 2350000   0.99918849   -2.9735851   -2.9735851    -1.707647  0.064784243   -2.9735851    1.2659381   547498 
 2351000    1.0002001    -2.974506    -2.974506   -1.7072862  0.062748265    -2.974506    1.2672198   547498 
 2352000    1.0015981   -2.9766357   -2.9766357   -1.7076447   0.06902947   -2.9766357     1.268991   547498 
 2353000    1.0007535   -2.9764924   -2.9764924   -1.7085714   0.06248909   -2.9764924     1.267921   547498 
 2354000    1.0013733   -2.9771614   -2.9771614   -1.7084552   0.06645725   -2.9771614    1.2687062   547498 
 2355000    1.0000952   -2.9758945   -2.9758945   -1.7088076  0.060517537   -2.9758945    1.2670869   547498 
 2356000    1.0011488   -2.9767272   -2.9767272   -1.7083054  0.064472935   -2.9767272    1.2684218   547498 
 2357000    1.0000325   -2.9749546   -2.9749546   -1.7079471   0.07050959   -2.9749546    1.2670075   547498 
 2358000    1.0010131   -2.9759849   -2.9759849   -1.7077351  0.064340053   -2.9759849    1.2682498   547498 
 2359000     1.001951    -2.977199    -2.977199   -1.7077608   0.06198313    -2.977199    1.2694382   547498 
 2360000    1.0020201   -2.9769541   -2.9769541   -1.7074285  0.065003487   -2.9769541    1.2695256   547498 
 2361000    1.0013313   -2.9763265   -2.9763265   -1.7076735  0.059219804   -2.9763265     1.268653   547498 
 2362000     1.002095   -2.9779428   -2.9779428   -1.7083222  0.063761528   -2.9779428    1.2696206   547498 
 2363000    1.0014357   -2.9777699   -2.9777699   -1.7089846  0.070914096   -2.9777699    1.2687852   547498 
 2364000    1.0006659   -2.9769817   -2.9769817   -1.7091719  0.052981125   -2.9769817    1.2678099   547498 
 2365000    1.0008057   -2.9766638   -2.9766638   -1.7086767  0.064802301   -2.9766638    1.2679871   547498 
 2366000   0.99988053   -2.9762785   -2.9762785   -1.7094635  0.063497542   -2.9762785    1.2668149   547498 
 2367000     0.999276   -2.9753896   -2.9753896   -1.7093406  0.058230283   -2.9753896     1.266049   547498 
 2368000   0.99956398   -2.9748142   -2.9748142   -1.7084004  0.068414966   -2.9748142    1.2664138   547498 
 2369000   0.99950441    -2.975316    -2.975316   -1.7089777  0.071286935    -2.975316    1.2663384   547498 
 2370000   0.99962981   -2.9774096   -2.9774096   -1.7109124  0.059792239   -2.9774096    1.2664973   547498 
 2371000    1.0002063   -2.9769321   -2.9769321   -1.7097045   0.06339103   -2.9769321    1.2672277   547498 
 2372000   0.99941249   -2.9765816   -2.9765816   -1.7103597  0.071836286   -2.9765816    1.2662219   547498 
 2373000    0.9996237   -2.9762565   -2.9762565    -1.709767  0.062794051   -2.9762565    1.2664895   547498 
 2374000     0.998765   -2.9760013   -2.9760013   -1.7105997  0.055887243   -2.9760013    1.2654016   547498 
 2375000    1.0010265    -2.978512    -2.978512   -1.7102452  0.060331609    -2.978512    1.2682668   547498 
 2376000   0.99955885   -2.9758862   -2.9758862   -1.7094788     0.070166   -2.9758862    1.2664074   547498 
 2377000    1.0007828   -2.9762475   -2.9762475   -1.7082895    0.0595781   -2.9762475     1.267958   547498 
 2378000    1.0018987   -2.9771151   -2.9771151   -1.7077432  0.064291403   -2.9771151    1.2693719   547498 
 2379000    1.0006157   -2.9760303   -2.9760303    -1.708284  0.066708935   -2.9760303    1.2677463   547498 
 2380000    1.0008955    -2.976782    -2.976782   -1.7086811  0.066686405    -2.976782    1.2681009   547498 
 2381000    1.0021628   -2.9776552   -2.9776552   -1.7079487   0.06418368   -2.9776552    1.2697065   547498 
 2382000    1.0013771   -2.9776805   -2.9776805   -1.7089695  0.066553858   -2.9776805     1.268711   547498 
 2383000    1.0011053   -2.9768815   -2.9768815   -1.7085149  0.066105848   -2.9768815    1.2683667   547498 
 2384000    1.0006494   -2.9760345   -2.9760345   -1.7082454  0.068663781   -2.9760345    1.2677891   547498 
 2385000    1.0019486    -2.977115    -2.977115   -1.7076798  0.070400685    -2.977115    1.2694351   547498 
 2386000    1.0028095   -2.9774909   -2.9774909    -1.706965   0.06723332   -2.9774909    1.2705258   547498 
 2387000    1.0014414   -2.9761456   -2.9761456   -1.7073532  0.068645744   -2.9761456    1.2687924   547498 
 2388000    1.0016802   -2.9770593   -2.9770593   -1.7079643  0.061083627   -2.9770593     1.269095   547498 
 2389000    1.0013236   -2.9764606   -2.9764606   -1.7078174  0.061240272   -2.9764606    1.2686432   547498 
 2390000    1.0004596   -2.9760693   -2.9760693   -1.7085207   0.05944031   -2.9760693    1.2675486   547498 
 2391000   0.99952175   -2.9743327   -2.9743327   -1.7079724  0.063601606   -2.9743327    1.2663603   547498 
 2392000   0.99884121   -2.9731902   -2.9731902   -1.7076921  0.068106433   -2.9731902    1.2654981   547498 
 2393000    1.0003072   -2.9753887   -2.9753887   -1.7080333  0.065023684   -2.9753887    1.2673555   547498 
 2394000    0.9999344   -2.9746886   -2.9746886   -1.7078054  0.060716803   -2.9746886    1.2668832   547498 
 2395000    1.0004599   -2.9743425   -2.9743425   -1.7067935  0.058693959   -2.9743425     1.267549   547498 
 2396000   0.99977132    -2.972814    -2.972814   -1.7061375  0.061646793    -2.972814    1.2666765   547498 
 2397000    1.0013475   -2.9741652   -2.9741652   -1.7054917    0.0589155   -2.9741652    1.2686735   547498 
 2398000    1.0016231   -2.9748914   -2.9748914   -1.7058687  0.060328512   -2.9748914    1.2690227   547498 
 2399000   0.99968411   -2.9727288   -2.9727288   -1.7061627  0.065274502   -2.9727288     1.266566   547498 
 2400000    1.0011464   -2.9751039   -2.9751039   -1.7066852   0.05864576   -2.9751039    1.2684187   547498 
 2401000   0.99964256    -2.974105    -2.974105   -1.7075916  0.065236156    -2.974105    1.2665134   547498 
 2402000   0.99935542     -2.97279     -2.97279   -1.7066404  0.056499914     -2.97279    1.2661496   547498 
 2403000      0.99973   -2.9734766   -2.9734766   -1.7068524  0.072770997   -2.9734766    1.2666242   547498 
 2404000    1.0002725   -2.9731461   -2.9731461   -1.7058346  0.056269104   -2.9731461    1.2673115   547498 
 2405000   0.99993176   -2.9727265   -2.9727265   -1.7058467  0.062913191   -2.9727265    1.2668798   547498 
 2406000    1.0001961   -2.9731698   -2.9731698   -1.7059551  0.059082031   -2.9731698    1.2672147   547498 
 2407000    1.0006602     -2.97414     -2.97414   -1.7063372  0.064637848     -2.97414    1.2678028   547498 
 2408000   0.99897312   -2.9715362   -2.9715362   -1.7058709  0.053953424   -2.9715362    1.2656653   547498 
 2409000    1.0024393   -2.9756333   -2.9756333   -1.7055766   0.06275973   -2.9756333    1.2700567   547498 
 2410000    1.0007283   -2.9735383   -2.9735383   -1.7056493  0.058213897   -2.9735383     1.267889   547498 
 2411000    1.0010432    -2.973617    -2.973617   -1.7053291  0.063774286    -2.973617    1.2682879   547498 
 2412000    1.0020186   -2.9741194   -2.9741194   -1.7045956  0.067778236   -2.9741194    1.2695238   547498 
 2413000    1.0015439   -2.9747963   -2.9747963   -1.7058739  0.070087686   -2.9747963    1.2689224   547498 
 2414000    1.0007555   -2.9741127   -2.9741127   -1.7061893  0.061000254   -2.9741127    1.2679234   547498 
 2415000    1.0008229   -2.9745332   -2.9745332   -1.7065244  0.062462682   -2.9745332    1.2680088   547498 
 2416000    1.0016049   -2.9752073   -2.9752073   -1.7062077  0.067986337   -2.9752073    1.2689996   547498 
 2417000   0.99948156   -2.9732206   -2.9732206   -1.7069112  0.055953485   -2.9732206    1.2663094   547498 
 2418000    1.0017683   -2.9760124   -2.9760124   -1.7068057  0.056832711   -2.9760124    1.2692066   547498 
 2419000    1.0011339   -2.9750335   -2.9750335   -1.7066307  0.073703972   -2.9750335    1.2684029   547498 
 2420000    1.0010355    -2.975354    -2.975354   -1.7070758  0.063824018    -2.975354    1.2682782   547498 
 2421000    1.0020797   -2.9769067   -2.9769067   -1.7073056  0.060256558   -2.9769067    1.2696012   547498 
 2422000    1.0001447   -2.9745986   -2.9745986   -1.7074489  0.062720478   -2.9745986    1.2671496   547498 
 2423000      1.00196   -2.9773712   -2.9773712   -1.7079217   0.06504842   -2.9773712    1.2694495   547498 
 2424000   0.99970835   -2.9740514   -2.9740514   -1.7074546  0.067863858   -2.9740514    1.2665968   547498 
 2425000    1.0013791   -2.9763809   -2.9763809   -1.7076674  0.066972232   -2.9763809    1.2687135   547498 
 2426000    1.0002445   -2.9755629   -2.9755629   -1.7082869  0.068693985   -2.9755629     1.267276   547498 
 2427000    1.0015033   -2.9772481   -2.9772481   -1.7083772  0.067874039   -2.9772481    1.2688709   547498 
 2428000   0.99947673    -2.974956    -2.974956   -1.7086527  0.063154252    -2.974956    1.2663033   547498 
 2429000     1.001466   -2.9784176   -2.9784176    -1.709594  0.067552726   -2.9784176    1.2688237   547498 
 2430000    1.0021653   -2.9786838   -2.9786838   -1.7089742   0.06163213   -2.9786838    1.2697096   547498 
 2431000    1.0007226   -2.9766307   -2.9766307   -1.7087489  0.068288208   -2.9766307    1.2678818   547498 
 2432000    1.0012697   -2.9782915   -2.9782915   -1.7097165  0.059400689   -2.9782915     1.268575   547498 
 2433000    1.0013492   -2.9779665   -2.9779665   -1.7092908  0.068585684   -2.9779665    1.2686757   547498 
 2434000    1.0009512   -2.9769971   -2.9769971   -1.7088257  0.066409112   -2.9769971    1.2681714   547498 
 2435000    1.0008551    -2.977033    -2.977033   -1.7089834  0.059490772    -2.977033    1.2680496   547498 
 2436000    1.0021871   -2.9783518   -2.9783518   -1.7086146  0.068375797   -2.9783518    1.2697372   547498 
 2437000    1.0006525   -2.9770821   -2.9770821   -1.7092891  0.069133907   -2.9770821     1.267793   547498 
 2438000    1.0018566   -2.9781661   -2.9781661   -1.7088475  0.057928955   -2.9781661    1.2693186   547498 
 2439000     1.001442   -2.9776009   -2.9776009   -1.7088077  0.068884275   -2.9776009    1.2687932   547498 
 2440000     1.002235   -2.9780142   -2.9780142   -1.7082162  0.063412526   -2.9780142    1.2697979   547498 
 2441000    1.0021506   -2.9782262   -2.9782262   -1.7085353  0.066283934   -2.9782262     1.269691   547498 
 2442000    1.0001282   -2.9762469   -2.9762469   -1.7091182   0.06879277   -2.9762469    1.2671288   547498 
 2443000    1.0014359   -2.9766842   -2.9766842   -1.7078987  0.061671187   -2.9766842    1.2687854   547498 
 2444000    1.0003023    -2.976076    -2.976076   -1.7087267  0.063491799    -2.976076    1.2673493   547498 
 2445000   0.99921584   -2.9756193   -2.9756193   -1.7096466  0.058323439   -2.9756193    1.2659728   547498 
 2446000   0.99977487   -2.9773122   -2.9773122   -1.7106312   0.05363175   -2.9773122     1.266681   547498 
 2447000    0.9992915   -2.9759306   -2.9759306    -1.709862    0.0613426   -2.9759306    1.2660686   547498 
 2448000   0.99948246   -2.9762186   -2.9762186   -1.7099081  0.065913335   -2.9762186    1.2663106   547498 
 2449000   0.99999246    -2.976432    -2.976432   -1.7094753  0.068602703    -2.976432    1.2669567   547498 
 2450000    0.9999679   -2.9763975   -2.9763975   -1.7094719  0.063881608   -2.9763975    1.2669256   547498 
 2451000    1.0000195   -2.9770418   -2.9770418   -1.7100507  0.066651395   -2.9770418     1.266991   547498 
 2452000    1.0006585   -2.9780386   -2.9780386   -1.7102381  0.055248195   -2.9780386    1.2678005   547498 
 2453000   0.99931819   -2.9766872   -2.9766872   -1.7105848  0.072413592   -2.9766872    1.2661024   547498 
 2454000    1.0006336    -2.978043    -2.978043    -1.710274  0.064846912    -2.978043    1.2677691   547498 
 2455000    1.0001451   -2.9774067   -2.9774067   -1.7102566   0.06465596   -2.9774067    1.2671501   547498 
 2456000    1.0006912   -2.9774009   -2.9774009   -1.7095589  0.078147953   -2.9774009     1.267842   547498 
 2457000    1.0012576   -2.9776252   -2.9776252   -1.7090656  0.061384552   -2.9776252    1.2685596   547498 
 2458000    1.0020597   -2.9784401   -2.9784401   -1.7088642  0.063211181   -2.9784401    1.2695758   547498 
 2459000    1.0006049   -2.9769007   -2.9769007    -1.709168  0.073296564   -2.9769007    1.2677327   547498 
 2460000    1.0010555   -2.9786081   -2.9786081   -1.7103046  0.071212173   -2.9786081    1.2683035   547498 
 2461000    1.0009143   -2.9786656   -2.9786656    -1.710541  0.068145179   -2.9786656    1.2681246   547498 
 2462000    1.0014567   -2.9801085   -2.9801085   -1.7112967  0.061900142   -2.9801085    1.2688119   547498 
 2463000    1.0008678   -2.9793425   -2.9793425   -1.7112768  0.070617079   -2.9793425    1.2680657   547498 
 2464000     1.002254   -2.9805279   -2.9805279   -1.7107059  0.065297825   -2.9805279     1.269822   547498 
 2465000    1.0023361   -2.9799196   -2.9799196   -1.7099936  0.068221742   -2.9799196     1.269926   547498 
 2466000    1.0007927   -2.9790942   -2.9790942   -1.7111236  0.071604449   -2.9790942    1.2679706   547498 
 2467000     1.000995   -2.9793869   -2.9793869   -1.7111599  0.070812117   -2.9793869     1.268227   547498 
 2468000    1.0008442   -2.9798159   -2.9798159   -1.7117801  0.069790426   -2.9798159    1.2680358   547498 
 2469000     1.001691   -2.9803521   -2.9803521   -1.7112434  0.069081951   -2.9803521    1.2691087   547498 
 2470000    1.0018017   -2.9803195   -2.9803195   -1.7110706  0.062921841   -2.9803195    1.2692489   547498 
 2471000    1.0018783   -2.9805159   -2.9805159   -1.7111699  0.077000175   -2.9805159     1.269346   547498 
 2472000    1.0006801   -2.9798723   -2.9798723   -1.7120444   0.06919608   -2.9798723    1.2678279   547498 
 2473000    1.0025593   -2.9818512   -2.9818512   -1.7116424  0.059436799   -2.9818512    1.2702088   547498 
 2474000    1.0011699   -2.9806641   -2.9806641   -1.7122155  0.073138109   -2.9806641    1.2684486   547498 
 2475000     1.000587   -2.9804171   -2.9804171   -1.7127071  0.066560536   -2.9804171      1.26771   547498 
 2476000    1.0001633   -2.9799737   -2.9799737   -1.7128005  0.065798269   -2.9799737    1.2671732   547498 
 2477000   0.99886712   -2.9784928   -2.9784928   -1.7129618  0.065106217   -2.9784928    1.2655309   547498 
 2478000   0.99921189   -2.9776473   -2.9776473   -1.7116795  0.060539836   -2.9776473    1.2659678   547498 
 2479000    1.0001129   -2.9786844   -2.9786844   -1.7115751  0.059141321   -2.9786844    1.2671093   547498 
 2480000   0.99918292   -2.9781719   -2.9781719   -1.7122409  0.056801731   -2.9781719    1.2659311   547498 
 2481000    1.0014775   -2.9809855   -2.9809855   -1.7121473  0.063618623   -2.9809855    1.2688382   547498 
 2482000    1.0009383   -2.9799737   -2.9799737   -1.7118187  0.068826751   -2.9799737     1.268155   547498 
 2483000   0.99948289   -2.9779876   -2.9779876   -1.7116765  0.066948045   -2.9779876    1.2663111   547498 
 2484000    1.0019447   -2.9799959   -2.9799959   -1.7105658  0.066532224   -2.9799959    1.2694301   547498 
 2485000     1.001599   -2.9789377   -2.9789377   -1.7099455   0.06153038   -2.9789377    1.2689922   547498 
 2486000     1.002044   -2.9802355   -2.9802355   -1.7106796  0.066901076   -2.9802355    1.2695559   547498 
 2487000    1.0011157   -2.9779902   -2.9779902   -1.7096104  0.065806075   -2.9779902    1.2683798   547498 
 2488000    1.0015622     -2.97705     -2.97705   -1.7081045  0.060130203     -2.97705    1.2689455   547498 
 2489000   0.99996544   -2.9749378   -2.9749378   -1.7080153  0.072580993   -2.9749378    1.2669225   547498 
 2490000    1.0007798   -2.9761712   -2.9761712   -1.7082169  0.074217805   -2.9761712    1.2679543   547498 
 2491000    1.0020578   -2.9783801   -2.9783801   -1.7088067  0.061397696   -2.9783801    1.2695734   547498 
 2492000    1.0011406   -2.9773939   -2.9773939   -1.7089825  0.066222708   -2.9773939    1.2684114   547498 
 2493000    1.0006046   -2.9769924   -2.9769924   -1.7092601  0.056672569   -2.9769924    1.2677323   547498 
 2494000     1.000933   -2.9763388   -2.9763388   -1.7081904  0.061889562   -2.9763388    1.2681484   547498 
 2495000    1.0004217   -2.9757476   -2.9757476   -1.7082471  0.071100806   -2.9757476    1.2675005   547498 
 2496000    1.0007458   -2.9775851   -2.9775851   -1.7096739  0.060125128   -2.9775851    1.2679112   547498 
 2497000    1.0014179   -2.9783975   -2.9783975   -1.7096348  0.062064974   -2.9783975    1.2687627   547498 
 2498000    1.0019162   -2.9783406   -2.9783406   -1.7089466  0.055086341   -2.9783406    1.2693941   547498 
 2499000    1.0003641   -2.9762641   -2.9762641   -1.7088366  0.070383175   -2.9762641    1.2674275   547498 
 2500000    1.0001099   -2.9768206   -2.9768206   -1.7097151  0.063878249   -2.9768206    1.2671056   547498 
 2501000    1.0014239   -2.9776025   -2.9776025   -1.7088321  0.062854257   -2.9776025    1.2687703   547498 
 2502000     1.000023   -2.9765951   -2.9765951   -1.7095997  0.065697032   -2.9765951    1.2669954   547498 
 2503000     1.000063   -2.9767124   -2.9767124   -1.7096662  0.065921653   -2.9767124    1.2670462   547498 
 2504000    1.0002098   -2.9765137   -2.9765137   -1.7092816   0.06356944   -2.9765137    1.2672321   547498 
 2505000   0.99984964   -2.9760857   -2.9760857   -1.7093099  0.064783615   -2.9760857    1.2667758   547498 
 2506000   0.99953007   -2.9764371   -2.9764371   -1.7100662  0.059691882   -2.9764371    1.2663709   547498 
 2507000   0.99787845    -2.974511    -2.974511   -1.7102326  0.066203742    -2.974511    1.2642783   547498 
 2508000    1.0002112   -2.9766055   -2.9766055   -1.7093716  0.056475482   -2.9766055    1.2672338   547498 
 2509000   0.99958402   -2.9762848   -2.9762848   -1.7098455  0.062351962   -2.9762848    1.2664392   547498 
 2510000    1.0001746   -2.9769188   -2.9769188   -1.7097313  0.062491503   -2.9769188    1.2671875   547498 
 2511000   0.99837767   -2.9739335   -2.9739335   -1.7090226  0.070092367   -2.9739335    1.2649108   547498 
 2512000    1.0009949   -2.9771993   -2.9771993   -1.7089725  0.064077486   -2.9771993    1.2682268   547498 
 2513000    1.0009367   -2.9775077   -2.9775077   -1.7093546  0.066094557   -2.9775077    1.2681531   547498 
 2514000   0.99842897   -2.9743706   -2.9743706   -1.7093947  0.072284203   -2.9743706    1.2649758   547498 
 2515000    1.0008438   -2.9773096   -2.9773096   -1.7092743  0.062495004   -2.9773096    1.2680353   547498 
 2516000    1.0006294   -2.9779383   -2.9779383   -1.7101746  0.071528447   -2.9779383    1.2677637   547498 
 2517000     1.002248   -2.9802549   -2.9802549   -1.7104405   0.05980257   -2.9802549    1.2698144   547498 
 2518000    1.0019862    -2.980562    -2.980562   -1.7110792  0.061144405    -2.980562    1.2694827   547498 
 2519000    1.0006512   -2.9780848   -2.9780848   -1.7102935  0.065114232   -2.9780848    1.2677913   547498 
 2520000   0.99994179   -2.9783261   -2.9783261   -1.7114335   0.06421951   -2.9783261    1.2668925   547498 
 2521000    1.0003818   -2.9782066   -2.9782066   -1.7107567  0.066684778   -2.9782066    1.2674499   547498 
 2522000   0.99970195    -2.977679    -2.977679   -1.7110903  0.067439262    -2.977679    1.2665887   547498 
 2523000    1.0018952   -2.9805129   -2.9805129   -1.7111455  0.060825439   -2.9805129    1.2693674   547498 
 2524000    1.0012884   -2.9797077   -2.9797077   -1.7111091  0.068434381   -2.9797077    1.2685986   547498 
 2525000    1.0016983   -2.9792688   -2.9792688   -1.7101508  0.069644917   -2.9792688     1.269118   547498 
 2526000    1.0009538   -2.9797607   -2.9797607    -1.711586  0.071834393   -2.9797607    1.2681747   547498 
 2527000    1.0020249   -2.9811618   -2.9811618     -1.71163   0.06152546   -2.9811618    1.2695317   547498 
 2528000    1.0014231   -2.9798221   -2.9798221   -1.7110527  0.065141264   -2.9798221    1.2687693   547498 
 2529000    1.0004248   -2.9794332   -2.9794332   -1.7119287  0.065885575   -2.9794332    1.2675045   547498 
 2530000    1.0021019   -2.9808437   -2.9808437   -1.7112144  0.069327852   -2.9808437    1.2696293   547498 
 2531000    1.0017934   -2.9796158   -2.9796158   -1.7103774  0.067422857   -2.9796158    1.2692384   547498 
 2532000    1.0014982   -2.9800312   -2.9800312   -1.7111667  0.057664893   -2.9800312    1.2688645   547498 
 2533000    1.0023043   -2.9810763   -2.9810763   -1.7111905  0.066250933   -2.9810763    1.2698857   547498 
 2534000    1.0022315   -2.9809268   -2.9809268   -1.7111332  0.066972015   -2.9809268    1.2697935   547498 
 2535000    1.0024178   -2.9812776   -2.9812776   -1.7112481  0.066231116   -2.9812776    1.2700296   547498 
 2536000    1.0005011   -2.9776353   -2.9776353   -1.7100341  0.073206769   -2.9776353    1.2676012   547498 
 2537000    1.0007688   -2.9783374   -2.9783374   -1.7103971   0.07294102   -2.9783374    1.2679403   547498 
 2538000    1.0011309   -2.9789855   -2.9789855   -1.7105864  0.069736231   -2.9789855    1.2683991   547498 
 2539000    1.0010312   -2.9798736   -2.9798736   -1.7116008  0.069628913   -2.9798736    1.2682728   547498 
 2540000    1.0024054     -2.98092     -2.98092   -1.7109061  0.068711655     -2.98092    1.2700139   547498 
 2541000    1.0015426   -2.9796445   -2.9796445   -1.7107238  0.066593013   -2.9796445    1.2689207   547498 
 2542000    1.0024881    -2.981441    -2.981441   -1.7113224  0.054283963    -2.981441    1.2701186   547498 
 2543000    1.0011515   -2.9796406   -2.9796406   -1.7112154  0.059717005   -2.9796406    1.2684252   547498 
 2544000    1.0008942   -2.9780762   -2.9780762    -1.709977  0.068306812   -2.9780762    1.2680992   547498 
 2545000    1.0005651   -2.9773495   -2.9773495   -1.7096672  0.064961095   -2.9773495    1.2676823   547498 
 2546000    1.0003621   -2.9778506   -2.9778506   -1.7104256  0.071993522   -2.9778506     1.267425   547498 
 2547000    1.0019683   -2.9796845   -2.9796845   -1.7102244  0.065955187   -2.9796845    1.2694601   547498 
 2548000    1.0011006   -2.9775823   -2.9775823   -1.7092217  0.061485537   -2.9775823    1.2683606   547498 
 2549000    1.0000773   -2.9760926   -2.9760926   -1.7090284  0.068975816   -2.9760926    1.2670642   547498 
 2550000    1.0010919   -2.9779476   -2.9779476    -1.709598  0.067998451   -2.9779476    1.2683497   547498 
 2551000    1.0021391    -2.979075    -2.979075   -1.7093986  0.065156776    -2.979075    1.2696764   547498 
 2552000    1.0006185   -2.9767563   -2.9767563   -1.7090065  0.069796131   -2.9767563    1.2677498   547498 
 2553000   0.99968636   -2.9763227   -2.9763227   -1.7097538    0.0671901   -2.9763227    1.2665689   547498 
 2554000    1.0018335    -2.978652    -2.978652   -1.7093627  0.066369222    -2.978652    1.2692893   547498 
 2555000    1.0015551   -2.9785768   -2.9785768   -1.7096402  0.059679703   -2.9785768    1.2689366   547498 
 2556000    1.0006202   -2.9768365   -2.9768365   -1.7090845  0.070955784   -2.9768365     1.267752   547498 
 2557000    1.0011539   -2.9769159   -2.9769159   -1.7084877  0.065404532   -2.9769159    1.2684283   547498 
 2558000    1.0006794   -2.9770933   -2.9770933   -1.7092663  0.063802306   -2.9770933     1.267827   547498 
 2559000    1.0012076   -2.9777857   -2.9777857   -1.7092895  0.067126585   -2.9777857    1.2684963   547498 
 2560000   0.99940076   -2.9750593   -2.9750593   -1.7088522  0.062861407   -2.9750593    1.2662071   547498 
 2561000     1.000887   -2.9770333   -2.9770333   -1.7089433  0.060758588   -2.9770333      1.26809   547498 
 2562000    1.0006057   -2.9760868   -2.9760868   -1.7083531  0.058218641   -2.9760868    1.2677337   547498 
 2563000    1.0006137   -2.9762488   -2.9762488    -1.708505   0.05958901   -2.9762488    1.2677438   547498 
 2564000    1.0011728   -2.9767934   -2.9767934   -1.7083412  0.067065756   -2.9767934    1.2684522   547498 
 2565000    1.0008701   -2.9766521   -2.9766521   -1.7085835  0.068941742   -2.9766521    1.2680687   547498 
 2566000   0.99944555   -2.9750004   -2.9750004   -1.7087366  0.063622018   -2.9750004    1.2662638   547498 
 2567000     1.000262   -2.9758995   -2.9758995   -1.7086013  0.065884792   -2.9758995    1.2672982   547498 
 2568000    1.0001621   -2.9757418   -2.9757418   -1.7085702  0.058389609   -2.9757418    1.2671717   547498 
 2569000    1.0015219   -2.9771778   -2.9771778   -1.7082833  0.062738937   -2.9771778    1.2688945   547498 
 2570000    1.0013535   -2.9761251   -2.9761251    -1.707444  0.063017345   -2.9761251    1.2686811   547498 
 2571000    1.0014412   -2.9765751   -2.9765751   -1.7077828  0.071185123   -2.9765751    1.2687922   547498 
 2572000    1.0005361   -2.9757566   -2.9757566    -1.708111   0.05743722   -2.9757566    1.2676455   547498 
 2573000    1.0017896   -2.9767285   -2.9767285   -1.7074949  0.074769628   -2.9767285    1.2692336   547498 
 2574000    1.0001442   -2.9753558   -2.9753558   -1.7082069   0.05605268   -2.9753558    1.2671489   547498 
 2575000    1.0005684   -2.9758651   -2.9758651   -1.7081788   0.06561303   -2.9758651    1.2676864   547498 
 2576000     1.002505    -2.978015    -2.978015    -1.707875  0.064894155    -2.978015      1.27014   547498 
 2577000     1.000903    -2.976445    -2.976445   -1.7083347  0.072366096    -2.976445    1.2681103   547498 
 2578000   0.99985726   -2.9756788   -2.9756788   -1.7088933  0.072163891   -2.9756788    1.2667854   547498 
 2579000   0.99913978   -2.9747904   -2.9747904    -1.708914  0.065446596   -2.9747904    1.2658764   547498 
 2580000    1.0016262   -2.9772916   -2.9772916    -1.708265  0.063214337   -2.9772916    1.2690266   547498 
 2581000    1.0010029   -2.9762636   -2.9762636   -1.7080267  0.069083463   -2.9762636    1.2682369   547498 
 2582000    1.0018216   -2.9766626   -2.9766626   -1.7073884  0.070667038   -2.9766626    1.2692742   547498 
 2583000      1.00035   -2.9760232   -2.9760232   -1.7086135  0.074973677   -2.9760232    1.2674097   547498 
 2584000    1.0004959    -2.976203    -2.976203   -1.7086085  0.057922274    -2.976203    1.2675945   547498 
 2585000    1.0012039   -2.9773049   -2.9773049   -1.7088133  0.061691713   -2.9773049    1.2684916   547498 
 2586000   0.99907355   -2.9752803   -2.9752803   -1.7094878  0.059291135   -2.9752803    1.2657925   547498 
 2587000    1.0017898   -2.9785708   -2.9785708   -1.7093369  0.060688404   -2.9785708    1.2692339   547498 
 2588000    1.0009606    -2.977809    -2.977809   -1.7096258  0.066501988    -2.977809    1.2681833   547498 
 2589000     1.002244   -2.9791657   -2.9791657   -1.7093564  0.069337856   -2.9791657    1.2698093   547498 
 2590000    1.0029054   -2.9790053   -2.9790053    -1.708358  0.067814411   -2.9790053    1.2706473   547498 
 2591000    1.0024194   -2.9777533   -2.9777533   -1.7077217  0.074713252   -2.9777533    1.2700316   547498 
 2592000    1.0030915   -2.9789422   -2.9789422   -1.7080591  0.074632288   -2.9789422    1.2708831   547498 
 2593000    1.0019763   -2.9769612   -2.9769612    -1.707491  0.074856248   -2.9769612    1.2694702   547498 
 2594000    1.0029854   -2.9781415   -2.9781415   -1.7073928  0.065296345   -2.9781415    1.2707487   547498 
 2595000    1.0040842   -2.9795001   -2.9795001   -1.7073593  0.072402924   -2.9795001    1.2721408   547498 
 2596000     1.003144   -2.9781641   -2.9781641   -1.7072144  0.065398537   -2.9781641    1.2709496   547498 
 2597000    1.0024324   -2.9773443   -2.9773443   -1.7072963  0.073150406   -2.9773443     1.270048   547498 
 2598000    1.0031293   -2.9786565   -2.9786565   -1.7077255  0.063784334   -2.9786565     1.270931   547498 
 2599000    1.0020595   -2.9771211   -2.9771211   -1.7075455  0.070647439   -2.9771211    1.2695756   547498 
 2600000    1.0022636   -2.9766557   -2.9766557   -1.7068215  0.069179715   -2.9766557    1.2698341   547498 
 2601000    1.0032113   -2.9773864   -2.9773864   -1.7063516   0.06702298   -2.9773864    1.2710349   547498 
 2602000    1.0026889   -2.9769099   -2.9769099   -1.7065368  0.067778944   -2.9769099    1.2703731   547498 
 2603000    1.0016865   -2.9759015   -2.9759015   -1.7067985   0.06844197   -2.9759015    1.2691031   547498 
 2604000    1.0015739   -2.9751635   -2.9751635   -1.7062031  0.068474331   -2.9751635    1.2689604   547498 
 2605000    1.0018967   -2.9752587   -2.9752587   -1.7058894  0.074561467   -2.9752587    1.2693693   547498 
 2606000    1.0014374   -2.9754556   -2.9754556   -1.7066683  0.065303869   -2.9754556    1.2687874   547498 
 2607000    1.0008099   -2.9740137   -2.9740137   -1.7060213  0.056665159   -2.9740137    1.2679924   547498 
 2608000    1.0003711   -2.9743337   -2.9743337   -1.7068972  0.052475485   -2.9743337    1.2674365   547498 
 2609000    1.0003126   -2.9748388   -2.9748388   -1.7074764   0.06526548   -2.9748388    1.2673624   547498 
 2610000   0.99881774   -2.9721641   -2.9721641   -1.7066957  0.067424662   -2.9721641    1.2654684   547498 
 2611000   0.99989066   -2.9728071   -2.9728071   -1.7059793  0.063604738   -2.9728071    1.2668277   547498 
 2612000   0.99935163   -2.9722855   -2.9722855   -1.7061407  0.064928895   -2.9722855    1.2661448   547498 
 2613000   0.99991496   -2.9736511   -2.9736511   -1.7067926  0.063698048   -2.9736511    1.2668585   547498 
 2614000   0.99803324   -2.9717995   -2.9717995    -1.707325  0.067691979   -2.9717995    1.2644745   547498 
 2615000    0.9987224     -2.97156     -2.97156   -1.7062124  0.061867135     -2.97156    1.2653476   547498 
 2616000   0.99923758   -2.9723508   -2.9723508   -1.7063505  0.059373566   -2.9723508    1.2660003   547498 
 2617000    1.0001687   -2.9721252   -2.9721252   -1.7049452   0.05790573   -2.9721252      1.26718   547498 
 2618000   0.99921061   -2.9719077   -2.9719077   -1.7059416  0.069160084   -2.9719077    1.2659661   547498 
 2619000   0.99891055   -2.9709044   -2.9709044   -1.7053184  0.060324957   -2.9709044     1.265586   547498 
 2620000    1.0009139   -2.9739668   -2.9739668   -1.7058427  0.058367759   -2.9739668    1.2681241   547498 
 2621000     1.000777   -2.9743267   -2.9743267    -1.706376  0.063000621   -2.9743267    1.2679507   547498 
 2622000   0.99950522   -2.9733729   -2.9733729   -1.7070335  0.069844308   -2.9733729    1.2663394   547498 
 2623000    1.0013738   -2.9749234   -2.9749234   -1.7062166  0.059609013   -2.9749234    1.2687069   547498 
 2624000    1.0005281   -2.9744937   -2.9744937   -1.7068583   0.07270209   -2.9744937    1.2676354   547498 
 2625000    1.0011751   -2.9747766   -2.9747766   -1.7063215  0.065211222   -2.9747766    1.2684551   547498 
 2626000    1.0015823   -2.9756219   -2.9756219   -1.7066509   0.05797014   -2.9756219     1.268971   547498 
 2627000    1.0012599   -2.9753899   -2.9753899   -1.7068274  0.072067611   -2.9753899    1.2685625   547498 
 2628000    1.0014259   -2.9759836   -2.9759836   -1.7072107  0.075656934   -2.9759836    1.2687729   547498 
 2629000    1.0014757   -2.9758585   -2.9758585   -1.7070226  0.063016863   -2.9758585     1.268836   547498 
 2630000      1.00062   -2.9761798   -2.9761798   -1.7084281  0.069041581   -2.9761798    1.2677517   547498 
 2631000    1.0024795    -2.978798    -2.978798   -1.7086903  0.058702838    -2.978798    1.2701077   547498 
 2632000    1.0026173   -2.9780144   -2.9780144   -1.7077321  0.073536541   -2.9780144    1.2702823   547498 
 2633000    1.0021097   -2.9769413   -2.9769413   -1.7073021  0.068611982   -2.9769413    1.2696392   547498 
 2634000     1.002755   -2.9778167   -2.9778167   -1.7073599  0.067662033   -2.9778167    1.2704568   547498 
 2635000    1.0011107    -2.977428    -2.977428   -1.7090545  0.062501176    -2.977428    1.2683735   547498 
 2636000    1.0009166    -2.977552    -2.977552   -1.7094244  0.069120101    -2.977552    1.2681276   547498 
 2637000    1.0024136   -2.9785892   -2.9785892    -1.708565  0.066547864   -2.9785892    1.2700242   547498 
 2638000     1.001612    -2.977864    -2.977864   -1.7088554  0.062663565    -2.977864    1.2690086   547498 
 2639000    1.0001998   -2.9765833   -2.9765833   -1.7093639  0.070420924   -2.9765833    1.2672194   547498 
 2640000     1.001743   -2.9791562   -2.9791562   -1.7099816  0.067912398   -2.9791562    1.2691746   547498 
 2641000    1.0021886   -2.9799116   -2.9799116   -1.7101724  0.067814329   -2.9799116    1.2697392   547498 
 2642000   0.99958934   -2.9771869   -2.9771869    -1.710741   0.05839006   -2.9771869     1.266446   547498 
 2643000     1.003285   -2.9802394   -2.9802394   -1.7091112  0.070478493   -2.9802394    1.2711282   547498 
 2644000    1.0007781   -2.9785287   -2.9785287   -1.7105767  0.075390332   -2.9785287    1.2679521   547498 
 2645000    1.0030292   -2.9808052   -2.9808052   -1.7100009  0.056252509   -2.9808052    1.2708042   547498 
 2646000    1.0004213   -2.9777405   -2.9777405   -1.7102404  0.062539577   -2.9777405    1.2675001   547498 
 2647000    1.0011544   -2.9782818   -2.9782818   -1.7098529  0.071011083   -2.9782818    1.2684289   547498 
 2648000    1.0009778    -2.978274    -2.978274   -1.7100689  0.077270934    -2.978274    1.2682051   547498 
 2649000    1.0008289   -2.9775496   -2.9775496   -1.7095331  0.063833315   -2.9775496    1.2680165   547498 
 2650000    1.0017638   -2.9768462   -2.9768462   -1.7076452  0.069004636   -2.9768462     1.269201   547498 
 2651000    1.0013129   -2.9757604   -2.9757604   -1.7071307  0.077382579   -2.9757604    1.2686297   547498 
 2652000    1.0030063    -2.977778    -2.977778   -1.7070028  0.069159043    -2.977778    1.2707752   547498 
 2653000    1.0015518   -2.9763174   -2.9763174    -1.707385  0.062038647   -2.9763174    1.2689324   547498 
 2654000    1.0009312   -2.9754969   -2.9754969   -1.7073508  0.071612838   -2.9754969    1.2681461   547498 
 2655000    1.0014428   -2.9760471   -2.9760471   -1.7072529  0.063552302   -2.9760471    1.2687942   547498 
 2656000    1.0014066   -2.9761757   -2.9761757   -1.7074273  0.072882164   -2.9761757    1.2687484   547498 
 2657000    1.0011584   -2.9759471   -2.9759471   -1.7075132  0.064728153   -2.9759471    1.2684339   547498 
 2658000    1.0002705   -2.9751493   -2.9751493   -1.7078403   0.07525215   -2.9751493     1.267309   547498 
 2659000    1.0017428   -2.9762336   -2.9762336   -1.7070593  0.063856013   -2.9762336    1.2691743   547498 
 2660000    1.0011741   -2.9748702   -2.9748702   -1.7064164  0.063354486   -2.9748702    1.2684538   547498 
 2661000    1.0017476   -2.9757017   -2.9757017   -1.7065213  0.060056006   -2.9757017    1.2691804   547498 
 2662000    0.9990868   -2.9726498   -2.9726498   -1.7068405  0.065229629   -2.9726498    1.2658093   547498 
 2663000   0.99910616   -2.9723863   -2.9723863   -1.7065525  0.049395912   -2.9723863    1.2658338   547498 
 2664000   0.99993185   -2.9727263   -2.9727263   -1.7058464  0.060657183   -2.9727263    1.2668799   547498 
 2665000    0.9987494   -2.9720282   -2.9720282   -1.7066464  0.060909266   -2.9720282    1.2653818   547498 
 2666000   0.99969966   -2.9738146   -2.9738146   -1.7072289  0.066129838   -2.9738146    1.2665858   547498 
 2667000   0.99992244   -2.9729923   -2.9729923   -1.7061243   0.06103774   -2.9729923     1.266868   547498 
 2668000    1.0002582   -2.9732331   -2.9732331   -1.7059397  0.055122802   -2.9732331    1.2672934   547498 
 2669000   0.99956469    -2.971047    -2.971047   -1.7046322  0.054736044    -2.971047    1.2664147   547498 
 2670000    1.0006588   -2.9724613   -2.9724613   -1.7046604  0.063987687   -2.9724613    1.2678009   547498 
 2671000    1.0012336   -2.9731488   -2.9731488   -1.7046196  0.062732696   -2.9731488    1.2685291   547498 
 2672000    1.0008034   -2.9723884   -2.9723884   -1.7044043  0.069939221   -2.9723884    1.2679841   547498 
 2673000    1.0015373    -2.973097    -2.973097   -1.7041831  0.070133458    -2.973097    1.2689139   547498 
 2674000    1.0014721   -2.9731259   -2.9731259   -1.7042945  0.062097769   -2.9731259    1.2688314   547498 
 2675000    1.0021266   -2.9737744   -2.9737744   -1.7041138  0.065093299   -2.9737744    1.2696607   547498 
 2676000    1.0031248   -2.9744199   -2.9744199   -1.7034946  0.068722222   -2.9744199    1.2709252   547498 
 2677000    1.0006389   -2.9713681   -2.9713681   -1.7035923  0.071763794   -2.9713681    1.2677758   547498 
 2678000    1.0032574   -2.9738956   -2.9738956   -1.7028023  0.068197416   -2.9738956    1.2710933   547498 
 2679000    1.0012159   -2.9713353   -2.9713353   -1.7028285  0.070561232   -2.9713353    1.2685068   547498 
 2680000    1.0019337   -2.9728179   -2.9728179   -1.7034017  0.068484081   -2.9728179    1.2694162   547498 
 2681000    1.0027945    -2.973766    -2.973766   -1.7032592   0.06537923    -2.973766    1.2705068   547498 
 2682000    1.0021943   -2.9735543   -2.9735543    -1.703808  0.070524504   -2.9735543    1.2697463   547498 
 2683000    1.0019775   -2.9739375   -2.9739375   -1.7044658    0.0612869   -2.9739375    1.2694717   547498 
 2684000    1.0001406   -2.9729551   -2.9729551   -1.7058107  0.059236185   -2.9729551    1.2671444   547498 
 2685000    0.9996379   -2.9729147   -2.9729147   -1.7064072  0.059546613   -2.9729147    1.2665075   547498 
 2686000    1.0001531   -2.9730057   -2.9730057   -1.7058454  0.062795884   -2.9730057    1.2671602   547498 
 2687000    1.0000212   -2.9738121   -2.9738121    -1.706819  0.066134002   -2.9738121    1.2669931   547498 
 2688000     1.000657   -2.9744615   -2.9744615   -1.7066629  0.060363017   -2.9744615    1.2677986   547498 
 2689000    0.9996215   -2.9733249   -2.9733249   -1.7068382  0.067522407   -2.9733249    1.2664867   547498 
 2690000    1.0003947   -2.9745948   -2.9745948   -1.7071286  0.049890833   -2.9745948    1.2674663   547498 
 2691000   0.99998568   -2.9734311   -2.9734311    -1.706483  0.054483021   -2.9734311    1.2669481   547498 
 2692000    1.0000431   -2.9742037   -2.9742037   -1.7071828  0.061810338   -2.9742037    1.2670209   547498 
 2693000     1.001171   -2.9751515   -2.9751515   -1.7067016  0.061271416   -2.9751515    1.2684498   547498 
 2694000    1.0002325   -2.9755002   -2.9755002   -1.7082392  0.066391476   -2.9755002    1.2672609   547498 
 2695000    1.0004412   -2.9748856   -2.9748856   -1.7073603  0.058652462   -2.9748856    1.2675253   547498 
 2696000     1.001736   -2.9768794   -2.9768794   -1.7077137   0.06421412   -2.9768794    1.2691657   547498 
 2697000    1.0022911     -2.97718     -2.97718   -1.7073109  0.064198325     -2.97718     1.269869   547498 
 2698000     1.000812   -2.9762769   -2.9762769   -1.7082818  0.061362368   -2.9762769    1.2679951   547498 
 2699000   0.99966787    -2.974902    -2.974902   -1.7083565  0.073935334    -2.974902    1.2665455   547498 
 2700000    1.0019521   -2.9771985   -2.9771985    -1.707759  0.065741702   -2.9771985    1.2694395   547498 
 2701000    1.0021624   -2.9770603   -2.9770603   -1.7073543  0.067668591   -2.9770603     1.269706   547498 
 2702000    1.0025953    -2.978886    -2.978886   -1.7086316   0.05771921    -2.978886    1.2702544   547498 
 2703000    1.0018995   -2.9778524   -2.9778524   -1.7084795  0.069907625   -2.9778524    1.2693729   547498 
 2704000     1.000749   -2.9777296   -2.9777296   -1.7098143  0.063571616   -2.9777296    1.2679152   547498 
 2705000    1.0019043   -2.9787523   -2.9787523   -1.7093734  0.068009143   -2.9787523     1.269379   547498 
 2706000    1.0011524   -2.9770249   -2.9770249   -1.7085986  0.060402362   -2.9770249    1.2684263   547498 
 2707000    1.0008056   -2.9769276   -2.9769276   -1.7089407  0.061698951   -2.9769276    1.2679869   547498 
 2708000    1.0010719   -2.9768175   -2.9768175   -1.7084931   0.06601663   -2.9768175    1.2683243   547498 
 2709000    1.0009838   -2.9762257   -2.9762257   -1.7080129  0.065162427   -2.9762257    1.2682128   547498 
 2710000     1.001438   -2.9765671   -2.9765671    -1.707779  0.067836568   -2.9765671    1.2687882   547498 
 2711000    1.0023364   -2.9773982   -2.9773982   -1.7074717  0.065822462   -2.9773982    1.2699264   547498 
 2712000    1.0020303   -2.9772053   -2.9772053   -1.7076667  0.064112034   -2.9772053    1.2695386   547498 
 2713000    0.9998648   -2.9755948   -2.9755948   -1.7087998  0.061977834   -2.9755948     1.266795   547498 
 2714000    1.0007798   -2.9763423   -2.9763423    -1.708388  0.060318314   -2.9763423    1.2679543   547498 
 2715000   0.99998325   -2.9752519   -2.9752519   -1.7083069  0.051452429   -2.9752519    1.2669451   547498 
 2716000    1.0010729   -2.9761318   -2.9761318   -1.7078062  0.064327874   -2.9761318    1.2683256   547498 
 2717000    1.0004633   -2.9757998   -2.9757998   -1.7082465  0.063895123   -2.9757998    1.2675533   547498 
 2718000    0.9990953   -2.9740827   -2.9740827   -1.7082627  0.066350154   -2.9740827      1.26582   547498 
 2719000    0.9986132   -2.9733382   -2.9733382    -1.708129  0.065615864   -2.9733382    1.2652092   547498 
 2720000    1.0016893   -2.9769371   -2.9769371   -1.7078305  0.055725433   -2.9769371    1.2691066   547498 
 2721000    1.0006292   -2.9759065   -2.9759065    -1.708143  0.072622902   -2.9759065    1.2677635   547498 
 2722000    1.0014588   -2.9769745   -2.9769745   -1.7081599  0.064524388   -2.9769745    1.2688146   547498 
 2723000    1.0011415   -2.9765018   -2.9765018   -1.7080893  0.067738345   -2.9765018    1.2684125   547498 
 2724000    1.0002924   -2.9751871   -2.9751871   -1.7078504  0.066389694   -2.9751871    1.2673367   547498 
 2725000     1.000862   -2.9762925   -2.9762925   -1.7082341  0.071860322   -2.9762925    1.2680584   547498 
 2726000    1.0010918   -2.9772174   -2.9772174   -1.7088678  0.056913872   -2.9772174    1.2683496   547498 
 2727000    1.0007457   -2.9754296   -2.9754296   -1.7075186  0.065403618   -2.9754296     1.267911   547498 
 2728000    1.0028986   -2.9772092   -2.9772092   -1.7065705  0.068394069   -2.9772092    1.2706387   547498 
 2729000     1.003553   -2.9774524   -2.9774524   -1.7059846  0.073661705   -2.9774524    1.2714678   547498 
 2730000    1.0018286   -2.9769961   -2.9769961   -1.7077131  0.073012148   -2.9769961    1.2692831   547498 
 2731000    1.0018797    -2.977299    -2.977299   -1.7079513  0.071745124    -2.977299    1.2693478   547498 
 2732000    1.0001629   -2.9752867   -2.9752867    -1.708114  0.069723053   -2.9752867    1.2671727   547498 
 2733000    1.0033751   -2.9785278   -2.9785278   -1.7072854  0.060800034   -2.9785278    1.2712423   547498 
 2734000     1.001749   -2.9759814   -2.9759814   -1.7067993  0.054421093   -2.9759814    1.2691821   547498 
 2735000    1.0038408   -2.9782048   -2.9782048   -1.7063723  0.062237346   -2.9782048    1.2718325   547498 
 2736000    1.0016265   -2.9762368   -2.9762368   -1.7072098  0.068026058   -2.9762368     1.269027   547498 
 2737000    1.0015086   -2.9768641   -2.9768641   -1.7079865  0.073657567   -2.9768641    1.2688776   547498 
 2738000    1.0024711   -2.9768326   -2.9768326   -1.7067356  0.063083059   -2.9768326     1.270097   547498 
 2739000    1.0011995   -2.9757445   -2.9757445   -1.7072585  0.066856935   -2.9757445     1.268486   547498 
 2740000    1.0011707   -2.9762935   -2.9762935    -1.707844  0.075408545   -2.9762935    1.2684495   547498 
 2741000     1.000031   -2.9742718   -2.9742718   -1.7072663  0.070455395   -2.9742718    1.2670055   547498 
 2742000   0.99988875    -2.974401    -2.974401   -1.7075756  0.063952829    -2.974401    1.2668253   547498 
 2743000   0.99973464   -2.9740985   -2.9740985   -1.7074684  0.062930655   -2.9740985    1.2666301   547498 
 2744000    1.0007146   -2.9754145   -2.9754145    -1.707543    0.0635645   -2.9754145    1.2678716   547498 
 2745000      1.00038   -2.9746757   -2.9746757   -1.7072279  0.067409695   -2.9746757    1.2674478   547498 
 2746000    1.0013706   -2.9757491   -2.9757491   -1.7070464  0.055345628   -2.9757491    1.2687027   547498 
 2747000    1.0008936   -2.9743611   -2.9743611   -1.7062627  0.064899259   -2.9743611    1.2680984   547498 
 2748000    1.0020663   -2.9764617   -2.9764617   -1.7068774  0.060025482   -2.9764617    1.2695842   547498 
 2749000    1.0009073   -2.9747822   -2.9747822   -1.7066664  0.069674731   -2.9747822    1.2681157   547498 
 2750000    1.0018171   -2.9754867   -2.9754867   -1.7062183  0.070661994   -2.9754867    1.2692684   547498 
 2751000    1.0004979   -2.9743933   -2.9743933   -1.7067962  0.077091851   -2.9743933     1.267597   547498 
 2752000    1.0003255   -2.9732412   -2.9732412   -1.7058626  0.076119925   -2.9732412    1.2673786   547498 
 2753000    1.0012799   -2.9743207   -2.9743207   -1.7057329  0.070234921   -2.9743207    1.2685878   547498 
 2754000    1.0004211   -2.9732978   -2.9732978    -1.705798  0.062846525   -2.9732978    1.2674998   547498 
 2755000    1.0022625   -2.9751221   -2.9751221   -1.7052893  0.071389292   -2.9751221    1.2698328   547498 
 2756000    1.0004695   -2.9723428   -2.9723428   -1.7047817  0.064361177   -2.9723428    1.2675611   547498 
 2757000    1.0014453   -2.9728548   -2.9728548   -1.7040574  0.063123911   -2.9728548    1.2687974   547498 
 2758000    1.0017425   -2.9738917   -2.9738917   -1.7047178  0.063457552   -2.9738917     1.269174   547498 
 2759000    1.0011604   -2.9733289   -2.9733289   -1.7048925  0.075803896   -2.9733289    1.2684364   547498 
 2760000    1.0014136   -2.9725275   -2.9725275   -1.7037703  0.062244569   -2.9725275    1.2687573   547498 
 2761000    1.0026391   -2.9743707   -2.9743707   -1.7040608  0.062954351   -2.9743707    1.2703099   547498 
 2762000    1.0013682   -2.9731599   -2.9731599   -1.7044602  0.057008541   -2.9731599    1.2686997   547498 
 2763000    1.0022266   -2.9745749   -2.9745749   -1.7047876  0.061717886   -2.9745749    1.2697873   547498 
 2764000    1.0030186   -2.9763533   -2.9763533   -1.7055626  0.060147436   -2.9763533    1.2707908   547498 
 2765000    1.0020147   -2.9755588   -2.9755588   -1.7060399  0.071136823   -2.9755588    1.2695189   547498 
 2766000    1.0012076     -2.97509     -2.97509   -1.7065938  0.065232613     -2.97509    1.2684962   547498 
 2767000    1.0004785   -2.9742146   -2.9742146   -1.7066422  0.065460739   -2.9742146    1.2675725   547498 
 2768000    1.0003912   -2.9738004   -2.9738004   -1.7063385  0.060890663   -2.9738004    1.2674619   547498 
 2769000    1.0008634   -2.9740364   -2.9740364   -1.7059763   0.07253192   -2.9740364    1.2680601   547498 
 2770000   0.99999858   -2.9719141   -2.9719141   -1.7049496  0.067987144   -2.9719141    1.2669645   547498 
 2771000    1.0012944   -2.9747005   -2.9747005   -1.7060942  0.064285572   -2.9747005    1.2686062   547498 
 2772000    1.0029424   -2.9763322   -2.9763322    -1.705638   0.06348939   -2.9763322    1.2706942   547498 
 2773000     1.001303    -2.974462    -2.974462   -1.7058448  0.068514111    -2.974462    1.2686172   547498 
 2774000    1.0004706   -2.9738221   -2.9738221   -1.7062596  0.063530963   -2.9738221    1.2675625   547498 
 2775000    1.0020578    -2.974269    -2.974269   -1.7046956  0.075063869    -2.974269    1.2695734   547498 
 2776000    1.0024941   -2.9760251   -2.9760251   -1.7058988  0.072157462   -2.9760251    1.2701263   547498 
 2777000    1.0022852   -2.9759951   -2.9759951   -1.7061336  0.063653961   -2.9759951    1.2698616   547498 
 2778000    1.0014723   -2.9756118   -2.9756118   -1.7067801  0.073024296   -2.9756118    1.2688316   547498 
 2779000    1.0047401   -2.9783422   -2.9783422   -1.7053704  0.069468635   -2.9783422    1.2729718   547498 
 2780000    1.0030528   -2.9764401   -2.9764401   -1.7056061  0.063283687   -2.9764401    1.2708341   547498 
 2781000    1.0011055   -2.9748197   -2.9748197   -1.7064528  0.074346689   -2.9748197    1.2683669   547498 
 2782000    1.0014383    -2.974765    -2.974765   -1.7059765  0.073679124    -2.974765    1.2687885   547498 
 2783000    1.0029493   -2.9751989   -2.9751989   -1.7044959  0.066948484   -2.9751989    1.2707029   547498 
 2784000    1.0017695   -2.9754777   -2.9754777   -1.7062696  0.054732521   -2.9754777    1.2692081   547498 
 2785000    1.0023613   -2.9749725   -2.9749725   -1.7050146  0.059862292   -2.9749725    1.2699579   547498 
 2786000    1.0037527   -2.9770182   -2.9770182   -1.7052974  0.073522206   -2.9770182    1.2717209   547498 
 2787000     1.002085   -2.9759789   -2.9759789    -1.706371  0.068957124   -2.9759789    1.2696079   547498 
 2788000    1.0033073   -2.9769756   -2.9769756   -1.7058191  0.068225569   -2.9769756    1.2711565   547498 
 2789000    1.0023221   -2.9766085   -2.9766085   -1.7067002  0.050708748   -2.9766085    1.2699083   547498 
 2790000    1.0021586   -2.9762732   -2.9762732   -1.7065721  0.063029335   -2.9762732    1.2697012   547498 
 2791000    1.0036759   -2.9779597   -2.9779597   -1.7063363  0.059791425   -2.9779597    1.2716235   547498 
 2792000    1.0015882   -2.9750113   -2.9750113   -1.7060328  0.065497556   -2.9750113    1.2689785   547498 
 2793000    1.0028649   -2.9764691   -2.9764691   -1.7058731  0.067219688   -2.9764691     1.270596   547498 
 2794000    1.0017503   -2.9743102   -2.9743102   -1.7051264  0.062793805   -2.9743102    1.2691838   547498 
 2795000     1.002535   -2.9745242   -2.9745242   -1.7043462  0.054787873   -2.9745242     1.270178   547498 
 2796000    1.0016914   -2.9727387   -2.9727387   -1.7036295  0.061826305   -2.9727387    1.2691092   547498 
 2797000     1.002849    -2.975023    -2.975023   -1.7044471  0.068537991    -2.975023    1.2705759   547498 
 2798000    1.0016242   -2.9738803   -2.9738803   -1.7048563  0.066604171   -2.9738803     1.269024   547498 
 2799000   0.99963252   -2.9715675   -2.9715675   -1.7050668  0.065973943   -2.9715675    1.2665007   547498 
 2800000    1.0009238   -2.9741515   -2.9741515   -1.7060148  0.060652218   -2.9741515    1.2681367   547498 
 2801000    1.0007316   -2.9735972   -2.9735972   -1.7057041  0.072142714   -2.9735972    1.2678931   547498 
 2802000    1.0014127   -2.9740706   -2.9740706   -1.7053146  0.051776204   -2.9740706    1.2687561   547498 
 2803000    0.9997749   -2.9724136   -2.9724136   -1.7057325  0.067979692   -2.9724136    1.2666811   547498 
 2804000   0.99928904   -2.9718447   -2.9718447   -1.7057792  0.064418611   -2.9718447    1.2660655   547498 
 2805000    1.0003734   -2.9742951   -2.9742951   -1.7068557  0.061858978   -2.9742951    1.2674394   547498 
 2806000    1.0015655   -2.9740621   -2.9740621   -1.7051124  0.054421522   -2.9740621    1.2689498   547498 
 2807000    1.0008308    -2.972833    -2.972833   -1.7048142  0.057155926    -2.972833    1.2680188   547498 
 2808000    1.0005693   -2.9734824   -2.9734824   -1.7057948  0.064640102   -2.9734824    1.2676875   547498 
 2809000    1.0000802   -2.9728291   -2.9728291   -1.7057612  0.062909652   -2.9728291    1.2670679   547498 
 2810000    1.0003323   -2.9736344   -2.9736344   -1.7062471  0.062901888   -2.9736344    1.2673873   547498 
 2811000    1.0010414   -2.9749171   -2.9749171   -1.7066314   0.06096615   -2.9749171    1.2682857   547498 
 2812000   0.99928917    -2.973549    -2.973549   -1.7074833   0.06703741    -2.973549    1.2660657   547498 
 2813000    1.0004499    -2.974796    -2.974796   -1.7072596  0.065397862    -2.974796    1.2675363   547498 
 2814000    1.0003656   -2.9740114   -2.9740114   -1.7065819  0.060299858   -2.9740114    1.2674295   547498 
 2815000   0.99893912   -2.9728833   -2.9728833   -1.7072611  0.064859824   -2.9728833    1.2656222   547498 
 2816000   0.99948393   -2.9727196   -2.9727196   -1.7064072  0.061928916   -2.9727196    1.2663124   547498 
 2817000    1.0009006   -2.9744296   -2.9744296   -1.7063222  0.068680199   -2.9744296    1.2681073   547498 
 2818000    1.0020926   -2.9755044   -2.9755044   -1.7058869  0.071121958   -2.9755044    1.2696175   547498 
 2819000    1.0025583   -2.9762462   -2.9762462   -1.7060386  0.066433869   -2.9762462    1.2702076   547498 
 2820000    1.0026495   -2.9765998   -2.9765998   -1.7062767   0.06856062   -2.9765998    1.2703231   547498 
 2821000    1.0017223   -2.9755638   -2.9755638   -1.7064155  0.070313535   -2.9755638    1.2691483   547498 
 2822000    1.0041781   -2.9778148   -2.9778148   -1.7055551  0.071378469   -2.9778148    1.2722597   547498 
 2823000    1.0028932    -2.975447    -2.975447   -1.7048151  0.066644531    -2.975447    1.2706319   547498 
 2824000    1.0031704   -2.9757645   -2.9757645   -1.7047815  0.067775899   -2.9757645     1.270983   547498 
 2825000    1.0042688   -2.9772255   -2.9772255   -1.7048508  0.071157833   -2.9772255    1.2723747   547498 
 2826000    1.0037745   -2.9771494   -2.9771494    -1.705401  0.063340629   -2.9771494    1.2717485   547498 
 2827000    1.0033577   -2.9772688   -2.9772688   -1.7060485  0.062200405   -2.9772688    1.2712203   547498 
 2828000    1.0026805   -2.9761444   -2.9761444    -1.705782  0.073960837   -2.9761444    1.2703624   547498 
 2829000    1.0031581   -2.9771479   -2.9771479   -1.7061804  0.070483731   -2.9771479    1.2709675   547498 
 2830000    1.0022962   -2.9764176   -2.9764176   -1.7065421  0.056934556   -2.9764176    1.2698755   547498 
 2831000    1.0004088   -2.9754341   -2.9754341   -1.7079499  0.061949905   -2.9754341    1.2674842   547498 
 2832000    1.0006434   -2.9749821   -2.9749821   -1.7072007  0.060622406   -2.9749821    1.2677815   547498 
 2833000    1.0015354   -2.9748719   -2.9748719   -1.7059603  0.063481846   -2.9748719    1.2689115   547498 
 2834000    1.0012659   -2.9742395   -2.9742395   -1.7056694   0.06533155   -2.9742395    1.2685701   547498 
 2835000    1.0017352   -2.9751588   -2.9751588   -1.7059942  0.064343457   -2.9751588    1.2691647   547498 
 2836000    1.0006869    -2.974323    -2.974323   -1.7064865  0.067076652    -2.974323    1.2678365   547498 
 2837000    1.0004653   -2.9731375   -2.9731375   -1.7055817  0.058437196   -2.9731375    1.2675558   547498 
 2838000   0.99983706   -2.9719729   -2.9719729   -1.7052131  0.064948678   -2.9719729    1.2667598   547498 
 2839000   0.99983878   -2.9724267   -2.9724267   -1.7056647  0.051373753   -2.9724267     1.266762   547498 
 2840000     1.000513   -2.9734777   -2.9734777   -1.7058614  0.061372525   -2.9734777    1.2676162   547498 
 2841000    1.0010264   -2.9745813   -2.9745813   -1.7063146   0.06053589   -2.9745813    1.2682667   547498 
 2842000   0.99922651   -2.9718399   -2.9718399   -1.7058536  0.069034293   -2.9718399    1.2659863   547498 
 2843000    1.0010259   -2.9733472   -2.9733472   -1.7050812  0.074286672   -2.9733472     1.268266   547498 
 2844000    1.0011545     -2.97406     -2.97406   -1.7056311  0.069774305     -2.97406    1.2684289   547498 
 2845000   0.99984301   -2.9719774   -2.9719774     -1.70521  0.066119114   -2.9719774    1.2667674   547498 
 2846000    1.0008717   -2.9742686   -2.9742686   -1.7061979  0.063321463   -2.9742686    1.2680707   547498 
 2847000    1.0014819   -2.9751281   -2.9751281   -1.7062843  0.062989695   -2.9751281    1.2688438   547498 
 2848000    1.0021994   -2.9755701   -2.9755701   -1.7058174   0.06115155   -2.9755701    1.2697528   547498 
 2849000    1.0015264   -2.9745884   -2.9745884   -1.7056882  0.067182303   -2.9745884    1.2689002   547498 
 2850000    1.0015166    -2.974791    -2.974791   -1.7059032  0.078243118    -2.974791    1.2688878   547498 
 2851000     1.001278   -2.9743465   -2.9743465    -1.705761  0.070548716   -2.9743465    1.2685855   547498 
 2852000    1.0034001   -2.9777138   -2.9777138   -1.7064397  0.062047727   -2.9777138     1.271274   547498 
 2853000    1.0020834   -2.9757815   -2.9757815   -1.7061756  0.066877748   -2.9757815    1.2696059   547498 
 2854000    1.0024592   -2.9761369   -2.9761369   -1.7060549  0.060730631   -2.9761369     1.270082   547498 
 2855000    1.0009947   -2.9735297   -2.9735297   -1.7053032  0.077382476   -2.9735297    1.2682266   547498 
 2856000    1.0030519   -2.9761669   -2.9761669    -1.705334  0.060669873   -2.9761669    1.2708329   547498 
 2857000    1.0017123   -2.9753587   -2.9753587    -1.706223   0.05719839   -2.9753587    1.2691357   547498 
 2858000    1.0020536   -2.9762933   -2.9762933   -1.7067252  0.070039465   -2.9762933    1.2695681   547498 
 2859000    1.0028596   -2.9766743   -2.9766743    -1.706085  0.070199703   -2.9766743    1.2705893   547498 
 2860000    1.0027624   -2.9761829   -2.9761829   -1.7057168  0.070228586   -2.9761829    1.2704661   547498 
 2861000    1.0019985   -2.9765085   -2.9765085   -1.7070102  0.074798919   -2.9765085    1.2694983   547498 
 2862000     1.002274   -2.9775951   -2.9775951   -1.7077477  0.066602148   -2.9775951    1.2698474   547498 
 2863000    1.0016134      -2.9762      -2.9762   -1.7071896  0.061718853      -2.9762    1.2690104   547498 
 2864000    1.0022001   -2.9769272   -2.9769272   -1.7071736  0.066534214   -2.9769272    1.2697537   547498 
 2865000     1.001058   -2.9743103   -2.9743103   -1.7060036  0.066370666   -2.9743103    1.2683067   547498 
 2866000    1.0028345   -2.9769825   -2.9769825   -1.7064249  0.073380268   -2.9769825    1.2705575   547498 
 2867000    1.0028992   -2.9769226   -2.9769226   -1.7062832  0.068583818   -2.9769226    1.2706394   547498 
 2868000    1.0015674    -2.976156    -2.976156   -1.7072038  0.063511073    -2.976156    1.2689521   547498 
 2869000    1.0015492   -2.9762252   -2.9762252   -1.7072962  0.069320495   -2.9762252    1.2689291   547498 
 2870000    1.0022247   -2.9767492   -2.9767492   -1.7069643  0.063081851   -2.9767492    1.2697849   547498 
 2871000    1.0029627   -2.9779161   -2.9779161   -1.7071961  0.056821598   -2.9779161    1.2707199   547498 
 2872000    1.0013255   -2.9751182   -2.9751182   -1.7064726  0.068343618   -2.9751182    1.2686457   547498 
 2873000    1.0031769   -2.9764458   -2.9764458   -1.7054545  0.059851717   -2.9764458    1.2709913   547498 
 2874000     1.001829   -2.9757615   -2.9757615   -1.7064779  0.066872817   -2.9757615    1.2692835   547498 
 2875000    1.0017584   -2.9761432   -2.9761432    -1.706949   0.07342482   -2.9761432    1.2691941   547498 
 2876000    1.0007203   -2.9743465   -2.9743465   -1.7064677  0.069031665   -2.9743465    1.2678788   547498 
 2877000   0.99981418   -2.9734303   -2.9734303   -1.7066995   0.06454291   -2.9734303    1.2667308   547498 
 2878000     1.001117   -2.9742631   -2.9742631   -1.7058817  0.050103278   -2.9742631    1.2683814   547498 
 2879000    1.0022066    -2.975368    -2.975368    -1.705606  0.059783084    -2.975368     1.269762   547498 
 2880000     1.001151   -2.9734253   -2.9734253   -1.7050008  0.071704602   -2.9734253    1.2684245   547498 
 2881000    1.0004335   -2.9734187   -2.9734187   -1.7059033  0.067755105   -2.9734187    1.2675154   547498 
 2882000    1.0012023   -2.9740227   -2.9740227   -1.7055332  0.070075787   -2.9740227    1.2684895   547498 
 2883000    1.0003526   -2.9731293   -2.9731293   -1.7057164  0.065211461   -2.9731293     1.267413   547498 
 2884000    1.0015906   -2.9739614   -2.9739614     -1.70498  0.062561723   -2.9739614    1.2689814   547498 
 2885000   0.99931457   -2.9718522   -2.9718522   -1.7057543  0.066902823   -2.9718522    1.2660979   547498 
 2886000   0.99855777   -2.9705572   -2.9705572   -1.7054182  0.067033932   -2.9705572     1.265139   547498 
 2887000   0.99960578   -2.9715033   -2.9715033   -1.7050365  0.063839142   -2.9715033    1.2664668   547498 
 2888000   0.99959951   -2.9718454   -2.9718454   -1.7053865  0.061982386   -2.9718454    1.2664589   547498 
 2889000   0.99985115   -2.9725123   -2.9725123   -1.7057346  0.064714931   -2.9725123    1.2667777   547498 
 2890000    1.0012939   -2.9737554   -2.9737554   -1.7051497  0.064991679   -2.9737554    1.2686056   547498 
 2891000    1.0011616   -2.9732065   -2.9732065   -1.7047685    0.0607772   -2.9732065    1.2684379   547498 
 2892000    1.0000831   -2.9720686   -2.9720686    -1.704997  0.060782159   -2.9720686    1.2670716   547498 
 2893000    1.0011235   -2.9728075   -2.9728075   -1.7044178  0.063682091   -2.9728075    1.2683897   547498 
 2894000    1.0013522    -2.972942    -2.972942   -1.7042625    0.0635824    -2.972942    1.2686795   547498 
 2895000    1.0020609   -2.9722704   -2.9722704   -1.7026931  0.068383861   -2.9722704    1.2695774   547498 
 2896000    1.0012971    -2.972314    -2.972314   -1.7037042  0.071391255    -2.972314    1.2686097   547498 
 2897000    1.0007732   -2.9725843   -2.9725843   -1.7046384  0.067995988   -2.9725843    1.2679459   547498 
 2898000    1.0023126   -2.9730188   -2.9730188   -1.7031226  0.059808974   -2.9730188    1.2698962   547498 
 2899000    1.0010992   -2.9727541   -2.9727541   -1.7043952  0.061947998   -2.9727541    1.2683589   547498 
 2900000    1.0010943   -2.9734314   -2.9734314   -1.7050787  0.061359268   -2.9734314    1.2683527   547498 
 2901000    1.0012705   -2.9722503   -2.9722503   -1.7036743  0.064834593   -2.9722503     1.268576   547498 
 2902000     1.003625   -2.9747998   -2.9747998   -1.7032408  0.070666057   -2.9747998     1.271559   547498 
 2903000    1.0028586   -2.9741776   -2.9741776   -1.7035896   0.04725109   -2.9741776    1.2705881   547498 
 2904000     1.001293   -2.9722956   -2.9722956   -1.7036911  0.062031094   -2.9722956    1.2686045   547498 
 2905000    1.0022775   -2.9726121   -2.9726121   -1.7027603  0.068205516   -2.9726121    1.2698518   547498 
 2906000     1.003003   -2.9745822   -2.9745822   -1.7038113   0.06245301   -2.9745822     1.270771   547498 
 2907000    1.0019874   -2.9732006   -2.9732006   -1.7037163  0.064622413   -2.9732006    1.2694843   547498 
 2908000    1.0018669   -2.9727564   -2.9727564   -1.7034248  0.069633184   -2.9727564    1.2693316   547498 
 2909000    1.0023116   -2.9734033   -2.9734033   -1.7035082   0.06722731   -2.9734033     1.269895   547498 
 2910000    1.0018503   -2.9722612   -2.9722612   -1.7029507  0.076935077   -2.9722612    1.2693105   547498 
 2911000    1.0027958    -2.974182    -2.974182   -1.7036735  0.060505578    -2.974182    1.2705084   547498 
 2912000    1.0029653    -2.974112    -2.974112   -1.7033888  0.067921494    -2.974112    1.2707232   547498 
 2913000     1.001338   -2.9725361   -2.9725361   -1.7038746   0.07152442   -2.9725361    1.2686615   547498 
 2914000    1.0003008   -2.9713938   -2.9713938   -1.7040465  0.071428242   -2.9713938    1.2673474   547498 
 2915000    1.0004308   -2.9720623   -2.9720623   -1.7045502  0.061670515   -2.9720623    1.2675121   547498 
 2916000    1.0000233   -2.9719982   -2.9719982   -1.7050025  0.066139353   -2.9719982    1.2669957   547498 
 2917000    1.0002751   -2.9719131   -2.9719131   -1.7045983  0.063873566   -2.9719131    1.2673148   547498 
 2918000    1.0002382   -2.9711328   -2.9711328   -1.7038647  0.062525807   -2.9711328    1.2672681   547498 
 2919000    1.0025508   -2.9730875   -2.9730875   -1.7028896  0.065294435   -2.9730875     1.270198   547498 
 2920000    1.0017342   -2.9734569   -2.9734569   -1.7042934  0.053889945   -2.9734569    1.2691635   547498 
 2921000   0.99993234   -2.9722082   -2.9722082   -1.7053276  0.060516003   -2.9722082    1.2668805   547498 
 2922000    1.0004625   -2.9715605   -2.9715605   -1.7040082  0.059135816   -2.9715605    1.2675523   547498 
 2923000    1.0006396   -2.9712113   -2.9712113   -1.7034348  0.072655453   -2.9712113    1.2677766   547498 
 2924000    1.0018165   -2.9735777   -2.9735777     -1.70431  0.063427519   -2.9735777    1.2692677   547498 
 2925000    1.0020946    -2.973662    -2.973662    -1.704042  0.071447046    -2.973662      1.26962   547498 
 2926000    1.0009557   -2.9719098   -2.9719098   -1.7037327  0.060299994   -2.9719098    1.2681771   547498 
 2927000    1.0017396   -2.9724426   -2.9724426   -1.7032723  0.062791424   -2.9724426    1.2691702   547498 
 2928000    1.0023514   -2.9720434   -2.9720434   -1.7020979  0.074142968   -2.9720434    1.2699455   547498 
 2929000     1.001237   -2.9716467   -2.9716467   -1.7031132  0.060136577   -2.9716467    1.2685335   547498 
 2930000    1.0006584   -2.9719838   -2.9719838   -1.7041834  0.068395466   -2.9719838    1.2678005   547498 
 2931000    1.0026869   -2.9735238   -2.9735238   -1.7031533  0.058768145   -2.9735238    1.2703705   547498 
 2932000    1.0016636   -2.9709569   -2.9709569    -1.701883  0.059278482   -2.9709569     1.269074   547498 
 2933000     1.002115   -2.9722526   -2.9722526   -1.7026067  0.065901557   -2.9722526    1.2696459   547498 
 2934000   0.99973282   -2.9700289   -2.9700289   -1.7034012  0.063250876   -2.9700289    1.2666278   547498 
 2935000    1.0014344   -2.9714472   -2.9714472   -1.7026636  0.069989954   -2.9714472    1.2687836   547498 
 2936000    1.0020052   -2.9722501   -2.9722501   -1.7027432  0.067563057   -2.9722501    1.2695069   547498 
 2937000     1.001507   -2.9708478   -2.9708478   -1.7019723  0.061486516   -2.9708478    1.2688755   547498 
 2938000    1.0004985   -2.9696388   -2.9696388    -1.702041   0.06790352   -2.9696388    1.2675979   547498 
 2939000    1.0010672   -2.9700814   -2.9700814    -1.701763  0.070890761   -2.9700814    1.2683183   547498 
 2940000    1.0017857   -2.9720856   -2.9720856   -1.7028569  0.059200056   -2.9720856    1.2692287   547498 
 2941000   0.99961826   -2.9699642   -2.9699642   -1.7034816   0.06484038   -2.9699642    1.2664826   547498 
 2942000    1.0010718   -2.9719547   -2.9719547   -1.7036305  0.067766652   -2.9719547    1.2683242   547498 
 2943000    1.0007649   -2.9716927   -2.9716927   -1.7037574  0.060449926   -2.9716927    1.2679353   547498 
 2944000   0.99873247   -2.9698417   -2.9698417   -1.7044813  0.056552962   -2.9698417    1.2653603   547498 
 2945000   0.99907902   -2.9715952   -2.9715952   -1.7057958  0.066707708   -2.9715952    1.2657994   547498 
 2946000   0.99948167   -2.9713848   -2.9713848   -1.7050753  0.059110874   -2.9713848    1.2663096   547498 
 2947000   0.99845022   -2.9700508   -2.9700508    -1.705048  0.056647408   -2.9700508    1.2650028   547498 
 2948000   0.99982271   -2.9710448   -2.9710448   -1.7043032   0.05937812   -2.9710448    1.2667416   547498 
 2949000   0.99990385   -2.9712635   -2.9712635    -1.704419  0.072393381   -2.9712635    1.2668445   547498 
 2950000    1.0015535   -2.9735133   -2.9735133   -1.7045788   0.06114486   -2.9735133    1.2689345   547498 
 2951000    1.0018194   -2.9731149   -2.9731149   -1.7038436  0.063793398   -2.9731149    1.2692713   547498 
 2952000    1.0010602   -2.9723469   -2.9723469   -1.7040374  0.073387243   -2.9723469    1.2683095   547498 
 2953000    1.0017484   -2.9725018   -2.9725018   -1.7033203   0.06589365   -2.9725018    1.2691815   547498 
 2954000    1.0032848   -2.9743554   -2.9743554   -1.7032273   0.06732894   -2.9743554    1.2711281   547498 
 2955000    1.0016497   -2.9728973   -2.9728973   -1.7038409   0.07498045   -2.9728973    1.2690564   547498 
 2956000    1.0033994   -2.9740949   -2.9740949   -1.7028217  0.065950032   -2.9740949    1.2712732   547498 
 2957000    1.0036151   -2.9736938   -2.9736938   -1.7021473  0.077136861   -2.9736938    1.2715465   547498 
 2958000    1.0033892   -2.9742093   -2.9742093    -1.702949   0.06904542   -2.9742093    1.2712603   547498 
 2959000    1.0023669    -2.973721    -2.973721    -1.703756  0.065944528    -2.973721     1.269965   547498 
 2960000    1.0019112   -2.9730942   -2.9730942   -1.7037065   0.07197574   -2.9730942    1.2693877   547498 
 2961000    1.0013991   -2.9731107   -2.9731107   -1.7043718  0.071678943   -2.9731107    1.2687389   547498 
 2962000    1.0017294   -2.9726278   -2.9726278   -1.7034704  0.064368396   -2.9726278    1.2691574   547498 
 2963000    1.0023078   -2.9737963   -2.9737963   -1.7039061  0.072894018   -2.9737963    1.2698902   547498 
 2964000    1.0016511    -2.973428    -2.973428   -1.7043698   0.07078872    -2.973428    1.2690582   547498 
 2965000    1.0017521   -2.9739475   -2.9739475   -1.7047613   0.06288097   -2.9739475    1.2691862   547498 
 2966000     1.001561   -2.9737377   -2.9737377   -1.7047937  0.062014986   -2.9737377     1.268944   547498 
 2967000    1.0036821   -2.9752177   -2.9752177   -1.7035863  0.064918244   -2.9752177    1.2716314   547498 
 2968000    1.0024207   -2.9740439   -2.9740439   -1.7040107  0.076784056   -2.9740439    1.2700332   547498 
 2969000     1.001932    -2.973319    -2.973319    -1.703905   0.07162908    -2.973319    1.2694141   547498 
 2970000    1.0013098   -2.9724991   -2.9724991   -1.7038734  0.072200358   -2.9724991    1.2686257   547498 
 2971000    1.0013216   -2.9728674   -2.9728674   -1.7042268  0.058168761   -2.9728674    1.2686406   547498 
 2972000    1.0004118   -2.9712442   -2.9712442   -1.7037562   0.06866502   -2.9712442     1.267488   547498 
 2973000    1.0015128   -2.9742161   -2.9742161   -1.7053333  0.058677441   -2.9742161    1.2688829   547498 
 2974000    1.0010972   -2.9734931   -2.9734931   -1.7051367  0.064657062   -2.9734931    1.2683564   547498 
 2975000    1.0020406   -2.9746182   -2.9746182   -1.7050665  0.069496443   -2.9746182    1.2695517   547498 
 2976000    1.0008541   -2.9733295   -2.9733295   -1.7052811  0.056754577   -2.9733295    1.2680484   547498 
 2977000     1.001455   -2.9747843   -2.9747843   -1.7059745  0.058427144   -2.9747843    1.2688097   547498 
 2978000   0.99793007   -2.9705281   -2.9705281   -1.7061843  0.069517308   -2.9705281    1.2643437   547498 
 2979000     1.000631   -2.9740531   -2.9740531   -1.7062874  0.063629354   -2.9740531    1.2677657   547498 
 2980000    1.0003399      -2.9728      -2.9728   -1.7054031   0.07578964      -2.9728    1.2673969   547498 
 2981000    1.0000172   -2.9720756   -2.9720756   -1.7050876  0.067062409   -2.9720756    1.2669881   547498 
 2982000    1.0007822   -2.9723773   -2.9723773     -1.70442  0.067343816   -2.9723773    1.2679573   547498 
 2983000   0.99844901    -2.970838    -2.970838   -1.7058368   0.07331777    -2.970838    1.2650012   547498 
 2984000    1.0006917   -2.9727008   -2.9727008   -1.7048581  0.063117585   -2.9727008    1.2678427   547498 
 2985000    1.0001203   -2.9724104   -2.9724104   -1.7052917  0.061774178   -2.9724104    1.2671187   547498 
 2986000    1.0020714   -2.9737361   -2.9737361   -1.7041455  0.068597616   -2.9737361    1.2695907   547498 
 2987000     1.003171    -2.974854    -2.974854   -1.7038703  0.072460829    -2.974854    1.2709838   547498 
 2988000    1.0024082   -2.9745304   -2.9745304    -1.704513  0.072592103   -2.9745304    1.2700173   547498 
 2989000    1.0030974   -2.9744042   -2.9744042   -1.7035136  0.066266655   -2.9744042    1.2708906   547498 
 2990000    1.0023939   -2.9739274   -2.9739274   -1.7039281  0.070536219   -2.9739274    1.2699993   547498 
 2991000     1.002791   -2.9750421   -2.9750421   -1.7045396  0.073999627   -2.9750421    1.2705024   547498 
 2992000     1.003344   -2.9748739   -2.9748739    -1.703671  0.061761081   -2.9748739     1.271203   547498 
 2993000    1.0015279   -2.9723706   -2.9723706   -1.7034685  0.069315713   -2.9723706    1.2689021   547498 
 2994000    1.0033244   -2.9742989   -2.9742989   -1.7031207  0.065669668   -2.9742989    1.2711782   547498 
 2995000    1.0011206   -2.9719955   -2.9719955   -1.7036095  0.068476725   -2.9719955     1.268386   547498 
 2996000    1.0031239   -2.9740736   -2.9740736   -1.7031494  0.069860391   -2.9740736    1.2709241   547498 
 2997000    1.0045574   -2.9755477   -2.9755477   -1.7028074  0.069653184   -2.9755477    1.2727403   547498 
 2998000    1.0028717   -2.9737329   -2.9737329   -1.7031282  0.073374638   -2.9737329    1.2706047   547498 
 2999000    1.0018321   -2.9723859   -2.9723859   -1.7030984  0.071287641   -2.9723859    1.2692875   547498 
 3000000   0.99943881   -2.9704373   -2.9704373    -1.704182  0.059581299   -2.9704373    1.2662553   547498 
 3001000    1.0005297   -2.9717906   -2.9717906   -1.7041532  0.061777264   -2.9717906    1.2676374   547498 
 3002000    1.0031355   -2.9737345   -2.9737345   -1.7027956  0.060789553   -2.9737345    1.2709389   547498 
 3003000    1.0002519   -2.9705093   -2.9705093   -1.7032239  0.066915215   -2.9705093    1.2672854   547498 
 3004000    1.0022111   -2.9725469   -2.9725469   -1.7027793  0.063246475   -2.9725469    1.2697676   547498 
 3005000    1.0017969     -2.97212     -2.97212   -1.7028771  0.066599048     -2.97212    1.2692429   547498 
 3006000    1.0003687    -2.970711    -2.970711   -1.7032776  0.061147167    -2.970711    1.2674334   547498 
 3007000    1.0009719   -2.9714998   -2.9714998   -1.7033022  0.061694583   -2.9714998    1.2681976   547498 
 3008000   0.99948546    -2.970651    -2.970651   -1.7043366   0.06308095    -2.970651    1.2663144   547498 
 3009000    1.0013687   -2.9726625   -2.9726625   -1.7039621  0.068278611   -2.9726625    1.2687004   547498 
 3010000    1.0011349   -2.9725064   -2.9725064   -1.7041023  0.057282106   -2.9725064    1.2684041   547498 
 3011000    1.0004014   -2.9708396   -2.9708396   -1.7033648  0.060430272   -2.9708396    1.2674748   547498 
 3012000    1.0014388   -2.9724283   -2.9724283   -1.7036391  0.062501325   -2.9724283    1.2687892   547498 
 3013000    1.0022877   -2.9726919   -2.9726919   -1.7028271  0.066950821   -2.9726919    1.2698648   547498 
 3014000   0.99948638   -2.9705074   -2.9705074   -1.7041919  0.062679053   -2.9705074    1.2663155   547498 
 3015000   0.99959632   -2.9713545   -2.9713545   -1.7048997  0.065388255   -2.9713545    1.2664548   547498 
 3016000   0.99773816   -2.9692658   -2.9692658   -1.7051652  0.064602016   -2.9692658    1.2641006   547498 
 3017000   0.99953261   -2.9711373   -2.9711373   -1.7047632  0.058014567   -2.9711373    1.2663741   547498 
 3018000    1.0004677   -2.9714362   -2.9714362   -1.7038775  0.055883657   -2.9714362    1.2675588   547498 
 3019000    1.0001751   -2.9719432   -2.9719432    -1.704755  0.057788385   -2.9719432    1.2671882   547498 
 3020000    1.0007708   -2.9716396   -2.9716396   -1.7036968  0.067029418   -2.9716396    1.2679429   547498 
 3021000    1.0016894   -2.9720342   -2.9720342   -1.7029276  0.058910271   -2.9720342    1.2691066   547498 
 3022000    1.0019443    -2.972767    -2.972767   -1.7033374  0.063803068    -2.972767    1.2694296   547498 
 3023000    1.0020841   -2.9727816   -2.9727816   -1.7031747  0.070095829   -2.9727816    1.2696068   547498 
 3024000    1.0038086   -2.9748912   -2.9748912   -1.7030996    0.0668583   -2.9748912    1.2717916   547498 
 3025000    1.0017923   -2.9719265   -2.9719265   -1.7026895   0.06695369   -2.9719265    1.2692371   547498 
 3026000    1.0033389   -2.9743187   -2.9743187   -1.7031222  0.060681172   -2.9743187    1.2711965   547498 
 3027000    1.0022918   -2.9722127   -2.9722127   -1.7023429   0.07333567   -2.9722127    1.2698699   547498 
 3028000    1.0018715    -2.971776    -2.971776   -1.7024387  0.070815459    -2.971776    1.2693374   547498 
 3029000    1.0010306   -2.9719192   -2.9719192   -1.7036472  0.060723481   -2.9719192    1.2682721   547498 
 3030000    1.0012078   -2.9717126   -2.9717126   -1.7032161  0.065586945   -2.9717126    1.2684965   547498 
 3031000    1.0026496   -2.9735001   -2.9735001   -1.7031768  0.058034823   -2.9735001    1.2703232   547498 
 3032000     1.002191   -2.9734971   -2.9734971   -1.7037549  0.066203117   -2.9734971    1.2697421   547498 
 3033000    1.0025444   -2.9727524   -2.9727524   -1.7025625  0.057093362   -2.9727524    1.2701899   547498 
 3034000    1.0034151   -2.9735657   -2.9735657   -1.7022726  0.060205128   -2.9735657    1.2712931   547498 
 3035000    1.0017004   -2.9719202   -2.9719202   -1.7027995  0.073420464   -2.9719202    1.2691207   547498 
 3036000    1.0028367   -2.9716798   -2.9716798   -1.7011196  0.067800075   -2.9716798    1.2705602   547498 
 3037000    1.0023012   -2.9717662   -2.9717662   -1.7018843  0.068539145   -2.9717662    1.2698818   547498 
 3038000    1.0028401   -2.9727234   -2.9727234   -1.7021587  0.059186171   -2.9727234    1.2705646   547498 
 3039000    1.0034733   -2.9723646   -2.9723646   -1.7009978  0.078287807   -2.9723646    1.2713668   547498 
 3040000    1.0034461   -2.9714786   -2.9714786   -1.7001463  0.069791651   -2.9714786    1.2713323   547498 
 3041000    1.0037544   -2.9716393   -2.9716393   -1.6999164  0.065901033   -2.9716393    1.2717229   547498 
 3042000    1.0030887   -2.9705358   -2.9705358   -1.6996562  0.062864772   -2.9705358    1.2708796   547498 
 3043000     1.003135   -2.9709554   -2.9709554   -1.7000172  0.062259095   -2.9709554    1.2709382   547498 
 3044000    1.0007557    -2.969553    -2.969553   -1.7016294  0.059544098    -2.969553    1.2679237   547498 
 3045000    1.0013362   -2.9703981   -2.9703981   -1.7017389  0.069008852   -2.9703981    1.2686592   547498 
 3046000    0.9999369   -2.9698953   -2.9698953   -1.7030089  0.058602593   -2.9698953    1.2668863   547498 
 3047000    1.0015544   -2.9713855   -2.9713855   -1.7024498  0.062463463   -2.9713855    1.2689356   547498 
 3048000    1.0005079   -2.9695018   -2.9695018   -1.7018919  0.059393713   -2.9695018    1.2676098   547498 
 3049000    1.0000986   -2.9685799   -2.9685799   -1.7014887  0.062406849   -2.9685799    1.2670912   547498 
 3050000   0.99975628   -2.9679154   -2.9679154   -1.7012579  0.063640767   -2.9679154    1.2666575   547498 
 3051000    1.0002731   -2.9691112   -2.9691112   -1.7017989  0.058758467   -2.9691112    1.2673123   547498 
 3052000   0.99867981   -2.9669847   -2.9669847   -1.7016911  0.071272418   -2.9669847    1.2652936   547498 
 3053000   0.99969775    -2.967683    -2.967683   -1.7010997  0.059121845    -2.967683    1.2665833   547498 
 3054000    1.0010548   -2.9709964   -2.9709964   -1.7026937  0.067217912   -2.9709964    1.2683027   547498 
 3055000    0.9999678   -2.9693106   -2.9693106   -1.7023851  0.061557786   -2.9693106    1.2669255   547498 
 3056000    1.0008071   -2.9704304   -2.9704304   -1.7024416  0.062373424   -2.9704304    1.2679889   547498 
 3057000    1.0029532   -2.9729172   -2.9729172   -1.7022094  0.065282305   -2.9729172    1.2707079   547498 
 3058000    1.0020434   -2.9713996   -2.9713996   -1.7018445  0.063316003   -2.9713996    1.2695551   547498 
 3059000    1.0029874    -2.972618    -2.972618   -1.7018667  0.069925984    -2.972618    1.2707512   547498 
 3060000    1.0021029   -2.9711338   -2.9711338   -1.7015032  0.070306023   -2.9711338    1.2696306   547498 
 3061000     1.002517   -2.9711466   -2.9711466   -1.7009914  0.071032048   -2.9711466    1.2701552   547498 
 3062000    1.0026199   -2.9717911   -2.9717911   -1.7015055  0.063960076   -2.9717911    1.2702856   547498 
 3063000    1.0019886   -2.9709948   -2.9709948   -1.7015091  0.063034059   -2.9709948    1.2694857   547498 
 3064000    1.0023296    -2.971497    -2.971497   -1.7015792  0.061962476    -2.971497    1.2699177   547498 
 3065000    1.0021241   -2.9724684   -2.9724684    -1.702811  0.067536475   -2.9724684    1.2696574   547498 
 3066000    1.0016118   -2.9724034   -2.9724034    -1.703395  0.063603819   -2.9724034    1.2690083   547498 
 3067000    1.0007868   -2.9718553   -2.9718553   -1.7038922  0.057061031   -2.9718553    1.2679631   547498 
 3068000    1.0017244   -2.9732052   -2.9732052   -1.7040542  0.056595278   -2.9732052     1.269151   547498 
 3069000    1.0007457   -2.9713733   -2.9713733   -1.7034623  0.061047802   -2.9713733     1.267911   547498 
 3070000     1.001468   -2.9718959   -2.9718959   -1.7030697    0.0628873   -2.9718959    1.2688262   547498 
 3071000     1.002639   -2.9729791   -2.9729791   -1.7026692  0.068086124   -2.9729791    1.2703098   547498 
 3072000    1.0012166   -2.9718916   -2.9718916   -1.7033839  0.077285951   -2.9718916    1.2685077   547498 
 3073000    1.0028946   -2.9746772   -2.9746772   -1.7040435  0.066733817   -2.9746772    1.2706337   547498 
 3074000    1.0021952   -2.9733664   -2.9733664   -1.7036189  0.062331968   -2.9733664    1.2697475   547498 
 3075000    1.0024543   -2.9734065   -2.9734065   -1.7033307    0.0586839   -2.9734065    1.2700758   547498 
 3076000    1.0019773   -2.9721367   -2.9721367   -1.7026653   0.06854817   -2.9721367    1.2694714   547498 
 3077000     1.001747   -2.9731837   -2.9731837    -1.704004  0.061735209   -2.9731837    1.2691797   547498 
 3078000    1.0001526    -2.970724    -2.970724   -1.7035643  0.070225778    -2.970724    1.2671597   547498 
 3079000    1.0008076   -2.9720873   -2.9720873   -1.7040979  0.063274906   -2.9720873    1.2679894   547498 
 3080000    1.0012086   -2.9725418   -2.9725418   -1.7040443  0.064877584   -2.9725418    1.2684975   547498 
 3081000    1.0001092    -2.972283    -2.972283   -1.7051784  0.064889288    -2.972283    1.2671046   547498 
 3082000       1.0024   -2.9743455   -2.9743455   -1.7043386  0.068042279   -2.9743455    1.2700069   547498 
 3083000    1.0019621   -2.9738578   -2.9738578   -1.7044057  0.063023289   -2.9738578    1.2694522   547498 
 3084000   0.99991552   -2.9712926   -2.9712926   -1.7044334  0.058209395   -2.9712926    1.2668592   547498 
 3085000   0.99988669   -2.9710679   -2.9710679   -1.7042452  0.067261941   -2.9710679    1.2668227   547498 
 3086000    1.0006186   -2.9723262   -2.9723262   -1.7045762  0.050663775   -2.9723262      1.26775   547498 
 3087000    0.9999781   -2.9716026   -2.9716026   -1.7046641  0.056597542   -2.9716026    1.2669385   547498 
 3088000    1.0007907   -2.9723698   -2.9723698   -1.7044018  0.066430112   -2.9723698    1.2679681   547498 
 3089000    1.0010274   -2.9730611   -2.9730611   -1.7047931  0.061029938   -2.9730611     1.268268   547498 
 3090000    1.0023332    -2.974088    -2.974088   -1.7041656  0.062518966    -2.974088    1.2699224   547498 
 3091000    1.0025573   -2.9739421   -2.9739421   -1.7037358  0.056297764   -2.9739421    1.2702063   547498 
 3092000       1.0001   -2.9705658   -2.9705658   -1.7034728  0.061149459   -2.9705658     1.267093   547498 
 3093000    1.0008928   -2.9709193   -2.9709193   -1.7028219  0.067450804   -2.9709193    1.2680974   547498 
 3094000    1.0000111   -2.9700605   -2.9700605   -1.7030802  0.067811614   -2.9700605    1.2669803   547498 
 3095000    1.0027143   -2.9725956   -2.9725956   -1.7021904  0.069426422   -2.9725956    1.2704052   547498 
 3096000     1.001728   -2.9722542   -2.9722542   -1.7030986  0.056582844   -2.9722542    1.2691556   547498 
 3097000    1.0031263   -2.9737022   -2.9737022    -1.702775  0.065481406   -2.9737022    1.2709272   547498 
 3098000    0.9999698    -2.970265    -2.970265    -1.703337  0.067223159    -2.970265     1.266928   547498 
 3099000    1.0012296   -2.9711203   -2.9711203   -1.7025962   0.06322089   -2.9711203    1.2685241   547498 
 3100000    1.0023191   -2.9720328   -2.9720328   -1.7021283  0.063798693   -2.9720328    1.2699045   547498 
 3101000    1.0029243   -2.9731187   -2.9731187   -1.7024474  0.065371692   -2.9731187    1.2706713   547498 
 3102000     1.000695   -2.9690577   -2.9690577   -1.7012108  0.072528335   -2.9690577    1.2678468   547498 
 3103000    1.0022986   -2.9718716   -2.9718716   -1.7019931  0.058732345   -2.9718716    1.2698785   547498 
 3104000    1.0022663   -2.9717371   -2.9717371   -1.7018996  0.070289471   -2.9717371    1.2698375   547498 
 3105000    1.0016027   -2.9718351   -2.9718351   -1.7028383   0.06214516   -2.9718351    1.2689968   547498 
 3106000    1.0018146    -2.971584    -2.971584   -1.7023187  0.068325336    -2.971584    1.2692653   547498 
 3107000    1.0005079   -2.9701823   -2.9701823   -1.7025726  0.062749476   -2.9701823    1.2676098   547498 
 3108000    1.0006781   -2.9701508   -2.9701508   -1.7023254  0.056614247   -2.9701508    1.2678254   547498 
 3109000    1.0025783   -2.9717274   -2.9717274   -1.7014945  0.073339961   -2.9717274    1.2702329   547498 
 3110000    1.0015276   -2.9697074   -2.9697074   -1.7008057  0.063840571   -2.9697074    1.2689017   547498 
 3111000    1.0020389   -2.9710963   -2.9710963   -1.7015468  0.070072021   -2.9710963    1.2695495   547498 
 3112000    1.0033124   -2.9722514   -2.9722514   -1.7010884  0.059243938   -2.9722514     1.271163   547498 
 3113000    1.0024838    -2.971824    -2.971824   -1.7017108  0.063222288    -2.971824    1.2701132   547498 
 3114000    1.0025071   -2.9716115   -2.9716115   -1.7014689  0.059890672   -2.9716115    1.2701427   547498 
 3115000     1.001498   -2.9701129   -2.9701129   -1.7012486  0.072419808   -2.9701129    1.2688642   547498 
 3116000    1.0031007    -2.972149    -2.972149   -1.7012543  0.064744288    -2.972149    1.2708948   547498 
 3117000    1.0040505    -2.972918    -2.972918   -1.7008199  0.064357229    -2.972918    1.2720981   547498 
 3118000    1.0017797    -2.970448    -2.970448   -1.7012269  0.069719676    -2.970448    1.2692211   547498 
 3119000    1.0015218   -2.9710422   -2.9710422   -1.7021479  0.064355098   -2.9710422    1.2688943   547498 
 3120000   0.99995117   -2.9698653   -2.9698653   -1.7029609  0.069226938   -2.9698653    1.2669044   547498 
 3121000    1.0004449   -2.9702525   -2.9702525   -1.7027226  0.069566891   -2.9702525    1.2675299   547498 
 3122000    1.0013542    -2.971137    -2.971137    -1.702455  0.070499205    -2.971137     1.268682   547498 
 3123000    1.0008206   -2.9708187   -2.9708187   -1.7028128  0.065380707   -2.9708187    1.2680059   547498 
 3124000    1.0016495   -2.9710002   -2.9710002   -1.7019441  0.071256633   -2.9710002    1.2690562   547498 
 3125000    1.0008229   -2.9705806   -2.9705806   -1.7025717  0.061101558   -2.9705806    1.2680089   547498 
 3126000    1.0006536   -2.9708177   -2.9708177   -1.7030233   0.05468693   -2.9708177    1.2677943   547498 
 3127000    1.0003385   -2.9698502   -2.9698502    -1.702455  0.067074855   -2.9698502    1.2673952   547498 
 3128000   0.99983251   -2.9699214   -2.9699214   -1.7031673  0.068629722   -2.9699214    1.2667541   547498 
 3129000    1.0016593   -2.9722648   -2.9722648   -1.7031962  0.067649082   -2.9722648    1.2690686   547498 
 3130000    1.0017221   -2.9716031   -2.9716031   -1.7024549  0.067333676   -2.9716031    1.2691481   547498 
 3131000    1.0013156   -2.9718808   -2.9718808   -1.7032477  0.062416317   -2.9718808    1.2686331   547498 
 3132000     1.001809   -2.9714173   -2.9714173    -1.702159  0.067138727   -2.9714173    1.2692583   547498 
 3133000     1.003047   -2.9731976   -2.9731976   -1.7023708  0.062436461   -2.9731976    1.2708267   547498 
 3134000     1.000643   -2.9709006   -2.9709006   -1.7031196  0.064570944   -2.9709006    1.2677809   547498 
 3135000      1.00059   -2.9711545   -2.9711545   -1.7034406  0.062474835   -2.9711545    1.2677138   547498 
 3136000    1.0029914   -2.9741901   -2.9741901   -1.7034339  0.063333425   -2.9741901    1.2707563   547498 
 3137000     1.001819   -2.9724098   -2.9724098   -1.7031389  0.064429671   -2.9724098    1.2692709   547498 
 3138000    1.0028233   -2.9742462   -2.9742462   -1.7037029  0.072027258   -2.9742462    1.2705433   547498 
 3139000    1.0011236   -2.9731873   -2.9731873   -1.7047974  0.060693038   -2.9731873    1.2683899   547498 
 3140000    1.0015747   -2.9731036   -2.9731036   -1.7041423  0.065930964   -2.9731036    1.2689614   547498 
 3141000    1.0011969   -2.9731103   -2.9731103   -1.7046276  0.069320113   -2.9731103    1.2684827   547498 
 3142000    1.0021906   -2.9740347   -2.9740347    -1.704293  0.065162536   -2.9740347    1.2697417   547498 
 3143000     1.001963   -2.9730745   -2.9730745   -1.7036211  0.059763292   -2.9730745    1.2694533   547498 
 3144000    1.0004293   -2.9721019   -2.9721019   -1.7045917   0.06121955   -2.9721019    1.2675102   547498 
 3145000   0.99932563   -2.9711946   -2.9711946   -1.7050827  0.071510981   -2.9711946    1.2661119   547498 
 3146000    1.0012614   -2.9732641   -2.9732641   -1.7046996  0.062456065   -2.9732641    1.2685644   547498 
 3147000    1.0014786   -2.9722531   -2.9722531   -1.7034135  0.066212632   -2.9722531    1.2688396   547498 
 3148000    1.0015717   -2.9733449   -2.9733449   -1.7043873  0.064402311   -2.9733449    1.2689575   547498 
 3149000    1.0020673   -2.9742722   -2.9742722   -1.7046867  0.065667498   -2.9742722    1.2695854   547498 
 3150000    1.0027125   -2.9753096   -2.9753096   -1.7049067  0.074191584   -2.9753096    1.2704029   547498 
 3151000    1.0028191   -2.9747843   -2.9747843   -1.7042462  0.078916333   -2.9747843     1.270538   547498 
 3152000    1.0029638   -2.9755298   -2.9755298   -1.7048086  0.071531591   -2.9755298    1.2707212   547498 
 3153000    1.0041236    -2.976658    -2.976658   -1.7044672  0.074061852    -2.976658    1.2721907   547498 
 3154000    1.0025114   -2.9746365   -2.9746365   -1.7044883  0.073064087   -2.9746365    1.2701482   547498 
 3155000    1.0030497   -2.9766887   -2.9766887   -1.7058585  0.067804801   -2.9766887    1.2708301   547498 
 3156000    1.0032419   -2.9758762   -2.9758762   -1.7048025  0.071650073   -2.9758762    1.2710737   547498 
 3157000     1.002998    -2.976744    -2.976744   -1.7059793  0.069319725    -2.976744    1.2707647   547498 
 3158000    1.0025816    -2.975677    -2.975677   -1.7054399  0.054856208    -2.975677    1.2702371   547498 
 3159000     1.000869   -2.9740845   -2.9740845   -1.7060172  0.066831697   -2.9740845    1.2680673   547498 
 3160000    1.0018964   -2.9753898   -2.9753898   -1.7060209  0.057264735   -2.9753898    1.2693689   547498 
 3161000    1.0001622   -2.9739395   -2.9739395   -1.7067677  0.070197617   -2.9739395    1.2671717   547498 
 3162000    1.0000766   -2.9746513   -2.9746513   -1.7075879  0.056059364   -2.9746513    1.2670633   547498 
 3163000    1.0000805   -2.9749146   -2.9749146   -1.7078463  0.058786139   -2.9749146    1.2670683   547498 
 3164000    0.9993228   -2.9739881   -2.9739881   -1.7078798  0.065236421   -2.9739881    1.2661083   547498 
 3165000     1.000299   -2.9746144   -2.9746144   -1.7072693   0.07362167   -2.9746144    1.2673451   547498 
 3166000    1.0006612   -2.9747723   -2.9747723   -1.7069683  0.055922765   -2.9747723     1.267804   547498 
 3167000     1.001999    -2.975415    -2.975415   -1.7059161   0.06247676    -2.975415    1.2694989   547498 
 3168000    1.0012952   -2.9749787   -2.9749787   -1.7063714  0.070769073   -2.9749787    1.2686073   547498 
 3169000    1.0010196    -2.974812    -2.974812   -1.7065538  0.063169293    -2.974812    1.2682581   547498 
 3170000    1.0024059   -2.9761895   -2.9761895    -1.706175  0.055998042   -2.9761895    1.2700145   547498 
 3171000    1.0026276   -2.9750919   -2.9750919   -1.7047966   0.06676139   -2.9750919    1.2702953   547498 
 3172000    1.0011213   -2.9728358   -2.9728358   -1.7044488  0.073371104   -2.9728358     1.268387   547498 
 3173000    1.0014793   -2.9734167   -2.9734167   -1.7045762  0.069838197   -2.9734167    1.2688405   547498 
 3174000    1.0020906    -2.974133    -2.974133    -1.704518  0.067570031    -2.974133     1.269615   547498 
 3175000   0.99999178   -2.9730871   -2.9730871   -1.7061313  0.061178418   -2.9730871    1.2669559   547498 
 3176000   0.99987116   -2.9731196   -2.9731196   -1.7063166  0.065058484   -2.9731196     1.266803   547498 
 3177000    1.0014484   -2.9746086   -2.9746086   -1.7058073  0.055578796   -2.9746086    1.2688013   547498 
 3178000    1.0005804   -2.9742292   -2.9742292   -1.7065276  0.063688213   -2.9742292    1.2677016   547498 
 3179000     1.000658   -2.9736372   -2.9736372   -1.7058372  0.071894008   -2.9736372       1.2678   547498 
 3180000    1.0023912   -2.9753466   -2.9753466   -1.7053507  0.057966863   -2.9753466    1.2699959   547498 
 3181000    1.0009088   -2.9742211   -2.9742211   -1.7061034  0.058381568   -2.9742211    1.2681177   547498 
 3182000    1.0007014   -2.9731294   -2.9731294   -1.7052745  0.058260094   -2.9731294    1.2678549   547498 
 3183000    1.0003205   -2.9714816   -2.9714816   -1.7041093  0.059299457   -2.9714816    1.2673723   547498 
 3184000    1.0024796   -2.9752933   -2.9752933   -1.7051855  0.068798452   -2.9752933    1.2701079   547498 
 3185000    1.0017892    -2.974332    -2.974332   -1.7050988  0.072252182    -2.974332    1.2692332   547498 
 3186000    1.0036462   -2.9764335   -2.9764335   -1.7048476  0.069192266   -2.9764335    1.2715859   547498 
 3187000    1.0028257   -2.9751906   -2.9751906   -1.7046442  0.058895941   -2.9751906    1.2705464   547498 
 3188000    1.0016603   -2.9740691   -2.9740691   -1.7049992  0.071979018   -2.9740691    1.2690699   547498 
 3189000     1.003643   -2.9757533   -2.9757533   -1.7041715  0.064016554   -2.9757533    1.2715818   547498 
 3190000    1.0027051   -2.9741218   -2.9741218   -1.7037283  0.071657623   -2.9741218    1.2703935   547498 
 3191000    1.0014546   -2.9721497   -2.9721497   -1.7033404  0.074323398   -2.9721497    1.2688092   547498 
 3192000    1.0031266   -2.9746725   -2.9746725   -1.7037449   0.06914196   -2.9746725    1.2709276   547498 
 3193000    1.0027235   -2.9735772   -2.9735772   -1.7031603  0.071452896   -2.9735772    1.2704169   547498 
 3194000    1.0041392   -2.9758714   -2.9758714   -1.7036609  0.063282257   -2.9758714    1.2722104   547498 
 3195000    1.0037749   -2.9757934   -2.9757934   -1.7040444  0.063204002   -2.9757934     1.271749   547498 
 3196000    1.0026325   -2.9735177   -2.9735177   -1.7032161  0.071341568   -2.9735177    1.2703016   547498 
 3197000    1.0027264   -2.9743717   -2.9743717   -1.7039512  0.071261328   -2.9743717    1.2704205   547498 
 3198000    1.0035797   -2.9757697   -2.9757697    -1.704268  0.067230249   -2.9757697    1.2715017   547498 
 3199000    1.0030739    -2.975151    -2.975151   -1.7042902  0.072722501    -2.975151    1.2708608   547498 
 3200000    1.0035443   -2.9761365   -2.9761365   -1.7046797  0.065028423   -2.9761365    1.2714568   547498 
 3201000    1.0012876   -2.9744034   -2.9744034   -1.7058058  0.064377957   -2.9744034    1.2685976   547498 
 3202000    1.0003676   -2.9743401   -2.9743401   -1.7069081  0.059967712   -2.9743401    1.2674319   547498 
 3203000    1.0008307   -2.9736991   -2.9736991   -1.7056803  0.066692098   -2.9736991    1.2680188   547498 
 3204000    1.0018958    -2.973742    -2.973742   -1.7043739  0.065380358    -2.973742    1.2693682   547498 
 3205000    1.0001026   -2.9722371   -2.9722371   -1.7051408   0.05404267   -2.9722371    1.2670963   547498 
 3206000    1.0001935   -2.9727305   -2.9727305   -1.7055191  0.059454013   -2.9727305    1.2672114   547498 
 3207000    1.0012576    -2.973578    -2.973578   -1.7050184  0.058962388    -2.973578    1.2685596   547498 
 3208000    1.0015323   -2.9733948   -2.9733948   -1.7044871  0.059918921   -2.9733948    1.2689077   547498 
 3209000    1.0001188   -2.9717394   -2.9717394   -1.7046225  0.069893039   -2.9717394    1.2671168   547498 
 3210000    1.0002782    -2.970649    -2.970649   -1.7033302  0.080124311    -2.970649    1.2673188   547498 
 3211000    1.0019898   -2.9734502   -2.9734502   -1.7039629  0.060085443   -2.9734502    1.2694873   547498 
 3212000    1.0019683   -2.9724391   -2.9724391    -1.702979  0.059058813   -2.9724391    1.2694601   547498 
 3213000    1.0029706   -2.9728201   -2.9728201   -1.7020901  0.063484071   -2.9728201      1.27073   547498 
 3214000   0.99955827   -2.9695177   -2.9695177   -1.7031111  0.069080183   -2.9695177    1.2664066   547498 
 3215000     1.002439   -2.9731014   -2.9731014    -1.703045  0.063627716   -2.9731014    1.2700564   547498 
 3216000    1.0004149   -2.9707872   -2.9707872   -1.7032952   0.06451077   -2.9707872     1.267492   547498 
 3217000     1.001463    -2.972934    -2.972934   -1.7041142  0.063810747    -2.972934    1.2688198   547498 
 3218000    1.0012036    -2.971455    -2.971455   -1.7029638  0.074176052    -2.971455    1.2684912   547498 
 3219000    1.0020206   -2.9721223   -2.9721223    -1.702596  0.063181482   -2.9721223    1.2695263   547498 
 3220000    1.0023079   -2.9722605   -2.9722605   -1.7023702  0.060619756   -2.9722605    1.2698903   547498 
 3221000    1.0017579   -2.9717145   -2.9717145    -1.702521  0.062860502   -2.9717145    1.2691935   547498 
 3222000    1.0009779   -2.9716301   -2.9716301   -1.7034248  0.069622475   -2.9716301    1.2682052   547498 
 3223000    1.0028762   -2.9734206   -2.9734206   -1.7028103  0.069335308   -2.9734206    1.2706103   547498 
 3224000   0.99968389   -2.9693967   -2.9693967   -1.7028309  0.062151231   -2.9693967    1.2665658   547498 
 3225000    1.0005544   -2.9696932   -2.9696932   -1.7020246  0.073646377   -2.9696932    1.2676686   547498 
 3226000    1.0012797   -2.9716946   -2.9716946   -1.7031069   0.06332046   -2.9716946    1.2685876   547498 
 3227000    1.0019292   -2.9727888   -2.9727888   -1.7033783  0.067133364   -2.9727888    1.2694105   547498 
 3228000    1.0011891    -2.971744    -2.971744   -1.7032712  0.063368282    -2.971744    1.2684729   547498 
 3229000    1.0021815   -2.9730435   -2.9730435   -1.7033134  0.060684447   -2.9730435    1.2697301   547498 
 3230000    1.0025385   -2.9738087   -2.9738087   -1.7036262  0.061242348   -2.9738087    1.2701825   547498 
 3231000    1.0019173    -2.971591    -2.971591   -1.7021956   0.06373095    -2.971591    1.2693955   547498 
 3232000     1.001445   -2.9720373   -2.9720373   -1.7032403  0.070617704   -2.9720373     1.268797   547498 
 3233000    1.0020805   -2.9733804   -2.9733804   -1.7037782   0.06136876   -2.9733804    1.2696023   547498 
 3234000     1.001328   -2.9720015   -2.9720015   -1.7033527  0.063697044   -2.9720015    1.2686488   547498 
 3235000     1.001722   -2.9722213   -2.9722213   -1.7030734  0.065082373   -2.9722213    1.2691479   547498 
 3236000    1.0018951   -2.9722172   -2.9722172   -1.7028498  0.071423405   -2.9722172    1.2693673   547498 
 3237000    1.0014671   -2.9720339   -2.9720339   -1.7032089  0.063756576   -2.9720339     1.268825   547498 
 3238000    1.0017996   -2.9718439   -2.9718439   -1.7025977  0.073497708   -2.9718439    1.2692463   547498 
 3239000    1.0021044   -2.9727012   -2.9727012   -1.7030687  0.070905626   -2.9727012    1.2696325   547498 
 3240000    1.0004809   -2.9703959   -2.9703959   -1.7028203  0.070392433   -2.9703959    1.2675755   547498 
 3241000    1.0019829   -2.9723038   -2.9723038   -1.7028253  0.068084803   -2.9723038    1.2694785   547498 
 3242000    1.0028158   -2.9727837   -2.9727837   -1.7022498  0.060244856   -2.9727837    1.2705338   547498 
 3243000    1.0032458    -2.973018    -2.973018   -1.7019394  0.070767755    -2.973018    1.2710786   547498 
 3244000    1.0026049   -2.9719178   -2.9719178   -1.7016511  0.067960677   -2.9719178    1.2702666   547498 
 3245000     1.002502   -2.9721152   -2.9721152   -1.7019791  0.061237283   -2.9721152    1.2701362   547498 
 3246000    1.0019292   -2.9705823   -2.9705823   -1.7011717  0.059085978   -2.9705823    1.2694105   547498 
 3247000    1.0017895   -2.9705415   -2.9705415    -1.701308  0.065325269   -2.9705415    1.2692335   547498 
 3248000    1.0013051   -2.9698245   -2.9698245   -1.7012046  0.063159855   -2.9698245    1.2686198   547498 
 3249000    1.0024148   -2.9712282   -2.9712282   -1.7012025  0.064410787   -2.9712282    1.2700257   547498 
 3250000    1.0024346   -2.9710854   -2.9710854   -1.7010346  0.064578826   -2.9710854    1.2700509   547498 
 3251000    1.0032562   -2.9721979   -2.9721979   -1.7011061  0.059150425   -2.9721979    1.2710918   547498 
 3252000    1.0026993   -2.9719524   -2.9719524   -1.7015662  0.071137701   -2.9719524    1.2703862   547498 
 3253000    1.0025084   -2.9710892   -2.9710892   -1.7009449  0.062386215   -2.9710892    1.2701443   547498 
 3254000    1.0015014   -2.9699005   -2.9699005    -1.701032  0.069809034   -2.9699005    1.2688686   547498 
 3255000    1.0019608    -2.969453    -2.969453   -1.7000025  0.060663479    -2.969453    1.2694505   547498 
 3256000   0.99966522   -2.9674117   -2.9674117   -1.7008696  0.062662439   -2.9674117    1.2665421   547498 
 3257000     1.002478   -2.9703931   -2.9703931   -1.7002873  0.046342991   -2.9703931    1.2701058   547498 
 3258000    1.0010076   -2.9685032   -2.9685032   -1.7002603   0.06150735   -2.9685032    1.2682429   547498 
 3259000    1.0019729   -2.9685544   -2.9685544   -1.6990885  0.061576744   -2.9685544    1.2694658   547498 
 3260000    1.0017308   -2.9668636   -2.9668636   -1.6977045  0.076736868   -2.9668636    1.2691591   547498 
 3261000     1.003557   -2.9693424   -2.9693424   -1.6978695  0.068848672   -2.9693424    1.2714729   547498 
 3262000    1.0044103   -2.9703794   -2.9703794   -1.6978255  0.064121237   -2.9703794    1.2725539   547498 
 3263000    1.0035392   -2.9690554   -2.9690554    -1.697605  0.071811532   -2.9690554    1.2714503   547498 
 3264000    1.0025855   -2.9680434   -2.9680434   -1.6978014   0.06884689   -2.9680434     1.270242   547498 
 3265000     1.002304   -2.9682826   -2.9682826   -1.6983971  0.061138401   -2.9682826    1.2698854   547498 
 3266000    1.0017237   -2.9671646   -2.9671646   -1.6980144  0.063878027   -2.9671646    1.2691502   547498 
 3267000    1.0019394   -2.9675033   -2.9675033   -1.6980799  0.060178011   -2.9675033    1.2694234   547498 
 3268000    1.0010859   -2.9664267   -2.9664267   -1.6980846  0.073065581   -2.9664267    1.2683421   547498 
 3269000    1.0019932   -2.9668915   -2.9668915   -1.6973999  0.057730404   -2.9668915    1.2694916   547498 
 3270000    1.0022541   -2.9679141   -2.9679141    -1.698092  0.065069778   -2.9679141    1.2698221   547498 
 3271000    1.0018167   -2.9673899   -2.9673899   -1.6981219  0.062592944   -2.9673899     1.269268   547498 
 3272000    1.0006632   -2.9667008   -2.9667008   -1.6988942  0.062941548   -2.9667008    1.2678065   547498 
 3273000    1.0011576   -2.9672326   -2.9672326   -1.6987997  0.050514483   -2.9672326    1.2684329   547498 
 3274000    1.0003871   -2.9660198   -2.9660198   -1.6985631  0.053183119   -2.9660198    1.2674568   547498 
 3275000    1.0009663   -2.9666825   -2.9666825   -1.6984919  0.056972557   -2.9666825    1.2681905   547498 
 3276000    1.0028474   -2.9686473   -2.9686473   -1.6980735   0.07015337   -2.9686473    1.2705738   547498 
 3277000    1.0031825   -2.9698479   -2.9698479   -1.6988494  0.065947322   -2.9698479    1.2709985   547498 
 3278000    1.0016358   -2.9683107   -2.9683107   -1.6992719  0.055319665   -2.9683107    1.2690388   547498 
 3279000    1.0020375   -2.9682347   -2.9682347   -1.6986869  0.058192463   -2.9682347    1.2695477   547498 
 3280000    1.0012143   -2.9674358   -2.9674358   -1.6989311   0.06708418   -2.9674358    1.2685047   547498 
 3281000    1.0029423   -2.9692525   -2.9692525   -1.6985585  0.063464333   -2.9692525     1.270694   547498 
 3282000    1.0023485   -2.9687067   -2.9687067    -1.698765  0.071198601   -2.9687067    1.2699417   547498 
 3283000    1.0012896   -2.9676363   -2.9676363   -1.6990362  0.067845672   -2.9676363    1.2686001   547498 
 3284000    1.0026069    -2.967591    -2.967591   -1.6973219  0.070684936    -2.967591    1.2702692   547498 
 3285000    1.0027266   -2.9684819   -2.9684819   -1.6980611  0.073601998   -2.9684819    1.2704208   547498 
 3286000    1.0044567   -2.9717679   -2.9717679   -1.6991552  0.060620972   -2.9717679    1.2726128   547498 
 3287000    1.0041017   -2.9709789   -2.9709789   -1.6988159  0.062323653   -2.9709789    1.2721629   547498 
 3288000     1.003914   -2.9721334   -2.9721334   -1.7002082  0.061259728   -2.9721334    1.2719252   547498 
 3289000    1.0033838   -2.9710605   -2.9710605   -1.6998071  0.073207439   -2.9710605    1.2712534   547498 
 3290000    1.0034406   -2.9704079   -2.9704079   -1.6990825  0.062475864   -2.9704079    1.2713254   547498 
 3291000    1.0025854   -2.9694907   -2.9694907   -1.6992488  0.065865654   -2.9694907    1.2702419   547498 
 3292000    1.0050371   -2.9729122   -2.9729122    -1.699564  0.072317627   -2.9729122    1.2733482   547498 
 3293000    1.0041442   -2.9718085   -2.9718085   -1.6995917  0.073954214   -2.9718085    1.2722168   547498 
 3294000    1.0029007   -2.9718722   -2.9718722   -1.7012308  0.066624794   -2.9718722    1.2706414   547498 
 3295000     1.002484   -2.9715679   -2.9715679   -1.7014544  0.079075758   -2.9715679    1.2701135   547498 
 3296000    1.0029233   -2.9725565   -2.9725565   -1.7018865  0.075082839   -2.9725565      1.27067   547498 
 3297000    1.0018787   -2.9713515   -2.9713515   -1.7020049  0.073080205   -2.9713515    1.2693466   547498 
 3298000    1.0014882    -2.971533    -2.971533   -1.7026812  0.068860065    -2.971533    1.2688518   547498 
 3299000    1.0018864    -2.971659    -2.971659   -1.7023028   0.06818702    -2.971659    1.2693562   547498 
 3300000     1.001334   -2.9711923   -2.9711923   -1.7025358  0.070853761   -2.9711923    1.2686564   547498 
 3301000    1.0016515   -2.9705421   -2.9705421   -1.7014834  0.060890426   -2.9705421    1.2690587   547498 
 3302000    1.0030116   -2.9727686   -2.9727686   -1.7019867  0.061565408   -2.9727686    1.2707819   547498 
 3303000    1.0025905   -2.9712307   -2.9712307   -1.7009824   0.07238567   -2.9712307    1.2702483   547498 
 3304000    1.0027166   -2.9715982   -2.9715982   -1.7011901  0.066175437   -2.9715982    1.2704081   547498 
 3305000    1.0029453   -2.9717205   -2.9717205   -1.7010226  0.067646421   -2.9717205    1.2706979   547498 
 3306000    1.0027474   -2.9716713   -2.9716713   -1.7012242  0.064444395   -2.9716713    1.2704471   547498 
 3307000     1.003566   -2.9731712   -2.9731712   -1.7016869  0.058500173   -2.9731712    1.2714843   547498 
 3308000    1.0023818   -2.9710765   -2.9710765   -1.7010926  0.073974571   -2.9710765    1.2699839   547498 
 3309000    1.0008543   -2.9699938   -2.9699938   -1.7019453  0.069390382   -2.9699938    1.2680486   547498 
 3310000    1.0009169   -2.9699816   -2.9699816   -1.7018537  0.068070599   -2.9699816    1.2681279   547498 
 3311000    1.0022333   -2.9711124   -2.9711124   -1.7013167  0.059729813   -2.9711124    1.2697957   547498 
 3312000    1.0003135   -2.9692104   -2.9692104   -1.7018469  0.068179635   -2.9692104    1.2673635   547498 
 3313000   0.99961081   -2.9682637   -2.9682637   -1.7017905  0.068592934   -2.9682637    1.2664732   547498 
 3314000    1.0006552   -2.9702616   -2.9702616   -1.7024652  0.067306307   -2.9702616    1.2677964   547498 
 3315000    1.0008967   -2.9699932   -2.9699932   -1.7018908  0.058523569   -2.9699932    1.2681023   547498 
 3316000     1.000808   -2.9705264   -2.9705264   -1.7025363  0.065543515   -2.9705264      1.26799   547498 
 3317000    1.0011437   -2.9707514   -2.9707514   -1.7023362  0.061077903   -2.9707514    1.2684153   547498 
 3318000     1.001199   -2.9708341   -2.9708341   -1.7023487  0.067729521   -2.9708341    1.2684854   547498 
 3319000    1.0012682   -2.9708358   -2.9708358   -1.7022628  0.065615874   -2.9708358     1.268573   547498 
 3320000    1.0026823   -2.9729524   -2.9729524   -1.7025877  0.063699345   -2.9729524    1.2703647   547498 
 3321000    1.0021877   -2.9723693   -2.9723693   -1.7026314  0.061949162   -2.9723693     1.269738   547498 
 3322000    1.0007283   -2.9714968   -2.9714968   -1.7036078   0.07314394   -2.9714968     1.267889   547498 
 3323000    1.0004737   -2.9715525   -2.9715525   -1.7039861  0.063381629   -2.9715525    1.2675665   547498 
 3324000    1.0008284   -2.9720895   -2.9720895   -1.7040736  0.065039527   -2.9720895    1.2680159   547498 
 3325000      1.00164   -2.9730238   -2.9730238   -1.7039797  0.059732802   -2.9730238    1.2690441   547498 
 3326000    1.0002756   -2.9710952   -2.9710952   -1.7037798  0.065433613   -2.9710952    1.2673155   547498 
 3327000    1.0019542   -2.9728206   -2.9728206   -1.7033784  0.062622284   -2.9728206    1.2694421   547498 
 3328000     1.001941   -2.9730274   -2.9730274    -1.703602   0.06586289   -2.9730274    1.2694254   547498 
 3329000    1.0013435   -2.9728388   -2.9728388   -1.7041703   0.05715652   -2.9728388    1.2686685   547498 
 3330000    1.0009191   -2.9724059   -2.9724059   -1.7042751  0.069489393   -2.9724059    1.2681307   547498 
 3331000    1.0010039   -2.9720341   -2.9720341   -1.7037959  0.064534225   -2.9720341    1.2682382   547498 
 3332000    1.0032237   -2.9744699   -2.9744699   -1.7034193  0.062861974   -2.9744699    1.2710506   547498 
 3333000    1.0025739   -2.9735012   -2.9735012   -1.7032739  0.063315602   -2.9735012    1.2702273   547498 
 3334000     1.000259   -2.9720204   -2.9720204    -1.704726  0.064359749   -2.9720204    1.2672945   547498 
 3335000     1.000267    -2.971867    -2.971867   -1.7045624  0.074781956    -2.971867    1.2673046   547498 
 3336000    1.0018327   -2.9742826   -2.9742826   -1.7049943  0.064820215   -2.9742826    1.2692882   547498 
 3337000    1.0018017   -2.9738294   -2.9738294   -1.7045804  0.069628421   -2.9738294     1.269249   547498 
 3338000    1.0019968   -2.9738204   -2.9738204   -1.7043242  0.064195517   -2.9738204    1.2694962   547498 
 3339000    1.0022955   -2.9749112   -2.9749112   -1.7050366  0.056890147   -2.9749112    1.2698746   547498 
 3340000     1.000247   -2.9727506   -2.9727506   -1.7054715  0.060241622   -2.9727506    1.2672792   547498 
 3341000    1.0006833   -2.9728832   -2.9728832   -1.7050512  0.066853691   -2.9728832    1.2678319   547498 
 3342000    1.0015349   -2.9738691   -2.9738691   -1.7049582  0.064687646   -2.9738691    1.2689109   547498 
 3343000    1.0020077   -2.9735084   -2.9735084   -1.7039985  0.067715846   -2.9735084    1.2695099   547498 
 3344000    1.0018837   -2.9731214   -2.9731214   -1.7037685  0.064403922   -2.9731214    1.2693529   547498 
 3345000    1.0020276   -2.9724772   -2.9724772   -1.7029421  0.068331628   -2.9724772    1.2695352   547498 
 3346000    1.0018314   -2.9726393   -2.9726393   -1.7033527  0.069218665   -2.9726393    1.2692866   547498 
 3347000    1.0028378   -2.9733693   -2.9733693   -1.7028077  0.062243066   -2.9733693    1.2705617   547498 
 3348000    1.0016642   -2.9729126   -2.9729126   -1.7038379   0.05566408   -2.9729126    1.2690748   547498 
 3349000    1.0012321   -2.9715698   -2.9715698   -1.7030425   0.07654599   -2.9715698    1.2685273   547498 
 3350000    1.0016346   -2.9709132   -2.9709132    -1.701876  0.062403983   -2.9709132    1.2690373   547498 
 3351000        1.004   -2.9738806   -2.9738806   -1.7018464  0.061682459   -2.9738806    1.2720342   547498 
 3352000    1.0011028   -2.9715565   -2.9715565    -1.703193  0.062941736   -2.9715565    1.2683635   547498 
 3353000    1.0031177   -2.9742813   -2.9742813   -1.7033649  0.060251346   -2.9742813    1.2709163   547498 
 3354000    1.0016152   -2.9731512   -2.9731512   -1.7041386  0.066782895   -2.9731512    1.2690126   547498 
 3355000    1.0010352   -2.9712039   -2.9712039   -1.7029261  0.071067536   -2.9712039    1.2682778   547498 
 3356000     1.001552   -2.9712499   -2.9712499   -1.7023173  0.060474374   -2.9712499    1.2689326   547498 
 3357000    1.0012806   -2.9697903   -2.9697903   -1.7012015  0.066422156   -2.9697903    1.2685888   547498 
 3358000    1.0014682   -2.9707456   -2.9707456   -1.7019191  0.069284285   -2.9707456    1.2688264   547498 
 3359000    1.0015985   -2.9704225   -2.9704225    -1.701431  0.056246024   -2.9704225    1.2689915   547498 
 3360000    1.0013157   -2.9699675   -2.9699675   -1.7013342   0.06606494   -2.9699675    1.2686332   547498 
 3361000    1.0016307   -2.9696602   -2.9696602   -1.7006279  0.063812243   -2.9696602    1.2690323   547498 
 3362000    1.0018558   -2.9708202   -2.9708202   -1.7015027  0.066470825   -2.9708202    1.2693175   547498 
 3363000    1.0023283   -2.9713119   -2.9713119   -1.7013957  0.062489367   -2.9713119    1.2699162   547498 
 3364000    1.0027652    -2.972441    -2.972441   -1.7019714   0.05680903    -2.972441    1.2704696   547498 
 3365000    1.0006354   -2.9702766   -2.9702766   -1.7025053   0.06473806   -2.9702766    1.2677713   547498 
 3366000    1.0023863   -2.9710217   -2.9710217   -1.7010321  0.072472516   -2.9710217    1.2699896   547498 
 3367000    1.0025895   -2.9717707   -2.9717707   -1.7015236  0.054791693   -2.9717707    1.2702471   547498 
 3368000    1.0008027   -2.9691854   -2.9691854   -1.7012021  0.064304052   -2.9691854    1.2679833   547498 
 3369000    1.0027032   -2.9705562   -2.9705562   -1.7001651  0.062889846   -2.9705562    1.2703911   547498 
 3370000    1.0021994   -2.9703337   -2.9703337   -1.7005808  0.066710764   -2.9703337    1.2697529   547498 
 3371000     1.003286   -2.9711748   -2.9711748   -1.7000453  0.073477202   -2.9711748    1.2711295   547498 
 3372000    1.0035632   -2.9719731   -2.9719731   -1.7004924  0.058304593   -2.9719731    1.2714807   547498 
 3373000    1.0030158   -2.9716957   -2.9716957   -1.7009085  0.058968408   -2.9716957    1.2707872   547498 
 3374000    1.0029595   -2.9721529   -2.9721529    -1.701437  0.063445731   -2.9721529    1.2707158   547498 
 3375000    1.0032121   -2.9730662   -2.9730662   -1.7020303  0.064810144   -2.9730662    1.2710359   547498 
 3376000    1.0022094   -2.9716635   -2.9716635    -1.701898  0.072057502   -2.9716635    1.2697655   547498 
 3377000    1.0016426   -2.9711915   -2.9711915   -1.7021441  0.060234315   -2.9711915    1.2690474   547498 
 3378000    1.0012255   -2.9699051   -2.9699051   -1.7013862  0.067630145   -2.9699051    1.2685189   547498 
 3379000    1.0008139   -2.9704389   -2.9704389   -1.7024415  0.054378028   -2.9704389    1.2679974   547498 
 3380000    1.0005078   -2.9704884   -2.9704884   -1.7028788  0.052850361   -2.9704884    1.2676096   547498 
 3381000     1.000712   -2.9708941   -2.9708941   -1.7030257  0.067428802   -2.9708941    1.2678684   547498 
 3382000    1.0005552   -2.9713137   -2.9713137   -1.7036439  0.067575415   -2.9713137    1.2676697   547498 
 3383000    1.0004179   -2.9705307   -2.9705307    -1.703035  0.072858117   -2.9705307    1.2674958   547498 
 3384000    1.0009925   -2.9706822   -2.9706822   -1.7024584   0.06056533   -2.9706822    1.2682238   547498 
 3385000    1.0009189   -2.9708321   -2.9708321   -1.7027017  0.058500031   -2.9708321    1.2681305   547498 
 3386000    1.0010466   -2.9703708   -2.9703708   -1.7020784  0.061785205   -2.9703708    1.2682923   547498 
 3387000    1.0015807   -2.9711994   -2.9711994   -1.7022304  0.062846554   -2.9711994     1.268969   547498 
 3388000    1.0029022   -2.9723801   -2.9723801   -1.7017368  0.063824531   -2.9723801    1.2706433   547498 
 3389000    1.0026829   -2.9727235   -2.9727235   -1.7023581  0.065159027   -2.9727235    1.2703654   547498 
 3390000    1.0032503   -2.9723263   -2.9723263    -1.701242  0.060088102   -2.9723263    1.2710843   547498 
 3391000    1.0030939   -2.9739297   -2.9739297   -1.7030436  0.070759717   -2.9739297    1.2708861   547498 
 3392000    1.0019384   -2.9727791   -2.9727791   -1.7033569  0.071866542   -2.9727791    1.2694222   547498 
 3393000    1.0025725    -2.974876    -2.974876   -1.7046505  0.065042161    -2.974876    1.2702255   547498 
 3394000    1.0020732   -2.9738229   -2.9738229     -1.70423  0.062202135   -2.9738229    1.2695929   547498 
 3395000    1.0016656   -2.9731003   -2.9731003   -1.7040237  0.070302353   -2.9731003    1.2690766   547498 
 3396000    1.0034214   -2.9748255   -2.9748255   -1.7035244  0.066812625   -2.9748255    1.2713011   547498 
 3397000    1.0016658   -2.9726646   -2.9726646   -1.7035878  0.068059592   -2.9726646    1.2690767   547498 
 3398000     1.001893   -2.9730553   -2.9730553   -1.7036907  0.061354937   -2.9730553    1.2693646   547498 
 3399000    1.0021085   -2.9729394   -2.9729394   -1.7033018  0.061645124   -2.9729394    1.2696376   547498 
 3400000    1.0019035   -2.9727915   -2.9727915   -1.7034136  0.078876209   -2.9727915     1.269378   547498 
 3401000    1.0031247   -2.9755251   -2.9755251      -1.7046  0.051939085   -2.9755251    1.2709251   547498 
 3402000    1.0033359   -2.9752977   -2.9752977   -1.7041049  0.067008454   -2.9752977    1.2711928   547498 
 3403000    1.0020815   -2.9734061   -2.9734061   -1.7038026  0.067664148   -2.9734061    1.2696034   547498 
 3404000    1.0041942   -2.9753827   -2.9753827   -1.7031025  0.069525051   -2.9753827    1.2722801   547498 
 3405000    1.0019611   -2.9728877   -2.9728877   -1.7034368  0.061269745   -2.9728877    1.2694509   547498 
 3406000    1.0010038   -2.9725894   -2.9725894   -1.7043513  0.072679519   -2.9725894    1.2682381   547498 
 3407000    1.0016553   -2.9730509   -2.9730509   -1.7039875  0.067307136   -2.9730509    1.2690634   547498 
 3408000    1.0001833   -2.9727087   -2.9727087   -1.7055102  0.063556394   -2.9727087    1.2671985   547498 
 3409000    1.0013192   -2.9737911   -2.9737911   -1.7051534  0.059067688   -2.9737911    1.2686377   547498 
 3410000    1.0006786   -2.9710305   -2.9710305   -1.7032045  0.069926738   -2.9710305     1.267826   547498 
 3411000    1.0014879   -2.9726017   -2.9726017   -1.7037504    0.0601629   -2.9726017    1.2688513   547498 
 3412000    1.0019265   -2.9726731   -2.9726731    -1.703266  0.070744318   -2.9726731    1.2694071   547498 
 3413000     1.001935   -2.9730117   -2.9730117   -1.7035938  0.064558511   -2.9730117    1.2694179   547498 
 3414000    1.0009529   -2.9714086   -2.9714086    -1.703235  0.063498331   -2.9714086    1.2681735   547498 
 3415000    1.0022392   -2.9732287   -2.9732287   -1.7034254  0.059413665   -2.9732287    1.2698033   547498 
 3416000    1.0028869   -2.9738131   -2.9738131   -1.7031892  0.062890515   -2.9738131    1.2706239   547498 
 3417000     1.003743   -2.9746824   -2.9746824    -1.702974  0.061370765   -2.9746824    1.2717085   547498 
 3418000    1.0029873   -2.9733625   -2.9733625   -1.7026113  0.064755217   -2.9733625    1.2707511   547498 
 3419000    1.0020704   -2.9722443   -2.9722443    -1.702655   0.07405278   -2.9722443    1.2695894   547498 
 3420000    1.0027201   -2.9725243   -2.9725243   -1.7021117  0.067457189   -2.9725243    1.2704126   547498 
 3421000    1.0029538   -2.9733987   -2.9733987   -1.7026901    0.0681455   -2.9733987    1.2707086   547498 
 3422000    1.0027866   -2.9723747   -2.9723747   -1.7018779  0.065274102   -2.9723747    1.2704968   547498 
 3423000    1.0026571   -2.9722833   -2.9722833   -1.7019506  0.071421648   -2.9722833    1.2703327   547498 
 3424000    1.0027806   -2.9727915   -2.9727915   -1.7023022  0.067696719   -2.9727915    1.2704893   547498 
 3425000    1.0033255   -2.9738549   -2.9738549   -1.7026753  0.059066325   -2.9738549    1.2711795   547498 
 3426000    1.0019556   -2.9719171   -2.9719171   -1.7024732  0.072054307   -2.9719171    1.2694439   547498 
 3427000    1.0018216   -2.9726583   -2.9726583   -1.7033841  0.058750729   -2.9726583    1.2692742   547498 
 3428000    1.0008824    -2.971477    -2.971477   -1.7033927   0.06766824    -2.971477    1.2680843   547498 
 3429000    1.0016136   -2.9724012   -2.9724012   -1.7033905  0.061483233   -2.9724012    1.2690107   547498 
 3430000    1.0023035   -2.9723415   -2.9723415   -1.7024569  0.055771394   -2.9723415    1.2698847   547498 
 3431000    1.0022555   -2.9724691   -2.9724691   -1.7026452  0.064575253   -2.9724691    1.2698239   547498 
 3432000    1.0024856   -2.9733178   -2.9733178   -1.7032023  0.061334988   -2.9733178    1.2701155   547498 
 3433000    1.0024541    -2.972624    -2.972624   -1.7025485   0.06684361    -2.972624    1.2700755   547498 
 3434000    1.0021201   -2.9721516   -2.9721516   -1.7024992  0.072269788   -2.9721516    1.2696524   547498 
 3435000    1.0031206   -2.9737603   -2.9737603   -1.7028403  0.070319842   -2.9737603      1.27092   547498 
 3436000    1.0016375   -2.9712906   -2.9712906   -1.7022496  0.077074662   -2.9712906     1.269041   547498 
 3437000    1.0028258   -2.9729186   -2.9729186   -1.7023721  0.059431495   -2.9729186    1.2705465   547498 
 3438000    1.0030147   -2.9728788   -2.9728788   -1.7020931  0.082386916   -2.9728788    1.2707858   547498 
 3439000     1.002519   -2.9728735   -2.9728735   -1.7027158   0.06402901   -2.9728735    1.2701577   547498 
 3440000    1.0020526   -2.9717003   -2.9717003   -1.7021334  0.070629574   -2.9717003    1.2695669   547498 
 3441000     1.002534   -2.9725005   -2.9725005   -1.7023237  0.065013343   -2.9725005    1.2701767   547498 
 3442000    1.0042608     -2.97445     -2.97445   -1.7020854  0.067516521     -2.97445    1.2723646   547498 
 3443000    1.0039244   -2.9741796   -2.9741796   -1.7022412  0.056146914   -2.9741796    1.2719384   547498 
 3444000    1.0034048     -2.97388     -2.97388      -1.7026   0.05584263     -2.97388      1.27128   547498 
 3445000    1.0025146   -2.9735042   -2.9735042    -1.703352  0.060930045   -2.9735042    1.2701522   547498 
 3446000    1.0021848   -2.9728633   -2.9728633    -1.703129  0.063998821   -2.9728633    1.2697343   547498 
 3447000    1.0014633   -2.9729816   -2.9729816   -1.7041615  0.069075709   -2.9729816    1.2688202   547498 
 3448000    1.0013381   -2.9724298   -2.9724298   -1.7037681   0.06287101   -2.9724298    1.2686617   547498 
 3449000    1.0016574   -2.9732647   -2.9732647   -1.7041985  0.065999079   -2.9732647    1.2690661   547498 
 3450000    1.0023948   -2.9738626   -2.9738626   -1.7038622  0.062242724   -2.9738626    1.2700004   547498 
 3451000    1.0025686   -2.9740056   -2.9740056   -1.7037851  0.072792021   -2.9740056    1.2702206   547498 
 3452000    1.0033552   -2.9756325   -2.9756325   -1.7044154  0.070992874   -2.9756325    1.2712172   547498 
 3453000    1.0024428   -2.9740122   -2.9740122    -1.703951  0.064572412   -2.9740122    1.2700613   547498 
 3454000    1.0026441   -2.9731977   -2.9731977   -1.7028814   0.06468589   -2.9731977    1.2703162   547498 
 3455000    1.0018887   -2.9734854   -2.9734854   -1.7041262  0.067602061   -2.9734854    1.2693592   547498 
 3456000    1.0025224   -2.9738781   -2.9738781   -1.7037161  0.064379537   -2.9738781     1.270162   547498 
 3457000    1.0022852    -2.973379    -2.973379   -1.7035174  0.062909153    -2.973379    1.2698616   547498 
 3458000    1.0030752   -2.9737686   -2.9737686   -1.7029061  0.077682441   -2.9737686    1.2708625   547498 
 3459000    1.0039847   -2.9743646   -2.9743646   -1.7023499  0.076512622   -2.9743646    1.2720147   547498 
 3460000    1.0030448   -2.9735441   -2.9735441   -1.7027201  0.066654016   -2.9735441     1.270824   547498 
 3461000    1.0036414   -2.9742263   -2.9742263   -1.7026465  0.073149841   -2.9742263    1.2715798   547498 
 3462000     1.003368   -2.9754572   -2.9754572   -1.7042238  0.064029425   -2.9754572    1.2712334   547498 
 3463000    1.0032433   -2.9751521   -2.9751521   -1.7040766  0.063472304   -2.9751521    1.2710755   547498 
 3464000    1.0015296   -2.9728678   -2.9728678   -1.7039636  0.065278968   -2.9728678    1.2689042   547498 
 3465000    1.0015756   -2.9721452   -2.9721452   -1.7031827   0.06630365   -2.9721452    1.2689625   547498 
 3466000    1.0009738   -2.9725444   -2.9725444   -1.7043443  0.058966758   -2.9725444    1.2682001   547498 
 3467000     1.001904   -2.9739913   -2.9739913   -1.7046127  0.066320412   -2.9739913    1.2693786   547498 
 3468000    1.0010635   -2.9719369   -2.9719369   -1.7036233  0.064900204   -2.9719369    1.2683137   547498 
 3469000    1.0003767   -2.9712339   -2.9712339   -1.7037903  0.065498999   -2.9712339    1.2674436   547498 
 3470000    1.0002322   -2.9710781   -2.9710781   -1.7038177  0.068329599   -2.9710781    1.2672604   547498 
 3471000    1.0000684   -2.9715518   -2.9715518   -1.7044989  0.065417634   -2.9715518    1.2670529   547498 
 3472000   0.99948489   -2.9718545   -2.9718545   -1.7055408  0.068876597   -2.9718545    1.2663136   547498 
 3473000    1.0008383   -2.9733368   -2.9733368   -1.7053084  0.064803693   -2.9733368    1.2680283   547498 
 3474000    1.0006119   -2.9721912   -2.9721912   -1.7044497   0.06074934   -2.9721912    1.2677416   547498 
 3475000    1.0020545   -2.9736038   -2.9736038   -1.7040346   0.06643752   -2.9736038    1.2695692   547498 
 3476000    1.0025131   -2.9741233   -2.9741233   -1.7039731  0.069574431   -2.9741233    1.2701502   547498 
 3477000    1.0018254   -2.9735261   -2.9735261   -1.7042471  0.072191756   -2.9735261     1.269279   547498 
 3478000    1.0014943   -2.9734844   -2.9734844    -1.704625  0.066653842   -2.9734844    1.2688595   547498 
 3479000    1.0030457   -2.9758829   -2.9758829   -1.7050578  0.061336097   -2.9758829    1.2708251   547498 
 3480000    1.0034816    -2.974876    -2.974876   -1.7034987  0.065342227    -2.974876    1.2713773   547498 
 3481000    1.0031572   -2.9745967   -2.9745967   -1.7036303  0.070842614   -2.9745967    1.2709663   547498 
 3482000    1.0024405   -2.9738284   -2.9738284     -1.70377  0.068262402   -2.9738284    1.2700584   547498 
 3483000    1.0027365   -2.9741638   -2.9741638   -1.7037304   0.06329754   -2.9741638    1.2704333   547498 
 3484000    1.0028989   -2.9745898   -2.9745898   -1.7039507  0.064883604   -2.9745898    1.2706391   547498 
 3485000    1.0032098   -2.9745218   -2.9745218   -1.7034888   0.07300199   -2.9745218     1.271033   547498 
 3486000    1.0025574   -2.9744796   -2.9744796   -1.7042733  0.070974301   -2.9744796    1.2702064   547498 
 3487000    1.0032772   -2.9752581   -2.9752581   -1.7041397  0.083371108   -2.9752581    1.2711184   547498 
 3488000    1.0050667    -2.976585    -2.976585   -1.7031994   0.06137268    -2.976585    1.2733857   547498 
 3489000    1.0030372   -2.9743725   -2.9743725   -1.7035581  0.064494319   -2.9743725    1.2708143   547498 
 3490000    1.0021588    -2.972923    -2.972923   -1.7032216  0.074279156    -2.972923    1.2697014   547498 
 3491000    1.0030289   -2.9741178   -2.9741178   -1.7033141  0.067583997   -2.9741178    1.2708038   547498 
 3492000    1.0032845   -2.9748199   -2.9748199   -1.7036922   0.05941976   -2.9748199    1.2711277   547498 
 3493000    1.0021034   -2.9731758   -2.9731758   -1.7035446  0.068129242   -2.9731758    1.2696312   547498 
 3494000     1.001925   -2.9733125   -2.9733125   -1.7039073  0.071956279   -2.9733125    1.2694052   547498 
 3495000    1.0022472   -2.9745608   -2.9745608   -1.7047474  0.066140995   -2.9745608    1.2698134   547498 
 3496000    1.0018487   -2.9721787   -2.9721787   -1.7028702  0.064987834   -2.9721787    1.2693085   547498 
 3497000    1.0007308    -2.971628    -2.971628   -1.7037359  0.071371929    -2.971628    1.2678921   547498 
 3498000    1.0012511    -2.971121    -2.971121   -1.7025696  0.063239448    -2.971121    1.2685514   547498 
 3499000   0.99966021   -2.9700185   -2.9700185   -1.7034827  0.073026788   -2.9700185    1.2665358   547498 
 3500000    1.0004124   -2.9706373   -2.9706373   -1.7031485  0.057721068   -2.9706373    1.2674888   547498 
 3501000    1.0005455   -2.9711985   -2.9711985    -1.703541  0.063622908   -2.9711985    1.2676574   547498 
 3502000    1.0011505   -2.9710774   -2.9710774   -1.7026536  0.062015067   -2.9710774    1.2684239   547498 
 3503000    1.0023641   -2.9716461   -2.9716461   -1.7016846  0.066879783   -2.9716461    1.2699615   547498 
 3504000    1.0021537   -2.9720677   -2.9720677   -1.7023728  0.061599285   -2.9720677    1.2696949   547498 
 3505000    1.0010492   -2.9717583   -2.9717583   -1.7034627  0.066884501   -2.9717583    1.2682956   547498 
 3506000   0.99996896   -2.9702685   -2.9702685   -1.7033415  0.070468492   -2.9702685    1.2669269   547498 
 3507000    1.0001896   -2.9715409   -2.9715409   -1.7043345  0.062176799   -2.9715409    1.2672064   547498 
 3508000    1.0010731   -2.9716523   -2.9716523   -1.7033265  0.062124005   -2.9716523    1.2683258   547498 
 3509000    1.0017555    -2.972709    -2.972709   -1.7035185  0.061317757    -2.972709    1.2691905   547498 
 3510000   0.99973238   -2.9703515   -2.9703515   -1.7037243  0.070008118   -2.9703515    1.2666272   547498 
 3511000    1.0009439    -2.971789    -2.971789   -1.7036268  0.062537676    -2.971789    1.2681622   547498 
 3512000    1.0004384    -2.971777    -2.971777   -1.7042553  0.054585449    -2.971777    1.2675218   547498 
 3513000   0.99975206   -2.9706502   -2.9706502    -1.703998  0.061648849   -2.9706502    1.2666521   547498 
 3514000    1.0008113   -2.9723461   -2.9723461    -1.704352  0.053828354   -2.9723461    1.2679941   547498 
 3515000     1.001003   -2.9720704   -2.9720704   -1.7038334   0.05753633   -2.9720704     1.268237   547498 
 3516000    1.0015679   -2.9729961   -2.9729961   -1.7040433  0.060685468   -2.9729961    1.2689528   547498 
 3517000    1.0020407   -2.9723037   -2.9723037    -1.702752  0.073376529   -2.9723037    1.2695517   547498 
 3518000    1.0016138   -2.9730404   -2.9730404   -1.7040296  0.065919048   -2.9730404    1.2690109   547498 
 3519000    1.0022689   -2.9737005   -2.9737005   -1.7038597  0.068943499   -2.9737005    1.2698408   547498 
 3520000    1.0024854    -2.973916    -2.973916   -1.7038008  0.069728797    -2.973916    1.2701152   547498 
 3521000    1.0034315   -2.9743974   -2.9743974   -1.7030836  0.070078329   -2.9743974    1.2713138   547498 
 3522000    1.0032294   -2.9743913   -2.9743913   -1.7033335  0.059740557   -2.9743913    1.2710578   547498 
 3523000     1.003069   -2.9742339   -2.9742339   -1.7033794  0.069234362   -2.9742339    1.2708545   547498 
 3524000    1.0036012   -2.9742701   -2.9742701   -1.7027412  0.061138865   -2.9742701    1.2715288   547498 
 3525000    1.0040601    -2.975852    -2.975852   -1.7037417  0.060053967    -2.975852    1.2721102   547498 
 3526000    1.0018527   -2.9726207   -2.9726207   -1.7033072  0.058560456   -2.9726207    1.2693135   547498 
 3527000    1.0019851     -2.97281     -2.97281   -1.7033287  0.072581777     -2.97281    1.2694813   547498 
 3528000    1.0020882   -2.9737827   -2.9737827   -1.7041708  0.058705921   -2.9737827    1.2696119   547498 
 3529000    1.0040146   -2.9755009   -2.9755009   -1.7034482  0.057348565   -2.9755009    1.2720527   547498 
 3530000    1.0031777   -2.9746645   -2.9746645   -1.7036722   0.06887795   -2.9746645    1.2709923   547498 
 3531000     1.001959   -2.9738731   -2.9738731   -1.7044249  0.071972922   -2.9738731    1.2694482   547498 
 3532000    1.0017741   -2.9734853   -2.9734853   -1.7042713  0.058831763   -2.9734853     1.269214   547498 
 3533000    1.0004587   -2.9723765   -2.9723765   -1.7048291   0.06071815   -2.9723765    1.2675474   547498 
 3534000    1.0011065   -2.9734203   -2.9734203   -1.7050521   0.07039326   -2.9734203    1.2683682   547498 
 3535000     1.001167   -2.9743969   -2.9743969   -1.7059521  0.062817208   -2.9743969    1.2684448   547498 
 3536000    1.0016551   -2.9739712   -2.9739712   -1.7049079  0.074659847   -2.9739712    1.2690633   547498 
 3537000    1.0009897   -2.9725486   -2.9725486   -1.7043284  0.065121339   -2.9725486    1.2682202   547498 
 3538000    1.0019475   -2.9738096   -2.9738096    -1.704376  0.057929448   -2.9738096    1.2694336   547498 
 3539000    1.0006448   -2.9717807   -2.9717807   -1.7039976  0.069596977   -2.9717807    1.2677832   547498 
 3540000    1.0005223   -2.9721895   -2.9721895   -1.7045615    0.0723683   -2.9721895     1.267628   547498 
 3541000    1.0001974   -2.9716246   -2.9716246   -1.7044083  0.068475745   -2.9716246    1.2672164   547498 
 3542000    1.0006301    -2.970707    -2.970707   -1.7029424  0.061224075    -2.970707    1.2677646   547498 
 3543000    1.0002792   -2.9708782   -2.9708782   -1.7035583  0.063326769   -2.9708782      1.26732   547498 
 3544000    1.0010821   -2.9729579   -2.9729579   -1.7046205  0.066949791   -2.9729579    1.2683373   547498 
 3545000    1.0019517   -2.9727709   -2.9727709   -1.7033318  0.062370955   -2.9727709    1.2694391   547498 
 3546000    1.0020426   -2.9731573   -2.9731573   -1.7036031   0.06148589   -2.9731573    1.2695541   547498 
 3547000    1.0017728   -2.9718191   -2.9718191   -1.7026068  0.068318251   -2.9718191    1.2692123   547498 
 3548000    1.0010858   -2.9715236   -2.9715236   -1.7031817  0.064603582   -2.9715236    1.2683419   547498 
 3549000    1.0023074   -2.9729386   -2.9729386   -1.7030488  0.066435009   -2.9729386    1.2698897   547498 
 3550000    1.0020461   -2.9731493   -2.9731493   -1.7035908   0.06677142   -2.9731493    1.2695586   547498 
 3551000    1.0026876   -2.9737186   -2.9737186   -1.7033472  0.063479384   -2.9737186    1.2703714   547498 
 3552000    1.0029576   -2.9735109   -2.9735109   -1.7027974  0.065337376   -2.9735109    1.2707134   547498 
 3553000    1.0023361   -2.9731291   -2.9731291    -1.703203   0.06490701   -2.9731291    1.2699261   547498 
 3554000    1.0024039   -2.9727047   -2.9727047   -1.7026928  0.071144831   -2.9727047    1.2700119   547498 
 3555000    1.0010475   -2.9727324   -2.9727324   -1.7044389  0.067098372   -2.9727324    1.2682935   547498 
 3556000    1.0044703   -2.9762728   -2.9762728   -1.7036427  0.060956883   -2.9762728      1.27263   547498 
 3557000    1.0023705   -2.9735875   -2.9735875   -1.7036179  0.063107224   -2.9735875    1.2699696   547498 
 3558000    1.0024611   -2.9724996   -2.9724996   -1.7024151  0.066731632   -2.9724996    1.2700845   547498 
 3559000    1.0030957   -2.9734233   -2.9734233   -1.7025348  0.070764081   -2.9734233    1.2708885   547498 
 3560000    1.0032252   -2.9729144   -2.9729144   -1.7018619  0.070556944   -2.9729144    1.2710525   547498 
 3561000    1.0032808   -2.9730416   -2.9730416   -1.7019187  0.063617428   -2.9730416     1.271123   547498 
 3562000    1.0022889   -2.9718788   -2.9718788   -1.7020125  0.063197788   -2.9718788    1.2698663   547498 
 3563000    1.0031692   -2.9723728   -2.9723728   -1.7013912   0.06854361   -2.9723728    1.2709815   547498 
 3564000    1.0024344   -2.9723114   -2.9723114   -1.7022609  0.066578962   -2.9723114    1.2700505   547498 
 3565000    1.0017577    -2.971318    -2.971318   -1.7021249  0.075455546    -2.971318    1.2691932   547498 
 3566000    1.0031399   -2.9723107   -2.9723107   -1.7013663  0.062065466   -2.9723107    1.2709444   547498 
 3567000    1.0024939   -2.9719467   -2.9719467   -1.7018207  0.069559576   -2.9719467     1.270126   547498 
 3568000    1.0023695   -2.9730015   -2.9730015   -1.7030331  0.068731167   -2.9730015    1.2699684   547498 
 3569000     1.002621   -2.9723166   -2.9723166   -1.7020296  0.076811766   -2.9723166     1.270287   547498 
 3570000    1.0012041   -2.9700977   -2.9700977   -1.7016059  0.066367653   -2.9700977    1.2684918   547498 
 3571000    1.0018755   -2.9711502   -2.9711502   -1.7018077  0.070026262   -2.9711502    1.2693425   547498 
 3572000    1.0010026   -2.9702916   -2.9702916    -1.702055  0.062416386   -2.9702916    1.2682366   547498 
 3573000    1.0020013   -2.9712632   -2.9712632   -1.7017614   0.07492998   -2.9712632    1.2695018   547498 
 3574000     1.001366   -2.9704912   -2.9704912   -1.7017942  0.068148385   -2.9704912     1.268697   547498 
 3575000   0.99980205   -2.9700045   -2.9700045   -1.7032891  0.060761379   -2.9700045    1.2667155   547498 
 3576000   0.99915288   -2.9694273   -2.9694273   -1.7035343  0.071980761   -2.9694273     1.265893   547498 
 3577000   0.99987969   -2.9692863   -2.9692863   -1.7024725  0.058030157   -2.9692863    1.2668138   547498 
 3578000   0.99969359    -2.970394    -2.970394    -1.703816  0.059248339    -2.970394    1.2665781   547498 
 3579000    1.0019254   -2.9730265   -2.9730265   -1.7036208  0.061160595   -2.9730265    1.2694057   547498 
 3580000    1.0011502   -2.9718411   -2.9718411   -1.7034176  0.050556181   -2.9718411    1.2684235   547498 
 3581000    1.0014837   -2.9722467   -2.9722467   -1.7034007  0.069033791   -2.9722467     1.268846   547498 
 3582000     1.000419   -2.9702323   -2.9702323   -1.7027352  0.060457754   -2.9702323    1.2674972   547498 
 3583000    1.0017361   -2.9717012   -2.9717012   -1.7025354  0.063160527   -2.9717012    1.2691658   547498 
 3584000    1.0027328   -2.9719339   -2.9719339   -1.7015052  0.061517859   -2.9719339    1.2704287   547498 
 3585000    1.0042352   -2.9732622   -2.9732622   -1.7009302  0.070187234   -2.9732622    1.2723321   547498 
 3586000    1.0029815    -2.971761    -2.971761   -1.7010172  0.065006028    -2.971761    1.2707438   547498 
 3587000    1.0033618   -2.9726019   -2.9726019   -1.7013764  0.062763738   -2.9726019    1.2712255   547498 
 3588000    1.0024603   -2.9724207   -2.9724207   -1.7023372  0.064054651   -2.9724207    1.2700834   547498 
 3589000    1.0040582   -2.9740028   -2.9740028   -1.7018949  0.058914375   -2.9740028    1.2721079   547498 
 3590000     1.002503   -2.9711978   -2.9711978   -1.7010602  0.067197642   -2.9711978    1.2701375   547498 
 3591000    1.0035313   -2.9719109   -2.9719109   -1.7004706   0.07133277   -2.9719109    1.2714403   547498 
 3592000    1.0011787   -2.9711104   -2.9711104   -1.7026507  0.064276209   -2.9711104    1.2684597   547498 
 3593000    1.0025975   -2.9729741   -2.9729741   -1.7027168  0.067235528   -2.9729741    1.2702573   547498 
 3594000    1.0024495   -2.9733673   -2.9733673   -1.7032976  0.064557439   -2.9733673    1.2700697   547498 
 3595000    1.0010051   -2.9709149   -2.9709149   -1.7026751   0.07074298   -2.9709149    1.2682398   547498 
 3596000    1.0021365   -2.9737551   -2.9737551    -1.704082  0.065146456   -2.9737551    1.2696731   547498 
 3597000   0.99991029   -2.9705077   -2.9705077   -1.7036551  0.061688515   -2.9705077    1.2668526   547498 
 3598000    1.0008871   -2.9711024   -2.9711024   -1.7030122  0.054855522   -2.9711024    1.2680902   547498 
 3599000    1.0023825   -2.9732621   -2.9732621   -1.7032772  0.068760897   -2.9732621    1.2699849   547498 
 3600000    1.0014401    -2.972788    -2.972788   -1.7039972   0.06561241    -2.972788    1.2687908   547498 
 3601000    1.0014952   -2.9720882   -2.9720882   -1.7032275  0.063766865   -2.9720882    1.2688607   547498 
 3602000     1.000676   -2.9714214   -2.9714214   -1.7035987  0.052063579   -2.9714214    1.2678227   547498 
 3603000    1.0011707   -2.9720331   -2.9720331   -1.7035836  0.067322932   -2.9720331    1.2684495   547498 
 3604000    1.0012988   -2.9714911   -2.9714911   -1.7028793  0.064075072   -2.9714911    1.2686118   547498 
 3605000    1.0028533   -2.9736964   -2.9736964   -1.7031151   0.06393643   -2.9736964    1.2705813   547498 
 3606000    1.0026154   -2.9733837   -2.9733837   -1.7031038  0.059966468   -2.9733837    1.2702799   547498 
 3607000     1.000727   -2.9706205   -2.9706205   -1.7027332  0.074188775   -2.9706205    1.2678873   547498 
 3608000    1.0007802   -2.9713751   -2.9713751   -1.7034204  0.069105353   -2.9713751    1.2679548   547498 
 3609000    1.0012429    -2.971353    -2.971353    -1.702812  0.062829162    -2.971353     1.268541   547498 
 3610000    1.0005812     -2.97033     -2.97033   -1.7026274  0.068509029     -2.97033    1.2677026   547498 
 3611000    1.0018019   -2.9723112   -2.9723112    -1.703062  0.063233434   -2.9723112    1.2692492   547498 
 3612000    1.0027679   -2.9723636   -2.9723636   -1.7018905  0.060857565   -2.9723636    1.2704731   547498 
 3613000     1.002667   -2.9721131   -2.9721131   -1.7017678  0.065347727   -2.9721131    1.2703453   547498 
 3614000    1.0025031   -2.9721376   -2.9721376       -1.702  0.062201659   -2.9721376    1.2701377   547498 
 3615000    1.0021682   -2.9713982   -2.9713982   -1.7016849  0.072654616   -2.9713982    1.2697133   547498 
 3616000    1.0016785   -2.9714426   -2.9714426   -1.7023497  0.066937183   -2.9714426    1.2690929   547498 
 3617000    1.0013295   -2.9712146   -2.9712146   -1.7025639   0.06587686   -2.9712146    1.2686507   547498 
 3618000     1.002379   -2.9730842   -2.9730842   -1.7031039  0.061529631   -2.9730842    1.2699804   547498 
 3619000    1.0015514   -2.9727335   -2.9727335   -1.7038017  0.058769784   -2.9727335    1.2689318   547498 
 3620000   0.99981975   -2.9702426   -2.9702426   -1.7035047  0.059165222   -2.9702426    1.2667379   547498 
 3621000    1.0009139   -2.9706101   -2.9706101    -1.702486  0.068899357   -2.9706101    1.2681241   547498 
 3622000    1.0013892   -2.9718096   -2.9718096   -1.7030832  0.065356479   -2.9718096    1.2687264   547498 
 3623000    1.0014222   -2.9723709   -2.9723709   -1.7036027  0.069488134   -2.9723709    1.2687682   547498 
 3624000    1.0015182   -2.9739853   -2.9739853   -1.7050956  0.062028839   -2.9739853    1.2688898   547498 
 3625000   0.99875993   -2.9714168   -2.9714168   -1.7060217  0.061579434   -2.9714168    1.2653951   547498 
 3626000    1.0012275   -2.9730984   -2.9730984    -1.704577  0.056276973   -2.9730984    1.2685214   547498 
 3627000    1.0013366   -2.9737945   -2.9737945   -1.7051348  0.056074215   -2.9737945    1.2686597   547498 
 3628000    1.0022919   -2.9743094   -2.9743094   -1.7044393  0.058746157   -2.9743094      1.26987   547498 
 3629000    1.0018141   -2.9732177   -2.9732177    -1.703953  0.063479239   -2.9732177    1.2692647   547498 
 3630000    1.0011977   -2.9725709   -2.9725709   -1.7040873  0.067367961   -2.9725709    1.2684837   547498 
 3631000    1.0030539   -2.9746696   -2.9746696   -1.7038342  0.062307691   -2.9746696    1.2708354   547498 
 3632000    0.9999385   -2.9717576   -2.9717576   -1.7048693  0.073978608   -2.9717576    1.2668884   547498 
 3633000    1.0021867   -2.9742228   -2.9742228   -1.7044861  0.062719358   -2.9742228    1.2697367   547498 
 3634000    1.0029416   -2.9751707   -2.9751707   -1.7044774  0.066381871   -2.9751707    1.2706932   547498 
 3635000    1.0033681   -2.9753255   -2.9753255   -1.7040919  0.064107436   -2.9753255    1.2712336   547498 
 3636000    1.0043437   -2.9767074   -2.9767074   -1.7042378  0.069855786   -2.9767074    1.2724696   547498 
 3637000    1.0042053    -2.976848    -2.976848   -1.7045538  0.070544569    -2.976848    1.2722942   547498 
 3638000    1.0029817   -2.9750926   -2.9750926   -1.7043487    0.0655138   -2.9750926     1.270744   547498 
 3639000    1.0035141   -2.9742596   -2.9742596    -1.702841  0.064094541   -2.9742596    1.2714185   547498 
 3640000    1.0038199   -2.9754865   -2.9754865   -1.7036805  0.066464944   -2.9754865     1.271806   547498 
 3641000    1.0028098   -2.9737001   -2.9737001   -1.7031738  0.064890248   -2.9737001    1.2705263   547498 
 3642000    1.0015121   -2.9720619   -2.9720619   -1.7031799  0.064903451   -2.9720619     1.268882   547498 
 3643000    1.0038803   -2.9749896   -2.9749896   -1.7031071  0.069337619   -2.9749896    1.2718825   547498 
 3644000    1.0034065   -2.9738817   -2.9738817   -1.7025995   0.08286348   -2.9738817    1.2712822   547498 
 3645000    1.0018241   -2.9719638   -2.9719638   -1.7026865  0.074103485   -2.9719638    1.2692774   547498 
 3646000    1.0037471   -2.9742723   -2.9742723   -1.7025586  0.065762732   -2.9742723    1.2717137   547498 
 3647000    1.0028913   -2.9729376   -2.9729376   -1.7023081  0.075104084   -2.9729376    1.2706295   547498 
 3648000    1.0026216   -2.9721828   -2.9721828   -1.7018951  0.069939263   -2.9721828    1.2702877   547498 
 3649000    1.0009883   -2.9706366   -2.9706366   -1.7024182  0.071415865   -2.9706366    1.2682185   547498 
 3650000    1.0032479   -2.9733033   -2.9733033    -1.702222   0.07081344   -2.9733033    1.2710812   547498 
 3651000    1.0025004   -2.9730645   -2.9730645   -1.7029304  0.062358353   -2.9730645    1.2701342   547498 
 3652000    1.0017152   -2.9704197   -2.9704197   -1.7012804  0.069123164   -2.9704197    1.2691393   547498 
 3653000    1.0025684   -2.9712452   -2.9712452   -1.7010248  0.070121463   -2.9712452    1.2702203   547498 
 3654000    1.0023067   -2.9714478   -2.9714478    -1.701559  0.069196263   -2.9714478    1.2698888   547498 
 3655000    1.0028019   -2.9718532   -2.9718532    -1.701337  0.069390524   -2.9718532    1.2705162   547498 
 3656000    1.0014987   -2.9703083   -2.9703083   -1.7014432  0.070566166   -2.9703083    1.2688651   547498 
 3657000    1.0026958   -2.9711385   -2.9711385   -1.7007568   0.05551423   -2.9711385    1.2703818   547498 
 3658000    1.0013568   -2.9697852   -2.9697852   -1.7010998  0.067009795   -2.9697852    1.2686853   547498 
 3659000    1.0016697   -2.9704753   -2.9704753   -1.7013936  0.059030137   -2.9704753    1.2690817   547498 
 3660000    1.0028307   -2.9708458   -2.9708458   -1.7002931  0.058716016   -2.9708458    1.2705527   547498 
 3661000    1.0023125   -2.9703601   -2.9703601   -1.7004641  0.064248143   -2.9703601    1.2698961   547498 
 3662000    1.0006377   -2.9682863   -2.9682863    -1.700512  0.063045091   -2.9682863    1.2677742   547498 
 3663000    1.0019514   -2.9694034   -2.9694034   -1.6999647   0.07075335   -2.9694034    1.2694386   547498 
 3664000    1.0015998   -2.9695303   -2.9695303   -1.7005371  0.058634679   -2.9695303    1.2689932   547498 
 3665000    1.0004563   -2.9685103   -2.9685103   -1.7009659  0.067813444   -2.9685103    1.2675444   547498 
 3666000    1.0008214   -2.9683368   -2.9683368   -1.7003297  0.067490616   -2.9683368     1.268007   547498 
 3667000    1.0009411    -2.969709    -2.969709   -1.7015504  0.064901011    -2.969709    1.2681586   547498 
 3668000     1.001001   -2.9689392   -2.9689392   -1.7007048  0.061829011   -2.9689392    1.2682344   547498 
 3669000    1.0013259   -2.9689297   -2.9689297   -1.7002836  0.067510987   -2.9689297    1.2686461   547498 
 3670000     1.002163   -2.9702563   -2.9702563   -1.7005497   0.06162023   -2.9702563    1.2697067   547498 
 3671000    1.0000355   -2.9687464   -2.9687464   -1.7017351  0.068843307   -2.9687464    1.2670112   547498 
 3672000    1.0017288   -2.9688902   -2.9688902   -1.6997335  0.067453067   -2.9688902    1.2691567   547498 
 3673000    1.0024546   -2.9698457   -2.9698457   -1.6997695  0.061483034   -2.9698457    1.2700761   547498 
 3674000    1.0025103    -2.969842    -2.969842   -1.6996953  0.061965052    -2.969842    1.2701467   547498 
 3675000    1.0018867   -2.9691337   -2.9691337   -1.6997771  0.071659472   -2.9691337    1.2693566   547498 
 3676000    1.0023751   -2.9702781   -2.9702781   -1.7003027  0.070968128   -2.9702781    1.2699754   547498 
 3677000    1.0047539   -2.9728204   -2.9728204   -1.6998311   0.06863121   -2.9728204    1.2729893   547498 
 3678000    1.0035469   -2.9718418   -2.9718418   -1.7003817  0.073867146   -2.9718418    1.2714601   547498 
 3679000     1.003478   -2.9713658   -2.9713658    -1.699993  0.071796859   -2.9713658    1.2713728   547498 
 3680000    1.0054311   -2.9734721   -2.9734721   -1.6996248  0.071614883   -2.9734721    1.2738473   547498 
 3681000    1.0031739   -2.9711915   -2.9711915   -1.7002041  0.078771672   -2.9711915    1.2709874   547498 
 3682000    1.0033988   -2.9720517   -2.9720517   -1.7007792  0.064976726   -2.9720517    1.2712724   547498 
 3683000    1.0028189   -2.9721561   -2.9721561   -1.7016184  0.078569412   -2.9721561    1.2705377   547498 
 3684000    1.0017591   -2.9712522   -2.9712522   -1.7020571  0.069415308   -2.9712522     1.269195   547498 
 3685000      1.00178   -2.9720546   -2.9720546   -1.7028331  0.063577725   -2.9720546    1.2692215   547498 
 3686000    1.0023144   -2.9731379   -2.9731379   -1.7032394  0.067575741   -2.9731379    1.2698985   547498 
 3687000    1.0022314   -2.9735348   -2.9735348   -1.7037415  0.066668707   -2.9735348    1.2697933   547498 
 3688000    1.0011389   -2.9726936   -2.9726936   -1.7042845  0.064346955   -2.9726936    1.2684092   547498 
 3689000    1.0024907   -2.9740223   -2.9740223   -1.7039004   0.06190298   -2.9740223    1.2701219   547498 
 3690000     1.003139   -2.9730817   -2.9730817   -1.7021385  0.059566028   -2.9730817    1.2709432   547498 
 3691000    1.0032315   -2.9741908   -2.9741908   -1.7031303  0.065681648   -2.9741908    1.2710604   547498 
 3692000    1.0024341   -2.9734643   -2.9734643    -1.703414  0.067569723   -2.9734643    1.2700502   547498 
 3693000    1.0013025    -2.971466    -2.971466   -1.7028495  0.069433789    -2.971466    1.2686165   547498 
 3694000    1.0024524   -2.9725898   -2.9725898   -1.7025165  0.055382361   -2.9725898    1.2700733   547498 
 3695000    1.0038519    -2.973965    -2.973965   -1.7021185  0.068165447    -2.973965    1.2718465   547498 
 3696000    1.0023769    -2.971987    -2.971987   -1.7020092  0.067163625    -2.971987    1.2699778   547498 
 3697000    1.0030808   -2.9725174   -2.9725174   -1.7016479  0.064499243   -2.9725174    1.2708696   547498 
 3698000    1.0029604   -2.9731506   -2.9731506   -1.7024336  0.068766955   -2.9731506     1.270717   547498 
 3699000    1.0021211   -2.9730358   -2.9730358   -1.7033821  0.065540266   -2.9730358    1.2696536   547498 
 3700000    1.0018309   -2.9723641   -2.9723641   -1.7030781   0.06490066   -2.9723641     1.269286   547498 
 3701000    1.0028051   -2.9736319   -2.9736319   -1.7031117  0.067464408   -2.9736319    1.2705202   547498 
 3702000    1.0014798   -2.9718273   -2.9718273   -1.7029862  0.063510183   -2.9718273    1.2688411   547498 
 3703000    1.0002104   -2.9709724   -2.9709724   -1.7037396  0.066455205   -2.9709724    1.2672328   547498 
 3704000    1.0020377   -2.9729043   -2.9729043   -1.7033563  0.071395174   -2.9729043     1.269548   547498 
 3705000    1.0021132   -2.9724877   -2.9724877   -1.7028441    0.0678816   -2.9724877    1.2696437   547498 
 3706000     1.002296   -2.9731335   -2.9731335   -1.7032582  0.067197382   -2.9731335    1.2698753   547498 
 3707000    1.0024986   -2.9728962   -2.9728962   -1.7027643  0.073280046   -2.9728962    1.2701319   547498 
 3708000    1.0024216   -2.9720597   -2.9720597   -1.7020254  0.061122834   -2.9720597    1.2700344   547498 
 3709000    1.0042779   -2.9735868   -2.9735868   -1.7012006  0.065349114   -2.9735868    1.2723862   547498 
 3710000    1.0042297   -2.9734878   -2.9734878   -1.7011626   0.06575367   -2.9734878    1.2723251   547498 
 3711000    1.0026783   -2.9716962   -2.9716962   -1.7013366  0.062588736   -2.9716962    1.2703595   547498 
 3712000    1.0023763   -2.9710896   -2.9710896   -1.7011126  0.068411625   -2.9710896     1.269977   547498 
 3713000    1.0020375   -2.9709496   -2.9709496   -1.7014019  0.067088252   -2.9709496    1.2695477   547498 
 3714000    1.0023998   -2.9712135   -2.9712135   -1.7012067  0.065815981   -2.9712135    1.2700068   547498 
 3715000    1.0021489   -2.9713307   -2.9713307   -1.7016418  0.065279804   -2.9713307    1.2696889   547498 
 3716000     1.003109   -2.9727699   -2.9727699   -1.7018646   0.06413651   -2.9727699    1.2709052   547498 
 3717000    1.0024821    -2.972192    -2.972192    -1.702081  0.058645124    -2.972192     1.270111   547498 
 3718000    1.0022493   -2.9716915   -2.9716915   -1.7018753  0.064208061   -2.9716915    1.2698161   547498 
 3719000    1.0034527   -2.9722789   -2.9722789   -1.7009382   0.06525673   -2.9722789    1.2713408   547498 
 3720000    1.0023167   -2.9709215   -2.9709215     -1.70102  0.068106473   -2.9709215    1.2699015   547498 
 3721000    1.0017064   -2.9705562   -2.9705562    -1.701428  0.062311922   -2.9705562    1.2691282   547498 
 3722000    1.0034799   -2.9719536   -2.9719536   -1.7005784  0.064047626   -2.9719536    1.2713752   547498 
 3723000    1.0039401   -2.9736172   -2.9736172    -1.701659  0.065173625   -2.9736172    1.2719583   547498 
 3724000    1.0031502   -2.9715463   -2.9715463   -1.7005889  0.064135435   -2.9715463    1.2709574   547498 
 3725000    1.0030993   -2.9722726   -2.9722726   -1.7013796  0.068402983   -2.9722726     1.270893   547498 
 3726000    1.0007458   -2.9695915   -2.9695915   -1.7016804  0.069228234   -2.9695915    1.2679111   547498 
 3727000    1.0017305   -2.9700254   -2.9700254   -1.7008666  0.064356688   -2.9700254    1.2691588   547498 
 3728000    1.0028469   -2.9708877   -2.9708877   -1.7003145  0.062764109   -2.9708877    1.2705732   547498 
 3729000    1.0005206   -2.9682679   -2.9682679    -1.700642  0.066670575   -2.9682679    1.2676259   547498 
 3730000    1.0022536   -2.9698309   -2.9698309   -1.7000094  0.063562282   -2.9698309    1.2698215   547498 
 3731000    1.0007895   -2.9683679   -2.9683679   -1.7004013  0.060893041   -2.9683679    1.2679665   547498 
 3732000    1.0018962   -2.9703623   -2.9703623   -1.7009937  0.064888556   -2.9703623    1.2693687   547498 
 3733000    1.0005191    -2.968835    -2.968835   -1.7012111  0.060418807    -2.968835    1.2676239   547498 
 3734000    1.0013837   -2.9703229   -2.9703229   -1.7016035  0.069522883   -2.9703229    1.2687194   547498 
 3735000    1.0015763   -2.9702691   -2.9702691   -1.7013057  0.058093474   -2.9702691    1.2689634   547498 
 3736000    1.0010383   -2.9696086   -2.9696086   -1.7013268  0.067630149   -2.9696086    1.2682818   547498 
 3737000    1.0005299   -2.9687515   -2.9687515   -1.7011138  0.068163639   -2.9687515    1.2676377   547498 
 3738000    1.0025082   -2.9709619   -2.9709619   -1.7008178  0.075387402   -2.9709619    1.2701441   547498 
 3739000    1.0006149     -2.96862     -2.96862   -1.7008746  0.068529648     -2.96862    1.2677454   547498 
 3740000    1.0015773   -2.9707618   -2.9707618   -1.7017972  0.067980104   -2.9707618    1.2689646   547498 
 3741000    1.0014545    -2.970843    -2.970843   -1.7020339  0.072792921    -2.970843     1.268809   547498 
 3742000    1.0028222   -2.9720192   -2.9720192   -1.7014773  0.057708597   -2.9720192    1.2705419   547498 
 3743000    1.0023597   -2.9705352   -2.9705352   -1.7005793  0.070570539   -2.9705352     1.269956   547498 
 3744000    1.0005848   -2.9684346   -2.9684346   -1.7007274   0.06998773   -2.9684346    1.2677072   547498 
 3745000    1.0020252    -2.970508    -2.970508   -1.7009759  0.052679928    -2.970508    1.2695321   547498 
 3746000     1.000696   -2.9693779   -2.9693779   -1.7015298  0.060740316   -2.9693779     1.267848   547498 
 3747000    1.0005358   -2.9685991   -2.9685991   -1.7009541  0.070407014   -2.9685991    1.2676451   547498 
 3748000    1.0019036   -2.9710529   -2.9710529   -1.7016748  0.063892719   -2.9710529     1.269378   547498 
 3749000    1.0015657   -2.9705494   -2.9705494   -1.7015995  0.066485348   -2.9705494      1.26895   547498 
 3750000    1.0015008   -2.9703367   -2.9703367    -1.701469  0.069500266   -2.9703367    1.2688678   547498 
 3751000    1.0007221   -2.9698285   -2.9698285   -1.7019474  0.065928968   -2.9698285    1.2678811   547498 
 3752000    1.0015995   -2.9709786   -2.9709786   -1.7019858  0.063792479   -2.9709786    1.2689928   547498 
 3753000    1.0029699   -2.9726301   -2.9726301   -1.7019011  0.062467913   -2.9726301    1.2707291   547498 
 3754000    1.0023337   -2.9714885   -2.9714885   -1.7015654  0.071566724   -2.9714885     1.269923   547498 
 3755000    1.0016793    -2.971151    -2.971151   -1.7020571  0.068611564    -2.971151    1.2690939   547498 
 3756000    1.0010935   -2.9701856   -2.9701856    -1.701834  0.061562029   -2.9701856    1.2683517   547498 
 3757000    1.0027965   -2.9721126   -2.9721126   -1.7016033  0.065107798   -2.9721126    1.2705093   547498 
 3758000     1.003944   -2.9735302   -2.9735302   -1.7015671  0.067661523   -2.9735302    1.2719631   547498 
 3759000    1.0028735    -2.972117    -2.972117     -1.70151  0.068847227    -2.972117    1.2706069   547498 
 3760000    1.0028069   -2.9720194   -2.9720194   -1.7014969  0.060254493   -2.9720194    1.2705225   547498 
 3761000    1.0014887     -2.97047     -2.97047   -1.7016176  0.065194753     -2.97047    1.2688524   547498 
 3762000    1.0040879   -2.9725284   -2.9725284   -1.7003829  0.064700962   -2.9725284    1.2721455   547498 
 3763000    1.0032276   -2.9716104   -2.9716104   -1.7005549  0.072270012   -2.9716104    1.2710555   547498 
 3764000     1.004091   -2.9738566   -2.9738566   -1.7017072  0.075313348   -2.9738566    1.2721494   547498 
 3765000    1.0037895   -2.9732687   -2.9732687   -1.7015013  0.066248271   -2.9732687    1.2717674   547498 
 3766000    1.0018199   -2.9715843   -2.9715843   -1.7023123  0.064554551   -2.9715843     1.269272   547498 
 3767000    1.0024527   -2.9720702   -2.9720702   -1.7019964  0.063850343   -2.9720702    1.2700738   547498 
 3768000   0.99986736   -2.9697447   -2.9697447   -1.7029464  0.067532808   -2.9697447    1.2667982   547498 
 3769000    1.0012986   -2.9717955   -2.9717955    -1.703184  0.055765172   -2.9717955    1.2686115   547498 
 3770000     1.001328    -2.970999    -2.970999   -1.7023502  0.056744484    -2.970999    1.2686488   547498 
 3771000    1.0023242   -2.9730545   -2.9730545   -1.7031435  0.063013507   -2.9730545     1.269911   547498 
 3772000    1.0023025   -2.9729363   -2.9729363   -1.7030528   0.05863616   -2.9729363    1.2698834   547498 
 3773000    1.0007421   -2.9712635   -2.9712635   -1.7033569  0.062473958   -2.9712635    1.2679065   547498 
 3774000    1.0003009   -2.9708478   -2.9708478   -1.7035004   0.06200382   -2.9708478    1.2673475   547498 
 3775000    1.0018025   -2.9715222   -2.9715222   -1.7022721  0.061472765   -2.9715222      1.26925   547498 
 3776000    1.0023596   -2.9717242   -2.9717242   -1.7017684  0.070409204   -2.9717242    1.2699558   547498 
 3777000    1.0039556   -2.9734173   -2.9734173   -1.7014394  0.069677362   -2.9734173    1.2719779   547498 
 3778000     1.004154   -2.9742163   -2.9742163    -1.701987  0.068043104   -2.9742163    1.2722293   547498 
 3779000     1.002545   -2.9731825   -2.9731825   -1.7029918  0.069502948   -2.9731825    1.2701906   547498 
 3780000    1.0041877   -2.9743599   -2.9743599    -1.702088  0.069458632   -2.9743599     1.272272   547498 
 3781000    1.0016651   -2.9720735   -2.9720735   -1.7029975  0.071045806   -2.9720735    1.2690759   547498 
 3782000     1.003045    -2.973354    -2.973354   -1.7025298  0.065785656    -2.973354    1.2708241   547498 
 3783000     1.001638   -2.9706978   -2.9706978   -1.7016562  0.076092252   -2.9706978    1.2690415   547498 
 3784000    1.0018881   -2.9710431   -2.9710431   -1.7016846  0.063555578   -2.9710431    1.2693585   547498 
 3785000    1.0023608   -2.9717095   -2.9717095   -1.7017522  0.063507667   -2.9717095    1.2699573   547498 
 3786000    1.0030858   -2.9717566   -2.9717566   -1.7008806  0.066772971   -2.9717566    1.2708759   547498 
 3787000    1.0030292   -2.9722359   -2.9722359   -1.7014317  0.060557501   -2.9722359    1.2708042   547498 
 3788000    1.0019897   -2.9714988   -2.9714988   -1.7020116  0.064999717   -2.9714988    1.2694872   547498 
 3789000    1.0038799   -2.9740567   -2.9740567   -1.7021747  0.063458562   -2.9740567    1.2718819   547498 
 3790000    1.0029695   -2.9733233   -2.9733233   -1.7025947   0.06310801   -2.9733233    1.2707286   547498 
 3791000     1.002359   -2.9719716   -2.9719716   -1.7020165   0.06884283   -2.9719716     1.269955   547498 
 3792000    1.0019817   -2.9711911   -2.9711911   -1.7017141  0.064386452   -2.9711911     1.269477   547498 
 3793000    1.0033927   -2.9733194   -2.9733194   -1.7020547  0.064158088   -2.9733194    1.2712647   547498 
 3794000    1.0025625    -2.971771    -2.971771   -1.7015581  0.072884951    -2.971771    1.2702129   547498 
 3795000    1.0027188   -2.9718379   -2.9718379   -1.7014271   0.07182552   -2.9718379    1.2704108   547498 
 3796000    1.0038728   -2.9724057   -2.9724057   -1.7005327  0.071768825   -2.9724057     1.271873   547498 
 3797000    1.0014577   -2.9704789   -2.9704789   -1.7016658  0.060863078   -2.9704789    1.2688132   547498 
 3798000     1.001555   -2.9702941   -2.9702941   -1.7013576  0.068645909   -2.9702941    1.2689365   547498 
 3799000    1.0023237   -2.9711037   -2.9711037   -1.7011934    0.0666773   -2.9711037    1.2699103   547498 
 3800000    1.0023303   -2.9707566   -2.9707566   -1.7008378  0.061533056   -2.9707566    1.2699187   547498 
 3801000    1.0021932   -2.9705461   -2.9705461   -1.7008011  0.068584193   -2.9705461     1.269745   547498 
 3802000    1.0013955    -2.970035    -2.970035   -1.7013007  0.073079595    -2.970035    1.2687343   547498 
 3803000    1.0014447   -2.9690079   -2.9690079   -1.7002112   0.07359737   -2.9690079    1.2687967   547498 
 3804000    1.0027098   -2.9694739   -2.9694739   -1.6990743  0.060124435   -2.9694739    1.2703995   547498 
 3805000    1.0037354   -2.9691233   -2.9691233   -1.6974243  0.072336597   -2.9691233     1.271699   547498 
 3806000    1.0048531   -2.9704571   -2.9704571   -1.6973421  0.076013701   -2.9704571     1.273115   547498 
 3807000    1.0039412   -2.9700587   -2.9700587    -1.698099  0.064377231   -2.9700587    1.2719596   547498 
 3808000    1.0029215   -2.9691941   -2.9691941   -1.6985264   0.07175736   -2.9691941    1.2706678   547498 
 3809000    1.0031057   -2.9695071   -2.9695071    -1.698606  0.060707461   -2.9695071    1.2709011   547498 
 3810000    1.0025049   -2.9682419   -2.9682419   -1.6981019  0.074490398   -2.9682419    1.2701399   547498 
 3811000    1.0031223   -2.9688168   -2.9688168   -1.6978947  0.076705494   -2.9688168    1.2709222   547498 
 3812000    1.0020727    -2.968547    -2.968547   -1.6989547  0.060469166    -2.968547    1.2695923   547498 
 3813000    1.0021353   -2.9682476   -2.9682476    -1.698576  0.054308562   -2.9682476    1.2696716   547498 
 3814000    1.0012081   -2.9673415   -2.9673415   -1.6988446  0.066519273   -2.9673415    1.2684969   547498 
 3815000   0.99997449   -2.9654679   -2.9654679   -1.6985339  0.060016562   -2.9654679     1.266934   547498 
 3816000    1.0007804    -2.966689    -2.966689    -1.698734  0.058208269    -2.966689     1.267955   547498 
 3817000    1.0005744   -2.9663285   -2.9663285   -1.6986344  0.064069917   -2.9663285    1.2676941   547498 
 3818000    1.0017486   -2.9678753   -2.9678753   -1.6986936  0.065583975   -2.9678753    1.2691817   547498 
 3819000    1.0008953   -2.9670019   -2.9670019   -1.6989014  0.067400496   -2.9670019    1.2681005   547498 
 3820000    1.0013857   -2.9679975   -2.9679975   -1.6992756  0.062616436   -2.9679975    1.2687219   547498 
 3821000    1.0037175   -2.9702051   -2.9702051   -1.6985288  0.064582531   -2.9702051    1.2716762   547498 
 3822000    1.0025905   -2.9691992   -2.9691992   -1.6989509  0.071665465   -2.9691992    1.2702484   547498 
 3823000    1.0029718   -2.9697193   -2.9697193   -1.6989878  0.068305944   -2.9697193    1.2707314   547498 
 3824000    1.0018674   -2.9677073   -2.9677073    -1.698375  0.064382136   -2.9677073    1.2693323   547498 
 3825000    1.0039471   -2.9697579   -2.9697579   -1.6977908  0.073335288   -2.9697579    1.2719671   547498 
 3826000    1.0032248   -2.9686993   -2.9686993   -1.6976473  0.070062069   -2.9686993     1.271052   547498 
 3827000    1.0040142   -2.9700245   -2.9700245   -1.6979724  0.067776662   -2.9700245    1.2720521   547498 
 3828000    1.0044063   -2.9715472   -2.9715472   -1.6989983  0.064989984   -2.9715472    1.2725489   547498 
 3829000    1.0040667   -2.9712327   -2.9712327    -1.699114  0.065831202   -2.9712327    1.2721187   547498 
 3830000    1.0038162   -2.9701634   -2.9701634   -1.6983622  0.067108159   -2.9701634    1.2718012   547498 
 3831000    1.0031367   -2.9703428   -2.9703428   -1.6994024  0.064502239   -2.9703428    1.2709404   547498 
 3832000    1.0026651   -2.9703045   -2.9703045   -1.6999617  0.064030469   -2.9703045    1.2703428   547498 
 3833000    1.0014103   -2.9689957   -2.9689957   -1.7002426  0.064495137   -2.9689957     1.268753   547498 
 3834000    1.0015251   -2.9697654   -2.9697654   -1.7008668  0.073061319   -2.9697654    1.2688986   547498 
 3835000    1.0022297   -2.9697796   -2.9697796   -1.6999884  0.062535059   -2.9697796    1.2697912   547498 
 3836000    1.0026128   -2.9707279   -2.9707279   -1.7004513  0.068917892   -2.9707279    1.2702766   547498 
 3837000    1.0021015   -2.9708301   -2.9708301   -1.7012013  0.069204056   -2.9708301    1.2696288   547498 
 3838000    1.0010643   -2.9693307   -2.9693307   -1.7010161  0.063400271   -2.9693307    1.2683147   547498 
 3839000    1.0031909   -2.9716737   -2.9716737   -1.7006647  0.060744586   -2.9716737     1.271009   547498 
 3840000    1.0032749   -2.9719061   -2.9719061   -1.7007906  0.062587834   -2.9719061    1.2711155   547498 
 3841000    1.0044255   -2.9721234   -2.9721234   -1.6995501  0.067355151   -2.9721234    1.2725733   547498 
 3842000    1.0031622   -2.9713639   -2.9713639   -1.7003913  0.070383964   -2.9713639    1.2709726   547498 
 3843000    1.0042815   -2.9724373   -2.9724373   -1.7000465   0.07067483   -2.9724373    1.2723908   547498 
 3844000    1.0046975   -2.9729967   -2.9729967   -1.7000789  0.072166672   -2.9729967    1.2729178   547498 
 3845000    1.0026361   -2.9707305   -2.9707305   -1.7004243   0.07566143   -2.9707305    1.2703062   547498 
 3846000    1.0024629   -2.9711571   -2.9711571   -1.7010705  0.067396812   -2.9711571    1.2700867   547498 
 3847000    1.0043464   -2.9726185   -2.9726185   -1.7001455   0.07082942   -2.9726185    1.2724731   547498 
 3848000    1.0044038   -2.9722699   -2.9722699   -1.6997241  0.070152212   -2.9722699    1.2725458   547498 
 3849000     1.002974   -2.9711247   -2.9711247   -1.7003904  0.067874902   -2.9711247    1.2707343   547498 
 3850000    1.0043227   -2.9718704   -2.9718704   -1.6994274  0.063186047   -2.9718704     1.272443   547498 
 3851000    1.0035768    -2.970698    -2.970698   -1.6992001  0.062250696    -2.970698    1.2714979   547498 
 3852000    1.0023099   -2.9689427   -2.9689427   -1.6990498  0.073037536   -2.9689427    1.2698928   547498 
 3853000    1.0031883   -2.9697624   -2.9697624   -1.6987567  0.063629063   -2.9697624    1.2710057   547498 
 3854000    1.0031123   -2.9696603   -2.9696603   -1.6987508  0.064034448   -2.9696603    1.2709095   547498 
 3855000    1.0043187   -2.9719682   -2.9719682   -1.6995303  0.062627859   -2.9719682    1.2724379   547498 
 3856000    1.0023135   -2.9691964   -2.9691964    -1.699299  0.066077941   -2.9691964    1.2698974   547498 
 3857000    1.0022908    -2.968695    -2.968695   -1.6988263  0.055430562    -2.968695    1.2698687   547498 
 3858000     1.001962   -2.9679895   -2.9679895   -1.6985374  0.071418675   -2.9679895    1.2694521   547498 
 3859000    1.0015726   -2.9682428   -2.9682428   -1.6992841  0.089218384   -2.9682428    1.2689588   547498 
 3860000    1.0029267   -2.9692866   -2.9692866   -1.6986123  0.055051932   -2.9692866    1.2706743   547498 
 3861000    1.0024951   -2.9684334   -2.9684334   -1.6983059  0.069704602   -2.9684334    1.2701275   547498 
 3862000    1.0014706    -2.967678    -2.967678   -1.6988485  0.060691945    -2.967678    1.2688295   547498 
 3863000    1.0017084   -2.9686447   -2.9686447   -1.6995139  0.055163313   -2.9686447    1.2691308   547498 
 3864000     1.000779    -2.967201    -2.967201   -1.6992478  0.059651571    -2.967201    1.2679532   547498 
 3865000    1.0007223   -2.9665678   -2.9665678   -1.6986864  0.065175453   -2.9665678    1.2678814   547498 
 3866000     1.000123   -2.9652389   -2.9652389   -1.6981167  0.065781202   -2.9652389    1.2671222   547498 
 3867000    1.0029786   -2.9682222   -2.9682222   -1.6974822  0.052344597   -2.9682222      1.27074   547498 
 3868000     1.000348    -2.966173    -2.966173   -1.6987659  0.058337308    -2.966173    1.2674072   547498 
 3869000    1.0018814   -2.9672556   -2.9672556   -1.6979057  0.059012476   -2.9672556    1.2693499   547498 
 3870000     1.003507   -2.9683811   -2.9683811   -1.6969715  0.066896001   -2.9683811    1.2714095   547498 
 3871000     1.000977   -2.9654618   -2.9654618   -1.6972577  0.062644789   -2.9654618    1.2682041   547498 
 3872000    1.0025462   -2.9669177   -2.9669177   -1.6967255  0.067962986   -2.9669177    1.2701922   547498 
 3873000    1.0045769   -2.9691747   -2.9691747   -1.6964097  0.075328163   -2.9691747    1.2727651   547498 
 3874000    1.0031733   -2.9690311   -2.9690311   -1.6980443  0.066047869   -2.9690311    1.2709868   547498 
 3875000    1.0049864   -2.9698277   -2.9698277   -1.6965438  0.060117221   -2.9698277    1.2732839   547498 
 3876000    1.0043622   -2.9698326   -2.9698326   -1.6973395  0.064031569   -2.9698326     1.272493   547498 
 3877000    1.0022876    -2.968846    -2.968846   -1.6989814  0.067648247    -2.968846    1.2698646   547498 
 3878000    1.0031012   -2.9690668   -2.9690668   -1.6981714  0.056936118   -2.9690668    1.2708954   547498 
 3879000    1.0021875   -2.9671325   -2.9671325   -1.6973947  0.080726877   -2.9671325    1.2697378   547498 
 3880000    1.0020755   -2.9671648   -2.9671648    -1.697569  0.070771011   -2.9671648    1.2695958   547498 
 3881000    1.0013167   -2.9665333   -2.9665333   -1.6978988  0.069019135   -2.9665333    1.2686345   547498 
 3882000    1.0031988   -2.9703271   -2.9703271   -1.6993081  0.068963664   -2.9703271     1.271019   547498 
 3883000    1.0031149    -2.970271    -2.970271   -1.6993583  0.061836596    -2.970271    1.2709128   547498 
 3884000    1.0035896   -2.9710946   -2.9710946   -1.6995805  0.062847537   -2.9710946    1.2715141   547498 
 3885000    1.0032654   -2.9706768   -2.9706768   -1.6995734  0.059457571   -2.9706768    1.2711034   547498 
 3886000    1.0015074    -2.969856    -2.969856   -1.7009798   0.06861556    -2.969856    1.2688761   547498 
 3887000    1.0007016    -2.969077    -2.969077   -1.7012218  0.071051478    -2.969077    1.2678552   547498 
 3888000    1.0003273   -2.9681252   -2.9681252   -1.7007443  0.066329539   -2.9681252    1.2673809   547498 
 3889000    1.0030194   -2.9707476   -2.9707476   -1.6999558  0.069209746   -2.9707476    1.2707917   547498 
 3890000    1.0027877   -2.9698061   -2.9698061    -1.699308  0.072163884   -2.9698061    1.2704982   547498 
 3891000    1.0010406   -2.9686053   -2.9686053   -1.7003206  0.066307984   -2.9686053    1.2682847   547498 
 3892000    1.0015459   -2.9682316   -2.9682316   -1.6993067  0.072511962   -2.9682316    1.2689249   547498 
 3893000     1.003349   -2.9704292   -2.9704292   -1.6992198  0.058807436   -2.9704292    1.2712094   547498 
 3894000    1.0022824   -2.9695813   -2.9695813   -1.6997233  0.073927891   -2.9695813     1.269858   547498 
 3895000    1.0025351   -2.9693117   -2.9693117   -1.6991336  0.073750047   -2.9693117    1.2701781   547498 
 3896000    1.0039451   -2.9708321   -2.9708321   -1.6988675  0.071251742   -2.9708321    1.2719646   547498 
 3897000    1.0031611   -2.9706282   -2.9706282   -1.6996568  0.061016781   -2.9706282    1.2709713   547498 
 3898000     1.003383   -2.9709706   -2.9709706   -1.6997182  0.057268428   -2.9709706    1.2712524   547498 
 3899000    1.0017776   -2.9695173   -2.9695173    -1.700299  0.060893192   -2.9695173    1.2692184   547498 
 3900000    1.0028674   -2.9709315   -2.9709315   -1.7003323  0.061935767   -2.9709315    1.2705992   547498 
 3901000    1.0017513   -2.9691962   -2.9691962   -1.7000111  0.065865351   -2.9691962    1.2691851   547498 
 3902000    1.0013329   -2.9690001   -2.9690001   -1.7003451  0.063048116   -2.9690001     1.268655   547498 
 3903000    1.0017313   -2.9701183   -2.9701183   -1.7009586   0.06327007   -2.9701183    1.2691597   547498 
 3904000    1.0005877   -2.9688886   -2.9688886   -1.7011778  0.064140395   -2.9688886    1.2677108   547498 
 3905000    1.0012691   -2.9700624   -2.9700624   -1.7014883  0.062541618   -2.9700624    1.2685742   547498 
 3906000    1.0002695   -2.9678713   -2.9678713   -1.7005636  0.066105269   -2.9678713    1.2673077   547498 
 3907000    1.0006822   -2.9683836   -2.9683836    -1.700553  0.050650999   -2.9683836    1.2678306   547498 
 3908000    1.0007508   -2.9684751   -2.9684751   -1.7005575  0.063068427   -2.9684751    1.2679176   547498 
 3909000    1.0010746      -2.9687      -2.9687   -1.7003722  0.072161198      -2.9687    1.2683278   547498 
 3910000    1.0002809   -2.9679193   -2.9679193   -1.7005972  0.058810101   -2.9679193    1.2673222   547498 
 3911000    1.0006097   -2.9673927   -2.9673927    -1.699654  0.072127887   -2.9673927    1.2677387   547498 
 3912000    1.0021312   -2.9688082   -2.9688082   -1.6991419  0.066808053   -2.9688082    1.2696664   547498 
 3913000    1.0023071   -2.9687874   -2.9687874   -1.6988982  0.057082196   -2.9687874    1.2698893   547498 
 3914000    1.0031601   -2.9691551   -2.9691551   -1.6981851  0.057711108   -2.9691551      1.27097   547498 
 3915000    1.0034182   -2.9695007   -2.9695007   -1.6982037  0.066899894   -2.9695007     1.271297   547498 
 3916000    1.0022935   -2.9676836   -2.9676836   -1.6978116   0.06479384   -2.9676836     1.269872   547498 
 3917000    1.0032275   -2.9683811   -2.9683811   -1.6973257  0.061494688   -2.9683811    1.2710554   547498 
 3918000    1.0016891   -2.9659828   -2.9659828   -1.6968765  0.065598873   -2.9659828    1.2691063   547498 
 3919000    1.0005789   -2.9651224   -2.9651224   -1.6974227  0.073625895   -2.9651224    1.2676997   547498 
 3920000    1.0023687   -2.9671597   -2.9671597   -1.6971923  0.062384641   -2.9671597    1.2699674   547498 
 3921000    1.0015327   -2.9667864   -2.9667864   -1.6978782  0.061025202   -2.9667864    1.2689082   547498 
 3922000     1.003034   -2.9680811   -2.9680811   -1.6972709  0.068365117   -2.9680811    1.2708102   547498 
 3923000    1.0025554   -2.9674656   -2.9674656   -1.6972616  0.073930671   -2.9674656    1.2702039   547498 
 3924000    1.0027911   -2.9673561   -2.9673561   -1.6968536  0.065926434   -2.9673561    1.2705025   547498 
 3925000    1.0014059   -2.9658988   -2.9658988   -1.6971513  0.064326772   -2.9658988    1.2687475   547498 
 3926000    1.0037759    -2.968039    -2.968039   -1.6962888  0.069593945    -2.968039    1.2717502   547498 
 3927000    1.0043872   -2.9690479   -2.9690479   -1.6965231  0.072133414   -2.9690479    1.2725247   547498 
 3928000    1.0025057   -2.9673802   -2.9673802   -1.6972392  0.071578656   -2.9673802     1.270141   547498 
 3929000     1.004688   -2.9696633   -2.9696633   -1.6967575  0.071305457   -2.9696633    1.2729058   547498 
 3930000     1.003658   -2.9691977   -2.9691977   -1.6975968   0.06345368   -2.9691977    1.2716009   547498 
 3931000    1.0031032   -2.9681322   -2.9681322   -1.6972343   0.06761136   -2.9681322    1.2708979   547498 
 3932000    1.0019972   -2.9675792   -2.9675792   -1.6980826  0.069747686   -2.9675792    1.2694966   547498 
 3933000    1.0033658    -2.968533    -2.968533   -1.6973023  0.064516987    -2.968533    1.2712307   547498 
 3934000     1.002127   -2.9675417   -2.9675417   -1.6978806  0.068057459   -2.9675417    1.2696611   547498 
 3935000    1.0041293   -2.9703323   -2.9703323   -1.6981343  0.071109821   -2.9703323     1.272198   547498 
 3936000    1.0010233   -2.9675289   -2.9675289   -1.6992661  0.068555049   -2.9675289    1.2682627   547498 
 3937000    1.0027151   -2.9694712   -2.9694712    -1.699065   0.06532457   -2.9694712    1.2704063   547498 
 3938000    1.0028245   -2.9702448   -2.9702448      -1.6997  0.070448773   -2.9702448    1.2705448   547498 
 3939000    1.0029017   -2.9696982   -2.9696982   -1.6990555  0.058229597   -2.9696982    1.2706427   547498 
 3940000    1.0021995   -2.9685386   -2.9685386   -1.6987856  0.067059983   -2.9685386     1.269753   547498 
 3941000      1.00405   -2.9706719   -2.9706719   -1.6985744   0.05909803   -2.9706719    1.2720975   547498 
 3942000     1.002039   -2.9687208   -2.9687208   -1.6991712   0.06427999   -2.9687208    1.2695497   547498 
 3943000    1.0019296   -2.9677963   -2.9677963   -1.6983853  0.070461559   -2.9677963     1.269411   547498 
 3944000    1.0019837    -2.967953    -2.967953   -1.6984735   0.07041965    -2.967953    1.2694795   547498 
 3945000    1.0030094    -2.969618    -2.969618   -1.6988389  0.068419882    -2.969618    1.2707791   547498 
 3946000    1.0032281     -2.96993     -2.96993   -1.6988738  0.063139529     -2.96993    1.2710562   547498 
 3947000    1.0027129   -2.9702537   -2.9702537   -1.6998503  0.063726125   -2.9702537    1.2704034   547498 
 3948000    1.0028084   -2.9708954   -2.9708954    -1.700371  0.066622959   -2.9708954    1.2705244   547498 
 3949000    1.0023205   -2.9686904   -2.9686904   -1.6987841  0.062635226   -2.9686904    1.2699063   547498 
 3950000    1.0025724   -2.9701635   -2.9701635    -1.699938  0.072951196   -2.9701635    1.2702255   547498 
 3951000     1.002391   -2.9701213   -2.9701213   -1.7001257   0.06895798   -2.9701213    1.2699956   547498 
 3952000    1.0028409    -2.971046    -2.971046   -1.7004803  0.056520673    -2.971046    1.2705656   547498 
 3953000    1.0040678   -2.9723244   -2.9723244   -1.7002044  0.061518309   -2.9723244      1.27212   547498 
 3954000    1.0028095   -2.9700372   -2.9700372   -1.6995114  0.062298371   -2.9700372    1.2705258   547498 
 3955000    1.0026874   -2.9708982   -2.9708982   -1.7005271  0.063391852   -2.9708982    1.2703711   547498 
 3956000    1.0029826   -2.9703086   -2.9703086   -1.6995635  0.071384161   -2.9703086    1.2707451   547498 
 3957000    1.0023253   -2.9697086   -2.9697086   -1.6997963   0.06789898   -2.9697086    1.2699123   547498 
 3958000    1.0018565   -2.9690231   -2.9690231   -1.6997047  0.067076351   -2.9690231    1.2693184   547498 
 3959000     1.001891   -2.9694105   -2.9694105   -1.7000485  0.067707744   -2.9694105    1.2693621   547498 
 3960000    1.0021905   -2.9695026   -2.9695026   -1.6997611  0.070807715   -2.9695026    1.2697415   547498 
 3961000    1.0025108   -2.9701831   -2.9701831   -1.7000356   0.07414797   -2.9701831    1.2701474   547498 
 3962000     1.003837   -2.9702653   -2.9702653   -1.6984377  0.065225867   -2.9702653    1.2718276   547498 
 3963000    1.0032574   -2.9700152   -2.9700152   -1.6989219   0.07257474   -2.9700152    1.2710933   547498 
 3964000    1.0033561   -2.9708574   -2.9708574   -1.6996391   0.07355341   -2.9708574    1.2712183   547498 
 3965000    1.0042681   -2.9713325   -2.9713325   -1.6989587  0.066277298   -2.9713325    1.2723738   547498 
 3966000    1.0054136   -2.9727833   -2.9727833   -1.6989583  0.066181052   -2.9727833    1.2738251   547498 
 3967000    1.0033417   -2.9703107   -2.9703107   -1.6991106  0.074023156   -2.9703107       1.2712   547498 
 3968000    1.0025422   -2.9703832   -2.9703832   -1.7001961  0.069180255   -2.9703832    1.2701872   547498 
 3969000    1.0034809    -2.970189    -2.970189   -1.6988125  0.063894445    -2.970189    1.2713765   547498 
 3970000     1.005334    -2.972904    -2.972904   -1.6991797  0.061169404    -2.972904    1.2737243   547498 
 3971000    1.0027312   -2.9704332   -2.9704332   -1.7000066  0.070803931   -2.9704332    1.2704266   547498 
 3972000    1.0033506   -2.9714856   -2.9714856   -1.7002742  0.071086312   -2.9714856    1.2712114   547498 
 3973000    1.0033988   -2.9716708   -2.9716708   -1.7003984  0.072091402   -2.9716708    1.2712725   547498 
 3974000    1.0044135   -2.9725117   -2.9725117   -1.6999537  0.060867751   -2.9725117     1.272558   547498 
 3975000    1.0037322   -2.9712998   -2.9712998    -1.699605  0.068399495   -2.9712998    1.2716948   547498 
 3976000    1.0037388   -2.9704992   -2.9704992    -1.698796  0.071466718   -2.9704992    1.2717032   547498 
 3977000    1.0035708    -2.970857    -2.970857   -1.6993667  0.066434513    -2.970857    1.2714904   547498 
 3978000    1.0032674   -2.9711571   -2.9711571   -1.7000511  0.053758882   -2.9711571     1.271106   547498 
 3979000    1.0021826    -2.970024    -2.970024   -1.7002925  0.075112237    -2.970024    1.2697316   547498 
 3980000    1.0014602   -2.9700534   -2.9700534   -1.7012372  0.068384396   -2.9700534    1.2688163   547498 
 3981000    1.0007401   -2.9693327   -2.9693327   -1.7014287  0.063161868   -2.9693327    1.2679039   547498 
 3982000    1.0010179   -2.9697174   -2.9697174   -1.7014615  0.075720966   -2.9697174    1.2682559   547498 
 3983000    1.0016726   -2.9711264   -2.9711264   -1.7020411  0.063132458   -2.9711264    1.2690853   547498 
 3984000    1.0008377   -2.9699978   -2.9699978   -1.7019701  0.056753149   -2.9699978    1.2680276   547498 
 3985000    1.0018883   -2.9705981   -2.9705981   -1.7012394  0.070701897   -2.9705981    1.2693586   547498 
 3986000    1.0019724   -2.9709998   -2.9709998   -1.7015346  0.059413983   -2.9709998    1.2694653   547498 
 3987000    1.0033038   -2.9717178   -2.9717178   -1.7005658  0.079311022   -2.9717178    1.2711521   547498 
 3988000    1.0035306   -2.9723087   -2.9723087   -1.7008693   0.05826032   -2.9723087    1.2714394   547498 
 3989000    1.0029508   -2.9709646   -2.9709646   -1.7002598  0.065125607   -2.9709646    1.2707048   547498 
 3990000    1.0033499   -2.9714954   -2.9714954    -1.700285  0.074079823   -2.9714954    1.2712104   547498 
 3991000    1.0050735   -2.9737217   -2.9737217   -1.7003275  0.070153237   -2.9737217    1.2733942   547498 
 3992000    1.0026891    -2.970277    -2.970277   -1.6999038  0.076239615    -2.970277    1.2703732   547498 
 3993000    1.0026837   -2.9715605   -2.9715605   -1.7011941  0.076394415   -2.9715605    1.2703664   547498 
 3994000    1.0018689   -2.9709323   -2.9709323   -1.7015982  0.059962857   -2.9709323    1.2693341   547498 
 3995000    1.0017762   -2.9704011   -2.9704011   -1.7011844  0.062383523   -2.9704011    1.2692167   547498 
 3996000    1.0020283   -2.9705543   -2.9705543   -1.7010182  0.066535849   -2.9705543     1.269536   547498 
 3997000    1.0019391   -2.9701013   -2.9701013   -1.7006783  0.065353256   -2.9701013     1.269423   547498 
 3998000    1.0017719   -2.9703957   -2.9703957   -1.7011844  0.065064316   -2.9703957    1.2692113   547498 
 3999000    1.0040524   -2.9727851   -2.9727851   -1.7006846  0.072345501   -2.9727851    1.2721005   547498 
 4000000     1.002735   -2.9709352   -2.9709352   -1.7005038  0.056132334   -2.9709352    1.2704314   547498 
Loop time of 7453.85 on 288 procs for 4000000 steps with 547498 atoms

Performance: 231826.403 tau/day, 536.635 timesteps/s
98.6% CPU use with 288 MPI tasks x 1 OpenMP threads

MPI task timing breakdown:
Section |  min time  |  avg time  |  max time  |%varavg|  %CPU | %total
-----------------------------------------------------------------------
Pair    | 1377.5     | 1980.1     | 2362.6     | 574.9 |  98.6 | 26.56
Bond    | 2.5968     | 2.763      | 2.9085     |   4.1 | 100.0 |  0.04
Neigh   | 987.16     | 1492.4     | 2116.5     | 538.0 |  99.5 | 20.02
Comm    | 1398.5     | 2295.4     | 3268       | 839.4 |  98.3 | 30.80
Output  | 223.68     | 225.14     | 229.03     |  11.0 |  97.4 |  3.02
Modify  | 779.83     | 1373.3     | 2017.1     | 872.4 |  98.5 | 18.42
Other   |            | 84.72      |            |       |       |  1.14

Nlocal:        1901.03 ave        2559 max        1492 min
Histogram: 10 31 51 86 47 24 22 9 6 2
Nghost:        4651.42 ave        8231 max        2153 min
Histogram: 30 50 32 35 35 28 37 22 11 8
Neighs:        47520.0 ave       59966 max       21294 min
Histogram: 4 5 7 8 20 32 60 67 64 21

Total # of neighbors = 13685751
Ave neighs/atom = 24.996897
Ave special neighs/atom = 0.0000000
Neighbor list builds = 400000
Dangerous builds = 396000

Total wall time: 2:04:19
