LAMMPS (24 Dec 2020)
OMP_NUM_THREADS environment is not set. Defaulting to 1 thread. (src/comm.cpp:94)
  using 1 OpenMP thread(s) per MPI task
# Simple rigid body system
# needed variables:

#variable	startTemp equal 0.5
#variable 	temp 	  equal 0.8

units		lj
atom_style	full
dimension 	3
boundary	p p f
pair_style	lj/smooth/linear 2.0

variable 	sigma		equal 1.0
variable 	epsilon 	equal 1.0

region		box block 0 80 0 80 0 160
create_box 	3 box
Created orthogonal box = (0.0000000 0.0000000 0.0000000) to (80.000000 80.000000 160.00000)
  6 by 4 by 8 MPI processor grid



lattice 	sc 0.66
Lattice spacing in x,y,z = 1.1485556 1.1485556 1.1485556
region		fluid block EDGE EDGE EDGE EDGE 2 100 units box
create_atoms 	1 region fluid
Created 421400 atoms
  create_atoms CPU = 0.148 seconds

lattice 	sc 0.045
Lattice spacing in x,y,z = 2.8114422 2.8114422 2.8114422
region		gas block EDGE EDGE EDGE EDGE 101 158 units box
create_atoms    1 region gas
Created 17661 atoms
  create_atoms CPU = 0.004 seconds

group		solvent type 1
439061 atoms in group solvent

mass		1 1.0
mass		2 1.0
mass		3 1.0



neighbor 	0.4 bin

pair_coeff	1 1 1.0 1.0
pair_coeff	2 2 0.0 0.0
pair_coeff	3 3 0.0 0.0
pair_coeff	2 3 0.0 0.0
pair_coeff	1 2*3 0.0 0.0

pair_modify 	shift yes

delete_atoms	overlap 0.5 solvent solvent
System init for delete_atoms ...
Neighbor list info ...
  update every 1 steps, delay 10 steps, check yes
  max neighbors/atom: 2000, page size: 100000
  master list distance cutoff = 2.4
  ghost atom cutoff = 2.4
  binsize = 1.2, bins = 67 67 134
  2 neighbor lists, perpetual/occasional/extra = 1 1 0
  (1) command delete_atoms, occasional
      attributes: full, newton on
      pair build: full/bin
      stencil: full/bin/3d
      bin: standard
  (2) pair lj/smooth/linear, perpetual
      attributes: half, newton on
      pair build: half/bin/newton
      stencil: half/bin/3d/newton
      bin: standard
WARNING: Ignoring 'compress yes' for molecular system (src/delete_atoms.cpp:125)
Deleted 0 atoms, new total = 439061

velocity 	solvent create ${startTemp} 563435 loop geom
velocity 	solvent create .7 563435 loop geom

balance 	1.05 shift z 10 1.05
Balancing ...
Neighbor list info ...
  update every 1 steps, delay 10 steps, check yes
  max neighbors/atom: 2000, page size: 100000
  master list distance cutoff = 2.4
  ghost atom cutoff = 2.4
  binsize = 1.2, bins = 67 67 134
  1 neighbor lists, perpetual/occasional/extra = 1 0 0
  (1) pair lj/smooth/linear, perpetual
      attributes: half, newton on
      pair build: half/bin/newton
      stencil: half/bin/3d/newton
      bin: standard
 rebalancing time: 0.007 seconds
  iteration count = 5
  initial/final maximal load/proc = 3888.0000 2808.0000
  initial/final imbalance factor  = 1.7002102 1.2279296
  x cuts: 0.0000000 0.16666667 0.33333333 0.50000000 0.66666667 0.83333333 1.0000000
  y cuts: 0.0000000 0.25000000 0.50000000 0.75000000 1.0000000
  z cuts: 0.0000000 0.089843750 0.17578125 0.25390625 0.33593750 0.41406250 0.50390625 0.58203125 1.0000000


####################### WALLS ###########################


variable       epsilonWall equal 2*${epsilon}
variable       epsilonWall equal 2*1

variable       cutoffTop   equal   0.7147*${sigma}
variable       cutoffTop   equal   0.7147*1

variable       cutoffLow   equal   3*${sigma}
variable       cutoffLow   equal   3*1


fix            topWall all wall/lj93 zhi EDGE                ${epsilonWall} ${sigma} ${cutoffTop} units box
fix            topWall all wall/lj93 zhi EDGE                2 ${sigma} ${cutoffTop} units box
fix            topWall all wall/lj93 zhi EDGE                2 1 ${cutoffTop} units box
fix            topWall all wall/lj93 zhi EDGE                2 1 0.7147 units box

fix            lowWall all wall/lj93 zlo EDGE                ${epsilonWall} ${sigma} ${cutoffLow} units box
fix            lowWall all wall/lj93 zlo EDGE                2 ${sigma} ${cutoffLow} units box
fix            lowWall all wall/lj93 zlo EDGE                2 1 ${cutoffLow} units box
fix            lowWall all wall/lj93 zlo EDGE                2 1 3 units box


###################### COMPUTES ##########################

compute        bin1 solvent chunk/atom bin/1d z upper 1.0


######################	FIXES ############################


fix 		peclet solvent ave/chunk 1000 1 1000 bin1 density/number norm 		 none ave one file density.profile

fix 		 temp solvent ave/chunk 1000 1 1000 bin1 temp norm 		 none ave one file temp.profile

fix 		2 solvent nve


## Thermostat


region		regthermo block EDGE EDGE EDGE EDGE 0 20 units box

group 		thermo dynamic solvent region regthermo every 1000
dynamic group thermo defined

fix 		3 thermo langevin ${startTemp} ${temp} 10 156453
fix 		3 thermo langevin .7 ${temp} 10 156453
fix 		3 thermo langevin .7 .7 10 156453



#### Load balancing


fix 		bal all balance 1000 1.05 shift z 10 1.05


############### Diagnostics and computes ###################
#compute 	com cube	  rigid/local	1 mol x y z
#compute 	quat cube	  rigid/local	1 mol quatw quati quatj quatk

thermo 		1000
thermo_style 	custom step temp epair evdwl etotal press pe ke atoms

dump		1 all custom 100000 dump.lammpstrj id mol type x y z
dump 		2 all image 10000 image.*.png type type
dump 		3 all movie 1000 movie.avi type type

#dump 		com cube local 1000 dump.*.xyz c_com[*]
#dump		quat cube      local 1000 dump.*.quat c_quat[*]


restart 	1000000 restart.dat
timestep 	0.005
timer 		full
New timer settings: style=full  mode=nosync  timeout=off

run		5000000
Per MPI rank memory allocation (min/avg/max) = 9.917 | 9.995 | 10.07 Mbytes
Step Temp E_pair E_vdwl TotEng Press PotEng KinEng Atoms 
       0          0.7   0.22342731   0.22342731    1.2734249    4.5320455   0.22342731    1.0499976   439061 
    1000    1.7829284    -1.893772    -1.893772   0.78061457    2.2807596    -1.893772    2.6743866   439061 
    2000    1.6928967   -1.9508244   -1.9508244   0.58851482    1.4133411   -1.9508244    2.5393393   439061 
    3000    1.5419653   -1.8879469   -1.8879469   0.42499577    1.0906049   -1.8879469    2.3129426   439061 
    4000    1.4593734    -1.875922    -1.875922   0.31313316   0.86751197    -1.875922    2.1890551   439061 
    5000    1.4127411   -1.8520837   -1.8520837   0.26702311   0.71152131   -1.8520837    2.1191068   439061 
    6000    1.3834066   -1.8177811   -1.8177811   0.25732414    0.6499918   -1.8177811    2.0751052   439061 
    7000    1.3628091   -1.7787633   -1.7787633   0.26544571   0.66255529   -1.7787633    2.0442091   439061 
    8000     1.348244   -1.7442221   -1.7442221   0.27813932   0.70106238   -1.7442221    2.0223614   439061 
    9000    1.3452464   -1.7253904   -1.7253904   0.29247461   0.73118484   -1.7253904     2.017865   439061 
   10000    1.3461744   -1.7134098   -1.7134098   0.30584726   0.77180386   -1.7134098    2.0192571   439061 
   11000    1.3512696   -1.7073048   -1.7073048   0.31959494   0.80000548   -1.7073048    2.0268998   439061 
   12000    1.3495311   -1.6935933   -1.6935933   0.33069876    0.7874574   -1.6935933    2.0242921   439061 
   13000     1.337499    -1.665928    -1.665928   0.34031586   0.73027595    -1.665928    2.0062439   439061 
   14000    1.3260915   -1.6388874   -1.6388874   0.35024528   0.67743468   -1.6388874    1.9891327   439061 
   15000    1.3196308   -1.6210729   -1.6210729   0.35836884   0.65679594   -1.6210729    1.9794417   439061 
   16000    1.3241731   -1.6215517   -1.6215517    0.3647035   0.67491949   -1.6215517    1.9862552   439061 
   17000    1.3187011   -1.6347705   -1.6347705   0.34327668   0.70205871   -1.6347705    1.9780472   439061 
   18000    1.2959142   -1.6604946   -1.6604946   0.28337225    0.7337907   -1.6604946    1.9438668   439061 
   19000    1.2628301   -1.6838313   -1.6838313   0.21040945   0.76251445   -1.6838313    1.8942408   439061 
   20000    1.2358994   -1.7068479   -1.7068479   0.14699697   0.75002628   -1.7068479    1.8538449   439061 
   21000    1.2156059   -1.7255883   -1.7255883  0.097816371   0.74373697   -1.7255883    1.8234046   439061 
   22000    1.2007626   -1.7387703   -1.7387703  0.062369505   0.74081865   -1.7387703    1.8011398   439061 
   23000    1.1899947   -1.7515147   -1.7515147  0.033473336   0.71967453   -1.7515147     1.784988   439061 
   24000    1.1779113   -1.7547236   -1.7547236  0.012139412     0.697652   -1.7547236     1.766863   439061 
   25000    1.1677588   -1.7540749   -1.7540749 -0.0024407668   0.66647079   -1.7540749    1.7516342   439061 
   26000    1.1568735   -1.7471055   -1.7471055 -0.011799213   0.64002473   -1.7471055    1.7353063   439061 
   27000    1.1468983   -1.7383513   -1.7383513 -0.018007766   0.61194663   -1.7383513    1.7203436   439061 
   28000    1.1361839   -1.7267715   -1.7267715 -0.022499544   0.57754129   -1.7267715    1.7042719   439061 
   29000    1.1254209   -1.7131799   -1.7131799   -0.0250523   0.54737419   -1.7131799    1.6881276   439061 
   30000    1.1171276   -1.7008397   -1.7008397 -0.025152174   0.53160586   -1.7008397    1.6756875   439061 
   31000    1.1117402    -1.692036    -1.692036 -0.024429529   0.52645786    -1.692036    1.6676065   439061 
   32000    1.1093948   -1.6853874   -1.6853874 -0.021298956   0.52362774   -1.6853874    1.6640884   439061 
   33000    1.1073346   -1.6808721   -1.6808721  -0.01987398   0.51700813   -1.6808721    1.6609982   439061 
   34000     1.105766    -1.674276    -1.674276 -0.015630783   0.51408516    -1.674276    1.6586453   439061 
   35000    1.1054395   -1.6689741   -1.6689741 -0.010818646   0.50921509   -1.6689741    1.6581554   439061 
   36000    1.1061496   -1.6656482   -1.6656482 -0.0064274806   0.50846367   -1.6656482    1.6592207   439061 
   37000    1.1056109   -1.6607074   -1.6607074 -0.0022948514   0.50764137   -1.6607074    1.6584126   439061 
   38000    1.1046033   -1.6543434   -1.6543434 0.0025577631   0.50007423   -1.6543434    1.6569012   439061 
   39000    1.1038995   -1.6483183   -1.6483183 0.0075272188   0.48903426   -1.6483183    1.6558455   439061 
   40000    1.1026517    -1.641757    -1.641757  0.012216779   0.48780147    -1.641757    1.6539738   439061 
   41000    1.1061585   -1.6425983   -1.6425983  0.016635709   0.49689337   -1.6425983     1.659234   439061 
   42000    1.1124991   -1.6540629   -1.6540629  0.014682011   0.51962179   -1.6540629    1.6687449   439061 
   43000    1.1083637   -1.6652062   -1.6652062 -0.002664472    0.5474407   -1.6652062    1.6625417   439061 
   44000    1.1009317   -1.6811735   -1.6811735 -0.029779696   0.55908931   -1.6811735    1.6513938   439061 
   45000     1.093689   -1.6945844   -1.6945844 -0.054054652   0.55805714   -1.6945844    1.6405298   439061 
   46000    1.0856164   -1.7018297   -1.7018297 -0.073408728   0.55552487   -1.7018297     1.628421   439061 
   47000    1.0797866   -1.7073939   -1.7073939 -0.087717718   0.54362122   -1.7073939    1.6196762   439061 
   48000    1.0758577   -1.7112682   -1.7112682 -0.097485421   0.53860996   -1.7112682    1.6137828   439061 
   49000    1.0717614   -1.7122984   -1.7122984  -0.10465998   0.53770722   -1.7122984    1.6076384   439061 
   50000    1.0695524   -1.7157301   -1.7157301  -0.11140512   0.52558872   -1.7157301     1.604325   439061 
   51000    1.0640047   -1.7135488   -1.7135488  -0.11754532   0.52219946   -1.7135488    1.5960035   439061 
   52000    1.0606448    -1.712807    -1.712807  -0.12184339   0.50965891    -1.712807    1.5909636   439061 
   53000      1.05593   -1.7096083   -1.7096083  -0.12571692   0.49738779   -1.7096083    1.5838914   439061 
   54000    1.0512336   -1.7030389   -1.7030389  -0.12619198   0.48053116   -1.7030389    1.5768469   439061 
   55000    1.0474313   -1.6980136   -1.6980136   -0.1268703   0.47040642   -1.6980136    1.5711433   439061 
   56000     1.044023     -1.69349     -1.69349  -0.12745909    0.4551576     -1.69349    1.5660309   439061 
   57000    1.0412952   -1.6887935   -1.6887935  -0.12685434    0.4600173   -1.6887935    1.5619392   439061 
   58000    1.0396787   -1.6854379   -1.6854379  -0.12592332    0.4547511   -1.6854379    1.5595146   439061 
   59000    1.0400014   -1.6839081   -1.6839081  -0.12390963   0.44826547   -1.6839081    1.5599985   439061 
   60000    1.0379817   -1.6787508   -1.6787508  -0.12178177    0.4484563   -1.6787508     1.556969   439061 
   61000    1.0368187   -1.6748425   -1.6748425  -0.11961787   0.44767361   -1.6748425    1.5552246   439061 
   62000    1.0369655     -1.67241     -1.67241  -0.11696533   0.44517476     -1.67241    1.5554447   439061 
   63000    1.0365277   -1.6697904   -1.6697904  -0.11500231   0.43666194   -1.6697904    1.5547881   439061 
   64000     1.035565   -1.6658584   -1.6658584  -0.11251438   0.44094687   -1.6658584     1.553344   439061 
   65000    1.0374946    -1.666615    -1.666615  -0.11037664   0.43298727    -1.666615    1.5562384   439061 
   66000    1.0382722   -1.6659401   -1.6659401  -0.10853533   0.43600164   -1.6659401    1.5574048   439061 
   67000    1.0406582    -1.668467    -1.668467  -0.10748326   0.44773633    -1.668467    1.5609838   439061 
   68000    1.0419242    -1.674002    -1.674002  -0.11111926   0.46021998    -1.674002    1.5628827   439061 
   69000    1.0417316    -1.682956    -1.682956  -0.12036221   0.46992147    -1.682956    1.5625938   439061 
   70000    1.0393581   -1.6923096   -1.6923096  -0.13327606   0.47714983   -1.6923096    1.5590336   439061 
   71000    1.0354224   -1.6989158   -1.6989158  -0.14578573   0.47892099   -1.6989158    1.5531301   439061 
   72000    1.0324152   -1.7060903   -1.7060903  -0.15747106    0.4772838   -1.7060903    1.5486193   439061 
   73000    1.0293347   -1.7092627   -1.7092627  -0.16526415   0.48058972   -1.7092627    1.5439985   439061 
   74000    1.0253399   -1.7111594   -1.7111594   -0.1731531    0.4738582   -1.7111594    1.5380063   439061 
   75000    1.0233601   -1.7134894   -1.7134894  -0.17845273   0.47126298   -1.7134894    1.5350367   439061 
   76000    1.0209822   -1.7144287   -1.7144287  -0.18295886   0.46589212   -1.7144287    1.5314699   439061 
   77000    1.0193717   -1.7151361   -1.7151361  -0.18608208   0.45748998   -1.7151361     1.529054   439061 
   78000    1.0168712   -1.7140629   -1.7140629  -0.18875958   0.45302232   -1.7140629    1.5253033   439061 
   79000    1.0145237   -1.7124497   -1.7124497  -0.19066754   0.44985955   -1.7124497    1.5217822   439061 
   80000    1.0112646   -1.7094154   -1.7094154  -0.19252196    0.4439311   -1.7094154    1.5168934   439061 
   81000    1.0096684   -1.7075948   -1.7075948  -0.19309567   0.43788098   -1.7075948    1.5144991   439061 
   82000    1.0069764   -1.7049689   -1.7049689  -0.19450763   0.42766525   -1.7049689    1.5104612   439061 
   83000    1.0044752   -1.7002566   -1.7002566  -0.19354722   0.42591209   -1.7002566    1.5067094   439061 
   84000    1.0035845   -1.6986018   -1.6986018  -0.19322851   0.42542102   -1.6986018    1.5053732   439061 
   85000    1.0027517   -1.6969707   -1.6969707  -0.19284661   0.41937592   -1.6969707    1.5041241   439061 
   86000    1.0014268   -1.6946858   -1.6946858  -0.19254903   0.41884472   -1.6946858    1.5021368   439061 
   87000    1.0027555   -1.6945682   -1.6945682  -0.19043843   0.41712524   -1.6945682    1.5041298   439061 
   88000    1.0026228   -1.6924672   -1.6924672  -0.18853648   0.40750909   -1.6924672    1.5039307   439061 
   89000    1.0015733   -1.6910577   -1.6910577  -0.18870124   0.41267129   -1.6910577    1.5023565   439061 
   90000    1.0022282   -1.6902011   -1.6902011  -0.18686213   0.40855373   -1.6902011    1.5033389   439061 
   91000    1.0028896   -1.6901176   -1.6901176  -0.18578671   0.40574729   -1.6901176    1.5043309   439061 
   92000    1.0029583   -1.6895976   -1.6895976  -0.18516366   0.41098127   -1.6895976     1.504434   439061 
   93000    1.0029901   -1.6896719   -1.6896719  -0.18519022   0.41289537   -1.6896719    1.5044817   439061 
   94000    1.0046031   -1.6933644   -1.6933644  -0.18646319   0.42206643   -1.6933644    1.5069012   439061 
   95000    1.0041234   -1.6953491   -1.6953491  -0.18916742    0.4283934   -1.6953491    1.5061816   439061 
   96000    1.0040918   -1.7011321   -1.7011321  -0.19499784   0.43297916   -1.7011321    1.5061342   439061 
   97000    1.0027604    -1.706329    -1.706329  -0.20219172   0.43680079    -1.706329    1.5041372   439061 
   98000    1.0012637   -1.7115969   -1.7115969   -0.2097047   0.43490115   -1.7115969    1.5018922   439061 
   99000   0.99933027   -1.7153301   -1.7153301  -0.21633812   0.43775429   -1.7153301     1.498992   439061 
  100000   0.99660574   -1.7162052   -1.7162052  -0.22130004   0.43490617   -1.7162052    1.4949052   439061 
  101000   0.99499926   -1.7188756   -1.7188756  -0.22638007   0.43259352   -1.7188756    1.4924955   439061 
  102000   0.99387457   -1.7213058   -1.7213058  -0.23049734   0.43052719   -1.7213058    1.4908085   439061 
  103000    0.9914159   -1.7216113   -1.7216113   -0.2344908   0.42151226   -1.7216113    1.4871205   439061 
  104000   0.98946189   -1.7209802   -1.7209802  -0.23679073   0.42129803   -1.7209802    1.4841895   439061 
  105000   0.98788631   -1.7203698   -1.7203698  -0.23854366   0.41849112   -1.7203698    1.4818261   439061 
  106000   0.98725892   -1.7207094   -1.7207094  -0.23982443   0.41300338   -1.7207094     1.480885   439061 
  107000   0.98425136   -1.7169713   -1.7169713  -0.24059758   0.41284491   -1.7169713    1.4763737   439061 
  108000   0.98303393   -1.7164091   -1.7164091  -0.24186152   0.40875949   -1.7164091    1.4745475   439061 
  109000   0.98152762   -1.7147693   -1.7147693   -0.2424812   0.40301721   -1.7147693    1.4722881   439061 
  110000   0.98124522   -1.7146038   -1.7146038  -0.24273931   0.39846119   -1.7146038    1.4718645   439061 
  111000   0.98045177   -1.7123876   -1.7123876  -0.24171332   0.40013237   -1.7123876    1.4706743   439061 
  112000   0.97974315   -1.7105528   -1.7105528  -0.24094137   0.39689561   -1.7105528    1.4696114   439061 
  113000   0.97850686   -1.7088017   -1.7088017   -0.2410448   0.38835569   -1.7088017    1.4677569   439061 
  114000    0.9782904   -1.7077197   -1.7077197  -0.24028746   0.39205761   -1.7077197    1.4674323   439061 
  115000   0.97746433   -1.7063749   -1.7063749  -0.24018176   0.39118801   -1.7063749    1.4661932   439061 
  116000   0.97866363   -1.7069452   -1.7069452  -0.23895312   0.38470834   -1.7069452    1.4679921   439061 
  117000   0.97734132   -1.7056708   -1.7056708  -0.23966219   0.39005172   -1.7056708    1.4660086   439061 
  118000   0.97812008   -1.7062196   -1.7062196  -0.23904281   0.39106423   -1.7062196    1.4671768   439061 
  119000   0.97862514   -1.7081945   -1.7081945  -0.24026015   0.39177647   -1.7081945    1.4679344   439061 
  120000   0.97814716   -1.7092028   -1.7092028   -0.2419854   0.39592857   -1.7092028    1.4672174   439061 
  121000   0.97720233   -1.7104039   -1.7104039  -0.24460372   0.40212096   -1.7104039    1.4658002   439061 
  122000   0.97742973   -1.7137714   -1.7137714  -0.24763014   0.40253393   -1.7137714    1.4661413   439061 
  123000   0.97763129    -1.716795    -1.716795  -0.25035141   0.40311575    -1.716795    1.4664436   439061 
  124000   0.97718502   -1.7191475   -1.7191475  -0.25337331   0.40028175   -1.7191475    1.4657742   439061 
  125000   0.97672674   -1.7211693   -1.7211693  -0.25608252   0.40781396   -1.7211693    1.4650868   439061 
  126000    0.9768895   -1.7252644   -1.7252644  -0.25993348   0.40265322   -1.7252644    1.4653309   439061 
  127000   0.97293408   -1.7239404   -1.7239404  -0.26454265   0.40447222   -1.7239404    1.4593978   439061 
  128000    0.9725148   -1.7264009   -1.7264009  -0.26763205   0.40294809   -1.7264009    1.4587689   439061 
  129000   0.97122604   -1.7267469   -1.7267469  -0.26991121   0.40304411   -1.7267469    1.4568357   439061 
  130000   0.96897863    -1.726944    -1.726944  -0.27347941   0.40031116    -1.726944    1.4534646   439061 
  131000   0.96804303   -1.7265078   -1.7265078  -0.27444661   0.39663155   -1.7265078    1.4520612   439061 
  132000   0.96729491   -1.7263338   -1.7263338  -0.27539471   0.39603465   -1.7263338    1.4509391   439061 
  133000   0.96566832   -1.7248294   -1.7248294  -0.27633023   0.38842314   -1.7248294    1.4484992   439061 
  134000   0.96629636   -1.7260654   -1.7260654  -0.27662417   0.38987916   -1.7260654    1.4494412   439061 
  135000   0.96533799   -1.7247476   -1.7247476  -0.27674396   0.38310042   -1.7247476    1.4480037   439061 
  136000   0.96273453   -1.7221484   -1.7221484  -0.27804993   0.39018174   -1.7221484    1.4440985   439061 
  137000   0.96236655   -1.7216455   -1.7216455  -0.27809897   0.38310877   -1.7216455    1.4435465   439061 
  138000   0.96123391   -1.7208987   -1.7208987  -0.27905113   0.38057596   -1.7208987    1.4418476   439061 
  139000   0.96081323   -1.7201508   -1.7201508  -0.27893425   0.37841234   -1.7201508    1.4412166   439061 
  140000   0.96007294   -1.7186491   -1.7186491  -0.27854294   0.37784472   -1.7186491    1.4401061   439061 
  141000   0.96013462   -1.7193677   -1.7193677  -0.27916907   0.37681002   -1.7193677    1.4401987   439061 
  142000   0.96117035    -1.721995    -1.721995  -0.28024277   0.37295112    -1.721995    1.4417522   439061 
  143000   0.95880978    -1.718564    -1.718564  -0.28035262   0.37509147    -1.718564    1.4382114   439061 
  144000   0.95989456   -1.7212992   -1.7212992  -0.28146066     0.372707   -1.7212992    1.4398386   439061 
  145000   0.95836247   -1.7206397   -1.7206397  -0.28309925   0.37776612   -1.7206397    1.4375404   439061 
  146000   0.95922844   -1.7223964   -1.7223964  -0.28355705   0.37709063   -1.7223964    1.4388394   439061 
  147000   0.95815938   -1.7224177   -1.7224177   -0.2851819   0.38039464   -1.7224177    1.4372358   439061 
  148000    0.9584126    -1.724235    -1.724235  -0.28661936   0.37631421    -1.724235    1.4376156   439061 
  149000   0.95757594   -1.7250915   -1.7250915  -0.28873083   0.37911451   -1.7250915    1.4363606   439061 
  150000   0.95669101   -1.7264968   -1.7264968  -0.29146355   0.37978307   -1.7264968    1.4350333   439061 
  151000   0.95705635   -1.7300446   -1.7300446  -0.29446337   0.38102775   -1.7300446    1.4355813   439061 
  152000   0.95599433   -1.7313341   -1.7313341  -0.29734587   0.37886737   -1.7313341    1.4339882   439061 
  153000   0.95572324   -1.7325366   -1.7325366  -0.29895502   0.38501895   -1.7325366    1.4335816   439061 
  154000   0.95451313   -1.7331718   -1.7331718  -0.30140541   0.37857641   -1.7331718    1.4317664   439061 
  155000   0.95419257   -1.7347234   -1.7347234  -0.30343777   0.37925226   -1.7347234    1.4312856   439061 
  156000   0.95172742   -1.7325868   -1.7325868  -0.30499889   0.38197259   -1.7325868    1.4275879   439061 
  157000   0.95189675   -1.7345262   -1.7345262  -0.30668432   0.37828554   -1.7345262    1.4278419   439061 
  158000   0.95038217   -1.7335675   -1.7335675  -0.30799745   0.37568787   -1.7335675      1.42557   439061 
  159000    0.9495551   -1.7346115   -1.7346115  -0.31028211   0.37148909   -1.7346115    1.4243294   439061 
  160000   0.95029761   -1.7359576   -1.7359576  -0.31051447   0.37065512   -1.7359576    1.4254432   439061 
  161000   0.94901122    -1.734346    -1.734346  -0.31083237    0.3673984    -1.734346    1.4235136   439061 
  162000   0.94740042   -1.7331537   -1.7331537  -0.31205633   0.36667978   -1.7331537    1.4210974   439061 
  163000   0.94522306   -1.7310861   -1.7310861  -0.31325479    0.3699798   -1.7310861    1.4178314   439061 
  164000      0.94507   -1.7319671   -1.7319671  -0.31436529   0.36028948   -1.7319671    1.4176018   439061 
  165000   0.94534093   -1.7317845   -1.7317845  -0.31377638   0.36557244   -1.7317845    1.4180082   439061 
  166000   0.94484843   -1.7302973   -1.7302973  -0.31302785   0.36620066   -1.7302973    1.4172694   439061 
  167000   0.94401386   -1.7302283   -1.7302283  -0.31421075   0.36303085   -1.7302283    1.4160176   439061 
  168000   0.94373219   -1.7302823   -1.7302823  -0.31468725   0.36346801   -1.7302823    1.4155951   439061 
  169000   0.94327056   -1.7298426   -1.7298426  -0.31493996   0.36237386   -1.7298426    1.4149026   439061 
  170000   0.94388024   -1.7308002   -1.7308002  -0.31498307   0.35964845   -1.7308002    1.4158171   439061 
  171000   0.94430878   -1.7309314   -1.7309314   -0.3144715   0.36291552   -1.7309314    1.4164599   439061 
  172000   0.94330148   -1.7304797   -1.7304797  -0.31553071   0.36566326   -1.7304797     1.414949   439061 
  173000   0.94313606    -1.730758    -1.730758  -0.31605709   0.36410603    -1.730758    1.4147009   439061 
  174000   0.94288415   -1.7322874   -1.7322874  -0.31796439   0.36167986   -1.7322874     1.414323   439061 
  175000   0.94236896   -1.7336437   -1.7336437  -0.32009349   0.36259307   -1.7336437    1.4135502   439061 
  176000   0.94264394   -1.7349669   -1.7349669  -0.32100421   0.36206168   -1.7349669    1.4139627   439061 
  177000   0.94130267   -1.7344361   -1.7344361  -0.32248531   0.36848005   -1.7344361    1.4119508   439061 
  178000   0.94215905   -1.7381406   -1.7381406  -0.32490528   0.36028994   -1.7381406    1.4132354   439061 
  179000   0.93954293   -1.7359506   -1.7359506   -0.3266394   0.36395315   -1.7359506    1.4093112   439061 
  180000   0.94053475    -1.738642    -1.738642  -0.32784306   0.36188554    -1.738642    1.4107989   439061 
  181000   0.94019987   -1.7407727   -1.7407727  -0.33047614     0.358408   -1.7407727    1.4102966   439061 
  182000   0.93830242    -1.739452    -1.739452  -0.33200155   0.36575922    -1.739452    1.4074504   439061 
  183000    0.9375004   -1.7399435   -1.7399435  -0.33369613   0.36552945   -1.7399435    1.4062474   439061 
  184000   0.93716374    -1.741365    -1.741365  -0.33562263   0.35881399    -1.741365    1.4057424   439061 
  185000   0.93682553   -1.7412349   -1.7412349   -0.3359998   0.35690234   -1.7412349    1.4052351   439061 
  186000     0.936143   -1.7410229   -1.7410229  -0.33681156   0.35684874   -1.7410229    1.4042113   439061 
  187000   0.93602941    -1.741524    -1.741524  -0.33748309    0.3549075    -1.741524    1.4040409   439061 
  188000   0.93411069   -1.7408518   -1.7408518  -0.33968892   0.35544092   -1.7408518    1.4011628   439061 
  189000   0.93210319   -1.7390718   -1.7390718  -0.34092022   0.35593889   -1.7390718    1.3981516   439061 
  190000   0.93301358   -1.7407824   -1.7407824  -0.34126522   0.35416085   -1.7407824    1.3995172   439061 
  191000   0.93074973   -1.7385109   -1.7385109  -0.34238949   0.35658748   -1.7385109    1.3961214   439061 
  192000   0.93186599   -1.7420105   -1.7420105  -0.34421471   0.34675834   -1.7420105    1.3977958   439061 
  193000   0.93050677    -1.740253    -1.740253  -0.34449598   0.35371367    -1.740253     1.395757   439061 
  194000   0.93067451   -1.7411089   -1.7411089  -0.34510033   0.34849401   -1.7411089    1.3960086   439061 
  195000   0.92985602   -1.7406251   -1.7406251  -0.34584425    0.3505608   -1.7406251    1.3947809   439061 
  196000   0.92986498   -1.7409441   -1.7409441  -0.34614983   0.34840143   -1.7409441    1.3947943   439061 
  197000   0.92903057   -1.7396267   -1.7396267  -0.34608405    0.3511279   -1.7396267    1.3935427   439061 
  198000   0.93018618    -1.740542    -1.740542  -0.34526587   0.35073842    -1.740542    1.3952761   439061 
  199000   0.92934638   -1.7406607   -1.7406607  -0.34664426   0.35091473   -1.7406607    1.3940164   439061 
  200000   0.92877307   -1.7404144   -1.7404144  -0.34725793    0.3498048   -1.7404144    1.3931564   439061 
  201000   0.92935168   -1.7421304   -1.7421304  -0.34810601   0.34865257   -1.7421304    1.3940244   439061 
  202000   0.92780829   -1.7416652   -1.7416652  -0.34995594   0.35312103   -1.7416652    1.3917093   439061 
  203000    0.9277507    -1.742266    -1.742266  -0.35064315   0.34505249    -1.742266    1.3916229   439061 
  204000   0.92776921   -1.7435434   -1.7435434  -0.35189278   0.35186065   -1.7435434    1.3916506   439061 
  205000   0.92805956   -1.7441565   -1.7441565   -0.3520703   0.35079935   -1.7441565    1.3920862   439061 
  206000   0.92726615   -1.7451242   -1.7451242  -0.35422819    0.3488611   -1.7451242    1.3908961   439061 
  207000   0.92576215   -1.7448681   -1.7448681  -0.35622806   0.34670519   -1.7448681    1.3886401   439061 
  208000   0.92489284   -1.7449893   -1.7449893  -0.35765317   0.34650332   -1.7449893    1.3873361   439061 
  209000   0.92609155   -1.7474142   -1.7474142  -0.35828005   0.34210129   -1.7474142    1.3891342   439061 
  210000    0.9248945    -1.746244    -1.746244   -0.3589054   0.34555852    -1.746244    1.3873386   439061 
  211000    0.9231461   -1.7457917   -1.7457917  -0.36107565   0.34906198   -1.7457917     1.384716   439061 
  212000   0.92291642   -1.7464124   -1.7464124  -0.36204087   0.34543755   -1.7464124    1.3843715   439061 
  213000   0.92295583   -1.7473515   -1.7473515  -0.36292092   0.34602992   -1.7473515    1.3844306   439061 
  214000   0.92196437   -1.7471742   -1.7471742  -0.36423084   0.34344176   -1.7471742    1.3829434   439061 
  215000      0.92145   -1.7459768   -1.7459768  -0.36380491   0.34490284   -1.7459768    1.3821719   439061 
  216000   0.92149701   -1.7467612   -1.7467612   -0.3645188    0.3424345   -1.7467612    1.3822424   439061 
  217000   0.91982639   -1.7450926   -1.7450926  -0.36535617   0.34281022   -1.7450926    1.3797364   439061 
  218000   0.92054712   -1.7467152   -1.7467152  -0.36589768    0.3401816   -1.7467152    1.3808175   439061 
  219000   0.92059825   -1.7471521   -1.7471521  -0.36625791   0.33795366   -1.7471521    1.3808942   439061 
  220000   0.91920845   -1.7448547   -1.7448547  -0.36604518   0.34221733   -1.7448547    1.3788095   439061 
  221000   0.92075712   -1.7476225   -1.7476225  -0.36648995   0.33768819   -1.7476225    1.3811325   439061 
  222000    0.9189726   -1.7459834   -1.7459834   -0.3675276   0.33975062   -1.7459834    1.3784558   439061 
  223000   0.91888079   -1.7467404   -1.7467404  -0.36842235   0.34125885   -1.7467404     1.378318   439061 
  224000    0.9188848   -1.7472912   -1.7472912  -0.36896715   0.34051694   -1.7472912    1.3783241   439061 
  225000     0.918829   -1.7470194   -1.7470194  -0.36877904   0.33724929   -1.7470194    1.3782404   439061 
  226000   0.91726801   -1.7464722   -1.7464722  -0.37057334   0.33649788   -1.7464722    1.3758989   439061 
  227000   0.91694414   -1.7463282   -1.7463282  -0.37091512   0.34066879   -1.7463282    1.3754131   439061 
  228000   0.91640585   -1.7478709   -1.7478709  -0.37326523   0.33532725   -1.7478709    1.3746056   439061 
  229000   0.91713365   -1.7485943   -1.7485943  -0.37289698   0.33716433   -1.7485943    1.3756973   439061 
  230000   0.91648851   -1.7484463   -1.7484463  -0.37371664   0.33869151   -1.7484463    1.3747296   439061 
  231000   0.91615382   -1.7488303   -1.7488303  -0.37460274   0.33453115   -1.7488303    1.3742276   439061 
  232000   0.91593739   -1.7491973   -1.7491973  -0.37529429   0.33336446   -1.7491973     1.373903   439061 
  233000   0.91421606   -1.7485567   -1.7485567  -0.37723578   0.33605916   -1.7485567     1.371321   439061 
  234000   0.91491862   -1.7514527   -1.7514527  -0.37907784    0.3353458   -1.7514527    1.3723748   439061 
  235000   0.91451956   -1.7507782   -1.7507782  -0.37900198   0.33560633   -1.7507782    1.3717762   439061 
  236000    0.9144973    -1.751068    -1.751068  -0.37932514   0.33477473    -1.751068    1.3717428   439061 
  237000   0.91418272   -1.7517185   -1.7517185  -0.38044755   0.33096146   -1.7517185     1.371271   439061 
  238000   0.91379473   -1.7511249   -1.7511249  -0.38043593   0.33356278   -1.7511249     1.370689   439061 
  239000   0.91272981   -1.7512314   -1.7512314  -0.38213983   0.33397911   -1.7512314    1.3690916   439061 
  240000   0.91121539   -1.7504153   -1.7504153  -0.38359537   0.33560315   -1.7504153      1.36682   439061 
  241000   0.91176349    -1.751417    -1.751417  -0.38377493   0.32968924    -1.751417    1.3676421   439061 
  242000   0.91124469   -1.7513423   -1.7513423  -0.38447837   0.33059755   -1.7513423    1.3668639   439061 
  243000   0.91103954   -1.7522688   -1.7522688  -0.38571265   0.33224802   -1.7522688    1.3665562   439061 
  244000   0.91040796   -1.7525326   -1.7525326  -0.38692372   0.32868418   -1.7525326    1.3656088   439061 
  245000   0.91041679   -1.7528519   -1.7528519  -0.38722986   0.33006178   -1.7528519    1.3656221   439061 
  246000   0.90932588   -1.7520527   -1.7520527  -0.38806698   0.32822531   -1.7520527    1.3639857   439061 
  247000   0.91064205   -1.7536042   -1.7536042  -0.38764419   0.32254617   -1.7536042      1.36596   439061 
  248000   0.90958609   -1.7536794   -1.7536794  -0.38930333   0.32849529   -1.7536794     1.364376   439061 
  249000   0.90803601   -1.7515513   -1.7515513  -0.38950041   0.32994819   -1.7515513    1.3620509   439061 
  250000   0.90757831   -1.7525575   -1.7525575  -0.39119311   0.32722612   -1.7525575    1.3613644   439061 
  251000   0.90667774   -1.7533762   -1.7533762  -0.39336271   0.32898455   -1.7533762    1.3600135   439061 
  252000    0.9069536   -1.7544549   -1.7544549   -0.3940276   0.32208985   -1.7544549    1.3604273   439061 
  253000   0.90664796   -1.7536099   -1.7536099   -0.3936411   0.32201064   -1.7536099    1.3599688   439061 
  254000   0.90636682   -1.7537591   -1.7537591  -0.39421194   0.32261292   -1.7537591    1.3595471   439061 
  255000   0.90630423    -1.753779    -1.753779   -0.3943257   0.32621902    -1.753779    1.3594533   439061 
  256000   0.90595466   -1.7543364   -1.7543364  -0.39540751   0.32137393   -1.7543364    1.3589289   439061 
  257000   0.90560651   -1.7540852   -1.7540852  -0.39567857   0.32623888   -1.7540852    1.3584067   439061 
  258000    0.9061576   -1.7551009   -1.7551009  -0.39586759   0.32324184   -1.7551009    1.3592333   439061 
  259000   0.90513102   -1.7550085   -1.7550085  -0.39731507   0.32476992   -1.7550085    1.3576934   439061 
  260000    0.9042928   -1.7549028   -1.7549028  -0.39846665   0.32336754   -1.7549028    1.3564361   439061 
  261000   0.90394845   -1.7553751   -1.7553751  -0.39945555   0.32054822   -1.7553751    1.3559196   439061 
  262000   0.90396617   -1.7556568   -1.7556568  -0.39971061   0.32426154   -1.7556568    1.3559462   439061 
  263000   0.90271574    -1.754802    -1.754802  -0.40073147   0.32539903    -1.754802    1.3540705   439061 
  264000   0.90221236   -1.7555301   -1.7555301  -0.40221465   0.32218582   -1.7555301    1.3533155   439061 
  265000   0.90192562   -1.7552871   -1.7552871  -0.40240171   0.32210399   -1.7552871    1.3528854   439061 
  266000   0.90073181   -1.7556828   -1.7556828  -0.40458818   0.32340607   -1.7556828    1.3510946   439061 
  267000   0.90077104   -1.7562639   -1.7562639  -0.40511042   0.31830141   -1.7562639    1.3511535   439061 
  268000   0.90172539   -1.7577324   -1.7577324  -0.40514738   0.32061631   -1.7577324     1.352585   439061 
  269000   0.90052955   -1.7573309   -1.7573309  -0.40653965   0.31800298   -1.7573309    1.3507913   439061 
  270000   0.90071572   -1.7586282   -1.7586282  -0.40755768   0.31882013   -1.7586282    1.3510705   439061 
  271000   0.89875483   -1.7569524   -1.7569524  -0.40882323   0.32110716   -1.7569524    1.3481292   439061 
  272000   0.89839757   -1.7571152   -1.7571152  -0.40952192   0.31965848   -1.7571152    1.3475933   439061 
  273000   0.89823045   -1.7565599   -1.7565599  -0.40921734   0.31884215   -1.7565599    1.3473426   439061 
  274000   0.89793701   -1.7576573   -1.7576573  -0.41075485   0.31721714   -1.7576573    1.3469024   439061 
  275000   0.89819091   -1.7585262   -1.7585262  -0.41124291   0.31867212   -1.7585262    1.3472833   439061 
  276000    0.8971065   -1.7569536   -1.7569536  -0.41129686   0.31789996   -1.7569536    1.3456567   439061 
  277000   0.89764061   -1.7579862   -1.7579862  -0.41152831    0.3133685   -1.7579862    1.3464579   439061 
  278000    0.8969843   -1.7560038   -1.7560038  -0.41053046   0.31846731   -1.7560038    1.3454734   439061 
  279000   0.89705512   -1.7574181   -1.7574181  -0.41183852   0.31721166   -1.7574181    1.3455796   439061 
  280000   0.89671452   -1.7565098   -1.7565098  -0.41144113   0.31377365   -1.7565098    1.3450687   439061 
  281000   0.89624063   -1.7577689   -1.7577689  -0.41341105   0.32045539   -1.7577689    1.3443579   439061 
  282000   0.89678716   -1.7591842   -1.7591842  -0.41400652   0.31565279   -1.7591842    1.3451777   439061 
  283000    0.8955009   -1.7583412   -1.7583412  -0.41509293   0.31349862   -1.7583412    1.3432483   439061 
  284000   0.89524061   -1.7590607   -1.7590607  -0.41620285   0.31475188   -1.7590607    1.3428579   439061 
  285000   0.89468421   -1.7582319   -1.7582319  -0.41620861   0.31502329   -1.7582319    1.3420233   439061 
  286000   0.89557031    -1.759053    -1.759053  -0.41570059    0.3143764    -1.759053    1.3433524   439061 
  287000   0.89381032   -1.7582316   -1.7582316  -0.41751923   0.31653635   -1.7582316    1.3407124   439061 
  288000   0.89395379   -1.7592621   -1.7592621  -0.41833442   0.31291649   -1.7592621    1.3409276   439061 
  289000   0.89417365   -1.7601822   -1.7601822  -0.41892482   0.31052769   -1.7601822    1.3412574   439061 
  290000   0.89424673   -1.7604596   -1.7604596  -0.41909256    0.3129646   -1.7604596     1.341367   439061 
  291000   0.89342019   -1.7603997   -1.7603997   -0.4202725   0.30868315   -1.7603997    1.3401272   439061 
  292000   0.89167247     -1.75853     -1.75853  -0.42102435   0.31491209     -1.75853    1.3375057   439061 
  293000   0.89241716   -1.7600966   -1.7600966  -0.42147391   0.30923593   -1.7600966    1.3386227   439061 
  294000   0.89279749   -1.7606713   -1.7606713  -0.42147817   0.31167481   -1.7606713    1.3391932   439061 
  295000   0.89174021   -1.7596973   -1.7596973     -0.42209   0.31481153   -1.7596973    1.3376073   439061 
  296000     0.891009   -1.7597049   -1.7597049  -0.42319441   0.31289907   -1.7597049    1.3365105   439061 
  297000   0.89211731   -1.7611617   -1.7611617  -0.42298875   0.31001216   -1.7611617    1.3381729   439061 
  298000   0.89069394   -1.7599773   -1.7599773  -0.42393947   0.31017377   -1.7599773    1.3360379   439061 
  299000   0.89127028    -1.760364    -1.760364  -0.42346159   0.31027471    -1.760364    1.3369024   439061 
  300000   0.89089482   -1.7607333   -1.7607333  -0.42439416   0.30579662   -1.7607333    1.3363392   439061 
  301000   0.88943309   -1.7592849   -1.7592849  -0.42513832   0.30889534   -1.7592849    1.3341466   439061 
  302000   0.88944892   -1.7612566   -1.7612566  -0.42708627   0.30621078   -1.7612566    1.3341703   439061 
  303000   0.88940731   -1.7631593   -1.7631593  -0.42905133   0.30665819   -1.7631593    1.3341079   439061 
  304000   0.88867504   -1.7631645   -1.7631645    -0.430155   0.30332456   -1.7631645    1.3330095   439061 
  305000   0.88796314   -1.7624299   -1.7624299  -0.43048819   0.30553011   -1.7624299    1.3319417   439061 
  306000   0.88816391   -1.7630019   -1.7630019  -0.43075911   0.30500409   -1.7630019    1.3322428   439061 
  307000   0.88812538   -1.7639222   -1.7639222  -0.43173718   0.30492585   -1.7639222     1.332185   439061 
  308000   0.88719541   -1.7630007   -1.7630007  -0.43221064   0.30715874   -1.7630007    1.3307901   439061 
  309000   0.88744199    -1.764041    -1.764041  -0.43288102   0.30580577    -1.764041      1.33116   439061 
  310000   0.88581967   -1.7620127   -1.7620127  -0.43328626   0.30503903   -1.7620127    1.3287265   439061 
  311000   0.88474581   -1.7615417   -1.7615417  -0.43442604   0.30644084   -1.7615417    1.3271157   439061 
  312000   0.88509636   -1.7634161   -1.7634161  -0.43577454   0.30330184   -1.7634161    1.3276415   439061 
  313000   0.88558081   -1.7642782   -1.7642782  -0.43591005   0.30088292   -1.7642782    1.3283682   439061 
  314000   0.88493011   -1.7637291   -1.7637291  -0.43633694   0.30548257   -1.7637291    1.3273921   439061 
  315000   0.88539367   -1.7641714   -1.7641714  -0.43608396   0.30607686   -1.7641714    1.3280875   439061 
  316000   0.88404962    -1.763183    -1.763183  -0.43711159   0.30675567    -1.763183    1.3260714   439061 
  317000   0.88410029   -1.7650159   -1.7650159  -0.43886844   0.29955699   -1.7650159    1.3261474   439061 
  318000    0.8841526   -1.7646518   -1.7646518  -0.43842594   0.30407411   -1.7646518    1.3262259   439061 
  319000   0.88408493   -1.7653828   -1.7653828  -0.43925845    0.3054877   -1.7653828    1.3261244   439061 
  320000   0.88521967   -1.7664791   -1.7664791  -0.43865265   0.30312744   -1.7664791    1.3278265   439061 
  321000   0.88341826   -1.7657422   -1.7657422  -0.44061787   0.29905344   -1.7657422    1.3251244   439061 
  322000   0.88268876   -1.7661372   -1.7661372  -0.44210706   0.30083937   -1.7661372    1.3240301   439061 
  323000    0.8831637   -1.7666247   -1.7666247  -0.44188215   0.29926271   -1.7666247    1.3247425   439061 
  324000   0.88110966   -1.7631166   -1.7631166  -0.44145507    0.3013026   -1.7631166    1.3216615   439061 
  325000   0.88163508    -1.764629    -1.764629  -0.44217939   0.29787943    -1.764629    1.3224496   439061 
  326000   0.88113334   -1.7643993   -1.7643993  -0.44270235   0.30459434   -1.7643993     1.321697   439061 
  327000   0.88163857   -1.7654819   -1.7654819  -0.44302703   0.29723424   -1.7654819    1.3224548   439061 
  328000   0.88003402   -1.7640766   -1.7640766  -0.44402854   0.30138591   -1.7640766     1.320048   439061 
  329000   0.88157685    -1.765816    -1.765816  -0.44345372   0.29855148    -1.765816    1.3223623   439061 
  330000   0.88110158   -1.7663662   -1.7663662  -0.44471689    0.2946363   -1.7663662    1.3216494   439061 
  331000   0.87971897   -1.7640123   -1.7640123  -0.44443688   0.30083353   -1.7640123    1.3195755   439061 
  332000    0.8806649   -1.7665207   -1.7665207  -0.44552637   0.29744115   -1.7665207    1.3209943   439061 
  333000   0.87997341   -1.7662741   -1.7662741  -0.44631704   0.28943281   -1.7662741    1.3199571   439061 
  334000   0.88056698   -1.7666244   -1.7666244  -0.44577691   0.29139514   -1.7666244    1.3208475   439061 
  335000   0.87826887   -1.7637578   -1.7637578  -0.44635751   0.29956389   -1.7637578    1.3174003   439061 
  336000   0.87917691   -1.7657505   -1.7657505  -0.44698814   0.29607949   -1.7657505    1.3187624   439061 
  337000   0.87853672   -1.7657811   -1.7657811  -0.44797906   0.29489696   -1.7657811    1.3178021   439061 
  338000   0.87807997   -1.7656915   -1.7656915  -0.44857456   0.29927689   -1.7656915     1.317117   439061 
  339000   0.87736054   -1.7658047   -1.7658047   -0.4497669   0.29034496   -1.7658047    1.3160378   439061 
  340000   0.87717183   -1.7664202   -1.7664202   -0.4506654   0.29368162   -1.7664202    1.3157548   439061 
  341000   0.87615041      -1.7659      -1.7659   -0.4516774   0.29706604      -1.7659    1.3142226   439061 
  342000   0.87673543   -1.7665609   -1.7665609  -0.45146079    0.2942997   -1.7665609    1.3151001   439061 
  343000   0.87618254   -1.7664012   -1.7664012  -0.45213041   0.29567845   -1.7664012    1.3142708   439061 
  344000   0.87541196   -1.7664337   -1.7664337  -0.45331873   0.29440385   -1.7664337     1.313115   439061 
  345000   0.87629553   -1.7680958   -1.7680958  -0.45365552   0.29220683   -1.7680958    1.3144403   439061 
  346000   0.87580668   -1.7677257   -1.7677257  -0.45401868   0.28994313   -1.7677257     1.313707   439061 
  347000   0.87482258   -1.7666485   -1.7666485   -0.4544176   0.29355127   -1.7666485    1.3122309   439061 
  348000   0.87385531   -1.7664626   -1.7664626  -0.45568259   0.29446723   -1.7664626      1.31078   439061 
  349000   0.87502667    -1.768859    -1.768859  -0.45632203   0.29464027    -1.768859     1.312537   439061 
  350000   0.87402599   -1.7685022   -1.7685022  -0.45746623   0.29475037   -1.7685022     1.311036   439061 
  351000   0.87325084   -1.7682297   -1.7682297  -0.45835641   0.29246937   -1.7682297    1.3098733   439061 
  352000   0.87288287   -1.7694837   -1.7694837  -0.46016234   0.29495546   -1.7694837    1.3093213   439061 
  353000    0.8737856   -1.7706023   -1.7706023  -0.45992688    0.2879695   -1.7706023    1.3106754   439061 
  354000   0.87316817   -1.7697612   -1.7697612  -0.46001191   0.29304483   -1.7697612    1.3097493   439061 
  355000   0.87338642   -1.7698433   -1.7698433  -0.45976663    0.2882841   -1.7698433    1.3100767   439061 
  356000   0.87336599   -1.7706773   -1.7706773  -0.46063134   0.29096255   -1.7706773     1.310046   439061 
  357000   0.87161661    -1.769571    -1.769571  -0.46214908   0.28945451    -1.769571    1.3074219   439061 
  358000   0.87170911   -1.7690676   -1.7690676  -0.46150688   0.28750835   -1.7690676    1.3075607   439061 
  359000   0.87277999   -1.7711158   -1.7711158  -0.46194878   0.29188504   -1.7711158     1.309167   439061 
  360000    0.8704914   -1.7684633   -1.7684633  -0.46272913   0.28810835   -1.7684633    1.3057341   439061 
  361000   0.87042447   -1.7699748   -1.7699748  -0.46434109   0.29135229   -1.7699748    1.3056337   439061 
  362000   0.87038108   -1.7693853   -1.7693853  -0.46381668   0.28608573   -1.7693853    1.3055687   439061 
  363000    0.8712316   -1.7706748   -1.7706748  -0.46383041    0.2865327   -1.7706748    1.3068444   439061 
  364000   0.86985621   -1.7694779   -1.7694779  -0.46469657   0.28650562   -1.7694779    1.3047813   439061 
  365000   0.87044159   -1.7700846   -1.7700846   -0.4644252   0.28756533   -1.7700846    1.3056594   439061 
  366000   0.86936848   -1.7685671   -1.7685671  -0.46451735   0.28838396   -1.7685671    1.3040498   439061 
  367000    0.8692077   -1.7684172   -1.7684172   -0.4646086   0.28581035   -1.7684172    1.3038086   439061 
  368000   0.86894759   -1.7684697   -1.7684697   -0.4650513   0.28471185   -1.7684697    1.3034184   439061 
  369000   0.86937142   -1.7687033   -1.7687033  -0.46464913   0.28556684   -1.7687033    1.3040542   439061 
  370000   0.86884751   -1.7687066   -1.7687066  -0.46543828    0.2873871   -1.7687066    1.3032683   439061 
  371000   0.86937941   -1.7700367   -1.7700367   -0.4659706   0.28448106   -1.7700367    1.3040661   439061 
  372000   0.86796749   -1.7694919   -1.7694919  -0.46754361    0.2857654   -1.7694919    1.3019483   439061 
  373000   0.86855419    -1.771722    -1.771722  -0.46889371   0.28082563    -1.771722    1.3028283   439061 
  374000   0.86778375   -1.7709857   -1.7709857  -0.46931308    0.2820649   -1.7709857    1.3016727   439061 
  375000   0.86799901   -1.7716462   -1.7716462  -0.46965066   0.28472419   -1.7716462    1.3019956   439061 
  376000   0.86737553   -1.7706085   -1.7706085  -0.46954821   0.28889269   -1.7706085    1.3010603   439061 
  377000   0.86820563   -1.7717196   -1.7717196  -0.46941417   0.28306674   -1.7717196    1.3023055   439061 
  378000   0.86704456   -1.7707869   -1.7707869    -0.470223   0.28623449   -1.7707869    1.3005639   439061 
  379000    0.8666048   -1.7704083   -1.7704083  -0.47050403   0.28314537   -1.7704083    1.2999042   439061 
  380000   0.86752857    -1.772318    -1.772318  -0.47102807   0.28631016    -1.772318    1.3012899   439061 
  381000   0.86701426   -1.7710907   -1.7710907  -0.47057228    0.2872436   -1.7710907    1.3005184   439061 
  382000   0.86627941   -1.7711046   -1.7711046   -0.4716884   0.28801391   -1.7711046    1.2994162   439061 
  383000   0.86658841   -1.7729407   -1.7729407  -0.47306108   0.28306468   -1.7729407    1.2998796   439061 
  384000     0.866455   -1.7729396   -1.7729396  -0.47326006   0.28267861   -1.7729396    1.2996795   439061 
  385000   0.86603419   -1.7729335   -1.7729335   -0.4738852   0.28061544   -1.7729335    1.2990483   439061 
  386000   0.86522164   -1.7729779   -1.7729779  -0.47514838   0.28049686   -1.7729779    1.2978295   439061 
  387000   0.86420847   -1.7722208   -1.7722208  -0.47591102   0.27751767   -1.7722208    1.2963097   439061 
  388000   0.86346319   -1.7710538   -1.7710538    -0.475862   0.28183525   -1.7710538    1.2951918   439061 
  389000   0.86396959   -1.7726975   -1.7726975   -0.4767461   0.27990336   -1.7726975    1.2959514   439061 
  390000   0.86396907   -1.7723253   -1.7723253  -0.47637461   0.28126636   -1.7723253    1.2959507   439061 
  391000   0.86384344   -1.7715083   -1.7715083  -0.47574608   0.28263954   -1.7715083    1.2957622   439061 
  392000   0.86467241   -1.7729251   -1.7729251  -0.47591948   0.28243196   -1.7729251    1.2970057   439061 
  393000   0.86379308   -1.7724756   -1.7724756  -0.47678891   0.27707133   -1.7724756    1.2956867   439061 
  394000    0.8629892   -1.7715126   -1.7715126  -0.47703173   0.27981994   -1.7715126    1.2944809   439061 
  395000    0.8634706   -1.7720932   -1.7720932  -0.47689022   0.27602211   -1.7720932    1.2952029   439061 
  396000   0.86357639   -1.7733133   -1.7733133   -0.4779517   0.28005427   -1.7733133    1.2953616   439061 
  397000   0.86231034   -1.7720032   -1.7720032  -0.47854067   0.27777967   -1.7720032    1.2934626   439061 
  398000   0.86251948   -1.7732541   -1.7732541  -0.47947784   0.26907453   -1.7732541    1.2937763   439061 
  399000   0.86208136   -1.7718634   -1.7718634  -0.47874433    0.2767235   -1.7718634    1.2931191   439061 
  400000   0.86148477   -1.7711831   -1.7711831  -0.47895888   0.28018556   -1.7711831    1.2922242   439061 
  401000   0.86137563   -1.7712549   -1.7712549   -0.4791944   0.27669117   -1.7712549    1.2920605   439061 
  402000   0.86238063   -1.7726147   -1.7726147  -0.47904675   0.28138729   -1.7726147     1.293568   439061 
  403000   0.86179327   -1.7725975   -1.7725975  -0.47991052    0.2767286   -1.7725975     1.292687   439061 
  404000   0.86158165   -1.7730569   -1.7730569  -0.48068739   0.27543172   -1.7730569    1.2923695   439061 
  405000   0.86087183   -1.7729547   -1.7729547  -0.48164994   0.27846147   -1.7729547    1.2913048   439061 
  406000    0.8608968   -1.7736185   -1.7736185  -0.48227628   0.27732419   -1.7736185    1.2913423   439061 
  407000   0.85886477   -1.7715947   -1.7715947  -0.48330049   0.27810654   -1.7715947    1.2882942   439061 
  408000   0.86126741   -1.7761404   -1.7761404  -0.48424221   0.27280543   -1.7761404    1.2918982   439061 
  409000   0.85968885    -1.774601    -1.774601  -0.48507064   0.27275497    -1.774601    1.2895303   439061 
  410000   0.85969098   -1.7750624   -1.7750624  -0.48552884   0.27457084   -1.7750624    1.2895335   439061 
  411000   0.85903787   -1.7753619   -1.7753619  -0.48680807   0.26910922   -1.7753619    1.2885539   439061 
  412000   0.85924608   -1.7760474   -1.7760474  -0.48718119    0.2717253   -1.7760474    1.2888662   439061 
  413000    0.8569983   -1.7733568   -1.7733568  -0.48786226   0.27665887   -1.7733568    1.2854945   439061 
  414000   0.85795382   -1.7756764   -1.7756764  -0.48874863   0.27114618   -1.7756764    1.2869278   439061 
  415000   0.85756879   -1.7753359   -1.7753359  -0.48898563   0.27584007   -1.7753359    1.2863502   439061 
  416000   0.85814002   -1.7753526   -1.7753526  -0.48814554   0.27282438   -1.7753526    1.2872071   439061 
  417000   0.85784121   -1.7763195   -1.7763195  -0.48956059   0.27321103   -1.7763195    1.2867589   439061 
  418000    0.8565292   -1.7747427   -1.7747427  -0.48995186   0.27372678   -1.7747427    1.2847909   439061 
  419000   0.85644398   -1.7758002   -1.7758002  -0.49113714   0.26924811   -1.7758002     1.284663   439061 
  420000    0.8568553   -1.7775761   -1.7775761  -0.49229609   0.27206811   -1.7775761      1.28528   439061 
  421000   0.85563121   -1.7753906   -1.7753906  -0.49194672   0.27424772   -1.7753906    1.2834439   439061 
  422000   0.85631033   -1.7775402   -1.7775402  -0.49307767   0.27073887   -1.7775402    1.2844626   439061 
  423000   0.85488836   -1.7754919   -1.7754919  -0.49316223   0.27317119   -1.7754919    1.2823296   439061 
  424000   0.85501704   -1.7762094   -1.7762094  -0.49368674   0.26940229   -1.7762094    1.2825226   439061 
  425000   0.85535677   -1.7762982   -1.7762982  -0.49326593    0.2689594   -1.7762982    1.2830322   439061 
  426000   0.85442455   -1.7766405   -1.7766405  -0.49500658   0.27204787   -1.7766405    1.2816339   439061 
  427000   0.85453804   -1.7762132   -1.7762132  -0.49440906   0.27189162   -1.7762132    1.2818041   439061 
  428000    0.8537504   -1.7758859   -1.7758859  -0.49526322   0.27019552   -1.7758859    1.2806227   439061 
  429000   0.85478872   -1.7764992   -1.7764992  -0.49431902   0.26402669   -1.7764992    1.2821802   439061 
  430000   0.85385902   -1.7761197   -1.7761197  -0.49533406   0.27005998   -1.7761197    1.2807856   439061 
  431000   0.85281485   -1.7756541   -1.7756541  -0.49643477   0.26517999   -1.7756541    1.2792194   439061 
  432000   0.85336204    -1.776502    -1.776502  -0.49646182   0.27286498    -1.776502    1.2800401   439061 
  433000    0.8520808   -1.7751367   -1.7751367  -0.49701838    0.2704287   -1.7751367    1.2781183   439061 
  434000   0.85429234   -1.7781901   -1.7781901  -0.49675446   0.26796304   -1.7781901    1.2814356   439061 
  435000   0.85249203   -1.7770386   -1.7770386  -0.49830349   0.26854583   -1.7770386    1.2787351   439061 
  436000   0.85271621   -1.7766568   -1.7766568  -0.49758536   0.26889949   -1.7766568    1.2790714   439061 
  437000   0.85248458   -1.7779507   -1.7779507  -0.49922673   0.26624003   -1.7779507     1.278724   439061 
  438000   0.85165117   -1.7769407   -1.7769407  -0.49946682   0.27054764   -1.7769407    1.2774738   439061 
  439000    0.8527749    -1.778358    -1.778358  -0.49919851   0.26880274    -1.778358    1.2791594   439061 
  440000    0.8509086   -1.7764455   -1.7764455  -0.50008555   0.27045873   -1.7764455      1.27636   439061 
  441000   0.85118873   -1.7769887   -1.7769887  -0.50020847   0.26691679   -1.7769887    1.2767802   439061 
  442000   0.85164406   -1.7780306   -1.7780306  -0.50056746   0.26515508   -1.7780306    1.2774632   439061 
  443000   0.85139532   -1.7781156   -1.7781156  -0.50102551   0.26851834   -1.7781156    1.2770901   439061 
  444000   0.85092537   -1.7778942   -1.7778942  -0.50150902   0.26821675   -1.7778942    1.2763851   439061 
  445000   0.85138623   -1.7783627   -1.7783627   -0.5012863   0.26687378   -1.7783627    1.2770764   439061 
  446000   0.84970084   -1.7772585   -1.7772585  -0.50271017   0.26688869   -1.7772585    1.2745484   439061 
  447000   0.84932127   -1.7778807   -1.7778807  -0.50390172   0.26398082   -1.7778807     1.273979   439061 
  448000   0.84933003   -1.7765861   -1.7765861  -0.50259391   0.26687846   -1.7765861    1.2739921   439061 
  449000   0.84952601   -1.7775953   -1.7775953  -0.50330916     0.263065   -1.7775953    1.2742861   439061 
  450000   0.85075303   -1.7792911   -1.7792911   -0.5031645    0.2668816   -1.7792911    1.2761266   439061 
  451000   0.84914263   -1.7781361   -1.7781361   -0.5044251   0.26817529   -1.7781361     1.273711   439061 
  452000     0.849389   -1.7779403   -1.7779403  -0.50385972   0.26635793   -1.7779403    1.2740806   439061 
  453000   0.85112087   -1.7809071   -1.7809071  -0.50422867   0.26550268   -1.7809071    1.2766784   439061 
  454000   0.84983397    -1.779973    -1.779973  -0.50522491   0.26634532    -1.779973     1.274748   439061 
  455000    0.8485456   -1.7790025   -1.7790025  -0.50618702    0.2654893   -1.7790025    1.2728155   439061 
  456000   0.84818663   -1.7786254   -1.7786254   -0.5063483   0.26359563   -1.7786254     1.272277   439061 
  457000   0.84770511   -1.7781184   -1.7781184  -0.50656367   0.26448967   -1.7781184    1.2715548   439061 
  458000   0.84734827   -1.7778997   -1.7778997  -0.50688014   0.26182271   -1.7778997    1.2710195   439061 
  459000   0.84773074   -1.7785999   -1.7785999  -0.50700664   0.26388483   -1.7785999    1.2715932   439061 
  460000   0.84741057   -1.7795869   -1.7795869  -0.50847393   0.26037115   -1.7795869     1.271113   439061 
  461000   0.84555767   -1.7768413   -1.7768413  -0.50850772      0.26094   -1.7768413    1.2683336   439061 
  462000   0.84721918   -1.7788808   -1.7788808  -0.50805489   0.26260062   -1.7788808    1.2708259   439061 
  463000   0.84655155   -1.7774786   -1.7774786  -0.50765419   0.26004135   -1.7774786    1.2698244   439061 
  464000   0.84575436   -1.7775671   -1.7775671  -0.50893849   0.26151887   -1.7775671    1.2686286   439061 
  465000   0.84591301   -1.7788607   -1.7788607  -0.50999403   0.26372095   -1.7788607    1.2688666   439061 
  466000   0.84548773   -1.7783231   -1.7783231  -0.51009437   0.25925676   -1.7783231    1.2682287   439061 
  467000    0.8464911    -1.780763    -1.780763  -0.51102927   0.26106053    -1.780763    1.2697338   439061 
  468000   0.84562016   -1.7806104   -1.7806104  -0.51218304   0.25927076   -1.7806104    1.2684274   439061 
  469000   0.84536838   -1.7807067   -1.7807067  -0.51265701    0.2611609   -1.7807067    1.2680497   439061 
  470000   0.84582942   -1.7814971   -1.7814971   -0.5127559   0.26020913   -1.7814971    1.2687412   439061 
  471000   0.84438659   -1.7793749   -1.7793749  -0.51279787    0.2595587   -1.7793749     1.266577   439061 
  472000   0.84493609   -1.7812246   -1.7812246  -0.51382339    0.2592356   -1.7812246    1.2674012   439061 
  473000   0.84305393   -1.7789133   -1.7789133   -0.5143353   0.26031197   -1.7789133     1.264578   439061 
  474000   0.84500749   -1.7807857   -1.7807857  -0.51327731   0.26385135   -1.7807857    1.2675083   439061 
  475000   0.84513352   -1.7812571   -1.7812571  -0.51355968   0.25717797   -1.7812571    1.2676974   439061 
  476000   0.84361624    -1.779543    -1.779543   -0.5141215   0.25649067    -1.779543    1.2654215   439061 
  477000   0.84416398   -1.7807031   -1.7807031  -0.51445997    0.2594288   -1.7807031    1.2662431   439061 
  478000   0.84356163   -1.7799211   -1.7799211  -0.51458156   0.25612571   -1.7799211    1.2653396   439061 
  479000   0.84441782   -1.7819869   -1.7819869  -0.51536306   0.25675022   -1.7819869    1.2666238   439061 
  480000   0.84272122   -1.7793916   -1.7793916  -0.51531259   0.26145029   -1.7793916     1.264079   439061 
  481000   0.84191345   -1.7801378   -1.7801378  -0.51727055   0.25969256   -1.7801378    1.2628673   439061 
  482000   0.84226969   -1.7811319   -1.7811319  -0.51773028   0.25225812   -1.7811319    1.2634017   439061 
  483000   0.84142541    -1.780054    -1.780054  -0.51791881    0.2585463    -1.780054    1.2621352   439061 
  484000   0.84091494   -1.7796902   -1.7796902  -0.51832063   0.25398163   -1.7796902    1.2613695   439061 
  485000   0.84061202   -1.7801423   -1.7801423  -0.51922709   0.25348739   -1.7801423    1.2609152   439061 
  486000   0.84106064   -1.7801312   -1.7801312  -0.51854315   0.25731635   -1.7801312    1.2615881   439061 
  487000   0.84049519    -1.779826    -1.779826  -0.51908607   0.25985271    -1.779826    1.2607399   439061 
  488000   0.83970711   -1.7810199   -1.7810199  -0.52146215   0.25475983   -1.7810199    1.2595578   439061 
  489000    0.8395926   -1.7801018   -1.7801018  -0.52071578   0.25573187   -1.7801018     1.259386   439061 
  490000   0.83944011   -1.7800814   -1.7800814  -0.52092408   0.25446991   -1.7800814    1.2591573   439061 
  491000   0.84048359   -1.7820506   -1.7820506  -0.52132805   0.25603921   -1.7820506    1.2607225   439061 
  492000    0.8392276   -1.7806685   -1.7806685  -0.52182991   0.25481121   -1.7806685    1.2588385   439061 
  493000   0.84047767   -1.7825363   -1.7825363  -0.52182269   0.25308721   -1.7825363    1.2607136   439061 
  494000   0.83959691   -1.7814439   -1.7814439  -0.52205137   0.25133298   -1.7814439    1.2593925   439061 
  495000   0.84050632   -1.7821128   -1.7821128  -0.52135621   0.25628761   -1.7821128    1.2607566   439061 
  496000   0.83972176    -1.780486    -1.780486  -0.52090621   0.25439597    -1.780486    1.2595798   439061 
  497000   0.83984872   -1.7810833   -1.7810833  -0.52131306   0.25478276   -1.7810833    1.2597702   439061 
  498000   0.83946009    -1.780464    -1.780464  -0.52127671   0.25193612    -1.780464    1.2591873   439061 
  499000   0.83877307   -1.7803119   -1.7803119  -0.52215517   0.25444715   -1.7803119    1.2581567   439061 
  500000   0.84027234   -1.7832048   -1.7832048  -0.52279918   0.25238326   -1.7832048    1.2604056   439061 
  501000   0.83861435   -1.7820452   -1.7820452   -0.5241265   0.25218855   -1.7820452    1.2579187   439061 
  502000   0.83809951   -1.7815212   -1.7815212  -0.52437483     0.250879   -1.7815212    1.2571464   439061 
  503000   0.83882957   -1.7828027   -1.7828027  -0.52456118     0.253898   -1.7828027    1.2582415   439061 
  504000   0.83820907   -1.7818868   -1.7818868   -0.5245761     0.253354   -1.7818868    1.2573107   439061 
  505000   0.83867048   -1.7828833   -1.7828833  -0.52488043   0.25179789   -1.7828833    1.2580029   439061 
  506000   0.83835713   -1.7822543   -1.7822543  -0.52472146   0.25272289   -1.7822543    1.2575328   439061 
  507000   0.83887304   -1.7835461   -1.7835461  -0.52523938   0.25273434   -1.7835461    1.2583067   439061 
  508000   0.83801989   -1.7816024   -1.7816024  -0.52457549   0.25511889   -1.7816024     1.257027   439061 
  509000   0.83726387   -1.7816185   -1.7816185  -0.52572557   0.25338928   -1.7816185    1.2558929   439061 
  510000   0.83636452   -1.7804776   -1.7804776  -0.52593366   0.25226652   -1.7804776    1.2545439   439061 
  511000   0.83730435   -1.7820586   -1.7820586  -0.52610491   0.25093305   -1.7820586    1.2559537   439061 
  512000   0.83648282   -1.7815794   -1.7815794  -0.52685801   0.24939239   -1.7815794    1.2547214   439061 
  513000   0.83674529   -1.7819744   -1.7819744  -0.52685931   0.25011265   -1.7819744    1.2551151   439061 
  514000   0.83548895   -1.7809267   -1.7809267  -0.52769608    0.2514643   -1.7809267    1.2532306   439061 
  515000   0.83554492   -1.7806104   -1.7806104   -0.5272959   0.25089115   -1.7806104    1.2533145   439061 
  516000   0.83517221   -1.7800463   -1.7800463   -0.5272908   0.25011405   -1.7800463    1.2527555   439061 
  517000   0.83608681   -1.7822991   -1.7822991   -0.5281717    0.2513513   -1.7822991    1.2541274   439061 
  518000   0.83521521     -1.78162     -1.78162  -0.52880009   0.25049349     -1.78162      1.25282   439061 
  519000   0.83445302   -1.7814144   -1.7814144  -0.52973773   0.24652017   -1.7814144    1.2516767   439061 
  520000   0.83470463   -1.7815271   -1.7815271  -0.52947303   0.24702498   -1.7815271    1.2520541   439061 
  521000    0.8349508   -1.7818798   -1.7818798  -0.52945642    0.2502633   -1.7818798    1.2524233   439061 
  522000   0.83573641   -1.7831578   -1.7831578  -0.52955599   0.25209457   -1.7831578    1.2536018   439061 
  523000   0.83467082    -1.782548    -1.782548  -0.53054465   0.25070129    -1.782548    1.2520034   439061 
  524000   0.83421557   -1.7826669   -1.7826669  -0.53134644   0.24956872   -1.7826669    1.2513205   439061 
  525000   0.83363266   -1.7815385   -1.7815385  -0.53109239   0.24829615   -1.7815385    1.2504461   439061 
  526000   0.83318789   -1.7815542   -1.7815542  -0.53177523   0.24787177   -1.7815542     1.249779   439061 
  527000   0.83361785   -1.7822729   -1.7822729  -0.53184898   0.24740388   -1.7822729    1.2504239   439061 
  528000   0.83289375   -1.7818146   -1.7818146  -0.53247677   0.24654987   -1.7818146    1.2493378   439061 
  529000   0.83286751   -1.7828306   -1.7828306  -0.53353216   0.24569373   -1.7828306    1.2492984   439061 
  530000   0.83274813   -1.7826899   -1.7826899  -0.53357054   0.24839127   -1.7826899    1.2491194   439061 
  531000   0.83270313   -1.7825976   -1.7825976  -0.53354576   0.24704271   -1.7825976    1.2490519   439061 
  532000   0.83242183   -1.7823432   -1.7823432  -0.53371325    0.2466579   -1.7823432    1.2486299   439061 
  533000   0.83211131   -1.7822161   -1.7822161    -0.534052   0.24471222   -1.7822161    1.2481641   439061 
  534000   0.83224563   -1.7825926   -1.7825926  -0.53422702   0.24786636   -1.7825926    1.2483656   439061 
  535000   0.83217228   -1.7832728   -1.7832728  -0.53501718   0.24692325   -1.7832728    1.2482556   439061 
  536000   0.83323567   -1.7854935   -1.7854935  -0.53564283   0.24350526   -1.7854935    1.2498507   439061 
  537000   0.83168244   -1.7834454   -1.7834454  -0.53592462   0.24746341   -1.7834454    1.2475208   439061 
  538000   0.83167423   -1.7831694   -1.7831694  -0.53566088   0.24597222   -1.7831694    1.2475085   439061 
  539000   0.83155107   -1.7835666   -1.7835666  -0.53624282   0.24695603   -1.7835666    1.2473238   439061 
  540000   0.83142361   -1.7847435   -1.7847435  -0.53761089   0.24362311   -1.7847435    1.2471326   439061 
  541000   0.83065003   -1.7836848   -1.7836848  -0.53771258   0.24883044   -1.7836848    1.2459722   439061 
  542000   0.83025098   -1.7839661   -1.7839661  -0.53859242   0.24595204   -1.7839661    1.2453736   439061 
  543000   0.82999849   -1.7832502   -1.7832502  -0.53825528   0.24028276   -1.7832502    1.2449949   439061 
  544000   0.82937181   -1.7834006   -1.7834006  -0.53934573   0.24631219   -1.7834006    1.2440549   439061 
  545000   0.82994233   -1.7841418   -1.7841418  -0.53923117   0.24640493   -1.7841418    1.2449107   439061 
  546000   0.82968744   -1.7831216   -1.7831216  -0.53859328   0.24756541   -1.7831216    1.2445283   439061 
  547000   0.83034017   -1.7835764   -1.7835764  -0.53806896   0.24317715   -1.7835764    1.2455074   439061 
  548000   0.82971232   -1.7836819   -1.7836819  -0.53911622   0.24533862   -1.7836819    1.2445656   439061 
  549000   0.82905014    -1.782628    -1.782628  -0.53905565   0.24420063    -1.782628    1.2435724   439061 
  550000   0.82927717   -1.7845248   -1.7845248  -0.54061184   0.24199439   -1.7845248    1.2439129   439061 
  551000   0.82892888   -1.7838467   -1.7838467  -0.54045617   0.24124199   -1.7838467    1.2433905   439061 
  552000   0.82893126   -1.7832044   -1.7832044  -0.53981033   0.24348459   -1.7832044    1.2433941   439061 
  553000   0.82956697   -1.7833701   -1.7833701  -0.53902246   0.23917342   -1.7833701    1.2443476   439061 
  554000   0.82975648   -1.7837517   -1.7837517  -0.53911979   0.24290979   -1.7837517    1.2446319   439061 
  555000   0.82907087   -1.7829986   -1.7829986  -0.53939515   0.24676542   -1.7829986    1.2436035   439061 
  556000   0.82857536   -1.7824448   -1.7824448  -0.53958459   0.24525429   -1.7824448    1.2428602   439061 
  557000    0.8284579   -1.7833017   -1.7833017  -0.54061766   0.24350902   -1.7833017     1.242684   439061 
  558000    0.8278403   -1.7827435   -1.7827435  -0.54098586   0.23762719   -1.7827435    1.2417576   439061 
  559000   0.82912291   -1.7839308   -1.7839308  -0.54024928   0.24259129   -1.7839308    1.2436815   439061 
  560000   0.82899962    -1.784026    -1.784026  -0.54052944   0.24201605    -1.784026    1.2434966   439061 
  561000   0.82853757    -1.784435    -1.784435  -0.54163149    0.2398369    -1.784435    1.2428035   439061 
  562000   0.82723446   -1.7839371   -1.7839371  -0.54308826   0.23942887   -1.7839371    1.2408489   439061 
  563000   0.82724889   -1.7839619   -1.7839619  -0.54309138   0.23996449   -1.7839619    1.2408705   439061 
  564000   0.82745241   -1.7834892   -1.7834892  -0.54231339   0.23965835   -1.7834892    1.2411758   439061 
  565000   0.82702238   -1.7828421   -1.7828421  -0.54231134   0.23886322   -1.7828421    1.2405307   439061 
  566000   0.82666504   -1.7828134   -1.7828134   -0.5428187   0.24094313   -1.7828134    1.2399947   439061 
  567000   0.82694001   -1.7832634   -1.7832634  -0.54285622   0.24439854   -1.7832634    1.2404072   439061 
  568000   0.82732249   -1.7837514   -1.7837514   -0.5427705   0.24132497   -1.7837514    1.2409809   439061 
  569000   0.82661109   -1.7840022   -1.7840022  -0.54408836   0.24018612   -1.7840022    1.2399138   439061 
  570000   0.82658638   -1.7840899   -1.7840899  -0.54421313   0.23787089   -1.7840899    1.2398767   439061 
  571000   0.82598515   -1.7845367   -1.7845367  -0.54556175   0.23371966   -1.7845367    1.2389749   439061 
  572000   0.82501257    -1.782952    -1.782952  -0.54543594   0.24081691    -1.782952     1.237516   439061 
  573000   0.82687969   -1.7853297   -1.7853297  -0.54501297   0.23680392   -1.7853297    1.2403167   439061 
  574000    0.8261358   -1.7846203   -1.7846203  -0.54541945   0.23892388   -1.7846203    1.2392009   439061 
  575000   0.82587254   -1.7839166   -1.7839166  -0.54511062   0.24307947   -1.7839166     1.238806   439061 
  576000   0.82453349   -1.7834879   -1.7834879  -0.54669051   0.23662736   -1.7834879    1.2367974   439061 
  577000   0.82378776   -1.7826453   -1.7826453  -0.54696652   0.23914816   -1.7826453    1.2356788   439061 
  578000   0.82555695   -1.7842993   -1.7842993  -0.54596675    0.2389668   -1.7842993    1.2383326   439061 
  579000   0.82623159   -1.7852992   -1.7852992  -0.54595467    0.2381549   -1.7852992    1.2393446   439061 
  580000   0.82580576    -1.784366    -1.784366  -0.54566015   0.23677918    -1.784366    1.2387058   439061 
  581000   0.82605784   -1.7849819   -1.7849819  -0.54589794   0.24133293   -1.7849819    1.2390839   439061 
  582000   0.82580642   -1.7849489   -1.7849489  -0.54624207   0.23683257   -1.7849489    1.2387068   439061 
  583000   0.82538902   -1.7844662   -1.7844662  -0.54638548   0.23869578   -1.7844662    1.2380807   439061 
  584000   0.82469443   -1.7835617   -1.7835617  -0.54652291   0.23931838   -1.7835617    1.2370388   439061 
  585000   0.82514821   -1.7844756   -1.7844756  -0.54675612   0.24082849   -1.7844756    1.2377195   439061 
  586000   0.82330543   -1.7826323   -1.7826323  -0.54767694   0.23869624   -1.7826323    1.2349553   439061 
  587000   0.82386245   -1.7839605   -1.7839605  -0.54816965   0.23515861   -1.7839605    1.2357909   439061 
  588000   0.82391445   -1.7833864   -1.7833864   -0.5475175   0.23420552   -1.7833864    1.2358689   439061 
  589000    0.8240254   -1.7836174   -1.7836174  -0.54758216   0.23622162   -1.7836174    1.2360353   439061 
  590000   0.82412443   -1.7835666   -1.7835666  -0.54738279   0.23311469   -1.7835666    1.2361838   439061 
  591000   0.82334101   -1.7825638   -1.7825638   -0.5475551   0.23370639   -1.7825638    1.2350087   439061 
  592000   0.82352408   -1.7838783   -1.7838783  -0.54859498    0.2376708   -1.7838783    1.2352833   439061 
  593000   0.82411536   -1.7843092   -1.7843092  -0.54813897   0.23330846   -1.7843092    1.2361702   439061 
  594000   0.82227424   -1.7816816   -1.7816816  -0.54827308   0.23650456   -1.7816816    1.2334086   439061 
  595000   0.82296311   -1.7828531   -1.7828531  -0.54841126   0.23243535   -1.7828531    1.2344419   439061 
  596000    0.8229425    -1.782731    -1.782731  -0.54832011   0.23858915    -1.782731    1.2344109   439061 
  597000   0.82151859   -1.7809933   -1.7809933  -0.54871824   0.23624365   -1.7809933    1.2322751   439061 
  598000     0.821518   -1.7825479   -1.7825479  -0.55027367    0.2345806   -1.7825479    1.2322742   439061 
  599000   0.82141455   -1.7828341   -1.7828341  -0.55071509   0.23358424   -1.7828341     1.232119   439061 
  600000   0.82105536   -1.7831756   -1.7831756  -0.55159537   0.23453317   -1.7831756    1.2315802   439061 
  601000   0.82140996   -1.7836853   -1.7836853  -0.55157314   0.23052704   -1.7836853    1.2321121   439061 
  602000   0.82206404   -1.7846368   -1.7846368  -0.55154359   0.23370141   -1.7846368    1.2330932   439061 
  603000   0.82105427   -1.7837383   -1.7837383  -0.55215974   0.23339621   -1.7837383    1.2315786   439061 
  604000   0.82189986   -1.7855981   -1.7855981  -0.55275112   0.22897177   -1.7855981     1.232847   439061 
  605000   0.82120939   -1.7843847   -1.7843847  -0.55257342   0.23207969   -1.7843847    1.2318113   439061 
  606000   0.82078701   -1.7848851   -1.7848851  -0.55370744   0.23040989   -1.7848851    1.2311777   439061 
  607000   0.82089796   -1.7854943   -1.7854943  -0.55415013   0.23157275   -1.7854943    1.2313441   439061 
  608000   0.82048775   -1.7846399   -1.7846399   -0.5539111   0.23287438   -1.7846399    1.2307288   439061 
  609000   0.82056539   -1.7852198   -1.7852198  -0.55437456    0.2317845   -1.7852198    1.2308453   439061 
  610000   0.82047827   -1.7866465   -1.7866465  -0.55593187   0.23345598   -1.7866465    1.2307146   439061 
  611000   0.82094034   -1.7872983   -1.7872983   -0.5558906   0.23049758   -1.7872983    1.2314077   439061 
  612000   0.81833753   -1.7839866   -1.7839866  -0.55648311   0.23909953   -1.7839866    1.2275035   439061 
  613000   0.81904331   -1.7855277   -1.7855277   -0.5569655   0.23181149   -1.7855277    1.2285622   439061 
  614000   0.81875309   -1.7855978   -1.7855978  -0.55747094   0.23655066   -1.7855978    1.2281268   439061 
  615000   0.82095549   -1.7878745   -1.7878745  -0.55644404     0.230046   -1.7878745    1.2314304   439061 
  616000   0.81979319   -1.7874958   -1.7874958  -0.55780882    0.2285519   -1.7874958     1.229687   439061 
  617000   0.81867043   -1.7852595   -1.7852595  -0.55725662   0.23098253   -1.7852595    1.2280028   439061 
  618000    0.8197099   -1.7870783   -1.7870783   -0.5575163   0.23096979   -1.7870783     1.229562   439061 
  619000   0.81786506   -1.7853087   -1.7853087  -0.55851387   0.23396135   -1.7853087    1.2267948   439061 
  620000    0.8188001   -1.7873275   -1.7873275  -0.55913017   0.23122976   -1.7873275    1.2281974   439061 
  621000   0.81902442   -1.7873561   -1.7873561  -0.55882229   0.23107097   -1.7873561    1.2285338   439061 
  622000   0.81746905   -1.7849448   -1.7849448  -0.55874404   0.23148054   -1.7849448    1.2262008   439061 
  623000   0.81734707   -1.7854218   -1.7854218  -0.55940399   0.23079842   -1.7854218    1.2260178   439061 
  624000   0.81698726   -1.7843151   -1.7843151  -0.55883704   0.22731752   -1.7843151    1.2254781   439061 
  625000   0.81781636   -1.7849954   -1.7849954  -0.55827368   0.22880985   -1.7849954    1.2267218   439061 
  626000   0.81774569   -1.7859716   -1.7859716   -0.5593559   0.22741121   -1.7859716    1.2266157   439061 
  627000     0.817392   -1.7853514   -1.7853514  -0.55926622   0.22992583   -1.7853514    1.2260852   439061 
  628000   0.81769256   -1.7870963   -1.7870963  -0.56056024   0.23086178   -1.7870963     1.226536   439061 
  629000   0.81660845   -1.7855179   -1.7855179    -0.560608   0.22846545   -1.7855179    1.2249099   439061 
  630000   0.81701304   -1.7867548   -1.7867548  -0.56123798   0.22905842   -1.7867548    1.2255168   439061 
  631000   0.81671328   -1.7864327   -1.7864327  -0.56136554    0.2313295   -1.7864327    1.2250671   439061 
  632000   0.81674216   -1.7861583   -1.7861583  -0.56104787   0.23019854   -1.7861583    1.2251104   439061 
  633000   0.81644215   -1.7858309   -1.7858309  -0.56117047   0.23112181   -1.7858309    1.2246604   439061 
  634000   0.81649754   -1.7863875   -1.7863875  -0.56164398   0.23107241   -1.7863875    1.2247435   439061 
  635000   0.81589306   -1.7860443   -1.7860443  -0.56220745    0.2286784   -1.7860443    1.2238368   439061 
  636000   0.81566902   -1.7860873   -1.7860873  -0.56258658   0.22590546   -1.7860873    1.2235007   439061 
  637000   0.81722082   -1.7882753   -1.7882753  -0.56244684   0.22808453   -1.7882753    1.2258284   439061 
  638000   0.81549848   -1.7863564   -1.7863564  -0.56311147    0.2266892   -1.7863564    1.2232449   439061 
  639000   0.81457399   -1.7851164   -1.7851164  -0.56325822   0.22908361   -1.7851164    1.2218582   439061 
  640000   0.81579367    -1.787379    -1.787379  -0.56369125   0.22605371    -1.787379    1.2236877   439061 
  641000   0.81574323   -1.7871741   -1.7871741  -0.56356208   0.22607734   -1.7871741    1.2236121   439061 
  642000   0.81524682   -1.7876562   -1.7876562  -0.56478879   0.22799323   -1.7876562    1.2228675   439061 
  643000   0.81457574   -1.7860916   -1.7860916  -0.56423081   0.22689193   -1.7860916    1.2218608   439061 
  644000    0.8150754   -1.7870352   -1.7870352  -0.56442483   0.22756869   -1.7870352    1.2226103   439061 
  645000   0.81567763   -1.7882655   -1.7882655  -0.56475182    0.2241606   -1.7882655    1.2235137   439061 
  646000   0.81508578   -1.7876169   -1.7876169    -0.564991   0.22903822   -1.7876169    1.2226259   439061 
  647000   0.81588021   -1.7882716   -1.7882716  -0.56445406   0.22861821   -1.7882716    1.2238175   439061 
  648000   0.81407624   -1.7862762   -1.7862762  -0.56516459   0.22653005   -1.7862762    1.2211116   439061 
  649000   0.81411674   -1.7876625   -1.7876625  -0.56649019   0.22664615   -1.7876625    1.2211723   439061 
  650000    0.8131265   -1.7871283   -1.7871283  -0.56744131   0.22948618   -1.7871283     1.219687   439061 
  651000   0.81238188   -1.7867883   -1.7867883  -0.56821823   0.21719368   -1.7867883      1.21857   439061 
  652000   0.81241297   -1.7871375   -1.7871375  -0.56852088   0.22905201   -1.7871375    1.2186167   439061 
  653000   0.81369538   -1.7889293   -1.7889293  -0.56838903   0.22366983   -1.7889293    1.2205403   439061 
  654000   0.81121977   -1.7861406   -1.7861406  -0.56931374    0.2267138   -1.7861406    1.2168269   439061 
  655000   0.81337311   -1.7891279   -1.7891279  -0.56907101   0.22320055   -1.7891279    1.2200569   439061 
  656000    0.8122234   -1.7878612   -1.7878612  -0.56952888   0.22533798   -1.7878612    1.2183323   439061 
  657000   0.81165129   -1.7876932   -1.7876932    -0.570219   0.22266162   -1.7876932    1.2174742   439061 
  658000   0.81240531   -1.7884196   -1.7884196  -0.56981444   0.22029872   -1.7884196    1.2186052   439061 
  659000   0.81152041   -1.7863476   -1.7863476  -0.56906976   0.22440908   -1.7863476    1.2172778   439061 
  660000   0.81226231   -1.7881782   -1.7881782  -0.56978753    0.2235649   -1.7881782    1.2183907   439061 
  661000   0.81289989   -1.7872155   -1.7872155  -0.56786846    0.2284328   -1.7872155    1.2193471   439061 
  662000   0.81320139   -1.7887451   -1.7887451  -0.56894581   0.21953917   -1.7887451    1.2197993   439061 
  663000   0.81270853   -1.7878058   -1.7878058  -0.56874577   0.21988167   -1.7878058      1.21906   439061 
  664000   0.81274622   -1.7884949   -1.7884949  -0.56937839   0.22170476   -1.7884949    1.2191165   439061 
  665000   0.81070041   -1.7864211   -1.7864211  -0.57037323   0.22190351   -1.7864211    1.2160478   439061 
  666000   0.81170767   -1.7882126   -1.7882126  -0.57065387   0.22009299   -1.7882126    1.2175587   439061 
  667000   0.81260573    -1.788851    -1.788851  -0.56994515   0.22634634    -1.788851    1.2189058   439061 
  668000   0.81214939   -1.7885692   -1.7885692  -0.57034788   0.22227021   -1.7885692    1.2182213   439061 
  669000   0.81039862   -1.7868478   -1.7868478  -0.57125262   0.22241661   -1.7868478    1.2155952   439061 
  670000   0.81126796   -1.7892639   -1.7892639  -0.57236476   0.22187786   -1.7892639    1.2168992   439061 
  671000     0.810485   -1.7891236   -1.7891236  -0.57339887   0.22069411   -1.7891236    1.2157247   439061 
  672000   0.81068973    -1.789255    -1.789255  -0.57322316    0.2234527    -1.789255    1.2160318   439061 
  673000   0.80931871   -1.7870657   -1.7870657   -0.5730904   0.22059757   -1.7870657    1.2139753   439061 
  674000   0.80987832   -1.7893763   -1.7893763  -0.57456154   0.22262068   -1.7893763    1.2148147   439061 
  675000   0.80846422   -1.7876174   -1.7876174   -0.5749238   0.21932568   -1.7876174    1.2126936   439061 
  676000   0.80995545   -1.7892877   -1.7892877  -0.57435733   0.21975159   -1.7892877    1.2149304   439061 
  677000   0.80946913    -1.787824    -1.787824   -0.5736231   0.22328472    -1.787824    1.2142009   439061 
  678000   0.81079844   -1.7899242   -1.7899242  -0.57372935   0.21971321   -1.7899242    1.2161949   439061 
  679000   0.81034447   -1.7889906   -1.7889906  -0.57347666   0.22251801   -1.7889906    1.2155139   439061 
  680000    0.8101295   -1.7893392   -1.7893392  -0.57414769   0.21837083   -1.7893392    1.2151915   439061 
  681000   0.81007677   -1.7905802   -1.7905802  -0.57546785   0.22027324   -1.7905802    1.2151124   439061 
  682000   0.80868296   -1.7880958   -1.7880958  -0.57507416   0.22000554   -1.7880958    1.2130217   439061 
  683000   0.80932983   -1.7897782   -1.7897782  -0.57578621   0.22221297   -1.7897782     1.213992   439061 
  684000   0.80832182   -1.7877207   -1.7877207   -0.5752407   0.22248935   -1.7877207      1.21248   439061 
  685000   0.80845911    -1.788911    -1.788911  -0.57622513   0.21659511    -1.788911    1.2126859   439061 
  686000   0.80786634   -1.7887321   -1.7887321  -0.57693539   0.22061118   -1.7887321    1.2117968   439061 
  687000   0.80803393   -1.7890527   -1.7890527  -0.57700456    0.2193445   -1.7890527    1.2120481   439061 
  688000   0.80880439   -1.7894504   -1.7894504  -0.57624654   0.21950855   -1.7894504    1.2132038   439061 
  689000   0.80867322   -1.7882433   -1.7882433  -0.57523629   0.22251656   -1.7882433    1.2130071   439061 
  690000   0.80835241   -1.7890284   -1.7890284  -0.57650253   0.22141729   -1.7890284    1.2125259   439061 
  691000   0.80773061   -1.7884776   -1.7884776   -0.5768844   0.21988695   -1.7884776    1.2115932   439061 
  692000   0.80810514    -1.788654    -1.788654  -0.57649903   0.22226293    -1.788654     1.212155   439061 
  693000   0.80707248   -1.7875255   -1.7875255  -0.57691956   0.21936719   -1.7875255     1.210606   439061 
  694000    0.8072978   -1.7879476   -1.7879476  -0.57700361   0.21760732   -1.7879476    1.2109439   439061 
  695000   0.80849956   -1.7895649   -1.7895649  -0.57681835   0.21722058   -1.7895649    1.2127466   439061 
  696000   0.80785872   -1.7884545   -1.7884545   -0.5766692   0.22128107   -1.7884545    1.2117853   439061 
  697000   0.80659747   -1.7879646   -1.7879646  -0.57807111    0.2161563   -1.7879646    1.2098935   439061 
  698000    0.8072031   -1.7891565   -1.7891565  -0.57835457   0.21600893   -1.7891565    1.2108019   439061 
  699000   0.80760281   -1.7893179   -1.7893179  -0.57791642   0.21881755   -1.7893179    1.2114015   439061 
  700000   0.80738989   -1.7897157   -1.7897157  -0.57863359    0.2187151   -1.7897157    1.2110821   439061 
  701000   0.80689221   -1.7882438   -1.7882438  -0.57790824   0.21754639   -1.7882438    1.2103356   439061 
  702000   0.80692282   -1.7900032   -1.7900032  -0.57962175   0.21445366   -1.7900032    1.2103815   439061 
  703000   0.80563125   -1.7878966   -1.7878966   -0.5794525   0.21857157   -1.7878966    1.2084441   439061 
  704000   0.80725137   -1.7906507   -1.7906507   -0.5797764   0.21137215   -1.7906507    1.2108743   439061 
  705000   0.80629491   -1.7897568   -1.7897568  -0.58031722   0.21769565   -1.7897568    1.2094396   439061 
  706000   0.80503712   -1.7880919   -1.7880919    -0.580539   0.21297109   -1.7880919    1.2075529   439061 
  707000   0.80607527   -1.7908019   -1.7908019   -0.5816917   0.21162213   -1.7908019    1.2091102   439061 
  708000    0.8043164   -1.7874149   -1.7874149   -0.5809431    0.2110158   -1.7874149    1.2064718   439061 
  709000   0.80580097   -1.7898177   -1.7898177  -0.58111896    0.2169521   -1.7898177    1.2086987   439061 
  710000   0.80547887    -1.789523    -1.789523  -0.58130742   0.21604451    -1.789523    1.2082155   439061 
  711000   0.80488604   -1.7887214   -1.7887214   -0.5813951   0.21626895   -1.7887214    1.2073263   439061 
  712000   0.80562182     -1.79028     -1.79028  -0.58185006    0.2154949     -1.79028      1.20843   439061 
  713000    0.8060037    -1.790672    -1.790672  -0.58166916   0.21586063    -1.790672    1.2090028   439061 
  714000   0.80555012   -1.7903253   -1.7903253  -0.58200284   0.21999941   -1.7903253    1.2083224   439061 
  715000   0.80504723   -1.7894153   -1.7894153  -0.58184717   0.21627828   -1.7894153    1.2075681   439061 
  716000   0.80627757   -1.7915276   -1.7915276    -0.582114    0.2135158   -1.7915276    1.2094136   439061 
  717000   0.80504085   -1.7900876   -1.7900876  -0.58252911   0.21837619   -1.7900876    1.2075585   439061 
  718000   0.80470871   -1.7902339   -1.7902339   -0.5831736   0.21284599   -1.7902339    1.2070603   439061 
  719000   0.80446866   -1.7903237   -1.7903237  -0.58362345   0.21501206   -1.7903237    1.2067002   439061 
  720000   0.80429671   -1.7906963   -1.7906963  -0.58425395   0.21860539   -1.7906963    1.2064423   439061 
  721000   0.80371261   -1.7899072   -1.7899072  -0.58434104   0.21619822   -1.7899072    1.2055662   439061 
  722000   0.80524541   -1.7919625   -1.7919625   -0.5840971   0.21757411   -1.7919625    1.2078654   439061 
  723000   0.80298856   -1.7895251   -1.7895251  -0.58504499   0.21391203   -1.7895251    1.2044801   439061 
  724000   0.80361489   -1.7913674   -1.7913674  -0.58594781   0.21384764   -1.7913674    1.2054196   439061 
  725000   0.80374025   -1.7912612   -1.7912612  -0.58565361   0.21505448   -1.7912612    1.2056076   439061 
  726000   0.80488521   -1.7919987   -1.7919987   -0.5846736   0.21582816   -1.7919987    1.2073251   439061 
  727000   0.80409019   -1.7913878   -1.7913878  -0.58525524   0.21506969   -1.7913878    1.2061325   439061 
  728000   0.80289461   -1.7905103   -1.7905103  -0.58617113   0.21487622   -1.7905103    1.2043392   439061 
  729000   0.80304146    -1.791431    -1.791431  -0.58687157   0.21285212    -1.791431    1.2045595   439061 
  730000   0.80228363   -1.7885251   -1.7885251  -0.58510236   0.21618869   -1.7885251    1.2034227   439061 
  731000    0.8029285   -1.7909038   -1.7909038  -0.58651375   0.21311337   -1.7909038      1.20439   439061 
  732000   0.80173419   -1.7891694   -1.7891694  -0.58657082     0.214541   -1.7891694    1.2025985   439061 
  733000   0.80192259   -1.7894671   -1.7894671  -0.58658596   0.21666857   -1.7894671    1.2028811   439061 
  734000   0.80212811   -1.7898028   -1.7898028  -0.58661338   0.21194438   -1.7898028    1.2031894   439061 
  735000   0.80112187   -1.7889616   -1.7889616  -0.58728157    0.2120881   -1.7889616    1.2016801   439061 
  736000   0.80216194   -1.7900175   -1.7900175  -0.58677737   0.21051961   -1.7900175    1.2032402   439061 
  737000   0.80152775   -1.7895705   -1.7895705  -0.58728158   0.21257831   -1.7895705    1.2022889   439061 
  738000   0.80163685   -1.7896089   -1.7896089  -0.58715637   0.21077744   -1.7896089    1.2024525   439061 
  739000   0.80167908   -1.7894411   -1.7894411   -0.5869252   0.21399814   -1.7894411    1.2025159   439061 
  740000   0.80201296   -1.7906886   -1.7906886  -0.58767189   0.21462877   -1.7906886    1.2030167   439061 
  741000   0.80157606   -1.7907527   -1.7907527  -0.58839135   0.21231468   -1.7907527    1.2023614   439061 
  742000   0.80179844   -1.7910371   -1.7910371  -0.58834213   0.21543474   -1.7910371    1.2026949   439061 
  743000   0.80173207   -1.7928149   -1.7928149  -0.59021951   0.20557277   -1.7928149    1.2025954   439061 
  744000   0.80012771   -1.7894606   -1.7894606  -0.58927179   0.21420976   -1.7894606    1.2001888   439061 
  745000   0.80115184   -1.7909777   -1.7909777  -0.58925271   0.20968715   -1.7909777     1.201725   439061 
  746000   0.80220632   -1.7918214   -1.7918214  -0.58851466   0.20907492   -1.7918214    1.2033067   439061 
  747000   0.80130253   -1.7913411   -1.7913411  -0.58939001   0.20768652   -1.7913411    1.2019511   439061 
  748000   0.80012447   -1.7899249   -1.7899249  -0.58974091    0.2129805   -1.7899249     1.200184   439061 
  749000   0.80021073   -1.7900889   -1.7900889  -0.58977558   0.21246375   -1.7900889    1.2003134   439061 
  750000   0.80088056   -1.7913609   -1.7913609  -0.59004279   0.21234257   -1.7913609    1.2013181   439061 
  751000   0.80100084    -1.791201    -1.791201  -0.58970248   0.21187423    -1.791201    1.2014985   439061 
  752000   0.80149582   -1.7918336   -1.7918336  -0.58959264   0.20902409   -1.7918336     1.202241   439061 
  753000   0.80100812    -1.790262    -1.790262   -0.5887526   0.21304513    -1.790262    1.2015094   439061 
  754000   0.80036851   -1.7901939   -1.7901939   -0.5896439   0.20724332   -1.7901939      1.20055   439061 
  755000   0.80067579   -1.7904725   -1.7904725  -0.58946151   0.20792164   -1.7904725     1.201011   439061 
  756000   0.80168451   -1.7919188   -1.7919188  -0.58939479   0.21245459   -1.7919188     1.202524   439061 
  757000   0.79986196   -1.7890363   -1.7890363  -0.58924614   0.20998076   -1.7890363    1.1997902   439061 
  758000   0.80177983   -1.7923602   -1.7923602  -0.58969316   0.20613754   -1.7923602     1.202667   439061 
  759000   0.79843879   -1.7886371   -1.7886371  -0.59098166   0.21068658   -1.7886371    1.1976555   439061 
  760000   0.79930135   -1.7894876   -1.7894876  -0.59053828   0.21319341   -1.7894876    1.1989493   439061 
  761000   0.79936919   -1.7912069   -1.7912069  -0.59215587    0.2082779   -1.7912069    1.1990511   439061 
  762000   0.79872311   -1.7901377   -1.7901377  -0.59205573   0.20909538   -1.7901377    1.1980819   439061 
  763000   0.79933718   -1.7899383   -1.7899383  -0.59093527   0.20536711   -1.7899383     1.199003   439061 
  764000   0.80015204   -1.7925785   -1.7925785  -0.59235316   0.20868509   -1.7925785    1.2002253   439061 
  765000    0.7985128   -1.7892776   -1.7892776  -0.59151111   0.20812515   -1.7892776    1.1977665   439061 
  766000   0.79796357   -1.7894282   -1.7894282  -0.59248559   0.21208695   -1.7894282    1.1969426   439061 
  767000   0.79821869   -1.7897757   -1.7897757  -0.59245041    0.2062181   -1.7897757    1.1973253   439061 
  768000   0.79736215   -1.7892196   -1.7892196  -0.59317914   0.20972899   -1.7892196    1.1960405   439061 
  769000   0.79928582   -1.7916063   -1.7916063  -0.59268029   0.20527306   -1.7916063     1.198926   439061 
  770000   0.79803734    -1.790078    -1.790078   -0.5930247    0.2091221    -1.790078    1.1970533   439061 
  771000   0.79782291   -1.7906828   -1.7906828  -0.59395121   0.20859561   -1.7906828    1.1967316   439061 
  772000   0.79819196   -1.7901009   -1.7901009  -0.59281567   0.20425244   -1.7901009    1.1972852   439061 
  773000   0.79759833   -1.7896236   -1.7896236  -0.59322882   0.20638329   -1.7896236    1.1963948   439061 
  774000   0.79755758   -1.7898562   -1.7898562   -0.5935225   0.21097053   -1.7898562    1.1963337   439061 
  775000   0.79762196   -1.7903192   -1.7903192    -0.593889   0.20726133   -1.7903192    1.1964302   439061 
  776000   0.79843936   -1.7910708   -1.7910708  -0.59341445   0.20865829   -1.7910708    1.1976563   439061 
  777000   0.79810169   -1.7904279   -1.7904279  -0.59327808   0.21031827   -1.7904279    1.1971498   439061 
  778000   0.79770625   -1.7907231   -1.7907231  -0.59416642   0.20413422   -1.7907231    1.1965566   439061 
  779000   0.79773684    -1.791174    -1.791174  -0.59457144    0.2064548    -1.791174    1.1966025   439061 
  780000   0.79738898   -1.7905707   -1.7905707  -0.59448993   0.20744369   -1.7905707    1.1960807   439061 
  781000    0.7973868   -1.7903161   -1.7903161  -0.59423863    0.2069509   -1.7903161    1.1960775   439061 
  782000    0.7981991   -1.7923423   -1.7923423  -0.59504635   0.20746938   -1.7923423    1.1972959   439061 
  783000   0.79662657   -1.7906902   -1.7906902  -0.59575307   0.20650493   -1.7906902    1.1949371   439061 
  784000   0.79634928   -1.7907476   -1.7907476  -0.59622639   0.20708567   -1.7907476    1.1945212   439061 
  785000   0.79710734   -1.7921897   -1.7921897   -0.5965314   0.20421796   -1.7921897    1.1956583   439061 
  786000   0.79607612   -1.7918015   -1.7918015  -0.59769007    0.2076614   -1.7918015    1.1941115   439061 
  787000   0.79579893   -1.7911682   -1.7911682  -0.59747252   0.20559702   -1.7911682    1.1936957   439061 
  788000   0.79619666   -1.7916414   -1.7916414   -0.5973491   0.20419139   -1.7916414    1.1942923   439061 
  789000   0.79583449   -1.7912709   -1.7912709  -0.59752188   0.20624731   -1.7912709     1.193749   439061 
  790000    0.7955242   -1.7910745   -1.7910745  -0.59779087    0.2059225   -1.7910745    1.1932836   439061 
  791000   0.79536779   -1.7913251   -1.7913251  -0.59827617   0.20606836   -1.7913251     1.193049   439061 
  792000   0.79638902   -1.7930931   -1.7930931  -0.59851233   0.20483468   -1.7930931    1.1945808   439061 
  793000   0.79505489   -1.7914683   -1.7914683  -0.59888866   0.20542495   -1.7914683    1.1925796   439061 
  794000   0.79432311   -1.7906697   -1.7906697  -0.59918777   0.20578746   -1.7906697    1.1914819   439061 
  795000   0.79514079   -1.7928734   -1.7928734  -0.60016496   0.20222504   -1.7928734    1.1927085   439061 
  796000   0.79495783    -1.792676    -1.792676  -0.60024201   0.20299304    -1.792676     1.192434   439061 
  797000   0.79377735   -1.7913156   -1.7913156  -0.60065233   0.20426589   -1.7913156    1.1906633   439061 
  798000   0.79438699   -1.7927307   -1.7927307  -0.60115289   0.20186918   -1.7927307    1.1915778   439061 
  799000   0.79494375   -1.7926609   -1.7926609  -0.60024804   0.20432406   -1.7926609    1.1924129   439061 
  800000   0.79532165   -1.7923418   -1.7923418  -0.59936204   0.20596869   -1.7923418    1.1929798   439061 
  801000   0.79375058   -1.7905165   -1.7905165  -0.59989332   0.20682719   -1.7905165    1.1906232   439061 
  802000   0.79534626   -1.7929743   -1.7929743  -0.59995767   0.20769626   -1.7929743    1.1930167   439061 
  803000    0.7943031   -1.7915065   -1.7915065  -0.60005458   0.20259988   -1.7915065    1.1914519   439061 
  804000   0.79538786   -1.7929447   -1.7929447  -0.59986565   0.20220726   -1.7929447    1.1930791   439061 
  805000   0.79453373   -1.7921727   -1.7921727  -0.60037478   0.19885089   -1.7921727    1.1917979   439061 
  806000   0.79311604   -1.7907023   -1.7907023  -0.60103092   0.20500108   -1.7907023    1.1896714   439061 
  807000   0.79433079   -1.7928816   -1.7928816  -0.60138808   0.20164434   -1.7928816    1.1914935   439061 
  808000    0.7929274   -1.7917451   -1.7917451  -0.60235671   0.20257581   -1.7917451    1.1893884   439061 
  809000   0.79226606   -1.7917409   -1.7917409  -0.60334454   0.20302481   -1.7917409    1.1883964   439061 
  810000   0.79342492   -1.7930632   -1.7930632   -0.6029285   0.20149015   -1.7930632    1.1901347   439061 
  811000   0.79206865   -1.7909635   -1.7909635  -0.60286322   0.20081585   -1.7909635    1.1881003   439061 
  812000   0.79242214   -1.7918052   -1.7918052  -0.60317465   0.20203027   -1.7918052    1.1886305   439061 
  813000   0.79297554   -1.7925849   -1.7925849  -0.60312434   0.20012295   -1.7925849    1.1894606   439061 
  814000   0.79376669   -1.7934794   -1.7934794  -0.60283211   0.20556465   -1.7934794    1.1906473   439061 
  815000   0.79259265   -1.7928421   -1.7928421   -0.6039558   0.20344893   -1.7928421    1.1888863   439061 
  816000   0.79257411   -1.7927598   -1.7927598  -0.60390135   0.19905985   -1.7927598    1.1888585   439061 
  817000   0.79273426   -1.7930599   -1.7930599   -0.6039612   0.20420825   -1.7930599    1.1890987   439061 
  818000   0.79315739   -1.7934646   -1.7934646  -0.60373125    0.2000902   -1.7934646    1.1897334   439061 
  819000   0.79235289   -1.7937648   -1.7937648  -0.60523816   0.20178095   -1.7937648    1.1885266   439061 
  820000   0.79126797   -1.7916742   -1.7916742  -0.60477498   0.20233656   -1.7916742    1.1868992   439061 
  821000   0.79251013   -1.7938895   -1.7938895  -0.60512697   0.19912196   -1.7938895    1.1887625   439061 
  822000   0.79170595   -1.7933541   -1.7933541  -0.60579785   0.19964429   -1.7933541    1.1875562   439061 
  823000    0.7915193   -1.7926466   -1.7926466  -0.60537038   0.20278173   -1.7926466    1.1872762   439061 
  824000   0.79281107   -1.7949018   -1.7949018  -0.60568795   0.20105077   -1.7949018    1.1892139   439061 
  825000   0.79100395   -1.7931783   -1.7931783  -0.60667504   0.20228148   -1.7931783    1.1865032   439061 
  826000   0.79148037   -1.7931579   -1.7931579  -0.60594003   0.20215194   -1.7931579    1.1872178   439061 
  827000   0.79131478   -1.7920085   -1.7920085  -0.60503905   0.20025782   -1.7920085    1.1869695   439061 
  828000   0.79245224   -1.7939504   -1.7939504  -0.60527477   0.19925177   -1.7939504    1.1886757   439061 
  829000   0.79295565   -1.7949012   -1.7949012   -0.6054704   0.19770677   -1.7949012    1.1894308   439061 
  830000   0.79214586    -1.793827    -1.793827  -0.60561094   0.20312291    -1.793827    1.1882161   439061 
  831000   0.79128181   -1.7936924   -1.7936924  -0.60677237   0.20028626   -1.7936924      1.18692   439061 
  832000   0.78916567   -1.7916408   -1.7916408  -0.60789502   0.19981993   -1.7916408    1.1837458   439061 
  833000   0.79189701   -1.7943582   -1.7943582  -0.60651539   0.20074166   -1.7943582    1.1878428   439061 
  834000   0.79118104   -1.7939448   -1.7939448   -0.6071759   0.20063417   -1.7939448    1.1867689   439061 
  835000   0.79024073    -1.793722    -1.793722  -0.60836363   0.20060159    -1.793722    1.1853584   439061 
  836000   0.78980743   -1.7941747   -1.7941747  -0.60946624   0.19997894   -1.7941747    1.1847084   439061 
  837000   0.78932586   -1.7932595   -1.7932595  -0.60927339   0.19698838   -1.7932595    1.1839861   439061 
  838000   0.78932466   -1.7927263   -1.7927263  -0.60874202   0.20146651   -1.7927263    1.1839843   439061 
  839000   0.79027629   -1.7944218   -1.7944218  -0.60901005   0.20010369   -1.7944218    1.1854117   439061 
  840000   0.78878601   -1.7928464   -1.7928464  -0.60967013   0.20044962   -1.7928464    1.1831763   439061 
  841000   0.78970507   -1.7932018   -1.7932018  -0.60864689    0.1990965   -1.7932018    1.1845549   439061 
  842000   0.79021598   -1.7930213   -1.7930213  -0.60770007   0.20080426   -1.7930213    1.1853213   439061 
  843000   0.79015288   -1.7931154   -1.7931154  -0.60788874   0.19997244   -1.7931154    1.1852266   439061 
  844000   0.78943166    -1.793406    -1.793406  -0.60926117   0.19943013    -1.793406    1.1841448   439061 
  845000   0.78927176   -1.7928085   -1.7928085  -0.60890358   0.20038872   -1.7928085    1.1839049   439061 
  846000   0.78916704   -1.7922016   -1.7922016  -0.60845371   0.20089761   -1.7922016    1.1837479   439061 
  847000   0.78945908   -1.7923461   -1.7923461  -0.60816016   0.19951266   -1.7923461    1.1841859   439061 
  848000   0.79028739   -1.7931725   -1.7931725  -0.60774412   0.19744332   -1.7931725    1.1854284   439061 
  849000   0.78987713   -1.7921678   -1.7921678  -0.60735478   0.19562599   -1.7921678     1.184813   439061 
  850000   0.78941508   -1.7920423   -1.7920423  -0.60792233   0.19526102   -1.7920423    1.1841199   439061 
  851000   0.78918315   -1.7923646   -1.7923646  -0.60859259   0.19305827   -1.7923646     1.183772   439061 
  852000   0.78906617   -1.7921301   -1.7921301  -0.60853358   0.19653041   -1.7921301    1.1835966   439061 
  853000   0.78828011   -1.7923771   -1.7923771  -0.60995964   0.19655499   -1.7923771    1.1824175   439061 
  854000   0.78854329     -1.79169     -1.79169  -0.60887778   0.19507691     -1.79169    1.1828122   439061 
  855000     0.788952   -1.7917779   -1.7917779  -0.60835265   0.19830219   -1.7917779    1.1834253   439061 
  856000   0.79055593   -1.7936323   -1.7936323  -0.60780108   0.19745596   -1.7936323    1.1858312   439061 
  857000   0.78850436   -1.7914825   -1.7914825  -0.60872866   0.19993907   -1.7914825    1.1827538   439061 
  858000   0.78955907    -1.794796    -1.794796  -0.61046008   0.19233521    -1.794796    1.1843359   439061 
  859000    0.7877395    -1.792395    -1.792395  -0.61078846   0.19844438    -1.792395    1.1816066   439061 
  860000   0.78844311   -1.7934617   -1.7934617  -0.61079968   0.20082627   -1.7934617     1.182662   439061 
  861000   0.78914014   -1.7944907   -1.7944907  -0.61078314   0.19733692   -1.7944907    1.1837075   439061 
  862000   0.78800361   -1.7929234   -1.7929234  -0.61092069    0.1989173   -1.7929234    1.1820027   439061 
  863000   0.78733897   -1.7928579   -1.7928579  -0.61185213   0.19626798   -1.7928579    1.1810058   439061 
  864000   0.78704396   -1.7919334   -1.7919334  -0.61137017   0.19516457   -1.7919334    1.1805633   439061 
  865000   0.78753941   -1.7921425   -1.7921425  -0.61083611   0.20003263   -1.7921425    1.1813064   439061 
  866000   0.78824992   -1.7928947   -1.7928947  -0.61052256   0.19747765   -1.7928947    1.1823722   439061 
  867000   0.78743675   -1.7919411   -1.7919411   -0.6107887   0.19572387   -1.7919411    1.1811524   439061 
  868000   0.78832257   -1.7931425   -1.7931425  -0.61066133   0.19487635   -1.7931425    1.1824812   439061 
  869000   0.78805552   -1.7931803   -1.7931803  -0.61109971   0.19884949   -1.7931803    1.1820806   439061 
  870000   0.78862349   -1.7938832   -1.7938832  -0.61095068   0.19851339   -1.7938832    1.1829325   439061 
  871000   0.78705391   -1.7923978   -1.7923978  -0.61181967   0.19149177   -1.7923978    1.1805782   439061 
  872000   0.78732957     -1.79284     -1.79284  -0.61184837   0.19036245     -1.79284    1.1809917   439061 
  873000   0.78725158   -1.7920038   -1.7920038  -0.61112909   0.19740992   -1.7920038    1.1808747   439061 
  874000   0.78634829   -1.7908038   -1.7908038  -0.61128404   0.19655323   -1.7908038    1.1795198   439061 
  875000   0.78767946   -1.7941927   -1.7941927  -0.61267625   0.19606244   -1.7941927    1.1815165   439061 
  876000   0.78745371   -1.7927909   -1.7927909  -0.61161302   0.19418226   -1.7927909    1.1811779   439061 
  877000   0.78754743   -1.7931079   -1.7931079  -0.61178945   0.19115763   -1.7931079    1.1813184   439061 
  878000   0.78809252   -1.7941286   -1.7941286  -0.61199247   0.19526459   -1.7941286    1.1821361   439061 
  879000   0.78624307    -1.791423    -1.791423  -0.61206107   0.19623252    -1.791423    1.1793619   439061 
  880000    0.7856768   -1.7908874   -1.7908874  -0.61237485   0.19822962   -1.7908874    1.1785125   439061 
  881000   0.78572836   -1.7912818   -1.7912818  -0.61269193   0.19556075   -1.7912818    1.1785899   439061 
  882000   0.78583747    -1.792229    -1.792229  -0.61347553   0.19693333    -1.792229    1.1787535   439061 
  883000   0.78618167   -1.7931339   -1.7931339  -0.61386405    0.1931855   -1.7931339    1.1792698   439061 
  884000   0.78694674   -1.7935068   -1.7935068  -0.61308933    0.1951004   -1.7935068    1.1804174   439061 
  885000   0.78651399   -1.7932729   -1.7932729  -0.61350461   0.19116421   -1.7932729    1.1797683   439061 
  886000   0.78580662   -1.7921268   -1.7921268  -0.61341958   0.18865946   -1.7921268    1.1787072   439061 
  887000   0.78608782   -1.7927849   -1.7927849   -0.6136559   0.19148328   -1.7927849    1.1791291   439061 
  888000   0.78534136   -1.7923184   -1.7923184  -0.61430904   0.19624081   -1.7923184    1.1780094   439061 
  889000   0.78552893   -1.7927483   -1.7927483  -0.61445763    0.1949589   -1.7927483    1.1782907   439061 
  890000   0.78613983   -1.7929534   -1.7929534  -0.61374633   0.19444442   -1.7929534    1.1792071   439061 
  891000   0.78633976   -1.7927565   -1.7927565  -0.61324951    0.1922995   -1.7927565     1.179507   439061 
  892000   0.78669113   -1.7925523   -1.7925523  -0.61251832   0.19484278   -1.7925523     1.180034   439061 
  893000     0.785523   -1.7909864   -1.7909864  -0.61270461   0.19467413   -1.7909864    1.1782818   439061 
  894000   0.78548819   -1.7914169   -1.7914169  -0.61318727   0.19707132   -1.7914169    1.1782296   439061 
  895000   0.78536805   -1.7913347   -1.7913347  -0.61328531   0.19570049   -1.7913347    1.1780494   439061 
  896000    0.7857077   -1.7930932   -1.7930932  -0.61453433   0.19260725   -1.7930932    1.1785589   439061 
  897000   0.78598692    -1.793538    -1.793538  -0.61456028   0.19270839    -1.793538    1.1789777   439061 
  898000   0.78568261   -1.7932995   -1.7932995  -0.61477824   0.19317775   -1.7932995    1.1785212   439061 
  899000   0.78515925   -1.7931127   -1.7931127   -0.6153765    0.1951736   -1.7931127    1.1777362   439061 
  900000   0.78583984   -1.7940575   -1.7940575  -0.61530046   0.19157611   -1.7940575    1.1787571   439061 
  901000   0.78537289   -1.7937091   -1.7937091  -0.61565248   0.19299555   -1.7937091    1.1780567   439061 
  902000   0.78552292   -1.7933887   -1.7933887  -0.61510702   0.19171539   -1.7933887    1.1782817   439061 
  903000   0.78494344   -1.7926221   -1.7926221  -0.61520958   0.19668817   -1.7926221    1.1774125   439061 
  904000   0.78488306   -1.7921812   -1.7921812  -0.61485933   0.19117948   -1.7921812    1.1773219   439061 
  905000    0.7841139   -1.7914596   -1.7914596  -0.61529141      0.19161   -1.7914596    1.1761682   439061 
  906000   0.78499851   -1.7924422   -1.7924422  -0.61494708   0.19439791   -1.7924422    1.1774951   439061 
  907000   0.78507597   -1.7932874   -1.7932874  -0.61567613   0.19089607   -1.7932874    1.1776113   439061 
  908000   0.78490375   -1.7933739   -1.7933739  -0.61602097   0.19347568   -1.7933739    1.1773529   439061 
  909000   0.78514081   -1.7931734   -1.7931734   -0.6154649   0.19015255   -1.7931734    1.1777085   439061 
  910000    0.7847159   -1.7931986   -1.7931986  -0.61612748   0.19174552   -1.7931986    1.1770712   439061 
  911000   0.78328041   -1.7914212   -1.7914212  -0.61650325   0.19551105   -1.7914212    1.1749179   439061 
  912000   0.78428866   -1.7924162   -1.7924162  -0.61598587   0.19129174   -1.7924162    1.1764303   439061 
  913000   0.78472524    -1.792996    -1.792996   -0.6159108   0.19232894    -1.792996    1.1770852   439061 
  914000   0.78411687   -1.7926191   -1.7926191  -0.61644646   0.19206434   -1.7926191    1.1761726   439061 
  915000   0.78386293   -1.7916435   -1.7916435  -0.61585175   0.18851782   -1.7916435    1.1757917   439061 
  916000   0.78349776   -1.7910469   -1.7910469  -0.61580289   0.19343663   -1.7910469     1.175244   439061 
  917000   0.78390071   -1.7924985   -1.7924985  -0.61665011   0.18800636   -1.7924985    1.1758484   439061 
  918000   0.78415191   -1.7920479   -1.7920479  -0.61582266   0.19235619   -1.7920479    1.1762252   439061 
  919000   0.78267977   -1.7901658   -1.7901658  -0.61614883   0.19269993   -1.7901658     1.174017   439061 
  920000   0.78308771   -1.7907533   -1.7907533   -0.6161244   0.18689766   -1.7907533    1.1746289   439061 
  921000    0.7829635   -1.7902234   -1.7902234  -0.61578085    0.1904458   -1.7902234    1.1744426   439061 
  922000   0.78365934   -1.7916557   -1.7916557   -0.6161694   0.18968449   -1.7916557    1.1754863   439061 
  923000   0.78243188   -1.7895264   -1.7895264  -0.61588123   0.18954461   -1.7895264    1.1736451   439061 
  924000   0.78375954   -1.7920533   -1.7920533  -0.61641665   0.18692891   -1.7920533    1.1756366   439061 
  925000   0.78328094   -1.7923312   -1.7923312  -0.61741249   0.19231496   -1.7923312    1.1749187   439061 
  926000   0.78297824   -1.7915697   -1.7915697    -0.617105   0.19084589   -1.7915697    1.1744647   439061 
  927000   0.78220805   -1.7904711   -1.7904711  -0.61716173   0.19099967   -1.7904711    1.1733094   439061 
  928000   0.78282408   -1.7915657   -1.7915657  -0.61733229   0.19083589   -1.7915657    1.1742334   439061 
  929000   0.78379694   -1.7928135   -1.7928135  -0.61712075   0.19022386   -1.7928135    1.1756927   439061 
  930000   0.78234396   -1.7916411   -1.7916411  -0.61812789   0.18789875   -1.7916411    1.1735133   439061 
  931000   0.78206031   -1.7902636   -1.7902636  -0.61717581   0.18972071   -1.7902636    1.1730878   439061 
  932000   0.78354357   -1.7931321   -1.7931321  -0.61781941   0.18820999   -1.7931321    1.1753127   439061 
  933000   0.78257659   -1.7921199   -1.7921199  -0.61825771   0.19300563   -1.7921199    1.1738622   439061 
  934000   0.78377663   -1.7940466   -1.7940466  -0.61838436   0.18469235   -1.7940466    1.1756623   439061 
  935000   0.78275871   -1.7920832   -1.7920832  -0.61794781   0.19176875   -1.7920832    1.1741354   439061 
  936000   0.78204281   -1.7914644   -1.7914644  -0.61840284   0.18528607   -1.7914644    1.1730615   439061 
  937000   0.78242563   -1.7922707   -1.7922707  -0.61863496   0.18583884   -1.7922707    1.1736358   439061 
  938000   0.78399208   -1.7936359   -1.7936359  -0.61765045   0.18788133   -1.7936359    1.1759854   439061 
  939000   0.78228038   -1.7917353   -1.7917353  -0.61831743   0.19188381   -1.7917353    1.1734179   439061 
  940000   0.78277403   -1.7923815   -1.7923815  -0.61822312   0.18728263   -1.7923815    1.1741584   439061 
  941000   0.78190644   -1.7919881   -1.7919881   -0.6191311   0.19012123   -1.7919881     1.172857   439061 
  942000   0.78194336   -1.7927827   -1.7927827  -0.61987036   0.18803133   -1.7927827    1.1729124   439061 
  943000   0.78198342   -1.7928273   -1.7928273  -0.61985488    0.1870552   -1.7928273    1.1729725   439061 
  944000   0.78167939   -1.7922575   -1.7922575  -0.61974109    0.1917772   -1.7922575    1.1725164   439061 
  945000   0.78231662   -1.7928862   -1.7928862  -0.61941391   0.19318332   -1.7928862    1.1734723   439061 
  946000   0.78123302   -1.7913579   -1.7913579  -0.61951101   0.18943017   -1.7913579    1.1718469   439061 
  947000   0.78152109   -1.7925691   -1.7925691  -0.62029018   0.18761981   -1.7925691     1.172279   439061 
  948000   0.78086199   -1.7918826   -1.7918826  -0.62059224   0.18514334   -1.7918826    1.1712903   439061 
  949000   0.77976968   -1.7908443   -1.7908443  -0.62119247   0.18732762   -1.7908443    1.1696519   439061 
  950000   0.77968562   -1.7913269   -1.7913269  -0.62180116    0.1891316   -1.7913269    1.1695258   439061 
  951000   0.78033646   -1.7920356   -1.7920356  -0.62153359   0.18887792   -1.7920356     1.170502   439061 
  952000   0.78000672   -1.7914602   -1.7914602  -0.62145275   0.18631478   -1.7914602    1.1700074   439061 
  953000   0.78074206   -1.7930165   -1.7930165  -0.62190609   0.19041105   -1.7930165    1.1711104   439061 
  954000   0.78013285   -1.7922419   -1.7922419  -0.62204526   0.18821934   -1.7922419    1.1701966   439061 
  955000   0.78152115   -1.7937816   -1.7937816  -0.62150257   0.18501347   -1.7937816    1.1722791   439061 
  956000   0.78048212   -1.7916594   -1.7916594   -0.6209389   0.18754103   -1.7916594    1.1707205   439061 
  957000   0.78062533   -1.7922831   -1.7922831  -0.62134773   0.18490443   -1.7922831    1.1709353   439061 
  958000    0.7810184   -1.7921098   -1.7921098  -0.62058489   0.18776138   -1.7921098    1.1715249   439061 
  959000   0.78126826   -1.7932705   -1.7932705  -0.62137074   0.18586264   -1.7932705    1.1718997   439061 
  960000   0.78124635   -1.7927901   -1.7927901  -0.62092326   0.18466908   -1.7927901    1.1718669   439061 
  961000   0.78004978   -1.7910816   -1.7910816  -0.62100958   0.18768449   -1.7910816     1.170072   439061 
  962000   0.78102177   -1.7922228   -1.7922228  -0.62069281   0.19177034   -1.7922228      1.17153   439061 
  963000   0.78084012   -1.7924621   -1.7924621   -0.6212046   0.18944669   -1.7924621    1.1712575   439061 
  964000   0.78005281   -1.7913144   -1.7913144  -0.62123788   0.18616387   -1.7913144    1.1700765   439061 
  965000   0.78031955   -1.7930286   -1.7930286   -0.6225519   0.18725316   -1.7930286    1.1704767   439061 
  966000   0.77890278   -1.7906345   -1.7906345  -0.62228297   0.18469519   -1.7906345    1.1683515   439061 
  967000   0.77881611   -1.7903369   -1.7903369  -0.62211544   0.18569084   -1.7903369    1.1682215   439061 
  968000    0.7787508   -1.7907735   -1.7907735  -0.62264998   0.18710484   -1.7907735    1.1681235   439061 
  969000   0.78094496   -1.7932302   -1.7932302  -0.62181542   0.18327526   -1.7932302    1.1714148   439061 
  970000   0.77954921   -1.7918836   -1.7918836  -0.62256245    0.1888384   -1.7918836    1.1693211   439061 
  971000   0.77886381    -1.791289    -1.791289  -0.62299589   0.18557129    -1.791289    1.1682931   439061 
  972000   0.77890432   -1.7908422   -1.7908422   -0.6224884    0.1868701   -1.7908422    1.1683538   439061 
  973000   0.77933463   -1.7927259   -1.7927259  -0.62372666   0.18519489   -1.7927259    1.1689993   439061 
  974000   0.77895151   -1.7915688   -1.7915688  -0.62314417   0.18947315   -1.7915688    1.1684246   439061 
  975000   0.77880307   -1.7918307   -1.7918307  -0.62362872   0.18324602   -1.7918307    1.1682019   439061 
  976000   0.77965738   -1.7932144   -1.7932144  -0.62373099   0.18306378   -1.7932144    1.1694834   439061 
  977000   0.77797502   -1.7909137   -1.7909137   -0.6239538   0.18555334   -1.7909137    1.1669599   439061 
  978000   0.77788202   -1.7920436   -1.7920436  -0.62522323   0.18490207   -1.7920436    1.1668204   439061 
  979000   0.77808413   -1.7926922   -1.7926922  -0.62556868   0.18509317   -1.7926922    1.1671235   439061 
  980000   0.77798792   -1.7925531   -1.7925531  -0.62557387   0.18329289   -1.7925531    1.1669792   439061 
  981000   0.77765192    -1.792617    -1.792617  -0.62614173   0.18576487    -1.792617    1.1664752   439061 
  982000   0.77727272   -1.7929472   -1.7929472  -0.62704073   0.18883844   -1.7929472    1.1659064   439061 
  983000   0.77844518   -1.7939561   -1.7939561    -0.626291   0.18530358   -1.7939561    1.1676651   439061 
  984000   0.77765999   -1.7927025   -1.7927025  -0.62621515   0.18464476   -1.7927025    1.1664873   439061 
  985000   0.77863603    -1.794408    -1.794408  -0.62645664   0.18208972    -1.794408    1.1679514   439061 
  986000   0.77662443   -1.7917005   -1.7917005  -0.62676656   0.18576369   -1.7917005     1.164934   439061 
  987000   0.77703675   -1.7924898   -1.7924898  -0.62693731   0.18256579   -1.7924898    1.1655525   439061 
  988000     0.777965   -1.7937174   -1.7937174  -0.62677252   0.18453486   -1.7937174    1.1669448   439061 
  989000   0.77788549   -1.7932395   -1.7932395  -0.62641396   0.18788869   -1.7932395    1.1668256   439061 
  990000   0.77724166   -1.7927863   -1.7927863  -0.62692645   0.18296648   -1.7927863    1.1658598   439061 
  991000   0.77813259   -1.7943042   -1.7943042  -0.62710799   0.18496105   -1.7943042    1.1671962   439061 
  992000   0.77748872   -1.7934489   -1.7934489  -0.62721852   0.18598667   -1.7934489    1.1662304   439061 
  993000   0.77804806   -1.7931049   -1.7931049  -0.62603552   0.18685329   -1.7931049    1.1670694   439061 
  994000   0.77790866   -1.7936076   -1.7936076  -0.62674728   0.18309661   -1.7936076    1.1668603   439061 
  995000    0.7769839   -1.7917562   -1.7917562  -0.62628296   0.18388472   -1.7917562    1.1654732   439061 
  996000   0.77616794   -1.7921817   -1.7921817  -0.62793239   0.18348238   -1.7921817    1.1642493   439061 
  997000   0.77650505   -1.7933583   -1.7933583  -0.62860341   0.18498574   -1.7933583    1.1647549   439061 
  998000   0.77651225   -1.7934921   -1.7934921  -0.62872633   0.18016898   -1.7934921    1.1647657   439061 
  999000    0.7769945   -1.7936998   -1.7936998  -0.62821073   0.18591157   -1.7936998    1.1654891   439061 
 1000000   0.77685079   -1.7933978   -1.7933978  -0.62812429   0.18040567   -1.7933978    1.1652735   439061 
 1001000   0.77661049   -1.7926827   -1.7926827  -0.62776961   0.18373148   -1.7926827    1.1649131   439061 
 1002000   0.77690474   -1.7930194   -1.7930194  -0.62766491   0.18266752   -1.7930194    1.1653545   439061 
 1003000   0.77626523   -1.7921227   -1.7921227  -0.62772746   0.18459798   -1.7921227    1.1643952   439061 
 1004000   0.77756855   -1.7935348   -1.7935348  -0.62718461   0.18284122   -1.7935348    1.1663502   439061 
 1005000   0.77584691   -1.7915432   -1.7915432  -0.62777548   0.17923339   -1.7915432    1.1637677   439061 
 1006000   0.77638946   -1.7926917   -1.7926917  -0.62811012   0.17703369   -1.7926917    1.1645815   439061 
 1007000   0.77686351   -1.7936039   -1.7936039  -0.62831131   0.18078036   -1.7936039    1.1652926   439061 
 1008000   0.77689357    -1.793239    -1.793239  -0.62790129    0.1799461    -1.793239    1.1653377   439061 
 1009000   0.77544502   -1.7918146   -1.7918146  -0.62864975   0.18102166   -1.7918146    1.1631649   439061 
 1010000   0.77512406   -1.7917752   -1.7917752  -0.62909178    0.1818993   -1.7917752    1.1626834   439061 
 1011000    0.7745693   -1.7920628   -1.7920628  -0.63021146   0.18048958   -1.7920628    1.1618513   439061 
 1012000   0.77458447   -1.7921499   -1.7921499  -0.63027583   0.18554743   -1.7921499    1.1618741   439061 
 1013000   0.77528034    -1.793146    -1.793146  -0.63022817   0.17914461    -1.793146    1.1629179   439061 
 1014000   0.77604154   -1.7935181   -1.7935181  -0.62945843   0.17830779   -1.7935181    1.1640597   439061 
 1015000   0.77463427   -1.7925352   -1.7925352  -0.63058641   0.18155625   -1.7925352    1.1619488   439061 
 1016000   0.77622431    -1.793635    -1.793635  -0.62930119   0.17868229    -1.793635    1.1643338   439061 
 1017000   0.77544058   -1.7931618   -1.7931618  -0.63000358   0.18093586   -1.7931618    1.1631582   439061 
 1018000   0.77548112   -1.7927814   -1.7927814  -0.62956239    0.1798017   -1.7927814     1.163219   439061 
 1019000   0.77607974   -1.7955085   -1.7955085  -0.63139154    0.1810888   -1.7955085     1.164117   439061 
 1020000    0.7764971   -1.7958938   -1.7958938  -0.63115077   0.17696642   -1.7958938     1.164743   439061 
 1021000   0.77522635   -1.7936701   -1.7936701   -0.6308332   0.18071932   -1.7936701    1.1628369   439061 
 1022000   0.77522108   -1.7938388   -1.7938388  -0.63100981   0.18026474   -1.7938388     1.162829   439061 
 1023000   0.77350718   -1.7932022   -1.7932022  -0.63294405   0.18031234   -1.7932022    1.1602581   439061 
 1024000   0.77364055    -1.793579    -1.793579  -0.63312085   0.18059219    -1.793579    1.1604582   439061 
 1025000   0.77408735    -1.792927    -1.792927  -0.63179859   0.18146371    -1.792927    1.1611284   439061 
 1026000   0.77391731   -1.7930134   -1.7930134   -0.6321401   0.18147149   -1.7930134    1.1608733   439061 
 1027000   0.77363785   -1.7924854   -1.7924854  -0.63203132   0.18282284   -1.7924854    1.1604541   439061 
 1028000   0.77427501   -1.7935078   -1.7935078  -0.63209795   0.17916076   -1.7935078    1.1614099   439061 
 1029000   0.77341987   -1.7921883   -1.7921883  -0.63206116   0.18136784   -1.7921883    1.1601272   439061 
 1030000   0.77464845   -1.7937877   -1.7937877  -0.63181763   0.18252844   -1.7937877      1.16197   439061 
 1031000   0.77453658   -1.7927978   -1.7927978  -0.63099553   0.18072844   -1.7927978    1.1618022   439061 
 1032000   0.77431989   -1.7936671   -1.7936671  -0.63218987   0.18406021   -1.7936671    1.1614772   439061 
 1033000   0.77500398   -1.7945515   -1.7945515  -0.63204819   0.17842658   -1.7945515    1.1625033   439061 
 1034000   0.77434321   -1.7941829   -1.7941829  -0.63267072   0.18103671   -1.7941829    1.1615122   439061 
 1035000   0.77525144   -1.7953982   -1.7953982  -0.63252371   0.18128325   -1.7953982    1.1628745   439061 
 1036000   0.77341741   -1.7926686   -1.7926686  -0.63254509   0.18116398   -1.7926686    1.1601235   439061 
 1037000   0.77364428   -1.7934476   -1.7934476  -0.63298383   0.18005113   -1.7934476    1.1604638   439061 
 1038000   0.77213914   -1.7932268   -1.7932268  -0.63502071   0.17876222   -1.7932268    1.1582061   439061 
 1039000    0.7732102   -1.7944208   -1.7944208   -0.6346081   0.18126123   -1.7944208    1.1598127   439061 
 1040000    0.7730553   -1.7941471   -1.7941471  -0.63456682    0.1778469   -1.7941471    1.1595803   439061 
 1041000   0.77304363    -1.793828    -1.793828  -0.63426515   0.18071711    -1.793828    1.1595628   439061 
 1042000   0.77222979   -1.7928421   -1.7928421  -0.63450003   0.17906046   -1.7928421     1.158342   439061 
 1043000   0.77267879   -1.7939372   -1.7939372  -0.63492169   0.17898764   -1.7939372    1.1590155   439061 
 1044000   0.77310817   -1.7939252   -1.7939252  -0.63426561   0.18124267   -1.7939252    1.1596596   439061 
 1045000   0.77253362   -1.7926697   -1.7926697   -0.6338719   0.18004181   -1.7926697    1.1587978   439061 
 1046000    0.7722013    -1.791669    -1.791669  -0.63336968   0.18132672    -1.791669    1.1582993   439061 
 1047000   0.77197657   -1.7921105   -1.7921105  -0.63414831   0.17562807   -1.7921105    1.1579622   439061 
 1048000   0.77305334   -1.7944465   -1.7944465  -0.63486915   0.17892926   -1.7944465    1.1595774   439061 
 1049000   0.77214133   -1.7927662   -1.7927662  -0.63455682   0.17792999   -1.7927662    1.1582094   439061 
 1050000   0.77256492   -1.7934248   -1.7934248  -0.63458001   0.17651884   -1.7934248    1.1588447   439061 
 1051000   0.77214635    -1.792833    -1.792833  -0.63461607   0.17705678    -1.792833    1.1582169   439061 
 1052000   0.77187709    -1.792526    -1.792526  -0.63471301   0.17647773    -1.792526     1.157813   439061 
 1053000   0.77210816   -1.7927269   -1.7927269  -0.63456734     0.177304   -1.7927269    1.1581596   439061 
 1054000   0.77272915    -1.793912    -1.793912   -0.6348209   0.17826271    -1.793912    1.1590911   439061 
 1055000   0.77185739   -1.7928015   -1.7928015  -0.63501808   0.17487838   -1.7928015    1.1577835   439061 
 1056000   0.77149373   -1.7925916   -1.7925916  -0.63535361   0.17937321   -1.7925916     1.157238   439061 
 1057000   0.77291554   -1.7943515   -1.7943515  -0.63498085   0.17686155   -1.7943515    1.1593707   439061 
 1058000   0.77220886   -1.7941584   -1.7941584  -0.63584778   0.17763556   -1.7941584    1.1583107   439061 
 1059000   0.77167226   -1.7934768   -1.7934768  -0.63597108   0.17656665   -1.7934768    1.1575058   439061 
 1060000   0.77168964   -1.7934854   -1.7934854  -0.63595357   0.18023615   -1.7934854    1.1575318   439061 
 1061000   0.77226556   -1.7940805   -1.7940805   -0.6356848   0.17900131   -1.7940805    1.1583957   439061 
 1062000   0.77235795   -1.7944712   -1.7944712  -0.63593691   0.17754306   -1.7944712    1.1585343   439061 
 1063000   0.77188028   -1.7933709   -1.7933709  -0.63555309   0.17768436   -1.7933709    1.1578178   439061 
 1064000   0.77175517   -1.7929834   -1.7929834  -0.63535325   0.17892546   -1.7929834    1.1576301   439061 
 1065000   0.77147746   -1.7933266   -1.7933266  -0.63611308   0.17962618   -1.7933266    1.1572136   439061 
 1066000   0.77145694   -1.7933978   -1.7933978  -0.63621501    0.1784851   -1.7933978    1.1571828   439061 
 1067000   0.77159882    -1.793304    -1.793304  -0.63590845   0.17793871    -1.793304    1.1573956   439061 
 1068000   0.77187579   -1.7931694   -1.7931694  -0.63535833    0.1769247   -1.7931694    1.1578111   439061 
 1069000   0.77098113   -1.7923874   -1.7923874  -0.63591838   0.17440532   -1.7923874    1.1564691   439061 
 1070000   0.77237314   -1.7945873   -1.7945873  -0.63603022   0.17340947   -1.7945873    1.1585571   439061 
 1071000    0.7706202   -1.7936475   -1.7936475  -0.63771984   0.17451271   -1.7936475    1.1559277   439061 
 1072000   0.77142003   -1.7951742   -1.7951742  -0.63804676   0.17489903   -1.7951742    1.1571274   439061 
 1073000   0.77124545   -1.7952772   -1.7952772  -0.63841167   0.17347895   -1.7952772    1.1568655   439061 
 1074000   0.77127301   -1.7945174   -1.7945174  -0.63761051   0.17668916   -1.7945174    1.1569069   439061 
 1075000   0.77127509   -1.7943062   -1.7943062  -0.63739616   0.17674719   -1.7943062      1.15691   439061 
 1076000   0.77020614   -1.7937386   -1.7937386  -0.63843204   0.17566466   -1.7937386    1.1553066   439061 
 1077000   0.77070801   -1.7938802   -1.7938802  -0.63782078    0.1757186   -1.7938802    1.1560594   439061 
 1078000   0.77048413    -1.793538    -1.793538  -0.63781441   0.17611083    -1.793538    1.1557236   439061 
 1079000   0.77181526   -1.7944125   -1.7944125  -0.63669224   0.17616719   -1.7944125    1.1577203   439061 
 1080000   0.77052063   -1.7930503   -1.7930503  -0.63727204   0.17692515   -1.7930503    1.1557783   439061 
 1081000   0.77023897   -1.7925147   -1.7925147  -0.63715888   0.17625477   -1.7925147    1.1553558   439061 
 1082000   0.77075093   -1.7927258   -1.7927258  -0.63660207   0.17670477   -1.7927258    1.1561238   439061 
 1083000   0.77115188   -1.7937389   -1.7937389  -0.63701371   0.17734227   -1.7937389    1.1567252   439061 
 1084000   0.77079807   -1.7948433   -1.7948433  -0.63864881   0.17423345   -1.7948433    1.1561945   439061 
 1085000   0.76919671   -1.7918851   -1.7918851  -0.63809265   0.17882328   -1.7918851    1.1537924   439061 
 1086000   0.77051689    -1.794197    -1.794197  -0.63842431   0.17589008    -1.794197    1.1557727   439061 
 1087000   0.76871746   -1.7929992   -1.7929992  -0.63992566   0.17644863   -1.7929992    1.1530736   439061 
 1088000   0.76978726    -1.794145    -1.794145  -0.63946672   0.17400053    -1.794145    1.1546783   439061 
 1089000   0.76989351   -1.7939664   -1.7939664   -0.6391288   0.17965585   -1.7939664    1.1548376   439061 
 1090000   0.76974536   -1.7924838   -1.7924838  -0.63786839   0.17762978   -1.7924838    1.1546154   439061 
 1091000   0.76962766    -1.792796    -1.792796  -0.63835711   0.17733576    -1.792796    1.1544389   439061 
 1092000   0.76973125    -1.793204    -1.793204  -0.63860972   0.17968805    -1.793204    1.1545942   439061 
 1093000   0.76943985   -1.7930424   -1.7930424  -0.63888525   0.17538119   -1.7930424    1.1541571   439061 
 1094000   0.77032075   -1.7951001   -1.7951001  -0.63962156   0.17305125   -1.7951001    1.1554785   439061 
 1095000     0.768557   -1.7929237   -1.7929237  -0.64009082   0.17418492   -1.7929237    1.1528329   439061 
 1096000   0.77007778   -1.7949502   -1.7949502  -0.63983612   0.17594192   -1.7949502     1.155114   439061 
 1097000   0.76891401   -1.7932832   -1.7932832  -0.63991483   0.17316318   -1.7932832    1.1533684   439061 
 1098000     0.768927      -1.7935      -1.7935   -0.6401121   0.17389071      -1.7935    1.1533879   439061 
 1099000   0.76937814   -1.7946918   -1.7946918  -0.64062717   0.17211481   -1.7946918    1.1540646   439061 
 1100000   0.76797282   -1.7921994   -1.7921994  -0.64024284   0.17027922   -1.7921994    1.1519566   439061 
 1101000   0.76794567   -1.7921386   -1.7921386  -0.64022277   0.17186535   -1.7921386    1.1519159   439061 
 1102000   0.76865769    -1.793892    -1.793892  -0.64090807   0.17753182    -1.793892    1.1529839   439061 
 1103000   0.76772156   -1.7928768   -1.7928768  -0.64129708   0.17530789   -1.7928768    1.1515797   439061 
 1104000   0.76836852   -1.7935827   -1.7935827  -0.64103257   0.17294157   -1.7935827    1.1525502   439061 
 1105000   0.76896548   -1.7945306   -1.7945306  -0.64108497   0.17190708   -1.7945306    1.1534456   439061 
 1106000   0.76825381   -1.7925643   -1.7925643   -0.6401862   0.17664146   -1.7925643    1.1523781   439061 
 1107000   0.76868992   -1.7941556   -1.7941556  -0.64112339   0.17560067   -1.7941556    1.1530322   439061 
 1108000    0.7683687   -1.7937827   -1.7937827  -0.64123225   0.17169922   -1.7937827    1.1525504   439061 
 1109000     0.768755   -1.7944073   -1.7944073  -0.64127739   0.17669353   -1.7944073    1.1531299   439061 
 1110000   0.76884447    -1.794213    -1.794213   -0.6409489   0.17406557    -1.794213    1.1532641   439061 
 1111000   0.76872799   -1.7937942   -1.7937942  -0.64070479   0.17227703   -1.7937942    1.1530894   439061 
 1112000   0.76795151   -1.7927278   -1.7927278  -0.64080321   0.17505472   -1.7927278    1.1519246   439061 
 1113000   0.76831735   -1.7934771   -1.7934771  -0.64100368   0.17262869   -1.7934771    1.1524734   439061 
 1114000   0.76878061   -1.7949931   -1.7949931  -0.64182477   0.17223549   -1.7949931    1.1531683   439061 
 1115000   0.76804883   -1.7939758   -1.7939758  -0.64190518   0.17420335   -1.7939758    1.1520706   439061 
 1116000   0.76886726   -1.7954324   -1.7954324  -0.64213411   0.17437474   -1.7954324    1.1532983   439061 
 1117000    0.7687906   -1.7952437   -1.7952437  -0.64206044   0.17419327   -1.7952437    1.1531833   439061 
 1118000   0.76763757    -1.793482    -1.793482   -0.6420283   0.17203955    -1.793482    1.1514537   439061 
 1119000   0.76893082   -1.7945388   -1.7945388  -0.64114523   0.17439877   -1.7945388    1.1533936   439061 
 1120000    0.7691578   -1.7940185   -1.7940185  -0.64028444   0.17456443   -1.7940185    1.1537341   439061 
 1121000    0.7684695   -1.7934811   -1.7934811  -0.64077949   0.17448873   -1.7934811    1.1527016   439061 
 1122000   0.76779534   -1.7934743   -1.7934743  -0.64178392   0.17244099   -1.7934743    1.1516904   439061 
 1123000   0.76631747   -1.7922729   -1.7922729  -0.64279929   0.17333485   -1.7922729    1.1494736   439061 
 1124000   0.76708592   -1.7919971   -1.7919971  -0.64137082   0.17304102   -1.7919971    1.1506263   439061 
 1125000   0.76822057   -1.7928733   -1.7928733  -0.64054507   0.17664112   -1.7928733    1.1523282   439061 
 1126000   0.76774864   -1.7924925   -1.7924925  -0.64087219   0.17024786   -1.7924925    1.1516203   439061 
 1127000    0.7669505   -1.7907632   -1.7907632  -0.64034003   0.17077669   -1.7907632    1.1504231   439061 
 1128000   0.76811274   -1.7925523   -1.7925523  -0.64038585   0.17345588   -1.7925523    1.1521665   439061 
 1129000    0.7676857   -1.7925341   -1.7925341  -0.64100819   0.17621736   -1.7925341    1.1515259   439061 
 1130000   0.76761654   -1.7925074   -1.7925074  -0.64108519   0.17000738   -1.7925074    1.1514222   439061 
 1131000   0.76693921   -1.7920364   -1.7920364  -0.64163024   0.17325126   -1.7920364    1.1504062   439061 
 1132000   0.76767759   -1.7928541   -1.7928541   -0.6413403   0.17460028   -1.7928541    1.1515138   439061 
 1133000   0.76703244   -1.7922131   -1.7922131  -0.64166709   0.17179862   -1.7922131     1.150546   439061 
 1134000   0.76724306   -1.7938365   -1.7938365  -0.64297448   0.17074043   -1.7938365     1.150862   439061 
 1135000   0.76687826    -1.793686    -1.793686   -0.6433712   0.16969644    -1.793686    1.1503148   439061 
 1136000   0.76700896   -1.7935772   -1.7935772  -0.64306642   0.17311155   -1.7935772    1.1505108   439061 
 1137000   0.76576819    -1.793405    -1.793405  -0.64475529   0.17269235    -1.793405    1.1486497   439061 
 1138000   0.76534305   -1.7933992   -1.7933992  -0.64538727   0.17185406   -1.7933992     1.148012   439061 
 1139000   0.76571849   -1.7924667   -1.7924667  -0.64389158   0.16829326   -1.7924667    1.1485751   439061 
 1140000   0.76671087   -1.7946001   -1.7946001  -0.64453638   0.16738696   -1.7946001    1.1500637   439061 
 1141000   0.76601799   -1.7938604   -1.7938604  -0.64483607   0.16916562   -1.7938604    1.1490244   439061 
 1142000   0.76638903    -1.793868    -1.793868  -0.64428704   0.17122643    -1.793868    1.1495809   439061 
 1143000   0.76677184    -1.793988    -1.793988  -0.64383284   0.17145346    -1.793988    1.1501551   439061 
 1144000   0.76701262   -1.7931795   -1.7931795  -0.64266317   0.16880107   -1.7931795    1.1505163   439061 
 1145000   0.76671835   -1.7931347   -1.7931347  -0.64305983   0.17272617   -1.7931347    1.1500749   439061 
 1146000   0.76733686    -1.793508    -1.793508  -0.64250534   0.17390751    -1.793508    1.1510027   439061 
 1147000   0.76591397   -1.7925634   -1.7925634  -0.64369509   0.17343964   -1.7925634    1.1488683   439061 
 1148000   0.76585725   -1.7931452   -1.7931452  -0.64436192   0.17318143   -1.7931452    1.1487833   439061 
 1149000   0.76544403   -1.7929867   -1.7929867  -0.64482331    0.1700326   -1.7929867    1.1481634   439061 
 1150000   0.76563789   -1.7923279   -1.7923279  -0.64387369   0.17346228   -1.7923279    1.1484542   439061 
 1151000   0.76582655   -1.7938057   -1.7938057  -0.64506846   0.16912429   -1.7938057    1.1487372   439061 
 1152000   0.76622116   -1.7944081   -1.7944081    -0.645079   0.17455739   -1.7944081    1.1493291   439061 
 1153000   0.76563462   -1.7939039   -1.7939039  -0.64545456   0.17264678   -1.7939039    1.1484493   439061 
 1154000   0.76726421   -1.7967901   -1.7967901  -0.64589637   0.17163252   -1.7967901    1.1508937   439061 
 1155000   0.76603654   -1.7951662   -1.7951662  -0.64611395   0.16640846   -1.7951662    1.1490522   439061 
 1156000    0.7658026   -1.7945501   -1.7945501  -0.64584885   0.17114917   -1.7945501    1.1487013   439061 
 1157000   0.76588922   -1.7940343   -1.7940343  -0.64520303   0.17253692   -1.7940343    1.1488312   439061 
 1158000   0.76587819   -1.7951606   -1.7951606  -0.64634592   0.16968211   -1.7951606    1.1488147   439061 
 1159000   0.76562294   -1.7957082   -1.7957082  -0.64727643   0.17222966   -1.7957082    1.1484318   439061 
 1160000    0.7645758   -1.7937725   -1.7937725  -0.64691139   0.16988268   -1.7937725    1.1468611   439061 
 1161000   0.76470027   -1.7941522   -1.7941522  -0.64710437   0.17054762   -1.7941522    1.1470478   439061 
 1162000   0.76628757   -1.7964151   -1.7964151  -0.64698635   0.16934732   -1.7964151    1.1494287   439061 
 1163000   0.76389799   -1.7927331   -1.7927331  -0.64688875   0.17250585   -1.7927331    1.1458444   439061 
 1164000   0.76460463    -1.793646    -1.793646  -0.64674169   0.16799158    -1.793646    1.1469043   439061 
 1165000   0.76436056   -1.7930173   -1.7930173  -0.64647904   0.17226686   -1.7930173    1.1465382   439061 
 1166000   0.76469332   -1.7936135   -1.7936135  -0.64657612   0.16926572   -1.7936135    1.1470374   439061 
 1167000   0.76407411   -1.7935767   -1.7935767  -0.64746812   0.17144464   -1.7935767    1.1461086   439061 
 1168000   0.76371797   -1.7935392   -1.7935392   -0.6479649   0.16440493   -1.7935392    1.1455743   439061 
 1169000   0.76372061   -1.7943704   -1.7943704  -0.64879211    0.1657735   -1.7943704    1.1455783   439061 
 1170000    0.7642052   -1.7934645   -1.7934645  -0.64715928   0.16986442   -1.7934645    1.1463052   439061 
 1171000   0.76325024   -1.7924098   -1.7924098  -0.64753703   0.16552992   -1.7924098    1.1448728   439061 
 1172000     0.763003   -1.7928063   -1.7928063  -0.64830438   0.17146342   -1.7928063    1.1445019   439061 
 1173000   0.76470641   -1.7951503   -1.7951503   -0.6480933    0.1678579   -1.7951503     1.147057   439061 
 1174000   0.76424033   -1.7947674   -1.7947674  -0.64840951   0.16751452   -1.7947674    1.1463579   439061 
 1175000   0.76505673    -1.794716    -1.794716  -0.64713347   0.16756664    -1.794716    1.1475825   439061 
 1176000   0.76563392   -1.7952384   -1.7952384  -0.64679016   0.16309998   -1.7952384    1.1484483   439061 
 1177000    0.7633486   -1.7925212   -1.7925212  -0.64750093   0.16567585   -1.7925212    1.1450203   439061 
 1178000   0.76456759   -1.7943956   -1.7943956  -0.64754681   0.16571519   -1.7943956    1.1468488   439061 
 1179000   0.76311639   -1.7931781   -1.7931781   -0.6485061   0.17106524   -1.7931781     1.144672   439061 
 1180000   0.76456892   -1.7947488   -1.7947488  -0.64789799   0.16887413   -1.7947488    1.1468508   439061 
 1181000    0.7635536   -1.7924212   -1.7924212   -0.6470934   0.16918842   -1.7924212    1.1453278   439061 
 1182000   0.76359194   -1.7934638   -1.7934638  -0.64807849    0.1662781   -1.7934638    1.1453853   439061 
 1183000   0.76332126   -1.7930279   -1.7930279  -0.64804857   0.17162962   -1.7930279    1.1449793   439061 
 1184000   0.76467132   -1.7935675   -1.7935675  -0.64656312   0.17126504   -1.7935675    1.1470044   439061 
 1185000   0.76463681   -1.7937087   -1.7937087  -0.64675605   0.17326031   -1.7937087    1.1469526   439061 
 1186000   0.76375085   -1.7921865   -1.7921865  -0.64656281   0.17109164   -1.7921865    1.1456237   439061 
 1187000   0.76535323   -1.7953207   -1.7953207  -0.64729344   0.16620616   -1.7953207    1.1480272   439061 
 1188000   0.76346511   -1.7926739   -1.7926739  -0.64747883   0.17147908   -1.7926739    1.1451951   439061 
 1189000   0.76418754   -1.7938583   -1.7938583  -0.64757964   0.16775301   -1.7938583    1.1462787   439061 
 1190000   0.76363581   -1.7935456   -1.7935456   -0.6480945   0.16673777   -1.7935456    1.1454511   439061 
 1191000   0.76295935   -1.7918851   -1.7918851  -0.64744871   0.16853802   -1.7918851    1.1444364   439061 
 1192000   0.76394995   -1.7931667   -1.7931667  -0.64724441   0.16807418   -1.7931667    1.1459223   439061 
 1193000   0.76431467   -1.7937584   -1.7937584    -0.647289   0.16701434   -1.7937584    1.1464694   439061 
 1194000   0.76350569   -1.7933523   -1.7933523  -0.64809641   0.16924785   -1.7933523    1.1452559   439061 
 1195000   0.76335999   -1.7938114   -1.7938114  -0.64877407   0.16838689   -1.7938114    1.1450374   439061 
 1196000   0.76463023   -1.7953423   -1.7953423  -0.64839953   0.16719895   -1.7953423    1.1469427   439061 
 1197000   0.76251169   -1.7924306   -1.7924306  -0.64866563    0.1660534   -1.7924306    1.1437649   439061 
 1198000   0.76324074   -1.7940728   -1.7940728  -0.64921426   0.16800882   -1.7940728    1.1448585   439061 
 1199000   0.76236776   -1.7937451   -1.7937451  -0.65019603   0.16705094   -1.7937451     1.143549   439061 
 1200000   0.76195472   -1.7933244   -1.7933244  -0.65039492   0.16880077   -1.7933244    1.1429295   439061 
 1201000   0.76255881   -1.7942769   -1.7942769  -0.65044129   0.16772039   -1.7942769    1.1438356   439061 
 1202000   0.76269854   -1.7955047   -1.7955047  -0.65145949    0.1652781   -1.7955047    1.1440452   439061 
 1203000    0.7617325   -1.7936961   -1.7936961  -0.65109991   0.16440266   -1.7936961    1.1425961   439061 
 1204000   0.76231596   -1.7942376   -1.7942376  -0.65076626    0.1679687   -1.7942376    1.1434713   439061 
 1205000    0.7614134   -1.7934265   -1.7934265  -0.65130904   0.17193728   -1.7934265    1.1421175   439061 
 1206000   0.76191476    -1.793813    -1.793813  -0.65094347   0.16768003    -1.793813    1.1428695   439061 
 1207000   0.76177804   -1.7940535   -1.7940535  -0.65138904   0.16612364   -1.7940535    1.1426645   439061 
 1208000   0.76204862   -1.7940004   -1.7940004  -0.65093012   0.16783952   -1.7940004    1.1430703   439061 
 1209000   0.76272089   -1.7949234   -1.7949234  -0.65084462    0.1663811   -1.7949234    1.1440787   439061 
 1210000   0.76254771   -1.7941483   -1.7941483  -0.65032929   0.16530646   -1.7941483     1.143819   439061 
 1211000   0.76241366   -1.7944445   -1.7944445  -0.65082664   0.16558127   -1.7944445    1.1436179   439061 
 1212000   0.76279733   -1.7954766   -1.7954766  -0.65128322   0.16989983   -1.7954766    1.1441934   439061 
 1213000   0.76177915   -1.7942626   -1.7942626  -0.65159643     0.168082   -1.7942626    1.1426661   439061 
 1214000   0.76165562    -1.793349    -1.793349   -0.6508682   0.17003329    -1.793349    1.1424808   439061 
 1215000   0.76322777   -1.7957523   -1.7957523  -0.65091323   0.16627266   -1.7957523    1.1448391   439061 
 1216000   0.76167421   -1.7953828   -1.7953828  -0.65287407   0.16848228   -1.7953828    1.1425087   439061 
 1217000   0.76335058   -1.7965229   -1.7965229  -0.65149968   0.17036482   -1.7965229    1.1450233   439061 
 1218000    0.7626512   -1.7947819   -1.7947819  -0.65080771   0.16798509   -1.7947819    1.1439742   439061 
 1219000   0.76256149   -1.7941516   -1.7941516  -0.65031195    0.1701452   -1.7941516    1.1438396   439061 
 1220000   0.76127259   -1.7940406   -1.7940406  -0.65213431   0.16638368   -1.7940406    1.1419063   439061 
 1221000   0.76088257   -1.7944228   -1.7944228  -0.65310157   0.16614281   -1.7944228    1.1413213   439061 
 1222000   0.76226204   -1.7952718   -1.7952718   -0.6518814   0.16955239   -1.7952718    1.1433904   439061 
 1223000   0.76159337   -1.7945394   -1.7945394  -0.65215199   0.16655654   -1.7945394    1.1423875   439061 
 1224000   0.76197806   -1.7950313   -1.7950313  -0.65206685   0.16713545   -1.7950313    1.1429645   439061 
 1225000   0.76195319    -1.794719    -1.794719  -0.65179183   0.16444765    -1.794719    1.1429272   439061 
 1226000   0.76073878    -1.793203    -1.793203  -0.65209744    0.1651674    -1.793203    1.1411056   439061 
 1227000   0.76085303   -1.7924077   -1.7924077  -0.65113076   0.17081759   -1.7924077    1.1412769   439061 
 1228000   0.76134141   -1.7936657   -1.7936657  -0.65165613   0.16384149   -1.7936657    1.1420095   439061 
 1229000   0.76097271   -1.7928917   -1.7928917  -0.65143522   0.16526794   -1.7928917    1.1414565   439061 
 1230000   0.76084367   -1.7922751   -1.7922751  -0.65101214   0.16984468   -1.7922751    1.1412629   439061 
 1231000   0.76107804   -1.7927862   -1.7927862  -0.65117172   0.16499267   -1.7927862    1.1416145   439061 
 1232000   0.76171038   -1.7933385   -1.7933385  -0.65077551   0.15976745   -1.7933385     1.142563   439061 
 1233000    0.7622413   -1.7936238   -1.7936238  -0.65026449   0.16436714   -1.7936238    1.1433594   439061 
 1234000   0.76044408   -1.7914537   -1.7914537  -0.65079021   0.16666022   -1.7914537    1.1406635   439061 
 1235000   0.76112092   -1.7912865   -1.7912865  -0.64960776   0.16371525   -1.7912865    1.1416788   439061 
 1236000   0.76154725   -1.7918179   -1.7918179  -0.64949963   0.16442722   -1.7918179    1.1423183   439061 
 1237000   0.76227079   -1.7927249   -1.7927249  -0.64932131   0.16300281   -1.7927249    1.1434036   439061 
 1238000    0.7616283   -1.7928161   -1.7928161  -0.65037629   0.16445971   -1.7928161    1.1424399   439061 
 1239000     0.761033   -1.7906427   -1.7906427  -0.64909579   0.16581576   -1.7906427    1.1415469   439061 
 1240000   0.76207128   -1.7927624   -1.7927624  -0.64965809   0.16462272   -1.7927624    1.1431043   439061 
 1241000   0.76175414   -1.7922623   -1.7922623  -0.64963365   0.16580565   -1.7922623    1.1426286   439061 
 1242000   0.76109268   -1.7910584   -1.7910584  -0.64942194   0.16710823   -1.7910584    1.1416364   439061 
 1243000   0.76106213   -1.7918037   -1.7918037  -0.65021307   0.16314515   -1.7918037    1.1415906   439061 
 1244000   0.76206328    -1.792893    -1.792893  -0.64980069   0.16920992    -1.792893    1.1430923   439061 
 1245000   0.76060327   -1.7914509   -1.7914509   -0.6505486   0.16863474   -1.7914509    1.1409023   439061 
 1246000   0.76036219   -1.7912514   -1.7912514  -0.65071073   0.16704255   -1.7912514    1.1405407   439061 
 1247000   0.76174647   -1.7934435   -1.7934435  -0.65082638   0.16497474   -1.7934435    1.1426171   439061 
 1248000   0.76116192   -1.7924067   -1.7924067   -0.6506664   0.16686682   -1.7924067    1.1417403   439061 
 1249000   0.76078822   -1.7917992   -1.7917992  -0.65061943   0.16620932   -1.7917992    1.1411797   439061 
 1250000   0.76211318   -1.7944692   -1.7944692  -0.65130198   0.16762928   -1.7944692    1.1431672   439061 
 1251000   0.76070395   -1.7922086   -1.7922086   -0.6511553   0.16885796   -1.7922086    1.1410533   439061 
 1252000   0.76152967   -1.7940373   -1.7940373  -0.65174539   0.16587787   -1.7940373    1.1422919   439061 
 1253000   0.76224077   -1.7961712   -1.7961712  -0.65281266   0.16409269   -1.7961712    1.1433585   439061 
 1254000   0.76108173   -1.7931614   -1.7931614  -0.65154145   0.16300725   -1.7931614      1.14162   439061 
 1255000   0.76183623   -1.7943111   -1.7943111  -0.65155933   0.16642805   -1.7943111    1.1427517   439061 
 1256000   0.75942756   -1.7928515   -1.7928515  -0.65371278   0.16501493   -1.7928515    1.1391387   439061 
 1257000   0.75957003    -1.793232    -1.793232  -0.65387956   0.16712219    -1.793232    1.1393524   439061 
 1258000   0.75928577   -1.7929589   -1.7929589  -0.65403283   0.16631336   -1.7929589    1.1389261   439061 
 1259000   0.75977244   -1.7935187   -1.7935187  -0.65386263   0.16634592   -1.7935187    1.1396561   439061 
 1260000   0.76016678   -1.7951564   -1.7951564  -0.65490885   0.16333882   -1.7951564    1.1402476   439061 
 1261000    0.7598503   -1.7935732   -1.7935732  -0.65380035   0.16378281   -1.7935732    1.1397729   439061 
 1262000   0.75971174   -1.7932563   -1.7932563  -0.65369131   0.16539925   -1.7932563     1.139565   439061 
 1263000   0.75837837   -1.7924963   -1.7924963  -0.65493136   0.16568947   -1.7924963     1.137565   439061 
 1264000   0.75903652    -1.793533    -1.793533  -0.65498085   0.16203057    -1.793533    1.1385522   439061 
 1265000   0.75998138   -1.7940496   -1.7940496  -0.65408012   0.16419862   -1.7940496    1.1399695   439061 
 1266000   0.75944057   -1.7939387   -1.7939387  -0.65478048   0.16375726   -1.7939387    1.1391583   439061 
 1267000   0.75893591   -1.7926335   -1.7926335  -0.65423225   0.16649496   -1.7926335    1.1384013   439061 
 1268000   0.75867772   -1.7926221   -1.7926221   -0.6546081   0.16544775   -1.7926221     1.138014   439061 
 1269000    0.7589078   -1.7933141   -1.7933141  -0.65495501   0.16478389   -1.7933141    1.1383591   439061 
 1270000   0.76054921   -1.7955274   -1.7955274  -0.65470619   0.16084778   -1.7955274    1.1408212   439061 
 1271000   0.75927084   -1.7940406   -1.7940406  -0.65513693   0.16327504   -1.7940406    1.1389037   439061 
 1272000   0.75891815   -1.7941242   -1.7941242  -0.65574959   0.16251973   -1.7941242    1.1383746   439061 
 1273000   0.75859804   -1.7938595   -1.7938595    -0.655965   0.16207362   -1.7938595    1.1378945   439061 
 1274000   0.75892868   -1.7941046   -1.7941046  -0.65571414   0.16429879   -1.7941046    1.1383904   439061 
 1275000   0.75830522    -1.793102    -1.793102  -0.65564672   0.16342455    -1.793102    1.1374552   439061 
 1276000   0.75815791   -1.7927997   -1.7927997  -0.65556544   0.16450487   -1.7927997    1.1372343   439061 
 1277000   0.75895902   -1.7943822   -1.7943822  -0.65594623   0.16222055   -1.7943822    1.1384359   439061 
 1278000   0.75832039   -1.7932278   -1.7932278  -0.65574978   0.16478794   -1.7932278     1.137478   439061 
 1279000   0.75869551   -1.7933737   -1.7933737  -0.65533307   0.16247437   -1.7933737    1.1380407   439061 
 1280000   0.75818406    -1.793322    -1.793322  -0.65604845   0.15895681    -1.793322    1.1372735   439061 
 1281000    0.7586549   -1.7943367   -1.7943367  -0.65635695   0.16470404   -1.7943367    1.1379798   439061 
 1282000   0.75711736   -1.7921015   -1.7921015  -0.65642807   0.16563993   -1.7921015    1.1356735   439061 
 1283000   0.75902885   -1.7941923   -1.7941923  -0.65565157   0.16517712   -1.7941923    1.1385407   439061 
 1284000   0.75770842   -1.7929541   -1.7929541  -0.65639403   0.16490589   -1.7929541      1.13656   439061 
 1285000   0.75830704    -1.794071    -1.794071  -0.65661303   0.16097394    -1.794071     1.137458   439061 
 1286000   0.75903791   -1.7951568   -1.7951568  -0.65660252   0.16275435   -1.7951568    1.1385543   439061 
 1287000   0.75834681   -1.7937179   -1.7937179  -0.65620026    0.1597733   -1.7937179    1.1375176   439061 
 1288000    0.7592589   -1.7943436   -1.7943436  -0.65545789   0.16412965   -1.7943436    1.1388858   439061 
 1289000   0.75868822    -1.794193    -1.794193  -0.65616324   0.16212952    -1.794193    1.1380297   439061 
 1290000   0.75774443   -1.7933154   -1.7933154  -0.65670131   0.15964898   -1.7933154    1.1366141   439061 
 1291000   0.75913534   -1.7951113   -1.7951113  -0.65641089   0.16196499   -1.7951113    1.1387004   439061 
 1292000   0.75823693   -1.7927875   -1.7927875  -0.65543469   0.16095187   -1.7927875    1.1373528   439061 
 1293000   0.75766665   -1.7929442   -1.7929442  -0.65644682   0.16307757   -1.7929442    1.1364974   439061 
 1294000   0.75797595   -1.7939497   -1.7939497   -0.6569884   0.16625722   -1.7939497    1.1369613   439061 
 1295000   0.75868427   -1.7944292   -1.7944292  -0.65640543   0.16067269   -1.7944292    1.1380238   439061 
 1296000    0.7591253   -1.7942615   -1.7942615  -0.65557611   0.16270224   -1.7942615    1.1386854   439061 
 1297000   0.75820292    -1.793821    -1.793821  -0.65651917   0.15803027    -1.793821    1.1373018   439061 
 1298000   0.75689108   -1.7932655   -1.7932655  -0.65793144   0.15831384   -1.7932655     1.135334   439061 
 1299000   0.75763231   -1.7940864   -1.7940864  -0.65764057   0.15961753   -1.7940864    1.1364459   439061 
 1300000   0.75744846   -1.7929806   -1.7929806  -0.65681045   0.16354551   -1.7929806    1.1361701   439061 
 1301000   0.75763446   -1.7931694   -1.7931694  -0.65672033   0.15785149   -1.7931694    1.1364491   439061 
 1302000   0.75720497   -1.7931702   -1.7931702  -0.65736533   0.16100347   -1.7931702    1.1358049   439061 
 1303000    0.7576104   -1.7943092   -1.7943092  -0.65789615   0.16045149   -1.7943092     1.136413   439061 
 1304000   0.75638329   -1.7920104   -1.7920104  -0.65743806   0.16117829   -1.7920104    1.1345724   439061 
 1305000   0.75772214   -1.7938346   -1.7938346  -0.65725396   0.16033771   -1.7938346    1.1365806   439061 
 1306000   0.75838304   -1.7949906   -1.7949906  -0.65741862   0.15696438   -1.7949906     1.137572   439061 
 1307000   0.75723893   -1.7920394   -1.7920394  -0.65618356   0.16200634   -1.7920394    1.1358558   439061 
 1308000   0.75774823   -1.7934367   -1.7934367  -0.65681692   0.16272329   -1.7934367    1.1366198   439061 
 1309000   0.75850446   -1.7947033   -1.7947033  -0.65694924    0.1622427   -1.7947033    1.1377541   439061 
 1310000   0.75868739   -1.7948216   -1.7948216  -0.65679308   0.15988026   -1.7948216    1.1380285   439061 
 1311000   0.75816839   -1.7943483   -1.7943483   -0.6570983   0.15869993   -1.7943483      1.13725   439061 
 1312000   0.75728642   -1.7932861   -1.7932861  -0.65735908   0.16177447   -1.7932861     1.135927   439061 
 1313000   0.75764736   -1.7941791   -1.7941791  -0.65771069   0.16261751   -1.7941791    1.1364684   439061 
 1314000   0.75808424   -1.7944686   -1.7944686  -0.65734486   0.16448937   -1.7944686    1.1371238   439061 
 1315000   0.75755343   -1.7931491   -1.7931491  -0.65682158   0.16431973   -1.7931491    1.1363276   439061 
 1316000   0.75733167    -1.793333    -1.793333  -0.65733813   0.16307561    -1.793333    1.1359949   439061 
 1317000   0.75686086    -1.792623    -1.792623   -0.6573343   0.16238072    -1.792623    1.1352887   439061 
 1318000    0.7579797   -1.7954688   -1.7954688  -0.65850187   0.15990687   -1.7954688     1.136967   439061 
 1319000   0.75690316   -1.7950991   -1.7950991  -0.65974695   0.15851858   -1.7950991    1.1353522   439061 
 1320000   0.75597838   -1.7941664   -1.7941664  -0.66020142   0.15909889   -1.7941664     1.133965   439061 
 1321000   0.75480015   -1.7921871   -1.7921871  -0.65998945   0.16450665   -1.7921871    1.1321976   439061 
 1322000    0.7560536    -1.794501    -1.794501  -0.66042315   0.15913294    -1.794501    1.1340778   439061 
 1323000   0.75714393   -1.7962162   -1.7962162  -0.66050289    0.1583455   -1.7962162    1.1357133   439061 
 1324000   0.75665557   -1.7960117   -1.7960117  -0.66103095   0.15862481   -1.7960117    1.1349808   439061 
 1325000   0.75659021   -1.7961581   -1.7961581  -0.66127539   0.15947704   -1.7961581    1.1348827   439061 
 1326000   0.75525059   -1.7945976   -1.7945976  -0.66172429   0.16026097   -1.7945976    1.1328733   439061 
 1327000   0.75575709   -1.7942679   -1.7942679  -0.66063481   0.16095062   -1.7942679    1.1336331   439061 
 1328000   0.75562831   -1.7949939   -1.7949939  -0.66155401   0.16329099   -1.7949939    1.1334399   439061 
 1329000   0.75553009   -1.7953506   -1.7953506  -0.66205806   0.15564764   -1.7953506    1.1332925   439061 
 1330000   0.75498854   -1.7951007   -1.7951007  -0.66262045   0.15701274   -1.7951007    1.1324802   439061 
 1331000   0.75549993   -1.7962732   -1.7962732  -0.66302589   0.15535545   -1.7962732    1.1332473   439061 
 1332000   0.75458006   -1.7941835   -1.7941835  -0.66231596    0.1589666   -1.7941835    1.1318675   439061 
 1333000   0.75496176   -1.7943389   -1.7943389  -0.66189886   0.16009414   -1.7943389    1.1324401   439061 
 1334000    0.7542343   -1.7917878   -1.7917878  -0.66043894   0.16148677   -1.7917878    1.1313489   439061 
 1335000   0.75634135   -1.7936768   -1.7936768  -0.65916731   0.16210203   -1.7936768    1.1345094   439061 
 1336000   0.75508787   -1.7930309   -1.7930309  -0.66040162   0.15999294   -1.7930309    1.1326292   439061 
 1337000   0.75640687   -1.7955717   -1.7955717  -0.66096396   0.15835046   -1.7955717    1.1346077   439061 
 1338000   0.75667768   -1.7957902   -1.7957902  -0.66077631   0.15868114   -1.7957902    1.1350139   439061 
 1339000   0.75596717   -1.7945716   -1.7945716   -0.6606234   0.16139126   -1.7945716    1.1339482   439061 
 1340000   0.75598513   -1.7952878   -1.7952878   -0.6613127   0.15673987   -1.7952878    1.1339751   439061 
 1341000   0.75605952   -1.7949741   -1.7949741  -0.66088737   0.16063375   -1.7949741    1.1340867   439061 
 1342000   0.75426853   -1.7919376   -1.7919376  -0.66053734   0.16451838   -1.7919376    1.1314002   439061 
 1343000   0.75503688   -1.7938219   -1.7938219   -0.6612692   0.16023708   -1.7938219    1.1325527   439061 
 1344000   0.75525688   -1.7949564   -1.7949564  -0.66207364   0.15659468   -1.7949564    1.1328827   439061 
 1345000   0.75470663   -1.7938427   -1.7938427  -0.66178533   0.16127871   -1.7938427    1.1320574   439061 
 1346000   0.75429916   -1.7934223   -1.7934223  -0.66197618    0.1589145   -1.7934223    1.1314462   439061 
 1347000   0.75524883   -1.7938514   -1.7938514  -0.66098075    0.1562232   -1.7938514    1.1328707   439061 
 1348000   0.75512059   -1.7929339   -1.7929339  -0.66025565   0.15895136   -1.7929339    1.1326783   439061 
 1349000   0.75535435   -1.7944701   -1.7944701  -0.66144112   0.15984992   -1.7944701    1.1330289   439061 
 1350000   0.75546422   -1.7946105   -1.7946105  -0.66141671   0.15591238   -1.7946105    1.1331937   439061 
 1351000    0.7542246   -1.7939239   -1.7939239  -0.66258962   0.15694382   -1.7939239    1.1313343   439061 
 1352000   0.75411074   -1.7932647   -1.7932647  -0.66210113   0.15895699   -1.7932647    1.1311635   439061 
 1353000   0.75439166   -1.7933072   -1.7933072  -0.66172225    0.1559324   -1.7933072    1.1315849   439061 
 1354000   0.75455039   -1.7946035   -1.7946035  -0.66278051   0.15644665   -1.7946035     1.131823   439061 
 1355000    0.7549999   -1.7958281   -1.7958281  -0.66333087    0.1553877   -1.7958281    1.1324973   439061 
 1356000   0.75432715   -1.7940236   -1.7940236  -0.66253546   0.15801132   -1.7940236    1.1314882   439061 
 1357000   0.75555576   -1.7955992   -1.7955992  -0.66226815   0.15635355   -1.7955992    1.1333311   439061 
 1358000   0.75481787   -1.7947118   -1.7947118   -0.6624876   0.15390588   -1.7947118    1.1322242   439061 
 1359000   0.75462112   -1.7945948   -1.7945948  -0.66266574   0.15478317   -1.7945948    1.1319291   439061 
 1360000   0.75414189   -1.7934681   -1.7934681  -0.66225788   0.15925895   -1.7934681    1.1312103   439061 
 1361000   0.75510977   -1.7946927   -1.7946927  -0.66203064   0.15881571   -1.7946927    1.1326621   439061 
 1362000   0.75563872   -1.7943648   -1.7943648  -0.66090931   0.15794651   -1.7943648    1.1334555   439061 
 1363000   0.75563331   -1.7952437   -1.7952437  -0.66179629   0.16047829   -1.7952437    1.1334474   439061 
 1364000   0.75566453   -1.7950529   -1.7950529  -0.66155874    0.1549327   -1.7950529    1.1334942   439061 
 1365000   0.75439003   -1.7933996   -1.7933996  -0.66181708   0.16232435   -1.7933996    1.1315825   439061 
 1366000   0.75412988   -1.7934439   -1.7934439  -0.66225168   0.15820132   -1.7934439    1.1311922   439061 
 1367000    0.7542391   -1.7933435   -1.7933435  -0.66198747   0.16304513   -1.7933435    1.1313561   439061 
 1368000   0.75299425   -1.7929169   -1.7929169  -0.66342808   0.16117893   -1.7929169    1.1294888   439061 
 1369000   0.75497093   -1.7944109   -1.7944109  -0.66195709   0.15831007   -1.7944109    1.1324538   439061 
 1370000   0.75452494   -1.7927235   -1.7927235  -0.66093868   0.15812419   -1.7927235    1.1317848   439061 
 1371000    0.7535691   -1.7921697   -1.7921697  -0.66181866   0.15450551   -1.7921697    1.1303511   439061 
 1372000   0.75427866   -1.7927183   -1.7927183  -0.66130291    0.1606304   -1.7927183    1.1314154   439061 
 1373000   0.75423961   -1.7927591   -1.7927591  -0.66140223   0.15769187   -1.7927591    1.1313568   439061 
 1374000   0.75428775   -1.7940507   -1.7940507  -0.66262168   0.15812808   -1.7940507    1.1314291   439061 
 1375000   0.75455016   -1.7939356   -1.7939356   -0.6621129   0.15684713   -1.7939356    1.1318227   439061 
 1376000   0.75431483   -1.7929508   -1.7929508  -0.66148113   0.15637003   -1.7929508    1.1314697   439061 
 1377000   0.75410188   -1.7924548   -1.7924548  -0.66130451   0.15891754   -1.7924548    1.1311502   439061 
 1378000   0.75442868   -1.7926364   -1.7926364  -0.66099596   0.15986905   -1.7926364    1.1316404   439061 
 1379000   0.75475181   -1.7932142   -1.7932142  -0.66108909   0.16067508   -1.7932142    1.1321251   439061 
 1380000   0.75425492   -1.7922458   -1.7922458  -0.66086597   0.15786399   -1.7922458    1.1313798   439061 
 1381000   0.75486181   -1.7931833   -1.7931833  -0.66089315   0.15757245   -1.7931833    1.1322901   439061 
 1382000   0.75422007   -1.7916536   -1.7916536  -0.66032608   0.15687113   -1.7916536    1.1313275   439061 
 1383000   0.75339611    -1.791987    -1.791987  -0.66189539   0.15606497    -1.791987    1.1300916   439061 
 1384000   0.75335059   -1.7925272   -1.7925272  -0.66250392   0.15747523   -1.7925272    1.1300233   439061 
 1385000   0.75289975   -1.7927179   -1.7927179  -0.66337089   0.15301532   -1.7927179    1.1293471   439061 
 1386000   0.75207006   -1.7925489   -1.7925489  -0.66444638   0.15553854   -1.7925489    1.1281025   439061 
 1387000   0.75369722   -1.7945837   -1.7945837  -0.66404044   0.15593195   -1.7945837    1.1305432   439061 
 1388000   0.75343769   -1.7944108   -1.7944108  -0.66425684   0.15594089   -1.7944108     1.130154   439061 
 1389000   0.75425281   -1.7952509   -1.7952509  -0.66387429   0.15280886   -1.7952509    1.1313766   439061 
 1390000   0.75344412    -1.794619    -1.794619   -0.6644554    0.1543818    -1.794619    1.1301636   439061 
 1391000   0.75198927   -1.7928693   -1.7928693  -0.66488794   0.15749806   -1.7928693    1.1279813   439061 
 1392000   0.75288703   -1.7954376   -1.7954376  -0.66610959    0.1516408   -1.7954376     1.129328   439061 
 1393000   0.75224091   -1.7934088   -1.7934088     -0.66505   0.15897351   -1.7934088    1.1283588   439061 
 1394000   0.75205357   -1.7928755   -1.7928755  -0.66479767    0.1534628   -1.7928755    1.1280778   439061 
 1395000   0.75298022   -1.7952238   -1.7952238    -0.665756   0.15166931   -1.7952238    1.1294678   439061 
 1396000   0.75309842   -1.7953155   -1.7953155  -0.66567041   0.15518611   -1.7953155    1.1296451   439061 
 1397000   0.75337311   -1.7951289   -1.7951289  -0.66507184   0.15811291   -1.7951289    1.1300571   439061 
 1398000   0.75179984   -1.7950956   -1.7950956  -0.66739843   0.15630391   -1.7950956    1.1276972   439061 
 1399000    0.7517431   -1.7944393   -1.7944393  -0.66682726   0.15473958   -1.7944393    1.1276121   439061 
 1400000   0.75377048   -1.7949145   -1.7949145  -0.66426134   0.15760249   -1.7949145    1.1306531   439061 
 1401000   0.75173681   -1.7925728   -1.7925728  -0.66497018   0.15853094   -1.7925728    1.1276027   439061 
 1402000   0.75231273   -1.7937224   -1.7937224  -0.66525591   0.15454904   -1.7937224    1.1284665   439061 
 1403000   0.75269656   -1.7951272   -1.7951272  -0.66608495    0.1516663   -1.7951272    1.1290423   439061 
 1404000    0.7535096   -1.7963109   -1.7963109  -0.66604903   0.15678451   -1.7963109    1.1302618   439061 
 1405000   0.75176949   -1.7947803   -1.7947803  -0.66712861    0.1546061   -1.7947803    1.1276517   439061 
 1406000   0.75234289   -1.7955986   -1.7955986  -0.66708684   0.15518834   -1.7955986    1.1285118   439061 
 1407000   0.75280782   -1.7962509   -1.7962509  -0.66704171   0.15553649   -1.7962509    1.1292092   439061 
 1408000   0.75220963    -1.795289    -1.795289  -0.66697715   0.15551808    -1.795289    1.1283119   439061 
 1409000   0.75165816   -1.7955355   -1.7955355  -0.66805083   0.15456386   -1.7955355    1.1274847   439061 
 1410000   0.75326044   -1.7969418   -1.7969418  -0.66705375   0.15704265   -1.7969418    1.1298881   439061 
 1411000   0.75260501   -1.7965299   -1.7965299  -0.66762491    0.1517108   -1.7965299    1.1289049   439061 
 1412000   0.75210321   -1.7954114   -1.7954114  -0.66725918   0.15654382   -1.7954114    1.1281523   439061 
 1413000   0.75211049   -1.7957541   -1.7957541  -0.66759093   0.15643854   -1.7957541    1.1281632   439061 
 1414000   0.75263085   -1.7963713   -1.7963713  -0.66742757   0.15482588   -1.7963713    1.1289437   439061 
 1415000   0.75153357   -1.7965095   -1.7965095  -0.66921166   0.15323043   -1.7965095    1.1272978   439061 
 1416000   0.75157156   -1.7961873   -1.7961873  -0.66883255   0.15444318   -1.7961873    1.1273548   439061 
 1417000   0.75155539   -1.7948505   -1.7948505  -0.66751994   0.15403968   -1.7948505    1.1273305   439061 
 1418000   0.75204679   -1.7951287   -1.7951287  -0.66706106   0.15642845   -1.7951287    1.1280676   439061 
 1419000   0.75031341   -1.7915282   -1.7915282  -0.66606066   0.15501151   -1.7915282    1.1254675   439061 
 1420000   0.75159022   -1.7943453   -1.7943453  -0.66696252   0.15373002   -1.7943453    1.1273828   439061 
 1421000   0.75174028   -1.7946923   -1.7946923  -0.66708448   0.15402665   -1.7946923    1.1276079   439061 
 1422000   0.75134316   -1.7955223   -1.7955223  -0.66851009   0.15555991   -1.7955223    1.1270122   439061 
 1423000    0.7507387   -1.7939922   -1.7939922  -0.66788669   0.15406619   -1.7939922    1.1261055   439061 
 1424000   0.75131103   -1.7946674   -1.7946674  -0.66770343   0.15291705   -1.7946674     1.126964   439061 
 1425000   0.75215839   -1.7946468   -1.7946468  -0.66641181   0.15166961   -1.7946468     1.128235   439061 
 1426000    0.7509019   -1.7929691   -1.7929691  -0.66661883    0.1546826   -1.7929691    1.1263503   439061 
 1427000   0.75169816   -1.7932824   -1.7932824  -0.66573772   0.15250329   -1.7932824    1.1275447   439061 
 1428000   0.75137929   -1.7917279   -1.7917279  -0.66466155   0.15646382   -1.7917279    1.1270664   439061 
 1429000   0.75285837   -1.7938659   -1.7938659  -0.66458088   0.15385363   -1.7938659     1.129285   439061 
 1430000    0.7524434   -1.7941675   -1.7941675  -0.66550498   0.15358684   -1.7941675    1.1286625   439061 
 1431000   0.75111095   -1.7922168   -1.7922168  -0.66555289   0.15575033   -1.7922168    1.1266639   439061 
 1432000   0.75077869   -1.7915969   -1.7915969   -0.6654314   0.15594703   -1.7915969    1.1261655   439061 
 1433000   0.75141085   -1.7925758   -1.7925758  -0.66546209   0.15290595   -1.7925758    1.1271137   439061 
 1434000   0.75240161   -1.7939585   -1.7939585  -0.66535862   0.15097467   -1.7939585    1.1285998   439061 
 1435000   0.75203025   -1.7941657   -1.7941657  -0.66612294   0.15318897   -1.7941657    1.1280428   439061 
 1436000   0.75040957   -1.7918681   -1.7918681  -0.66625627   0.15383687   -1.7918681    1.1256118   439061 
 1437000    0.7511642    -1.794187    -1.794187  -0.66744326   0.14957986    -1.794187    1.1267437   439061 
 1438000    0.7503219   -1.7926955   -1.7926955  -0.66721521   0.15220223   -1.7926955    1.1254803   439061 
 1439000   0.74982628   -1.7923893   -1.7923893   -0.6676524   0.15353789   -1.7923893    1.1247369   439061 
 1440000   0.75067889     -1.79436     -1.79436  -0.66834428   0.15068302     -1.79436    1.1260158   439061 
 1441000   0.75003878   -1.7934519   -1.7934519  -0.66839634   0.15549986   -1.7934519    1.1250556   439061 
 1442000    0.7503648    -1.794607    -1.794607  -0.66906237   0.15337073    -1.794607    1.1255446   439061 
 1443000   0.75003918   -1.7939493   -1.7939493  -0.66889307   0.15029514   -1.7939493    1.1250562   439061 
 1444000   0.74961011   -1.7938422   -1.7938422  -0.66942963   0.15090461   -1.7938422    1.1244126   439061 
 1445000   0.75019873   -1.7950874   -1.7950874  -0.66979184   0.15170195   -1.7950874    1.1252955   439061 
 1446000     0.750862   -1.7959734   -1.7959734  -0.66968296   0.15630711   -1.7959734    1.1262904   439061 
 1447000   0.75090981   -1.7963182   -1.7963182    -0.669956   0.15355041   -1.7963182    1.1263622   439061 
 1448000   0.75128883   -1.7953187   -1.7953187  -0.66838804   0.15472157   -1.7953187    1.1269307   439061 
 1449000   0.74962513   -1.7930076   -1.7930076  -0.66857247   0.15046126   -1.7930076    1.1244351   439061 
 1450000   0.75098636   -1.7949726   -1.7949726  -0.66849566   0.15586581   -1.7949726     1.126477   439061 
 1451000   0.75080799   -1.7948159   -1.7948159  -0.66860644   0.15368862   -1.7948159    1.1262094   439061 
 1452000    0.7498744   -1.7944667   -1.7944667  -0.66965765   0.15303036   -1.7944667     1.124809   439061 
 1453000   0.75100027   -1.7961851   -1.7961851  -0.66968724   0.15591339   -1.7961851    1.1264978   439061 
 1454000    0.7514648   -1.7961971   -1.7961971  -0.66900242   0.15121629   -1.7961971    1.1271946   439061 
 1455000   0.74906822   -1.7930912   -1.7930912   -0.6694914    0.1538208   -1.7930912    1.1235998   439061 
 1456000   0.75034292   -1.7955203   -1.7955203  -0.67000847   0.15300748   -1.7955203    1.1255118   439061 
 1457000   0.75132058    -1.797204    -1.797204  -0.67022569   0.15182137    -1.797204    1.1269783   439061 
 1458000   0.75027448    -1.795311    -1.795311  -0.66990189   0.15351538    -1.795311    1.1254092   439061 
 1459000   0.74986712   -1.7951862   -1.7951862  -0.67038803    0.1519318   -1.7951862    1.1247981   439061 
 1460000   0.75079057   -1.7963323   -1.7963323  -0.67014906   0.15310506   -1.7963323    1.1261833   439061 
 1461000   0.74898098   -1.7933437   -1.7933437  -0.66987482   0.15418217   -1.7933437    1.1234689   439061 
 1462000   0.74929879   -1.7939461   -1.7939461   -0.6700005   0.15029044   -1.7939461    1.1239456   439061 
 1463000   0.74826569   -1.7930743   -1.7930743  -0.67067837   0.15284737   -1.7930743     1.122396   439061 
 1464000   0.74917133   -1.7951122   -1.7951122   -0.6713578   0.15479154   -1.7951122    1.1237544   439061 
 1465000   0.74934517   -1.7952739   -1.7952739  -0.67125872    0.1480107   -1.7952739    1.1240152   439061 
 1466000   0.74984716   -1.7955094   -1.7955094  -0.67074126   0.14976154   -1.7955094    1.1247682   439061 
 1467000   0.74897822   -1.7943713   -1.7943713  -0.67090649   0.15372522   -1.7943713    1.1234648   439061 
 1468000   0.74983525    -1.794974    -1.794974  -0.67022364     0.152319    -1.794974    1.1247503   439061 
 1469000   0.74983056   -1.7951394   -1.7951394  -0.67039614   0.15350134   -1.7951394    1.1247433   439061 
 1470000   0.74978498   -1.7944806   -1.7944806  -0.66980569   0.15089459   -1.7944806    1.1246749   439061 
 1471000   0.74907749   -1.7942136   -1.7942136  -0.67059993   0.14935251   -1.7942136    1.1236137   439061 
 1472000   0.74974212    -1.795368    -1.795368   -0.6707574   0.15236869    -1.795368    1.1246106   439061 
 1473000   0.74878177   -1.7955066   -1.7955066  -0.67233649   0.15223406   -1.7955066    1.1231701   439061 
 1474000   0.74751913   -1.7939238   -1.7939238  -0.67264767   0.15069729   -1.7939238    1.1212761   439061 
 1475000   0.74820449    -1.795278    -1.795278  -0.67297385   0.15214637    -1.795278    1.1223042   439061 
 1476000   0.74967887    -1.796556    -1.796556  -0.67204022   0.14997361    -1.796556    1.1245157   439061 
 1477000   0.74884713   -1.7954375   -1.7954375  -0.67216933   0.15001959   -1.7954375    1.1232681   439061 
 1478000   0.74883955   -1.7955018   -1.7955018  -0.67224502   0.14814412   -1.7955018    1.1232568   439061 
 1479000   0.74848131   -1.7931264   -1.7931264    -0.670407   0.15657314   -1.7931264    1.1227194   439061 
 1480000   0.74920569    -1.794119    -1.794119  -0.67031301   0.15092562    -1.794119     1.123806   439061 
 1481000   0.74864683   -1.7936403   -1.7936403  -0.67067267   0.15192541   -1.7936403    1.1229677   439061 
 1482000   0.74902699   -1.7939607   -1.7939607  -0.67042277   0.15204482   -1.7939607    1.1235379   439061 
 1483000   0.74748174   -1.7918342   -1.7918342  -0.67061415   0.15275026   -1.7918342    1.1212201   439061 
 1484000   0.74903074   -1.7947159   -1.7947159  -0.67117236   0.15155566   -1.7947159    1.1235435   439061 
 1485000   0.74814576    -1.793279    -1.793279  -0.67106289    0.1517422    -1.793279    1.1222161   439061 
 1486000   0.74865002   -1.7941027   -1.7941027  -0.67113019   0.15255836   -1.7941027    1.1229725   439061 
 1487000   0.74847902    -1.793968    -1.793968  -0.67125203    0.1551162    -1.793968     1.122716   439061 
 1488000    0.7485131   -1.7938851   -1.7938851  -0.67111801   0.15240783   -1.7938851    1.1227671   439061 
 1489000   0.74845637   -1.7935969   -1.7935969  -0.67091495   0.15603292   -1.7935969     1.122682   439061 
 1490000   0.74844615   -1.7937906   -1.7937906  -0.67112391   0.15375006   -1.7937906    1.1226667   439061 
 1491000   0.74789708   -1.7936244   -1.7936244  -0.67178138   0.15172737   -1.7936244    1.1218431   439061 
 1492000   0.74966151    -1.796572    -1.796572   -0.6720823   0.14815624    -1.796572    1.1244897   439061 
 1493000    0.7488862   -1.7953215   -1.7953215  -0.67199472   0.14978087   -1.7953215    1.1233267   439061 
 1494000   0.74895068   -1.7961664   -1.7961664  -0.67274299   0.15539359   -1.7961664    1.1234235   439061 
 1495000   0.74763903   -1.7951523   -1.7951523   -0.6736963   0.15134502   -1.7951523     1.121456   439061 
 1496000   0.74734591   -1.7950749   -1.7950749  -0.67405862    0.1533607   -1.7950749    1.1210163   439061 
 1497000   0.74778322   -1.7952497   -1.7952497  -0.67357738   0.15070109   -1.7952497    1.1216723   439061 
 1498000   0.74827121   -1.7964519   -1.7964519  -0.67404762   0.14964733   -1.7964519    1.1224043   439061 
 1499000    0.7477711   -1.7953814   -1.7953814  -0.67372729   0.15068404   -1.7953814    1.1216541   439061 
 1500000   0.74882445    -1.796604    -1.796604  -0.67336992   0.15382007    -1.796604    1.1232341   439061 
 1501000   0.74719229   -1.7942274   -1.7942274  -0.67344154   0.15175897   -1.7942274    1.1207859   439061 
 1502000   0.74785665    -1.795543    -1.795543  -0.67376058   0.14731598    -1.795543    1.1217824   439061 
 1503000   0.74819822   -1.7954013   -1.7954013  -0.67310655   0.14872768   -1.7954013    1.1222948   439061 
 1504000   0.74784016   -1.7947859   -1.7947859  -0.67302824   0.15119322   -1.7947859    1.1217577   439061 
 1505000   0.74796704   -1.7953636   -1.7953636  -0.67341562   0.15112992   -1.7953636     1.121948   439061 
 1506000   0.74696803   -1.7944481   -1.7944481  -0.67399863   0.15182241   -1.7944481    1.1204495   439061 
 1507000   0.74807016   -1.7962653   -1.7962653  -0.67416265   0.14798156   -1.7962653    1.1221027   439061 
 1508000   0.74782097   -1.7947243   -1.7947243  -0.67299537   0.15376742   -1.7947243    1.1217289   439061 
 1509000   0.74741704   -1.7946291   -1.7946291  -0.67350609   0.15462235   -1.7946291     1.121123   439061 
 1510000    0.7480033   -1.7953004   -1.7953004  -0.67329803    0.1524704   -1.7953004    1.1220024   439061 
 1511000   0.74735407     -1.79421     -1.79421   -0.6731814    0.1522715     -1.79421    1.1210286   439061 
 1512000    0.7475994   -1.7936515   -1.7936515  -0.67225498   0.15312496   -1.7936515    1.1213965   439061 
 1513000   0.74890159   -1.7953116   -1.7953116  -0.67196174   0.15092917   -1.7953116    1.1233498   439061 
 1514000   0.74805983   -1.7936731   -1.7936731  -0.67158587   0.15131048   -1.7936731    1.1220872   439061 
 1515000   0.74779777    -1.793884    -1.793884  -0.67218992   0.14999768    -1.793884    1.1216941   439061 
 1516000   0.74921384    -1.795452    -1.795452  -0.67163375   0.15032213    -1.795452    1.1238182   439061 
 1517000   0.74776526   -1.7932659   -1.7932659  -0.67162054   0.14604319   -1.7932659    1.1216453   439061 
 1518000   0.74968051    -1.794783    -1.794783  -0.67026485   0.15019438    -1.794783    1.1245182   439061 
 1519000   0.74844517   -1.7938273   -1.7938273   -0.6711621   0.15460006   -1.7938273    1.1226652   439061 
 1520000   0.74846602   -1.7937448   -1.7937448  -0.67104833   0.14879571   -1.7937448    1.1226965   439061 
 1521000   0.74827854   -1.7941523   -1.7941523  -0.67173703   0.15252444   -1.7941523    1.1224153   439061 
 1522000   0.74844428   -1.7943026   -1.7943026  -0.67163874   0.15012486   -1.7943026    1.1226639   439061 
 1523000   0.74784616   -1.7929972   -1.7929972  -0.67123051   0.15510473   -1.7929972    1.1217667   439061 
 1524000   0.74826199   -1.7940615   -1.7940615  -0.67167107      0.15047   -1.7940615    1.1223904   439061 
 1525000   0.74709192   -1.7934774   -1.7934774  -0.67284203   0.14886499   -1.7934774    1.1206353   439061 
 1526000   0.74869154   -1.7951589   -1.7951589  -0.67212412   0.14958896   -1.7951589    1.1230348   439061 
 1527000   0.74551375    -1.791444    -1.791444  -0.67317592   0.15371198    -1.791444    1.1182681   439061 
 1528000   0.74639363   -1.7929359   -1.7929359  -0.67334803   0.14994712   -1.7929359    1.1195879   439061 
 1529000   0.74763232   -1.7946743   -1.7946743   -0.6732284   0.14722595   -1.7946743    1.1214459   439061 
 1530000   0.74718705   -1.7930886   -1.7930886  -0.67231056   0.15165661   -1.7930886     1.120778   439061 
 1531000   0.74742496   -1.7928686   -1.7928686  -0.67173367   0.14981907   -1.7928686    1.1211349   439061 
 1532000   0.74628271   -1.7917623   -1.7917623  -0.67234075    0.1484277   -1.7917623    1.1194215   439061 
 1533000   0.74734969   -1.7936412   -1.7936412  -0.67261924   0.15121271   -1.7936412     1.121022   439061 
 1534000   0.74722767   -1.7942799   -1.7942799   -0.6734409    0.1490948   -1.7942799     1.120839   439061 
 1535000   0.74785714   -1.7945731   -1.7945731  -0.67278996   0.15008619   -1.7945731    1.1217832   439061 
 1536000   0.74830016   -1.7945261   -1.7945261  -0.67207839   0.15304148   -1.7945261    1.1224477   439061 
 1537000   0.74777956   -1.7938127   -1.7938127  -0.67214587   0.15035108   -1.7938127    1.1216668   439061 
 1538000   0.74819138   -1.7940675   -1.7940675  -0.67178293   0.14784683   -1.7940675    1.1222845   439061 
 1539000   0.74769559   -1.7945998   -1.7945998  -0.67305901   0.14895122   -1.7945998    1.1215408   439061 
 1540000   0.74647054   -1.7924752   -1.7924752  -0.67277199   0.14835499   -1.7924752    1.1197033   439061 
 1541000   0.74656145   -1.7930479   -1.7930479  -0.67320827   0.14574588   -1.7930479    1.1198396   439061 
 1542000    0.7470585   -1.7937019   -1.7937019  -0.67311672   0.15113576   -1.7937019    1.1205852   439061 
 1543000   0.74737018   -1.7935758   -1.7935758  -0.67252312    0.1504261   -1.7935758    1.1210527   439061 
 1544000   0.74749965   -1.7935375   -1.7935375   -0.6722906   0.14781717   -1.7935375    1.1212469   439061 
 1545000   0.74758047   -1.7936432   -1.7936432  -0.67227501   0.14864281   -1.7936432    1.1213681   439061 
 1546000   0.74676159   -1.7935698   -1.7935698  -0.67342993   0.15033187   -1.7935698    1.1201398   439061 
 1547000    0.7464124   -1.7933216   -1.7933216   -0.6737055   0.15076049   -1.7933216    1.1196161   439061 
 1548000   0.74709836   -1.7941965   -1.7941965  -0.67355152   0.15213549   -1.7941965     1.120645   439061 
 1549000   0.74737421   -1.7946662   -1.7946662  -0.67360741   0.14965591   -1.7946662    1.1210588   439061 
 1550000   0.74714655   -1.7942825   -1.7942825  -0.67356522   0.15078764   -1.7942825    1.1207173   439061 
 1551000   0.74758476   -1.7951955   -1.7951955  -0.67382096   0.15075486   -1.7951955    1.1213746   439061 
 1552000   0.74682596   -1.7932479   -1.7932479  -0.67301147   0.15140461   -1.7932479    1.1202364   439061 
 1553000   0.74710364   -1.7938877   -1.7938877  -0.67323481   0.15072937   -1.7938877    1.1206529   439061 
 1554000   0.74767377   -1.7943058   -1.7943058  -0.67279767    0.1478828   -1.7943058    1.1215081   439061 
 1555000   0.74674777   -1.7936646   -1.7936646  -0.67354547   0.14944178   -1.7936646    1.1201191   439061 
 1556000    0.7466217   -1.7938329   -1.7938329   -0.6739029   0.14771849   -1.7938329      1.11993   439061 
 1557000   0.74677678   -1.7939266   -1.7939266  -0.67376398   0.15001032   -1.7939266    1.1201626   439061 
 1558000   0.74705017   -1.7949002   -1.7949002  -0.67432751   0.14516669   -1.7949002    1.1205727   439061 
 1559000   0.74601429   -1.7944295   -1.7944295  -0.67541065   0.14905658   -1.7944295    1.1190189   439061 
 1560000   0.74628798   -1.7938167   -1.7938167   -0.6743873   0.15353751   -1.7938167    1.1194294   439061 
 1561000   0.74742219    -1.795755    -1.795755  -0.67462428   0.14339358    -1.795755    1.1211307   439061 
 1562000   0.74654327   -1.7947558   -1.7947558  -0.67494342   0.14917837   -1.7947558    1.1198124   439061 
 1563000   0.74533381   -1.7926925   -1.7926925   -0.6746943   0.14864882   -1.7926925    1.1179982   439061 
 1564000   0.74582069    -1.793848    -1.793848  -0.67511955   0.14953137    -1.793848    1.1187285   439061 
 1565000   0.74714699   -1.7949051   -1.7949051  -0.67418718   0.14668611   -1.7949051    1.1207179   439061 
 1566000   0.74670536   -1.7942456   -1.7942456  -0.67419013   0.14789141   -1.7942456    1.1200555   439061 
 1567000   0.74664363   -1.7945724   -1.7945724  -0.67460949   0.14803236   -1.7945724    1.1199629   439061 
 1568000   0.74698826   -1.7949985   -1.7949985  -0.67451868    0.1494319   -1.7949985    1.1204798   439061 
 1569000   0.74629805   -1.7940465   -1.7940465  -0.67460195   0.15068233   -1.7940465    1.1194445   439061 
 1570000   0.74449518   -1.7919654   -1.7919654  -0.67522519   0.15321897   -1.7919654    1.1167402   439061 
 1571000   0.74564303   -1.7934361   -1.7934361  -0.67497412   0.15066027   -1.7934361     1.118462   439061 
 1572000   0.74589129   -1.7946261   -1.7946261  -0.67579174   0.14563788   -1.7946261    1.1188344   439061 
 1573000   0.74495271   -1.7938583   -1.7938583  -0.67643173   0.14441213   -1.7938583    1.1174265   439061 
 1574000   0.74612442   -1.7947494   -1.7947494  -0.67556531   0.14418296   -1.7947494    1.1191841   439061 
 1575000   0.74580957   -1.7940594   -1.7940594  -0.67534761   0.14760961   -1.7940594    1.1187118   439061 
 1576000   0.74601592   -1.7950376   -1.7950376  -0.67601625   0.14548573   -1.7950376    1.1190213   439061 
 1577000   0.74518765   -1.7937564   -1.7937564  -0.67597744   0.14969039   -1.7937564    1.1177789   439061 
 1578000    0.7462527   -1.7945674   -1.7945674  -0.67519089   0.14942861   -1.7945674    1.1193765   439061 
 1579000   0.74563812   -1.7940154   -1.7940154  -0.67556081   0.14534212   -1.7940154    1.1184546   439061 
 1580000   0.74606163    -1.794537    -1.794537  -0.67544712   0.14694129    -1.794537    1.1190899   439061 
 1581000   0.74610749    -1.794254    -1.794254  -0.67509535   0.14534331    -1.794254    1.1191587   439061 
 1582000   0.74543155   -1.7926574   -1.7926574  -0.67451258   0.14678115   -1.7926574    1.1181448   439061 
 1583000   0.74629786   -1.7944344   -1.7944344  -0.67499017   0.14644604   -1.7944344    1.1194442   439061 
 1584000   0.74625104   -1.7935366   -1.7935366  -0.67416256   0.14967061   -1.7935366     1.119374   439061 
 1585000   0.74644574   -1.7935524   -1.7935524  -0.67388636   0.14691047   -1.7935524    1.1196661   439061 
 1586000   0.74624867   -1.7931757   -1.7931757  -0.67380529   0.15079448   -1.7931757    1.1193705   439061 
 1587000   0.74581916   -1.7922871   -1.7922871  -0.67356086   0.14656471   -1.7922871    1.1187262   439061 
 1588000    0.7466226   -1.7934351   -1.7934351  -0.67350377   0.14781403   -1.7934351    1.1199313   439061 
 1589000   0.74700499   -1.7939864   -1.7939864  -0.67348148   0.14890558   -1.7939864    1.1205049   439061 
 1590000   0.74689325   -1.7938604   -1.7938604  -0.67352308   0.14927552   -1.7938604    1.1203373   439061 
 1591000   0.74610686   -1.7927047   -1.7927047  -0.67354701   0.15189587   -1.7927047    1.1191577   439061 
 1592000   0.74467101   -1.7908861   -1.7908861  -0.67388209   0.15024142   -1.7908861     1.117004   439061 
 1593000   0.74673548   -1.7929237   -1.7929237  -0.67282303   0.15008151   -1.7929237    1.1201007   439061 
 1594000    0.7467847   -1.7936195   -1.7936195  -0.67344502   0.15074662   -1.7936195    1.1201745   439061 
 1595000   0.74630024   -1.7930875   -1.7930875   -0.6736397   0.14290982   -1.7930875    1.1194478   439061 
 1596000   0.74631919   -1.7933172   -1.7933172  -0.67384099   0.14950605   -1.7933172    1.1194762   439061 
 1597000   0.74545504   -1.7926942   -1.7926942  -0.67451416   0.14742412   -1.7926942      1.11818   439061 
 1598000   0.74558626   -1.7932731   -1.7932731  -0.67489626   0.14792828   -1.7932731    1.1183768   439061 
 1599000   0.74584978   -1.7933367   -1.7933367  -0.67456458   0.14673638   -1.7933367    1.1187721   439061 
 1600000   0.74589028   -1.7931495   -1.7931495  -0.67431663   0.14795007   -1.7931495    1.1188329   439061 
 1601000   0.74557199   -1.7932411   -1.7932411  -0.67488566    0.1486612   -1.7932411    1.1183554   439061 
 1602000   0.74449604   -1.7921667   -1.7921667  -0.67542519    0.1451009   -1.7921667    1.1167415   439061 
 1603000   0.74555531   -1.7930562   -1.7930562  -0.67472579   0.14498319   -1.7930562    1.1183304   439061 
 1604000   0.74583668   -1.7941325   -1.7941325  -0.67538003   0.14484085   -1.7941325    1.1187525   439061 
 1605000   0.74500307   -1.7926962   -1.7926962  -0.67519418    0.1470901   -1.7926962    1.1175021   439061 
 1606000   0.74591073   -1.7934653   -1.7934653  -0.67460173   0.14702214   -1.7934653    1.1188635   439061 
 1607000   0.74503076   -1.7926046   -1.7926046  -0.67506105   0.14731116   -1.7926046    1.1175436   439061 
 1608000   0.74558416   -1.7940113   -1.7940113  -0.67563764   0.14428796   -1.7940113    1.1183737   439061 
 1609000   0.74480209   -1.7934782   -1.7934782  -0.67627765   0.14674347   -1.7934782    1.1172006   439061 
 1610000   0.74542414   -1.7933962   -1.7933962  -0.67526253     0.147366   -1.7933962    1.1181337   439061 
 1611000   0.74507517   -1.7926362   -1.7926362  -0.67502595   0.15054757   -1.7926362    1.1176102   439061 
 1612000   0.74548965   -1.7929547   -1.7929547  -0.67472273   0.14627771   -1.7929547    1.1182319   439061 
 1613000   0.74582801   -1.7937917   -1.7937917  -0.67505219   0.14576593   -1.7937917    1.1187395   439061 
 1614000   0.74535134   -1.7931366   -1.7931366  -0.67511217   0.14702191   -1.7931366    1.1180245   439061 
 1615000   0.74523068   -1.7929795   -1.7929795  -0.67513608   0.14392999   -1.7929795    1.1178435   439061 
 1616000   0.74493127   -1.7934727   -1.7934727  -0.67607835   0.14721093   -1.7934727    1.1173944   439061 
 1617000   0.74429111      -1.7926      -1.7926  -0.67616588   0.14625249      -1.7926    1.1164341   439061 
 1618000   0.74513223   -1.7936113   -1.7936113  -0.67591548    0.1455493   -1.7936113    1.1176958   439061 
 1619000   0.74570748   -1.7945681   -1.7945681  -0.67600946   0.14472244   -1.7945681    1.1185587   439061 
 1620000   0.74379129   -1.7916335   -1.7916335  -0.67594909   0.14885189   -1.7916335    1.1156844   439061 
 1621000   0.74500588   -1.7930139   -1.7930139  -0.67550761   0.14589707   -1.7930139    1.1175063   439061 
 1622000    0.7465548   -1.7951656   -1.7951656  -0.67533595   0.14942056   -1.7951656    1.1198297   439061 
 1623000   0.74451521   -1.7924383   -1.7924383  -0.67566804   0.14545761   -1.7924383    1.1167703   439061 
 1624000   0.74619326   -1.7948405   -1.7948405  -0.67555315   0.14523693   -1.7948405    1.1192873   439061 
 1625000   0.74564063   -1.7950553   -1.7950553  -0.67659689   0.14549559   -1.7950553    1.1184584   439061 
 1626000   0.74423765   -1.7933574   -1.7933574  -0.67700344   0.14575083   -1.7933574    1.1163539   439061 
 1627000   0.74553116   -1.7949052   -1.7949052    -0.676611   0.14325468   -1.7949052    1.1182942   439061 
 1628000   0.74511489   -1.7943567   -1.7943567  -0.67668688    0.1450274   -1.7943567    1.1176698   439061 
 1629000   0.74454252   -1.7931985   -1.7931985  -0.67638724   0.14765791   -1.7931985    1.1168112   439061 
 1630000   0.74472804   -1.7933998   -1.7933998  -0.67631028   0.14731804   -1.7933998    1.1170895   439061 
 1631000   0.74499679   -1.7938828   -1.7938828  -0.67639017    0.1464293   -1.7938828    1.1174926   439061 
 1632000   0.74443294   -1.7928796   -1.7928796  -0.67623277   0.14801285   -1.7928796    1.1166469   439061 
 1633000   0.74480016   -1.7928352   -1.7928352  -0.67563749   0.14808461   -1.7928352    1.1171977   439061 
 1634000   0.74449814   -1.7926199   -1.7926199  -0.67587522   0.14864111   -1.7926199    1.1167447   439061 
 1635000   0.74469497   -1.7930156   -1.7930156  -0.67597569    0.1449519   -1.7930156    1.1170399   439061 
 1636000   0.74454254   -1.7925608   -1.7925608  -0.67574955   0.14787063   -1.7925608    1.1168113   439061 
 1637000   0.74396379   -1.7916802   -1.7916802  -0.67573704    0.1488241   -1.7916802    1.1159431   439061 
 1638000   0.74470212   -1.7929613   -1.7929613  -0.67591071   0.14536317   -1.7929613    1.1170506   439061 
 1639000   0.74486982   -1.7944397   -1.7944397  -0.67713755   0.14615775   -1.7944397    1.1173022   439061 
 1640000   0.74492691   -1.7943676   -1.7943676  -0.67697982    0.1424579   -1.7943676    1.1173878   439061 
 1641000   0.74556769   -1.7950243   -1.7950243  -0.67667529   0.14610815   -1.7950243     1.118349   439061 
 1642000   0.74405475   -1.7924463   -1.7924463  -0.67636673   0.14866884   -1.7924463    1.1160796   439061 
 1643000   0.74491269   -1.7933371   -1.7933371  -0.67597064   0.14882623   -1.7933371    1.1173665   439061 
 1644000   0.74371422   -1.7923182   -1.7923182  -0.67674937   0.14590447   -1.7923182    1.1155688   439061 
 1645000   0.74428485   -1.7932058   -1.7932058  -0.67678107   0.14969384   -1.7932058    1.1164247   439061 
 1646000   0.74377952   -1.7928039   -1.7928039  -0.67713719    0.1463732   -1.7928039    1.1156667   439061 
 1647000   0.74444848   -1.7933185   -1.7933185  -0.67664834   0.14563706   -1.7933185    1.1166702   439061 
 1648000   0.74398746   -1.7924353   -1.7924353  -0.67645667   0.14622813   -1.7924353    1.1159787   439061 
 1649000   0.74475113   -1.7935642   -1.7935642  -0.67644007   0.14577003   -1.7935642    1.1171242   439061 
 1650000   0.74473133   -1.7924875   -1.7924875   -0.6753931   0.14313136   -1.7924875    1.1170944   439061 
 1651000   0.74508157   -1.7935547   -1.7935547   -0.6759349   0.14575999   -1.7935547    1.1176198   439061 
 1652000   0.74509841   -1.7930085   -1.7930085  -0.67536345   0.14602761   -1.7930085    1.1176451   439061 
 1653000   0.74381425   -1.7917377   -1.7917377  -0.67601891    0.1469318   -1.7917377    1.1157188   439061 
 1654000   0.74528645   -1.7935586   -1.7935586  -0.67563148   0.14395658   -1.7935586    1.1179271   439061 
 1655000   0.74505395   -1.7938403   -1.7938403  -0.67626193   0.14430901   -1.7938403    1.1175784   439061 
 1656000   0.74474066   -1.7925373   -1.7925373   -0.6754289   0.14864679   -1.7925373    1.1171084   439061 
 1657000    0.7441385   -1.7914044   -1.7914044  -0.67519916   0.14346845   -1.7914044    1.1162052   439061 
 1658000   0.74523636   -1.7924635   -1.7924635  -0.67461151   0.14860226   -1.7924635     1.117852   439061 
 1659000   0.74391321   -1.7911647   -1.7911647  -0.67529746   0.14841349   -1.7911647    1.1158673   439061 
 1660000    0.7452069   -1.7936528   -1.7936528  -0.67584496   0.14514226   -1.7936528    1.1178078   439061 
 1661000    0.7446186   -1.7935643   -1.7935643  -0.67663893   0.14326082   -1.7935643    1.1169254   439061 
 1662000   0.74391785    -1.791339    -1.791339  -0.67546472   0.14635859    -1.791339    1.1158742   439061 
 1663000   0.74507164   -1.7931832   -1.7931832  -0.67557832   0.14354731   -1.7931832    1.1176049   439061 
 1664000   0.74542096   -1.7933111   -1.7933111  -0.67518217   0.14491191   -1.7933111    1.1181289   439061 
 1665000   0.74394787   -1.7911469   -1.7911469  -0.67522762   0.14637561   -1.7911469    1.1159193   439061 
 1666000   0.74434163   -1.7923015   -1.7923015  -0.67579163    0.1440325   -1.7923015    1.1165099   439061 
 1667000   0.74397218   -1.7919978   -1.7919978  -0.67604207   0.15014079   -1.7919978    1.1159557   439061 
 1668000   0.74441369   -1.7924061   -1.7924061  -0.67578807   0.14660813   -1.7924061     1.116618   439061 
 1669000   0.74384638   -1.7928918   -1.7928918  -0.67712476   0.14151169   -1.7928918     1.115767   439061 
 1670000   0.74530773   -1.7937979   -1.7937979  -0.67583883   0.14665111   -1.7937979     1.117959   439061 
 1671000   0.74316019   -1.7909291   -1.7909291  -0.67619141   0.14900436   -1.7909291    1.1147377   439061 
 1672000   0.74369623   -1.7918751   -1.7918751  -0.67633325   0.14451281   -1.7918751    1.1155418   439061 
 1673000   0.74328897    -1.791009    -1.791009   -0.6760781    0.1466534    -1.791009    1.1149309   439061 
 1674000   0.74411065   -1.7921546   -1.7921546  -0.67599117   0.14611247   -1.7921546    1.1161634   439061 
 1675000   0.74452186   -1.7917333   -1.7917333  -0.67495306   0.14520994   -1.7917333    1.1167802   439061 
 1676000   0.74384196   -1.7907671   -1.7907671  -0.67500673    0.1474952   -1.7907671    1.1157604   439061 
 1677000   0.74479234   -1.7923865   -1.7923865  -0.67520055    0.1452212   -1.7923865     1.117186   439061 
 1678000   0.74449132   -1.7923916   -1.7923916  -0.67565719   0.14571004   -1.7923916    1.1167344   439061 
 1679000   0.74383808   -1.7921634   -1.7921634   -0.6764088   0.14703057   -1.7921634    1.1157546   439061 
 1680000   0.74440451   -1.7931279   -1.7931279  -0.67652367   0.14592944   -1.7931279    1.1166042   439061 
 1681000   0.74290672   -1.7909944   -1.7909944  -0.67663686   0.14387463   -1.7909944    1.1143575   439061 
 1682000   0.74374985   -1.7921505   -1.7921505  -0.67652829   0.14562535   -1.7921505    1.1156222   439061 
 1683000   0.74303664   -1.7911785   -1.7911785  -0.67662606   0.14568427   -1.7911785    1.1145524   439061 
 1684000   0.74296034   -1.7907265   -1.7907265  -0.67628857   0.14348412   -1.7907265     1.114438   439061 
 1685000   0.74449087   -1.7930309   -1.7930309  -0.67629709   0.14374536   -1.7930309    1.1167338   439061 
 1686000   0.74361046   -1.7921592   -1.7921592    -0.676746   0.14430878   -1.7921592    1.1154132   439061 
 1687000    0.7431016   -1.7924973   -1.7924973  -0.67784743   0.14461312   -1.7924973    1.1146499   439061 
 1688000   0.74329788   -1.7918186   -1.7918186   -0.6768743   0.14346923   -1.7918186    1.1149443   439061 
 1689000   0.74472875   -1.7932306   -1.7932306  -0.67614003   0.14789991   -1.7932306    1.1170906   439061 
 1690000   0.74346268   -1.7917581   -1.7917581   -0.6765666    0.1407977   -1.7917581    1.1151915   439061 
 1691000   0.74443688   -1.7925001   -1.7925001  -0.67584736   0.14444663   -1.7925001    1.1166528   439061 
 1692000   0.74347146   -1.7922262   -1.7922262   -0.6770216   0.14580109   -1.7922262    1.1152046   439061 
 1693000   0.74276365   -1.7917462   -1.7917462  -0.67760323   0.14820184   -1.7917462    1.1141429   439061 
 1694000   0.74366912   -1.7922807   -1.7922807  -0.67677957   0.14119352   -1.7922807    1.1155011   439061 
 1695000   0.74287076   -1.7917599   -1.7917599  -0.67745628   0.14748181   -1.7917599    1.1143036   439061 
 1696000   0.74311499   -1.7918423   -1.7918423  -0.67717234   0.14326451   -1.7918423      1.11467   439061 
 1697000   0.74220354   -1.7906548   -1.7906548  -0.67735201    0.1457313   -1.7906548    1.1133028   439061 
 1698000   0.74343893   -1.7920332   -1.7920332  -0.67687735   0.14336672   -1.7920332    1.1151559   439061 
 1699000   0.74341275   -1.7923735   -1.7923735  -0.67725691   0.14549925   -1.7923735    1.1151166   439061 
 1700000   0.74408012    -1.794263    -1.794263  -0.67814539   0.14664838    -1.794263    1.1161176   439061 
 1701000   0.74317297   -1.7924071   -1.7924071  -0.67765022   0.14475476   -1.7924071    1.1147569   439061 
 1702000   0.74262811   -1.7914452   -1.7914452   -0.6775056    0.1439371   -1.7914452    1.1139396   439061 
 1703000   0.74272055    -1.792227    -1.792227  -0.67814868    0.1431715    -1.792227    1.1140783   439061 
 1704000   0.74365486   -1.7928312   -1.7928312  -0.67735148   0.14665736   -1.7928312    1.1154797   439061 
 1705000   0.74295188   -1.7924113   -1.7924113  -0.67798599   0.14169767   -1.7924113    1.1144253   439061 
 1706000   0.74309614   -1.7935176   -1.7935176  -0.67887595   0.14171894   -1.7935176    1.1146417   439061 
 1707000   0.74130658   -1.7920194   -1.7920194  -0.68006211   0.14371158   -1.7920194    1.1119573   439061 
 1708000   0.74223617   -1.7919687   -1.7919687  -0.67861696   0.14560106   -1.7919687    1.1133517   439061 
 1709000   0.74180692   -1.7910697   -1.7910697  -0.67836189   0.15041162   -1.7910697    1.1127078   439061 
 1710000   0.74344615   -1.7943267   -1.7943267  -0.67916001   0.14224438   -1.7943267    1.1151667   439061 
 1711000    0.7417762   -1.7922903   -1.7922903  -0.67962851   0.14323228   -1.7922903    1.1126618   439061 
 1712000   0.74255106   -1.7942754   -1.7942754  -0.68045131   0.14363461   -1.7942754     1.113824   439061 
 1713000   0.74226336   -1.7933453   -1.7933453   -0.6799528   0.14161224   -1.7933453    1.1133925   439061 
 1714000   0.74239328   -1.7939061   -1.7939061  -0.68031872   0.14714389   -1.7939061    1.1135874   439061 
 1715000   0.74275951   -1.7934302   -1.7934302  -0.67929345   0.14639033   -1.7934302    1.1141367   439061 
 1716000   0.74257622   -1.7922636   -1.7922636  -0.67840178   0.14072591   -1.7922636    1.1138618   439061 
 1717000   0.74397152   -1.7941368   -1.7941368  -0.67818207   0.14373065   -1.7941368    1.1159547   439061 
 1718000   0.74244461   -1.7930364   -1.7930364  -0.67937206   0.14482215   -1.7930364    1.1136644   439061 
 1719000   0.74373026   -1.7939348   -1.7939348  -0.67834192   0.14579312   -1.7939348    1.1155928   439061 
 1720000   0.74272161   -1.7921981   -1.7921981  -0.67811823   0.14483863   -1.7921981    1.1140799   439061 
 1721000   0.74338608   -1.7933658   -1.7933658  -0.67828925   0.14428867   -1.7933658    1.1150766   439061 
 1722000   0.74301984   -1.7933177   -1.7933177  -0.67879051   0.14165585   -1.7933177    1.1145272   439061 
 1723000   0.74257642   -1.7925385   -1.7925385  -0.67867639   0.14306563   -1.7925385    1.1138621   439061 
 1724000   0.74292701    -1.791207    -1.791207  -0.67681905   0.14406774    -1.791207     1.114388   439061 
 1725000   0.74275555   -1.7912056   -1.7912056  -0.67707482   0.14365089   -1.7912056    1.1141308   439061 
 1726000   0.74407914   -1.7919945   -1.7919945  -0.67587831   0.14526473   -1.7919945    1.1161162   439061 
 1727000   0.74449538   -1.7926587   -1.7926587  -0.67591817   0.15023085   -1.7926587    1.1167405   439061 
 1728000   0.74374049   -1.7917108   -1.7917108  -0.67610256   0.14413963   -1.7917108    1.1156082   439061 
 1729000   0.74352263   -1.7919833   -1.7919833  -0.67670193    0.1462916   -1.7919833    1.1152814   439061 
 1730000   0.74273059   -1.7909463   -1.7909463    -0.676853   0.14421979   -1.7909463    1.1140933   439061 
 1731000   0.74133488   -1.7894447   -1.7894447  -0.67744491   0.14457328   -1.7894447    1.1119998   439061 
 1732000   0.74358259   -1.7918295   -1.7918295  -0.67645817    0.1437026   -1.7918295    1.1153713   439061 
 1733000   0.74291603   -1.7920328   -1.7920328  -0.67766134   0.14092042   -1.7920328    1.1143715   439061 
 1734000   0.74272835    -1.792468    -1.792468  -0.67837799   0.13936878    -1.792468      1.11409   439061 
 1735000   0.74170451   -1.7908292   -1.7908292  -0.67827491    0.1447191   -1.7908292    1.1125542   439061 
 1736000   0.74217873   -1.7919569   -1.7919569  -0.67869138   0.14549179   -1.7919569    1.1132656   439061 
 1737000   0.74264561    -1.791653    -1.791653  -0.67768708   0.14231879    -1.791653    1.1139659   439061 
 1738000   0.74307086   -1.7920599   -1.7920599  -0.67745619    0.1441453   -1.7920599    1.1146038   439061 
 1739000   0.74314755   -1.7932164   -1.7932164  -0.67849758   0.13833658   -1.7932164    1.1147188   439061 
 1740000   0.74138746   -1.7914496   -1.7914496  -0.67937092   0.14746408   -1.7914496    1.1120787   439061 
 1741000   0.74207083   -1.7922293   -1.7922293  -0.67912564   0.13953581   -1.7922293    1.1131037   439061 
 1742000   0.74242697   -1.7927154   -1.7927154   -0.6790775   0.14401239   -1.7927154    1.1136379   439061 
 1743000   0.74092935   -1.7911467   -1.7911467  -0.67975516   0.14002633   -1.7911467    1.1113915   439061 
 1744000   0.74089022   -1.7907422   -1.7907422  -0.67940944   0.14208454   -1.7907422    1.1113328   439061 
 1745000   0.74188639   -1.7924851   -1.7924851  -0.67965804   0.14042355   -1.7924851    1.1128271   439061 
 1746000   0.74196326   -1.7927401   -1.7927401  -0.67979775   0.14113821   -1.7927401    1.1129423   439061 
 1747000   0.74010187   -1.7893418   -1.7893418  -0.67919151    0.1427237   -1.7893418    1.1101503   439061 
 1748000    0.7423611   -1.7909286   -1.7909286  -0.67738948    0.1422932   -1.7909286    1.1135391   439061 
 1749000   0.74298769   -1.7915738   -1.7915738  -0.67709476    0.1416874   -1.7915738     1.114479   439061 
 1750000   0.74130998   -1.7916002   -1.7916002  -0.67963779   0.14289878   -1.7916002    1.1119624   439061 
 1751000   0.74195237   -1.7912863   -1.7912863  -0.67836028   0.14097289   -1.7912863     1.112926   439061 
 1752000   0.74217376   -1.7932168   -1.7932168  -0.67995872   0.14392473   -1.7932168    1.1132581   439061 
 1753000   0.74168865   -1.7924509   -1.7924509  -0.67992049   0.14369382   -1.7924509    1.1125304   439061 
 1754000    0.7415293   -1.7914755   -1.7914755  -0.67918407   0.14430885   -1.7914755    1.1122914   439061 
 1755000   0.74174903   -1.7920185   -1.7920185  -0.67939747   0.14274622   -1.7920185     1.112621   439061 
 1756000    0.7422995   -1.7918984   -1.7918984  -0.67845165   0.14426631   -1.7918984    1.1134467   439061 
 1757000   0.74230928   -1.7928618   -1.7928618   -0.6794004   0.14044403   -1.7928618    1.1134614   439061 
 1758000   0.74266032   -1.7936272   -1.7936272   -0.6796392   0.13741557   -1.7936272    1.1139879   439061 
 1759000   0.74252667   -1.7924398   -1.7924398  -0.67865234   0.14421965   -1.7924398    1.1137875   439061 
 1760000   0.74185681    -1.791303    -1.791303  -0.67852033   0.14333424    -1.791303    1.1127827   439061 
 1761000   0.74321234   -1.7933629   -1.7933629  -0.67854688   0.14228194   -1.7933629     1.114816   439061 
 1762000   0.74324389   -1.7933613   -1.7933613  -0.67849796   0.14502193   -1.7933613    1.1148633   439061 
 1763000   0.74192838   -1.7921257   -1.7921257  -0.67923571   0.14194025   -1.7921257      1.11289   439061 
 1764000   0.74162158   -1.7923348   -1.7923348    -0.679905   0.14450137   -1.7923348    1.1124298   439061 
 1765000   0.74041213   -1.7903778   -1.7903778  -0.67976213   0.13984189   -1.7903778    1.1106157   439061 
 1766000   0.74026908   -1.7905527   -1.7905527  -0.68015157   0.14114645   -1.7905527    1.1104011   439061 
 1767000    0.7414893   -1.7920829   -1.7920829  -0.67985149   0.13902553   -1.7920829    1.1122314   439061 
 1768000   0.74111781   -1.7916264   -1.7916264  -0.67995225   0.14169143   -1.7916264    1.1116742   439061 
 1769000   0.74032122   -1.7903604   -1.7903604  -0.67988113   0.14587784   -1.7903604    1.1104793   439061 
 1770000   0.74096922   -1.7918262   -1.7918262  -0.68037485    0.1410889   -1.7918262    1.1114513   439061 
 1771000   0.74099362   -1.7919624   -1.7919624  -0.68047455   0.14307447   -1.7919624    1.1114879   439061 
 1772000   0.74095199   -1.7918109   -1.7918109  -0.68038542   0.14460174   -1.7918109    1.1114255   439061 
 1773000   0.74045779   -1.7905619   -1.7905619  -0.67987775    0.1423346   -1.7905619    1.1106841   439061 
 1774000   0.74139011   -1.7923728   -1.7923728  -0.68029013   0.14371039   -1.7923728    1.1120826   439061 
 1775000   0.74169012   -1.7929652   -1.7929652  -0.68043252   0.14269088   -1.7929652    1.1125327   439061 
 1776000   0.74021692   -1.7909077   -1.7909077  -0.68058485   0.14361217   -1.7909077    1.1103229   439061 
 1777000   0.74018695    -1.790516    -1.790516  -0.68023814    0.1407039    -1.790516    1.1102779   439061 
 1778000   0.73984686   -1.7900761   -1.7900761  -0.68030834   0.14009205   -1.7900761    1.1097678   439061 
 1779000   0.73977802   -1.7892566   -1.7892566  -0.67959212   0.14465322   -1.7892566    1.1096645   439061 
 1780000   0.74115497    -1.792041    -1.792041  -0.68031113   0.14468106    -1.792041    1.1117299   439061 
 1781000   0.74127046   -1.7924848   -1.7924848  -0.68058162   0.13810155   -1.7924848    1.1119032   439061 
 1782000   0.74060453   -1.7912011   -1.7912011  -0.68029687   0.14346585   -1.7912011    1.1109043   439061 
 1783000   0.74201314   -1.7937935   -1.7937935  -0.68077632   0.14414911   -1.7937935    1.1130172   439061 
 1784000   0.74076978   -1.7909947   -1.7909947   -0.6798426   0.13936241   -1.7909947    1.1111521   439061 
 1785000   0.74099781   -1.7911652   -1.7911652    -0.679671   0.14516321   -1.7911652    1.1114942   439061 
 1786000   0.74134354   -1.7912199   -1.7912199  -0.67920716   0.14091415   -1.7912199    1.1120128   439061 
 1787000   0.74180316    -1.792492    -1.792492  -0.67978981   0.13747028    -1.792492    1.1127022   439061 
 1788000   0.74137616   -1.7915344   -1.7915344  -0.67947273   0.14278363   -1.7915344    1.1120617   439061 
 1789000   0.74170715   -1.7914257   -1.7914257  -0.67886755   0.14268182   -1.7914257    1.1125582   439061 
 1790000   0.74156037   -1.7915011   -1.7915011  -0.67916311   0.14485905   -1.7915011     1.112338   439061 
 1791000   0.74132994   -1.7922523   -1.7922523  -0.68025988   0.14424735   -1.7922523    1.1119924   439061 
 1792000   0.74087464   -1.7920054   -1.7920054  -0.68069598   0.14164221   -1.7920054    1.1113094   439061 
 1793000   0.74141911   -1.7922133   -1.7922133  -0.68008721   0.14177516   -1.7922133    1.1121261   439061 
 1794000   0.74208795   -1.7951094   -1.7951094  -0.68198003   0.13624192   -1.7951094    1.1131294   439061 
 1795000   0.74180662   -1.7950575   -1.7950575  -0.68235013   0.14158707   -1.7950575    1.1127074   439061 
 1796000   0.73945171   -1.7906974   -1.7906974  -0.68152237   0.14390794   -1.7906974     1.109175   439061 
 1797000    0.7402433   -1.7919932   -1.7919932  -0.68163073   0.14308449   -1.7919932    1.1103624   439061 
 1798000   0.74002759   -1.7926914   -1.7926914  -0.68265257   0.14031768   -1.7926914    1.1100389   439061 
 1799000   0.73961592   -1.7921687   -1.7921687  -0.68274736    0.1428752   -1.7921687    1.1094214   439061 
 1800000   0.74007735   -1.7930482   -1.7930482   -0.6829347   0.14149029   -1.7930482    1.1101135   439061 
 1801000    0.7403265   -1.7934869   -1.7934869   -0.6829997   0.14043127   -1.7934869    1.1104872   439061 
 1802000   0.73994027    -1.793098    -1.793098  -0.68319013   0.14187712    -1.793098    1.1099079   439061 
 1803000   0.74110899   -1.7946611   -1.7946611  -0.68300016   0.14278495   -1.7946611     1.111661   439061 
 1804000   0.73914278   -1.7926969   -1.7926969  -0.68398526   0.14229244   -1.7926969    1.1087116   439061 
 1805000   0.73965568   -1.7935563   -1.7935563   -0.6840753   0.14189751   -1.7935563     1.109481   439061 
 1806000   0.73917932   -1.7930027   -1.7930027  -0.68423619   0.14157234   -1.7930027    1.1087665   439061 
 1807000   0.73891297   -1.7929928   -1.7929928  -0.68462586     0.135252   -1.7929928    1.1083669   439061 
 1808000   0.73890311   -1.7927413   -1.7927413  -0.68438916   0.14129293   -1.7927413    1.1083521   439061 
 1809000   0.73952688   -1.7932711   -1.7932711  -0.68398328   0.13936567   -1.7932711    1.1092878   439061 
 1810000   0.73918285   -1.7925173   -1.7925173  -0.68374553   0.13871542   -1.7925173    1.1087717   439061 
 1811000   0.73914409   -1.7920622   -1.7920622  -0.68334859   0.13954295   -1.7920622    1.1087136   439061 
 1812000   0.73917616    -1.791746    -1.791746  -0.68298429   0.14289043    -1.791746    1.1087617   439061 
 1813000   0.73927376   -1.7924391   -1.7924391  -0.68353097   0.13772465   -1.7924391    1.1089081   439061 
 1814000   0.73914179   -1.7923482   -1.7923482  -0.68363803   0.13860193   -1.7923482    1.1087102   439061 
 1815000   0.74001191   -1.7935455   -1.7935455  -0.68353012   0.13908913   -1.7935455    1.1100153   439061 
 1816000   0.73946983   -1.7924328   -1.7924328  -0.68323061   0.14106641   -1.7924328    1.1092022   439061 
 1817000   0.73891103   -1.7923327   -1.7923327  -0.68396871   0.13937693   -1.7923327     1.108364   439061 
 1818000   0.73943045   -1.7925263   -1.7925263  -0.68338316   0.14038195   -1.7925263    1.1091432   439061 
 1819000   0.73907201   -1.7919105   -1.7919105  -0.68330501   0.14031189   -1.7919105    1.1086055   439061 
 1820000   0.73935113   -1.7929489   -1.7929489  -0.68392472   0.14182054   -1.7929489    1.1090242   439061 
 1821000   0.73866941    -1.792336    -1.792336  -0.68433443   0.13763435    -1.792336    1.1080016   439061 
 1822000   0.73900011   -1.7924079   -1.7924079  -0.68391027   0.13851452   -1.7924079    1.1084976   439061 
 1823000   0.74036292   -1.7939363   -1.7939363  -0.68339448    0.1418083   -1.7939363    1.1105418   439061 
 1824000   0.73924155   -1.7925319   -1.7925319  -0.68367214   0.14115589   -1.7925319    1.1088598   439061 
 1825000   0.74032187   -1.7932692   -1.7932692  -0.68278892   0.14011519   -1.7932692    1.1104803   439061 
 1826000   0.73994543   -1.7934474   -1.7934474  -0.68353177    0.1375649   -1.7934474    1.1099156   439061 
 1827000   0.73926268   -1.7927711   -1.7927711  -0.68387958    0.1347258   -1.7927711    1.1088915   439061 
 1828000   0.74029458   -1.7939621   -1.7939621   -0.6835227   0.13891739   -1.7939621    1.1104393   439061 
 1829000   0.73898558   -1.7921704   -1.7921704  -0.68369453   0.13715825   -1.7921704    1.1084758   439061 
 1830000     0.740272   -1.7933825   -1.7933825  -0.68297703   0.13911392   -1.7933825    1.1104055   439061 
 1831000   0.73927065   -1.7926783   -1.7926783  -0.68377487   0.14063008   -1.7926783    1.1089035   439061 
 1832000   0.73893532   -1.7922462   -1.7922462  -0.68384574   0.14330556   -1.7922462    1.1084004   439061 
 1833000   0.73901397   -1.7930396   -1.7930396  -0.68452117   0.13873906   -1.7930396    1.1085184   439061 
 1834000   0.73772866   -1.7908317   -1.7908317  -0.68424119   0.13928589   -1.7908317    1.1065905   439061 
 1835000   0.73938228   -1.7927587   -1.7927587  -0.68368784   0.13778385   -1.7927587    1.1090709   439061 
 1836000   0.73949108   -1.7939463   -1.7939463  -0.68471224    0.1381579   -1.7939463    1.1092341   439061 
 1837000   0.73876975    -1.793259    -1.793259  -0.68510686   0.13560679    -1.793259    1.1081521   439061 
 1838000   0.73840603   -1.7925316   -1.7925316  -0.68492506   0.13777616   -1.7925316    1.1076065   439061 
 1839000   0.73773481   -1.7910742   -1.7910742  -0.68447451   0.13825538   -1.7910742    1.1065997   439061 
 1840000    0.7393884   -1.7933569   -1.7933569  -0.68427685   0.14090534   -1.7933569    1.1090801   439061 
 1841000    0.7388957   -1.7923023   -1.7923023  -0.68396125   0.13805194   -1.7923023     1.108341   439061 
 1842000   0.73896833   -1.7923561   -1.7923561  -0.68390618   0.13843971   -1.7923561      1.10845   439061 
 1843000   0.73768779   -1.7906378   -1.7906378  -0.68410863   0.14332253   -1.7906378    1.1065292   439061 
 1844000   0.73861602   -1.7915437   -1.7915437  -0.68362215    0.1410672   -1.7915437    1.1079215   439061 
 1845000   0.73980318   -1.7932306   -1.7932306  -0.68352834    0.1380718   -1.7932306    1.1097022   439061 
 1846000   0.73825203    -1.791526    -1.791526  -0.68415051   0.13956449    -1.791526    1.1073755   439061 
 1847000   0.73944661   -1.7931735   -1.7931735  -0.68400609   0.13952479   -1.7931735    1.1091674   439061 
 1848000   0.73863192   -1.7918692   -1.7918692   -0.6839238   0.13838329   -1.7918692    1.1079454   439061 
 1849000   0.73861695   -1.7921093   -1.7921093  -0.68418636   0.13960023   -1.7921093    1.1079229   439061 
 1850000   0.73941159   -1.7928702   -1.7928702   -0.6837553   0.14164162   -1.7928702    1.1091149   439061 
 1851000   0.73785264   -1.7914203   -1.7914203  -0.68464382   0.13966921   -1.7914203    1.1067764   439061 
 1852000   0.73860558   -1.7923971   -1.7923971  -0.68449122   0.13708551   -1.7923971    1.1079059   439061 
 1853000   0.73958821   -1.7941155   -1.7941155  -0.68473571   0.13869332   -1.7941155    1.1093798   439061 
 1854000   0.73836491   -1.7912457   -1.7912457  -0.68370087   0.14127501   -1.7912457    1.1075448   439061 
 1855000   0.73874205   -1.7926964   -1.7926964  -0.68458581   0.13959457   -1.7926964    1.1081106   439061 
 1856000   0.73747922    -1.792529    -1.792529  -0.68631265   0.13775947    -1.792529    1.1062163   439061 
 1857000   0.73763499   -1.7918013   -1.7918013  -0.68535129   0.14033564   -1.7918013      1.10645   439061 
 1858000   0.73890976   -1.7935007   -1.7935007  -0.68513859     0.135844   -1.7935007    1.1083621   439061 
 1859000    0.7370372   -1.7915968   -1.7915968  -0.68604352   0.14087352   -1.7915968    1.1055533   439061 
 1860000   0.73941037   -1.7942264   -1.7942264  -0.68511338   0.13785606   -1.7942264     1.109113   439061 
 1861000   0.73797999   -1.7940277   -1.7940277  -0.68706021   0.14163608   -1.7940277    1.1069675   439061 
 1862000   0.73776044   -1.7928723   -1.7928723  -0.68623413   0.13830201   -1.7928723    1.1066381   439061 
 1863000   0.73785085   -1.7922965   -1.7922965  -0.68552279   0.13966054   -1.7922965    1.1067738   439061 
 1864000   0.73844858    -1.792565    -1.792565  -0.68489461   0.13929166    -1.792565    1.1076703   439061 
 1865000   0.73780045   -1.7921212   -1.7921212  -0.68542303   0.13992194   -1.7921212    1.1066982   439061 
 1866000   0.73893673   -1.7942307   -1.7942307  -0.68582815   0.14068918   -1.7942307    1.1084026   439061 
 1867000   0.73841404   -1.7933569   -1.7933569  -0.68573837   0.13647745   -1.7933569    1.1076185   439061 
 1868000   0.73754534   -1.7931111   -1.7931111  -0.68679557   0.13668832   -1.7931111    1.1063155   439061 
 1869000   0.73847099   -1.7933287   -1.7933287  -0.68562469   0.13822351   -1.7933287     1.107704   439061 
 1870000   0.73775605   -1.7937548   -1.7937548  -0.68712325    0.1368999   -1.7937548    1.1066316   439061 
 1871000    0.7387919    -1.794245    -1.794245  -0.68605971   0.13751984    -1.794245    1.1081853   439061 
 1872000   0.73798879    -1.792262    -1.792262  -0.68528137   0.14043847    -1.792262    1.1069807   439061 
 1873000   0.73841425   -1.7942905   -1.7942905  -0.68667168   0.13715488   -1.7942905    1.1076189   439061 
 1874000   0.73753009   -1.7939636   -1.7939636    -0.687671   0.14003662   -1.7939636    1.1062926   439061 
 1875000    0.7382171   -1.7947537   -1.7947537  -0.68743062   0.13565665   -1.7947537    1.1073231   439061 
 1876000   0.73727138    -1.793331    -1.793331  -0.68742646   0.13600982    -1.793331    1.1059046   439061 
 1877000   0.73782719   -1.7946782   -1.7946782  -0.68793994    0.1406768   -1.7946782    1.1067383   439061 
 1878000   0.73669096   -1.7927273   -1.7927273  -0.68769334   0.14012037   -1.7927273    1.1050339   439061 
 1879000   0.73759547   -1.7937498   -1.7937498  -0.68735913   0.13738666   -1.7937498    1.1063907   439061 
 1880000   0.73713213   -1.7922932   -1.7922932  -0.68659751   0.13807453   -1.7922932    1.1056957   439061 
 1881000   0.73804779   -1.7943745   -1.7943745  -0.68730535   0.13781894   -1.7943745    1.1070692   439061 
 1882000   0.73787729   -1.7939027   -1.7939027   -0.6870893   0.13914133   -1.7939027    1.1068134   439061 
 1883000   0.73827218    -1.793704    -1.793704  -0.68629823   0.13898281    -1.793704    1.1074058   439061 
 1884000   0.73764195   -1.7935313   -1.7935313   -0.6870709   0.14174582   -1.7935313    1.1064604   439061 
 1885000    0.7375988   -1.7933852   -1.7933852  -0.68698952    0.1429899   -1.7933852    1.1063957   439061 
 1886000   0.73731915   -1.7930622   -1.7930622  -0.68708598   0.13860235   -1.7930622    1.1059762   439061 
 1887000   0.73815074   -1.7948277   -1.7948277  -0.68760413   0.13739255   -1.7948277    1.1072236   439061 
 1888000   0.73793297   -1.7935451   -1.7935451  -0.68664821   0.13718222   -1.7935451    1.1068969   439061 
 1889000   0.73681505   -1.7924699   -1.7924699  -0.68724987   0.13611019   -1.7924699    1.1052201   439061 
 1890000   0.73722395   -1.7921927   -1.7921927  -0.68635932   0.13568388   -1.7921927    1.1058334   439061 
 1891000   0.73751307   -1.7935048   -1.7935048   -0.6872377    0.1354075   -1.7935048    1.1062671   439061 
 1892000   0.73665011   -1.7918426   -1.7918426  -0.68686997   0.14054587   -1.7918426    1.1049727   439061 
 1893000   0.73670079   -1.7922167   -1.7922167  -0.68716806    0.1420123   -1.7922167    1.1050487   439061 
 1894000   0.73705957   -1.7932087   -1.7932087  -0.68762182   0.13875933   -1.7932087    1.1055868   439061 
 1895000   0.73711623   -1.7927267   -1.7927267  -0.68705486   0.13552536   -1.7927267    1.1056718   439061 
 1896000   0.73729779   -1.7923762   -1.7923762  -0.68643206   0.13636919   -1.7923762    1.1059442   439061 
 1897000   0.73703941   -1.7915688   -1.7915688  -0.68601216   0.13806676   -1.7915688    1.1055566   439061 
 1898000   0.73749552   -1.7929394   -1.7929394  -0.68669865   0.13970359   -1.7929394    1.1062408   439061 
 1899000   0.73623071   -1.7916019   -1.7916019  -0.68725837    0.1367861   -1.7916019    1.1043435   439061 
 1900000   0.73662183   -1.7918489   -1.7918489  -0.68691866   0.13665034   -1.7918489    1.1049302   439061 
 1901000   0.73844754   -1.7939497   -1.7939497  -0.68628096   0.13743942   -1.7939497    1.1076688   439061 
 1902000   0.73665256   -1.7926149   -1.7926149  -0.68763857   0.13795575   -1.7926149    1.1049763   439061 
 1903000   0.73483786   -1.7903348   -1.7903348  -0.68808047   0.14003079   -1.7903348    1.1022543   439061 
 1904000    0.7361657   -1.7914124   -1.7914124  -0.68716635   0.13871336   -1.7914124     1.104246   439061 
 1905000   0.73748811   -1.7935251   -1.7935251  -0.68729542   0.13657048   -1.7935251    1.1062296   439061 
 1906000    0.7366615   -1.7919551   -1.7919551  -0.68696533   0.13704677   -1.7919551    1.1049897   439061 
 1907000   0.73737734   -1.7929182   -1.7929182  -0.68685469   0.13534821   -1.7929182    1.1060635   439061 
 1908000   0.73708915   -1.7935228   -1.7935228  -0.68789154   0.13775828   -1.7935228    1.1056312   439061 
 1909000   0.73733221   -1.7942948   -1.7942948  -0.68829896   0.14339636   -1.7942948    1.1059958   439061 
 1910000   0.73658287    -1.792867    -1.792867  -0.68799525   0.13524126    -1.792867    1.1048718   439061 
 1911000   0.73725257   -1.7938535   -1.7938535   -0.6879772   0.13915759   -1.7938535    1.1058763   439061 
 1912000   0.73672836   -1.7925531   -1.7925531  -0.68746305   0.13920045   -1.7925531      1.10509   439061 
 1913000   0.73754873   -1.7950784   -1.7950784  -0.68875786   0.13785284   -1.7950784    1.1063206   439061 
 1914000   0.73733359   -1.7953638   -1.7953638  -0.68936597   0.13400645   -1.7953638    1.1059979   439061 
 1915000   0.73633988   -1.7937126   -1.7937126  -0.68920525   0.13833216   -1.7937126    1.1045073   439061 
 1916000   0.73857767   -1.7961221   -1.7961221   -0.6882581   0.13573312   -1.7961221     1.107864   439061 
 1917000   0.73734158   -1.7952111   -1.7952111  -0.68920128   0.13702876   -1.7952111    1.1060099   439061 
 1918000   0.73701331   -1.7946026   -1.7946026  -0.68908519   0.13689241   -1.7946026    1.1055174   439061 
 1919000   0.73566094   -1.7922649   -1.7922649  -0.68877605   0.13822871   -1.7922649    1.1034889   439061 
 1920000   0.73601924   -1.7925008   -1.7925008  -0.68847447   0.13927413   -1.7925008    1.1040263   439061 
 1921000   0.73723799   -1.7935811   -1.7935811  -0.68772668   0.14185277   -1.7935811    1.1058545   439061 
 1922000   0.73713079   -1.7937586   -1.7937586  -0.68806495   0.13869884   -1.7937586    1.1056937   439061 
 1923000   0.73606937   -1.7930115   -1.7930115  -0.68891001   0.13754567   -1.7930115    1.1041015   439061 
 1924000   0.73749207   -1.7943972   -1.7943972  -0.68816161   0.13815649   -1.7943972    1.1062356   439061 
 1925000   0.73683202   -1.7950549   -1.7950549   -0.6898094   0.13447655   -1.7950549    1.1052455   439061 
 1926000   0.73498159   -1.7925655   -1.7925655  -0.69009565   0.13891722   -1.7925655    1.1024699   439061 
 1927000   0.73592015   -1.7940432   -1.7940432  -0.69016546   0.13629132   -1.7940432    1.1038777   439061 
 1928000   0.73592872   -1.7931666   -1.7931666  -0.68927604    0.1369848   -1.7931666    1.1038906   439061 
 1929000   0.73624113   -1.7937397   -1.7937397  -0.68938054   0.13579902   -1.7937397    1.1043592   439061 
 1930000   0.73604599   -1.7934959   -1.7934959  -0.68942946    0.1343805   -1.7934959    1.1040665   439061 
 1931000    0.7368118   -1.7947722   -1.7947722  -0.68955697   0.13588478   -1.7947722    1.1052152   439061 
 1932000   0.73578606   -1.7932987   -1.7932987  -0.68962208   0.13628636   -1.7932987    1.1036766   439061 
 1933000   0.73596772   -1.7931766   -1.7931766  -0.68922755   0.13873291   -1.7931766    1.1039491   439061 
 1934000    0.7359619   -1.7936765   -1.7936765  -0.68973615   0.13195482   -1.7936765    1.1039403   439061 
 1935000   0.73578933   -1.7927633   -1.7927633  -0.68908179   0.13804622   -1.7927633    1.1036815   439061 
 1936000   0.73699381    -1.794706    -1.794706  -0.68921776   0.13639806    -1.794706    1.1054882   439061 
 1937000   0.73559908   -1.7931481   -1.7931481  -0.68975198    0.1373738   -1.7931481    1.1033961   439061 
 1938000   0.73631261   -1.7940345   -1.7940345  -0.68956809    0.1359996   -1.7940345    1.1044664   439061 
 1939000   0.73635973    -1.793453    -1.793453   -0.6889159   0.13794132    -1.793453    1.1045371   439061 
 1940000   0.73543534    -1.792366    -1.792366  -0.68921552   0.13783277    -1.792366    1.1031505   439061 
 1941000   0.73649961   -1.7937663   -1.7937663  -0.68901935   0.13736907   -1.7937663    1.1047469   439061 
 1942000   0.73625274   -1.7927938   -1.7927938  -0.68841723   0.13849618   -1.7927938    1.1043766   439061 
 1943000   0.73531473   -1.7916483   -1.7916483  -0.68867867   0.13622687   -1.7916483    1.1029696   439061 
 1944000   0.73612063   -1.7926547   -1.7926547  -0.68847627   0.13447531   -1.7926547    1.1041784   439061 
 1945000   0.73618709   -1.7929069   -1.7929069  -0.68862879    0.1352215   -1.7929069    1.1042781   439061 
 1946000   0.73726369   -1.7941168   -1.7941168   -0.6882238   0.13798429   -1.7941168     1.105893   439061 
 1947000   0.73642021   -1.7932163   -1.7932163  -0.68858853   0.13754205   -1.7932163    1.1046278   439061 
 1948000   0.73634929   -1.7936225   -1.7936225  -0.68910104   0.13375969   -1.7936225    1.1045214   439061 
 1949000   0.73611028    -1.793376    -1.793376  -0.68921306   0.13460193    -1.793376    1.1041629   439061 
 1950000   0.73589784   -1.7922088   -1.7922088  -0.68836459   0.13803999   -1.7922088    1.1038442   439061 
 1951000    0.7363436   -1.7929554   -1.7929554  -0.68844255   0.13723739   -1.7929554    1.1045129   439061 
 1952000   0.73745469     -1.79461     -1.79461  -0.68843049   0.13318537     -1.79461    1.1061795   439061 
 1953000   0.73641671   -1.7928302   -1.7928302  -0.68820767   0.13530258   -1.7928302    1.1046225   439061 
 1954000   0.73558291   -1.7922271   -1.7922271  -0.68885521   0.13963147   -1.7922271    1.1033719   439061 
 1955000   0.73597818    -1.792691    -1.792691  -0.68872628    0.1329718    -1.792691    1.1039648   439061 
 1956000   0.73636595   -1.7923375   -1.7923375  -0.68779105   0.13550432   -1.7923375    1.1045464   439061 
 1957000   0.73607078    -1.792264    -1.792264  -0.68816037   0.13721681    -1.792264    1.1041037   439061 
 1958000   0.73709635   -1.7938188   -1.7938188  -0.68817681   0.13838336   -1.7938188     1.105642   439061 
 1959000   0.73584586   -1.7931971   -1.7931971  -0.68943081   0.13542646   -1.7931971    1.1037663   439061 
 1960000    0.7366656   -1.7935734   -1.7935734  -0.68857755   0.13289966   -1.7935734    1.1049959   439061 
 1961000   0.73585071    -1.792794    -1.792794  -0.68902046    0.1343362    -1.792794    1.1037736   439061 
 1962000   0.73503641   -1.7921548   -1.7921548  -0.68960268   0.13538259   -1.7921548    1.1025521   439061 
 1963000   0.73547086   -1.7935565   -1.7935565  -0.69035273   0.13319789   -1.7935565    1.1032038   439061 
 1964000   0.73531284   -1.7933837   -1.7933837  -0.69041695   0.13203916   -1.7933837    1.1029668   439061 
 1965000   0.73600221   -1.7939338   -1.7939338  -0.68993296   0.13294748   -1.7939338    1.1040008   439061 
 1966000   0.73588937   -1.7938265   -1.7938265  -0.68999498    0.1371301   -1.7938265    1.1038315   439061 
 1967000   0.73526984   -1.7934876   -1.7934876  -0.69058536   0.13587512   -1.7934876    1.1029023   439061 
 1968000   0.73670105   -1.7949426   -1.7949426  -0.68989353   0.13812165   -1.7949426    1.1050491   439061 
 1969000   0.73580491   -1.7936539   -1.7936539  -0.68994906   0.13196182   -1.7936539    1.1037048   439061 
 1970000   0.73434695   -1.7921423   -1.7921423  -0.69062442   0.13492466   -1.7921423    1.1015179   439061 
 1971000   0.73517641   -1.7925514   -1.7925514  -0.68978932   0.13818028   -1.7925514    1.1027621   439061 
 1972000   0.73696652   -1.7948793   -1.7948793  -0.68943204    0.1344848   -1.7948793    1.1054473   439061 
 1973000   0.73547873    -1.793488    -1.793488  -0.69027238   0.13640352    -1.793488    1.1032156   439061 
 1974000   0.73487342   -1.7928646   -1.7928646  -0.69055698   0.13542704   -1.7928646    1.1023076   439061 
 1975000   0.73552943   -1.7933784   -1.7933784   -0.6900868    0.1367639   -1.7933784    1.1032916   439061 
 1976000   0.73599768   -1.7930366   -1.7930366  -0.68904255   0.13606179   -1.7930366     1.103994   439061 
 1977000   0.73651944   -1.7931608   -1.7931608  -0.68838415    0.1370577   -1.7931608    1.1047766   439061 
 1978000   0.73585869   -1.7924551   -1.7924551  -0.68866957    0.1383436   -1.7924551    1.1037855   439061 
 1979000   0.73576942   -1.7936763   -1.7936763   -0.6900247   0.13506698   -1.7936763    1.1036516   439061 
 1980000   0.73557774   -1.7936547   -1.7936547  -0.69029061   0.13585047   -1.7936547    1.1033641   439061 
 1981000   0.73597524   -1.7941023   -1.7941023  -0.69014192   0.13181972   -1.7941023    1.1039603   439061 
 1982000   0.73612632   -1.7933823   -1.7933823   -0.6891953   0.13766884   -1.7933823     1.104187   439061 
 1983000   0.73513413   -1.7927482   -1.7927482  -0.69004953   0.13443598   -1.7927482    1.1026987   439061 
 1984000    0.7351265   -1.7926928   -1.7926928  -0.69000556   0.13625539   -1.7926928    1.1026872   439061 
 1985000   0.73553262   -1.7928624   -1.7928624    -0.689566   0.14144809   -1.7928624    1.1032964   439061 
 1986000   0.73530425   -1.7921804   -1.7921804  -0.68922653   0.13882521   -1.7921804    1.1029539   439061 
 1987000   0.73579703   -1.7929277   -1.7929277   -0.6892347   0.13611994   -1.7929277     1.103693   439061 
 1988000   0.73631067   -1.7933867   -1.7933867  -0.68892317   0.14048986   -1.7933867    1.1044635   439061 
 1989000   0.73537649   -1.7916231   -1.7916231  -0.68856093   0.13622733   -1.7916231    1.1030622   439061 
 1990000   0.73545781   -1.7918393   -1.7918393   -0.6886551   0.13696508   -1.7918393    1.1031842   439061 
 1991000   0.73667163   -1.7936856   -1.7936856  -0.68868068    0.1396393   -1.7936856    1.1050049   439061 
 1992000   0.73559211   -1.7918581   -1.7918581  -0.68847242   0.13471386   -1.7918581    1.1033856   439061 
 1993000   0.73655174   -1.7928779   -1.7928779  -0.68805283   0.13486534   -1.7928779    1.1048251   439061 
 1994000   0.73671206   -1.7927688   -1.7927688  -0.68770318   0.13520014   -1.7927688    1.1050656   439061 
 1995000   0.73622982   -1.7918625   -1.7918625  -0.68752027   0.13668495   -1.7918625    1.1043422   439061 
 1996000   0.73504867   -1.7906751   -1.7906751  -0.68810456   0.13594069   -1.7906751    1.1025705   439061 
 1997000    0.7366281   -1.7932664   -1.7932664  -0.68832678   0.13491415   -1.7932664    1.1049396   439061 
 1998000   0.73529457   -1.7903331   -1.7903331  -0.68739372   0.13485285   -1.7903331    1.1029393   439061 
 1999000   0.73590285   -1.7920642   -1.7920642  -0.68821241   0.13917417   -1.7920642    1.1038518   439061 
 2000000   0.73585017   -1.7925848   -1.7925848  -0.68881209   0.13632008   -1.7925848    1.1037727   439061 
 2001000   0.73511348   -1.7921124   -1.7921124  -0.68944466   0.13449114   -1.7921124    1.1026677   439061 
 2002000   0.73461072    -1.790875    -1.790875  -0.68896145    0.1327137    -1.790875    1.1019136   439061 
 2003000   0.73467831   -1.7909289   -1.7909289  -0.68891393   0.13294504   -1.7909289     1.102015   439061 
 2004000   0.73552626   -1.7915765   -1.7915765  -0.68828965   0.12836391   -1.7915765    1.1032869   439061 
 2005000    0.7350119   -1.7917007   -1.7917007  -0.68918535   0.13748765   -1.7917007    1.1025153   439061 
 2006000   0.73566571     -1.79339     -1.79339  -0.68989396   0.13228263     -1.79339    1.1034961   439061 
 2007000   0.73483026   -1.7908865   -1.7908865  -0.68864362   0.13503796   -1.7908865    1.1022429   439061 
 2008000   0.73492889   -1.7911834   -1.7911834  -0.68879261   0.13711406   -1.7911834    1.1023908   439061 
 2009000   0.73495058   -1.7924065   -1.7924065  -0.68998313   0.13386652   -1.7924065    1.1024234   439061 
 2010000   0.73374534   -1.7908423   -1.7908423  -0.69022681    0.1328372   -1.7908423    1.1006155   439061 
 2011000    0.7355489   -1.7922138   -1.7922138  -0.68889297   0.13354999   -1.7922138    1.1033208   439061 
 2012000   0.73473539   -1.7916486   -1.7916486  -0.68954799   0.13380494   -1.7916486    1.1021006   439061 
 2013000   0.73512814   -1.7913953   -1.7913953  -0.68870558   0.13642071   -1.7913953    1.1026897   439061 
 2014000   0.73496017   -1.7914053   -1.7914053  -0.68896753   0.13498512   -1.7914053    1.1024377   439061 
 2015000   0.73508221   -1.7914536   -1.7914536  -0.68883275   0.13578734   -1.7914536    1.1026208   439061 
 2016000   0.73610809   -1.7926854   -1.7926854  -0.68852583   0.13430307   -1.7926854    1.1041596   439061 
 2017000   0.73583604   -1.7929155   -1.7929155  -0.68916391   0.13323174   -1.7929155    1.1037516   439061 
 2018000   0.73498937   -1.7905242   -1.7905242  -0.68804261   0.13877456   -1.7905242    1.1024815   439061 
 2019000   0.73493649   -1.7909802   -1.7909802  -0.68857798   0.13460364   -1.7909802    1.1024022   439061 
 2020000   0.73624349   -1.7927549   -1.7927549  -0.68839219   0.13436652   -1.7927549    1.1043627   439061 
 2021000   0.73529896   -1.7928767   -1.7928767   -0.6899308   0.13714895   -1.7928767    1.1029459   439061 
 2022000     0.734878   -1.7933714   -1.7933714  -0.69105688   0.13752214   -1.7933714    1.1023145   439061 
 2023000   0.73433299   -1.7921106   -1.7921106  -0.69061357     0.139055   -1.7921106     1.101497   439061 
 2024000   0.73380027   -1.7911843   -1.7911843  -0.69048645   0.13908295   -1.7911843    1.1006979   439061 
 2025000   0.73487298   -1.7931419   -1.7931419   -0.6908349   0.13233547   -1.7931419     1.102307   439061 
 2026000   0.73538346   -1.7932828   -1.7932828   -0.6902101   0.13585499   -1.7932828    1.1030727   439061 
 2027000   0.73450725   -1.7926216   -1.7926216  -0.69086327   0.13662975   -1.7926216    1.1017584   439061 
 2028000   0.73440181   -1.7921355   -1.7921355  -0.69053529   0.13759331   -1.7921355    1.1016002   439061 
 2029000   0.73474578   -1.7929588   -1.7929588  -0.69084268   0.13402357   -1.7929588    1.1021162   439061 
 2030000   0.73613244   -1.7950135   -1.7950135  -0.69081736   0.13464088   -1.7950135    1.1041961   439061 
 2031000   0.73465733   -1.7929022   -1.7929022  -0.69091867    0.1361324   -1.7929022    1.1019835   439061 
 2032000   0.73433086   -1.7932855   -1.7932855  -0.69179172   0.13921075   -1.7932855    1.1014938   439061 
 2033000    0.7354707   -1.7942117   -1.7942117   -0.6910082   0.13594677   -1.7942117    1.1032035   439061 
 2034000   0.73473632   -1.7934768   -1.7934768  -0.69137479   0.13400383   -1.7934768     1.102102   439061 
 2035000   0.73571585   -1.7946679   -1.7946679  -0.69109667    0.1355788   -1.7946679    1.1035713   439061 
 2036000   0.73446867   -1.7934162   -1.7934162  -0.69171576   0.13696071   -1.7934162    1.1017005   439061 
 2037000   0.73369313   -1.7920315   -1.7920315  -0.69149429   0.13723889   -1.7920315    1.1005372   439061 
 2038000   0.73535583   -1.7939879   -1.7939879  -0.69095668   0.13537542   -1.7939879    1.1030312   439061 
 2039000   0.73454403   -1.7923691   -1.7923691  -0.69055561   0.13807301   -1.7923691    1.1018135   439061 
 2040000   0.73443157   -1.7921504   -1.7921504  -0.69050552   0.13752464   -1.7921504    1.1016448   439061 
 2041000   0.73529126   -1.7922669   -1.7922669  -0.68933249   0.13483705   -1.7922669    1.1029344   439061 
 2042000   0.73511345   -1.7924921   -1.7924921  -0.68982448   0.13738608   -1.7924921    1.1026677   439061 
 2043000   0.73469671   -1.7929788   -1.7929788  -0.69093626   0.13369436   -1.7929788    1.1020426   439061 
 2044000   0.73507085    -1.792852    -1.792852  -0.69024824    0.1349141    -1.792852    1.1026038   439061 
 2045000   0.73469902   -1.7920971   -1.7920971  -0.69005111   0.13591157   -1.7920971     1.102046   439061 
 2046000   0.73405861   -1.7908997   -1.7908997  -0.68981426     0.136277   -1.7908997    1.1010854   439061 
 2047000   0.73495602   -1.7927119   -1.7927119  -0.69028034   0.13751144   -1.7927119    1.1024315   439061 
 2048000   0.73467734   -1.7915869   -1.7915869  -0.68957337   0.13642228   -1.7915869    1.1020135   439061 
 2049000    0.7352125   -1.7925596   -1.7925596  -0.68974337   0.13720766   -1.7925596    1.1028162   439061 
 2050000   0.73524285   -1.7915262   -1.7915262  -0.68866443   0.13329684   -1.7915262    1.1028618   439061 
 2051000   0.73493837   -1.7916699   -1.7916699  -0.68926487    0.1345166   -1.7916699     1.102405   439061 
 2052000   0.73438246   -1.7905171   -1.7905171  -0.68894592   0.13216287   -1.7905171    1.1015712   439061 
 2053000   0.73525899   -1.7920187   -1.7920187  -0.68913277   0.13607709   -1.7920187     1.102886   439061 
 2054000   0.73510467   -1.7913346   -1.7913346  -0.68868014   0.13593066   -1.7913346    1.1026545   439061 
 2055000   0.73451688   -1.7905276   -1.7905276  -0.68875476   0.13672717   -1.7905276    1.1017728   439061 
 2056000    0.7343219   -1.7898085   -1.7898085  -0.68832812   0.13511104   -1.7898085    1.1014803   439061 
 2057000   0.73509948   -1.7920679   -1.7920679  -0.68942117   0.13312323   -1.7920679    1.1026467   439061 
 2058000   0.73407765   -1.7898991   -1.7898991  -0.68878511   0.13483024   -1.7898991     1.101114   439061 
 2059000   0.73375604   -1.7893275   -1.7893275  -0.68869599   0.13326418   -1.7893275    1.1006316   439061 
 2060000    0.7348335   -1.7906582   -1.7906582  -0.68841045   0.13308821   -1.7906582    1.1022477   439061 
 2061000   0.73514697   -1.7915073   -1.7915073  -0.68878935   0.13411494   -1.7915073     1.102718   439061 
 2062000   0.73489828   -1.7917119   -1.7917119  -0.68936697   0.13622159   -1.7917119    1.1023449   439061 
 2063000    0.7343365   -1.7910862   -1.7910862  -0.68958393   0.13101546   -1.7910862    1.1015022   439061 
 2064000   0.73422203   -1.7899607   -1.7899607  -0.68863017   0.13432719   -1.7899607    1.1013305   439061 
 2065000   0.73452031   -1.7905031   -1.7905031  -0.68872511   0.13774023   -1.7905031     1.101778   439061 
 2066000    0.7340136   -1.7905592   -1.7905592  -0.68954128   0.13273427   -1.7905592    1.1010179   439061 
 2067000   0.73449352    -1.791229    -1.791229  -0.68949125   0.13490963    -1.791229    1.1017378   439061 
 2068000   0.73454573   -1.7900612   -1.7900612  -0.68824515   0.13618483   -1.7900612    1.1018161   439061 
 2069000   0.73421969    -1.790347    -1.790347     -0.68902   0.13686843    -1.790347     1.101327   439061 
 2070000   0.73491859   -1.7913538   -1.7913538  -0.68897844   0.13486654   -1.7913538    1.1023754   439061 
 2071000    0.7361872   -1.7929849   -1.7929849  -0.68870659   0.13564564   -1.7929849    1.1042783   439061 
 2072000   0.73372635   -1.7896342   -1.7896342  -0.68904719   0.13179596   -1.7896342     1.100587   439061 
 2073000   0.73475138    -1.791591    -1.791591  -0.68946641   0.13384953    -1.791591    1.1021246   439061 
 2074000   0.73530394   -1.7920502   -1.7920502  -0.68909676   0.13320337   -1.7920502    1.1029534   439061 
 2075000   0.73465276    -1.791056    -1.791056  -0.68907938   0.13796281    -1.791056    1.1019766   439061 
 2076000   0.73461886   -1.7915187   -1.7915187  -0.68959295   0.13190716   -1.7915187    1.1019258   439061 
 2077000   0.73466384   -1.7916711   -1.7916711  -0.68967787   0.13458445   -1.7916711    1.1019933   439061 
 2078000   0.73469277   -1.7922292   -1.7922292  -0.69019252   0.13370935   -1.7922292    1.1020367   439061 
 2079000   0.73357343   -1.7914162   -1.7914162  -0.69105853     0.135968   -1.7914162    1.1003576   439061 
 2080000   0.73274595   -1.7895828   -1.7895828  -0.69046638   0.13615932   -1.7895828    1.0991164   439061 
 2081000   0.73400592   -1.7909903   -1.7909903  -0.68998397   0.13685287   -1.7909903    1.1010064   439061 
 2082000   0.73547654   -1.7927645   -1.7927645  -0.68955216    0.1334937   -1.7927645    1.1032123   439061 
 2083000   0.73442551   -1.7914665   -1.7914665  -0.68983074   0.13714043   -1.7914665    1.1016358   439061 
 2084000   0.73374204   -1.7910495   -1.7910495  -0.69043894   0.13448713   -1.7910495    1.1006105   439061 
 2085000   0.73373685   -1.7905851   -1.7905851  -0.68998234   0.13667623   -1.7905851    1.1006028   439061 
 2086000   0.73377116   -1.7913063   -1.7913063  -0.69065204   0.13124696   -1.7913063    1.1006542   439061 
 2087000   0.73248866   -1.7904472   -1.7904472  -0.69171674   0.13163185   -1.7904472    1.0987305   439061 
 2088000    0.7329406   -1.7906941   -1.7906941  -0.69128569   0.13261176   -1.7906941    1.0994084   439061 
 2089000   0.73348354    -1.791693    -1.791693  -0.69147024   0.13036624    -1.791693    1.1002228   439061 
 2090000   0.73264637   -1.7906654   -1.7906654  -0.69169837   0.13064563   -1.7906654    1.0989671   439061 
 2091000   0.73315485   -1.7913733   -1.7913733  -0.69164355   0.13567511   -1.7913733    1.0997298   439061 
 2092000   0.73418859   -1.7929961   -1.7929961  -0.69171575    0.1318423   -1.7929961    1.1012804   439061 
 2093000   0.73256859   -1.7915397   -1.7915397  -0.69268934   0.13404404   -1.7915397    1.0988504   439061 
 2094000   0.73208049   -1.7913667   -1.7913667  -0.69324849   0.13066429   -1.7913667    1.0981182   439061 
 2095000   0.73242583   -1.7921201   -1.7921201  -0.69348381   0.13146081   -1.7921201    1.0986362   439061 
 2096000   0.73294972   -1.7925982   -1.7925982  -0.69317617   0.13201702   -1.7925982    1.0994221   439061 
 2097000   0.73295481   -1.7935387   -1.7935387    -0.694109    0.1288571   -1.7935387    1.0994297   439061 
 2098000   0.73356463   -1.7934495   -1.7934495  -0.69310507    0.1335837   -1.7934495    1.1003444   439061 
 2099000   0.73305654    -1.792616    -1.792616  -0.69303375   0.13044134    -1.792616    1.0995823   439061 
 2100000   0.73316791   -1.7921274   -1.7921274  -0.69237808   0.13447144   -1.7921274    1.0997494   439061 
 2101000   0.73371282   -1.7942206   -1.7942206  -0.69365387   0.13489133   -1.7942206    1.1005667   439061 
 2102000   0.73302678   -1.7925379   -1.7925379  -0.69300026   0.13430963   -1.7925379    1.0995377   439061 
 2103000   0.73298926   -1.7920183   -1.7920183   -0.6925369   0.13086489   -1.7920183    1.0994814   439061 
 2104000    0.7335959   -1.7929054   -1.7929054  -0.69251403   0.13191616   -1.7929054    1.1003913   439061 
 2105000   0.73371895   -1.7931109   -1.7931109  -0.69253495   0.13155853   -1.7931109    1.1005759   439061 
 2106000   0.73410522   -1.7927693   -1.7927693  -0.69161403   0.13130421   -1.7927693    1.1011553   439061 
 2107000   0.73344151   -1.7918813   -1.7918813  -0.69172156   0.13326789   -1.7918813    1.1001598   439061 
 2108000   0.73229868   -1.7916884   -1.7916884  -0.69324286   0.13751025   -1.7916884    1.0984455   439061 
 2109000   0.73223099   -1.7914384   -1.7914384  -0.69309444   0.13293762   -1.7914384     1.098344   439061 
 2110000   0.73346335   -1.7932517   -1.7932517  -0.69305915   0.13518937   -1.7932517    1.1001925   439061 
 2111000   0.73271263   -1.7918436   -1.7918436  -0.69277713   0.13088405   -1.7918436    1.0990664   439061 
 2112000   0.73208696     -1.79133     -1.79133  -0.69320203   0.13226466     -1.79133    1.0981279   439061 
 2113000   0.73364248   -1.7933119   -1.7933119   -0.6928507   0.13411193   -1.7933119    1.1004612   439061 
 2114000   0.73300324   -1.7921711   -1.7921711  -0.69266875   0.13327361   -1.7921711    1.0995024   439061 
 2115000   0.73286532   -1.7915494   -1.7915494  -0.69225395   0.13114683   -1.7915494    1.0992955   439061 
 2116000   0.73369404   -1.7933494   -1.7933494  -0.69281084   0.13354303   -1.7933494    1.1005386   439061 
 2117000   0.73389684   -1.7936594   -1.7936594  -0.69281663   0.13320635   -1.7936594    1.1008428   439061 
 2118000   0.73349396   -1.7930565   -1.7930565  -0.69281809   0.13225443   -1.7930565    1.1002384   439061 
 2119000   0.73328762   -1.7923955   -1.7923955  -0.69246655   0.13204763   -1.7923955    1.0999289   439061 
 2120000    0.7338154   -1.7927141   -1.7927141  -0.69199351    0.1334373   -1.7927141    1.1007206   439061 
 2121000   0.73357568   -1.7928192   -1.7928192  -0.69245824   0.13247737   -1.7928192     1.100361   439061 
 2122000   0.73260069   -1.7926722   -1.7926722  -0.69377361   0.12970838   -1.7926722    1.0988985   439061 
 2123000   0.73200585   -1.7914721   -1.7914721  -0.69346587   0.13448252   -1.7914721    1.0980063   439061 
 2124000   0.73198797   -1.7918658   -1.7918658  -0.69388636   0.13022696   -1.7918658    1.0979795   439061 
 2125000   0.73231001    -1.791804    -1.791804  -0.69334149   0.13520443    -1.791804    1.0984625   439061 
 2126000   0.73342879   -1.7933832   -1.7933832  -0.69324253   0.13260593   -1.7933832    1.1001407   439061 
 2127000   0.73214689    -1.792422    -1.792422  -0.69420421   0.13055508    -1.792422    1.0982178   439061 
 2128000   0.73282612    -1.793044    -1.793044  -0.69380734   0.13316385    -1.793044    1.0992367   439061 
 2129000   0.73269282   -1.7927797   -1.7927797  -0.69374299    0.1355222   -1.7927797    1.0990367   439061 
 2130000   0.73187664   -1.7925245   -1.7925245  -0.69471199   0.13017893   -1.7925245    1.0978125   439061 
 2131000   0.73168328   -1.7921295   -1.7921295   -0.6946071   0.13539861   -1.7921295    1.0975224   439061 
 2132000   0.73266475   -1.7924389   -1.7924389  -0.69344424   0.13062445   -1.7924389    1.0989946   439061 
 2133000   0.73161147   -1.7908397   -1.7908397  -0.69342503   0.13499647   -1.7908397    1.0974147   439061 
 2134000    0.7320349   -1.7916261   -1.7916261  -0.69357628   0.13091473   -1.7916261    1.0980498   439061 
 2135000    0.7322451   -1.7924809   -1.7924809  -0.69411578   0.13382855   -1.7924809    1.0983652   439061 
 2136000   0.73185315   -1.7909223   -1.7909223  -0.69314508   0.13374265   -1.7909223    1.0977772   439061 
 2137000   0.73175341   -1.7912443   -1.7912443  -0.69361673   0.12595361   -1.7912443    1.0976276   439061 
 2138000   0.73292046   -1.7926273   -1.7926273  -0.69324913    0.1335481   -1.7926273    1.0993782   439061 
 2139000   0.73333029   -1.7933582   -1.7933582  -0.69336524   0.13014431   -1.7933582    1.0999929   439061 
 2140000   0.73217526   -1.7919189   -1.7919189  -0.69365848   0.13102603   -1.7919189    1.0982604   439061 
 2141000   0.73278878   -1.7919959   -1.7919959  -0.69281519     0.131951   -1.7919959    1.0991807   439061 
 2142000   0.73318881   -1.7925074   -1.7925074  -0.69272673   0.13101795   -1.7925074    1.0997807   439061 
 2143000   0.73376827   -1.7936405   -1.7936405  -0.69299063   0.13217785   -1.7936405    1.1006499   439061 
 2144000   0.73289174   -1.7916658   -1.7916658  -0.69233068   0.13413775   -1.7916658    1.0993351   439061 
 2145000   0.73356603   -1.7942955   -1.7942955  -0.69394894   0.13251083   -1.7942955    1.1003465   439061 
 2146000    0.7330623    -1.793744    -1.793744  -0.69415309     0.131917    -1.793744    1.0995909   439061 
 2147000   0.73240841   -1.7923841   -1.7923841  -0.69377399   0.13250211   -1.7923841    1.0986101   439061 
 2148000   0.73257542    -1.793632    -1.793632   -0.6947714   0.13169298    -1.793632    1.0988606   439061 
 2149000   0.73175835   -1.7925201   -1.7925201  -0.69488505   0.12880589   -1.7925201     1.097635   439061 
 2150000   0.73192549    -1.792479    -1.792479  -0.69459324   0.13364271    -1.792479    1.0978857   439061 
 2151000   0.73284595    -1.793957    -1.793957  -0.69469062    0.1328883    -1.793957    1.0992664   439061 
 2152000   0.73153382   -1.7925538   -1.7925538  -0.69525552   0.13082578   -1.7925538    1.0972982   439061 
 2153000    0.7323752   -1.7928237   -1.7928237  -0.69426344   0.13027619   -1.7928237    1.0985603   439061 
 2154000   0.73211259   -1.7932747   -1.7932747  -0.69510828   0.13191742   -1.7932747    1.0981664   439061 
 2155000   0.73150348    -1.792185    -1.792185  -0.69493231   0.13176211    -1.792185    1.0972527   439061 
 2156000   0.73201272   -1.7927317   -1.7927317  -0.69471516    0.1321687   -1.7927317    1.0980166   439061 
 2157000   0.73182399   -1.7924612   -1.7924612   -0.6947277   0.13040239   -1.7924612    1.0977335   439061 
 2158000   0.73123229   -1.7921526   -1.7921526  -0.69530663   0.13375927   -1.7921526    1.0968459   439061 
 2159000   0.73291751   -1.7937509   -1.7937509  -0.69437713   0.13443959   -1.7937509    1.0993738   439061 
 2160000   0.73276049   -1.7934441   -1.7934441  -0.69430583   0.13441037   -1.7934441    1.0991382   439061 
 2161000   0.73182824   -1.7913496   -1.7913496  -0.69360974   0.13412862   -1.7913496    1.0977399   439061 
 2162000   0.73210634   -1.7928022   -1.7928022  -0.69464523   0.13562325   -1.7928022     1.098157   439061 
 2163000   0.73214525   -1.7921543   -1.7921543  -0.69393891    0.1279938   -1.7921543    1.0982154   439061 
 2164000   0.73171928   -1.7925264   -1.7925264     -0.69495   0.13091042   -1.7925264    1.0975764   439061 
 2165000   0.73251213   -1.7937928   -1.7937928  -0.69502711   0.13438511   -1.7937928    1.0987657   439061 
 2166000   0.73201174    -1.793991    -1.793991   -0.6959759   0.13175375    -1.793991    1.0980151   439061 
 2167000   0.73114214   -1.7919511   -1.7919511  -0.69524043   0.13378893   -1.7919511    1.0967107   439061 
 2168000    0.7327859   -1.7942409   -1.7942409  -0.69506452   0.13118481   -1.7942409    1.0991764   439061 
 2169000   0.73240287   -1.7928941   -1.7928941  -0.69429228   0.12975786   -1.7928941    1.0986018   439061 
 2170000   0.73236936    -1.793537    -1.793537  -0.69498548   0.12989126    -1.793537    1.0985515   439061 
 2171000   0.73089022   -1.7918748   -1.7918748  -0.69554194   0.13124064   -1.7918748    1.0963328   439061 
 2172000   0.73126897   -1.7933993   -1.7933993  -0.69649833    0.1327473   -1.7933993     1.096901   439061 
 2173000   0.73153936   -1.7934028   -1.7934028  -0.69609629   0.13110307   -1.7934028    1.0973065   439061 
 2174000    0.7316876   -1.7936612   -1.7936612  -0.69613234   0.13187527   -1.7936612    1.0975289   439061 
 2175000   0.73102596   -1.7928207   -1.7928207  -0.69628426   0.13368063   -1.7928207    1.0965364   439061 
 2176000   0.73143042   -1.7918737   -1.7918737  -0.69473055   0.13231298   -1.7918737    1.0971431   439061 
 2177000   0.73059931   -1.7912325   -1.7912325  -0.69533607    0.1368557   -1.7912325    1.0958965   439061 
 2178000   0.73163928   -1.7936261   -1.7936261  -0.69616972   0.13215922   -1.7936261    1.0974564   439061 
 2179000    0.7307126   -1.7924023   -1.7924023  -0.69633591   0.12778017   -1.7924023    1.0960664   439061 
 2180000   0.73182282   -1.7932688   -1.7932688  -0.69553704   0.12821132   -1.7932688    1.0977317   439061 
 2181000   0.73099882   -1.7923581   -1.7923581  -0.69586234    0.1295135   -1.7923581    1.0964957   439061 
 2182000   0.73194584   -1.7939475   -1.7939475  -0.69603126   0.13022824   -1.7939475    1.0979163   439061 
 2183000   0.73127555   -1.7939456   -1.7939456  -0.69703479   0.13314313   -1.7939456    1.0969108   439061 
 2184000   0.73206947   -1.7951985   -1.7951985  -0.69709676   0.13049404   -1.7951985    1.0981017   439061 
 2185000   0.73217197   -1.7944225   -1.7944225  -0.69616709   0.13276935   -1.7944225    1.0982555   439061 
 2186000   0.73130856    -1.793101    -1.793101  -0.69614068   0.13003604    -1.793101    1.0969603   439061 
 2187000   0.73162036   -1.7932639   -1.7932639  -0.69583589   0.13564375   -1.7932639     1.097428   439061 
 2188000   0.73164789   -1.7944029   -1.7944029  -0.69693359   0.13383105   -1.7944029    1.0974693   439061 
 2189000   0.73207044   -1.7952661   -1.7952661  -0.69716296   0.12983608   -1.7952661    1.0981032   439061 
 2190000   0.73147506    -1.793817    -1.793817  -0.69660686   0.12891349    -1.793817    1.0972101   439061 
 2191000   0.73317864   -1.7966215   -1.7966215  -0.69685601   0.13021969   -1.7966215    1.0997654   439061 
 2192000   0.73223284    -1.794759    -1.794759  -0.69641222   0.13039217    -1.794759    1.0983468   439061 
 2193000   0.73112123   -1.7935608   -1.7935608  -0.69688146   0.13272649   -1.7935608    1.0966793   439061 
 2194000   0.73287935   -1.7953378   -1.7953378  -0.69602125   0.12974936   -1.7953378    1.0993165   439061 
 2195000   0.73158736   -1.7942147   -1.7942147  -0.69683618   0.12949224   -1.7942147    1.0973785   439061 
 2196000   0.73052072   -1.7924745   -1.7924745  -0.69669595   0.13211563   -1.7924745    1.0957786   439061 
 2197000   0.73079065    -1.793262    -1.793262  -0.69707855   0.13324097    -1.793262    1.0961835   439061 
 2198000   0.73036857    -1.792793    -1.792793  -0.69724266   0.13315518    -1.792793    1.0955504   439061 
 2199000    0.7315516   -1.7944703   -1.7944703  -0.69714535   0.13252718   -1.7944703    1.0973249   439061 
 2200000   0.73157747    -1.794646    -1.794646  -0.69728226   0.12998383    -1.794646    1.0973637   439061 
 2201000   0.73111166   -1.7943723   -1.7943723  -0.69770729   0.12959055   -1.7943723     1.096665   439061 
 2202000    0.7311135    -1.794205    -1.794205  -0.69753725   0.13168116    -1.794205    1.0966677   439061 
 2203000   0.73009441   -1.7927048   -1.7927048  -0.69756567   0.13424466   -1.7927048    1.0951391   439061 
 2204000   0.73149914   -1.7943929   -1.7943929   -0.6971467   0.13179712   -1.7943929    1.0972462   439061 
 2205000   0.73171482   -1.7944468   -1.7944468  -0.69687705     0.128165   -1.7944468    1.0975697   439061 
 2206000   0.73232964    -1.794721    -1.794721  -0.69622906   0.13374366    -1.794721     1.098492   439061 
 2207000   0.73032755   -1.7920182   -1.7920182  -0.69652938   0.12902939   -1.7920182    1.0954888   439061 
 2208000   0.73111816   -1.7930315   -1.7930315  -0.69635681   0.12853871   -1.7930315    1.0966747   439061 
 2209000   0.73137382   -1.7935627   -1.7935627  -0.69650451   0.13092561   -1.7935627    1.0970582   439061 
 2210000   0.73134453   -1.7926584   -1.7926584  -0.69564413   0.12913609   -1.7926584    1.0970143   439061 
 2211000    0.7308903   -1.7935938   -1.7935938  -0.69726082   0.13143129   -1.7935938    1.0963329   439061 
 2212000   0.73066952   -1.7927669   -1.7927669  -0.69676511   0.12930587   -1.7927669    1.0960018   439061 
 2213000   0.73089454   -1.7935654   -1.7935654  -0.69722603   0.12962767   -1.7935654    1.0963393   439061 
 2214000   0.73182122   -1.7941599   -1.7941599  -0.69643058   0.13094467   -1.7941599    1.0977293   439061 
 2215000    0.7305082   -1.7928545   -1.7928545  -0.69709468   0.13188892   -1.7928545    1.0957598   439061 
 2216000   0.73108009    -1.793069    -1.793069  -0.69645136   0.13456338    -1.793069    1.0966176   439061 
 2217000   0.73082384   -1.7924196   -1.7924196  -0.69618631    0.1300978   -1.7924196    1.0962333   439061 
 2218000   0.73057952   -1.7932336   -1.7932336   -0.6973668   0.12706548   -1.7932336    1.0958668   439061 
 2219000   0.73122178   -1.7940806   -1.7940806  -0.69725044   0.12931751   -1.7940806    1.0968302   439061 
 2220000   0.73040132   -1.7918434   -1.7918434  -0.69624392   0.13442505   -1.7918434    1.0955995   439061 
 2221000   0.73065997    -1.792327    -1.792327  -0.69633951   0.12968063    -1.792327    1.0959875   439061 
 2222000    0.7308604   -1.7924083   -1.7924083  -0.69612024   0.13322213   -1.7924083    1.0962881   439061 
 2223000   0.73253254   -1.7940533   -1.7940533  -0.69525699   0.13570452   -1.7940533    1.0987963   439061 
 2224000   0.73128845   -1.7936865   -1.7936865  -0.69675627   0.12513989   -1.7936865    1.0969302   439061 
 2225000   0.73088983   -1.7931754   -1.7931754  -0.69684312   0.13312482   -1.7931754    1.0963322   439061 
 2226000   0.73084058   -1.7924938   -1.7924938  -0.69623539   0.13238976   -1.7924938    1.0962584   439061 
 2227000   0.73091118   -1.7927255   -1.7927255  -0.69636125     0.127533   -1.7927255    1.0963643   439061 
 2228000   0.73162863   -1.7945919   -1.7945919  -0.69715149   0.13064105   -1.7945919    1.0974404   439061 
 2229000   0.73154949   -1.7934891   -1.7934891  -0.69616734    0.1304483   -1.7934891    1.0973217   439061 
 2230000   0.73152756   -1.7945623   -1.7945623  -0.69727344   0.13093975   -1.7945623    1.0972888   439061 
 2231000   0.73070448   -1.7932401   -1.7932401  -0.69718588   0.13153447   -1.7932401    1.0960542   439061 
 2232000   0.73102563   -1.7936012   -1.7936012  -0.69706523   0.12820434   -1.7936012    1.0965359   439061 
 2233000   0.73157788   -1.7944946   -1.7944946  -0.69713027   0.12826628   -1.7944946    1.0973643   439061 
 2234000   0.73017478   -1.7937971   -1.7937971  -0.69853743   0.12827956   -1.7937971    1.0952597   439061 
 2235000    0.7304369   -1.7941856   -1.7941856  -0.69853271   0.12742087   -1.7941856    1.0956529   439061 
 2236000     0.729384   -1.7925341   -1.7925341  -0.69846062   0.12755888   -1.7925341    1.0940735   439061 
 2237000   0.73019462   -1.7938614   -1.7938614  -0.69857199   0.12807112   -1.7938614    1.0952894   439061 
 2238000   0.73089968   -1.7942787   -1.7942787  -0.69793168   0.12999543   -1.7942787     1.096347   439061 
 2239000   0.73126282   -1.7944605   -1.7944605  -0.69756877   0.13208435   -1.7944605    1.0968917   439061 
 2240000   0.73035369   -1.7930095   -1.7930095   -0.6974815   0.13078769   -1.7930095     1.095528   439061 
 2241000   0.73027972    -1.792883    -1.792883  -0.69746595   0.12768959    -1.792883    1.0954171   439061 
 2242000   0.73033488   -1.7932392   -1.7932392  -0.69773934   0.12853462   -1.7932392    1.0954998   439061 
 2243000   0.73018636   -1.7929444   -1.7929444  -0.69766733   0.12760524   -1.7929444     1.095277   439061 
 2244000   0.73132214   -1.7951005   -1.7951005  -0.69811975   0.12936934   -1.7951005    1.0969807   439061 
 2245000   0.73056131   -1.7943225   -1.7943225  -0.69848306   0.12880562   -1.7943225    1.0958395   439061 
 2246000   0.73096991   -1.7948144   -1.7948144  -0.69836201   0.12790421   -1.7948144    1.0964524   439061 
 2247000   0.72997158    -1.793532    -1.793532  -0.69857715    0.1282203    -1.793532    1.0949549   439061 
 2248000     0.731018   -1.7946107   -1.7946107  -0.69808623   0.12885996   -1.7946107    1.0965245   439061 
 2249000   0.73133265   -1.7950685   -1.7950685  -0.69807199   0.13293125   -1.7950685    1.0969965   439061 
 2250000   0.73013119   -1.7933614   -1.7933614  -0.69816707    0.1323547   -1.7933614    1.0951943   439061 
 2251000    0.7301996   -1.7945514   -1.7945514  -0.69925448   0.12829842   -1.7945514    1.0952969   439061 
 2252000   0.73134145   -1.7958089   -1.7958089  -0.69879926   0.13243542   -1.7958089    1.0970097   439061 
 2253000   0.73066868   -1.7954412   -1.7954412  -0.69944068     0.129482   -1.7954412    1.0960005   439061 
 2254000   0.73048984    -1.795044    -1.795044  -0.69931172   0.13196729    -1.795044    1.0957323   439061 
 2255000   0.73069467   -1.7953181   -1.7953181  -0.69927855   0.13368255   -1.7953181    1.0960395   439061 
 2256000   0.73074717   -1.7956335   -1.7956335  -0.69951527   0.13008888   -1.7956335    1.0961183   439061 
 2257000   0.73044958   -1.7948335   -1.7948335  -0.69916166   0.13096795   -1.7948335    1.0956719   439061 
 2258000   0.73084559   -1.7962191   -1.7962191  -0.69995325   0.12536913   -1.7962191    1.0962659   439061 
 2259000   0.73077525   -1.7955142   -1.7955142  -0.69935382   0.12965712   -1.7955142    1.0961604   439061 
 2260000   0.73054354   -1.7951705   -1.7951705  -0.69935768   0.13239239   -1.7951705    1.0958128   439061 
 2261000   0.72994618   -1.7943013   -1.7943013  -0.69938448   0.12838096   -1.7943013    1.0949168   439061 
 2262000   0.72933444   -1.7939734   -1.7939734  -0.69997422   0.12750091   -1.7939734    1.0939992   439061 
 2263000   0.73039035   -1.7952392   -1.7952392  -0.69965617   0.13268591   -1.7952392     1.095583   439061 
 2264000   0.73060538   -1.7956814   -1.7956814  -0.69977579   0.13244296   -1.7956814    1.0959056   439061 
 2265000   0.72933185   -1.7935731   -1.7935731   -0.6995778   0.12838006   -1.7935731    1.0939953   439061 
 2266000   0.73113851   -1.7964552   -1.7964552  -0.69974995   0.12856387   -1.7964552    1.0967053   439061 
 2267000   0.72847774   -1.7929467   -1.7929467  -0.70023254   0.13318543   -1.7929467    1.0927141   439061 
 2268000   0.73056124   -1.7962323   -1.7962323  -0.70039296   0.12982928   -1.7962323    1.0958394   439061 
 2269000   0.73035337   -1.7942669   -1.7942669  -0.69873931   0.13541426   -1.7942669    1.0955276   439061 
 2270000   0.73018902   -1.7935252   -1.7935252  -0.69824416   0.12718232   -1.7935252     1.095281   439061 
 2271000   0.73133997   -1.7950384   -1.7950384  -0.69803096   0.12989907   -1.7950384    1.0970075   439061 
 2272000   0.73100398    -1.794607    -1.794607  -0.69810349   0.13393207    -1.794607    1.0965035   439061 
 2273000   0.73131608   -1.7950351   -1.7950351  -0.69806345   0.12765434   -1.7950351    1.0969716   439061 
 2274000   0.73068768   -1.7942127   -1.7942127  -0.69818371   0.13333677   -1.7942127     1.096029   439061 
 2275000   0.73054058   -1.7939462   -1.7939462  -0.69813787   0.13064124   -1.7939462    1.0958084   439061 
 2276000   0.73110941   -1.7945886   -1.7945886  -0.69792697   0.13037113   -1.7945886    1.0966616   439061 
 2277000   0.72963405    -1.792729    -1.792729  -0.69828042    0.1291374    -1.792729    1.0944486   439061 
 2278000   0.72960303   -1.7922443   -1.7922443  -0.69784228   0.13281758   -1.7922443    1.0944021   439061 
 2279000   0.73009659   -1.7942297   -1.7942297  -0.69908733   0.13044765   -1.7942297    1.0951424   439061 
 2280000   0.72998425   -1.7936863   -1.7936863   -0.6987124   0.12879944   -1.7936863    1.0949739   439061 
 2281000   0.72949792    -1.792749    -1.792749  -0.69850464   0.13002349    -1.792749    1.0942444   439061 
 2282000   0.72972431   -1.7935158   -1.7935158  -0.69893183    0.1291372   -1.7935158     1.094584   439061 
 2283000   0.72900472   -1.7919019   -1.7919019  -0.69839736   0.12999991   -1.7919019    1.0935046   439061 
 2284000    0.7293085   -1.7933048   -1.7933048  -0.69934459   0.12701896   -1.7933048    1.0939603   439061 
 2285000   0.72969927   -1.7927878   -1.7927878  -0.69824139    0.1295459   -1.7927878    1.0945464   439061 
 2286000   0.72958102   -1.7927113   -1.7927113  -0.69834222   0.12548685   -1.7927113     1.094369   439061 
 2287000   0.73012377   -1.7933649   -1.7933649  -0.69818171   0.12901146   -1.7933649    1.0951832   439061 
 2288000   0.72930002   -1.7936979   -1.7936979  -0.69975036   0.12663098   -1.7936979    1.0939475   439061 
 2289000   0.72852488   -1.7917652   -1.7917652  -0.69898034   0.12879919   -1.7917652    1.0927848   439061 
 2290000   0.73054804   -1.7950532   -1.7950532  -0.69923361   0.12719576   -1.7950532    1.0958196   439061 
 2291000    0.7297744   -1.7939611   -1.7939611  -0.69930204   0.12846128   -1.7939611    1.0946591   439061 
 2292000   0.72975623   -1.7934226   -1.7934226  -0.69879074   0.13006975   -1.7934226    1.0946319   439061 
 2293000   0.72929223   -1.7931516   -1.7931516  -0.69921571   0.13085893   -1.7931516    1.0939359   439061 
 2294000   0.72976269   -1.7937087   -1.7937087  -0.69906713   0.12490921   -1.7937087    1.0946415   439061 
 2295000    0.7301904   -1.7945778   -1.7945778  -0.69929468   0.12526642   -1.7945778    1.0952831   439061 
 2296000   0.72965403   -1.7934689   -1.7934689  -0.69899033   0.13096017   -1.7934689    1.0944785   439061 
 2297000   0.72947148   -1.7928333   -1.7928333  -0.69862861    0.1245159   -1.7928333    1.0942047   439061 
 2298000   0.73014823   -1.7935708   -1.7935708  -0.69835096   0.12918002   -1.7935708    1.0952199   439061 
 2299000   0.72984351   -1.7928222   -1.7928222  -0.69805942   0.13529661   -1.7928222    1.0947628   439061 
 2300000   0.73091552   -1.7949519   -1.7949519  -0.69858113   0.12984568   -1.7949519    1.0963708   439061 
 2301000   0.72964722   -1.7930214   -1.7930214  -0.69855306   0.12961141   -1.7930214    1.0944683   439061 
 2302000    0.7304774   -1.7939891   -1.7939891   -0.6982755   0.12687314   -1.7939891    1.0957136   439061 
 2303000   0.72942049   -1.7933004   -1.7933004  -0.69917211   0.13248131   -1.7933004    1.0941282   439061 
 2304000   0.73049589   -1.7945375   -1.7945375  -0.69879616   0.13080096   -1.7945375    1.0957413   439061 
 2305000   0.72929175   -1.7930491   -1.7930491  -0.69911401   0.12520194   -1.7930491    1.0939351   439061 
 2306000   0.73110571   -1.7948765   -1.7948765  -0.69822042   0.13155316   -1.7948765    1.0966561   439061 
 2307000    0.7307833   -1.7949324   -1.7949324  -0.69875991   0.12780215   -1.7949324    1.0961724   439061 
 2308000   0.73018093   -1.7943787   -1.7943787  -0.69910984   0.12864194   -1.7943787    1.0952689   439061 
 2309000   0.73037632   -1.7950474   -1.7950474  -0.69948539   0.12988014   -1.7950474     1.095562   439061 
 2310000    0.7308533   -1.7947319   -1.7947319  -0.69845446    0.1303072   -1.7947319    1.0962775   439061 
 2311000   0.72908968    -1.792051    -1.792051  -0.69841899    0.1288905    -1.792051     1.093632   439061 
 2312000   0.72970525   -1.7937669   -1.7937669  -0.69921149   0.13029925   -1.7937669    1.0945554   439061 
 2313000   0.72969111   -1.7934212   -1.7934212  -0.69888704   0.12949993   -1.7934212    1.0945342   439061 
 2314000   0.73010135    -1.793614    -1.793614  -0.69846444   0.13112386    -1.793614    1.0951495   439061 
 2315000   0.72986833   -1.7943731   -1.7943731  -0.69957307   0.12801092   -1.7943731       1.0948   439061 
 2316000   0.72874683   -1.7924192   -1.7924192  -0.69930146   0.12819997   -1.7924192    1.0931178   439061 
 2317000   0.73029971   -1.7941085   -1.7941085   -0.6986614   0.12731846   -1.7941085    1.0954471   439061 
 2318000   0.72867986   -1.7920247   -1.7920247  -0.69900739   0.12714639   -1.7920247    1.0930173   439061 
 2319000   0.72906531   -1.7930826   -1.7930826  -0.69948716   0.13220018   -1.7930826    1.0935955   439061 
 2320000   0.72908906   -1.7934022   -1.7934022  -0.69977113   0.12851562   -1.7934022    1.0936311   439061 
 2321000   0.72882952   -1.7929784   -1.7929784  -0.69973661   0.12737812   -1.7929784    1.0932418   439061 
 2322000   0.72913239   -1.7928988   -1.7928988  -0.69920271   0.13056747   -1.7928988    1.0936961   439061 
 2323000   0.72881408   -1.7912074   -1.7912074  -0.69798882   0.12892405   -1.7912074    1.0932186   439061 
 2324000   0.72910171   -1.7919872   -1.7919872  -0.69833715   0.12920456   -1.7919872    1.0936501   439061 
 2325000   0.72803494   -1.7914014   -1.7914014  -0.69935152   0.12550359   -1.7914014    1.0920499   439061 
 2326000   0.72909397   -1.7927054   -1.7927054   -0.6990669   0.12345295   -1.7927054    1.0936385   439061 
 2327000    0.7288932   -1.7925357   -1.7925357  -0.69919843   0.12761748   -1.7925357    1.0933373   439061 
 2328000   0.72925154   -1.7920931   -1.7920931  -0.69821825   0.12934209   -1.7920931    1.0938748   439061 
 2329000   0.72976156   -1.7921578   -1.7921578  -0.69751798   0.13096362   -1.7921578    1.0946398   439061 
 2330000   0.72913472   -1.7909685   -1.7909685  -0.69726896   0.12934838   -1.7909685    1.0936996   439061 
 2331000   0.72888713    -1.790828    -1.790828  -0.69749977   0.13179787    -1.790828    1.0933282   439061 
 2332000   0.72905035   -1.7911817   -1.7911817  -0.69760869   0.12600158   -1.7911817     1.093573   439061 
 2333000   0.72986101   -1.7917097   -1.7917097   -0.6969207    0.1313592   -1.7917097     1.094789   439061 
 2334000   0.73036278   -1.7924584   -1.7924584  -0.69691669   0.12576963   -1.7924584    1.0955417   439061 
 2335000   0.73036002   -1.7923881   -1.7923881  -0.69685061   0.12710618   -1.7923881    1.0955375   439061 
 2336000   0.72966029   -1.7920038   -1.7920038  -0.69751583    0.1316821   -1.7920038    1.0944879   439061 
 2337000   0.72977821   -1.7922329   -1.7922329  -0.69756808   0.12667027   -1.7922329    1.0946648   439061 
 2338000   0.73009492   -1.7930856   -1.7930856  -0.69794572   0.12782772   -1.7930856    1.0951399   439061 
 2339000    0.7297469   -1.7925856   -1.7925856  -0.69796774   0.12961053   -1.7925856    1.0946179   439061 
 2340000   0.72999886   -1.7925833   -1.7925833   -0.6975875   0.13032755   -1.7925833    1.0949958   439061 
 2341000    0.7299673   -1.7929119   -1.7929119  -0.69796339   0.13181046   -1.7929119    1.0949485   439061 
 2342000   0.72960528   -1.7922184   -1.7922184  -0.69781296   0.12549693   -1.7922184    1.0944054   439061 
 2343000    0.7304038   -1.7934734   -1.7934734  -0.69787017   0.12646661   -1.7934734    1.0956032   439061 
 2344000     0.729675   -1.7926638   -1.7926638  -0.69815378   0.13066305   -1.7926638      1.09451   439061 
 2345000   0.73009249    -1.793557    -1.793557  -0.69842076   0.12813148    -1.793557    1.0951362   439061 
 2346000   0.72967045   -1.7938899   -1.7938899  -0.69938671   0.13082219   -1.7938899    1.0945032   439061 
 2347000   0.73069303   -1.7952857   -1.7952857   -0.6992487    0.1289601   -1.7952857     1.096037   439061 
 2348000   0.72919057   -1.7923449   -1.7923449  -0.69856154   0.12509773   -1.7923449    1.0937834   439061 
 2349000   0.73053866   -1.7944396   -1.7944396  -0.69863412   0.12943686   -1.7944396    1.0958055   439061 
 2350000   0.73005802   -1.7931537   -1.7931537  -0.69806915   0.12982632   -1.7931537    1.0950845   439061 
 2351000   0.72938217   -1.7933405   -1.7933405  -0.69926978   0.13007658   -1.7933405    1.0940708   439061 
 2352000   0.73014719    -1.794265    -1.794265  -0.69904666   0.13384356    -1.794265    1.0952183   439061 
 2353000   0.72949203    -1.793248    -1.793248  -0.69901246   0.12944964    -1.793248    1.0942356   439061 
 2354000   0.72960695   -1.7927691   -1.7927691  -0.69836117   0.12968899   -1.7927691    1.0944079   439061 
 2355000   0.72947849   -1.7922987   -1.7922987  -0.69808351   0.13090995   -1.7922987    1.0942152   439061 
 2356000   0.72855876   -1.7917868   -1.7917868  -0.69895114    0.1278499   -1.7917868    1.0928357   439061 
 2357000   0.72886056   -1.7918476   -1.7918476  -0.69855925   0.12143957   -1.7918476    1.0932883   439061 
 2358000   0.72970856    -1.792962    -1.792962  -0.69840165   0.12786343    -1.792962    1.0945603   439061 
 2359000   0.72898641   -1.7913213   -1.7913213  -0.69784413   0.12783303   -1.7913213    1.0934771   439061 
 2360000   0.72973996   -1.7931609   -1.7931609  -0.69855349   0.12749383   -1.7931609    1.0946075   439061 
 2361000   0.72860389   -1.7917165   -1.7917165  -0.69881313   0.13051012   -1.7917165    1.0929033   439061 
 2362000   0.72821208   -1.7911726   -1.7911726  -0.69885696   0.12652511   -1.7911726    1.0923156   439061 
 2363000   0.72976842   -1.7946586   -1.7946586  -0.70000849   0.12812202   -1.7946586    1.0946501   439061 
 2364000   0.72952787   -1.7931148   -1.7931148  -0.69882547   0.12937267   -1.7931148    1.0942893   439061 
 2365000   0.72888985    -1.791863    -1.791863  -0.69853074   0.12524201    -1.791863    1.0933323   439061 
 2366000   0.72967086   -1.7932136   -1.7932136   -0.6987098   0.13217461   -1.7932136    1.0945038   439061 
 2367000   0.72953119   -1.7939569   -1.7939569   -0.6996626   0.12501273   -1.7939569    1.0942943   439061 
 2368000   0.72806536   -1.7917121   -1.7917121  -0.69961653   0.12728743   -1.7917121    1.0920955   439061 
 2369000   0.72992162   -1.7938507   -1.7938507  -0.69897074   0.12844775   -1.7938507    1.0948799   439061 
 2370000   0.72774192   -1.7908409   -1.7908409  -0.69923049   0.12998551   -1.7908409    1.0916104   439061 
 2371000   0.72985688   -1.7937111   -1.7937111   -0.6989283   0.12727629   -1.7937111    1.0947828   439061 
 2372000    0.7281796   -1.7918808   -1.7918808  -0.69961385   0.13299065   -1.7918808    1.0922669   439061 
 2373000   0.72870959   -1.7932171   -1.7932171  -0.70015524   0.12590822   -1.7932171    1.0930619   439061 
 2374000   0.72963852   -1.7950739   -1.7950739  -0.70061861    0.1274033   -1.7950739    1.0944553   439061 
 2375000   0.72847017   -1.7945048   -1.7945048  -0.70180205   0.12510587   -1.7945048    1.0927028   439061 
 2376000   0.72761805   -1.7923615   -1.7923615  -0.70093693     0.123503   -1.7923615    1.0914246   439061 
 2377000   0.72956615   -1.7957066   -1.7957066  -0.70135991   0.12576909   -1.7957066    1.0943467   439061 
 2378000   0.72791975   -1.7929326   -1.7929326  -0.70105549   0.12990432   -1.7929326    1.0918771   439061 
 2379000   0.72780166   -1.7925165   -1.7925165  -0.70081651   0.13035646   -1.7925165       1.0917   439061 
 2380000   0.72868376   -1.7941347   -1.7941347  -0.70111152   0.12629115   -1.7941347    1.0930232   439061 
 2381000   0.72782901   -1.7935059   -1.7935059  -0.70176488   0.12736573   -1.7935059     1.091741   439061 
 2382000   0.72718893    -1.792537    -1.792537   -0.7017561   0.12773597    -1.792537    1.0907809   439061 
 2383000   0.72863217   -1.7939308   -1.7939308  -0.70098499   0.13003568   -1.7939308    1.0929458   439061 
 2384000   0.72823329   -1.7931936   -1.7931936  -0.70084615   0.13077456   -1.7931936    1.0923474   439061 
 2385000   0.72821757   -1.7932033   -1.7932033  -0.70087943   0.12879638   -1.7932033    1.0923239   439061 
 2386000   0.72911289   -1.7947242   -1.7947242  -0.70105731   0.12709912   -1.7947242    1.0936668   439061 
 2387000   0.72881828   -1.7937315   -1.7937315  -0.70050652   0.12369558   -1.7937315    1.0932249   439061 
 2388000   0.72830764   -1.7934821   -1.7934821  -0.70102316   0.12632698   -1.7934821     1.092459   439061 
 2389000   0.72862222   -1.7937164   -1.7937164  -0.70078551    0.1287416   -1.7937164    1.0929308   439061 
 2390000   0.72869833   -1.7944931   -1.7944931   -0.7014481   0.12885036   -1.7944931     1.093045   439061 
 2391000   0.72778333   -1.7940941   -1.7940941  -0.70242163   0.12931454   -1.7940941    1.0916725   439061 
 2392000   0.72768473   -1.7941578   -1.7941578  -0.70263316   0.12830714   -1.7941578    1.0915246   439061 
 2393000   0.72849733   -1.7960827   -1.7960827  -0.70333915   0.12683448   -1.7960827    1.0927435   439061 
 2394000   0.72958376   -1.7974732   -1.7974732  -0.70310008   0.12370522   -1.7974732    1.0943731   439061 
 2395000    0.7279591   -1.7952024   -1.7952024  -0.70326625   0.12840146   -1.7952024    1.0919362   439061 
 2396000   0.72920584   -1.7964971   -1.7964971  -0.70269083   0.12980738   -1.7964971    1.0938063   439061 
 2397000   0.72829043   -1.7948073   -1.7948073  -0.70237416   0.12992938   -1.7948073    1.0924332   439061 
 2398000   0.72814629   -1.7943927   -1.7943927  -0.70217574   0.12916236   -1.7943927     1.092217   439061 
 2399000   0.72850283   -1.7951231   -1.7951231  -0.70237133   0.12932747   -1.7951231    1.0927518   439061 
 2400000   0.72815918    -1.794747    -1.794747  -0.70251068   0.12470254    -1.794747    1.0922363   439061 
 2401000   0.72711013   -1.7936928   -1.7936928  -0.70303012   0.13033889   -1.7936928    1.0906627   439061 
 2402000   0.72801344   -1.7942569   -1.7942569  -0.70223924   0.12681049   -1.7942569    1.0920177   439061 
 2403000   0.72769334   -1.7942086   -1.7942086  -0.70267103   0.13009981   -1.7942086    1.0915375   439061 
 2404000   0.72842762   -1.7952409   -1.7952409  -0.70260197    0.1245013   -1.7952409    1.0926389   439061 
 2405000   0.72750494   -1.7938379   -1.7938379  -0.70258292   0.12473362   -1.7938379    1.0912549   439061 
 2406000   0.72854225   -1.7950575   -1.7950575  -0.70224659   0.12963383   -1.7950575    1.0928109   439061 
 2407000    0.7275956   -1.7942071   -1.7942071  -0.70281617   0.12789114   -1.7942071    1.0913909   439061 
 2408000   0.72805881   -1.7947056   -1.7947056  -0.70261984   0.12911914   -1.7947056    1.0920857   439061 
 2409000   0.72810389   -1.7940078   -1.7940078  -0.70185445    0.1308699   -1.7940078    1.0921533   439061 
 2410000   0.72826778   -1.7936991   -1.7936991  -0.70129995   0.12881953   -1.7936991    1.0923992   439061 
 2411000   0.72812704    -1.793416    -1.793416  -0.70122792   0.13006237    -1.793416    1.0921881   439061 
 2412000    0.7298073   -1.7948787   -1.7948787  -0.70017025   0.12688915   -1.7948787    1.0947085   439061 
 2413000   0.72836714    -1.793579    -1.793579  -0.70103082    0.1278835    -1.793579    1.0925482   439061 
 2414000   0.72916717   -1.7942845   -1.7942845  -0.70053626   0.12862684   -1.7942845    1.0937483   439061 
 2415000   0.72807929    -1.793643    -1.793643  -0.70152658    0.1273716    -1.793643    1.0921165   439061 
 2416000   0.72876302   -1.7940574   -1.7940574  -0.70091536   0.12654548   -1.7940574     1.093142   439061 
 2417000   0.72765564   -1.7929764   -1.7929764  -0.70149545   0.12287988   -1.7929764     1.091481   439061 
 2418000   0.72786569   -1.7921707   -1.7921707  -0.70037466   0.12953682   -1.7921707    1.0917961   439061 
 2419000   0.72947179   -1.7948522   -1.7948522  -0.70064699   0.12814211   -1.7948522    1.0942052   439061 
 2420000   0.72768613   -1.7920312   -1.7920312  -0.70050451   0.13169486   -1.7920312    1.0915267   439061 
 2421000   0.72898741   -1.7936949   -1.7936949  -0.70021626   0.12446784   -1.7936949    1.0934786   439061 
 2422000   0.72746354   -1.7913346   -1.7913346  -0.70014179   0.12894485   -1.7913346    1.0911928   439061 
 2423000   0.72810295   -1.7931281   -1.7931281  -0.70097616   0.13177524   -1.7931281    1.0921519   439061 
 2424000   0.72832728   -1.7930994   -1.7930994  -0.70061096   0.12645397   -1.7930994    1.0924884   439061 
 2425000    0.7277009   -1.7919283   -1.7919283  -0.70037942   0.12241711   -1.7919283    1.0915489   439061 
 2426000   0.72913178   -1.7940307   -1.7940307  -0.70033553   0.12609388   -1.7940307    1.0936952   439061 
 2427000   0.72902894   -1.7936913   -1.7936913  -0.70015043   0.12572674   -1.7936913    1.0935409   439061 
 2428000   0.72890037   -1.7939317   -1.7939317  -0.70058365   0.12246827   -1.7939317    1.0933481   439061 
 2429000   0.72830191   -1.7926767   -1.7926767  -0.70022627   0.12547738   -1.7926767    1.0924504   439061 
 2430000   0.72932537   -1.7928849   -1.7928849  -0.69889937   0.12953861   -1.7928849    1.0939856   439061 
 2431000    0.7287392   -1.7919424   -1.7919424  -0.69883612   0.12716158   -1.7919424    1.0931063   439061 
 2432000   0.72875059   -1.7918539   -1.7918539  -0.69873052   0.13138183   -1.7918539    1.0931234   439061 
 2433000   0.72776101   -1.7905222   -1.7905222  -0.69888313    0.1283594   -1.7905222     1.091639   439061 
 2434000    0.7287128   -1.7924251   -1.7924251  -0.69935843   0.12663511   -1.7924251    1.0930667   439061 
 2435000     0.727775   -1.7905633   -1.7905633   -0.6989033   0.12670493   -1.7905633      1.09166   439061 
 2436000   0.72801205   -1.7916025   -1.7916025  -0.69958687   0.12833811   -1.7916025    1.0920156   439061 
 2437000   0.73025413   -1.7941023   -1.7941023  -0.69872355   0.12539118   -1.7941023    1.0953787   439061 
 2438000   0.72901383   -1.7923019   -1.7923019  -0.69878367   0.12635346   -1.7923019    1.0935182   439061 
 2439000   0.72875788   -1.7920082   -1.7920082  -0.69887389   0.13056922   -1.7920082    1.0931343   439061 
 2440000   0.72854113   -1.7929599   -1.7929599  -0.70015066   0.12775048   -1.7929599    1.0928092   439061 
 2441000    0.7296991   -1.7939489   -1.7939489   -0.6994027   0.12759666   -1.7939489    1.0945462   439061 
 2442000   0.73005102   -1.7949046   -1.7949046  -0.69983053   0.12640546   -1.7949046     1.095074   439061 
 2443000   0.72877034   -1.7930011   -1.7930011  -0.69984804    0.1253608   -1.7930011     1.093153   439061 
 2444000   0.72945658   -1.7943662   -1.7943662  -0.70018383   0.13251119   -1.7943662    1.0941824   439061 
 2445000    0.7276188   -1.7917555   -1.7917555  -0.70032984   0.12590983   -1.7917555    1.0914257   439061 
 2446000   0.72797414   -1.7924792   -1.7924792  -0.70052045    0.1258942   -1.7924792    1.0919587   439061 
 2447000   0.72819199   -1.7929164   -1.7929164  -0.70063092   0.12868911   -1.7929164    1.0922855   439061 
 2448000   0.72797745    -1.792574    -1.792574  -0.70061026   0.12678373    -1.792574    1.0919637   439061 
 2449000   0.72817178   -1.7932168   -1.7932168  -0.70096167   0.12894857   -1.7932168    1.0922552   439061 
 2450000   0.72805936   -1.7929086   -1.7929086  -0.70082208    0.1252318   -1.7929086    1.0920866   439061 
 2451000   0.72771398   -1.7932024   -1.7932024  -0.70163394    0.1268921   -1.7932024    1.0915685   439061 
 2452000   0.72791153   -1.7935135   -1.7935135  -0.70164867   0.12610391   -1.7935135    1.0918648   439061 
 2453000   0.72681866   -1.7919219   -1.7919219  -0.70169639   0.12765998   -1.7919219    1.0902255   439061 
 2454000   0.72691744   -1.7924544   -1.7924544  -0.70208073   0.12824122   -1.7924544    1.0903737   439061 
 2455000   0.72752904   -1.7932958   -1.7932958  -0.70200472   0.12416953   -1.7932958    1.0912911   439061 
 2456000    0.7279612   -1.7930832   -1.7930832  -0.70114389   0.12621313   -1.7930832    1.0919393   439061 
 2457000   0.72786774   -1.7934694   -1.7934694  -0.70167025   0.12878206   -1.7934694    1.0917991   439061 
 2458000   0.72848446    -1.794257    -1.794257   -0.7015328   0.12718981    -1.794257    1.0927242   439061 
 2459000   0.72757043   -1.7919268   -1.7919268  -0.70057363   0.13108289   -1.7919268    1.0913532   439061 
 2460000   0.72887594   -1.7934342   -1.7934342  -0.70012281   0.12723582   -1.7934342    1.0933114   439061 
 2461000   0.72824006   -1.7936263   -1.7936263  -0.70126869   0.12545936   -1.7936263    1.0923576   439061 
 2462000   0.72732193   -1.7911321   -1.7911321  -0.70015172   0.13096355   -1.7911321    1.0909804   439061 
 2463000   0.72795562   -1.7929387   -1.7929387  -0.70100774   0.12355586   -1.7929387    1.0919309   439061 
 2464000   0.72885639   -1.7925879   -1.7925879  -0.69930581   0.12566835   -1.7925879    1.0932821   439061 
 2465000   0.72950755   -1.7933912   -1.7933912  -0.69913236   0.12749726   -1.7933912    1.0942588   439061 
 2466000   0.72812984    -1.791336    -1.791336  -0.69914368   0.13175854    -1.791336    1.0921923   439061 
 2467000   0.72916651   -1.7941334   -1.7941334  -0.70038609   0.13078819   -1.7941334    1.0937473   439061 
 2468000   0.72835291   -1.7917286   -1.7917286  -0.69920173   0.12885802   -1.7917286    1.0925269   439061 
 2469000   0.72828785   -1.7928297   -1.7928297  -0.70040047   0.12860117   -1.7928297    1.0924293   439061 
 2470000   0.72781541   -1.7911321   -1.7911321  -0.69941152   0.12456591   -1.7911321    1.0917206   439061 
 2471000   0.72889628   -1.7929952   -1.7929952  -0.69965324   0.12763073   -1.7929952    1.0933419   439061 
 2472000   0.72734988   -1.7915466   -1.7915466  -0.70052427   0.12561675   -1.7915466    1.0910223   439061 
 2473000   0.72743721   -1.7923249   -1.7923249  -0.70117157   0.12559219   -1.7923249    1.0911533   439061 
 2474000   0.72704356    -1.791803    -1.791803  -0.70124015   0.12810462    -1.791803    1.0905629   439061 
 2475000   0.72901366   -1.7940608   -1.7940608  -0.70054279   0.12748831   -1.7940608     1.093518   439061 
 2476000   0.72912132   -1.7934076   -1.7934076  -0.69972814   0.12581863   -1.7934076    1.0936795   439061 
 2477000   0.72891977   -1.7934065   -1.7934065  -0.70002928   0.12680191   -1.7934065    1.0933772   439061 
 2478000   0.72792995   -1.7925438   -1.7925438  -0.70065137   0.12773153   -1.7925438    1.0918924   439061 
 2479000     0.728714   -1.7937252   -1.7937252  -0.70065666   0.12750182   -1.7937252    1.0930685   439061 
 2480000   0.72940724   -1.7953247   -1.7953247  -0.70121633   0.12390724   -1.7953247    1.0941084   439061 
 2481000   0.72828292   -1.7930308   -1.7930308  -0.70060896   0.13122624   -1.7930308    1.0924219   439061 
 2482000   0.72898132   -1.7941962   -1.7941962  -0.70072667   0.12367696   -1.7941962    1.0934695   439061 
 2483000   0.72777918   -1.7927632   -1.7927632  -0.70109689   0.12364467   -1.7927632    1.0916663   439061 
 2484000   0.72802132   -1.7939992   -1.7939992   -0.7019697   0.12337728   -1.7939992    1.0920295   439061 
 2485000   0.72790888   -1.7939426   -1.7939426  -0.70208173   0.12745331   -1.7939426    1.0918608   439061 
 2486000   0.72705776    -1.793083    -1.793083  -0.70249881   0.12425179    -1.793083    1.0905842   439061 
 2487000   0.72741085   -1.7934907   -1.7934907  -0.70237691   0.12556515   -1.7934907    1.0911138   439061 
 2488000   0.72735109   -1.7938775   -1.7938775  -0.70285337    0.1246139   -1.7938775    1.0910242   439061 
 2489000   0.72698364   -1.7928143   -1.7928143   -0.7023413   0.12388877   -1.7928143     1.090473   439061 
 2490000   0.72762636   -1.7927783   -1.7927783  -0.70134123   0.12466179   -1.7927783    1.0914371   439061 
 2491000   0.72893416   -1.7939553   -1.7939553  -0.70055651   0.12529085   -1.7939553    1.0933988   439061 
 2492000   0.72661714   -1.7911035   -1.7911035  -0.70118024   0.12691843   -1.7911035    1.0899232   439061 
 2493000   0.72782844   -1.7925026   -1.7925026  -0.70076239   0.12590963   -1.7925026    1.0917402   439061 
 2494000   0.72800846   -1.7932482   -1.7932482  -0.70123804   0.12340536   -1.7932482    1.0920102   439061 
 2495000   0.72784779   -1.7937139   -1.7937139  -0.70194476   0.12474716   -1.7937139    1.0917692   439061 
 2496000   0.72780083   -1.7931945   -1.7931945  -0.70149571   0.12394468   -1.7931945    1.0916988   439061 
 2497000   0.72755521   -1.7927556   -1.7927556  -0.70142524   0.12579544   -1.7927556    1.0913303   439061 
 2498000   0.72687187   -1.7927856   -1.7927856  -0.70248033   0.12637312   -1.7927856    1.0903053   439061 
 2499000   0.72627283   -1.7918427   -1.7918427  -0.70243595   0.12817405   -1.7918427    1.0894068   439061 
 2500000   0.72699575   -1.7921175   -1.7921175  -0.70162636   0.12738254   -1.7921175    1.0904911   439061 
 2501000   0.72798818   -1.7927725   -1.7927725   -0.7007927   0.12573085   -1.7927725    1.0919798   439061 
 2502000   0.72753644   -1.7918917   -1.7918917  -0.70058956   0.12614129   -1.7918917    1.0913022   439061 
 2503000   0.72806387   -1.7925777   -1.7925777  -0.70048438   0.12770432   -1.7925777    1.0920933   439061 
 2504000   0.72763234   -1.7917497   -1.7917497  -0.70030372    0.1242405   -1.7917497     1.091446   439061 
 2505000   0.72775101   -1.7919223   -1.7919223  -0.70029824   0.12840555   -1.7919223     1.091624   439061 
 2506000   0.72756578   -1.7908634   -1.7908634  -0.69951726   0.12745065   -1.7908634    1.0913462   439061 
 2507000    0.7273102   -1.7906193   -1.7906193  -0.69965644   0.12783792   -1.7906193    1.0909628   439061 
 2508000   0.72847152   -1.7932496   -1.7932496   -0.7005448   0.12701743   -1.7932496    1.0927048   439061 
 2509000   0.72739563    -1.792084    -1.792084  -0.70099303   0.12639508    -1.792084     1.091091   439061 
 2510000   0.72808833   -1.7927124   -1.7927124  -0.70058236   0.12850847   -1.7927124      1.09213   439061 
 2511000   0.72742462    -1.791745    -1.791745  -0.70061052   0.12602609    -1.791745    1.0911344   439061 
 2512000   0.72871326   -1.7938172   -1.7938172  -0.70074981   0.12738632   -1.7938172    1.0930674   439061 
 2513000   0.72800308   -1.7925904   -1.7925904   -0.7005883   0.12220975   -1.7925904    1.0920021   439061 
 2514000   0.72730558   -1.7928919   -1.7928919  -0.70193606   0.12292428   -1.7928919    1.0909559   439061 
 2515000   0.72643368     -1.79149     -1.79149  -0.70184197   0.12686599     -1.79149     1.089648   439061 
 2516000   0.72597409    -1.791601    -1.791601  -0.70264232   0.13037159    -1.791601    1.0889587   439061 
 2517000   0.72643801   -1.7910566   -1.7910566  -0.70140205   0.12791188   -1.7910566    1.0896545   439061 
 2518000   0.72753141   -1.7932284   -1.7932284  -0.70193376   0.12523733   -1.7932284    1.0912946   439061 
 2519000   0.72688313   -1.7914979   -1.7914979  -0.70117565   0.12642977   -1.7914979    1.0903222   439061 
 2520000   0.72716743   -1.7917104   -1.7917104  -0.70096169   0.12261051   -1.7917104    1.0907487   439061 
 2521000   0.72772286   -1.7924609   -1.7924609  -0.70087912   0.12645608   -1.7924609    1.0915818   439061 
 2522000   0.72799999   -1.7926439   -1.7926439   -0.7006464   0.12735569   -1.7926439    1.0919975   439061 
 2523000   0.72678922   -1.7910812   -1.7910812  -0.70089988   0.12263411   -1.7910812    1.0901813   439061 
 2524000   0.72724467   -1.7919182   -1.7919182  -0.70105372   0.12816958   -1.7919182    1.0908645   439061 
 2525000   0.72792027   -1.7920233   -1.7920233  -0.70014534   0.12644455   -1.7920233    1.0918779   439061 
 2526000   0.72651692   -1.7898498   -1.7898498  -0.70007693   0.12424471   -1.7898498    1.0897729   439061 
 2527000   0.72740697   -1.7916463   -1.7916463  -0.70053832   0.12556139   -1.7916463     1.091108   439061 
 2528000   0.72842653   -1.7930384   -1.7930384   -0.7004011   0.13053479   -1.7930384    1.0926373   439061 
 2529000   0.72715963   -1.7920995   -1.7920995  -0.70136251   0.12796894   -1.7920995     1.090737   439061 
 2530000   0.72701785   -1.7923884   -1.7923884  -0.70186413    0.1242909   -1.7923884    1.0905243   439061 
 2531000   0.72718391   -1.7922589   -1.7922589  -0.70148557   0.12470761   -1.7922589    1.0907734   439061 
 2532000   0.72614152   -1.7913587   -1.7913587  -0.70214893   0.12634448   -1.7913587    1.0892098   439061 
 2533000   0.72701599   -1.7932435   -1.7932435  -0.70272195   0.12555081   -1.7932435    1.0905215   439061 
 2534000    0.7262524   -1.7922016   -1.7922016  -0.70282544   0.12561954   -1.7922016    1.0893761   439061 
 2535000   0.72684964   -1.7933719   -1.7933719  -0.70309994   0.12438367   -1.7933719     1.090272   439061 
 2536000    0.7268402   -1.7927721   -1.7927721  -0.70251431   0.13045123   -1.7927721    1.0902578   439061 
 2537000   0.72720414   -1.7929672   -1.7929672   -0.7021635   0.12188064   -1.7929672    1.0908037   439061 
 2538000   0.72852308   -1.7946748   -1.7946748  -0.70189271   0.12929981   -1.7946748    1.0927821   439061 
 2539000   0.72702419    -1.793418    -1.793418  -0.70288421   0.12423699    -1.793418    1.0905338   439061 
 2540000   0.72604504   -1.7911142   -1.7911142  -0.70204915   0.12909308   -1.7911142    1.0890651   439061 
 2541000   0.72649873   -1.7915556   -1.7915556  -0.70181002   0.12711534   -1.7915556    1.0897456   439061 
 2542000   0.72678062   -1.7926215   -1.7926215  -0.70245301   0.12785361   -1.7926215    1.0901685   439061 
 2543000   0.72716054   -1.7938896   -1.7938896   -0.7031513   0.12637396   -1.7938896    1.0907383   439061 
 2544000   0.72584397   -1.7921272   -1.7921272  -0.70336378   0.12453393   -1.7921272    1.0887635   439061 
 2545000   0.72618836   -1.7918403   -1.7918403  -0.70256028   0.12748989   -1.7918403    1.0892801   439061 
 2546000   0.72707969   -1.7935428   -1.7935428  -0.70292572   0.12262056   -1.7935428     1.090617   439061 
 2547000   0.72637818   -1.7923371   -1.7923371  -0.70277226   0.12901085   -1.7923371    1.0895648   439061 
 2548000   0.72698994   -1.7931482   -1.7931482  -0.70266581   0.12351985   -1.7931482    1.0904824   439061 
 2549000   0.72609647    -1.791809    -1.791809  -0.70266678   0.12603164    -1.791809    1.0891422   439061 
 2550000   0.72742147   -1.7931945   -1.7931945  -0.70206478   0.12706346   -1.7931945    1.0911297   439061 
 2551000   0.72631336   -1.7916025   -1.7916025  -0.70213494   0.12795695   -1.7916025    1.0894676   439061 
 2552000   0.72676856   -1.7924666   -1.7924666  -0.70231622   0.12465753   -1.7924666    1.0901504   439061 
 2553000   0.72603157   -1.7919329   -1.7919329  -0.70288798   0.12793511   -1.7919329    1.0890449   439061 
 2554000   0.72651645   -1.7931893   -1.7931893  -0.70341708   0.12615378   -1.7931893    1.0897722   439061 
 2555000   0.72680476    -1.794045    -1.794045  -0.70384035   0.12509246    -1.794045    1.0902047   439061 
 2556000   0.72751722   -1.7944667   -1.7944667  -0.70319332   0.12448041   -1.7944667    1.0912733   439061 
 2557000   0.72715528   -1.7937762   -1.7937762  -0.70304579   0.12642693   -1.7937762    1.0907304   439061 
 2558000   0.72761642   -1.7940335   -1.7940335   -0.7026114   0.11954591   -1.7940335    1.0914221   439061 
 2559000   0.72751001   -1.7939091   -1.7939091  -0.70264654   0.12838043   -1.7939091    1.0912625   439061 
 2560000   0.72667776   -1.7927431   -1.7927431  -0.70272899   0.12802416   -1.7927431    1.0900142   439061 
 2561000   0.72624097   -1.7925081   -1.7925081  -0.70314916    0.1262197   -1.7925081     1.089359   439061 
 2562000   0.72623182   -1.7933733   -1.7933733    -0.704028   0.12396454   -1.7933733    1.0893452   439061 
 2563000   0.72668248   -1.7927463   -1.7927463  -0.70272506   0.12366384   -1.7927463    1.0900212   439061 
 2564000   0.72651803    -1.792146    -1.792146  -0.70237141   0.12621124    -1.792146    1.0897746   439061 
 2565000   0.72737843   -1.7938828   -1.7938828  -0.70281761   0.12412748   -1.7938828    1.0910652   439061 
 2566000   0.72770333   -1.7942323   -1.7942323  -0.70267975   0.12644385   -1.7942323    1.0915525   439061 
 2567000   0.72725158   -1.7929668   -1.7929668  -0.70209193   0.12717695   -1.7929668    1.0908749   439061 
 2568000   0.72681285   -1.7924017   -1.7924017  -0.70218487    0.1297119   -1.7924017    1.0902168   439061 
 2569000   0.72689758   -1.7932453   -1.7932453  -0.70290145   0.12472524   -1.7932453    1.0903439   439061 
 2570000   0.72731064   -1.7942285   -1.7942285  -0.70326503   0.12577896   -1.7942285    1.0909635   439061 
 2571000   0.72642189   -1.7942663   -1.7942663  -0.70463596   0.12343681   -1.7942663    1.0896304   439061 
 2572000   0.72739436   -1.7950788   -1.7950788  -0.70398973    0.1250092   -1.7950788     1.091089   439061 
 2573000   0.72633079   -1.7936302   -1.7936302   -0.7041365   0.12509162   -1.7936302    1.0894937   439061 
 2574000   0.72482869   -1.7920069   -1.7920069  -0.70476633   0.12850532   -1.7920069    1.0872406   439061 
 2575000   0.72624721   -1.7937974   -1.7937974  -0.70442912   0.12335727   -1.7937974    1.0893683   439061 
 2576000   0.72543648   -1.7924263   -1.7924263  -0.70427408   0.12590349   -1.7924263    1.0881522   439061 
 2577000   0.72572799   -1.7928192   -1.7928192  -0.70422973   0.12510779   -1.7928192    1.0885895   439061 
 2578000    0.7268569    -1.793889    -1.793889  -0.70360615    0.1209036    -1.793889    1.0902829   439061 
 2579000   0.72619562   -1.7929888   -1.7929888  -0.70369787   0.12724333   -1.7929888     1.089291   439061 
 2580000   0.72593317   -1.7929947   -1.7929947  -0.70409741   0.12364151   -1.7929947    1.0888973   439061 
 2581000   0.72611691   -1.7926272   -1.7926272  -0.70345431   0.12183561   -1.7926272    1.0891729   439061 
 2582000   0.72623473   -1.7928221   -1.7928221  -0.70347246   0.12485793   -1.7928221    1.0893496   439061 
 2583000   0.72621301   -1.7924387   -1.7924387  -0.70312167   0.12339943   -1.7924387     1.089317   439061 
 2584000   0.72671813   -1.7938049   -1.7938049  -0.70373019   0.12795008   -1.7938049    1.0900747   439061 
 2585000   0.72724027   -1.7941654   -1.7941654   -0.7033075   0.12814644   -1.7941654    1.0908579   439061 
 2586000   0.72659995   -1.7924564   -1.7924564  -0.70255895   0.12585422   -1.7924564    1.0898974   439061 
 2587000   0.72619308   -1.7927144   -1.7927144  -0.70342731   0.12549779   -1.7927144    1.0892871   439061 
 2588000   0.72629507   -1.7924585   -1.7924585  -0.70301843   0.12738086   -1.7924585    1.0894401   439061 
 2589000   0.72663956   -1.7920707   -1.7920707  -0.70211381   0.12630361   -1.7920707    1.0899569   439061 
 2590000     0.726613   -1.7928334   -1.7928334  -0.70291636     0.124548   -1.7928334     1.089917   439061 
 2591000   0.72616464   -1.7922389   -1.7922389  -0.70299443    0.1274955   -1.7922389    1.0892445   439061 
 2592000   0.72584151   -1.7924962   -1.7924962  -0.70373639   0.12459837   -1.7924962    1.0887598   439061 
 2593000   0.72757723   -1.7949457   -1.7949457   -0.7035823   0.12283074   -1.7949457    1.0913634   439061 
 2594000   0.72628308   -1.7924296   -1.7924296  -0.70300743   0.12755691   -1.7924296    1.0894221   439061 
 2595000   0.72689065   -1.7932658   -1.7932658  -0.70293231   0.12371733   -1.7932658    1.0903335   439061 
 2596000   0.72692637   -1.7937543   -1.7937543  -0.70336724   0.12442661   -1.7937543    1.0903871   439061 
 2597000   0.72610588   -1.7932624   -1.7932624  -0.70410605   0.12451828   -1.7932624    1.0891563   439061 
 2598000   0.72659456   -1.7937105   -1.7937105  -0.70382117   0.12436758   -1.7937105    1.0898894   439061 
 2599000   0.72648733   -1.7935428   -1.7935428   -0.7038143    0.1259926   -1.7935428    1.0897285   439061 
 2600000   0.72507895   -1.7918866   -1.7918866  -0.70427066    0.1253921   -1.7918866    1.0876159   439061 
 2601000   0.72671133   -1.7945539   -1.7945539  -0.70448938   0.12429728   -1.7945539    1.0900645   439061 
 2602000   0.72621018   -1.7933818   -1.7933818  -0.70406903   0.12360042   -1.7933818    1.0893128   439061 
 2603000   0.72479299   -1.7917815   -1.7917815  -0.70459453   0.12325154   -1.7917815     1.087187   439061 
 2604000   0.72635778   -1.7939609   -1.7939609  -0.70442667   0.12283656   -1.7939609    1.0895342   439061 
 2605000   0.72583751   -1.7924377   -1.7924377  -0.70368389   0.12557288   -1.7924377    1.0887538   439061 
 2606000   0.72602578   -1.7919074   -1.7919074  -0.70287124   0.12238284   -1.7919074    1.0890362   439061 
 2607000    0.7273587   -1.7934743   -1.7934743  -0.70243875    0.1211229   -1.7934743    1.0910356   439061 
 2608000   0.72661319   -1.7931527   -1.7931527  -0.70323543    0.1239492   -1.7931527    1.0899173   439061 
 2609000    0.7264753   -1.7931315   -1.7931315    -0.703421   0.12487757   -1.7931315    1.0897105   439061 
 2610000    0.7260587   -1.7926103   -1.7926103  -0.70352473   0.12455823   -1.7926103    1.0890856   439061 
 2611000   0.72676303   -1.7930577   -1.7930577  -0.70291561   0.12681024   -1.7930577    1.0901421   439061 
 2612000   0.72585983   -1.7921089   -1.7921089  -0.70332165   0.12416232   -1.7921089    1.0887873   439061 
 2613000    0.7260137   -1.7932206   -1.7932206  -0.70420253   0.12561799   -1.7932206    1.0890181   439061 
 2614000   0.72542853   -1.7921481   -1.7921481  -0.70400778   0.12390766   -1.7921481    1.0881403   439061 
 2615000   0.72465825   -1.7915383   -1.7915383  -0.70455339   0.12501045   -1.7915383    1.0869849   439061 
 2616000   0.72523869    -1.792361    -1.792361   -0.7045054   0.12372944    -1.792361    1.0878556   439061 
 2617000   0.72465324   -1.7918473   -1.7918473  -0.70486994   0.12496705   -1.7918473    1.0869774   439061 
 2618000   0.72562106   -1.7926727   -1.7926727  -0.70424354   0.12608651   -1.7926727    1.0884291   439061 
 2619000   0.72519623   -1.7920237   -1.7920237  -0.70423181   0.12463861   -1.7920237    1.0877919   439061 
 2620000   0.72543384   -1.7915482   -1.7915482  -0.70339994   0.12751378   -1.7915482    1.0881483   439061 
 2621000    0.7256597   -1.7929074   -1.7929074  -0.70442036   0.12169304   -1.7929074    1.0884871   439061 
 2622000   0.72526944   -1.7919313   -1.7919313  -0.70402958   0.11981187   -1.7919313    1.0879017   439061 
 2623000   0.72586386   -1.7924266   -1.7924266  -0.70363325   0.12483508   -1.7924266    1.0887933   439061 
 2624000   0.72590405   -1.7919761   -1.7919761  -0.70312254   0.12168096   -1.7919761    1.0888536   439061 
 2625000   0.72599005   -1.7930693   -1.7930693  -0.70408669   0.12532987   -1.7930693    1.0889826   439061 
 2626000   0.72657917   -1.7936133   -1.7936133  -0.70374707   0.12421505   -1.7936133    1.0898663   439061 
 2627000   0.72643516   -1.7930964   -1.7930964  -0.70344617   0.12717476   -1.7930964    1.0896503   439061 
 2628000   0.72628179    -1.793305    -1.793305  -0.70388484   0.12744978    -1.793305    1.0894202   439061 
 2629000   0.72574372   -1.7922654   -1.7922654  -0.70365227   0.12573381   -1.7922654    1.0886131   439061 
 2630000   0.72574718   -1.7929306   -1.7929306  -0.70431232   0.12369538   -1.7929306    1.0886183   439061 
 2631000   0.72536534   -1.7916218   -1.7916218  -0.70357625   0.12641588   -1.7916218    1.0880455   439061 
 2632000   0.72504219   -1.7918765   -1.7918765  -0.70431568   0.12583245   -1.7918765    1.0875608   439061 
 2633000   0.72529926   -1.7920487   -1.7920487  -0.70410229   0.12246592   -1.7920487    1.0879464   439061 
 2634000   0.72626142   -1.7935798   -1.7935798  -0.70419017   0.12417001   -1.7935798    1.0893896   439061 
 2635000   0.72625091   -1.7935441   -1.7935441  -0.70417018   0.12379199   -1.7935441    1.0893739   439061 
 2636000   0.72611371   -1.7932887   -1.7932887  -0.70412066   0.12294195   -1.7932887    1.0891681   439061 
 2637000   0.72605208   -1.7926483   -1.7926483  -0.70357269   0.12305066   -1.7926483    1.0890756   439061 
 2638000   0.72678702   -1.7934947   -1.7934947   -0.7033167   0.12387506   -1.7934947     1.090178   439061 
 2639000   0.72684131   -1.7935302   -1.7935302  -0.70327073   0.12235532   -1.7935302    1.0902595   439061 
 2640000    0.7275203   -1.7946862   -1.7946862  -0.70340828   0.12591457   -1.7946862     1.091278   439061 
 2641000   0.72704815   -1.7940751   -1.7940751  -0.70350535   0.12570811   -1.7940751    1.0905697   439061 
 2642000   0.72697499    -1.793025    -1.793025  -0.70256503   0.12792366    -1.793025      1.09046   439061 
 2643000   0.72709999   -1.7931308   -1.7931308  -0.70248328   0.12312714   -1.7931308    1.0906475   439061 
 2644000      0.72602   -1.7926096   -1.7926096  -0.70358211   0.12666092   -1.7926096    1.0890275   439061 
 2645000   0.72593817   -1.7925866   -1.7925866  -0.70368181   0.12534527   -1.7925866    1.0889048   439061 
 2646000   0.72576707   -1.7928499   -1.7928499  -0.70420177   0.12596197   -1.7928499    1.0886481   439061 
 2647000   0.72607939   -1.7929519   -1.7929519  -0.70383528   0.12499927   -1.7929519    1.0891166   439061 
 2648000   0.72556018   -1.7926359   -1.7926359  -0.70429812   0.12335261   -1.7926359    1.0883378   439061 
 2649000   0.72592377   -1.7924632   -1.7924632  -0.70358004   0.13067535   -1.7924632    1.0888832   439061 
 2650000   0.72522534   -1.7922363   -1.7922363  -0.70440076   0.12779366   -1.7922363    1.0878355   439061 
 2651000   0.72577027   -1.7927104   -1.7927104  -0.70405744   0.12735602   -1.7927104    1.0886529   439061 
 2652000   0.72627483   -1.7932259   -1.7932259  -0.70381616   0.12738938   -1.7932259    1.0894098   439061 
 2653000   0.72511819   -1.7916772   -1.7916772   -0.7040024   0.12628747   -1.7916772    1.0876748   439061 
 2654000   0.72621258   -1.7943579   -1.7943579  -0.70504154   0.12786261   -1.7943579    1.0893164   439061 
 2655000   0.72673886   -1.7940873   -1.7940873  -0.70398147   0.12230097   -1.7940873    1.0901058   439061 
 2656000   0.72539684   -1.7924483   -1.7924483  -0.70435557   0.12609434   -1.7924483    1.0880928   439061 
 2657000   0.72657594   -1.7942122   -1.7942122  -0.70435079   0.12444744   -1.7942122    1.0898614   439061 
 2658000   0.72552902   -1.7929978   -1.7929978  -0.70470671   0.12459874   -1.7929978    1.0882911   439061 
 2659000   0.72709371   -1.7955786   -1.7955786  -0.70494049   0.12755071   -1.7955786    1.0906381   439061 
 2660000   0.72596418   -1.7935419   -1.7935419  -0.70459809   0.12436043   -1.7935419    1.0889438   439061 
 2661000   0.72582035   -1.7922448   -1.7922448  -0.70351676   0.12694569   -1.7922448     1.088728   439061 
 2662000   0.72559375   -1.7924983   -1.7924983  -0.70411014   0.12493764   -1.7924983    1.0883882   439061 
 2663000   0.72627919   -1.7938368   -1.7938368  -0.70442047   0.12919896   -1.7938368    1.0894163   439061 
 2664000   0.72604662   -1.7932822   -1.7932822  -0.70421472   0.12517248   -1.7932822    1.0890674   439061 
 2665000   0.72629504   -1.7943001   -1.7943001  -0.70485998   0.12394685   -1.7943001    1.0894401   439061 
 2666000   0.72445563   -1.7919909   -1.7919909  -0.70530988   0.12451171   -1.7919909     1.086681   439061 
 2667000   0.72556308   -1.7930222   -1.7930222  -0.70468004   0.12214244   -1.7930222    1.0883421   439061 
 2668000   0.72522461   -1.7929762   -1.7929762  -0.70514171   0.12492601   -1.7929762    1.0878344   439061 
 2669000   0.72565053   -1.7930829   -1.7930829  -0.70460957   0.12387847   -1.7930829    1.0884733   439061 
 2670000   0.72646769   -1.7951132   -1.7951132  -0.70541414   0.12015038   -1.7951132    1.0896991   439061 
 2671000   0.72479259   -1.7936451   -1.7936451   -0.7064587   0.12398941   -1.7936451    1.0871864   439061 
 2672000   0.72410653   -1.7919406   -1.7919406  -0.70578331   0.12254962   -1.7919406    1.0861573   439061 
 2673000   0.72489911   -1.7933757   -1.7933757  -0.70602955   0.12690723   -1.7933757    1.0873462   439061 
 2674000   0.72421465   -1.7930165   -1.7930165  -0.70669698   0.12516578   -1.7930165    1.0863195   439061 
 2675000   0.72513918   -1.7943359   -1.7943359  -0.70662965   0.12563308   -1.7943359    1.0877063   439061 
 2676000   0.72592571   -1.7958874   -1.7958874  -0.70700127   0.12514323   -1.7958874    1.0888861   439061 
 2677000   0.72496979   -1.7942268   -1.7942268  -0.70677459    0.1243169   -1.7942268    1.0874522   439061 
 2678000   0.72524968    -1.793871    -1.793871  -0.70599898   0.12081137    -1.793871     1.087872   439061 
 2679000   0.72545349   -1.7944249   -1.7944249  -0.70624712   0.12353066   -1.7944249    1.0881778   439061 
 2680000   0.72449449   -1.7934205   -1.7934205  -0.70668126   0.12307324   -1.7934205    1.0867393   439061 
 2681000    0.7251275   -1.7940019   -1.7940019  -0.70631314   0.12225575   -1.7940019    1.0876888   439061 
 2682000   0.72439434   -1.7931243   -1.7931243  -0.70653529   0.12599531   -1.7931243     1.086589   439061 
 2683000   0.72375913   -1.7935116   -1.7935116  -0.70787534   0.12244292   -1.7935116    1.0856362   439061 
 2684000   0.72510439   -1.7947253   -1.7947253  -0.70707119   0.12180448   -1.7947253    1.0876541   439061 
 2685000   0.72507019   -1.7949536   -1.7949536   -0.7073508   0.12095988   -1.7949536    1.0876028   439061 
 2686000   0.72479545   -1.7939054   -1.7939054  -0.70671474   0.12616227   -1.7939054    1.0871907   439061 
 2687000   0.72517228   -1.7942131   -1.7942131  -0.70645714   0.12531793   -1.7942131    1.0877559   439061 
 2688000   0.72474197   -1.7933485   -1.7933485  -0.70623797   0.12213689   -1.7933485    1.0871105   439061 
 2689000   0.72459857   -1.7932172   -1.7932172  -0.70632187    0.1241818   -1.7932172    1.0868954   439061 
 2690000    0.7254945   -1.7945852   -1.7945852  -0.70634595   0.12244333   -1.7945852    1.0882393   439061 
 2691000   0.72469683   -1.7937681   -1.7937681  -0.70672529   0.12294576   -1.7937681    1.0870428   439061 
 2692000   0.72523012   -1.7938277   -1.7938277  -0.70598505   0.11916498   -1.7938277    1.0878427   439061 
 2693000   0.72444708   -1.7935312   -1.7935312  -0.70686304   0.12268353   -1.7935312    1.0866682   439061 
 2694000   0.72528498   -1.7940166   -1.7940166  -0.70609163   0.12588276   -1.7940166     1.087925   439061 
 2695000   0.72442464   -1.7928646   -1.7928646  -0.70623012   0.12435271   -1.7928646    1.0866345   439061 
 2696000   0.72489851   -1.7931463   -1.7931463    -0.705801   0.12476804   -1.7931463    1.0873453   439061 
 2697000   0.72544888   -1.7931379   -1.7931379  -0.70496709   0.12634837   -1.7931379    1.0881708   439061 
 2698000   0.72599619   -1.7947534   -1.7947534  -0.70576161   0.12663423   -1.7947534    1.0889918   439061 
 2699000   0.72416939   -1.7915566   -1.7915566    -0.705305   0.12764427   -1.7915566    1.0862516   439061 
 2700000   0.72536727   -1.7935883   -1.7935883  -0.70553989   0.12577966   -1.7935883    1.0880484   439061 
 2701000   0.72596583   -1.7949406   -1.7949406  -0.70599438   0.12877293   -1.7949406    1.0889463   439061 
 2702000   0.72509686   -1.7936459   -1.7936459  -0.70600312   0.12402582   -1.7936459    1.0876428   439061 
 2703000   0.72508887   -1.7932436   -1.7932436   -0.7056128   0.12333778   -1.7932436    1.0876308   439061 
 2704000   0.72431459   -1.7930786   -1.7930786  -0.70660919    0.1252422   -1.7930786    1.0864694   439061 
 2705000   0.72486054   -1.7932614   -1.7932614   -0.7059731   0.12559814   -1.7932614    1.0872883   439061 
 2706000   0.72431228   -1.7941323   -1.7941323  -0.70766636   0.12237959   -1.7941323    1.0864659   439061 
 2707000   0.72373676   -1.7923112   -1.7923112  -0.70670857    0.1223341   -1.7923112    1.0856027   439061 
 2708000   0.72582195    -1.795712    -1.795712  -0.70698151   0.12340656    -1.795712    1.0887304   439061 
 2709000    0.7248094    -1.794064    -1.794064  -0.70685238   0.12260543    -1.794064    1.0872116   439061 
 2710000   0.72542206   -1.7950306   -1.7950306  -0.70689999   0.11867241   -1.7950306    1.0881306   439061 
 2711000    0.7262497   -1.7960399   -1.7960399  -0.70666779   0.12735213   -1.7960399    1.0893721   439061 
 2712000   0.72454601   -1.7933933   -1.7933933  -0.70657677   0.12403767   -1.7933933    1.0868165   439061 
 2713000   0.72470267   -1.7933376   -1.7933376  -0.70628611   0.12203844   -1.7933376    1.0870515   439061 
 2714000   0.72514354   -1.7935487   -1.7935487  -0.70583589    0.1229529   -1.7935487    1.0877128   439061 
 2715000   0.72506413   -1.7935627   -1.7935627  -0.70596899    0.1223233   -1.7935627    1.0875937   439061 
 2716000   0.72464157   -1.7933933   -1.7933933  -0.70643343   0.12335307   -1.7933933    1.0869599   439061 
 2717000   0.72557433   -1.7938718   -1.7938718  -0.70551281   0.12549376   -1.7938718     1.088359   439061 
 2718000   0.72458511   -1.7925836   -1.7925836  -0.70570842   0.12379395   -1.7925836    1.0868752   439061 
 2719000   0.72339324   -1.7910778   -1.7910778  -0.70599042     0.125238   -1.7910778    1.0850874   439061 
 2720000   0.72440704   -1.7926285   -1.7926285  -0.70602044   0.12184371   -1.7926285    1.0866081   439061 
 2721000   0.72392912   -1.7919718   -1.7919718  -0.70608058   0.12188901   -1.7919718    1.0858912   439061 
 2722000    0.7255467   -1.7944392   -1.7944392  -0.70612164     0.120851   -1.7944392    1.0883176   439061 
 2723000   0.72396869   -1.7915587   -1.7915587  -0.70560814   0.12308851   -1.7915587    1.0859506   439061 
 2724000   0.72479261   -1.7923513   -1.7923513  -0.70516486   0.12083991   -1.7923513    1.0871864   439061 
 2725000   0.72556439   -1.7932894   -1.7932894   -0.7049453   0.12212484   -1.7932894    1.0883441   439061 
 2726000   0.72511891    -1.792985    -1.792985  -0.70530911   0.12617258    -1.792985    1.0876759   439061 
 2727000   0.72459838    -1.791201    -1.791201   -0.7043059   0.12991738    -1.791201    1.0868951   439061 
 2728000   0.72488682   -1.7927239   -1.7927239  -0.70539614   0.12407738   -1.7927239    1.0873277   439061 
 2729000   0.72444393   -1.7935374   -1.7935374  -0.70687395   0.12048734   -1.7935374    1.0866634   439061 
 2730000   0.72506346   -1.7941409   -1.7941409  -0.70654815   0.12357041   -1.7941409    1.0875927   439061 
 2731000   0.72449172   -1.7922335   -1.7922335  -0.70549841   0.12468876   -1.7922335    1.0867351   439061 
 2732000   0.72361217   -1.7930217   -1.7930217  -0.70760589   0.11786987   -1.7930217    1.0854158   439061 
 2733000   0.72380055    -1.793145    -1.793145  -0.70744663   0.12418576    -1.793145    1.0856984   439061 
 2734000   0.72480033    -1.793478    -1.793478  -0.70627996   0.12228851    -1.793478     1.087198   439061 
 2735000   0.72412262   -1.7925414   -1.7925414  -0.70635991   0.12151744   -1.7925414    1.0861815   439061 
 2736000   0.72367237   -1.7921562   -1.7921562  -0.70665008   0.12550128   -1.7921562    1.0855061   439061 
 2737000   0.72421145    -1.792436    -1.792436  -0.70612129   0.12249385    -1.792436    1.0863147   439061 
 2738000   0.72489136   -1.7928957   -1.7928957  -0.70556115    0.1256335   -1.7928957    1.0873346   439061 
 2739000   0.72517871   -1.7927128   -1.7927128   -0.7049472   0.12107233   -1.7927128    1.0877656   439061 
 2740000   0.72508624   -1.7927253   -1.7927253  -0.70509842   0.12204483   -1.7927253    1.0876269   439061 
 2741000   0.72518909   -1.7929095   -1.7929095  -0.70512829   0.12294719   -1.7929095    1.0877812   439061 
 2742000   0.72499076   -1.7918126   -1.7918126   -0.7043289    0.1230042   -1.7918126    1.0874837   439061 
 2743000   0.72539498   -1.7925575   -1.7925575   -0.7044675   0.12376068   -1.7925575      1.08809   439061 
 2744000   0.72555455    -1.791552    -1.791552  -0.70322269   0.12381602    -1.791552    1.0883293   439061 
 2745000   0.72553351   -1.7925945   -1.7925945  -0.70429676   0.12257288   -1.7925945    1.0882978   439061 
 2746000   0.72529473   -1.7923639   -1.7923639  -0.70442427   0.12462483   -1.7923639    1.0879396   439061 
 2747000   0.72468442   -1.7921406   -1.7921406  -0.70511643   0.12461224   -1.7921406    1.0870242   439061 
 2748000   0.72512145    -1.793088    -1.793088  -0.70540831   0.11994252    -1.793088    1.0876797   439061 
 2749000   0.72377647   -1.7913525   -1.7913525  -0.70569023   0.12457164   -1.7913525    1.0856622   439061 
 2750000   0.72518502   -1.7934269   -1.7934269  -0.70565189   0.12100034   -1.7934269     1.087775   439061 
 2751000   0.72587668   -1.7941143   -1.7941143  -0.70530179    0.1237726   -1.7941143    1.0888125   439061 
 2752000   0.72456984    -1.792555    -1.792555  -0.70570266   0.12663132    -1.792555    1.0868523   439061 
 2753000   0.72492088   -1.7922266   -1.7922266  -0.70484773   0.12180532   -1.7922266    1.0873788   439061 
 2754000   0.72497986    -1.792551    -1.792551  -0.70508368   0.12438818    -1.792551    1.0874673   439061 
 2755000   0.72500539   -1.7924689   -1.7924689   -0.7049633   0.12089528   -1.7924689    1.0875056   439061 
 2756000   0.72598091   -1.7941211   -1.7941211  -0.70515217   0.12464961   -1.7941211    1.0889689   439061 
 2757000    0.7249347   -1.7928162   -1.7928162  -0.70541658   0.12137277   -1.7928162    1.0873996   439061 
 2758000   0.72461993   -1.7913424   -1.7913424  -0.70441502   0.12401602   -1.7913424    1.0869274   439061 
 2759000   0.72451455   -1.7908443   -1.7908443  -0.70407498   0.12616133   -1.7908443    1.0867693   439061 
 2760000   0.72583509   -1.7914897   -1.7914897  -0.70273958    0.1246462   -1.7914897    1.0887501   439061 
 2761000   0.72480207   -1.7901084   -1.7901084  -0.70290776   0.12338963   -1.7901084    1.0872006   439061 
 2762000   0.72617311   -1.7911957   -1.7911957   -0.7019385   0.12423312   -1.7911957    1.0892572   439061 
 2763000   0.72465147   -1.7898101   -1.7898101  -0.70283541   0.12162735   -1.7898101    1.0869747   439061 
 2764000   0.72462354   -1.7905272   -1.7905272  -0.70359441   0.12720697   -1.7905272    1.0869328   439061 
 2765000   0.72422134   -1.7900299   -1.7900299   -0.7037004   0.12300035   -1.7900299    1.0863295   439061 
 2766000   0.72664666   -1.7944083   -1.7944083  -0.70444082   0.12029845   -1.7944083    1.0899675   439061 
 2767000   0.72469121   -1.7921245   -1.7921245  -0.70509012   0.11988067   -1.7921245    1.0870343   439061 
 2768000   0.72459811   -1.7922817   -1.7922817  -0.70538703   0.11966103   -1.7922817    1.0868947   439061 
 2769000   0.72530399   -1.7928733   -1.7928733  -0.70491974   0.12112763   -1.7928733    1.0879535   439061 
 2770000   0.72442197   -1.7921416   -1.7921416  -0.70551108   0.12025606   -1.7921416    1.0866305   439061 
 2771000   0.72476706   -1.7926678   -1.7926678  -0.70551965   0.12269926   -1.7926678    1.0871481   439061 
 2772000   0.72349313   -1.7910281   -1.7910281  -0.70579085   0.12451314   -1.7910281    1.0852372   439061 
 2773000   0.72406172   -1.7917054   -1.7917054  -0.70561531   0.12335979   -1.7917054    1.0860901   439061 
 2774000   0.72378079   -1.7907008   -1.7907008  -0.70503211   0.12262911   -1.7907008    1.0856687   439061 
 2775000   0.72380807   -1.7904875   -1.7904875   -0.7047779    0.1218193   -1.7904875    1.0857096   439061 
 2776000   0.72332579   -1.7901543   -1.7901543  -0.70516805   0.12460437   -1.7901543    1.0849862   439061 
 2777000   0.72401012   -1.7913149   -1.7913149  -0.70530222   0.12172765   -1.7913149    1.0860127   439061 
 2778000   0.72407183   -1.7920371   -1.7920371  -0.70593186   0.12282738   -1.7920371    1.0861053   439061 
 2779000   0.72405895   -1.7915559   -1.7915559  -0.70546996   0.12295045   -1.7915559    1.0860859   439061 
 2780000   0.72537656   -1.7938281   -1.7938281  -0.70576572   0.12482584   -1.7938281    1.0880624   439061 
 2781000   0.72450474   -1.7927699   -1.7927699  -0.70601529   0.12059166   -1.7927699    1.0867546   439061 
 2782000   0.72300394   -1.7913698   -1.7913698  -0.70686631    0.1273742   -1.7913698    1.0845034   439061 
 2783000   0.72404018   -1.7937212   -1.7937212  -0.70766337   0.12027728   -1.7937212    1.0860578   439061 
 2784000     0.724603   -1.7943197   -1.7943197  -0.70741771   0.12302015   -1.7943197     1.086902   439061 
 2785000    0.7257134    -1.795836    -1.795836   -0.7072684    0.1185084    -1.795836    1.0885676   439061 
 2786000   0.72363758   -1.7932562   -1.7932562  -0.70780233   0.12386186   -1.7932562    1.0854539   439061 
 2787000   0.72457965   -1.7946078   -1.7946078  -0.70774078   0.12351465   -1.7946078     1.086867   439061 
 2788000   0.72411093   -1.7944535   -1.7944535  -0.70828955   0.12210117   -1.7944535    1.0861639   439061 
 2789000   0.72439077   -1.7943503   -1.7943503  -0.70776658   0.12151735   -1.7943503    1.0865837   439061 
 2790000   0.72369713   -1.7944181   -1.7944181  -0.70887487   0.12334557   -1.7944181    1.0855432   439061 
 2791000   0.72330296    -1.793407    -1.793407  -0.70845506    0.1228872    -1.793407     1.084952   439061 
 2792000   0.72445194   -1.7936366   -1.7936366  -0.70696113   0.12629665   -1.7936366    1.0866754   439061 
 2793000   0.72445992   -1.7941618   -1.7941618  -0.70747443   0.12345781   -1.7941618    1.0866874   439061 
 2794000   0.72371783   -1.7926507   -1.7926507  -0.70707642   0.12365636   -1.7926507    1.0855743   439061 
 2795000   0.72389618   -1.7930252   -1.7930252  -0.70718342   0.12057429   -1.7930252    1.0858418   439061 
 2796000   0.72436484   -1.7939772   -1.7939772  -0.70743243   0.12397568   -1.7939772    1.0865448   439061 
 2797000   0.72303195   -1.7922264   -1.7922264  -0.70768092   0.12374059   -1.7922264    1.0845455   439061 
 2798000    0.7243494   -1.7934816   -1.7934816  -0.70695995   0.12378563   -1.7934816    1.0865216   439061 
 2799000   0.72365413    -1.793312    -1.793312  -0.70783325   0.12241208    -1.793312    1.0854787   439061 
 2800000    0.7249261   -1.7952849   -1.7952849  -0.70789821   0.12353833   -1.7952849    1.0873867   439061 
 2801000   0.72405306   -1.7929609   -1.7929609  -0.70688375   0.12209589   -1.7929609    1.0860771   439061 
 2802000   0.72317814    -1.791957    -1.791957  -0.70719224   0.12588457    -1.791957    1.0847647   439061 
 2803000   0.72427852   -1.7935022   -1.7935022  -0.70708692    0.1202843   -1.7935022    1.0864153   439061 
 2804000    0.7236036   -1.7923878   -1.7923878  -0.70698485   0.12404822   -1.7923878    1.0854029   439061 
 2805000   0.72456498   -1.7941405   -1.7941405  -0.70729547   0.12596044   -1.7941405     1.086845   439061 
 2806000   0.72500444   -1.7953336   -1.7953336  -0.70782946   0.12129677   -1.7953336    1.0875042   439061 
 2807000   0.72500426   -1.7944635   -1.7944635  -0.70695959   0.11945212   -1.7944635    1.0875039   439061 
 2808000   0.72442529   -1.7939108   -1.7939108  -0.70727535   0.12341546   -1.7939108    1.0866355   439061 
 2809000   0.72386014   -1.7934373   -1.7934373  -0.70764957   0.12061004   -1.7934373    1.0857877   439061 
 2810000   0.72422867   -1.7932843   -1.7932843  -0.70694372   0.12134372   -1.7932843    1.0863405   439061 
 2811000   0.72465669   -1.7937303   -1.7937303  -0.70674775   0.12348408   -1.7937303    1.0869826   439061 
 2812000   0.72399893   -1.7929634   -1.7929634  -0.70696744   0.12373001   -1.7929634    1.0859959   439061 
 2813000   0.72461891   -1.7931747   -1.7931747  -0.70624883   0.12136755   -1.7931747    1.0869259   439061 
 2814000   0.72474473   -1.7927628   -1.7927628  -0.70564819   0.12305457   -1.7927628    1.0871146   439061 
 2815000   0.72372495   -1.7911155   -1.7911155  -0.70553052   0.12653382   -1.7911155     1.085585   439061 
 2816000   0.72440561   -1.7931195   -1.7931195  -0.70651352   0.12131453   -1.7931195    1.0866059   439061 
 2817000   0.72271217   -1.7905996   -1.7905996  -0.70653377   0.12151584   -1.7905996    1.0840658   439061 
 2818000   0.72440358   -1.7923371   -1.7923371  -0.70573419   0.12097724   -1.7923371    1.0866029   439061 
 2819000   0.72509599   -1.7934056   -1.7934056   -0.7057641   0.12476999   -1.7934056    1.0876415   439061 
 2820000   0.72307052   -1.7907388   -1.7907388  -0.70613552   0.11959439   -1.7907388    1.0846033   439061 
 2821000   0.72368645   -1.7915094   -1.7915094  -0.70598215   0.12034882   -1.7915094    1.0855272   439061 
 2822000    0.7237499   -1.7918818   -1.7918818  -0.70625938   0.12001666   -1.7918818    1.0856224   439061 
 2823000   0.72366822   -1.7910052   -1.7910052   -0.7055053   0.12350151   -1.7910052    1.0854999   439061 
 2824000   0.72374944   -1.7908705   -1.7908705  -0.70524886    0.1221008   -1.7908705    1.0856217   439061 
 2825000   0.72430964   -1.7918871   -1.7918871  -0.70542511   0.12354786   -1.7918871     1.086462   439061 
 2826000   0.72423461    -1.792144    -1.792144  -0.70579459   0.12341339    -1.792144    1.0863494   439061 
 2827000   0.72383087   -1.7926769   -1.7926769  -0.70693306   0.12032802   -1.7926769    1.0857438   439061 
 2828000   0.72354695   -1.7925198   -1.7925198  -0.70720183   0.12383557   -1.7925198     1.085318   439061 
 2829000    0.7239618   -1.7921207   -1.7921207  -0.70618048   0.12113265   -1.7921207    1.0859402   439061 
 2830000   0.72434534   -1.7923976   -1.7923976   -0.7058821   0.12265722   -1.7923976    1.0865155   439061 
 2831000   0.72405294   -1.7912275   -1.7912275  -0.70515057   0.12228047   -1.7912275    1.0860769   439061 
 2832000   0.72263162    -1.790265    -1.790265  -0.70632003   0.11886748    -1.790265     1.083945   439061 
 2833000     0.722683   -1.7908776   -1.7908776  -0.70685555   0.12245286   -1.7908776     1.084022   439061 
 2834000   0.72457049   -1.7929265   -1.7929265  -0.70607323   0.11995791   -1.7929265    1.0868533   439061 
 2835000   0.72315837    -1.791635    -1.791635   -0.7068999   0.12146742    -1.791635    1.0847351   439061 
 2836000   0.72319252   -1.7912341   -1.7912341  -0.70644779   0.12120392   -1.7912341    1.0847863   439061 
 2837000   0.72377964   -1.7917896   -1.7917896  -0.70612259   0.12305589   -1.7917896     1.085667   439061 
 2838000    0.7236459   -1.7918016   -1.7918016  -0.70633521   0.11946243   -1.7918016    1.0854664   439061 
 2839000   0.72270291   -1.7908134   -1.7908134  -0.70676147   0.11959853   -1.7908134    1.0840519   439061 
 2840000   0.72321556   -1.7912234   -1.7912234  -0.70640253   0.12204093   -1.7912234    1.0848209   439061 
 2841000   0.72394579   -1.7921563   -1.7921563  -0.70624008   0.12498355   -1.7921563    1.0859162   439061 
 2842000   0.72450349   -1.7931908   -1.7931908  -0.70643808   0.12494641   -1.7931908    1.0867528   439061 
 2843000   0.72415786   -1.7922888   -1.7922888  -0.70605448   0.12456141   -1.7922888    1.0862343   439061 
 2844000   0.72499408   -1.7936625   -1.7936625  -0.70617382   0.12232077   -1.7936625    1.0874886   439061 
 2845000   0.72398389   -1.7921025   -1.7921025  -0.70612913   0.12162674   -1.7921025    1.0859734   439061 
 2846000   0.72432845   -1.7922132   -1.7922132  -0.70572302   0.12154594   -1.7922132    1.0864902   439061 
 2847000   0.72453997   -1.7932099   -1.7932099  -0.70640241   0.12181642   -1.7932099    1.0868075   439061 
 2848000   0.72361389   -1.7921866   -1.7921866  -0.70676821   0.12069255   -1.7921866    1.0854184   439061 
 2849000   0.72500409   -1.7945607   -1.7945607  -0.70705704   0.12432591   -1.7945607    1.0875037   439061 
 2850000   0.72241532   -1.7914649   -1.7914649  -0.70784437    0.1229386   -1.7914649    1.0836205   439061 
 2851000   0.72433104   -1.7950025   -1.7950025  -0.70850843   0.12033234   -1.7950025    1.0864941   439061 
 2852000   0.72267569   -1.7927532   -1.7927532  -0.70874217   0.12269734   -1.7927532    1.0840111   439061 
 2853000   0.72366865   -1.7933466   -1.7933466  -0.70784614   0.12107499   -1.7933466    1.0855005   439061 
 2854000   0.72342687   -1.7943352   -1.7943352  -0.70919736   0.12345653   -1.7943352    1.0851378   439061 
 2855000   0.72245482   -1.7929532   -1.7929532  -0.70927344   0.12763984   -1.7929532    1.0836798   439061 
 2856000    0.7232376   -1.7936734   -1.7936734  -0.70881946   0.12170571   -1.7936734    1.0848539   439061 
 2857000   0.72356709   -1.7932411   -1.7932411  -0.70789292   0.11769506   -1.7932411    1.0853482   439061 
 2858000   0.72291619   -1.7918199   -1.7918199  -0.70744812   0.11978199   -1.7918199    1.0843718   439061 
 2859000    0.7233387   -1.7928867   -1.7928867  -0.70788116   0.12054166   -1.7928867    1.0850056   439061 
 2860000   0.72299848   -1.7927054   -1.7927054  -0.70821014    0.1266112   -1.7927054    1.0844953   439061 
 2861000   0.72348816   -1.7935142   -1.7935142  -0.70828448   0.12355245   -1.7935142    1.0852298   439061 
 2862000   0.72487282   -1.7938705   -1.7938705  -0.70656377   0.12196013   -1.7938705    1.0873067   439061 
 2863000   0.72459295   -1.7931549   -1.7931549  -0.70626796   0.12275814   -1.7931549    1.0868869   439061 
 2864000   0.72498667   -1.7943628   -1.7943628  -0.70688523   0.11940809   -1.7943628    1.0874775   439061 
 2865000   0.72393685   -1.7941294   -1.7941294  -0.70822664   0.12195862   -1.7941294    1.0859028   439061 
 2866000   0.72434459   -1.7939724   -1.7939724  -0.70745802    0.1210075   -1.7939724    1.0865144   439061 
 2867000   0.72454263   -1.7931765   -1.7931765  -0.70636499   0.11925771   -1.7931765    1.0868115   439061 
 2868000   0.72472462   -1.7933416   -1.7933416  -0.70625716   0.12172386   -1.7933416    1.0870845   439061 
 2869000   0.72475369   -1.7939585   -1.7939585  -0.70683043   0.12024477   -1.7939585    1.0871281   439061 
 2870000   0.72374258   -1.7926149   -1.7926149  -0.70700354   0.12285143   -1.7926149    1.0856114   439061 
 2871000   0.72437752   -1.7937374   -1.7937374  -0.70717357   0.12030502   -1.7937374    1.0865638   439061 
 2872000   0.72381733    -1.793085    -1.793085   -0.7073615   0.12122804    -1.793085    1.0857235   439061 
 2873000   0.72328811   -1.7921602   -1.7921602  -0.70723047   0.12478405   -1.7921602    1.0849297   439061 
 2874000    0.7231751   -1.7923467   -1.7923467  -0.70758651   0.12520198   -1.7923467    1.0847602   439061 
 2875000   0.72310609   -1.7926868   -1.7926868  -0.70803014   0.11949596   -1.7926868    1.0846567   439061 
 2876000   0.72415477   -1.7936561   -1.7936561  -0.70742644   0.12119291   -1.7936561    1.0862297   439061 
 2877000   0.72453806   -1.7937287   -1.7937287  -0.70692404   0.12273173   -1.7937287    1.0868046   439061 
 2878000   0.72331623   -1.7911516   -1.7911516  -0.70617973   0.12247052   -1.7911516    1.0849719   439061 
 2879000   0.72278042   -1.7917651   -1.7917651  -0.70759698   0.12619775   -1.7917651    1.0841682   439061 
 2880000   0.72526026   -1.7940293   -1.7940293  -0.70614138   0.12235897   -1.7940293    1.0878879   439061 
 2881000   0.72309735   -1.7917414   -1.7917414  -0.70709782   0.12209338   -1.7917414    1.0846435   439061 
 2882000   0.72385373   -1.7937977   -1.7937977  -0.70801954   0.12162032   -1.7937977    1.0857781   439061 
 2883000   0.72376963   -1.7937364   -1.7937364  -0.70808444   0.11894935   -1.7937364     1.085652   439061 
 2884000   0.72304632   -1.7931515   -1.7931515  -0.70858452   0.12238469   -1.7931515     1.084567   439061 
 2885000   0.72338547   -1.7926868   -1.7926868  -0.70761106   0.12068638   -1.7926868    1.0850757   439061 
 2886000    0.7230172   -1.7925775   -1.7925775  -0.70805413   0.11984579   -1.7925775    1.0845233   439061 
 2887000   0.72371615   -1.7930245   -1.7930245  -0.70745273   0.12443784   -1.7930245    1.0855718   439061 
 2888000   0.72331237    -1.791409    -1.791409  -0.70644292   0.11832369    -1.791409    1.0849661   439061 
 2889000   0.72469412   -1.7940907   -1.7940907  -0.70705198   0.12040253   -1.7940907    1.0870387   439061 
 2890000   0.72338035    -1.791702    -1.791702  -0.70663394   0.12364743    -1.791702    1.0850681   439061 
 2891000   0.72428422   -1.7938415   -1.7938415  -0.70741762   0.12094062   -1.7938415    1.0864239   439061 
 2892000   0.72362144   -1.7927442   -1.7927442  -0.70731455   0.12150977   -1.7927442    1.0854297   439061 
 2893000   0.72340818   -1.7918889   -1.7918889  -0.70677905    0.1211825   -1.7918889    1.0851098   439061 
 2894000   0.72401129   -1.7926006   -1.7926006  -0.70658614   0.12760112   -1.7926006    1.0860145   439061 
 2895000   0.72364427   -1.7926136   -1.7926136  -0.70714971   0.12335293   -1.7926136    1.0854639   439061 
 2896000   0.72381417   -1.7929411   -1.7929411  -0.70722228   0.12128788   -1.7929411    1.0857188   439061 
 2897000    0.7227402   -1.7919841   -1.7919841  -0.70787625    0.1257666   -1.7919841    1.0841078   439061 
 2898000   0.72379331   -1.7925893   -1.7925893  -0.70690186   0.12375522   -1.7925893    1.0856875   439061 
 2899000   0.72290213   -1.7920622   -1.7920622  -0.70771146   0.12158081   -1.7920622    1.0843507   439061 
 2900000   0.72339397    -1.793969    -1.793969  -0.70888056   0.11615281    -1.793969    1.0850885   439061 
 2901000   0.72275845   -1.7926398   -1.7926398  -0.70850462   0.11981961   -1.7926398    1.0841352   439061 
 2902000   0.72292533   -1.7926721   -1.7926721  -0.70828655     0.120411   -1.7926721    1.0843855   439061 
 2903000   0.72241938   -1.7924912   -1.7924912  -0.70886459   0.12032112   -1.7924912    1.0836266   439061 
 2904000   0.72350816   -1.7920809   -1.7920809  -0.70682111   0.12269696   -1.7920809    1.0852598   439061 
 2905000   0.72392905   -1.7924328   -1.7924328  -0.70654169   0.12029949   -1.7924328    1.0858911   439061 
 2906000   0.72281522   -1.7915447   -1.7915447  -0.70732431   0.12363215   -1.7915447    1.0842204   439061 
 2907000   0.72453259   -1.7941324   -1.7941324  -0.70733601   0.12244676   -1.7941324    1.0867964   439061 
 2908000   0.72403418   -1.7930314   -1.7930314  -0.70698258   0.11994627   -1.7930314    1.0860488   439061 
 2909000   0.72385506   -1.7921047   -1.7921047  -0.70632458   0.11991902   -1.7921047    1.0857801   439061 
 2910000   0.72403957   -1.7926234   -1.7926234  -0.70656653   0.12231742   -1.7926234    1.0860569   439061 
 2911000   0.72345709    -1.791093    -1.791093  -0.70590983   0.12137357    -1.791093    1.0851832   439061 
 2912000   0.72392746   -1.7918553   -1.7918553  -0.70596654   0.12134552   -1.7918553    1.0858887   439061 
 2913000   0.72357985   -1.7914503   -1.7914503  -0.70608295   0.12080338   -1.7914503    1.0853673   439061 
 2914000   0.72405765   -1.7927412   -1.7927412  -0.70665724   0.12153018   -1.7927412     1.086084   439061 
 2915000   0.72424093   -1.7923243   -1.7923243  -0.70596534   0.12221073   -1.7923243    1.0863589   439061 
 2916000   0.72385153   -1.7910385   -1.7910385  -0.70526371   0.12468217   -1.7910385    1.0857748   439061 
 2917000   0.72400743   -1.7909277   -1.7909277  -0.70491898   0.11761655   -1.7909277    1.0860087   439061 
 2918000   0.72263173   -1.7904625   -1.7904625  -0.70651738   0.12054601   -1.7904625    1.0839451   439061 
 2919000   0.72318513   -1.7910133   -1.7910133  -0.70623805   0.12341532   -1.7910133    1.0847752   439061 
 2920000    0.7241117   -1.7923682   -1.7923682  -0.70620308   0.11984562   -1.7923682    1.0861651   439061 
 2921000   0.72393153   -1.7928974   -1.7928974  -0.70700261   0.11873207   -1.7928974    1.0858948   439061 
 2922000   0.72351236    -1.792062    -1.792062  -0.70679589   0.11859478    -1.792062    1.0852661   439061 
 2923000   0.72298041   -1.7909581   -1.7909581  -0.70649001   0.12500539   -1.7909581    1.0844681   439061 
 2924000   0.72289015    -1.790843    -1.790843  -0.70651023   0.12327454    -1.790843    1.0843328   439061 
 2925000    0.7230778   -1.7915004   -1.7915004  -0.70688621   0.11956812   -1.7915004    1.0846142   439061 
 2926000   0.72289342   -1.7913169   -1.7913169  -0.70697921   0.11967576   -1.7913169    1.0843377   439061 
 2927000   0.72322472   -1.7919472   -1.7919472  -0.70711257   0.12405432   -1.7919472    1.0848346   439061 
 2928000   0.72355417   -1.7914371   -1.7914371  -0.70610832   0.12297064   -1.7914371    1.0853288   439061 
 2929000   0.72285244   -1.7908166   -1.7908166  -0.70654041   0.12128283   -1.7908166    1.0842762   439061 
 2930000   0.72329559   -1.7907927   -1.7907927  -0.70585182   0.12276296   -1.7907927    1.0849409   439061 
 2931000   0.72434277   -1.7924303   -1.7924303  -0.70591863   0.11968391   -1.7924303    1.0865117   439061 
 2932000   0.72341506    -1.790385    -1.790385  -0.70526484   0.12043853    -1.790385    1.0851201   439061 
 2933000   0.72282238    -1.789738    -1.789738  -0.70550687      0.12147    -1.789738    1.0842311   439061 
 2934000   0.72306556   -1.7914414   -1.7914414   -0.7068455    0.1177776   -1.7914414    1.0845959   439061 
 2935000   0.72306167   -1.7910019   -1.7910019  -0.70641188   0.11817871   -1.7910019      1.08459   439061 
 2936000   0.72453668   -1.7935606   -1.7935606  -0.70675811   0.12240965   -1.7935606    1.0868025   439061 
 2937000   0.72308712    -1.791537    -1.791537  -0.70690877   0.12035862    -1.791537    1.0846282   439061 
 2938000   0.72290494   -1.7915455   -1.7915455  -0.70719059    0.1197629   -1.7915455    1.0843549   439061 
 2939000   0.72304911    -1.792474    -1.792474   -0.7079028   0.12264359    -1.792474    1.0845712   439061 
 2940000   0.72381466   -1.7927891   -1.7927891  -0.70706959   0.12130833   -1.7927891    1.0857195   439061 
 2941000   0.72353673    -1.792475    -1.792475  -0.70717233   0.12109679    -1.792475    1.0853026   439061 
 2942000   0.72345051   -1.7926474   -1.7926474  -0.70747409   0.12480404   -1.7926474    1.0851733   439061 
 2943000   0.72239446    -1.791468    -1.791468  -0.70787882   0.12208314    -1.791468    1.0835892   439061 
 2944000   0.72334612    -1.792721    -1.792721   -0.7077043   0.11989117    -1.792721    1.0850167   439061 
 2945000   0.72352804   -1.7931675   -1.7931675  -0.70787793   0.12045448   -1.7931675    1.0852896   439061 
 2946000   0.72434982   -1.7939752   -1.7939752  -0.70745293   0.12091024   -1.7939752    1.0865223   439061 
 2947000   0.72231367   -1.7910281   -1.7910281  -0.70756009   0.12135695   -1.7910281     1.083468   439061 
 2948000   0.72279501   -1.7922399   -1.7922399   -0.7080499   0.12019756   -1.7922399      1.08419   439061 
 2949000    0.7239889   -1.7943945   -1.7943945  -0.70841358    0.1190688   -1.7943945    1.0859809   439061 
 2950000   0.72459535   -1.7950891   -1.7950891  -0.70819851   0.12132477   -1.7950891    1.0868905   439061 
 2951000   0.72234633   -1.7928785   -1.7928785   -0.7093615   0.11830471   -1.7928785     1.083517   439061 
 2952000   0.72320245   -1.7944302   -1.7944302  -0.70962898   0.12015916   -1.7944302    1.0848012   439061 
 2953000   0.72367314   -1.7945153   -1.7945153   -0.7090081   0.11833242   -1.7945153    1.0855072   439061 
 2954000   0.72260891   -1.7926534   -1.7926534   -0.7087425   0.11941681   -1.7926534    1.0839109   439061 
 2955000   0.72175884   -1.7920994   -1.7920994  -0.70946355   0.12280708   -1.7920994    1.0826358   439061 
 2956000   0.72157217   -1.7913441   -1.7913441  -0.70898832   0.12111879   -1.7913441    1.0823558   439061 
 2957000    0.7231573   -1.7930871   -1.7930871  -0.70835357   0.11774559   -1.7930871    1.0847335   439061 
 2958000   0.72212831   -1.7916274   -1.7916274  -0.70843743   0.12046401   -1.7916274      1.08319   439061 
 2959000   0.72166695   -1.7910047   -1.7910047  -0.70850678    0.1234579   -1.7910047     1.082498   439061 
 2960000   0.72266909   -1.7926287   -1.7926287  -0.70862752   0.12112278   -1.7926287    1.0840012   439061 
 2961000   0.72241423   -1.7915998   -1.7915998  -0.70798097   0.12076099   -1.7915998    1.0836189   439061 
 2962000   0.72209504   -1.7907405   -1.7907405  -0.70760044   0.11961513   -1.7907405    1.0831401   439061 
 2963000   0.72412383   -1.7927685   -1.7927685  -0.70658527   0.12348364   -1.7927685    1.0861833   439061 
 2964000   0.72424117   -1.7928821   -1.7928821  -0.70652284   0.11973396   -1.7928821    1.0863593   439061 
 2965000   0.72325599   -1.7918912   -1.7918912  -0.70700968   0.12339011   -1.7918912    1.0848815   439061 
 2966000   0.72380566   -1.7919242   -1.7919242  -0.70621815   0.12090196   -1.7919242     1.085706   439061 
 2967000   0.72429817   -1.7912955   -1.7912955  -0.70485077    0.1224723   -1.7912955    1.0864448   439061 
 2968000    0.7229663   -1.7903947   -1.7903947  -0.70594768   0.12124808   -1.7903947     1.084447   439061 
 2969000   0.72297797   -1.7901662   -1.7901662  -0.70570171   0.12204933   -1.7901662    1.0844645   439061 
 2970000   0.72353986   -1.7915151   -1.7915151  -0.70620774   0.11975341   -1.7915151    1.0853073   439061 
 2971000   0.72354778   -1.7918604   -1.7918604  -0.70654125   0.12434413   -1.7918604    1.0853192   439061 
 2972000    0.7229542   -1.7906655   -1.7906655  -0.70623663   0.12167378   -1.7906655    1.0844288   439061 
 2973000   0.72340428   -1.7922767   -1.7922767  -0.70717279   0.12509192   -1.7922767    1.0851039   439061 
 2974000    0.7229283   -1.7926788   -1.7926788  -0.70828879   0.12125866   -1.7926788      1.08439   439061 
 2975000   0.72211292   -1.7917952   -1.7917952  -0.70862826    0.1207919   -1.7917952    1.0831669   439061 
 2976000   0.72267577   -1.7919855   -1.7919855   -0.7079743   0.12011386   -1.7919855    1.0840112   439061 
 2977000   0.72272023   -1.7925957   -1.7925957  -0.70851779   0.12030888   -1.7925957    1.0840779   439061 
 2978000    0.7229494   -1.7930938   -1.7930938  -0.70867218   0.12158498   -1.7930938    1.0844216   439061 
 2979000   0.72306745   -1.7921166   -1.7921166  -0.70751791   0.12284087   -1.7921166    1.0845987   439061 
 2980000   0.72282823   -1.7912924   -1.7912924  -0.70705248   0.12186116   -1.7912924    1.0842399   439061 
 2981000   0.72333451   -1.7921794   -1.7921794  -0.70718008    0.1209485   -1.7921794    1.0849993   439061 
 2982000   0.72256178   -1.7924967   -1.7924967  -0.70865651   0.12301296   -1.7924967    1.0838402   439061 
 2983000   0.72336066   -1.7938519   -1.7938519   -0.7088134   0.12149589   -1.7938519    1.0850385   439061 
 2984000   0.72168091   -1.7916671   -1.7916671  -0.70914822   0.12226564   -1.7916671    1.0825189   439061 
 2985000   0.72149324   -1.7924728   -1.7924728  -0.71023544    0.1188114   -1.7924728    1.0822374   439061 
 2986000   0.72171077   -1.7916338   -1.7916338  -0.70907006    0.1224536   -1.7916338    1.0825637   439061 
 2987000   0.72205171   -1.7921004   -1.7921004  -0.70902527   0.11697703   -1.7921004    1.0830751   439061 
 2988000   0.72142521   -1.7916095   -1.7916095  -0.70947417   0.12154984   -1.7916095    1.0821353   439061 
 2989000   0.72248194   -1.7933251   -1.7933251  -0.70960463   0.11817327   -1.7933251    1.0837204   439061 
 2990000   0.72237938   -1.7936155   -1.7936155  -0.71004888   0.12227634   -1.7936155    1.0835666   439061 
 2991000   0.72210031   -1.7927705   -1.7927705  -0.70962255   0.11768891   -1.7927705     1.083148   439061 
 2992000   0.72281973   -1.7936481   -1.7936481  -0.70942093   0.11703599   -1.7936481    1.0842271   439061 
 2993000   0.72349622   -1.7946487   -1.7946487  -0.70940687   0.11575864   -1.7946487    1.0852419   439061 
 2994000   0.72309855   -1.7940576   -1.7940576  -0.70941227   0.12026684   -1.7940576    1.0846454   439061 
 2995000   0.72369495   -1.7937283   -1.7937283  -0.70818833    0.1203263   -1.7937283      1.08554   439061 
 2996000   0.72299024   -1.7938084   -1.7938084   -0.7093255   0.11763801   -1.7938084    1.0844829   439061 
 2997000   0.72358397   -1.7944297   -1.7944297  -0.70905618   0.11818795   -1.7944297    1.0853735   439061 
 2998000   0.72272948   -1.7924085   -1.7924085  -0.70831671   0.12330668   -1.7924085    1.0840917   439061 
 2999000   0.72230308    -1.792877    -1.792877  -0.70942482   0.12210914    -1.792877    1.0834522   439061 
 3000000   0.72258134   -1.7929884   -1.7929884  -0.70911891   0.11789441   -1.7929884    1.0838695   439061 
 3001000   0.72427956   -1.7952117   -1.7952117  -0.70879483     0.120027   -1.7952117    1.0864169   439061 
 3002000   0.72201354   -1.7929896   -1.7929896  -0.70997174   0.11964509   -1.7929896    1.0830178   439061 
 3003000    0.7218884   -1.7923594   -1.7923594  -0.70952923   0.12085059   -1.7923594    1.0828301   439061 
 3004000    0.7230489   -1.7938224   -1.7938224  -0.70925154   0.11810533   -1.7938224    1.0845709   439061 
 3005000   0.72284887   -1.7940702   -1.7940702  -0.70979937   0.11723744   -1.7940702    1.0842708   439061 
 3006000   0.72220253   -1.7935983   -1.7935983  -0.71029702   0.11699795   -1.7935983    1.0833013   439061 
 3007000   0.72198394   -1.7929802   -1.7929802  -0.71000676   0.12409075   -1.7929802    1.0829734   439061 
 3008000   0.72378747   -1.7964517   -1.7964517    -0.710773   0.12141522   -1.7964517    1.0856787   439061 
 3009000   0.72239873   -1.7944415   -1.7944415  -0.71084586   0.12000699   -1.7944415    1.0835956   439061 
 3010000    0.7227455   -1.7948763   -1.7948763  -0.71076055   0.12327626   -1.7948763    1.0841158   439061 
 3011000    0.7214226   -1.7936447   -1.7936447  -0.71151324    0.1214653   -1.7936447    1.0821314   439061 
 3012000   0.72145151   -1.7929023   -1.7929023  -0.71072749   0.12199125   -1.7929023    1.0821748   439061 
 3013000   0.72276724   -1.7948365   -1.7948365  -0.71068816   0.12162003   -1.7948365    1.0841484   439061 
 3014000   0.72240898   -1.7940562   -1.7940562   -0.7104452    0.1226119   -1.7940562     1.083611   439061 
 3015000   0.72104367    -1.791936    -1.791936  -0.71037294   0.11982168    -1.791936     1.081563   439061 
 3016000   0.72170114   -1.7939388   -1.7939388  -0.71138952   0.12049375   -1.7939388    1.0825493   439061 
 3017000   0.72076602   -1.7927446   -1.7927446  -0.71159807   0.12216093   -1.7927446    1.0811466   439061 
 3018000   0.72228038   -1.7945728   -1.7945728   -0.7111547    0.1164061   -1.7945728    1.0834181   439061 
 3019000    0.7216187   -1.7930935   -1.7930935  -0.71066793   0.12178712   -1.7930935    1.0824256   439061 
 3020000   0.72192357   -1.7934423   -1.7934423  -0.71055936   0.12211693   -1.7934423    1.0828829   439061 
 3021000   0.72083997   -1.7916108   -1.7916108   -0.7103533   0.12304865   -1.7916108    1.0812575   439061 
 3022000   0.72364329    -1.795084    -1.795084  -0.70962155   0.12159591    -1.795084    1.0854625   439061 
 3023000   0.72221475   -1.7929218   -1.7929218  -0.70960216   0.12393867   -1.7929218    1.0833197   439061 
 3024000    0.7220662   -1.7934972   -1.7934972  -0.71040041   0.12220253   -1.7934972    1.0830968   439061 
 3025000   0.72280023   -1.7943538   -1.7943538  -0.71015589   0.11864537   -1.7943538    1.0841979   439061 
 3026000   0.72317133   -1.7960417   -1.7960417  -0.71128721   0.11793265   -1.7960417    1.0847545   439061 
 3027000    0.7220553   -1.7933057   -1.7933057  -0.71022522   0.11938288   -1.7933057    1.0830805   439061 
 3028000   0.72259718   -1.7941184   -1.7941184  -0.71022507   0.11712441   -1.7941184    1.0838933   439061 
 3029000   0.72143184   -1.7933161   -1.7933161  -0.71117085   0.12017545   -1.7933161    1.0821453   439061 
 3030000   0.72193326   -1.7934938   -1.7934938  -0.71059637   0.11748595   -1.7934938    1.0828974   439061 
 3031000    0.7217783    -1.793072    -1.793072  -0.71040701   0.12117636    -1.793072     1.082665   439061 
 3032000   0.72059766   -1.7905094   -1.7905094   -0.7096154   0.11975408   -1.7905094     1.080894   439061 
 3033000   0.72226368     -1.79304     -1.79304  -0.70964691   0.12243632     -1.79304     1.083393   439061 
 3034000   0.72186074   -1.7927246   -1.7927246  -0.70993595   0.11834653   -1.7927246    1.0827886   439061 
 3035000   0.72227279    -1.794833    -1.794833  -0.71142625   0.11926369    -1.794833    1.0834067   439061 
 3036000   0.72080541   -1.7923952   -1.7923952  -0.71118954    0.1134772   -1.7923952    1.0812057   439061 
 3037000   0.72229767   -1.7941305   -1.7941305   -0.7106865    0.1198564   -1.7941305     1.083444   439061 
 3038000   0.72139184   -1.7924451   -1.7924451  -0.71035977   0.12726645   -1.7924451    1.0820853   439061 
 3039000     0.721643   -1.7927457   -1.7927457  -0.71028365   0.12014803   -1.7927457     1.082462   439061 
 3040000   0.72122527   -1.7926898   -1.7926898  -0.71085438   0.11678884   -1.7926898    1.0818354   439061 
 3041000   0.72275126   -1.7947585   -1.7947585  -0.71063411   0.11708263   -1.7947585    1.0841244   439061 
 3042000   0.72202356   -1.7939954   -1.7939954  -0.71096253   0.12072434   -1.7939954    1.0830329   439061 
 3043000   0.72277387    -1.794204    -1.794204  -0.71004572   0.11915965    -1.794204    1.0841583   439061 
 3044000   0.72178756   -1.7929869   -1.7929869  -0.71030803   0.11950616   -1.7929869    1.0826789   439061 
 3045000   0.72249702   -1.7951934   -1.7951934   -0.7114503   0.12047365   -1.7951934    1.0837431   439061 
 3046000   0.72236069   -1.7945356   -1.7945356  -0.71099701    0.1209278   -1.7945356    1.0835386   439061 
 3047000   0.72204359   -1.7948259   -1.7948259  -0.71176303   0.12163979   -1.7948259    1.0830629   439061 
 3048000   0.72167348   -1.7940948   -1.7940948  -0.71158703   0.12119421   -1.7940948    1.0825077   439061 
 3049000   0.72163913   -1.7940216   -1.7940216  -0.71156533   0.12229568   -1.7940216    1.0824562   439061 
 3050000   0.72181156   -1.7949486   -1.7949486  -0.71223368    0.1198476   -1.7949486    1.0827149   439061 
 3051000   0.72232203   -1.7961952   -1.7961952  -0.71271461   0.11755772   -1.7961952    1.0834806   439061 
 3052000   0.72142318    -1.794192    -1.794192  -0.71205968   0.12327275    -1.794192    1.0821323   439061 
 3053000   0.72106443   -1.7929631   -1.7929631  -0.71136894   0.12678876   -1.7929631    1.0815942   439061 
 3054000   0.72111989   -1.7934882   -1.7934882  -0.71181086   0.12047241   -1.7934882    1.0816774   439061 
 3055000   0.72202556   -1.7943177   -1.7943177  -0.71128187   0.12030365   -1.7943177    1.0830359   439061 
 3056000   0.72264041   -1.7945031   -1.7945031    -0.710545   0.11865434   -1.7945031    1.0839581   439061 
 3057000   0.72298452   -1.7957592   -1.7957592  -0.71128487   0.11938759   -1.7957592    1.0844743   439061 
 3058000   0.72234456   -1.7940414   -1.7940414  -0.71052702   0.12137204   -1.7940414    1.0835144   439061 
 3059000   0.72200135   -1.7936725   -1.7936725  -0.71067292   0.11936362   -1.7936725    1.0829996   439061 
 3060000   0.72107684   -1.7926946   -1.7926946  -0.71108177   0.12343726   -1.7926946    1.0816128   439061 
 3061000   0.72265235   -1.7939074   -1.7939074  -0.70993136   0.12060583   -1.7939074    1.0839761   439061 
 3062000   0.72193679   -1.7932653   -1.7932653  -0.71036256   0.11834588   -1.7932653    1.0829027   439061 
 3063000    0.7221793   -1.7947545   -1.7947545  -0.71148807   0.11888463   -1.7947545    1.0832665   439061 
 3064000   0.72099721   -1.7928593   -1.7928593  -0.71136593    0.1170276   -1.7928593    1.0814934   439061 
 3065000   0.72175301   -1.7943025   -1.7943025  -0.71167545   0.12036896   -1.7943025    1.0826271   439061 
 3066000   0.72160349    -1.793792    -1.793792  -0.71138927   0.12187952    -1.793792    1.0824028   439061 
 3067000   0.72193176   -1.7934588   -1.7934588  -0.71056362   0.11916893   -1.7934588    1.0828952   439061 
 3068000   0.72300296   -1.7945197   -1.7945197  -0.71001776   0.11563096   -1.7945197     1.084502   439061 
 3069000   0.72281301   -1.7944174   -1.7944174  -0.71020036   0.12134719   -1.7944174     1.084217   439061 
 3070000   0.72360881   -1.7951365   -1.7951365  -0.70972574   0.11769224   -1.7951365    1.0854107   439061 
 3071000   0.72223325   -1.7929516   -1.7929516  -0.70960418   0.11730864   -1.7929516    1.0833474   439061 
 3072000   0.72120479    -1.792825    -1.792825   -0.7110203   0.12097834    -1.792825    1.0818047   439061 
 3073000   0.72149462   -1.7933819   -1.7933819  -0.71114244   0.12200581   -1.7933819    1.0822395   439061 
 3074000     0.722412   -1.7946319   -1.7946319  -0.71101633   0.11916975   -1.7946319    1.0836155   439061 
 3075000   0.72338649   -1.7952936   -1.7952936  -0.71021636   0.11830566   -1.7952936    1.0850773   439061 
 3076000   0.72163518   -1.7932694   -1.7932694  -0.71081905   0.12131407   -1.7932694    1.0824503   439061 
 3077000   0.72172213   -1.7942505   -1.7942505  -0.71166975    0.1226855   -1.7942505    1.0825807   439061 
 3078000   0.72214227   -1.7954384   -1.7954384  -0.71222744   0.11688585   -1.7954384    1.0832109   439061 
 3079000    0.7215928   -1.7934178   -1.7934178  -0.71103104   0.12160571   -1.7934178    1.0823867   439061 
 3080000   0.72092722   -1.7923704   -1.7923704    -0.710982   0.11824291   -1.7923704    1.0813884   439061 
 3081000   0.72121783    -1.793625    -1.793625  -0.71180071     0.118475    -1.793625    1.0818243   439061 
 3082000   0.72185951    -1.794094    -1.794094   -0.7113072   0.11882883    -1.794094    1.0827868   439061 
 3083000   0.72182079    -1.793862    -1.793862   -0.7111333   0.11820308    -1.793862    1.0827287   439061 
 3084000   0.72172732   -1.7942533   -1.7942533  -0.71166473   0.11769845   -1.7942533    1.0825885   439061 
 3085000   0.72132078   -1.7928446   -1.7928446  -0.71086592   0.12127867   -1.7928446    1.0819787   439061 
 3086000   0.72183809   -1.7946797   -1.7946797  -0.71192507   0.11658119   -1.7946797    1.0827547   439061 
 3087000   0.72176603   -1.7937765   -1.7937765  -0.71112996   0.11996882   -1.7937765    1.0826466   439061 
 3088000   0.72191386   -1.7935996   -1.7935996  -0.71073127   0.11723439   -1.7935996    1.0828683   439061 
 3089000   0.72098277   -1.7928892   -1.7928892  -0.71141755   0.11897123   -1.7928892    1.0814717   439061 
 3090000   0.72319352   -1.7955412   -1.7955412  -0.71075342   0.12019414   -1.7955412    1.0847878   439061 
 3091000   0.72212231    -1.792806    -1.792806  -0.70962496   0.11984516    -1.792806     1.083181   439061 
 3092000   0.72136309   -1.7919327   -1.7919327  -0.70989055   0.12007916   -1.7919327    1.0820422   439061 
 3093000   0.72221671   -1.7940573   -1.7940573  -0.71073471   0.11904254   -1.7940573    1.0833226   439061 
 3094000   0.72272644   -1.7941701   -1.7941701  -0.71008291   0.11961717   -1.7941701    1.0840872   439061 
 3095000   0.72207765   -1.7926159   -1.7926159  -0.70950185   0.12331704   -1.7926159     1.083114   439061 
 3096000   0.72278602   -1.7934936   -1.7934936  -0.70931704   0.11677329   -1.7934936    1.0841766   439061 
 3097000   0.72328907    -1.794555    -1.794555  -0.70962382   0.12034051    -1.794555    1.0849311   439061 
 3098000   0.72276775   -1.7937004   -1.7937004   -0.7095512   0.12471664   -1.7937004    1.0841492   439061 
 3099000   0.72150833   -1.7915972   -1.7915972  -0.70933719   0.12354824   -1.7915972      1.08226   439061 
 3100000   0.72119105   -1.7921621   -1.7921621  -0.71037796   0.12172429   -1.7921621    1.0817841   439061 
 3101000   0.72236735   -1.7941026   -1.7941026    -0.710554   0.12063905   -1.7941026    1.0835486   439061 
 3102000   0.72249894   -1.7945863   -1.7945863  -0.71084038   0.12000124   -1.7945863    1.0837459   439061 
 3103000   0.72224842   -1.7951537   -1.7951537  -0.71178348    0.1179861   -1.7951537    1.0833702   439061 
 3104000   0.72004594   -1.7934135   -1.7934135  -0.71334701   0.11898068   -1.7934135    1.0800664   439061 
 3105000   0.72096005   -1.7937943   -1.7937943  -0.71235669   0.11846954   -1.7937943    1.0814376   439061 
 3106000   0.72212913   -1.7953639   -1.7953639  -0.71217262   0.11819836   -1.7953639    1.0831912   439061 
 3107000   0.72090137   -1.7931998   -1.7931998  -0.71185021   0.12102722   -1.7931998    1.0813496   439061 
 3108000   0.72070406   -1.7929694   -1.7929694  -0.71191575   0.11954313   -1.7929694    1.0810536   439061 
 3109000   0.71975551   -1.7931073   -1.7931073  -0.71347647   0.12038008   -1.7931073    1.0796308   439061 
 3110000   0.72002712    -1.792522    -1.792522  -0.71248379   0.12277113    -1.792522    1.0800382   439061 
 3111000   0.72131947   -1.7929792   -1.7929792  -0.71100244   0.11756512   -1.7929792    1.0819767   439061 
 3112000   0.71969848   -1.7911855   -1.7911855  -0.71164023   0.11939287   -1.7911855    1.0795453   439061 
 3113000   0.72087998   -1.7928109   -1.7928109  -0.71149344   0.11929871   -1.7928109    1.0813175   439061 
 3114000   0.72080023   -1.7932667   -1.7932667  -0.71206879      0.11644   -1.7932667    1.0811979   439061 
 3115000   0.72127862   -1.7934069   -1.7934069  -0.71149144   0.11897186   -1.7934069    1.0819155   439061 
 3116000   0.72059052   -1.7922632   -1.7922632  -0.71137987   0.11938455   -1.7922632    1.0808833   439061 
 3117000   0.72106695   -1.7931593   -1.7931593   -0.7115613   0.11732179   -1.7931593     1.081598   439061 
 3118000   0.72104147   -1.7932007   -1.7932007  -0.71164092    0.1148848   -1.7932007    1.0815597   439061 
 3119000   0.72171944   -1.7942584   -1.7942584  -0.71168168   0.11506674   -1.7942584    1.0825767   439061 
 3120000   0.72252119   -1.7945232   -1.7945232  -0.71074393   0.11718064   -1.7945232    1.0837793   439061 
 3121000   0.72199356    -1.793051    -1.793051  -0.71006316   0.12178488    -1.793051    1.0829879   439061 
 3122000   0.72175197   -1.7926458   -1.7926458  -0.71002029   0.11972357   -1.7926458    1.0826255   439061 
 3123000   0.72218384   -1.7936493   -1.7936493  -0.71037605   0.11919384   -1.7936493    1.0832733   439061 
 3124000   0.72177424   -1.7927697   -1.7927697  -0.71011083    0.1192363   -1.7927697    1.0826589   439061 
 3125000   0.72170572   -1.7925886   -1.7925886  -0.71003247   0.12253301   -1.7925886    1.0825561   439061 
 3126000   0.72193707   -1.7929787   -1.7929787  -0.71007556   0.11839226   -1.7929787    1.0829031   439061 
 3127000   0.72245906   -1.7944999   -1.7944999  -0.71081376   0.11869061   -1.7944999    1.0836861   439061 
 3128000   0.72193582   -1.7921701   -1.7921701  -0.70926884   0.11919378   -1.7921701    1.0829013   439061 
 3129000   0.72170099    -1.792477    -1.792477  -0.70992794   0.11595066    -1.792477     1.082549   439061 
 3130000   0.72223224   -1.7933422   -1.7933422  -0.70999627   0.12034729   -1.7933422    1.0833459   439061 
 3131000   0.72179459   -1.7929679   -1.7929679  -0.71027847   0.11645193   -1.7929679    1.0826894   439061 
 3132000   0.72114393    -1.791238    -1.791238  -0.70952458   0.11906103    -1.791238    1.0817134   439061 
 3133000    0.7228908   -1.7940639   -1.7940639  -0.70973017   0.11797033   -1.7940639    1.0843337   439061 
 3134000   0.72131423   -1.7912252   -1.7912252  -0.70925629   0.12029448   -1.7912252    1.0819689   439061 
 3135000   0.72228179   -1.7925296   -1.7925296  -0.70910936    0.1224856   -1.7925296    1.0834202   439061 
 3136000   0.72163233   -1.7915548   -1.7915548  -0.70910878   0.11973898   -1.7915548     1.082446   439061 
 3137000    0.7218394   -1.7916763   -1.7916763  -0.70891968   0.11955714   -1.7916763    1.0827566   439061 
 3138000   0.72201196   -1.7918673   -1.7918673  -0.70885181   0.11588248   -1.7918673    1.0830155   439061 
 3139000   0.72183571   -1.7919413   -1.7919413  -0.70919024   0.11981931   -1.7919413    1.0827511   439061 
 3140000   0.72101707   -1.7919282   -1.7919282  -0.71040508   0.11873952   -1.7919282    1.0815231   439061 
 3141000   0.72223122   -1.7935985   -1.7935985   -0.7102541   0.12323699   -1.7935985    1.0833444   439061 
 3142000   0.72129023   -1.7917294   -1.7917294  -0.70979647   0.12177689   -1.7917294    1.0819329   439061 
 3143000   0.72102284   -1.7915905   -1.7915905   -0.7100587   0.11438389   -1.7915905    1.0815318   439061 
 3144000   0.72165963   -1.7916749   -1.7916749  -0.70918793   0.11884404   -1.7916749     1.082487   439061 
 3145000   0.72055576   -1.7909721   -1.7909721  -0.71014092   0.11855332   -1.7909721    1.0808312   439061 
 3146000   0.72202537    -1.791143    -1.791143  -0.70810738   0.12076448    -1.791143    1.0830356   439061 
 3147000   0.72012984   -1.7898944   -1.7898944  -0.70970216   0.11930546   -1.7898944    1.0801923   439061 
 3148000   0.72175836   -1.7911015   -1.7911015  -0.70846646   0.11913157   -1.7911015    1.0826351   439061 
 3149000   0.72190249   -1.7912653   -1.7912653  -0.70841399   0.12060644   -1.7912653    1.0828513   439061 
 3150000    0.7208551   -1.7908574   -1.7908574   -0.7095772    0.1170285   -1.7908574    1.0812802   439061 
 3151000   0.72096536   -1.7918346   -1.7918346  -0.71038899   0.11870536   -1.7918346    1.0814456   439061 
 3152000    0.7216176   -1.7930467   -1.7930467  -0.71062279   0.11689291   -1.7930467    1.0824239   439061 
 3153000   0.72152754    -1.792672    -1.792672  -0.71038315   0.11603131    -1.792672    1.0822888   439061 
 3154000   0.72233964   -1.7935059   -1.7935059  -0.70999895   0.11830761   -1.7935059     1.083507   439061 
 3155000   0.72177732   -1.7929378   -1.7929378  -0.71027431   0.11777874   -1.7929378    1.0826635   439061 
 3156000   0.72086681   -1.7920769   -1.7920769  -0.71077917   0.11841628   -1.7920769    1.0812978   439061 
 3157000   0.72077845   -1.7917064   -1.7917064  -0.71054114   0.12155463   -1.7917064    1.0811652   439061 
 3158000    0.7212888   -1.7936091   -1.7936091  -0.71167841     0.116547   -1.7936091    1.0819307   439061 
 3159000   0.72065541   -1.7921203   -1.7921203  -0.71113962   0.11904901   -1.7921203    1.0809807   439061 
 3160000   0.72184387   -1.7934862   -1.7934862   -0.7107229   0.11894681   -1.7934862    1.0827633   439061 
 3161000   0.72157486   -1.7937236   -1.7937236  -0.71136379   0.11559254   -1.7937236    1.0823598   439061 
 3162000   0.72086037   -1.7930968   -1.7930968   -0.7118087   0.11884639   -1.7930968    1.0812881   439061 
 3163000   0.72162354   -1.7942792   -1.7942792  -0.71184641   0.12141223   -1.7942792    1.0824328   439061 
 3164000   0.72085478   -1.7931783   -1.7931783  -0.71189862    0.1189439   -1.7931783    1.0812797   439061 
 3165000   0.72157958   -1.7930672   -1.7930672  -0.71070031   0.11954874   -1.7930672    1.0823669   439061 
 3166000   0.72108446   -1.7922627   -1.7922627  -0.71063847   0.11753339   -1.7922627    1.0816242   439061 
 3167000   0.72227012   -1.7938981   -1.7938981  -0.71049543    0.1209292   -1.7938981    1.0834027   439061 
 3168000   0.72069808   -1.7920225   -1.7920225  -0.71097781   0.11817913   -1.7920225    1.0810447   439061 
 3169000   0.72100648   -1.7926721   -1.7926721  -0.71116486   0.12085463   -1.7926721    1.0815073   439061 
 3170000   0.72256108   -1.7956432   -1.7956432  -0.71180404   0.11880451   -1.7956432    1.0838392   439061 
 3171000   0.72198041   -1.7944703   -1.7944703  -0.71150219   0.11946679   -1.7944703    1.0829681   439061 
 3172000   0.72178693   -1.7942711   -1.7942711   -0.7115932   0.11896329   -1.7942711    1.0826779   439061 
 3173000   0.72114605   -1.7940165   -1.7940165  -0.71229992   0.11954847   -1.7940165    1.0817166   439061 
 3174000   0.72066568   -1.7937521   -1.7937521  -0.71275601   0.11819222   -1.7937521    1.0809961   439061 
 3175000   0.71964246   -1.7927493   -1.7927493  -0.71328807   0.11702944   -1.7927493    1.0794612   439061 
 3176000   0.72087308   -1.7940683   -1.7940683  -0.71276114   0.11477782   -1.7940683    1.0813072   439061 
 3177000   0.72123725   -1.7937028   -1.7937028  -0.71184938   0.12071753   -1.7937028    1.0818534   439061 
 3178000   0.72110009   -1.7943753   -1.7943753  -0.71272765   0.11669125   -1.7943753    1.0816477   439061 
 3179000     0.720978   -1.7938762   -1.7938762  -0.71241166   0.11760895   -1.7938762    1.0814645   439061 
 3180000   0.72088032   -1.7932023   -1.7932023  -0.71188426   0.12120494   -1.7932023     1.081318   439061 
 3181000    0.7215231   -1.7945777   -1.7945777  -0.71229553   0.11664266   -1.7945777    1.0822822   439061 
 3182000   0.72118592   -1.7945794   -1.7945794    -0.712803   0.11882526   -1.7945794    1.0817764   439061 
 3183000   0.71964412   -1.7926327   -1.7926327  -0.71316896   0.12140773   -1.7926327    1.0794637   439061 
 3184000   0.72081344   -1.7942288   -1.7942288  -0.71301107   0.11593194   -1.7942288    1.0812177   439061 
 3185000   0.72099429   -1.7947548   -1.7947548  -0.71326584   0.11707022   -1.7947548     1.081489   439061 
 3186000   0.72050701   -1.7932037   -1.7932037  -0.71244568   0.11767225   -1.7932037    1.0807581   439061 
 3187000   0.72092917   -1.7925619   -1.7925619  -0.71117064   0.11693947   -1.7925619    1.0813913   439061 
 3188000   0.72115309   -1.7929577   -1.7929577  -0.71123051   0.11910057   -1.7929577    1.0817272   439061 
 3189000   0.72116074   -1.7929915   -1.7929915   -0.7112528   0.11913753   -1.7929915    1.0817387   439061 
 3190000   0.72038063   -1.7931337   -1.7931337  -0.71256519   0.11932302   -1.7931337    1.0805685   439061 
 3191000   0.71968998   -1.7925317   -1.7925317  -0.71299922   0.11874492   -1.7925317    1.0795325   439061 
 3192000   0.72182815   -1.7952769   -1.7952769  -0.71253719   0.11869549   -1.7952769    1.0827398   439061 
 3193000   0.72093401   -1.7927437   -1.7927437  -0.71134513   0.11751577   -1.7927437    1.0813986   439061 
 3194000     0.720896   -1.7936409   -1.7936409  -0.71229936   0.11861174   -1.7936409    1.0813415   439061 
 3195000   0.72164916   -1.7943324   -1.7943324  -0.71186112   0.11418212   -1.7943324    1.0824713   439061 
 3196000   0.72050842   -1.7924004   -1.7924004  -0.71164019   0.11851541   -1.7924004    1.0807602   439061 
 3197000    0.7207381   -1.7920337   -1.7920337  -0.71092901   0.11705704   -1.7920337    1.0811047   439061 
 3198000   0.72161986   -1.7922157   -1.7922157  -0.70978835   0.11890529   -1.7922157    1.0824273   439061 
 3199000   0.72112963   -1.7918923   -1.7918923  -0.71020031   0.11979203   -1.7918923     1.081692   439061 
 3200000    0.7225386   -1.7933787   -1.7933787  -0.70957328   0.12127503   -1.7933787    1.0838054   439061 
 3201000   0.72038899   -1.7906577   -1.7906577  -0.71007665   0.12093106   -1.7906577     1.080581   439061 
 3202000   0.72100451   -1.7917055   -1.7917055  -0.71020121   0.12296092   -1.7917055    1.0815043   439061 
 3203000   0.72140296   -1.7919892   -1.7919892  -0.70988725   0.12006599   -1.7919892     1.082102   439061 
 3204000   0.72172957   -1.7917296   -1.7917296  -0.70913771   0.11932136   -1.7917296    1.0825919   439061 
 3205000   0.72156221   -1.7922431   -1.7922431  -0.70990229   0.11955875   -1.7922431    1.0823409   439061 
 3206000   0.72141593   -1.7912383   -1.7912383  -0.70911684   0.11962183   -1.7912383    1.0821214   439061 
 3207000   0.72204168   -1.7926716   -1.7926716  -0.70961159   0.11544086   -1.7926716    1.0830601   439061 
 3208000   0.72183499   -1.7922035   -1.7922035  -0.70945349    0.1197468   -1.7922035      1.08275   439061 
 3209000   0.72101971   -1.7918727   -1.7918727  -0.71034563   0.11925657   -1.7918727    1.0815271   439061 
 3210000   0.72106341   -1.7921523   -1.7921523  -0.71055969   0.11934384   -1.7921523    1.0815927   439061 
 3211000   0.72151329   -1.7924977   -1.7924977  -0.71023028   0.12622595   -1.7924977    1.0822675   439061 
 3212000    0.7210506    -1.792477    -1.792477  -0.71090358     0.117973    -1.792477    1.0815734   439061 
 3213000   0.72146333   -1.7928537   -1.7928537  -0.71066121   0.12016212   -1.7928537    1.0821925   439061 
 3214000   0.71992992   -1.7917036   -1.7917036  -0.71181117   0.12173295   -1.7917036    1.0798924   439061 
 3215000   0.72080484   -1.7924972   -1.7924972   -0.7112924   0.11959718   -1.7924972    1.0812048   439061 
 3216000    0.7202663   -1.7916924   -1.7916924  -0.71129541   0.12052129   -1.7916924     1.080397   439061 
 3217000    0.7205623   -1.7926646   -1.7926646  -0.71182366   0.11514546   -1.7926646     1.080841   439061 
 3218000    0.7197098   -1.7917172   -1.7917172  -0.71215494   0.12116227   -1.7917172    1.0795622   439061 
 3219000   0.72050541   -1.7926624   -1.7926624  -0.71190675   0.12078608   -1.7926624    1.0807557   439061 
 3220000   0.72076129   -1.7931701   -1.7931701  -0.71203064   0.11707375   -1.7931701    1.0811395   439061 
 3221000   0.71940779     -1.79133     -1.79133  -0.71222082   0.12218145     -1.79133    1.0791092   439061 
 3222000   0.71970543    -1.792084    -1.792084  -0.71252832   0.12023981    -1.792084    1.0795557   439061 
 3223000   0.71987988   -1.7914685   -1.7914685  -0.71165112   0.12224232   -1.7914685    1.0798174   439061 
 3224000   0.72107273   -1.7933863   -1.7933863  -0.71177964   0.12094038   -1.7933863    1.0816066   439061 
 3225000   0.72017532   -1.7924525   -1.7924525  -0.71219197   0.11565959   -1.7924525    1.0802605   439061 
 3226000   0.71950568   -1.7921169   -1.7921169  -0.71286087   0.11566024   -1.7921169    1.0792561   439061 
 3227000   0.72166576   -1.7950579   -1.7950579  -0.71256176   0.11834354   -1.7950579    1.0824962   439061 
 3228000   0.72137296   -1.7943861   -1.7943861  -0.71232917   0.11814251   -1.7943861     1.082057   439061 
 3229000   0.72192846   -1.7946091   -1.7946091  -0.71171885   0.11953572   -1.7946091    1.0828902   439061 
 3230000   0.72163823   -1.7948798   -1.7948798  -0.71242491   0.11639114   -1.7948798    1.0824549   439061 
 3231000   0.72055199   -1.7922332   -1.7922332  -0.71140771   0.11871506   -1.7922332    1.0808255   439061 
 3232000   0.72138301   -1.7939919   -1.7939919  -0.71191987   0.11696641   -1.7939919     1.082072   439061 
 3233000    0.7211482    -1.793339    -1.793339  -0.71161913   0.11758498    -1.793339    1.0817198   439061 
 3234000      0.72009   -1.7921665   -1.7921665  -0.71203398    0.1197143   -1.7921665    1.0801325   439061 
 3235000   0.72126099   -1.7936597   -1.7936597  -0.71177071   0.11640333   -1.7936597     1.081889   439061 
 3236000   0.72054416   -1.7927611   -1.7927611  -0.71194737   0.11883605   -1.7927611    1.0808138   439061 
 3237000   0.72107269   -1.7947804   -1.7947804   -0.7131738   0.11768852   -1.7947804    1.0816066   439061 
 3238000   0.72022919   -1.7940501   -1.7940501  -0.71370874   0.11438176   -1.7940501    1.0803413   439061 
 3239000   0.71961006   -1.7930222   -1.7930222  -0.71360954   0.12085395   -1.7930222    1.0794126   439061 
 3240000   0.72038051   -1.7943824   -1.7943824  -0.71381408   0.11764282   -1.7943824    1.0805683   439061 
 3241000   0.72048592   -1.7944405   -1.7944405  -0.71371409   0.11866337   -1.7944405    1.0807264   439061 
 3242000   0.71905375   -1.7921923   -1.7921923  -0.71361411    0.1199547   -1.7921923    1.0785782   439061 
 3243000   0.72096105   -1.7950727   -1.7950727  -0.71363355   0.11430334   -1.7950727    1.0814391   439061 
 3244000   0.72033847   -1.7939118   -1.7939118   -0.7134066   0.11813313   -1.7939118    1.0805052   439061 
 3245000   0.72026122   -1.7941542   -1.7941542  -0.71376485   0.11775776   -1.7941542    1.0803894   439061 
 3246000    0.7203385   -1.7948014   -1.7948014  -0.71429611    0.1157443   -1.7948014    1.0805053   439061 
 3247000   0.72005318   -1.7943468   -1.7943468  -0.71426948   0.11777901   -1.7943468    1.0800773   439061 
 3248000   0.72022187   -1.7937448   -1.7937448  -0.71341448   0.11899786   -1.7937448    1.0803303   439061 
 3249000   0.72076881   -1.7946873   -1.7946873  -0.71353656   0.11470783   -1.7946873    1.0811508   439061 
 3250000   0.71922315   -1.7928953   -1.7928953  -0.71406306   0.11537542   -1.7928953    1.0788323   439061 
 3251000   0.72011139   -1.7938346   -1.7938346  -0.71367002   0.11395489   -1.7938346    1.0801646   439061 
 3252000   0.72022872   -1.7942348   -1.7942348   -0.7138942   0.11982283   -1.7942348    1.0803406   439061 
 3253000   0.72125014   -1.7951748   -1.7951748  -0.71330208   0.11688914   -1.7951748    1.0818727   439061 
 3254000   0.72049744   -1.7942987   -1.7942987    -0.713555   0.11896046   -1.7942987    1.0807437   439061 
 3255000   0.72064435   -1.7940725   -1.7940725   -0.7131084   0.11782053   -1.7940725    1.0809641   439061 
 3256000   0.72023403   -1.7926099   -1.7926099  -0.71226137   0.11838318   -1.7926099    1.0803486   439061 
 3257000   0.72174002   -1.7956996   -1.7956996  -0.71309201   0.11867638   -1.7956996    1.0826076   439061 
 3258000   0.72003111   -1.7932724   -1.7932724  -0.71322823   0.11881332   -1.7932724    1.0800442   439061 
 3259000   0.72069409   -1.7940387   -1.7940387       -0.713   0.11915549   -1.7940387    1.0810387   439061 
 3260000   0.71905986   -1.7920305   -1.7920305  -0.71344322   0.11766961   -1.7920305    1.0785873   439061 
 3261000   0.71913764   -1.7919915   -1.7919915  -0.71328748   0.11929487   -1.7919915     1.078704   439061 
 3262000   0.71994025      -1.7936      -1.7936  -0.71369204   0.11954789      -1.7936    1.0799079   439061 
 3263000   0.72062466   -1.7947058   -1.7947058  -0.71377129   0.11952921   -1.7947058    1.0809345   439061 
 3264000   0.72144919   -1.7951863   -1.7951863    -0.713015   0.11881397   -1.7951863    1.0821713   439061 
 3265000   0.72062325   -1.7939608   -1.7939608  -0.71302835   0.11687471   -1.7939608    1.0809324   439061 
 3266000   0.72084241   -1.7948291   -1.7948291  -0.71356791   0.11823416   -1.7948291    1.0812612   439061 
 3267000   0.71961746   -1.7931369   -1.7931369  -0.71371316   0.12088939   -1.7931369    1.0794237   439061 
 3268000   0.72073845   -1.7938911   -1.7938911  -0.71278588   0.11630673   -1.7938911    1.0811052   439061 
 3269000   0.71971807    -1.792002    -1.792002  -0.71242735    0.1168368    -1.792002    1.0795747   439061 
 3270000   0.71958176   -1.7919554   -1.7919554  -0.71258518   0.11639031   -1.7919554    1.0793702   439061 
 3271000   0.72061404   -1.7934405   -1.7934405  -0.71252194   0.11761458   -1.7934405    1.0809186   439061 
 3272000    0.7195736   -1.7923923   -1.7923923  -0.71303441    0.1150024   -1.7923923    1.0793579   439061 
 3273000   0.72150866   -1.7946737   -1.7946737   -0.7124132   0.12264569   -1.7946737    1.0822605   439061 
 3274000   0.71970177   -1.7921159   -1.7921159  -0.71256571    0.1152117   -1.7921159    1.0795502   439061 
 3275000   0.71885971   -1.7914997   -1.7914997  -0.71321261   0.11740613   -1.7914997    1.0782871   439061 
 3276000   0.71980184   -1.7926239   -1.7926239  -0.71292364   0.11972634   -1.7926239    1.0797003   439061 
 3277000   0.71979227   -1.7918751   -1.7918751  -0.71218919    0.1135233   -1.7918751    1.0796859   439061 
 3278000   0.72107084   -1.7937451   -1.7937451  -0.71214132   0.11890576   -1.7937451    1.0816038   439061 
 3279000   0.72022558   -1.7923616   -1.7923616  -0.71202566   0.11909258   -1.7923616    1.0803359   439061 
 3280000   0.72052395   -1.7926217   -1.7926217  -0.71183823   0.11610837   -1.7926217    1.0807835   439061 
 3281000   0.72107806   -1.7936555   -1.7936555  -0.71204091    0.1165036   -1.7936555    1.0816146   439061 
 3282000   0.72026219   -1.7923469   -1.7923469   -0.7119561   0.11801315   -1.7923469    1.0803908   439061 
 3283000    0.7200863   -1.7923792   -1.7923792  -0.71225218   0.11777756   -1.7923792     1.080127   439061 
 3284000   0.71952199   -1.7913961   -1.7913961  -0.71211554   0.12181322   -1.7913961    1.0792805   439061 
 3285000   0.72094317    -1.793607    -1.793607  -0.71219465    0.1172325    -1.793607    1.0814123   439061 
 3286000   0.72039873   -1.7931822   -1.7931822  -0.71258652   0.11612196   -1.7931822    1.0805956   439061 
 3287000   0.72062773   -1.7935846   -1.7935846  -0.71264551    0.1139759   -1.7935846    1.0809391   439061 
 3288000   0.71962872   -1.7928072   -1.7928072  -0.71336656   0.11689698   -1.7928072    1.0794406   439061 
 3289000   0.71992052   -1.7924439   -1.7924439  -0.71256553   0.12012034   -1.7924439    1.0798783   439061 
 3290000   0.72055493   -1.7925863   -1.7925863  -0.71175637   0.11860151   -1.7925863    1.0808299   439061 
 3291000   0.72086327   -1.7923562   -1.7923562  -0.71106372   0.12101629   -1.7923562    1.0812924   439061 
 3292000   0.72135464   -1.7927492   -1.7927492  -0.71071967   0.12255378   -1.7927492    1.0820295   439061 
 3293000   0.72025702   -1.7924183   -1.7924183  -0.71203526   0.11971536   -1.7924183    1.0803831   439061 
 3294000    0.7199448   -1.7918233   -1.7918233  -0.71190859   0.11574404   -1.7918233    1.0799147   439061 
 3295000   0.72035996   -1.7927568   -1.7927568  -0.71221931   0.11998115   -1.7927568    1.0805375   439061 
 3296000   0.72023752   -1.7932504   -1.7932504  -0.71289658   0.12014056   -1.7932504    1.0803538   439061 
 3297000   0.71980409    -1.793072    -1.793072  -0.71336836   0.11571426    -1.793072    1.0797037   439061 
 3298000   0.72000211   -1.7938186   -1.7938186  -0.71381792    0.1212288   -1.7938186    1.0800007   439061 
 3299000   0.71915037   -1.7929778   -1.7929778  -0.71425472   0.11972722   -1.7929778    1.0787231   439061 
 3300000   0.72064576   -1.7950249   -1.7950249  -0.71405877   0.11650698   -1.7950249    1.0809662   439061 
 3301000   0.71897363   -1.7931553   -1.7931553  -0.71469727   0.11926282   -1.7931553     1.078458   439061 
 3302000   0.71965815   -1.7929373   -1.7929373  -0.71345256   0.11730837   -1.7929373    1.0794848   439061 
 3303000   0.71926812   -1.7926296   -1.7926296  -0.71372993   0.11924327   -1.7926296    1.0788997   439061 
 3304000   0.72068073   -1.7955657   -1.7955657  -0.71454711   0.11559192   -1.7955657    1.0810186   439061 
 3305000   0.71895618   -1.7927752   -1.7927752  -0.71434335   0.11752976   -1.7927752    1.0784318   439061 
 3306000   0.72082111   -1.7950735   -1.7950735  -0.71384424   0.11329595   -1.7950735    1.0812292   439061 
 3307000    0.7195494   -1.7936348   -1.7936348  -0.71431312   0.12055462   -1.7936348    1.0793216   439061 
 3308000   0.71988866   -1.7946089   -1.7946089  -0.71477835   0.12138748   -1.7946089    1.0798305   439061 
 3309000   0.71941229   -1.7943276   -1.7943276  -0.71521158   0.11540325   -1.7943276     1.079116   439061 
 3310000   0.71934166   -1.7929034   -1.7929034  -0.71389337    0.1191065   -1.7929034      1.07901   439061 
 3311000   0.72008868   -1.7941577   -1.7941577  -0.71402711   0.11501045   -1.7941577    1.0801306   439061 
 3312000    0.7196955   -1.7937557   -1.7937557  -0.71421491   0.11787199   -1.7937557    1.0795408   439061 
 3313000   0.71925873   -1.7920302   -1.7920302  -0.71314461   0.11740622   -1.7920302    1.0788856   439061 
 3314000   0.71956899   -1.7929041   -1.7929041  -0.71355308   0.11958563   -1.7929041     1.079351   439061 
 3315000   0.71888369   -1.7927841   -1.7927841  -0.71446106   0.11263316   -1.7927841    1.0783231   439061 
 3316000   0.71925491   -1.7933158   -1.7933158  -0.71443589   0.11400133   -1.7933158    1.0788799   439061 
 3317000   0.72017975   -1.7945358   -1.7945358  -0.71426862   0.12164306   -1.7945358    1.0802672   439061 
 3318000    0.7194758   -1.7930886   -1.7930886  -0.71387733   0.11628822   -1.7930886    1.0792112   439061 
 3319000    0.7194146   -1.7925899   -1.7925899  -0.71347049   0.12110622   -1.7925899    1.0791194   439061 
 3320000   0.71921453    -1.792528    -1.792528  -0.71370862    0.1174678    -1.792528    1.0788193   439061 
 3321000   0.72049334    -1.794934    -1.794934  -0.71419642   0.11753338    -1.794934    1.0807375   439061 
 3322000   0.71974194   -1.7934622   -1.7934622  -0.71385176   0.11556106   -1.7934622    1.0796105   439061 
 3323000    0.7201173   -1.7941739   -1.7941739  -0.71400043   0.11599907   -1.7941739    1.0801735   439061 
 3324000   0.72052662   -1.7943285   -1.7943285  -0.71354105   0.11327918   -1.7943285    1.0807875   439061 
 3325000    0.7205639   -1.7947814   -1.7947814  -0.71393799   0.11765046   -1.7947814    1.0808434   439061 
 3326000   0.71956787   -1.7931344   -1.7931344  -0.71378505   0.11886801   -1.7931344    1.0793493   439061 
 3327000   0.72085752   -1.7940738   -1.7940738  -0.71278994   0.11978928   -1.7940738    1.0812838   439061 
 3328000   0.71982338   -1.7927627   -1.7927627  -0.71303004   0.11815574   -1.7927627    1.0797326   439061 
 3329000   0.71960137   -1.7922185   -1.7922185  -0.71281889   0.11946425   -1.7922185    1.0793996   439061 
 3330000    0.7201249   -1.7929135   -1.7929135  -0.71272866   0.11674256   -1.7929135    1.0801849   439061 
 3331000   0.72035071   -1.7934903   -1.7934903  -0.71296667   0.11820756   -1.7934903    1.0805236   439061 
 3332000   0.71997048   -1.7930152   -1.7930152  -0.71306195   0.11653453   -1.7930152    1.0799533   439061 
 3333000   0.72032005   -1.7930516   -1.7930516  -0.71257396   0.12042981   -1.7930516    1.0804776   439061 
 3334000   0.72201063    -1.794722    -1.794722  -0.71170856   0.11645036    -1.794722    1.0830135   439061 
 3335000   0.71907288   -1.7913292   -1.7913292  -0.71272234    0.1193636   -1.7913292    1.0786069   439061 
 3336000   0.71945054   -1.7930802   -1.7930802  -0.71390685   0.12058285   -1.7930802    1.0791734   439061 
 3337000   0.71956618   -1.7926703   -1.7926703  -0.71332345   0.11740564   -1.7926703    1.0793468   439061 
 3338000   0.72073836   -1.7938738   -1.7938738  -0.71276877   0.11812067   -1.7938738    1.0811051   439061 
 3339000   0.72083244   -1.7944139   -1.7944139  -0.71316767   0.11710356   -1.7944139    1.0812462   439061 
 3340000   0.71902718    -1.791786    -1.791786  -0.71324771   0.12002588    -1.791786    1.0785383   439061 
 3341000   0.72057783   -1.7933803   -1.7933803  -0.71251604    0.1144434   -1.7933803    1.0808643   439061 
 3342000   0.71954132   -1.7916853   -1.7916853  -0.71237577   0.11763261   -1.7916853    1.0793095   439061 
 3343000   0.71996385   -1.7929725   -1.7929725   -0.7130292   0.11417665   -1.7929725    1.0799433   439061 
 3344000   0.71933832    -1.791273    -1.791273  -0.71226803   0.11976602    -1.791273     1.079005   439061 
 3345000   0.71936571    -1.791186    -1.791186  -0.71213988   0.11763553    -1.791186    1.0790461   439061 
 3346000   0.71910079   -1.7913394   -1.7913394  -0.71269069   0.12082321   -1.7913394    1.0786487   439061 
 3347000   0.71987134   -1.7915892   -1.7915892  -0.71178469   0.11850479   -1.7915892    1.0798045   439061 
 3348000   0.71996146   -1.7918936   -1.7918936  -0.71195382   0.11727146   -1.7918936    1.0799397   439061 
 3349000   0.72010101   -1.7929173   -1.7929173  -0.71276828   0.11819766   -1.7929173    1.0801491   439061 
 3350000   0.71950477   -1.7912285   -1.7912285  -0.71197383   0.11761755   -1.7912285    1.0792547   439061 
 3351000   0.72041661   -1.7928022   -1.7928022  -0.71217978   0.12142741   -1.7928022    1.0806225   439061 
 3352000   0.72003148    -1.792751    -1.792751  -0.71270619   0.11874763    -1.792751    1.0800448   439061 
 3353000   0.72087934   -1.7937666   -1.7937666  -0.71245009   0.11565506   -1.7937666    1.0813166   439061 
 3354000   0.72032708   -1.7926462   -1.7926462  -0.71215808    0.1185204   -1.7926462    1.0804882   439061 
 3355000   0.72051276   -1.7929982   -1.7929982  -0.71223156   0.11410838   -1.7929982    1.0807667   439061 
 3356000   0.72003611   -1.7917659   -1.7917659  -0.71171421   0.11507154   -1.7917659    1.0800517   439061 
 3357000   0.72140386   -1.7938274   -1.7938274  -0.71172407    0.1198078   -1.7938274    1.0821033   439061 
 3358000    0.7208306   -1.7928744   -1.7928744  -0.71163099   0.11812278   -1.7928744    1.0812434   439061 
 3359000   0.72082488   -1.7936905   -1.7936905  -0.71245564   0.11283898   -1.7936905    1.0812349   439061 
 3360000   0.72028533   -1.7924601   -1.7924601  -0.71203457   0.11672112   -1.7924601    1.0804255   439061 
 3361000   0.71938241   -1.7920034   -1.7920034  -0.71293224   0.12277443   -1.7920034    1.0790712   439061 
 3362000   0.71983549   -1.7929252   -1.7929252  -0.71317444   0.11579749   -1.7929252    1.0797508   439061 
 3363000   0.72052841   -1.7934506   -1.7934506  -0.71266048   0.11754887   -1.7934506    1.0807902   439061 
 3364000   0.72027965   -1.7926893   -1.7926893  -0.71227229   0.11858775   -1.7926893     1.080417   439061 
 3365000   0.72055381   -1.7936199   -1.7936199  -0.71279159   0.11542417   -1.7936199    1.0808283   439061 
 3366000   0.71985546   -1.7925748   -1.7925748  -0.71279407   0.11918126   -1.7925748    1.0797807   439061 
 3367000   0.72007701   -1.7931984   -1.7931984  -0.71308538   0.12139331   -1.7931984    1.0801131   439061 
 3368000   0.72042648   -1.7938427   -1.7938427  -0.71320543   0.11763621   -1.7938427    1.0806373   439061 
 3369000   0.72011828   -1.7940825   -1.7940825   -0.7139075   0.11737405   -1.7940825     1.080175   439061 
 3370000   0.71843414   -1.7923041   -1.7923041   -0.7146553   0.11799712   -1.7923041    1.0776488   439061 
 3371000   0.71846883   -1.7924673   -1.7924673  -0.71476653   0.11817386   -1.7924673    1.0777008   439061 
 3372000   0.71813315   -1.7924055   -1.7924055  -0.71520817   0.11983754   -1.7924055    1.0771973   439061 
 3373000   0.71860092   -1.7928453   -1.7928453  -0.71494635   0.11661026   -1.7928453    1.0778989   439061 
 3374000   0.71887666   -1.7925796   -1.7925796  -0.71426707   0.12096312   -1.7925796    1.0783125   439061 
 3375000   0.71867639   -1.7929358   -1.7929358  -0.71492368    0.1150196   -1.7929358    1.0780121   439061 
 3376000   0.71815856   -1.7931677   -1.7931677  -0.71593228   0.11571443   -1.7931677    1.0772354   439061 
 3377000   0.71786211   -1.7926906   -1.7926906  -0.71589988   0.11683981   -1.7926906    1.0767907   439061 
 3378000   0.71905486   -1.7936603   -1.7936603  -0.71508048   0.11513407   -1.7936603    1.0785798   439061 
 3379000   0.71858623   -1.7935454   -1.7935454  -0.71566848    0.1168416   -1.7935454    1.0778769   439061 
 3380000   0.71864799   -1.7938031   -1.7938031  -0.71583359    0.1184193   -1.7938031    1.0779695   439061 
 3381000   0.71844205   -1.7935606   -1.7935606  -0.71589999   0.11728382   -1.7935606    1.0776606   439061 
 3382000   0.71963084    -1.794652    -1.794652  -0.71520823   0.11558649    -1.794652    1.0794438   439061 
 3383000   0.71907331   -1.7933636   -1.7933636  -0.71475609   0.11825159   -1.7933636    1.0786075   439061 
 3384000   0.71890161   -1.7933545   -1.7933545  -0.71500458   0.11577777   -1.7933545      1.07835   439061 
 3385000    0.7200722   -1.7947354   -1.7947354  -0.71462952   0.11474225   -1.7947354    1.0801058   439061 
 3386000   0.71853554   -1.7927676   -1.7927676  -0.71496674   0.11606334   -1.7927676    1.0778009   439061 
 3387000   0.71848703   -1.7924381   -1.7924381  -0.71471001   0.11768694   -1.7924381    1.0777281   439061 
 3388000    0.7189239   -1.7924911   -1.7924911  -0.71410774    0.1141422   -1.7924911    1.0783834   439061 
 3389000   0.71942934   -1.7926055   -1.7926055   -0.7134639   0.11628415   -1.7926055    1.0791415   439061 
 3390000   0.71935299   -1.7931842   -1.7931842  -0.71415721   0.11539783   -1.7931842     1.079027   439061 
 3391000   0.71916745   -1.7941426   -1.7941426   -0.7153939   0.11986182   -1.7941426    1.0787487   439061 
 3392000   0.71994846   -1.7944056   -1.7944056  -0.71448539   0.11482876   -1.7944056    1.0799202   439061 
 3393000   0.71958663   -1.7927894   -1.7927894   -0.7134119   0.11946463   -1.7927894    1.0793775   439061 
 3394000   0.72019225   -1.7936817   -1.7936817   -0.7133958   0.12230904   -1.7936817    1.0802859   439061 
 3395000   0.72033995   -1.7942862   -1.7942862  -0.71377877   0.11747214   -1.7942862    1.0805075   439061 
 3396000   0.71976605   -1.7941497   -1.7941497  -0.71450308   0.11570918   -1.7941497    1.0796466   439061 
 3397000   0.71895895    -1.793293    -1.793293  -0.71485701   0.11681141    -1.793293     1.078436   439061 
 3398000    0.7198105   -1.7949663   -1.7949663    -0.715253   0.11646211   -1.7949663    1.0797133   439061 
 3399000   0.71847712   -1.7927754   -1.7927754   -0.7150622   0.11604314   -1.7927754    1.0777132   439061 
 3400000   0.71873753   -1.7932566   -1.7932566  -0.71515279   0.11811952   -1.7932566    1.0781038   439061 
 3401000   0.71922187     -1.79313     -1.79313  -0.71429967   0.11550559     -1.79313    1.0788304   439061 
 3402000   0.71840376   -1.7911776   -1.7911776  -0.71357441   0.11914403   -1.7911776    1.0776032   439061 
 3403000   0.71891758   -1.7920257   -1.7920257   -0.7136518   0.11673117   -1.7920257    1.0783739   439061 
 3404000   0.71900189    -1.792784    -1.792784  -0.71428366   0.11287483    -1.792784    1.0785004   439061 
 3405000   0.71963887    -1.793315    -1.793315   -0.7138592   0.11740705    -1.793315    1.0794558   439061 
 3406000    0.7188204    -1.792522    -1.792522  -0.71429385   0.11589964    -1.792522    1.0782281   439061 
 3407000   0.71755397    -1.790554    -1.790554  -0.71422548   0.11440492    -1.790554    1.0763285   439061 
 3408000   0.71955727   -1.7928527   -1.7928527  -0.71351929   0.11524159   -1.7928527    1.0793335   439061 
 3409000   0.71883334   -1.7919445   -1.7919445  -0.71369694   0.11674581   -1.7919445    1.0782475   439061 
 3410000   0.71911255   -1.7922346   -1.7922346  -0.71356826    0.1180156   -1.7922346    1.0786664   439061 
 3411000   0.71945579    -1.792434    -1.792434  -0.71325279    0.1180682    -1.792434    1.0791812   439061 
 3412000   0.72059528   -1.7947268   -1.7947268  -0.71383637   0.11713425   -1.7947268    1.0808905   439061 
 3413000   0.71959212    -1.792933    -1.792933  -0.71354725   0.11820618    -1.792933    1.0793857   439061 
 3414000    0.7186917   -1.7923981   -1.7923981  -0.71436298    0.1152461   -1.7923981    1.0780351   439061 
 3415000    0.7196352   -1.7941915   -1.7941915   -0.7147412   0.11205737   -1.7941915    1.0794503   439061 
 3416000   0.71941299   -1.7930981   -1.7930981  -0.71398102   0.11553191   -1.7930981     1.079117   439061 
 3417000    0.7187921   -1.7921638   -1.7921638  -0.71397812   0.11820612   -1.7921638    1.0781857   439061 
 3418000   0.71926681   -1.7919704   -1.7919704  -0.71307267   0.11694767   -1.7919704    1.0788978   439061 
 3419000   0.71951058   -1.7927003   -1.7927003   -0.7134369   0.11961241   -1.7927003    1.0792634   439061 
 3420000   0.71895154   -1.7920959   -1.7920959  -0.71367103   0.11470179   -1.7920959    1.0784249   439061 
 3421000   0.71889998   -1.7926389   -1.7926389  -0.71429136   0.11774256   -1.7926389    1.0783475   439061 
 3422000    0.7180477   -1.7912461   -1.7912461  -0.71417702    0.1181246   -1.7912461    1.0770691   439061 
 3423000   0.71976191   -1.7932666   -1.7932666  -0.71362615   0.11518737   -1.7932666    1.0796404   439061 
 3424000   0.72043062   -1.7944369   -1.7944369  -0.71379343   0.11262759   -1.7944369    1.0806435   439061 
 3425000    0.7191942    -1.792452    -1.792452  -0.71366318   0.11284528    -1.792452    1.0787888   439061 
 3426000   0.71918648   -1.7926531   -1.7926531  -0.71387588   0.11324424   -1.7926531    1.0787773   439061 
 3427000   0.71990671   -1.7939699   -1.7939699  -0.71411226   0.11525326   -1.7939699    1.0798576   439061 
 3428000   0.71916003   -1.7930889   -1.7930889  -0.71435127   0.11517851   -1.7930889    1.0787376   439061 
 3429000   0.71950784    -1.792438    -1.792438  -0.71317866   0.11673736    -1.792438    1.0792593   439061 
 3430000   0.71969326   -1.7933066   -1.7933066  -0.71376917   0.11902621   -1.7933066    1.0795374   439061 
 3431000   0.71825214   -1.7925075   -1.7925075  -0.71513173   0.11980393   -1.7925075    1.0773758   439061 
 3432000   0.71928561   -1.7936296   -1.7936296  -0.71470368   0.11558459   -1.7936296     1.078926   439061 
 3433000   0.71940841   -1.7927944   -1.7927944  -0.71368425   0.11685686   -1.7927944    1.0791102   439061 
 3434000   0.71915056   -1.7927456   -1.7927456  -0.71402223   0.11681131   -1.7927456    1.0787234   439061 
 3435000   0.72050719   -1.7941402   -1.7941402  -0.71338189   0.11249093   -1.7941402    1.0807583   439061 
 3436000   0.71859456   -1.7917332   -1.7917332  -0.71384382   0.11521628   -1.7917332    1.0778894   439061 
 3437000   0.71893915   -1.7926077   -1.7926077  -0.71420142   0.11892064   -1.7926077    1.0784063   439061 
 3438000   0.72031094   -1.7943619   -1.7943619  -0.71389796   0.11709969   -1.7943619     1.080464   439061 
 3439000   0.71811369   -1.7916402   -1.7916402  -0.71447212   0.11911199   -1.7916402    1.0771681   439061 
 3440000    0.7173648    -1.791123    -1.791123  -0.71507822   0.11674975    -1.791123    1.0760447   439061 
 3441000   0.71961456   -1.7942444   -1.7942444  -0.71482503   0.11810066   -1.7942444    1.0794194   439061 
 3442000   0.71856487   -1.7922368   -1.7922368    -0.714392   0.11723273   -1.7922368    1.0778448   439061 
 3443000   0.71839695   -1.7920085   -1.7920085  -0.71441557   0.11716936   -1.7920085     1.077593   439061 
 3444000   0.71918233   -1.7932755   -1.7932755  -0.71450447   0.11784878   -1.7932755     1.078771   439061 
 3445000    0.7192319    -1.793184    -1.793184  -0.71433858   0.11309971    -1.793184    1.0788454   439061 
 3446000   0.71917261   -1.7931455   -1.7931455  -0.71438904     0.113652   -1.7931455    1.0787565   439061 
 3447000    0.7194708   -1.7937053   -1.7937053   -0.7145016    0.1145326   -1.7937053    1.0792037   439061 
 3448000   0.71954722   -1.7940349   -1.7940349  -0.71471653   0.11803773   -1.7940349    1.0793184   439061 
 3449000   0.71874024   -1.7929737   -1.7929737  -0.71486576   0.11637458   -1.7929737    1.0781079   439061 
 3450000   0.71833576   -1.7917843   -1.7917843  -0.71428312   0.11547316   -1.7917843    1.0775012   439061 
 3451000   0.71879779   -1.7937136   -1.7937136  -0.71551933   0.11672605   -1.7937136    1.0781942   439061 
 3452000   0.71776146   -1.7927855   -1.7927855  -0.71614572   0.11146043   -1.7927855    1.0766397   439061 
 3453000   0.71843792   -1.7937001   -1.7937001   -0.7160457   0.11626793   -1.7937001    1.0776544   439061 
 3454000    0.7196589   -1.7958015   -1.7958015  -0.71631557    0.1174789   -1.7958015    1.0794859   439061 
 3455000   0.71880374    -1.793658    -1.793658  -0.71545485   0.11534748    -1.793658    1.0782032   439061 
 3456000   0.71904238   -1.7933036   -1.7933036  -0.71474249   0.11481262   -1.7933036    1.0785611   439061 
 3457000   0.71935827   -1.7938828   -1.7938828  -0.71484786   0.11368931   -1.7938828    1.0790349   439061 
 3458000   0.71830705   -1.7924402   -1.7924402  -0.71498203   0.11458594   -1.7924402    1.0774581   439061 
 3459000   0.71868863   -1.7939947   -1.7939947  -0.71596425   0.11356365   -1.7939947    1.0780305   439061 
 3460000   0.71758965   -1.7921535   -1.7921535  -0.71577147   0.11543617   -1.7921535     1.076382   439061 
 3461000   0.71816226   -1.7929417   -1.7929417  -0.71570078    0.1160695   -1.7929417    1.0772409   439061 
 3462000   0.71905356    -1.794023    -1.794023  -0.71544512   0.11756832    -1.794023    1.0785779   439061 
 3463000   0.71971134   -1.7939351   -1.7939351   -0.7143705   0.11529742   -1.7939351    1.0795646   439061 
 3464000     0.718422   -1.7923964   -1.7923964   -0.7147659   0.11677267   -1.7923964    1.0776305   439061 
 3465000    0.7182237   -1.7923145   -1.7923145  -0.71498146     0.118142   -1.7923145    1.0773331   439061 
 3466000   0.71831801   -1.7926204   -1.7926204  -0.71514582    0.1165759   -1.7926204    1.0774746   439061 
 3467000   0.71797113   -1.7930173   -1.7930173    -0.716063   0.11601045   -1.7930173    1.0769542   439061 
 3468000   0.71778237   -1.7920485   -1.7920485  -0.71537739   0.11432764   -1.7920485    1.0766711   439061 
 3469000   0.71755298   -1.7910413   -1.7910413  -0.71471429   0.11664931   -1.7910413     1.076327   439061 
 3470000   0.71867389   -1.7933279   -1.7933279  -0.71531956   0.11449246   -1.7933279    1.0780084   439061 
 3471000   0.71827127   -1.7924782   -1.7924782  -0.71507374   0.12010508   -1.7924782    1.0774045   439061 
 3472000   0.71992984   -1.7934193   -1.7934193  -0.71352701   0.11555029   -1.7934193    1.0798923   439061 
 3473000   0.71978746   -1.7924133   -1.7924133  -0.71273454   0.12003266   -1.7924133    1.0796787   439061 
 3474000   0.71935131   -1.7924521   -1.7924521  -0.71342764   0.12090127   -1.7924521    1.0790245   439061 
 3475000   0.71964752    -1.793253    -1.793253  -0.71378417   0.11469178    -1.793253    1.0794688   439061 
 3476000   0.71764978   -1.7911301   -1.7911301  -0.71465788   0.11362364   -1.7911301    1.0764722   439061 
 3477000   0.71816994   -1.7909642   -1.7909642  -0.71371173   0.11665497   -1.7909642    1.0772525   439061 
 3478000   0.71907162   -1.7931947   -1.7931947  -0.71458974   0.11440537   -1.7931947     1.078605   439061 
 3479000   0.71797593   -1.7915995   -1.7915995  -0.71463807   0.11737719   -1.7915995    1.0769614   439061 
 3480000   0.71888948   -1.7926984   -1.7926984  -0.71436664    0.1144213   -1.7926984    1.0783318   439061 
 3481000   0.71849521   -1.7925523   -1.7925523  -0.71481195   0.12026141   -1.7925523    1.0777404   439061 
 3482000   0.71871442   -1.7925574   -1.7925574  -0.71448826   0.11865466   -1.7925574    1.0780692   439061 
 3483000   0.71846706   -1.7917592   -1.7917592  -0.71406109   0.11852868   -1.7917592    1.0776981   439061 
 3484000   0.71825095    -1.791931    -1.791931  -0.71455703   0.11217016    -1.791931     1.077374   439061 
 3485000   0.71827163   -1.7916799   -1.7916799  -0.71427489   0.11614664   -1.7916799     1.077405   439061 
 3486000   0.71797569   -1.7911975   -1.7911975  -0.71423643   0.11264691   -1.7911975    1.0769611   439061 
 3487000    0.7181765   -1.7915617   -1.7915617  -0.71429938   0.11600713   -1.7915617    1.0772623   439061 
 3488000   0.71909506   -1.7924211   -1.7924211  -0.71378097   0.11628381   -1.7924211    1.0786401   439061 
 3489000   0.71933469    -1.792897    -1.792897   -0.7138974   0.11821622    -1.792897    1.0789996   439061 
 3490000   0.71841111   -1.7921421   -1.7921421  -0.71452787   0.11863293   -1.7921421    1.0776142   439061 
 3491000   0.71851392   -1.7923745   -1.7923745  -0.71460607   0.11663427   -1.7923745    1.0777684   439061 
 3492000   0.71843553   -1.7925323   -1.7925323   -0.7148814   0.11740729   -1.7925323    1.0776508   439061 
 3493000   0.71891318   -1.7932225   -1.7932225  -0.71485514   0.11217857   -1.7932225    1.0783673   439061 
 3494000   0.71805091    -1.791728    -1.791728  -0.71465412   0.11583915    -1.791728    1.0770739   439061 
 3495000   0.71813271   -1.7916497   -1.7916497  -0.71445314   0.11632287   -1.7916497    1.0771966   439061 
 3496000   0.71804023   -1.7917722   -1.7917722  -0.71471429   0.11486212   -1.7917722    1.0770579   439061 
 3497000   0.71868893   -1.7925637   -1.7925637   -0.7145328   0.11320041   -1.7925637    1.0780309   439061 
 3498000   0.71955197   -1.7939892   -1.7939892  -0.71466372   0.11336949   -1.7939892    1.0793255   439061 
 3499000    0.7189925   -1.7926411   -1.7926411   -0.7141548   0.11483499   -1.7926411    1.0784863   439061 
 3500000   0.71827602   -1.7917556   -1.7917556  -0.71434402   0.11634948   -1.7917556    1.0774116   439061 
 3501000   0.71792863   -1.7921092   -1.7921092  -0.71521868   0.12217218   -1.7921092    1.0768905   439061 
 3502000   0.71945217   -1.7942241   -1.7942241  -0.71504829   0.11613574   -1.7942241    1.0791758   439061 
 3503000   0.71799559   -1.7913707   -1.7913707  -0.71437976   0.11896113   -1.7913707    1.0769909   439061 
 3504000   0.71778355   -1.7905266   -1.7905266  -0.71385372   0.11764932   -1.7905266    1.0766729   439061 
 3505000   0.71950884   -1.7932433   -1.7932433   -0.7139825    0.1149151   -1.7932433    1.0792608   439061 
 3506000   0.71942959   -1.7923349   -1.7923349  -0.71319296   0.11938947   -1.7923349    1.0791419   439061 
 3507000   0.71868971   -1.7914728   -1.7914728   -0.7134407   0.11680892   -1.7914728    1.0780321   439061 
 3508000   0.71981494   -1.7929978   -1.7929978  -0.71327782   0.11875455   -1.7929978    1.0797199   439061 
 3509000   0.71849388   -1.7916478   -1.7916478  -0.71390948   0.11855684   -1.7916478    1.0777384   439061 
 3510000   0.71868644   -1.7917845   -1.7917845  -0.71375733    0.1188859   -1.7917845    1.0780272   439061 
 3511000   0.71788811   -1.7906267   -1.7906267  -0.71379702   0.11595719   -1.7906267    1.0768297   439061 
 3512000   0.71851509   -1.7925572   -1.7925572  -0.71478705    0.1173957   -1.7925572    1.0777702   439061 
 3513000   0.71775782   -1.7912148   -1.7912148  -0.71458056   0.11864147   -1.7912148    1.0766343   439061 
 3514000   0.71895855   -1.7928399   -1.7928399  -0.71440453   0.11530371   -1.7928399    1.0784354   439061 
 3515000   0.71962306      -1.7934      -1.7934  -0.71396791   0.12150979      -1.7934    1.0794321   439061 
 3516000   0.71900825   -1.7913725   -1.7913725   -0.7128626   0.11841747   -1.7913725    1.0785099   439061 
 3517000    0.7191377   -1.7919276   -1.7919276  -0.71322351   0.11768131   -1.7919276    1.0787041   439061 
 3518000   0.72034228   -1.7942987   -1.7942987  -0.71378772   0.11537832   -1.7942987     1.080511   439061 
 3519000   0.71812377   -1.7913205   -1.7913205  -0.71413724    0.1180927   -1.7913205    1.0771832   439061 
 3520000   0.71912474   -1.7935077   -1.7935077    -0.714823   0.11391783   -1.7935077    1.0786847   439061 
 3521000   0.71776507   -1.7907922   -1.7907922  -0.71414707   0.11596814   -1.7907922    1.0766452   439061 
 3522000   0.71902698   -1.7918261   -1.7918261  -0.71328808   0.11989074   -1.7918261     1.078538   439061 
 3523000    0.7180083   -1.7904634   -1.7904634  -0.71345341    0.1139834   -1.7904634      1.07701   439061 
 3524000   0.71919254   -1.7922399   -1.7922399  -0.71345355   0.11266282   -1.7922399    1.0787863   439061 
 3525000   0.71939362   -1.7913714   -1.7913714   -0.7122834   0.11543886   -1.7913714     1.079088   439061 
 3526000   0.71810668   -1.7897783   -1.7897783  -0.71262077   0.12045799   -1.7897783    1.0771576   439061 
 3527000   0.71994238    -1.791794    -1.791794   -0.7118829   0.11594782    -1.791794    1.0799111   439061 
 3528000   0.71987377   -1.7918623   -1.7918623  -0.71205411   0.11592636   -1.7918623    1.0798082   439061 
 3529000   0.71956925   -1.7907948   -1.7907948  -0.71144339   0.11656568   -1.7907948    1.0793514   439061 
 3530000   0.71886706   -1.7896481   -1.7896481  -0.71134998   0.11571891   -1.7896481    1.0782981   439061 
 3531000   0.71896691    -1.791189    -1.791189   -0.7127411   0.11565619    -1.791189    1.0784479   439061 
 3532000   0.71953389   -1.7914605   -1.7914605  -0.71216209   0.11839982   -1.7914605    1.0792984   439061 
 3533000   0.71944278   -1.7899152   -1.7899152  -0.71075351   0.12095022   -1.7899152    1.0791617   439061 
 3534000   0.71871892   -1.7900802   -1.7900802  -0.71200427   0.11604707   -1.7900802    1.0780759   439061 
 3535000    0.7202476   -1.7918564   -1.7918564  -0.71148744   0.11621738   -1.7918564    1.0803689   439061 
 3536000   0.71988144   -1.7919905   -1.7919905  -0.71217081   0.11377032   -1.7919905    1.0798197   439061 
 3537000   0.71996569   -1.7905253   -1.7905253  -0.71057918   0.11697152   -1.7905253    1.0799461   439061 
 3538000   0.71929341   -1.7898702   -1.7898702  -0.71093253   0.11919238   -1.7898702    1.0789377   439061 
 3539000   0.72007999   -1.7910384   -1.7910384  -0.71092088   0.11678609   -1.7910384    1.0801175   439061 
 3540000   0.71908761   -1.7898788   -1.7898788  -0.71124985   0.11268035   -1.7898788     1.078629   439061 
 3541000   0.72008035   -1.7912682   -1.7912682  -0.71115017   0.11529821   -1.7912682    1.0801181   439061 
 3542000   0.71960415   -1.7906382   -1.7906382   -0.7112344   0.11914838   -1.7906382    1.0794038   439061 
 3543000   0.72003197   -1.7911305   -1.7911305  -0.71108503   0.11603832   -1.7911305    1.0800455   439061 
 3544000   0.71811551   -1.7883176   -1.7883176  -0.71114676   0.11995005   -1.7883176    1.0771708   439061 
 3545000   0.71966919   -1.7908252   -1.7908252  -0.71132385   0.11784891   -1.7908252    1.0795013   439061 
 3546000    0.7193083   -1.7908723   -1.7908723  -0.71191228   0.11629594   -1.7908723      1.07896   439061 
 3547000   0.71762639   -1.7886786   -1.7886786  -0.71224145   0.11436398   -1.7886786    1.0764371   439061 
 3548000   0.72006171   -1.7914975   -1.7914975  -0.71140741   0.11556488   -1.7914975    1.0800901   439061 
 3549000    0.7179594   -1.7894999   -1.7894999  -0.71256321   0.12011036   -1.7894999    1.0769366   439061 
 3550000   0.71840959   -1.7894161   -1.7894161  -0.71180421   0.11583183   -1.7894161    1.0776119   439061 
 3551000   0.71898589   -1.7905313   -1.7905313  -0.71205494   0.11669818   -1.7905313    1.0784764   439061 
 3552000   0.71924383   -1.7902638   -1.7902638  -0.71140052   0.11343625   -1.7902638    1.0788633   439061 
 3553000   0.71901967   -1.7899328   -1.7899328  -0.71140571   0.11898827   -1.7899328     1.078527   439061 
 3554000   0.71865676   -1.7899752   -1.7899752  -0.71199249   0.11642725   -1.7899752    1.0779827   439061 
 3555000   0.71831843   -1.7896492   -1.7896492  -0.71217399    0.1178218   -1.7896492    1.0774752   439061 
 3556000   0.71945973   -1.7912929   -1.7912929  -0.71210578   0.11739937   -1.7912929    1.0791871   439061 
 3557000   0.72072913   -1.7927155   -1.7927155  -0.71162428   0.11465386   -1.7927155    1.0810912   439061 
 3558000   0.71986644   -1.7921834   -1.7921834  -0.71238616   0.11260983   -1.7921834    1.0797972   439061 
 3559000   0.71803746   -1.7888842   -1.7888842  -0.71183051   0.11989841   -1.7888842    1.0770537   439061 
 3560000   0.72013593   -1.7909777   -1.7909777  -0.71077627    0.1150079   -1.7909777    1.0802014   439061 
 3561000   0.71920662   -1.7896812   -1.7896812  -0.71087371   0.11732206   -1.7896812    1.0788075   439061 
 3562000   0.71991608   -1.7908324   -1.7908324   -0.7109607   0.11347341   -1.7908324    1.0798717   439061 
 3563000   0.72006365   -1.7914785   -1.7914785   -0.7113855   0.11506847   -1.7914785     1.080093   439061 
 3564000   0.72050172   -1.7919759   -1.7919759  -0.71122579   0.11785491   -1.7919759    1.0807501   439061 
 3565000   0.72044838   -1.7919214   -1.7919214  -0.71125129   0.11724426   -1.7919214    1.0806701   439061 
 3566000   0.72046006   -1.7915686   -1.7915686  -0.71088097   0.11890016   -1.7915686    1.0806876   439061 
 3567000    0.7191189   -1.7901211   -1.7901211  -0.71144525    0.1155312   -1.7901211    1.0786759   439061 
 3568000    0.7196168   -1.7910274   -1.7910274  -0.71160467   0.11501291   -1.7910274    1.0794227   439061 
 3569000   0.71916629    -1.790761    -1.790761    -0.712014   0.11675963    -1.790761     1.078747   439061 
 3570000   0.71958913   -1.7912558   -1.7912558  -0.71187454   0.12111014   -1.7912558    1.0793812   439061 
 3571000   0.71970944   -1.7903169   -1.7903169  -0.71075522   0.11565794   -1.7903169    1.0795617   439061 
 3572000   0.71995083   -1.7914103   -1.7914103  -0.71148656   0.11718906   -1.7914103    1.0799238   439061 
 3573000   0.71970553   -1.7915883   -1.7915883   -0.7120325   0.11851489   -1.7915883    1.0795558   439061 
 3574000   0.71975268   -1.7920174   -1.7920174  -0.71239087   0.11964013   -1.7920174    1.0796266   439061 
 3575000   0.71903139   -1.7912008   -1.7912008  -0.71265616   0.11616469   -1.7912008    1.0785446   439061 
 3576000    0.7182939   -1.7902147   -1.7902147   -0.7127763   0.11688726   -1.7902147    1.0774384   439061 
 3577000   0.71857639   -1.7910863   -1.7910863  -0.71322421   0.11609881   -1.7910863    1.0778621   439061 
 3578000   0.71758638   -1.7896835   -1.7896835  -0.71330643   0.11448968   -1.7896835    1.0763771   439061 
 3579000   0.71816519   -1.7907931   -1.7907931  -0.71354775   0.10993471   -1.7907931    1.0772453   439061 
 3580000   0.71893998   -1.7916723   -1.7916723  -0.71326481   0.11373973   -1.7916723    1.0784075   439061 
 3581000   0.71859661   -1.7907522   -1.7907522   -0.7128597   0.11548669   -1.7907522    1.0778925   439061 
 3582000   0.71835778   -1.7903155   -1.7903155  -0.71278127   0.11843625   -1.7903155    1.0775342   439061 
 3583000   0.71824256   -1.7907419   -1.7907419  -0.71338047    0.1134383   -1.7907419    1.0773614   439061 
 3584000   0.71894916    -1.791024    -1.791024  -0.71260272   0.11573376    -1.791024    1.0784213   439061 
 3585000   0.71921447   -1.7924858   -1.7924858  -0.71366659    0.1174531   -1.7924858    1.0788192   439061 
 3586000   0.71961367   -1.7922112   -1.7922112  -0.71279313   0.11817867   -1.7922112     1.079418   439061 
 3587000   0.71854844   -1.7913865   -1.7913865  -0.71356632   0.11669091   -1.7913865    1.0778202   439061 
 3588000   0.71926097   -1.7911952   -1.7911952  -0.71230619   0.11381126   -1.7911952     1.078889   439061 
 3589000   0.71921359   -1.7915454   -1.7915454  -0.71272747   0.11788994   -1.7915454    1.0788179   439061 
 3590000   0.71852468   -1.7904843   -1.7904843  -0.71269974   0.11394265   -1.7904843    1.0777846   439061 
 3591000   0.71953141   -1.7923126   -1.7923126   -0.7130179   0.11702006   -1.7923126    1.0792947   439061 
 3592000   0.71940458   -1.7917014   -1.7917014  -0.71259699   0.11550631   -1.7917014    1.0791044   439061 
 3593000   0.71891017   -1.7913361   -1.7913361   -0.7129733   0.11836797   -1.7913361    1.0783628   439061 
 3594000   0.71929551   -1.7916901   -1.7916901  -0.71274933   0.11517515   -1.7916901    1.0789408   439061 
 3595000     0.719956   -1.7924071   -1.7924071  -0.71247555   0.11670579   -1.7924071    1.0799315   439061 
 3596000   0.71966744   -1.7915241   -1.7915241  -0.71202543   0.11797851   -1.7915241    1.0794987   439061 
 3597000   0.72012488   -1.7931152   -1.7931152  -0.71293032   0.11739949   -1.7931152    1.0801849   439061 
 3598000   0.71773611   -1.7901142   -1.7901142  -0.71351244   0.11644861   -1.7901142    1.0766017   439061 
 3599000   0.71945675   -1.7935868   -1.7935868  -0.71440412   0.11383231   -1.7935868    1.0791827   439061 
 3600000   0.71916626   -1.7930284   -1.7930284   -0.7142815   0.11632682   -1.7930284    1.0787469   439061 
 3601000   0.71957063   -1.7939067   -1.7939067   -0.7145532   0.11931554   -1.7939067    1.0793535   439061 
 3602000   0.71984107   -1.7940718   -1.7940718   -0.7143127    0.1177271   -1.7940718    1.0797591   439061 
 3603000   0.71792802   -1.7919875   -1.7919875  -0.71509791    0.1199199   -1.7919875    1.0768896   439061 
 3604000   0.71984148    -1.794848    -1.794848  -0.71508825   0.11645108    -1.794848    1.0797598   439061 
 3605000   0.71828661   -1.7925466   -1.7925466  -0.71511913   0.11413518   -1.7925466    1.0774275   439061 
 3606000   0.71970235   -1.7942556   -1.7942556  -0.71470455   0.11553005   -1.7942556    1.0795511   439061 
 3607000   0.71961344   -1.7946141   -1.7946141  -0.71519641   0.11433725   -1.7946141    1.0794177   439061 
 3608000   0.71820472   -1.7922723   -1.7922723  -0.71496768   0.11752629   -1.7922723    1.0773046   439061 
 3609000   0.71885427   -1.7927181   -1.7927181  -0.71443918   0.11763762   -1.7927181     1.078279   439061 
 3610000   0.71863275   -1.7923319   -1.7923319  -0.71438524   0.11569334   -1.7923319    1.0779467   439061 
 3611000   0.71862822     -1.79275     -1.79275  -0.71481011   0.11562162     -1.79275    1.0779399   439061 
 3612000   0.71909213   -1.7928321   -1.7928321   -0.7141964   0.11520403   -1.7928321    1.0786357   439061 
 3613000   0.71857524   -1.7919379   -1.7919379  -0.71407751    0.1152182   -1.7919379    1.0778604   439061 
 3614000   0.71764421    -1.792311    -1.792311  -0.71584712   0.11639645    -1.792311    1.0764639   439061 
 3615000   0.71775706   -1.7920805   -1.7920805  -0.71544741   0.11428144   -1.7920805    1.0766331   439061 
 3616000   0.71867404   -1.7925576   -1.7925576  -0.71454896   0.11492753   -1.7925576    1.0780086   439061 
 3617000   0.71913958   -1.7935646   -1.7935646  -0.71485766   0.11406733   -1.7935646    1.0787069   439061 
 3618000   0.71805564   -1.7916965   -1.7916965  -0.71461548   0.11863952   -1.7916965     1.077081   439061 
 3619000   0.71863051   -1.7922425   -1.7922425  -0.71429923   0.11511786   -1.7922425    1.0779433   439061 
 3620000   0.71880621   -1.7925498   -1.7925498  -0.71434296   0.11644104   -1.7925498    1.0782069   439061 
 3621000   0.71865161   -1.7921748   -1.7921748  -0.71419982   0.11336932   -1.7921748     1.077975   439061 
 3622000   0.71894012   -1.7927547   -1.7927547  -0.71434701   0.11345232   -1.7927547    1.0784077   439061 
 3623000   0.71941508   -1.7935501   -1.7935501  -0.71442995   0.11496601   -1.7935501    1.0791202   439061 
 3624000   0.71859793    -1.792205    -1.792205   -0.7143106   0.11645939    -1.792205    1.0778944   439061 
 3625000   0.71851876    -1.791897    -1.791897  -0.71412133   0.11793252    -1.791897    1.0777757   439061 
 3626000   0.71869645    -1.791651    -1.791651  -0.71360876    0.1203815    -1.791651    1.0780422   439061 
 3627000   0.71904392   -1.7918797   -1.7918797  -0.71331631   0.11790847   -1.7918797    1.0785634   439061 
 3628000   0.71807771    -1.790947    -1.790947  -0.71383284   0.11566563    -1.790947    1.0771141   439061 
 3629000   0.71915174   -1.7922691   -1.7922691  -0.71354391   0.11932887   -1.7922691    1.0787251   439061 
 3630000   0.71975783   -1.7936181   -1.7936181  -0.71398378    0.1115459   -1.7936181    1.0796343   439061 
 3631000   0.71903709   -1.7915238   -1.7915238  -0.71297062   0.12109801   -1.7915238    1.0785532   439061 
 3632000   0.71921627   -1.7912257   -1.7912257  -0.71240373   0.11686041   -1.7912257    1.0788219   439061 
 3633000   0.71888109   -1.7915023   -1.7915023  -0.71318312   0.11605197   -1.7915023    1.0783192   439061 
 3634000   0.71913117   -1.7915873   -1.7915873  -0.71289296   0.11689979   -1.7915873    1.0786943   439061 
 3635000   0.71875411     -1.79128     -1.79128  -0.71315124   0.11611717     -1.79128    1.0781287   439061 
 3636000   0.71916111   -1.7919593   -1.7919593  -0.71322014   0.11724355   -1.7919593    1.0787392   439061 
 3637000   0.71809568   -1.7910443   -1.7910443   -0.7139032   0.11783484   -1.7910443    1.0771411   439061 
 3638000   0.71839629   -1.7916028   -1.7916028  -0.71401085   0.11556929   -1.7916028     1.077592   439061 
 3639000   0.71703912   -1.7896709   -1.7896709  -0.71411467   0.11424778   -1.7896709    1.0755562   439061 
 3640000   0.71935939   -1.7925147   -1.7925147  -0.71347803    0.1164775   -1.7925147    1.0790366   439061 
 3641000   0.71903491   -1.7925335   -1.7925335  -0.71398354   0.11611544   -1.7925335    1.0785499   439061 
 3642000   0.71801797   -1.7916367   -1.7916367  -0.71461219   0.11773669   -1.7916367    1.0770245   439061 
 3643000   0.71869966   -1.7918525   -1.7918525  -0.71380549   0.11627182   -1.7918525     1.078047   439061 
 3644000   0.71797629   -1.7915374   -1.7915374   -0.7145754   0.11411624   -1.7915374     1.076962   439061 
 3645000   0.71799523   -1.7916417   -1.7916417   -0.7146513    0.1163309   -1.7916417    1.0769904   439061 
 3646000   0.71827851   -1.7913247   -1.7913247  -0.71390939   0.11254356   -1.7913247    1.0774153   439061 
 3647000   0.71928625    -1.793835    -1.793835  -0.71490808   0.11791636    -1.793835    1.0789269   439061 
 3648000   0.71795865   -1.7922431   -1.7922431  -0.71530758   0.11673891   -1.7922431    1.0769355   439061 
 3649000    0.7183177   -1.7933081   -1.7933081  -0.71583403   0.11032636   -1.7933081    1.0774741   439061 
 3650000   0.71747541   -1.7908539   -1.7908539   -0.7146432   0.11341454   -1.7908539    1.0762107   439061 
 3651000   0.71806967   -1.7922661   -1.7922661  -0.71516403   0.11612463   -1.7922661     1.077102   439061 
 3652000   0.71795141   -1.7928153   -1.7928153  -0.71589063    0.1161811   -1.7928153    1.0769247   439061 
 3653000   0.71847038   -1.7942086   -1.7942086  -0.71650546   0.11460624   -1.7942086    1.0777031   439061 
 3654000     0.718002   -1.7923109   -1.7923109  -0.71531031   0.11861525   -1.7923109    1.0770006   439061 
 3655000   0.71860788   -1.7929828   -1.7929828  -0.71507347   0.11258191   -1.7929828    1.0779094   439061 
 3656000   0.71876632   -1.7936231   -1.7936231  -0.71547606   0.11748615   -1.7936231     1.078147   439061 
 3657000   0.71843369   -1.7932011   -1.7932011  -0.71555301   0.11395882   -1.7932011    1.0776481   439061 
 3658000   0.71879808   -1.7945062   -1.7945062  -0.71631155   0.11299701   -1.7945062    1.0781947   439061 
 3659000   0.71809023    -1.793324    -1.793324  -0.71619109   0.11341359    -1.793324    1.0771329   439061 
 3660000   0.71818571   -1.7936547   -1.7936547  -0.71637855   0.11426674   -1.7936547    1.0772761   439061 
 3661000   0.71724727   -1.7921544   -1.7921544  -0.71628591   0.11242042   -1.7921544    1.0758685   439061 
 3662000   0.71694738   -1.7917465   -1.7917465  -0.71632784   0.11667246   -1.7917465    1.0754186   439061 
 3663000   0.71682215   -1.7917928   -1.7917928  -0.71656203   0.11258448   -1.7917928    1.0752308   439061 
 3664000   0.71798656   -1.7939661   -1.7939661  -0.71698866   0.11350152   -1.7939661    1.0769774   439061 
 3665000   0.71806563   -1.7938725   -1.7938725  -0.71677656   0.11484653   -1.7938725     1.077096   439061 
 3666000   0.71832501   -1.7957329   -1.7957329  -0.71824782   0.11380997   -1.7957329    1.0774851   439061 
 3667000   0.71616846   -1.7929068   -1.7929068  -0.71865653    0.1126369   -1.7929068    1.0742502   439061 
 3668000   0.71765366   -1.7941833   -1.7941833  -0.71770529   0.11900524   -1.7941833     1.076478   439061 
 3669000   0.71654782   -1.7927572   -1.7927572   -0.7179379   0.11383763   -1.7927572    1.0748193   439061 
 3670000   0.71848163   -1.7948897   -1.7948897  -0.71716968   0.11293485   -1.7948897      1.07772   439061 
 3671000   0.71776051   -1.7943326   -1.7943326  -0.71769428   0.11416864   -1.7943326    1.0766383   439061 
 3672000    0.7193903   -1.7961174   -1.7961174  -0.71703446   0.11734511   -1.7961174     1.079083   439061 
 3673000   0.71795486   -1.7946197   -1.7946197  -0.71768987   0.11512933   -1.7946197    1.0769298   439061 
 3674000   0.71837846   -1.7940751   -1.7940751  -0.71650989   0.11756027   -1.7940751    1.0775652   439061 
 3675000   0.71833606   -1.7940835   -1.7940835  -0.71658185   0.11742891   -1.7940835    1.0775016   439061 
 3676000   0.71812081   -1.7933438   -1.7933438  -0.71616505   0.11454879   -1.7933438    1.0771788   439061 
 3677000   0.71857388   -1.7933472   -1.7933472  -0.71548881   0.11737475   -1.7933472    1.0778584   439061 
 3678000    0.7179677   -1.7938183   -1.7938183  -0.71686915   0.11452023   -1.7938183    1.0769491   439061 
 3679000   0.71753994   -1.7938105   -1.7938105  -0.71750303   0.11656246   -1.7938105    1.0763075   439061 
 3680000    0.7187134   -1.7948698   -1.7948698  -0.71680212   0.11253625   -1.7948698    1.0780676   439061 
 3681000   0.71890742   -1.7947845   -1.7947845  -0.71642581   0.11112075   -1.7947845    1.0783587   439061 
 3682000   0.71827121   -1.7937994   -1.7937994  -0.71639502   0.11666455   -1.7937994    1.0774044   439061 
 3683000   0.71744903   -1.7931937   -1.7931937  -0.71702259   0.11671813   -1.7931937    1.0761711   439061 
 3684000   0.71766752   -1.7936957   -1.7936957   -0.7171969   0.11348994   -1.7936957    1.0764988   439061 
 3685000   0.71776451   -1.7944009   -1.7944009  -0.71775663   0.11473006   -1.7944009    1.0766443   439061 
 3686000   0.71685569   -1.7921685   -1.7921685  -0.71688746   0.11339435   -1.7921685    1.0752811   439061 
 3687000   0.71700111   -1.7928143   -1.7928143  -0.71731507   0.11229007   -1.7928143    1.0754992   439061 
 3688000   0.71830818   -1.7948655   -1.7948655  -0.71740567   0.11389688   -1.7948655    1.0774598   439061 
 3689000   0.71768851   -1.7925905   -1.7925905  -0.71606017   0.11311637   -1.7925905    1.0765303   439061 
 3690000    0.7164817   -1.7913981   -1.7913981  -0.71667795   0.11338139   -1.7913981    1.0747201   439061 
 3691000   0.71825258   -1.7940678   -1.7940678  -0.71669143   0.11699195   -1.7940678    1.0773764   439061 
 3692000   0.71835305   -1.7941266   -1.7941266  -0.71659951   0.11561345   -1.7941266    1.0775271   439061 
 3693000   0.71749785   -1.7928143   -1.7928143  -0.71656999   0.11403292   -1.7928143    1.0762443   439061 
 3694000   0.71834477   -1.7935333   -1.7935333  -0.71601863   0.11234105   -1.7935333    1.0775147   439061 
 3695000   0.71791035   -1.7934146   -1.7934146  -0.71655152   0.11413315   -1.7934146    1.0768631   439061 
 3696000   0.71770721   -1.7927075   -1.7927075  -0.71614914   0.11709905   -1.7927075    1.0765584   439061 
 3697000   0.71725755   -1.7925634   -1.7925634  -0.71667949   0.11803852   -1.7925634    1.0758839   439061 
 3698000   0.71632099   -1.7921622   -1.7921622   -0.7176832   0.11477229   -1.7921622     1.074479   439061 
 3699000   0.71696838   -1.7935089   -1.7935089  -0.71805881   0.11264875   -1.7935089    1.0754501   439061 
 3700000   0.71580716   -1.7920287   -1.7920287  -0.71832036   0.11696564   -1.7920287    1.0737083   439061 
 3701000   0.71696468   -1.7926528   -1.7926528  -0.71720823   0.11458136   -1.7926528    1.0754446   439061 
 3702000   0.71869988   -1.7952981   -1.7952981  -0.71725074   0.11053065   -1.7952981    1.0780474   439061 
 3703000   0.71807359   -1.7941237   -1.7941237  -0.71701576   0.11481225   -1.7941237    1.0771079   439061 
 3704000   0.71704562   -1.7932688   -1.7932688  -0.71770288   0.11208443   -1.7932688     1.075566   439061 
 3705000   0.71750687   -1.7922964   -1.7922964  -0.71603849   0.11525467   -1.7922964    1.0762579   439061 
 3706000   0.71752317   -1.7920834   -1.7920834  -0.71580114   0.11690822   -1.7920834    1.0762823   439061 
 3707000    0.7173306   -1.7919287   -1.7919287  -0.71593522   0.11630852   -1.7919287    1.0759935   439061 
 3708000   0.71752251   -1.7918606   -1.7918606  -0.71557925   0.11564479   -1.7918606    1.0762813   439061 
 3709000   0.71867371   -1.7933119   -1.7933119  -0.71530377   0.11454126   -1.7933119    1.0780081   439061 
 3710000    0.7178705   -1.7923087   -1.7923087  -0.71550539   0.11765687   -1.7923087    1.0768033   439061 
 3711000   0.71869945   -1.7931188   -1.7931188  -0.71507208   0.11156391   -1.7931188    1.0780467   439061 
 3712000    0.7170334   -1.7901778   -1.7901778  -0.71463015   0.11507028   -1.7901778    1.0755476   439061 
 3713000   0.71899185   -1.7926457   -1.7926457  -0.71416037    0.1148219   -1.7926457    1.0784853   439061 
 3714000   0.71901351   -1.7927787   -1.7927787   -0.7142609   0.11462549   -1.7927787    1.0785178   439061 
 3715000    0.7176867    -1.790162    -1.790162  -0.71363444   0.11352364    -1.790162    1.0765276   439061 
 3716000   0.71804373    -1.791494    -1.791494   -0.7144309   0.12102277    -1.791494    1.0770631   439061 
 3717000   0.71742431   -1.7920891   -1.7920891  -0.71595514    0.1131013   -1.7920891     1.076134   439061 
 3718000   0.71801974   -1.7930945   -1.7930945  -0.71606731   0.11499454   -1.7930945    1.0770272   439061 
 3719000   0.71730255   -1.7926837   -1.7926837  -0.71673237   0.11467272   -1.7926837    1.0759514   439061 
 3720000   0.71730231   -1.7922795   -1.7922795  -0.71632853   0.11987095   -1.7922795     1.075951   439061 
 3721000   0.71909893   -1.7936683   -1.7936683  -0.71502241    0.1134887   -1.7936683    1.0786459   439061 
 3722000   0.71824089   -1.7927643   -1.7927643  -0.71540543   0.11419159   -1.7927643    1.0773589   439061 
 3723000   0.71788501   -1.7920492   -1.7920492   -0.7152241    0.1150239   -1.7920492    1.0768251   439061 
 3724000    0.7173826    -1.792093    -1.792093  -0.71602157    0.1129786    -1.792093    1.0760715   439061 
 3725000   0.71779722   -1.7920993   -1.7920993  -0.71540588   0.11643492   -1.7920993    1.0766934   439061 
 3726000   0.71762131   -1.7915464   -1.7915464  -0.71511687   0.11294057   -1.7915464    1.0764295   439061 
 3727000    0.7186406   -1.7928555   -1.7928555  -0.71489705   0.11671013   -1.7928555    1.0779584   439061 
 3728000   0.71784083   -1.7918517   -1.7918517   -0.7150929   0.11244509   -1.7918517    1.0767588   439061 
 3729000   0.71943685   -1.7935496   -1.7935496  -0.71439681   0.11866675   -1.7935496    1.0791528   439061 
 3730000   0.71799107   -1.7920182   -1.7920182  -0.71503404   0.11530435   -1.7920182    1.0769842   439061 
 3731000   0.71830093   -1.7922153   -1.7922153   -0.7147664   0.11263065   -1.7922153    1.0774489   439061 
 3732000   0.71803812   -1.7909128   -1.7909128  -0.71385811   0.11506294   -1.7909128    1.0770547   439061 
 3733000   0.71871121   -1.7928855   -1.7928855  -0.71482117   0.12182662   -1.7928855    1.0780644   439061 
 3734000   0.71802977   -1.7921561   -1.7921561  -0.71511387   0.11301874   -1.7921561    1.0770422   439061 
 3735000   0.71877763    -1.792833    -1.792833  -0.71466901   0.11308844    -1.792833     1.078164   439061 
 3736000   0.71751169   -1.7909364   -1.7909364  -0.71467136   0.11517597   -1.7909364    1.0762651   439061 
 3737000   0.71778045   -1.7919377   -1.7919377  -0.71526944   0.11784199   -1.7919377    1.0766682   439061 
 3738000   0.71795785   -1.7929896   -1.7929896  -0.71605524   0.11165474   -1.7929896    1.0769343   439061 
 3739000   0.71711549   -1.7915356   -1.7915356  -0.71586483   0.11758387   -1.7915356    1.0756708   439061 
 3740000    0.7176045   -1.7919196   -1.7919196  -0.71551531   0.11699421   -1.7919196    1.0764043   439061 
 3741000   0.71912416   -1.7945428   -1.7945428  -0.71585904   0.11113434   -1.7945428    1.0786838   439061 
 3742000    0.7171184   -1.7918356   -1.7918356  -0.71616042   0.11260025   -1.7918356    1.0756751   439061 
 3743000   0.71747193   -1.7916795   -1.7916795   -0.7154741   0.11077071   -1.7916795    1.0762054   439061 
 3744000   0.71750257   -1.7921768   -1.7921768  -0.71592542    0.1139831   -1.7921768    1.0762514   439061 
 3745000   0.71899787   -1.7934262   -1.7934262  -0.71493187    0.1144891   -1.7934262    1.0784943   439061 
 3746000   0.71785359   -1.7921834   -1.7921834  -0.71540546   0.11547582   -1.7921834    1.0767779   439061 
 3747000   0.71682726   -1.7908052   -1.7908052  -0.71556675   0.11500001   -1.7908052    1.0752384   439061 
 3748000    0.7174405   -1.7921901   -1.7921901   -0.7160318   0.11201339   -1.7921901    1.0761583   439061 
 3749000   0.71820151   -1.7931146   -1.7931146  -0.71581481   0.11385697   -1.7931146    1.0772998   439061 
 3750000   0.71672421    -1.791118    -1.791118  -0.71603418   0.11468841    -1.791118    1.0750839   439061 
 3751000   0.71641654   -1.7898704   -1.7898704  -0.71524805   0.11773585   -1.7898704    1.0746224   439061 
 3752000   0.71720963   -1.7918169   -1.7918169   -0.7160049   0.11474469   -1.7918169     1.075812   439061 
 3753000   0.71721969   -1.7911718   -1.7911718  -0.71534469   0.11392523   -1.7911718    1.0758271   439061 
 3754000   0.71723151   -1.7917494   -1.7917494  -0.71590459   0.12034119   -1.7917494    1.0758448   439061 
 3755000   0.71777517   -1.7925099   -1.7925099  -0.71584959   0.11740083   -1.7925099    1.0766603   439061 
 3756000    0.7185338   -1.7925804   -1.7925804  -0.71478217    0.1128843   -1.7925804    1.0777983   439061 
 3757000    0.7173297   -1.7913649   -1.7913649  -0.71537277   0.11838583   -1.7913649    1.0759921   439061 
 3758000   0.71822147   -1.7931715   -1.7931715   -0.7158418   0.11539083   -1.7931715    1.0773298   439061 
 3759000   0.71766899   -1.7915521   -1.7915521  -0.71505103   0.11314705   -1.7915521     1.076501   439061 
 3760000   0.71798982   -1.7927185   -1.7927185  -0.71573618   0.11477222   -1.7927185    1.0769823   439061 
 3761000    0.7181825   -1.7930112   -1.7930112  -0.71573993    0.1179435   -1.7930112    1.0772713   439061 
 3762000   0.71704955   -1.7914811   -1.7914811   -0.7159092   0.11346985   -1.7914811    1.0755719   439061 
 3763000   0.71907083   -1.7940551   -1.7940551  -0.71545136   0.11757691   -1.7940551    1.0786038   439061 
 3764000   0.71860647   -1.7935779   -1.7935779  -0.71567066   0.11200117   -1.7935779    1.0779073   439061 
 3765000   0.71882058   -1.7942107   -1.7942107  -0.71598228   0.11700328   -1.7942107    1.0782284   439061 
 3766000   0.71847389   -1.7931779   -1.7931779  -0.71546952   0.11535918   -1.7931779    1.0777084   439061 
 3767000   0.71834343   -1.7926054   -1.7926054  -0.71509267   0.11680552   -1.7926054    1.0775127   439061 
 3768000   0.71702788   -1.7914026   -1.7914026  -0.71586326   0.11561323   -1.7914026    1.0755394   439061 
 3769000   0.71720096    -1.791374    -1.791374  -0.71557502   0.11607546    -1.791374     1.075799   439061 
 3770000   0.71876629   -1.7936436   -1.7936436  -0.71549665    0.1138985   -1.7936436     1.078147   439061 
 3771000   0.71716014   -1.7923723   -1.7923723  -0.71663453   0.11362832   -1.7923723    1.0757378   439061 
 3772000   0.71775158    -1.793256    -1.793256  -0.71663105   0.11277537    -1.793256    1.0766249   439061 
 3773000   0.71768416   -1.7930992   -1.7930992  -0.71657539   0.11766485   -1.7930992    1.0765238   439061 
 3774000   0.71661383   -1.7919408   -1.7919408  -0.71702255   0.11315319   -1.7919408    1.0749183   439061 
 3775000   0.71849937   -1.7948228   -1.7948228  -0.71707622   0.11518995   -1.7948228    1.0777466   439061 
 3776000   0.71757025   -1.7938961   -1.7938961  -0.71754322   0.11775601   -1.7938961    1.0763529   439061 
 3777000   0.71766769   -1.7943869   -1.7943869  -0.71788785   0.11713158   -1.7943869    1.0764991   439061 
 3778000   0.71774469   -1.7945188   -1.7945188  -0.71790424    0.1093098   -1.7945188    1.0766146   439061 
 3779000   0.71779273   -1.7943358   -1.7943358  -0.71764914   0.11727952   -1.7943358    1.0766866   439061 
 3780000   0.71639464   -1.7929602   -1.7929602  -0.71837069   0.11477408   -1.7929602    1.0745895   439061 
 3781000    0.7169594   -1.7935579   -1.7935579  -0.71812122   0.10941459   -1.7935579    1.0754367   439061 
 3782000    0.7165687   -1.7934296   -1.7934296  -0.71857904   0.11331222   -1.7934296    1.0748506   439061 
 3783000   0.71711679   -1.7942641   -1.7942641  -0.71859137   0.11674133   -1.7942641    1.0756727   439061 
 3784000   0.71560897   -1.7924651   -1.7924651  -0.71905407   0.11380863   -1.7924651     1.073411   439061 
 3785000   0.71696903   -1.7941203   -1.7941203  -0.71866925   0.11609554   -1.7941203    1.0754511   439061 
 3786000   0.71655287   -1.7936103   -1.7936103  -0.71878348     0.112767   -1.7936103    1.0748269   439061 
 3787000   0.71754389    -1.793716    -1.793716  -0.71740266   0.11431202    -1.793716    1.0763134   439061 
 3788000   0.71630323   -1.7918231   -1.7918231   -0.7173707   0.11279884   -1.7918231    1.0744524   439061 
 3789000   0.71802798   -1.7938019   -1.7938019  -0.71676242   0.11650398   -1.7938019    1.0770395   439061 
 3790000   0.71834593   -1.7941706   -1.7941706  -0.71665412    0.1170586   -1.7941706    1.0775164   439061 
 3791000   0.71728741   -1.7929047   -1.7929047  -0.71697603     0.119709   -1.7929047    1.0759287   439061 
 3792000   0.71789394   -1.7943803   -1.7943803  -0.71754187   0.11421783   -1.7943803    1.0768385   439061 
 3793000   0.71838861   -1.7949959   -1.7949959  -0.71741539   0.11529824   -1.7949959    1.0775805   439061 
 3794000   0.71613999   -1.7924782   -1.7924782  -0.71827069   0.11519069   -1.7924782    1.0742075   439061 
 3795000   0.71763605   -1.7939254   -1.7939254  -0.71747374   0.11463519   -1.7939254    1.0764516   439061 
 3796000   0.71661733   -1.7925838   -1.7925838  -0.71766023   0.11204337   -1.7925838    1.0749235   439061 
 3797000   0.71618003    -1.791274    -1.791274  -0.71700636   0.11648141    -1.791274    1.0742676   439061 
 3798000   0.71833861   -1.7951438   -1.7951438  -0.71763838   0.11352941   -1.7951438    1.0775055   439061 
 3799000   0.71689589   -1.7935124   -1.7935124  -0.71817099   0.11444632   -1.7935124    1.0753414   439061 
 3800000   0.71729371   -1.7946051   -1.7946051  -0.71866695   0.11486806   -1.7946051    1.0759381   439061 
 3801000   0.71655088   -1.7934581   -1.7934581  -0.71863424   0.11332165   -1.7934581    1.0748239   439061 
 3802000   0.71783743   -1.7954506   -1.7954506   -0.7186969   0.11473625   -1.7954506    1.0767537   439061 
 3803000   0.71586377   -1.7928144   -1.7928144  -0.71902121   0.11645856   -1.7928144    1.0737932   439061 
 3804000   0.71760646   -1.7953239   -1.7953239  -0.71891662   0.11309861   -1.7953239    1.0764072   439061 
 3805000   0.71781224   -1.7960596   -1.7960596  -0.71934366   0.11445179   -1.7960596    1.0767159   439061 
 3806000   0.71620632   -1.7929454   -1.7929454  -0.71863841     0.119927   -1.7929454     1.074307   439061 
 3807000   0.71609909   -1.7938022   -1.7938022  -0.71965604   0.11625714   -1.7938022    1.0741462   439061 
 3808000   0.71611603   -1.7934519   -1.7934519  -0.71928032   0.11323447   -1.7934519    1.0741716   439061 
 3809000   0.71599346   -1.7937289   -1.7937289  -0.71974113    0.1143163   -1.7937289    1.0739877   439061 
 3810000   0.71579238    -1.793334    -1.793334  -0.71964789   0.11614727    -1.793334    1.0736861   439061 
 3811000   0.71674445   -1.7942933   -1.7942933  -0.71917904   0.11281292   -1.7942933    1.0751142   439061 
 3812000   0.71724746   -1.7952819   -1.7952819  -0.71941321   0.11952566   -1.7952819    1.0758687   439061 
 3813000   0.71558766   -1.7937534   -1.7937534  -0.72037441    0.1128894   -1.7937534     1.073379   439061 
 3814000   0.71637151   -1.7950061   -1.7950061  -0.72045126   0.11021512   -1.7950061    1.0745548   439061 
 3815000   0.71687393   -1.7946317   -1.7946317  -0.71932323   0.12082413   -1.7946317    1.0753084   439061 
 3816000   0.71697624    -1.794057    -1.794057  -0.71859505    0.1156541    -1.794057    1.0754619   439061 
 3817000   0.71635954    -1.793475    -1.793475   -0.7189381   0.11113687    -1.793475    1.0745369   439061 
 3818000    0.7166439   -1.7936046   -1.7936046  -0.71864117   0.11996299   -1.7936046    1.0749634   439061 
 3819000   0.71658091   -1.7936091   -1.7936091  -0.71874022   0.11469798   -1.7936091    1.0748689   439061 
 3820000   0.71710755   -1.7944046   -1.7944046  -0.71874571   0.11362986   -1.7944046    1.0756589   439061 
 3821000   0.71710215   -1.7946052   -1.7946052  -0.71895443   0.11246787   -1.7946052    1.0756508   439061 
 3822000   0.71659074   -1.7935021   -1.7935021  -0.71861841   0.11207773   -1.7935021    1.0748837   439061 
 3823000   0.71733928     -1.79384     -1.79384  -0.71783351   0.11526207     -1.79384    1.0760065   439061 
 3824000    0.7184671   -1.7958497   -1.7958497  -0.71815155   0.11314747   -1.7958497    1.0776982   439061 
 3825000   0.71733594   -1.7941333   -1.7941333  -0.71813182   0.11214837   -1.7941333    1.0760015   439061 
 3826000   0.71764276   -1.7946912   -1.7946912  -0.71822953   0.11657435   -1.7946912    1.0764617   439061 
 3827000   0.71786118   -1.7947652   -1.7947652  -0.71797588   0.11474369   -1.7947652    1.0767893   439061 
 3828000   0.71699684   -1.7930816   -1.7930816  -0.71758876   0.11468187   -1.7930816    1.0754928   439061 
 3829000   0.71827686   -1.7941769   -1.7941769  -0.71676404   0.11550608   -1.7941769    1.0774128   439061 
 3830000   0.71735783   -1.7924417   -1.7924417  -0.71640737   0.11612986   -1.7924417    1.0760343   439061 
 3831000   0.71747133   -1.7932287   -1.7932287   -0.7170242   0.11039035   -1.7932287    1.0762045   439061 
 3832000   0.71718087   -1.7937109   -1.7937109  -0.71794209   0.11248664   -1.7937109    1.0757689   439061 
 3833000   0.71683028   -1.7922417   -1.7922417  -0.71699877   0.11129851   -1.7922417     1.075243   439061 
 3834000   0.71765269   -1.7922377   -1.7922377  -0.71576111   0.11284245   -1.7922377    1.0764766   439061 
 3835000   0.71765972   -1.7923678   -1.7923678  -0.71588068   0.11437789   -1.7923678    1.0764871   439061 
 3836000   0.71789327   -1.7925027   -1.7925027  -0.71566521   0.11396307   -1.7925027    1.0768375   439061 
 3837000   0.71765008   -1.7915366   -1.7915366  -0.71506396   0.11422193   -1.7915366    1.0764727   439061 
 3838000   0.71873935    -1.792702    -1.792702  -0.71459538   0.11575158    -1.792702    1.0781066   439061 
 3839000   0.71795505   -1.7919475   -1.7919475  -0.71501739   0.11388604   -1.7919475    1.0769301   439061 
 3840000   0.71769761   -1.7914166   -1.7914166  -0.71487261   0.11318103   -1.7914166     1.076544   439061 
 3841000   0.71712516    -1.791803    -1.791803   -0.7161177   0.11526119    -1.791803    1.0756853   439061 
 3842000   0.71825922   -1.7924498   -1.7924498  -0.71506344   0.10987139   -1.7924498    1.0773864   439061 
 3843000   0.71703149   -1.7907073   -1.7907073  -0.71516248   0.11511621   -1.7907073    1.0755448   439061 
 3844000   0.71796252   -1.7906136   -1.7906136  -0.71367227   0.11813076   -1.7906136    1.0769413   439061 
 3845000   0.71782174   -1.7910474   -1.7910474  -0.71431724   0.11650321   -1.7910474    1.0767302   439061 
 3846000   0.71748023    -1.791078    -1.791078  -0.71486008   0.11699514    -1.791078    1.0762179   439061 
 3847000   0.71821353   -1.7917014   -1.7917014  -0.71438351   0.11690579   -1.7917014    1.0773178   439061 
 3848000   0.71795757   -1.7913151   -1.7913151   -0.7143812    0.1151992   -1.7913151    1.0769339   439061 
 3849000   0.71802881   -1.7909848   -1.7909848  -0.71394404   0.11696169   -1.7909848    1.0770408   439061 
 3850000   0.71808291   -1.7911176   -1.7911176  -0.71399573   0.11801162   -1.7911176    1.0771219   439061 
 3851000   0.71765548   -1.7900325   -1.7900325  -0.71355177   0.11482574   -1.7900325    1.0764808   439061 
 3852000   0.71735927   -1.7905009   -1.7905009  -0.71446442   0.11582971   -1.7905009    1.0760365   439061 
 3853000    0.7167244    -1.789672    -1.789672  -0.71458789   0.11595526    -1.789672    1.0750842   439061 
 3854000   0.71753732   -1.7908907   -1.7908907  -0.71458721   0.11349882   -1.7908907    1.0763035   439061 
 3855000   0.71781393   -1.7915759   -1.7915759  -0.71485747   0.11670182   -1.7915759    1.0767184   439061 
 3856000   0.71745333   -1.7909811   -1.7909811  -0.71480354   0.11796793   -1.7909811    1.0761775   439061 
 3857000   0.71712728   -1.7908004   -1.7908004  -0.71511188   0.11726798   -1.7908004    1.0756885   439061 
 3858000   0.71707362   -1.7909016   -1.7909016  -0.71529363   0.11471601   -1.7909016     1.075608   439061 
 3859000   0.71891463   -1.7933563   -1.7933563  -0.71498684    0.1130886   -1.7933563    1.0783695   439061 
 3860000   0.71727668   -1.7910202   -1.7910202  -0.71510767   0.11605773   -1.7910202    1.0759126   439061 
 3861000   0.71833778   -1.7927284   -1.7927284  -0.71522423   0.11608986   -1.7927284    1.0775042   439061 
 3862000    0.7181551   -1.7930333   -1.7930333  -0.71580308   0.11474186   -1.7930333    1.0772302   439061 
 3863000   0.71821345   -1.7935333   -1.7935333  -0.71621555   0.11384072   -1.7935333    1.0773177   439061 
 3864000   0.71827991   -1.7934093   -1.7934093  -0.71599192   0.11277541   -1.7934093    1.0774174   439061 
 3865000   0.71841376   -1.7933214   -1.7933214  -0.71570317   0.11809257   -1.7933214    1.0776182   439061 
 3866000   0.71834907   -1.7926534   -1.7926534  -0.71513221   0.11791557   -1.7926534    1.0775211   439061 
 3867000   0.71763899   -1.7913582   -1.7913582  -0.71490214   0.11640141   -1.7913582     1.076456   439061 
 3868000   0.71782233   -1.7915844   -1.7915844  -0.71485331    0.1160691   -1.7915844     1.076731   439061 
 3869000   0.71754244   -1.7919977   -1.7919977  -0.71568647    0.1129339   -1.7919977    1.0763112   439061 
 3870000   0.71777937   -1.7923605   -1.7923605  -0.71569388   0.11325549   -1.7923605    1.0766666   439061 
 3871000   0.71881749   -1.7941214   -1.7941214  -0.71589766   0.11608263   -1.7941214    1.0782238   439061 
 3872000    0.7175782   -1.7920106   -1.7920106  -0.71564573   0.11768391   -1.7920106    1.0763648   439061 
 3873000   0.71636365    -1.791258    -1.791258  -0.71671497   0.11525643    -1.791258     1.074543   439061 
 3874000   0.71704836   -1.7932411   -1.7932411    -0.717671   0.11161806   -1.7932411    1.0755701   439061 
 3875000   0.71746249   -1.7938674   -1.7938674  -0.71767611   0.11169085   -1.7938674    1.0761913   439061 
 3876000   0.71757388   -1.7938396   -1.7938396  -0.71748124   0.11444224   -1.7938396    1.0763584   439061 
 3877000   0.71634962   -1.7923648   -1.7923648  -0.71784286   0.11749433   -1.7923648     1.074522   439061 
 3878000   0.71794159   -1.7937886   -1.7937886  -0.71687868    0.1162022   -1.7937886    1.0769099   439061 
 3879000   0.71764023   -1.7938613   -1.7938613  -0.71740343   0.11197649   -1.7938613    1.0764579   439061 
 3880000   0.71689539   -1.7927117   -1.7927117  -0.71737105   0.11386035   -1.7927117    1.0753406   439061 
 3881000   0.71715943   -1.7935155   -1.7935155  -0.71777881   0.11799613   -1.7935155    1.0757367   439061 
 3882000   0.71820083   -1.7948655   -1.7948655  -0.71756674   0.11317198   -1.7948655    1.0772988   439061 
 3883000   0.71759327   -1.7947846   -1.7947846  -0.71839712   0.11572202   -1.7947846    1.0763875   439061 
 3884000   0.71634268   -1.7924811   -1.7924811  -0.71796951   0.11171237   -1.7924811    1.0745116   439061 
 3885000   0.71708452   -1.7928872   -1.7928872  -0.71726283   0.11508468   -1.7928872    1.0756243   439061 
 3886000   0.71797636   -1.7941935   -1.7941935  -0.71723142   0.11225862   -1.7941935    1.0769621   439061 
 3887000   0.71680619   -1.7928586   -1.7928586  -0.71765178   0.11523268   -1.7928586    1.0752068   439061 
 3888000   0.71722963   -1.7931145   -1.7931145  -0.71727245   0.11299824   -1.7931145     1.075842   439061 
 3889000    0.7169984   -1.7923883   -1.7923883  -0.71689314   0.11371183   -1.7923883    1.0754951   439061 
 3890000   0.71727035   -1.7927888   -1.7927888  -0.71688572   0.11606419   -1.7927888    1.0759031   439061 
 3891000   0.71696081   -1.7922996   -1.7922996  -0.71686086   0.11445386   -1.7922996    1.0754388   439061 
 3892000   0.71823676   -1.7937135   -1.7937135  -0.71636086   0.11405496   -1.7937135    1.0773527   439061 
 3893000   0.71743073   -1.7926824   -1.7926824  -0.71653872   0.11699399   -1.7926824    1.0761436   439061 
 3894000   0.71682775   -1.7917546   -1.7917546  -0.71651541   0.11746918   -1.7917546    1.0752392   439061 
 3895000   0.71704467    -1.792092    -1.792092  -0.71652743   0.11420731    -1.792092    1.0755646   439061 
 3896000   0.71723788   -1.7925683   -1.7925683  -0.71671396   0.11515786   -1.7925683    1.0758544   439061 
 3897000   0.71710105   -1.7925269   -1.7925269   -0.7168778   0.11624668   -1.7925269    1.0756491   439061 
 3898000   0.71618875   -1.7913101   -1.7913101  -0.71702945   0.11243216   -1.7913101    1.0742807   439061 
 3899000   0.71837754   -1.7947102   -1.7947102  -0.71714632   0.11573954   -1.7947102    1.0775639   439061 
 3900000   0.71640824   -1.7919701   -1.7919701  -0.71736018   0.11519562   -1.7919701    1.0746099   439061 
 3901000   0.71630768   -1.7918509   -1.7918509  -0.71739185   0.11365105   -1.7918509    1.0744591   439061 
 3902000   0.71694751   -1.7928947   -1.7928947  -0.71747589   0.11553006   -1.7928947    1.0754188   439061 
 3903000    0.7172401   -1.7934605   -1.7934605  -0.71760278    0.1135993   -1.7934605    1.0758577   439061 
 3904000    0.7163808   -1.7918892   -1.7918892  -0.71732045   0.11001935   -1.7918892    1.0745687   439061 
 3905000   0.71668159   -1.7922783   -1.7922783  -0.71725834   0.11515937   -1.7922783    1.0750199   439061 
 3906000   0.71734809   -1.7926457   -1.7926457  -0.71662601   0.11161785   -1.7926457    1.0760197   439061 
 3907000   0.71724461   -1.7926366   -1.7926366  -0.71677209   0.11403597   -1.7926366    1.0758645   439061 
 3908000   0.71682601   -1.7929438   -1.7929438  -0.71770721    0.1142065   -1.7929438    1.0752366   439061 
 3909000   0.71782552   -1.7943925   -1.7943925  -0.71765664   0.11213776   -1.7943925    1.0767358   439061 
 3910000   0.71787249   -1.7935874   -1.7935874  -0.71678116   0.11810701   -1.7935874    1.0768063   439061 
 3911000   0.71733367   -1.7928406   -1.7928406  -0.71684253   0.11252563   -1.7928406    1.0759981   439061 
 3912000   0.71809755   -1.7944176   -1.7944176  -0.71727373   0.10896277   -1.7944176    1.0771439   439061 
 3913000   0.71802436   -1.7944577   -1.7944577  -0.71742366    0.1152571   -1.7944577    1.0770341   439061 
 3914000   0.71706816   -1.7936435   -1.7936435  -0.71804371   0.11391615   -1.7936435    1.0755998   439061 
 3915000   0.71532373   -1.7923158   -1.7923158  -0.71933265   0.11497216   -1.7923158    1.0729832   439061 
 3916000   0.71703595   -1.7939642   -1.7939642   -0.7184127   0.11366268   -1.7939642    1.0755515   439061 
 3917000   0.71609016   -1.7922579   -1.7922579  -0.71812515   0.11175318   -1.7922579    1.0741328   439061 
 3918000   0.71692735   -1.7938981   -1.7938981  -0.71850956   0.11476614   -1.7938981    1.0753886   439061 
 3919000   0.71765043   -1.7955201   -1.7955201  -0.71904694   0.11470871   -1.7955201    1.0764732   439061 
 3920000   0.71715054   -1.7946603   -1.7946603  -0.71893698   0.11018723   -1.7946603    1.0757234   439061 
 3921000   0.71695149   -1.7937486   -1.7937486  -0.71832378   0.11434793   -1.7937486    1.0754248   439061 
 3922000   0.71751694   -1.7948975   -1.7948975  -0.71862452   0.11645692   -1.7948975     1.076273   439061 
 3923000   0.71656963   -1.7941784   -1.7941784  -0.71932642   0.11382122   -1.7941784     1.074852   439061 
 3924000   0.71741733   -1.7962534   -1.7962534   -0.7201298    0.1125879   -1.7962534    1.0761236   439061 
 3925000    0.7162569   -1.7945414   -1.7945414  -0.72015849   0.11322648   -1.7945414    1.0743829   439061 
 3926000   0.71717489   -1.7971386   -1.7971386  -0.72137876   0.11293259   -1.7971386    1.0757599   439061 
 3927000    0.7164697   -1.7959455   -1.7959455  -0.72124342   0.11272487   -1.7959455    1.0747021   439061 
 3928000   0.71623827   -1.7952559   -1.7952559  -0.72090097     0.113731   -1.7952559     1.074355   439061 
 3929000   0.71651897   -1.7950937   -1.7950937  -0.72031766   0.11650436   -1.7950937     1.074776   439061 
 3930000   0.71662614   -1.7956737   -1.7956737  -0.72073692   0.11086317   -1.7956737    1.0749368   439061 
 3931000   0.71646805   -1.7950895   -1.7950895  -0.72038985    0.1131666   -1.7950895    1.0746996   439061 
 3932000   0.71624019   -1.7953285   -1.7953285  -0.72097062   0.11151257   -1.7953285    1.0743578   439061 
 3933000   0.71682872   -1.7953032   -1.7953032  -0.72006259   0.10953994   -1.7953032    1.0752406   439061 
 3934000   0.71705689   -1.7957364   -1.7957364  -0.72015354   0.11022584   -1.7957364    1.0755829   439061 
 3935000   0.71701445   -1.7953537   -1.7953537  -0.71983447   0.11678946   -1.7953537    1.0755192   439061 
 3936000   0.71591349   -1.7943434   -1.7943434  -0.72047565    0.1123587   -1.7943434    1.0738678   439061 
 3937000   0.71668656   -1.7952285   -1.7952285  -0.72020112    0.1134338   -1.7952285    1.0750274   439061 
 3938000   0.71609762   -1.7952074   -1.7952074  -0.72106337   0.11214262   -1.7952074     1.074144   439061 
 3939000   0.71600701   -1.7945764   -1.7945764  -0.72056832    0.1136956   -1.7945764    1.0740081   439061 
 3940000    0.7165549   -1.7943478   -1.7943478  -0.71951791   0.11742547   -1.7943478    1.0748299   439061 
 3941000   0.71582487   -1.7935161   -1.7935161  -0.71978129   0.11077248   -1.7935161    1.0737349   439061 
 3942000   0.71628039   -1.7939453   -1.7939453  -0.71952715   0.11580883   -1.7939453    1.0744181   439061 
 3943000   0.71787228   -1.7955899   -1.7955899  -0.71878398   0.11475117   -1.7955899     1.076806   439061 
 3944000   0.71608197   -1.7924975   -1.7924975    -0.718377   0.11263309   -1.7924975    1.0741205   439061 
 3945000    0.7165017   -1.7938757   -1.7938757  -0.71912565   0.11828788   -1.7938757    1.0747501   439061 
 3946000   0.71696765   -1.7937053   -1.7937053  -0.71825623    0.1154803   -1.7937053     1.075449   439061 
 3947000   0.71634083   -1.7935211   -1.7935211  -0.71901234   0.11695774   -1.7935211    1.0745088   439061 
 3948000   0.71668646    -1.794879    -1.794879  -0.71985174   0.11645813    -1.794879    1.0750272   439061 
 3949000   0.71703587    -1.795069    -1.795069  -0.71951763   0.11099689    -1.795069    1.0755514   439061 
 3950000   0.71526303   -1.7924925   -1.7924925  -0.71960042   0.11266961   -1.7924925    1.0728921   439061 
 3951000   0.71569707   -1.7927202   -1.7927202  -0.71917708   0.11403384   -1.7927202    1.0735432   439061 
 3952000   0.71514699   -1.7907034   -1.7907034  -0.71798539   0.11747034   -1.7907034     1.072718   439061 
 3953000   0.71728196   -1.7940484   -1.7940484   -0.7181279   0.11770288   -1.7940484    1.0759205   439061 
 3954000   0.71553106   -1.7928773   -1.7928773  -0.71958315   0.11583059   -1.7928773    1.0732941   439061 
 3955000   0.71774078   -1.7960064   -1.7960064  -0.71939771   0.11314947   -1.7960064    1.0766087   439061 
 3956000   0.71601344   -1.7927255   -1.7927255  -0.71870782   0.11080434   -1.7927255    1.0740177   439061 
 3957000   0.71645271   -1.7930415   -1.7930415   -0.7183649   0.11009742   -1.7930415    1.0746766   439061 
 3958000   0.71537052   -1.7915328   -1.7915328  -0.71847945   0.11446871   -1.7915328    1.0730533   439061 
 3959000   0.71635281   -1.7924963   -1.7924963  -0.71796953   0.11640308   -1.7924963    1.0745268   439061 
 3960000   0.71636418   -1.7935116   -1.7935116  -0.71896774   0.11138175   -1.7935116    1.0745438   439061 
 3961000   0.71709939   -1.7948479   -1.7948479  -0.71920131   0.11050962   -1.7948479    1.0756466   439061 
 3962000   0.71647152   -1.7937441   -1.7937441  -0.71903929   0.11265033   -1.7937441    1.0747048   439061 
 3963000   0.71591583   -1.7924124   -1.7924124  -0.71854109   0.11243331   -1.7924124    1.0738713   439061 
 3964000   0.71543849   -1.7922884   -1.7922884   -0.7191331   0.11337675   -1.7922884    1.0731553   439061 
 3965000   0.71524221   -1.7918316   -1.7918316  -0.71897074   0.11267571   -1.7918316    1.0728609   439061 
 3966000   0.71483973   -1.7916076   -1.7916076  -0.71935043   0.11217307   -1.7916076    1.0722572   439061 
 3967000   0.71623607   -1.7945416   -1.7945416  -0.72018998   0.11246815   -1.7945416    1.0743517   439061 
 3968000   0.71559307   -1.7932906   -1.7932906  -0.71990347   0.10939712   -1.7932906    1.0733872   439061 
 3969000   0.71580703   -1.7930615   -1.7930615  -0.71935344   0.11372396   -1.7930615    1.0737081   439061 
 3970000   0.71629906   -1.7932301   -1.7932301  -0.71878398   0.11585363   -1.7932301    1.0744461   439061 
 3971000   0.71596833   -1.7940008   -1.7940008   -0.7200507   0.11244227   -1.7940008      1.07395   439061 
 3972000   0.71556063   -1.7928523   -1.7928523  -0.71951383   0.11107671   -1.7928523    1.0733385   439061 
 3973000   0.71721882   -1.7947118   -1.7947118  -0.71888604   0.11395337   -1.7947118    1.0758258   439061 
 3974000   0.71705249    -1.794471    -1.794471  -0.71889468   0.11325196    -1.794471    1.0755763   439061 
 3975000   0.71705048   -1.7949673   -1.7949673  -0.71939406   0.11474298   -1.7949673    1.0755733   439061 
 3976000   0.71658149   -1.7942632   -1.7942632   -0.7193934   0.11338945   -1.7942632    1.0748698   439061 
 3977000   0.71696663   -1.7941945   -1.7941945  -0.71874698    0.1172562   -1.7941945    1.0754475   439061 
 3978000   0.71621541   -1.7936005   -1.7936005   -0.7192798   0.11512706   -1.7936005    1.0743207   439061 
 3979000   0.71590418   -1.7936553   -1.7936553  -0.71980146   0.11190133   -1.7936553    1.0738538   439061 
 3980000   0.71634226   -1.7952558   -1.7952558  -0.72074485   0.11143799   -1.7952558    1.0745109   439061 
 3981000   0.71655254   -1.7946474   -1.7946474  -0.71982106    0.1143273   -1.7946474    1.0748264   439061 
 3982000   0.71498891   -1.7934312   -1.7934312  -0.72095033   0.11148438   -1.7934312    1.0724809   439061 
 3983000    0.7150587   -1.7939105   -1.7939105  -0.72132487   0.10986476   -1.7939105    1.0725856   439061 
 3984000   0.71641835   -1.7949158   -1.7949158  -0.72029074   0.11461556   -1.7949158    1.0746251   439061 
 3985000   0.71634492   -1.7942951   -1.7942951  -0.71978019   0.11219038   -1.7942951    1.0745149   439061 
 3986000     0.716969   -1.7955107   -1.7955107  -0.72005962   0.11474821   -1.7955107    1.0754511   439061 
 3987000   0.71589147   -1.7946738   -1.7946738  -0.72083903   0.11223333   -1.7946738    1.0738348   439061 
 3988000   0.71660281   -1.7952672   -1.7952672  -0.72036545   0.11007367   -1.7952672    1.0749018   439061 
 3989000   0.71682675   -1.7962608   -1.7962608  -0.72102311    0.1163122   -1.7962608    1.0752377   439061 
 3990000   0.71656682   -1.7948853   -1.7948853   -0.7200375   0.11414163   -1.7948853    1.0748478   439061 
 3991000   0.71610146   -1.7937361   -1.7937361  -0.71958633   0.11530778   -1.7937361    1.0741497   439061 
 3992000   0.71663689   -1.7949283   -1.7949283  -0.71997545   0.11147806   -1.7949283    1.0749529   439061 
 3993000   0.71729905   -1.7950783   -1.7950783  -0.71913213   0.11318763   -1.7950783    1.0759461   439061 
 3994000   0.71593924   -1.7936405   -1.7936405  -0.71973404   0.11645887   -1.7936405    1.0739064   439061 
 3995000    0.7163789   -1.7950684   -1.7950684  -0.72050248    0.1124343   -1.7950684    1.0745659   439061 
 3996000    0.7158056   -1.7940331   -1.7940331  -0.72032716    0.1146175   -1.7940331     1.073706   439061 
 3997000   0.71620228   -1.7950692   -1.7950692  -0.72076819   0.10818002   -1.7950692     1.074301   439061 
 3998000   0.71543857   -1.7942451   -1.7942451  -0.72108966   0.10975373   -1.7942451    1.0731554   439061 
 3999000     0.716592   -1.7955444   -1.7955444  -0.72065888   0.11203509   -1.7955444    1.0748856   439061 
 4000000   0.71585991   -1.7937543   -1.7937543  -0.71996685   0.11531619   -1.7937543    1.0737874   439061 
 4001000   0.71592519   -1.7941125   -1.7941125  -0.72022712   0.11325534   -1.7941125    1.0738853   439061 
 4002000   0.71687721   -1.7947814   -1.7947814  -0.71946802   0.11646663   -1.7947814    1.0753134   439061 
 4003000   0.71629464    -1.794171    -1.794171  -0.71973147   0.11369531    -1.794171    1.0744395   439061 
 4004000   0.71598864   -1.7935955   -1.7935955    -0.719615   0.11644819   -1.7935955    1.0739805   439061 
 4005000    0.7145852   -1.7917524   -1.7917524  -0.71987701    0.1139184   -1.7917524    1.0718754   439061 
 4006000   0.71688297   -1.7945946   -1.7945946  -0.71927259   0.11377727   -1.7945946     1.075322   439061 
 4007000   0.71516417   -1.7922669   -1.7922669  -0.71952313   0.11404807   -1.7922669    1.0727438   439061 
 4008000   0.71629944   -1.7946019   -1.7946019  -0.72015521   0.11391563   -1.7946019    1.0744467   439061 
 4009000   0.71781362   -1.7960833   -1.7960833  -0.71936529   0.11381827   -1.7960833     1.076718   439061 
 4010000   0.71652972   -1.7937336   -1.7937336  -0.71894144   0.11343114   -1.7937336    1.0747921   439061 
 4011000   0.71521796   -1.7925471   -1.7925471  -0.71972259   0.10898908   -1.7925471    1.0728245   439061 
 4012000   0.71502277   -1.7918399   -1.7918399   -0.7193082   0.11255004   -1.7918399    1.0725317   439061 
 4013000   0.71480881   -1.7913385   -1.7913385  -0.71912775   0.11040092   -1.7913385    1.0722108   439061 
 4014000   0.71691818   -1.7948632   -1.7948632   -0.7194884    0.1127233   -1.7948632    1.0753748   439061 
 4015000   0.71451551   -1.7906574   -1.7906574  -0.71888661   0.11548454   -1.7906574    1.0717708   439061 
 4016000   0.71596313   -1.7927802   -1.7927802  -0.71883793   0.11263743   -1.7927802    1.0739422   439061 
 4017000   0.71696809   -1.7938383   -1.7938383   -0.7183886   0.11390772   -1.7938383    1.0754497   439061 
 4018000   0.71720777   -1.7948039   -1.7948039  -0.71899473   0.11442702   -1.7948039    1.0758092   439061 
 4019000   0.71573359   -1.7925753   -1.7925753  -0.71897732   0.11408413   -1.7925753    1.0735979   439061 
 4020000   0.71580377   -1.7917624   -1.7917624  -0.71805916   0.11707339   -1.7917624    1.0737032   439061 
 4021000   0.71599239   -1.7927025   -1.7927025  -0.71871632   0.11182338   -1.7927025    1.0739861   439061 
 4022000   0.71584695   -1.7927517   -1.7927517  -0.71898371   0.11089502   -1.7927517     1.073768   439061 
 4023000   0.71483924   -1.7919258   -1.7919258  -0.71966942   0.11246046   -1.7919258    1.0722564   439061 
 4024000   0.71641034    -1.793753    -1.793753  -0.71913994   0.11400627    -1.793753    1.0746131   439061 
 4025000   0.71561067   -1.7917484   -1.7917484  -0.71833483   0.11274303   -1.7917484    1.0734136   439061 
 4026000   0.71661591   -1.7930827   -1.7930827   -0.7181613   0.11545525   -1.7930827    1.0749214   439061 
 4027000   0.71511384   -1.7911053   -1.7911053  -0.71843702   0.11467683   -1.7911053    1.0726683   439061 
 4028000   0.71556707   -1.7914047   -1.7914047  -0.71805649   0.11440207   -1.7914047    1.0733482   439061 
 4029000   0.71673329   -1.7924793   -1.7924793  -0.71738182   0.11324983   -1.7924793    1.0750975   439061 
 4030000   0.71664377   -1.7929333   -1.7929333  -0.71797008   0.11543123   -1.7929333    1.0749632   439061 
 4031000   0.71606887   -1.7921187   -1.7921187  -0.71801781   0.11410923   -1.7921187    1.0741009   439061 
 4032000   0.71616448    -1.792885    -1.792885  -0.71864074   0.11315578    -1.792885    1.0742443   439061 
 4033000   0.71619919   -1.7925223   -1.7925223  -0.71822594   0.11421838   -1.7925223    1.0742963   439061 
 4034000   0.71709871   -1.7934712   -1.7934712  -0.71782562   0.11303226   -1.7934712    1.0756456   439061 
 4035000   0.71561283   -1.7921466   -1.7921466  -0.71872976   0.11666436   -1.7921466    1.0734168   439061 
 4036000   0.71665063    -1.793158    -1.793158   -0.7181845   0.11499904    -1.793158    1.0749735   439061 
 4037000   0.71713951   -1.7935754   -1.7935754  -0.71786859   0.11377342   -1.7935754    1.0757068   439061 
 4038000   0.71565535   -1.7924389   -1.7924389  -0.71895834   0.11421402   -1.7924389    1.0734806   439061 
 4039000   0.71648395   -1.7933675   -1.7933675  -0.71864403    0.1141064   -1.7933675    1.0747235   439061 
 4040000   0.71594386   -1.7928208   -1.7928208  -0.71890741   0.10989095   -1.7928208    1.0739133   439061 
 4041000   0.71656005   -1.7925333   -1.7925333  -0.71769564   0.11338627   -1.7925333    1.0748376   439061 
 4042000   0.71736329   -1.7936873   -1.7936873  -0.71764479   0.11085827   -1.7936873    1.0760425   439061 
 4043000   0.71800694   -1.7943588   -1.7943588  -0.71735082   0.11535967   -1.7943588     1.077008   439061 
 4044000   0.71636976   -1.7926903   -1.7926903   -0.7181381   0.11354073   -1.7926903    1.0745522   439061 
 4045000   0.71672258   -1.7943542   -1.7943542  -0.71927277   0.11452202   -1.7943542    1.0750814   439061 
 4046000    0.7155492   -1.7928425   -1.7928425   -0.7195211    0.1120066   -1.7928425    1.0733214   439061 
 4047000   0.71510654   -1.7912621   -1.7912621  -0.71860477   0.11225197   -1.7912621    1.0726574   439061 
 4048000   0.71622055   -1.7929163   -1.7929163  -0.71858788   0.11302479   -1.7929163    1.0743284   439061 
 4049000   0.71631619   -1.7937829   -1.7937829  -0.71931104   0.11171652   -1.7937829    1.0744718   439061 
 4050000   0.71668137   -1.7927283   -1.7927283  -0.71770868     0.116751   -1.7927283    1.0750196   439061 
 4051000   0.71685087   -1.7944913   -1.7944913  -0.71921741    0.1072669   -1.7944913    1.0752739   439061 
 4052000   0.71594973   -1.7927742   -1.7927742  -0.71885204   0.11594654   -1.7927742    1.0739221   439061 
 4053000    0.7166827   -1.7941913   -1.7941913  -0.71916965   0.11098528   -1.7941913    1.0750216   439061 
 4054000   0.71672569   -1.7946894   -1.7946894  -0.71960329   0.11209937   -1.7946894    1.0750861   439061 
 4055000   0.71548174   -1.7922472   -1.7922472  -0.71902704   0.11269596   -1.7922472    1.0732202   439061 
 4056000   0.71716813   -1.7942848   -1.7942848  -0.71853502   0.10920355   -1.7942848    1.0757498   439061 
 4057000   0.71661431   -1.7937337   -1.7937337  -0.71881471   0.11185975   -1.7937337     1.074919   439061 
 4058000    0.7162359   -1.7942152   -1.7942152   -0.7198638   0.11416019   -1.7942152    1.0743514   439061 
 4059000   0.71531986   -1.7921181   -1.7921181  -0.71914072   0.11451801   -1.7921181    1.0729773   439061 
 4060000   0.71598481   -1.7937262   -1.7937262  -0.71975142   0.11189887   -1.7937262    1.0739748   439061 
 4061000   0.71589678   -1.7934869   -1.7934869  -0.71964423   0.11453198   -1.7934869    1.0738427   439061 
 4062000   0.71581757    -1.792714    -1.792714  -0.71899013   0.11318703    -1.792714    1.0737239   439061 
 4063000   0.71540861   -1.7924309   -1.7924309  -0.71932041   0.11385251   -1.7924309    1.0731105   439061 
 4064000    0.7161734   -1.7931905   -1.7931905  -0.71893287    0.1139784   -1.7931905    1.0742577   439061 
 4065000   0.71625887   -1.7942059   -1.7942059  -0.71982009   0.11275616   -1.7942059    1.0743859   439061 
 4066000   0.71691877   -1.7949282   -1.7949282  -0.71955245   0.11435646   -1.7949282    1.0753757   439061 
 4067000     0.715634   -1.7927746   -1.7927746  -0.71932607   0.11336516   -1.7927746    1.0734486   439061 
 4068000   0.71716462   -1.7936457   -1.7936457  -0.71790122   0.11199838   -1.7936457    1.0757445   439061 
 4069000   0.71538144   -1.7911033   -1.7911033   -0.7180336   0.11111813   -1.7911033    1.0730697   439061 
 4070000   0.71591288   -1.7911441   -1.7911441  -0.71727725   0.11227554   -1.7911441    1.0738669   439061 
 4071000   0.71653078   -1.7915025   -1.7915025  -0.71670876   0.11559907   -1.7915025    1.0747937   439061 
 4072000   0.71760264   -1.7937245   -1.7937245  -0.71732304   0.11499826   -1.7937245    1.0764015   439061 
 4073000   0.71634835   -1.7917653   -1.7917653  -0.71724519    0.1169233   -1.7917653    1.0745201   439061 
 4074000   0.71622162   -1.7913692   -1.7913692  -0.71703927   0.11457378   -1.7913692      1.07433   439061 
 4075000   0.71553107   -1.7911694   -1.7911694  -0.71787528   0.11523312   -1.7911694    1.0732942   439061 
 4076000   0.71548408   -1.7913523   -1.7913523  -0.71812857   0.11599808   -1.7913523    1.0732237   439061 
 4077000   0.71590673   -1.7917824   -1.7917824   -0.7179248   0.11340962   -1.7917824    1.0738576   439061 
 4078000   0.71646268   -1.7924215   -1.7924215  -0.71772997    0.1137616   -1.7924215    1.0746916   439061 
 4079000   0.71644849   -1.7930435   -1.7930435  -0.71837322   0.11448372   -1.7930435    1.0746703   439061 
 4080000   0.71624255   -1.7924957   -1.7924957  -0.71813435   0.11533178   -1.7924957    1.0743614   439061 
 4081000   0.71764741   -1.7939363   -1.7939363  -0.71746767   0.11498221   -1.7939363    1.0764687   439061 
 4082000   0.71662577    -1.793023    -1.793023  -0.71808684    0.1130975    -1.793023    1.0749362   439061 
 4083000   0.71653142   -1.7933997   -1.7933997  -0.71860498   0.11439048   -1.7933997    1.0747947   439061 
 4084000   0.71693294   -1.7940152   -1.7940152  -0.71861828   0.11372242   -1.7940152     1.075397   439061 
 4085000   0.71658506   -1.7941452   -1.7941452  -0.71927003    0.1107238   -1.7941452    1.0748751   439061 
 4086000    0.7167776   -1.7941117   -1.7941117  -0.71894777   0.11653388   -1.7941117     1.075164   439061 
 4087000   0.71552649   -1.7921704   -1.7921704  -0.71888312   0.11334388   -1.7921704    1.0732873   439061 
 4088000   0.71522931   -1.7919939   -1.7919939  -0.71915238   0.11187262   -1.7919939    1.0728415   439061 
 4089000   0.71610622   -1.7936161   -1.7936161  -0.71945923   0.11049313   -1.7936161    1.0741569   439061 
 4090000   0.71643089   -1.7924225   -1.7924225  -0.71777864   0.11556423   -1.7924225    1.0746439   439061 
 4091000   0.71718501   -1.7930365   -1.7930365  -0.71726142   0.11105819   -1.7930365    1.0757751   439061 
 4092000   0.71703592   -1.7931484   -1.7931484  -0.71759698   0.11423342   -1.7931484    1.0755514   439061 
 4093000   0.71649684   -1.7926266   -1.7926266  -0.71788383   0.11696851   -1.7926266    1.0747428   439061 
 4094000   0.71612213   -1.7926969   -1.7926969  -0.71851613   0.11218632   -1.7926969    1.0741807   439061 
 4095000   0.71614646   -1.7916384   -1.7916384  -0.71742115   0.11420683   -1.7916384    1.0742172   439061 
 4096000   0.71483717   -1.7890606   -1.7890606  -0.71680727   0.11178872   -1.7890606    1.0722533   439061 
 4097000   0.71673427    -1.793051    -1.793051  -0.71795209   0.11658643    -1.793051     1.075099   439061 
 4098000   0.71626376   -1.7929163   -1.7929163  -0.71852312   0.11046109   -1.7929163    1.0743932   439061 
 4099000   0.71558676   -1.7921705   -1.7921705  -0.71879284   0.11553408   -1.7921705    1.0733777   439061 
 4100000   0.71625649   -1.7934539   -1.7934539  -0.71907159   0.11298976   -1.7934539    1.0743823   439061 
 4101000   0.71580724   -1.7923052   -1.7923052  -0.71859677   0.11337697   -1.7923052    1.0737084   439061 
 4102000   0.71601204   -1.7925535   -1.7925535  -0.71853787   0.11356754   -1.7925535    1.0740156   439061 
 4103000   0.71560563   -1.7915205   -1.7915205  -0.71811445   0.11569976   -1.7915205     1.073406   439061 
 4104000   0.71589585   -1.7907287   -1.7907287  -0.71688733   0.11131284   -1.7907287    1.0738413   439061 
 4105000   0.71513371   -1.7896234   -1.7896234  -0.71692526   0.11310397   -1.7896234    1.0726981   439061 
 4106000   0.71542478   -1.7899323   -1.7899323  -0.71679759   0.11537629   -1.7899323    1.0731347   439061 
 4107000   0.71760158   -1.7939007   -1.7939007  -0.71750072   0.11067124   -1.7939007    1.0763999   439061 
 4108000   0.71624767   -1.7923507   -1.7923507  -0.71798168   0.11013321   -1.7923507    1.0743691   439061 
 4109000   0.71567841   -1.7912725   -1.7912725   -0.7177573   0.11537789   -1.7912725    1.0735152   439061 
 4110000   0.71646985   -1.7927615   -1.7927615  -0.71805921   0.11208993   -1.7927615    1.0747023   439061 
 4111000   0.71639588   -1.7919115   -1.7919115  -0.71732015   0.11256527   -1.7919115    1.0745914   439061 
 4112000   0.71573685   -1.7917914   -1.7917914   -0.7181886   0.11455121   -1.7917914    1.0736028   439061 
 4113000   0.71645267   -1.7933846   -1.7933846  -0.71870806   0.11538097   -1.7933846    1.0746766   439061 
 4114000   0.71618216   -1.7919783   -1.7919783  -0.71770753   0.11108878   -1.7919783    1.0742708   439061 
 4115000   0.71601916   -1.7916169   -1.7916169  -0.71759064   0.11606881   -1.7916169    1.0740263   439061 
 4116000   0.71618429   -1.7915469   -1.7915469   -0.7172729   0.11510549   -1.7915469     1.074274   439061 
 4117000   0.71735793   -1.7927204   -1.7927204  -0.71668598   0.11126685   -1.7927204    1.0760344   439061 
 4118000   0.71678257    -1.792468    -1.792468   -0.7172966    0.1137453    -1.792468    1.0751714   439061 
 4119000   0.71737929   -1.7922924   -1.7922924  -0.71622594   0.11067696   -1.7922924    1.0760665   439061 
 4120000   0.71755976   -1.7929786   -1.7929786  -0.71664141   0.11442211   -1.7929786    1.0763372   439061 
 4121000   0.71633487   -1.7920284   -1.7920284  -0.71752859   0.11182638   -1.7920284    1.0744999   439061 
 4122000    0.7155086   -1.7913793   -1.7913793  -0.71811885   0.11394343   -1.7913793    1.0732605   439061 
 4123000    0.7159865   -1.7912947   -1.7912947  -0.71731744   0.11250577   -1.7912947    1.0739773   439061 
 4124000   0.71676053   -1.7923846   -1.7923846  -0.71724624   0.11188861   -1.7923846    1.0751384   439061 
 4125000   0.71825424   -1.7940187   -1.7940187  -0.71663979   0.11177473   -1.7940187    1.0773789   439061 
 4126000   0.71698778   -1.7923631   -1.7923631  -0.71688386   0.11064659   -1.7923631    1.0754792   439061 
 4127000   0.71640554   -1.7908072   -1.7908072  -0.71620134   0.11353871   -1.7908072    1.0746059   439061 
 4128000    0.7165004   -1.7914561   -1.7914561  -0.71670799   0.11838842   -1.7914561    1.0747482   439061 
 4129000   0.71627288   -1.7922866   -1.7922866  -0.71787974   0.11294994   -1.7922866    1.0744069   439061 
 4130000   0.71649601   -1.7931951   -1.7931951  -0.71845354   0.11093449   -1.7931951    1.0747416   439061 
 4131000    0.7159252   -1.7928083   -1.7928083  -0.71892295   0.11162176   -1.7928083    1.0738854   439061 
 4132000   0.71548657   -1.7917893   -1.7917893  -0.71856188   0.11153897   -1.7917893    1.0732274   439061 
 4133000   0.71641412   -1.7932981   -1.7932981  -0.71867939   0.10772884   -1.7932981    1.0746187   439061 
 4134000   0.71678102    -1.794285    -1.794285  -0.71911596   0.11404308    -1.794285    1.0751691   439061 
 4135000   0.71535034   -1.7924821   -1.7924821  -0.71945902   0.11441302   -1.7924821    1.0730231   439061 
 4136000   0.71613081   -1.7928463   -1.7928463  -0.71865256   0.11633506   -1.7928463    1.0741938   439061 
 4137000   0.71549385   -1.7929391   -1.7929391  -0.71970072   0.11098229   -1.7929391    1.0732383   439061 
 4138000   0.71621133   -1.7948204   -1.7948204  -0.72050585   0.11187356   -1.7948204    1.0743145   439061 
 4139000   0.71507424   -1.7927764   -1.7927764   -0.7201675     0.115312   -1.7927764    1.0726089   439061 
 4140000   0.71545345   -1.7935722   -1.7935722   -0.7203945   0.11338446   -1.7935722    1.0731777   439061 
 4141000   0.71574805   -1.7940731   -1.7940731  -0.72045347   0.11094162   -1.7940731    1.0736196   439061 
 4142000   0.71441002   -1.7933515   -1.7933515  -0.72173891   0.11428424   -1.7933515    1.0716126   439061 
 4143000   0.71536454   -1.7952513   -1.7952513  -0.72220691   0.11112648   -1.7952513    1.0730444   439061 
 4144000   0.71542045   -1.7950884   -1.7950884  -0.72196015   0.11216241   -1.7950884    1.0731282   439061 
 4145000   0.71530785   -1.7955463   -1.7955463  -0.72258697   0.11005042   -1.7955463    1.0729593   439061 
 4146000   0.71563915   -1.7952998   -1.7952998  -0.72184356   0.11142145   -1.7952998    1.0734563   439061 
 4147000   0.71479856   -1.7936387   -1.7936387  -0.72144334   0.11168325   -1.7936387    1.0721954   439061 
 4148000   0.71519305   -1.7944042   -1.7944042  -0.72161709   0.11475695   -1.7944042    1.0727871   439061 
 4149000   0.71662105   -1.7963518   -1.7963518   -0.7214227   0.11147623   -1.7963518    1.0749291   439061 
 4150000   0.71673354   -1.7962432   -1.7962432  -0.72114535   0.11023006   -1.7962432    1.0750979   439061 
 4151000   0.71654196   -1.7957888   -1.7957888  -0.72097832   0.11337622   -1.7957888    1.0748105   439061 
 4152000   0.71616176   -1.7947711   -1.7947711  -0.72053088   0.11202782   -1.7947711    1.0742402   439061 
 4153000   0.71558142   -1.7933044   -1.7933044  -0.71993475   0.11534797   -1.7933044    1.0733697   439061 
 4154000   0.71505978   -1.7933828   -1.7933828   -0.7207956   0.11441152   -1.7933828    1.0725872   439061 
 4155000   0.71590225   -1.7957873   -1.7957873  -0.72193641   0.11129339   -1.7957873    1.0738509   439061 
 4156000   0.71460135   -1.7939787   -1.7939787  -0.72207911   0.11128722   -1.7939787    1.0718996   439061 
 4157000   0.71576859   -1.7950584   -1.7950584  -0.72140799   0.11045502   -1.7950584    1.0736504   439061 
 4158000   0.71507048   -1.7950483   -1.7950483    -0.722445   0.11358145   -1.7950483    1.0726033   439061 
 4159000   0.71584084   -1.7959839   -1.7959839  -0.72222513   0.11275773   -1.7959839    1.0737588   439061 
 4160000   0.71629954   -1.7964297   -1.7964297  -0.72198284   0.11111219   -1.7964297    1.0744469   439061 
 4161000   0.71615332   -1.7957043   -1.7957043  -0.72147676   0.11568836   -1.7957043    1.0742275   439061 
 4162000   0.71498787   -1.7939424   -1.7939424  -0.72146305   0.11262035   -1.7939424    1.0724794   439061 
 4163000   0.71419811   -1.7941282   -1.7941282  -0.72283353   0.11427919   -1.7941282    1.0712947   439061 
 4164000   0.71590454   -1.7960763   -1.7960763  -0.72222192   0.11485936   -1.7960763    1.0738544   439061 
 4165000   0.71567896   -1.7964479   -1.7964479  -0.72293193   0.11252063   -1.7964479     1.073516   439061 
 4166000   0.71532317   -1.7955534   -1.7955534   -0.7225711   0.11491808   -1.7955534    1.0729823   439061 
 4167000   0.71561739    -1.795267    -1.795267  -0.72184334   0.11515769    -1.795267    1.0734236   439061 
 4168000    0.7161437   -1.7967278   -1.7967278  -0.72251472   0.11369172   -1.7967278    1.0742131   439061 
 4169000   0.71554872   -1.7960868   -1.7960868  -0.72276615   0.11030368   -1.7960868    1.0733206   439061 
 4170000   0.71677655   -1.7966186   -1.7966186   -0.7214562   0.11240482   -1.7966186    1.0751624   439061 
 4171000   0.71707996   -1.7965908   -1.7965908  -0.72097335   0.11058238   -1.7965908    1.0756175   439061 
 4172000   0.71648839   -1.7955071   -1.7955071  -0.72077701   0.10839373   -1.7955071    1.0747301   439061 
 4173000   0.71704006   -1.7966903   -1.7966903  -0.72113264   0.11611373   -1.7966903    1.0755576   439061 
 4174000     0.714982   -1.7936391   -1.7936391  -0.72116858   0.11477546   -1.7936391    1.0724706   439061 
 4175000   0.71537645   -1.7949045   -1.7949045  -0.72184226   0.10986343   -1.7949045    1.0730622   439061 
 4176000    0.7162922    -1.796285    -1.796285  -0.72184915   0.11137296    -1.796285    1.0744359   439061 
 4177000   0.71621955   -1.7961503   -1.7961503  -0.72182337   0.11152324   -1.7961503    1.0743269   439061 
 4178000   0.71508753   -1.7944711   -1.7944711  -0.72184222   0.11170469   -1.7944711    1.0726289   439061 
 4179000   0.71555288   -1.7947284   -1.7947284  -0.72140148   0.11421082   -1.7947284    1.0733269   439061 
 4180000   0.71535091   -1.7935226   -1.7935226  -0.72049871   0.11030762   -1.7935226    1.0730239   439061 
 4181000   0.71609238   -1.7947105   -1.7947105  -0.72057442   0.11365694   -1.7947105    1.0741361   439061 
 4182000   0.71587313   -1.7940922   -1.7940922  -0.72028496   0.11467434   -1.7940922    1.0738072   439061 
 4183000    0.7144088    -1.792932    -1.792932  -0.72132125   0.11123813    -1.792932    1.0716108   439061 
 4184000   0.71562699   -1.7946578   -1.7946578  -0.72121978   0.11114345   -1.7946578     1.073438   439061 
 4185000   0.71641256    -1.795142    -1.795142  -0.72052563   0.10851468    -1.795142    1.0746164   439061 
 4186000    0.7159318   -1.7953829   -1.7953829  -0.72148765   0.10838041   -1.7953829    1.0738952   439061 
 4187000   0.71543876   -1.7947141   -1.7947141  -0.72155843   0.11671583   -1.7947141    1.0731557   439061 
 4188000    0.7142574   -1.7937191   -1.7937191  -0.72233539   0.11021983   -1.7937191    1.0713837   439061 
 4189000   0.71479463   -1.7947301   -1.7947301  -0.72254062   0.11166827   -1.7947301    1.0721895   439061 
 4190000   0.71533951   -1.7944025   -1.7944025  -0.72139572   0.11314427   -1.7944025    1.0730068   439061 
 4191000    0.7147241   -1.7929669   -1.7929669  -0.72088315    0.1100378   -1.7929669    1.0720837   439061 
 4192000   0.71549719   -1.7946881   -1.7946881  -0.72144472   0.10853596   -1.7946881    1.0732433   439061 
 4193000   0.71480532   -1.7942008   -1.7942008  -0.72199531   0.10850696   -1.7942008    1.0722055   439061 
 4194000   0.71499264   -1.7937437   -1.7937437  -0.72125716   0.11564773   -1.7937437    1.0724865   439061 
 4195000    0.7145676    -1.791952    -1.791952  -0.72010305   0.11358182    -1.791952     1.071849   439061 
 4196000     0.715205   -1.7937686   -1.7937686  -0.72096358   0.11119531   -1.7937686    1.0728051   439061 
 4197000     0.715722   -1.7946116   -1.7946116  -0.72103101   0.11557612   -1.7946116    1.0735806   439061 
 4198000   0.71456229   -1.7934449   -1.7934449  -0.72160388   0.11315394   -1.7934449     1.071841   439061 
 4199000   0.71538364   -1.7944024   -1.7944024  -0.72132942   0.11306243   -1.7944024     1.073073   439061 
 4200000    0.7159537   -1.7955831   -1.7955831  -0.72165499   0.11227066   -1.7955831    1.0739281   439061 
 4201000   0.71523012   -1.7939077   -1.7939077  -0.72106498   0.11208077   -1.7939077    1.0728427   439061 
 4202000    0.7167597   -1.7955986   -1.7955986  -0.72046155   0.10988039   -1.7955986    1.0751371   439061 
 4203000     0.716385    -1.795159    -1.795159  -0.72058399   0.11011017    -1.795159     1.074575   439061 
 4204000   0.71597115   -1.7931155   -1.7931155  -0.71916125   0.11384243   -1.7931155    1.0739543   439061 
 4205000   0.71673403   -1.7952672   -1.7952672  -0.72016861   0.11620154   -1.7952672    1.0750986   439061 
 4206000    0.7166449    -1.794266    -1.794266  -0.71930114   0.10969751    -1.794266    1.0749649   439061 
 4207000    0.7167695   -1.7945819   -1.7945819  -0.71943008   0.11429183   -1.7945819    1.0751518   439061 
 4208000   0.71697511   -1.7943986   -1.7943986   -0.7189384   0.11352358   -1.7943986    1.0754602   439061 
 4209000   0.71723553   -1.7949686   -1.7949686  -0.71911776   0.11567236   -1.7949686    1.0758508   439061 
 4210000   0.71563848    -1.793815    -1.793815  -0.72035972   0.11318722    -1.793815    1.0734553   439061 
 4211000   0.71589606   -1.7951826   -1.7951826  -0.72134098   0.11271545   -1.7951826    1.0738416   439061 
 4212000   0.71525815   -1.7934252   -1.7934252  -0.72054039   0.11423891   -1.7934252    1.0728848   439061 
 4213000   0.71602978   -1.7950142   -1.7950142  -0.72097194   0.11226334   -1.7950142    1.0740422   439061 
 4214000   0.71615855   -1.7950595   -1.7950595  -0.72082416   0.11247186   -1.7950595    1.0742354   439061 
 4215000   0.71529071   -1.7942562   -1.7942562   -0.7213226   0.11376121   -1.7942562    1.0729336   439061 
 4216000   0.71594504   -1.7950959   -1.7950959  -0.72118078   0.11169883   -1.7950959    1.0739151   439061 
 4217000   0.71618643   -1.7954848   -1.7954848  -0.72120759   0.11307432   -1.7954848    1.0742772   439061 
 4218000   0.71427315   -1.7928574   -1.7928574  -0.72145014   0.11499815   -1.7928574    1.0714073   439061 
 4219000    0.7157366   -1.7949396   -1.7949396  -0.72133719   0.11275423   -1.7949396    1.0736025   439061 
 4220000    0.7147566   -1.7938468   -1.7938468   -0.7217143   0.11376064   -1.7938468    1.0721325   439061 
 4221000   0.71563011   -1.7949198   -1.7949198  -0.72147706   0.11131461   -1.7949198    1.0734427   439061 
 4222000   0.71542902   -1.7948418   -1.7948418   -0.7217007   0.11268303   -1.7948418    1.0731411   439061 
 4223000   0.71403961   -1.7925474   -1.7925474  -0.72149044   0.11264685   -1.7925474     1.071057   439061 
 4224000   0.71488816   -1.7940088   -1.7940088    -0.721679   0.11548635   -1.7940088    1.0723298   439061 
 4225000   0.71564095   -1.7948755   -1.7948755  -0.72141654    0.1109865   -1.7948755     1.073459   439061 
 4226000   0.71467687   -1.7935203   -1.7935203  -0.72150747   0.11250054   -1.7935203    1.0720129   439061 
 4227000   0.71597197    -1.796121    -1.796121  -0.72216547    0.1140547    -1.796121    1.0739555   439061 
 4228000   0.71520728   -1.7953876   -1.7953876  -0.72257915   0.11212381   -1.7953876    1.0728085   439061 
 4229000   0.71565754   -1.7957401   -1.7957401  -0.72225623   0.11077188   -1.7957401    1.0734839   439061 
 4230000   0.71457186   -1.7938338   -1.7938338  -0.72197849   0.11045094   -1.7938338    1.0718553   439061 
 4231000   0.71500613   -1.7929161   -1.7929161  -0.72040937   0.11022901   -1.7929161    1.0725068   439061 
 4232000   0.71624329   -1.7951394   -1.7951394   -0.7207769   0.11625805   -1.7951394    1.0743625   439061 
 4233000   0.71656697   -1.7953263   -1.7953263  -0.72047826   0.11519391   -1.7953263     1.074848   439061 
 4234000   0.71675151   -1.7962928   -1.7962928    -0.721168   0.10932855   -1.7962928    1.0751248   439061 
 4235000     0.715628   -1.7940178   -1.7940178  -0.72057829   0.11405722   -1.7940178    1.0734396   439061 
 4236000   0.71579411   -1.7935699   -1.7935699   -0.7198812   0.11762943   -1.7935699    1.0736887   439061 
 4237000   0.71476542   -1.7923036   -1.7923036  -0.72015794   0.11141407   -1.7923036    1.0721457   439061 
 4238000   0.71610878   -1.7949135   -1.7949135  -0.72075277   0.10950018   -1.7949135    1.0741607   439061 
 4239000   0.71557788   -1.7938891   -1.7938891  -0.72052469   0.11590404   -1.7938891    1.0733644   439061 
 4240000   0.71541077   -1.7937463   -1.7937463  -0.72063257   0.11393226   -1.7937463    1.0731137   439061 
 4241000   0.71579422    -1.794606    -1.794606  -0.72091715   0.11584149    -1.794606    1.0736889   439061 
 4242000   0.71594586   -1.7947294   -1.7947294  -0.72081308   0.11557446   -1.7947294    1.0739163   439061 
 4243000   0.71805788   -1.7977205   -1.7977205  -0.72063611   0.11174057   -1.7977205    1.0770844   439061 
 4244000    0.7158424   -1.7941332   -1.7941332  -0.72037208   0.11177285   -1.7941332    1.0737612   439061 
 4245000   0.71565427   -1.7948524   -1.7948524   -0.7213734   0.11504401   -1.7948524     1.073479   439061 
 4246000   0.71556488    -1.794399    -1.794399  -0.72105412   0.11665616    -1.794399    1.0733449   439061 
 4247000   0.71544776   -1.7941441   -1.7941441   -0.7209749   0.11222106   -1.7941441    1.0731692   439061 
 4248000   0.71719329   -1.7968288   -1.7968288  -0.72104132   0.10613717   -1.7968288    1.0757875   439061 
 4249000    0.7159076   -1.7936655   -1.7936655  -0.71980655   0.11459065   -1.7936655    1.0738589   439061 
 4250000   0.71660744   -1.7949502   -1.7949502  -0.72004145   0.11422252   -1.7949502    1.0749087   439061 
 4251000   0.71488637   -1.7931567   -1.7931567   -0.7208296   0.10863979   -1.7931567    1.0723271   439061 
 4252000   0.71629167   -1.7949545   -1.7949545   -0.7205194   0.11537557   -1.7949545    1.0744351   439061 
 4253000   0.71486411   -1.7924858   -1.7924858  -0.72019209    0.1123665   -1.7924858    1.0722937   439061 
 4254000    0.7152041   -1.7932783   -1.7932783  -0.72047455   0.11239018   -1.7932783    1.0728037   439061 
 4255000   0.71559207   -1.7937808   -1.7937808  -0.72039516   0.11261489   -1.7937808    1.0733857   439061 
 4256000   0.71520202   -1.7939648   -1.7939648  -0.72116421   0.10924791   -1.7939648    1.0728006   439061 
 4257000   0.71512228   -1.7939048   -1.7939048  -0.72122384   0.11106734   -1.7939048     1.072681   439061 
 4258000   0.71528543   -1.7934582   -1.7934582  -0.72053245   0.10970385   -1.7934582    1.0729257   439061 
 4259000   0.71485572   -1.7925287   -1.7925287  -0.72024752   0.11216672   -1.7925287    1.0722811   439061 
 4260000   0.71593899   -1.7934239   -1.7934239  -0.71951782   0.11253983   -1.7934239     1.073906   439061 
 4261000   0.71658496    -1.794073    -1.794073  -0.71919801    0.1141007    -1.794073     1.074875   439061 
 4262000    0.7153626   -1.7935688   -1.7935688  -0.72052732   0.11679528   -1.7935688    1.0730415   439061 
 4263000    0.7153084   -1.7938515   -1.7938515  -0.72089138   0.11428266   -1.7938515    1.0729602   439061 
 4264000    0.7148329   -1.7925373   -1.7925373  -0.72029042   0.11287489   -1.7925373    1.0722469   439061 
 4265000   0.71713721   -1.7953808   -1.7953808  -0.71967749   0.11136207   -1.7953808    1.0757034   439061 
 4266000   0.71476405   -1.7919982   -1.7919982  -0.71985457   0.11444935   -1.7919982    1.0721436   439061 
 4267000   0.71593461   -1.7937405   -1.7937405    -0.719841   0.11610378   -1.7937405    1.0738995   439061 
 4268000   0.71600281   -1.7948288   -1.7948288  -0.72082708   0.11389139   -1.7948288    1.0740018   439061 
 4269000   0.71572669   -1.7937755   -1.7937755  -0.72018795   0.11392857   -1.7937755    1.0735876   439061 
 4270000   0.71551332   -1.7930859   -1.7930859  -0.71981837   0.11437103   -1.7930859    1.0732675   439061 
 4271000   0.71690751   -1.7948767   -1.7948767  -0.71951791     0.115038   -1.7948767    1.0753588   439061 
 4272000   0.71648144   -1.7946942   -1.7946942  -0.71997448   0.11112617   -1.7946942    1.0747197   439061 
 4273000   0.71565192   -1.7936846   -1.7936846  -0.72020921   0.11641992   -1.7936846    1.0734754   439061 
 4274000   0.71562149    -1.792383    -1.792383  -0.71895317   0.11173772    -1.792383    1.0734298   439061 
 4275000   0.71710559   -1.7938457   -1.7938457  -0.71818979   0.11278146   -1.7938457    1.0756559   439061 
 4276000   0.71589042   -1.7928801   -1.7928801   -0.7190469   0.10979481   -1.7928801    1.0738332   439061 
 4277000   0.71674403   -1.7934578   -1.7934578   -0.7183442   0.10999564   -1.7934578    1.0751136   439061 
 4278000   0.71649574   -1.7934155   -1.7934155  -0.71867436     0.111427   -1.7934155    1.0747412   439061 
 4279000   0.71644167   -1.7931904   -1.7931904  -0.71853039   0.11108018   -1.7931904    1.0746601   439061 
 4280000   0.71587509    -1.793392    -1.793392  -0.71958181   0.11293044    -1.793392    1.0738102   439061 
 4281000   0.71542167   -1.7922859   -1.7922859  -0.71915585   0.11504033   -1.7922859    1.0731301   439061 
 4282000   0.71609571   -1.7934711   -1.7934711  -0.71932995   0.11311168   -1.7934711    1.0741411   439061 
 4283000   0.71610017   -1.7937882   -1.7937882  -0.71964044   0.11333816   -1.7937882    1.0741478   439061 
 4284000   0.71623099   -1.7930726   -1.7930726  -0.71872861   0.11364535   -1.7930726     1.074344   439061 
 4285000   0.71688053   -1.7950962   -1.7950962  -0.71977782   0.11402819   -1.7950962    1.0753183   439061 
 4286000    0.7157056   -1.7945539   -1.7945539  -0.72099791   0.10927877   -1.7945539     1.073556   439061 
 4287000    0.7153421   -1.7941326   -1.7941326  -0.72112189   0.11567208   -1.7941326    1.0730107   439061 
 4288000    0.7153069   -1.7949792   -1.7949792  -0.72202128   0.11067642   -1.7949792    1.0729579   439061 
 4289000   0.71690726   -1.7964026   -1.7964026  -0.72104418   0.11356735   -1.7964026    1.0753584   439061 
 4290000   0.71674836   -1.7951679   -1.7951679  -0.72004779   0.11133464   -1.7951679    1.0751201   439061 
 4291000   0.71546839   -1.7937614   -1.7937614  -0.72056127   0.11092241   -1.7937614    1.0732001   439061 
 4292000   0.71559204   -1.7939057   -1.7939057  -0.72052012   0.11238831   -1.7939057    1.0733856   439061 
 4293000   0.71686862   -1.7958971   -1.7958971  -0.72059659   0.11255776   -1.7958971    1.0753005   439061 
 4294000   0.71513741   -1.7931918   -1.7931918  -0.72048809   0.11461616   -1.7931918    1.0727037   439061 
 4295000   0.71602934   -1.7946465   -1.7946465  -0.72060497   0.11384774   -1.7946465    1.0740416   439061 
 4296000   0.71675074   -1.7957776   -1.7957776  -0.72065397   0.11262647   -1.7957776    1.0751237   439061 
 4297000   0.71669493    -1.795744    -1.795744  -0.72070402   0.11444839    -1.795744      1.07504   439061 
 4298000   0.71521851   -1.7939225   -1.7939225  -0.72109716   0.11393117   -1.7939225    1.0728253   439061 
 4299000   0.71519597    -1.792898    -1.792898  -0.72010645   0.11319815    -1.792898    1.0727915   439061 
 4300000   0.71578093   -1.7943166   -1.7943166  -0.72064768   0.11170269   -1.7943166    1.0736689   439061 
 4301000   0.71484418   -1.7932223   -1.7932223  -0.72095847   0.11508597   -1.7932223    1.0722638   439061 
 4302000   0.71576054   -1.7951101   -1.7951101  -0.72147177   0.11310864   -1.7951101    1.0736384   439061 
 4303000    0.7153706   -1.7934331   -1.7934331  -0.72037965   0.11487155   -1.7934331    1.0730535   439061 
 4304000   0.71594239   -1.7948028   -1.7948028  -0.72089163   0.11212525   -1.7948028    1.0739111   439061 
 4305000    0.7167167    -1.795131    -1.795131  -0.72005839   0.11045626    -1.795131    1.0750726   439061 
 4306000   0.71621164   -1.7935157   -1.7935157  -0.71920071    0.1120613   -1.7935157     1.074315   439061 
 4307000   0.71519108   -1.7919881   -1.7919881  -0.71920396   0.11238402   -1.7919881    1.0727842   439061 
 4308000    0.7156092   -1.7935502   -1.7935502  -0.72013884   0.11383637   -1.7935502    1.0734114   439061 
 4309000   0.71576465   -1.7937828   -1.7937828  -0.72013832   0.11474349   -1.7937828    1.0736445   439061 
 4310000     0.715848   -1.7937321   -1.7937321  -0.71996253   0.11092134   -1.7937321    1.0737696   439061 
 4311000   0.71636306   -1.7945511   -1.7945511  -0.72000895   0.11360899   -1.7945511    1.0745421   439061 
 4312000   0.71617391   -1.7946562   -1.7946562  -0.72039774    0.1112712   -1.7946562    1.0742584   439061 
 4313000   0.71460743    -1.792546    -1.792546  -0.72063725   0.11358774    -1.792546    1.0719087   439061 
 4314000   0.71542353   -1.7945321   -1.7945321  -0.72139929   0.11213818   -1.7945321    1.0731329   439061 
 4315000   0.71437279   -1.7933319   -1.7933319  -0.72177515   0.11459493   -1.7933319    1.0715567   439061 
 4316000   0.71551537   -1.7945905   -1.7945905  -0.72131986   0.10986228   -1.7945905    1.0732706   439061 
 4317000   0.71582466   -1.7948311   -1.7948311  -0.72109659   0.11125802   -1.7948311    1.0737346   439061 
 4318000   0.71548331   -1.7936888   -1.7936888  -0.72046628   0.10973579   -1.7936888    1.0732225   439061 
 4319000   0.71504802   -1.7928116   -1.7928116  -0.72024202   0.11389426   -1.7928116    1.0725696   439061 
 4320000   0.71615868   -1.7947766   -1.7947766  -0.72054107   0.11155436   -1.7947766    1.0742356   439061 
 4321000   0.71721036   -1.7966723   -1.7966723  -0.72085921   0.11172342   -1.7966723    1.0758131   439061 
 4322000   0.71521049   -1.7940433   -1.7940433  -0.72122998   0.11080262   -1.7940433    1.0728133   439061 
 4323000   0.71489116   -1.7936361   -1.7936361  -0.72130181   0.10627958   -1.7936361    1.0723343   439061 
 4324000   0.71588238   -1.7948381   -1.7948381  -0.72101699   0.11290091   -1.7948381    1.0738211   439061 
 4325000   0.71597643   -1.7939446   -1.7939446  -0.71998241   0.11034288   -1.7939446    1.0739622   439061 
 4326000   0.71606279   -1.7936878   -1.7936878  -0.71959603   0.11267873   -1.7936878    1.0740917   439061 
 4327000   0.71608375   -1.7936576   -1.7936576  -0.71953447   0.10923406   -1.7936576    1.0741232   439061 
 4328000   0.71746642   -1.7959101   -1.7959101  -0.71971287   0.11438818   -1.7959101    1.0761972   439061 
 4329000   0.71620402   -1.7932968   -1.7932968  -0.71899326   0.11380914   -1.7932968    1.0743036   439061 
 4330000   0.71594927   -1.7923472   -1.7923472  -0.71842577   0.11516815   -1.7923472    1.0739215   439061 
 4331000   0.71587633   -1.7922215   -1.7922215  -0.71840943   0.11591026   -1.7922215    1.0738121   439061 
 4332000    0.7158874   -1.7924954   -1.7924954   -0.7186667   0.10871059   -1.7924954    1.0738287   439061 
 4333000   0.71492889   -1.7912633   -1.7912633  -0.71887241   0.11682822   -1.7912633    1.0723909   439061 
 4334000   0.71603373   -1.7927113   -1.7927113  -0.71866312   0.11269874   -1.7927113    1.0740481   439061 
 4335000   0.71531234   -1.7926689   -1.7926689  -0.71970285   0.11204881   -1.7926689    1.0729661   439061 
 4336000   0.71541206   -1.7931407   -1.7931407  -0.72002504   0.11265341   -1.7931407    1.0731156   439061 
 4337000   0.71580684   -1.7944961   -1.7944961  -0.72078829   0.11673984   -1.7944961    1.0737078   439061 
 4338000   0.71506153   -1.7932331   -1.7932331  -0.72064327   0.11343602   -1.7932331    1.0725899   439061 
 4339000   0.71520639   -1.7927517   -1.7927517   -0.7199446   0.11473039   -1.7927517    1.0728071   439061 
 4340000   0.71495821   -1.7930157   -1.7930157  -0.72058082   0.11154905   -1.7930157    1.0724349   439061 
 4341000   0.71523747   -1.7944084   -1.7944084  -0.72155463    0.1128973   -1.7944084    1.0728538   439061 
 4342000   0.71635727   -1.7958584   -1.7958584  -0.72132491    0.1132906   -1.7958584    1.0745335   439061 
 4343000   0.71502037   -1.7941652   -1.7941652  -0.72163713   0.10994516   -1.7941652    1.0725281   439061 
 4344000   0.71544494    -1.794303    -1.794303  -0.72113803   0.11234719    -1.794303     1.073165   439061 
 4345000   0.71537639   -1.7943093   -1.7943093  -0.72124714   0.11178423   -1.7943093    1.0730621   439061 
 4346000   0.71502225   -1.7937685   -1.7937685  -0.72123753   0.11634862   -1.7937685    1.0725309   439061 
 4347000   0.71492435   -1.7927923   -1.7927923  -0.72040824   0.11227395   -1.7927923    1.0723841   439061 
 4348000   0.71580166    -1.793678    -1.793678  -0.71997793   0.11542678    -1.793678       1.0737   439061 
 4349000    0.7170144   -1.7949529   -1.7949529  -0.71943375    0.1116571   -1.7949529    1.0755192   439061 
 4350000   0.71569927   -1.7932051   -1.7932051  -0.71965861   0.11494867   -1.7932051    1.0735465   439061 
 4351000    0.7156727   -1.7934321   -1.7934321  -0.71992546   0.11495586   -1.7934321    1.0735066   439061 
 4352000    0.7159535   -1.7941734   -1.7941734  -0.72024563   0.11251193   -1.7941734    1.0739278   439061 
 4353000    0.7154025   -1.7937283   -1.7937283  -0.72062702   0.11502325   -1.7937283    1.0731013   439061 
 4354000   0.71611248   -1.7944038   -1.7944038  -0.72023755   0.11338136   -1.7944038    1.0741663   439061 
 4355000   0.71547514   -1.7935308   -1.7935308  -0.72032056   0.11146341   -1.7935308    1.0732103   439061 
 4356000   0.71607745   -1.7936752   -1.7936752  -0.71956148   0.11013273   -1.7936752    1.0741137   439061 
 4357000   0.71586556   -1.7934126   -1.7934126   -0.7196167   0.11189176   -1.7934126    1.0737959   439061 
 4358000     0.716461   -1.7940189   -1.7940189  -0.71932989   0.11227853   -1.7940189    1.0746891   439061 
 4359000   0.71605566   -1.7929071   -1.7929071  -0.71882606   0.11134232   -1.7929071     1.074081   439061 
 4360000   0.71565882    -1.791969    -1.791969  -0.71848321   0.11239246    -1.791969    1.0734858   439061 
 4361000    0.7157404   -1.7921889   -1.7921889  -0.71858077   0.11211929   -1.7921889    1.0736082   439061 
 4362000   0.71517239   -1.7922284   -1.7922284   -0.7194723   0.11517839   -1.7922284    1.0727561   439061 
 4363000   0.71742992   -1.7951438   -1.7951438  -0.71900141   0.11276415   -1.7951438    1.0761424   439061 
 4364000   0.71599683   -1.7941884   -1.7941884   -0.7201956   0.11318461   -1.7941884    1.0739928   439061 
 4365000   0.71569801   -1.7935272   -1.7935272  -0.71998268   0.11044394   -1.7935272    1.0735446   439061 
 4366000   0.71548541    -1.793037    -1.793037  -0.71981131   0.11152464    -1.793037    1.0732257   439061 
 4367000   0.71592744   -1.7944239   -1.7944239   -0.7205352   0.11405077   -1.7944239    1.0738887   439061 
 4368000   0.71542011   -1.7931984   -1.7931984  -0.72007066   0.11226082   -1.7931984    1.0731277   439061 
 4369000   0.71689502   -1.7948804   -1.7948804  -0.71954029    0.1120261   -1.7948804    1.0753401   439061 
 4370000   0.71657354   -1.7948415   -1.7948415  -0.71998362   0.11280615   -1.7948415    1.0748579   439061 
 4371000   0.71515772   -1.7928338   -1.7928338  -0.72009964   0.10772664   -1.7928338    1.0727341   439061 
 4372000   0.71536779   -1.7935256   -1.7935256  -0.72047636    0.1082204   -1.7935256    1.0730492   439061 
 4373000   0.71582174   -1.7936943   -1.7936943  -0.71996416   0.11437142   -1.7936943    1.0737302   439061 
 4374000   0.71568739   -1.7927522   -1.7927522   -0.7192236   0.11003109   -1.7927522    1.0735286   439061 
 4375000   0.71555489    -1.792284    -1.792284  -0.71895416    0.1106384    -1.792284    1.0733299   439061 
 4376000   0.71463566   -1.7910109   -1.7910109  -0.71905981   0.11130501   -1.7910109    1.0719511   439061 
 4377000   0.71592203   -1.7937119   -1.7937119  -0.71983131   0.11234897   -1.7937119    1.0738806   439061 
 4378000   0.71600701   -1.7938428   -1.7938428  -0.71983471   0.11313945   -1.7938428    1.0740081   439061 
 4379000   0.71567925   -1.7931386   -1.7931386  -0.71962214    0.1123907   -1.7931386    1.0735164   439061 
 4380000   0.71636002   -1.7930678   -1.7930678  -0.71853025   0.12038874   -1.7930678    1.0745376   439061 
 4381000   0.71626036   -1.7930644   -1.7930644   -0.7186763   0.11222668   -1.7930644    1.0743881   439061 
 4382000   0.71648792   -1.7933727   -1.7933727  -0.71864326   0.11290468   -1.7933727    1.0747294   439061 
 4383000   0.71560458   -1.7919346   -1.7919346  -0.71853016   0.11802689   -1.7919346    1.0734044   439061 
 4384000   0.71586227   -1.7923549   -1.7923549  -0.71856389    0.1147243   -1.7923549     1.073791   439061 
 4385000   0.71605161   -1.7922789   -1.7922789  -0.71820394   0.11657252   -1.7922789     1.074075   439061 
 4386000   0.71638743   -1.7927508   -1.7927508  -0.71817212   0.11311205   -1.7927508    1.0745787   439061 
 4387000   0.71738007    -1.793798    -1.793798  -0.71773033   0.11279394    -1.793798    1.0760677   439061 
 4388000   0.71568435   -1.7924075   -1.7924075  -0.71888339   0.11156485   -1.7924075    1.0735241   439061 
 4389000   0.71556155   -1.7938122   -1.7938122   -0.7204723   0.11668679   -1.7938122    1.0733399   439061 
 4390000   0.71446708   -1.7914982   -1.7914982  -0.71980007   0.11384534   -1.7914982    1.0716982   439061 
 4391000   0.71436192   -1.7919232   -1.7919232   -0.7203828   0.11189871   -1.7919232    1.0715404   439061 
 4392000   0.71582732   -1.7941347   -1.7941347  -0.72039621   0.11372806   -1.7941347    1.0737385   439061 
 4393000    0.7150763   -1.7938472   -1.7938472   -0.7212352   0.11608746   -1.7938472     1.072612   439061 
 4394000    0.7153477   -1.7937355   -1.7937355  -0.72071638   0.11190263   -1.7937355    1.0730191   439061 
 4395000   0.71506659   -1.7934098   -1.7934098  -0.72081233   0.11157398   -1.7934098    1.0725974   439061 
 4396000    0.7160336   -1.7947149   -1.7947149  -0.72066692   0.10965682   -1.7947149    1.0740479   439061 
 4397000   0.71431745   -1.7919407   -1.7919407    -0.720467   0.11604964   -1.7919407    1.0714737   439061 
 4398000   0.71524619    -1.794376    -1.794376  -0.72150918   0.11434083    -1.794376    1.0728668   439061 
 4399000    0.7158329   -1.7947763   -1.7947763  -0.72102935   0.11529382   -1.7947763    1.0737469   439061 
 4400000   0.71606582   -1.7946863   -1.7946863  -0.72059004   0.11198592   -1.7946863    1.0740963   439061 
 4401000   0.71540678   -1.7943015   -1.7943015  -0.72119373   0.11201864   -1.7943015    1.0731077   439061 
 4402000   0.71492681   -1.7942208   -1.7942208  -0.72183307   0.11222267   -1.7942208    1.0723878   439061 
 4403000   0.71452294   -1.7929992   -1.7929992  -0.72121721   0.11587713   -1.7929992     1.071782   439061 
 4404000   0.71583666   -1.7945323   -1.7945323  -0.72077979   0.11193016   -1.7945323    1.0737525   439061 
 4405000   0.71550367   -1.7935428   -1.7935428  -0.72028974   0.11241155   -1.7935428    1.0732531   439061 
 4406000   0.71611837   -1.7934273   -1.7934273  -0.71925218   0.11351238   -1.7934273    1.0741751   439061 
 4407000    0.7162735   -1.7933148   -1.7933148  -0.71890696   0.11285426   -1.7933148    1.0744078   439061 
 4408000   0.71717572   -1.7953363   -1.7953363  -0.71957519   0.11461957   -1.7953363    1.0757611   439061 
 4409000   0.71590025   -1.7933502   -1.7933502   -0.7195023   0.11402504   -1.7933502    1.0738479   439061 
 4410000   0.71653029   -1.7944223   -1.7944223  -0.71962933   0.11386756   -1.7944223     1.074793   439061 
 4411000   0.71526199   -1.7930655   -1.7930655  -0.72017492    0.1168531   -1.7930655    1.0728905   439061 
 4412000   0.71542832   -1.7935448   -1.7935448   -0.7204048   0.11186737   -1.7935448      1.07314   439061 
 4413000    0.7163477   -1.7939941   -1.7939941  -0.71947501   0.11556315   -1.7939941    1.0745191   439061 
 4414000   0.71639549    -1.794292    -1.794292  -0.71970124    0.1165511    -1.794292    1.0745908   439061 
 4415000   0.71669527   -1.7946117   -1.7946117  -0.71957129   0.11047477   -1.7946117    1.0750404   439061 
 4416000   0.71450242   -1.7921426   -1.7921426   -0.7203914   0.11445046   -1.7921426    1.0717512   439061 
 4417000   0.71483867   -1.7926324   -1.7926324  -0.72037686   0.11353794   -1.7926324    1.0722556   439061 
 4418000   0.71499758   -1.7922966   -1.7922966  -0.71980268   0.11319238   -1.7922966    1.0724939   439061 
 4419000   0.71481072   -1.7922822   -1.7922822  -0.72006854   0.11135497   -1.7922822    1.0722136   439061 
 4420000    0.7163849   -1.7941812   -1.7941812  -0.71960625   0.11067791   -1.7941812    1.0745749   439061 
 4421000   0.71663389   -1.7945424   -1.7945424    -0.719594   0.11362237   -1.7945424    1.0749484   439061 
 4422000   0.71561408   -1.7929328   -1.7929328  -0.71951409   0.10962609   -1.7929328    1.0734187   439061 
 4423000   0.71540216   -1.7924917   -1.7924917  -0.71939093   0.11147845   -1.7924917    1.0731008   439061 
 4424000   0.71612605    -1.793965    -1.793965   -0.7197784   0.11153886    -1.793965    1.0741866   439061 
 4425000   0.71567159   -1.7926373   -1.7926373  -0.71913234    0.1153013   -1.7926373    1.0735049   439061 
 4426000   0.71542771   -1.7922741   -1.7922741  -0.71913502   0.11140258   -1.7922741    1.0731391   439061 
 4427000   0.71507059   -1.7924446   -1.7924446  -0.71984113   0.11678363   -1.7924446    1.0726034   439061 
 4428000   0.71578411   -1.7922983   -1.7922983  -0.71862454   0.11119761   -1.7922983    1.0736737   439061 
 4429000   0.71535762   -1.7920786   -1.7920786  -0.71904462   0.11394316   -1.7920786     1.073034   439061 
 4430000   0.71543298   -1.7924407   -1.7924407  -0.71929366   0.10949329   -1.7924407     1.073147   439061 
 4431000   0.71627219   -1.7926405   -1.7926405  -0.71823469   0.11226949   -1.7926405    1.0744058   439061 
 4432000   0.71656432   -1.7923451   -1.7923451   -0.7175011   0.11353946   -1.7923451     1.074844   439061 
 4433000   0.71609313   -1.7919218   -1.7919218  -0.71778454   0.11441052   -1.7919218    1.0741372   439061 
 4434000   0.71769745   -1.7927906   -1.7927906  -0.71624688   0.11480539   -1.7927906    1.0765437   439061 
 4435000   0.71739796    -1.792224    -1.792224   -0.7161295   0.11715433    -1.792224    1.0760945   439061 
 4436000   0.71643161   -1.7914452   -1.7914452  -0.71680026   0.11598646   -1.7914452     1.074645   439061 
 4437000    0.7163444   -1.7914321   -1.7914321  -0.71691795   0.11125573   -1.7914321    1.0745142   439061 
 4438000   0.71711378   -1.7932994   -1.7932994  -0.71763121   0.11359609   -1.7932994    1.0756682   439061 
 4439000     0.716901   -1.7927857   -1.7927857  -0.71743666   0.10904507   -1.7927857    1.0753491   439061 
 4440000   0.71749649   -1.7941644   -1.7941644  -0.71792207   0.11363651   -1.7941644    1.0762423   439061 
 4441000   0.71689308   -1.7938164   -1.7938164  -0.71847919   0.11422011   -1.7938164    1.0753372   439061 
 4442000   0.71653673   -1.7928722   -1.7928722  -0.71806958   0.11628412   -1.7928722    1.0748026   439061 
 4443000   0.71624941   -1.7928246   -1.7928246  -0.71845293   0.11258131   -1.7928246    1.0743717   439061 
 4444000   0.71621726   -1.7924145   -1.7924145  -0.71809105   0.11201651   -1.7924145    1.0743234   439061 
 4445000   0.71668445   -1.7928897   -1.7928897  -0.71786542   0.11212372   -1.7928897    1.0750242   439061 
 4446000   0.71537977   -1.7911632   -1.7911632  -0.71809597   0.11239799   -1.7911632    1.0730672   439061 
 4447000   0.71702803   -1.7928335   -1.7928335  -0.71729391   0.10928847   -1.7928335    1.0755396   439061 
 4448000   0.71664955   -1.7919725   -1.7919725  -0.71700063   0.11394503   -1.7919725    1.0749719   439061 
 4449000    0.7150931   -1.7909823   -1.7909823  -0.71834512   0.11275755   -1.7909823    1.0726372   439061 
 4450000   0.71584699   -1.7921599   -1.7921599  -0.71839185   0.11234859   -1.7921599     1.073768   439061 
 4451000   0.71664501    -1.793658    -1.793658  -0.71869295   0.11429875    -1.793658    1.0749651   439061 
 4452000   0.71523956   -1.7911215   -1.7911215  -0.71826458   0.11422614   -1.7911215    1.0728569   439061 
 4453000   0.71602279   -1.7918293   -1.7918293  -0.71779761   0.11336394   -1.7918293    1.0740317   439061 
 4454000   0.71647886   -1.7929534   -1.7929534  -0.71823754    0.1129547   -1.7929534    1.0747158   439061 
 4455000   0.71605997    -1.792377    -1.792377  -0.71828953   0.11003234    -1.792377    1.0740875   439061 
 4456000    0.7170541   -1.7935283   -1.7935283  -0.71794959   0.11176297   -1.7935283    1.0755787   439061 
 4457000   0.71770556   -1.7952408   -1.7952408  -0.71868496   0.11188521   -1.7952408    1.0765559   439061 
 4458000   0.71626339   -1.7939061   -1.7939061  -0.71951346   0.10881303   -1.7939061    1.0743926   439061 
 4459000   0.71532072    -1.791822    -1.791822  -0.71884339   0.11323191    -1.791822    1.0729786   439061 
 4460000   0.71719249   -1.7939627   -1.7939627  -0.71817641   0.11105155   -1.7939627    1.0757863   439061 
 4461000   0.71661049   -1.7929514   -1.7929514  -0.71803812   0.11206919   -1.7929514    1.0749133   439061 
 4462000   0.71649611   -1.7930452   -1.7930452  -0.71830351    0.1156719   -1.7930452    1.0747417   439061 
 4463000   0.71657834   -1.7938089   -1.7938089  -0.71894385   0.11158446   -1.7938089    1.0748651   439061 
 4464000   0.71721712   -1.7942986   -1.7942986  -0.71847542    0.1136831   -1.7942986    1.0758232   439061 
 4465000   0.71750366   -1.7941187   -1.7941187  -0.71786571    0.1141402   -1.7941187     1.076253   439061 
 4466000   0.71577738   -1.7922589   -1.7922589  -0.71859526   0.11501568   -1.7922589    1.0736636   439061 
 4467000   0.71647751   -1.7928201   -1.7928201  -0.71810633   0.11344265   -1.7928201    1.0747138   439061 
 4468000   0.71605623   -1.7922081   -1.7922081  -0.71812618   0.11047242   -1.7922081    1.0740819   439061 
 4469000   0.71654924   -1.7934318   -1.7934318  -0.71861043   0.11619926   -1.7934318    1.0748214   439061 
 4470000   0.71671891   -1.7937662   -1.7937662  -0.71869027   0.10770162   -1.7937662    1.0750759   439061 
 4471000   0.71612227   -1.7931575   -1.7931575  -0.71897651   0.11391293   -1.7931575     1.074181   439061 
 4472000   0.71636226   -1.7925919   -1.7925919  -0.71805096   0.11246307   -1.7925919    1.0745409   439061 
 4473000   0.71529894   -1.7927632   -1.7927632  -0.71981728   0.11195698   -1.7927632     1.072946   439061 
 4474000   0.71608559   -1.7941073   -1.7941073   -0.7199814   0.11190395   -1.7941073    1.0741259   439061 
 4475000   0.71637723   -1.7948036   -1.7948036  -0.72024024   0.11408443   -1.7948036    1.0745634   439061 
 4476000   0.71577145    -1.793949    -1.793949  -0.72029424   0.11206792    -1.793949    1.0736547   439061 
 4477000   0.71694927   -1.7950977   -1.7950977   -0.7196762   0.11128346   -1.7950977    1.0754215   439061 
 4478000   0.71617978   -1.7932298   -1.7932298  -0.71896258   0.11180669   -1.7932298    1.0742672   439061 
 4479000   0.71695116    -1.794988    -1.794988  -0.71956372   0.11335424    -1.794988    1.0754243   439061 
 4480000   0.71536362   -1.7941771   -1.7941771  -0.72113408   0.11391312   -1.7941771     1.073043   439061 
 4481000   0.71543621   -1.7940509   -1.7940509  -0.72089902    0.1107743   -1.7940509    1.0731519   439061 
 4482000   0.71417149   -1.7929827   -1.7929827  -0.72172786   0.11118695   -1.7929827    1.0712548   439061 
 4483000    0.7154362   -1.7933204   -1.7933204  -0.72016851   0.11266981   -1.7933204    1.0731519   439061 
 4484000   0.71628505   -1.7943377   -1.7943377   -0.7199126   0.11382714   -1.7943377    1.0744251   439061 
 4485000   0.71653945    -1.794783    -1.794783  -0.71997625   0.11315023    -1.794783    1.0748067   439061 
 4486000   0.71437743   -1.7916296   -1.7916296  -0.72006588   0.11397291   -1.7916296    1.0715637   439061 
 4487000   0.71542473   -1.7922746   -1.7922746  -0.71913998   0.11403884   -1.7922746    1.0731346   439061 
 4488000   0.71689877   -1.7947344   -1.7947344  -0.71938874    0.1119915   -1.7947344    1.0753457   439061 
 4489000   0.71579717   -1.7926665   -1.7926665  -0.71897315   0.11363132   -1.7926665    1.0736933   439061 
 4490000   0.71553493    -1.792282    -1.792282  -0.71898207   0.11753571    -1.792282       1.0733   439061 
 4491000   0.71567897   -1.7923681   -1.7923681  -0.71885214   0.11153474   -1.7923681     1.073516   439061 
 4492000   0.71529975   -1.7922876   -1.7922876  -0.71934041   0.10962337   -1.7922876    1.0729472   439061 
 4493000    0.7152063   -1.7922695   -1.7922695  -0.71946249   0.11436765   -1.7922695     1.072807   439061 
 4494000   0.71629876   -1.7931672   -1.7931672  -0.71872148   0.11418252   -1.7931672    1.0744457   439061 
 4495000   0.71494906   -1.7922516   -1.7922516  -0.71983051   0.11499918   -1.7922516    1.0724211   439061 
 4496000   0.71490946    -1.792774    -1.792774  -0.72041224   0.11227581    -1.792774    1.0723618   439061 
 4497000   0.71470273   -1.7914974   -1.7914974  -0.71944573   0.11096009   -1.7914974    1.0720517   439061 
 4498000   0.71646151   -1.7932584   -1.7932584  -0.71856859   0.11068123   -1.7932584    1.0746898   439061 
 4499000   0.71531104   -1.7919306   -1.7919306  -0.71896652   0.11453944   -1.7919306    1.0729641   439061 
 4500000   0.71696882   -1.7942264   -1.7942264  -0.71877565   0.11437798   -1.7942264    1.0754508   439061 
 4501000   0.71589435   -1.7925604   -1.7925604   -0.7187213   0.11146272   -1.7925604    1.0738391   439061 
 4502000   0.71665501   -1.7925924   -1.7925924  -0.71761238   0.11173978   -1.7925924    1.0749801   439061 
 4503000   0.71706322    -1.793642    -1.793642   -0.7180496   0.11121438    -1.793642    1.0755924   439061 
 4504000   0.71584495   -1.7912699   -1.7912699   -0.7175049    0.1152761   -1.7912699     1.073765   439061 
 4505000   0.71762598    -1.794095    -1.794095  -0.71765853   0.11360341    -1.794095    1.0764365   439061 
 4506000   0.71752444   -1.7938358   -1.7938358  -0.71755155   0.11424592   -1.7938358    1.0762842   439061 
 4507000   0.71670243     -1.79309     -1.79309  -0.71803879   0.11199955     -1.79309    1.0750512   439061 
 4508000   0.71601771   -1.7933519   -1.7933519  -0.71932775   0.11205666   -1.7933519    1.0740241   439061 
 4509000   0.71586663   -1.7926777   -1.7926777  -0.71888016     0.112481   -1.7926777    1.0737975   439061 
 4510000   0.71624575   -1.7937259   -1.7937259  -0.71935976   0.11160324   -1.7937259    1.0743662   439061 
 4511000   0.71731289   -1.7942143   -1.7942143  -0.71824743   0.11443762   -1.7942143    1.0759669   439061 
 4512000   0.71633161   -1.7926127   -1.7926127  -0.71811774   0.11458501   -1.7926127     1.074495   439061 
 4513000   0.71535424   -1.7917725   -1.7917725  -0.71874362   0.11567398   -1.7917725    1.0730289   439061 
 4514000   0.71578932   -1.7925029   -1.7925029  -0.71882136   0.11313562   -1.7925029    1.0736815   439061 
 4515000   0.71583791   -1.7925198   -1.7925198  -0.71876535   0.11123167   -1.7925198    1.0737544   439061 
 4516000   0.71585233   -1.7918601   -1.7918601  -0.71808405   0.11487713   -1.7918601     1.073776   439061 
 4517000   0.71658656   -1.7924632   -1.7924632  -0.71758583   0.11774127   -1.7924632    1.0748774   439061 
 4518000   0.71587617   -1.7927198   -1.7927198  -0.71890802   0.11447961   -1.7927198    1.0738118   439061 
 4519000   0.71565144   -1.7920353   -1.7920353  -0.71856057   0.11138998   -1.7920353    1.0734747   439061 
 4520000   0.71634783   -1.7921693   -1.7921693  -0.71764998   0.10816262   -1.7921693    1.0745193   439061 
 4521000      0.71599    -1.791858    -1.791858  -0.71787543   0.11457819    -1.791858    1.0739826   439061 
 4522000   0.71645529   -1.7923739   -1.7923739  -0.71769345   0.11423403   -1.7923739    1.0746805   439061 
 4523000   0.71685479   -1.7928065   -1.7928065  -0.71752673   0.11359146   -1.7928065    1.0752797   439061 
 4524000   0.71676992   -1.7933763   -1.7933763  -0.71822392    0.1118463   -1.7933763    1.0751524   439061 
 4525000   0.71680919   -1.7920471   -1.7920471  -0.71683578    0.1167631   -1.7920471    1.0752113   439061 
 4526000   0.71582284   -1.7905631   -1.7905631  -0.71683124   0.11283205   -1.7905631    1.0737318   439061 
 4527000   0.71517617   -1.7889854   -1.7889854  -0.71622355   0.11269887   -1.7889854    1.0727618   439061 
 4528000   0.71680533    -1.791572    -1.791572  -0.71636644   0.11410394    -1.791572    1.0752056   439061 
 4529000   0.71628482   -1.7909521   -1.7909521  -0.71652729   0.11275066   -1.7909521    1.0744248   439061 
 4530000   0.71517572   -1.7896221   -1.7896221  -0.71686091   0.10838063   -1.7896221    1.0727611   439061 
 4531000   0.71604972    -1.791114    -1.791114  -0.71704192   0.11244293    -1.791114    1.0740721   439061 
 4532000   0.71654017   -1.7911035   -1.7911035  -0.71629573   0.11626425   -1.7911035    1.0748078   439061 
 4533000   0.71598999   -1.7904104   -1.7904104  -0.71642785   0.11220752   -1.7904104    1.0739825   439061 
 4534000   0.71548581   -1.7895443   -1.7895443  -0.71631806   0.11221321   -1.7895443    1.0732263   439061 
 4535000   0.71652808   -1.7912453   -1.7912453  -0.71645559   0.11277294   -1.7912453    1.0747897   439061 
 4536000   0.71650747   -1.7913766   -1.7913766  -0.71661782   0.11459973   -1.7913766    1.0747588   439061 
 4537000   0.71652633   -1.7911842   -1.7911842  -0.71639717   0.11603746   -1.7911842     1.074787   439061 
 4538000   0.71610905   -1.7904958   -1.7904958   -0.7163347   0.11258194   -1.7904958    1.0741611   439061 
 4539000    0.7168128   -1.7918834   -1.7918834  -0.71666662    0.1112618   -1.7918834    1.0752168   439061 
 4540000   0.71633232   -1.7912286   -1.7912286  -0.71673255   0.11273013   -1.7912286     1.074496   439061 
 4541000   0.71722158   -1.7928324   -1.7928324  -0.71700249   0.11329346   -1.7928324    1.0758299   439061 
 4542000   0.71667758   -1.7917089   -1.7917089  -0.71669499   0.11248686   -1.7917089    1.0750139   439061 
 4543000   0.71540197   -1.7914255   -1.7914255  -0.71832501   0.11014903   -1.7914255    1.0731005   439061 
 4544000   0.71563825   -1.7919055   -1.7919055   -0.7184506   0.10922535   -1.7919055    1.0734549   439061 
 4545000   0.71563082   -1.7913238   -1.7913238  -0.71788003   0.11385442   -1.7913238    1.0734438   439061 
 4546000   0.71567857   -1.7917926   -1.7917926  -0.71827723   0.11163597   -1.7917926    1.0735154   439061 
 4547000    0.7154696   -1.7912696   -1.7912696  -0.71806768   0.11297083   -1.7912696     1.073202   439061 
 4548000   0.71533708   -1.7915987   -1.7915987  -0.71859549   0.11484824   -1.7915987    1.0730032   439061 
 4549000   0.71680291    -1.793559    -1.793559  -0.71835713   0.10938277    -1.793559    1.0752019   439061 
 4550000   0.71629858   -1.7926643   -1.7926643  -0.71821885   0.11548361   -1.7926643    1.0744454   439061 
 4551000   0.71682037   -1.7927214   -1.7927214  -0.71749325   0.11167977   -1.7927214    1.0752281   439061 
 4552000   0.71534263   -1.7917169   -1.7917169  -0.71870537    0.1135143   -1.7917169    1.0730115   439061 
 4553000   0.71663101   -1.7929627   -1.7929627  -0.71801859   0.11054806   -1.7929627    1.0749441   439061 
 4554000   0.71659986   -1.7927946   -1.7927946  -0.71789724   0.11573838   -1.7927946    1.0748973   439061 
 4555000   0.71587093   -1.7920221   -1.7920221  -0.71821818   0.11368729   -1.7920221     1.073804   439061 
 4556000   0.71480627   -1.7909133   -1.7909133  -0.71870632   0.10999937   -1.7909133     1.072207   439061 
 4557000   0.71604725   -1.7920865   -1.7920865  -0.71801809   0.11659376   -1.7920865    1.0740684   439061 
 4558000   0.71593182   -1.7920654   -1.7920654  -0.71817015   0.11486071   -1.7920654    1.0738953   439061 
 4559000    0.7154995    -1.792258    -1.792258  -0.71901124   0.11270756    -1.792258    1.0732468   439061 
 4560000    0.7168233   -1.7935092   -1.7935092  -0.71827666    0.1096383   -1.7935092    1.0752325   439061 
 4561000   0.71666866   -1.7917967   -1.7917967  -0.71679611   0.11984209   -1.7917967    1.0750005   439061 
 4562000   0.71688396   -1.7924761   -1.7924761  -0.71715264   0.11347101   -1.7924761    1.0753235   439061 
 4563000   0.71568303   -1.7913865   -1.7913865  -0.71786438   0.11330992   -1.7913865    1.0735221   439061 
 4564000   0.71768443   -1.7938081   -1.7938081  -0.71728394   0.11047636   -1.7938081    1.0765242   439061 
 4565000    0.7172204   -1.7926893   -1.7926893  -0.71686119   0.11726155   -1.7926893    1.0758282   439061 
 4566000   0.71796732   -1.7940602   -1.7940602  -0.71711171   0.11755526   -1.7940602    1.0769485   439061 
 4567000    0.7156793   -1.7916363   -1.7916363  -0.71811983   0.11319169   -1.7916363    1.0735165   439061 
 4568000   0.71677599   -1.7941397   -1.7941397   -0.7189782   0.11294895   -1.7941397    1.0751615   439061 
 4569000   0.71628751   -1.7931524   -1.7931524  -0.71872356   0.11442624   -1.7931524    1.0744288   439061 
 4570000   0.71636107   -1.7931311   -1.7931311  -0.71859193   0.11466948   -1.7931311    1.0745392   439061 
 4571000   0.71564198   -1.7914089   -1.7914089  -0.71794834   0.11538551   -1.7914089    1.0734605   439061 
 4572000   0.71561857   -1.7914363   -1.7914363   -0.7180109   0.11075087   -1.7914363    1.0734254   439061 
 4573000   0.71588097      -1.7917      -1.7917  -0.71788101   0.11230707      -1.7917     1.073819   439061 
 4574000   0.71671113   -1.7922136   -1.7922136  -0.71714935   0.11404501   -1.7922136    1.0750642   439061 
 4575000   0.71699948   -1.7929061   -1.7929061  -0.71740936   0.11003487   -1.7929061    1.0754968   439061 
 4576000   0.71675377   -1.7939372   -1.7939372  -0.71880899   0.11251427   -1.7939372    1.0751282   439061 
 4577000   0.71758428   -1.7945558   -1.7945558  -0.71818188   0.11433044   -1.7945558     1.076374   439061 
 4578000   0.71644057    -1.793724    -1.793724  -0.71906562   0.11167142    -1.793724    1.0746584   439061 
 4579000   0.71533925   -1.7926415   -1.7926415  -0.71963504   0.11088331   -1.7926415    1.0730064   439061 
 4580000   0.71401668   -1.7916224   -1.7916224  -0.72059983   0.11234552   -1.7916224    1.0710226   439061 
 4581000   0.71500849   -1.7927317   -1.7927317  -0.72022145    0.1078187   -1.7927317    1.0725103   439061 
 4582000   0.71505349   -1.7927264   -1.7927264  -0.72014861   0.11136051   -1.7927264    1.0725778   439061 
 4583000   0.71703577   -1.7946149   -1.7946149   -0.7190637   0.11012169   -1.7946149    1.0755512   439061 
 4584000   0.71693581   -1.7933011   -1.7933011  -0.71789984   0.11397253   -1.7933011    1.0754013   439061 
 4585000   0.71535049   -1.7917489   -1.7917489   -0.7187256   0.11257063   -1.7917489    1.0730233   439061 
 4586000    0.7161069   -1.7923142   -1.7923142  -0.71815632   0.11252079   -1.7923142    1.0741579   439061 
 4587000   0.71594335   -1.7922673   -1.7922673  -0.71835472     0.113532   -1.7922673    1.0739126   439061 
 4588000   0.71549734   -1.7910393   -1.7910393  -0.71779572   0.11395728   -1.7910393    1.0732436   439061 
 4589000   0.71670476   -1.7926035   -1.7926035  -0.71754877   0.11556364   -1.7926035    1.0750547   439061 
 4590000   0.71682843   -1.7920066   -1.7920066  -0.71676635   0.10889953   -1.7920066    1.0752402   439061 
 4591000   0.71599503   -1.7911479   -1.7911479  -0.71715781   0.11200541   -1.7911479    1.0739901   439061 
 4592000   0.71686649   -1.7922546   -1.7922546   -0.7169573   0.11048371   -1.7922546    1.0752973   439061 
 4593000   0.71574032   -1.7917776   -1.7917776  -0.71816955   0.11410986   -1.7917776     1.073608   439061 
 4594000    0.7162017   -1.7918146   -1.7918146  -0.71751449   0.11438732   -1.7918146    1.0743001   439061 
 4595000   0.71616048   -1.7909239   -1.7909239  -0.71668557   0.11228179   -1.7909239    1.0742383   439061 
 4596000   0.71574004    -1.789897    -1.789897  -0.71628942   0.11425984    -1.789897    1.0736076   439061 
 4597000     0.716676   -1.7917498   -1.7917498  -0.71673823   0.11557835   -1.7917498    1.0750116   439061 
 4598000   0.71638768   -1.7913059   -1.7913059   -0.7167268   0.11660517   -1.7913059    1.0745791   439061 
 4599000   0.71531515   -1.7893678   -1.7893678  -0.71639754   0.11154462   -1.7893678    1.0729703   439061 
 4600000   0.71666472   -1.7912758   -1.7912758   -0.7162812   0.11733083   -1.7912758    1.0749946   439061 
 4601000   0.71636882   -1.7911708   -1.7911708  -0.71662005   0.10927484   -1.7911708    1.0745508   439061 
 4602000   0.71679171   -1.7918676   -1.7918676  -0.71668253   0.11298994   -1.7918676    1.0751851   439061 
 4603000   0.71600406   -1.7919127   -1.7919127   -0.7179091   0.11288134   -1.7919127    1.0740036   439061 
 4604000   0.71686062   -1.7931269   -1.7931269  -0.71783846   0.11308727   -1.7931269    1.0752885   439061 
 4605000    0.7153288   -1.7917347   -1.7917347  -0.71874391   0.11508543   -1.7917347    1.0729908   439061 
 4606000    0.7149078   -1.7926006   -1.7926006  -0.72024135    0.1112728   -1.7926006    1.0723593   439061 
 4607000   0.71608177   -1.7932284   -1.7932284  -0.71910822   0.11227153   -1.7932284    1.0741202   439061 
 4608000   0.71417749   -1.7899336   -1.7899336  -0.71866982   0.11151891   -1.7899336    1.0712638   439061 
 4609000   0.71590242   -1.7912098   -1.7912098  -0.71735866   0.11291723   -1.7912098    1.0738512   439061 
 4610000   0.71659321   -1.7920584   -1.7920584  -0.71717106   0.11175876   -1.7920584    1.0748874   439061 
 4611000   0.71629332   -1.7917829   -1.7917829  -0.71734533   0.11367317   -1.7917829    1.0744375   439061 
 4612000   0.71589778   -1.7916459   -1.7916459  -0.71780168   0.11399528   -1.7916459    1.0738442   439061 
 4613000   0.71647169   -1.7918498   -1.7918498  -0.71714469    0.1108826   -1.7918498    1.0747051   439061 
 4614000   0.71617953   -1.7915395   -1.7915395  -0.71727264   0.11261641   -1.7915395    1.0742668   439061 
 4615000   0.71575186   -1.7912022   -1.7912022  -0.71757683   0.11310986   -1.7912022    1.0736253   439061 
 4616000   0.71564762   -1.7910747   -1.7910747   -0.7176057   0.11569319   -1.7910747     1.073469   439061 
 4617000    0.7166328   -1.7923145   -1.7923145  -0.71736774   0.11374842   -1.7923145    1.0749468   439061 
 4618000   0.71516847   -1.7905824   -1.7905824  -0.71783215   0.11183205   -1.7905824    1.0727503   439061 
 4619000   0.71709359   -1.7944118   -1.7944118  -0.71877391   0.11401017   -1.7944118    1.0756379   439061 
 4620000   0.71572842   -1.7916058   -1.7916058   -0.7180156   0.11506043   -1.7916058    1.0735902   439061 
 4621000   0.71664765   -1.7918475   -1.7918475  -0.71687847   0.11545576   -1.7918475     1.074969   439061 
 4622000   0.71590909   -1.7911065   -1.7911065  -0.71724531   0.11069065   -1.7911065    1.0738612   439061 
 4623000   0.71627661   -1.7911069   -1.7911069  -0.71669442    0.1138039   -1.7911069    1.0744125   439061 
 4624000   0.71622416   -1.7915327   -1.7915327  -0.71719887   0.11332907   -1.7915327    1.0743338   439061 
 4625000   0.71632487   -1.7921491   -1.7921491  -0.71766421   0.11415428   -1.7921491    1.0744849   439061 
 4626000   0.71640901   -1.7927575   -1.7927575  -0.71814646   0.11664664   -1.7927575    1.0746111   439061 
 4627000   0.71582114   -1.7917881   -1.7917881   -0.7180588   0.11222247   -1.7917881    1.0737293   439061 
 4628000   0.71513859   -1.7914801   -1.7914801  -0.71877462   0.11528574   -1.7914801    1.0727054   439061 
 4629000   0.71542753   -1.7925023   -1.7925023  -0.71936345    0.1118841   -1.7925023    1.0731389   439061 
 4630000   0.71579888   -1.7926711   -1.7926711  -0.71897528   0.11400198   -1.7926711    1.0736959   439061 
 4631000   0.71641146   -1.7938769   -1.7938769   -0.7192622   0.11006926   -1.7938769    1.0746147   439061 
 4632000   0.71497323   -1.7926124   -1.7926124  -0.72015495   0.11053489   -1.7926124    1.0724574   439061 
 4633000   0.71556767   -1.7927682   -1.7927682  -0.71941912   0.11163885   -1.7927682    1.0733491   439061 
 4634000   0.71456805   -1.7923678   -1.7923678  -0.72051819   0.11422689   -1.7923678    1.0718496   439061 
 4635000   0.71408021   -1.7911912   -1.7911912  -0.72007338    0.1130142   -1.7911912    1.0711179   439061 
 4636000   0.71613933   -1.7944485   -1.7944485  -0.72024193   0.11267184   -1.7944485    1.0742065   439061 
 4637000   0.71406325   -1.7923123   -1.7923123  -0.72121985   0.11171951   -1.7923123    1.0710924   439061 
 4638000   0.71481661   -1.7935748   -1.7935748  -0.72135234   0.11203158   -1.7935748    1.0722225   439061 
 4639000   0.71497536   -1.7944822   -1.7944822  -0.72202156   0.11240097   -1.7944822    1.0724606   439061 
 4640000   0.71542407   -1.7948884   -1.7948884  -0.72175472   0.11052512   -1.7948884    1.0731337   439061 
 4641000    0.7157603   -1.7950583   -1.7950583  -0.72142025   0.11250047   -1.7950583     1.073638   439061 
 4642000   0.71424961   -1.7926646   -1.7926646  -0.72129264     0.111418   -1.7926646     1.071372   439061 
 4643000   0.71481059   -1.7934792   -1.7934792  -0.72126572    0.1109928   -1.7934792    1.0722134   439061 
 4644000   0.71502029   -1.7928745   -1.7928745   -0.7203465   0.11337843   -1.7928745     1.072528   439061 
 4645000   0.71588072   -1.7938729   -1.7938729  -0.72005426   0.11157033   -1.7938729    1.0738186   439061 
 4646000   0.71580744   -1.7932292   -1.7932292   -0.7195205   0.11037035   -1.7932292    1.0737087   439061 
 4647000   0.71613903   -1.7933963   -1.7933963  -0.71919021   0.11531059   -1.7933963    1.0742061   439061 
 4648000   0.71569194   -1.7924445   -1.7924445  -0.71890899   0.10821429   -1.7924445    1.0735355   439061 
 4649000   0.71543418   -1.7923685   -1.7923685  -0.71921971    0.1159356   -1.7923685    1.0731488   439061 
 4650000   0.71678732   -1.7949854   -1.7949854  -0.71980689   0.11516339   -1.7949854    1.0751785   439061 
 4651000   0.71700432   -1.7948477   -1.7948477  -0.71934371   0.11111881   -1.7948477     1.075504   439061 
 4652000   0.71584747    -1.793933    -1.793933  -0.72016426   0.11266464    -1.793933    1.0737688   439061 
 4653000   0.71534685   -1.7932579   -1.7932579  -0.72024008   0.11179104   -1.7932579    1.0730178   439061 
 4654000   0.71600048      -1.7945      -1.7945  -0.72050168   0.11169422      -1.7945    1.0739983   439061 
 4655000   0.71401588   -1.7919317   -1.7919317  -0.72091035      0.11141   -1.7919317    1.0710214   439061 
 4656000   0.71472679   -1.7931477   -1.7931477  -0.72105997   0.11436021   -1.7931477    1.0720877   439061 
 4657000   0.71481725   -1.7930523   -1.7930523  -0.72082886   0.11297241   -1.7930523    1.0722234   439061 
 4658000   0.71662018   -1.7953024   -1.7953024  -0.72037454   0.11364173   -1.7953024    1.0749278   439061 
 4659000   0.71600599   -1.7933698   -1.7933698  -0.71936323   0.11470048   -1.7933698    1.0740065   439061 
 4660000    0.7159869   -1.7939856   -1.7939856  -0.72000767   0.11390606   -1.7939856    1.0739779   439061 
 4661000   0.71393645   -1.7913188   -1.7913188  -0.72041655   0.11582891   -1.7913188    1.0709022   439061 
 4662000    0.7161525    -1.793687    -1.793687  -0.71946065   0.11040099    -1.793687    1.0742263   439061 
 4663000    0.7155291   -1.7930047   -1.7930047  -0.71971347   0.11211674   -1.7930047    1.0732912   439061 
 4664000   0.71532058   -1.7934214   -1.7934214    -0.720443   0.11439432   -1.7934214    1.0729784   439061 
 4665000   0.71523764   -1.7936483   -1.7936483  -0.72079429   0.11340047   -1.7936483     1.072854   439061 
 4666000   0.71498076   -1.7938705   -1.7938705  -0.72140179   0.11014174   -1.7938705    1.0724687   439061 
 4667000   0.71446886    -1.791873    -1.791873  -0.72017219   0.11588713    -1.791873    1.0717009   439061 
 4668000   0.71585174   -1.7939395   -1.7939395  -0.72016437    0.1125187   -1.7939395    1.0737752   439061 
 4669000   0.71459417   -1.7920457   -1.7920457  -0.72015691   0.11669481   -1.7920457    1.0718888   439061 
 4670000    0.7145658    -1.792184    -1.792184  -0.72033772   0.11552679    -1.792184    1.0718463   439061 
 4671000   0.71577274   -1.7945627   -1.7945627  -0.72090607   0.11439333   -1.7945627    1.0736567   439061 
 4672000   0.71436667   -1.7917316   -1.7917316  -0.72018405    0.1115099   -1.7917316    1.0715476   439061 
 4673000   0.71474379   -1.7911133   -1.7911133  -0.71900002   0.10606659   -1.7911133    1.0721132   439061 
 4674000   0.71521262    -1.792635    -1.792635   -0.7198185   0.11612447    -1.792635    1.0728165   439061 
 4675000   0.71367084   -1.7905793   -1.7905793  -0.72007549   0.11035892   -1.7905793    1.0705038   439061 
 4676000    0.7151759    -1.792855    -1.792855  -0.72009359   0.10912818    -1.792855    1.0727614   439061 
 4677000   0.71471909    -1.792091    -1.792091  -0.72001477   0.11064979    -1.792091    1.0720762   439061 
 4678000    0.7152238   -1.7915479   -1.7915479  -0.71871468   0.11370242   -1.7915479    1.0728333   439061 
 4679000   0.71497071   -1.7919469   -1.7919469  -0.71949332    0.1159546   -1.7919469    1.0724536   439061 
 4680000   0.71521558   -1.7915296   -1.7915296  -0.71870864   0.11362111   -1.7915296    1.0728209   439061 
 4681000    0.7150831   -1.7917374   -1.7917374  -0.71911516   0.11129567   -1.7917374    1.0726222   439061 
 4682000    0.7162557   -1.7937554   -1.7937554  -0.71937426   0.10829469   -1.7937554    1.0743811   439061 
 4683000   0.71510092   -1.7913398   -1.7913398  -0.71869083   0.11178378   -1.7913398    1.0726489   439061 
 4684000   0.71656711   -1.7937923   -1.7937923  -0.71894404   0.11318211   -1.7937923    1.0748482   439061 
 4685000   0.71508772   -1.7925569   -1.7925569  -0.71992776   0.11038147   -1.7925569    1.0726291   439061 
 4686000   0.71606169   -1.7942148   -1.7942148  -0.72012466   0.11247028   -1.7942148    1.0740901   439061 
 4687000   0.71533128   -1.7929397   -1.7929397  -0.71994523   0.10876735   -1.7929397    1.0729945   439061 
 4688000    0.7162271   -1.7947765   -1.7947765  -0.72043826   0.11357046   -1.7947765    1.0743382   439061 
 4689000    0.7164206   -1.7946331   -1.7946331  -0.72000469   0.11301283   -1.7946331    1.0746284   439061 
 4690000   0.71600236    -1.793922    -1.793922  -0.71992092    0.1111737    -1.793922    1.0740011   439061 
 4691000    0.7156192   -1.7933405   -1.7933405  -0.71991418   0.10853582   -1.7933405    1.0734264   439061 
 4692000   0.71548664   -1.7936349   -1.7936349  -0.72040739   0.11232663   -1.7936349    1.0732275   439061 
 4693000   0.71594075   -1.7939143   -1.7939143  -0.72000562   0.11426969   -1.7939143    1.0739087   439061 
 4694000   0.71482215   -1.7936215   -1.7936215  -0.72139075    0.1117414   -1.7936215    1.0722308   439061 
 4695000   0.71532655   -1.7941899   -1.7941899  -0.72120253   0.11146136   -1.7941899    1.0729874   439061 
 4696000   0.71524925   -1.7935189   -1.7935189  -0.72064752   0.11222766   -1.7935189    1.0728714   439061 
 4697000   0.71544304   -1.7940237   -1.7940237  -0.72086159   0.10738717   -1.7940237    1.0731621   439061 
 4698000   0.71558466   -1.7941542   -1.7941542  -0.72077961   0.11000036   -1.7941542    1.0733746   439061 
 4699000   0.71457615   -1.7932215   -1.7932215  -0.72135974   0.11386605   -1.7932215    1.0718618   439061 
 4700000   0.71524661   -1.7938839   -1.7938839   -0.7210164   0.11332146   -1.7938839    1.0728675   439061 
 4701000   0.71556122   -1.7939009   -1.7939009  -0.72056146    0.1103088   -1.7939009    1.0733394   439061 
 4702000   0.71481991   -1.7934954   -1.7934954  -0.72126801   0.11205758   -1.7934954    1.0722274   439061 
 4703000   0.71459583   -1.7936183   -1.7936183  -0.72172698   0.11129962   -1.7936183    1.0718913   439061 
 4704000   0.71522599   -1.7936059   -1.7936059  -0.72076933   0.11322655   -1.7936059    1.0728365   439061 
 4705000    0.7146736   -1.7935935   -1.7935935   -0.7215855   0.11368789   -1.7935935     1.072008   439061 
 4706000   0.71473961   -1.7944596   -1.7944596  -0.72235259   0.11159405   -1.7944596     1.072107   439061 
 4707000   0.71467474   -1.7941459   -1.7941459  -0.72213619   0.10806576   -1.7941459    1.0720097   439061 
 4708000   0.71426572   -1.7934823   -1.7934823  -0.72208612    0.1120362   -1.7934823    1.0713961   439061 
 4709000   0.71521691   -1.7946816   -1.7946816   -0.7218587   0.11043798   -1.7946816    1.0728229   439061 
 4710000   0.71592382   -1.7950016   -1.7950016  -0.72111834   0.11439378   -1.7950016    1.0738833   439061 
 4711000   0.71639032   -1.7953473   -1.7953473  -0.72076428   0.11227831   -1.7953473     1.074583   439061 
 4712000   0.71532583    -1.793607    -1.793607  -0.72062065   0.10824357    -1.793607    1.0729863   439061 
 4713000   0.71468909   -1.7930645   -1.7930645  -0.72103332   0.11107539   -1.7930645    1.0720312   439061 
 4714000   0.71554356   -1.7944272   -1.7944272  -0.72111428   0.11399055   -1.7944272    1.0733129   439061 
 4715000   0.71521942    -1.793415    -1.793415  -0.72058829   0.11525159    -1.793415    1.0728267   439061 
 4716000   0.71557239   -1.7941425   -1.7941425  -0.72078639   0.11214361   -1.7941425    1.0733561   439061 
 4717000   0.71513784   -1.7931745   -1.7931745  -0.72047021   0.10941168   -1.7931745    1.0727043   439061 
 4718000   0.71409866   -1.7920444   -1.7920444  -0.72089883   0.11599209   -1.7920444    1.0711456   439061 
 4719000   0.71566571   -1.7943213   -1.7943213  -0.72082515   0.11032163   -1.7943213    1.0734961   439061 
 4720000   0.71504008    -1.792242    -1.792242  -0.71968436   0.11441712    -1.792242    1.0725577   439061 
 4721000   0.71523917   -1.7939317   -1.7939317  -0.72107542   0.11476341   -1.7939317    1.0728563   439061 
 4722000   0.71537337   -1.7933206   -1.7933206  -0.72026299   0.11363828   -1.7933206    1.0730576   439061 
 4723000   0.71460593    -1.791566    -1.791566  -0.71965954   0.11540751    -1.791566    1.0719065   439061 
 4724000   0.71536902   -1.7920019   -1.7920019   -0.7189508   0.11383866   -1.7920019    1.0730511   439061 
 4725000   0.71516863   -1.7921215   -1.7921215  -0.71937104   0.11174412   -1.7921215    1.0727505   439061 
 4726000   0.71631122    -1.794533    -1.794533  -0.72006863   0.11382523    -1.794533    1.0744644   439061 
 4727000   0.71486436   -1.7922498   -1.7922498  -0.71995572   0.11486832   -1.7922498    1.0722941   439061 
 4728000   0.71537923   -1.7931239   -1.7931239  -0.72005745   0.11053919   -1.7931239    1.0730664   439061 
 4729000   0.71493162   -1.7910685   -1.7910685  -0.71867352   0.11321984   -1.7910685     1.072395   439061 
 4730000     0.715568   -1.7934122   -1.7934122  -0.72006259   0.11134748   -1.7934122    1.0733496   439061 
 4731000   0.71588121   -1.7935887   -1.7935887  -0.71976936   0.11133336   -1.7935887    1.0738194   439061 
 4732000    0.7159067   -1.7937477   -1.7937477  -0.71989007   0.10978229   -1.7937477    1.0738576   439061 
 4733000   0.71533069   -1.7928978   -1.7928978  -0.71990421   0.11222808   -1.7928978    1.0729936   439061 
 4734000    0.7152886    -1.791854    -1.791854  -0.71892356   0.11008659    -1.791854    1.0729305   439061 
 4735000   0.71584299   -1.7922909   -1.7922909  -0.71852884    0.1115092   -1.7922909     1.073762   439061 
 4736000   0.71678302    -1.793457    -1.793457   -0.7182849   0.10954954    -1.793457    1.0751721   439061 
 4737000    0.7166982   -1.7933198   -1.7933198    -0.718275   0.11176059   -1.7933198    1.0750448   439061 
 4738000   0.71602507   -1.7917016   -1.7917016  -0.71766648   0.11141906   -1.7917016    1.0740352   439061 
 4739000   0.71611515    -1.792756    -1.792756  -0.71858572   0.10800251    -1.792756    1.0741703   439061 
 4740000   0.71521543   -1.7912584   -1.7912584  -0.71843767   0.11139759   -1.7912584    1.0728207   439061 
 4741000   0.71510219   -1.7912291   -1.7912291  -0.71857831   0.11217513   -1.7912291    1.0726508   439061 
 4742000   0.71622712   -1.7919849   -1.7919849  -0.71764664   0.11358301   -1.7919849    1.0743382   439061 
 4743000   0.71598775   -1.7916802   -1.7916802  -0.71770101   0.11618584   -1.7916802    1.0739792   439061 
 4744000   0.71598507    -1.792009    -1.792009  -0.71803386   0.11031112    -1.792009    1.0739752   439061 
 4745000   0.71567341   -1.7919873   -1.7919873  -0.71847965   0.11597112   -1.7919873    1.0735077   439061 
 4746000   0.71555168   -1.7922747   -1.7922747  -0.71894963   0.11376278   -1.7922747    1.0733251   439061 
 4747000   0.71435722   -1.7908781   -1.7908781  -0.71934469       0.1108   -1.7908781    1.0715334   439061 
 4748000   0.71524841   -1.7918945   -1.7918945   -0.7190243   0.11011079   -1.7918945    1.0728702   439061 
 4749000   0.71528667     -1.79192     -1.79192  -0.71899246   0.11131556     -1.79192    1.0729276   439061 
 4750000   0.71595326    -1.792463    -1.792463   -0.7185356   0.11450923    -1.792463    1.0739274   439061 
 4751000   0.71526975   -1.7912525   -1.7912525  -0.71835036   0.11238257   -1.7912525    1.0729022   439061 
 4752000   0.71586265   -1.7925117   -1.7925117  -0.71872019   0.11134329   -1.7925117    1.0737915   439061 
 4753000   0.71476664    -1.791112    -1.791112  -0.71896445   0.11384679    -1.791112    1.0721475   439061 
 4754000    0.7149852   -1.7924628   -1.7924628  -0.71998743   0.11189904   -1.7924628    1.0724754   439061 
 4755000   0.71552383   -1.7927816   -1.7927816  -0.71949831   0.10959529   -1.7927816    1.0732833   439061 
 4756000    0.7146736   -1.7920146   -1.7920146  -0.72000668   0.10994495   -1.7920146     1.072008   439061 
 4757000   0.71572912   -1.7929889   -1.7929889  -0.71939762   0.10838394   -1.7929889    1.0735912   439061 
 4758000   0.71678379   -1.7946472   -1.7946472  -0.71947392   0.11543879   -1.7946472    1.0751732   439061 
 4759000   0.71522575   -1.7929168   -1.7929168  -0.72008061   0.10928623   -1.7929168    1.0728362   439061 
 4760000   0.71536629   -1.7930606   -1.7930606  -0.72001362   0.11020084   -1.7930606     1.073047   439061 
 4761000    0.7154073   -1.7928321   -1.7928321  -0.71972363   0.11620487   -1.7928321    1.0731085   439061 
 4762000   0.71585531   -1.7936109   -1.7936109  -0.71983043    0.1108225   -1.7936109    1.0737805   439061 
 4763000   0.71621409   -1.7937664   -1.7937664  -0.71944776   0.11378942   -1.7937664    1.0743187   439061 
 4764000   0.71573007   -1.7934296   -1.7934296  -0.71983695   0.11131094   -1.7934296    1.0735927   439061 
 4765000   0.71438017   -1.7922983   -1.7922983  -0.72073051   0.11108682   -1.7922983    1.0715678   439061 
 4766000   0.71604123   -1.7938383   -1.7938383  -0.71977887   0.11414461   -1.7938383    1.0740594   439061 
 4767000   0.71517415   -1.7919201   -1.7919201  -0.71916133   0.11320102   -1.7919201    1.0727588   439061 
 4768000   0.71573618   -1.7930969   -1.7930969   -0.7194951   0.11068466   -1.7930969    1.0736018   439061 
 4769000    0.7147003   -1.7915125   -1.7915125  -0.71946452   0.11209722   -1.7915125     1.072048   439061 
 4770000   0.71541595   -1.7932646   -1.7932646  -0.72014309   0.11490964   -1.7932646    1.0731215   439061 
 4771000   0.71566356   -1.7931887   -1.7931887  -0.71969581   0.11556685   -1.7931887    1.0734929   439061 
 4772000   0.71493582   -1.7924121   -1.7924121   -0.7200108   0.11122579   -1.7924121    1.0724013   439061 
 4773000   0.71574518   -1.7936971   -1.7936971  -0.72008175   0.11260463   -1.7936971    1.0736153   439061 
 4774000   0.71481203   -1.7934655   -1.7934655  -0.72124991   0.11309645   -1.7934655    1.0722156   439061 
 4775000   0.71567429   -1.7951871   -1.7951871  -0.72167814   0.11458413   -1.7951871     1.073509   439061 
 4776000   0.71584373   -1.7947486   -1.7947486  -0.72098542   0.10864119   -1.7947486    1.0737631   439061 
 4777000   0.71520079    -1.793744    -1.793744  -0.72094528   0.11320971    -1.793744    1.0727987   439061 
 4778000   0.71510414   -1.7931952   -1.7931952  -0.72054147   0.11487405   -1.7931952    1.0726538   439061 
 4779000   0.71548347   -1.7934374   -1.7934374  -0.72021463   0.11131618   -1.7934374    1.0732228   439061 
 4780000   0.71444248   -1.7913365   -1.7913365  -0.71967526   0.11309235   -1.7913365    1.0716613   439061 
 4781000   0.71569386   -1.7928516   -1.7928516  -0.71931322   0.11181695   -1.7928516    1.0735383   439061 
 4782000   0.71614194   -1.7932042   -1.7932042  -0.71899373   0.11161623   -1.7932042    1.0742105   439061 
 4783000   0.71519303   -1.7923809   -1.7923809  -0.71959378   0.11230712   -1.7923809    1.0727871   439061 
 4784000   0.71477053   -1.7916135   -1.7916135  -0.71946019   0.11363163   -1.7916135    1.0721533   439061 
 4785000   0.71502488   -1.7915505   -1.7915505  -0.71901561   0.11422639   -1.7915505    1.0725349   439061 
 4786000   0.71534921   -1.7921967   -1.7921967  -0.71917534   0.11221447   -1.7921967    1.0730214   439061 
 4787000   0.71357137   -1.7907429   -1.7907429  -0.72038831   0.10962315   -1.7907429    1.0703546   439061 
 4788000   0.71450967   -1.7924399   -1.7924399   -0.7206778   0.11113994   -1.7924399    1.0717621   439061 
 4789000    0.7130173   -1.7909407   -1.7909407  -0.72141717   0.11082573   -1.7909407    1.0695235   439061 
 4790000   0.71448324   -1.7910844   -1.7910844  -0.71936194   0.10878212   -1.7910844    1.0717224   439061 
 4791000   0.71402577   -1.7910599   -1.7910599  -0.72002364   0.11645411   -1.7910599    1.0710362   439061 
 4792000   0.71481204   -1.7927676   -1.7927676  -0.72055203   0.11229161   -1.7927676    1.0722156   439061 
 4793000   0.71404631   -1.7927144   -1.7927144  -0.72164738   0.11169503   -1.7927144     1.071067   439061 
 4794000   0.71485111   -1.7927007   -1.7927007  -0.72042652   0.11214796   -1.7927007    1.0722742   439061 
 4795000   0.71570459   -1.7928844   -1.7928844  -0.71932998   0.11059397   -1.7928844    1.0735544   439061 
 4796000   0.71515962   -1.7925646   -1.7925646  -0.71982758   0.11446383   -1.7925646     1.072737   439061 
 4797000   0.71527458   -1.7927827   -1.7927827  -0.71987329   0.11048374   -1.7927827    1.0729094   439061 
 4798000   0.71456267   -1.7914015   -1.7914015  -0.71955996   0.11229091   -1.7914015    1.0718416   439061 
 4799000   0.71580073   -1.7931907   -1.7931907  -0.71949202    0.1146533   -1.7931907    1.0736987   439061 
 4800000   0.71575183   -1.7930831   -1.7930831  -0.71945778   0.11027445   -1.7930831    1.0736253   439061 
 4801000   0.71573589   -1.7932497   -1.7932497  -0.71964831   0.11023649   -1.7932497    1.0736014   439061 
 4802000   0.71513217    -1.792584    -1.792584  -0.71988819    0.1167978    -1.792584    1.0726958   439061 
 4803000   0.71565989   -1.7932747   -1.7932747  -0.71978732   0.11456538   -1.7932747    1.0734874   439061 
 4804000   0.71501969   -1.7924039   -1.7924039  -0.71987679   0.11160313   -1.7924039    1.0725271   439061 
 4805000   0.71487405   -1.7919049   -1.7919049  -0.71959631    0.1130242   -1.7919049    1.0723086   439061 
 4806000   0.71543208   -1.7932074   -1.7932074  -0.72006171   0.11266251   -1.7932074    1.0731457   439061 
 4807000    0.7156415   -1.7942546   -1.7942546   -0.7207948   0.11055782   -1.7942546    1.0734598   439061 
 4808000   0.71563622   -1.7947183   -1.7947183  -0.72126641   0.11195607   -1.7947183    1.0734519   439061 
 4809000   0.71484106   -1.7933819   -1.7933819  -0.72112272   0.11559462   -1.7933819    1.0722592   439061 
 4810000    0.7146477   -1.7942248   -1.7942248  -0.72225575     0.109625   -1.7942248    1.0719691   439061 
 4811000   0.71385407   -1.7927016   -1.7927016  -0.72192292   0.11353994   -1.7927016    1.0707787   439061 
 4812000   0.71405041   -1.7921888   -1.7921888  -0.72111566   0.11220244   -1.7921888    1.0710732   439061 
 4813000   0.71554715   -1.7938496   -1.7938496  -0.72053133    0.1132246   -1.7938496    1.0733183   439061 
 4814000   0.71566847   -1.7942405   -1.7942405  -0.72074028   0.11296308   -1.7942405    1.0735003   439061 
 4815000   0.71562477   -1.7942427   -1.7942427  -0.72080796   0.11130351   -1.7942427    1.0734347   439061 
 4816000   0.71468756   -1.7936476   -1.7936476   -0.7216187   0.11092437   -1.7936476    1.0720289   439061 
 4817000   0.71373886   -1.7930191   -1.7930191  -0.72241327   0.10703537   -1.7930191    1.0706059   439061 
 4818000    0.7147093   -1.7940663   -1.7940663  -0.72200475   0.10759037   -1.7940663    1.0720615   439061 
 4819000     0.714718   -1.7931273   -1.7931273  -0.72105278   0.11299242   -1.7931273    1.0720746   439061 
 4820000   0.71473481   -1.7932635   -1.7932635  -0.72116375   0.11490783   -1.7932635    1.0720998   439061 
 4821000   0.71461793   -1.7937028   -1.7937028  -0.72177835   0.11489102   -1.7937028    1.0719245   439061 
 4822000   0.71430241   -1.7937021   -1.7937021  -0.72225091   0.11030667   -1.7937021    1.0714512   439061 
 4823000   0.71486132   -1.7947784   -1.7947784  -0.72248889   0.11035978   -1.7947784    1.0722895   439061 
 4824000   0.71389146   -1.7941291   -1.7941291  -0.72329438   0.10782615   -1.7941291    1.0708348   439061 
 4825000    0.7139395   -1.7930618   -1.7930618  -0.72215503   0.11066332   -1.7930618    1.0709068   439061 
 4826000    0.7148686   -1.7942939   -1.7942939  -0.72199349   0.10951619   -1.7942939    1.0723005   439061 
 4827000   0.71518434   -1.7943707   -1.7943707  -0.72159661   0.11065031   -1.7943707    1.0727741   439061 
 4828000    0.7142729   -1.7927179   -1.7927179  -0.72131097   0.11077289   -1.7927179    1.0714069   439061 
 4829000   0.71560658   -1.7949918   -1.7949918  -0.72158442   0.10996468   -1.7949918    1.0734074   439061 
 4830000    0.7148339   -1.7937944   -1.7937944  -0.72154599   0.10765065   -1.7937944    1.0722484   439061 
 4831000   0.71526638   -1.7940463   -1.7940463   -0.7211492   0.11127502   -1.7940463    1.0728971   439061 
 4832000   0.71474655   -1.7931277   -1.7931277  -0.72101026   0.11167207   -1.7931277    1.0721174   439061 
 4833000   0.71467791    -1.793117    -1.793117  -0.72110256   0.11315378    -1.793117    1.0720144   439061 
 4834000   0.71399526   -1.7919661   -1.7919661  -0.72097559   0.11096377   -1.7919661    1.0709905   439061 
 4835000   0.71477263   -1.7936846   -1.7936846  -0.72152808   0.11139886   -1.7936846    1.0721565   439061 
 4836000   0.71368946   -1.7929206   -1.7929206  -0.72238884   0.11072325   -1.7929206    1.0705318   439061 
 4837000   0.71455689   -1.7935374   -1.7935374  -0.72170453   0.11157292   -1.7935374    1.0718329   439061 
 4838000    0.7137984   -1.7922285   -1.7922285  -0.72153339   0.11287046   -1.7922285    1.0706952   439061 
 4839000   0.71526633   -1.7940746   -1.7940746  -0.72117759    0.1112008   -1.7940746    1.0728971   439061 
 4840000   0.71479939   -1.7935964   -1.7935964  -0.72139978   0.11082659   -1.7935964    1.0721966   439061 
 4841000   0.71394774   -1.7923977   -1.7923977  -0.72147849   0.10965304   -1.7923977    1.0709192   439061 
 4842000   0.71337592   -1.7915825   -1.7915825  -0.72152107   0.10966927   -1.7915825    1.0700614   439061 
 4843000   0.71513062   -1.7947578   -1.7947578  -0.72206427   0.10889673   -1.7947578    1.0726935   439061 
 4844000   0.71433958   -1.7935261   -1.7935261  -0.72201921    0.1109002   -1.7935261    1.0715069   439061 
 4845000   0.71347019   -1.7927922   -1.7927922  -0.72258935   0.11006275   -1.7927922    1.0702028   439061 
 4846000   0.71368141   -1.7928901   -1.7928901  -0.72237039   0.11297931   -1.7928901    1.0705197   439061 
 4847000   0.71313561   -1.7916464   -1.7916464  -0.72194547   0.11246979   -1.7916464     1.069701   439061 
 4848000    0.7148413   -1.7948412   -1.7948412  -0.72258172   0.10910539   -1.7948412    1.0722595   439061 
 4849000   0.71458225   -1.7939798   -1.7939798  -0.72210888   0.11011815   -1.7939798    1.0718709   439061 
 4850000   0.71438066   -1.7940714   -1.7940714  -0.72250288   0.11586757   -1.7940714    1.0715686   439061 
 4851000   0.71520186   -1.7946259   -1.7946259  -0.72182556   0.11179327   -1.7946259    1.0728004   439061 
 4852000   0.71383928   -1.7933929   -1.7933929  -0.72263638   0.11144672   -1.7933929    1.0707565   439061 
 4853000    0.7146278    -1.793888    -1.793888  -0.72194876   0.11398868    -1.793888    1.0719393   439061 
 4854000   0.71419543   -1.7933273   -1.7933273  -0.72203662   0.11243385   -1.7933273    1.0712907   439061 
 4855000   0.71446667   -1.7941983   -1.7941983  -0.72250078    0.1112712   -1.7941983    1.0716976   439061 
 4856000   0.71328017    -1.791875    -1.791875  -0.72195715   0.10971344    -1.791875    1.0699178   439061 
 4857000   0.71393696   -1.7923926   -1.7923926  -0.72148958   0.11396049   -1.7923926     1.070903   439061 
 4858000   0.71503186   -1.7944457   -1.7944457  -0.72190035   0.11219166   -1.7944457    1.0725453   439061 
 4859000   0.71465495   -1.7935135   -1.7935135  -0.72153355   0.10854558   -1.7935135      1.07198   439061 
 4860000   0.71446262    -1.793695    -1.793695  -0.72200347   0.10823079    -1.793695    1.0716915   439061 
 4861000   0.71471113   -1.7939468   -1.7939468  -0.72188258   0.10962934   -1.7939468    1.0720642   439061 
 4862000   0.71468111   -1.7939047   -1.7939047  -0.72188545   0.11039297   -1.7939047    1.0720192   439061 
 4863000   0.71550372   -1.7951685   -1.7951685  -0.72191534   0.11329434   -1.7951685    1.0732531   439061 
 4864000   0.71523901   -1.7946265   -1.7946265  -0.72177046   0.11048497   -1.7946265    1.0728561   439061 
 4865000   0.71474388   -1.7942029   -1.7942029  -0.72208951    0.1116791   -1.7942029    1.0721134   439061 
 4866000   0.71441675   -1.7938438   -1.7938438  -0.72222109   0.11464901   -1.7938438    1.0716227   439061 
 4867000   0.71423105   -1.7942243   -1.7942243  -0.72288014   0.11066665   -1.7942243    1.0713441   439061 
 4868000   0.71470185   -1.7950149   -1.7950149  -0.72296456   0.11399095   -1.7950149    1.0720503   439061 
 4869000    0.7138635    -1.794116    -1.794116  -0.72332315   0.11120138    -1.794116    1.0707928   439061 
 4870000   0.71480332    -1.795738    -1.795738  -0.72353548   0.11544765    -1.795738    1.0722025   439061 
 4871000   0.71442771   -1.7946895   -1.7946895  -0.72305042   0.10975829   -1.7946895    1.0716391   439061 
 4872000    0.7148596   -1.7950635   -1.7950635  -0.72277652   0.11113917   -1.7950635     1.072287   439061 
 4873000   0.71381421   -1.7932185   -1.7932185  -0.72249958   0.10841239   -1.7932185    1.0707189   439061 
 4874000   0.71445335   -1.7955673   -1.7955673  -0.72388971   0.11061233   -1.7955673    1.0716776   439061 
 4875000   0.71503239   -1.7967724   -1.7967724  -0.72422628   0.11516659   -1.7967724    1.0725461   439061 
 4876000   0.71304296   -1.7933868   -1.7933868  -0.72382483   0.11360308   -1.7933868     1.069562   439061 
 4877000   0.71442996   -1.7944754   -1.7944754  -0.72283285   0.11255537   -1.7944754    1.0716425   439061 
 4878000   0.71619876   -1.7969383   -1.7969383  -0.72264262   0.11118835   -1.7969383    1.0742957   439061 
 4879000   0.71421715   -1.7947795   -1.7947795  -0.72345622   0.10859535   -1.7947795    1.0713233   439061 
 4880000   0.71279978   -1.7932355   -1.7932355  -0.72403829   0.11425185   -1.7932355    1.0691972   439061 
 4881000   0.71398274   -1.7939779   -1.7939779  -0.72300627   0.10963995   -1.7939779    1.0709717   439061 
 4882000   0.71364738   -1.7951675   -1.7951675  -0.72469883   0.11086672   -1.7951675    1.0704686   439061 
 4883000   0.71270263   -1.7941915   -1.7941915  -0.72514004   0.11000372   -1.7941915    1.0690515   439061 
 4884000   0.71469847   -1.7958648   -1.7958648   -0.7238195   0.11121007   -1.7958648    1.0720453   439061 
 4885000   0.71314724   -1.7928328   -1.7928328  -0.72311434    0.1093295   -1.7928328    1.0697184   439061 
 4886000   0.71430806   -1.7944082   -1.7944082  -0.72294857    0.1099233   -1.7944082    1.0714597   439061 
 4887000   0.71350742   -1.7928888   -1.7928888  -0.72263012   0.11305147   -1.7928888    1.0702587   439061 
 4888000   0.71357354   -1.7932143   -1.7932143  -0.72285643    0.1088297   -1.7932143    1.0703579   439061 
 4889000   0.71395485   -1.7930956   -1.7930956  -0.72216571    0.1118206   -1.7930956    1.0709298   439061 
 4890000   0.71464644   -1.7935463   -1.7935463  -0.72157904   0.11083523   -1.7935463    1.0719672   439061 
 4891000   0.71358407   -1.7926621   -1.7926621  -0.72228848   0.10970145   -1.7926621    1.0703737   439061 
 4892000   0.71349567    -1.793583    -1.793583  -0.72334191   0.11318676    -1.793583    1.0702411   439061 
 4893000   0.71412139   -1.7940528   -1.7940528  -0.72287321   0.10824433   -1.7940528    1.0711796   439061 
 4894000   0.71514226   -1.7947556   -1.7947556  -0.72204461   0.11211963   -1.7947556     1.072711   439061 
 4895000   0.71519913    -1.794804    -1.794804  -0.72200777   0.11252259    -1.794804    1.0727963   439061 
 4896000   0.71426437   -1.7933249   -1.7933249  -0.72193077    0.1105778   -1.7933249    1.0713941   439061 
 4897000   0.71450107   -1.7938258   -1.7938258  -0.72207666   0.11011129   -1.7938258    1.0717492   439061 
 4898000   0.71529101    -1.794124    -1.794124  -0.72118993    0.1139639    -1.794124    1.0729341   439061 
 4899000   0.71391638   -1.7923302   -1.7923302  -0.72145806    0.1078249   -1.7923302    1.0708721   439061 
 4900000   0.71527789   -1.7949347   -1.7949347  -0.72202035   0.11217929   -1.7949347    1.0729144   439061 
 4901000   0.71462779   -1.7929704   -1.7929704  -0.72103119   0.11122705   -1.7929704    1.0719392   439061 
 4902000    0.7148562   -1.7935786   -1.7935786  -0.72129676   0.11280038   -1.7935786    1.0722819   439061 
 4903000   0.71501999   -1.7928707   -1.7928707  -0.72034315   0.11552596   -1.7928707    1.0725275   439061 
 4904000   0.71439183   -1.7929537   -1.7929537   -0.7213684   0.11336473   -1.7929537    1.0715853   439061 
 4905000   0.71446224    -1.793898    -1.793898  -0.72220706   0.10761696    -1.793898    1.0716909   439061 
 4906000   0.71421679   -1.7932304   -1.7932304   -0.7219077   0.11144782   -1.7932304    1.0713227   439061 
 4907000   0.71437127   -1.7927133   -1.7927133  -0.72115885    0.1142685   -1.7927133    1.0715545   439061 
 4908000    0.7137073   -1.7919501   -1.7919501   -0.7213916   0.11180287   -1.7919501    1.0705585   439061 
 4909000   0.71437989   -1.7932113   -1.7932113  -0.72164387   0.11147419   -1.7932113    1.0715674   439061 
 4910000     0.714132   -1.7933048   -1.7933048   -0.7221092   0.10945897   -1.7933048    1.0711956   439061 
 4911000   0.71451393   -1.7940642   -1.7940642  -0.72229575   0.11098001   -1.7940642    1.0717685   439061 
 4912000   0.71412317   -1.7943489   -1.7943489  -0.72316654   0.10991928   -1.7943489    1.0711823   439061 
 4913000   0.71460535   -1.7936823   -1.7936823  -0.72177668   0.11379561   -1.7936823    1.0719056   439061 
 4914000   0.71459258   -1.7940048   -1.7940048  -0.72211839   0.11086278   -1.7940048    1.0718864   439061 
 4915000   0.71407763   -1.7933409   -1.7933409  -0.72222684   0.11084783   -1.7933409     1.071114   439061 
 4916000   0.71442539    -1.792742    -1.792742   -0.7211064   0.11201498    -1.792742    1.0716356   439061 
 4917000   0.71402377   -1.7922984   -1.7922984   -0.7212652   0.11017297   -1.7922984    1.0710332   439061 
 4918000   0.71516352   -1.7930279   -1.7930279  -0.72028505    0.1125988   -1.7930279    1.0727428   439061 
 4919000   0.71400855   -1.7927009   -1.7927009  -0.72169049   0.11358284   -1.7927009    1.0710104   439061 
 4920000   0.71376753   -1.7908745   -1.7908745   -0.7202257   0.11079144   -1.7908745    1.0706488   439061 
 4921000   0.71442867   -1.7926391   -1.7926391  -0.72099852   0.10977718   -1.7926391    1.0716406   439061 
 4922000   0.71467549   -1.7935197   -1.7935197  -0.72150894   0.11233645   -1.7935197    1.0720108   439061 
 4923000   0.71551457   -1.7946256   -1.7946256  -0.72135619   0.11294932   -1.7946256    1.0732694   439061 
 4924000   0.71527639   -1.7937846   -1.7937846  -0.72087243   0.11284554   -1.7937846    1.0729121   439061 
 4925000   0.71475957   -1.7929559   -1.7929559  -0.72081901   0.10814121   -1.7929559    1.0721369   439061 
 4926000   0.71438404   -1.7927504   -1.7927504  -0.72117679   0.11026295   -1.7927504    1.0715736   439061 
 4927000   0.71547951   -1.7930226   -1.7930226  -0.71980577   0.11131671   -1.7930226    1.0732168   439061 
 4928000   0.71480485   -1.7920864   -1.7920864  -0.71988159   0.11108116   -1.7920864    1.0722048   439061 
 4929000   0.71570851   -1.7941437   -1.7941437  -0.72058337   0.11147494   -1.7941437    1.0735603   439061 
 4930000    0.7150343   -1.7928325   -1.7928325  -0.72028347   0.10814926   -1.7928325     1.072549   439061 
 4931000   0.71479246   -1.7919657   -1.7919657  -0.71977945   0.11319354   -1.7919657    1.0721862   439061 
 4932000   0.71511174   -1.7922379   -1.7922379   -0.7195727   0.11113437   -1.7922379    1.0726652   439061 
 4933000   0.71482747   -1.7922656   -1.7922656  -0.72002682   0.10713793   -1.7922656    1.0722388   439061 
 4934000   0.71378212   -1.7906921   -1.7906921  -0.72002135    0.1129727   -1.7906921    1.0706707   439061 
 4935000    0.7151511   -1.7928187   -1.7928187  -0.72009452   0.11158747   -1.7928187    1.0727242   439061 
 4936000     0.715351   -1.7934394   -1.7934394  -0.72041532   0.10920554   -1.7934394    1.0730241   439061 
 4937000   0.71519285   -1.7928896   -1.7928896  -0.72010272   0.11344122   -1.7928896    1.0727868   439061 
 4938000   0.71441991   -1.7922208   -1.7922208   -0.7205934   0.10933829   -1.7922208    1.0716274   439061 
 4939000   0.71382606   -1.7910724   -1.7910724  -0.72033577   0.11245865   -1.7910724    1.0707367   439061 
 4940000   0.71484973    -1.792495    -1.792495  -0.72022284   0.11007102    -1.792495    1.0722722   439061 
 4941000   0.71403752   -1.7920746   -1.7920746   -0.7210208   0.11109611   -1.7920746    1.0710538   439061 
 4942000    0.7141892   -1.7918009   -1.7918009   -0.7205195   0.11552957   -1.7918009    1.0712814   439061 
 4943000    0.7133923   -1.7907114   -1.7907114  -0.72062535   0.11106739   -1.7907114     1.070086   439061 
 4944000   0.71369671   -1.7917788   -1.7917788  -0.72123614   0.11087665   -1.7917788    1.0705426   439061 
 4945000   0.71508537   -1.7933704   -1.7933704  -0.72074484   0.11177919   -1.7933704    1.0726256   439061 
 4946000   0.71334778   -1.7890727   -1.7890727  -0.71905345   0.11233635   -1.7890727    1.0700192   439061 
 4947000    0.7141961   -1.7914776   -1.7914776  -0.72018587   0.11123337   -1.7914776    1.0712917   439061 
 4948000   0.71460734   -1.7922481   -1.7922481  -0.72033951   0.11193451   -1.7922481    1.0719086   439061 
 4949000   0.71413773   -1.7922731   -1.7922731   -0.7210689   0.11298081   -1.7922731    1.0712042   439061 
 4950000   0.71424895     -1.79316     -1.79316  -0.72178905    0.1109476     -1.79316     1.071371   439061 
 4951000   0.71456431   -1.7934282   -1.7934282  -0.72158421   0.10904176   -1.7934282     1.071844   439061 
 4952000   0.71402255   -1.7917614   -1.7917614  -0.72073001   0.11308962   -1.7917614    1.0710314   439061 
 4953000   0.71449244    -1.791926    -1.791926  -0.72018975   0.11516883    -1.791926    1.0717362   439061 
 4954000   0.71540263   -1.7926395   -1.7926395  -0.71953797   0.10978401   -1.7926395    1.0731015   439061 
 4955000   0.71546732   -1.7925227   -1.7925227   -0.7193242   0.10734273   -1.7925227    1.0731985   439061 
 4956000   0.71518422   -1.7932237   -1.7932237  -0.72044977   0.10852091   -1.7932237    1.0727739   439061 
 4957000   0.71552847   -1.7925917   -1.7925917  -0.71930142   0.11245523   -1.7925917    1.0732903   439061 
 4958000   0.71540383   -1.7922132   -1.7922132  -0.71910987    0.1078172   -1.7922132    1.0731033   439061 
 4959000   0.71415927   -1.7913084   -1.7913084  -0.72007195   0.10845031   -1.7913084    1.0712365   439061 
 4960000   0.71435377   -1.7925147   -1.7925147  -0.72098643   0.10891496   -1.7925147    1.0715282   439061 
 4961000   0.71514893   -1.7934202   -1.7934202  -0.72069922   0.11065963   -1.7934202    1.0727209   439061 
 4962000    0.7141162   -1.7929612   -1.7929612  -0.72178934   0.11102129   -1.7929612    1.0711719   439061 
 4963000   0.71360777   -1.7913899   -1.7913899  -0.72098069   0.11101126   -1.7913899    1.0704092   439061 
 4964000    0.7158801   -1.7942208   -1.7942208  -0.72040309   0.10909913   -1.7942208    1.0738177   439061 
 4965000   0.71474469   -1.7932565   -1.7932565  -0.72114193   0.10994736   -1.7932565    1.0721146   439061 
 4966000   0.71424242   -1.7921246   -1.7921246  -0.72076345   0.11035912   -1.7921246    1.0713612   439061 
 4967000    0.7155975   -1.7935876   -1.7935876  -0.72019382   0.11436777   -1.7935876    1.0733938   439061 
 4968000   0.71398463   -1.7918813   -1.7918813  -0.72090679   0.11153703   -1.7918813    1.0709745   439061 
 4969000   0.71385539   -1.7924033   -1.7924033  -0.72162265   0.10958291   -1.7924033    1.0707806   439061 
 4970000   0.71463376   -1.7929265   -1.7929265  -0.72097832   0.11748318   -1.7929265    1.0719482   439061 
 4971000   0.71485233   -1.7939617   -1.7939617  -0.72168567   0.10995079   -1.7939617     1.072276   439061 
 4972000   0.71507065    -1.793679    -1.793679  -0.72107545   0.11368345    -1.793679    1.0726035   439061 
 4973000   0.71440524   -1.7933575   -1.7933575  -0.72175206   0.10649849   -1.7933575    1.0716054   439061 
 4974000   0.71530162    -1.794137    -1.794137  -0.72118706   0.10723691    -1.794137      1.07295   439061 
 4975000   0.71463312   -1.7926655   -1.7926655  -0.72071829   0.11186133   -1.7926655    1.0719472   439061 
 4976000   0.71573253   -1.7934919   -1.7934919   -0.7198956   0.10847679   -1.7934919    1.0735963   439061 
 4977000   0.71581926   -1.7929813   -1.7929813  -0.71925487   0.10916252   -1.7929813    1.0737264   439061 
 4978000   0.71469019   -1.7917952   -1.7917952  -0.71976239   0.11306112   -1.7917952    1.0720328   439061 
 4979000   0.71597057   -1.7935347   -1.7935347  -0.71958133   0.11108361   -1.7935347    1.0739534   439061 
 4980000    0.7154687   -1.7940442   -1.7940442  -0.72084362   0.11007145   -1.7940442    1.0732006   439061 
 4981000   0.71562845   -1.7929764   -1.7929764  -0.71953619   0.11450092   -1.7929764    1.0734402   439061 
 4982000    0.7149174   -1.7917886   -1.7917886  -0.71941499    0.1108653   -1.7917886    1.0723737   439061 
 4983000   0.71526311   -1.7926872   -1.7926872  -0.71979498   0.10922928   -1.7926872    1.0728922   439061 
 4984000   0.71657479   -1.7944939   -1.7944939  -0.71963414   0.11263479   -1.7944939    1.0748597   439061 
 4985000   0.71562591   -1.7931154   -1.7931154  -0.71967898   0.11639745   -1.7931154    1.0734364   439061 
 4986000   0.71587829   -1.7932483   -1.7932483  -0.71943331   0.11393109   -1.7932483     1.073815   439061 
 4987000   0.71482979    -1.792197    -1.792197  -0.71995475   0.11227055    -1.792197    1.0722422   439061 
 4988000   0.71487479   -1.7936091   -1.7936091  -0.72129932      0.11004   -1.7936091    1.0723097   439061 
 4989000   0.71449338   -1.7931931   -1.7931931  -0.72145544   0.11341075   -1.7931931    1.0717376   439061 
 4990000   0.71399704   -1.7930209   -1.7930209  -0.72202776   0.10981652   -1.7930209    1.0709931   439061 
 4991000   0.71301169   -1.7913248   -1.7913248  -0.72180969   0.11068557   -1.7913248    1.0695151   439061 
 4992000   0.71474051   -1.7946068   -1.7946068  -0.72249848   0.11284652   -1.7946068    1.0721083   439061 
 4993000   0.71366928   -1.7928206   -1.7928206  -0.72231909   0.10997765   -1.7928206    1.0705015   439061 
 4994000   0.71403716    -1.793204    -1.793204   -0.7221507   0.11182976    -1.793204    1.0710533   439061 
 4995000    0.7148605   -1.7943977   -1.7943977  -0.72210942   0.11198944   -1.7943977    1.0722883   439061 
 4996000   0.71519077   -1.7947017   -1.7947017  -0.72191795   0.10644273   -1.7947017    1.0727837   439061 
 4997000   0.71459901     -1.79449     -1.79449  -0.72259391    0.1090275     -1.79449    1.0718961   439061 
 4998000   0.71329783   -1.7927608   -1.7927608  -0.72281645   0.10958826   -1.7927608    1.0699443   439061 
 4999000   0.71301599   -1.7917721   -1.7917721  -0.72225053   0.11367079   -1.7917721    1.0695216   439061 
 5000000   0.71360937   -1.7922079   -1.7922079  -0.72179628   0.11020634   -1.7922079    1.0704116   439061 
Loop time of 5408.92 on 192 procs for 5000000 steps with 439061 atoms

Performance: 399340.056 tau/day, 924.398 timesteps/s
88.1% CPU use with 192 MPI tasks x 1 OpenMP threads

MPI task timing breakdown:
Section |  min time  |  avg time  |  max time  |%varavg|  %CPU | %total
-----------------------------------------------------------------------
Pair    | 1540.8     | 2065.6     | 2507.3     | 641.7 |  90.6 | 38.19
Bond    | 3.2122     | 3.3382     | 3.5155     |   3.2 | 100.0 |  0.06
Neigh   | 927.39     | 1051.4     | 1121.6     | 153.5 |  97.1 | 19.44
Comm    | 824        | 1616.7     | 2196.3     | 924.5 |  84.1 | 29.89
Output  | 278.8      | 279.2      | 279.22     |   0.2 |  67.7 |  5.16
Modify  | 135.12     | 215.71     | 629.33     |1085.9 |  86.3 |  3.99
Other   |            | 176.9      |            |       |       |  3.27

Nlocal:        2286.78 ave        2453 max        2082 min
Histogram: 1 3 5 20 44 47 39 23 9 1
Nghost:        2405.02 ave        2738 max        1877 min
Histogram: 12 11 20 4 4 12 33 35 49 12
Neighs:        29503.2 ave       37113 max       19902 min
Histogram: 1 9 12 20 26 37 37 30 16 4

Total # of neighbors = 5664612
Ave neighs/atom = 12.901651
Ave special neighs/atom = 0.0000000
Neighbor list builds = 500000
Dangerous builds = 495000
write_data	data.lj
System init for write_data ...


## Evaporation
#region          regevap block EDGE EDGE EDGE EDGE 140 EDGE units box
#fix             4 solvent evaporate ${evap} 1 regevap 156415

#run 		20000000
Total wall time: 1:30:12
