LAMMPS (24 Dec 2020)
OMP_NUM_THREADS environment is not set. Defaulting to 1 thread. (src/comm.cpp:94)
  using 1 OpenMP thread(s) per MPI task
# Simple rigid body system
# needed variables: startTemp, temp

units		lj
atom_style	full
dimension 	3
boundary	p p f
pair_style	lj/cut/opt 2.5

variable 	gcmcdisplace	equal 0
variable 	sigma		equal 1.0
variable 	epsilon 	equal 1.0


read_restart	restart.dat.3000000
Reading restart file ...
  restart file = 24 Dec 2020, LAMMPS = 24 Dec 2020
WARNING: Restart file used different # of processors: 144 vs. 192 (src/read_restart.cpp:697)
  restoring atom style full from restart
  orthogonal box = (0.0000000 0.0000000 0.0000000) to (100.00000 100.00000 200.00000)
  4 by 4 by 12 MPI processor grid
  restoring pair style lj/cut/opt from restart
  878832 atoms
Finding 1-2 1-3 1-4 neighbors ...
  special bond factors lj:    0        0        0       
  special bond factors coul:  0        0        0       
     0 = max # of 1-2 neighbors
     0 = max # of 1-3 neighbors
     0 = max # of 1-4 neighbors
     1 = max # of special neighbors
  special bonds CPU = 1.433 seconds
  read_restart CPU = 1.870 seconds

mass		1 1.0
mass		2 1.0
mass		3 1.0


group		solvent type 1
878832 atoms in group solvent


neighbor 	0.4 bin

pair_coeff	1 1 1.0 1.0
pair_coeff	2 2 0.0 0.0
pair_coeff	3 3 0.0 0.0
pair_coeff	2 3 0.0 0.0
pair_coeff	1 2*3 0.0 0.0

pair_modify 	shift yes


balance 	1.05 shift z 10 1.05
Balancing ...
Neighbor list info ...
  update every 1 steps, delay 10 steps, check yes
  max neighbors/atom: 2000, page size: 100000
  master list distance cutoff = 2.9
  ghost atom cutoff = 2.9
  binsize = 1.45, bins = 69 69 138
  1 neighbor lists, perpetual/occasional/extra = 1 0 0
  (1) pair lj/cut/opt, perpetual
      attributes: half, newton on
      pair build: half/bin/newton
      stencil: half/bin/3d/newton
      bin: standard
 rebalancing time: 0.027 seconds
  iteration count = 4
  initial/final maximal load/proc = 6332.0000 5548.0000
  initial/final imbalance factor  = 1.3833634 1.2120815
  x cuts: 0.0000000 0.25000000 0.50000000 0.75000000 1.0000000
  y cuts: 0.0000000 0.25000000 0.50000000 0.75000000 1.0000000
  z cuts: 0.0000000 0.067708333 0.13020833 0.19270833 0.25520833 0.32291667 0.38541667 0.44791667 0.51041667 0.57812500 0.63020833 0.68229167 1.0000000


####################### WALLS ###########################


variable       epsilonWall equal 2*${epsilon}
variable       epsilonWall equal 2*1

variable       cutoffTop   equal   0.7147*${sigma}
variable       cutoffTop   equal   0.7147*1

variable       cutoffLow   equal   3*${sigma}
variable       cutoffLow   equal   3*1


fix            topWall all wall/lj93 zhi EDGE                ${epsilonWall} ${sigma} ${cutoffTop} units box
fix            topWall all wall/lj93 zhi EDGE                2 ${sigma} ${cutoffTop} units box
fix            topWall all wall/lj93 zhi EDGE                2 1 ${cutoffTop} units box
fix            topWall all wall/lj93 zhi EDGE                2 1 0.7147 units box

fix            lowWall all wall/lj93 zlo EDGE                ${epsilonWall} ${sigma} ${cutoffLow} units box
fix            lowWall all wall/lj93 zlo EDGE                2 ${sigma} ${cutoffLow} units box
fix            lowWall all wall/lj93 zlo EDGE                2 1 ${cutoffLow} units box
fix            lowWall all wall/lj93 zlo EDGE                2 1 3 units box


###################### COMPUTES ##########################

compute        bin1 solvent chunk/atom bin/1d z upper 1.0



######################	FIXES ############################


fix 		peclet solvent ave/chunk 1000 1 1000 bin1 density/number norm 		 none ave one file density.profile

fix 		 temp solvent ave/chunk 1000 1 1000 bin1 temp norm none ave one file temp.profile

fix 		2 solvent nve

## Thermostat


region		regthermo block EDGE EDGE EDGE EDGE 0 20

group 		thermo dynamic solvent region regthermo every 1000
dynamic group thermo defined

fix 		3 thermo langevin ${startTemp} ${temp} 10 156453
fix 		3 thermo langevin 1.0 ${temp} 10 156453
fix 		3 thermo langevin 1.0 1.0 10 156453


## Evaporation

region		regevap block EDGE EDGE EDGE EDGE 180 198
fix 		gcmc solvent gcmc 100 100 0 1 780493 ${temp} ${mu} ${gcmcdisplace} region regevap
fix 		gcmc solvent gcmc 100 100 0 1 780493 1.0 ${mu} ${gcmcdisplace} region regevap
fix 		gcmc solvent gcmc 100 100 0 1 780493 1.0 -10 ${gcmcdisplace} region regevap
fix 		gcmc solvent gcmc 100 100 0 1 780493 1.0 -10 0 region regevap


#### Load balancing

fix 		bal all balance 1000 1.05 shift z 10 1.05

############### Diagnostics and computes ###################
#compute 	com cube	  rigid/local	1 mol x y z
#compute 	quat cube	  rigid/local	1 mol quatw quati quatj quatk

thermo 		1000
thermo_style 	custom step temp epair etotal press pe ke atoms

dump		1 all custom 100000 dump.lammpstrj id mol type x y z
dump 		2 all image 10000 image.*.png type type
dump 		3 all movie 1000 movie.avi type type
#dump 		com cube local 1000 dump.*.xyz c_com[*]
#dump		quat cube      local 1000 dump.*.quat c_quat[*]


restart 	1000000 restart.dat
timestep 	0.005
timer 		full
New timer settings: style=full  mode=nosync  timeout=off


run		5000000
Per MPI rank memory allocation (min/avg/max) = 12.26 | 12.63 | 13.06 Mbytes
Step Temp E_pair TotEng Press PotEng KinEng Atoms 
 3000000   0.98378862   -3.3591705   -1.8834892  0.056035388   -3.3591705    1.4756812   878832 
 3001000    0.9847745   -3.3618452   -1.8838611  0.056393911   -3.3618452    1.4779841   878342 
 3002000   0.98344166    -3.362667   -1.8858711  0.056791906    -3.362667    1.4767959   877859 
 3003000   0.98254656   -3.3635532   -1.8872522  0.056898728   -3.3635532     1.476301   877354 
 3004000   0.98145575   -3.3641359   -1.8886498  0.054741697   -3.3641359    1.4754861   876864 
 3005000   0.98160186   -3.3670064   -1.8904739  0.055420633   -3.3670064    1.4765325   876373 
 3006000   0.98127146   -3.3680666    -1.891175  0.052730343   -3.3680666    1.4768916   875865 
 3007000    0.9802395   -3.3685367   -1.8923168  0.051872531   -3.3685367    1.4762199   875342 
 3008000   0.97967378   -3.3696402   -1.8934105  0.046163777   -3.3696402    1.4762297   874831 
 3009000   0.97917412   -3.3703513   -1.8940239  0.054515598   -3.3703513    1.4763273   874327 
 3010000   0.97880684    -3.371279   -1.8946711  0.053689653    -3.371279    1.4766079   873833 
 3011000   0.97724192   -3.3712007   -1.8961518  0.050443316   -3.3712007    1.4750489   873358 
 3012000   0.97587737   -3.3713046   -1.8974412   0.05615044   -3.3713046    1.4738634   872840 
 3013000   0.97701548   -3.3754042   -1.8989982  0.052943779   -3.3754042     1.476406   872353 
 3014000   0.97583684   -3.3758067   -1.9003665  0.049564089   -3.3758067    1.4754402   871871 
 3015000   0.97546458   -3.3769288   -1.9012374  0.055218763   -3.3769288    1.4756914   871390 
 3016000   0.97450805   -3.3774727   -1.9023548  0.050960198   -3.3774727    1.4751179   870874 
 3017000   0.97359259   -3.3784028   -1.9038443  0.052450176   -3.3784028    1.4745584   870386 
 3018000   0.97257337   -3.3798937   -1.9060543  0.051272502   -3.3798937    1.4738394   869899 
 3019000   0.97159226   -3.3793804   -1.9062369  0.053349961   -3.3793804    1.4731435   869432 
 3020000   0.97122696   -3.3814825   -1.9080489  0.049303618   -3.3814825    1.4734336   868934 
 3021000   0.97149925   -3.3833145   -1.9085921  0.045938915   -3.3833145    1.4747224   868418 
 3022000   0.97003489   -3.3831218   -1.9097672   0.04549571   -3.3831218    1.4733546   867914 
 3023000   0.96835366   -3.3824797   -1.9108003  0.046679491   -3.3824797    1.4716794   867396 
 3024000   0.96713542   -3.3834439   -1.9127461  0.044411594   -3.3834439    1.4706977   866883 
 3025000   0.96642286   -3.3841709   -1.9137561  0.043978948   -3.3841709    1.4704148   866411 
 3026000   0.96568162   -3.3850278   -1.9148482  0.047406994   -3.3850278    1.4701795   865885 
 3027000   0.96557655   -3.3872593   -1.9163802  0.039361155   -3.3872593    1.4708791   865379 
 3028000   0.96464103   -3.3879527   -1.9176576   0.04049772   -3.3879527    1.4702951   864884 
 3029000   0.96335025   -3.3874917   -1.9183164  0.043723987   -3.3874917    1.4691753   864385 
 3030000   0.96270083   -3.3891249   -1.9201073  0.043727917   -3.3891249    1.4690176   863895 
 3031000   0.96226458   -3.3905226   -1.9213203  0.041461394   -3.3905226    1.4692023   863395 
 3032000   0.95919285   -3.3877865    -1.922429  0.045313158   -3.3877865    1.4653575   862897 
 3033000   0.95912012   -3.3904857   -1.9243796    0.0401558   -3.3904857    1.4661061   862391 
 3034000   0.95944335   -3.3928228   -1.9253751  0.035396588   -3.3928228    1.4674476   861893 
 3035000   0.95836327   -3.3938571   -1.9272191  0.039286154   -3.3938571     1.466638   861398 
 3036000   0.95744744   -3.3935268   -1.9274632  0.037333267   -3.3935268    1.4660636   860912 
 3037000   0.95681426    -3.393823   -1.9278349  0.034512161    -3.393823     1.465988   860387 
 3038000   0.95522038   -3.3938645   -1.9294641  0.038802864   -3.3938645    1.4644004   859885 
 3039000   0.95353646   -3.3940721   -1.9313704  0.038867686   -3.3940721    1.4627017   859366 
 3040000   0.95295405   -3.3962888   -1.9336516  0.034461099   -3.3962888    1.4626372   858879 
 3041000   0.95304462   -3.3976486   -1.9340579  0.033700736   -3.3976486    1.4635907   858401 
 3042000    0.9520732   -3.3991062   -1.9362097  0.036999685   -3.3991062    1.4628965   857933 
 3043000    0.9514506   -3.3994643   -1.9367163  0.033173869   -3.3994643     1.462748   857459 
 3044000   0.95027741   -3.3999174   -1.9381258  0.029113364   -3.3999174    1.4617916   856962 
 3045000    0.9505088   -3.4017559   -1.9387547  0.033616244   -3.4017559    1.4630012   856462 
 3046000   0.94880398   -3.4018328   -1.9405839  0.035662412   -3.4018328     1.461249   855951 
 3047000   0.94906431   -3.4035973   -1.9411051  0.033648034   -3.4035973    1.4624923   855458 
 3048000   0.94759189   -3.4032021   -1.9421419  0.032862379   -3.4032021    1.4610602   854968 
 3049000   0.94657379   -3.4054028   -1.9450874  0.032121873   -3.4054028    1.4603154   854485 
 3050000   0.94652364   -3.4071015       -1.946  0.033364287   -3.4071015    1.4611015   853980 
 3051000   0.94502588     -3.40748   -1.9478274  0.030734725     -3.40748    1.4596527   853475 
 3052000   0.94477302   -3.4091625   -1.9490124  0.031968176   -3.4091625      1.46015   852956 
 3053000   0.94416511   -3.4096959    -1.949597  0.033993098   -3.4096959    1.4600989   852437 
 3054000   0.94478623   -3.4119862   -1.9500641  0.035792722   -3.4119862    1.4619221   851934 
 3055000   0.94371679   -3.4129939   -1.9518691  0.031003035   -3.4129939    1.4611248   851434 
 3056000   0.94166874   -3.4121557   -1.9533777  0.035838315   -3.4121557     1.458778   850953 
 3057000   0.94206264   -3.4142779   -1.9540763  0.033710074   -3.4142779    1.4602016   850479 
 3058000   0.94042777   -3.4135018    -1.955006  0.031797105   -3.4135018    1.4584958   849996 
 3059000    0.9398312   -3.4157283   -1.9572895  0.032113609   -3.4157283    1.4584388   849490 
 3060000    0.9381331   -3.4157913   -1.9591697  0.032964479   -3.4157913    1.4566216   849013 
 3061000   0.93801522   -3.4178337   -1.9605404  0.031727486   -3.4178337    1.4572934   848515 
 3062000   0.93725207   -3.4190769   -1.9621158  0.032333455   -3.4190769    1.4569611   848018 
 3063000   0.93680435   -3.4208822   -1.9637785  0.031322635   -3.4208822    1.4571037   847530 
 3064000   0.93490411   -3.4212713   -1.9662907  0.027900863   -3.4212713    1.4549806   847045 
 3065000   0.93427197   -3.4218774   -1.9670046  0.025688699   -3.4218774    1.4548728   846535 
 3066000   0.93424442   -3.4236108   -1.9679434  0.023164403   -3.4236108    1.4556673   846048 
 3067000   0.93309929   -3.4242714   -1.9695767  0.026392961   -3.4242714    1.4546946   845576 
 3068000   0.93126836   -3.4244832   -1.9717719  0.027845569   -3.4244832    1.4527113   845069 
 3069000   0.93057002   -3.4250275    -1.972529  0.028019871   -3.4250275    1.4524985   844559 
 3070000   0.92959302   -3.4257954   -1.9739108  0.026766553   -3.4257954    1.4518846   844029 
 3071000   0.92868636   -3.4272173    -1.975877  0.022904082   -3.4272173    1.4513404   843522 
 3072000   0.92892557   -3.4305316   -1.9779529  0.022187602   -3.4305316    1.4525787   843020 
 3073000   0.92836059   -3.4309504   -1.9783764  0.026041675   -3.4309504     1.452574   842510 
 3074000   0.92724006   -3.4318152   -1.9801313   0.02610215   -3.4318152     1.451684   842009 
 3075000   0.92666306   -3.4340372   -1.9824377  0.023856173   -3.4340372    1.4515995   841534 
 3076000   0.92573827   -3.4350722   -1.9840662  0.021853329   -3.4350722    1.4510061   841038 
 3077000   0.92387869   -3.4347664   -1.9858137  0.023545015   -3.4347664    1.4489528   840538 
 3078000   0.92335055   -3.4362237   -1.9872597  0.024437319   -3.4362237     1.448964   840051 
 3079000    0.9224643   -3.4366042   -1.9881965  0.024524264   -3.4366042    1.4484077   839567 
 3080000   0.92222345   -3.4386012   -1.9897675  0.022913437   -3.4386012    1.4488337   839101 
 3081000   0.92116503   -3.4392193   -1.9911804  0.027039098   -3.4392193     1.448039   838598 
 3082000   0.92111176   -3.4406935     -1.99189  0.024023332   -3.4406935    1.4488035   838107 
 3083000   0.91992054   -3.4428941   -1.9950867  0.022512886   -3.4428941    1.4478074   837599 
 3084000   0.92065676   -3.4463014   -1.9964751  0.022346932   -3.4463014    1.4498264   837102 
 3085000   0.91863183   -3.4441177   -1.9966225  0.024280431   -3.4441177    1.4474952   836606 
 3086000   0.91786975   -3.4450448   -1.9979028  0.022578666   -3.4450448     1.447142   836116 
 3087000   0.91730288   -3.4467395   -1.9995688  0.020611496   -3.4467395    1.4471708   835583 
 3088000    0.9173678    -3.448942   -2.0008092  0.019977565    -3.448942    1.4481328   835087 
 3089000    0.9170225   -3.4500345   -2.0016021  0.021352176   -3.4500345    1.4484324   834600 
 3090000   0.91610891   -3.4508362   -2.0029777  0.019645662   -3.4508362    1.4478586   834099 
 3091000   0.91534262   -3.4522797    -2.004768  0.025378738   -3.4522797    1.4475117   833601 
 3092000   0.91464653   -3.4530125   -2.0057509  0.019620351   -3.4530125    1.4472616   833111 
 3093000   0.91263465   -3.4532139   -2.0082737  0.016935345   -3.4532139    1.4449402   832614 
 3094000   0.91173939   -3.4540371   -2.0096764  0.016298255   -3.4540371    1.4443606   832131 
 3095000   0.91097058   -3.4541951   -2.0101517    0.0171903   -3.4541951    1.4440434   831612 
 3096000    0.9101365   -3.4564829   -2.0128816  0.020654535   -3.4564829    1.4436013   831105 
 3097000   0.90913925   -3.4572745   -2.0143679   0.01445379   -3.4572745    1.4429067   830594 
 3098000   0.90793302   -3.4571911   -2.0153482  0.017616894   -3.4571911    1.4418429   830104 
 3099000   0.90720419   -3.4594054   -2.0178864  0.013937959   -3.4594054     1.441519   829624 
 3100000   0.90647133   -3.4610035   -2.0198395  0.017064906   -3.4610035     1.441164   829158 
 3101000   0.90543354   -3.4619701   -2.0215683  0.017863421   -3.4619701    1.4404018   828647 
 3102000   0.90481102   -3.4632925   -2.0229999  0.014391118   -3.4632925    1.4402926   828140 
 3103000   0.90374421    -3.464943   -2.0255038  0.014467823    -3.464943    1.4394392   827654 
 3104000   0.90445361   -3.4670443   -2.0255608  0.014573844   -3.4670443    1.4414835   827129 
 3105000   0.90309115   -3.4672996   -2.0270647  0.018122453   -3.4672996    1.4402349   826599 
 3106000   0.90283146   -3.4687764   -2.0280876  0.014744459   -3.4687764    1.4406887   826101 
 3107000   0.90060582   -3.4694984   -2.0315117  0.015577632   -3.4694984    1.4379866   825613 
 3108000   0.90058708    -3.470806   -2.0319674  0.014809627    -3.470806    1.4388386   825107 
 3109000   0.89988753   -3.4714583   -2.0328988  0.016443331   -3.4714583    1.4385595   824626 
 3110000   0.89896789   -3.4727688   -2.0348128  0.013475892   -3.4727688     1.437956   824129 
 3111000   0.89769824   -3.4727229    -2.035947  0.013321412   -3.4727229    1.4367759   823641 
 3112000   0.89778151    -3.475044   -2.0372742  0.011324758    -3.475044    1.4377698   823148 
 3113000   0.89644002   -3.4762402    -2.039755  0.015811034   -3.4762402    1.4364853   822653 
 3114000   0.89569646   -3.4776042   -2.0414428  0.013367143   -3.4776042    1.4361614   822156 
 3115000   0.89575995   -3.4799731   -2.0428516  0.012229576   -3.4799731    1.4371215   821665 
 3116000   0.89474216   -3.4809231    -2.044543  0.019163156   -3.4809231    1.4363801   821155 
 3117000   0.89387666    -3.483635   -2.0477315  0.014680333    -3.483635    1.4359035   820633 
 3118000   0.89246679   -3.4835135   -2.0489833  0.016450765   -3.4835135    1.4345302   820123 
 3119000   0.89186213   -3.4853316    -2.050897  0.015998208   -3.4853316    1.4344346   819622 
 3120000   0.89160637   -3.4864904   -2.0516146  0.014303946   -3.4864904    1.4348758   819135 
 3121000   0.89036731   -3.4866748   -2.0529476  0.016548499   -3.4866748    1.4337271   818652 
 3122000   0.88887646   -3.4878244   -2.0555829  0.012932196   -3.4878244    1.4322415   818129 
 3123000   0.88928539   -3.4904743   -2.0566889  0.015632605   -3.4904743    1.4337854   817624 
 3124000   0.88932175   -3.4935559   -2.0587853  0.013798018   -3.4935559    1.4347706   817096 
 3125000   0.88732718    -3.493634    -2.061189   0.01327974    -3.493634     1.432445   816587 
 3126000   0.88694203   -3.4952383   -2.0625625  0.012956249   -3.4952383    1.4326759   816101 
 3127000   0.88620817   -3.4967198    -2.064343 0.0090468709   -3.4967198    1.4323768   815596 
 3128000    0.8855205   -3.4978678   -2.0657297  0.010738875   -3.4978678    1.4321381   815099 
 3129000   0.88460611   -3.4977687   -2.0663244  0.014600583   -3.4977687    1.4314442   814652 
 3130000   0.88331806   -3.4985642   -2.0684459  0.011631393   -3.4985642    1.4301183   814220 
 3131000   0.88367125   -3.5014254    -2.069981   0.01081621   -3.5014254    1.4314443   813791 
 3132000   0.88262876   -3.5019573   -2.0713983  0.010730255   -3.5019573     1.430559   813334 
 3133000   0.88175165   -3.5027392   -2.0728616  0.013913673   -3.5027392    1.4298775   812913 
 3134000   0.88189124   -3.5045935   -2.0737961  0.016150313   -3.5045935    1.4307974   812519 
 3135000   0.88214972   -3.5063362   -2.0744674  0.015698411   -3.5063362    1.4318688   812149 
 3136000   0.88228722   -3.5092106   -2.0764271  0.014091086   -3.5092106    1.4327835   811757 
 3137000   0.88155032   -3.5102456   -2.0779283  0.016302358   -3.5102456    1.4323173   811343 
 3138000   0.88051374   -3.5105368   -2.0792228  0.016668775   -3.5105368    1.4313141   810957 
 3139000   0.88028261   -3.5119758   -2.0803419  0.015486399   -3.5119758    1.4316339   810563 
 3140000   0.87952461   -3.5136818   -2.0826027  0.018427706   -3.5136818    1.4310791   810179 
 3141000   0.87928646   -3.5152581   -2.0839587  0.014758816   -3.5152581    1.4312993   809835 
 3142000    0.8786594   -3.5167358   -2.0858494  0.013258323   -3.5167358    1.4308864   809491 
 3143000   0.87833445   -3.5177122   -2.0867221  0.011127851   -3.5177122    1.4309901   809133 
 3144000    0.8771504   -3.5178611   -2.0881162  0.012427199   -3.5178611    1.4297449   808746 
 3145000   0.87567541   -3.5179566   -2.0900068   0.01211341   -3.5179566    1.4279498   808401 
 3146000   0.87514165   -3.5187194   -2.0910307  0.011929564   -3.5187194    1.4276887   808056 
 3147000   0.87510616   -3.5194198   -2.0911633  0.016464218   -3.5194198    1.4282565   807702 
 3148000   0.87550938   -3.5218355   -2.0923103  0.013340111   -3.5218355    1.4295252   807357 
 3149000    0.8737912    -3.520068   -2.0927224  0.015909485    -3.520068    1.4273456   807003 
 3150000   0.87250233   -3.5204685   -2.0945834  0.016668962   -3.5204685    1.4258851   806638 
 3151000   0.87240562   -3.5224031   -2.0960518  0.015087067   -3.5224031    1.4263513   806285 
 3152000   0.87258669   -3.5236974   -2.0965456  0.017250065   -3.5236974    1.4271518   806000 
 3153000   0.87132975   -3.5239249   -2.0982063  0.019070694   -3.5239249    1.4257187   805648 
 3154000   0.87214673    -3.525672   -2.0980389   0.01540288    -3.525672    1.4276331   805322 
 3155000   0.87281899   -3.5283561   -2.0989729  0.016868184   -3.5283561    1.4293832   804956 
 3156000   0.87254359   -3.5293859   -2.0998641  0.021982853   -3.5293859    1.4295218   804624 
 3157000   0.87155417   -3.5296963   -2.1012274  0.016669561   -3.5296963    1.4284689   804304 
 3158000   0.86977445   -3.5288923   -2.1026683  0.017918441   -3.5288923     1.426224   803925 
 3159000   0.87006368   -3.5301898   -2.1029039   0.01739802   -3.5301898    1.4272859   803594 
 3160000   0.86868051   -3.5298693   -2.1041835  0.015330127   -3.5298693    1.4256858   803217 
 3161000   0.86808527   -3.5308146   -2.1055521  0.016369263   -3.5308146    1.4252625   802905 
 3162000   0.86758892   -3.5319277   -2.1068394  0.017008984   -3.5319277    1.4250883   802544 
 3163000   0.86745196   -3.5328984   -2.1074827  0.014882983   -3.5328984    1.4254157   802233 
 3164000   0.86623958   -3.5314642   -2.1074336  0.019056911   -3.5314642    1.4240306   801891 
 3165000   0.86421209   -3.5305189    -2.109233  0.011367999   -3.5305189     1.421286   801559 
 3166000   0.86336756   -3.5299966   -2.1095396  0.019977237   -3.5299966     1.420457   801243 
 3167000   0.86368851   -3.5319528   -2.1103965  0.019238115   -3.5319528    1.4215564   800921 
 3168000   0.86278363   -3.5333095    -2.112682  0.018281004   -3.5333095    1.4206275   800605 
 3169000   0.86287161   -3.5350044   -2.1136887  0.022658604   -3.5350044    1.4213156   800299 
 3170000    0.8633578   -3.5372917   -2.1146029  0.018613877   -3.5372917    1.4226889   799977 
 3171000   0.86174081   -3.5369758   -2.1163566  0.014541222   -3.5369758    1.4206192   799642 
 3172000   0.86230061   -3.5381245   -2.1159528  0.017058357   -3.5381245    1.4221717   799288 
 3173000   0.86128299   -3.5379891   -2.1169446  0.018769561   -3.5379891    1.4210445   798978 
 3174000   0.86042427   -3.5383471    -2.118115  0.017630683   -3.5383471    1.4202321   798638 
 3175000   0.86117588   -3.5405382   -2.1184387   0.02077229   -3.5405382    1.4220995   798286 
 3176000    0.8605584   -3.5406196   -2.1189931  0.018992267   -3.5406196    1.4216265   797979 
 3177000   0.85965082   -3.5409664   -2.1202588  0.018428782   -3.5409664    1.4207076   797653 
 3178000   0.85892795   -3.5408787   -2.1208156  0.020475415   -3.5408787    1.4200631   797344 
 3179000   0.85927835   -3.5428175   -2.1216564  0.019816845   -3.5428175     1.421161   797053 
 3180000   0.85849109   -3.5427499   -2.1223081  0.022423306   -3.5427499    1.4204418   796726 
 3181000   0.85815699   -3.5435337   -2.1231152  0.018576503   -3.5435337    1.4204184   796429 
 3182000   0.85668931   -3.5431054   -2.1244964  0.024052893   -3.5431054     1.418609   796081 
 3183000   0.85587403   -3.5425101   -2.1247186  0.020950918   -3.5425101    1.4177915   795782 
 3184000   0.85535586   -3.5425328   -2.1249816  0.021842039   -3.5425328    1.4175512   795435 
 3185000    0.8544042   -3.5424351   -2.1258983  0.019764141   -3.5424351    1.4165368   795119 
 3186000   0.85506995   -3.5443192   -2.1261043  0.018597461   -3.5443192    1.4182149   794797 
 3187000   0.85332899   -3.5433438   -2.1274553  0.023634139   -3.5433438    1.4158885   794482 
 3188000   0.85280074   -3.5436741   -2.1281418   0.01924635   -3.5436741    1.4155323   794190 
 3189000   0.85207182   -3.5444101   -2.1295408  0.016735277   -3.5444101    1.4148693   793883 
 3190000   0.85224383   -3.5459112   -2.1302105  0.021018345   -3.5459112    1.4157006   793577 
 3191000   0.85275758   -3.5479524   -2.1308037  0.020726489   -3.5479524    1.4171487   793244 
 3192000   0.85132914   -3.5468466   -2.1315294  0.020964588   -3.5468466    1.4153172   792940 
 3193000   0.85113926   -3.5482341   -2.1326451  0.019444553   -3.5482341    1.4155889   792611 
 3194000   0.85071732   -3.5485804   -2.1331718  0.019772074   -3.5485804    1.4154086   792319 
 3195000   0.85078392   -3.5500512   -2.1339366   0.02228481   -3.5500512    1.4161146   791986 
 3196000   0.85050781   -3.5515237   -2.1352768  0.020678758   -3.5515237    1.4162469   791655 
 3197000   0.84982309    -3.550643   -2.1349855  0.025211147    -3.550643    1.4156575   791347 
 3198000   0.84957511   -3.5510551    -2.135265  0.022800379   -3.5510551    1.4157901   791042 
 3199000   0.84870026    -3.551494   -2.1365876  0.024359853    -3.551494    1.4149063   790721 
 3200000   0.84881736   -3.5528036   -2.1371005  0.025250725   -3.5528036    1.4157031   790385 
 3201000   0.84715149   -3.5503015   -2.1368224  0.018119972   -3.5503015    1.4134791   790075 
 3202000   0.84643835   -3.5504259   -2.1375305   0.02118749   -3.5504259    1.4128954   789736 
 3203000   0.84613158   -3.5503504    -2.137382  0.023210963   -3.5503504    1.4129684   789409 
 3204000   0.84526378   -3.5498511   -2.1377058  0.023836521   -3.5498511    1.4121454   789059 
 3205000    0.8453532   -3.5510111   -2.1380914  0.021234733   -3.5510111    1.4129197   788710 
 3206000   0.84333601     -3.54753   -2.1374079  0.026054873     -3.54753    1.4101221   788389 
 3207000   0.84312509    -3.548732   -2.1384223  0.023424856    -3.548732    1.4103096   788087 
 3208000   0.84273829    -3.547872     -2.13766  0.023012585    -3.547872     1.410212   787780 
 3209000   0.84165422   -3.5477327   -2.1387678  0.024551902   -3.5477327    1.4089649   787463 
 3210000   0.84187013    -3.548594   -2.1386464  0.023100182    -3.548594    1.4099476   787116 
 3211000   0.84187867   -3.5499024   -2.1393903  0.022139043   -3.5499024    1.4105121   786809 
 3212000   0.84170391   -3.5509089   -2.1400979  0.021290109   -3.5509089     1.410811   786479 
 3213000   0.84245522   -3.5520404   -2.1393971  0.023775268   -3.5520404    1.4126433   786160 
 3214000   0.84119115   -3.5506894   -2.1396129  0.024982903   -3.5506894    1.4110765   785852 
 3215000   0.84042257   -3.5493133   -2.1389536  0.022518687   -3.5493133    1.4103597   785533 
 3216000   0.84023903   -3.5495428   -2.1389704  0.024932851   -3.5495428    1.4105725   785243 
 3217000   0.83929634   -3.5499866   -2.1403576  0.027113802   -3.5499866     1.409629   784887 
 3218000   0.83947226   -3.5511675   -2.1406877  0.024358346   -3.5511675    1.4104797   784578 
 3219000   0.83888597   -3.5511959   -2.1411585  0.027854871   -3.5511959    1.4100374   784276 
 3220000   0.83699114    -3.549234   -2.1417552  0.019631139    -3.549234    1.4074788   783927 
 3221000   0.83693352   -3.5505091   -2.1425076  0.022632416   -3.5505091    1.4080016   783582 
 3222000    0.8364519   -3.5502142   -2.1424498   0.02829351   -3.5502142    1.4077644   783263 
 3223000   0.83587191   -3.5503121   -2.1429488  0.022146003   -3.5503121    1.4073633   782943 
 3224000   0.83555079   -3.5514468   -2.1440526  0.022094982   -3.5514468    1.4073942   782625 
 3225000   0.83384827   -3.5495062   -2.1444105  0.024856451   -3.5495062    1.4050956   782308 
 3226000   0.83337745   -3.5491818   -2.1441791  0.025906971   -3.5491818    1.4050027   781918 
 3227000   0.83431702   -3.5514707   -2.1442883  0.025337701   -3.5514707    1.4071824   781587 
 3228000   0.83345509   -3.5513824   -2.1450725  0.025883625   -3.5513824    1.4063098   781264 
 3229000   0.83243631   -3.5508567   -2.1457155  0.027239757   -3.5508567    1.4051412   780958 
 3230000   0.83250556   -3.5517732   -2.1459336  0.029450501   -3.5517732    1.4058395   780635 
 3231000   0.83264155   -3.5527829   -2.1461408  0.027911086   -3.5527829    1.4066422   780317 
 3232000   0.83113137   -3.5514403   -2.1467229  0.027552074   -3.5514403    1.4047174   779969 
 3233000   0.83014483    -3.550047   -2.1463653  0.029864411    -3.550047    1.4036817   779618 
 3234000   0.83003268   -3.5510943   -2.1468836  0.032461051   -3.5510943    1.4042107   779219 
 3235000    0.8292181   -3.5493171   -2.1458991  0.024730502   -3.5493171     1.403418   778894 
 3236000   0.82888325   -3.5496352   -2.1460596  0.029002159   -3.5496352    1.4035757   778492 
 3237000   0.82865029   -3.5501202   -2.1461473  0.027216873   -3.5501202    1.4039729   778053 
 3238000   0.82762514   -3.5484014   -2.1453358  0.025483605   -3.5484014    1.4030655   777593 
 3239000   0.82747949   -3.5472632   -2.1436666   0.02550309   -3.5472632    1.4035966   777162 
 3240000   0.82822823   -3.5467919   -2.1411674   0.02967279   -3.5467919    1.4056245   776743 
 3241000   0.82681578   -3.5435958   -2.1396256  0.033317486   -3.5435958    1.4039702   776332 
 3242000   0.82559925   -3.5389098   -2.1363495  0.033861952   -3.5389098    1.4025603   775969 
 3243000   0.82601214   -3.5378988   -2.1339441  0.033325463   -3.5378988    1.4039547   775586 
 3244000    0.8255339   -3.5349033    -2.131079  0.031357007   -3.5349033    1.4038242   775209 
 3245000   0.82600145   -3.5340979   -2.1288206  0.030889458   -3.5340979    1.4052773   774846 
 3246000   0.82493512   -3.5292891   -2.1250811  0.032815592   -3.5292891     1.404208   774435 
 3247000    0.8268084   -3.5297649   -2.1216773  0.031498474   -3.5297649    1.4080876   774055 
 3248000   0.82672177   -3.5271271   -2.1184099  0.035657472   -3.5271271    1.4087172   773628 
 3249000   0.82627821   -3.5226871   -2.1139172  0.038658287   -3.5226871    1.4087699   773184 
 3250000   0.82600519   -3.5186524   -2.1095497   0.03803279   -3.5186524    1.4091027   772746 
 3251000   0.82597859   -3.5162679   -2.1064042  0.036169985   -3.5162679    1.4098637   772304 
 3252000   0.82632294   -3.5133637   -2.1020954  0.036573709   -3.5133637    1.4112683   771857 
 3253000   0.82600548   -3.5090436    -2.097458  0.039892506   -3.5090436    1.4115857   771387 
 3254000   0.82610854   -3.5060866   -2.0934513  0.036107715   -3.5060866    1.4126353   770910 
 3255000   0.82641823   -3.5036173   -2.0895885   0.03961649   -3.5036173    1.4140288   770439 
 3256000    0.8261171   -3.4985533   -2.0841916  0.040401857   -3.4985533    1.4143617   769977 
 3257000   0.82839579   -3.4997016   -2.0805614  0.049029723   -3.4997016    1.4191403   769501 
 3258000   0.83292245   -3.5046957   -2.0768767  0.062401384   -3.5046957     1.427819   769003 
 3259000   0.84154363   -3.5155021   -2.0719734  0.087670103   -3.5155021    1.4435287   768507 
 3260000   0.85149149   -3.5292298   -2.0677262   0.12513757   -3.5292298    1.4615036   768028 
 3261000   0.86185609   -3.5434173   -2.0632219   0.15240291   -3.5434173    1.4801954   767560 
 3262000   0.87016381   -3.5541729   -2.0587645   0.17672578   -3.5541729    1.4954084   767075 
 3263000   0.87332062   -3.5560769    -2.054333   0.18098424   -3.5560769    1.5017438   766610 
 3264000   0.86798502   -3.5428627   -2.0493256   0.16303905   -3.5428627    1.4935371   766113 
 3265000   0.85976538   -3.5249028    -2.044543   0.13609062   -3.5249028    1.4803598   765613 
 3266000   0.84915085   -3.5032135   -2.0402357   0.10249307   -3.5032135    1.4629778   765145 
 3267000   0.83985607   -3.4835824   -2.0357232  0.077466551   -3.4835824    1.4478591   764672 
 3268000    0.8339471   -3.4699228   -2.0313286  0.060921985   -3.4699228    1.4385943   764182 
 3269000   0.82934527   -3.4577508   -2.0261826   0.04883205   -3.4577508    1.4315682   763695 
 3270000   0.82738602   -3.4502522   -2.0211883  0.044352536   -3.4502522    1.4290639   763226 
 3271000    0.8260503   -3.4449644    -2.017319  0.042207332   -3.4449644    1.4276454   762751 
 3272000    0.8253373   -3.4410966   -2.0137759  0.044256296   -3.4410966    1.4273206   762266 
 3273000   0.82521696   -3.4372358   -2.0091866  0.044047408   -3.4372358    1.4280493   761766 
 3274000   0.82724539   -3.4373096   -2.0048512  0.051075237   -3.4373096    1.4324583   761288 
 3275000   0.82868533   -3.4363026    -2.000438   0.05356575   -3.4363026    1.4358646   760804 
 3276000   0.82799852   -3.4321796    -1.996637  0.052589366   -3.4321796    1.4355425   760344 
 3277000   0.82804082   -3.4285928   -1.9921098  0.051365193   -3.4285928     1.436483   759885 
 3278000   0.82811153   -3.4248074   -1.9873013  0.050707648   -3.4248074    1.4375062   759409 
 3279000   0.82552812   -3.4174021   -1.9834892  0.048176157   -3.4174021    1.4339129   758937 
 3280000   0.82384853   -3.4119879   -1.9800773  0.042325628   -3.4119879    1.4319106   758452 
 3281000   0.82274533   -3.4081128   -1.9772255  0.044672852   -3.4081128    1.4308874   757978 
 3282000   0.82129982   -3.4048004   -1.9755502  0.039511193   -3.4048004    1.4292502   757513 
 3283000   0.81864498   -3.3992002   -1.9736837  0.038897627   -3.3992002    1.4255165   757042 
 3284000   0.81985311   -3.3997416   -1.9711853  0.038249795   -3.3997416    1.4285562   756546 
 3285000   0.81810539   -3.3962307   -1.9698544  0.041224128   -3.3962307    1.4263763   756087 
 3286000   0.81861448   -3.3962614   -1.9680682  0.046030958   -3.3962614    1.4281932   755595 
 3287000   0.82049762   -3.3988977   -1.9665129  0.045165266   -3.3988977    1.4323848   755117 
 3288000   0.82017516   -3.3977062   -1.9649565  0.047775525   -3.3977062    1.4327497   754628 
 3289000   0.82103772   -3.3975442   -1.9623825  0.054673767   -3.3975442    1.4351617   754152 
 3290000   0.82083888   -3.3960603   -1.9604142  0.051597909   -3.3960603    1.4356461   753715 
 3291000   0.82005893   -3.3940824   -1.9589075  0.051624816   -3.3940824     1.435175   753246 
 3292000    0.8189439   -3.3912838   -1.9570987  0.052036165   -3.3912838    1.4341851   752741 
 3293000   0.81827417   -3.3892438   -1.9553667  0.051403331   -3.3892438     1.433877   752287 
 3294000    0.8157189   -3.3847246   -1.9544316  0.047066284   -3.3847246     1.430293   751817 
 3295000   0.81527583   -3.3837301   -1.9533274  0.043614331   -3.3837301    1.4304027   751351 
 3296000    0.8148093   -3.3823218   -1.9518294  0.042412914   -3.3823218    1.4304923   750874 
 3297000   0.81416516   -3.3803053   -1.9500466  0.044222672   -3.3803053    1.4302586   750403 
 3298000   0.81399815    -3.379788   -1.9489532  0.044078702    -3.379788    1.4308347   749947 
 3299000   0.81438773     -3.38026   -1.9478791  0.042447753     -3.38026    1.4323809   749496 
 3300000   0.81312394   -3.3780582   -1.9470237  0.048044397   -3.3780582    1.4310345   749037 
 3301000    0.8146311    -3.380773   -1.9462089  0.047526429    -3.380773    1.4345642   748579 
 3302000   0.81646665   -3.3833789   -1.9447156  0.044959658   -3.3833789    1.4386633   748128 
 3303000   0.81472607   -3.3807964   -1.9442688  0.051713694   -3.3807964    1.4365276   747643 
 3304000   0.81451223   -3.3809523   -1.9439483  0.046251913   -3.3809523    1.4370039   747199 
 3305000   0.81316381   -3.3795244   -1.9440195  0.053946388   -3.3795244    1.4355049   746741 
 3306000   0.81298952   -3.3800611   -1.9439389  0.048442245   -3.3800611    1.4361223   746260 
 3307000   0.81013654   -3.3758967   -1.9438662  0.048175442   -3.3758967    1.4320305   745766 
 3308000   0.80917263   -3.3748862   -1.9436211  0.043250991   -3.3748862    1.4312651   745277 
 3309000   0.80782936   -3.3741208   -1.9443338  0.041286632   -3.3741208     1.429787   744809 
 3310000   0.80711156   -3.3733031   -1.9438769  0.044583661   -3.3733031    1.4294262   744335 
 3311000   0.80613269   -3.3723088   -1.9436776  0.045753795   -3.3723088    1.4286312   743846 
 3312000   0.80665085   -3.3746506   -1.9441492  0.043753407   -3.3746506    1.4305014   743351 
 3313000   0.80622201   -3.3748458   -1.9441522  0.047074842   -3.3748458    1.4306936   742856 
 3314000   0.80549271   -3.3753662   -1.9451023  0.047635041   -3.3753662    1.4302639   742407 
 3315000   0.80513486   -3.3755624   -1.9449955  0.046536941   -3.3755624    1.4305669   741920 
 3316000   0.80555847   -3.3779123   -1.9456468  0.048492311   -3.3779123    1.4322655   741430 
 3317000   0.80452401   -3.3771682   -1.9457824  0.048838561   -3.3771682    1.4313858   740933 
 3318000   0.80368741   -3.3777452   -1.9468707  0.049995132   -3.3777452    1.4308745   740427 
 3319000   0.80393694   -3.3796273   -1.9473142  0.046017379   -3.3796273    1.4323131   739913 
 3320000   0.80242795   -3.3796726   -1.9490909   0.04819268   -3.3796726    1.4305817   739418 
 3321000   0.80220552   -3.3806273   -1.9494725  0.044639531   -3.3806273    1.4311548   738917 
 3322000   0.80065375   -3.3797957    -1.950446  0.044826614   -3.3797957    1.4293497   738419 
 3323000   0.79927858   -3.3792924    -1.951365   0.03798102   -3.3792924    1.4279274   737885 
 3324000   0.79761671   -3.3787235   -1.9528394  0.046585188   -3.3787235     1.425884   737406 
 3325000   0.79707448   -3.3796313    -1.953804  0.041927108   -3.3796313    1.4258273   736934 
 3326000   0.79708264   -3.3823205   -1.9555396  0.043379261   -3.3823205    1.4267809   736449 
 3327000   0.79634334   -3.3840253   -1.9576205  0.047141757   -3.3840253    1.4264047   735960 
 3328000   0.79713381   -3.3874982   -1.9587419  0.045259784   -3.3874982    1.4287563   735478 
 3329000   0.79529733   -3.3869968   -1.9605895  0.047092056   -3.3869968    1.4264073   734992 
 3330000   0.79531482   -3.3894982   -1.9621138  0.046734001   -3.3894982    1.4273844   734505 
 3331000   0.79534924   -3.3920026   -1.9635743  0.045294672   -3.3920026    1.4284283   734000 
 3332000   0.79333491   -3.3901544   -1.9643687   0.04478476   -3.3901544    1.4257857   733498 
 3333000   0.79257435   -3.3911081   -1.9657624  0.045520857   -3.3911081    1.4253457   733021 
 3334000   0.79116505   -3.3907024   -1.9669646  0.042395615   -3.3907024    1.4237378   732544 
 3335000    0.7915639   -3.3924767   -1.9670424  0.043724252   -3.3924767    1.4254343   732041 
 3336000   0.78926368   -3.3902462   -1.9680449  0.040403975   -3.3902462    1.4222013   731573 
 3337000   0.78889276   -3.3920183   -1.9694703   0.03885869   -3.3920183     1.422548   731051 
 3338000   0.78791368   -3.3921238   -1.9703709  0.041948359   -3.3921238    1.4217529   730552 
 3339000    0.7867515   -3.3921649   -1.9715387   0.04331136   -3.3921649    1.4206262   730053 
 3340000   0.78733377   -3.3945224   -1.9718549  0.039039663   -3.3945224    1.4226675   729545 
 3341000   0.78777051   -3.3968986   -1.9725224  0.039104145   -3.3968986    1.4243763   729074 
 3342000   0.78626784   -3.3951956    -1.972588  0.045646509   -3.3951956    1.4226076   728588 
 3343000   0.78611622   -3.3978195   -1.9744527  0.044392072   -3.3978195    1.4233667   728059 
 3344000    0.7866748   -3.3991589   -1.9738274  0.045596969   -3.3991589    1.4253315   727572 
 3345000   0.78581875   -3.3992479   -1.9745216  0.042473789   -3.3992479    1.4247263   727089 
 3346000    0.7846583   -3.3979605   -1.9743788  0.045520029   -3.3979605    1.4235817   726599 
 3347000   0.78368588   -3.3978176   -1.9750779  0.040134119   -3.3978176    1.4227397   726128 
 3348000   0.78216515   -3.3958529   -1.9750013  0.040544734   -3.3958529    1.4208517   725682 
 3349000   0.78196386   -3.3952377   -1.9738742  0.043251305   -3.3952377    1.4213635   725234 
 3350000   0.78202032   -3.3956369   -1.9732646  0.039128093   -3.3956369    1.4223722   724772 
 3351000    0.7800863   -3.3928537   -1.9731216   0.04242619   -3.3928537    1.4197321   724324 
 3352000   0.78086663    -3.394568   -1.9724635  0.041805558    -3.394568    1.4221045   723839 
 3353000   0.77995613   -3.3931503    -1.971781  0.044814725   -3.3931503    1.4213692   723369 
 3354000    0.7800856   -3.3931914   -1.9706148  0.043985004   -3.3931914    1.4225767   722875 
 3355000   0.77974434   -3.3929989   -1.9701411  0.042802416   -3.3929989    1.4228578   722416 
 3356000   0.77935232   -3.3924027    -1.969358  0.046032539   -3.3924027    1.4230447   721958 
 3357000   0.77891589   -3.3907189   -1.9675329  0.044203562   -3.3907189    1.4231861   721482 
 3358000   0.77889722   -3.3907374   -1.9666874    0.0446343   -3.3907374    1.4240501   721027 
 3359000   0.77833728    -3.388859   -1.9649499  0.042569933    -3.388859    1.4239091   720580 
 3360000    0.7774063    -3.386537   -1.9634285  0.043536071    -3.386537    1.4231085   720123 
 3361000   0.77662998   -3.3838384    -1.961274  0.045417768   -3.3838384    1.4225644   719679 
 3362000   0.77594099   -3.3805812   -1.9584054  0.043868417   -3.3805812    1.4221759   719237 
 3363000   0.77661652   -3.3800402   -1.9556954  0.044203762   -3.3800402    1.4243448   718767 
 3364000   0.77602987   -3.3777506   -1.9535942  0.046710044   -3.3777506    1.4241565   718319 
 3365000   0.77602104   -3.3756721   -1.9506153  0.046968666   -3.3756721    1.4250568   717857 
 3366000   0.77592085   -3.3752749   -1.9494686  0.045421386   -3.3752749    1.4258063   717387 
 3367000   0.77500485   -3.3722255   -1.9471687  0.045929493   -3.3722255    1.4250568   716917 
 3368000   0.77501301   -3.3707176   -1.9447189  0.044612055   -3.3707176    1.4259987   716451 
 3369000    0.7748628   -3.3691178   -1.9424775  0.047735759   -3.3691178    1.4266403   715990 
 3370000   0.77430065   -3.3654264   -1.9388907  0.045621697   -3.3654264    1.4265357   715523 
 3371000   0.77412312   -3.3641715   -1.9370434  0.044840102   -3.3641715    1.4271281   715062 
 3372000   0.77432861    -3.363573   -1.9351031  0.047202881    -3.363573    1.4284698   714580 
 3373000   0.77304372   -3.3601002     -1.93313  0.045892524   -3.3601002    1.4269702   714144 
 3374000   0.77400254   -3.3594359    -1.929787  0.048106694   -3.3594359    1.4296489   713690 
 3375000   0.77408136   -3.3577605   -1.9270559  0.047330544   -3.3577605    1.4307046   713236 
 3376000   0.77466816    -3.356976   -1.9241643  0.050930427    -3.356976    1.4328117   712727 
 3377000   0.77378425   -3.3539698   -1.9218707  0.050376148   -3.3539698    1.4320991   712268 
 3378000   0.77344486    -3.351611   -1.9191586  0.052607904    -3.351611    1.4324524   711780 
 3379000    0.7728298   -3.3478105   -1.9155373  0.050176014   -3.3478105    1.4322731   711303 
 3380000   0.77391052   -3.3472108   -1.9120329  0.053032972   -3.3472108    1.4351779   710856 
 3381000   0.77309754   -3.3435142   -1.9088146  0.053918363   -3.3435142    1.4346996   710346 
 3382000   0.77285853   -3.3416814   -1.9064272  0.051624615   -3.3416814    1.4352542   709852 
 3383000   0.77257613   -3.3377329   -1.9020181  0.048047211   -3.3377329    1.4357147   709365 
 3384000   0.77135251   -3.3334491   -1.8990741  0.051320158   -3.3334491     1.434375   708903 
 3385000   0.77233214   -3.3338269   -1.8966267  0.049058705   -3.3338269    1.4372002   708408 
 3386000   0.77230656   -3.3314672   -1.8932974  0.052451472   -3.3314672    1.4381697   707907 
 3387000   0.77191856   -3.3289681   -1.8905578  0.054437909   -3.3289681    1.4384103   707433 
 3388000   0.77350392   -3.3295032   -1.8871151  0.056117965   -3.3295032    1.4423881   706931 
 3389000   0.77375664   -3.3281588   -1.8842925  0.055232162   -3.3281588    1.4438662   706438 
 3390000    0.7739086   -3.3261667   -1.8810166  0.057103235   -3.3261667    1.4451501   705949 
 3391000   0.77354588   -3.3235021   -1.8780239  0.061465659   -3.3235021    1.4454782   705458 
 3392000   0.77389106   -3.3210595   -1.8738819  0.059500399   -3.3210595    1.4471776   704944 
 3393000   0.77446877   -3.3199561   -1.8707258  0.055260847   -3.3199561    1.4492303   704471 
 3394000   0.77409988   -3.3171983   -1.8676748  0.062491335   -3.3171983    1.4495236   703993 
 3395000   0.77452373   -3.3157805   -1.8644489  0.064714825   -3.3157805    1.4513315   703501 
 3396000   0.77514396   -3.3153349   -1.8618122  0.063952089   -3.3153349    1.4535227   703003 
 3397000   0.77491572   -3.3141892   -1.8601493  0.066171411   -3.3141892    1.4540399   702546 
 3398000    0.7755833    -3.311957   -1.8556135  0.068357647    -3.311957    1.4563435   702039 
 3399000   0.77601607   -3.3105102   -1.8523134  0.066178669   -3.3105102    1.4581968   701538 
 3400000   0.77641376   -3.3087455   -1.8487858  0.069052789   -3.3087455    1.4599597   701050 
 3401000   0.77657306   -3.3073242    -1.846052   0.07216375   -3.3073242    1.4612722   700564 
 3402000   0.77577378    -3.303821   -1.8429935  0.068546891    -3.303821    1.4608275   700056 
 3403000   0.77503141   -3.2989534   -1.8385037  0.068147497   -3.2989534    1.4604497   699567 
 3404000   0.77300537   -3.2938188     -1.83617  0.067196814   -3.2938188    1.4576487   699079 
 3405000   0.77279984   -3.2908702   -1.8325597  0.063087068   -3.2908702    1.4583105   698576 
 3406000   0.77043003   -3.2845693   -1.8296791  0.058891934   -3.2845693    1.4548903   698071 
 3407000   0.76818161   -3.2789729    -1.827295  0.061749592   -3.2789729    1.4516778   697574 
 3408000   0.76813009   -3.2759465   -1.8233081  0.059021113   -3.2759465    1.4526383   697066 
 3409000   0.76802103   -3.2741474   -1.8206686  0.058270371   -3.2741474    1.4534788   696564 
 3410000   0.76735009   -3.2714424   -1.8181421  0.053044601   -3.2714424    1.4533003   696041 
 3411000   0.76693563   -3.2681497   -1.8146132  0.055622615   -3.2681497    1.4535365   695552 
 3412000   0.76752117   -3.2682636   -1.8125458  0.053111896   -3.2682636    1.4557178   695040 
 3413000   0.76573124   -3.2634393   -1.8100813  0.055204828   -3.2634393     1.453358   694545 
 3414000   0.76526732   -3.2604235   -1.8069436  0.056463941   -3.2604235    1.4534799   694066 
 3415000   0.76477267   -3.2573755   -1.8038215    0.0545441   -3.2573755     1.453554   693582 
 3416000   0.76488773   -3.2559128   -1.8011291  0.053078599   -3.2559128    1.4547837   693100 
 3417000   0.76373671    -3.252236   -1.7985992  0.051185208    -3.252236    1.4536368   692603 
 3418000   0.76303791   -3.2488678    -1.795516  0.052820435   -3.2488678    1.4533518   692105 
 3419000   0.76187567   -3.2450209   -1.7928022  0.052949648   -3.2450209    1.4522187   691590 
 3420000   0.76048287   -3.2415453   -1.7909096  0.052677144   -3.2415453    1.4506357   691079 
 3421000   0.76067256   -3.2405725   -1.7885538   0.05552447   -3.2405725    1.4520187   690593 
 3422000    0.7603063   -3.2380291   -1.7857401  0.051000393   -3.2380291     1.452289   690132 
 3423000   0.75897517   -3.2356464   -1.7848805  0.048381721   -3.2356464    1.4507659   689647 
 3424000   0.75922173   -3.2341104   -1.7818645  0.048299039   -3.2341104    1.4522459   689168 
 3425000   0.75841269   -3.2316961   -1.7799086  0.050753214   -3.2316961    1.4517874   688651 
 3426000   0.75742781   -3.2293425   -1.7784396  0.052525496   -3.2293425    1.4509029   688176 
 3427000   0.75733291   -3.2283917   -1.7766285  0.052213162   -3.2283917    1.4517633   687682 
 3428000   0.75770428   -3.2273645   -1.7738664  0.052758958   -3.2273645    1.4534981   687198 
 3429000   0.75766319   -3.2269193   -1.7724629  0.055605845   -3.2269193    1.4544564   686708 
 3430000   0.75792839   -3.2262064   -1.7701786  0.052108445   -3.2262064    1.4560278   686207 
 3431000   0.75765613   -3.2257831   -1.7692298  0.052909001   -3.2257831    1.4565533   685713 
 3432000     0.756214    -3.221921    -1.767056  0.052468806    -3.221921    1.4548651   685202 
 3433000   0.75671859   -3.2216554   -1.7647564  0.054980701   -3.2216554     1.456899   684702 
 3434000   0.75594366   -3.2199332   -1.7634519  0.051552218   -3.2199332    1.4564812   684197 
 3435000   0.75515715   -3.2174165   -1.7613611  0.051738195   -3.2174165    1.4560554   683685 
 3436000   0.75308419    -3.213119   -1.7599637  0.055344612    -3.213119    1.4531552   683169 
 3437000   0.75365688   -3.2134917    -1.758194  0.050999067   -3.2134917    1.4552977   682682 
 3438000   0.75234827   -3.2112681   -1.7574283  0.050666613   -3.2112681    1.4538399   682180 
 3439000   0.75208462   -3.2099748   -1.7555742  0.048666201   -3.2099748    1.4544006   681678 
 3440000   0.75179247    -3.208989   -1.7540905  0.051958643    -3.208989    1.4548986   681180 
 3441000   0.75214629   -3.2094153   -1.7527693  0.056153111   -3.2094153    1.4566461   680683 
 3442000   0.75237226   -3.2094922   -1.7513738  0.053221125   -3.2094922    1.4581184   680200 
 3443000   0.75269149   -3.2100357   -1.7502707  0.059287633   -3.2100357     1.459765   679721 
 3444000   0.75270721   -3.2089996   -1.7480951  0.055634087   -3.2089996    1.4609045   679205 
 3445000   0.75255964    -3.209217   -1.7474777  0.058286308    -3.209217    1.4617394   678684 
 3446000   0.75057123   -3.2062483   -1.7472791  0.057219234   -3.2062483    1.4589692   678176 
 3447000   0.74888387     -3.20379   -1.7470008  0.054759211     -3.20379    1.4567891   677664 
 3448000   0.74818943   -3.2031994   -1.7466929  0.053770209   -3.2031994    1.4565064   677167 
 3449000   0.74716339   -3.2016981     -1.74611  0.052596479   -3.2016981    1.4555881   676665 
 3450000   0.74535673   -3.1994009   -1.7463103  0.053778485   -3.1994009    1.4530906   676189 
 3451000    0.7467646   -3.2029716   -1.7460159  0.049718245   -3.2029716    1.4569557   675669 
 3452000   0.74619982   -3.2038786   -1.7469941  0.052535564   -3.2038786    1.4568845   675191 
 3453000   0.74536404   -3.2031803   -1.7468448  0.055625065   -3.2031803    1.4563355   674689 
 3454000   0.74556697   -3.2047006   -1.7469272  0.053965257   -3.2047006    1.4577734   674207 
 3455000   0.74489497   -3.2047383   -1.7471633  0.058757185   -3.2047383     1.457575   673691 
 3456000   0.74549829   -3.2073243   -1.7475351  0.057292296   -3.2073243    1.4597892   673214 
 3457000   0.74513578   -3.2077558   -1.7476137  0.056586367   -3.2077558    1.4601421   672724 
 3458000   0.74388668   -3.2073166   -1.7485358  0.056915794   -3.2073166    1.4587808   672223 
 3459000   0.74153271   -3.2044144   -1.7492042  0.054916615   -3.2044144    1.4552102   671740 
 3460000   0.74151776   -3.2062939   -1.7501093  0.050864939   -3.2062939    1.4561845   671277 
 3461000   0.74012464   -3.2059495   -1.7513718  0.049505747   -3.2059495    1.4545777   670756 
 3462000   0.73918249   -3.2065861    -1.752798  0.050582778   -3.2065861    1.4537881   670266 
 3463000   0.73791862   -3.2061795   -1.7538284  0.048287762   -3.2061795    1.4523511   669782 
 3464000   0.73705653   -3.2067777   -1.7550699  0.047351531   -3.2067777    1.4517077   669296 
 3465000   0.73807555   -3.2111648    -1.756398  0.048568112   -3.2111648    1.4547668   668812 
 3466000   0.73600422    -3.209848   -1.7579981   0.05307814    -3.209848    1.4518499   668275 
 3467000   0.73724923   -3.2138847   -1.7584594  0.048563297   -3.2138847    1.4554252   667761 
 3468000   0.73671329   -3.2156392   -1.7601996  0.053192647   -3.2156392    1.4554396   667269 
 3469000   0.73541246   -3.2175525   -1.7635607  0.053431312   -3.2175525    1.4539919   666754 
 3470000   0.73525539   -3.2201512   -1.7653723  0.052198546   -3.2201512    1.4547788   666251 
 3471000   0.73350901   -3.2199912    -1.767593  0.053302979   -3.2199912    1.4523982   665758 
 3472000   0.73331158   -3.2218688   -1.7687725   0.05187429   -3.2218688    1.4530963   665259 
 3473000   0.73232578   -3.2231259   -1.7709089   0.04898316   -3.2231259    1.4522169   664767 
 3474000   0.73063455   -3.2227862   -1.7728434  0.046716314   -3.2227862    1.4499429   664272 
 3475000   0.72904451   -3.2225144   -1.7746568  0.048232684   -3.2225144    1.4478576   663781 
 3476000   0.72769354   -3.2224188   -1.7761417  0.046870876   -3.2224188    1.4462771   663275 
 3477000    0.7275282   -3.2256438   -1.7785783  0.046404465   -3.2256438    1.4470655   662763 
 3478000    0.7277651   -3.2294813   -1.7808407  0.047030611   -3.2294813    1.4486405   662258 
 3479000   0.72770521    -3.231502   -1.7818621  0.047083019    -3.231502    1.4496399   661747 
 3480000   0.72709193   -3.2341936   -1.7846692  0.044913358   -3.2341936    1.4495244   661242 
 3481000   0.72583521   -3.2348695   -1.7867818  0.051428094   -3.2348695    1.4480877   660754 
 3482000   0.72606166   -3.2382089   -1.7885923  0.049261803   -3.2382089    1.4496166   660263 
 3483000   0.72435004   -3.2382849    -1.790994   0.04869344   -3.2382849    1.4472909   659765 
 3484000   0.72319655   -3.2390415   -1.7929835  0.046659214   -3.2390415     1.446058   659276 
 3485000   0.72207714   -3.2390625   -1.7941579  0.045872792   -3.2390625    1.4449046   658781 
 3486000   0.72011623   -3.2384525   -1.7962875  0.047591761   -3.2384525     1.442165   658240 
 3487000   0.72091942   -3.2438449   -1.7989343  0.044772269   -3.2438449    1.4449106   657722 
 3488000   0.71940918    -3.243878   -1.8008819  0.046900644    -3.243878     1.442996   657215 
 3489000   0.71652515   -3.2424502   -1.8041622  0.044765827   -3.2424502    1.4382879   656723 
 3490000   0.71814639   -3.2487589   -1.8061007  0.042894453   -3.2487589    1.4426582   656215 
 3491000   0.71719844   -3.2498232   -1.8079487   0.04482664   -3.2498232    1.4418745   655705 
 3492000   0.71700893   -3.2527787   -1.8102071  0.044977524   -3.2527787    1.4425715   655215 
 3493000   0.71634333   -3.2549081   -1.8125155  0.043386902   -3.2549081    1.4423925   654688 
 3494000   0.71707667   -3.2594271   -1.8144235  0.044537872   -3.2594271    1.4450036   654174 
 3495000    0.7153218   -3.2595992   -1.8170249  0.044887541   -3.2595992    1.4425744   653672 
 3496000   0.71399557   -3.2602169   -1.8191884  0.046882985   -3.2602169    1.4410285   653160 
 3497000   0.71198302   -3.2599804   -1.8219306  0.041951629   -3.2599804    1.4380498   652668 
 3498000    0.7112102   -3.2612656   -1.8236797   0.04321762   -3.2612656    1.4375858   652170 
 3499000   0.71010623   -3.2624973   -1.8260042  0.038834381   -3.2624973    1.4364931   651653 
 3500000    0.7094713   -3.2637869   -1.8274806  0.038692382   -3.2637869    1.4363063   651155 
 3501000   0.70840286   -3.2648726   -1.8296427  0.043844589   -3.2648726    1.4352299   650662 
 3502000   0.70808337   -3.2672897   -1.8316369  0.042760372   -3.2672897    1.4356528   650177 
 3503000   0.70672715   -3.2670476    -1.833022  0.042529685   -3.2670476    1.4340257   649668 
 3504000   0.70756793   -3.2730011   -1.8362078  0.040051651   -3.2730011    1.4367933   649188 
 3505000    0.7066229    -3.273886   -1.8379523  0.041141114    -3.273886    1.4359338   648709 
 3506000   0.70541046   -3.2746003    -1.840029  0.045083504   -3.2746003    1.4345713   648211 
 3507000   0.70452512   -3.2758106   -1.8419449  0.040806114   -3.2758106    1.4338657   647716 
 3508000   0.70404216    -3.276325   -1.8423574  0.042666629    -3.276325    1.4339676   647226 
 3509000   0.70273817   -3.2764997    -1.844088   0.04048876   -3.2764997    1.4324116   646729 
 3510000   0.70127188   -3.2754917   -1.8449651   0.04268477   -3.2754917    1.4305266   646230 
 3511000   0.70043165   -3.2753441   -1.8454362  0.039107389   -3.2753441    1.4299079   645735 
 3512000   0.69984075    -3.276264   -1.8464841    0.0396908    -3.276264    1.4297799   645248 
 3513000   0.69903672   -3.2759781   -1.8467333  0.039995387   -3.2759781    1.4292448   644748 
 3514000   0.69788397   -3.2745542   -1.8466099  0.040527182   -3.2745542    1.4279443   644271 
 3515000   0.69829319   -3.2764942   -1.8466206  0.042443502   -3.2764942    1.4298735   643779 
 3516000   0.69801462   -3.2768508    -1.846479  0.043275069   -3.2768508    1.4303718   643298 
 3517000   0.69765247    -3.276269   -1.8455985  0.041718046    -3.276269    1.4306705   642830 
 3518000   0.69741377   -3.2754235   -1.8441849  0.042759137   -3.2754235    1.4312386   642355 
 3519000   0.69726239   -3.2760173   -1.8440371  0.041049866   -3.2760173    1.4319801   641883 
 3520000   0.69676116   -3.2747521   -1.8427706  0.046752193   -3.2747521    1.4319814   641421 
 3521000   0.69648449   -3.2741609   -1.8417521  0.044019428   -3.2741609    1.4324088   640975 
 3522000   0.69555925   -3.2720492   -1.8405338  0.045815737   -3.2720492    1.4315154   640523 
 3523000   0.69456787   -3.2699088   -1.8394422  0.045842063   -3.2699088    1.4304667   640079 
 3524000   0.69302978    -3.265148   -1.8368471  0.041680086    -3.265148    1.4283009   639630 
 3525000   0.69344704   -3.2648242   -1.8346215  0.041900814   -3.2648242    1.4302028   639164 
 3526000    0.6937664   -3.2641775     -1.83229  0.043163466   -3.2641775    1.4318875   638706 
 3527000   0.69306038   -3.2605926   -1.8291179  0.045227534   -3.2605926    1.4314747   638240 
 3528000   0.69240379   -3.2569758   -1.8258639  0.043553152   -3.2569758    1.4311119   637797 
 3529000   0.69419041   -3.2578882   -1.8220097   0.04611029   -3.2578882    1.4358785   637320 
 3530000   0.69364936   -3.2540359   -1.8181704  0.048131329   -3.2540359    1.4358656   636829 
 3531000   0.69339271   -3.2514753   -1.8150426   0.05061827   -3.2514753    1.4364328   636342 
 3532000   0.69339304   -3.2500792   -1.8125411  0.047203786   -3.2500792    1.4375382   635853 
 3533000   0.69254858   -3.2464595   -1.8096078  0.049513951   -3.2464595    1.4368518   635382 
 3534000   0.69209624   -3.2441568   -1.8070855   0.04707159   -3.2441568    1.4370713   634870 
 3535000   0.69140771   -3.2404805    -1.803739  0.047721834   -3.2404805    1.4367415   634384 
 3536000   0.69071691   -3.2364629   -1.8000384  0.045012265   -3.2364629    1.4364245   633890 
 3537000   0.69046023   -3.2332591   -1.7962779  0.044821005   -3.2332591    1.4369811   633409 
 3538000   0.69028189   -3.2302649   -1.7925609  0.049129844   -3.2302649     1.437704   632927 
 3539000   0.69029547   -3.2280587   -1.7892261  0.046468441   -3.2280587    1.4388326   632443 
 3540000   0.69033112   -3.2259047   -1.7859254   0.05079401   -3.2259047    1.4399793   631972 
 3541000   0.69086624   -3.2245627   -1.7823924  0.052816346   -3.2245627    1.4421703   631501 
 3542000   0.69262349   -3.2255645   -1.7785894  0.051546137   -3.2255645     1.446975   631005 
 3543000   0.69209339   -3.2221312   -1.7751124  0.054958462   -3.2221312    1.4470188   630503 
 3544000   0.69179383    -3.218583   -1.7710771  0.056112264    -3.218583    1.4475059   630018 
 3545000   0.69185973   -3.2162763   -1.7674666  0.056827655   -3.2162763    1.4488097   629511 
 3546000    0.6924154   -3.2137826   -1.7626844  0.055502354   -3.2137826    1.4510983   629023 
 3547000   0.69129074   -3.2095571   -1.7596564  0.054749304   -3.2095571    1.4499007   628520 
 3548000   0.69162974   -3.2076154   -1.7558673  0.056780343   -3.2076154    1.4517481   628028 
 3549000   0.69234245   -3.2072025    -1.752826  0.055786672   -3.2072025    1.4543766   627539 
 3550000   0.69250334   -3.2048706   -1.7490077  0.059863148   -3.2048706    1.4558629   627044 
 3551000    0.6944856   -3.2062311   -1.7450824  0.063529111   -3.2062311    1.4611488   626564 
 3552000   0.69519574   -3.2048198   -1.7410837  0.067199592   -3.2048198    1.4637361   626096 
 3553000   0.69710175   -3.2058003   -1.7369202  0.067474332   -3.2058003    1.4688801   625614 
 3554000   0.69741762   -3.2028081   -1.7321811  0.071643582   -3.2028081     1.470627   625154 
 3555000   0.69753351   -3.1995958   -1.7275141  0.071875588   -3.1995958    1.4720817   624640 
 3556000   0.69684437   -3.1959507   -1.7241241  0.074622453   -3.1959507    1.4718267   624131 
 3557000   0.69609478   -3.1920873   -1.7206013  0.070541707   -3.1920873    1.4714859   623604 
 3558000   0.69493559   -3.1874374   -1.7173033  0.067253786   -3.1874374    1.4701341   623138 
 3559000   0.69314389   -3.1797052   -1.7121509  0.065543343   -3.1797052    1.4675543   622624 
 3560000   0.69061906    -3.172087   -1.7087338  0.063111063    -3.172087    1.4633532   622137 
 3561000   0.68980021   -3.1685523   -1.7057397  0.059966154   -3.1685523    1.4628126   621629 
 3562000   0.69029102   -3.1663925   -1.7013183   0.05879252   -3.1663925    1.4650742   621111 
 3563000   0.68891966   -3.1614957   -1.6981753  0.058502568   -3.1614957    1.4633204   620620 
 3564000   0.68754594   -3.1556061   -1.6940261  0.054326607   -3.1556061    1.4615801   620120 
 3565000   0.68758345   -3.1541115   -1.6912769  0.055113687   -3.1541115    1.4628346   619622 
 3566000   0.68713078   -3.1504701   -1.6874676  0.053040237   -3.1504701    1.4630025   619143 
 3567000   0.68545495   -3.1437739   -1.6832285  0.052506784   -3.1437739    1.4605455   618672 
 3568000   0.68310011   -3.1372845   -1.6805817  0.053216628   -3.1372845    1.4567028   618173 
 3569000   0.68307214   -3.1355095   -1.6776684   0.05022761   -3.1355095    1.4578411   617665 
 3570000   0.68245149   -3.1318574   -1.6741656  0.049092813   -3.1318574    1.4576918   617167 
 3571000   0.68234207   -3.1290542   -1.6704191  0.051849935   -3.1290542    1.4586351   616669 
 3572000   0.68182935   -3.1255763    -1.666838  0.051051577   -3.1255763    1.4587384   616162 
 3573000   0.68103946   -3.1230356   -1.6647944  0.051282273   -3.1230356    1.4582412   615658 
 3574000   0.68082761   -3.1203559    -1.661445  0.050000554   -3.1203559    1.4589109   615184 
 3575000    0.6811178   -3.1187001   -1.6579826   0.05379891   -3.1187001    1.4607175   614685 
 3576000   0.68084868   -3.1170328   -1.6557418  0.053947037   -3.1170328     1.461291   614201 
 3577000   0.67979454   -3.1134975   -1.6533422  0.050739742   -3.1134975    1.4601554   613727 
 3578000   0.67949274   -3.1108276   -1.6501376  0.052744217   -3.1108276      1.46069   613230 
 3579000   0.67900772   -3.1085628   -1.6476934  0.049479489   -3.1085628    1.4608695   612717 
 3580000   0.67775033   -3.1052501    -1.645926   0.05161754   -3.1052501    1.4593241   612230 
 3581000    0.6778266   -3.1039556    -1.643303  0.052636954   -3.1039556    1.4606526   611742 
 3582000   0.67703071   -3.1020695   -1.6419433  0.052909576   -3.1020695    1.4601262   611244 
 3583000   0.67653269    -3.100432   -1.6401878  0.052006603    -3.100432    1.4602442   610745 
 3584000   0.67686385   -3.1005489   -1.6383857  0.052801467   -3.1005489    1.4621632   610242 
 3585000   0.67670396   -3.0991032   -1.6360915   0.05591078   -3.0991032    1.4630117   609744 
 3586000   0.67521073   -3.0953443   -1.6343293  0.053564364   -3.0953443     1.461015   609230 
 3587000     0.675802   -3.0955578   -1.6320551    0.0545034   -3.0955578    1.4635027   608727 
 3588000   0.67488668    -3.094575   -1.6318842  0.055324797    -3.094575    1.4626907   608240 
 3589000   0.67454152   -3.0936484   -1.6305294  0.051256572   -3.0936484    1.4631189   607751 
 3590000   0.67290194   -3.0903209   -1.6295613  0.052178859   -3.0903209    1.4607596   607253 
 3591000   0.67266328   -3.0893625   -1.6278912  0.053740736   -3.0893625    1.4614713   606742 
 3592000   0.67238113   -3.0876319   -1.6256387  0.051799426   -3.0876319    1.4619932   606271 
 3593000   0.67110867   -3.0844068   -1.6239905   0.05211511   -3.0844068    1.4604164   605777 
 3594000   0.67049943   -3.0846132   -1.6242546  0.052060206   -3.0846132    1.4603586   605251 
 3595000   0.67057755   -3.0841422   -1.6224928  0.054381154   -3.0841422    1.4616493   604787 
 3596000   0.66950837   -3.0835147   -1.6230174  0.050697692   -3.0835147    1.4604973   604299 
 3597000   0.66975044   -3.0843604   -1.6221397  0.054818956   -3.0843604    1.4622207   603805 
 3598000   0.66951885   -3.0842252   -1.6214078  0.054268156   -3.0842252    1.4628174   603350 
 3599000   0.66825895   -3.0821545   -1.6209395  0.053576451   -3.0821545     1.461215   602875 
 3600000   0.66912067   -3.0852105   -1.6208749  0.052647874   -3.0852105    1.4643356   602366 
 3601000   0.66825727   -3.0845083   -1.6209032   0.05400965   -3.0845083    1.4636051   601889 
 3602000   0.66740831   -3.0835419   -1.6206611  0.057177133   -3.0835419    1.4628808   601422 
 3603000   0.66559205   -3.0815174   -1.6214038  0.051055793   -3.0815174    1.4601136   600922 
 3604000   0.66502568   -3.0813774   -1.6213254   0.05401684   -3.0813774     1.460052   600436 
 3605000   0.66532482   -3.0827421   -1.6207721   0.05177801   -3.0827421      1.46197   599918 
 3606000    0.6635494   -3.0812392   -1.6220395  0.051802928   -3.0812392    1.4591998   599453 
 3607000   0.66373952   -3.0836937   -1.6228159  0.053118082   -3.0836937    1.4608778   598936 
 3608000   0.66384546   -3.0865971   -1.6243265  0.050464588   -3.0865971    1.4622707   598461 
 3609000   0.66229121   -3.0852259   -1.6251858  0.050713923   -3.0852259      1.46004   597972 
 3610000   0.66263564   -3.0881539   -1.6261565  0.052332411   -3.0881539    1.4619974   597482 
 3611000    0.6618017   -3.0888329   -1.6275308  0.048530536   -3.0888329     1.461302   597014 
 3612000   0.66084062   -3.0899273   -1.6295464  0.049655381   -3.0899273     1.460381   596523 
 3613000   0.66043971    -3.091612   -1.6308657  0.055558019    -3.091612    1.4607463   596012 
 3614000   0.65952735   -3.0927562   -1.6327932  0.053636695   -3.0927562     1.459963   595508 
 3615000   0.65845618   -3.0938188   -1.6351028  0.049928687   -3.0938188    1.4587161   595049 
 3616000   0.65746834   -3.0946433    -1.636925  0.051591289   -3.0946433    1.4577183   594563 
 3617000   0.65649281   -3.0949542   -1.6381664  0.051744431   -3.0949542    1.4567878   594060 
 3618000   0.65579677   -3.0968224   -1.6403435  0.046448457   -3.0968224    1.4564789   593556 
 3619000   0.65602387    -3.100462   -1.6422233  0.050817325    -3.100462    1.4582387   593045 
 3620000   0.65598243   -3.1034824   -1.6440561  0.050885684   -3.1034824    1.4594263   592525 
 3621000   0.65432734   -3.1036104   -1.6465828  0.052433713   -3.1036104    1.4570276   592003 
 3622000   0.65318523   -3.1041212    -1.648459  0.050138434   -3.1041212    1.4556622   591524 
 3623000   0.65260289   -3.1070881   -1.6514835  0.047842573   -3.1070881    1.4556047   591020 
 3624000   0.65257459   -3.1097006   -1.6529587  0.048895012   -3.1097006    1.4567419   590533 
 3625000   0.65146742   -3.1102861   -1.6548845  0.050519624   -3.1102861    1.4554016   590074 
 3626000   0.65004228   -3.1115331    -1.658101  0.046445406   -3.1115331    1.4534321   589581 
 3627000    0.6485925   -3.1117706   -1.6603097  0.046741458   -3.1117706    1.4514609   589065 
 3628000   0.64815882   -3.1143067   -1.6625471  0.043900488   -3.1143067    1.4517596   588550 
 3629000   0.64751755   -3.1164697   -1.6649923    0.0453463   -3.1164697    1.4514774   588082 
 3630000   0.64698488   -3.1191216   -1.6676313  0.045226771   -3.1191216    1.4514903   587593 
 3631000    0.6464753   -3.1208115   -1.6692885  0.048051359   -3.1208115    1.4515229   587117 
 3632000   0.64661243   -3.1250634   -1.6720595  0.047286982   -3.1250634    1.4530039   586643 
 3633000     0.646118   -3.1270074   -1.6738884  0.051187742   -3.1270074     1.453119   586148 
 3634000    0.6451887   -3.1286829   -1.6764225  0.047805937   -3.1286829    1.4522604   585651 
 3635000   0.64429578   -3.1295852   -1.6781203  0.046555383   -3.1295852    1.4514649   585161 
 3636000   0.64299164   -3.1309962   -1.6812453  0.047267035   -3.1309962    1.4497509   584667 
 3637000   0.64197009    -3.132312   -1.6835958  0.044946042    -3.132312    1.4487162   584155 
 3638000   0.64024536   -3.1322993   -1.6862326  0.044104224   -3.1322993    1.4460668   583653 
 3639000   0.63915426   -3.1340422   -1.6892045  0.045538812   -3.1340422    1.4448377   583154 
 3640000   0.63862915   -3.1366203   -1.6917382  0.044028707   -3.1366203    1.4448821   582657 
 3641000   0.63773051   -3.1385744   -1.6944664  0.044845988   -3.1385744     1.444108   582149 
 3642000   0.63730324   -3.1404734   -1.6960676  0.046402194   -3.1404734    1.4444058   581639 
 3643000   0.63694044   -3.1438484   -1.6989905  0.043560938   -3.1438484    1.4448579   581126 
 3644000    0.6355014   -3.1433348   -1.7005495  0.044951492   -3.1433348    1.4427853   580646 
 3645000   0.63492061   -3.1464048   -1.7036883  0.044658581   -3.1464048    1.4427165   580143 
 3646000    0.6341253   -3.1482745    -1.706075  0.044585199   -3.1482745    1.4421995   579624 
 3647000   0.63332436   -3.1506182   -1.7090241   0.04518013   -3.1506182    1.4415941   579135 
 3648000   0.63227334   -3.1520781   -1.7116426  0.043135166   -3.1520781    1.4404354   578639 
 3649000   0.63176048   -3.1534194   -1.7129151   0.04202535   -3.1534194    1.4405043   578142 
 3650000   0.63026119   -3.1532581   -1.7149434  0.042539068   -3.1532581    1.4383147   577648 
 3651000   0.62940083   -3.1559278    -1.718357  0.044072727   -3.1559278    1.4375707   577158 
 3652000    0.6285993   -3.1579816   -1.7209568  0.038885553   -3.1579816    1.4370247   576642 
 3653000    0.6281661   -3.1599063   -1.7226506  0.043210141   -3.1599063    1.4372557   576152 
 3654000   0.62743212   -3.1621819   -1.7253911  0.042197232   -3.1621819    1.4367908   575665 
 3655000   0.62771779   -3.1661255    -1.727541  0.044725759   -3.1661255    1.4385845   575209 
 3656000   0.62603163   -3.1661826   -1.7301866  0.041279101   -3.1661826     1.435996   574698 
 3657000   0.62557361   -3.1696227   -1.7334304  0.041941406   -3.1696227    1.4361924   574199 
 3658000   0.62458486   -3.1709065   -1.7357769  0.040932002   -3.1709065    1.4351296   573716 
 3659000   0.62325728   -3.1701197   -1.7368289  0.042088278   -3.1701197    1.4332908   573231 
 3660000   0.62281525   -3.1710052   -1.7375131  0.041902672   -3.1710052    1.4334922   572744 
 3661000    0.6224588   -3.1719021   -1.7379961  0.042369681   -3.1719021     1.433906   572251 
 3662000   0.62184364   -3.1725241   -1.7388226  0.040818598   -3.1725241    1.4337015   571767 
 3663000   0.62066644   -3.1709664   -1.7388118  0.043024414   -3.1709664    1.4321546   571301 
 3664000   0.62019729   -3.1720512   -1.7397858  0.041063928   -3.1720512    1.4322654   570825 
 3665000   0.61958455   -3.1711983   -1.7391889  0.041260789   -3.1711983    1.4320094   570363 
 3666000   0.61868702   -3.1694726    -1.738401  0.042184602   -3.1694726    1.4310716   569910 
 3667000   0.61835162   -3.1675591   -1.7360854   0.04197352   -3.1675591    1.4314738   569441 
 3668000   0.61834126   -3.1670352   -1.7344558  0.041594352   -3.1670352    1.4325794   568992 
 3669000   0.61758209   -3.1645837    -1.732666  0.045230955   -3.1645837    1.4319178   568556 
 3670000   0.61691705   -3.1613621   -1.7297803  0.044738793   -3.1613621    1.4315819   568077 
 3671000   0.61671878   -3.1595785   -1.7273853    0.0423688   -3.1595785    1.4321933   567652 
 3672000   0.61673562   -3.1587488   -1.7254155  0.046198461   -3.1587488    1.4333333   567216 
 3673000   0.61580217   -3.1551732   -1.7229083  0.042754533   -3.1551732    1.4322648   566780 
 3674000   0.61496916   -3.1520543   -1.7204994  0.044957635   -3.1520543    1.4315549   566294 
 3675000   0.61566688   -3.1511116   -1.7167117  0.044502518   -3.1511116       1.4344   565812 
 3676000   0.61560731   -3.1493996    -1.713974   0.04515357   -3.1493996    1.4354256   565353 
 3677000   0.61478915   -3.1455423   -1.7109155  0.045703958   -3.1455423    1.4346268   564916 
 3678000   0.61456746   -3.1428101   -1.7074505  0.045564858   -3.1428101    1.4353596   564424 
 3679000   0.61416598   -3.1400173   -1.7044814  0.048906228   -3.1400173    1.4355359   563986 
 3680000   0.61375534   -3.1358818   -1.7001296  0.046343304   -3.1358818    1.4357522   563524 
 3681000   0.61351623   -3.1338658   -1.6973958  0.046343341   -3.1338658      1.43647   563023 
 3682000   0.61410423   -3.1318968   -1.6929077   0.04681994   -3.1318968    1.4389891   562576 
 3683000   0.61464871   -3.1303437   -1.6888668   0.05135277   -3.1303437    1.4414769   562103 
 3684000   0.61400616   -3.1266202   -1.6854374  0.048449455   -3.1266202    1.4411827   561630 
 3685000    0.6137512   -3.1235189   -1.6817332  0.050643801   -3.1235189    1.4417858   561162 
 3686000   0.61430109   -3.1231737   -1.6788866  0.049378985   -3.1231737    1.4442872   560692 
 3687000   0.61442662   -3.1198206   -1.6740005   0.05188372   -3.1198206    1.4458201   560212 
 3688000   0.61418738   -3.1171565   -1.6707066   0.05026856   -3.1171565      1.44645   559750 
 3689000   0.61426339   -3.1140956   -1.6662017  0.052742551   -3.1140956    1.4478939   559261 
 3690000   0.61419978   -3.1114379   -1.6624659    0.0524305   -3.1114379     1.448972   558787 
 3691000   0.61351319   -3.1073767   -1.6587983  0.053519661   -3.1073767    1.4485784   558314 
 3692000   0.61446512   -3.1060337   -1.6538812  0.056289574   -3.1060337    1.4521525   557804 
 3693000   0.61400774   -3.1027846   -1.6504397  0.056856079   -3.1027846    1.4523448   557315 
 3694000    0.6153933   -3.1030489   -1.6461772   0.05409443   -3.1030489    1.4568717   556837 
 3695000   0.61626556   -3.1019415   -1.6417698  0.061595367   -3.1019415    1.4601717   556366 
 3696000   0.61685267   -3.1008968   -1.6379745  0.064981949   -3.1008968    1.4629222   555849 
 3697000   0.61899265    -3.102023   -1.6326775  0.067689097    -3.102023    1.4693456   555339 
 3698000   0.62010314   -3.1005569   -1.6272223  0.072264459   -3.1005569    1.4733347   554829 
 3699000   0.62109289   -3.1007789   -1.6238095   0.07129412   -3.1007789    1.4769693   554347 
 3700000    0.6202358    -3.095695    -1.619467  0.069756687    -3.095695    1.4762281   553860 
 3701000    0.6205061   -3.0916732    -1.613486  0.073132989   -3.0916732    1.4781872   553367 
 3702000   0.61864482    -3.084322   -1.6092386  0.067907888    -3.084322    1.4750833   552868 
 3703000   0.61704269   -3.0767401   -1.6041184  0.066508475   -3.0767401    1.4726217   552358 
 3704000   0.61567888   -3.0705654   -1.5998566  0.064585151   -3.0705654    1.4707088   551854 
 3705000   0.61308557   -3.0614387   -1.5955434  0.059804631   -3.0614387    1.4658953   551334 
 3706000   0.61077641   -3.0532847   -1.5916143  0.058693004   -3.0532847    1.4616704   550845 
 3707000   0.61025595   -3.0485626   -1.5868374  0.056468207   -3.0485626    1.4617252   550355 
 3708000   0.60897127   -3.0421412    -1.582196  0.052941447   -3.0421412    1.4599452   549866 
 3709000   0.60903216   -3.0393389   -1.5779241  0.051189864   -3.0393389    1.4614148   549368 
 3710000   0.60710885   -3.0320717   -1.5739025   0.05116223   -3.0320717    1.4581693   548852 
 3711000   0.60697739   -3.0290922   -1.5699466  0.050738388   -3.0290922    1.4591456   548366 
 3712000   0.60591906   -3.0226372   -1.5646799  0.052845844   -3.0226372    1.4579573   547856 
 3713000   0.60614254   -3.0202593   -1.5604426    0.0536168   -3.0202593    1.4598167   547360 
 3714000   0.60552491   -3.0171281   -1.5574628  0.050516518   -3.0171281    1.4596653   546859 
 3715000   0.60520613   -3.0128454   -1.5526108  0.049780249   -3.0128454    1.4602346   546358 
 3716000   0.60425618   -3.0074388   -1.5482195  0.048677593   -3.0074388    1.4592192   545880 
 3717000   0.60281924    -3.002306    -1.545281  0.051809828    -3.002306     1.457025   545402 
 3718000   0.60412606   -3.0032142   -1.5417175  0.052014992   -3.0032142    1.4614967   544912 
 3719000   0.60360963   -2.9996617   -1.5381001  0.052556377   -2.9996617    1.4615616   544422 
 3720000   0.60318915    -2.996654   -1.5348083  0.050187224    -2.996654    1.4618457   543937 
 3721000   0.60292257   -2.9938227   -1.5312975  0.051784027   -2.9938227    1.4625252   543444 
 3722000    0.6033986   -2.9927372   -1.5276743  0.053745784   -2.9927372     1.465063   542931 
 3723000   0.60189168   -2.9880328   -1.5252465  0.053154671   -2.9880328    1.4627863   542418 
 3724000   0.60137392   -2.9851639   -1.5223549  0.051114193   -2.9851639    1.4628089   541943 
 3725000    0.6015195    -2.984936   -1.5204542  0.051328672    -2.984936    1.4644818   541455 
 3726000   0.60103624   -2.9827878   -1.5180651  0.055309194   -2.9827878    1.4647227   540931 
 3727000   0.60033944   -2.9798236   -1.5154698  0.049699093   -2.9798236    1.4643538   540440 
 3728000   0.59981854   -2.9766131   -1.5122184    0.0500546   -2.9766131    1.4643947   539956 
 3729000   0.59912323   -2.9749362   -1.5109023  0.054187606   -2.9749362    1.4640339   539463 
 3730000    0.5986551   -2.9735561   -1.5093634  0.054181409   -2.9735561    1.4641927   538983 
 3731000   0.59803518   -2.9719118    -1.507994  0.053176315   -2.9719118    1.4639178   538526 
 3732000   0.59755246   -2.9706996   -1.5066449  0.050412997   -2.9706996    1.4640547   538041 
 3733000   0.59757349     -2.97005   -1.5045929  0.052005183     -2.97005    1.4654571   537545 
 3734000   0.59602288   -2.9662816   -1.5032471  0.052626775   -2.9662816    1.4630344   537038 
 3735000   0.59539621   -2.9649784   -1.5022293  0.052678631   -2.9649784    1.4627491   536578 
 3736000   0.59539468   -2.9656164   -1.5015559  0.053867411   -2.9656164    1.4640605   536096 
 3737000   0.59468066   -2.9644175   -1.5006766  0.053267806   -2.9644175    1.4637409   535570 
 3738000   0.59507825   -2.9661218   -1.5000089  0.053349301   -2.9661218    1.4661129   535061 
 3739000   0.59392272   -2.9634857   -1.4987935  0.052715599   -2.9634857    1.4646922   534540 
 3740000   0.59312352   -2.9624978   -1.4983796  0.052925179   -2.9624978    1.4641181   534030 
 3741000   0.59187806   -2.9613693   -1.4989262  0.055181827   -2.9613693    1.4624431   533519 
 3742000   0.59212491   -2.9630693    -1.498718  0.051000765   -2.9630693    1.4643513   533046 
 3743000   0.59121638   -2.9621891   -1.4987971  0.052221015   -2.9621891     1.463392   532577 
 3744000   0.59218052   -2.9640666   -1.4970265  0.054557729   -2.9640666    1.4670401   532119 
 3745000   0.59053342   -2.9632122   -1.4988932  0.052991555   -2.9632122     1.464319   531625 
 3746000   0.58988961   -2.9641644   -1.5001254  0.056845866   -2.9641644     1.464039   531147 
 3747000   0.58936356   -2.9645988   -1.5005009  0.052915718   -2.9645988    1.4640978   530652 
 3748000   0.58960691   -2.9661379   -1.5000763  0.054425363   -2.9661379    1.4660616   530160 
 3749000   0.58811838   -2.9655898   -1.5018462  0.051632412   -2.9655898    1.4637436   529659 
 3750000   0.58729494   -2.9657329   -1.5026714   0.05421946   -2.9657329    1.4630615   529164 
 3751000   0.58655044   -2.9668136   -1.5042165   0.05104934   -2.9668136    1.4625971   528661 
 3752000   0.58674745   -2.9695201    -1.505066  0.049946356   -2.9695201    1.4644541   528168 
 3753000   0.58546948   -2.9701895    -1.507474  0.052282649   -2.9701895    1.4627156   527644 
 3754000   0.58427668   -2.9704865   -1.5093414  0.048948739   -2.9704865     1.461145   527135 
 3755000   0.58331487   -2.9712237   -1.5111157  0.048561732   -2.9712237    1.4601081   526641 
 3756000   0.58284177    -2.973479    -1.513152  0.050658587    -2.973479     1.460327   526135 
 3757000   0.58231619   -2.9760903   -1.5156812  0.049872165   -2.9760903    1.4604091   525631 
 3758000   0.58246996   -2.9791699   -1.5169704  0.053119958   -2.9791699    1.4621995   525126 
 3759000   0.58114791   -2.9807843   -1.5205465  0.052437536   -2.9807843    1.4602377   524638 
 3760000   0.58005168   -2.9823926   -1.5234856  0.049454555   -2.9823926     1.458907   524126 
 3761000   0.57956749   -2.9849372     -1.52587  0.050330395   -2.9849372    1.4590672   523631 
 3762000   0.57945123    -2.987971   -1.5277632  0.048335213    -2.987971    1.4602079   523117 
 3763000   0.57744154   -2.9881791    -1.531624  0.050241018   -2.9881791    1.4565552   522610 
 3764000   0.57729063   -2.9907476   -1.5332065  0.046598855   -2.9907476    1.4575411   522120 
 3765000   0.57625551   -2.9936415   -1.5373081  0.046956236   -2.9936415    1.4563334   521616 
 3766000   0.57562375   -2.9952222   -1.5391092  0.050092248   -2.9952222     1.456113   521123 
 3767000   0.57524327    -2.996911   -1.5404048  0.045730205    -2.996911    1.4565061   520638 
 3768000   0.57311667   -2.9958664   -1.5433722  0.050052329   -2.9958664    1.4524942   520146 
 3769000   0.57307161   -2.9996138   -1.5458196  0.047706977   -2.9996138    1.4537943   519640 
 3770000   0.57154487   -2.9991925   -1.5478246  0.046858771   -2.9991925    1.4513679   519122 
 3771000   0.57093816   -3.0029025   -1.5517026  0.049085622   -3.0029025    1.4511999   518631 
 3772000   0.57097719   -3.0072334   -1.5545366  0.046923582   -3.0072334    1.4526968   518132 
 3773000   0.56966164     -3.00887   -1.5581035  0.046746146     -3.00887    1.4507665   517626 
 3774000    0.5686485   -3.0106989    -1.561031  0.049538121   -3.0106989    1.4496678   517097 
 3775000    0.5683986   -3.0133919    -1.562953  0.046019565   -3.0133919    1.4504389   516595 
 3776000   0.56631583   -3.0124484   -1.5659607  0.044464899   -3.0124484    1.4464877   516108 
 3777000   0.56640286   -3.0166688   -1.5685812  0.046911741   -3.0166688    1.4480876   515617 
 3778000   0.56595622   -3.0198652   -1.5714672  0.045475022   -3.0198652     1.448398   515100 
 3779000   0.56499737   -3.0221124   -1.5747943  0.045514877   -3.0221124    1.4473181   514611 
 3780000   0.56435222   -3.0242706   -1.5772443  0.046579767   -3.0242706    1.4470264   514127 
 3781000   0.56294461   -3.0248178   -1.5799054  0.043929688   -3.0248178    1.4449123   513595 
 3782000   0.56233879   -3.0271241   -1.5823348  0.042817807   -3.0271241    1.4447892   513086 
 3783000   0.56126882   -3.0287528   -1.5853031  0.045533892   -3.0287528    1.4434497   512585 
 3784000   0.56023792   -3.0307818   -1.5886075  0.044590848   -3.0307818    1.4421743   512096 
 3785000   0.55944829   -3.0324952    -1.590994  0.045284807   -3.0324952    1.4415012   511613 
 3786000   0.55959147   -3.0372839   -1.5939948  0.045555566   -3.0372839    1.4432891   511110 
 3787000   0.55809007   -3.0364394   -1.5956047  0.047868024   -3.0364394    1.4408347   510607 
 3788000   0.55787213   -3.0408643    -1.599223  0.046350827   -3.0408643    1.4416414   510122 
 3789000   0.55563966   -3.0393577   -1.6020288  0.044511016   -3.0393577     1.437329   509605 
 3790000   0.55518907   -3.0422507   -1.6045865  0.041891733   -3.0422507    1.4376642   509073 
 3791000   0.55288707   -3.0408068   -1.6076904  0.039849317   -3.0408068    1.4331164   508571 
 3792000   0.55312763   -3.0444687   -1.6092923  0.041462156   -3.0444687    1.4351763   508062 
 3793000    0.5535183   -3.0484217   -1.6108906  0.043842204   -3.0484217    1.4375311   507588 
 3794000   0.55223881   -3.0492942   -1.6136662  0.041727839   -3.0492942     1.435628   507086 
 3795000   0.55118502   -3.0501094   -1.6158094  0.043678047   -3.0501094       1.4343   506587 
 3796000   0.55059388   -3.0525557   -1.6184465  0.042760735   -3.0525557    1.4341092   506111 
 3797000   0.55025711   -3.0543209    -1.619629  0.042444567   -3.0543209    1.4346919   505596 
 3798000   0.54900194   -3.0539236   -1.6210844  0.041758931   -3.0539236    1.4328391   505095 
 3799000   0.54904145   -3.0560885   -1.6217235  0.042007216   -3.0560885     1.434365   504594 
 3800000    0.5478843   -3.0541848   -1.6215368  0.041153903   -3.0541848     1.432648   504134 
 3801000   0.54664299   -3.0520111   -1.6212637  0.043034034   -3.0520111    1.4307473   503660 
 3802000   0.54641837   -3.0521286    -1.620659  0.041233396   -3.0521286    1.4314697   503199 
 3803000   0.54511045    -3.049384   -1.6199885  0.041034809    -3.049384    1.4293954   502723 
 3804000   0.54563106   -3.0502275   -1.6181737  0.045021309   -3.0502275    1.4320538   502269 
 3805000    0.5443689   -3.0472629   -1.6172006  0.044229175   -3.0472629    1.4300623   501805 
 3806000   0.54430279   -3.0466694   -1.6154831  0.042695685   -3.0466694    1.4311863   501350 
 3807000   0.54355097   -3.0442925   -1.6138134  0.043087582   -3.0442925    1.4304792   500905 
 3808000   0.54282212   -3.0415876   -1.6116992  0.043388338   -3.0415876    1.4298884   500440 
 3809000   0.54364177   -3.0427555   -1.6093818  0.044992663   -3.0427555    1.4333736   499977 
 3810000   0.54305153   -3.0391989   -1.6061117  0.045635469   -3.0391989    1.4330872   499534 
 3811000   0.54159938   -3.0342788    -1.603695  0.044085553   -3.0342788    1.4305839   499070 
 3812000   0.54254688    -3.034332   -1.5999406  0.043353087    -3.034332    1.4343914   498616 
 3813000   0.54213734   -3.0304141   -1.5957272   0.04335425   -3.0304141     1.434687   498137 
 3814000   0.54193711   -3.0291523   -1.5936523  0.046128245   -3.0291523       1.4355   497671 
 3815000   0.54088652   -3.0246605   -1.5906553  0.043857613   -3.0246605    1.4340051   497224 
 3816000   0.54093346   -3.0228424   -1.5873154  0.043730275   -3.0228424    1.4355269   496740 
 3817000   0.54002438   -3.0169246    -1.582398  0.047616645   -3.0169246    1.4345266   496251 
 3818000   0.54088985   -3.0168625   -1.5786544  0.048937297   -3.0168625     1.438208   495774 
 3819000   0.54130933   -3.0136364   -1.5728541  0.047325924   -3.0136364    1.4407823   495272 
 3820000   0.54000552    -3.008358   -1.5695557  0.047460743    -3.008358    1.4388023   494759 
 3821000    0.5399275   -3.0040551     -1.56402  0.050153409   -3.0040551    1.4400351   494264 
 3822000   0.53997103   -3.0004426    -1.558909  0.049058476   -3.0004426    1.4415337   493790 
 3823000   0.53946547   -2.9959576   -1.5542642  0.048914793   -2.9959576    1.4416935   493273 
 3824000   0.53944764   -2.9925011   -1.5494306  0.048352677   -2.9925011    1.4430705   492786 
 3825000   0.53905967   -2.9886543   -1.5451745  0.050387338   -2.9886543    1.4434797   492292 
 3826000   0.54012993   -2.9875009   -1.5397701  0.048930379   -2.9875009    1.4477307   491821 
 3827000   0.54057569     -2.98536   -1.5349717  0.054253121     -2.98536    1.4503883   491325 
 3828000   0.54059986   -2.9810144   -1.5290364  0.053366266   -2.9810144     1.451978   490809 
 3829000   0.54024266   -2.9773181   -1.5248553   0.05539067   -2.9773181    1.4524628   490321 
 3830000   0.54020525   -2.9733181    -1.519414  0.054144062   -2.9733181    1.4539041   489801 
 3831000   0.54095112   -2.9706246   -1.5132522  0.055982433   -2.9706246    1.4573725   489310 
 3832000   0.54240584   -2.9697929   -1.5069766  0.059652203   -2.9697929    1.4628163   488800 
 3833000   0.54249448   -2.9671069   -1.5026014  0.059137132   -2.9671069    1.4645055   488316 
 3834000   0.54277257   -2.9641356   -1.4974767  0.062962282   -2.9641356    1.4666588   487849 
 3835000   0.54348989   -2.9625307   -1.4924027   0.06494181   -2.9625307     1.470128   487341 
 3836000    0.5429277   -2.9564635   -1.4863419  0.063456263   -2.9564635    1.4701216   486839 
 3837000   0.54181717   -2.9501046   -1.4815753  0.062104285   -2.9501046    1.4685293   486370 
 3838000   0.54174377   -2.9466948   -1.4768443  0.059573038   -2.9466948    1.4698504   485867 
 3839000   0.53965051   -2.9368611   -1.4711636  0.059001744   -2.9368611    1.4656975   485361 
 3840000   0.53938373    -2.933009   -1.4665374  0.058987024    -2.933009    1.4664715   484865 
 3841000   0.53855522   -2.9276214   -1.4618395  0.057240372   -2.9276214    1.4657819   484348 
 3842000   0.53750884   -2.9201336   -1.4556818  0.053825364   -2.9201336    1.4644518   483846 
 3843000   0.53519246    -2.910562   -1.4509037  0.052116411    -2.910562    1.4596582   483343 
 3844000   0.53485611   -2.9059979   -1.4457465    0.0518435   -2.9059979    1.4602515   482843 
 3845000   0.53308498   -2.8971408   -1.4401497  0.051544396   -2.8971408    1.4569911   482321 
 3846000   0.53380261   -2.8960603   -1.4357059   0.05182765   -2.8960603    1.4603543   481858 
 3847000   0.53318563   -2.8919819   -1.4319034  0.050223303   -2.8919819    1.4600785   481392 
 3848000   0.53311052   -2.8885903    -1.427227  0.052879403   -2.8885903    1.4613633   480901 
 3849000   0.53188287   -2.8819434   -1.4224612  0.050834483   -2.8819434    1.4594821   480412 
 3850000   0.53155347   -2.8781619   -1.4181644  0.052987017   -2.8781619    1.4599975   479945 
 3851000   0.53162375     -2.87546   -1.4137589  0.049900995     -2.87546    1.4617011   479449 
 3852000   0.53060292   -2.8696404   -1.4092443  0.048843641   -2.8696404     1.460396   478956 
 3853000   0.53072592   -2.8674949   -1.4052705  0.050394931   -2.8674949    1.4622244   478468 
 3854000    0.5303123   -2.8625032   -1.3998042  0.049814203   -2.8625032    1.4626989   477940 
 3855000   0.53017797    -2.859246   -1.3955271  0.053221289    -2.859246    1.4637188   477486 
 3856000   0.53015411   -2.8569339   -1.3917528  0.050606151   -2.8569339    1.4651811   476988 
 3857000    0.5297619   -2.8538236   -1.3882978  0.050762063   -2.8538236    1.4655258   476523 
 3858000   0.52950898   -2.8509323   -1.3846199  0.051776474   -2.8509323    1.4663124   476040 
 3859000   0.52802156   -2.8448284   -1.3811345  0.051114793   -2.8448284    1.4636939   475552 
 3860000   0.52784507   -2.8430414   -1.3782813   0.05255149   -2.8430414    1.4647602   475047 
 3861000   0.52748625   -2.8407514   -1.3754725  0.054214376   -2.8407514    1.4652789   474556 
 3862000   0.52713614   -2.8377842   -1.3720014  0.054729872   -2.8377842    1.4657828   474078 
 3863000   0.52641544     -2.83412   -1.3688452  0.052196803     -2.83412    1.4652747   473594 
 3864000   0.52599747   -2.8314307   -1.3657875  0.052378667   -2.8314307    1.4656432   473099 
 3865000   0.52617045   -2.8306612    -1.363047  0.051075801   -2.8306612    1.4676142   472619 
 3866000   0.52490616   -2.8263166   -1.3606813  0.053416071   -2.8263166    1.4656352   472120 
 3867000   0.52484725   -2.8256249   -1.3586782  0.048559067   -2.8256249    1.4669467   471645 
 3868000   0.52405665   -2.8224086   -1.3561234  0.050468071   -2.8224086    1.4662851   471147 
 3869000   0.52352596   -2.8205159   -1.3541625  0.049909946   -2.8205159    1.4663533   470648 
 3870000   0.52359364   -2.8195646   -1.3514996  0.052495166   -2.8195646    1.4680651   470160 
 3871000   0.52230551   -2.8162771   -1.3502616   0.05521329   -2.8162771    1.4660156   469659 
 3872000   0.52221281   -2.8155911   -1.3482829    0.0539642   -2.8155911    1.4673081   469162 
 3873000   0.52170762   -2.8147675    -1.347293  0.050305873   -2.8147675    1.4674745   468655 
 3874000   0.52084369   -2.8137212   -1.3471748  0.052079609   -2.8137212    1.4665464   468175 
 3875000   0.52093122   -2.8136317     -1.34539  0.051480519   -2.8136317    1.4682418   467713 
 3876000    0.5193963   -2.8094348   -1.3439808  0.054435148   -2.8094348     1.465454   467222 
 3877000   0.51905234   -2.8090074   -1.3430429  0.052324777   -2.8090074    1.4659645   466750 
 3878000   0.51795225   -2.8073625   -1.3429708  0.052230661   -2.8073625    1.4643917   466261 
 3879000   0.51768523   -2.8075079   -1.3423377  0.050166385   -2.8075079    1.4651702   465773 
 3880000   0.51808598   -2.8110174   -1.3431404  0.048647022   -2.8110174    1.4678771   465274 
 3881000   0.51680468   -2.8090795   -1.3432732  0.054369324   -2.8090795    1.4658063   464779 
 3882000   0.51610871   -2.8087492   -1.3433594   0.05407741   -2.8087492    1.4653898   464285 
 3883000   0.51577398   -2.8103903   -1.3445238  0.051843992   -2.8103903    1.4658665   463833 
 3884000   0.51423438   -2.8078681   -1.3448349  0.051587752   -2.8078681    1.4630332   463344 
 3885000   0.51413735   -2.8085259   -1.3441633  0.053088915   -2.8085259    1.4643627   462836 
 3886000   0.51354719   -2.8094297    -1.345204  0.053761843   -2.8094297    1.4642256   462348 
 3887000   0.51261034   -2.8101472   -1.3470199  0.050742015   -2.8101472    1.4631272   461851 
 3888000   0.51165217   -2.8106683   -1.3487471  0.052619799   -2.8106683    1.4619212   461368 
 3889000    0.5114783   -2.8132335    -1.350122  0.050571553   -2.8132335    1.4631115   460836 
 3890000   0.51067189   -2.8146555   -1.3522767  0.050478513   -2.8146555    1.4623788   460340 
 3891000   0.51080431   -2.8174879   -1.3531171  0.052691106   -2.8174879    1.4643707   459833 
 3892000   0.50952473   -2.8173229   -1.3550082  0.053818988   -2.8173229    1.4623148   459326 
 3893000   0.50981573   -2.8217259   -1.3570134  0.051236603   -2.8217259    1.4647124   458836 
 3894000   0.50763146   -2.8195418   -1.3594788  0.053583899   -2.8195418    1.4600631   458325 
 3895000    0.5071923   -2.8215071   -1.3611013  0.048105043   -2.8215071    1.4604059   457821 
 3896000   0.50619364   -2.8227688   -1.3636194  0.048561212   -2.8227688    1.4591494   457313 
 3897000   0.50554771    -2.825388    -1.366515   0.04879782    -2.825388    1.4588729   456816 
 3898000   0.50513301   -2.8278844   -1.3686429  0.048672703   -2.8278844    1.4592415   456326 
 3899000   0.50532544   -2.8330786   -1.3716126  0.049924336   -2.8330786     1.461466   455805 
 3900000    0.5050503   -2.8363961   -1.3740833  0.053264054   -2.8363961    1.4623128   455293 
 3901000   0.50292655   -2.8339705   -1.3762924  0.047697679   -2.8339705    1.4576781   454820 
 3902000   0.50298085   -2.8384147   -1.3789748  0.049696781   -2.8384147    1.4594399   454320 
 3903000   0.50144711   -2.8381661   -1.3816055   0.04965731   -2.8381661    1.4565606   453830 
 3904000   0.50059729   -2.8397547   -1.3839753  0.047831419   -2.8397547    1.4557794   453304 
 3905000   0.49921179   -2.8400415   -1.3866753  0.048768017   -2.8400415    1.4533662   452800 
 3906000   0.49863631    -2.842457   -1.3891518  0.046257695    -2.842457    1.4533052   452297 
 3907000   0.49802931   -2.8452696   -1.3921239   0.04751856   -2.8452696    1.4531457   451796 
 3908000   0.49839622   -2.8503366   -1.3945221  0.047474882   -2.8503366    1.4558145   451300 
 3909000   0.49752418   -2.8521857    -1.397326  0.048005949   -2.8521857    1.4548598   450806 
 3910000   0.49670332     -2.85479   -1.4008115  0.049380803     -2.85479    1.4539785   450335 
 3911000   0.49649797   -2.8588412   -1.4037998  0.045915929   -2.8588412    1.4550414   449820 
 3912000   0.49464119   -2.8588341   -1.4076179  0.046372641   -2.8588341    1.4512162   449319 
 3913000   0.49366195   -2.8606223   -1.4107011  0.046122772   -2.8606223    1.4499212   448830 
 3914000   0.49290606   -2.8630537    -1.413751  0.045378127   -2.8630537    1.4493027   448334 
 3915000   0.49238848   -2.8661155    -1.416715  0.045715034   -2.8661155    1.4494005   447833 
 3916000   0.49124706   -2.8680021   -1.4203387  0.045023373   -2.8680021    1.4476634   447331 
 3917000     0.490465   -2.8700759   -1.4230253  0.047222415   -2.8700759    1.4470506   446808 
 3918000   0.48936003   -2.8725962   -1.4272368     0.044972   -2.8725962    1.4453594   446323 
 3919000   0.48924774   -2.8761744   -1.4295747  0.044706736   -2.8761744    1.4465997   445838 
 3920000   0.48786032   -2.8759982   -1.4319363  0.045025588   -2.8759982    1.4440618   445355 
 3921000   0.48693576   -2.8777475    -1.434851  0.043784327   -2.8777475    1.4428965   444870 
 3922000   0.48660299   -2.8814014   -1.4378523  0.042146631   -2.8814014    1.4435491   444365 
 3923000   0.48448382   -2.8787662   -1.4398492  0.044144754   -2.8787662    1.4389171   443854 
 3924000   0.48404297   -2.8819041   -1.4426523  0.044214414   -2.8819041    1.4392518   443347 
 3925000   0.48346265   -2.8847646   -1.4455893  0.046335784   -2.8847646    1.4391753   442839 
 3926000   0.48307429   -2.8870939   -1.4475012  0.044565531   -2.8870939    1.4395926   442355 
 3927000   0.48249188   -2.8887759    -1.449256  0.045396586   -2.8887759    1.4395199   441844 
 3928000    0.4807429    -2.887206   -1.4513541  0.043839138    -2.887206    1.4358519   441367 
 3929000   0.47994342   -2.8895905   -1.4544649  0.043470042   -2.8895905    1.4351256   440856 
 3930000   0.47904161   -2.8901622     -1.45611  0.042789658   -2.8901622    1.4340522   440357 
 3931000   0.47866029   -2.8910716   -1.4565321  0.042046843   -2.8910716    1.4345395   439857 
 3932000   0.47815778   -2.8921798   -1.4575546  0.045116404   -2.8921798    1.4346252   439369 
 3933000   0.47712314   -2.8912653     -1.45812  0.040925093   -2.8912653    1.4331453   438871 
 3934000   0.47724676   -2.8929299   -1.4578306  0.043876375   -2.8929299    1.4350993   438387 
 3935000   0.47583249   -2.8902121   -1.4578397  0.043855577   -2.8902121    1.4323724   437920 
 3936000   0.47431382   -2.8865729   -1.4571923  0.043745316   -2.8865729    1.4293806   437436 
 3937000   0.47468857   -2.8863924   -1.4543274  0.045169569   -2.8863924     1.432065   436961 
 3938000   0.47473402   -2.8861452    -1.452424  0.042778294   -2.8861452    1.4337213   436498 
 3939000   0.47363573   -2.8815999   -1.4496832  0.045572077   -2.8815999    1.4319166   436037 
 3940000   0.47334671   -2.8789704   -1.4463998  0.046213703   -2.8789704    1.4325706   435572 
 3941000   0.47288809    -2.876269   -1.4436359  0.042753177    -2.876269    1.4326331   435131 
 3942000   0.47279304   -2.8748644    -1.441043  0.043246807   -2.8748644    1.4338214   434683 
 3943000   0.47280842   -2.8729037   -1.4374308  0.047546217   -2.8729037    1.4354729   434197 
 3944000   0.47187893    -2.867747   -1.4334444  0.047173621    -2.867747    1.4343026   433697 
 3945000   0.47226136   -2.8667687   -1.4296933  0.046780084   -2.8667687    1.4370754   433211 
 3946000   0.47105812   -2.8614992   -1.4266179   0.04712751   -2.8614992    1.4348813   432768 
 3947000   0.47118864    -2.857655    -1.420819   0.04885295    -2.857655     1.436836   432299 
 3948000   0.47059611   -2.8538709   -1.4173065  0.047200634   -2.8538709    1.4365644   431837 
 3949000   0.47033594   -2.8504577   -1.4131498  0.047554914   -2.8504577    1.4373079   431375 
 3950000    0.4711045   -2.8491653   -1.4078548  0.047814676   -2.8491653    1.4413105   430880 
 3951000   0.46922981    -2.839462   -1.4022325  0.050225964    -2.839462    1.4372294   430384 
 3952000   0.46934002   -2.8370305   -1.3979287  0.047908939   -2.8370305    1.4391018   429925 
 3953000   0.46881491    -2.832566   -1.3933804  0.047519307    -2.832566    1.4391855   429419 
 3954000   0.46906491   -2.8299361   -1.3884053  0.050497379   -2.8299361    1.4415308   428949 
 3955000   0.46935202   -2.8275858   -1.3835298  0.048397748   -2.8275858     1.444056   428461 
 3956000   0.46933345   -2.8235175   -1.3778586  0.052652967   -2.8235175    1.4456589   427969 
 3957000   0.46849126    -2.817477   -1.3726973  0.051287385    -2.817477    1.4447797   427461 
 3958000   0.46832202   -2.8123472   -1.3664456  0.051380643   -2.8123472    1.4459017   426975 
 3959000   0.46867784   -2.8088135   -1.3601372  0.052510893   -2.8088135    1.4486763   426481 
 3960000   0.46818833   -2.8037167   -1.3548174  0.053060511   -2.8037167    1.4488993   425970 
 3961000   0.46882126   -2.8018691   -1.3493369  0.054326268   -2.8018691    1.4525323   425479 
 3962000   0.46859974   -2.7974616   -1.3438938  0.053016634   -2.7974616    1.4535678   424975 
 3963000   0.46921825   -2.7951343   -1.3379987  0.055804164   -2.7951343    1.4571356   424494 
 3964000    0.4689218   -2.7907939    -1.332896   0.05613343   -2.7907939    1.4578978   424004 
 3965000   0.46943664   -2.7891218   -1.3279622  0.054322047   -2.7891218    1.4611595   423522 
 3966000   0.46827095    -2.782385   -1.3232173  0.058519244    -2.782385    1.4591678   423047 
 3967000   0.46851569   -2.7785777   -1.3168921  0.056502328   -2.7785777    1.4616856   422539 
 3968000   0.46818297   -2.7737449   -1.3114743  0.058993559   -2.7737449    1.4622706   422070 
 3969000   0.46734143   -2.7674426   -1.3059894  0.058105131   -2.7674426    1.4614532   421547 
 3970000   0.46776499   -2.7646996   -1.3001882  0.053970617   -2.7646996    1.4645113   421048 
 3971000   0.46653088   -2.7570335    -1.294632   0.05410178   -2.7570335    1.4624015   420543 
 3972000   0.46635323    -2.751438   -1.2878812  0.053088623    -2.751438    1.4635568   420051 
 3973000   0.46510725   -2.7445556   -1.2832357  0.050429158   -2.7445556    1.4613199   419570 
 3974000   0.46478762   -2.7405088   -1.2784717  0.051689074   -2.7405088    1.4620371   419076 
 3975000   0.46488832   -2.7372049   -1.2730308  0.051667635   -2.7372049    1.4641741   418555 
 3976000    0.4630656   -2.7274178   -1.2672226  0.052168733   -2.7274178    1.4601952   418050 
 3977000   0.46305285    -2.723375   -1.2615241  0.048714612    -2.723375     1.461851   417565 
 3978000   0.46163317   -2.7150245   -1.2559783  0.048732322   -2.7150245    1.4590463   417085 
 3979000   0.46127279   -2.7100825   -1.2503834   0.04699012   -2.7100825    1.4596991   416573 
 3980000   0.46091875   -2.7052958   -1.2450028  0.048565896   -2.7052958    1.4602929   416084 
 3981000   0.46146528   -2.7040058   -1.2401766  0.048349311   -2.7040058    1.4638292   415571 
 3982000   0.46149646   -2.7014744   -1.2357263  0.051591873   -2.7014744    1.4657482   415055 
 3983000   0.46067186   -2.6949592   -1.2300618  0.053827359   -2.6949592    1.4648974   414554 
 3984000   0.46018408   -2.6898736   -1.2247142  0.050558032   -2.6898736    1.4651594   414041 
 3985000   0.45879519   -2.6822787   -1.2198354  0.050215691   -2.6822787    1.4624434   413558 
 3986000   0.45821428   -2.6781284   -1.2158465  0.047405279   -2.6781284    1.4622818   413080 
 3987000   0.45854711   -2.6761338   -1.2110448  0.048984586   -2.6761338    1.4650889   412588 
 3988000   0.45809044   -2.6714012   -1.2060595  0.051278548   -2.6714012    1.4653417   412106 
 3989000   0.45798091    -2.668211   -1.2013367  0.051563695    -2.668211    1.4668743   411577 
 3990000   0.45692448   -2.6635487   -1.1983564  0.052141821   -2.6635487    1.4651923   411099 
 3991000   0.45662212   -2.6597417   -1.1938644  0.050144977   -2.6597417    1.4658773   410635 
 3992000   0.45669239    -2.657617   -1.1897483  0.052778235    -2.657617    1.4678687   410141 
 3993000   0.45562715    -2.652938   -1.1867844  0.048885385    -2.652938    1.4661536   409663 
 3994000   0.45524176   -2.6503817   -1.1837139  0.051675479   -2.6503817    1.4666678   409173 
 3995000   0.45459525   -2.6468804   -1.1805753   0.05260048   -2.6468804     1.466305   408693 
 3996000   0.45513259   -2.6478757   -1.1781509  0.051782499   -2.6478757    1.4697248   408224 
 3997000   0.45485283    -2.645865      -1.1753  0.049689668    -2.645865     1.470565   407740 
 3998000   0.45391319   -2.6420237   -1.1728609  0.053249839   -2.6420237    1.4691629   407286 
 3999000   0.45303174   -2.6384549    -1.170368  0.052262659   -2.6384549     1.468087   406793 
 4000000   0.45229195   -2.6353608    -1.167918   0.05314714   -2.6353608    1.4674428   406307 
 4001000   0.45226556    -2.634858   -1.1657218  0.051657621    -2.634858    1.4691362   405815 
 4002000   0.45111717   -2.6311806   -1.1639237  0.053322759   -2.6311806    1.4672569   405303 
 4003000   0.45012156   -2.6292336   -1.1633631  0.051120206   -2.6292336    1.4658705   404791 
 4004000   0.45014663   -2.6287535   -1.1610973  0.052522233   -2.6287535    1.4676562   404321 
 4005000   0.44967258   -2.6268809   -1.1590168  0.052311954   -2.6268809    1.4678641   403838 
 4006000   0.44945713   -2.6265501   -1.1576069  0.051850717   -2.6265501    1.4689432   403348 
 4007000   0.44881127   -2.6255858   -1.1569256  0.052267055   -2.6255858    1.4686602   402846 
 4008000   0.44789514   -2.6236208   -1.1560751  0.053076706   -2.6236208    1.4675457   402329 
 4009000   0.44748664   -2.6223441   -1.1544512  0.053575971   -2.6223441    1.4678929   401867 
 4010000   0.44688769   -2.6209874   -1.1532331  0.052604899   -2.6209874    1.4677543   401367 
 4011000   0.44599909    -2.619768   -1.1530868  0.049257821    -2.619768    1.4666812   400862 
 4012000   0.44491519   -2.6187561   -1.1538523  0.052533062   -2.6187561    1.4649037   400373 
 4013000   0.44433661   -2.6196969   -1.1548835   0.05341115   -2.6196969    1.4648134   399877 
 4014000   0.44427126   -2.6215273   -1.1551288  0.050343947   -2.6215273    1.4663985   399386 
 4015000   0.44207899   -2.6174996   -1.1565447  0.049272485   -2.6174996    1.4609549   398896 
 4016000   0.44253306   -2.6218315   -1.1575332  0.049916491   -2.6218315    1.4642983   398394 
 4017000   0.44177112   -2.6221961   -1.1587403  0.051646982   -2.6221961    1.4634559   397937 
 4018000   0.44172038   -2.6246202   -1.1595358  0.051375866   -2.6246202    1.4650845   397449 
 4019000   0.44115429   -2.6275734   -1.1625789  0.050633294   -2.6275734    1.4649946   396964 
 4020000   0.43967599   -2.6252944   -1.1634561  0.052450624   -2.6252944    1.4618383   396488 
 4021000   0.43974857   -2.6287343   -1.1648012  0.049100247   -2.6287343    1.4639331   395986 
 4022000   0.43933463   -2.6319319   -1.1674834  0.051044358   -2.6319319    1.4644486   395474 
 4023000   0.43893325   -2.6353829   -1.1704276  0.051199573   -2.6353829    1.4649554   394976 
 4024000   0.43807523   -2.6375775   -1.1736215  0.051249164   -2.6375775    1.4639561   394473 
 4025000   0.43708802   -2.6383131   -1.1758617  0.050742864   -2.6383131    1.4624514   393989 
 4026000   0.43649663   -2.6404807   -1.1781745  0.048874291   -2.6404807    1.4623061   393495 
 4027000   0.43512373   -2.6409356   -1.1813816  0.049832481   -2.6409356     1.459554   392997 
 4028000   0.43518908   -2.6447793   -1.1831503  0.047654458   -2.6447793    1.4616291   392498 
 4029000   0.43444367   -2.6471671   -1.1860835  0.048390052   -2.6471671    1.4610836   391972 
 4030000   0.43330179   -2.6470735   -1.1879391  0.049683905   -2.6470735    1.4591344   391464 
 4031000   0.43310042   -2.6511258   -1.1908604   0.04737173   -2.6511258    1.4602654   390979 
 4032000   0.43208627   -2.6521613    -1.193532  0.048899939   -2.6521613    1.4586293   390501 
 4033000    0.4316985   -2.6559973   -1.1968386  0.048694224   -2.6559973    1.4591587   390009 
 4034000   0.43163596   -2.6605616   -1.1997227  0.048729906   -2.6605616    1.4608389   389504 
 4035000   0.43097071   -2.6629421   -1.2024574   0.04641259   -2.6629421    1.4604847   388998 
 4036000   0.42977319    -2.663798   -1.2055571  0.046735796    -2.663798    1.4582409   388514 
 4037000   0.42859103   -2.6647408   -1.2086559  0.047711103   -2.6647408    1.4560849   388019 
 4038000   0.42783524   -2.6677754   -1.2124428  0.047732412   -2.6677754    1.4553326   387535 
 4039000   0.42639908   -2.6681742   -1.2158044  0.045052107   -2.6681742    1.4523699   387022 
 4040000   0.42562321   -2.6698534   -1.2182134  0.046707531   -2.6698534    1.4516401   386512 
 4041000   0.42562148   -2.6747343   -1.2213403   0.04627843   -2.6747343     1.453394   386044 
 4042000   0.42503423   -2.6776724   -1.2243902  0.045051684   -2.6776724    1.4532822   385541 
 4043000   0.42434201    -2.680162   -1.2274078  0.048912209    -2.680162    1.4527542   385053 
 4044000   0.42353175   -2.6818007   -1.2299088  0.046901779   -2.6818007    1.4518919   384546 
 4045000   0.42143717   -2.6794755    -1.232962  0.046250065   -2.6794755    1.4465134   384067 
 4046000   0.42105872   -2.6835245   -1.2362639  0.045304824   -2.6835245    1.4472606   383524 
 4047000   0.42037618   -2.6862977   -1.2395007  0.044735934   -2.6862977     1.446797   383025 
 4048000   0.41996131   -2.6905644   -1.2433476  0.046539567   -2.6905644    1.4472168   382536 
 4049000   0.41930947    -2.693455   -1.2464608  0.045544133    -2.693455    1.4469942   382001 
 4050000    0.4186352   -2.6958889   -1.2492637  0.044029862   -2.6958889    1.4466253   381484 
 4051000   0.41724405   -2.6955912   -1.2518885  0.044491034   -2.6955912    1.4437027   380986 
 4052000   0.41577313   -2.6955917   -1.2551524  0.044814099   -2.6955917    1.4404393   380503 
 4053000   0.41455953   -2.6965557   -1.2584046   0.04350287   -2.6965557    1.4381511   379996 
 4054000   0.41433639   -2.7005077   -1.2612673  0.044799941   -2.7005077    1.4392404   379504 
 4055000    0.4152136   -2.7078415   -1.2637503  0.044383578   -2.7078415    1.4440912   379030 
 4056000   0.41369336   -2.7075401   -1.2668282  0.043498425   -2.7075401     1.440712   378528 
 4057000    0.4128928   -2.7088214    -1.268946  0.046721843   -2.7088214    1.4398754   378015 
 4058000   0.41154923   -2.7084064   -1.2714716  0.044038289   -2.7084064    1.4369347   377556 
 4059000   0.41106689   -2.7107301   -1.2735992  0.044035056   -2.7107301     1.437131   377062 
 4060000   0.41017657    -2.710392   -1.2746411  0.041945087    -2.710392    1.4357509   376607 
 4061000   0.40918678   -2.7089033   -1.2748044  0.041999657   -2.7089033    1.4340988   376131 
 4062000   0.40859567   -2.7077439   -1.2739328  0.044217545   -2.7077439    1.4338112   375663 
 4063000   0.40881264   -2.7101338   -1.2737794  0.045535053   -2.7101338    1.4363543   375197 
 4064000   0.40722641   -2.7053182   -1.2726431  0.045586146   -2.7053182    1.4326751   374701 
 4065000   0.40589734   -2.7006991   -1.2708758  0.045708381   -2.7006991    1.4298233   374223 
 4066000   0.40590711   -2.7004149   -1.2688204  0.044555544   -2.7004149    1.4315944   373769 
 4067000    0.4064356   -2.7009137    -1.265666   0.04606151   -2.7009137    1.4352478   373303 
 4068000   0.40568646   -2.6972018   -1.2629589    0.0465733   -2.6972018    1.4342429   372876 
 4069000   0.40536395   -2.6929395   -1.2580821  0.048153715   -2.6929395    1.4348574   372420 
 4070000   0.40405614   -2.6879394   -1.2559155  0.044746487   -2.6879394    1.4320239   371953 
 4071000    0.4036547   -2.6830814    -1.250651  0.043796015   -2.6830814    1.4324304   371478 
 4072000   0.40368138   -2.6807174   -1.2463505  0.046742078   -2.6807174    1.4343669   371001 
 4073000   0.40271955   -2.6754146   -1.2425806  0.047057441   -2.6754146     1.432834   370513 
 4074000   0.40338232   -2.6747678   -1.2377529  0.046715705   -2.6747678     1.437015   370043 
 4075000   0.40241044   -2.6677433   -1.2323325  0.048800308   -2.6677433    1.4354108   369564 
 4076000   0.40209937   -2.6640271   -1.2280084  0.049741463   -2.6640271    1.4360187   369122 
 4077000   0.40189764   -2.6591896   -1.2219952  0.045498027   -2.6591896    1.4371944   368635 
 4078000   0.40147978   -2.6545522   -1.2170154  0.047054266   -2.6545522    1.4375368   368164 
 4079000   0.40071911   -2.6470878   -1.2103038  0.047055357   -2.6470878     1.436784   367659 
 4080000   0.40043489   -2.6430072   -1.2053693  0.050366009   -2.6430072    1.4376379   367180 
 4081000    0.4006081   -2.6393796   -1.1991351  0.050868324   -2.6393796    1.4402445   366674 
 4082000   0.40062273   -2.6357113   -1.1933411  0.045990355   -2.6357113    1.4423702   366147 
 4083000   0.39972749   -2.6290201   -1.1878697  0.047808588   -2.6290201    1.4411504   365638 
 4084000   0.39943166    -2.625611   -1.1835512  0.049100101    -2.625611    1.4420598   365137 
 4085000   0.39919234   -2.6194878   -1.1762841  0.051289922   -2.6194878    1.4432036   364629 
 4086000   0.39938701   -2.6166709   -1.1707054  0.050876772   -2.6166709    1.4459656   364110 
 4087000   0.39901738   -2.6101894   -1.1635278  0.051444664   -2.6101894    1.4466616   363598 
 4088000   0.39904343   -2.6050913    -1.156375  0.050345094   -2.6050913    1.4487163   363106 
 4089000   0.39915746   -2.6017412   -1.1505886   0.05093886   -2.6017412    1.4511526   362600 
 4090000   0.39880667   -2.5949869   -1.1431156  0.050515887   -2.5949869    1.4518713   362102 
 4091000   0.39827916   -2.5887572   -1.1367733  0.051273024   -2.5887572    1.4519839   361595 
 4092000   0.39838391   -2.5847837   -1.1304714  0.051151669   -2.5847837    1.4543124   361111 
 4093000   0.39769352    -2.578687   -1.1250109  0.053123983    -2.578687     1.453676   360643 
 4094000   0.39740436   -2.5728637   -1.1182804  0.048883274   -2.5728637    1.4545833   360156 
 4095000   0.39676425   -2.5670961   -1.1129541  0.048617517   -2.5670961    1.4541421   359685 
 4096000   0.39642835   -2.5628632   -1.1079419  0.049235474   -2.5628632    1.4549213   359188 
 4097000   0.39629177   -2.5573027    -1.100839  0.050150168   -2.5573027    1.4564637   358684 
 4098000    0.3961378   -2.5519728    -1.094124  0.052349864   -2.5519728    1.4578488   358204 
 4099000   0.39563692   -2.5463497   -1.0884068  0.048842647   -2.5463497    1.4579429   357728 
 4100000   0.39462229   -2.5399392   -1.0837039  0.049395165   -2.5399392    1.4562352   357229 
 4101000   0.39472101   -2.5356114   -1.0770561  0.047874156   -2.5356114    1.4585553   356750 
 4102000   0.39447905   -2.5294843   -1.0698674  0.049398417   -2.5294843    1.4596169   356272 
 4103000   0.39360541   -2.5228431   -1.0644529  0.048145556   -2.5228431    1.4583901   355782 
 4104000   0.39343322   -2.5180347   -1.0583994  0.049711212   -2.5180347    1.4596352   355323 
 4105000   0.39250116   -2.5103414    -1.052182  0.050150313   -2.5103414    1.4581594   354840 
 4106000   0.39218407   -2.5049082   -1.0458915  0.047836778   -2.5049082    1.4590167   354345 
 4107000   0.39182631   -2.5002214   -1.0405047  0.049561595   -2.5002214    1.4597167   353852 
 4108000   0.39163867   -2.4970133   -1.0359642  0.048711823   -2.4970133    1.4610491   353360 
 4109000   0.39052973   -2.4893484   -1.0304381  0.050906638   -2.4893484    1.4589103   352876 
 4110000   0.39089851   -2.4864905   -1.0240848  0.050638525   -2.4864905    1.4624057   352365 
 4111000   0.38967568   -2.4783408   -1.0184009  0.050164478   -2.4783408    1.4599399   351856 
 4112000   0.39014139   -2.4762772   -1.0124749  0.052785963   -2.4762772    1.4638022   351347 
 4113000   0.38994877   -2.4718541   -1.0067563  0.051992167   -2.4718541    1.4650978   350863 
 4114000   0.38914326   -2.4655364   -1.0014162  0.050623301   -2.4655364    1.4641203   350372 
 4115000   0.38833593   -2.4599857  -0.99680659  0.049570655   -2.4599857    1.4631791   349870 
 4116000   0.38892617   -2.4594438  -0.99193938  0.048187616   -2.4594438    1.4675044   349369 
 4117000   0.38786717   -2.4539162  -0.98825126  0.050274804   -2.4539162    1.4656649   348855 
 4118000   0.38786771   -2.4505982  -0.98284445  0.048497274   -2.4505982    1.4677538   348359 
 4119000   0.38702102   -2.4466577  -0.98011245  0.051927557   -2.4466577    1.4665453   347885 
 4120000   0.38732543   -2.4463632  -0.97657303  0.050715495   -2.4463632    1.4697901   347390 
 4121000    0.3855483   -2.4369995  -0.97175982  0.049799564   -2.4369995    1.4652397   346870 
 4122000   0.38423312   -2.4302882  -0.96798522  0.048111238   -2.4302882     1.462303   346381 
 4123000   0.38391242   -2.4279442  -0.96479611  0.048774681   -2.4279442    1.4631481   345892 
 4124000   0.38432568   -2.4273967  -0.96065091  0.049708727   -2.4273967    1.4667458   345415 
 4125000   0.38378906   -2.4249434  -0.95816908  0.051646086   -2.4249434    1.4667743   344926 
 4126000   0.38341878   -2.4230233  -0.95556249  0.052828631   -2.4230233    1.4674608   344432 
 4127000   0.38244901   -2.4192379  -0.95343322  0.049723405   -2.4192379    1.4658047   343949 
 4128000    0.3813614   -2.4146623  -0.95092368  0.050784422   -2.4146623    1.4637386   343455 
 4129000   0.38076613   -2.4121281  -0.94877829  0.050357196   -2.4121281    1.4633498   343010 
 4130000   0.37984646   -2.4095063   -0.9475727  0.051640583   -2.4095063    1.4619336   342513 
 4131000   0.38083222   -2.4136904  -0.94586293   0.04957522   -2.4136904    1.4678274   342023 
 4132000   0.38054002   -2.4126377  -0.94375478  0.049586503   -2.4126377    1.4688829   341515 
 4133000   0.38008936   -2.4121308   -0.9429181  0.051630597   -2.4121308    1.4692127   341034 
 4134000   0.37928017   -2.4094134  -0.94120613  0.052576999   -2.4094134    1.4682072   340541 
 4135000   0.37795804   -2.4053569  -0.94014217  0.048681171   -2.4053569    1.4652147   340047 
 4136000   0.37707591    -2.404347  -0.94049866  0.048671757    -2.404347    1.4638484   339570 
 4137000   0.37645502   -2.4029531  -0.93944198  0.048639287   -2.4029531    1.4635111   339089 
 4138000   0.37660479   -2.4055747  -0.93931493   0.05138018   -2.4055747    1.4662597   338588 
 4139000   0.37647998   -2.4088884  -0.94091644   0.05014153   -2.4088884    1.4679719   338081 
 4140000   0.37506895    -2.406182  -0.94151112  0.051196058    -2.406182    1.4646708   337573 
 4141000    0.3744857   -2.4071015  -0.94258682  0.048228142   -2.4071015    1.4645147   337084 
 4142000   0.37429489   -2.4096384  -0.94386537  0.048412585   -2.4096384    1.4657731   336623 
 4143000   0.37305458     -2.40982  -0.94659591  0.049221613     -2.40982    1.4632241   336092 
 4144000   0.37239452   -2.4105299  -0.94778397  0.049662366   -2.4105299    1.4627459   335607 
 4145000   0.37127404   -2.4099709  -0.94950686  0.050069232   -2.4099709     1.460464   335120 
 4146000   0.37073842    -2.412343  -0.95178497  0.050480421    -2.412343     1.460558   334615 
 4147000   0.36997895   -2.4125442   -0.9529804  0.047104538   -2.4125442    1.4595638   334157 
 4148000   0.36887649   -2.4135299  -0.95625255  0.049225703   -2.4135299    1.4572774   333684 
 4149000    0.3695414   -2.4203033  -0.95822143   0.05031443   -2.4203033    1.4620818   333187 
 4150000   0.36866508   -2.4213798    -0.960573  0.049164196   -2.4213798    1.4608069   332687 
 4151000      0.36789    -2.423933  -0.96397676  0.047284659    -2.423933    1.4599562   332181 
 4152000   0.36667647   -2.4247903  -0.96735536  0.049078421   -2.4247903     1.457435   331658 
 4153000   0.36624429   -2.4276398  -0.96979078  0.047791862   -2.4276398    1.4578491   331173 
 4154000   0.36578337   -2.4310852  -0.97293982  0.047474245   -2.4310852    1.4581454   330689 
 4155000   0.36549497   -2.4345955   -0.9755083  0.048988455   -2.4345955    1.4590872   330215 
 4156000   0.36306702    -2.430817  -0.97915837  0.047883808    -2.430817    1.4516586   329700 
 4157000   0.36317565   -2.4358824  -0.98155751  0.046532775   -2.4358824    1.4543249   329194 
 4158000   0.36271361   -2.4390594  -0.98434873  0.048646036   -2.4390594    1.4547107   328688 
 4159000   0.36207854   -2.4424937  -0.98797589  0.047642847   -2.4424937    1.4545179   328156 
 4160000     0.361346   -2.4448318  -0.99100607  0.048530539   -2.4448318    1.4538257   327648 
 4161000   0.35990951   -2.4441584   -0.9939434  0.048314087   -2.4441584     1.450215   327158 
 4162000   0.35931908   -2.4482211  -0.99810238  0.047353676   -2.4482211    1.4501187   326643 
 4163000   0.35883739   -2.4520677   -1.0017262  0.047509196   -2.4520677    1.4503415   326155 
 4164000    0.3578367   -2.4542182   -1.0056739  0.046708143   -2.4542182    1.4485442   325649 
 4165000   0.35769647   -2.4579825   -1.0077303  0.045567846   -2.4579825    1.4502523   325138 
 4166000   0.35656917   -2.4586905   -1.0107376  0.046472398   -2.4586905    1.4479529   324628 
 4167000   0.35595903    -2.464434   -1.0166485  0.046213845    -2.464434    1.4477855   324110 
 4168000   0.35437804   -2.4641418   -1.0204526  0.045977538   -2.4641418    1.4436892   323586 
 4169000    0.3536429   -2.4660715    -1.023228  0.047160333   -2.4660715    1.4428435   323104 
 4170000   0.35314506   -2.4697503   -1.0267138  0.047726238   -2.4697503    1.4430365   322606 
 4171000   0.35280916   -2.4751942   -1.0313147  0.047184963   -2.4751942    1.4438794   322111 
 4172000   0.35111674   -2.4735671   -1.0343353  0.044142027   -2.4735671    1.4392319   321601 
 4173000   0.35036246   -2.4760673   -1.0376954  0.043412622   -2.4760673    1.4383719   321102 
 4174000   0.34976888   -2.4799064   -1.0417768  0.044777463   -2.4799064    1.4381296   320612 
 4175000   0.34943729    -2.483481   -1.0444751  0.045012546    -2.483481    1.4390058   320113 
 4176000   0.34873297   -2.4862365   -1.0478575  0.044262565   -2.4862365     1.438379   319607 
 4177000   0.34774004   -2.4867767   -1.0502592  0.043154908   -2.4867767    1.4365175   319110 
 4178000    0.3459912   -2.4863403   -1.0548267  0.044063107   -2.4863403    1.4315135   318615 
 4179000    0.3455428   -2.4899863   -1.0582609   0.04377048   -2.4899863    1.4317254   318155 
 4180000   0.34556882   -2.4937151   -1.0595785  0.045086015   -2.4937151    1.4341366   317644 
 4181000   0.34456991   -2.4939738    -1.061647  0.046862348   -2.4939738    1.4323268   317126 
 4182000   0.34346792   -2.4927179   -1.0627985  0.045953111   -2.4927179    1.4299193   316644 
 4183000   0.34244824   -2.4911612   -1.0633134  0.040798792   -2.4911612    1.4278477   316162 
 4184000   0.34218623   -2.4918997   -1.0629705  0.043309608   -2.4918997    1.4289292   315681 
 4185000   0.34180153   -2.4914431   -1.0618561  0.047091031   -2.4914431     1.429587   315181 
 4186000   0.34113755   -2.4896793   -1.0606477  0.044907001   -2.4896793    1.4290316   314691 
 4187000   0.33976042   -2.4842526     -1.05887  0.042670715   -2.4842526    1.4253825   314223 
 4188000   0.33910683   -2.4799682   -1.0551965   0.04397736   -2.4799682    1.4247717   313753 
 4189000   0.33915276   -2.4785585   -1.0515061  0.044929587   -2.4785585    1.4270523   313294 
 4190000   0.33899021    -2.475428   -1.0468984  0.045413383    -2.475428    1.4285297   312820 
 4191000   0.33832671   -2.4708892   -1.0429965  0.046468453   -2.4708892    1.4278927   312347 
 4192000   0.33765377   -2.4658173    -1.038695  0.044301825   -2.4658173    1.4271224   311894 
 4193000   0.33730118   -2.4615316   -1.0336929  0.044501083   -2.4615316    1.4278387   311412 
 4194000   0.33683159   -2.4567659   -1.0287414  0.045834978   -2.4567659    1.4280244   310938 
 4195000   0.33664899   -2.4517854   -1.0222593  0.046286535   -2.4517854    1.4295261   310443 
 4196000   0.33543042   -2.4424984   -1.0159319  0.045145034   -2.4424984    1.4265665   309961 
 4197000   0.33485454   -2.4357055   -1.0093563  0.047544991   -2.4357055    1.4263491   309476 
 4198000   0.33481761   -2.4312099   -1.0028581  0.046306875   -2.4312099    1.4283518   309008 
 4199000    0.3351908   -2.4280296  -0.99584711  0.046890637   -2.4280296    1.4321825   308525 
 4200000   0.33502408   -2.4216556  -0.98789436  0.046186108   -2.4216556    1.4337612   308032 
 4201000   0.33464492   -2.4159031  -0.98145012  0.045681815   -2.4159031     1.434453   307535 
 4202000   0.33339042   -2.4060731  -0.97483814  0.044866241   -2.4060731     1.431235   307071 
 4203000   0.33321091    -2.399626  -0.96692685  0.045366446    -2.399626    1.4326992   306592 
 4204000   0.33368042   -2.3971329   -0.9600667  0.045827251   -2.3971329    1.4370662   306091 
 4205000   0.33246719   -2.3866604  -0.95246239    0.0490326   -2.3866604     1.434198   305588 
 4206000   0.33277948   -2.3835738  -0.94560057  0.045560252   -2.3835738    1.4379733   305072 
 4207000   0.33289199   -2.3784167   -0.9377235  0.045177309   -2.3784167    1.4406932   304599 
 4208000   0.33253121   -2.3723118  -0.93100812  0.048799495   -2.3723118    1.4413037   304140 
 4209000   0.33236309   -2.3652865  -0.92244856  0.049444582   -2.3652865    1.4428379   303663 
 4210000   0.33223587   -2.3597255  -0.91520414  0.047406483   -2.3597255    1.4445214   303193 
 4211000   0.33138931   -2.3507435  -0.90744175  0.046786028   -2.3507435    1.4433018   302676 
 4212000   0.33080814   -2.3418613  -0.89852996  0.048789784   -2.3418613    1.4433313   302139 
 4213000   0.33115564   -2.3389591  -0.89173586  0.047373233   -2.3389591    1.4472233   301643 
 4214000   0.33045611    -2.330023  -0.88360311  0.049529013    -2.330023    1.4464199   301173 
 4215000   0.33020621   -2.3233382  -0.87546423  0.046377027   -2.3233382     1.447874   300643 
 4216000   0.32973737   -2.3165799  -0.86827589  0.046890987   -2.3165799     1.448304   300127 
 4217000   0.32985683   -2.3112735  -0.86001252  0.048386557   -2.3112735    1.4512609   299624 
 4218000   0.32942005   -2.3062412  -0.85467827  0.048893212   -2.3062412     1.451563   299165 
 4219000   0.32860055    -2.296184  -0.84576436  0.046128406    -2.296184    1.4504196   298656 
 4220000   0.32722424   -2.2856789  -0.83885871  0.045560788   -2.2856789    1.4468202   298145 
 4221000   0.32758891   -2.2804485  -0.82960712  0.046542207   -2.2804485    1.4508414   297650 
 4222000    0.3278583   -2.2775406  -0.82302372  0.047432376   -2.2775406    1.4545169   297142 
 4223000   0.32755207   -2.2712483  -0.81570931  0.045567118   -2.2712483     1.455539   296656 
 4224000   0.32627202   -2.2609861  -0.80863356  0.046112353   -2.2609861    1.4523526   296145 
 4225000   0.32594106   -2.2539506  -0.80052905  0.046937105   -2.2539506    1.4534216   295627 
 4226000   0.32549486     -2.24577  -0.79184465  0.047436148     -2.24577    1.4539254   295120 
 4227000    0.3261085   -2.2430215  -0.78388296  0.047731782   -2.2430215    1.4591385   294620 
 4228000   0.32568574   -2.2372129  -0.77745394  0.047833632   -2.2372129     1.459759   294113 
 4229000   0.32468814   -2.2281947  -0.77046359  0.045526016   -2.2281947    1.4577311   293620 
 4230000   0.32437015   -2.2214662  -0.76256414  0.045145569   -2.2214662     1.458902   293097 
 4231000   0.32461345   -2.2171924  -0.75462622  0.047340769   -2.2171924    1.4625662   292582 
 4232000   0.32352985   -2.2074801  -0.74726082  0.048260378   -2.2074801    1.4602193   292074 
 4233000   0.32313109   -2.2011943  -0.74034895  0.046312892   -2.2011943    1.4608453   291589 
 4234000   0.32292163   -2.1968449  -0.73444386  0.048345766   -2.1968449     1.462401   291090 
 4235000   0.32292624   -2.1928679  -0.72799528  0.048362208   -2.1928679    1.4648727   290603 
 4236000   0.32210107   -2.1847425  -0.72093322  0.046744442   -2.1847425    1.4638092   290071 
 4237000   0.32183411   -2.1806293  -0.71549774  0.047913927   -2.1806293    1.4651316   289569 
 4238000   0.32081363   -2.1726219  -0.70963009  0.047029034   -2.1726219    1.4629918   289073 
 4239000   0.32068394    -2.168396   -0.7035988  0.050545957    -2.168396    1.4647972   288600 
 4240000   0.32047783   -2.1655328   -0.6991569  0.048599133   -2.1655328     1.466376   288104 
 4241000   0.31932301   -2.1576132  -0.69380297   0.04872178   -2.1576132    1.4638102   287569 
 4242000   0.31908799   -2.1527156  -0.68734314  0.049360391   -2.1527156    1.4653725   287051 
 4243000   0.31877342   -2.1491311  -0.68274611  0.048117096   -2.1491311     1.466385   286570 
 4244000   0.31830522   -2.1449414  -0.67819199  0.047844963   -2.1449414    1.4667494   286078 
 4245000     0.317794   -2.1409876  -0.67422511  0.049991875   -2.1409876    1.4667624   285616 
 4246000   0.31703838   -2.1363126  -0.67045615  0.049074889   -2.1363126    1.4658565   285113 
 4247000   0.31736483   -2.1366842  -0.66672503  0.048584493   -2.1366842    1.4699592   284610 
 4248000    0.3160127   -2.1298717  -0.66362003   0.04996287   -2.1298717    1.4662517   284114 
 4249000   0.31408083   -2.1197698  -0.66002575   0.04965223   -2.1197698     1.459744   283636 
 4250000   0.31449909   -2.1222254  -0.65801309  0.048688385   -2.1222254    1.4642123   283147 
 4251000    0.3142444   -2.1207908   -0.6552384  0.048965268   -2.1207908    1.4655524   282659 
 4252000   0.31388442   -2.1192278  -0.65279135  0.050087155   -2.1192278    1.4664364   282165 
 4253000   0.31292004   -2.1156241  -0.65103557  0.048018354   -2.1156241    1.4645885   281653 
 4254000    0.3125072   -2.1157945  -0.65041717  0.048013799   -2.1157945    1.4653773   281130 
 4255000   0.31189932   -2.1149536  -0.64974259  0.050048477   -2.1149536     1.465211   280615 
 4256000   0.31086967   -2.1121552  -0.64926848  0.048556029   -2.1121552    1.4628867   280133 
 4257000   0.31013039   -2.1104019   -0.6484891  0.048342362   -2.1104019    1.4619128   279653 
 4258000   0.30934378   -2.1097252  -0.64890849  0.047964764   -2.1097252    1.4608167   279153 
 4259000   0.30880279   -2.1093108  -0.64864713   0.04876572   -2.1093108    1.4606636   278694 
 4260000   0.30781272   -2.1078968  -0.64929414  0.049096552   -2.1078968    1.4586026   278193 
 4261000   0.30826324   -2.1149806  -0.65154445  0.050297124   -2.1149806    1.4634361   277680 
 4262000     0.307207   -2.1148192   -0.6537087  0.049370515   -2.1148192    1.4611105   277169 
 4263000    0.3061353   -2.1152957  -0.65662454  0.048824427   -2.1152957    1.4586711   276664 
 4264000   0.30510532   -2.1153643  -0.65900567  0.047325449   -2.1153643    1.4563587   276171 
 4265000   0.30518928     -2.12017  -0.66072079  0.047619844     -2.12017    1.4594492   275662 
 4266000   0.30479719    -2.122639   -0.6625913  0.046661355    -2.122639    1.4600477   275195 
 4267000   0.30403903   -2.1243729  -0.66538569  0.049538885   -2.1243729    1.4589872   274710 
 4268000   0.30321807   -2.1245706  -0.66675805  0.049142063   -2.1245706    1.4578125   274189 
 4269000   0.30214627   -2.1255057  -0.67026676  0.047358154   -2.1255057    1.4552389   273703 
 4270000   0.30152338   -2.1284128  -0.67338833  0.050027112   -2.1284128    1.4550245   273179 
 4271000   0.30131093    -2.132361  -0.67581302  0.047614132    -2.132361    1.4565479   272701 
 4272000   0.29998095   -2.1326563  -0.68000729  0.047010595   -2.1326563     1.452649   272226 
 4273000   0.29976138   -2.1367412   -0.6825861  0.045573043   -2.1367412    1.4541551   271745 
 4274000   0.29896859   -2.1395472  -0.68656452  0.047887011   -2.1395472    1.4529827   271245 
 4275000   0.29816904   -2.1411072  -0.68923766  0.048412094   -2.1411072    1.4518696   270727 
 4276000   0.29698543   -2.1404074   -0.6917273  0.044142271   -2.1404074    1.4486801   270246 
 4277000   0.29688351   -2.1450284  -0.69421495  0.046009448   -2.1450284    1.4508135   269756 
 4278000   0.29520064   -2.1438697  -0.69852074  0.047607881   -2.1438697     1.445349   269241 
 4279000   0.29508908   -2.1491473   -0.7016941  0.047152445   -2.1491473    1.4474532   268748 
 4280000   0.29480222   -2.1549135  -0.70634488  0.047504102   -2.1549135    1.4485686   268280 
 4281000   0.29400567   -2.1558988  -0.70868183  0.047336529   -2.1558988     1.447217   267805 
 4282000   0.29360477   -2.1602373  -0.71219831  0.045501952   -2.1602373     1.448039   267288 
 4283000    0.2930041   -2.1636244  -0.71584496  0.047618781   -2.1636244    1.4477794   266789 
 4284000   0.29107158   -2.1608788  -0.71997477  0.045801136   -2.1608788     1.440904   266294 
 4285000   0.29042253   -2.1662023  -0.72575802  0.047430576   -2.1662023    1.4404443   265785 
 4286000   0.28963603    -2.168537  -0.72925355  0.045002037    -2.168537    1.4392835   265279 
 4287000   0.28863076    -2.168549  -0.73166107  0.044747173    -2.168549    1.4368879   264799 
 4288000   0.28793179   -2.1707074  -0.73454941  0.045175825   -2.1707074     1.436158   264292 
 4289000    0.2874384   -2.1747623  -0.73829869  0.044344677   -2.1747623    1.4364636   263783 
 4290000   0.28561562   -2.1721659  -0.74202491  0.045021697   -2.1721659     1.430141   263269 
 4291000   0.28560259    -2.177719  -0.74489477  0.044378357    -2.177719    1.4328242   262764 
 4292000   0.28433176   -2.1767354   -0.7477525  0.044752972   -2.1767354    1.4289829   262298 
 4293000   0.28373036   -2.1782507  -0.74968148  0.045594271   -2.1782507    1.4285692   261819 
 4294000   0.28349128    -2.181526  -0.75154446  0.046982537    -2.181526    1.4299816   261340 
 4295000   0.28256825   -2.1819325  -0.75407723  0.043158354   -2.1819325    1.4278553   260877 
 4296000   0.28160428   -2.1798409  -0.75424461  0.044490493   -2.1798409    1.4255963   260399 
 4297000   0.28109587   -2.1791567  -0.75342394  0.045707781   -2.1791567    1.4257327   259904 
 4298000   0.28013044   -2.1756076  -0.75213714  0.043932824   -2.1756076    1.4234705   259423 
 4299000   0.27968632   -2.1752759   -0.7514442  0.045006974   -2.1752759    1.4238317   258946 
 4300000   0.27901983   -2.1735797   -0.7505637  0.043361388   -2.1735797     1.423016   258477 
 4301000   0.27864321   -2.1709949  -0.74724471  0.044258042   -2.1709949    1.4237502   257995 
 4302000   0.27754401    -2.162162  -0.74161661  0.043012187    -2.162162    1.4205454   257557 
 4303000   0.27710811    -2.157794  -0.73674847  0.043821678    -2.157794    1.4210455   257062 
 4304000   0.27622957   -2.1516595  -0.73260758  0.045564659   -2.1516595     1.419052   256607 
 4305000   0.27590619    -2.147669   -0.7278437  0.043768569    -2.147669    1.4198253   256167 
 4306000   0.27495862   -2.1397761  -0.72220406  0.044617545   -2.1397761     1.417572   255693 
 4307000   0.27493247   -2.1350571  -0.71495959  0.044493227   -2.1350571    1.4200975   255214 
 4308000   0.27394774   -2.1264594  -0.70883199   0.04478364   -2.1264594    1.4176274   254743 
 4309000   0.27394162   -2.1199914  -0.69975864  0.044363125   -2.1199914    1.4202328   254270 
 4310000   0.27322374   -2.1119962  -0.69285086  0.044902614   -2.1119962    1.4191453   253798 
 4311000   0.27292476   -2.1046997  -0.68444924  0.043456313   -2.1046997    1.4202505   253323 
 4312000   0.27328899    -2.101824  -0.67699524  0.045365118    -2.101824    1.4248287   252846 
 4313000   0.27223226    -2.091504  -0.66954708   0.04562049    -2.091504     1.421957   252377 
 4314000    0.2720965   -2.0843159  -0.66032028  0.045437222   -2.0843159    1.4239956   251890 
 4315000   0.27214689   -2.0790503  -0.65202626  0.045392657   -2.0790503     1.427024   251402 
 4316000    0.2712093   -2.0693342  -0.64444361  0.044861477   -2.0693342    1.4248906   250911 
 4317000   0.27082901   -2.0601333   -0.6344281  0.045235581   -2.0601333    1.4257052   250416 
 4318000   0.26995871   -2.0488315  -0.62507536  0.045611109   -2.0488315    1.4237561   249953 
 4319000   0.27073305   -2.0465397  -0.61580332  0.044774874   -2.0465397    1.4307363   249447 
 4320000   0.26984274   -2.0348154   -0.6058682  0.046011403   -2.0348154    1.4289472   248938 
 4321000   0.26930725   -2.0268846  -0.59806397  0.044261159   -2.0268846    1.4288206   248466 
 4322000   0.26904584   -2.0176658   -0.5874115  0.044329812   -2.0176658    1.4302543   247976 
 4323000   0.26907033   -2.0098693  -0.57674546  0.044717565   -2.0098693    1.4331239   247502 
 4324000   0.26852102   -2.0006452  -0.56758096  0.045063157   -2.0006452    1.4330642   247007 
 4325000   0.26925192   -1.9967275  -0.55680699  0.046199428   -1.9967275    1.4399205   246500 
 4326000   0.26839157   -1.9827226  -0.54452092  0.045009542   -1.9827226    1.4382017   246006 
 4327000   0.26815211   -1.9750647  -0.53526671   0.04517008   -1.9750647     1.439798   245514 
 4328000   0.26795636   -1.9675225  -0.52588058  0.043596264   -1.9675225    1.4416419   245021 
 4329000   0.26744092   -1.9582092   -0.5165397  0.045571401   -1.9582092    1.4416695   244545 
 4330000    0.2675326   -1.9514812  -0.50634507  0.046091718   -1.9514812    1.4451361   244042 
 4331000   0.26709858   -1.9414854   -0.4958859  0.044049402   -1.9414854    1.4455995   243568 
 4332000   0.26610041   -1.9300101  -0.48701665  0.043968186   -1.9300101    1.4429934   243096 
 4333000   0.26539852   -1.9179902    -0.475807  0.044786317   -1.9179902    1.4421832   242591 
 4334000    0.2651935   -1.9111271  -0.46698027  0.045842931   -1.9111271    1.4441469   242074 
 4335000   0.26508783   -1.9034545  -0.45709285   0.04628731   -1.9034545    1.4463616   241607 
 4336000   0.26500455   -1.8967989  -0.44800736  0.044957036   -1.8967989    1.4487916   241126 
 4337000   0.26474119   -1.8890623  -0.43893209  0.044771336   -1.8890623    1.4501303   240664 
 4338000   0.26458436   -1.8803936  -0.42817164  0.045594297   -1.8803936    1.4522219   240175 
 4339000   0.26466998   -1.8736746  -0.41793395  0.046168625   -1.8736746    1.4557407   239672 
 4340000   0.26381217   -1.8619216  -0.40776836  0.045635202   -1.8619216    1.4541532   239156 
 4341000   0.26355597   -1.8560752   -0.4002723   0.04745081   -1.8560752    1.4558029   238653 
 4342000    0.2626371    -1.844864  -0.39104813  0.045923388    -1.844864    1.4538159   238146 
 4343000   0.26291022   -1.8402148  -0.38170848  0.046138828   -1.8402148    1.4585063   237627 
 4344000   0.26281905   -1.8342932  -0.37349559  0.046582233   -1.8342932    1.4607976   237172 
 4345000   0.26214585   -1.8247757  -0.36485136  0.047304696   -1.8247757    1.4599243   236706 
 4346000   0.26183451   -1.8175651  -0.35649205  0.046680744   -1.8175651     1.461073   236239 
 4347000   0.26136847   -1.8081895  -0.34660508  0.047464875   -1.8081895    1.4615844   235736 
 4348000   0.26116715   -1.8018001  -0.33818118  0.047734938   -1.8018001    1.4636189   235227 
 4349000   0.26014737   -1.7928737  -0.33192032  0.047060561   -1.7928737    1.4609534   234736 
 4350000   0.26015519   -1.7871536  -0.32310008  0.047361616   -1.7871536    1.4640535   234246 
 4351000   0.25926389   -1.7773009   -0.3150985  0.047182476   -1.7773009    1.4622024   233739 
 4352000   0.25901679   -1.7725978   -0.3086701  0.048490494   -1.7725978    1.4639277   233241 
 4353000   0.25864448   -1.7660725  -0.30119041   0.04824876   -1.7660725    1.4648821   232754 
 4354000    0.2585612   -1.7631962  -0.29588588  0.047413808   -1.7631962    1.4673104   232294 
 4355000   0.25765593   -1.7541889   -0.2888997  0.047960666   -1.7541889    1.4652892   231800 
 4356000   0.25659364   -1.7452471  -0.28277518  0.048117607   -1.7452471    1.4624719   231289 
 4357000   0.25598233   -1.7401582   -0.2779209  0.047285038   -1.7401582    1.4622373   230775 
 4358000   0.25584942   -1.7368949  -0.27223076  0.048103487   -1.7368949    1.4646642   230273 
 4359000   0.25596789   -1.7359513  -0.26751613   0.04860876   -1.7359513    1.4684351   229788 
 4360000   0.25524748   -1.7301668  -0.26254333  0.050411776   -1.7301668    1.4676235   229268 
 4361000   0.25411645    -1.723015  -0.25890611  0.047083926    -1.723015    1.4641089   228800 
 4362000   0.25323591   -1.7183281  -0.25599455  0.047679547   -1.7183281    1.4623336   228284 
 4363000   0.25299502    -1.717674  -0.25337676  0.047082672    -1.717674    1.4642972   227761 
 4364000   0.25233443   -1.7132593  -0.24964956  0.049335305   -1.7132593    1.4636098   227273 
 4365000   0.25116212   -1.7074487  -0.24734299  0.048497115   -1.7074487    1.4601057   226760 
 4366000    0.2501817   -1.7045774   -0.2469056  0.047260055   -1.7045774    1.4576718   226252 
 4367000   0.25010543   -1.7052184  -0.24473126  0.048883628   -1.7052184    1.4604872   225747 
 4368000   0.24954286   -1.7038951  -0.24356856  0.048258735   -1.7038951    1.4603265   225264 
 4369000   0.24890062   -1.7028019   -0.2430844  0.048776585   -1.7028019    1.4597175   224778 
 4370000   0.24798649   -1.7019823  -0.24431862  0.047043302   -1.7019823    1.4576637   224268 
 4371000   0.24697197   -1.6992089  -0.24429077  0.047182309   -1.6992089    1.4549181   223772 
 4372000   0.24669052   -1.7007536  -0.24436297  0.047924843   -1.7007536    1.4563906   223291 
 4373000    0.2453784   -1.6959325  -0.24412189  0.047585736   -1.6959325    1.4518106   222804 
 4374000   0.24537419   -1.7017509  -0.24682423  0.047469764   -1.7017509    1.4549267   222323 
 4375000   0.24450145   -1.7011239  -0.24830731  0.047517031   -1.7011239    1.4528166   221854 
 4376000   0.24312469   -1.6974552  -0.24957572  0.046923237   -1.6974552    1.4478795   221357 
 4377000   0.24296889   -1.7018679  -0.25158785   0.04749192   -1.7018679      1.45028   220849 
 4378000   0.24230083   -1.7024959  -0.25298098  0.048569908   -1.7024959     1.449515   220358 
 4379000   0.24113781   -1.7014497   -0.2556379  0.047141028   -1.7014497    1.4458118   219862 
 4380000   0.24076578   -1.7046984  -0.25780704  0.047331229   -1.7046984    1.4468914   219359 
 4381000   0.24036486   -1.7095085  -0.26169999  0.045933045   -1.7095085    1.4478085   218855 
 4382000   0.24014379   -1.7147475  -0.26473919  0.047114664   -1.7147475    1.4500083   218322 
 4383000   0.23839725   -1.7110961   -0.2683359  0.047398595   -1.7110961    1.4427602   217823 
 4384000   0.23786225   -1.7132824  -0.27058088  0.045587973   -1.7132824    1.4427015   217343 
 4385000   0.23722744    -1.716198  -0.27396914  0.045953895    -1.716198    1.4422288   216834 
 4386000   0.23643483   -1.7172794  -0.27646713  0.046127164   -1.7172794    1.4408122   216322 
 4387000   0.23558461   -1.7177846  -0.27877423  0.046648242   -1.7177846    1.4390104   215814 
 4388000   0.23531893    -1.722887  -0.28213479  0.045049401    -1.722887    1.4407522   215310 
 4389000    0.2345088    -1.724768  -0.28554678  0.046827884    -1.724768    1.4392212   214797 
 4390000   0.23380582   -1.7269603  -0.28873897  0.046169671   -1.7269603    1.4382213   214302 
 4391000   0.23243482   -1.7248273  -0.29178956  0.045372445   -1.7248273    1.4330377   213816 
 4392000   0.23198618   -1.7286154  -0.29486351  0.043155233   -1.7286154    1.4337519   213297 
 4393000    0.2311415    -1.730501  -0.29858601  0.045142089    -1.730501     1.431915   212793 
 4394000   0.23038436   -1.7329224   -0.3023297   0.04480163   -1.7329224    1.4305927   212292 
 4395000   0.22976342   -1.7337894  -0.30384632  0.044159237   -1.7337894    1.4299431   211816 
 4396000   0.22885104   -1.7342417  -0.30645141   0.04431534   -1.7342417    1.4277903   211293 
 4397000   0.22802669   -1.7330123  -0.30692974  0.044579973   -1.7330123    1.4260826   210784 
 4398000   0.22736608   -1.7353116  -0.31002697  0.044409154   -1.7353116    1.4252847   210291 
 4399000   0.22663114   -1.7343193  -0.31044578  0.043739097   -1.7343193    1.4238735   209819 
 4400000   0.22573005   -1.7322604  -0.31081677  0.044233046   -1.7322604    1.4214436   209342 
 4401000   0.22522082   -1.7316919  -0.31014118   0.04397182   -1.7316919    1.4215507   208854 
 4402000   0.22494482   -1.7304469  -0.30749735  0.044526963   -1.7304469    1.4229495   208393 
 4403000   0.22447767   -1.7278069  -0.30470529  0.043860366   -1.7278069    1.4231016   207938 
 4404000   0.22318115    -1.719796  -0.30180419  0.043978208    -1.719796    1.4179918   207482 
 4405000   0.22241828    -1.713452  -0.29707145  0.044868891    -1.713452    1.4163806   207008 
 4406000   0.22257581   -1.7102988  -0.29001965  0.043915418   -1.7102988    1.4202791   206586 
 4407000   0.22130994   -1.6996873  -0.28435484  0.044878221   -1.6996873    1.4153324   206129 
 4408000   0.22119113   -1.6954923  -0.27785924  0.044035057   -1.6954923    1.4176331   205684 
 4409000   0.22056528   -1.6857934   -0.2688717  0.043149842   -1.6857934    1.4169217   205205 
 4410000   0.22049434    -1.682219   -0.2627371  0.044679535    -1.682219    1.4194819   204769 
 4411000   0.21907195   -1.6670754  -0.25360972  0.043234227   -1.6670754    1.4134657   204314 
 4412000   0.21979687   -1.6636575  -0.24237023  0.044066473   -1.6636575    1.4212872   203862 
 4413000   0.21897614   -1.6514939  -0.23219292  0.044352412   -1.6514939     1.419301   203385 
 4414000   0.21852975   -1.6421779  -0.22251748  0.044144778   -1.6421779    1.4196604   202919 
 4415000   0.21786955   -1.6298123   -0.2110708  0.043585801   -1.6298123    1.4187415   202437 
 4416000   0.21776367   -1.6220191  -0.20073044  0.043964891   -1.6220191    1.4212887   201976 
 4417000   0.21744875   -1.6115219   -0.1887595  0.044445868   -1.6115219    1.4227624   201475 
 4418000   0.21666349   -1.5978862  -0.17691167  0.042670182   -1.5978862    1.4209745   201000 
 4419000   0.21620769   -1.5868239  -0.16532381  0.043619149   -1.5868239    1.4215001   200503 
 4420000   0.21592668   -1.5776874  -0.15443597  0.043231252   -1.5776874    1.4232514   199996 
 4421000    0.2154651   -1.5629603  -0.13910621  0.043858589   -1.5629603    1.4238541   199484 
 4422000   0.21545887   -1.5527014  -0.12551872   0.04388589   -1.5527014    1.4271826   199013 
 4423000   0.21445149   -1.5403195  -0.11633933  0.043412666   -1.5403195    1.4239801   198528 
 4424000   0.21407539   -1.5284195  -0.10341954  0.044152443   -1.5284195    1.4249999   198038 
 4425000   0.21394467   -1.5191806 -0.091540093   0.04287265   -1.5191806    1.4276405   197551 
 4426000   0.21359846   -1.5076384 -0.078734986  0.044108847   -1.5076384    1.4289034   197057 
 4427000   0.21325125   -1.4959843 -0.065898379   0.04379522   -1.4959843    1.4300859   196574 
 4428000   0.21236239   -1.4806357 -0.052929951  0.043803675   -1.4806357    1.4277058   196081 
 4429000   0.21213416   -1.4714716 -0.041836985  0.044310567   -1.4714716    1.4296346   195606 
 4430000    0.2115118   -1.4581708 -0.029135981  0.042812941   -1.4581708    1.4290348   195114 
 4431000   0.21191693   -1.4512203 -0.015629673  0.045811545   -1.4512203    1.4355906   194595 
 4432000   0.21209137   -1.4422959 -0.0018891995  0.044921682   -1.4422959    1.4404067   194104 
 4433000   0.21110963   -1.4274771  0.010002035  0.044460506   -1.4274771    1.4374792   193599 
 4434000   0.21088925   -1.4172945  0.022163788  0.045002117   -1.4172945    1.4394583   193131 
 4435000    0.2108845   -1.4064935  0.036765995   0.04417048   -1.4064935    1.4432595   192618 
 4436000   0.20986165   -1.3924938  0.047278556  0.045537904   -1.3924938    1.4397724   192148 
 4437000   0.20922324   -1.3795029  0.059649557  0.044801661   -1.3795029    1.4391524   191646 
 4438000   0.20903761   -1.3696657  0.072144602  0.044979516   -1.3696657    1.4418103   191123 
 4439000   0.20955355   -1.3626671  0.086401725  0.046710573   -1.3626671    1.4490688   190635 
 4440000    0.2084451   -1.3470562  0.097902553  0.046177129   -1.3470562    1.4449588   190166 
 4441000   0.20885956   -1.3407444   0.11093483  0.045728786   -1.3407444    1.4516792   189662 
 4442000   0.20839332   -1.3280192   0.12422493  0.046203604   -1.3280192    1.4522441   189165 
 4443000   0.20801186   -1.3174059   0.13593691  0.045764067   -1.3174059    1.4533428   188676 
 4444000     0.208029   -1.3094967   0.14785874   0.04650811   -1.3094967    1.4573555   188172 
 4445000   0.20684938   -1.2947584   0.15818619  0.047039455   -1.2947584    1.4529446   187673 
 4446000   0.20631477   -1.2824104   0.17055707  0.045988132   -1.2824104    1.4529675   187185 
 4447000   0.20606648   -1.2727847   0.18225097  0.046639333   -1.2727847    1.4550356   186694 
 4448000   0.20636246   -1.2674394   0.19347349   0.04657367   -1.2674394    1.4609129   186210 
 4449000   0.20518154   -1.2500708   0.20669089  0.047930521   -1.2500708    1.4567617   185672 
 4450000   0.20482904   -1.2407971    0.2173414  0.047082803   -1.2407971    1.4581385   185178 
 4451000   0.20411967   -1.2270019   0.23001292  0.048302257   -1.2270019    1.4570148   184679 
 4452000   0.20465681    -1.224164     0.240619  0.047937582    -1.224164     1.464783   184183 
 4453000   0.20367067   -1.2110566   0.25053291  0.048369417   -1.2110566    1.4615895   183696 
 4454000   0.20306152   -1.2024533   0.25860637   0.04870798   -1.2024533    1.4610597   183213 
 4455000   0.20246819   -1.1940582   0.26655116  0.048362345   -1.1940582    1.4606093   182734 
 4456000   0.20226017   -1.1868326   0.27607869  0.047804608   -1.1868326    1.4629113   182259 
 4457000   0.20161429   -1.1775145   0.28463218  0.048842818   -1.1775145    1.4621467   181772 
 4458000   0.20113069   -1.1683531    0.2943985  0.046889521   -1.1683531    1.4627516   181261 
 4459000   0.20032544   -1.1594163   0.30161399  0.048267031   -1.1594163    1.4610303   180748 
 4460000   0.19967079   -1.1511438   0.30910298  0.048041555   -1.1511438    1.4602468   180254 
 4461000   0.19854461   -1.1391776   0.31686392  0.048111871   -1.1391776    1.4560415   179755 
 4462000   0.19831241    -1.131166   0.32740823  0.048592576    -1.131166    1.4585742   179233 
 4463000   0.19786575   -1.1263613   0.33292551   0.04862367   -1.1263613    1.4592868   178742 
 4464000   0.19714118   -1.1190412   0.33864502   0.04886594   -1.1190412    1.4576862   178283 
 4465000   0.19683236   -1.1125026   0.34685374  0.048750581   -1.1125026    1.4593564   177800 
 4466000   0.19651918   -1.1082908   0.35274552  0.048812419   -1.1082908    1.4610363   177313 
 4467000   0.19539659   -1.0980218   0.35875177  0.048474559   -1.0980218    1.4567736   176816 
 4468000   0.19473003   -1.0920813   0.36379026  0.047797923   -1.0920813    1.4558716   176322 
 4469000   0.19421972   -1.0862831   0.36996877  0.048536524   -1.0862831    1.4562518   175814 
 4470000   0.19352924   -1.0816523   0.37351941  0.047728717   -1.0816523    1.4551717   175319 
 4471000   0.19240753    -1.073819   0.37719728  0.047211051    -1.073819    1.4510163   174802 
 4472000   0.19211903   -1.0710603   0.38189477  0.049098468   -1.0710603    1.4529551   174307 
 4473000   0.19182602   -1.0671535   0.38770033  0.049733746   -1.0671535    1.4548539   173814 
 4474000   0.19138631   -1.0636302   0.39201761  0.049162659   -1.0636302    1.4556478   173321 
 4475000    0.1906732   -1.0591562    0.3949102  0.048914936   -1.0591562    1.4540664   172863 
 4476000    0.1899344   -1.0523737   0.40029408  0.048670084   -1.0523737    1.4526677   172359 
 4477000   0.18970785   -1.0504267   0.40450955  0.048998686   -1.0504267    1.4549362   171885 
 4478000   0.18862575   -1.0437768   0.40688613  0.047970735   -1.0437768     1.450663   171408 
 4479000   0.18831514   -1.0414235   0.41083275  0.048075248   -1.0414235    1.4522562   170938 
 4480000   0.18787975   -1.0385257   0.41478537  0.048307028   -1.0385257    1.4533111   170419 
 4481000   0.18722594   -1.0353108    0.4171104  0.048150484   -1.0353108    1.4524212   169930 
 4482000   0.18639088   -1.0324254   0.41771643  0.048502334   -1.0324254    1.4501418   169438 
 4483000   0.18596613   -1.0293915   0.42149594  0.048010413   -1.0293915    1.4508874   168965 
 4484000   0.18512719   -1.0258783   0.42255286  0.048829517   -1.0258783    1.4484312   168488 
 4485000   0.18434738   -1.0200593   0.42676169  0.047457702   -1.0200593     1.446821   167965 
 4486000   0.18381281   -1.0182044   0.42863332   0.04787046   -1.0182044    1.4468377   167476 
 4487000   0.18340991   -1.0170777   0.43072961  0.048442589   -1.0170777    1.4478073   166997 
 4488000   0.18246188   -1.0115537   0.43286979  0.048158368   -1.0115537    1.4444235   166523 
 4489000   0.18190357   -1.0080941   0.43598544  0.047701033   -1.0080941    1.4440796   166053 
 4490000   0.18106435   -1.0028913   0.43867564  0.047068042   -1.0028913    1.4415669   165575 
 4491000   0.18072283   -1.0012498   0.44179018  0.048450382   -1.0012498      1.44304   165094 
 4492000   0.17973125  -0.99543295   0.44419773  0.046718446  -0.99543295    1.4396307   164577 
 4493000   0.17905241  -0.99087314   0.44775193  0.047428457  -0.99087314    1.4386251   164070 
 4494000   0.17865152  -0.98843289   0.45134125  0.047327445  -0.98843289    1.4397741   163572 
 4495000   0.17804503  -0.98424013   0.45493105  0.047396561  -0.98424013    1.4391712   163085 
 4496000   0.17767619  -0.98163092   0.45872753  0.047526466  -0.98163092    1.4403585   162613 
 4497000    0.1774636  -0.98097642   0.46188222  0.047782338  -0.98097642    1.4428586   162137 
 4498000   0.17657412  -0.97413866   0.46566177   0.04664535  -0.97413866    1.4398004   161667 
 4499000   0.17625284  -0.97302612   0.46858641   0.04810425  -0.97302612    1.4416125   161170 
 4500000   0.17541727  -0.96744808   0.47166971  0.047247372  -0.96744808    1.4391178   160684 
 4501000   0.17460909  -0.96083183   0.47582211  0.046601065  -0.96083183    1.4366539   160218 
 4502000   0.17401741  -0.95591463   0.48028134  0.046782788  -0.95591463     1.436196   159726 
 4503000   0.17331254  -0.95282598   0.48162983  0.047877241  -0.95282598    1.4344558   159272 
 4504000   0.17271276  -0.94592433   0.48771686  0.046701478  -0.94592433    1.4336412   158811 
 4505000   0.17255329  -0.94076446   0.49604043  0.047144614  -0.94076446    1.4368049   158315 
 4506000   0.17187928  -0.93421483   0.50138483  0.045898584  -0.93421483    1.4355997   157829 
 4507000   0.17172972  -0.93297546   0.50557688  0.046597859  -0.93297546    1.4385523   157368 
 4508000   0.17054126  -0.92236237   0.51041343  0.046818072  -0.92236237    1.4327758   156909 
 4509000   0.17042995  -0.91909024   0.51736442  0.045851758  -0.91909024    1.4364547   156405 
 4510000    0.1695164  -0.90963867   0.52356958   0.04604663  -0.90963867    1.4332083   155919 
 4511000   0.16942333  -0.90669845   0.52996149  0.046466313  -0.90669845    1.4366599   155459 
 4512000   0.16856594  -0.89778103   0.53575804  0.047530847  -0.89778103    1.4335391   155009 
 4513000   0.16840664  -0.89350449   0.54311925   0.04625791  -0.89350449    1.4366237   154530 
 4514000     0.167857  -0.88632323    0.5500268  0.047304046  -0.88632323      1.43635   154055 
 4515000   0.16699819  -0.87887711   0.55467446  0.045151876  -0.87887711    1.4335516   153566 
 4516000   0.16683841  -0.87426757   0.56205581  0.046102893  -0.87426757    1.4363234   153123 
 4517000   0.16660455  -0.86999765   0.56888873  0.046210016  -0.86999765    1.4388864   152636 
 4518000   0.16602843  -0.86306622   0.57521678  0.045849817  -0.86306622     1.438283   152172 
 4519000   0.16538505  -0.85414406   0.58294733  0.046335486  -0.85414406    1.4370914   151708 
 4520000   0.16458241  -0.84382855   0.59084662  0.046174178  -0.84382855    1.4346752   151226 
 4521000   0.16473002  -0.84017134   0.60021004  0.046159715  -0.84017134    1.4403814   150762 
 4522000   0.16377557  -0.82998194   0.60655123  0.045510116  -0.82998194    1.4365332   150290 
 4523000    0.1630668  -0.82025999   0.61440932  0.046284152  -0.82025999    1.4346693   149834 
 4524000   0.16271909  -0.81487833   0.62124618  0.046707253  -0.81487833    1.4361245   149363 
 4525000   0.16200259  -0.80638382   0.62824839  0.045522222  -0.80638382    1.4346322   148860 
 4526000   0.16153631  -0.80131807   0.63397695  0.045682493  -0.80131807     1.435295   148363 
 4527000   0.16090709  -0.79367066   0.64049953  0.046574087  -0.79367066    1.4341702   147901 
 4528000   0.16048169  -0.78615065   0.64886577   0.04632624  -0.78615065    1.4350164   147423 
 4529000   0.16047139  -0.78331482    0.6559736  0.046191016  -0.78331482    1.4392884   146976 
 4530000   0.15988526  -0.77561797   0.66299413  0.046657849  -0.77561797    1.4386121   146508 
 4531000   0.15892583  -0.76401852   0.67048447  0.046317811  -0.76401852     1.434503   146046 
 4532000   0.15871258  -0.76042424     0.677016   0.04600852  -0.76042424    1.4374402   145552 
 4533000    0.1583388  -0.75313728   0.68589066  0.046489417  -0.75313728    1.4390279   145049 
 4534000   0.15777948  -0.74600152   0.69273404  0.046160912  -0.74600152    1.4387356   144566 
 4535000   0.15712047  -0.73869819   0.69893075   0.04600099  -0.73869819    1.4376289   144073 
 4536000   0.15640289  -0.73010224   0.70556466  0.046140784  -0.73010224    1.4356669   143611 
 4537000   0.15598525  -0.72173271   0.71493246  0.045672506  -0.72173271    1.4366652   143128 
 4538000   0.15515845   -0.7148893   0.71893934  0.046001372   -0.7148893    1.4338286   142651 
 4539000   0.15513313  -0.71247773   0.72608851  0.046263836  -0.71247773    1.4385662   142158 
 4540000   0.15457659  -0.70472418   0.73380155  0.046336125  -0.70472418    1.4385257   141652 
 4541000   0.15413726  -0.70048442   0.73892185  0.045735745  -0.70048442    1.4394063   141163 
 4542000   0.15300088   -0.6927089   0.74096024  0.045559897   -0.6927089    1.4336691   140683 
 4543000   0.15274484  -0.68745167   0.74909747  0.045302201  -0.68745167    1.4365491   140166 
 4544000   0.15200348  -0.67841866   0.75605001  0.045734614  -0.67841866    1.4344687   139688 
 4545000   0.15157405  -0.67607392   0.75932592  0.045812407  -0.67607392    1.4353998   139203 
 4546000   0.15135596  -0.67184684   0.76644724  0.045620975  -0.67184684    1.4382941   138723 
 4547000    0.1502906  -0.66171804   0.77157684  0.045564124  -0.66171804    1.4332949   138227 
 4548000   0.15022437  -0.66071555   0.77715931  0.044932258  -0.66071555    1.4378749   137726 
 4549000   0.14928953  -0.65303848   0.78069799  0.045207686  -0.65303848    1.4337365   137264 
 4550000   0.14893011  -0.64967542   0.78596428  0.045131514  -0.64967542    1.4356397   136752 
 4551000    0.1484146  -0.64519857   0.79054269  0.045372078  -0.64519857    1.4357413   136269 
 4552000   0.14762648  -0.64051048    0.7924649  0.045360396  -0.64051048    1.4329754   135807 
 4553000   0.14735431  -0.63744002   0.79809415  0.044817596  -0.63744002    1.4355342   135315 
 4554000   0.14640181  -0.62987255   0.80147022  0.044703402  -0.62987255    1.4313428   134834 
 4555000   0.14568335  -0.62736273    0.8021827  0.044105872  -0.62736273    1.4295454   134341 
 4556000    0.1453946  -0.62495239   0.80703603  0.044842245  -0.62495239    1.4319884   133846 
 4557000   0.14512846  -0.62230303   0.81217636  0.044521043  -0.62230303    1.4344794   133369 
 4558000   0.14425065  -0.61921809   0.81199344  0.043667832  -0.61921809    1.4312115   132865 
 4559000   0.14343447  -0.61345381    0.8150247  0.044359072  -0.61345381    1.4284785   132366 
 4560000   0.14289812  -0.61233214   0.81616847  0.043663089  -0.61233214    1.4285006   131869 
 4561000   0.14235821  -0.61148131   0.81702762  0.043521035  -0.61148131    1.4285089   131370 
 4562000   0.14129858  -0.60307122   0.81990645  0.043619192  -0.60307122    1.4229777   130899 
 4563000   0.14098105  -0.60259104   0.82256727  0.043228716  -0.60259104    1.4251583   130405 
 4564000   0.14014359  -0.59837889   0.82356952  0.043334434  -0.59837889    1.4219484   129923 
 4565000   0.13936625  -0.59402038   0.82520764  0.043352225  -0.59402038     1.419228   129450 
 4566000   0.13867815   -0.5924805   0.82539212  0.043001657   -0.5924805    1.4178726   128934 
 4567000   0.13807936  -0.59005782   0.82694596  0.042933997  -0.59005782    1.4170038   128456 
 4568000   0.13737968  -0.58833397   0.82700962  0.042677256  -0.58833397    1.4153436   127955 
 4569000   0.13734309  -0.58809398   0.83251257  0.042697055  -0.58809398    1.4206066   127447 
 4570000   0.13681654  -0.58890779   0.83171438  0.042551928  -0.58890779    1.4206222   126957 
 4571000   0.13600893   -0.5858034   0.83185994  0.041577461   -0.5858034    1.4176633   126471 
 4572000    0.1356584  -0.58694844   0.83232439   0.04208155  -0.58694844    1.4192728   126002 
 4573000    0.1344194   -0.5809675    0.8305631  0.041846475   -0.5809675    1.4115306   125536 
 4574000   0.13371331  -0.57668793   0.83320076  0.041677433  -0.57668793    1.4098887   125022 
 4575000   0.13342849  -0.57646902   0.83588414   0.04155139  -0.57646902    1.4123532   124538 
 4576000   0.13310134  -0.57874505   0.83597273  0.041731019  -0.57874505    1.4147178   124025 
 4577000   0.13208341  -0.57461242    0.8348431  0.041109516  -0.57461242    1.4094555   123536 
 4578000   0.13127284  -0.57156851   0.83501008  0.041278877  -0.57156851    1.4065786   123029 
 4579000   0.13102928  -0.57309813   0.83680702  0.041216965  -0.57309813    1.4099051   122511 
 4580000   0.13036833  -0.57195529    0.8365057  0.040460084  -0.57195529     1.408461   122018 
 4581000   0.12943092  -0.56724831   0.83687345  0.039765589  -0.56724831    1.4041218   121515 
 4582000   0.12870244   -0.5648644   0.83713493  0.040115485   -0.5648644    1.4019993   121014 
 4583000   0.12830792  -0.56399966   0.83903521  0.039899213  -0.56399966    1.4030349   120554 
 4584000   0.12745371  -0.56278132   0.83660077  0.039608904  -0.56278132    1.3993821   120064 
 4585000   0.12729263  -0.56333147   0.84029103  0.039464942  -0.56333147    1.4036225   119550 
 4586000   0.12666459  -0.56162011   0.84090773  0.040077676  -0.56162011    1.4025278   119053 
 4587000   0.12569024  -0.55859571   0.83915466  0.039433667  -0.55859571    1.3977504   118541 
 4588000   0.12499935  -0.55774688   0.83813749  0.039137592  -0.55774688    1.3958844   118047 
 4589000   0.12435616  -0.55600005   0.83859676  0.039023973  -0.55600005    1.3945968   117548 
 4590000   0.12419017  -0.55635166   0.84205833  0.038938377  -0.55635166      1.39841   117071 
 4591000   0.12311113  -0.55220552   0.84022723  0.038521489  -0.55220552    1.3924327   116552 
 4592000   0.12239302  -0.55080515   0.83969725  0.038223469  -0.55080515    1.3905024   116033 
 4593000   0.12164902  -0.54836452   0.83970261  0.038254656  -0.54836452    1.3880671   115530 
 4594000   0.12084078   -0.5448448   0.83971652  0.038866302   -0.5448448    1.3845613   115053 
 4595000   0.12053349  -0.54642668    0.8406417  0.038040296  -0.54642668    1.3870684   114553 
 4596000   0.11977403  -0.54321897   0.84134651  0.037835653  -0.54321897    1.3845655   114037 
 4597000   0.11915029  -0.54157984   0.84165823  0.037743022  -0.54157984    1.3832381   113552 
 4598000   0.11837982  -0.53969103   0.84049754  0.036763436  -0.53969103    1.3801886   113067 
 4599000   0.11779285  -0.53836432   0.84072557  0.037665116  -0.53836432    1.3790899   112596 
 4600000   0.11747887  -0.53830485   0.84333042  0.036928141  -0.53830485    1.3816353   112089 
 4601000   0.11683385   -0.5369132   0.84309505  0.036790534   -0.5369132    1.3800082   111605 
 4602000   0.11606803  -0.53493546   0.84209754  0.037232143  -0.53493546     1.377033   111113 
 4603000   0.11562726  -0.53593796   0.84220379  0.037236696  -0.53593796    1.3781418   110602 
 4604000   0.11485759  -0.53124038   0.84393216  0.036432139  -0.53124038    1.3751725   110103 
 4605000   0.11431585  -0.52998232   0.84472204  0.036381968  -0.52998232    1.3747044   109621 
 4606000   0.11390273  -0.53017628    0.8457607   0.03556887  -0.53017628     1.375937   109127 
 4607000   0.11296139   -0.5259943   0.84483976  0.036144665   -0.5259943    1.3708341   108628 
 4608000   0.11223924   -0.5251714   0.84323542  0.035515336   -0.5251714    1.3684068   108125 
 4609000   0.11184053  -0.52556455   0.84394689  0.035954565  -0.52556455    1.3695114   107654 
 4610000   0.11104002  -0.52173747   0.84403581   0.03509407  -0.52173747    1.3657733   107176 
 4611000   0.11031874  -0.51595047   0.84703003  0.035441551  -0.51595047    1.3629805   106698 
 4612000   0.11010849  -0.51770953   0.84924567  0.035308933  -0.51770953    1.3669552   106185 
 4613000    0.1093435  -0.51568076   0.84847054   0.03459644  -0.51568076    1.3641513   105664 
 4614000   0.10866686  -0.51188599   0.85029523  0.034979416  -0.51188599    1.3621812   105162 
 4615000   0.10802817  -0.51046361   0.85025867  0.034677938  -0.51046361    1.3607223   104656 
 4616000   0.10704253  -0.50428157   0.85049815  0.034304913  -0.50428157    1.3547797   104156 
 4617000   0.10669723  -0.50602325   0.85117504  0.034360053  -0.50602325    1.3571983   103635 
 4618000   0.10614685   -0.5018022   0.85482266  0.034336064   -0.5018022    1.3566249   103144 
 4619000     0.105504    -0.501839    0.8534154  0.033743607    -0.501839    1.3552544   102623 
 4620000    0.1046315  -0.49743596   0.85333676  0.033733078  -0.49743596    1.3507727   102112 
 4621000   0.10425198  -0.49678584   0.85609607  0.033433568  -0.49678584    1.3528819   101583 
 4622000   0.10324927  -0.49157152   0.85523221  0.033527839  -0.49157152    1.3468037   101060 
 4623000    0.1027513  -0.49268137    0.8544115  0.033308598  -0.49268137    1.3470929   100551 
 4624000   0.10228267  -0.49314828   0.85471768  0.033026762  -0.49314828     1.347866   100035 
 4625000   0.10147786  -0.48876079   0.85496059  0.032823479  -0.48876079    1.3437214    99554 
 4626000   0.10082509  -0.48649459   0.85532221   0.03240609  -0.48649459    1.3418168    99054 
 4627000   0.10049038  -0.48798876   0.85600857  0.032328789  -0.48798876    1.3439973    98565 
 4628000  0.099779587  -0.48744522   0.85379504  0.032252927  -0.48744522    1.3412403    98069 
 4629000  0.099089811  -0.48527104   0.85386614  0.032135865  -0.48527104    1.3391372    97544 
 4630000  0.098419282  -0.48180977   0.85492573   0.03144661  -0.48180977    1.3367355    97058 
 4631000  0.097604174   -0.4794901   0.85313578  0.032308462   -0.4794901    1.3326259    96551 
 4632000  0.096723527  -0.47420308   0.85308002   0.03158198  -0.47420308    1.3272831    96065 
 4633000  0.096080361  -0.47414776   0.85112455  0.031313118  -0.47414776    1.3252723    95571 
 4634000  0.095740063  -0.47602631    0.8514834  0.031184808  -0.47602631    1.3275097    95072 
 4635000  0.094516561  -0.46803991   0.84936417  0.030437663  -0.46803991    1.3174041    94577 
 4636000  0.094617431  -0.47435834      0.85132  0.030614404  -0.47435834    1.3256783    94087 
 4637000   0.09383236  -0.47012236   0.85167909  0.030663028  -0.47012236    1.3218015    93580 
 4638000  0.093243081  -0.46779216   0.85289168  0.030379739  -0.46779216    1.3206838    93071 
 4639000  0.092878531  -0.46865313   0.85361563  0.030423436  -0.46865313    1.3222688    92596 
 4640000  0.092271036  -0.46858393   0.85246924  0.030243549  -0.46858393    1.3210532    92075 
 4641000  0.091345325   -0.4643509    0.8505463   0.02994205   -0.4643509    1.3148972    91578 
 4642000  0.090831391  -0.46314235   0.85126058  0.029733615  -0.46314235    1.3144029    91097 
 4643000  0.090052089  -0.45879815   0.85140384  0.029748941  -0.45879815     1.310202    90605 
 4644000  0.089745708  -0.46123454   0.85160978  0.029353172  -0.46123454    1.3128443    90115 
 4645000  0.088985869  -0.45767255   0.85149467  0.028804093  -0.45767255    1.3091672    89603 
 4646000   0.08849689  -0.45748616   0.85152873    0.0288754  -0.45748616    1.3090149    89121 
 4647000  0.087663605  -0.45109826   0.85293632  0.028719528  -0.45109826    1.3040346    88619 
 4648000  0.087161723  -0.45377079   0.85043621  0.028478774  -0.45377079     1.304207    88100 
 4649000  0.086301723  -0.44893903   0.84990381  0.028533935  -0.44893903    1.2988428    87591 
 4650000  0.085869999  -0.45018908   0.84929232  0.028225606  -0.45018908    1.2994814    87110 
 4651000  0.085450002  -0.45174871   0.84858682  0.027947702  -0.45174871    1.3003355    86627 
 4652000  0.084834103  -0.44986543   0.84889379  0.027780691  -0.44986543    1.2987592    86107 
 4653000  0.084102464  -0.44829827   0.84658351  0.027080747  -0.44829827    1.2948818    85620 
 4654000  0.083473556  -0.44799582   0.84491942  0.027263326  -0.44799582    1.2929152    85109 
 4655000  0.082544282  -0.44359067   0.84286671  0.027308726  -0.44359067    1.2864574    84584 
 4656000  0.082141822   -0.4413797    0.8462494  0.026811972   -0.4413797    1.2876291    84095 
 4657000  0.081206025  -0.43802689   0.84279195  0.026707475  -0.43802689    1.2808188    83579 
 4658000  0.080764162  -0.44012979   0.84169486  0.027005752  -0.44012979    1.2818247    83059 
 4659000  0.080451911  -0.44135366   0.84340388  0.026487157  -0.44135366    1.2847575    82549 
 4660000  0.079662752  -0.43529866   0.84453101   0.02623228  -0.43529866    1.2798297    82054 
 4661000  0.079240875   -0.4366075   0.84388829  0.026328818   -0.4366075    1.2804958    81577 
 4662000  0.078613788  -0.43555434   0.84224832  0.025866564  -0.43555434    1.2778027    81102 
 4663000    0.0779125   -0.4318914   0.84225765  0.025400615   -0.4318914     1.274149    80609 
 4664000  0.077434052   -0.4323042   0.84192426  0.025653374   -0.4323042    1.2742285    80109 
 4665000  0.076902606  -0.42970851   0.84351485  0.025567572  -0.42970851    1.2732234    79622 
 4666000  0.076402668  -0.42896344   0.84399253  0.025545445  -0.42896344     1.272956    79121 
 4667000  0.075615937  -0.42620225   0.84159353  0.025339589  -0.42620225    1.2677958    78625 
 4668000  0.075076846  -0.42617866   0.84050493  0.025051063  -0.42617866    1.2666836    78133 
 4669000  0.074255357  -0.42171022   0.83913352  0.024713156  -0.42171022    1.2608437    77636 
 4670000  0.073637141  -0.41919844    0.8391224  0.024792674  -0.41919844    1.2583208    77144 
 4671000  0.073114768  -0.41612665   0.84130361  0.024449113  -0.41612665    1.2574303    76651 
 4672000  0.072718372  -0.41483095   0.84364643  0.024150034  -0.41483095    1.2584774    76172 
 4673000  0.072117157  -0.41357754   0.84244293  0.024247864  -0.41357754    1.2560205    75690 
 4674000  0.071409312  -0.41003712    0.8417258   0.02362987  -0.41003712    1.2517629    75202 
 4675000  0.070888991  -0.40969008   0.84158751  0.023618783  -0.40969008    1.2512776    74683 
 4676000  0.070040321  -0.40783172   0.83736927  0.023531512  -0.40783172     1.245201    74149 
 4677000  0.069696874  -0.40964049   0.83749421  0.023326813  -0.40964049    1.2471347    73671 
 4678000  0.069134296  -0.40628485   0.83894721  0.022941555  -0.40628485    1.2452321    73188 
 4679000  0.068662932  -0.40561373   0.83987531  0.022969823  -0.40561373     1.245489    72674 
 4680000  0.067970587  -0.40327345    0.8380436  0.022874553  -0.40327345     1.241317    72183 
 4681000  0.067346884  -0.39993608   0.83894971  0.022741448  -0.39993608    1.2388858    71661 
 4682000   0.06683074  -0.39968262   0.83832908  0.022465002  -0.39968262    1.2380117    71162 
 4683000  0.066262789  -0.39979056   0.83622832  0.022516573  -0.39979056    1.2360189    70671 
 4684000  0.065817425  -0.39827494   0.83804348   0.02198348  -0.39827494    1.2363184    70179 
 4685000  0.065240391  -0.39763561   0.83651353  0.021831502  -0.39763561    1.2341491    69686 
 4686000  0.064741308  -0.39572947   0.83754417  0.021693593  -0.39572947    1.2332736    69202 
 4687000  0.064289412  -0.39578278   0.83810077  0.021536216  -0.39578278    1.2338836    68685 
 4688000  0.063516555  -0.39203069    0.8356889   0.02152306  -0.39203069    1.2277196    68200 
 4689000   0.06289176  -0.38981177   0.83442948  0.021357525  -0.38981177    1.2242413    67721 
 4690000   0.06237418   -0.3884122   0.83491246   0.02079723   -0.3884122    1.2233247    67214 
 4691000  0.061875848  -0.38513568   0.83730897  0.021044236  -0.38513568    1.2224447    66725 
 4692000  0.061265105  -0.38477501   0.83531307  0.020595634  -0.38477501    1.2200881    66194 
 4693000  0.060744594  -0.38426945   0.83460429  0.020428452  -0.38426945    1.2188737    65697 
 4694000  0.060278306   -0.3832333   0.83509281  0.020475165   -0.3832333    1.2183261    65222 
 4695000   0.05955874  -0.37897718   0.83408619  0.020309092  -0.37897718    1.2130634    64723 
 4696000  0.059124839  -0.37574901   0.83764439  0.020328112  -0.37574901    1.2133934    64234 
 4697000   0.05874605  -0.37717619   0.83780639  0.019794265  -0.37717619    1.2149826    63739 
 4698000  0.057927442  -0.37197464   0.83509186  0.019735897  -0.37197464    1.2070665    63263 
 4699000  0.057466694  -0.37071861   0.83578681  0.019619265  -0.37071861    1.2065054    62789 
 4700000  0.056999249  -0.36564303   0.84059629  0.019363406  -0.36564303    1.2062393    62292 
 4701000  0.056500061  -0.36656942   0.83825446  0.019291477  -0.36656942    1.2048239    61819 
 4702000  0.055883325  -0.36514878   0.83588807  0.019155804  -0.36514878    1.2010369    61337 
 4703000  0.055209205  -0.36301004    0.8329957  0.019117245  -0.36301004    1.1960057    60852 
 4704000  0.054796754  -0.35846301   0.83796652  0.018903221  -0.35846301    1.1964295    60376 
 4705000  0.054278276  -0.35828881   0.83665678  0.018525876  -0.35828881    1.1949456    59879 
 4706000   0.05353258  -0.35492942   0.83390373  0.018216372  -0.35492942    1.1888332    59360 
 4707000  0.053187579  -0.35383883   0.83771055  0.018264156  -0.35383883    1.1915494    58843 
 4708000  0.052664788  -0.35330839     0.836314  0.018199232  -0.35330839    1.1896224    58359 
 4709000  0.052194059  -0.35317861   0.83591693   0.01850203  -0.35317861    1.1890955    57863 
 4710000  0.051629498  -0.35180752   0.83500966  0.017681629  -0.35180752    1.1868172    57347 
 4711000  0.051216978  -0.34932485   0.83813517  0.017910024  -0.34932485      1.18746    56858 
 4712000  0.050680568  -0.35098957   0.83424817   0.01737682  -0.35098957    1.1852377    56368 
 4713000  0.049968062  -0.34618897    0.8325066  0.017371884  -0.34618897    1.1786956    55884 
 4714000  0.049432035  -0.34631968   0.83013108  0.016896917  -0.34631968    1.1764508    55390 
 4715000  0.048875595  -0.34389782   0.83037648  0.017102159  -0.34389782    1.1742743    54868 
 4716000  0.048410903  -0.34149064   0.83184092  0.016851221  -0.34149064    1.1733316    54390 
 4717000  0.047845667    -0.341398    0.8290801  0.016502424    -0.341398    1.1704781    53886 
 4718000  0.047371675   -0.3392958   0.82995871  0.016350983   -0.3392958    1.1692545    53408 
 4719000  0.046828376    -0.339056   0.82806459  0.016315367    -0.339056    1.1671206    52892 
 4720000  0.046171289  -0.33545889    0.8265331  0.015869862  -0.33545889     1.161992    52380 
 4721000  0.045693017  -0.33305623   0.82715448  0.016049173  -0.33305623    1.1602107    51917 
 4722000  0.045300807  -0.33030799   0.83099397  0.016071085  -0.33030799     1.161302    51423 
 4723000  0.044712796  -0.32719784   0.82996664  0.015653014  -0.32719784    1.1571645    50937 
 4724000  0.044243485  -0.32285998   0.83277654  0.015753321  -0.32285998    1.1556365    50469 
 4725000  0.043896799  -0.32475745   0.83320387  0.015415955  -0.32475745    1.1579613    49973 
 4726000  0.043254769  -0.31978847   0.83251224  0.015384762  -0.31978847    1.1523007    49484 
 4727000  0.042725296  -0.31743596   0.83296482  0.014933156  -0.31743596    1.1504008    48959 
 4728000  0.042199442  -0.31504453   0.83306326  0.014929609  -0.31504453    1.1481078    48453 
 4729000  0.041755867   -0.3120485    0.8355253  0.014971404   -0.3120485    1.1475738    47966 
 4730000   0.04123193  -0.31026008   0.83475462  0.014716815  -0.31026008    1.1450147    47470 
 4731000  0.040690102  -0.30704203   0.83546546  0.014343276  -0.30704203    1.1425075    46949 
 4732000  0.040202949  -0.30451758    0.8360208   0.01429232  -0.30451758    1.1405384    46467 
 4733000  0.039632351  -0.30143628   0.83539179   0.01431043  -0.30143628    1.1368281    45957 
 4734000  0.039132032  -0.29829075   0.83673233  0.014028991  -0.29829075    1.1350231    45449 
 4735000  0.038757026  -0.29841069   0.83882195  0.013825444  -0.29841069    1.1372326    44926 
 4736000  0.038334243  -0.29896183   0.83819206   0.01376212  -0.29896183    1.1371539    44439 
 4737000  0.037784193  -0.29869272   0.83559585  0.013354942  -0.29869272    1.1342886    43912 
 4738000  0.037212711  -0.29250173   0.83726326   0.01346295  -0.29250173     1.129765    43421 
 4739000  0.036799225  -0.29024412   0.83961381  0.013133762  -0.29024412    1.1298579    42935 
 4740000  0.036244985  -0.28694887   0.83863298  0.013113495  -0.28694887    1.1255819    42449 
 4741000  0.035865191  -0.28868217    0.8383539  0.013057049  -0.28868217    1.1270361    41950 
 4742000  0.035356217  -0.28768589    0.8372196  0.012890665  -0.28768589    1.1249055    41433 
 4743000  0.034877393    -0.288103   0.83586418   0.01249809    -0.288103    1.1239672    40906 
 4744000  0.034194395  -0.28213831   0.83328882  0.012379772  -0.28213831    1.1154271    40412 
 4745000  0.033772904  -0.28045347   0.83566906  0.012170259  -0.28045347    1.1161225    39889 
 4746000  0.033452158  -0.27888777   0.84015684  0.012283626  -0.27888777    1.1190446    39407 
 4747000  0.033072481  -0.27659553   0.84362035  0.011900451  -0.27659553    1.1202159    38919 
 4748000  0.032467355  -0.27166033   0.84219724  0.011790518  -0.27166033    1.1138576    38425 
 4749000  0.031954585  -0.26894426   0.84247811  0.011659405  -0.26894426    1.1114224    37901 
 4750000  0.031443769  -0.26560973   0.84231099  0.011446826  -0.26560973    1.1079207    37413 
 4751000  0.031016173  -0.26141898   0.84617852  0.011534287  -0.26141898    1.1075975    36915 
 4752000  0.030497926  -0.25748397   0.84646967  0.010957165  -0.25748397    1.1039536    36418 
 4753000  0.029998938  -0.25618909   0.84475732  0.011085291  -0.25618909    1.1009464    35920 
 4754000  0.029433401  -0.25047866   0.84576586  0.010812034  -0.25047866    1.0962445    35394 
 4755000  0.028950167  -0.25064918   0.84345524  0.010521848  -0.25064918    1.0941044    34881 
 4756000  0.028494238  -0.24572716   0.84683913  0.010412061  -0.24572716    1.0925663    34380 
 4757000  0.028086831  -0.24373207   0.84955814  0.010373662  -0.24373207    1.0932902    33866 
 4758000  0.027644551  -0.24145263    0.8506488  0.010245526  -0.24145263    1.0921014    33369 
 4759000  0.027198698  -0.23804467   0.85292107  0.010012221  -0.23804467    1.0909657    32865 
 4760000  0.026769387    -0.233823   0.85661178  0.010066568    -0.233823    1.0904348    32362 
 4761000  0.026381399  -0.23290705    0.8582104 0.0097620562  -0.23290705    1.0911175    31873 
 4762000  0.025793887  -0.22727126   0.85599679 0.0095636794  -0.22727126     1.083268    31389 
 4763000   0.02548646  -0.22620933   0.86112154 0.0095570245  -0.22620933    1.0873309    30899 
 4764000  0.025007751  -0.22600883   0.85791242 0.0092142511  -0.22600883    1.0839212    30414 
 4765000  0.024432886  -0.22161156   0.85444639 0.0092784768  -0.22161156    1.0760579    29932 
 4766000  0.024098553  -0.22245733   0.85848566 0.0091655415  -0.22245733     1.080943    29389 
 4767000  0.023620041  -0.21720789   0.86008636  0.008972955  -0.21720789    1.0772943    28903 
 4768000  0.023154006  -0.21352563   0.86000728  0.008734865  -0.21352563    1.0735329    28432 
 4769000   0.02272284  -0.21025996   0.86156545 0.0086667919  -0.21025996    1.0718254    27947 
 4770000  0.022306609  -0.20771484   0.86119134 0.0084937622  -0.20771484    1.0689062    27510 
 4771000  0.021894109   -0.2059444   0.86241883  0.008169971   -0.2059444    1.0683632    27015 
 4772000  0.021410869   -0.1976988   0.86646452 0.0081596244   -0.1976988    1.0641633    26523 
 4773000  0.021018891  -0.19909488   0.86520869 0.0080309196  -0.19909488    1.0643036    26034 
 4774000  0.020673666  -0.19930189   0.86785247 0.0079403879  -0.19930189    1.0671544    25538 
 4775000  0.020242895  -0.19578523   0.86906415 0.0077686202  -0.19578523    1.0648494    25060 
 4776000  0.019887246  -0.19579095   0.87021534   0.00762496  -0.19579095    1.0660063    24593 
 4777000  0.019448373  -0.18940813   0.87083544 0.0074744546  -0.18940813    1.0602436    24181 
 4778000  0.019206692  -0.19159825   0.87361923 0.0073153475  -0.19159825    1.0652175    23769 
 4779000  0.018784888   -0.1855081   0.87355924 0.0072327863   -0.1855081    1.0590673    23382 
 4780000  0.018323138   -0.1819085   0.86906014 0.0070241406   -0.1819085    1.0509686    22983 
 4781000  0.018016291  -0.18199441   0.86991066 0.0068956598  -0.18199441    1.0519051    22578 
 4782000  0.017726225  -0.17859659   0.87342637 0.0067958316  -0.17859659     1.052023    22212 
 4783000  0.017362558    -0.177678   0.87247715 0.0066760429    -0.177678    1.0501552    21795 
 4784000  0.017018791  -0.16962778    0.8775605 0.0067260665  -0.16962778    1.0471883    21424 
 4785000   0.01665319  -0.16614386   0.87834227 0.0065840236  -0.16614386    1.0444861    21018 
 4786000  0.016437605  -0.16755905   0.88315206 0.0064254125  -0.16755905    1.0507111    20623 
 4787000  0.016193697  -0.16621082   0.88719577 0.0063297381  -0.16621082    1.0534066    20265 
 4788000  0.015720077  -0.16196094    0.8828052 0.0061586577  -0.16196094    1.0447661    19835 
 4789000  0.015467954  -0.15745495   0.88902059 0.0060990737  -0.15745495    1.0464755    19485 
 4790000  0.015222065  -0.15504384    0.8921555 0.0059016505  -0.15504384    1.0471993    19162 
 4791000  0.014943126  -0.15383679   0.89068959 0.0058883439  -0.15383679    1.0445264    18859 
 4792000  0.014563183   -0.1485125   0.88876139   0.00571393   -0.1485125    1.0372739    18508 
 4793000  0.014392657  -0.15003213   0.89508577 0.0056864953  -0.15003213    1.0451179    18154 
 4794000  0.014190852  -0.14786569   0.90050018 0.0055528577  -0.14786569    1.0483659    17844 
 4795000  0.013864857  -0.14536138   0.89947364 0.0054330994  -0.14536138     1.044835    17493 
 4796000  0.013544501  -0.14833215   0.89386904 0.0053398341  -0.14833215    1.0422012    17132 
 4797000  0.013289422  -0.14549671   0.89728506 0.0052563605  -0.14549671    1.0427818    16800 
 4798000  0.013004199  -0.14132124   0.89965153 0.0051125376  -0.14132124    1.0409728    16468 
 4799000   0.01278194  -0.13723706   0.90634945 0.0050558439  -0.13723706    1.0435865    16146 
 4800000  0.012500949  -0.13484579   0.90354947 0.0049900337  -0.13484579    1.0383953    15870 
 4801000  0.012188086  -0.13381978   0.89855837 0.0049230791  -0.13381978    1.0323781    15563 
 4802000  0.012007179  -0.13347518   0.90289108 0.0048283731  -0.13347518    1.0363663    15273 
 4803000  0.011718004  -0.13055647    0.9002889 0.0046358582  -0.13055647    1.0308454    14985 
 4804000  0.011486087   -0.1287116   0.90279556 0.0046670249   -0.1287116    1.0315072    14679 
 4805000  0.011226137  -0.12257452   0.90497829 0.0045617647  -0.12257452    1.0275528    14402 
 4806000  0.011028989  -0.12447536   0.90482913 0.0044819733  -0.12447536    1.0293045    14125 
 4807000  0.010813821  -0.12385981   0.90636937 0.0043272567  -0.12385981    1.0302292    13837 
 4808000  0.010609831  -0.12073543   0.90926477 0.0043255788  -0.12073543    1.0300002    13579 
 4809000   0.01038087  -0.11990794   0.90838669 0.0042032615  -0.11990794    1.0282946    13308 
 4810000  0.010215795  -0.11671733   0.91436272 0.0040861857  -0.11671733      1.03108    13061 
 4811000  0.010041754  -0.11655699   0.91867467 0.0041106359  -0.11655699    1.0352317    12787 
 4812000 0.0097472027  -0.11446832   0.91174491 0.0040595192  -0.11446832    1.0262132    12521 
 4813000 0.0095963592  -0.11332874   0.91607699 0.0039129531  -0.11332874    1.0294057    12289 
 4814000 0.0094513198  -0.11392959    0.9189121 0.0038203099  -0.11392959    1.0328417    12063 
 4815000 0.0092470197  -0.11152628   0.92011314 0.0037867237  -0.11152628    1.0316394    11816 
 4816000 0.0090140661  -0.10944812   0.91749519 0.0037369954  -0.10944812    1.0269433    11571 
 4817000 0.0088006581  -0.10372755   0.92059143 0.0036381001  -0.10372755     1.024319    11326 
 4818000 0.0086136156 -0.097676382   0.92787172 0.0035341595 -0.097676382    1.0255481    11072 
 4819000 0.0084050998 -0.097380526   0.92541957 0.0034155587 -0.097380526    1.0228001    10833 
 4820000  0.008177949  -0.09375935   0.92308206  0.003344694  -0.09375935    1.0168414    10602 
 4821000 0.0080214518 -0.091435444   0.92894966  0.003329075 -0.091435444    1.0203851    10363 
 4822000  0.007795224 -0.090399352   0.92341544 0.0032481103 -0.090399352    1.0138148    10136 
 4823000 0.0076203071 -0.087932352   0.92125423 0.0031756032 -0.087932352    1.0091866     9954 
 4824000 0.0074275217 -0.088921546   0.91810349 0.0030137129 -0.088921546     1.007025     9723 
 4825000 0.0073129544 -0.084245442   0.92732607 0.0030376786 -0.084245442    1.0115715     9530 
 4826000 0.0071353339 -0.082433728   0.92540179 0.0029837598 -0.082433728    1.0078355     9333 
 4827000 0.0069786605 -0.080954747   0.92655755 0.0028397201 -0.080954747    1.0075123     9131 
 4828000 0.0068397837 -0.082056744   0.92492572 0.0027993008 -0.082056744    1.0069825     8954 
 4829000 0.0066561819 -0.081762455   0.91863528 0.0027553674 -0.081762455    1.0003977     8771 
 4830000  0.006521807 -0.077351619   0.92071539  0.002704036 -0.077351619   0.99806701     8614 
 4831000 0.0064463919 -0.075404022   0.92991168 0.0026874173 -0.075404022    1.0053157     8453 
 4832000 0.0062707208 -0.070647124   0.93024351 0.0026140412 -0.070647124    1.0008906     8259 
 4833000 0.0061984131 -0.071829676   0.93334148 0.0025744493 -0.071829676    1.0051712     8129 
 4834000 0.0060929634 -0.071224124   0.93643209 0.0025724533 -0.071224124    1.0076562     7971 
 4835000 0.0060222203 -0.071877549   0.94266186 0.0025040535 -0.071877549    1.0145394     7825 
 4836000 0.0058801368 -0.067032509    0.9427994 0.0024500646 -0.067032509    1.0098319     7676 
 4837000 0.0057624596 -0.064208402   0.94688466 0.0024141741 -0.064208402    1.0110931     7513 
 4838000 0.0056343704 -0.064663631    0.9454668 0.0023309434 -0.064663631    1.0101304     7353 
 4839000 0.0055320305 -0.062888547   0.94618574  0.002328198 -0.062888547    1.0090743     7227 
 4840000 0.0054300586 -0.063528925   0.94494611 0.0022618712 -0.063528925     1.008475     7098 
 4841000  0.005246633  -0.06014229   0.93688173 0.0022010794  -0.06014229   0.99702402     6937 
 4842000 0.0051027976 -0.057680996   0.93461065 0.0021572816 -0.057680996   0.99229165     6779 
 4843000 0.0050379183 -0.058668412   0.93836178 0.0021398141 -0.058668412   0.99703019     6661 
 4844000 0.0049409061 -0.061058887   0.93379863 0.0020446352 -0.061058887   0.99485752     6547 
 4845000 0.0047921403 -0.053653994   0.93064364  0.002000887 -0.053653994   0.98429763     6418 
 4846000 0.0047613628  -0.05594005   0.94066996 0.0019933435  -0.05594005   0.99661001     6298 
 4847000 0.0046478616 -0.055284635   0.94049421 0.0019499398 -0.055284635   0.99577885     6153 
 4848000 0.0044995338 -0.052724205   0.93142954  0.001895242 -0.052724205   0.98415375     6027 
 4849000 0.0043997174 -0.051831757   0.93270603 0.0018497231 -0.051831757   0.98453778     5891 
 4850000  0.004292284 -0.049268049   0.93069183  0.001820982 -0.049268049   0.97995987     5774 
 4851000   0.00428096 -0.048436326   0.94651441 0.0018211123 -0.048436326   0.99495073     5672 
 4852000 0.0041344271 -0.048582213   0.93078779 0.0017851673 -0.048582213      0.97937     5565 
 4853000 0.0040901857 -0.049016126   0.93941156 0.0017594759 -0.049016126   0.98842769     5455 
 4854000 0.0040055865   -0.0504317   0.93691879 0.0016697263   -0.0504317   0.98735049     5348 
 4855000 0.0039300834  -0.04755533   0.93983151 0.0016649702  -0.04755533   0.98738684     5247 
 4856000 0.0038743104 -0.048419014   0.94637961 0.0016504977 -0.048419014   0.99479863     5134 
 4857000 0.0037895484 -0.042616979   0.95310934 0.0016144233 -0.042616979   0.99572632     5017 
 4858000   0.00369576 -0.047889416   0.94233879 0.0015622356 -0.047889416    0.9902282     4920 
 4859000 0.0036043208 -0.044092306   0.94433775 0.0015250653 -0.044092306   0.98843005     4807 
 4860000 0.0035115807 -0.038764646    0.9409452 0.0015097567 -0.038764646   0.97970984     4725 
 4861000 0.0034569635 -0.041659655   0.94473214 0.0014638397 -0.041659655   0.98639179     4620 
 4862000 0.0034347566 -0.038319989   0.96054519  0.001480742 -0.038319989   0.99886518     4533 
 4863000   0.00333519  -0.03609537   0.95190522 0.0014261412  -0.03609537   0.98800059     4450 
 4864000 0.0032728604 -0.038933847   0.95061586 0.0014089989 -0.038933847   0.98954971     4360 
 4865000 0.0031746416 -0.036520426   0.94609526 0.0013787753 -0.036520426   0.98261569     4259 
 4866000 0.0031120457 -0.034602015     0.944969 0.0013459072 -0.034602015   0.97957101     4188 
 4867000 0.0030725455 -0.036318965   0.94989294 0.0013138371 -0.036318965   0.98621191     4107 
 4868000 0.0030175145 -0.031702103   0.95437323 0.0013040982 -0.031702103   0.98607533     4034 
 4869000 0.0029461332 -0.034405445   0.94956459 0.0012780545 -0.034405445   0.98397003     3947 
 4870000 0.0028745385 -0.032869519   0.94477504  0.001221788 -0.032869519   0.97764456     3876 
 4871000 0.0028510797 -0.032598152   0.95542125 0.0012276527 -0.032598152   0.98801941     3804 
 4872000 0.0027883009 -0.029766142    0.9525075 0.0011840464 -0.029766142   0.98227364     3742 
 4873000 0.0027412203 -0.031600034   0.95276501 0.0011749895 -0.031600034   0.98436504     3671 
 4874000 0.0027130921 -0.029065029   0.96468996 0.0011622748 -0.029065029   0.99375499     3599 
 4875000 0.0026363451 -0.029028265   0.95828784 0.0011491695 -0.029028265    0.9873161     3520 
 4876000  0.002609379 -0.027819771   0.96634343 0.0011265511 -0.027819771    0.9941632     3460 
 4877000 0.0025648851 -0.033066793   0.95818235 0.0010877106 -0.033066793   0.99124914     3411 
 4878000 0.0025166957 -0.031217846   0.95941376 0.0010777621 -0.031217846   0.99063161     3349 
 4879000 0.0024611739 -0.031294682   0.95605585 0.0010407867 -0.031294682   0.98735053     3286 
 4880000 0.0024259866 -0.031504699   0.96384181 0.0010333837 -0.031504699   0.99534651     3213 
 4881000 0.0023290176 -0.031349866    0.9454937 0.0010026024 -0.031349866   0.97684357     3143 
 4882000 0.0022835411 -0.032467548   0.94204525 0.00097447619 -0.032467548    0.9745128     3089 
 4883000 0.0022642864 -0.029201285   0.95331604 0.00097869177 -0.029201285   0.98251732     3038 
 4884000 0.0022079999  -0.02917441   0.94593049 0.00094467099  -0.02917441    0.9751049     2985 
 4885000 0.0021295287 -0.025527396   0.93388604 0.00091335589 -0.025527396   0.95941343     2926 
 4886000 0.0021201649 -0.025167348   0.94697177 0.0009071933 -0.025167348   0.97213912     2875 
 4887000  0.002091091 -0.025186286   0.95301575 0.00090656374 -0.025186286   0.97820204     2818 
 4888000 0.0020412772 -0.023910092   0.94648534 0.00088511757 -0.023910092   0.97039543     2773 
 4889000 0.0019877494  -0.02366941   0.94431865 0.00085660958  -0.02366941   0.96798806     2707 
 4890000 0.0019415915 -0.023941591   0.93538982 0.00084345961 -0.023941591   0.95933141     2668 
 4891000 0.0019242011  -0.02595726   0.94330962 0.00083435919  -0.02595726   0.96926688     2617 
 4892000 0.0019088509 -0.025433616   0.94838063 0.00081962685 -0.025433616   0.97381425     2584 
 4893000 0.0018858038   -0.0261409   0.95489868 0.00081060456   -0.0261409   0.98103958     2534 
 4894000  0.001846245 -0.023622167   0.95854328 0.00078956501 -0.023622167   0.98216544     2478 
 4895000  0.001792863 -0.023477354   0.94593829 0.00078841485 -0.023477354   0.96941565     2438 
 4896000 0.0017918583 -0.021288508   0.96169564 0.00077388571 -0.021288508   0.98298415     2403 
 4897000 0.0017679709 -0.019625376   0.96667232 0.00077132911 -0.019625376   0.98629769     2363 
 4898000 0.0017163081 -0.018397664   0.95556581 0.00073915142 -0.018397664   0.97396347     2323 
 4899000 0.0016803189 -0.018580294    0.9542236 0.00072952964 -0.018580294   0.97280389     2277 
 4900000 0.0016368813 -0.018065543   0.94053643 0.00071090576 -0.018065543   0.95860197     2251 
 4901000 0.0016304325 -0.018218099   0.95256415 0.00070604042 -0.018218099   0.97078225     2214 
 4902000 0.0015846733 -0.016141168   0.94564062 0.00068657269 -0.016141168   0.96178179     2172 
 4903000  0.001560006 -0.015558332   0.94766063 0.0006725252 -0.015558332   0.96321896     2135 
 4904000 0.0015409023  -0.01711301   0.94924717 0.00066318319  -0.01711301   0.96636018     2102 
 4905000 0.0015183538 -0.013872229   0.95353452 0.00066003152 -0.013872229   0.96740675     2069 
 4906000 0.0014947351 -0.014469703   0.95190076 0.00064616499 -0.014469703   0.96637046     2039 
 4907000 0.0014560058 -0.013766639   0.94832583 0.00063182546 -0.013766639   0.96209247     1995 
 4908000 0.0014239539 -0.016458364   0.93930654 0.00062295051 -0.016458364    0.9557649     1964 
 4909000 0.0014096467 -0.015025251   0.94930367 0.0006114627 -0.015025251   0.96432892     1927 
 4910000  0.001383002  -0.01457377   0.94094907 0.0005923973  -0.01457377   0.95552284     1908 
 4911000 0.0013486014 -0.012668783   0.93548541 0.00058177946 -0.012668783    0.9481542     1875 
 4912000 0.0013399468 -0.013722102   0.94211133 0.0005831464 -0.013722102   0.95583343     1848 
 4913000 0.0013076823 -0.015995031   0.93904519 0.00056730824 -0.015995031   0.95504022     1805 
 4914000 0.0013009944 -0.012672798   0.95191174 0.00056328778 -0.012672798   0.96458454     1778 
 4915000 0.0012781267 -0.015981122   0.94297506 0.00054933859 -0.015981122   0.95895618     1757 
 4916000 0.0012591484 -0.013106362   0.94029284 0.00055334892 -0.013106362   0.95339921     1741 
 4917000 0.0012484556 -0.013895837    0.9491072 0.00055425057 -0.013895837   0.96300303     1709 
 4918000 0.0012352327  -0.01382637   0.95197507 0.00053770977  -0.01382637   0.96580144     1686 
 4919000  0.001218643 -0.010562081   0.95024647 0.00053446544 -0.010562081   0.96080855     1672 
 4920000 0.0012026312  -0.01333875   0.95571041 0.00053144943  -0.01333875   0.96904916     1636 
 4921000  0.001163269 -0.013741489   0.93872763 0.0005035626 -0.013741489   0.95246912     1610 
 4922000 0.0011544075 -0.013938152    0.9473971 0.00050128124 -0.013938152   0.96133525     1583 
 4923000 0.0011038606 -0.016163974   0.92813214 0.00047740138 -0.016163974   0.94429612     1541 
 4924000 0.0010983169 -0.014941248   0.93947691 0.00047468824 -0.014941248   0.95441816     1517 
 4925000 0.0010898783 -0.013069708   0.94602789 0.00047790164 -0.013069708    0.9590976     1498 
 4926000 0.0010550216 -0.012286483   0.93964951 0.00045696208 -0.012286483   0.95193599     1461 
 4927000 0.0010399689 -0.014991913   0.93837068 0.00044808718 -0.014991913   0.95336259     1438 
 4928000 0.0010321036 -0.011427783   0.94068342 0.00044701578 -0.011427783    0.9521112     1429 
 4929000 0.0010173158 -0.012097074   0.94036949 0.00043589678 -0.012097074   0.95246657     1408 
 4930000  0.001001061 -0.014207392   0.94136476 0.00043182687 -0.014207392   0.95557215     1381 
 4931000 0.00098642293 -0.015360508   0.94218631 0.00043183956 -0.015360508   0.95754682     1358 
 4932000 0.00096988847 -0.015511759   0.94508334 0.00041843821 -0.015511759    0.9605951     1331 
 4933000 0.00094874247 -0.012834252   0.93752778 0.00040819125 -0.012834252   0.95036204     1316 
 4934000 0.00092991619 -0.012595955   0.93037232 0.00040442193 -0.012595955   0.94296828     1300 
 4935000 0.00092265332 -0.013025055   0.93202895 0.00039896633 -0.013025055   0.94505401     1287 
 4936000 0.00089752935 -0.015603572    0.9316862 0.00038482415 -0.015603572   0.94728977     1249 
 4937000 0.00087505486  -0.01355667   0.92964694 0.00038442617  -0.01355667   0.94320361     1223 
 4938000 0.00085291433 -0.0088719167    0.9249747 0.0003816076 -0.0088719167   0.93384662     1204 
 4939000 0.00083284708 -0.012933823   0.91356216 0.00036067258 -0.012933823   0.92649599     1185 
 4940000 0.00083160929 -0.016736121    0.9202434 0.00035794342 -0.016736121   0.93697952     1170 
 4941000 0.00079456244 -0.011993279   0.89723342 0.00034113067 -0.011993279    0.9092267     1152 
 4942000 0.00078885593 -0.013543119   0.89865563 0.00034191953 -0.013543119   0.91219875     1140 
 4943000 0.00077918807 -0.0093466509   0.90776223 0.00033836768 -0.0093466509   0.91710888     1120 
 4944000 0.00077736393 -0.009690078   0.91685358 0.00033619659 -0.009690078   0.92654365     1106 
 4945000 0.00075137013 -0.012620166   0.89692166 0.00032848898 -0.012620166   0.90954182     1089 
 4946000 0.0007275689 -0.010146253   0.89382656 0.00031866342 -0.010146253   0.90397281     1061 
 4947000 0.00074200127 -0.011730954   0.92071955 0.00031699938 -0.011730954    0.9324505     1049 
 4948000 0.00073736144 -0.013062215   0.91888806 0.00031784913 -0.013062215   0.93195028     1043 
 4949000 0.00073350419 -0.013632145   0.92423335 0.00031683327 -0.013632145    0.9378655     1031 
 4950000 0.00071635443 -0.0097024305   0.91975792 0.00030945469 -0.0097024305   0.92946035     1016 
 4951000 0.00070086813 -0.0089862251   0.91957353 0.00030176275 -0.0089862251   0.92855976      995 
 4952000 0.00067714434 -0.010904514   0.90745265 0.00029399357 -0.010904514   0.91835716      972 
 4953000 0.00065933504 -0.010122144   0.89904743 0.00028770654 -0.010122144   0.90916957      956 
 4954000 0.00064965221 -0.010843575   0.89158187 0.00028243525 -0.010843575   0.90242544      949 
 4955000 0.00065535263 -0.010832234   0.90822767 0.00028215753 -0.010832234    0.9190599      940 
 4956000 0.00066024833 -0.010270321   0.93578409 0.00028656485 -0.010270321   0.94605441      920 
 4957000 0.00062448583 -0.0093631822    0.9002791 0.00027365616 -0.0093631822   0.90964228      905 
 4958000 0.00062626233 -0.010667692   0.92007427 0.00027614385 -0.010667692   0.93074197      887 
 4959000 0.00060337266 -0.010578274   0.90683107 0.00026155787 -0.010578274   0.91740935      867 
 4960000 0.00059906943 -0.0092452778     0.905843 0.00026090003 -0.0092452778   0.91508828      863 
 4961000 0.00060055027 -0.011322595   0.92446143 0.00025959853 -0.011322595   0.93578403      846 
 4962000 0.00061074202 -0.012023472   0.94416243 0.00026706339 -0.012023472    0.9561859      842 
 4963000 0.0006127983 -0.010494465    0.9674949 0.00026536193 -0.010494465   0.97798936      826 
 4964000 0.00058596146   -0.0110849   0.93786061 0.00025410378   -0.0110849   0.94894551      814 
 4965000 0.0005969306 -0.011594348   0.96229386 0.00026115722 -0.011594348    0.9738882      808 
 4966000 0.00058720205 -0.012872732   0.96449728 0.00025852185 -0.012872732   0.97737001      792 
 4967000 0.0005749606 -0.0092114325   0.94899311  0.000249463 -0.0092114325   0.95820454      791 
 4968000 0.00056819493 -0.010542962   0.95593572 0.00025272293 -0.010542962   0.96647868      775 
 4969000 0.00057937254 -0.012152229   0.97845195 0.00025047509 -0.012152229   0.99060417      771 
 4970000 0.00059242364  -0.01279032    1.0067402 0.00025799487  -0.01279032    1.0195305      766 
 4971000 0.00056590496 -0.0085444514   0.97692745 0.00024603775 -0.0085444514   0.98547191      757 
 4972000 0.00056647693 -0.010906691   0.99958889 0.00024661862 -0.010906691    1.0104956      739 
 4973000 0.0005716675 -0.010061335    1.0208534 0.00024992921 -0.010061335    1.0309148      731 
 4974000 0.00053015832 -0.0089616544   0.96986097 0.00023053014 -0.0089616544   0.97882263      714 
 4975000 0.00053165182 -0.010419801   0.97253693 0.00023309211 -0.010419801   0.98295673      713 
 4976000 0.00055475755 -0.012373181    1.0090056 0.00023973133 -0.012373181    1.0213788      716 
 4977000 0.00054078771   -0.0133312    1.0036324 0.00023874955   -0.0133312    1.0169636      701 
 4978000 0.00051858329 -0.010598226   0.96460949 0.00022750994 -0.010598226   0.97520772      701 
 4979000 0.00052987131 -0.014113112   0.99820718 0.00022985656 -0.014113112    1.0123203      690 
 4980000 0.00052331851 -0.011334048   0.99576492 0.00022960173 -0.011334048     1.007099      685 
 4981000 0.00050960448 -0.0098349862   0.98984406 0.00022265766 -0.0098349862   0.99967905      672 
 4982000 0.00051290443 -0.012380221    1.0043633 0.00022426037 -0.012380221    1.0167436      665 
 4983000 0.00049979389 -0.012831047   0.99458723 0.00021799809 -0.012831047    1.0074183      654 
 4984000 0.00049357965 -0.016435812   0.98922052 0.00021228555 -0.016435812    1.0056563      647 
 4985000 0.00049818663 -0.014040619    1.0137102 0.00022180119 -0.014040619    1.0277508      639 
 4986000 0.00048070215 -0.012645146   0.99001929 0.0002078225 -0.012645146    1.0026644      632 
 4987000 0.00048034048 -0.012785325    1.0085165 0.00020780279 -0.012785325    1.0213019      620 
 4988000 0.00048333704 -0.012505927    1.0235223 0.00021041323 -0.012505927    1.0360282      615 
 4989000 0.00049223759 -0.013658408    1.0535957 0.00021560041 -0.013658408    1.0672541      608 
 4990000 0.00047375839 -0.0086359972    1.0374785 0.00020489874 -0.0086359972    1.0461145      597 
 4991000 0.0004691326 -0.0090727466    1.0373442 0.00020337495 -0.0090727466    1.0464169      591 
 4992000 0.00047279176 -0.012770029    1.0562798 0.00020617825 -0.012770029    1.0690499      583 
 4993000 0.00047033492 -0.012806729     1.058035 0.00020477247 -0.012806729    1.0708417      579 
 4994000 0.0004489985 -0.011004384    1.0403113 0.00019526625 -0.011004384    1.0513156      563 
 4995000 0.00042900511 -0.011000609    1.0098198 0.00018450127 -0.011000609    1.0208204      554 
 4996000 0.00044058158 -0.012588752     1.058989 0.0001901857 -0.012588752    1.0715777      542 
 4997000 0.00044069468 -0.0099113239    1.0502059 0.00019201694 -0.0099113239    1.0601172      548 
 4998000 0.00043507731 -0.012695599    1.0613477 0.00018810571 -0.012695599    1.0740433      534 
 4999000 0.00044515909 -0.014251048    1.0846804 0.00019529783 -0.014251048    1.0989315      534 
 5000000 0.00043058044 -0.012181523     1.052755 0.00018736197 -0.012181523    1.0649365      533 
 5001000 0.00041656683 -0.012526478    1.0374501 0.00018525128 -0.012526478    1.0499766      523 
 5002000 0.00041491662 -0.012412345    1.0517168 0.00017896656 -0.012412345    1.0641291      514 
 5003000 0.00041175783 -0.012988576    1.0450978 0.00017806745 -0.012988576    1.0580864      513 
 5004000 0.00039722166 -0.012741779      1.03244 0.00017311302 -0.012741779    1.0451818      501 
 5005000 0.00039437285 -0.013684198     1.026077 0.00016988839 -0.013684198    1.0397612      500 
 5006000 0.00038001651 -0.014240092    1.0186577 0.00016275504 -0.014240092    1.0328978      485 
 5007000 0.00037858539 -0.013077459    1.0244878 0.00016790998 -0.013077459    1.0375652      481 
 5008000 0.00035130702 -0.014251811   0.98598415 0.00015284164 -0.014251811     1.000236      463 
 5009000 0.00034943838 -0.013931514   0.98965437 0.00015024124 -0.013931514    1.0035859      459 
 5010000 0.00034186671  -0.01344758   0.97485198 0.0001506982  -0.01344758   0.98829956      456 
 5011000 0.00034867884 -0.012489771    1.0157981 0.00014948196 -0.012489771    1.0282878      447 
 5012000 0.0003415426 -0.0098988494    1.0110475 0.00014694275 -0.0098988494    1.0209463      441 
 5013000 0.00032859756 -0.011946792   0.97253636 0.00014219551 -0.011946792   0.98448315      440 
 5014000 0.0003258546 -0.014402468   0.95964898 0.00014390363 -0.014402468   0.97405145      441 
 5015000 0.00033943526 -0.018065422    1.0035312 0.00014659442 -0.018065422    1.0215967      438 
 5016000 0.00033731972   -0.0137921    1.0131607 0.00014931539   -0.0137921    1.0269528      433 
 5017000 0.00032546428 -0.011057589   0.99372494 0.00014058637 -0.011057589    1.0047825      427 
 5018000 0.00033251314 -0.010938759    1.0108195 0.00014351831 -0.010938759    1.0217582      429 
 5019000 0.00031539387 -0.013568295   0.98827958 0.00013571534 -0.013568295    1.0018479      415 
 5020000 0.00031915365 -0.013739159    1.0025004 0.00013932023 -0.013739159    1.0162396      414 
 5021000 0.00031487058 -0.014522626   0.99050653 0.00013832317 -0.014522626    1.0050292      413 
 5022000 0.00031533364 -0.015576445    1.0057687 0.00013504943 -0.015576445    1.0213451      407 
 5023000 0.00032068978 -0.013878801    1.0147056 0.00013988565 -0.013878801    1.0285844      411 
 5024000 0.00030759839 -0.012289599   0.99139976 0.00013321151 -0.012289599    1.0036894      404 
 5025000 0.00030885979 -0.012881305     1.005002 0.00013343167 -0.012881305    1.0178833      400 
 5026000 0.00031401967  -0.01520046    1.0145392 0.00013518929  -0.01520046    1.0297396      402 
 5027000 0.00030788989 -0.012773708    1.0121626 0.00013498143 -0.012773708    1.0249363      396 
 5028000 0.00030295561 -0.016040974    1.0079851 0.00013133059 -0.016040974    1.0240261      390 
 5029000 0.00031020184 -0.014659637     1.036555 0.00013284494 -0.014659637    1.0512146      389 
 5030000 0.00029829539 -0.015901715    1.0271403 0.00012865245 -0.015901715     1.043042      377 
 5031000 0.00029747205 -0.014027613     1.034479 0.00012872858 -0.014027613    1.0485067      374 
 5032000 0.00029486715 -0.014742993    1.0560768 0.00012672628 -0.014742993    1.0708198      363 
 5033000 0.00029335181 -0.013457074    1.0577618 0.00013134627 -0.013457074    1.0712188      361 
 5034000 0.00028233452 -0.016896843    1.0285708 0.00012270594 -0.016896843    1.0454677      356 
 5035000 0.00027663692 -0.012066201    1.0328497 0.00012009139 -0.012066201    1.0449159      349 
 5036000 0.00028107012 -0.010772193    1.0539396 0.00012231916 -0.010772193    1.0647118      348 
 5037000 0.00028630268 -0.014609684    1.0793541 0.00012248895 -0.014609684    1.0939638      345 
 5038000 0.00026883324 -0.017207317    1.0312793 0.0001170369 -0.017207317    1.0484866      338 
 5039000 0.0002771358 -0.016230885    1.0582788 0.00012326688 -0.016230885    1.0745097      340 
 5040000 0.00027670111 -0.014723152    1.0741135 0.0001209926 -0.014723152    1.0888366      335 
 5041000 0.00027351768 -0.012605397    1.0637042 0.00011772045 -0.012605397    1.0763096      335 
 5042000 0.00028233116 -0.015522294    1.0954689 0.00012110648 -0.015522294    1.1109912      335 
 5043000 0.00028347051 -0.013406222    1.0954484 0.00012271526 -0.013406222    1.1088546      337 
 5044000 0.00027829755 -0.014757985     1.086938 0.0001209431 -0.014757985     1.101696      333 
 5045000 0.00027585422 -0.015460472    1.0932098 0.00011982551 -0.015460472    1.1086703      328 
 5046000 0.00027912735 -0.013301302    1.1119545 0.00012085931 -0.013301302    1.1252558      327 
 5047000 0.00026893357 -0.014824421    1.1000207 0.00011733324 -0.014824421    1.1148451      318 
 5048000 0.00025661714 -0.015435462     1.058484 0.00011232579 -0.015435462    1.0739195      315 
 5049000 0.00024993017 -0.017241007    1.0421467 0.00010839626 -0.017241007    1.0593877      311 
 5050000 0.00024861436 -0.020810153     1.039821 0.00010700207 -0.020810153    1.0606311      309 
 5051000 0.00024138995 -0.014808654    1.0285076 0.00010336983 -0.014808654    1.0433163      305 
 5052000 0.00024495153 -0.013092942    1.0387198 0.00010656568 -0.013092942    1.0518127      307 
 5053000 0.00023593463 -0.017180206    1.0161088 0.00010090648 -0.017180206     1.033289      301 
 5054000 0.00022323731 -0.012562767   0.98839573 9.632816e-05 -0.012562767    1.0009585      294 
 5055000 0.00022900694 -0.018890573        1.001 9.8493462e-05 -0.018890573    1.0198905      296 
 5056000 0.00023151295 -0.017943704    1.0201214 0.00010386354 -0.017943704    1.0380651      294 
 5057000 0.00022774951 -0.019465193    1.0052106 9.9381614e-05 -0.019465193    1.0246757      293 
 5058000 0.00021825627 -0.015905534   0.98310682 9.3793809e-05 -0.015905534   0.99901236      288 
 5059000 0.0002238935 -0.014703559    1.0319164 9.6301873e-05 -0.014703559    1.0466199      282 
 5060000 0.00022146203 -0.013443094   0.99325191 9.5028137e-05 -0.013443094     1.006695      290 
 5061000 0.00021929876 -0.011693795    1.0134474 9.4966458e-05 -0.011693795    1.0251412      282 
 5062000 0.00021521991 -0.012422046   0.98656704 9.3180392e-05 -0.012422046   0.99898908      284 
 5063000 0.00022218708   -0.0123441    1.0299952 9.5538611e-05   -0.0123441    1.0423393      281 
 5064000 0.00021605304 -0.012081611     1.012419 9.3679082e-05 -0.012081611    1.0245006      278 
 5065000 0.00021782849 -0.015363153    1.0212854 9.4428901e-05 -0.015363153    1.0366485      277 
 5066000 0.00021669563 -0.013425344    1.0406642 9.427585e-05 -0.013425344    1.0540895      271 
 5067000 0.00022664802 -0.012031966    1.0665888 9.7730107e-05 -0.012031966    1.0786208      277 
 5068000 0.00023421178 -0.011975136     1.110748 0.00010074118 -0.011975136    1.1227231      275 
 5069000 0.0002192635 -0.013516876    1.0772127 9.4054915e-05 -0.013516876    1.0907296      265 
 5070000 0.00023185773 -0.014159178    1.1348846 9.9391514e-05 -0.014159178    1.1490438      266 
 5071000 0.00023567077 -0.012503434    1.1424117 0.00010329441 -0.012503434    1.1549151      269 
 5072000 0.00023813473 -0.010166318     1.161178 0.0001030423 -0.010166318    1.1713443      268 
 5073000 0.00022917339 -0.0087181956    1.1313083 9.939138e-05 -0.0087181956    1.1400265      265 
 5074000 0.00022732693 -0.0073884015    1.1451998 0.00010381152 -0.0073884015    1.1525882      260 
 5075000 0.0002241094 -0.010877919    1.1342051 9.7207679e-05 -0.010877919    1.1450831      258 
 5076000 0.00022657727 -0.010736859    1.1560002 9.9254753e-05 -0.010736859    1.1667371      256 
 5077000 0.00021352129 -0.0098755092    1.1205409 9.2668925e-05 -0.0098755092    1.1304164      249 
 5078000 0.00020288281 -0.0094243861    1.0690012 8.8089993e-05 -0.0094243861    1.0784256      248 
 5079000 0.00021097445 -0.0099163644    1.0981168 9.1647193e-05 -0.0099163644    1.1080332      251 
 5080000 0.00020205715 -0.011362039    1.0714068 8.8511216e-05 -0.011362039    1.0827688      246 
 5081000 0.00020403461 -0.011059672     1.064812 8.9056259e-05 -0.011059672    1.0758717      250 
 5082000 0.00022430315 -0.0096739611    1.1778234 9.7856786e-05 -0.0096739611    1.1874974      249 
 5083000 0.00020270563 -0.0095139679    1.0811635 8.8495966e-05 -0.0095139679    1.0906775      245 
 5084000 0.00019749511 -0.010601143    1.0787178 8.6251671e-05 -0.010601143     1.089319      239 
 5085000 0.00019567228 -0.011244212    1.0958129 8.7138642e-05 -0.011244212    1.1070571      233 
 5086000 0.00019629535 -0.011307494    1.0992747 8.5814031e-05 -0.011307494    1.1105822      233 
 5087000 0.00019470321 -0.010900167    1.0906742 8.4964874e-05 -0.010900167    1.1015744      233 
 5088000  0.000190567 -0.010842291    1.1056656 8.3204211e-05 -0.010842291    1.1165079      225 
 5089000 0.00019839464  -0.01234782    1.1297179 8.6241938e-05  -0.01234782    1.1420657      229 
 5090000 0.00018968954 -0.012498132    1.1138873 8.3340097e-05 -0.012498132    1.1263855      222 
 5091000 0.00019630481 -0.011721276    1.1333147 8.5517671e-05 -0.011721276    1.1450359      226 
 5092000 0.00019814736 -0.011320522    1.1444629 8.6220064e-05 -0.011320522    1.1557835      226 
 5093000 0.00019401884 -0.012148066    1.1504185 8.5808589e-05 -0.012148066    1.1625666      220 
 5094000 0.00018789436 -0.011446673     1.124751 8.1524014e-05 -0.011446673    1.1361976      218 
 5095000 0.00018220212 -0.013158584    1.1198004 7.918909e-05 -0.013158584     1.132959      212 
 5096000 0.00018538278 -0.013251805    1.1340731 8.0476443e-05 -0.013251805    1.1473249      213 
 5097000 0.00018857185 -0.012518521    1.1600484 8.1739966e-05 -0.012518521    1.1725669      212 
 5098000 0.00017897815 -0.013486886    1.1263069 7.9808016e-05 -0.013486886    1.1397938      207 
 5099000 0.00018240383 -0.017524355    1.1440853 7.9760907e-05 -0.017524355    1.1616097      207 
 5100000 0.00017647626 -0.014106993    1.1549343 7.6436415e-05 -0.014106993    1.1690413      199 
 5101000 0.00017712498 -0.013794987     1.125202 7.6877131e-05 -0.013794987     1.138997      205 
 5102000 0.00017026708 -0.0091536377    1.0751651 7.4628901e-05 -0.0091536377    1.0843188      207 
 5103000 0.00019186086 -0.011659261    1.2043019 8.3490705e-05 -0.011659261    1.2159611      208 
 5104000 0.00017354754 -0.0093167138    1.1403237 7.5539613e-05 -0.0093167138    1.1496404      199 
 5105000 0.00017230627 -0.0095313684    1.1493571 7.503671e-05 -0.0095313684    1.1588884      196 
 5106000 0.00017273864 -0.0096659341    1.1462331 7.5712036e-05 -0.0096659341     1.155899      197 
 5107000 0.00016915955 -0.010178022    1.1160542 7.3896405e-05 -0.010178022    1.1262322      198 
 5108000 0.00015529674 -0.0097440321    1.0565028 6.7554353e-05 -0.0097440321    1.0662468      192 
 5109000 0.00015548959 -0.010088356    1.0801968 6.7716427e-05 -0.010088356    1.0902851      188 
 5110000 0.00014266787  -0.01219796    1.0326433 6.2367577e-05  -0.01219796    1.0448412      180 
 5111000 0.00014265117 -0.0098011153    1.0234374 6.216698e-05 -0.0098011153    1.0332385      182 
 5112000 0.00014872952 -0.0067329818    1.0705317 6.4716863e-05 -0.0067329818    1.0772647      182 
 5113000 0.00014723618 -0.0053445903    1.0789771 6.442322e-05 -0.0053445903    1.0843217      179 
 5114000 0.00015893692 -0.0053059407    1.1396014 7.0090091e-05 -0.0053059407    1.1449073      183 
 5115000 0.00015572511 -0.0054648869    1.1350022 6.843176e-05 -0.0054648869    1.1404671      180 
 5116000 0.00015240643 -0.0051923936    1.1109701 6.6624898e-05 -0.0051923936    1.1161625      180 
 5117000 0.00014628188 -0.0054184307    1.0840481 6.4013948e-05 -0.0054184307    1.0894666      177 
 5118000 0.00015477842 -0.0058376055    1.1469088 6.8184835e-05 -0.0058376055    1.1527464      177 
 5119000 0.00015722504 -0.0053167302    1.1150149 6.9068532e-05 -0.0053167302    1.1203317      185 
 5120000 0.00014880502 -0.0052436364    1.0967883 6.5039238e-05 -0.0052436364     1.102032      178 
 5121000 0.00015831177 -0.0053413379    1.1540694 6.9310852e-05 -0.0053413379    1.1594107      180 
 5122000 0.00015208574 -0.0053766395    1.1084372 6.7112703e-05 -0.0053766395    1.1138139      180 
 5123000 0.00015096246 -0.0064730064    1.0930062 6.6085385e-05 -0.0064730064    1.0994792      181 
 5124000 0.0001570198 -0.005341703    1.1774629 6.862748e-05 -0.005341703    1.1828046      175 
 5125000 0.00015289671 -0.0055535901    1.1731339 6.6884338e-05 -0.0055535901    1.1786875      171 
 5126000 0.00014537835 -0.00035333148    1.1138589 6.3805955e-05 -0.00035333148    1.1142122      172 
 5127000 0.00015139868 -3.0509444e-05    1.1671085 6.6505508e-05 -3.0509444e-05     1.167139      171 
 5128000 0.00014715808            0    1.1478735 6.466354e-05            0    1.1478735      169 
 5129000 0.00014509553 -0.00055201868    1.1801373 6.3654435e-05 -0.00055201868    1.1806894      162 
 5130000 0.00015056617            0    1.1885229 6.6161111e-05            0    1.1885229      167 
 5131000 0.00014562211 -0.00014116757    1.1775633 6.3949678e-05 -0.00014116757    1.1777045      163 
 5132000  0.000137908            0    1.1506123 6.0598914e-05            0    1.1506123      158 
 5133000 0.00013115024            0    1.1082586 5.7629448e-05            0    1.1082586      156 
 5134000 0.00012615459            0    1.0798886 5.5434281e-05            0    1.0798886      154 
 5135000 0.00013749632            0    1.1258015 6.0418016e-05            0    1.1258015      161 
 5136000 0.00013816968            0    1.1455452 6.0713898e-05            0    1.1455452      159 
 5137000 0.00014971293            0    1.2034058 6.5786182e-05            0    1.2034058      164 
 5138000 0.00013666398            0    1.1548514 6.0052272e-05            0    1.1548514      156 
 5139000 0.00013708572 -3.317245e-06    1.1584118 6.0220826e-05 -3.317245e-06    1.1584152      156 
 5140000 0.00014731388            0    1.1987408 6.4732004e-05            0    1.1987408      162 
 5141000 0.00013619536            0    1.1508914 5.9846352e-05            0    1.1508914      156 
 5142000 0.00015138555 -0.00027652071    1.2627834 6.6462077e-05 -0.00027652071    1.2630599      158 
 5143000 0.00015166261 -0.00029992048    1.2571134 6.6579958e-05 -0.00029992048    1.2574133      159 
 5144000 0.0001421824            0    1.2170873 6.247715e-05            0    1.2170873      154 
 5145000 0.0001475662            0    1.2550234 6.4842877e-05            0    1.2550234      155 
 5146000 0.00013922769            0    1.2235761 6.1178807e-05            0    1.2235761      150 
 5147000 0.00014536766            0    1.2607264 6.3876803e-05            0    1.2607264      152 
 5148000 0.00015261466 -0.00022523596    1.3233521 6.7011352e-05 -0.00022523596    1.3235773      152 
 5149000 0.00013734989 -8.8579079e-05    1.2069848 6.0324289e-05 -8.8579079e-05    1.2070734      150 
 5150000 0.00014164551            0    1.2124915 6.2241231e-05            0    1.2124915      154 
 5151000 0.00013607301            0    1.1801169 5.979259e-05            0    1.1801169      152 
 5152000 0.00013592607            0    1.1945604 5.9728022e-05            0    1.1945604      150 
 5153000 0.00014215112 -8.4949944e-05    1.2011344 6.2434058e-05 -8.4949944e-05    1.2012193      156 
 5154000 0.00014189698            0    1.2638865 6.2351733e-05            0    1.2638865      148 
 5155000 0.00014541136            0    1.2287694 6.3896007e-05            0    1.2287694      156 
 5156000 0.00014048348 -4.1077314e-05    1.1947451 6.1708066e-05 -4.1077314e-05    1.1947862      155 
 5157000 0.00013873147 -0.0010849605    1.2263128 6.0791494e-05 -0.0010849605    1.2273978      149 
 5158000 0.00014724096            0    1.2603888 6.469996e-05            0    1.2603888      154 
 5159000 0.0001507929            0    1.2907936 6.6260738e-05            0    1.2907936      154 
 5160000 0.00013897284 -2.8600216e-05    1.2295047 6.1046348e-05 -2.8600216e-05    1.2295333      149 
 5161000 0.00013854892            0      1.24246 6.0880541e-05            0      1.24246      147 
 5162000 0.00014023737 -0.00030757135      1.22398 6.156073e-05 -0.00030757135    1.2242876      151 
 5163000 0.00013909262            0    1.2142938 6.1119455e-05            0    1.2142938      151 
 5164000 0.00014352762            0    1.2366325 6.306826e-05            0    1.2366325      153 
 5165000 0.00013180407            0    1.1982776 5.791675e-05            0    1.1982776      145 
 5166000 0.00014383615            0    1.2557053 6.3203835e-05            0    1.2557053      151 
 5167000 0.00013864817            0    1.2433501 6.0924156e-05            0    1.2433501      147 
 5168000 0.00014557463 -1.1525939e-05    1.2461134 6.3949739e-05 -1.1525939e-05     1.246125      154 
 5169000 0.00013423995            0    1.2640096 5.8987115e-05            0    1.2640096      140 
 5170000 0.00013368485            0    1.2410535 5.8743197e-05            0    1.2410535      142 
 5171000 0.00014594377            0    1.3087746 6.4129956e-05            0    1.3087746      147 
 5172000 0.00013198105 -5.3510347e-05    1.2166147 5.7970696e-05 -5.3510347e-05    1.2166682      143 
 5173000  0.000149015 -0.0056160036    1.3307004 6.5000451e-05 -0.0056160036    1.3363164      147 
 5174000 0.00013976335 -0.0039061903     1.258029 6.0955047e-05 -0.0039061903    1.2619352      146 
 5175000 0.00013749292            0    1.2764053 6.0416519e-05            0    1.2764053      142 
 5176000 0.00013607173 -0.001210982    1.2986157 5.961788e-05 -0.001210982    1.2998267      138 
 5177000 0.0001363697            0    1.3026731 5.9922961e-05            0    1.3026731      138 
 5178000 0.00013562656            0    1.2680088 5.9596415e-05            0    1.2680088      141 
 5179000 0.00013359191            0    1.2489863 5.8702357e-05            0    1.2489863      141 
 5180000 0.00014288477            0    1.2990162 6.2785783e-05            0    1.2990162      145 
 5181000 0.00014110426            0    1.3286442 6.2003398e-05            0    1.3286442      140 
 5182000 0.00013427225            0    1.2919994 5.9001307e-05            0    1.2919994      137 
 5183000 0.00012565712            0    1.2742081 5.5215686e-05            0    1.2742081      130 
 5184000 0.00012818082            0    1.2704806 5.6324639e-05            0    1.2704806      133 
 5185000 0.00012319775            0    1.2210902 5.4134999e-05            0    1.2210902      133 
 5186000 0.00012565605            0     1.245456 5.5215214e-05            0     1.245456      133 
 5187000 0.00011893748            0    1.1968619 5.226297e-05            0    1.1968619      131 
 5188000 0.00013276823            0     1.286921 5.834042e-05            0     1.286921      136 
 5189000 0.00012054628            0    1.2318583 5.2969905e-05            0    1.2318583      129 
 5190000 0.00012647397            0    1.2630596 5.5574624e-05            0    1.2630596      132 
 5191000 0.00012710887            0    1.2694002 5.5853609e-05            0    1.2694002      132 
 5192000 0.00012775762            0    1.3157503 5.613868e-05            0    1.3157503      128 
 5193000 0.0001303574 -0.00011938172    1.3857128 5.7250189e-05 -0.00011938172    1.3858322      124 
 5194000 0.00013190841            0    1.3911024 5.7962601e-05            0    1.3911024      125 
 5195000 0.00013284523 -0.0017097036    1.4337227 5.8163656e-05 -0.0017097036    1.4354324      122 
 5196000 0.00013188149            0     1.436796 5.7950772e-05            0     1.436796      121 
 5197000 0.0001244014            0    1.3441943 5.4663902e-05            0    1.3441943      122 
 5198000 0.00012440993            0    1.3781761 5.4667653e-05            0    1.3781761      119 
 5199000 0.00012795015            0    1.3712995 5.6223278e-05            0    1.3712995      123 
 5200000 0.00012310562            0    1.3411864 5.4094518e-05            0    1.3411864      121 
 5201000 0.00014077289 -0.0005036253    1.3843722 6.1775818e-05 -0.0005036253    1.3848758      134 
 5202000 0.00013066905            0    1.3780321 5.7418005e-05            0    1.3780321      125 
 5203000 0.00012653468            0    1.3672451 5.5601301e-05            0    1.3672451      122 
 5204000 0.00013531115            0    1.4269876 5.9457816e-05            0    1.4269876      125 
 5205000 0.00013349535            0    1.3856676 5.8659927e-05            0    1.3856676      127 
 5206000 0.00012460985            0    1.4039871 5.4755498e-05            0    1.4039871      117 
 5207000 0.00013623901            0    1.4141464 5.9865531e-05            0    1.4141464      127 
 5208000 0.0001194764            0    1.3235239 5.2499783e-05            0    1.3235239      119 
 5209000 0.00012578642            0    1.3934245 5.5272504e-05            0    1.3934245      119 
 5210000 0.00013221224 -0.002756498    1.4258363 5.7746207e-05 -0.002756498    1.4285928      122 
 5211000 0.00012106339            0     1.364029 5.319713e-05            0     1.364029      117 
 5212000 0.00011518531            0    1.2978003 5.061421e-05            0    1.2978003      117 
 5213000 0.00012042187            0    1.3119481 5.2915238e-05            0    1.3119481      121 
 5214000 0.0001133021            0     1.276582 4.9786698e-05            0     1.276582      117 
 5215000 0.00012094796            0    1.3068789 5.314641e-05            0    1.3068789      122 
 5216000 0.00011922661            0    1.3097505 5.2390021e-05            0    1.3097505      120 
 5217000 0.00012117661            0    1.3423583 5.3246881e-05            0    1.3423583      119 
 5218000 0.00011870729            0     1.326148 5.2161822e-05            0     1.326148      118 
 5219000 0.00011858263            0    1.3360781 5.2107044e-05            0    1.3360781      117 
 5220000 0.00012295264            0    1.3177389 5.4027295e-05            0    1.3177389      123 
 5221000 0.00011688554            0    1.3057963 5.136132e-05            0    1.3057963      118 
 5222000 0.00011967012            0    1.2722155 5.2584908e-05            0    1.2722155      124 
 5223000 0.00011829628            0    1.2887906 5.198122e-05            0    1.2887906      121 
 5224000 0.00013356897            0    1.3974351 5.8692276e-05            0    1.3974351      126 
 5225000 0.00013862354            0    1.4856911 6.0913334e-05            0    1.4856911      123 
 5226000 0.00013384155 -2.3645662e-05    1.4344166 5.879292e-05 -2.3645662e-05    1.4344403      123 
 5227000 0.00012837742            0    1.3871564 5.6411028e-05            0    1.3871564      122 
 5228000 0.00013568184            0    1.4308969 5.9620705e-05            0    1.4308969      125 
 5229000 0.00012880351            0    1.4149564 5.6598257e-05            0    1.4149564      120 
 5230000 0.00011872782            0    1.3263774 5.2170844e-05            0    1.3263774      118 
 5231000 0.0001259184            0    1.4067076 5.5330498e-05            0    1.4067076      118 
 5232000 0.00012466956            0    1.3470919 5.4781736e-05            0    1.3470919      122 
 5233000 0.0001324594            0    1.4673457 5.8204713e-05            0    1.4673457      119 
 5234000 0.00013019649            0    1.4184386 5.7210358e-05            0    1.4184386      121 
 5235000 0.00012050144            0    1.3694017  5.29502e-05            0    1.3694017      116 
 5236000 0.00011972872            0     1.396743 5.2610655e-05            0     1.396743      113 
 5237000 0.00012956349            0    1.4474289 5.6932204e-05            0    1.4474289      118 
 5238000 0.00012677875            0    1.4284243 5.5708549e-05            0    1.4284243      117 
 5239000 0.00011454286            0    1.3362454 5.0331909e-05            0    1.3362454      113 
 5240000 0.00012818512            0    1.4320304 5.6326529e-05            0    1.4320304      118 
 5241000 0.00013650424            0    1.4749691 5.9982077e-05            0    1.4749691      122 
 5242000 0.00012957411            0    1.4599198 5.6936871e-05            0    1.4599198      117 
 5243000 0.00012930873 -0.0011689739    1.4557608 5.6673531e-05 -0.0011689739    1.4569298      117 
 5244000 0.00012268044            0    1.3476922 5.3907686e-05            0    1.3476922      120 
 5245000 0.00013316137 -0.00070725191    1.4500325 5.8414014e-05 -0.00070725191    1.4507398      121 
 5246000 0.00014029042 -0.0082533622    1.5458421 6.1727159e-05 -0.0082533622    1.5540954      119 
 5247000 0.00013048142 -0.00010296194    1.3983252 5.7306788e-05 -0.00010296194    1.3984282      123 
 5248000 0.00013028886            0    1.4555325 5.7250943e-05            0    1.4555325      118 
 5249000 0.00012983938            0    1.4755199 5.7053435e-05            0    1.4755199      116 
 5250000 0.0001258734            0    1.4815372 5.5310724e-05            0    1.4815372      112 
 5251000 0.00013144619            0    1.4320535 5.7759492e-05            0    1.4320535      121 
 5252000 0.00013953615            0    1.5077299 6.1314349e-05            0    1.5077299      122 
 5253000 0.00013216002            0     1.514952 5.8073161e-05            0     1.514952      115 
 5254000 0.00012288449            0     1.433558 5.399735e-05            0     1.433558      113 
 5255000 0.00012697572            0    1.4185195  5.57951e-05            0    1.4185195      118 
 5256000 0.00013796582 -0.00024621056     1.528098 6.0579237e-05 -0.00024621056    1.5283442      119 
 5257000 0.00011239617            0    1.3348276 4.9388621e-05            0    1.3348276      111 
 5258000 0.0001190733            0    1.4014996 5.2322652e-05            0    1.4014996      112 
 5259000 0.0001236897            0    1.3587792 5.4351169e-05            0    1.3587792      120 
 5260000 0.00012756993            0    1.4131816 5.6056204e-05            0    1.4131816      119 
 5261000 0.00011825682 -0.0067914343    1.3606791 5.1467465e-05 -0.0067914343    1.3674705      114 
 5262000 0.00012185201            0    1.3847498 5.354366e-05            0    1.3847498      116 
 5263000 0.00011859866            0    1.3362587 5.2114088e-05            0    1.3362587      117 
 5264000 0.00012347437            0    1.3911936 5.4256551e-05            0    1.3911936      117 
 5265000 0.00013579679 -0.00020422639    1.3983399 5.9629218e-05 -0.00020422639    1.3985441      128 
 5266000 0.00013037815            0    1.3973214 5.7290179e-05            0    1.3973214      123 
 5267000 0.00011724002 -0.0012670916    1.3310713  5.13422e-05 -0.0012670916    1.3323384      116 
 5268000 0.00012750674            0    1.3777485 5.6028439e-05            0    1.3777485      122 
 5269000 0.00012004928            0    1.3526029 5.2751513e-05            0    1.3526029      117 
 5270000 0.00012713444            0    1.4202926 5.5864842e-05            0    1.4202926      118 
 5271000 0.0001316839            0    1.3999342 5.7863945e-05            0    1.3999342      124 
 5272000 0.00013690894 -0.0031207549    1.4884473 5.9790437e-05 -0.0031207549     1.491568      121 
 5273000 0.0001312637            0    1.4183435 5.7679304e-05            0    1.4183435      122 
 5274000 0.00012376101            0    1.4064442 5.4382508e-05            0    1.4064442      116 
 5275000 0.00013760492            0    1.4061799 6.0465734e-05            0    1.4061799      129 
 5276000 0.00013741697 -0.0013078765    1.4595747 6.0213418e-05 -0.0013078765    1.4608825      124 
 5277000 0.00013911665            0     1.444016 6.1130011e-05            0     1.444016      127 
 5278000 0.00014595399            0    1.5149869 6.4134445e-05            0    1.5149869      127 
 5279000  0.000155802            0     1.579888 6.8461814e-05            0     1.579888      130 
 5280000 0.00014606154 -0.0074508036    1.5579566 6.4858543e-05 -0.0074508036    1.5654074      123 
 5281000 0.0001435882            0    1.5515135 6.3094882e-05            0    1.5515135      122 
 5282000 0.00015195998            0     1.589847 6.6773573e-05            0     1.589847      126 
 5283000 0.00015035088            0    1.5606261 6.6066507e-05            0    1.5606261      127 
 5284000 0.00015147736            0    1.5360346 6.6561498e-05            0    1.5360346      130 
 5285000 0.00015547853 -0.00037916784    1.5523408 6.825445e-05 -0.00037916784    1.5527199      132 
 5286000 0.00013382918            0    1.4825198 5.8806617e-05            0    1.4825198      119 
 5287000 0.00014214184            0    1.5358851 6.2459328e-05            0    1.5358851      122 
 5288000 0.00014207448            0    1.4518542 6.242973e-05            0    1.4518542      129 
 5289000 0.00014315433            0    1.5218766 6.2904231e-05            0    1.5218766      124 
 5290000 0.00015551096            0     1.529864 6.8333924e-05            0     1.529864      134 
 5291000 0.00015100214            0    1.5798257 6.635268e-05            0    1.5798257      126 
 5292000 0.00016587181 -0.00076820069    1.5952897 7.2769022e-05 -0.00076820069    1.5960579      137 
 5293000 0.00015613807            0    1.5955695 6.860949e-05            0    1.5955695      129 
 5294000 0.0001590152            0     1.612471 6.9873744e-05            0     1.612471      130 
 5295000 0.00016157463            0    1.6384245 7.0998395e-05            0    1.6384245      130 
 5296000 0.00015479353            0    1.5818297 6.8018677e-05            0    1.5818297      129 
 5297000 0.00015619019 -6.226122e-05    1.6211754 6.8608317e-05 -6.226122e-05    1.6212376      127 
 5298000 0.00014823817            0    1.5509083 6.5138148e-05            0    1.5509083      126 
 5299000 0.00016857986 -0.00063155791    1.6334112 7.3977149e-05 -0.00063155791    1.6340427      136 
 5300000 0.00015680502            0    1.6023851 6.8902558e-05            0    1.6023851      129 
 5301000 0.00015016692            0    1.5836561 6.5985673e-05            0    1.5836561      125 
 5302000 0.00016119233            0    1.5740091 7.0830408e-05            0    1.5740091      135 
 5303000 0.00015038451            0    1.5733639 6.6081284e-05            0    1.5733639      126 
 5304000 0.00015831294 -0.00087690402    1.5801495 6.9437766e-05 -0.00087690402    1.5810264      132 
 5305000 0.00015697128 -0.0018057925    1.5658218 6.8739614e-05 -0.0018057925    1.5676276      132 
 5306000 0.00014534095            0    1.5327616 6.3865066e-05            0    1.5327616      125 
 5307000 0.00015198764            0    1.5064449 6.6785725e-05            0    1.5064449      133 
 5308000 0.0001575797            0    1.5737037 6.9242964e-05            0    1.5737037      132 
 5309000 0.00015155678            0      1.53684  6.65964e-05            0      1.53684      130 
 5310000 0.00015239153            0    1.4771294 6.6963202e-05            0    1.4771294      136 
 5311000 0.00014702082            0    1.5141381 6.4603226e-05            0    1.5141381      128 
 5312000 0.00014308435 -6.0309197e-05    1.4288824 6.2849352e-05 -6.0309197e-05    1.4289427      132 
 5313000 0.0001451002            0    1.4601361 6.3759278e-05            0    1.4601361      131 
 5314000 0.00014162249            0    1.4037094 6.2231118e-05            0    1.4037094      133 
 5315000 0.00013783315 -0.0021518261    1.3639991 6.0290687e-05 -0.0021518261    1.3661509      133 
 5316000 0.00013781426 -0.0007101579    1.3756017 6.0450873e-05 -0.0007101579    1.3763119      132 
 5317000 0.00013488894            0    1.3678221 5.927229e-05            0    1.3678221      130 
 5318000 0.00013445742            0    1.4179841 5.9082672e-05            0    1.4179841      125 
 5319000 0.00013234495 -0.0015076286    1.4523529 5.796801e-05 -0.0015076286    1.4538605      120 
 5320000 0.00014298344 -6.2353109e-05    1.4840906 6.2805055e-05 -6.2353109e-05     1.484153      127 
 5321000 0.00014250367            0    1.5149594 6.2618321e-05            0    1.5149594      124 
 5322000 0.00013617102            0    1.4023982 5.9835657e-05            0    1.4023982      128 
 5323000 0.00014609365            0    1.4589958 6.4195814e-05            0    1.4589958      132 
 5324000 0.00012884602            0    1.3922198 5.661694e-05            0    1.3922198      122 
 5325000 0.00012537306            0    1.3546935 5.5090868e-05            0    1.3546935      122 
 5326000 0.0001332676            0    1.4399963 5.8559848e-05            0    1.4399963      122 
 5327000 0.00013206855            0    1.3817374 5.803297e-05            0    1.3817374      126 
 5328000 0.00013153378            0    1.3871516 5.7797983e-05            0    1.3871516      125 
 5329000 0.00012991587            0    1.4037798 5.7087045e-05            0    1.4037798      122 
 5330000 0.0001231765            0    1.3645125 5.4125663e-05            0    1.3645125      119 
 5331000 0.0001293146            0    1.4446485 5.682284e-05            0    1.4446485      118 
 5332000 0.00013010985            0    1.4413181 5.7172285e-05            0    1.4413181      119 
 5333000 0.00013884925 -0.00050015643    1.4876099 6.0936254e-05 -0.00050015643    1.4881101      123 
 5334000 0.00012298873 -2.1612153e-06    1.3399107 5.4026644e-05 -2.1612153e-06    1.3399129      121 
 5335000 0.00011986865            0    1.3278692 5.2672144e-05            0    1.3278692      119 
 5336000 0.00011230821            0    1.2441168 4.9349967e-05            0    1.2441168      119 
 5337000 0.00011607769            0    1.3191294 5.1006338e-05            0    1.3191294      116 
 5338000 0.00010537517            0    1.1975039 4.6303483e-05            0    1.1975039      116 
 5339000 0.0001057869            0    1.2232738 4.6484403e-05            0    1.2232738      114 
 5340000 0.00012153938            0    1.3351572 5.3406289e-05            0    1.3351572      120 
 5341000 0.00010944559            0    1.2437609 4.8092088e-05            0    1.2437609      116 
 5342000 0.00011437803 -0.0013413892    1.2657043 5.0092043e-05 -0.0013413892    1.2670457      119 
 5343000 0.00011824422            0     1.355435 5.1958343e-05            0     1.355435      115 
 5344000 0.00011385884            0    1.2302788 5.003134e-05            0    1.2302788      122 
 5345000 0.00011676091            0    1.2513794 5.1306555e-05            0    1.2513794      123 
 5346000 0.00010187001            0     1.199016 4.4763263e-05            0     1.199016      112 
 5347000 0.00010733639            0    1.2521754 4.7165274e-05            0    1.2521754      113 
 5348000 0.0001108938 -0.0011126841    1.2700644 4.8571233e-05 -0.0011126841    1.2711771      115 
 5349000 0.00010929652 -0.00056594079    1.2744761 4.7947996e-05 -0.00056594079    1.2750421      113 
 5350000 0.00011829395            0    1.3215304 5.1980197e-05            0    1.3215304      118 
 5351000 0.00011750925            0    1.3239843 5.1635388e-05            0    1.3239843      117 
 5352000 0.00012031969            0    1.3217584 5.2870335e-05            0    1.3217584      120 
 5353000 0.00012489695            0    1.3495489 5.4881656e-05            0    1.3495489      122 
 5354000 0.00012927374            0     1.444192 5.6804886e-05            0     1.444192      118 
 5355000 0.00013053067            0    1.3876742 5.7357199e-05            0    1.3876742      124 
 5356000 0.00012728007            0    1.3982209 5.5928836e-05            0    1.3982209      120 
 5357000 0.00012606286 -0.0065541378    1.3555928 5.4856713e-05 -0.0065541378    1.3621469      122 
 5358000 0.00011566707            0    1.3258931 5.0825903e-05            0    1.3258931      115 
 5359000 0.00012768322            0    1.3684387 5.6105987e-05            0    1.3684387      123 
 5360000 0.00011154863            0    1.3129339 4.9016198e-05            0    1.3129339      112 
 5361000 0.00012345418            0     1.356192 5.4247682e-05            0     1.356192      120 
 5362000 0.00011630488            0    1.3332044 5.1106168e-05            0    1.3332044      115 
 5363000 0.00012227081            0    1.3895092 5.3727691e-05            0    1.3895092      116 
 5364000 0.00012091762            0    1.3394893 5.3133075e-05            0    1.3394893      119 
 5365000 0.00011548535            0    1.3354224 5.0746052e-05            0    1.3354224      114 
 5366000 0.00012552689            0    1.4143195 5.5158461e-05            0    1.4143195      117 
 5367000 0.00012113216            0    1.3648039 5.322735e-05            0    1.3648039      117 
 5368000 0.00012234467            0    1.4024385 5.3760143e-05            0    1.4024385      115 
 5369000 0.00012382955            0    1.4194597 5.4412623e-05            0    1.4194597      115 
 5370000 0.00011642076            0    1.3826239 5.1157086e-05            0    1.3826239      111 
 5371000 0.00012609768            0    1.4581389 5.5409277e-05            0    1.4581389      114 
 5372000 0.00012435246            0    1.4506832 5.4642399e-05            0    1.4506832      113 
 5373000 0.00011713566 -8.026893e-06    1.3786855 5.1454083e-05 -8.026893e-06    1.3786935      112 
 5374000 0.00011953732            0    1.4069612 5.252655e-05            0    1.4069612      112 
 5375000 0.00012018469 -0.00011650208     1.440184  5.27821e-05 -0.00011650208    1.4403005      110 
 5376000 0.00012298093            0     1.409732 5.4039725e-05            0     1.409732      115 
 5377000 0.00011803949 -0.00082500577    1.4399634 5.1765899e-05 -0.00082500577    1.4407884      108 
 5378000 0.00012746614            0     1.473963 5.6010596e-05            0     1.473963      114 
 5379000 0.00012737297 -0.00018225887    1.4727035 5.5932915e-05 -0.00018225887    1.4728858      114 
 5380000 0.00011550566            0    1.4783003 5.0754977e-05            0    1.4783003      103 
 5381000 0.00011644152            0    1.4212836 5.1166211e-05            0    1.4212836      108 
 5382000 0.00010757059 -0.00019819185    1.4178473 4.7216087e-05 -0.00019819185    1.4180455      100 
 5383000 0.00011906684 -0.0020129432     1.437982 5.2099908e-05 -0.0020129432     1.439995      109 
 5384000 0.00011705529            0    1.4287753 5.1435911e-05            0    1.4287753      108 
 5385000 0.00010850002            0    1.3752863 4.7676591e-05            0    1.3752863      104 
 5386000 0.00011109769            0    1.4082128 4.8818045e-05            0    1.4082128      104 
 5387000 0.00011653454            0    1.4630595 5.1207081e-05            0    1.4630595      105 
 5388000 0.00012222924            0     1.478241 5.3709421e-05            0     1.478241      109 
 5389000 0.00011602139            0    1.4428753 5.0981595e-05            0    1.4428753      106 
 5390000 0.00011439131            0    1.3962588 5.0265316e-05            0    1.3962588      108 
 5391000 0.00011403832            0    1.4454867 5.0110206e-05            0    1.4454867      104 
 5392000 0.00011178135            0     1.390145 4.9118457e-05            0     1.390145      106 
 5393000 0.00010938906            0    1.3109249 4.8067247e-05            0    1.3109249      110 
 5394000 0.00010942697            0    1.3608652 4.8083905e-05            0    1.3608652      106 
 5395000 0.0001173012            0    1.4057445 5.1543965e-05            0    1.4057445      110 
 5396000 0.00011981751 -1.1660722e-05    1.4229525 5.263214e-05 -1.1660722e-05    1.4229641      111 
 5397000 0.00011548176            0    1.4361644 5.0744474e-05            0    1.4361644      106 
 5398000 0.00012302845            0    1.4879067 5.406061e-05            0    1.4879067      109 
 5399000 0.00012981703            0    1.5557349 5.7043614e-05            0    1.5557349      110 
 5400000 0.00012356692 -0.0086745781    1.4328445 5.4186559e-05 -0.0086745781    1.4415191      113 
 5401000 0.00011780353            0    1.4513466 5.1764696e-05            0    1.4513466      107 
 5402000 0.00012124811            0    1.4663751 5.3278297e-05            0    1.4663751      109 
 5403000 0.00011402563            0    1.4180555 5.0104629e-05            0    1.4180555      106 
 5404000 0.0001255734            0    1.4780062 5.5178897e-05            0    1.4780062      112 
 5405000 0.00011239717            0    1.3978036 4.938906e-05            0    1.3978036      106 
 5406000 0.0001133147 -0.00022181963    1.4224135 4.9753028e-05 -0.00022181963    1.4226353      105 
 5407000 0.00011933649            0    1.4301355 5.2438302e-05            0    1.4301355      110 
 5408000 0.00011204608            0    1.4202342 4.9234786e-05            0    1.4202342      104 
 5409000 0.00012098501            0    1.4905427 5.3162689e-05            0    1.4905427      107 
 5410000 0.00012130182            0    1.4944458 5.3301899e-05            0    1.4944458      107 
 5411000 0.00010241027 -0.0056699467    1.3579864 4.4545594e-05 -0.0056699467    1.3636563       99 
 5412000 0.00010909233 -3.5246309e-05    1.4674197 4.791719e-05 -3.5246309e-05     1.467455       98 
 5413000 0.00010895079            0      1.43624 4.7874668e-05            0      1.43624      100 
 5414000 0.00010518054            0    1.3728107 4.6217959e-05            0    1.3728107      101 
 5415000 0.00010121465 -0.0011706991    1.3603177 4.4348841e-05 -0.0011706991    1.3614884       98 
 5416000 9.7953228e-05 -0.00081100175     1.290454 4.2947245e-05 -0.00081100175     1.291265      100 
 5417000 0.00010767936  -0.00906305    1.3300685 4.7678424e-05  -0.00906305    1.3391315      106 
 5418000 0.00011610836 -0.0007257129     1.499857 5.0931611e-05 -0.0007257129    1.5005827      102 
 5419000 0.00011957414 -0.0013773003    1.4717834 5.2386353e-05 -0.0013773003    1.4731607      107 
 5420000 0.00011360753 -0.0017999008    1.4382263 4.9728966e-05 -0.0017999008    1.4400262      104 
 5421000 0.0001199586 -0.00066888197    1.4911708 5.2626441e-05 -0.00066888197    1.4918397      106 
 5422000 0.00011731304 -0.006383773      1.43892 5.1053832e-05 -0.006383773    1.4453038      107 
 5423000 0.00011757644 -0.00083381462     1.447715 5.1562315e-05 -0.00083381462    1.4485488      107 
 5424000 0.00012943828 -0.00090899256    1.5645182 5.6765326e-05 -0.00090899256    1.5654272      109 
 5425000 0.00011719778 -0.0071017775    1.4504035 5.081372e-05 -0.0071017775    1.4575053      106 
 5426000 0.00012613494 -0.00063130442    1.5109773 5.5341809e-05 -0.00063130442    1.5116086      110 
 5427000 0.00012268539 -0.0022490894     1.495247 5.3653736e-05 -0.0022490894    1.4974961      108 
 5428000 0.00012255397 -0.0013291594    1.4945629 5.3681565e-05 -0.0013291594    1.4958921      108 
 5429000 0.00012718088 -0.00072447511    1.5516435 5.5793036e-05 -0.00072447511     1.552368      108 
 5430000 0.00011506091 -0.0036679349    1.4833776 5.3340133e-05 -0.0036679349    1.4870455      102 
 5431000 0.00012787814 -0.00069762253    1.5458612 5.6101516e-05 -0.00069762253    1.5465588      109 
 5432000 0.00012301054 -0.001607004    1.4334215 5.3845695e-05 -0.001607004    1.4350285      113 
 5433000 0.00012307584 -0.0020278016    1.5431559 5.3867096e-05 -0.0020278016    1.5451837      105 
 5434000 0.00012315989 -0.00067958876    1.5755835 5.4033999e-05 -0.00067958876    1.5762631      103 
 5435000 0.00012991017 -0.0048773049    1.5662569 5.6643952e-05 -0.0048773049    1.5711342      109 
 5436000 0.00011952469 -0.00091265049    1.5288252 5.2413903e-05 -0.00091265049    1.5297378      103 
 5437000 0.00012757592 -0.00089094718    1.6007902 5.5952168e-05 -0.00089094718    1.6016811      105 
 5438000 0.00012409432 -0.0051235689    1.5381492 5.4082608e-05 -0.0051235689    1.5432727      106 
 5439000 0.00012284504 -0.0006609886    1.5270753 5.3895583e-05 -0.0006609886    1.5277362      106 
 5440000 0.00012324793 -0.0020426809    1.5753471 5.3944889e-05 -0.0020426809    1.5773898      103 
 5441000 0.00012227528 -0.0021900828    1.5780938 5.3482735e-05 -0.0021900828    1.5802839      102 
 5442000 0.00012116412 -0.00072234801    1.5204604 5.3151459e-05 -0.00072234801    1.5211827      105 
 5443000 0.00012170245 -0.0041609635    1.5093657 5.6036439e-05 -0.0041609635    1.5135266      106 
 5444000 0.00012709838 -0.00071342007    1.5224411 5.5756564e-05 -0.00071342007    1.5231545      110 
 5445000 0.00012156271  -0.00115123    1.4965088 5.328228e-05  -0.00115123      1.49766      107 
 5446000 0.0001320062 -0.0022137334    1.5655043 5.7763396e-05 -0.0022137334    1.5677181      111 
 5447000 0.0001356657 -0.00063672637    1.6401049 5.9529812e-05 -0.00063672637    1.6407416      109 
 5448000 0.00012611505 -0.0039179211    1.5354406 5.5040608e-05 -0.0039179211    1.5393585      108 
 5449000 0.0001192566 -0.00094868731    1.4962855 5.2290839e-05 -0.00094868731    1.4972342      105 
 5450000 0.00011133605 -0.00099261797    1.4102416 4.8773808e-05 -0.00099261797    1.4112342      104 
 5451000 0.00010859002 -0.0067839396    1.3830065 4.7218422e-05 -0.0067839396    1.3897904      103 
 5452000 0.00010354365 -0.00071713733    1.3780309 4.5413365e-05 -0.00071713733     1.378748       99 
 5453000 0.00010371097 -0.0018896945    1.3931779 4.5382025e-05 -0.0018896945    1.3950676       98 
 5454000 0.00010352017 -0.001501651    1.3769337 4.5330818e-05 -0.001501651    1.3784354       99 
 5455000 0.00011399251 -0.00073131972    1.4870927 5.0002026e-05 -0.00073131972     1.487824      101 
 5456000 0.00012310544 -0.0089723742    1.4936509 5.4365984e-05 -0.0089723742    1.5026233      108 
 5457000 0.00010595372 -0.00079780686    1.3685465 4.6462522e-05 -0.00079780686    1.3693443      102 
 5458000 0.00011011648 -0.0011065848    1.4082202 4.8261137e-05 -0.0011065848    1.4093268      103 
 5459000 0.00011875251 -0.0026955251    1.4603426 5.1904569e-05 -0.0026955251    1.4630381      107 
 5460000 0.00010599571 -0.00068424006    1.3827659 4.6492638e-05 -0.00068424006    1.3834502      101 
 5461000 0.00011480678 -0.0034198318     1.495032 5.012659e-05 -0.0034198318    1.4984518      101 
 5462000 0.00011019361 -0.0010018886    1.3693976 4.8302266e-05 -0.0010018886    1.3703995      106 
 5463000 0.00010673061 -0.00080767958    1.3391661 4.6800654e-05 -0.00080767958    1.3399738      105 
 5464000 0.00010494603 -0.0088239665     1.360926 4.5691686e-05 -0.0088239665    1.3697499      101 
 5465000 0.00011868056 -0.00069475596    1.5036345 5.2063561e-05 -0.00069475596    1.5043292      104 
 5466000 0.00010435785 -0.0032099841     1.358863 4.5517138e-05 -0.0032099841    1.3620729      101 
 5467000 0.00010036937 -0.0016837881    1.3484343 4.3931593e-05 -0.0016837881    1.3501181       98 
 5468000 0.00010360963 -0.00068815951    1.3001026 4.5441155e-05 -0.00068815951    1.3007907      105 
 5469000   0.00010657 -0.0086553328    1.3552819 4.6405643e-05 -0.0086553328    1.3639372      103 
 5470000 0.00010238473 -0.00083138062    1.3223874 4.4891015e-05 -0.00083138062    1.3232188      102 
 5471000 0.00011263488 -0.0010019891    1.3997578 4.9374988e-05 -0.0010019891    1.4007598      106 
 5472000 0.0001101278            0    1.4373821 4.8391864e-05            0    1.4373821      101 
 5473000 0.00011352877            0    1.3986814 4.9886302e-05            0    1.3986814      107 
 5474000 0.0001128402            0    1.3773259 4.9583732e-05            0    1.3773259      108 
 5475000 0.00011979585            0    1.4488115 5.2640152e-05            0    1.4488115      109 
 5476000 0.00011961452 -8.0769262e-05    1.4735774 5.2535674e-05 -8.0769262e-05    1.4736582      107 
 5477000 0.00011234868            0    1.3841426 4.9367753e-05            0    1.3841426      107 
 5478000 0.00011642342 -0.0028213897    1.4450537 5.0872655e-05 -0.0028213897    1.4478751      106 
 5479000 0.00011772659 -5.5225544e-05    1.3855936 5.1708514e-05 -5.5225544e-05    1.3856488      112 
 5480000 0.00011447762            0    1.3719066 5.0303241e-05            0    1.3719066      110 
 5481000 0.0001281518            0    1.4563419 5.6311886e-05            0    1.4563419      116 
 5482000 0.00012141465            0    1.4164109 5.3351479e-05            0    1.4164109      113 
 5483000 0.00013280829            0    1.5223831 5.835802e-05            0    1.5223831      115 
 5484000 0.00013243195 -0.00033419633      1.47914  5.81377e-05 -0.00033419633    1.4794742      118 
 5485000 0.00012629004 -0.0086129269    1.4517503 5.5412346e-05 -0.0086129269    1.4603632      114 
 5486000 0.0001146003            0    1.3251882 5.035715e-05            0    1.3251882      114 
 5487000 0.00011909968            0    1.3894048 5.2334246e-05            0    1.3894048      113 
 5488000 0.00011624442            0    1.3805297  5.10796e-05            0    1.3805297      111 
 5489000 0.00011178968            0    1.3396941 4.9122117e-05            0    1.3396941      110 
 5490000 0.00010407507            0    1.2360054 4.5732199e-05            0    1.2360054      111 
 5491000 0.00011341538            0    1.3716461 4.9836475e-05            0    1.3716461      109 
 5492000 0.00011848803 -0.0012631135    1.4317317 5.1899763e-05 -0.0012631135    1.4329948      109 
 5493000 0.00011841859 -0.00054023741    1.3688009 5.1942127e-05 -0.00054023741    1.3693411      114 
 5494000 0.0001262107            0     1.422024 5.5458938e-05            0     1.422024      117 
 5495000 0.0001140859            0    1.3548949 5.0131113e-05            0    1.3548949      111 
 5496000 0.00011784978            0    1.3748235 5.1785018e-05            0    1.3748235      113 
 5497000 0.00012978174            0    1.5007396 5.7028106e-05            0    1.5007396      114 
 5498000 0.00013326585            0    1.4887902 5.8559079e-05            0    1.4887902      118 
 5499000 0.00013170159            0    1.5501354 5.787172e-05            0    1.5501354      112 
 5500000 0.00012775684            0    1.4903982 5.6138334e-05            0    1.4903982      113 
 5501000 0.00013143458            0    1.5198525 5.7754393e-05            0    1.5198525      114 
 5502000 0.00013060314            0    1.4347261 5.7389043e-05            0    1.4347261      120 
 5503000 0.00012986576            0    1.4386142 5.7065029e-05            0    1.4386142      119 
 5504000 0.00012498289 -0.00010241436     1.396154 5.4891221e-05 -0.00010241436    1.3962564      118 
 5505000 0.00012969138 -0.0044498366    1.4693882 5.6487402e-05 -0.0044498366     1.473838      116 
 5506000 0.00012928257            0    1.4819678 5.6808767e-05            0    1.4819678      115 
 5507000 0.00013269616            0    1.4950961 5.8308749e-05            0    1.4950961      117 
 5508000 0.00014143319            0    1.6072742 6.2147935e-05            0    1.6072742      116 
 5509000 0.00013474658            0    1.5181983 5.9209735e-05            0    1.5181983      117 
 5510000 0.00013851221            0     1.601695 6.086441e-05            0     1.601695      114 
 5511000 0.00012920838            0    1.4811173 5.6776164e-05            0    1.4811173      115 
 5512000 0.00012583721            0    1.4811113 5.5294822e-05            0    1.4811113      112 
 5513000 0.00013987705            0    1.5495163 6.1464145e-05            0    1.5495163      119 
 5514000 0.00013278871            0    1.4834597 5.8349416e-05            0    1.4834597      118 
 5515000 0.00013628286            0    1.4847472 5.9884802e-05            0    1.4847472      121 
 5516000 0.00013408698            0    1.5107666 5.8919897e-05            0    1.5107666      117 
 5517000 0.00012797131 -2.1820252e-05     1.466915 5.6213841e-05 -2.1820252e-05    1.4669368      115 
 5518000 0.0001410739 -0.00013036636    1.5118223 6.1957974e-05 -0.00013036636    1.5119527      123 
 5519000 0.00013430443            0    1.4631929 5.9015448e-05            0    1.4631929      121 
 5520000 0.00012853906            0    1.4120514 5.6482057e-05            0    1.4120514      120 
 5521000 0.00012211095            0    1.3758319 5.3657446e-05            0    1.3758319      117 
 5522000 0.00012453647            0    1.4031604 5.4723257e-05            0    1.4031604      117 
 5523000 0.0001231671            0    1.3996948 5.4121533e-05            0    1.3996948      116 
 5524000 0.00013138834            0    1.4314233 5.7734071e-05            0    1.4314233      121 
 5525000 0.0001177204 -7.1349351e-07    1.3377967 5.1711837e-05 -7.1349351e-07    1.3377975      116 
 5526000 0.00010979161            0    1.2808178 4.8244136e-05            0    1.2808178      113 
 5527000 0.0001124384            0    1.3724216 4.9407176e-05            0    1.3724216      108 
 5528000 0.00011178066            0    1.3518758 4.9118154e-05            0    1.3518758      109 
 5529000 0.00011569489            0    1.3740035 5.0838129e-05            0    1.3740035      111 
 5530000 0.00012175056            0    1.3487164 5.3499085e-05            0    1.3487164      119 
 5531000 0.0001122538            0    1.3701684 4.9326062e-05            0    1.3701684      108 
 5532000 0.00011442704            0    1.3116786 5.0281013e-05            0    1.3116786      115 
 5533000 0.00011400311            0    1.3787542 5.0094735e-05            0    1.3787542      109 
 5534000 0.00011760809            0    1.3481431 5.1678818e-05            0    1.3481431      115 
 5535000 0.00012256341            0     1.404946 5.3856264e-05            0     1.404946      115 
 5536000 0.00012358247            0     1.467677 5.4304051e-05            0     1.467677      111 
 5537000 0.00011181548            0    1.3648182 4.9133454e-05            0    1.3648182      108 
 5538000 0.00011469222            0    1.3620957 5.0397539e-05            0    1.3620957      111 
 5539000 0.00012342263            0    1.3788258 5.4233816e-05            0    1.3788258      118 
 5540000 0.0001100175            0    1.3428721 4.8343395e-05            0    1.3428721      108 
 5541000 0.00012031285 -2.9994228e-05    1.4160592 5.2847753e-05 -2.9994228e-05    1.4160892      112 
 5542000 0.00012044577            0    1.4838993 5.292574e-05            0    1.4838993      107 
 5543000 0.00012573545            0    1.4799135 5.5250106e-05            0    1.4799135      112 
 5544000 0.00012074077            0    1.4469645 5.3055365e-05            0    1.4469645      110 
 5545000 0.0001250282 -0.0023299372    1.5237625 5.4692228e-05 -0.0023299372    1.5260924      108 
 5546000 0.00012087765            0    1.5032692 5.3115512e-05            0    1.5032692      106 
 5547000 0.00012483575            0    1.5097641 5.4854764e-05            0    1.5097641      109 
 5548000 0.00012320239 -0.00071288713    1.5030938 5.4046015e-05 -0.00071288713    1.5038066      108 
 5549000 0.00011227797            0    1.3704634 4.9336681e-05            0    1.3704634      108 
 5550000 0.0001109873            0    1.3934155 4.8769541e-05            0    1.3934155      105 
 5551000 0.00011700298            0    1.3771318 5.1412922e-05            0    1.3771318      112 
 5552000 0.00011767327            0    1.4497419 5.170746e-05            0    1.4497419      107 
 5553000 0.00010586229            0    1.3817089 4.6517532e-05            0    1.3817089      101 
 5554000 0.00010914419            0    1.3834514 4.7959649e-05            0    1.3834514      104 
 5555000 0.00012024111            0    1.4409766 5.2835807e-05            0    1.4409766      110 
 5556000 0.00010600734            0     1.356736 4.6581269e-05            0     1.356736      103 
 5557000 0.00011038908 -0.0014712699    1.4113444 4.834652e-05 -0.0014712699    1.4128157      103 
 5558000 0.00010634615 -0.00012598712    1.3224253 4.6700699e-05 -0.00012598712    1.3225513      106 
 5559000 0.00011553537            0    1.3845827 5.0768034e-05            0    1.3845827      110 
 5560000 0.00010930196            0    1.3854512 4.8028975e-05            0    1.3854512      104 
 5561000 0.00011423528            0    1.4206629 5.0196754e-05            0    1.4206629      106 
 5562000 0.00012642966            0    1.5431987 5.5555153e-05            0    1.5431987      108 
 5563000 0.00011958934 -0.000780546    1.4589252 5.2451459e-05 -0.000780546    1.4597058      108 
 5564000 0.0001232001            0    1.4000698 5.4136032e-05            0    1.4000698      116 
 5565000 0.00011731112            0    1.4318979 5.1548323e-05            0    1.4318979      108 
 5566000 0.00011780138            0    1.4246904 5.1763751e-05            0    1.4246904      109 
 5567000 0.00013232392            0    1.5714914 5.8145182e-05            0    1.5714914      111 
 5568000 0.00012339626            0    1.4395282 5.4222228e-05            0    1.4395282      113 
 5569000 0.00011453143            0    1.4517371 5.0326887e-05            0    1.4517371      104 
 5570000 0.00012132147            0    1.4672625 5.3310537e-05            0    1.4672625      109 
 5571000 0.00011661901            0      1.42345  5.12442e-05            0      1.42345      108 
 5572000 0.00010498872            0    1.3840102 4.6133672e-05            0    1.3840102      100 
 5573000 0.00011878095            0    1.4234779 5.2194188e-05            0    1.4234779      110 
 5574000 0.00011761698            0    1.4908478 5.1682723e-05            0    1.4908478      104 
 5575000 0.00011323599            0    1.4492519 4.975765e-05            0    1.4492519      103 
 5576000 0.00011292896            0     1.488682 4.9622735e-05            0     1.488682      100 
 5577000 0.00010368168            0    1.3946735 4.5559336e-05            0    1.3946735       98 
 5578000 0.00011392126            0    1.4868941 5.0058768e-05            0    1.4868941      101 
 5579000 0.00010649184 -4.222738e-05    1.4179628 4.6773773e-05 -4.222738e-05     1.418005       99 
 5580000 0.00011285246            0    1.4729441 4.958912e-05            0    1.4729441      101 
 5581000 0.00010111131            0    1.3328963 4.4429878e-05            0    1.3328963      100 
 5582000 0.00010429028            0    1.4028601 4.5826765e-05            0    1.4028601       98 
 5583000 0.00011366591            0    1.4547543 4.9946563e-05            0    1.4547543      103 
 5584000 0.00010699961            0    1.3433511 4.7017289e-05            0    1.3433511      105 
 5585000 0.00011034753 -4.8587891e-05    1.3853347 4.8467113e-05 -4.8587891e-05    1.3853833      105 
 5586000 0.00010730583 -2.0416575e-05    1.4005295 4.7133552e-05 -2.0416575e-05    1.4005499      101 
 5587000 0.00011739131 -0.00015862605    1.4327181 5.1550399e-05 -0.00015862605    1.4328767      108 
 5588000 0.00011042866            0    1.3864018 4.8524064e-05            0    1.3864018      105 
 5589000 0.00011210251            0    1.4074165 4.9259579e-05            0    1.4074165      105 
 5590000 0.00012032112 -0.00017253228    1.4417629 5.2835986e-05 -0.00017253228    1.4419354      110 
 5591000 0.00011673647            0    1.4248837 5.1295813e-05            0    1.4248837      108 
 5592000 0.00013296201 -0.00010501068     1.510901 5.8397274e-05 -0.00010501068     1.511006      116 
 5593000 0.00011735278            0    1.4457934 5.156663e-05            0    1.4457934      107 
 5594000 0.00013420391            0    1.5656091 5.8971277e-05            0    1.5656091      113 
 5595000 0.00012147328 -0.0026923199    1.4530507 5.3093953e-05 -0.0026923199     1.455743      110 
 5596000 0.00013238411            0    1.5175208 5.8171629e-05            0    1.5175208      115 
 5597000 0.00012207795 -0.00046243308    1.4364021 5.3576035e-05 -0.00046243308    1.4368645      112 
 5598000 0.0001242583            0    1.4243745 5.4601021e-05            0    1.4243745      115 
 5599000 0.00012374559            0    1.4829745 5.437573e-05            0    1.4829745      110 
 5600000 0.00012127466            0    1.4666962 5.3289963e-05            0    1.4666962      109 
 5601000 0.00012358188            0    1.4810125 5.4303792e-05            0    1.4810125      110 
 5602000 0.0001354217            0    1.5128744 5.9506394e-05            0    1.5128744      118 
 5603000 0.00011799346            0    1.4674006 5.1848155e-05            0    1.4674006      106 
 5604000 0.00013189569            0    1.5524199 5.795701e-05            0    1.5524199      112 
 5605000 0.00011738034 -0.0016088419    1.3924112 5.1394395e-05 -0.0016088419      1.39402      111 
 5606000 0.00012262587            0    1.4695557 5.3883707e-05            0    1.4695557      110 
 5607000 0.00013078273            0    1.5673079 5.7467957e-05            0    1.5673079      110 
 5608000 0.00012577734            0    1.5073231 5.5268514e-05            0    1.5073231      110 
 5609000 0.00011989667            0    1.4910695 5.2684457e-05            0    1.4910695      106 
 5610000 0.00011100458            0    1.3936324 4.8777135e-05            0    1.3936324      105 
 5611000 0.00012077124            0    1.4342906 5.3068754e-05            0    1.4342906      111 
 5612000 0.00013642561            0    1.6057374 5.9947529e-05            0    1.6057374      112 
 5613000 0.00012641501 -0.0001197026     1.528744 5.5503299e-05 -0.0001197026    1.5288638      109 
 5614000 0.00013555819            0     1.567536 5.9566369e-05            0     1.567536      114 
 5615000 0.00012040684            0    1.5116752 5.2908633e-05            0    1.5116752      105 
 5616000 0.00012328628 -0.0082750523    1.5544336 5.3718408e-05 -0.0082750523    1.5627087      104 
 5617000 0.00012393763            0    1.6017682 5.4460117e-05            0    1.6017682      102 
 5618000 0.0001227233            0    1.6508118 5.392652e-05            0    1.6508118       98 
 5619000 0.00011565473 -0.00012431755    1.5398903 5.0792065e-05 -0.00012431755    1.5400146       99 
 5620000 0.00011307713            0    1.5210565 4.9687845e-05            0    1.5210565       98 
 5621000 0.00011585849            0    1.5584698 5.0910015e-05            0    1.5584698       98 
 5622000 0.00011408078            0    1.5503771 5.0128861e-05            0    1.5503771       97 
 5623000 0.00011395634            0    1.5328831 5.0074181e-05            0    1.5328831       98 
 5624000 0.00012906734            0    1.7014257 5.671419e-05            0    1.7014257      100 
 5625000 0.00011440184            0    1.5709357 5.0269943e-05            0    1.5709357       96 
 5626000 0.0001085388            0     1.490426 4.7693632e-05            0     1.490426       96 
 5627000 0.00011756422            0    1.5497863 5.1659542e-05            0    1.5497863      100 
 5628000 0.00011985296            0    1.5643143 5.2665249e-05            0    1.5643143      101 
 5629000 0.00012401209            0    1.5569382 5.4492836e-05            0    1.5569382      105 
 5630000 0.00013353859            0    1.6299702 5.8678928e-05            0    1.6299702      108 
 5631000 0.00012758925 -0.00068777688    1.6165631 5.5978869e-05 -0.00068777688    1.6172508      104 
 5632000 0.00012735428            0    1.4989673 5.5961445e-05            0    1.4989673      112 
 5633000 0.00012182799            0    1.5592168 5.3533109e-05            0    1.5592168      103 
 5634000 0.00012268614 -0.006244911    1.6110609 5.3429925e-05 -0.006244911    1.6173058      100 
 5635000 0.00011545837            0    1.5530876 5.0734196e-05            0    1.5530876       98 
 5636000 0.00012229587 -0.00029057975    1.6447716 5.3694418e-05 -0.00029057975    1.6450622       98 
 5637000 0.00013095419            0    1.6133635 5.7543299e-05            0    1.6133635      107 
 5638000 0.00011968329 -0.0005200327    1.5931373 5.252408e-05 -0.0005200327    1.5936573       99 
 5639000 0.00012539958            0    1.6049277 5.5102518e-05            0    1.6049277      103 
 5640000 0.00011827432            0    1.5591471 5.1971571e-05            0    1.5591471      100 
 5641000 0.00011915951            0    1.5866829 5.2360535e-05            0    1.5866829       99 
 5642000 0.00011634555            0    1.5337211 5.1124038e-05            0    1.5337211      100 
 5643000  0.000114115            0     1.504317 5.0143899e-05            0     1.504317      100 
 5644000 0.00012156502            0    1.5866601 5.3417555e-05            0    1.5866601      101 
 5645000 0.00011366531            0    1.4835534 4.9946299e-05            0    1.4835534      101 
 5646000 0.00011950657            0    1.4586955 5.2513038e-05            0    1.4586955      108 
 5647000 0.00010645168            0    1.4617662 4.677652e-05            0    1.4617662       96 
 5648000 0.0001036112            0    1.4846207 4.5528367e-05            0    1.4846207       92 
 5649000 0.00010599251            0    1.5024113 4.6574751e-05            0    1.5024113       93 
 5650000 0.00010226051            0    1.4652669 4.4934851e-05            0    1.4652669       92 
 5651000 0.00011010041            0    1.4962833 4.8379826e-05            0    1.4962833       97 
 5652000 0.0001186902            0    1.5965607 5.2154316e-05            0    1.5965607       98 
 5653000 0.00010817263            0    1.4550836 4.753273e-05            0    1.4550836       98 
 5654000 9.7036788e-05            0    1.3754667 4.2639469e-05            0    1.3754667       93 
 5655000 0.00010859413            0    1.4758127 4.7717945e-05            0    1.4758127       97 
 5656000 0.00010357477            0    1.4075987 4.5512358e-05            0    1.4075987       97 
 5657000 9.8819578e-05            0    1.4159626 4.3422854e-05            0    1.4159626       92 
 5658000 9.6053272e-05            0    1.3615257 4.2207297e-05            0    1.3615257       93 
 5659000 0.00010065488            0     1.382166 4.4229312e-05            0     1.382166       96 
 5660000 0.00010035285            0    1.3780187 4.4096599e-05            0    1.3780187       96 
 5661000 0.00010651391            0    1.4327713 4.6803863e-05            0    1.4327713       98 
 5662000 0.00010967301            0    1.5218533 4.8192021e-05            0    1.5218533       95 
 5663000 0.00011455444 -0.0084305353    1.5646007 4.9850593e-05 -0.0084305353    1.5730312       96 
 5664000 0.00010869192            0    1.4771417 4.7760914e-05            0    1.4771417       97 
 5665000 0.00010547172            0    1.4483097 4.6345911e-05            0    1.4483097       96 
 5666000 0.00012127448            0    1.5986966 5.3289885e-05            0    1.5986966      100 
 5667000 0.00011469046            0    1.5271747 5.0396764e-05            0    1.5271747       99 
 5668000 0.00012496508            0    1.6982966 5.4911591e-05            0    1.6982966       97 
 5669000 0.00010464457            0    1.4520773 4.5982447e-05            0    1.4520773       95 
 5670000 0.00010219782            0    1.4643687 4.4907308e-05            0    1.4643687       92 
 5671000 0.00010950606            0    1.4435598 4.8118661e-05            0    1.4435598      100 
 5672000 9.745056e-05            0    1.3108557 4.2821287e-05            0    1.3108557       98 
 5673000 9.9240405e-05            0    1.4376189 4.3607772e-05            0    1.4376189       91 
 5674000 0.00011474592            0    1.5279132 5.0421137e-05            0    1.5279132       99 
 5675000 0.00012333272            0     1.578475 5.4194309e-05            0     1.578475      103 
 5676000 0.00011855184            0    1.4743448 5.2093515e-05            0    1.4743448      106 
 5677000 0.0001190272            0    1.5849211 5.2302397e-05            0    1.5849211       99 
 5678000 0.00011657265            0    1.5367148 5.1223828e-05            0    1.5367148      100 
 5679000 9.5788102e-05            0    1.3291824 4.2090777e-05            0    1.3291824       95 
 5680000 0.00011144618            0    1.3991766 4.897118e-05            0    1.3991766      105 
 5681000 0.00011217568 -0.0096089259      1.48408 4.8996536e-05 -0.0096089259    1.4936889       99 
 5682000 0.00011071539            0    1.5203144 4.8650059e-05            0    1.5203144       96 
 5683000 0.00010669175            0    1.4206669 4.6882007e-05            0    1.4206669       99 
 5684000 0.00010749171            0    1.4608306 4.7233524e-05            0    1.4608306       97 
 5685000 0.00011323792            0    1.3950981 4.9758499e-05            0    1.3950981      107 
 5686000 0.00010964281            0     1.431052 4.8178751e-05            0     1.431052      101 
 5687000 9.4106954e-05            0    1.3058543 4.1352054e-05            0    1.3058543       95 
 5688000 9.6858479e-05            0    1.2897308 4.2561117e-05            0    1.2897308       99 
 5689000 9.5838212e-05            0    1.2633839 4.2112796e-05            0    1.2633839      100 
 5690000 9.7396927e-05            0    1.2465355 4.2797719e-05            0    1.2465355      103 
 5691000 8.9777923e-05            0    1.1954488 3.9449811e-05            0    1.1954488       99 
 5692000 9.2151837e-05 -0.0047677202    1.2475914 4.0091471e-05 -0.0047677202    1.2523591       97 
 5693000 8.9483356e-05            0     1.216094 3.9320374e-05            0     1.216094       97 
 5694000 9.4362943e-05            0    1.2565012 4.146454e-05            0    1.2565012       99 
 5695000 9.4739078e-05            0    1.2008602 4.162982e-05            0    1.2008602      104 
 5696000 9.7048885e-05            0    1.2922662 4.2644784e-05            0    1.2922662       99 
 5697000 9.4115867e-05            0    1.2532112 4.1355971e-05            0    1.2532112       99 
 5698000 9.0399997e-05            0    1.2160151 3.972316e-05            0    1.2160151       98 
 5699000 9.6923461e-05            0    1.2650397 4.2589671e-05            0    1.2650397      101 
 5700000 9.3520246e-05            0    1.2328274 4.1094245e-05            0    1.2328274      100 
 5701000 9.9862753e-05            0    1.3164372 4.3881241e-05            0    1.3164372      100 
 5702000 9.8480948e-05            0     1.324716 4.3274055e-05            0     1.324716       98 
 5703000 9.9742725e-05            0    1.3555206 4.3828499e-05            0    1.3555206       97 
 5704000 9.4236858e-05            0    1.3076569 4.1409136e-05            0    1.3076569       95 
 5705000 9.6317098e-05            0    1.3365229 4.2323226e-05            0    1.3365229       95 
 5706000 9.6045627e-05            0    1.3327559 4.2203937e-05            0    1.3327559       95 
 5707000 0.00010395866            0    1.3568628 4.5681049e-05            0    1.3568628      101 
 5708000 9.9883712e-05            0    1.2660707 4.3890451e-05            0    1.2660707      104 
 5709000 0.00011182627            0    1.4312096 4.9138197e-05            0    1.4312096      103 
 5710000 0.00010391309            0    1.2922931 4.5661024e-05            0    1.2922931      106 
 5711000 0.00010999297            0     1.306287 4.8332618e-05            0     1.306287      111 
 5712000 0.00010574995            0    1.3276619 4.6468166e-05            0    1.3276619      105 
 5713000 0.00010415271            0    1.2952731 4.5766316e-05            0    1.2952731      106 
 5714000 0.00010442553            0    1.2746166 4.5886197e-05            0    1.2746166      108 
 5715000 0.00010776955            0    1.3402531 4.735561e-05            0    1.3402531      106 
 5716000 0.00010813875            0    1.3448446 4.7517842e-05            0    1.3448446      106 
 5717000 0.00010809465            0    1.3194018 4.7498464e-05            0    1.3194018      108 
 5718000 0.00010479729            0    1.3157015 4.6049553e-05            0    1.3157015      105 
 5719000 0.00010778363            0    1.3531942 4.7361797e-05            0    1.3531942      105 
 5720000 0.00010490584            0    1.3558015 4.609725e-05            0    1.3558015      102 
 5721000 0.00010599452            0     1.397269 4.6575634e-05            0     1.397269      100 
 5722000 9.2650217e-05            0    1.2213582 4.0711941e-05            0    1.2213582      100 
 5723000 0.00010387644            0    1.3424976 4.5644918e-05            0    1.3424976      102 
 5724000 0.00010479718            0    1.3678071 4.6049507e-05            0    1.3678071      101 
 5725000 9.9259001e-05            0    1.2461698 4.3615943e-05            0    1.2461698      105 
 5726000 0.00010104381            0    1.2932102 4.4400216e-05            0    1.2932102      103 
 5727000 0.00010189097 -0.0009499504    1.3158875 4.466266e-05 -0.0009499504    1.3168374      102 
 5728000 0.00010289088            0     1.370056 4.5211849e-05            0     1.370056       99 
 5729000 0.00010617108            0    1.3080341 4.6653216e-05            0    1.3080341      107 
 5730000 9.5803565e-05            0     1.214353 4.2097571e-05            0     1.214353      104 
 5731000 0.00010423822            0    1.2606576 4.5803891e-05            0    1.2606576      109 
 5732000 9.4590442e-05            0    1.2224855 4.1564506e-05            0    1.2224855      102 
 5733000 0.00010603483 -0.00024556516    1.3437933 4.6551939e-05 -0.00024556516    1.3440389      104 
 5734000 9.4495603e-05            0    1.1641916 4.1522832e-05            0    1.1641916      107 
 5735000 0.00010414804            0    1.2831101 4.5764261e-05            0    1.2831101      107 
 5736000 9.9428782e-05 -0.0018748966    1.2958642 4.3496694e-05 -0.0018748966     1.297739      101 
 5737000 0.00010948967            0    1.3489194 4.8111457e-05            0    1.3489194      107 
 5738000 0.00011675206            0    1.4798846 5.1302667e-05            0    1.4798846      104 
 5739000 0.00011540598            0    1.4628224 5.0711177e-05            0    1.4628224      104 
 5740000 0.0001222944            0    1.4927237 5.3738053e-05            0    1.4927237      108 
 5741000 0.00010763798            0    1.3643595 4.7297795e-05            0    1.3643595      104 
 5742000 0.00010109615            0    1.3195014 4.4423215e-05            0    1.3195014      101 
 5743000 0.00011072411 -1.915855e-05    1.3641086 4.8635607e-05 -1.915855e-05    1.3641277      107 
 5744000 0.00011000701            0    1.3943881 4.8338787e-05            0    1.3943881      104 
 5745000 0.00010334624 -0.001470154    1.3746492 4.5257218e-05 -0.001470154    1.3761194       99 
 5746000 0.00010765368            0    1.4050899 4.7304695e-05            0    1.4050899      101 
 5747000 0.00010234867            0     1.450761 4.4973593e-05            0     1.450761       93 
 5748000 0.00010815799            0    1.5008304 4.7526296e-05            0    1.5008304       95 
 5749000 0.00010497527            0    1.4879922 4.6127759e-05            0    1.4879922       93 
 5750000 0.00010131566            0    1.4361184 4.4519669e-05            0    1.4361184       93 
 5751000 0.00010260037            0    1.4543288 4.5084194e-05            0    1.4543288       93 
 5752000 0.00010339655            0    1.4500228 4.5434048e-05            0    1.4500228       94 
 5753000 0.00010450563            0    1.4655764 4.5921394e-05            0    1.4655764       94 
 5754000 9.6998484e-05            0    1.4367181 4.2622637e-05            0    1.4367181       89 
 5755000 0.00010767274            0    1.4632909 4.7313072e-05            0    1.4632909       97 
 5756000 0.00010233109            0    1.4823912 4.4965866e-05            0    1.4823912       91 
 5757000 9.3135126e-05            0    1.3951711 4.0925018e-05            0    1.3951711       88 
 5758000 9.2527421e-05            0    1.4349876 4.0657983e-05            0    1.4349876       85 
 5759000 8.6341476e-05            0    1.3713174 3.7939783e-05            0    1.3713174       83 
 5760000 7.993195e-05            0    1.2695182 3.5123338e-05            0    1.2695182       83 
 5761000 8.2837639e-05 -0.0038528793    1.3118149 3.6098337e-05 -0.0038528793    1.3156678       83 
 5762000 8.9802371e-05 -5.6971997e-05    1.3152948 3.9439226e-05 -5.6971997e-05    1.3153518       90 
 5763000 8.1354231e-05 -0.0010525124    1.2316478 3.5643503e-05 -0.0010525124    1.2327004       87 
 5764000 8.7019814e-05            0    1.3035632 3.8237855e-05            0    1.3035632       88 
 5765000 8.8612777e-05            0    1.3906367 3.8937828e-05            0    1.3906367       84 
 5766000 9.3929126e-05            0    1.3606785 4.1273914e-05            0    1.3606785       91 
 5767000 0.00010051764            0    1.5230692 4.4169008e-05            0    1.5230692       87 
 5768000 8.9384173e-05            0    1.3862397 3.9276791e-05            0    1.3862397       85 
 5769000 8.8045343e-05            0    1.3654761 3.8688489e-05            0    1.3654761       85 
 5770000 9.8341058e-05            0     1.456604 4.3212585e-05            0     1.456604       89 
 5771000 9.089209e-05            0    1.3932346 3.9939393e-05            0    1.3932346       86 
 5772000 0.0001025051            0    1.5182808 4.5042331e-05            0    1.5182808       89 
 5773000 9.2461367e-05            0    1.5235859 4.0628958e-05            0    1.5235859       80 
 5774000 8.8738343e-05            0    1.4093857 3.8993003e-05            0    1.4093857       83 
 5775000 9.0430423e-05            0    1.4362601 3.973653e-05            0    1.4362601       83 
 5776000 9.5043677e-05            0     1.456872 4.1763665e-05            0     1.456872       86 
 5777000 8.7646468e-05            0    1.4625272 3.8513216e-05            0    1.4625272       79 
 5778000 9.3159754e-05            0    1.4619943 4.093584e-05            0    1.4619943       84 
 5779000 8.9776017e-05            0    1.4432551 3.9448974e-05            0    1.4432551       82 
 5780000 9.8839565e-05            0    1.5328813 4.3431637e-05            0    1.5328813       85 
 5781000 9.277601e-05            0    1.4388429 4.0767217e-05            0    1.4388429       85 
 5782000 9.1657074e-05            0    1.3730297 4.0275539e-05            0    1.3730297       88 
 5783000 9.4761054e-05            0    1.4525399 4.1639476e-05            0    1.4525399       86 
 5784000 8.7897739e-05            0    1.3794153 3.8623629e-05            0    1.3794153       84 
 5785000 8.7803449e-05            0    1.3617246 3.8582196e-05            0    1.3617246       85 
 5786000 8.4857707e-05            0    1.2292679 3.7287792e-05            0    1.2292679       91 
 5787000 8.6334476e-05            0    1.3389426 3.7936707e-05            0    1.3389426       85 
 5788000 9.174194e-05            0    1.4228058 4.0312831e-05            0    1.4228058       85 
 5789000 9.2517193e-05            0    1.3703423 4.0653488e-05            0    1.3703423       89 
 5790000 9.0014348e-05            0    1.3960129  3.95537e-05            0    1.3960129       85 
 5791000 8.4701477e-05 -0.00015422215    1.3615217 3.7190391e-05 -0.00015422215    1.3616759       82 
 5792000 8.7575621e-05            0    1.3743602 3.8482085e-05            0    1.3743602       84 
 5793000 9.1382768e-05            0    1.3846553 4.0155005e-05            0    1.3846553       87 
 5794000 8.9087038e-05            0     1.365566 3.9146225e-05            0     1.365566       86 
 5795000 8.8126906e-05            0    1.3830117 3.8724329e-05            0    1.3830117       84 
 5796000 9.996729e-05 -0.0059002262    1.4747911 4.3489957e-05 -0.0059002262    1.4806913       89 
 5797000 8.6979372e-05            0     1.365003 3.8220084e-05            0     1.365003       84 
 5798000 9.8515891e-05            0    1.5646774 4.3289409e-05            0    1.5646774       83 
 5799000 0.00010031421            0    1.4531742 4.4079617e-05            0    1.4531742       91 
 5800000 9.3372593e-05 -0.00068891095    1.4141168 4.0954624e-05 -0.00068891095    1.4148057       87 
 5801000 0.00010201797            0    1.5821745 4.4828276e-05            0    1.5821745       85 
 5802000 9.5900722e-05            0    1.4873034 4.2140264e-05            0    1.4873034       85 
 5803000 9.4872343e-05            0    1.5068088 4.1688378e-05            0    1.5068088       83 
 5804000 0.00010388858            0    1.6111854 4.5650252e-05            0    1.6111854       85 
 5805000 0.00010545572            0    1.5446292 4.6338876e-05            0    1.5446292       90 
 5806000 9.3069223e-05            0    1.4961973 4.0896059e-05            0    1.4961973       82 
 5807000 0.00010907754            0    1.6339896 4.7930361e-05            0    1.6339896       88 
 5808000 9.5013791e-05            0    1.4735482 4.1750532e-05            0    1.4735482       85 
 5809000 9.873641e-05 -0.0021592289    1.5113167 4.3195683e-05 -0.0021592289    1.5134759       86 
 5810000 8.9581348e-05            0    1.4761287 3.9363433e-05            0    1.4761287       80 
 5811000 9.4341099e-05            0    1.4983714 4.1454941e-05            0    1.4983714       83 
 5812000 9.3673728e-05            0     1.524507 4.1161688e-05            0     1.524507       81 
 5813000 8.6839333e-05            0    1.5062585 3.8158549e-05            0    1.5062585       76 
 5814000 9.4855087e-05            0    1.5437332 4.1680795e-05            0    1.5437332       81 
 5815000 9.1926342e-05            0    1.5147697 4.039386e-05            0    1.5147697       80 
 5816000 9.4299914e-05            0    1.4454713 4.1436844e-05            0    1.4454713       86 
 5817000 8.6260832e-05            0    1.4038647 3.7904347e-05            0    1.4038647       81 
 5818000 9.2194519e-05            0    1.4642783 4.0511701e-05            0    1.4642783       83 
 5819000 8.1321951e-05            0     1.429365 3.5734126e-05            0     1.429365       75 
 5820000 9.5774078e-05            0    1.5211306 4.2084614e-05            0    1.5211306       83 
 5821000 8.9837011e-05            0    1.4803416 3.9475775e-05            0    1.4803416       80 
 5822000 8.5283623e-05            0    1.3710346 3.7474946e-05            0    1.3710346       82 
 5823000 9.835567e-05 -0.00021167739    1.5074281 4.3184788e-05 -0.00021167739    1.5076397       86 
 5824000 0.00010351787            0    1.4995832 4.5487357e-05            0    1.4995832       91 
 5825000 0.00010283525            0    1.4735023 4.5187404e-05            0    1.4735023       92 
 5826000 8.6947613e-05            0    1.4694665 3.8206129e-05            0    1.4694665       78 
 5827000 9.0793851e-05            0    1.4420323 3.9896226e-05            0    1.4420323       83 
 5828000 9.0776955e-05            0       1.4246 3.9888801e-05            0       1.4246       84 
 5829000 8.8831322e-05 -0.00013154878    1.3615147 3.9006423e-05 -0.00013154878    1.3616463       86 
 5830000 8.5256251e-05            0    1.3875155 3.7462918e-05            0    1.3875155       81 
 5831000 8.6761792e-05            0    1.3455697 3.8124476e-05            0    1.3455697       85 
 5832000  9.37803e-05            0    1.4048358 4.1208517e-05            0    1.4048358       88 
 5833000 8.9760371e-05            0    1.3920741 3.9442098e-05            0    1.3920741       85 
 5834000 8.9685397e-05            0    1.4244272 3.9409153e-05            0    1.4244272       83 
 5835000 8.8459393e-05            0    1.3559452 3.8870428e-05            0    1.3559452       86 
 5836000 9.3273127e-05            0    1.4465526 4.0985658e-05            0    1.4465526       85 
 5837000 9.0429213e-05            0    1.3861395 3.9735998e-05            0    1.3861395       86 
 5838000 8.8343692e-05            0     1.323395 3.8819588e-05            0     1.323395       88 
 5839000 9.6696856e-05            0     1.448526 4.2490097e-05            0     1.448526       88 
 5840000 0.00010283725            0    1.4269983 4.518828e-05            0    1.4269983       95 
 5841000 9.0920426e-05 -7.326443e-05    1.3775765 3.9929284e-05 -7.326443e-05    1.3776498       87 
 5842000 9.0688682e-05            0    1.3901167 3.9850013e-05            0    1.3901167       86 
 5843000 9.9576169e-05            0    1.4424828 4.3755312e-05            0    1.4424828       91 
 5844000 9.7337162e-05            0    1.4257153 4.2771458e-05            0    1.4257153       90 
 5845000 0.00010516222 -9.0217925e-05    1.5233134 4.6185536e-05 -9.0217925e-05    1.5234036       91 
 5846000 9.722162e-05            0    1.4240229 4.2720687e-05            0    1.4240229       90 
 5847000 9.8926839e-05            0    1.4489995 4.3469986e-05            0    1.4489995       90 
 5848000 0.00011049438            0    1.4421667 4.8552945e-05            0    1.4421667      101 
 5849000 0.00010133435            0    1.4363833 4.4527883e-05            0    1.4363833       93 
 5850000 9.9855681e-05            0    1.3711917 4.3878134e-05            0    1.3711917       96 
 5851000 0.00010344761            0    1.3915251 4.5456485e-05            0    1.3915251       98 
 5852000 9.141975e-05            0    1.3390418 4.0171255e-05            0    1.3390418       90 
 5853000 0.00010006878            0    1.3885822 4.3971771e-05            0    1.3885822       95 
 5854000 9.9028318e-05            0    1.3458117 4.3514578e-05            0    1.3458117       97 
 5855000 0.00010525901            0    1.4606034 4.6252441e-05            0    1.4606034       95 
 5856000 9.8097358e-05 -6.4678341e-05    1.3756428 4.308323e-05 -6.4678341e-05    1.3757074       94 
 5857000 0.00010301242            0    1.4446357 4.5265253e-05            0    1.4446357       94 
 5858000 9.9670651e-05            0    1.4598943 4.3796829e-05            0    1.4598943       90 
 5859000 0.00011135174            0    1.5132891 4.8929681e-05            0    1.5132891       97 
 5860000 0.00010838216            0    1.4579021 4.7624803e-05            0    1.4579021       98 
 5861000 0.00010773309            0     1.434533 4.733959e-05            0     1.434533       99 
 5862000 0.00010444558            0     1.449316 4.5895006e-05            0     1.449316       95 
 5863000 0.00010541364 -0.0019176642     1.387694 4.6124429e-05 -0.0019176642    1.3896117      100 
 5864000 0.0001128349            0    1.4582765 4.9581402e-05            0    1.4582765      102 
 5865000 0.00012583905            0    1.6756252 5.5295631e-05            0    1.6756252       99 
 5866000 0.00012432119            0    1.6895461 5.4628657e-05            0    1.6895461       97 
 5867000 0.00011325827            0    1.4930232 4.9767439e-05            0    1.4930232      100 
 5868000 0.00012120307            0    1.6471703 5.3258506e-05            0    1.6471703       97 
 5869000 0.00011396028 -0.0097350912    1.5551372 4.9730907e-05 -0.0097350912    1.5648723       96 
 5870000 0.00011300785 -0.0033888255    1.5167357 4.9346151e-05 -0.0033888255    1.5201246       98 
 5871000 0.00011697755            0    1.5576287 5.1401747e-05            0    1.5576287       99 
 5872000 0.00011018641            0    1.5452431 4.8417617e-05            0    1.5452431       94 
 5873000 0.00011202273            0    1.4767357 4.9224522e-05            0    1.4767357      100 
 5874000 0.00010283126            0    1.3692621 4.518565e-05            0    1.3692621       99 
 5875000 0.00011756797            0    1.4760339 5.1661187e-05            0    1.4760339      105 
 5876000 0.00010694765            0     1.395875 4.6994457e-05            0     1.395875      101 
 5877000 0.00011345678 -1.060145e-05    1.3474129 4.9837251e-05 -1.060145e-05    1.3474235      111 
 5878000 0.00011198184            0    1.3796231 4.9206558e-05            0    1.3796231      107 
 5879000 0.0001120761 -0.002935703    1.3908749 4.8935311e-05 -0.002935703    1.3938106      106 
 5880000 0.00010589289            0    1.3959293 4.6530975e-05            0    1.3959293      100 
 5881000 0.00010478978 -7.3785301e-05    1.3410793 4.6022482e-05 -7.3785301e-05     1.341153      103 
 5882000 0.00010430248 -3.8974219e-05    1.3749248 4.5812013e-05 -3.8974219e-05    1.3749637      100 
 5883000 0.00010467702            0    1.3528442 4.5996704e-05            0    1.3528442      102 
 5884000 9.7756909e-05 -0.00088985198    1.3140867 4.2855206e-05 -0.00088985198    1.3149766       98 
 5885000 0.00010215191 -0.00045345775    1.3328276 4.4809489e-05 -0.00045345775    1.3332811      101 
 5886000 9.6421026e-05 -0.00023904418    1.2836668 4.2329319e-05 -0.00023904418    1.2839059       99 
 5887000 0.00010563651            0      1.33899 4.6418321e-05            0      1.33899      104 
 5888000 0.0001131247 -0.0030586922    1.4171912 4.9405881e-05 -0.0030586922    1.4202499      105 
 5889000 0.00010726487            0    1.4428729 4.7133847e-05            0    1.4428729       98 
 5890000 0.00011174762            0    1.4442246 4.9103635e-05            0    1.4442246      102 
 5891000 0.00010220805 -0.00045715188    1.3076535 4.4849434e-05 -0.00045715188    1.3081107      103 
 5892000 0.00010983962            0    1.3532308 4.8265231e-05            0    1.3532308      107 
 5893000 0.00010524685            0    1.4014272 4.6247096e-05            0    1.4014272       99 
 5894000 0.00010905994            0    1.3823835 4.792263e-05            0    1.3823835      104 
 5895000 0.00010684055            0    1.3413541 4.6947393e-05            0    1.3413541      105 
 5896000 0.00011357359 -0.005870589    1.3804071 4.9422675e-05 -0.005870589    1.3862777      108 
 5897000 0.00010914105            0    1.3834116 4.7958269e-05            0    1.3834116      104 
 5898000 9.1918468e-05 -2.4948452e-05    1.2754613 4.0371801e-05 -2.4948452e-05    1.2754863       95 
 5899000 0.00011703019            0    1.4554211 5.142488e-05            0    1.4554211      106 
 5900000 0.00010310832            0    1.3729514 4.5307395e-05            0    1.3729514       99 
 5901000 0.0001016412 -0.0013961328    1.3799251 4.4517218e-05 -0.0013961328    1.3813213       97 
 5902000 9.7890436e-05            0    1.3728056 4.3014575e-05            0    1.3728056       94 
 5903000 0.00010083283            0    1.3846097 4.430751e-05            0    1.3846097       96 
 5904000 0.00010161113            0    1.4249843 4.4649507e-05            0    1.4249843       94 
 5905000 0.00010582554            0    1.4840867 4.6501384e-05            0    1.4840867       94 
 5906000 9.8321525e-05            0    1.2707059 4.3204002e-05            0    1.2707059      102 
 5907000 0.00010496293            0    1.3976466 4.6122336e-05            0    1.3976466       99 
 5908000 9.9555717e-05            0    1.3670727 4.3746325e-05            0    1.3670727       96 
 5909000 8.4583861e-05            0    1.2119824 3.716746e-05            0    1.2119824       92 
 5910000 9.2411409e-05            0    1.2959683 4.0607005e-05            0    1.2959683       94 
 5911000 9.8854114e-05            0    1.3031409 4.343803e-05            0    1.3031409      100 
 5912000 0.00010309687            0     1.386807 4.5302363e-05            0     1.386807       98 
 5913000 0.00010658961            0    1.4790671 4.6837126e-05            0    1.4790671       95 
 5914000 0.00010238156            0    1.3913828 4.4988044e-05            0    1.3913828       97 
 5915000 9.7036064e-05 -0.0044468127    1.3710097 4.5289548e-05 -0.0044468127    1.3754565       93 
 5916000 0.00010497365            0    1.3566779 4.6127049e-05            0    1.3566779      102 
 5917000 0.00010480922            0    1.2675631 4.6054794e-05            0    1.2675631      109 
 5918000 0.00010318546            0    1.2954654 4.534129e-05            0    1.2954654      105 
 5919000 0.0001114096 -0.00086653482    1.3589975 4.8848401e-05 -0.00086653482    1.3598641      108 
 5920000 0.00010590607            0     1.424595 4.6536769e-05            0     1.424595       98 
 5921000 9.9901679e-05 -0.00017850309    1.3436484 4.3864827e-05 -0.00017850309    1.3438269       98 
 5922000 0.00010234253            0      1.37666 4.4970893e-05            0      1.37666       98 
 5923000 0.00010193807            0    1.3573687 4.4793169e-05            0    1.3573687       99 
 5924000 0.00010271554            0    1.3274942 4.5134802e-05            0    1.3274942      102 
 5925000 0.00011088658 -0.00069620155    1.3654332 4.8636634e-05 -0.00069620155    1.3661294      107 
 5926000 0.00011288373            0    1.3778573 4.9602861e-05            0    1.3778573      108 
 5927000 0.00011074419            0    1.3393408 4.8662714e-05            0    1.3393408      109 
 5928000 0.00010683747            0    1.3673603 4.6946038e-05            0    1.3673603      103 
 5929000 9.9170115e-05            0    1.2692297 4.3576886e-05            0    1.2692297      103 
 5930000 0.00010629547            0    1.3873627 4.6707878e-05            0    1.3873627      101 
 5931000 0.0001102712            0    1.3977367 4.8454872e-05            0    1.3977367      104 
 5932000 0.00011016781            0    1.3964262 4.8409443e-05            0    1.3964262      104 
 5933000 0.00011733438            0    1.4190426 5.1558546e-05            0    1.4190426      109 
 5934000 0.00012277565            0     1.541415 5.3949524e-05            0     1.541415      105 
 5935000 0.00011033969            0    1.3468048 4.8484971e-05            0    1.3468048      108 
 5936000 0.00010868242            0    1.3775983 4.7756742e-05            0    1.3775983      104 
 5937000 0.00011329687            0    1.4224115 4.9784401e-05            0    1.4224115      105 
 5938000 0.00011752918            0    1.5189454 5.1644143e-05            0    1.5189454      102 
 5939000 0.00011299086            0    1.4322096 4.9649934e-05            0    1.4322096      104 
 5940000 0.00010616253            0    1.3720429 4.664946e-05            0    1.3720429      102 
 5941000 0.00011900082            0    1.4799284 5.2290803e-05            0    1.4799284      106 
 5942000 0.00012009828            0    1.4262985 5.2773046e-05            0    1.4262985      111 
 5943000 0.00011309936 -3.0232718e-05     1.367794 4.9678098e-05 -3.0232718e-05    1.3678242      109 
 5944000 0.00011706666 -0.0087626279    1.3815321 5.167303e-05 -0.0087626279    1.3902948      111 
 5945000 0.00011702476            0    1.3897971 5.1422493e-05            0    1.3897971      111 
 5946000 0.00011680725 -0.00012727865    1.3747008 5.1296582e-05 -0.00012727865    1.3748281      112 
 5947000 0.00010618034            0    1.2960357 4.6657287e-05            0    1.2960357      108 
 5948000 0.00011764458            0    1.3846835 5.1694851e-05            0    1.3846835      112 
 5949000 0.00011101032 -0.0001218824     1.306476 4.8749916e-05 -0.0001218824    1.3065979      112 
 5950000 0.00011414489            0    1.3434919 5.0157033e-05            0    1.3434919      112 
 5951000 0.00010895415 -0.0001998858    1.3676899 4.7839191e-05 -0.0001998858    1.3678897      105 
 5952000 0.00010781964            0    1.3536464 4.7377622e-05            0    1.3536464      105 
 5953000 0.00011775382            0    1.4111687 5.1742852e-05            0    1.4111687      110 
 5954000 0.00011257035            0    1.3740322 4.9465158e-05            0    1.3740322      108 
 5955000 0.00010680064            0    1.2916475 4.6929859e-05            0    1.2916475      109 
 5956000 0.00010624383            0    1.2732324 4.6685188e-05            0    1.2732324      110 
 5957000 0.00010489749            0    1.2686308 4.6093585e-05            0    1.2686308      109 
 5958000 0.00011089843 -0.0014448792    1.3777199 4.8568878e-05 -0.0014448792    1.3791648      106 
 5959000 9.6058299e-05            0    1.2662852 4.2209505e-05            0    1.2662852      100 
 5960000 0.00011830258            0    1.4712449 5.1983988e-05            0    1.4712449      106 
 5961000 0.0001173544            0    1.4324262 5.1567344e-05            0    1.4324262      108 
 5962000 0.00011926363 -0.00031085483    1.3910065 5.2355522e-05 -0.00031085483    1.3913173      113 
 5963000 0.00010579057 -0.0038751505    1.3500865 4.6082446e-05 -0.0038751505    1.3539617      103 
 5964000 0.00011044673            0    1.3866287 4.8532003e-05            0    1.3866287      105 
 5965000 0.00011431689            0    1.4352175 5.0232612e-05            0    1.4352175      105 
 5966000 0.00012704299            0    1.5799431 5.5824658e-05            0    1.5799431      106 
 5967000 0.00011757711            0    1.4219781 5.1665205e-05            0    1.4219781      109 
 5968000 0.0001165716            0    1.4635248 5.1223369e-05            0    1.4635248      105 
 5969000 0.00010886418            0    1.4350982 4.7836607e-05            0    1.4350982      100 
 5970000 0.0001206919            0     1.515254 5.3033891e-05            0     1.515254      105 
 5971000 0.00011463427            0    1.3992243 5.0372073e-05            0    1.3992243      108 
 5972000 0.00010496791            0    1.3434328 4.6124527e-05            0    1.3434328      103 
 5973000 0.00010422127            0    1.3738932 4.5796441e-05            0    1.3738932      100 
 5974000 9.9639625e-05            0    1.4123611 4.3783196e-05            0    1.4123611       93 
 5975000 0.00010533239            0    1.3885405 4.6284684e-05            0    1.3885405      100 
 5976000 0.00010745646            0    1.3620586 4.7218033e-05            0    1.3620586      104 
 5977000 0.00010748531            0    1.4458381 4.7230713e-05            0    1.4458381       98 
 5978000 0.00010536315            0    1.4319031  4.62982e-05            0    1.4319031       97 
 5979000 0.00010177721            0    1.3283906 4.4722482e-05            0    1.3283906      101 
 5980000 0.00010239825            0    1.3634963 4.4995378e-05            0    1.3634963       99 
 5981000 0.00010092067            0    1.3438214 4.4346108e-05            0    1.3438214       99 
 5982000 0.00011097438            0    1.3421247 4.8763863e-05            0    1.3421247      109 
 5983000 0.00010798245            0    1.4378534 4.7449161e-05            0    1.4378534       99 
 5984000 9.1131166e-05            0    1.3057972 4.0044447e-05            0    1.3057972       92 
 5985000 9.2083836e-05            0    1.2913744 4.0463065e-05            0    1.2913744       94 
 5986000 9.3651633e-05            0     1.313361 4.1151979e-05            0     1.313361       94 
 5987000 9.3010454e-05 -0.0013593163    1.3609819 4.0736752e-05 -0.0013593163    1.3623412       90 
 5988000 9.2105606e-05            0     1.364246 4.0472631e-05            0     1.364246       89 
 5989000 8.6085106e-05            0    1.2895612 3.782713e-05            0    1.2895612       88 
 5990000 9.8518777e-05  -0.01605594    1.4111093 4.2411429e-05  -0.01605594    1.4271652       91 
 5991000 8.3399051e-05            0     1.278378 3.6646836e-05            0     1.278378       86 
 5992000 0.00010704162            0    1.4110724 4.7035748e-05            0    1.4110724      100 
 5993000 8.8680797e-05            0    1.3753312 3.8967717e-05            0    1.3753312       85 
 5994000 8.7671284e-05            0     1.328418 3.8524121e-05            0     1.328418       87 
 5995000 9.1356967e-05            0    1.4003605 4.0143667e-05            0    1.4003605       86 
 5996000 9.806944e-05            0    1.4859735 4.3093232e-05            0    1.4859735       87 
 5997000 9.6918034e-05            0    1.4355265 4.2587286e-05            0    1.4355265       89 
 5998000 9.6714982e-05            0    1.4487976 4.2498062e-05            0    1.4487976       88 
 5999000 0.00010002272 -0.00091892755    1.4641322 4.3855095e-05 -0.00091892755    1.4650512       90 
 6000000 9.702978e-05            0    1.4535133 4.2636389e-05            0    1.4535133       88 
 6001000 9.2072129e-05            0    1.3951007 4.0457921e-05            0    1.3951007       87 
 6002000 8.4338662e-05            0    1.2927808 3.7059715e-05            0    1.2927808       86 
 6003000 8.6423476e-05            0    1.3095109 3.7975815e-05            0    1.3095109       87 
 6004000 9.5521702e-05 -0.0034626104    1.3802863 4.1675546e-05 -0.0034626104    1.3837489       91 
 6005000 8.9668386e-05            0    1.3744772 3.9401679e-05            0    1.3744772       86 
 6006000 8.3687279e-05            0    1.2536416 3.6773487e-05            0    1.2536416       88 
 6007000 7.6729285e-05 -0.00029276051    1.1491176 3.367441e-05 -0.00029276051    1.1494104       88 
 6008000 8.5861007e-05            0    1.2302823 3.7728657e-05            0    1.2302823       92 
 6009000 8.6679338e-05 -0.00095699781    1.2829164 3.798947e-05 -0.00095699781    1.2838734       89 
 6010000 8.7593785e-05            0    1.2284064 3.8490067e-05            0    1.2284064       94 
 6011000 8.7054444e-05            0    1.2894294 3.8253072e-05            0    1.2894294       89 
 6012000 8.4941961e-05            0    1.2304884 3.7324814e-05            0    1.2304884       91 
 6013000 9.5632068e-05            0    1.3270172 4.2022213e-05            0    1.3270172       95 
 6014000 9.0996969e-05            0    1.2761323 3.9985479e-05            0    1.2761323       94 
 6015000 9.1691206e-05            0    1.2996948 4.0290537e-05            0    1.2996948       93 
 6016000 9.2789854e-05            0    1.3152677  4.07733e-05            0    1.3152677       93 
 6017000 0.00010408435            0    1.4000901 4.5736278e-05            0    1.4000901       98 
 6018000 0.00011144684            0    1.3730318 4.8971467e-05            0    1.3730318      107 
 6019000 0.00010170201            0    1.3143953 4.468944e-05            0    1.3143953      102 
 6020000 9.5927838e-05            0    1.2645654 4.2152179e-05            0    1.2645654      100 
 6021000 9.1846919e-05            0    1.3019019 4.035896e-05            0    1.3019019       93 
 6022000 9.1188294e-05            0    1.2521734 4.006955e-05            0    1.2521734       96 
 6023000 9.2700151e-05            0    1.2863332 4.0733883e-05            0    1.2863332       95 
 6024000 0.00010151212            0     1.351697   4.4606e-05            0     1.351697       99 
 6025000 0.00010039951            0    1.3505235 4.4117101e-05            0    1.3505235       98 
 6026000 0.00010710952            0    1.4556367 4.7065585e-05            0    1.4556367       97 
 6027000 0.0001056605            0    1.4509019 4.642886e-05            0    1.4509019       96 
 6028000 9.651791e-05            0    1.3253583 4.2411466e-05            0    1.3253583       96 
 6029000 0.00010454262            0    1.4506626 4.593765e-05            0    1.4506626       95 
 6030000 0.00010618449            0    1.5051327 4.6659113e-05            0    1.5051327       93 
 6031000 0.00011262748 -0.00017868688    1.4845291 4.945637e-05 -0.00017868688    1.4847078      100 
 6032000 0.00010110454 -0.00011997338    1.3882208 4.4399266e-05 -0.00011997338    1.3883407       96 
 6033000 0.00011582095            0    1.4680823 5.0893521e-05            0    1.4680823      104 
 6034000 0.00010396556            0     1.384366 4.5684077e-05            0     1.384366       99 
 6035000 0.00010796427            0    1.4091438 4.7441174e-05            0    1.4091438      101 
 6036000 0.0001004632            0     1.379534 4.4145089e-05            0     1.379534       96 
 6037000 0.00011084632            0    1.4612277 4.870759e-05            0    1.4612277      100 
 6038000 0.00010347684            0    1.3505741 4.5469329e-05            0    1.3505741      101 
 6039000 0.0001130388            0      1.49013 4.9670999e-05            0      1.49013      100 
 6040000 9.8883382e-05            0    1.3578403 4.3450891e-05            0    1.3578403       96 
 6041000 0.00010189604 -0.0036084166    1.3811761 4.4449969e-05 -0.0036084166    1.3847845       97 
 6042000 9.8093902e-05            0    1.3331128 4.3103981e-05            0    1.3331128       97 
 6043000 0.00010243722            0    1.4066407 4.5012502e-05            0    1.4066407       96 
 6044000 9.6498448e-05            0    1.3390394 4.2402914e-05            0    1.3390394       95 
 6045000 9.5370654e-05            0    1.2699195 4.1907344e-05            0    1.2699195       99 
 6046000 8.9623141e-05            0    1.2436357 3.9381797e-05            0    1.2436357       95 
 6047000 9.5011555e-05            0    1.3046734 4.174955e-05            0    1.3046734       96 
 6048000 8.9932309e-05 -0.0023277063    1.2455981 3.9296269e-05 -0.0023277063    1.2479258       95 
 6049000 9.5212617e-05            0    1.2678151  4.18379e-05            0    1.2678151       99 
 6050000 9.7620979e-05            0    1.3837475 4.2896171e-05            0    1.3837475       93 
 6051000 9.9116399e-05            0    1.3899984 4.3553282e-05            0    1.3899984       94 
 6052000 0.00010426322 -7.371185e-05    1.3607642 4.5791257e-05 -7.371185e-05    1.3608379      101 
 6053000 0.00010132195            0    1.3913261 4.4522435e-05            0    1.3913261       96 
 6054000 0.00010031161 -2.7008846e-05    1.3356844 4.4059578e-05 -2.7008846e-05    1.3357114       99 
 6055000 9.6777447e-05            0    1.3429109 4.252551e-05            0    1.3429109       95 
 6056000 8.4405139e-05            0    1.2789285 3.7088926e-05            0    1.2789285       87 
 6057000 9.3651384e-05            0    1.4029047 4.115187e-05            0    1.4029047       88 
 6058000 9.4430616e-05            0     1.338525 4.1494277e-05            0     1.338525       93 
 6059000 0.00010003634            0    1.3881321 4.3957516e-05            0    1.3881321       95 
 6060000 0.00010784613            0    1.4360382 4.7389261e-05            0    1.4360382       99 
 6061000 0.0001007018            0    1.4429326 4.4249932e-05            0    1.4429326       92 
 6062000 0.00011806567            0    1.4822824 5.1879886e-05            0    1.4822824      105 
 6063000 0.0001022054            0    1.4970213 4.4910638e-05            0    1.4970213       90 
 6064000 0.00010636498            0    1.4605756 4.6738419e-05            0    1.4605756       96 
 6065000 0.00010883271            0    1.4944619 4.782278e-05            0    1.4944619       96 
 6066000 0.00011207723            0    1.4628259 4.9248471e-05            0    1.4628259      101 
 6067000 0.00010450892 -5.0384919e-06    1.4813769 4.5906125e-05 -5.0384919e-06    1.4813819       93 
 6068000 0.00010532274            0    1.4313539 4.6280442e-05            0    1.4313539       97 
 6069000 0.00011541954            0    1.5685712 5.0717134e-05            0    1.5685712       97 
 6070000 0.00010827126            0    1.5347119 4.757607e-05            0    1.5347119       93 
 6071000 0.00011183251            0    1.5356543 4.9140939e-05            0    1.5356543       96 
 6072000 0.00010819443 -0.0035713327    1.5300516 4.7231037e-05 -0.0035713327    1.5336229       93 
 6073000 0.00010308305            0    1.4304092 4.529629e-05            0    1.4304092       95 
 6074000 0.00010574195            0    1.4520204 4.6464651e-05            0    1.4520204       96 
 6075000 9.6739638e-05            0    1.3712547 4.2508896e-05            0    1.3712547       93 
 6076000 0.00010907725 -0.00031329132     1.423357 4.7882865e-05 -0.00031329132    1.4236703      101 
 6077000 0.00010636188            0    1.4605331 4.6737058e-05            0    1.4605331       96 
 6078000 0.00010195039            0    1.3713852 4.4798582e-05            0    1.3713852       98 
 6079000 0.00010547098            0    1.4333686 4.6345584e-05            0    1.4333686       97 
 6080000 0.00010817947            0    1.5170979 4.7535734e-05            0    1.5170979       94 
 6081000 0.00010874754            0    1.5414631 4.7785355e-05            0    1.5414631       93 
 6082000 9.7398102e-05            0    1.3955946 4.2798236e-05            0    1.3955946       92 
 6083000 0.00010337254            0    1.4344262 4.5423498e-05            0    1.4344262       95 
 6084000 9.6962697e-05            0    1.3744165 4.2606912e-05            0    1.3744165       93 
 6085000 9.844191e-05            0    1.4260517 4.3256901e-05            0    1.4260517       91 
 6086000 9.573968e-05            0    1.3285105  4.20695e-05            0    1.3285105       95 
 6087000 0.00010749229 -0.0045911425    1.5190792 4.6854938e-05 -0.0045911425    1.5236703       93 
 6088000 0.00010948876            0    1.4579109 4.811106e-05            0    1.4579109       99 
 6089000 0.00011354769            0    1.5431325 4.9894616e-05            0    1.5431325       97 
 6090000 0.00010430332            0    1.4473419 4.5832495e-05            0    1.4473419       95 
 6091000 0.00010005069            0    1.4031008 4.3963826e-05            0    1.4031008       94 
 6092000 9.5931097e-05            0    1.3311667 4.2153611e-05            0    1.3311667       95 
 6093000 0.00010313497            0    1.4311296 4.5319105e-05            0    1.4311296       95 
 6094000 9.4703214e-05            0    1.3004394 4.161406e-05            0    1.3004394       96 
 6095000 0.00010140989            0    1.2978955 4.456108e-05            0    1.2978955      103 
 6096000 9.4240529e-05            0    1.3077079 4.1410749e-05            0    1.3077079       95 
 6097000 0.00010350985            0    1.4363316 4.5483834e-05            0    1.4363316       95 
 6098000 0.00011378775            0    1.4423106 5.0000102e-05            0    1.4423106      104 
 6099000 9.9244845e-05            0    1.3215068 4.3609723e-05            0    1.3215068       99 
 6100000 0.00010475285            0    1.3948493 4.6030026e-05            0    1.3948493       99 
 6101000 0.00011464815 -0.0084905348    1.4308859 4.9955315e-05 -0.0084905348    1.4393764      105 
 6102000 0.00010702041            0    1.4107928 4.7026428e-05            0    1.4107928      100 
 6103000 0.00011575091            0    1.4260583 5.0862745e-05            0    1.4260583      107 
 6104000 0.00011363745            0    1.4831899 4.9934058e-05            0    1.4831899      101 
 6105000 0.00011727056            0    1.5615303 5.1530501e-05            0    1.5615303       99 
 6106000 0.00012549275            0    1.5177099 5.5143461e-05            0    1.5177099      109 
 6107000 0.00011441288            0    1.4643144 5.0274794e-05            0    1.4643144      103 
 6108000 0.00011607981            0    1.5150674 5.1007269e-05            0    1.5150674      101 
 6109000 0.00012209941            0    1.6424196 5.3652372e-05            0    1.6424196       98 
 6110000 0.00011895007            0    1.5525298 5.2268503e-05            0    1.5525298      101 
 6111000 0.00011019163            0    1.4102886 4.841991e-05            0    1.4102886      103 
 6112000 0.00011203308            0    1.4338565 4.9229072e-05            0    1.4338565      103 
 6113000 0.00010900236 -0.0057338105    1.4030111 4.7431931e-05 -0.0057338105     1.408745      102 
 6114000 0.00010761239            0    1.4329258 4.7286552e-05            0    1.4329258       99 
 6115000 0.00012363333            0    1.5375396  5.43264e-05            0    1.5375396      106 
 6116000 0.00011697655            0    1.4547541 5.140131e-05            0    1.4547541      106 
 6117000 0.00012319305            0    1.4630523 5.4132935e-05            0    1.4630523      111 
 6118000 0.00012863104            0    1.5556644 5.6522474e-05            0    1.5556644      109 
 6119000 0.00012560955            0    1.5331884 5.5194783e-05            0    1.5331884      108 
 6120000 0.00011459953            0    1.4118732 5.0356811e-05            0    1.4118732      107 
 6121000 0.00012048213            0     1.443865 5.2941715e-05            0     1.443865      110 
 6122000 0.00011408343 -0.0032407968    1.4290457 4.9812582e-05 -0.0032407968    1.4322865      105 
 6123000 0.00011815486            0    1.3783826 5.1919077e-05            0    1.3783826      113 
 6124000 0.00012191457            0    1.4349415 5.357115e-05            0    1.4349415      112 
 6125000 0.0001088049            0    1.3280711 4.7810561e-05            0    1.3280711      108 
 6126000 0.00011485147            0    1.3763868 5.0467516e-05            0    1.3763868      110 
 6127000 0.00010830668            0     1.359761 4.7591635e-05            0     1.359761      105 
 6128000 0.00011244518            0    1.3234863 4.9410155e-05            0    1.3234863      112 
 6129000 0.00011458924            0    1.3608727 5.035229e-05            0    1.3608727      111 
 6130000 0.00011506907            0    1.3789945 5.0563133e-05            0    1.3789945      110 
 6131000 0.00012105058 -0.00053343337     1.387071 5.311541e-05 -0.00053343337    1.3876044      115 
 6132000 0.00013174312            0    1.5234203 5.788997e-05            0    1.5234203      114 
 6133000 0.00011967464 -0.0058898133    1.3902224 5.2095094e-05 -0.0058898133    1.3961122      113 
 6134000 0.00012662434            0    1.4642289 5.5640698e-05            0    1.4642289      114 
 6135000 0.00012754253            0    1.4620217 5.6044166e-05            0    1.4620217      115 
 6136000 0.0001228816            0    1.4593535 5.3996078e-05            0    1.4593535      111 
 6137000 0.00013113772 -0.00059334486    1.4521112 5.7538999e-05 -0.00059334486    1.4527046      119 
 6138000 0.00013483155 -0.00030570255    1.5726254 5.9196875e-05 -0.00030570255    1.5729311      113 
 6139000 0.00013689669            0     1.611282 6.0154528e-05            0     1.611282      112 
 6140000 0.00014385271            0    1.5802778 6.3211111e-05            0    1.5802778      120 
 6141000 0.00013446105            0    1.5280414 5.9084269e-05            0    1.5280414      116 
 6142000 0.00013463729 -0.00052979191    1.5563574 5.908653e-05 -0.00052979191    1.5568872      114 
 6143000 0.00013367848            0    1.5191482 5.8740397e-05            0    1.5191482      116 
 6144000 0.00012778205            0    1.4906924 5.6149415e-05            0    1.4906924      113 
 6145000 0.00013101098            0    1.5420068 5.7568254e-05            0    1.5420068      112 
 6146000 0.00013665321            0     1.488782 6.004754e-05            0     1.488782      121 
 6147000 0.00014451866 -0.0017768871    1.6265242 6.329374e-05 -0.0017768871    1.6283011      117 
 6148000 0.00013936322 -0.00012368307    1.5700907 6.1207814e-05 -0.00012368307    1.5702144      117 
 6149000 0.00013657238            0     1.565531 6.0012022e-05            0     1.565531      115 
 6150000 0.00013928204            0    1.5300672 6.1202687e-05            0    1.5300672      120 
 6151000 0.00013203513            0     1.450457 5.8018281e-05            0     1.450457      120 
 6152000 0.00012672612            0    1.4915738 5.5685421e-05            0    1.4915738      112 
 6153000 0.00013180094            0    1.5513047 5.7915377e-05            0    1.5513047      112 
 6154000 0.00012888683            0    1.5445874 5.6634873e-05            0    1.5445874      110 
 6155000 0.00012991278            0    1.6156327 5.708569e-05            0    1.6156327      106 
 6156000 0.00013082418            0    1.5678047 5.7486173e-05            0    1.5678047      110 
 6157000 0.0001426168            0    1.6348182 6.2668032e-05            0    1.6348182      115 
 6158000 0.00012656192 -1.7835611e-05    1.4764406 5.5595022e-05 -1.7835611e-05    1.4764585      113 
 6159000 0.0001271323            0    1.4324078 5.5863905e-05            0    1.4324078      117 
 6160000 0.00013423477            0    1.4996146 5.898484e-05            0    1.4996146      118 
 6161000 0.00013173809            0    1.5368432 5.7887759e-05            0    1.5368432      113 
 6162000 0.0001279541 -0.00023829105    1.5331713 5.618295e-05 -0.00023829105    1.5334095      110 
 6163000 0.00012862288            0    1.5414242 5.6518888e-05            0    1.5414242      110 
 6164000 0.00012512175            0     1.513223 5.4980437e-05            0     1.513223      109 
 6165000 0.00013783009 -0.00071290999    1.4885824  6.04642e-05 -0.00071290999    1.4892953      122 
 6166000 0.00012756388            0    1.4622664 5.6053544e-05            0    1.4622664      115 
 6167000 0.00012316895            0    1.3877524 5.4122345e-05            0    1.3877524      117 
 6168000 0.00011752347            0    1.3832581 5.1641636e-05            0    1.3832581      112 
 6169000 0.00012519663            0    1.4105984 5.5013338e-05            0    1.4105984      117 
 6170000 0.00012111799            0    1.4005559 5.3221123e-05            0    1.4005559      114 
 6171000 0.0001150705            0    1.3424008 5.0563762e-05            0    1.3424008      113 
 6172000 0.00012304079            0    1.4104182 5.4066032e-05            0    1.4104182      115 
 6173000 0.00012399503            0    1.4338247 5.4485338e-05            0    1.4338247      114 
 6174000 0.00011257695            0    1.3369745 4.9468057e-05            0    1.3369745      111 
 6175000 0.00011655189            0    1.3967648 5.1214708e-05            0    1.3967648      110 
 6176000 0.00011542965            0    1.3708534 5.0721576e-05            0    1.3708534      111 
 6177000   0.00011178            0    1.3643852 4.9117866e-05            0    1.3643852      108 
 6178000 0.00010854497            0    1.3248984 4.7696342e-05            0    1.3248984      108 
 6179000 0.00010694108            0      1.32995 4.6991567e-05            0      1.32995      106 
 6180000 0.00010520321            0    1.3334977 4.6227919e-05            0    1.3334977      104 
 6181000 0.00011554799            0     1.384734 5.077358e-05            0     1.384734      110 
 6182000 0.00011231289            0    1.3837016 4.9352025e-05            0    1.3837016      107 
 6183000 0.00012290191            0    1.4465626 5.4005005e-05            0    1.4465626      112 
 6184000 0.00012011077            0    1.4660704 5.2778533e-05            0    1.4660704      108 
 6185000 0.00013230097 -0.00064274176    1.4773682 5.8045164e-05 -0.00064274176     1.478011      118 
 6186000 0.00012623323 -0.0015347194    1.4454784 5.5266493e-05 -0.0015347194    1.4470131      115 
 6187000 0.00012257973            0    1.3930198 5.3863432e-05            0    1.3930198      116 
 6188000 0.00011778563            0      1.41155 5.1756833e-05            0      1.41155      110 
 6189000 0.00010901462 -0.0024692399    1.3159541 4.7641183e-05 -0.0024692399    1.3184234      109 
 6190000 0.00012407732            0     1.514486 5.4521497e-05            0     1.514486      108 
 6191000 0.00012112588            0    1.5063563 5.3224589e-05            0    1.5063563      106 
 6192000 0.00012009537            0    1.4392301 5.2771769e-05            0    1.4392301      110 
 6193000 0.00012065909            0    1.4459856 5.3019472e-05            0    1.4459856      110 
 6194000 0.00012112431            0    1.5063367 5.3223898e-05            0    1.5063367      106 
 6195000 0.00011310905            0    1.3806074 4.9701868e-05            0    1.3806074      108 
 6196000 0.00011790008            0    1.4001925 5.1807121e-05            0    1.4001925      111 
 6197000 0.0001238361            0    1.4976744 5.4415501e-05            0    1.4976744      109 
 6198000 0.00012534935            0    1.4623128 5.5080449e-05            0    1.4623128      113 
 6199000 0.00011618029            0     1.458612 5.1051421e-05            0     1.458612      105 
 6200000 0.00011791548            0     1.413106 5.1813888e-05            0     1.413106      110 
 6201000 0.00011848505            0    1.5164321 5.2064169e-05            0    1.5164321      103 
 6202000 0.00011601414            0    1.4993651 5.0978412e-05            0    1.4993651      102 
 6203000 0.00011550347            0    1.4782723 5.0754014e-05            0    1.4782723      103 
 6204000 0.0001058507            0     1.438529 4.6512439e-05            0     1.438529       97 
 6205000 0.00011990949            0    1.5346627 5.2690087e-05            0    1.5346627      103 
 6206000 0.00011025456            0    1.4249283 4.8447562e-05            0    1.4249283      102 
 6207000 0.00010636026            0    1.4605109 4.6736348e-05            0    1.4605109       96 
 6208000 0.00010594789            0    1.4858025 4.6555145e-05            0    1.4858025       94 
 6209000 0.00010715697            0       1.5523 4.7086432e-05            0       1.5523       91 
 6210000 0.0001171132 -0.000154342    1.5592807 5.1430012e-05 -0.000154342     1.559435       99 
 6211000 0.00011266178 -4.0016463e-06    1.4560352 4.9488679e-05 -4.0016463e-06    1.4560392      102 
 6212000 0.00010449418            0    1.4499904 4.5916362e-05            0    1.4499904       95 
 6213000 0.00010752365            0    1.5406812 4.7247557e-05            0    1.5406812       92 
 6214000 0.00011964735            0    1.6094358 5.2574902e-05            0    1.6094358       98 
 6215000 0.00012034738            0    1.6188521 5.2882503e-05            0    1.6188521       98 
 6216000 0.00011044964 -0.00054382739    1.4701617 4.8464402e-05 -0.00054382739    1.4707055       99 
 6217000 0.00010586321            0    1.5005785 4.6517933e-05            0    1.5005785       93 
 6218000 9.9550608e-05            0    1.4110994 4.374408e-05            0    1.4110994       93 
 6219000 0.00010559119 -0.0021056334    1.4631072 4.6195223e-05 -0.0021056334    1.4652128       95 
 6220000 9.5149472e-05            0    1.4584937 4.1810153e-05            0    1.4584937       86 
 6221000 9.8952652e-05            0    1.4026235 4.3481329e-05            0    1.4026235       93 
 6222000 0.00010090568            0     1.445854 4.4339522e-05            0     1.445854       92 
 6223000 8.8216466e-05            0    1.3366787 3.8763682e-05            0    1.3366787       87 
 6224000 9.4283221e-05            0    1.3809836 4.1429509e-05            0    1.3809836       90 
 6225000 0.00011263351            0    1.5466534 4.9492909e-05            0    1.5466534       96 
 6226000 9.8321695e-05            0    1.3643393 4.3204077e-05            0    1.3643393       95 
 6227000 9.4795116e-05            0    1.4040824 4.1654444e-05            0    1.4040824       89 
 6228000 0.00010365472            0    1.4383418 4.5547489e-05            0    1.4383418       95 
 6229000 9.8976655e-05 -0.0027104603    1.3853281 4.3242163e-05 -0.0027104603    1.3880386       94 
 6230000 8.999203e-05            0    1.2894748 3.9543893e-05            0    1.2894748       92 
 6231000 0.00010020883            0    1.4053185 4.4033314e-05            0    1.4053185       94 
 6232000 0.00010262802 -0.00057689436    1.3389184 4.5023204e-05 -0.00057689436    1.3394953      101 
 6233000 0.00010011533            0    1.3892282 4.3992226e-05            0    1.3892282       95 
 6234000 0.00010460127            0    1.4363568 4.5963418e-05            0    1.4363568       96 
 6235000 0.0001026062            0    1.3802068 4.5086754e-05            0    1.3802068       98 
 6236000 9.6243767e-05            0    1.4097001 4.2291003e-05            0    1.4097001       90 
 6237000 0.0001054926            0    1.4638447 4.6355083e-05            0    1.4638447       95 
 6238000 0.00010819766 -8.463433e-05    1.4553356 4.7519269e-05 -8.463433e-05    1.4554202       98 
 6239000 0.0001052901            0    1.4163093 4.6266103e-05            0    1.4163093       98 
 6240000 0.00010750466 -0.0007964688    1.4306949 4.7146427e-05 -0.0007964688    1.4314914       99 
 6241000 0.00010051393            0    1.4095972 4.416738e-05            0    1.4095972       94 
 6242000 0.00010344746            0    1.4058685 4.5456416e-05            0    1.4058685       97 
 6243000 8.9360247e-05            0    1.2804221 3.9266278e-05            0    1.2804221       92 
 6244000 9.7547884e-05            0    1.3395016 4.2864052e-05            0    1.3395016       96 
 6245000 0.00010750532            0    1.4461072 4.7239502e-05            0    1.4461072       98 
 6246000 0.00010407947            0    1.4000245 4.5734134e-05            0    1.4000245       98 
 6247000 0.0001058319            0    1.4235973 4.6504179e-05            0    1.4235973       98 
 6248000 0.0001059345 -0.00014055529    1.4395273 4.6519538e-05 -0.00014055529    1.4396679       97 
 6249000 0.00011441062            0    1.3964945 5.0273801e-05            0    1.3964945      108 
 6250000 0.00010894413            0    1.4959918 4.7871739e-05            0    1.4959918       96 
 6251000 0.00010549665            0    1.3501998 4.6356861e-05            0    1.3501998      103 
 6252000 0.0001113609            0    1.4534764 4.8933706e-05            0    1.4534764      101 
 6253000 0.00010740139 -0.00054464234    1.4441646 4.7108773e-05 -0.00054464234    1.4447093       98 
 6254000 0.00012744415            0    1.5555815 5.6000934e-05            0    1.5555815      108 
 6255000 0.00012708977            0    1.5657537 5.5845214e-05            0    1.5657537      107 
 6256000 0.00011591314            0    1.4415292 5.0934031e-05            0    1.4415292      106 
 6257000 0.0001198321            0    1.4492499 5.2656081e-05            0    1.4492499      109 
 6258000 0.00011111029            0    1.4502055 4.8823584e-05            0    1.4502055      101 
 6259000 0.00010548995            0    1.4189975 4.6353918e-05            0    1.4189975       98 
 6260000 0.00011374627            0    1.5458312 4.9981876e-05            0    1.5458312       97 
 6261000 0.00011720319            0     1.545027  5.15009e-05            0     1.545027      100 
 6262000 0.00012301097            0     1.589792 5.4052927e-05            0     1.589792      102 
 6263000 0.00011246222            0    1.4975044 4.9417644e-05            0    1.4975044       99 
 6264000 0.00012113963            0    1.5656068 5.323063e-05            0    1.5656068      102 
 6265000 0.00011481444            0    1.5288256 5.0451246e-05            0    1.5288256       99 
 6266000 0.00010830662            0    1.5028928 4.7591606e-05            0    1.5028928       95 
 6267000 0.00011779022            0    1.4930437 5.1758847e-05            0    1.4930437      104 
 6268000 0.00012256779            0    1.6157456 5.3858187e-05            0    1.6157456      100 
 6269000 0.00010316553            0    1.4315537 4.5332535e-05            0    1.4315537       95 
 6270000 0.00011683398            0     1.480923 5.1338663e-05            0     1.480923      104 
 6271000 0.00012120501            0    1.5819612 5.3259361e-05            0    1.5819612      101 
 6272000 0.00011479197 -0.00072094058    1.4828488 5.0353632e-05 -0.00072094058    1.4835697      102 
 6273000 0.00010972863            0    1.4464939 4.8216463e-05            0    1.4464939      100 
 6274000 0.00010892865            0    1.4217308 4.7864936e-05            0    1.4217308      101 
 6275000 0.00010836544            0    1.4285237 4.7617455e-05            0    1.4285237      100 
 6276000 0.00011730915 -0.0031703191    1.4420856 5.1230815e-05 -0.0031703191    1.4452559      107 
 6277000 0.0001096017            0    1.4305154 4.8160687e-05            0    1.4305154      101 
 6278000 0.00011502115 -0.00031479846    1.5009349 5.0494556e-05 -0.00031479846    1.5012497      101 
 6279000 0.00011269743            0       1.4565   4.9521e-05            0       1.4565      102 
 6280000 0.0001208859            0    1.5471593 5.3119137e-05            0    1.5471593      103 
 6281000 0.00011250893            0     1.483145 4.9438168e-05            0     1.483145      100 
 6282000 0.00012630614            0    1.6009868 5.5500877e-05            0    1.6009868      104 
 6283000 0.00012230105            0    1.5502205 5.3740976e-05            0    1.5502205      104 
 6284000 0.00012258508            0    1.4962718 5.3865784e-05            0    1.4962718      108 
 6285000 0.00012227158            0    1.4924452 5.3728026e-05            0    1.4924452      108 
 6286000 0.00011076511            0    1.3775068 4.8671908e-05            0    1.3775068      106 
 6287000 0.00011165381            0    1.4290023 4.9062413e-05            0    1.4290023      103 
 6288000 0.0001142158            0    1.4071456 5.0188195e-05            0    1.4071456      107 
 6289000 0.0001084544            0    1.3616156 4.7656546e-05            0    1.3616156      105 
 6290000 0.0001169939            0    1.4549698 5.1408933e-05            0    1.4549698      106 
 6291000 0.00010760178            0    1.4327845 4.7281889e-05            0    1.4327845       99 
 6292000 0.00011461743            0    1.4669323 5.0364674e-05            0    1.4669323      103 
 6293000 0.00010397464            0    1.3570714 4.5688069e-05            0    1.3570714      101 
 6294000 9.6235074e-05            0    1.3353847 4.2287183e-05            0    1.3353847       95 
 6295000 9.9520235e-05            0    1.3956617 4.3730734e-05            0    1.3956617       94 
 6296000 0.00010886426            0    1.4208904 4.7836642e-05            0    1.4208904      101 
 6297000 0.00010805568            0    1.3566097 4.7481339e-05            0    1.3566097      105 
 6298000 0.00011155109            0    1.4004937 4.9017278e-05            0    1.4004937      105 
 6299000 0.00010450831            0    1.3120735 4.5922573e-05            0    1.3120735      105 
 6300000 0.0001022497            0    1.2960607 4.4930105e-05            0    1.2960607      104 
 6301000 0.00010695163            0    1.3556597 4.6996203e-05            0    1.3556597      104 
 6302000 0.00010743606            0    1.3488306 4.720907e-05            0    1.3488306      105 
 6303000 0.00011361624            0    1.3867983 4.9924738e-05            0    1.3867983      108 
 6304000 0.00010893563            0    1.3420936 4.7868006e-05            0    1.3420936      107 
 6305000 0.00011516078 -2.4696059e-05    1.3434293 5.0584417e-05 -2.4696059e-05     1.343454      113 
 6306000 0.00012122272            0    1.4396525 5.3267142e-05            0    1.4396525      111 
 6307000 0.00010736065            0    1.3608442 4.7175933e-05            0    1.3608442      104 
 6308000 0.00011006846            0    1.3311685 4.8365787e-05            0    1.3311685      109 
 6309000 0.00010046025            0    1.3376906 4.414379e-05            0    1.3376906       99 
 6310000 0.00010602196            0    1.3569231 4.6587692e-05            0    1.3569231      103 
 6311000 0.00010513987            0    1.3588261 4.6200089e-05            0    1.3588261      102 
 6312000 0.00010794662            0    1.3682716 4.7433417e-05            0    1.3682716      104 
 6313000 0.0001203466 -0.00018020525    1.4687687 5.2846709e-05 -0.00018020525    1.4689489      108 
 6314000 0.00011637553            0    1.3697468 5.1137213e-05            0    1.3697468      112 
 6315000 0.00010226945            0    1.3217288 4.493878e-05            0    1.3217288      102 
 6316000 0.00010627622            0    1.3093295 4.6699418e-05            0    1.3093295      107 
 6317000 0.00010668358            0    1.3143482 4.687842e-05            0    1.3143482      107 
 6318000 0.00010386535            0    1.3423543 4.5640046e-05            0    1.3423543      102 
 6319000 9.8482342e-05 -0.00012575811    1.3112278 4.324611e-05 -0.00012575811    1.3113536       99 
 6320000 9.9150859e-05            0    1.3070527 4.3568424e-05            0    1.3070527      100 
 6321000 0.00010081284            0    1.3423855 4.4298723e-05            0    1.3423855       99 
 6322000 9.7045745e-05            0    1.3188682 4.2643405e-05            0    1.3188682       97 
 6323000 9.4341947e-05            0    1.3230419 4.1455314e-05            0    1.3230419       94 
 6324000 0.00010150888            0     1.379523 4.4604576e-05            0     1.379523       97 
 6325000 0.00011394975            0    1.4443641 5.0071287e-05            0    1.4443641      104 
 6326000 9.9232745e-05            0    1.3626377 4.3604406e-05            0    1.3626377       96 
 6327000 0.00010295737            0    1.3572319 4.5241062e-05            0    1.3572319      100 
 6328000 0.00011215541            0     1.394797 4.9282827e-05            0     1.394797      106 
 6329000 9.1751993e-05            0    1.3005564 4.0317248e-05            0    1.3005564       93 
 6330000 9.8730949e-05            0    1.3700182 4.338391e-05            0    1.3700182       95 
 6331000 9.7722222e-05            0    1.4313553 4.2940659e-05            0    1.4313553       90 
 6332000 9.9577768e-05            0    1.4585338 4.3756015e-05            0    1.4585338       90 
 6333000 9.1342667e-05 -0.0012204996    1.2797598 4.001094e-05 -0.0012204996    1.2809803       94 
 6334000 8.8934086e-05            0    1.3172702 3.9079016e-05            0    1.3172702       89 
 6335000 9.2225886e-05            0    1.3072737 4.0525484e-05            0    1.3072737       93 
 6336000 0.00010110306 -0.00044356141     1.332344 4.4366527e-05 -0.00044356141    1.3327875      100 
 6337000 9.0181986e-05            0    1.3357538 3.9627362e-05            0    1.3357538       89 
 6338000 8.7094538e-05 -9.1871091e-05    1.3195871 3.824653e-05 -9.1871091e-05     1.319679       87 
 6339000 9.1375199e-05            0    1.3383893 4.0151679e-05            0    1.3383893       90 
 6340000 9.551895e-05            0     1.383709 4.1972507e-05            0     1.383709       91 
 6341000 8.6536311e-05 -0.0011497559    1.2806052 3.7910496e-05 -0.0011497559    1.2817549       89 
 6342000 9.9883338e-05 -9.2891379e-05    1.4006609 4.3865397e-05 -9.2891379e-05    1.4007538       94 
 6343000 0.00010671285            0    1.4502458 4.689128e-05            0    1.4502458       97 
 6344000 9.7422853e-05            0    1.4594015 4.2809112e-05            0    1.4594015       88 
 6345000 0.00010226902            0    1.4191135 4.4938593e-05            0    1.4191135       95 
 6346000 9.9240355e-05            0    1.4699242 4.360775e-05            0    1.4699242       89 
 6347000 0.00010616974            0    1.5049235 4.6652629e-05            0    1.5049235       93 
 6348000 0.00010185852            0    1.4755455 4.4758213e-05            0    1.4755455       91 
 6349000 0.00010764211            0    1.4936719 4.729961e-05            0    1.4936719       95 
 6350000 0.00010645109 -1.4413906e-05    1.4617437 4.6758638e-05 -1.4413906e-05    1.4617581       96 
 6351000 9.3561928e-05            0     1.340627 4.1112561e-05            0     1.340627       92 
 6352000 0.00010135794            0    1.4367178 4.4538251e-05            0    1.4367178       93 
 6353000 0.00010785657            0    1.4810578 4.739385e-05            0    1.4810578       96 
 6354000 0.00010399413            0    1.3988766 4.5696635e-05            0    1.3988766       98 
 6355000 0.00010985693 -5.3863182e-05    1.5405686 4.8251573e-05 -5.3863182e-05    1.5406225       94 
 6356000 0.00011491297            0    1.5148362 5.0494539e-05            0    1.5148362      100 
 6357000 0.0001190361            0    1.5691892 5.2306306e-05            0    1.5691892      100 
 6358000 0.00010956044            0    1.4299769 4.8142556e-05            0    1.4299769      101 
 6359000 0.00010316318            0    1.4166094 4.5331502e-05            0    1.4166094       96 
 6360000 0.00010918731            0    1.4838741 4.7978596e-05            0    1.4838741       97 
 6361000 9.5910079e-05            0    1.3450333 4.2144375e-05            0    1.3450333       94 
 6362000 9.5637709e-05            0    1.3556352 4.2024692e-05            0    1.3556352       93 
 6363000 8.9817379e-05            0    1.3155716 3.9467149e-05            0    1.3155716       90 
 6364000 9.510326e-05            0    1.3627124 4.1789847e-05            0    1.3627124       92 
 6365000 0.00010036887 -0.0030828386    1.3751558 4.3820507e-05 -0.0030828386    1.3782386       96 
 6366000 8.5103215e-05            0    1.3045002 3.7395672e-05            0    1.3045002       86 
 6367000 8.4027115e-05            0    1.2445893 3.6922817e-05            0    1.2445893       89 
 6368000 8.1721471e-05            0    1.1838356 3.5909681e-05            0    1.1838356       91 
 6369000 9.2818155e-05            0    1.3299696 4.0785736e-05            0    1.3299696       92 
 6370000 9.3716147e-05            0    1.2868852 4.1180327e-05            0    1.2868852       96 
 6371000 9.3232676e-05            0    1.2670479 4.0967883e-05            0    1.2670479       97 
 6372000 9.3079907e-05 -0.0062980378    1.3274222 4.0437647e-05 -0.0062980378    1.3337202       92 
 6373000 9.4549768e-05            0    1.3259564 4.1546634e-05            0    1.3259564       94 
 6374000 0.00010490945            0    1.3829652 4.6098839e-05            0    1.3829652      100 
 6375000 0.00010587873            0    1.4098411 4.6524755e-05            0    1.4098411       99 
 6376000 0.00010813879            0    1.3840153 4.7517859e-05            0    1.3840153      103 
 6377000 0.00010932361            0    1.3991792 4.8038487e-05            0    1.3991792      103 
 6378000 0.00011014237 -0.0031766511    1.4634374 4.8100566e-05 -0.0031766511     1.466614       99 
 6379000 0.00011710931            0    1.5135191 5.1459648e-05            0    1.5135191      102 
 6380000 0.00011359404            0    1.4974495 4.9914983e-05            0    1.4974495      100 
 6381000 0.00010123679            0    1.3758252 4.4485014e-05            0    1.3758252       97 
 6382000 0.00011453846            0    1.4802934 5.0329975e-05            0    1.4802934      102 
 6383000 0.00010937433            0    1.4563871 4.8060776e-05            0    1.4563871       99 
 6384000 0.00010942897            0    1.4571147 4.8084784e-05            0    1.4571147       99 
 6385000 9.5619719e-05            0    1.3701126 4.2016787e-05            0    1.3701126       92 
 6386000 0.00010157002            0    1.3662686 4.4631441e-05            0    1.3662686       98 
 6387000 9.8080904e-05            0    1.3902668 4.309827e-05            0    1.3902668       93 
 6388000 0.00010536774            0    1.4319655 4.6300216e-05            0    1.4319655       97 
 6389000 9.5126941e-05 -0.0051473206     1.287644 4.1377072e-05 -0.0051473206    1.2927913       97 
 6390000 0.00010990402 -0.0083769017    1.3847057 4.7847723e-05 -0.0083769017    1.3930826      104 
 6391000 0.00011067022            0    1.4164139 4.8630211e-05            0    1.4164139      103 
 6392000 0.00010973101 -0.00091785422    1.4602187 4.8113359e-05 -0.00091785422    1.4611365       99 
 6393000 0.00010927535            0     1.412273 4.8017281e-05            0     1.412273      102 
 6394000 0.00010594781            0    1.3828251 4.6555112e-05            0    1.3828251      101 
 6395000 0.00011463673 -4.3032174e-05    1.4122884 5.0352345e-05 -4.3032174e-05    1.4123315      107 
 6396000 0.00010605557            0    1.3980739 4.6602462e-05            0    1.3980739      100 
 6397000 0.00010242515            0    1.3368475 4.5007199e-05            0    1.3368475      101 
 6398000 0.00010587275            0    1.4241467 4.6522126e-05            0    1.4241467       98 
 6399000 0.00011120075            0    1.4371568 4.8863333e-05            0    1.4371568      102 
 6400000 0.00011435348            0    1.4925353 5.024869e-05            0    1.4925353      101 
 6401000 0.00012155448            0    1.5557162 5.3412922e-05            0    1.5557162      103 
 6402000 0.00012176972            0    1.5143633 5.3507502e-05            0    1.5143633      106 
 6403000 0.00011292248            0    1.4594085 4.9619888e-05            0    1.4594085      102 
 6404000 0.00011172993            0    1.4162268 4.9095862e-05            0    1.4162268      104 
 6405000 0.00013781123            0     1.552728 6.0556391e-05            0     1.552728      117 
 6406000 0.0001262027            0    1.4341919 5.5455421e-05            0    1.4341919      116 
 6407000 0.00012188144 -0.0088583795    1.4386172 5.3517252e-05 -0.0088583795    1.4474755      111 
 6408000 0.0001266726            0    1.4909438 5.5661902e-05            0    1.4909438      112 
 6409000 0.00013144051            0    1.4683983 5.7756999e-05            0    1.4683983      118 
 6410000 0.00013977874            0    1.5103511 6.1420946e-05            0    1.5103511      122 
 6411000 0.00014076216            0    1.5209773 6.1853076e-05            0    1.5209773      122 
 6412000 0.00013735001 -0.00063780768    1.5738071 6.0266163e-05 -0.00063780768    1.5744449      115 
 6413000 0.00013570541            0    1.5421826 5.9631059e-05            0    1.5421826      116 
 6414000 0.00014375244 -0.00012213966     1.566003 6.3136199e-05 -0.00012213966    1.5661252      121 
 6415000 0.00012992904            0    1.5157389 5.7092832e-05            0    1.5157389      113 
 6416000 0.00014538318            0    1.5581371 6.3883623e-05            0    1.5581371      123 
 6417000 0.00013746034            0    1.5356493 6.0402206e-05            0    1.5356493      118 
 6418000 0.00013430392            0    1.5262559 5.9015226e-05            0    1.5262559      116 
 6419000 0.0001451798            0    1.5948564 6.3794255e-05            0    1.5948564      120 
 6420000 0.00014339374            0    1.6728168 6.3009433e-05            0    1.6728168      113 
 6421000 0.00013567806            0    1.5828064 5.961904e-05            0    1.5828064      113 
 6422000 0.00013970582            0    1.5876441 6.1388904e-05            0    1.5876441      116 
 6423000 0.00012753254 -0.00046688365    1.4873147 5.5971934e-05 -0.00046688365    1.4877816      113 
 6424000 0.00014452737 -1.1759384e-05    1.6283874 6.3489953e-05 -1.1759384e-05    1.6283992      117 
 6425000 0.00013085677            0    1.5131708 5.7500492e-05            0    1.5131708      114 
 6426000 0.00013403128            0    1.5635952 5.8895421e-05            0    1.5635952      113 
 6427000 0.00013457265            0    1.5699108 5.9133306e-05            0    1.5699108      113 
 6428000 0.0001462948            0    1.6916895 6.4284202e-05            0    1.6916895      114 
 6429000 0.00013315982            0    1.5398023 5.8512488e-05            0    1.5398023      114 
 6430000 0.00011989248            0    1.4910174 5.2682615e-05            0    1.4910174      106 
 6431000 0.00012947538            0    1.5803747 5.6893488e-05            0    1.5803747      108 
 6432000 0.00012833189            0    1.5520465 5.6391022e-05            0    1.5520465      109 
 6433000 0.00014410721            0    1.6236652 6.3322944e-05            0    1.6236652      117 
 6434000 0.00014013774 -0.00050969179    1.5650503 6.1503754e-05 -0.00050969179      1.56556      118 
 6435000 0.00013259162            0    1.5606111 5.8262814e-05            0    1.5606111      112 
 6436000 0.00012961505            0     1.567565 5.695486e-05            0     1.567565      109 
 6437000 0.0001478656            0    1.6518925 6.4974439e-05            0    1.6518925      118 
 6438000 0.00013346721            0    1.5709168 5.864756e-05            0    1.5709168      112 
 6439000 0.00013884033            0    1.5643228 6.1008591e-05            0    1.5643228      117 
 6440000 0.00012855837 -0.0008300684    1.4989188 5.6383638e-05 -0.0008300684    1.4997489      113 
 6441000 0.00012640504 -0.00040593549    1.4873887 5.9358002e-05 -0.00040593549    1.4877946      112 
 6442000 0.00012369442            0    1.4823613 5.4353247e-05            0    1.4823613      110 
 6443000 0.00012917644            0    1.4679862 5.6762132e-05            0    1.4679862      116 
 6444000 0.00013869904            0    1.5762028 6.0946509e-05            0    1.5762028      116 
 6445000 0.00013286771            0    1.5230642 5.8384129e-05            0    1.5230642      115 
 6446000 0.00013082281            0    1.5677883 5.7485572e-05            0    1.5677883      110 
 6447000 0.00012900517            0     1.478788 5.6686873e-05            0     1.478788      115 
 6448000 0.00013007716            0     1.428948 5.7157922e-05            0     1.428948      120 
 6449000 0.00013618814            0    1.5214368 5.984318e-05            0    1.5214368      118 
 6450000 0.00013933534            0    1.5699002 6.1226106e-05            0    1.5699002      117 
 6451000 0.00014477978            0    1.6596125 6.361848e-05            0    1.6596125      115 
 6452000 0.00015070253            0     1.697975 6.6221026e-05            0     1.697975      117 
 6453000 0.00014299628            0    1.5578871 6.2834781e-05            0    1.5578871      121 
 6454000 0.00014577785            0    1.6148835 6.4057047e-05            0    1.6148835      119 
 6455000 0.00014145846            0    1.5938216 6.2159041e-05            0    1.5938216      117 
 6456000 0.00013295662            0    1.5790054  5.84232e-05            0    1.5790054      111 
 6457000 0.00013246385            0    1.5317545 5.8206671e-05            0    1.5317545      114 
 6458000 0.00013286128            0     1.563785 5.8381306e-05            0     1.563785      112 
 6459000 0.00013631449            0    1.6336009 5.9898701e-05            0    1.6336009      110 
 6460000 0.00013461677            0    1.5298111 5.9152697e-05            0    1.5298111      116 
 6461000 0.00012554886            0    1.4646402 5.5168113e-05            0    1.4646402      113 
 6462000 0.00012077223            0    1.4343025 5.3069191e-05            0    1.4343025      111 
 6463000 0.00013494519            0    1.4824252 5.9297007e-05            0    1.4824252      120 
 6464000 0.00011280329            0    1.4028542 4.9567515e-05            0    1.4028542      106 
 6465000 0.00011758732            0    1.4352692 5.1669693e-05            0    1.4352692      108 
 6466000  0.000115789            0    1.4399854 5.0879482e-05            0    1.4399854      106 
 6467000 0.00011935757            0    1.5129106 5.2447566e-05            0    1.5129106      104 
 6468000 0.00012982555            0     1.555837 5.7047358e-05            0     1.555837      110 
 6469000 0.00012898566            0     1.634951  5.66783e-05            0     1.634951      104 
 6470000 0.00011873728            0     1.476651 5.2175001e-05            0     1.476651      106 
 6471000 0.00013534567            0    1.5930264 5.9472984e-05            0    1.5930264      112 
 6472000 0.00012415845            0    1.5296397 5.4557149e-05            0    1.5296397      107 
 6473000 0.00012830558            0    1.5376216 5.6379459e-05            0    1.5376216      110 
 6474000 0.00010636605            0    1.3482373 4.6738892e-05            0    1.3482373      104 
 6475000 0.00011790313            0    1.5542539 5.1808464e-05            0    1.5542539      100 
 6476000 0.00012174874            0    1.5582024 5.3498283e-05            0    1.5582024      103 
 6477000 0.00012231787            0    1.5654865 5.374837e-05            0    1.5654865      103 
 6478000 0.00011580534            0    1.5420201 5.0886664e-05            0    1.5420201       99 
 6479000 0.00011755644            0     1.597612 5.165612e-05            0     1.597612       97 
 6480000 0.00011649222            0    1.5055438 5.1188488e-05            0    1.5055438      102 
 6481000 0.00011744904            0    1.5798652 5.160893e-05            0    1.5798652       98 
 6482000 0.00011290376            0    1.5187243 4.9611661e-05            0    1.5187243       98 
 6483000 0.00011738243            0    1.5320691 5.157966e-05            0    1.5320691      101 
 6484000 0.00011736629            0    1.5471771 5.1572569e-05            0    1.5471771      100 
 6485000 0.00010851172            0    1.4596448 4.7681732e-05            0    1.4596448       98 
 6486000 0.00011287648 -0.0011989058    1.5171585 4.9470668e-05 -0.0011989058    1.5183574       98 
 6487000 0.00011217747            0    1.4787756 4.9292518e-05            0    1.4787756      100 
 6488000 0.00011686075            0    1.4956435 5.1350426e-05            0    1.4956435      103 
 6489000 0.0001096295            0    1.4746806  4.81729e-05            0    1.4746806       98 
 6490000 0.00011323341            0    1.4492189 4.9756514e-05            0    1.4492189      103 
 6491000 9.9920587e-05            0     1.372083 4.3906655e-05            0     1.372083       96 
 6492000 0.00011602009            0    1.5606436 5.0981026e-05            0    1.5606436       98 
 6493000 0.00010962113 -0.00087712116    1.4888927 4.8070538e-05 -0.00087712116    1.4897699       97 
 6494000 0.00011118685            0    1.4657167 4.8857223e-05            0    1.4657167      100 
 6495000 9.5055619e-05            0    1.3620297 4.1768912e-05            0    1.3620297       92 
 6496000 9.725714e-05            0    1.3495672 4.2736295e-05            0    1.3495672       95 
 6497000 9.5368264e-05            0    1.3374349 4.1906293e-05            0    1.3374349       94 
 6498000 9.2226097e-05            0    1.2664243 4.0525576e-05            0    1.2664243       96 
 6499000 9.4913412e-05            0    1.2898894 4.1706424e-05            0    1.2898894       97 
 6500000 9.5905717e-05            0    1.3449721 4.2142459e-05            0    1.3449721       94 
 6501000 9.5639247e-05            0    1.2997536 4.2025367e-05            0    1.2997536       97 
 6502000 8.9927648e-05            0    1.2478611 3.9515603e-05            0    1.2478611       95 
 6503000 8.9075655e-05 -0.00039697237    1.2622231 4.2980789e-05 -0.00039697237    1.2626201       93 
 6504000 8.193982e-05            0    1.2274646 3.6005627e-05            0    1.2274646       88 
 6505000 8.896155e-05            0    1.3636425 3.9091084e-05            0    1.3636425       86 
 6506000 9.3121082e-05 -0.0022144128    1.3320958 4.0712457e-05 -0.0022144128    1.3343102       92 
 6507000 9.5929363e-05 -0.0011683189    1.3733811 4.2033136e-05 -0.0011683189    1.3745494       92 
 6508000 9.5985722e-05            0    1.3904708 4.2177614e-05            0    1.3904708       91 
 6509000  8.55078e-05            0    1.3261219 3.7573453e-05            0    1.3261219       85 
 6510000 7.7180269e-05            0     1.196972 3.3914207e-05            0     1.196972       85 
 6511000 8.2477918e-05            0    1.2943598 3.6242075e-05            0    1.2943598       84 
 6512000 7.5572072e-05            0    1.1859836 3.320754e-05            0    1.1859836       84 
 6513000 8.6092496e-05            0    1.2751812 3.7830377e-05            0    1.2751812       89 
 6514000 9.6983118e-05            0    1.2913905 4.2615885e-05            0    1.2913905       99 
 6515000 8.8988414e-05            0    1.2750942 3.9102888e-05            0    1.2750942       92 
 6516000 9.2980216e-05            0    1.2767796 4.0856948e-05            0    1.2767796       96 
 6517000 9.0739283e-05 -5.6115921e-05    1.3290188 3.9850996e-05 -5.6115921e-05    1.3290749       90 
 6518000 9.1212791e-05            0    1.2929134 4.0080314e-05            0    1.2929134       93 
 6519000 9.4744945e-05            0    1.2875999 4.1632397e-05            0    1.2875999       97 
 6520000 9.6674614e-05            0    1.3275101 4.2480324e-05            0    1.3275101       96 
 6521000  9.67686e-05            0    1.3570731 4.2521623e-05            0    1.3570731       94 
 6522000 9.895404e-05            0    1.3588106 4.3481939e-05            0    1.3588106       96 
 6523000 9.9412049e-05            0    1.3372407 4.3683195e-05            0    1.3372407       98 
 6524000 9.5482265e-05            0    1.3534318 4.1956387e-05            0    1.3534318       93 
 6525000 9.6402323e-05            0    1.2459022 4.2360675e-05            0    1.2459022      102 
 6526000 9.8691588e-05            0    1.3141398 4.3366613e-05            0    1.3141398       99 
 6527000 9.5631072e-05            0    1.2996425 4.2021775e-05            0    1.2996425       97 
 6528000 9.1179668e-05            0    1.2265028 4.0065759e-05            0    1.2265028       98 
 6529000 8.8499401e-05            0    1.2680872 3.8888008e-05            0    1.2680872       92 
 6530000 0.00010189987            0    1.3848365 4.4776381e-05            0    1.3848365       97 
 6531000 9.4227765e-05            0     1.205975 4.140514e-05            0     1.205975      103 
 6532000 9.7339241e-05            0    1.2831711 4.2772371e-05            0    1.2831711      100 
 6533000 0.00010024812            0    1.3215173 4.4050578e-05            0    1.3215173      100 
 6534000  9.72898e-05 -0.00031760532    1.2951565 4.2687103e-05 -0.00031760532    1.2954741       99 
 6535000 9.0066587e-05 -2.8662984e-05    1.2497604 3.9557706e-05 -2.8662984e-05    1.2497891       95 
 6536000 0.00010374811            0    1.3278212 4.5588528e-05            0    1.3278212      103 
 6537000 9.792574e-05            0    1.2909026 4.3030088e-05            0    1.2909026      100 
 6538000 0.00010749179            0    1.3625064 4.7233557e-05            0    1.3625064      104 
 6539000 8.9749469e-05            0    1.2197105 3.9437308e-05            0    1.2197105       97 
 6540000 9.710771e-05 -0.0029127347    1.2772063 4.2369406e-05 -0.0029127347     1.280119      100 
 6541000 0.00010288346 -3.7060315e-05    1.3296272 4.5188591e-05 -3.7060315e-05    1.3296643      102 
 6542000 0.00010007094            0    1.3741475 4.3972721e-05            0    1.3741475       96 
 6543000 0.00010956396            0    1.4589122 4.8144104e-05            0    1.4589122       99 
 6544000 0.00010041162            0     1.423304 4.4122423e-05            0     1.423304       93 
 6545000 9.8334494e-05            0    1.3363825 4.3209701e-05            0    1.3363825       97 
 6546000 0.00010884787            0    1.4067482 4.782944e-05            0    1.4067482      102 
 6547000 0.00012663505 -0.0025517883    1.5575997 5.5380694e-05 -0.0025517883    1.5601515      107 
 6548000 0.00011558207 -0.0066009958    1.4726773 5.0293789e-05 -0.0066009958    1.4792783      103 
 6549000 0.00011791785            0    1.5544479 5.1814929e-05            0    1.5544479      100 
 6550000 0.00013314932            0    1.6716536 5.8507876e-05            0    1.6716536      105 
 6551000 0.00012624262            0    1.6157174 5.5472963e-05            0    1.6157174      103 
 6552000 0.00010994817            0    1.4640281 4.8312929e-05            0    1.4640281       99 
 6553000 0.00012654266            0    1.6195575 5.5604806e-05            0    1.6195575      103 
 6554000 0.00012891815            0    1.6185323 5.6648632e-05            0    1.6185323      105 
 6555000 0.00012194334            0    1.5309656 5.3583795e-05            0    1.5309656      105 
 6556000 0.00011390795 -0.0044477534    1.4822727 4.9659705e-05 -0.0044477534    1.4867204      101 
 6557000 0.00012320386            0    1.5922849 5.4137686e-05            0    1.5922849      102 
 6558000 0.00011700605 -2.9842696e-05    1.5901023 5.1395153e-05 -2.9842696e-05    1.5901321       97 
 6559000 0.00011339684            0     1.525357 4.9828328e-05            0     1.525357       98 
 6560000 0.00010995052            0    1.4640595 4.8313964e-05            0    1.4640595       99 
 6561000 0.00010956494            0    1.4589253 4.8144534e-05            0    1.4589253       99 
 6562000 0.00011495527 -0.0057800054    1.5564816 5.0058368e-05 -0.0057800054    1.5622616       97 
 6563000 0.00011177309            0    1.5190153 4.9114827e-05            0    1.5190153       97 
 6564000 0.00010718945            0    1.4418584 4.7100708e-05            0    1.4418584       98 
 6565000 0.00011962164            0    1.5769081 5.2563603e-05            0    1.5769081      100 
 6566000 0.0001342826 0.00050503527    1.7531542 6.3109634e-05 0.00050503527    1.7526491      101 
 6567000 0.00011876273            0    1.5813995 5.2186184e-05            0    1.5813995       99 
 6568000 0.00012721107            0     1.660352 5.5898518e-05            0     1.660352      101 
 6569000 0.0001177346            0    1.6167002 5.1734408e-05            0    1.6167002       96 
 6570000 0.00012282016            0     1.587326 5.3969084e-05            0     1.587326      102 
 6571000 0.0001229665            0    1.5892173 5.4033388e-05            0    1.5892173      102 
 6572000 0.00012981476            0    1.6454601 5.7042618e-05            0    1.6454601      104 
 6573000 0.00013235353            0    1.6616626 5.8158192e-05            0    1.6616626      105 
 6574000 0.00012437602            0    1.6074339 5.4652752e-05            0    1.6074339      102 
 6575000 0.00012962114            0    1.5969403 5.6957538e-05            0    1.5969403      107 
 6576000 0.00013134222            0    1.6648214 5.7713809e-05            0    1.6648214      104 
 6577000 0.00012582978            0    1.6262222 5.5291556e-05            0    1.6262222      102 
 6578000 0.00013046433            0    1.6073284 5.7328047e-05            0    1.6073284      107 
 6579000 0.00012136586 -0.0027367294    1.6298155 5.3069281e-05 -0.0027367294    1.6325522       98 
 6580000 0.00013368627            0    1.7277594 5.874382e-05            0    1.7277594      102 
 6581000 0.00013347874            0    1.7595788 5.8652626e-05            0    1.7595788      100 
 6582000 0.00012328775            0     1.593369 5.4174546e-05            0     1.593369      102 
 6583000 0.00012388806            0    1.6169802 5.4438333e-05            0    1.6169802      101 
 6584000 0.00012850211            0    1.6607594 5.6465819e-05            0    1.6607594      102 
 6585000 0.00011800682            0    1.5402185 5.1854024e-05            0    1.5402185      101 
 6586000  0.000124899 -0.00050132538    1.6296736 5.4800337e-05 -0.00050132538    1.6301749      101 
 6587000 0.00011751412            0    1.5647735 5.1637524e-05            0    1.5647735       99 
 6588000 0.00012005413            0    1.5217397 5.2753644e-05            0    1.5217397      104 
 6589000 0.00011252932            0    1.5452227 4.9447126e-05            0    1.5452227       96 
 6590000 0.00011362492            0    1.4684868 4.9928552e-05            0    1.4684868      102 
 6591000 0.00011749406            0    1.4892897 5.162871e-05            0    1.4892897      104 
 6592000 0.00011922921            0    1.4689111 5.2391164e-05            0    1.4689111      107 
 6593000 0.00013398438            0    1.6056767 5.8874813e-05            0    1.6056767      110 
 6594000 0.0001107011            0    1.4306994 4.8643779e-05            0    1.4306994      102 
 6595000 0.00012010478            0    1.4659972  5.27759e-05            0    1.4659972      108 
 6596000 0.00011515781            0    1.5030334 5.0602126e-05            0    1.5030334      101 
 6597000 0.00011694303            0      1.51137 5.1386579e-05            0      1.51137      102 
 6598000 0.00011018228            0    1.4973959 4.8415801e-05            0    1.4973959       97 
 6599000 0.00011186619 -0.00053596894     1.417418 4.9085028e-05 -0.00053596894     1.417954      104 
 6600000 0.00010994858            0    1.4789727 4.8313109e-05            0    1.4789727       98 
 6601000 0.00011205415 -0.00016291878    1.4339633 4.9205513e-05 -0.00016291878    1.4341262      103 
 6602000 0.00011776288 -2.9019664e-05    1.5370057 5.1727681e-05 -2.9019664e-05    1.5370347      101 
 6603000 0.0001096512            0    1.5377373 4.8182436e-05            0    1.5377373       94 
 6604000 0.00011625976            0    1.5964482 5.1086342e-05            0    1.5964482       96 
 6605000 0.00012704554            0    1.6419347 5.582578e-05            0    1.6419347      102 
 6606000 0.00011954038            0    1.5299387 5.2527894e-05            0    1.5299387      103 
 6607000 0.00011688671            0    1.5885103 5.1361832e-05            0    1.5885103       97 
 6608000 0.00012215683            0    1.5191775 5.3677605e-05            0    1.5191775      106 
 6609000 0.00011154581            0    1.5004579 4.9014957e-05            0    1.5004579       98 
 6610000 0.00010884027            0    1.4791577  4.78261e-05            0    1.4791577       97 
 6611000 0.00011013479 -2.8181295e-06    1.4665103 4.8378407e-05 -2.8181295e-06    1.4665131       99 
 6612000 0.00011059819            0    1.4579567 4.8598558e-05            0    1.4579567      100 
 6613000 0.00010877831            0    1.4632309 4.7798875e-05            0    1.4632309       98 
 6614000 0.00012001905            0    1.5360649 5.2738229e-05            0    1.5360649      103 
 6615000  0.000121368            0    1.6160903 5.3330979e-05            0    1.6160903       99 
 6616000 0.00011399195            0    1.5491699 5.0089828e-05            0    1.5491699       97 
 6617000 0.0001233426            0    1.5786015 5.4198652e-05            0    1.5786015      103 
 6618000 0.00013360048 -5.3376348e-05    1.7098336 5.8684426e-05 -5.3376348e-05     1.709887      103 
 6619000 0.00011713197            0    1.5288001 5.1469602e-05            0    1.5288001      101 
 6620000 0.00011409739            0    1.5192776 5.013616e-05            0    1.5192776       99 
 6621000 0.00011138527 0.0058543628     1.445396 5.4624309e-05 0.0058543628    1.4395416      102 
 6622000 0.00011168938            0    1.4577638 4.9078047e-05            0    1.4577638      101 
 6623000 0.00011481143 -0.00047761249    1.5439077 5.0387827e-05 -0.00047761249    1.5443853       98 
 6624000 0.00010732367            0    1.3870496 4.7159685e-05            0    1.3870496      102 
 6625000 0.0001034377            0    1.4057359 4.5452127e-05            0    1.4057359       97 
 6626000 0.00010910461            0     1.530072 4.7942257e-05            0     1.530072       94 
 6627000 0.00010350867            0    1.4515951 4.5483312e-05            0    1.4515951       94 
 6628000 9.797263e-05            0    1.3739583 4.3050692e-05            0    1.3739583       94 
 6629000 0.00011346802            0     1.411121 4.9859609e-05            0     1.411121      106 
 6630000 0.00010125143 -0.00038262743    1.3478431 4.4438005e-05 -0.00038262743    1.3482257       99 
 6631000 0.00010100701            0     1.344971 4.4384044e-05            0     1.344971       99 
 6632000 9.7345607e-05            0    1.3229434 4.2775169e-05            0    1.3229434       97 
 6633000 9.5038016e-05            0     1.318774 4.1761177e-05            0     1.318774       95 
 6634000 9.9659036e-05            0    1.4436833 4.3791725e-05            0    1.4436833       91 
 6635000 9.283567e-05 -0.0012062794    1.3894789 4.0674961e-05 -0.0012062794    1.3906852       88 
 6636000 9.5661176e-05            0    1.3559679 4.2035004e-05            0    1.3559679       93 
 6637000 0.00010450945 -0.00019800704    1.3638537 4.5887093e-05 -0.00019800704    1.3640517      101 
 6638000 8.498562e-05            0    1.2587865 3.7343999e-05            0    1.2587865       89 
 6639000 8.6770235e-05            0    1.2569732 3.8128186e-05            0    1.2569732       91 
 6640000 8.4925664e-05 -0.002190428    1.2146896 3.7074051e-05 -0.002190428      1.21688       92 
 6641000 8.4524581e-05            0    1.2519577 3.7141411e-05            0    1.2519577       89 
 6642000 0.00010314348            0    1.4163389 4.5322846e-05            0    1.4163389       96 
 6643000 8.8258231e-05            0    1.3850727 3.8782035e-05            0    1.3850727       84 
 6644000 8.7646557e-05            0    1.3280433 3.8513256e-05            0    1.3280433       87 
 6645000 9.1128259e-05            0     1.365108 4.0043169e-05            0     1.365108       88 
 6646000 9.3199801e-05            0    1.3961399 4.0953437e-05            0    1.3961399       88 
 6647000 9.6747749e-05            0    1.4330043 4.2512461e-05            0    1.4330043       89 
 6648000 9.7236338e-05            0    1.4904821 4.2727154e-05            0    1.4904821       86 
 6649000 9.9359372e-05            0    1.5230249 4.3660048e-05            0    1.5230249       86 
 6650000 0.00010140814            0    1.5544293 4.4560307e-05            0    1.5544293       86 
 6651000 0.00010995509            0    1.5928342 4.8315971e-05            0    1.5928342       91 
 6652000 0.00010601559 -0.0041150569    1.4986234 4.6236396e-05 -0.0041150569    1.5027385       93 
 6653000 0.00010667902            0    1.5453764 4.6876416e-05            0    1.5453764       91 
 6654000 0.00011189734 -0.0065060993    1.6324747 4.8703736e-05 -0.0065060993    1.6389808       90 
 6655000 0.00010530451            0    1.5774693 4.6272433e-05            0    1.5774693       88 
 6656000 0.00011379297            0    1.6484306 5.0002395e-05            0    1.6484306       91 
 6657000 0.00010163099            0    1.4562466 4.465823e-05            0    1.4562466       92 
 6658000 0.00011272343            0    1.5978201 4.9532422e-05            0    1.5978201       93 
 6659000 0.00010636693            0    1.5933844 4.6739277e-05            0    1.5933844       88 
 6660000 0.0001127427            0    1.6154638 4.954089e-05            0    1.6154638       92 
 6661000 0.00010731261            0    1.5376573 4.7154825e-05            0    1.5376573       92 
 6662000 0.00010165117            0    1.4889033 4.4667098e-05            0    1.4889033       90 
 6663000 0.00011273629            0    1.5164717 4.9538074e-05            0    1.5164717       98 
 6664000 0.00010466687            0    1.5330748 4.5992244e-05            0    1.5330748       90 
 6665000 0.00011672743            0    1.6197424 5.1291842e-05            0    1.6197424       95 
 6666000 0.00010483792            0    1.5187057 4.6067408e-05            0    1.5187057       91 
 6667000 0.0001050478            0    1.5052053 4.6159629e-05            0    1.5052053       92 
 6668000 0.00010452192            0    1.5837432 4.5928553e-05            0    1.5837432       87 
 6669000 8.8018799e-05 -0.0016309568    1.3963266 3.8531373e-05 -0.0016309568    1.3979575       83 
 6670000 8.5755801e-05            0    1.3145033 3.7682428e-05            0    1.3145033       86 
 6671000 9.6455186e-05            0    1.4286709 4.2383904e-05            0    1.4286709       89 
 6672000 9.8193872e-05            0    1.4544239 4.314791e-05            0    1.4544239       89 
 6673000 9.8920087e-05            0    1.4651804 4.346702e-05            0    1.4651804       89 
 6674000 0.00010128033            0    1.4053941 4.4504148e-05            0    1.4053941       95 
 6675000 8.3463711e-05            0    1.2362443 3.6675248e-05            0    1.2362443       89 
 6676000 9.0576087e-05            0    1.3121056 3.9800537e-05            0    1.3121056       91 
 6677000 0.0001031219 -0.003863075     1.442308 4.4978964e-05 -0.003863075    1.4461711       94 
 6678000 0.00010220078            0     1.464411 4.4908605e-05            0     1.464411       92 
 6679000 8.7841068e-05            0    1.3464672 3.8598727e-05            0    1.3464672       86 
 6680000 8.941001e-05            0    1.3705167 3.9288144e-05            0    1.3705167       86 
 6681000 9.3719201e-05            0    1.3576375 4.118167e-05            0    1.3576375       91 
 6682000 8.7980276e-05            0     1.317951 3.8659897e-05            0     1.317951       88 
 6683000 8.7517655e-05            0    1.3260901 3.8456614e-05            0    1.3260901       87 
 6684000 7.3906476e-05            0    1.1881336 3.2475651e-05            0    1.1881336       82 
 6685000 8.9172334e-05 -2.6101455e-05    1.3829282 3.9165257e-05 -2.6101455e-05    1.3829543       85 
 6686000 9.479907e-05            0    1.4702181 4.1656181e-05            0    1.4702181       85 
 6687000 8.7696092e-05            0     1.344245 3.8535022e-05            0     1.344245       86 
 6688000 8.2974262e-05            0    1.2718666 3.6460177e-05            0    1.2718666       86 
 6689000 8.8499254e-05            0    1.3888551 3.8887944e-05            0    1.3888551       84 
 6690000 8.0931249e-05 -0.00051616786    1.3005489 3.5504688e-05 -0.00051616786    1.3010651       82 
 6691000 8.665953e-05            0    1.3130876 3.8079541e-05            0    1.3130876       87 
 6692000 8.970934e-05            0    1.3912826 3.9419674e-05            0    1.3912826       85 
 6693000 9.1307121e-05            0    1.4859913 4.0121764e-05            0    1.4859913       81 
 6694000 8.9177919e-05            0    1.3208818 3.918616e-05            0    1.3208818       89 
 6695000 7.8607502e-05            0    1.2637081 3.4541355e-05            0    1.2637081       82 
 6696000 8.6825678e-05            0    1.3006551 3.8152549e-05            0    1.3006551       88 
 6697000 9.0622602e-05            0    1.2985101 3.9820976e-05            0    1.2985101       92 
 6698000 8.6626716e-05            0     1.283094 3.8065122e-05            0     1.283094       89 
 6699000 8.6220876e-05            0    1.1839622 3.7886789e-05            0    1.1839622       96 
 6700000 8.443803e-05            0    1.2367793 3.7103379e-05            0    1.2367793       90 
 6701000 8.4595846e-05            0    1.1616477 3.7172726e-05            0    1.1616477       96 
 6702000 7.7025609e-05            0    1.0918144 3.3846246e-05            0    1.0918144       93 
 6703000 7.6683325e-05            0    1.0869626 3.3695842e-05            0    1.0869626       93 
 6704000 8.0164553e-05            0     1.136308 3.5225547e-05            0     1.136308       93 
 6705000 8.680087e-05            0    1.1919265 3.8141648e-05            0    1.1919265       96 
 6706000 8.7190177e-05            0     1.235894 3.8312715e-05            0     1.235894       93 
 6707000 0.00010101182            0    1.3315847 4.4386158e-05            0    1.3315847      100 
 6708000 8.4736775e-05            0    1.1758311 3.7234653e-05            0    1.1758311       95 
 6709000 9.2739761e-05            0    1.2734778 4.0751288e-05            0    1.2734778       96 
 6710000 9.1324083e-05            0    1.2540381 4.0129218e-05            0    1.2540381       96 
 6711000 9.6350838e-05 -0.00018537717    1.2827859 4.2303688e-05 -0.00018537717    1.2829713       99 
 6712000 8.7524126e-05            0    1.2145092 3.8459458e-05            0    1.2145092       95 
 6713000 8.5099921e-05            0    1.1565224 3.7394224e-05            0    1.1565224       97 
 6714000 9.4045598e-05            0    1.2650539 4.1325094e-05            0    1.2650539       98 
 6715000 9.5944426e-05 -0.0051593781    1.2854366 4.1732753e-05 -0.0051593781     1.290596       98 
 6716000 9.5245261e-05            0    1.2682498 4.1852244e-05            0    1.2682498       99 
 6717000 9.221108e-05            0    1.1917346 4.0518978e-05            0    1.1917346      102 
 6718000 9.1844718e-05            0    1.2354488 4.0357993e-05            0    1.2354488       98 
 6719000 9.2394859e-05            0    1.2687417 4.0599733e-05            0    1.2687417       96 
 6720000 9.9874392e-05 -0.0067236403    1.2968315 4.3391744e-05 -0.0067236403    1.3035551      101 
 6721000 9.6256456e-05            0    1.3081416 4.2296579e-05            0    1.3081416       97 
 6722000 9.2617206e-05            0    1.3416737 4.0697436e-05            0    1.3416737       91 
 6723000 9.5996218e-05 -0.00022615128    1.2910665 4.2144124e-05 -0.00022615128    1.2912926       98 
 6724000 9.367922e-05            0    1.3137479 4.1164101e-05            0    1.3137479       94 
 6725000 0.00010046377            0    1.3112477 4.4145338e-05            0    1.3112477      101 
 6726000 9.5775054e-05            0    1.3151576 4.2085043e-05            0    1.3151576       96 
 6727000 9.5257562e-05 -1.7514788e-05    1.2310898 4.1839628e-05 -1.7514788e-05    1.2311073      102 
 6728000 0.00010480043 -0.00021837105    1.4540217 4.6014223e-05 -0.00021837105    1.4542401       95 
 6729000 0.0001016235            0     1.440482 4.4654942e-05            0     1.440482       93 
 6730000 0.00010345094            0    1.4205608 4.5457945e-05            0    1.4205608       96 
 6731000 0.00010445682            0     1.449472 4.5899947e-05            0     1.449472       95 
 6732000 0.00010839484            0    1.4289112 4.7630372e-05            0    1.4289112      100 
 6733000 9.6537128e-05            0    1.3395761 4.241991e-05            0    1.3395761       95 
 6734000 9.9070356e-05            0    1.3747279 4.353305e-05            0    1.3747279       95 
 6735000 0.00010248059            0    1.4072363 4.503156e-05            0    1.4072363       96 
 6736000 0.00010503464            0    1.4729952 4.6153848e-05            0    1.4729952       94 
 6737000 0.00010197668            0    1.3858804 4.4810134e-05            0    1.3858804       97 
 6738000 9.9417072e-05            0     1.379539 4.3685402e-05            0     1.379539       95 
 6739000 8.7965503e-05            0    1.2742881 3.8653406e-05            0    1.2742881       91 
 6740000 9.9497843e-05            0    1.3383947 4.3720895e-05            0    1.3383947       98 
 6741000 9.5971742e-05            0      1.36037 4.2171471e-05            0      1.36037       93 
 6742000 8.9951666e-05            0    1.3030601 3.9526157e-05            0    1.3030601       91 
 6743000 9.5343436e-05            0    1.2825117 4.1895384e-05            0    1.2825117       98 
 6744000 9.2395461e-05 -2.9593278e-06    1.3384585 4.0583481e-05 -2.9593278e-06    1.3384615       91 
 6745000 9.7689696e-05            0    1.4151549 4.2926367e-05            0    1.4151549       91 
 6746000 9.6646521e-05            0    1.3000402 4.2467979e-05            0    1.3000402       98 
 6747000 9.3767198e-05            0    1.4046395 4.120276e-05            0    1.4046395       88 
 6748000 0.00010322936            0    1.4632445 4.5360581e-05            0    1.4632445       93 
 6749000 8.9263208e-05            0    1.3525392 3.9223637e-05            0    1.3525392       87 
 6750000 9.1672418e-05 -2.8972102e-05    1.4051669 4.0263562e-05 -2.8972102e-05    1.4051959       86 
 6751000 9.9679327e-05            0    1.4282818 4.3800642e-05            0    1.4282818       92 
 6752000 0.00010029748            0    1.4065617 4.4072266e-05            0    1.4065617       94 
 6753000 0.00010354923 -6.4327109e-06    1.4368716 4.5484282e-05 -6.4327109e-06     1.436878       95 
 6754000 9.9043088e-05            0    1.3322776 4.3521068e-05            0    1.3322776       98 
 6755000 0.00010603381            0     1.411906 4.6592898e-05            0     1.411906       99 
 6756000 9.9364741e-05            0    1.3503837 4.3662407e-05            0    1.3503837       97 
 6757000 9.6636526e-05            0    1.3552209 4.2463587e-05            0    1.3552209       94 
 6758000 9.913502e-05 -0.00032501159    1.3609707 4.3514525e-05 -0.00032501159    1.3612958       96 
 6759000 0.0001021363            0    1.3738859 4.4880273e-05            0    1.3738859       98 
 6760000 0.0001117127            0    1.3635636 4.9088291e-05            0    1.3635636      108 
 6761000 0.00011627533            0    1.4881509 5.1093182e-05            0    1.4881509      103 
 6762000 9.4874311e-05            0    1.3027888 4.1689243e-05            0    1.3027888       96 
 6763000 9.6296898e-05            0    1.2694305 4.231435e-05            0    1.2694305      100 
 6764000 9.4689108e-05            0    1.3002457 4.1607862e-05            0    1.3002457       96 
 6765000 9.5706997e-05            0     1.328057 4.2055138e-05            0     1.328057       95 
 6766000 0.00010256498            0    1.3520593 4.5068643e-05            0    1.3520593      100 
 6767000 0.00011616716            0    1.4867665 5.104565e-05            0    1.4867665      103 
 6768000 0.00010875555            0    1.5091224 4.7788875e-05            0    1.5091224       95 
 6769000 0.00010955184            0    1.4888281 4.8138775e-05            0    1.4888281       97 
 6770000 0.00011118861            0    1.4805454 4.8857997e-05            0    1.4805454       99 
 6771000 0.00010885409            0    1.4068287 4.7832176e-05            0    1.4068287      102 
 6772000 0.00011486114            0    1.4991614 5.0471767e-05            0    1.4991614      101 
 6773000 0.0001197482            0     1.547624 5.2619217e-05            0     1.547624      102 
 6774000 0.0001138528            0    1.4431352 5.0028685e-05            0    1.4431352      104 
 6775000 0.0001087818            0    1.5094867 4.7800411e-05            0    1.5094867       95 
 6776000 0.00011443391            0    1.5237585 5.0284032e-05            0    1.5237585       99 
 6777000 0.00011102728            0    1.4636132 4.8787107e-05            0    1.4636132      100 
 6778000 0.00011445718            0    1.5088278 5.0294259e-05            0    1.5088278      100 
 6779000  0.000111748            0    1.5506464 4.9103803e-05            0    1.5506464       95 
 6780000 0.00010676872            0    1.4661197 4.6915831e-05            0    1.4661197       96 
 6781000 0.00010180013            0    1.4276348 4.4732556e-05            0    1.4276348       94 
 6782000 0.00011735968            0    1.4595187 5.1569661e-05            0    1.4595187      106 
 6783000 0.00010398323            0    1.4429003 4.5691842e-05            0    1.4429003       95 
 6784000 0.00011018272            0    1.4524798 4.8415993e-05            0    1.4524798      100 
 6785000 0.00010553344            0    1.4644114 4.6373027e-05            0    1.4644114       95 
 6786000  0.000121366 -0.0010506836    1.5522532 5.3191819e-05 -0.0010506836    1.5533039      103 
 6787000 0.00011907418            0    1.5389129 5.2323039e-05            0    1.5389129      102 
 6788000 0.00012339443 -0.0020278012    1.5181991 5.4003604e-05 -0.0020278012    1.5202269      107 
 6789000 0.00012058494            0    1.5139112 5.2986893e-05            0    1.5139112      105 
 6790000 0.00012173974            0    1.5580872 5.3494327e-05            0    1.5580872      103 
 6791000 0.00012619153            0    1.5843004 5.5450515e-05            0    1.5843004      105 
 6792000 0.00012212889 -0.00017752311    1.5628903 5.363103e-05 -0.00017752311    1.5630678      103 
 6793000 0.00012110663            0    1.5350807 5.321613e-05            0    1.5350807      104 
 6794000 0.00011539308            0    1.4487289 5.070551e-05            0    1.4487289      105 
 6795000 0.00013409089 -0.00014680947    1.6068063 5.8889417e-05 -0.00014680947    1.6069531      110 
 6796000 0.00012862788            0    1.5556262 5.6521085e-05            0    1.5556262      109 
 6797000 0.00013753543 -0.0086139138    1.5817861 6.0356205e-05 -0.0086139138       1.5904      114 
 6798000 0.00013710138 -0.00012637188    1.5992843 6.0214111e-05 -0.00012637188    1.5994107      113 
 6799000 0.00012937449            0    1.5092696 5.6849155e-05            0    1.5092696      113 
 6800000 0.00012041252            0    1.4172623 5.2911127e-05            0    1.4172623      112 
 6801000 0.00013001038 -0.0061112875    1.4972723 5.6631128e-05 -0.0061112875    1.5033836      114 
 6802000 0.00013002276            0    1.4904526 5.7134018e-05            0    1.4904526      115 
 6803000 0.00013109496            0    1.5429952 5.7605156e-05            0    1.5429952      112 
 6804000 0.00013656693            0    1.5519731 6.0009626e-05            0    1.5519731      116 
 6805000 0.00012544375            0    1.4764803 5.512193e-05            0    1.4764803      112 
 6806000 0.00013402948 -0.0079296055    1.5152074 5.8137269e-05 -0.0079296055     1.523137      116 
 6807000 0.00011689583            0    1.4008866 5.136584e-05            0    1.4008866      110 
 6808000 0.00012759701 -0.00065119175    1.4878826 5.5980321e-05 -0.00065119175    1.4885338      113 
 6809000 0.00012482351            0    1.5096161 5.4849386e-05            0    1.5096161      109 
 6810000 0.00012024534            0    1.4542477 5.2837668e-05            0    1.4542477      109 
 6811000 0.00012489676 -9.3927974e-07    1.4316923 5.4865216e-05 -9.3927974e-07    1.4316932      115 
 6812000 0.00013196239            0    1.4742285 5.7986321e-05            0    1.4742285      118 
 6813000 0.00013177307            0    1.4846956 5.7903129e-05            0    1.4846956      117 
 6814000 0.00013118985            0     1.503831 5.7646856e-05            0     1.503831      115 
 6815000 0.00012715226            0    1.4833453 5.5872672e-05            0    1.4833453      113 
 6816000 0.00011285981            0    1.3525186 4.959235e-05            0    1.3525186      110 
 6817000 0.00012719843            0    1.4708674 5.5892962e-05            0    1.4708674      114 
 6818000 0.00013946929            0    1.5580924 6.1284967e-05            0    1.5580924      118 
 6819000 0.00012594533            0    1.4312671 5.5342328e-05            0    1.4312671      116 
 6820000 0.00012611675            0    1.4089234 5.5417654e-05            0    1.4089234      118 
 6821000 0.00013142941            0    1.4808236 5.7752121e-05            0    1.4808236      117 
 6822000 0.00013440107            0    1.5143055 5.9057914e-05            0    1.5143055      117 
 6823000 0.00013356542            0    1.5581606 5.8690714e-05            0    1.5581606      113 
 6824000 0.00013981922            0    1.5753521 6.1438733e-05            0    1.5753521      117 
 6825000 0.00012878626            0    1.4510431 5.6590679e-05            0    1.4510431      117 
 6826000 0.00012348289            0    1.4664944 5.4260295e-05            0    1.4664944      111 
 6827000 0.00011763776 -0.0004966443     1.422215 5.1622692e-05 -0.0004966443    1.4227117      109 
 6828000 0.00012522737            0    1.4872121 5.5026846e-05            0    1.4872121      111 
 6829000 0.00012011668            0    1.4394854 5.278113e-05            0    1.4394854      110 
 6830000 0.00011972241            0    1.4889023 5.2607882e-05            0    1.4889023      106 
 6831000 0.00011126229            0    1.4379521 4.8890373e-05            0    1.4379521      102 
 6832000 0.00011454627            0    1.3981501 5.0333404e-05            0    1.3981501      108 
 6833000 0.00012131214 -0.0016578709    1.5070148 5.3124612e-05 -0.0016578709    1.5086727      106 
 6834000 0.00011339328            0    1.3840767 4.9826763e-05            0    1.3840767      108 
 6835000 0.00011445956            0    1.4234521 5.0295307e-05            0    1.4234521      106 
 6836000 0.00011419676            0    1.4615483 5.0179826e-05            0    1.4615483      103 
 6837000 0.00012027202 -0.00024291352    1.4815157 5.2807538e-05 -0.00024291352    1.4817586      107 
 6838000 0.00011835585            0    1.5447741 5.2007394e-05            0    1.5447741      101 
 6839000 0.00012248115            0    1.5986173 5.3820117e-05            0    1.5986173      101 
 6840000 0.00010432236            0    1.4630063 4.5840864e-05            0    1.4630063       94 
 6841000 9.8085106e-05            0    1.3610563 4.3100116e-05            0    1.3610563       95 
 6842000 0.00010431957            0    1.3890799 4.5839638e-05            0    1.3890799       99 
 6843000 0.00010309826            0    1.3590892 4.5302973e-05            0    1.3590892      100 
 6844000 9.9943484e-05            0    1.3868437 4.3916716e-05            0    1.3868437       95 
 6845000 0.00011396713            0    1.4586094 5.0078923e-05            0    1.4586094      103 
 6846000 0.00010127559            0    1.3906895 4.4502065e-05            0    1.3906895       96 
 6847000 0.00010088368            0    1.3853079 4.4329851e-05            0    1.3853079       96 
 6848000 0.00010404322            0    1.5071935 4.5718203e-05            0    1.5071935       91 
 6849000 0.00010208743            0    1.4470581 4.4858801e-05            0    1.4470581       93 
 6850000 0.00010221211            0    1.5139411 4.4913585e-05            0    1.5139411       89 
 6851000 9.3961571e-05            0    1.4075513 4.1288171e-05            0    1.4075513       88 
 6852000 9.105126e-05            0    1.3189891 4.0009335e-05            0    1.3189891       91 
 6853000 0.00010163198            0    1.3264951 4.4658669e-05            0    1.3264951      101 
 6854000 0.00010388153            0    1.3694147 4.5647156e-05            0    1.3694147      100 
 6855000 9.9202946e-05            0    1.3765677 4.3591312e-05            0    1.3765677       95 
 6856000 0.00010127284            0    1.4052902 4.4500856e-05            0    1.4052902       95 
 6857000 8.7055017e-05            0    1.2079997 3.8253324e-05            0    1.2079997       95 
 6858000 9.0637173e-05            0    1.2317746 3.9827379e-05            0    1.2317746       97 
 6859000 0.00010339639            0    1.4198118 4.5433978e-05            0    1.4198118       96 
 6860000 0.00010023959            0    1.3347525 4.4046832e-05            0    1.3347525       99 
 6861000 0.00010892888            0    1.3546708 4.7865036e-05            0    1.3546708      106 
 6862000 0.00010904334            0    1.4092745 4.7915334e-05            0    1.4092745      102 
 6863000 9.626784e-05            0    1.3500505 4.2301581e-05            0    1.3500505       94 
 6864000 9.7516033e-05            0    1.3822599 4.2850057e-05            0    1.3822599       93 
 6865000 9.2896466e-05 0.0072440716     1.324023 4.6709697e-05 0.0072440716    1.3167789       93 
 6866000 0.00010867406            0     1.476899 4.7753066e-05            0     1.476899       97 
 6867000 9.8049577e-05            0    1.3898227 4.3084504e-05            0    1.3898227       93 
 6868000 0.00010849336            0    1.4302099 4.7673665e-05            0    1.4302099      100 
 6869000 0.00010456322            0    1.4210319 4.5946699e-05            0    1.4210319       97 
 6870000 0.00010540268            0    1.3757101 4.6315574e-05            0    1.3757101      101 
 6871000 0.00010385784            0    1.4114457 4.5636745e-05            0    1.4114457       97 
 6872000 9.4222288e-05            0    1.3213638 4.1402734e-05            0    1.3213638       94 
 6873000 9.7438033e-05            0    1.4271927 4.2815782e-05            0    1.4271927       90 
 6874000 9.2745546e-05            0    1.3006542 4.0753831e-05            0    1.3006542       94 
 6875000 9.9708344e-05            0    1.3550534 4.3813392e-05            0    1.3550534       97 
 6876000 9.8278531e-05            0     1.335622 4.318511e-05            0     1.335622       97 
 6877000 9.7006334e-05            0    1.3899811 4.2626087e-05            0    1.3899811       92 
 6878000 0.0001052847            0    1.3879119 4.6263731e-05            0    1.3879119      100 
 6879000 9.925557e-05            0    1.3489001 4.3614436e-05            0    1.3489001       97 
 6880000 9.6460356e-05            0     1.297536 4.2386176e-05            0     1.297536       98 
 6881000 9.4949072e-05            0     1.290374 4.1722094e-05            0     1.290374       97 
 6882000 0.00010070263            0    1.3685659 4.4250298e-05            0    1.3685659       97 
 6883000 9.7367503e-05            0    1.2965088 4.278479e-05            0    1.2965088       99 
 6884000 0.00010483613            0    1.4102026 4.606662e-05            0    1.4102026       98 
 6885000 9.5029578e-05            0    1.3919157 4.175747e-05            0    1.3919157       90 
 6886000 9.738522e-05            0    1.4107442 4.2792575e-05            0    1.4107442       91 
 6887000 9.9936198e-05            0     1.416565 4.3913514e-05            0     1.416565       93 
 6888000 0.00010400443            0    1.4585476 4.5701157e-05            0    1.4585476       94 
 6889000 0.00010429524            0    1.3748683 4.5828945e-05            0    1.3748683      100 
 6890000 9.5774861e-05            0    1.3874162 4.2084958e-05            0    1.3874162       91 
 6891000 0.00010453745            0    1.3780613 4.5935375e-05            0    1.3780613      100 
 6892000 0.00010706764            0    1.4857005 4.7047182e-05            0    1.4857005       95 
 6893000 0.00010487215            0    1.4707164 4.6082447e-05            0    1.4707164       94 
 6894000 0.00011237075            0    1.4813234 4.9377448e-05            0    1.4813234      100 
 6895000 0.00011471844            0    1.5275472 5.0409059e-05            0    1.5275472       99 
 6896000 0.00011019817            0     1.513212 4.8422784e-05            0     1.513212       96 
 6897000 0.00011579273            0    1.6238655 5.0881119e-05            0    1.6238655       94 
 6898000 0.00010570587            0    1.4983484 4.6448799e-05            0    1.4983484       93 
 6899000 0.00010196744            0    1.3716145 4.4806074e-05            0    1.3716145       98 
 6900000 0.00010383702            0    1.4718579 4.5627595e-05            0    1.4718579       93 
 6901000 0.00010188835            0    1.4442361 4.4771319e-05            0    1.4442361       93 
 6902000 9.5013451e-05            0     1.332459 4.1750383e-05            0     1.332459       94 
 6903000 0.00010412918            0    1.4151333 4.5755976e-05            0    1.4151333       97 
 6904000 0.00010211023            0    1.3460646 4.486882e-05            0    1.3460646      100 
 6905000 0.00010500095            0    1.4725228 4.6139046e-05            0    1.4725228       94 
 6906000 9.6658132e-05            0    1.3700994 4.2473082e-05            0    1.3700994       93 
 6907000 0.0001071381            0    1.4411676 4.7078142e-05            0    1.4411676       98 
 6908000 9.1824851e-05            0    1.3600875 4.0349263e-05            0    1.3600875       89 
 6909000 0.00010187587            0    1.3703827 4.4765835e-05            0    1.3703827       98 
 6910000 8.9647766e-05            0    1.3429302 3.9392618e-05            0    1.3429302       88 
 6911000 9.3217856e-05            0    1.3072778 4.0961371e-05            0    1.3072778       94 
 6912000 0.00010510547            0    1.4898378 4.6184973e-05            0    1.4898378       93 
 6913000 0.00011315636            0    1.5378142 4.972266e-05            0    1.5378142       97 
 6914000 0.00011171171            0    1.5339955 4.9087857e-05            0    1.5339955       96 
 6915000 0.00010273098            0    1.3679268 4.5141586e-05            0    1.3679268       99 
 6916000 0.00010210385            0    1.4472908 4.4866014e-05            0    1.4472908       93 
 6917000 0.00011597676            0    1.6264464 5.0961986e-05            0    1.6264464       94 
 6918000 0.00011119164            0    1.5268541 4.885933e-05            0    1.5268541       96 
 6919000 0.00010540697 -0.0021673057    1.4919442 4.611295e-05 -0.0021673057    1.4941115       93 
 6920000 0.00011663465            0    1.5850847 5.1251073e-05            0    1.5850847       97 
 6921000 0.00010645285            0    1.4174858 4.6777032e-05            0    1.4174858       99 
 6922000 0.00011793205 -0.00035847592      1.56998 5.1770053e-05 -0.00035847592    1.5703385       99 
 6923000 0.00011752189            0    1.5648769 5.1640939e-05            0    1.5648769       99 
 6924000 0.00011344846            0    1.5417838 4.985101e-05            0    1.5417838       97 
 6925000 0.00011436362            0    1.5228226 5.0253146e-05            0    1.5228226       99 
 6926000 0.0001181024            0    1.5414661 5.1896025e-05            0    1.5414661      101 
 6927000 0.0001122148            0    1.5250183 4.9308924e-05            0    1.5250183       97 
 6928000 0.00010775653            0    1.4348451 4.7349889e-05            0    1.4348451       99 
 6929000 0.0001178268 -6.6416705e-05    1.5378025 5.1752031e-05 -6.6416705e-05     1.537869      101 
 6930000 0.00010919832            0    1.4994824 4.7983436e-05            0    1.4994824       96 
 6931000 0.00010570777            0    1.4515511 4.6449634e-05            0    1.4515511       96 
 6932000 0.0001051188            0    1.4900268 4.6190832e-05            0    1.4900268       93 
 6933000 0.00011301083            0    1.6018939 4.9658712e-05            0    1.6018939       93 
 6934000 0.0001222804            0    1.6119571 5.3731903e-05            0    1.6119571      100 
 6935000 0.00011793826            0    1.6028011 5.1823902e-05            0    1.6028011       97 
 6936000 0.00010913734            0    1.5985547 4.795664e-05            0    1.5985547       90 
 6937000  0.000111242 -0.00055755492    1.5112402 4.8812345e-05 -0.00055755492    1.5117977       97 
 6938000 0.00011658522            0    1.6009173 5.1229352e-05            0    1.6009173       96 
 6939000 0.00010959569 -1.1030714e-05    1.4742149 4.8140725e-05 -1.1030714e-05    1.4742259       98 
 6940000 0.00010792525            0    1.5464357 4.7424028e-05            0    1.5464357       92 
 6941000 0.00011022124            0    1.4979254 4.8432921e-05            0    1.4979254       97 
 6942000 0.00011234538            0    1.4959485 4.9366302e-05            0    1.4959485       99 
 6943000 0.00011162145            0    1.5327561 4.9048194e-05            0    1.5327561       96 
 6944000 0.00010807255            0    1.4996449 4.7488755e-05            0    1.4996449       95 
 6945000 0.00011550217            0    1.5536769 5.0753444e-05            0    1.5536769       98 
 6946000 0.00010442334            0    1.5466932 4.5885233e-05            0    1.5466932       89 
 6947000 0.00011633459            0    1.5648742 5.1119224e-05            0    1.5648742       98 
 6948000 9.7411819e-05            0    1.4428403 4.2804263e-05            0    1.4428403       89 
 6949000 9.1849572e-05            0    1.4079114 4.0360126e-05            0    1.4079114       86 
 6950000 9.3223697e-05 -0.0082782334    1.4375078 4.046564e-05 -0.0082782334     1.445786       85 
 6951000 9.4746783e-05            0    1.3576045 4.1633205e-05            0    1.3576045       92 
 6952000 9.6102706e-05            0    1.3921654 4.2229019e-05            0    1.3921654       91 
 6953000 0.00010710656            0    1.4555964 4.7064282e-05            0    1.4555964       97 
 6954000 0.00010232708            0    1.4350247 4.4964107e-05            0    1.4350247       94 
 6955000 0.00011353075            0    1.5117325 4.9887173e-05            0    1.5117325       99 
 6956000 0.0001062275            0    1.5057423 4.6678011e-05            0    1.5057423       93 
 6957000 0.00011582659            0     1.542303   5.0896e-05            0     1.542303       99 
 6958000 0.00012633941            0    1.6822877 5.5515496e-05            0    1.6822877       99 
 6959000 0.00010908378            0    1.5462292 4.7933104e-05            0    1.5462292       93 
 6960000 0.00011479473            0    1.5929237 5.0442585e-05            0    1.5929237       95 
 6961000 0.00011323877            0    1.6225719 4.9758871e-05            0    1.6225719       92 
 6962000 0.00011439472            0      1.60426 5.0266814e-05            0      1.60426       94 
 6963000 0.00011144528 -0.0070357644    1.5558615 4.8453431e-05 -0.0070357644    1.5628973       94 
 6964000 0.00010826687            0    1.5346497 4.7574141e-05            0    1.5346497       93 
 6965000 0.0001029826            0    1.4918291 4.5252149e-05            0    1.4918291       91 
 6966000 0.00010159031            0    1.5047312 4.4640359e-05            0    1.5047312       89 
 6967000 9.9644046e-05            0    1.4277763 4.3785138e-05            0    1.4277763       92 
 6968000 0.00011373389            0    1.6121431 4.9976436e-05            0    1.6121431       93 
 6969000 0.00010853825            0    1.5384964 4.769339e-05            0    1.5384964       93 
 6970000 0.00010335519            0    1.5842746 4.5415871e-05            0    1.5842746       86 
 6971000 9.8466757e-05            0    1.4422606 4.3267819e-05            0    1.4422606       90 
 6972000 8.744759e-05            0    1.3562056 3.8425826e-05            0    1.3562056       85 
 6973000 9.7105793e-05            0    1.5059926 4.266979e-05            0    1.5059926       85 
 6974000 0.00011239123            0    1.6647117 4.9386449e-05            0    1.6647117       89 
 6975000 0.00011355999            0    1.5925538 4.9900018e-05            0    1.5925538       94 
 6976000 9.9679434e-05            0     1.527931 4.3800688e-05            0     1.527931       86 
 6977000 0.00010478692            0    1.4695212 4.6044997e-05            0    1.4695212       94 
 6978000 0.00010468625            0    1.5333587 4.600076e-05            0    1.5333587       90 
 6979000 9.3171947e-05            0    1.4621856 4.0941198e-05            0    1.4621856       84 
 6980000 0.00010166752 -0.013777895    1.4590007 4.4960981e-05 -0.013777895    1.4727786       91 
 6981000 0.0001038156            0    1.4715543 4.5618183e-05            0    1.4715543       93 
 6982000 0.00010409092 -0.00014139465    1.5077432 4.5710197e-05 -0.00014139465    1.5078845       91 
 6983000 0.00010834422 -0.00084594672    1.4715705 4.7479038e-05 -0.00084594672    1.4724164       97 
 6984000 0.00011764309            0    1.6154437 5.1694199e-05            0    1.6154437       96 
 6985000 0.00011386217            0    1.5474063 5.0032803e-05            0    1.5474063       97 
 6986000 0.00010923185            0    1.5318564 4.7998166e-05            0    1.5318564       94 
 6987000 0.00011110396 -5.3437792e-05    1.6273066 4.8799787e-05 -5.3437792e-05      1.62736       90 
 6988000  0.000112423            0    1.6651823 4.9400409e-05            0    1.6651823       89 
 6989000 0.0001051279            0    1.5398277 4.619483e-05            0    1.5398277       90 
 6990000 0.00011396377            0     1.581393 5.0077445e-05            0     1.581393       95 
 6991000 0.00011024027            0    1.5459984 4.8441282e-05            0    1.5459984       94 
 6992000 0.00010865063            0    1.4919616 4.7742772e-05            0    1.4919616       96 
 6993000 0.00011711536            0    1.6424139 5.1462302e-05            0    1.6424139       94 
 6994000 0.00012016785            0    1.6001096 5.2803617e-05            0    1.6001096       99 
 6995000 0.00011815453            0    1.5893551 5.1918934e-05            0    1.5893551       98 
 6996000 0.00011806341            0    1.6382808 5.1878893e-05            0    1.6382808       95 
 6997000 0.00011476721            0    1.5759529 5.0430493e-05            0    1.5759529       96 
 6998000 0.00012321463            0     1.592424 5.4142417e-05            0     1.592424      102 
 6999000 0.00011813646            0    1.5419107 5.1910993e-05            0    1.5419107      101 
 7000000 0.00011576845            0    1.5110035 5.0870453e-05            0    1.5110035      101 
 7001000  0.000117272 -0.0022512138    1.5436828 5.1306348e-05 -0.0022512138     1.545934      100 
 7002000 0.00012599893            0    1.5970928 5.5365885e-05            0    1.5970928      104 
 7003000 0.00011999765            0    1.5978432 5.2728826e-05            0    1.5978432       99 
 7004000 0.00011315741            0    1.5067612 4.9723119e-05            0    1.5067612       99 
 7005000 0.00010785339            0    1.4657459 4.7392451e-05            0    1.4657459       97 
 7006000 0.00010332912            0    1.4338237 4.5404417e-05            0    1.4338237       95 
 7007000 0.00010052597            0    1.4562418 4.4172669e-05            0    1.4562418       91 
 7008000 0.00010795589            0    1.5139625 4.7437492e-05            0    1.5139625       94 
 7009000 0.00011082355            0    1.5061108 4.8697584e-05            0    1.5061108       97 
 7010000 0.00010423825            0    1.4618267 4.5803904e-05            0    1.4618267       94 
 7011000 0.00010837948 -0.00051681793    1.4723788 4.7558319e-05 -0.00051681793    1.4728956       97 
 7012000 0.0001111682            0    1.4953785 4.884903e-05            0    1.4953785       98 
 7013000 0.00010303445            0    1.4002557 4.5274935e-05            0    1.4002557       97 
 7014000 0.0001087018            0    1.4622017 4.7765257e-05            0    1.4622017       98 
 7015000 0.00011659534            0    1.4922466 5.1233799e-05            0    1.4922466      103 
 7016000 0.00010312805            0    1.4015277 4.5316064e-05            0    1.4015277       97 
 7017000 0.00010806099            0    1.4388993 4.7483676e-05            0    1.4388993       99 
 7018000 0.00010896051            0    1.4221466 4.7878935e-05            0    1.4221466      101 
 7019000 0.00010858252            0    1.4172131 4.7712841e-05            0    1.4172131      101 
 7020000 0.00011959945            0    1.6253769 5.2553852e-05            0    1.6253769       97 
 7021000 0.00011094327            0    1.5234436 4.8750194e-05            0    1.5234436       96 
 7022000 0.00010395967            0    1.4896138 4.5681491e-05            0    1.4896138       92 
 7023000 0.00010564803            0     1.513806 4.6423383e-05            0     1.513806       92 
 7024000 0.00010046302            0    1.4395111 4.4145008e-05            0    1.4395111       92 
 7025000 0.00010143498            0    1.4857368 4.4572104e-05            0    1.4857368       90 
 7026000 0.00011815536            0    1.5733121 5.1919298e-05            0    1.5733121       99 
 7027000 0.00011842881            0    1.5611837 5.2039455e-05            0    1.5611837      100 
 7028000 0.00011705347            0    1.5430533 5.143511e-05            0    1.5430533      100 
 7029000 0.00011101668            0    1.5736274 4.8782448e-05            0    1.5736274       93 
 7030000 0.0001132064            0    1.5074135 4.9744647e-05            0    1.5074135       99 
 7031000 0.00011314452 -0.0010945771    1.5208683 4.9597944e-05 -0.0010945771    1.5219629       98 
 7032000 0.00012057131            0    1.4994595 5.2980903e-05            0    1.4994595      106 
 7033000 0.00012953865            0    1.6419603 5.692129e-05            0    1.6419603      104 
 7034000 0.00012339371            0    1.6598298 5.4221107e-05            0    1.6598298       98 
 7035000 0.00012005143            0    1.5985594 5.2752459e-05            0    1.5985594       99 
 7036000 0.00012116493 -0.00023931665     1.613147 5.3202148e-05 -0.00023931665    1.6133863       99 
 7037000 0.00012550459            0    1.5608112 5.5148662e-05            0    1.5608112      106 
 7038000 0.00013247962            0    1.6022092 5.8213599e-05            0    1.6022092      109 
 7039000 0.00012317923            0    1.5919665 5.4126861e-05            0    1.5919665      102 
 7040000 0.00012257232            0    1.6657787 5.3860178e-05            0    1.6657787       97 
 7041000 0.00012151944            0    1.6181068 5.3397524e-05            0    1.6181068       99 
 7042000 0.00012984205            0    1.6617847 5.705461e-05            0    1.6617847      103 
 7043000 0.00011625725            0    1.5638338 5.1085238e-05            0    1.5638338       98 
 7044000 0.00011760588            0     1.598284 5.1677848e-05            0     1.598284       97 
 7045000 0.00010991925 -3.2296223e-05    1.5414642 4.8280964e-05 -3.2296223e-05    1.5414965       94 
 7046000 0.00012358464            0    1.6456063 5.4305006e-05            0    1.6456063       99 
 7047000 0.00012191216            0    1.5452912 5.3570095e-05            0    1.5452912      104 
 7048000 0.00013520465            0    1.6057032 5.9411019e-05            0    1.6057032      111 
 7049000 0.00012308668            0    1.6065207 5.4086195e-05            0    1.6065207      101 
 7050000 0.00011849683            0    1.5314513 5.2069343e-05            0    1.5314513      102 
 7051000 0.00012555761            0    1.6069503 5.5171961e-05            0    1.6069503      103 
 7052000 0.00012949788            0    1.6258107 5.6903374e-05            0    1.6258107      105 
 7053000 0.00013026016 -0.0094179461    1.6907306 5.7663666e-05 -0.0094179461    1.7001485      101 
 7054000 0.00013702642            0    1.6725426 6.0211532e-05            0    1.6725426      108 
 7055000 0.00013548793            0    1.6537637 5.9535494e-05            0    1.6537637      108 
 7056000 0.00013802097            0    1.7004267 6.0648553e-05            0    1.7004267      107 
 7057000 0.00013892862 -0.00074446456    1.6641843 6.0951718e-05 -0.00074446456    1.6649288      110 
 7058000 0.00013791153            0    1.6527399 6.0600464e-05            0    1.6527399      110 
 7059000 0.00013554117            0    1.6544137 5.9558892e-05            0    1.6544137      108 
 7060000 0.00013208707            0    1.7070914 5.8041107e-05            0    1.7070914      102 
 7061000 0.00013069034            0    1.5662007 5.742736e-05            0    1.5662007      110 
 7062000 0.00013096242            0    1.5838601 5.7546916e-05            0    1.5838601      109 
 7063000 0.0001234881            0    1.4665564 5.4262587e-05            0    1.4665564      111 
 7064000 0.00012995639            0     1.516058 5.7104853e-05            0     1.516058      113 
 7065000 0.00012345892            0     1.479539 5.4249765e-05            0     1.479539      110 
 7066000 0.00012088935            0    1.5034147 5.3120654e-05            0    1.5034147      106 
 7067000 0.00011779094            0    1.4377546 5.1759164e-05            0    1.4377546      108 
 7068000 0.00012717196            0    1.4705613 5.5881329e-05            0    1.4705613      114 
 7069000 0.00011255593            0    1.3738561 4.9458818e-05            0    1.3738561      108 
 7070000 0.00011981987            0    1.3978064 5.2650707e-05            0    1.3978064      113 
 7071000 0.00011429585 -0.0015634092    1.4198526 5.0050466e-05 -0.0015634092     1.421416      106 
 7072000 0.00011313139            0    1.4339909 4.9711684e-05            0    1.4339909      104 
 7073000 0.00010938269            0    1.3476014 4.806445e-05            0    1.3476014      107 
 7074000 0.00011421821 -5.7735815e-05    1.3564085 5.0166656e-05 -5.7735815e-05    1.3564662      111 
 7075000 0.00011952299            0    1.3700935 5.2520253e-05            0    1.3700935      115 
 7076000 0.00010507583            0    1.3067533 4.617195e-05            0    1.3067533      106 
 7077000 0.00010892367 -0.00083537102    1.2812025 4.7756067e-05 -0.00083537102    1.2820379      112 
 7078000 0.00011425266            0    1.3692106 5.0204389e-05            0    1.3692106      110 
 7079000 0.00012659659            0    1.4263719 5.5628504e-05            0    1.4263719      117 
 7080000 0.00012111071            0    1.3882937 5.3217923e-05            0    1.3882937      115 
 7081000 0.0001298113 -0.0003885661    1.4622037 5.6980303e-05 -0.0003885661    1.4625922      117 
 7082000 0.00011799869 -0.0047723379    1.3965913 5.141084e-05 -0.0047723379    1.4013636      111 
 7083000 0.00012623188 -0.00071774945    1.4094919 5.5369922e-05 -0.00071774945    1.4102096      118 
 7084000 0.0001154173            0    1.3707067 5.071615e-05            0    1.3707067      111 
 7085000 0.00012508027 -9.4938188e-05    1.4590788 5.4935351e-05 -9.4938188e-05    1.4591737      113 
 7086000 0.00013018901            0    1.4794931 5.7207067e-05            0    1.4794931      116 
 7087000 0.00012773486            0    1.4901418 5.6128676e-05            0    1.4901418      113 
 7088000 0.00012865469            0    1.4747704 5.6532866e-05            0    1.4747704      115 
 7089000 0.00013629195            0    1.5225965 5.9888794e-05            0    1.5225965      118 
 7090000 0.00013909866            0    1.5944897 6.1122106e-05            0    1.5944897      115 
 7091000 0.0001246908            0     1.467618 5.4791071e-05            0     1.467618      112 
 7092000 0.00014053708 -0.00031610845    1.5565117 6.1700985e-05 -0.00031610845    1.5568278      119 
 7093000 0.0001386278            0    1.5486916 6.0915203e-05            0    1.5486916      118 
 7094000 0.00014083102            0    1.5217213 6.1883332e-05            0    1.5217213      122 
 7095000 0.0001432213            0    1.5865628 6.2933659e-05            0    1.5865628      119 
 7096000 0.00014052425 -0.0033184353    1.5150881 6.1384578e-05 -0.0033184353    1.5184066      122 
 7097000 0.0001400979            0    1.5920997 6.1561188e-05            0    1.5920997      116 
 7098000 0.00013947064            0    1.5450141 6.1285561e-05            0    1.5450141      119 
 7099000 0.00014214173            0    1.5746037 6.245928e-05            0    1.5746037      119 
 7100000 0.00014746751            0    1.6065994 6.4799511e-05            0    1.6065994      121 
 7101000 0.00012722875            0     1.471218 5.5906285e-05            0     1.471218      114 
 7102000 0.00012828005            0    1.4330909 5.636824e-05            0    1.4330909      118 
 7103000 0.00012202625 -0.0065465994     1.404512 5.3058439e-05 -0.0065465994    1.4110586      114 
 7104000 0.00012403675            0    1.3856865 5.450367e-05            0    1.3856865      118 
 7105000 0.00012487072            0    1.4313947 5.4870132e-05            0    1.4313947      115 
 7106000 0.00012017623            0     1.440199 5.2807298e-05            0     1.440199      110 
 7107000 0.00011788785            0    1.3632039 5.1801748e-05            0    1.3632039      114 
 7108000 0.00012184451 -0.00029770077    1.3964076 5.3490471e-05 -0.00029770077    1.3967053      115 
 7109000 0.00011521979 -0.0033774423    1.3649837 5.0269967e-05 -0.0033774423    1.3683612      111 
 7110000 0.00012602824            0    1.4573358 5.537876e-05            0    1.4573358      114 
 7111000 0.00013754363            0    1.5766644 6.0438802e-05            0    1.5766644      115 
 7112000 0.00011714989            0    1.3666587 5.1477477e-05            0    1.3666587      113 
 7113000 0.00011535391            0     1.345707 5.0688295e-05            0     1.345707      113 
 7114000 0.0001277973            0    1.3923004 5.6156116e-05            0    1.3923004      121 
 7115000 0.00011433309            0    1.2772813 5.0239731e-05            0    1.2772813      118 
 7116000 0.00010634649 -0.0036921066    1.2260525 4.6355483e-05 -0.0036921066    1.2297446      114 
 7117000 0.00010096858            0    1.1991124 4.4367158e-05            0    1.1991124      111 
 7118000 0.00010593517            0    1.2695333 4.6549554e-05            0    1.2695333      110 
 7119000 0.00010830514            0    1.2415032 4.7590957e-05            0    1.2415032      115 
 7120000 0.00010381537            0    1.1696945 4.5618084e-05            0    1.1696945      117 
 7121000 0.00010595333            0    1.2360407 4.6557534e-05            0    1.2360407      113 
 7122000 0.00011205522 -0.00049338465    1.2513405 4.9165707e-05 -0.00049338465    1.2518339      118 
 7123000 0.0001150429            0    1.2637908 5.0551634e-05            0    1.2637908      120 
 7124000 0.00011228162            0    1.2650842 4.9338284e-05            0    1.2650842      117 
 7125000 0.00010800344            0    1.2168817 4.7458387e-05            0    1.2168817      117 
 7126000 0.00010753395            0    1.2013242 4.7252086e-05            0    1.2013242      118 
 7127000 0.00010645484            0    1.2529797 4.6777907e-05            0    1.2529797      112 
 7128000 0.00011007816            0    1.2509495 4.8370049e-05            0    1.2509495      116 
 7129000 0.00010257409            0    1.1758081 4.5072644e-05            0    1.1758081      115 
 7130000 0.00010870429 -0.00013493801    1.2142638 4.7734374e-05 -0.00013493801    1.2143987      118 
 7131000 0.00010185337            0    1.1574815 4.4755952e-05            0    1.1574815      116 
 7132000 0.00010076092            0    1.1352798 4.4275911e-05            0    1.1352798      117 
 7133000 0.00010430194 -7.3819348e-05    1.1955407 4.580724e-05 -7.3819348e-05    1.1956145      115 
 7134000 0.00010182101            0    1.1671755 4.4741729e-05            0    1.1671755      115 
 7135000 9.6975827e-05            0    1.1836856 4.2612681e-05            0    1.1836856      108 
 7136000 0.00010203941            0    1.1496846 4.4837699e-05            0    1.1496846      117 
 7137000 0.00010513832            0    1.1646909 4.6199406e-05            0    1.1646909      119 
 7138000 9.7641605e-05            0    1.1596009 4.2905235e-05            0    1.1596009      111 
 7139000 0.00010348652            0     1.156108 4.5473581e-05            0     1.156108      118 
 7140000 0.00010003992 -4.0306795e-05    1.1567778 4.3938288e-05 -4.0306795e-05    1.1568181      114 
 7141000 0.00010254522            0    1.1754771 4.5059957e-05            0    1.1754771      115 
 7142000 9.8657557e-05            0     1.150929 4.335166e-05            0     1.150929      113 
 7143000 0.00010595311            0    1.1937805 4.655744e-05            0    1.1937805      117 
 7144000 0.00010590858            0    1.2246808 4.653787e-05            0    1.2246808      114 
 7145000 0.00010219897            0    1.1715081 4.4907812e-05            0    1.1715081      115 
 7146000 9.9038735e-05 -5.8000058e-05    1.1254374 4.3496245e-05 -5.8000058e-05    1.1254954      116 
 7147000 0.00011450277            0    1.1885266 5.0314291e-05            0    1.1885266      127 
 7148000 9.4386923e-05            0    1.0914494 4.1475077e-05            0    1.0914494      114 
 7149000 9.9538896e-05            0    1.0934733 4.3738934e-05            0    1.0934733      120 
 7150000 9.8395893e-05            0    1.1378074 4.323668e-05            0    1.1378074      114 
 7151000 9.7216905e-05            0    1.0769399 4.2718615e-05            0    1.0769399      119 
 7152000 9.979315e-05            0    1.0872064 4.3850657e-05            0    1.0872064      121 
 7153000 0.00010717001            0    1.1675743 4.7092164e-05            0    1.1675743      121 
 7154000 0.00010705576            0    1.1859318 4.704196e-05            0    1.1859318      119 
 7155000 0.00010740044            0    1.1998327 4.719342e-05            0    1.1998327      118 
 7156000 9.8841188e-05            0    1.1633665 4.343235e-05            0    1.1633665      112 
 7157000 0.00010309782            0    1.1716237 4.5302781e-05            0    1.1716237      116 
 7158000 0.00010993177            0    1.1976626 4.8305723e-05            0    1.1976626      121 
 7159000 0.0001050263 -2.7854947e-05    1.1732819 4.6130678e-05 -2.7854947e-05    1.1733098      118 
 7160000 9.4660301e-05            0    1.0946106 4.1595204e-05            0    1.0946106      114 
 7161000 8.5910379e-05            0    1.0295551 3.7750352e-05            0    1.0295551      110 
 7162000 0.00010064422            0    1.1638061 4.4224632e-05            0    1.1638061      114 
 7163000 0.00010512913            0    1.1844966 4.6195369e-05            0    1.1844966      117 
 7164000 0.00010205756            0    1.1905932 4.4845675e-05            0    1.1905932      113 
 7165000 0.00010337807            0    1.2167659 4.5425927e-05            0    1.2167659      112 
 7166000 0.00010156995 -0.0002125946    1.1846921 4.4591487e-05 -0.0002125946    1.1849047      113 
 7167000 0.00010853047            0    1.2889181 4.7689971e-05            0    1.2889181      111 
 7168000 0.00010664838            0    1.2332355 4.686295e-05            0    1.2332355      114 
 7169000 0.00010453689            0    1.2088192 4.5935129e-05            0    1.2088192      114 
 7170000 9.4779137e-05 -0.0076460813    1.0788084 4.121002e-05 -0.0076460813    1.0864545      115 
 7171000 9.6723509e-05 -0.0005057496    1.1278609 4.2413302e-05 -0.0005057496    1.1283666      113 
 7172000 9.8862146e-05            0    1.1332581 4.3441559e-05            0    1.1332581      115 
 7173000 9.4890618e-05            0    1.1582336 4.1696408e-05            0    1.1582336      108 
 7174000 9.7220441e-05            0    1.1757845 4.2720169e-05            0    1.1757845      109 
 7175000 8.6861835e-05            0     1.111702 3.8168437e-05            0     1.111702      103 
 7176000 8.9520471e-05            0    1.1239052 3.9336683e-05            0    1.1239052      105 
 7177000 0.00010252148 -9.6750482e-06    1.1855042 4.5032185e-05 -9.6750482e-06    1.1855139      114 
 7178000  0.000104968 -0.001007687    1.2344718 4.5999854e-05 -0.001007687    1.2354795      112 
 7179000 9.9762266e-05            0    1.2176968 4.3837086e-05            0    1.2176968      108 
 7180000 0.00010493617            0    1.3050165 4.6110582e-05            0    1.3050165      106 
 7181000 9.4886561e-05            0     1.191275 4.1694626e-05            0     1.191275      105 
 7182000 0.0001054839            0    1.2757227 4.6351259e-05            0    1.2757227      109 
 7183000 0.00011260748            0    1.3494947 4.9481473e-05            0    1.3494947      110 
 7184000 0.00010817467            0    1.3452913 4.7533625e-05            0    1.3452913      106 
 7185000 0.00011171646            0    1.3763535 4.9089943e-05            0    1.3763535      107 
 7186000 0.00011308173            0    1.4472776 4.9689866e-05            0    1.4472776      103 
 7187000 0.00010294782            0    1.3304961 4.5236867e-05            0    1.3304961      102 
 7188000 0.00011156276            0    1.3492406 4.9022407e-05            0    1.3492406      109 
 7189000 0.0001141906            0    1.3938088 5.0177117e-05            0    1.3938088      108 
 7190000 0.00012653444            0    1.5163962 5.5601193e-05            0    1.5163962      110 
 7191000 0.00011947582 -0.005757524    1.4525626 5.2020153e-05 -0.005757524    1.4583201      108 
 7192000 0.00012965177            0    1.4992367 5.6970995e-05            0    1.4992367      114 
 7193000 0.00012705061            0    1.5365507 5.5828009e-05            0    1.5365507      109 
 7194000 0.0001243243 -0.00035483186     1.560503 5.4577189e-05 -0.00035483186    1.5608579      105 
 7195000 0.00012989619 -0.00017379194    1.5707913 5.7043453e-05 -0.00017379194    1.5709651      109 
 7196000 0.00012961881            0    1.5393652 5.6956513e-05            0    1.5393652      111 
 7197000 0.00012627529            0    1.4996573 5.548732e-05            0    1.4996573      111 
 7198000 0.00013621424            0    1.5751223 5.9854647e-05            0    1.5751223      114 
 7199000  0.000127311            0    1.5396998 5.5942425e-05            0    1.5396998      109 
 7200000 0.00013654337 -0.0093840158    1.5423214 5.9156789e-05 -0.0093840158    1.5517054      116 
 7201000 0.00011846953            0    1.4873527 5.2057346e-05            0    1.4873527      105 
 7202000 0.00013223954 -0.00013697376    1.5991686 5.8077105e-05 -0.00013697376    1.5993056      109 
 7203000 0.00012784434            0    1.5461501 5.6176786e-05            0    1.5461501      109 
 7204000 0.00013206179            0    1.5971559 5.8029999e-05            0    1.5971559      109 
 7205000 0.00012064181            0    1.5146252 5.3011881e-05            0    1.5146252      105 
 7206000 0.00012734479            0    1.5688955 5.5957274e-05            0    1.5688955      107 
 7207000 0.00012231567            0    1.4792863 5.3747402e-05            0    1.4792863      109 
 7208000 0.00012072222            0    1.4467422 5.3047214e-05            0    1.4467422      110 
 7209000 0.00012410715 -0.00061120951    1.4601372 5.4451711e-05 -0.00061120951    1.4607484      112 
 7210000 0.00010904242            0    1.3821615 4.791493e-05            0    1.3821615      104 
 7211000 0.00011821512            0     1.416697 5.1945555e-05            0     1.416697      110 
 7212000 0.0001103937            0    1.3474639 4.8508702e-05            0    1.3474639      108 
 7213000 0.00012040453 -0.001160824    1.3790378 5.2729191e-05 -0.001160824    1.3801987      115 
 7214000 0.00011873995            0    1.4229865 5.2176173e-05            0    1.4229865      110 
 7215000 0.00011676396            0    1.4121438 5.1307893e-05            0    1.4121438      109 
 7216000 0.00011831436            0    1.4178863 5.1989164e-05            0    1.4178863      110 
 7217000 0.00011679087            0    1.3870194 5.1319718e-05            0    1.3870194      111 
 7218000 0.00011173164            0    1.4027604 4.9096612e-05            0    1.4027604      105 
 7219000 0.00011431523            0    1.4083706 5.0231885e-05            0    1.4083706      107 
 7220000 0.00010971346            0    1.4041687 4.8209793e-05            0    1.4041687      103 
 7221000 0.00011999255            0    1.4123192 5.2726585e-05            0    1.4123192      112 
 7222000 0.00011184359            0    1.2933107 4.9145806e-05            0    1.2933107      114 
 7223000 0.0001118052            0     1.403684 4.9128939e-05            0     1.403684      105 
 7224000 0.00011346033 -0.00062358722    1.4375369 4.9776777e-05 -0.00062358722    1.4381605      104 
 7225000 0.00011691628            0    1.3761114 5.1374824e-05            0    1.3761114      112 
 7226000 0.00011967163 -0.00019997208    1.3958771 5.2547041e-05 -0.00019997208     1.396077      113 
 7227000 0.00012084897            0    1.4750809 5.3102912e-05            0    1.4750809      108 
 7228000 0.00011612367            0    1.4441473 5.102654e-05            0    1.4441473      106 
 7229000 0.00011356986            0    1.4677753 4.9904359e-05            0    1.4677753      102 
 7230000 0.0001199288            0    1.4638492 5.2698572e-05            0    1.4638492      108 
 7231000 0.00011771118            0    1.3979491 5.1724119e-05            0    1.3979491      111 
 7232000 0.00010638432            0    1.3885224 4.674692e-05            0    1.3885224      101 
 7233000 0.00011784206            0    1.4383785 5.1781627e-05            0    1.4383785      108 
 7234000 0.00011123225            0    1.4099185 4.8877174e-05            0    1.4099185      104 
 7235000 0.00011616775            0    1.4311937 5.1045908e-05            0    1.4311937      107 
 7236000 0.00012287083            0    1.4724913 5.3991349e-05            0    1.4724913      110 
 7237000 0.0001204168            0    1.4563213 5.2913007e-05            0    1.4563213      109 
 7238000 0.0001028144            0    1.3158711 4.5178243e-05            0    1.3158711      103 
 7239000 0.00010964604            0    1.3765763 4.8180171e-05            0    1.3765763      105 
 7240000 0.00010629335            0    1.4012084 4.6706947e-05            0    1.4012084      100 
 7241000 0.00011270886            0    1.3385411 4.9526019e-05            0    1.3385411      111 
 7242000 0.00011365342            0    1.4688551 4.9941073e-05            0    1.4688551      102 
 7243000 0.00010545852            0    1.3115125 4.634011e-05            0    1.3115125      106 
 7244000 0.00010955649            0    1.3372449 4.8140818e-05            0    1.3372449      108 
 7245000 9.5570674e-05            0    1.2855684 4.1995236e-05            0    1.2855684       98 
 7246000 9.7776995e-05            0    1.2046185 4.2964727e-05            0    1.2046185      107 
 7247000 0.00011159299            0    1.3878026 4.903569e-05            0    1.3878026      106 
 7248000 0.0001269624            0    1.5354839 5.5789247e-05            0    1.5354839      109 
 7249000 0.00011753377            0    1.4480232 5.164616e-05            0    1.4480232      107 
 7250000 0.00012894192            0    1.5452476 5.6659077e-05            0    1.5452476      110 
 7251000 0.00012771979 -0.0075016102    1.5093107 5.5629821e-05 -0.0075016102    1.5168123      111 
 7252000 0.00012036251 -0.00026158134    1.4826118 5.2845347e-05 -0.00026158134    1.4828734      107 
 7253000 0.00013469786            0    1.5996845 5.9188327e-05            0    1.5996845      111 
 7254000 0.00013797637 -0.001055707    1.5944431 6.0497306e-05 -0.001055707    1.5954988      114 
 7255000 0.00014031838 -0.0059224705    1.6025489 6.1163087e-05 -0.0059224705    1.6084714      115 
 7256000 0.00012326081            0     1.547506 5.4162709e-05            0     1.547506      105 
 7257000 0.00012848784            0    1.5979118 5.6459551e-05            0    1.5979118      106 
 7258000 0.00012466569            0    1.5077074 5.4780035e-05            0    1.5077074      109 
 7259000 0.00012653763 -8.6049892e-05    1.5885595 5.5577404e-05 -8.6049892e-05    1.5886455      105 
 7260000 0.00012614539    -0.001195    1.5529238 5.5275402e-05    -0.001195    1.5541188      107 
 7261000 0.00012841341            0    1.5674124 5.6426845e-05            0    1.5674124      108 
 7262000 0.00011933037 -5.5871462e-05     1.542168 5.2413719e-05 -5.5871462e-05    1.5422239      102 
 7263000 0.00012220957            0    1.4916883 5.3700778e-05            0    1.4916883      108 
 7264000 0.00012836206 -0.0024450676    1.6091058 5.6136225e-05 -0.0024450676    1.6115509      105 
 7265000 0.00011832075            0    1.5143293 5.1991972e-05            0    1.5143293      103 
 7266000 0.00011427069            0    1.4484321 5.0212313e-05            0    1.4484321      104 
 7267000 0.00010578231            0    1.3408381 4.6482389e-05            0    1.3408381      104 
 7268000 0.00011535028            0    1.3950468 5.0686702e-05            0    1.3950468      109 
 7269000 0.00011250876            0    1.3991914 4.9438095e-05            0    1.3991914      106 
 7270000 0.00011033015            0     1.398484 4.8480777e-05            0     1.398484      104 
 7271000 0.00011436163            0    1.4636584 5.0252271e-05            0    1.4636584      103 
 7272000 0.00011395672 -0.00022282223    1.4725522 5.0035694e-05 -0.00022282223     1.472775      102 
 7273000 0.00012123957            0    1.5221299 5.3274547e-05            0    1.5221299      105 
 7274000 0.00011467405            0    1.4397016 5.0389556e-05            0    1.4397016      105 
 7275000 0.00010196163            0    1.3441056 4.4803522e-05            0    1.3441056      100 
 7276000 0.0001163745            0    1.4610503 5.1136759e-05            0    1.4610503      105 
 7277000 0.0001089226            0    1.4077141 4.7862278e-05            0    1.4077141      102 
 7278000 0.00010865837            0    1.3513067 4.774617e-05            0    1.3513067      106 
 7279000  0.000108615            0    1.3636318 4.7727113e-05            0    1.3636318      105 
 7280000 0.00011009689            0    1.3438412 4.8378282e-05            0    1.3438412      108 
 7281000 0.00011574914            0    1.3998706 5.0861966e-05            0    1.3998706      109 
 7282000 0.00010625558            0    1.3214249 4.6690347e-05            0    1.3214249      106 
 7283000 0.00010179606            0    1.3156108 4.4730767e-05            0    1.3156108      102 
 7284000 0.00011008919 -0.0001244576    1.3561811 4.8345486e-05 -0.0001244576    1.3563055      107 
 7285000 0.0001169907            0    1.4148861 5.1407527e-05            0    1.4148861      109 
 7286000 0.00010859849            0    1.3133906 4.7719858e-05            0    1.3133906      109 
 7287000 0.00010454344            0    1.3001323 4.5938009e-05            0    1.3001323      106 
 7288000 0.00010798935            0    1.3429866 4.7452193e-05            0    1.3429866      106 
 7289000 0.00011153352            0    1.4137372 4.9009558e-05            0    1.4137372      104 
 7290000 0.00011106155            0     1.368285 4.8802166e-05            0     1.368285      107 
 7291000 0.00011187507            0    1.3407174 4.9159639e-05            0    1.3407174      110 
 7292000 0.00011420763            0    1.3812276 5.0184601e-05            0    1.3812276      109 
 7293000 0.00012604124            0    1.4323571 5.5384474e-05            0    1.4323571      116 
 7294000 0.00012263461            0    1.4306429 5.3887549e-05            0    1.4306429      113 
 7295000 0.00011503574            0    1.3912428 5.0548487e-05            0    1.3912428      109 
 7296000 0.0001266549            0    1.4270289 5.5654127e-05            0    1.4270289      117 
 7297000 0.00011490366            0     1.328696 5.0490449e-05            0     1.328696      114 
 7298000 0.00012214682            0    1.3307407 5.3673207e-05            0    1.3307407      121 
 7299000 0.00011619181            0    1.3319083 5.1056484e-05            0    1.3319083      115 
 7300000 0.00012447267            0    1.3788711 5.4695222e-05            0    1.3788711      119 
 7301000 0.00011334324            0    1.2348292 4.9804777e-05            0    1.2348292      121 
 7302000 0.00012535436            0    1.4369386 5.5082647e-05            0    1.4369386      115 
 7303000 0.00012691362            0     1.382673 5.5767813e-05            0     1.382673      121 
 7304000 0.00012382524            0    1.3833237 5.4410731e-05            0    1.3833237      118 
 7305000 0.00011947335            0    1.3577184 5.2498443e-05            0    1.3577184      116 
 7306000 0.00011877802            0     1.283432 5.2192902e-05            0     1.283432      122 
 7307000 0.00011773051            0    1.3264772 5.1732609e-05            0    1.3264772      117 
 7308000 0.0001059323            0    1.2249551 4.6548293e-05            0    1.2249551      114 
 7309000 0.00012049866            0     1.302024 5.2948978e-05            0     1.302024      122 
 7310000 0.00011545809            0    1.3120882 5.0734076e-05            0    1.3120882      116 
 7311000 0.00012480467            0    1.3710277 5.4841107e-05            0    1.3710277      120 
 7312000 0.00011770091            0    1.2929901 5.1719605e-05            0    1.2929901      120 
 7313000 0.00012143694            0    1.3121625 5.3361274e-05            0    1.3121625      122 
 7314000 0.0001174451 -7.3701149e-05    1.3009481 5.158227e-05 -7.3701149e-05    1.3010218      119 
 7315000 0.0001384083 -0.0067485138    1.4529016 6.186316e-05 -0.0067485138    1.4596501      125 
 7316000 0.0001256871            0    1.3046188 5.5228861e-05            0    1.3046188      127 
 7317000 0.00012543849            0    1.3335392 5.5119618e-05            0    1.3335392      124 
 7318000 0.00012640122            0    1.3770906 5.5542655e-05            0    1.3770906      121 
 7319000 0.00012206777 -0.00092715452    1.3744182 5.3500185e-05 -0.00092715452    1.3753453      117 
 7320000 0.00013137771            0    1.4676967 5.7729402e-05            0    1.4676967      118 
 7321000 0.00012583216 -0.00027395911     1.370617 5.5243764e-05 -0.00027395911     1.370891      121 
 7322000 0.00012750362 -0.0009026203    1.3881982 5.590574e-05 -0.0009026203    1.3891008      121 
 7323000 0.00012735373            0    1.3430688 5.5961201e-05            0    1.3430688      125 
 7324000 0.00012592726            0    1.4188305 5.5334391e-05            0    1.4188305      117 
 7325000 0.00012759304            0    1.4254159 5.6066358e-05            0    1.4254159      118 
 7326000 0.00012544662 -0.00013064169    1.4013064 5.5091712e-05 -0.00013064169     1.401437      118 
 7327000 0.00011897689 -0.00015322332    1.4002117 5.2247096e-05 -0.00015322332    1.4003649      112 
 7328000 0.00012862722            0    1.4130199 5.6520794e-05            0    1.4130199      120 
 7329000 0.00012602671            0    1.4079176 5.5378091e-05            0    1.4079176      118 
 7330000   0.00011982 -0.00080949771    1.3726888 5.2544526e-05 -0.00080949771    1.3734983      115 
 7331000 0.00013261677            0    1.4448065 5.8273864e-05            0    1.4448065      121 
 7332000 0.0001363803 -0.0050129596    1.4931775 6.1928203e-05 -0.0050129596    1.4981904      120 
 7333000 0.00012798571            0    1.4544544 5.6238905e-05            0    1.4544544      116 
 7334000 0.00012453303            0    1.4152175 5.4721742e-05            0    1.4152175      116 
 7335000 0.00012713859            0    1.4324786 5.5866666e-05            0    1.4324786      117 
 7336000 0.00012560326            0    1.3683971 5.5192018e-05            0    1.3683971      121 
 7337000 0.00012850292            0     1.423517 5.6466175e-05            0     1.423517      119 
 7338000 0.00012369146            0    1.3936396 5.4351944e-05            0    1.3936396      117 
 7339000 0.00012214059            0    1.4505532 5.3670469e-05            0    1.4505532      111 
 7340000 0.00011769773            0    1.3610055 5.1718208e-05            0    1.3610055      114 
 7341000 0.0001244974            0    1.4027202 5.4706088e-05            0    1.4027202      117 
 7342000 0.00012914564            0    1.4427609 5.6748594e-05            0    1.4427609      118 
 7343000 0.00012656206 -0.0077857207     1.394231 5.6251226e-05 -0.0077857207    1.4020167      119 
 7344000 0.00012608628            0    1.4709098 5.5404268e-05            0    1.4709098      113 
 7345000 0.00012264058            0    1.4181624 5.389017e-05            0    1.4181624      114 
 7346000 0.00011991229            0    1.3745562 5.269132e-05            0    1.3745562      115 
 7347000 0.00011424466 -0.0013181157    1.3082699 5.0040683e-05 -0.0013181157     1.309588      115 
 7348000 0.00012298554 -0.0060813059    1.4160701 5.354478e-05 -0.0060813059    1.4221514      114 
 7349000 0.00012392228            0    1.4205227 5.4453371e-05            0    1.4205227      115 
 7350000 0.00011369827            0    1.3033248 4.9960784e-05            0    1.3033248      115 
 7351000 0.00012191726            0    1.3854914 5.3572332e-05            0    1.3854914      116 
 7352000 0.00011429188            0    1.3822465 5.0221622e-05            0    1.3822465      109 
 7353000 0.0001155827            0     1.348376 5.0788831e-05            0     1.348376      113 
 7354000 0.00010917276            0    1.3203359 4.7972205e-05            0    1.3203359      109 
 7355000 0.00011659238 -0.00029473732    1.3720043 5.1183794e-05 -0.00029473732     1.372299      112 
 7356000 0.00011577431 -0.00013382807    1.3873124 5.0842234e-05 -0.00013382807    1.3874462      110 
 7357000 0.00011873666            0    1.3153293 5.2174728e-05            0    1.3153293      119 
 7358000 0.00010735403            0    1.3103618 4.7173025e-05            0    1.3103618      108 
 7359000 0.00010248355            0    1.2281689 4.503286e-05            0    1.2281689      110 
 7360000 0.00010262069            0    1.2410951 4.5093123e-05            0    1.2410951      109 
 7361000 9.6185536e-05            0    1.2075833 4.2265416e-05            0    1.2075833      105 
 7362000  0.000107607            0    1.2553324 4.7284185e-05            0    1.2553324      113 
 7363000 9.6201701e-05 -0.0061782999    1.1790325 4.1690528e-05 -0.0061782999    1.1852108      107 
 7364000 0.00010000486            0    1.2094592 4.3943685e-05            0    1.2094592      109 
 7365000 0.00010715166            0      1.34526 4.7084099e-05            0      1.34526      105 
 7366000 0.00010097232            0    1.2798693 4.4368801e-05            0    1.2798693      104 
 7367000 9.5874018e-05            0    1.2270445 4.2128529e-05            0    1.2270445      103 
 7368000 0.00010331763 -2.2156075e-05     1.309575 4.5380834e-05 -2.2156075e-05    1.3095972      104 
 7369000 9.6425742e-05            0     1.210599 4.2370966e-05            0     1.210599      105 
 7370000 9.4532477e-05            0    1.2461711 4.1539036e-05            0    1.2461711      100 
 7371000 9.6028699e-05            0    1.2533614 4.2196499e-05            0    1.2533614      101 
 7372000 9.2201395e-05            0    1.2402466 4.0514722e-05            0    1.2402466       98 
 7373000 9.7922379e-05            0    1.2412099 4.3028611e-05            0    1.2412099      104 
 7374000 9.700189e-05            0    1.2660634 4.2624134e-05            0    1.2660634      101 
 7375000 0.00010562936            0    1.2658685 4.641518e-05            0    1.2658685      110 
 7376000 0.00010171127            0    1.2769573 4.4693507e-05            0    1.2769573      105 
 7377000 0.00010398999            0    1.3309169 4.5694813e-05            0    1.3309169      103 
 7378000 0.00010104943            0    1.2566798 4.4402686e-05            0    1.2566798      106 
 7379000 9.8467422e-05 -0.0011385365    1.2350932 4.3119106e-05 -0.0011385365    1.2362318      105 
 7380000 0.0001026135            0     1.394535 4.5089963e-05            0     1.394535       97 
 7381000 9.9808765e-05            0    1.3425771 4.3857519e-05            0    1.3425771       98 
 7382000 0.00010510287            0    1.3717969 4.618383e-05            0    1.3717969      101 
 7383000 0.00011824766            0     1.528231 5.1959854e-05            0     1.528231      102 
 7384000 0.00011120616 -0.00051831374    1.4509385 4.8798266e-05 -0.00051831374    1.4514568      101 
 7385000 0.0001116781 -0.00073449369    1.4013537 4.8981939e-05 -0.00073449369    1.4020882      105 
 7386000 0.00010650075            0    1.4039423 4.6798078e-05            0    1.4039423      100 
 7387000 0.00011325543            0    1.4218912 4.9766192e-05            0    1.4218912      105 
 7388000 0.00011044466            0    1.4706392 4.8531095e-05            0    1.4706392       99 
 7389000 0.00011252885            0    1.4127692 4.944692e-05            0    1.4127692      105 
 7390000 0.00011557958            0    1.5236238 5.078746e-05            0    1.5236238      100 
 7391000 0.00012838263            0    1.5966034 5.6413319e-05            0    1.5966034      106 
 7392000 0.00011655835            0    1.5063984 5.1217544e-05            0    1.5063984      102 
 7393000 0.00011055562            0    1.4149471 4.8579851e-05            0    1.4149471      103 
 7394000  0.000109293 -0.0074578016    1.4332933 4.7507678e-05 -0.0074578016    1.4407511      100 
 7395000 0.00010902102            0    1.4229364 4.7905524e-05            0    1.4229364      101 
 7396000 0.00011252933            0    1.4687267 4.9447131e-05            0    1.4687267      101 
 7397000 0.00010942508            0    1.4570629 4.8083076e-05            0    1.4570629       99 
 7398000 0.00010877239            0    1.4057728 4.7796275e-05            0    1.4057728      102 
 7399000 0.00011373082            0    1.4415889 4.9975083e-05            0    1.4415889      104 
 7400000 0.00010586571            0    1.3817535 4.6519035e-05            0    1.3817535      101 
 7401000 0.00011591044            0    1.4692166 5.0932843e-05            0    1.4692166      104 
 7402000 0.00011156791            0    1.3745234 4.9024669e-05            0    1.3745234      107 
 7403000 0.00010876314            0    1.4056533 4.7792212e-05            0    1.4056533      102 
 7404000  0.000101878 -8.7683791e-05    1.3429155 4.4741846e-05 -8.7683791e-05    1.3430032      100 
 7405000 9.4510289e-05 -0.00014617846    1.2711585 4.1498882e-05 -0.00014617846    1.2713047       98 
 7406000 9.500475e-05            0    1.2650473 4.174656e-05            0    1.2650473       99 
 7407000 9.7678182e-05            0    1.3139176 4.2921307e-05            0    1.3139176       98 
 7408000 0.00011173747            0    1.3766124 4.9099174e-05            0    1.3766124      107 
 7409000 0.00010788755            0    1.4512488 4.7407461e-05            0    1.4512488       98 
 7410000 0.00010760139            0    1.3638957 4.7281718e-05            0    1.3638957      104 
 7411000 0.00010091178            0     1.317095 4.4342199e-05            0     1.317095      101 
 7412000 0.00010131169            0    1.3355379 4.4517929e-05            0    1.3355379      100 
 7413000 9.5241461e-05            0    1.2681992 4.1850574e-05            0    1.2681992       99 
 7414000 9.6168862e-05            0    1.2805481 4.2258089e-05            0    1.2805481       99 
 7415000 0.00010693364            0    1.3425228 4.6988299e-05            0    1.3425228      105 
 7416000 0.00010165229            0    1.3009978 4.466759e-05            0    1.3009978      103 
 7417000 0.00010176799            0    1.2899548 4.4718432e-05            0    1.2899548      104 
 7418000 9.6499777e-05 -8.6314279e-05    1.2720186 4.2378707e-05 -8.6314279e-05    1.2721049      100 
 7419000  9.81695e-05            0    1.2687412  4.31372e-05            0    1.2687412      102 
 7420000 8.9447787e-05            0    1.2156106 3.9304744e-05            0    1.2156106       97 
 7421000 9.6588539e-05            0    1.2861364 4.2442501e-05            0    1.2861364       99 
 7422000 8.8795115e-05            0    1.1823621 3.901795e-05            0    1.1823621       99 
 7423000 9.6772472e-05            0    1.2266344 4.2523324e-05            0    1.2266344      104 
 7424000 9.089177e-05            0    1.1981776 3.9939253e-05            0    1.1981776      100 
 7425000 9.2764067e-05            0    1.2352112 4.0761969e-05            0    1.2352112       99 
 7426000 8.6569182e-05            0     1.188745 3.803984e-05            0     1.188745       96 
 7427000 8.746098e-05            0     1.213633 3.843171e-05            0     1.213633       95 
 7428000 8.0299169e-05            0    1.1382161  3.52847e-05            0    1.1382161       93 
 7429000 8.1632204e-05            0    1.2091165 3.5870456e-05            0    1.2091165       89 
 7430000 7.5923715e-05            0    1.1637927 3.3362057e-05            0    1.1637927       86 
 7431000 8.3392213e-05            0    1.1820591 3.6643831e-05            0    1.1820591       93 
 7432000 7.7419614e-05            0    1.1467206 3.4019378e-05            0    1.1467206       89 
 7433000 7.7995252e-05            0    1.1818042 3.4272322e-05            0    1.1818042       87 
 7434000 8.1034035e-05 -0.00016233364     1.186758 3.5576927e-05 -0.00016233364    1.1869204       90 
 7435000 8.6318579e-05            0    1.1977807 3.7929721e-05            0    1.1977807       95 
 7436000 8.9172147e-05            0    1.2639879 3.9183624e-05            0    1.2639879       93 
 7437000 8.7517039e-05            0    1.2405272 3.8456343e-05            0    1.2405272       93 
 7438000 8.6653604e-05            0    1.2024296 3.8076937e-05            0    1.2024296       95 
 7439000 8.067022e-05            0    1.1559047 3.5447745e-05            0    1.1559047       92 
 7440000  8.18336e-05            0      1.18546 3.5958952e-05            0      1.18546       91 
 7441000 8.9189378e-05            0    1.2247248 3.9191195e-05            0    1.2247248       96 
 7442000 8.7938296e-05            0     1.273894 3.864145e-05            0     1.273894       91 
 7443000 8.5826583e-05            0    1.2297891 3.7713531e-05            0    1.2297891       92 
 7444000 8.3797364e-05            0    1.1627956 3.6821861e-05            0    1.1627956       95 
 7445000 9.0686356e-05            0    1.2717763 3.984899e-05            0    1.2717763       94 
 7446000 9.5860728e-05 -0.0014034991    1.3287867 4.1979102e-05 -0.0014034991    1.3301902       95 
 7447000 0.0001017278            0    1.3545688 4.4700771e-05            0    1.3545688       99 
 7448000 0.00010400219 -0.00024143412    1.2810719 4.5658479e-05 -0.00024143412    1.2813133      107 
 7449000 0.00010865309            0    1.3262181 4.7743851e-05            0    1.3262181      108 
 7450000 0.00010119237            0    1.3339649 4.4465498e-05            0    1.3339649      100 
 7451000 9.8596556e-05            0    1.2261751 4.3324855e-05            0    1.2261751      106 
 7452000 0.00010327106            0    1.2843086 4.5378903e-05            0    1.2843086      106 
 7453000 0.00010775112            0    1.3152087 4.7347513e-05            0    1.3152087      108 
 7454000 0.00010657406 -0.001940351    1.3620488 4.6627269e-05 -0.001940351    1.3639892      103 
 7455000 9.9531495e-05            0    1.2863436 4.3735682e-05            0    1.2863436      102 
 7456000 9.375382e-05            0    1.1883716 4.1196882e-05            0    1.1883716      104 
 7457000 0.00010880084 -0.00014174776    1.3402912 4.7777544e-05 -0.00014174776     1.340433      107 
 7458000 9.8132826e-05            0    1.2808243 4.3121085e-05            0    1.2808243      101 
 7459000 0.00010154752            0    1.2749016 4.4621554e-05            0    1.2749016      105 
 7460000 0.00010524396 -0.00015552656    1.2844507 4.621299e-05 -0.00015552656    1.2846063      108 
 7461000 0.00010614179 -5.9766118e-05    1.3852971 4.6618121e-05 -5.9766118e-05    1.3853569      101 
 7462000 0.0001035113            0    1.3247903 4.5484468e-05            0    1.3247903      103 
 7463000 9.6698726e-05            0    1.2375996 4.2490919e-05            0    1.2375996      103 
 7464000 0.0001036057            0    1.2884703 4.5525951e-05            0    1.2884703      106 
 7465000 0.00010211316            0    1.2699087 4.4870106e-05            0    1.2699087      106 
 7466000 0.00010304747            0    1.2462566 4.5280656e-05            0    1.2462566      109 
 7467000 9.3367682e-05            0    1.1949672 4.1027207e-05            0    1.1949672      103 
 7468000 9.1074288e-05            0    1.1656152 4.0019454e-05            0    1.1656152      103 
 7469000 9.942696e-05            0    1.2602812 4.3689747e-05            0    1.2602812      104 
 7470000 0.00010294066            0    1.2923921 4.5233723e-05            0    1.2923921      105 
 7471000 0.00011499478 -0.00036858688    1.3903789 5.0474819e-05 -0.00036858688    1.3907474      109 
 7472000 0.00010111754            0    1.2695033 4.4432616e-05            0    1.2695033      105 
 7473000 0.00010464886            0    1.3264711 4.598433e-05            0    1.3264711      104 
 7474000 0.00010517878            0    1.3461316 4.6217186e-05            0    1.3461316      103 
 7475000 9.174635e-05 -0.0006189515    1.1968494 4.0237555e-05 -0.0006189515    1.1974684      101 
 7476000 0.0001023847            0     1.238241 4.4989424e-05            0     1.238241      109 
 7477000 0.00010756782            0    1.3377444 4.7266968e-05            0    1.3377444      106 
 7478000 9.901251e-05            0    1.2796362 4.3507632e-05            0    1.2796362      102 
 7479000 0.00010388841            0    1.3296168 4.5650178e-05            0    1.3296168      103 
 7480000 9.6781621e-05            0    1.2508042 4.2527344e-05            0    1.2508042      102 
 7481000 9.4624684e-05            0     1.222928 4.1579553e-05            0     1.222928      102 
 7482000 0.00010180982            0     1.303014 4.4736815e-05            0     1.303014      103 
 7483000 9.6443661e-05            0    1.2464365 4.237884e-05            0    1.2464365      102 
 7484000 9.2432807e-05            0    1.2561776 4.0616408e-05            0    1.2561776       97 
 7485000 0.00010036516            0    1.2971179 4.4102008e-05            0    1.2971179      102 
 7486000 9.3391681e-05            0    1.2311326 4.1037752e-05            0    1.2311326      100 
 7487000 8.8846423e-05            0    1.2328577 3.9040495e-05            0    1.2328577       95 
 7488000 9.1978711e-05            0    1.2500063 4.0416871e-05            0    1.2500063       97 
 7489000 9.2563153e-05            0    1.2710526 4.0673684e-05            0    1.2710526       96 
 7490000 0.0001055254 -0.0013386596    1.3492292 4.6221749e-05 -0.0013386596    1.3505678      103 
 7491000 0.00010137173            0    1.3363293 4.454431e-05            0    1.3363293      100 
 7492000 0.00010224978            0    1.3754124 4.4930138e-05            0    1.3754124       98 
 7493000 0.00010322468 -0.0030047958     1.371496 4.5074187e-05 -0.0030047958    1.3745007       99 
 7494000 9.5104396e-05            0    1.3059483 4.1790346e-05            0    1.3059483       96 
 7495000 0.00010625105            0    1.4439699 4.6688359e-05            0    1.4439699       97 
 7496000 0.00010150559            0    1.3654019 4.4603129e-05            0    1.3654019       98 
 7497000 9.471172e-05 -0.00025105569    1.3568511 4.157878e-05 -0.00025105569    1.3571021       92 
 7498000 9.0062287e-05            0    1.3046626 3.9574765e-05            0    1.3046626       91 
 7499000 0.00010211317 -0.0018944549    1.4612613 4.468957e-05 -0.0018944549    1.4631557       92 
 7500000 0.00010434943            0    1.4791212 4.5852757e-05            0    1.4791212       93 
 7501000 8.9763378e-05            0    1.3003325 3.944342e-05            0    1.3003325       91 
 7502000 9.2941058e-05            0    1.3463651 4.0839741e-05            0    1.3463651       91 
 7503000 0.00010335891            0    1.5139169 4.5417507e-05            0    1.5139169       90 
 7504000 0.00010328051            0    1.5297659 4.5383056e-05            0    1.5297659       89 
 7505000 9.9606704e-05            0    1.4272412 4.376873e-05            0    1.4272412       92 
 7506000 9.8276066e-05            0    1.4236492 4.3184027e-05            0    1.4236492       91 
 7507000 9.6163675e-05            0    1.4570969 4.225581e-05            0    1.4570969       87 
 7508000 0.00010375566            0    1.5030278 4.5591845e-05            0    1.5030278       91 
 7509000 0.00012100404 -0.010039119    1.6690467 5.3577204e-05 -0.010039119    1.6790859       95 
 7510000 0.0001099747 -1.5183764e-05    1.5757866 4.8306952e-05 -1.5183764e-05    1.5758017       92 
 7511000 0.0001024846            0    1.4072913 4.5033322e-05            0    1.4072913       96 
 7512000 0.0001019771            0    1.4772632 4.4810316e-05            0    1.4772632       91 
 7513000 0.00010498864            0    1.5377879 4.6133638e-05            0    1.5377879       90 
 7514000 0.00010139445            0    1.4372353 4.4554294e-05            0    1.4372353       93 
 7515000 9.2958588e-05            0    1.4249109 4.0847444e-05            0    1.4249109       86 
 7516000 0.00010753221            0    1.5242361 4.7251318e-05            0    1.5242361       93 
 7517000 9.7021964e-05            0    1.4370659 4.2632955e-05            0    1.4370659       89 
 7518000 9.3241834e-05 -0.019576036    1.3771935 4.0565367e-05 -0.019576036    1.3967696       88 
 7519000 9.0836454e-05            0    1.4427089 3.9914946e-05            0    1.4427089       83 
 7520000 9.5092203e-05            0    1.3928329 4.1784988e-05            0    1.3928329       90 
 7521000 9.773971e-05            0    1.4641481 4.2948344e-05            0    1.4641481       88 
 7522000 0.00010641082            0    1.5083408 4.6758564e-05            0    1.5083408       93 
 7523000 9.0152994e-05            0    1.3660215 3.9614623e-05            0    1.3660215       87 
 7524000 9.2935827e-05            0    1.3921856 4.0837443e-05            0    1.3921856       88 
 7525000 0.0001008149            0    1.4766544 4.4299631e-05            0    1.4766544       90 
 7526000 0.00010337923            0    1.5664289 4.5426437e-05            0    1.5664289       87 
 7527000 9.9541622e-05            0    1.5258185 4.3740131e-05            0    1.5258185       86 
 7528000 0.00011168806            0     1.566302 4.9077463e-05            0     1.566302       94 
 7529000 0.00010386955            0    1.5384906 4.5641889e-05            0    1.5384906       89 
 7530000 0.00010459845            0    1.5849027 4.5962179e-05            0    1.5849027       87 
 7531000 0.00011384747            0    1.5965854 5.0026342e-05            0    1.5965854       94 
 7532000 0.00010007395            0    1.5339783 4.3974046e-05            0    1.5339783       86 
 7533000 0.00010923323            0    1.5483476 4.7998775e-05            0    1.5483476       93 
 7534000 0.00010642307 -0.00050759212    1.5582907 4.6702939e-05 -0.00050759212    1.5587982       90 
 7535000 0.00010654035            0      1.57805 4.6815483e-05            0      1.57805       89 
 7536000 0.00010820343 -0.0030852182    1.6178102 4.7282814e-05 -0.0030852182    1.6208954       88 
 7537000 0.00011220303            0    1.6434584 4.9303751e-05            0    1.6434584       90 
 7538000 0.00011135037            0    1.5955134 4.8929077e-05            0    1.5955134       92 
 7539000 0.00011178797            0    1.6017837 4.9121368e-05            0    1.6017837       92 
 7540000 0.00010919636 -0.0036136699    1.6137764 4.7679356e-05 -0.0036136699    1.6173901       89 
 7541000 0.00011819569            0     1.750686 5.1937017e-05            0     1.750686       89 
 7542000 0.00010019327            0    1.5181543 4.4026475e-05            0    1.5181543       87 
 7543000 0.00010018229            0    1.4838759 4.4021653e-05            0    1.4838759       89 
 7544000 0.00010620183 -0.00059446353    1.5549632 4.6598176e-05 -0.00059446353    1.5555577       90 
 7545000 0.00010087891            0    1.6217472 4.4327756e-05            0    1.6217472       82 
 7546000 0.00010327146            0    1.5126361 4.5379082e-05            0    1.5126361       90 
 7547000 9.2548429e-05            0     1.370805 4.0667214e-05            0     1.370805       89 
 7548000 0.00010411444 -2.2045757e-05    1.4757682 4.5731215e-05 -2.2045757e-05    1.4757902       93 
 7549000 9.8602711e-05            0    1.4770759 4.3327559e-05            0    1.4770759       88 
 7550000 9.7796433e-05            0    1.4990675 4.2973269e-05            0    1.4990675       86 
 7551000 9.7765528e-05            0    1.4645348 4.2959688e-05            0    1.4645348       88 
 7552000 0.00010710993            0    1.5347532 4.7065763e-05            0    1.5347532       92 
 7553000 0.00010446453            0    1.5828736 4.5903336e-05            0    1.5828736       87 
 7554000 0.00010048419            0    1.4883475 4.4154309e-05            0    1.4883475       89 
 7555000 9.3015212e-05            0    1.4093906 4.0872326e-05            0    1.4093906       87 
 7556000 0.00010569248            0    1.6201016 4.6442914e-05            0    1.6201016       86 
 7557000 8.9124392e-05            0    1.3661386 3.9162639e-05            0    1.3661386       86 
 7558000 8.2151549e-05            0     1.289238 3.6098664e-05            0     1.289238       84 
 7559000 7.9827471e-05            0    1.2380269 3.5077428e-05            0    1.2380269       85 
 7560000 8.3540397e-05            0    1.3268294 3.6708945e-05            0    1.3268294       83 
 7561000 9.0329803e-05 -3.9970922e-05    1.3084979 3.9672462e-05 -3.9970922e-05    1.3085379       91 
 7562000 9.233238e-05            0    1.3990441 4.0572279e-05            0    1.3990441       87 
 7563000 9.4913907e-05            0    1.4218173 4.1706642e-05            0    1.4218173       88 
 7564000 9.0446845e-05            0    1.3102334 3.9743746e-05            0    1.3102334       91 
 7565000 8.8188208e-05            0    1.3210659 3.8751265e-05            0    1.3210659       88 
 7566000 9.8952897e-05            0    1.4178729 4.3481437e-05            0    1.4178729       92 
 7567000 9.2421448e-05            0    1.2824658 4.0611417e-05            0    1.2824658       95 
 7568000 8.3680577e-05            0    1.2394565 3.6770543e-05            0    1.2394565       89 
 7569000 9.1330581e-05            0    1.3377358 4.0132073e-05            0    1.3377358       90 
 7570000 9.0917066e-05            0    1.3316789 3.9950368e-05            0    1.3316789       90 
 7571000 9.1363672e-05            0    1.3091287 4.0146614e-05            0    1.3091287       92 
 7572000 8.7677287e-05            0    1.2842253 3.8526759e-05            0    1.2842253       90 
 7573000 9.8336337e-05            0    1.3094094 4.3210511e-05            0    1.3094094       99 
 7574000 9.4943364e-05            0    1.3457931 4.1719586e-05            0    1.3457931       93 
 7575000 9.5882183e-05            0    1.4363222 4.2132117e-05            0    1.4363222       88 
 7576000 8.4063586e-05            0    1.3192444 3.6938843e-05            0    1.3192444       84 
 7577000 9.7576845e-05 -0.00047689959    1.4612314 4.2819369e-05 -0.00047689959    1.4617083       88 
 7578000 8.5753115e-05            0    1.3144621 3.7681248e-05            0    1.3144621       86 
 7579000 9.7815809e-05            0    1.4327261 4.2981783e-05            0    1.4327261       90 
 7580000 9.4410198e-05            0    1.3676474 4.1485305e-05            0    1.3676474       91 
 7581000 9.8823465e-05            0     1.431579 4.3424562e-05            0     1.431579       91 
 7582000 8.8366874e-05 -0.00022187022    1.3543051 3.8794695e-05 -0.00022187022     1.354527       86 
 7583000 9.3741663e-05            0    1.3146236 4.119154e-05            0    1.3146236       94 
 7584000 8.7373821e-05            0     1.339305 3.8393411e-05            0     1.339305       86 
 7585000 0.00010484698            0    1.4397308 4.6071387e-05            0    1.4397308       96 
 7586000 0.00010063173            0    1.3536472 4.4219141e-05            0    1.3536472       98 
 7587000 0.00011071168            0    1.4594529 4.8648429e-05            0    1.4594529      100 
 7588000 9.4490555e-05            0    1.3995713 4.1520614e-05            0    1.3995713       89 
 7589000 9.8379557e-05            0    1.3651422 4.3229502e-05            0    1.3651422       95 
 7590000 0.00010564615            0    1.4815709 4.6422556e-05            0    1.4815709       94 
 7591000 9.2146781e-05 -0.00029177416    1.3645641 4.0448896e-05 -0.00029177416    1.3648559       89 
 7592000 9.3956551e-05            0    1.3610758 4.1285965e-05            0    1.3610758       91 
 7593000 9.7435925e-05            0    1.4271619 4.2814856e-05            0    1.4271619       90 
 7594000 9.4498306e-05            0    1.4155916 4.1524021e-05            0    1.4155916       88 
 7595000 0.00010386581 -0.0018387319    1.4394322 4.5459362e-05 -0.0018387319     1.441271       95 
 7596000 9.1915746e-05            0    1.3028775 4.0389203e-05            0    1.3028775       93 
 7597000 9.1223381e-05            0    1.3071185 4.0084968e-05            0    1.3071185       92 
 7598000 9.9769247e-05            0     1.355881 4.3840154e-05            0     1.355881       97 
 7599000 8.816733e-05            0    1.2633291 3.8742091e-05            0    1.2633291       92 
 7600000 8.3542686e-05            0     1.223665 3.6709951e-05            0     1.223665       90 
 7601000 9.2232862e-05            0    1.2934643 4.0528549e-05            0    1.2934643       94 
 7602000 8.3107851e-05            0    1.1532277 3.6518878e-05            0    1.1532277       95 
 7603000 9.7399922e-05            0    1.3101746 4.2799035e-05            0    1.3101746       98 
 7604000 8.8625744e-05            0    1.2562428 3.8943525e-05            0    1.2562428       93 
 7605000 0.00010936722            0    1.5337548 4.8057652e-05            0    1.5337548       94 
 7606000 9.1432005e-05            0     1.268736 4.017664e-05            0     1.268736       95 
 7607000 9.5916322e-05            0    1.2771854 4.2147118e-05            0    1.2771854       99 
 7608000 9.6070424e-05 -0.0026848409    1.3304152 4.1964891e-05 -0.0026848409       1.3331       95 
 7609000 9.9732432e-05 -0.00025469535    1.3836603 4.3783882e-05 -0.00025469535     1.383915       95 
 7610000 9.8154969e-05 -0.00026729432    1.3475707 4.3089287e-05 -0.00026729432     1.347838       96 
 7611000 9.4536073e-05 -0.00023356049    1.3255308 4.1502718e-05 -0.00023356049    1.3257643       94 
 7612000 0.00010135234            0    1.3360737 4.4535789e-05            0    1.3360737      100 
 7613000 0.00011291938            0    1.4176722 4.9618526e-05            0    1.4176722      105 
 7614000 0.00010523999            0    1.3735866 4.6244083e-05            0    1.3735866      101 
 7615000 0.00011298093            0    1.4320837 4.964557e-05            0    1.4320837      104 
 7616000 0.00012567177            0    1.5929459 5.5222124e-05            0    1.5929459      104 
 7617000 0.00012151577            0     1.511205 5.3395911e-05            0     1.511205      106 
 7618000 0.00011030895 -6.3340014e-05    1.4687689 4.8449005e-05 -6.3340014e-05    1.4688322       99 
 7619000 0.00011355965            0    1.4676433 4.9899871e-05            0    1.4676433      102 
 7620000 0.00011953603            0    1.4726912 5.2525984e-05            0    1.4726912      107 
 7621000 0.00011790012            0    1.4662399 5.1807142e-05            0    1.4662399      106 
 7622000 0.00011367482            0    1.4408792 4.9950479e-05            0    1.4408792      104 
 7623000 0.00012282883            0     1.471988 5.3972894e-05            0     1.471988      110 
 7624000 0.00011792595            0    1.4665611 5.1818491e-05            0    1.4665611      106 
 7625000 0.00011597352            0    1.4288009 5.0960564e-05            0    1.4288009      107 
 7626000 0.00013228827            0     1.571068 5.8129516e-05            0     1.571068      111 
 7627000 0.00010437574            0    1.3898279 4.586432e-05            0    1.3898279       99 
 7628000 0.00011291967            0    1.4593722 4.9618654e-05            0    1.4593722      102 
 7629000 0.00011931689            0    1.4699913 5.2429689e-05            0    1.4699913      107 
 7630000 0.0001059337            0    1.3826408 4.6548908e-05            0    1.3826408      101 
 7631000 0.00010930052            0     1.385433 4.8028343e-05            0     1.385433      104 
 7632000 0.00010247528            0    1.3508767 4.5029225e-05            0    1.3508767      100 
 7633000 9.5935314e-05 -0.00073467703    1.2639292 4.206779e-05 -0.00073467703    1.2646639      100 
 7634000 0.0001062699 -0.0076715466    1.3265182 4.6208776e-05 -0.0076715466    1.3341897      105 
 7635000 0.00011217922            0    1.4357269 4.9293289e-05            0    1.4357269      103 
 7636000 0.00010572805            0    1.3937563 4.6458544e-05            0    1.3937563      100 
 7637000 0.00011136521            0     1.482897 4.8935601e-05            0     1.482897       99 
 7638000 0.00011329575 -0.0001339571    1.4785959 4.9754286e-05 -0.0001339571    1.4787299      101 
 7639000 0.00010866271            0    1.4324423 4.7748077e-05            0    1.4324423      100 
 7640000 0.00011941331            0    1.4310562 5.247206e-05            0    1.4310562      110 
 7641000 0.00010596239            0    1.3177788 4.6561516e-05            0    1.3177788      106 
 7642000 0.00011298598            0    1.4185084 4.9647793e-05            0    1.4185084      105 
 7643000 0.00010786881 -0.0016243506    1.4203524 4.7229266e-05 -0.0016243506    1.4219767      100 
 7644000 0.00010951065 -0.00015504525    1.4434653 4.8089114e-05 -0.00015504525    1.4436203      100 
 7645000 0.00011261946            0    1.4995981 4.9486738e-05            0    1.4995981       99 
 7646000 0.00012221885 -0.00040592177    1.5638132 5.3647601e-05 -0.00040592177    1.5642192      103 
 7647000 0.00010771622 -0.0027097179    1.4172556 4.7051411e-05 -0.0027097179    1.4199653      100 
 7648000 0.0001151205 -0.00071941394    1.4870962 5.0498141e-05 -0.00071941394    1.4878156      102 
 7649000 0.00010884285            0    1.4348171 4.7827235e-05            0    1.4348171      100 
 7650000 0.00011062528            0    1.5034164 4.8610464e-05            0    1.5034164       97 
 7651000 0.00011761154            0    1.5200098 5.1680333e-05            0    1.5200098      102 
 7652000 0.00011994204            0     1.520319 5.2704391e-05            0     1.520319      104 
 7653000 0.00013088553            0    1.6125177 5.751313e-05            0    1.6125177      107 
 7654000 0.00011838418 -2.1672705e-07    1.5299952 5.2003574e-05 -2.1672705e-07    1.5299955      102 
 7655000 0.00011990054            0    1.5495928 5.2686155e-05            0    1.5495928      102 
 7656000 0.0001201143            0    1.5993966 5.2780087e-05            0    1.5993966       99 
 7657000 0.00011570992            0    1.5564715 5.0844734e-05            0    1.5564715       98 
 7658000 0.00012726667 -7.2655197e-05    1.6610049 5.5899432e-05 -7.2655197e-05    1.6610776      101 
 7659000 0.0001203914            0    1.5559367 5.2901847e-05            0    1.5559367      102 
 7660000 0.00012004919            0    1.6484836 5.2751474e-05            0    1.6484836       96 
 7661000 0.00010779875            0    1.5117587 4.736844e-05            0    1.5117587       94 
 7662000 0.00011341424            0     1.607612 4.9835973e-05            0     1.607612       93 
 7663000 0.00012452144            0    1.5485845 5.4716651e-05            0    1.5485845      106 
 7664000 0.00013343544            0    1.7245177 5.8633601e-05            0    1.7245177      102 
 7665000 0.00012702624            0    1.7626516  5.58173e-05            0    1.7626516       95 
 7666000 0.00012159059            0    1.6190542 5.3428789e-05            0    1.6190542       99 
 7667000 0.00012114081            0    1.6463242 5.3231149e-05            0    1.6463242       97 
 7668000 0.00012119764            0    1.5976837 5.3256122e-05            0    1.5976837      100 
 7669000 0.00012760254            0     1.682116 5.6070532e-05            0     1.682116      100 
 7670000 0.00012915858            0    1.7198267 5.6754282e-05            0    1.7198267       99 
 7671000 0.00011604327            0    1.5451882 5.0991211e-05            0    1.5451882       99 
 7672000 0.00011624821            0    1.5172653 5.1081265e-05            0    1.5172653      101 
 7673000 0.00011617315            0    1.5162856 5.1048281e-05            0    1.5162856      101 
 7674000 0.00011321719            0    1.4632173 4.974939e-05            0    1.4632173      102 
 7675000 0.00011573572            0     1.541093 5.0856068e-05            0     1.541093       99 
 7676000 0.00011167885            0    1.5661729 4.9073418e-05            0    1.5661729       94 
 7677000 0.00011137007 -0.00022062853     1.561622 4.890103e-05 -0.00022062853    1.5618427       94 
 7678000 0.00011710029            0    1.5592631 5.1455683e-05            0    1.5592631       99 
 7679000  0.000106831 -0.00010232592    1.5646709 4.6917834e-05 -0.00010232592    1.5647732       90 
 7680000 0.00010753177            0    1.5080147 4.7251127e-05            0    1.5080147       94 
 7681000 0.00010519526            0    1.5581268 4.6224429e-05            0    1.5581268       89 
 7682000 0.00011768997            0    1.6682193 5.1714797e-05            0    1.6682193       93 
 7683000 0.0001162705  -0.00205848    1.5306733 5.0882831e-05  -0.00205848    1.5327318      100 
 7684000 0.00012448218            0    1.6088059 5.4699401e-05            0    1.6088059      102 
 7685000 0.00010545288            0    1.4947622 4.6337629e-05            0    1.4947622       93 
 7686000 0.00011128461            0    1.6120939 4.8900183e-05            0    1.6120939       91 
 7687000 0.00010990721            0    1.5921405 4.829493e-05            0    1.5921405       91 
 7688000 0.00011370483            0    1.6841685 4.9963664e-05            0    1.6841685       89 
 7689000 0.00011234518            0    1.6640297 4.9366215e-05            0    1.6640297       89 
 7690000 0.00010669429            0    1.5803301 4.6883126e-05            0    1.5803301       89 
 7691000 0.00010297491            0    1.5603025 4.5248771e-05            0    1.5603025       87 
 7692000 0.00010347047            0    1.5678114 4.546653e-05            0    1.5678114       87 
 7693000 0.00010140709            0    1.5544133 4.4559848e-05            0    1.5544133       86 
 7694000 0.00011104751            0    1.6086593 4.8795998e-05            0    1.6086593       91 
 7695000 0.00010186506            0    1.5434857 4.4761085e-05            0    1.5434857       87 
 7696000 9.6991887e-05            0    1.4050463 4.2619739e-05            0    1.4050463       91 
 7697000 0.00010595183            0    1.5181591 4.6556878e-05            0    1.5181591       92 
 7698000 0.00010186022            0    1.4595312 4.4758958e-05            0    1.4595312       92 
 7699000 0.00010142816            0    1.4074454 4.4569105e-05            0    1.4074454       95 
 7700000 0.00010766296            0    1.5596298 4.7308772e-05            0    1.5596298       91 
 7701000 0.00011425571 -0.00081621442    1.4758229 5.010877e-05 -0.00081621442    1.4766391      102 
 7702000 0.00011176157            0    1.5346802 4.9109766e-05            0    1.5346802       96 
 7703000 0.00011050598            0    1.5174387 4.8558039e-05            0    1.5174387       96 
 7704000 0.00011998098            0    1.5506325 5.2721504e-05            0    1.5506325      102 
 7705000 0.00012772686            0    1.5884479 5.612516e-05            0    1.5884479      106 
 7706000 0.00011177245            0    1.5190066 4.9114548e-05            0    1.5190066       97 
 7707000 0.00011570684            0    1.5724756 5.0843379e-05            0    1.5724756       97 
 7708000 0.00012228753            0    1.6283344 5.3735036e-05            0    1.6283344       99 
 7709000 0.00011842632            0    1.6433166 5.2038361e-05            0    1.6433166       95 
 7710000 0.00013090638            0    1.6754066 5.7522292e-05            0    1.6754066      103 
 7711000 0.00012661711            0    1.6525996 5.5637519e-05            0    1.6525996      101 
 7712000 0.00012267604            0    1.5700705 5.3905753e-05            0    1.5700705      103 
 7713000 0.00011126175            0    1.5942436 4.8890136e-05            0    1.5942436       92 
 7714000 0.00011073613            0    1.5205991 4.8659172e-05            0    1.5205991       96 
 7715000 0.00011720817 -0.0033817343    1.6060898 5.119754e-05 -0.0033817343    1.6094715       96 
 7716000 0.0001042452            0    1.4776438 4.5806959e-05            0    1.4776438       93 
 7717000 0.00011215768            0    1.4934492 4.9283823e-05            0    1.4934492       99 
 7718000 9.8426289e-05 -0.0016537877    1.3786665 4.3069775e-05 -0.0016537877    1.3803203       94 
 7719000 0.00010226961 -0.00099478986    1.4486457 4.4833155e-05 -0.00099478986    1.4496404       93 
 7720000 9.262302e-05            0    1.3566663 4.069999e-05            0    1.3566663       90 
 7721000 8.6603638e-05            0    1.2973289 3.8054981e-05            0    1.2973289       88 
 7722000 0.00010249099            0    1.4373232 4.5036128e-05            0    1.4373232       94 
 7723000 0.00010090539            0    1.4001913 4.4339392e-05            0    1.4001913       95 
 7724000 0.00010123316            0    1.4196837 4.4483422e-05            0    1.4196837       94 
 7725000 0.00010228567            0    1.4193444 4.4945907e-05            0    1.4193444       95 
 7726000 9.3609478e-05            0    1.3268857 4.1133455e-05            0    1.3268857       93 
 7727000 9.9435385e-05 -0.00089360606    1.3935782 4.3595784e-05 -0.00089360606    1.3944718       94 
 7728000 8.9208505e-05            0    1.2782478  3.91996e-05            0    1.2782478       92 
 7729000 0.00010458615            0      1.40684 4.5956774e-05            0      1.40684       98 
 7730000 0.0001033303            0    1.4189043 4.5404938e-05            0    1.4189043       96 
 7731000 9.8808327e-05 -0.001922335    1.3691696 4.3229993e-05 -0.001922335    1.3710919       95 
 7732000 0.00010534613            0    1.4618123 4.6290724e-05            0    1.4618123       95 
 7733000 9.3729915e-05            0    1.3430341 4.1186378e-05            0    1.3430341       92 
 7734000 0.0001001442            0    1.4195133 4.4004913e-05            0    1.4195133       93 
 7735000 0.00010256607            0    1.4538426 4.506912e-05            0    1.4538426       93 
 7736000 0.00010140816            0    1.4690215 4.4560317e-05            0    1.4690215       91 
 7737000 0.00010675901            0    1.4659864 4.6911564e-05            0    1.4659864       96 
 7738000 9.721662e-05            0    1.3211904 4.271849e-05            0    1.3211904       97 
 7739000 0.00011073881            0    1.4311867 4.8660349e-05            0    1.4311867      102 
 7740000 9.7249614e-05            0    1.3354059 4.2732988e-05            0    1.3354059       96 
 7741000 9.7958686e-05            0    1.3451427 4.3044565e-05            0    1.3451427       96 
 7742000 8.6144157e-05            0     1.208077 3.7853078e-05            0     1.208077       94 
 7743000 9.6492331e-05            0    1.2594127 4.2400226e-05            0    1.2594127      101 
 7744000 0.00010038753            0    1.3367223 4.4111837e-05            0    1.3367223       99 
 7745000 0.00010469499            0    1.3144172 4.6004602e-05            0    1.3144172      105 
 7746000 0.00010167383            0     1.367665 4.4677057e-05            0     1.367665       98 
 7747000 0.00010362804            0    1.3939521 4.5535768e-05            0    1.3939521       98 
 7748000 0.00010427065            0    1.4318169 4.5818141e-05            0    1.4318169       96 
 7749000 0.00010760751            0    1.4931918 4.7284407e-05            0    1.4931918       95 
 7750000 0.00010393097            0    1.4124396 4.5668879e-05            0    1.4124396       97 
 7751000 0.00010661896            0    1.4196977 4.6850023e-05            0    1.4196977       99 
 7752000 0.00010617433            0    1.3996393 4.6654645e-05            0    1.3996393      100 
 7753000 0.00011192783            0    1.4465536 4.9182823e-05            0    1.4465536      102 
 7754000 0.00010689988            0    1.4092039 4.6973463e-05            0    1.4092039      100 
 7755000 0.00011346682            0    1.4664436 4.9859081e-05            0    1.4664436      102 
 7756000 0.00010459834            0    1.4215092 4.596213e-05            0    1.4215092       97 
 7757000 0.00012789736            0    1.5757033 5.6200083e-05            0    1.5757033      107 
 7758000 0.00010949976            0    1.3490437 4.8115892e-05            0    1.3490437      107 
 7759000 0.00010994295            0     1.393576 4.8310635e-05            0     1.393576      104 
 7760000 0.00010528049            0    1.3606435 4.626188e-05            0    1.3606435      102 
 7761000 0.00010004987 -0.0016018024    1.3722565 4.3801296e-05 -0.0016018024    1.3738583       96 
 7762000 0.00011119947            0    1.4095031 4.8862772e-05            0    1.4095031      104 
 7763000 0.00011709782            0    1.4701314 5.1454599e-05            0    1.4701314      105 
 7764000 0.00010571621            0    1.3400002 4.6453341e-05            0    1.3400002      104 
 7765000 0.00010384065            0    1.3162267 4.5629192e-05            0    1.3162267      104 
 7766000 0.00010830088            0     1.399679 4.7589087e-05            0     1.399679      102 
 7767000 0.00011870681            0    1.4903318 5.2161614e-05            0    1.4903318      105 
 7768000 0.00011847662            0    1.4596392 5.2060463e-05            0    1.4596392      107 
 7769000 0.00012302876            0    1.5016873 5.4060744e-05            0    1.5016873      108 
 7770000 0.00012456063            0    1.4660859 5.4733872e-05            0    1.4660859      112 
 7771000 0.00011747563            0    1.4207508 5.1620612e-05            0    1.4207508      109 
 7772000 0.00012056466 -0.0022184558    1.4296188 5.2735369e-05 -0.0022184558    1.4318373      111 
 7773000 0.00011405774 -0.00047291466    1.3917143 5.0052525e-05 -0.00047291466    1.3921872      108 
 7774000 0.00011748926            0    1.4209156 5.1626601e-05            0    1.4209156      109 
 7775000 0.00012032971            0    1.4162876 5.2874738e-05            0    1.4162876      112 
 7776000 0.00011783912            0    1.4517851 5.1780336e-05            0    1.4517851      107 
 7777000 0.00012310006 -0.00041274146    1.4615352 5.403094e-05 -0.00041274146     1.461948      111 
 7778000 0.00013258036            0    1.5745368 5.8257863e-05            0    1.5745368      111 
 7779000 0.0001216498            0    1.4447245 5.3454808e-05            0    1.4447245      111 
 7780000 0.00012151517            0     1.469605 5.3395648e-05            0     1.469605      109 
 7781000 0.00011821433            0    1.4039246 5.1945209e-05            0    1.4039246      111 
 7782000 0.00011769743            0    1.4500395 5.1718075e-05            0    1.4500395      107 
 7783000 0.00011760082            0    1.4764464 5.1675624e-05            0    1.4764464      105 
 7784000 0.00011261597            0     1.413863 4.9485205e-05            0     1.413863      105 
 7785000 0.00011095933            0    1.4201141 4.8757249e-05            0    1.4201141      103 
 7786000 0.00010949611            0    1.4291373 4.811429e-05            0    1.4291373      101 
 7787000 0.00011156969            0    1.3493243 4.9025451e-05            0    1.3493243      109 
 7788000 0.00010700697 -0.00058443519    1.3823721 4.6946092e-05 -0.00058443519    1.3829565      102 
 7789000 0.00011663762 -9.5525319e-05    1.5073274 5.122649e-05 -9.5525319e-05    1.5074229      102 
 7790000 0.00011211579 -0.00081475901    1.3934895 4.9165516e-05 -0.00081475901    1.3943043      106 
 7791000 0.00011538134 -0.0082550951    1.4403263 5.0250337e-05 -0.0082550951    1.4485814      105 
 7792000 0.00011410473            0    1.4190392 5.0139386e-05            0    1.4190392      106 
 7793000 0.00012208345            0    1.4242132 5.3645362e-05            0    1.4242132      113 
 7794000 0.00012115754 -0.00019755044    1.4386809 5.320063e-05 -0.00019755044    1.4388784      111 
 7795000 0.00012735878 -0.00074163979    1.4982786 5.5866641e-05 -0.00074163979    1.4990202      112 
 7796000 0.00012320395            0    1.5467922 5.4137727e-05            0    1.5467922      105 
 7797000 0.00012287537            0    1.5138321 5.3993344e-05            0    1.5138321      107 
 7798000 0.00012561403            0    1.5332431 5.5196751e-05            0    1.5332431      108 
 7799000 0.00012422337            0    1.6213566 5.4585672e-05            0    1.6213566      101 
 7800000 0.00012501352            0    1.5547041 5.4932877e-05            0    1.5547041      106 
 7801000 0.00011934379            0    1.4841937 5.2441511e-05            0    1.4841937      106 
 7802000 0.00012234377 -0.0014311403    1.5345617 5.3600746e-05 -0.0014311403    1.5359928      105 
 7803000 0.00011938578            0     1.498856 5.245996e-05            0     1.498856      105 
 7804000 0.00011841133            0    1.5454982 5.2031773e-05            0    1.5454982      101 
 7805000 0.00011154705            0    1.5159434 4.9015503e-05            0    1.5159434       97 
 7806000 0.00011398884            0    1.4877762 5.0088465e-05            0    1.4877762      101 
 7807000 0.0001113752            0    1.4981629 4.8939988e-05            0    1.4981629       98 
 7808000 0.00012495127            0    1.6148683 5.4905523e-05            0    1.6148683      102 
 7809000 0.00011717035 -0.00017157896    1.5921933 5.1453782e-05 -0.00017157896    1.5923649       97 
 7810000 0.00011304941            0    1.4610489 4.9675661e-05            0    1.4610489      102 
 7811000 0.00012141293            0    1.4958147 5.3350726e-05            0    1.4958147      107 
 7812000 0.00011776756            0    1.5370958 5.1748891e-05            0    1.5370958      101 
 7813000 0.00012356616            0    1.5367043 5.4296885e-05            0    1.5367043      106 
 7814000 0.0001100298            0    1.5108999 4.8348798e-05            0    1.5108999       96 
 7815000 0.00010993306            0    1.4491887 4.8306288e-05            0    1.4491887      100 
 7816000 0.00010702587            0    1.4696508 4.7028824e-05            0    1.4696508       96 
 7817000 0.0001130989            0    1.4909223 4.9697409e-05            0    1.4909223      100 
 7818000 0.0001130439            0    1.5522888 4.9673242e-05            0    1.5522888       96 
 7819000  0.000120358 -0.0010537503    1.6179413 5.2771392e-05 -0.0010537503     1.618995       98 
 7820000 0.00010816723            0     1.455011 4.7530359e-05            0     1.455011       98 
 7821000 0.00010898583            0    1.5787933 4.7890065e-05            0    1.5787933       91 
 7822000 0.00011702842            0    1.5904361  5.14241e-05            0    1.5904361       97 
 7823000 0.00011446465            0    1.5883434 5.029754e-05            0    1.5883434       95 
 7824000 0.00012438661 -5.0654638e-05      1.60752 5.4636035e-05 -5.0654638e-05    1.6075707      102 
 7825000 0.00011703795            0    1.6071341 5.1428291e-05            0    1.6071341       96 
 7826000 0.00011283723            0    1.5334771 4.9582426e-05            0    1.5334771       97 
 7827000 0.00010477473            0    1.4851497 4.6039641e-05            0    1.4851497       93 
 7828000 0.00010567051 -0.00076850315    1.4970786 4.6347488e-05 -0.00076850315    1.4978471       93 
 7829000 0.0001081286            0    1.5163846 4.7513383e-05            0    1.5163846       94 
 7830000 0.00011429401            0    1.6740853 5.0222558e-05            0    1.6740853       90 
 7831000 9.9932106e-05            0    1.5318041 4.3911716e-05            0    1.5318041       86 
 7832000 0.00011320603            0    1.4923345 4.9744484e-05            0    1.4923345      100 
 7833000 0.00011920104            0    1.6199624 5.2378784e-05            0    1.6199624       97 
 7834000 0.00011063612            0    1.5192258 4.8615226e-05            0    1.5192258       96 
 7835000 0.00010174453            0     1.426855 4.4708124e-05            0     1.426855       94 
 7836000 0.00010324697            0    1.4634941 4.5368317e-05            0    1.4634941       93 
 7837000 0.00011207728            0    1.6235767 4.9248492e-05            0    1.6235767       91 
 7838000 0.00011065563            0    1.5855586 4.8623797e-05            0    1.5855586       92 
 7839000 0.00010717542            0     1.569818 4.7094539e-05            0     1.569818       90 
 7840000 0.00010114089            0    1.4814291 4.4442873e-05            0    1.4814291       90 
 7841000 0.00011087001 -0.010336711    1.5281265 4.8803748e-05 -0.010336711    1.5384632       95 
 7842000 0.00010989406            0    1.4782394 4.8289153e-05            0    1.4782394       98 
 7843000 0.00010431239            0    1.5110928 4.5836483e-05            0    1.5110928       91 
 7844000 0.00011438492            0    1.5386482 5.0262508e-05            0    1.5386482       98 
 7845000 9.7727444e-05 -0.00031518903    1.3849414 4.2897857e-05 -0.00031518903    1.3852566       93 
 7846000 9.6277112e-05            0    1.3501805 4.2305655e-05            0    1.3501805       94 
 7847000 0.00010243296            0    1.4519558 4.501063e-05            0    1.4519558       93 
 7848000 9.6527196e-05            0    1.3831156 4.2415546e-05            0    1.3831156       92 
 7849000 0.00010209434            0    1.4471559 4.4861833e-05            0    1.4471559       93 
 7850000 9.9750619e-05            0    1.4450099 4.3831968e-05            0    1.4450099       91 
 7851000 0.00010554075            0    1.5632441 4.6376241e-05            0    1.5632441       89 
 7852000 0.00010390155            0    1.5389647 4.5655952e-05            0    1.5389647       89 
 7853000 0.00010242808            0    1.4837963 4.5008488e-05            0    1.4837963       91 
 7854000 0.00010439609            0    1.4486292 4.5873258e-05            0    1.4486292       95 
 7855000 0.00011599639            0    1.5291183 5.097061e-05            0    1.5291183      100 
 7856000 0.00010288031 -0.0012632122    1.4114619 4.5074706e-05 -0.0012632122    1.4127251       96 
 7857000 0.00010297363            0    1.4596196 4.5248209e-05            0    1.4596196       93 
 7858000 0.00010083037            0    1.4606514 4.4306425e-05            0    1.4606514       91 
 7859000 0.00010548727            0    1.4485232 4.6352742e-05            0    1.4485232       96 
 7860000 9.9551979e-05 -0.0057604565    1.4687794 4.3314095e-05 -0.0057604565    1.4745399       89 
 7861000 0.00010330366 -2.6842978e-05    1.5130808 4.5374584e-05 -2.6842978e-05    1.5131076       90 
 7862000 9.8247111e-05 -0.0099043002    1.3978556 4.2777808e-05 -0.0099043002    1.4077599       92 
 7863000 9.488942e-05            0    1.3450285 4.1695882e-05            0    1.3450285       93 
 7864000 9.6440452e-05            0    1.3970581 4.2377429e-05            0    1.3970581       91 
 7865000 0.00010985865            0    1.5244293 4.8273594e-05            0    1.5244293       95 
 7866000 0.00010200782            0    1.4777082 4.4823816e-05            0    1.4777082       91 
 7867000 0.00010849688            0    1.4898503 4.7675209e-05            0    1.4898503       96 
 7868000 0.00011261592            0    1.5626899 4.948518e-05            0    1.5626899       95 
 7869000 0.00012262669            0    1.6328505 5.3884068e-05            0    1.6328505       99 
 7870000 0.0001164814            0    1.6873757 5.118373e-05            0    1.6873757       91 
 7871000 0.00011415104            0    1.5839917 5.0159737e-05            0    1.5839917       95 
 7872000 0.0001157983            0    1.5901114 5.0883566e-05            0    1.5901114       96 
 7873000 0.00012351025            0     1.612049 5.4272317e-05            0     1.612049      101 
 7874000 0.00011739666            0    1.6290288 5.1585911e-05            0    1.6290288       95 
 7875000 0.00010656703            0    1.5784451 4.6827203e-05            0    1.5784451       89 
 7876000 0.00011875733            0    1.6479099 5.2183814e-05            0    1.6479099       95 
 7877000 0.00010423928            0    1.5794606 4.5804356e-05            0    1.5794606       87 
 7878000 9.4849243e-05            0    1.3892742 4.1678227e-05            0    1.3892742       90 
 7879000 8.9312173e-05            0    1.4016126 3.9245153e-05            0    1.4016126       84 
 7880000 9.7361463e-05 -0.0013847344    1.3936849 4.2643995e-05 -0.0013847344    1.3950697       92 
 7881000 8.3951524e-05            0    1.3019859 3.6889601e-05            0    1.3019859       85 
 7882000 8.3328414e-05            0    1.2772952 3.6615797e-05            0    1.2772952       86 
 7883000 8.8917229e-05            0    1.3170205 3.9071609e-05            0    1.3170205       89 
 7884000 9.1595406e-05            0    1.4374443 4.0248441e-05            0    1.4374443       84 
 7885000 7.9853107e-05            0     1.268266 3.5088693e-05            0     1.268266       83 
 7886000 8.4557493e-05            0    1.3593612 3.7155873e-05            0    1.3593612       82 
 7887000 7.5472283e-05            0    1.2593807 3.3163691e-05            0    1.2593807       79 
 7888000 9.3306162e-05 -7.6179854e-05     1.397657 4.0977287e-05 -7.6179854e-05    1.3977332       88 
 7889000 9.6169711e-05            0    1.5274143 4.2258462e-05            0    1.5274143       83 
 7890000 9.8947817e-05            0    1.4822456 4.3479205e-05            0    1.4822456       88 
 7891000 8.1647699e-05            0    1.3125828 3.5877264e-05            0    1.3125828       82 
 7892000 9.767717e-05            0    1.4632112 4.2920862e-05            0    1.4632112       88 
 7893000  9.54781e-05            0    1.4467089 4.1954557e-05            0    1.4467089       87 
 7894000 8.5522285e-05            0    1.3748714 3.7579818e-05            0    1.3748714       82 
 7895000 9.0642016e-05            0    1.3894014 3.9829507e-05            0    1.3894014       86 
 7896000 8.1306301e-05 -5.6769562e-05    1.2759164 3.5706276e-05 -5.6769562e-05    1.2759732       84 
 7897000 8.8403481e-05 -0.0011886097    1.3383238 3.8729949e-05 -0.0011886097    1.3395124       87 
 7898000 9.1579172e-05            0    1.4371896 4.0241308e-05            0    1.4371896       84 
 7899000 9.4296421e-05 -0.0015842603    1.3644149 4.1281838e-05 -0.0015842603    1.3659992       91 
 7900000 9.8349343e-05            0    1.4405409 4.3216226e-05            0    1.4405409       90 
 7901000 0.00010066304            0    1.3822781 4.4232899e-05            0    1.3822781       96 
 7902000 9.3273396e-05            0    1.3511794 4.0985776e-05            0    1.3511794       91 
 7903000 8.8546964e-05            0    1.2827113 3.8908908e-05            0    1.2827113       91 
 7904000 9.1823223e-05 -0.00012491455    1.3912043 4.032155e-05 -0.00012491455    1.3913292       87 
 7905000 8.6522166e-05            0    1.3110062 3.8019181e-05            0    1.3110062       87 
 7906000 7.9795799e-05            0    1.2231457 3.5063511e-05            0    1.2231457       86 
 7907000 8.7358733e-05            0    1.3086403 3.8386782e-05            0    1.3086403       88 
 7908000 8.3369624e-05            0    1.1817389 3.6633905e-05            0    1.1817389       93 
 7909000 9.1231586e-05 -0.000377126    1.3359086 4.0038963e-05 -0.000377126    1.3362858       90 
 7910000 9.9024144e-05            0    1.4667217 4.3512744e-05            0    1.4667217       89 
 7911000 8.8024589e-05            0     1.275144 3.8679369e-05            0     1.275144       91 
 7912000 9.0633631e-05 -0.00023218867    1.2984359 3.9788506e-05 -0.00023218867    1.2986681       92 
 7913000 8.126324e-05            0    1.2036515 3.5708327e-05            0    1.2036515       89 
 7914000 8.5469017e-05            0    1.2659464 3.7556411e-05            0    1.2659464       89 
 7915000 7.9358104e-05            0    1.2024545 3.4871181e-05            0    1.2024545       87 
 7916000 8.1156231e-05            0    1.1887102 3.5661306e-05            0    1.1887102       90 
 7917000 8.5544697e-05 -0.00097038972    1.2382494 3.7487933e-05 -0.00097038972    1.2392198       91 
 7918000 8.5411313e-05 -0.00085336035    1.1719921 3.7435354e-05 -0.00085336035    1.1728455       96 
 7919000 8.4006678e-05            0    1.2304612 3.6913836e-05            0    1.2304612       90 
 7920000 8.2660408e-05            0     1.224346 3.6322264e-05            0     1.224346       89 
 7921000 8.8941845e-05            0    1.2341819 3.9082425e-05            0    1.2341819       95 
 7922000 7.6015518e-05            0    1.1789081 3.3402397e-05            0    1.1789081       85 
 7923000 8.8182842e-05            0    1.2366673 3.8748908e-05            0    1.2366673       94 
 7924000 8.9258686e-05 -9.3489969e-05    1.2255831 3.919652e-05 -9.3489969e-05    1.2256766       96 
 7925000 8.6841086e-05            0    1.2309458 3.8159319e-05            0    1.2309458       93 
 7926000 8.525892e-05            0    1.2350799 3.7464091e-05            0    1.2350799       91 
 7927000 9.7988566e-05            0    1.3180927 4.3057695e-05            0    1.3180927       98 
 7928000 9.1862882e-05            0    1.2614367 4.0365974e-05            0    1.2614367       96 
 7929000 9.3169176e-05            0    1.2281994 4.093998e-05            0    1.2281994      100 
 7930000 0.00010133488            0    1.3631057 4.4528118e-05            0    1.3631057       98 
 7931000 8.8326489e-05            0    1.1881233 3.8812028e-05            0    1.1881233       98 
 7932000 9.7037704e-05            0    1.3053022 4.2639871e-05            0    1.3053022       98 
 7933000 9.0486965e-05            0     1.242543 3.9761375e-05            0     1.242543       96 
 7934000 9.7059188e-05            0    1.3190509 4.2649311e-05            0    1.3190509       97 
 7935000 8.6507579e-05            0    1.2531683 3.8012771e-05            0    1.2531683       91 
 7936000 9.1329121e-05            0    1.3230142 4.0131432e-05            0    1.3230142       91 
 7937000 8.6898632e-05 -0.004748674    1.1762185 3.7712783e-05 -0.004748674    1.1809672       97 
 7938000 9.1868127e-05            0    1.2357636 4.0368279e-05            0    1.2357636       98 
 7939000 9.6516949e-05            0    1.3116818 4.2411044e-05            0    1.3116818       97 
 7940000 9.4056935e-05            0    1.2915648 4.1330075e-05            0    1.2915648       96 
 7941000 9.6753845e-05            0    1.3014838 4.2515139e-05            0    1.3014838       98 
 7942000 9.6119093e-05            0    1.3479644 4.2236219e-05            0    1.3479644       94 
 7943000 0.00010220249 -0.0011041701    1.4170861 4.4792058e-05 -0.0011041701    1.4181902       95 
 7944000 9.587436e-05            0    1.2766267 4.212868e-05            0    1.2766267       99 
 7945000 9.5207999e-05            0    1.3351874 4.1835871e-05            0    1.3351874       94 
 7946000 9.674934e-05            0    1.3425208 4.251316e-05            0    1.3425208       95 
 7947000 0.00010279379            0    1.3827302 4.5169187e-05            0    1.3827302       98 
 7948000 9.6450287e-05            0    1.3383711 4.2381751e-05            0    1.3383711       95 
 7949000 9.7454792e-05            0    1.3523099 4.2823146e-05            0    1.3523099       95 
 7950000 7.9829197e-05            0    1.1438539 3.5078186e-05            0    1.1438539       92 
 7951000 8.1537944e-05            0    1.1434799 3.5829036e-05            0    1.1434799       94 
 7952000 9.5123223e-05 -5.5301697e-05    1.2056741 4.1776674e-05 -5.5301697e-05    1.2057294      104 
 7953000 9.4187812e-05            0    1.2541692 4.1387585e-05            0    1.2541692       99 
 7954000 0.00011208077            0    1.3808418 4.9250026e-05            0    1.3808418      107 
 7955000 0.00011325472 -0.0013825772    1.4204997 4.9593487e-05 -0.0013825772    1.4218822      105 
 7956000 9.2808532e-05            0    1.2113319 4.0781508e-05            0    1.2113319      101 
 7957000 0.0001030089            0    1.3183604 4.5263707e-05            0    1.3183604      103 
 7958000 9.808783e-05            0    1.2930394 4.3101313e-05            0    1.2930394      100 
 7959000 0.00010361391            0    1.3008446 4.552956e-05            0    1.3008446      105 
 7960000 9.3881562e-05            0    1.2628474 4.1253014e-05            0    1.2628474       98 
 7961000 0.00010118636            0    1.3206788 4.4462854e-05            0    1.3206788      101 
 7962000 0.00010728605 -0.00048793973    1.3337523 4.7076315e-05 -0.00048793973    1.3342402      106 
 7963000 9.6895442e-05            0     1.264674 4.2577359e-05            0     1.264674      101 
 7964000 9.9103146e-05            0    1.2561767 4.3547459e-05            0    1.2561767      104 
 7965000 0.00010794295            0    1.3175502 4.7431806e-05            0    1.3175502      108 
 7966000 0.00011400099            0    1.3661946 5.0093803e-05            0    1.3661946      110 
 7967000 0.00011690592            0    1.4138607 5.1370274e-05            0    1.4138607      109 
 7968000 0.00011350393            0    1.3727171 4.9875386e-05            0    1.3727171      109 
 7969000 0.00010500339 -0.0042551523    1.2656563 4.5737817e-05 -0.0042551523    1.2699115      109 
 7970000 9.9235848e-05 -0.00064047735    1.3075326 4.3527088e-05 -0.00064047735    1.3081731      100 
 7971000 0.00010885663            0    1.3411203 4.7833291e-05            0    1.3411203      107 
 7972000 0.00010480316            0    1.3284269 4.6052131e-05            0    1.3284269      104 
 7973000 0.00010433258            0      1.29751 4.5845353e-05            0      1.29751      106 
 7974000 0.00010219369            0    1.2709101 4.4905492e-05            0    1.2709101      106 
 7975000 0.00010405954 -0.0006500239    1.2934644 4.5642054e-05 -0.0006500239    1.2941144      106 
 7976000 9.8674491e-05            0    1.3273194 4.3359101e-05            0    1.3273194       98 
 7977000 0.00010623333            0     1.346555 4.6680572e-05            0     1.346555      104 
 7978000 9.9591087e-05            0    1.2871137 4.3761867e-05            0    1.2871137      102 
 7979000 0.00010312621            0    1.3459977 4.5315255e-05            0    1.3459977      101 
 7980000 0.00011060119            0    1.4435608 4.8599879e-05            0    1.4435608      101 
 7981000 0.00012570027            0    1.5342958 5.5234647e-05            0    1.5342958      108 
 7982000 0.00011354574            0    1.4532162 4.9893757e-05            0    1.4532162      103 
 7983000 0.00010751824 -2.1899879e-05    1.3760513 4.7226694e-05 -2.1899879e-05    1.3760732      103 
 7984000 0.00010785819            0    1.4218368 4.739456e-05            0    1.4218368      100 
 7985000 0.00011446115            0    1.5088801 5.0296003e-05            0    1.5088801      100 
 7986000 0.00011324742            0    1.4636079 4.976267e-05            0    1.4636079      102 
 7987000 0.0001130736            0    1.4332584 4.9686293e-05            0    1.4332584      104 
 7988000 0.00010755571            0    1.3765527 4.7261644e-05            0    1.3765527      103 
 7989000 0.00010401664            0    1.2814913 4.5706524e-05            0    1.2814913      107 
 7990000 0.00012425563            0    1.4368382 5.4599852e-05            0    1.4368382      114 
 7991000 0.00010453601            0    1.3250406 4.5934741e-05            0    1.3250406      104 
 7992000 9.8965785e-05 -0.0005209271    1.2660936 4.3418396e-05 -0.0005209271    1.2666146      103 
 7993000 0.00010456469 -0.0017297359    1.3236745 4.5761841e-05 -0.0017297359    1.3254042      104 
 7994000 0.00011139393 -0.0005317827    1.3847952 4.8860454e-05 -0.0005317827     1.385327      106 
 7995000 9.710316e-05            0    1.2549598 4.2668634e-05            0    1.2549598      102 
 7996000 0.00010823921            0    1.3090455 4.7561986e-05            0    1.3090455      109 
 7997000 9.6161576e-05            0     1.293517 4.2254887e-05            0     1.293517       98 
 7998000 0.00010272142            0    1.3020399 4.5137384e-05            0    1.3020399      104 
 7999000 0.00011136264            0    1.3719945 4.8934469e-05            0    1.3719945      107 
 8000000 0.00011239995            0    1.4111509 4.9390281e-05            0    1.4111509      105 
Loop time of 6074.35 on 192 procs for 5000000 steps with 105 atoms

Performance: 355593.666 tau/day, 823.133 timesteps/s
99.1% CPU use with 192 MPI tasks x 1 OpenMP threads

MPI task timing breakdown:
Section |  min time  |  avg time  |  max time  |%varavg|  %CPU | %total
-----------------------------------------------------------------------
Pair    | 370.16     | 1090.5     | 1384.2     | 827.5 |  99.2 | 17.95
Bond    | 3.2272     | 3.3147     | 3.4213     |   2.6 | 100.0 |  0.05
Neigh   | 256.71     | 539.78     | 646.89     | 437.5 |  99.5 |  8.89
Comm    | 958.67     | 1403       | 2421.9     | 981.7 |  99.0 | 23.10
Output  | 247.98     | 248.97     | 248.99     |   0.5 |  99.4 |  4.10
Modify  | 2595.4     | 2620.9     | 2837.8     |  93.0 |  99.1 | 43.15
Other   |            | 167.9      |            |       |       |  2.76

Nlocal:       0.546875 ave           3 max           0 min
Histogram: 111 0 0 61 0 0 16 0 0 4
Nghost:       0.552083 ave           3 max           0 min
Histogram: 114 0 0 56 0 0 16 0 0 6
Neighs:         0.00000 ave           0 max           0 min
Histogram: 192 0 0 0 0 0 0 0 0 0

Total # of neighbors = 0
Ave neighs/atom = 0.0000000
Ave special neighs/atom = 0.0000000
Neighbor list builds = 469101
Dangerous builds = 196415

write_restart   restart_write.dat
System init for write_restart ...
write_data	data.write
System init for write_data ...
WARNING: Not all mixed pair coeffs generated from mixing. Use write_data with 'pair ij' option to store all pair coeffs. (src/write_data.cpp:312)

Total wall time: 1:41:17
