LAMMPS (24 Dec 2020)
OMP_NUM_THREADS environment is not set. Defaulting to 1 thread. (src/comm.cpp:94)
  using 1 OpenMP thread(s) per MPI task
# Simple rigid body system
# needed variables:


units		lj
atom_style	full
dimension 	3
boundary	p p f
pair_style	lj/cut/opt 2.5


variable 	sigma		equal 1.0
variable 	epsilon 	equal 1.0

region		box block 0 80 0 80 0 160
create_box 	3 box
Created orthogonal box = (0.0000000 0.0000000 0.0000000) to (80.000000 80.000000 160.00000)
  2 by 3 by 8 MPI processor grid


lattice 	sc 0.66   # fluid phase
Lattice spacing in x,y,z = 1.1485556 1.1485556 1.1485556
region		fluid block EDGE EDGE EDGE EDGE 2 82
create_atoms 	1 region fluid
Created 396900 atoms
  create_atoms CPU = 0.009 seconds

lattice 	sc 0.045    # gas phase
Lattice spacing in x,y,z = 2.8114422 2.8114422 2.8114422
region		gas   block EDGE EDGE EDGE EDGE 83 158
create_atoms	1 region gas
Created 0 atoms
  create_atoms CPU = 0.004 seconds


mass		1 1.0
mass		2 1.0
mass		3 1.0

group		solvent type 1
396900 atoms in group solvent
velocity 	solvent create ${startTemp} 563435 loop geom
velocity 	solvent create 1.0 563435 loop geom

neighbor 	0.4 bin

pair_coeff	1 1 1.0 1.0
pair_coeff	2 2 0.0 0.0
pair_coeff	3 3 0.0 0.0
pair_coeff	2 3 0.0 0.0
pair_coeff	1 2*3 0.0 0.0

pair_modify 	shift yes


balance 	1.05 shift z 10 1.05
Balancing ...
Neighbor list info ...
  update every 1 steps, delay 10 steps, check yes
  max neighbors/atom: 2000, page size: 100000
  master list distance cutoff = 2.9
  ghost atom cutoff = 2.9
  binsize = 1.45, bins = 56 56 111
  1 neighbor lists, perpetual/occasional/extra = 1 0 0
  (1) pair lj/cut/opt, perpetual
      attributes: half, newton on
      pair build: half/bin/newton
      stencil: half/bin/3d/newton
      bin: standard
 rebalancing time: 0.013 seconds
  iteration count = 4
  initial/final maximal load/proc = 15120.000 9240.0000
  initial/final imbalance factor  = 1.8285714 1.1174603
  x cuts: 0.0000000 0.50000000 1.0000000
  y cuts: 0.0000000 0.33333333 0.66666667 1.0000000
  z cuts: 0.0000000 0.085937500 0.16406250 0.23437500 0.29687500 0.36718750 0.44531250 0.52343750 1.0000000


####################### WALLS ###########################


variable       epsilonWall equal 2*${epsilon}
variable       epsilonWall equal 2*1

variable       cutoffTop   equal   0.7147*${sigma}
variable       cutoffTop   equal   0.7147*1

variable       cutoffLow   equal   3*${sigma}
variable       cutoffLow   equal   3*1


fix            topWall all wall/lj93 zhi EDGE                ${epsilonWall} ${sigma} ${cutoffTop} units box
fix            topWall all wall/lj93 zhi EDGE                2 ${sigma} ${cutoffTop} units box
fix            topWall all wall/lj93 zhi EDGE                2 1 ${cutoffTop} units box
fix            topWall all wall/lj93 zhi EDGE                2 1 0.7147 units box

fix            lowWall all wall/lj93 zlo EDGE                ${epsilonWall} ${sigma} ${cutoffLow} units box
fix            lowWall all wall/lj93 zlo EDGE                2 ${sigma} ${cutoffLow} units box
fix            lowWall all wall/lj93 zlo EDGE                2 1 ${cutoffLow} units box
fix            lowWall all wall/lj93 zlo EDGE                2 1 3 units box


###################### COMPUTES ##########################

compute        bin1 solvent chunk/atom bin/1d z upper 1.0


######################	FIXES ############################


fix 		peclet solvent ave/chunk 1000 1 1000 bin1 density/number norm 		 none ave one file density.profile

fix 		 temp solvent ave/chunk 1000 1 1000 bin1 temp norm 		 none ave one file temp.profile

fix 		2 solvent nve


## Thermostat


region		regthermo block EDGE EDGE EDGE EDGE 0 20

group 		thermo dynamic solvent region regthermo every 1000
dynamic group thermo defined

fix 		3 thermo langevin ${startTemp} ${temp} 10 156453
fix 		3 thermo langevin 1.0 ${temp} 10 156453
fix 		3 thermo langevin 1.0 .9 10 156453



#### Load balancing


fix 		bal all balance 1000 1.05 shift z 10 1.05


############### Diagnostics and computes ###################
#compute 	com cube	  rigid/local	1 mol x y z
#compute 	quat cube	  rigid/local	1 mol quatw quati quatj quatk

thermo 		1000
thermo_style 	custom step temp epair evdwl etotal press pe ke atoms

dump		1 all custom 100000 dump.lammpstrj id mol type x y z
dump 		2 all image 10000 image.*.png type type
dump 		3 all movie 1000 movie.avi type type

#dump 		com cube local 1000 dump.*.xyz c_com[*]
#dump		quat cube      local 1000 dump.*.quat c_quat[*]


restart 	1000000 restart.dat
timestep 	0.005
timer 		full
New timer settings: style=full  mode=nosync  timeout=off

run		3000000
Per MPI rank memory allocation (min/avg/max) = 11.94 | 16.69 | 18.65 Mbytes
Step Temp E_pair E_vdwl TotEng Press PotEng KinEng Atoms 
       0            1   -1.2728193   -1.2728193   0.22717689    3.8122416   -1.2728193    1.4999962   396900 
    1000    1.7851296   -3.4594637   -3.4594637  -0.78177609    1.4240258   -3.4594637    2.6776876   396900 
    2000    1.5129498   -3.4568731   -3.4568731   -1.1874541   0.67130173   -3.4568731     2.269419   396900 
    3000    1.3196202   -3.3591302   -3.3591302   -1.3797049   0.33317598   -3.3591302    1.9794253   396900 
    4000    1.2472426   -3.3192486   -3.3192486   -1.4483895   0.24007286   -3.3192486    1.8708592   396900 
    5000    1.2128558   -3.2852006   -3.2852006   -1.4659215   0.20323197   -3.2852006    1.8192791   396900 
    6000    1.1986855   -3.2562753   -3.2562753   -1.4582517   0.17797131   -3.2562753    1.7980237   396900 
    7000    1.1920166   -3.2240896   -3.2240896   -1.4360692   0.17608085   -3.2240896    1.7880204   396900 
    8000    1.1925202   -3.2006957   -3.2006957   -1.4119199   0.18800478   -3.2006957    1.7887759   396900 
    9000    1.1921399   -3.1795815   -3.1795815   -1.3913761   0.19444801   -3.1795815    1.7882054   396900 
   10000    1.1888046   -3.1540063   -3.1540063   -1.3708039   0.19380271   -3.1540063    1.7832025   396900 
   11000      1.18305   -3.1267052   -3.1267052   -1.3521347   0.19310406   -3.1267052    1.7745705   396900 
   12000    1.1737339   -3.0989723   -3.0989723    -1.338376   0.18023947   -3.0989723    1.7605963   396900 
   13000    1.1614484   -3.0700986   -3.0700986   -1.3279304   0.16970858   -3.0700986    1.7421682   396900 
   14000    1.1491867   -3.0392499   -3.0392499   -1.3154742   0.16041096   -3.0392499    1.7237757   396900 
   15000    1.1406952   -3.0182509   -3.0182509   -1.3072124   0.15543917   -3.0182509    1.7110385   396900 
   16000    1.1330215    -2.997696    -2.997696    -1.298168   0.15453158    -2.997696     1.699528   396900 
   17000    1.1303522   -2.9940489   -2.9940489   -1.2985249   0.16105436   -2.9940489     1.695524   396900 
   18000    1.1231262   -2.9965325   -2.9965325   -1.3118474   0.16697644   -2.9965325     1.684685   396900 
   19000    1.1172721   -3.0105054   -3.0105054   -1.3346014   0.17086458   -3.0105054     1.675904   396900 
   20000    1.1101258   -3.0243794   -3.0243794   -1.3591949   0.17647912   -3.0243794    1.6651845   396900 
   21000    1.0986542   -3.0345263   -3.0345263   -1.3865492   0.16887235   -3.0345263    1.6479771   396900 
   22000    1.0889517   -3.0416853   -3.0416853   -1.4082618   0.16315637   -3.0416853    1.6334235   396900 
   23000     1.081255   -3.0478098   -3.0478098   -1.4259314   0.15729963   -3.0478098    1.6218784   396900 
   24000     1.072709   -3.0505261   -3.0505261   -1.4414666   0.15560826   -3.0505261    1.6090594   396900 
   25000    1.0687666   -3.0548215   -3.0548215   -1.4516755   0.14793357   -3.0548215    1.6031459   396900 
   26000    1.0619229   -3.0557475   -3.0557475   -1.4628671   0.14181941   -3.0557475    1.5928804   396900 
   27000    1.0565924   -3.0545063   -3.0545063   -1.4696218   0.13473095   -3.0545063    1.5848846   396900 
   28000    1.0535174   -3.0551786   -3.0551786   -1.4749066   0.13213378   -3.0551786    1.5802721   396900 
   29000    1.0510235   -3.0542115   -3.0542115   -1.4776802   0.13124163   -3.0542115    1.5765312   396900 
   30000    1.0494461     -3.05144     -3.05144   -1.4772748   0.12443033     -3.05144    1.5741652   396900 
   31000    1.0497707   -3.0490464   -3.0490464   -1.4743942   0.12092533   -3.0490464    1.5746521   396900 
   32000    1.0447952   -3.0410458   -3.0410458   -1.4738569   0.11865682   -3.0410458    1.5671889   396900 
   33000    1.0464205   -3.0386036   -3.0386036   -1.4689768   0.12085775   -3.0386036    1.5696268   396900 
   34000    1.0445819   -3.0354811   -3.0354811   -1.4686122   0.11952487   -3.0354811    1.5668689   396900 
   35000    1.0456032   -3.0323141   -3.0323141   -1.4639133   0.11249828   -3.0323141    1.5684008   396900 
   36000    1.0446492    -3.027785    -3.027785   -1.4608152   0.12080851    -3.027785    1.5669699   396900 
   37000    1.0436068   -3.0229129   -3.0229129   -1.4575067   0.11371501   -3.0229129    1.5654062   396900 
   38000    1.0410553   -3.0171443   -3.0171443   -1.4555654   0.11132939   -3.0171443     1.561579   396900 
   39000    1.0414182   -3.0139881   -3.0139881   -1.4518648    0.1104701   -3.0139881    1.5621233   396900 
   40000    1.0404716   -3.0088469   -3.0088469   -1.4481435   0.10621418   -3.0088469    1.5607034   396900 
   41000    1.0377986   -3.0032533   -3.0032533   -1.4465594   0.10949259   -3.0032533    1.5566939   396900 
   42000    1.0391047   -3.0009245   -3.0009245   -1.4422714   0.10776887   -3.0009245    1.5586531   396900 
   43000     1.036124    -2.995687    -2.995687   -1.4415049   0.10547151    -2.995687    1.5541821   396900 
   44000    1.0365525   -2.9971596   -2.9971596   -1.4423347   0.10111968   -2.9971596    1.5548249   396900 
   45000    1.0362703   -2.9924708   -2.9924708   -1.4380694  0.099965174   -2.9924708    1.5544015   396900 
   46000    1.0336416   -2.9898364   -2.9898364   -1.4393778   0.10165747   -2.9898364    1.5504586   396900 
   47000    1.0323975    -2.986523    -2.986523   -1.4379307   0.10401683    -2.986523    1.5485923   396900 
   48000    1.0326952   -2.9898359   -2.9898359    -1.440797  0.096993395   -2.9898359    1.5490389   396900 
   49000    1.0325916   -2.9895578   -2.9895578   -1.4406743    0.1023725   -2.9895578    1.5488835   396900 
   50000    1.0316938   -2.9877657   -2.9877657   -1.4402289   0.10509374   -2.9877657    1.5475368   396900 
   51000    1.0322706   -2.9907755   -2.9907755   -1.4423735   0.10126153   -2.9907755     1.548402   396900 
   52000    1.0301797   -2.9899368   -2.9899368   -1.4446711   0.10337643   -2.9899368    1.5452657   396900 
   53000     1.030767   -2.9933858   -2.9933858   -1.4472392  0.096441782   -2.9933858    1.5461467   396900 
   54000    1.0280215   -2.9938506   -2.9938506   -1.4518222  0.096412403   -2.9938506    1.5420284   396900 
   55000    1.0285979   -2.9940277   -2.9940277   -1.4511347   0.10276767   -2.9940277     1.542893   396900 
   56000    1.0275648   -2.9935487   -2.9935487   -1.4522054  0.095228804   -2.9935487    1.5413433   396900 
   57000    1.0269349   -2.9923702   -2.9923702   -1.4519718  0.098038278   -2.9923702    1.5403984   396900 
   58000    1.0252578   -2.9899258   -2.9899258   -1.4520429  0.094829697   -2.9899258    1.5378829   396900 
   59000    1.0253712   -2.9902124   -2.9902124   -1.4521594  0.098785901   -2.9902124     1.538053   396900 
   60000    1.0258597   -2.9891475   -2.9891475   -1.4503618  0.097558936   -2.9891475    1.5387857   396900 
   61000    1.0240031   -2.9880153   -2.9880153   -1.4520146  0.094645097   -2.9880153    1.5360008   396900 
   62000    1.0222632    -2.985622    -2.985622    -1.452231  0.093584818    -2.985622     1.533391   396900 
   63000    1.0231414   -2.9871234   -2.9871234   -1.4524152  0.092603497   -2.9871234    1.5347083   396900 
   64000    1.0235097   -2.9866142   -2.9866142   -1.4513536  0.091705154   -2.9866142    1.5352606   396900 
   65000     1.023854   -2.9887304   -2.9887304   -1.4529532   0.09082618   -2.9887304    1.5357772   396900 
   66000    1.0237571   -2.9910981   -2.9910981   -1.4554664  0.088327298   -2.9910981    1.5356317   396900 
   67000    1.0220984    -2.990259    -2.990259   -1.4571152  0.087692854    -2.990259    1.5331438   396900 
   68000    1.0212838   -2.9879443   -2.9879443   -1.4560224  0.089782047   -2.9879443    1.5319219   396900 
   69000    1.0225393   -2.9839833   -2.9839833   -1.4501782  0.088661477   -2.9839833    1.5338051   396900 
   70000    1.0226881   -2.9855438   -2.9855438   -1.4515155   0.09039684   -2.9855438    1.5340282   396900 
   71000    1.0249473   -2.9882698   -2.9882698   -1.4508527  0.090558618   -2.9882698    1.5374171   396900 
   72000    1.0240411   -2.9865618   -2.9865618    -1.450504  0.089406269   -2.9865618    1.5360577   396900 
   73000    1.0213524   -2.9845214   -2.9845214   -1.4524967  0.088554439   -2.9845214    1.5320247   396900 
   74000    1.0213618   -2.9859999   -2.9859999    -1.453961  0.088629617   -2.9859999    1.5320389   396900 
   75000     1.021621   -2.9881491   -2.9881491   -1.4557215  0.091876002   -2.9881491    1.5324276   396900 
   76000    1.0208314   -2.9839761   -2.9839761   -1.4527329  0.088282539   -2.9839761    1.5312432   396900 
   77000     1.021475   -2.9870626   -2.9870626    -1.454854    0.0900369   -2.9870626    1.5322086   396900 
   78000    1.0213323   -2.9864386   -2.9864386    -1.454444  0.088608285   -2.9864386    1.5319946   396900 
   79000    1.0220531   -2.9868758   -2.9868758   -1.4538001  0.089464932   -2.9868758    1.5330757   396900 
   80000    1.0204687   -2.9850848   -2.9850848   -1.4543856  0.088303777   -2.9850848    1.5306992   396900 
   81000    1.0179225     -2.98423     -2.98423     -1.45735  0.084024294     -2.98423      1.52688   396900 
   82000    1.0197005   -2.9877859   -2.9877859   -1.4582391  0.077950694   -2.9877859    1.5295468   396900 
   83000    1.0186403    -2.985675    -2.985675   -1.4577183   0.08152802    -2.985675    1.5279566   396900 
   84000    1.0186154   -2.9851381   -2.9851381   -1.4572188  0.083790263   -2.9851381    1.5279193   396900 
   85000    1.0195238   -2.9854412   -2.9854412   -1.4561594  0.087517092   -2.9854412    1.5292818   396900 
   86000    1.0189395   -2.9873318   -2.9873318   -1.4589264  0.089241924   -2.9873318    1.5284054   396900 
   87000    1.0167733   -2.9841793   -2.9841793   -1.4590232  0.087870471   -2.9841793    1.5251561   396900 
   88000    1.0170849   -2.9868062   -2.9868062   -1.4611828  0.086786036   -2.9868062    1.5256235   396900 
   89000    1.0180159   -2.9912341   -2.9912341   -1.4642142  0.083709239   -2.9912341    1.5270199   396900 
   90000     1.018021   -2.9924113   -2.9924113   -1.4653836  0.085584489   -2.9924113    1.5270277   396900 
   91000    1.0177873    -2.992067    -2.992067   -1.4653899  0.087666854    -2.992067    1.5266771   396900 
   92000    1.0176441   -2.9908444   -2.9908444   -1.4643821  0.086333912   -2.9908444    1.5264623   396900 
   93000    1.0161225      -2.9908      -2.9908     -1.46662   0.07959214      -2.9908      1.52418   396900 
   94000    1.0166607    -2.989365    -2.989365   -1.4643779  0.081228336    -2.989365    1.5249871   396900 
   95000    1.0163342   -2.9917882   -2.9917882   -1.4672908   0.08162399   -2.9917882    1.5244975   396900 
   96000    1.0171145   -2.9924528   -2.9924528   -1.4667848  0.080138101   -2.9924528     1.525668   396900 
   97000    1.0157389    -2.991517    -2.991517   -1.4679126  0.083500413    -2.991517    1.5236045   396900 
   98000    1.0140688   -2.9903515   -2.9903515   -1.4692521  0.082525798   -2.9903515    1.5210994   396900 
   99000    1.0145349   -2.9916092   -2.9916092   -1.4698107  0.082871422   -2.9916092    1.5217985   396900 
  100000    1.0145324   -2.9900541   -2.9900541   -1.4682593  0.081298912   -2.9900541    1.5217947   396900 
  101000    1.0157861   -2.9930297   -2.9930297   -1.4693544  0.084399023   -2.9930297    1.5236752   396900 
  102000    1.0153162   -2.9936547   -2.9936547   -1.4706842  0.086831653   -2.9936547    1.5229705   396900 
  103000    1.0146077   -2.9912122   -2.9912122   -1.4693045  0.084798411   -2.9912122    1.5219077   396900 
  104000    1.0147594    -2.991969    -2.991969   -1.4698337   0.08706485    -2.991969    1.5221353   396900 
  105000    1.0154925   -2.9909236   -2.9909236   -1.4676887   0.08463696   -2.9909236    1.5232349   396900 
  106000    1.0159654    -2.992482    -2.992482   -1.4685378  0.082213281    -2.992482    1.5239443   396900 
  107000    1.0158414   -2.9937401   -2.9937401   -1.4699818  0.083393061   -2.9937401    1.5237583   396900 
  108000    1.0157886    -2.992174    -2.992174    -1.468495  0.083822947    -2.992174     1.523679   396900 
  109000      1.01717   -2.9955678   -2.9955678   -1.4698167  0.079921496   -2.9955678    1.5257511   396900 
  110000    1.0172904   -2.9946816   -2.9946816   -1.4687499  0.077987598   -2.9946816    1.5259317   396900 
  111000    1.0152618   -2.9909249   -2.9909249    -1.468036   0.08226881   -2.9909249    1.5228889   396900 
  112000    1.0168386   -2.9963383   -2.9963383   -1.4710842  0.080866557   -2.9963383    1.5252541   396900 
  113000    1.0151667   -2.9950933   -2.9950933   -1.4723472  0.083131338   -2.9950933    1.5227462   396900 
  114000    1.0141177   -2.9934889   -2.9934889   -1.4723162  0.083005323   -2.9934889    1.5211727   396900 
  115000    1.0133785   -2.9938519   -2.9938519   -1.4737879  0.081202294   -2.9938519    1.5200639   396900 
  116000    1.0146641   -2.9957574   -2.9957574   -1.4737651  0.083127451   -2.9957574    1.5219923   396900 
  117000    1.0140768   -2.9971015   -2.9971015   -1.4759902   0.08000395   -2.9971015    1.5211114   396900 
  118000    1.0141149   -2.9969228   -2.9969228   -1.4757543  0.078873423   -2.9969228    1.5211685   396900 
  119000    1.0135303    -2.999514    -2.999514   -1.4792223  0.081429281    -2.999514    1.5202917   396900 
  120000    1.0151723   -3.0024303   -3.0024303   -1.4796757  0.081279404   -3.0024303    1.5227545   396900 
  121000    1.0110095   -2.9993426   -2.9993426   -1.4828322   0.07941327   -2.9993426    1.5165104   396900 
  122000    1.0129496   -3.0023006   -3.0023006     -1.48288  0.076225188   -3.0023006    1.5194206   396900 
  123000    1.0124676   -3.0008654   -3.0008654   -1.4821678  0.077644014   -3.0008654    1.5186976   396900 
  124000    1.0120552   -3.0003183   -3.0003183   -1.4822392   0.07659896   -3.0003183     1.518079   396900 
  125000    1.0155817    -3.003837    -3.003837   -1.4804683  0.084671415    -3.003837    1.5233687   396900 
  126000    1.0123055   -2.9987806   -2.9987806   -1.4803261  0.080766632   -2.9987806    1.5184545   396900 
  127000    1.0119867   -3.0014894   -3.0014894   -1.4835131  0.078186778   -3.0014894    1.5179763   396900 
  128000    1.0122531   -3.0019188   -3.0019188    -1.483543  0.079508184   -3.0019188    1.5183758   396900 
  129000    1.0129584    -3.002583    -3.002583   -1.4831491  0.072915804    -3.002583    1.5194338   396900 
  130000    1.0138412   -3.0040398   -3.0040398   -1.4832819  0.078031584   -3.0040398    1.5207579   396900 
  131000    1.0119888   -3.0015123   -3.0015123   -1.4835329  0.081419515   -3.0015123    1.5179793   396900 
  132000    1.0146191   -3.0036005   -3.0036005   -1.4816757  0.081410762   -3.0036005    1.5219249   396900 
  133000    1.0127333   -3.0045981   -3.0045981   -1.4855019   0.07595956   -3.0045981    1.5190961   396900 
  134000    1.0117219    -3.004571    -3.004571   -1.4869919  0.080869168    -3.004571    1.5175791   396900 
  135000    1.0136057    -3.005863    -3.005863   -1.4854582  0.077966145    -3.005863    1.5204048   396900 
  136000    1.0125269   -3.0056695   -3.0056695    -1.486883  0.076606945   -3.0056695    1.5187865   396900 
  137000     1.011221   -3.0079788   -3.0079788   -1.4911511  0.082797284   -3.0079788    1.5168277   396900 
  138000    1.0102513   -3.0076837   -3.0076837   -1.4923105  0.079775218   -3.0076837    1.5153731   396900 
  139000    1.0095245   -3.0114284   -3.0114284   -1.4971454  0.074555086   -3.0114284     1.514283   396900 
  140000    1.0088701   -3.0088695   -3.0088695   -1.4955682  0.071826466   -3.0088695    1.5133013   396900 
  141000    1.0103383   -3.0096763   -3.0096763   -1.4941727  0.081158007   -3.0096763    1.5155036   396900 
  142000    1.0128063   -3.0124021   -3.0124021   -1.4931965  0.086689123   -3.0124021    1.5192057   396900 
  143000    1.0113769   -3.0143069   -3.0143069   -1.4972454  0.081246516   -3.0143069    1.5170615   396900 
  144000    1.0095237   -3.0130524   -3.0130524   -1.4987707  0.076850434   -3.0130524    1.5142817   396900 
  145000     1.009649    -3.015412    -3.015412   -1.5009423  0.077013728    -3.015412    1.5144698   396900 
  146000    1.0118871   -3.0176349   -3.0176349    -1.499808  0.077881625   -3.0176349    1.5178269   396900 
  147000    1.0112621   -3.0160521   -3.0160521   -1.4991628  0.081490505   -3.0160521    1.5168893   396900 
  148000    1.0114703   -3.0170942   -3.0170942   -1.4998926   0.07936935   -3.0170942    1.5172016   396900 
  149000     1.010896   -3.0172484   -3.0172484   -1.5009082  0.084584426   -3.0172484    1.5163402   396900 
  150000     1.011867   -3.0192456   -3.0192456   -1.5014489  0.078384179   -3.0192456    1.5177967   396900 
  151000     1.011348   -3.0181315   -3.0181315   -1.5011133  0.075756959   -3.0181315    1.5170181   396900 
  152000    1.0105712   -3.0164673   -3.0164673   -1.5006143  0.079954671   -3.0164673     1.515853   396900 
  153000    1.0094757   -3.0151494   -3.0151494   -1.5009397  0.077519219   -3.0151494    1.5142098   396900 
  154000    1.0087227   -3.0149839   -3.0149839   -1.5019036  0.080273936   -3.0149839    1.5130803   396900 
  155000    1.0107715   -3.0182186   -3.0182186   -1.5020651  0.081718367   -3.0182186    1.5161535   396900 
  156000     1.011961   -3.0193906   -3.0193906   -1.5014529  0.077821584   -3.0193906    1.5179376   396900 
  157000    1.0106453   -3.0191277   -3.0191277   -1.5031636  0.077340874   -3.0191277    1.5159641   396900 
  158000    1.0125634   -3.0210225   -3.0210225   -1.5021812  0.079157923   -3.0210225    1.5188413   396900 
  159000    1.0101822   -3.0216435   -3.0216435    -1.506374    0.0788086   -3.0216435    1.5152695   396900 
  160000    1.0100449   -3.0219582   -3.0219582   -1.5068946  0.078868033   -3.0219582    1.5150636   396900 
  161000    1.0103354   -3.0233928   -3.0233928   -1.5078935   0.07483554   -3.0233928    1.5154993   396900 
  162000    1.0106719   -3.0231989   -3.0231989   -1.5071949  0.073721061   -3.0231989     1.516004   396900 
  163000    1.0105815   -3.0240904   -3.0240904    -1.508222  0.075399558   -3.0240904    1.5158684   396900 
  164000    1.0129573   -3.0291569   -3.0291569   -1.5097248  0.078933147   -3.0291569    1.5194321   396900 
  165000    1.0100335   -3.0241346   -3.0241346   -1.5090881  0.082105548   -3.0241346    1.5150464   396900 
  166000    1.0102318   -3.0250876   -3.0250876   -1.5097437  0.078844872   -3.0250876    1.5153439   396900 
  167000    1.0135584   -3.0285982   -3.0285982   -1.5082644  0.080794376   -3.0285982    1.5203338   396900 
  168000    1.0118713   -3.0274618   -3.0274618   -1.5096586  0.078877888   -3.0274618    1.5178032   396900 
  169000    1.0087427   -3.0253579   -3.0253579   -1.5122476   0.07809613   -3.0253579    1.5131103   396900 
  170000    1.0083201   -3.0269794   -3.0269794   -1.5145031   0.07401167   -3.0269794    1.5124764   396900 
  171000    1.0094363   -3.0283687   -3.0283687    -1.514218  0.073640349   -3.0283687    1.5141507   396900 
  172000    1.0096614    -3.026841    -3.026841   -1.5123528  0.076956437    -3.026841    1.5144883   396900 
  173000    1.0087303   -3.0268425   -3.0268425   -1.5137509  0.074427829   -3.0268425    1.5130916   396900 
  174000    1.0091311    -3.027328    -3.027328   -1.5136351  0.078259538    -3.027328    1.5136929   396900 
  175000    1.0083344   -3.0258706   -3.0258706   -1.5133729  0.076974128   -3.0258706    1.5124977   396900 
  176000    1.0097037   -3.0291593   -3.0291593   -1.5146076  0.083024057   -3.0291593    1.5145518   396900 
  177000    1.0109705   -3.0302526   -3.0302526   -1.5138007  0.079420964   -3.0302526    1.5164519   396900 
  178000     1.009623   -3.0280433   -3.0280433   -1.5136127  0.077961268   -3.0280433    1.5144306   396900 
  179000    1.0081395   -3.0269422   -3.0269422   -1.5147367   0.08163492   -3.0269422    1.5122055   396900 
  180000    1.0083672    -3.029883    -3.029883    -1.517336  0.073249467    -3.029883     1.512547   396900 
  181000     1.007287   -3.0276828   -3.0276828   -1.5167561  0.076991825   -3.0276828    1.5109267   396900 
  182000     1.008703   -3.0311236   -3.0311236    -1.518073  0.073736947   -3.0311236    1.5130506   396900 
  183000    1.0101781   -3.0311367   -3.0311367   -1.5158734  0.078659453   -3.0311367    1.5152634   396900 
  184000    1.0088538   -3.0350148   -3.0350148   -1.5217379  0.076198985   -3.0350148    1.5132769   396900 
  185000     1.008492   -3.0362875   -3.0362875   -1.5235533  0.076004795   -3.0362875    1.5127343   396900 
  186000    1.0089351   -3.0387051   -3.0387051   -1.5253063   0.07715177   -3.0387051    1.5133989   396900 
  187000    1.0065192   -3.0366462   -3.0366462   -1.5268712  0.081256469   -3.0366462     1.509775   396900 
  188000    1.0092055   -3.0386901   -3.0386901   -1.5248857  0.074315015   -3.0386901    1.5138044   396900 
  189000    1.0087476    -3.036833    -3.036833   -1.5237154  0.079152438    -3.036833    1.5131176   396900 
  190000    1.0093409   -3.0387406   -3.0387406   -1.5247331  0.080084712   -3.0387406    1.5140075   396900 
  191000     1.008531   -3.0374514   -3.0374514   -1.5246588  0.082873753   -3.0374514    1.5127926   396900 
  192000    1.0070033   -3.0360125   -3.0360125   -1.5255114  0.079717996   -3.0360125    1.5105011   396900 
  193000      1.00837   -3.0371864   -3.0371864   -1.5246353  0.076707491   -3.0371864    1.5125511   396900 
  194000    1.0092815   -3.0375646   -3.0375646   -1.5236462  0.076389515   -3.0375646    1.5139184   396900 
  195000    1.0091668   -3.0381698   -3.0381698   -1.5244235  0.069164541   -3.0381698    1.5137464   396900 
  196000    1.0080232      -3.0375      -3.0375    -1.525469  0.072476249      -3.0375     1.512031   396900 
  197000    1.0080004   -3.0385605   -3.0385605   -1.5265637  0.077082587   -3.0385605    1.5119968   396900 
  198000    1.0071575   -3.0402744   -3.0402744   -1.5295419  0.076109438   -3.0402744    1.5107325   396900 
  199000    1.0072233   -3.0402186   -3.0402186   -1.5293875  0.070146496   -3.0402186    1.5108311   396900 
  200000     1.007806   -3.0425571   -3.0425571   -1.5308519  0.076572248   -3.0425571    1.5117052   396900 
  201000    1.0043349   -3.0395569   -3.0395569   -1.5330583  0.069367774   -3.0395569    1.5064986   396900 
  202000    1.0059208   -3.0429816   -3.0429816   -1.5341042  0.075952377   -3.0429816    1.5088774   396900 
  203000    1.0060711   -3.0444466   -3.0444466   -1.5353439  0.075734958   -3.0444466    1.5091028   396900 
  204000    1.0064165   -3.0447691   -3.0447691   -1.5351482  0.079323668   -3.0447691    1.5096209   396900 
  205000    1.0054247   -3.0435273   -3.0435273   -1.5353941  0.075837782   -3.0435273    1.5081332   396900 
  206000    1.0060321   -3.0463425   -3.0463425   -1.5372981  0.077154055   -3.0463425    1.5090444   396900 
  207000    1.0072202    -3.048033    -3.048033   -1.5372065  0.072380913    -3.048033    1.5108266   396900 
  208000    1.0061428    -3.045502    -3.045502   -1.5362917  0.075516733    -3.045502    1.5092104   396900 
  209000    1.0061881   -3.0469333   -3.0469333   -1.5376549  0.072129161   -3.0469333    1.5092784   396900 
  210000    1.0089127   -3.0490434   -3.0490434   -1.5356782  0.077449476   -3.0490434    1.5133652   396900 
  211000    1.0084343   -3.0492874   -3.0492874   -1.5366398  0.077240358   -3.0492874    1.5126476   396900 
  212000    1.0052358   -3.0473367   -3.0473367   -1.5394869  0.071830708   -3.0473367    1.5078499   396900 
  213000    1.0064893   -3.0497877   -3.0497877   -1.5400576  0.070268029   -3.0497877    1.5097301   396900 
  214000    1.0069498   -3.0497115   -3.0497115   -1.5392907  0.076228574   -3.0497115    1.5104208   396900 
  215000    1.0077293   -3.0481868   -3.0481868   -1.5365967  0.073828644   -3.0481868    1.5115902   396900 
  216000    1.0070387   -3.0482853   -3.0482853   -1.5377311  0.076076786   -3.0482853    1.5105542   396900 
  217000    1.0066972   -3.0499622   -3.0499622   -1.5399202  0.075852464   -3.0499622     1.510042   396900 
  218000    1.0056269   -3.0484762   -3.0484762   -1.5400397  0.071887818   -3.0484762    1.5084365   396900 
  219000    1.0061154   -3.0475032   -3.0475032   -1.5383339  0.076856334   -3.0475032    1.5091693   396900 
  220000    1.0060388   -3.0482416   -3.0482416   -1.5391872  0.073516031   -3.0482416    1.5090544   396900 
  221000    1.0052353   -3.0487221   -3.0487221    -1.540873  0.076928668   -3.0487221    1.5078491   396900 
  222000    1.0067043   -3.0510759   -3.0510759   -1.5410232  0.077107093   -3.0510759    1.5100527   396900 
  223000    1.0065492   -3.0486736   -3.0486736   -1.5388536  0.076601018   -3.0486736      1.50982   396900 
  224000    1.0059625    -3.051156    -3.051156   -1.5422161  0.076950506    -3.051156    1.5089399   396900 
  225000    1.0063526   -3.0515463   -3.0515463   -1.5420212  0.075557387   -3.0515463    1.5095251   396900 
  226000     1.008946   -3.0556066   -3.0556066   -1.5421914  0.080803553   -3.0556066    1.5134151   396900 
  227000     1.006235   -3.0563036   -3.0563036   -1.5469549  0.076607587   -3.0563036    1.5093487   396900 
  228000    1.0070116   -3.0552712   -3.0552712   -1.5447577  0.076167766   -3.0552712    1.5105136   396900 
  229000    1.0061622   -3.0569765   -3.0569765   -1.5477371  0.075461868   -3.0569765    1.5092394   396900 
  230000    1.0056454   -3.0562168   -3.0562168   -1.5477524  0.078579676   -3.0562168    1.5084644   396900 
  231000    1.0051295    -3.054725    -3.054725   -1.5470345  0.076219977    -3.054725    1.5076905   396900 
  232000    1.0066144   -3.0575862   -3.0575862   -1.5476684  0.078933203   -3.0575862    1.5099179   396900 
  233000    1.0084501   -3.0608571   -3.0608571   -1.5481857  0.077308798   -3.0608571    1.5126714   396900 
  234000    1.0055731   -3.0587373   -3.0587373   -1.5503815   0.07825945   -3.0587373    1.5083558   396900 
  235000    1.0063741    -3.058624    -3.058624   -1.5490667  0.079891935    -3.058624    1.5095573   396900 
  236000    1.0052162   -3.0571975   -3.0571975    -1.549377  0.077098642   -3.0571975    1.5078205   396900 
  237000    1.0069497   -3.0599855   -3.0599855   -1.5495648  0.076758482   -3.0599855    1.5104207   396900 
  238000    1.0049155   -3.0581146   -3.0581146   -1.5507451  0.074805118   -3.0581146    1.5073695   396900 
  239000    1.0053125   -3.0579226   -3.0579226   -1.5499575  0.082277659   -3.0579226     1.507965   396900 
  240000     1.007166   -3.0595254   -3.0595254   -1.5487801  0.079991633   -3.0595254    1.5107452   396900 
  241000    1.0080266    -3.059448    -3.059448   -1.5474119  0.076737445    -3.059448    1.5120361   396900 
  242000    1.0080875   -3.0598868   -3.0598868   -1.5477593  0.077760845   -3.0598868    1.5121274   396900 
  243000    1.0064329   -3.0579556   -3.0579556   -1.5483101   0.07399038   -3.0579556    1.5096455   396900 
  244000    1.0072358   -3.0606699   -3.0606699     -1.54982  0.075530414   -3.0606699    1.5108499   396900 
  245000    1.0067711   -3.0583143   -3.0583143   -1.5481614  0.072578056   -3.0583143    1.5101529   396900 
  246000    1.0064349   -3.0587814   -3.0587814   -1.5491329  0.073480006   -3.0587814    1.5096485   396900 
  247000    1.0067922   -3.0603304   -3.0603304   -1.5501459   0.07655715   -3.0603304    1.5101845   396900 
  248000    1.0077068   -3.0630612   -3.0630612   -1.5515048  0.076376004   -3.0630612    1.5115564   396900 
  249000    1.0037868   -3.0582708   -3.0582708   -1.5525944  0.075111011   -3.0582708    1.5056764   396900 
  250000    1.0055322   -3.0607565   -3.0607565    -1.552462  0.079904701   -3.0607565    1.5082945   396900 
  251000    1.0057898   -3.0635644   -3.0635644   -1.5548834  0.077558822   -3.0635644     1.508681   396900 
  252000    1.0042703    -3.062984    -3.062984   -1.5565823  0.074692957    -3.062984    1.5064017   396900 
  253000    1.0060265   -3.0660884   -3.0660884   -1.5570525   0.07279757   -3.0660884    1.5090359   396900 
  254000    1.0076994   -3.0674981   -3.0674981   -1.5559529  0.077121831   -3.0674981    1.5115452   396900 
  255000    1.0080473   -3.0679811   -3.0679811    -1.555914  0.077355981   -3.0679811    1.5120671   396900 
  256000    1.0066494   -3.0683643   -3.0683643   -1.5583941  0.076517764   -3.0683643    1.5099702   396900 
  257000    1.0067469   -3.0681191   -3.0681191   -1.5580026  0.080145458   -3.0681191    1.5101165   396900 
  258000    1.0065942   -3.0687209   -3.0687209   -1.5588334  0.073807226   -3.0687209    1.5098875   396900 
  259000     1.003547   -3.0685236   -3.0685236   -1.5632068  0.075144993   -3.0685236    1.5053168   396900 
  260000    1.0032816   -3.0698849   -3.0698849   -1.5649663  0.074754952   -3.0698849    1.5049186   396900 
  261000    1.0053144   -3.0708208   -3.0708208    -1.562853   0.07221447   -3.0708208    1.5079678   396900 
  262000    1.0046927    -3.071414    -3.071414   -1.5643788  0.074857408    -3.071414    1.5070352   396900 
  263000    1.0047334   -3.0731095   -3.0731095   -1.5660133  0.071300309   -3.0731095    1.5070963   396900 
  264000    1.0057774   -3.0727945   -3.0727945   -1.5641322  0.073032969   -3.0727945    1.5086623   396900 
  265000    1.0052572   -3.0699742   -3.0699742   -1.5620921  0.073831811   -3.0699742    1.5078821   396900 
  266000    1.0075108   -3.0727849   -3.0727849   -1.5615224  0.072762961   -3.0727849    1.5112625   396900 
  267000    1.0071555   -3.0707665   -3.0707665   -1.5600371  0.078856252   -3.0707665    1.5107295   396900 
  268000    1.0075204   -3.0691096   -3.0691096   -1.5578328  0.077375057   -3.0691096    1.5112768   396900 
  269000    1.0068646   -3.0696354   -3.0696354   -1.5593423  0.070743089   -3.0696354    1.5102931   396900 
  270000    1.0050983   -3.0676526   -3.0676526    -1.560009  0.079720364   -3.0676526    1.5076436   396900 
  271000    1.0056134   -3.0699824   -3.0699824   -1.5615662   0.06893326   -3.0699824    1.5084162   396900 
  272000    1.0049412   -3.0705778   -3.0705778   -1.5631697  0.073617439   -3.0705778    1.5074081   396900 
  273000    1.0075507   -3.0726085   -3.0726085   -1.5612864  0.066742657   -3.0726085    1.5113222   396900 
  274000    1.0043262   -3.0707363   -3.0707363   -1.5642509  0.076559639   -3.0707363    1.5064855   396900 
  275000    1.0037406   -3.0702521   -3.0702521   -1.5646449  0.075099664   -3.0702521    1.5056071   396900 
  276000    1.0046595   -3.0727717   -3.0727717   -1.5657863  0.074321206   -3.0727717    1.5069854   396900 
  277000    1.0046773   -3.0739762   -3.0739762   -1.5669641  0.078047041   -3.0739762    1.5070121   396900 
  278000    1.0037874   -3.0722552   -3.0722552    -1.566578  0.075926705   -3.0722552    1.5056773   396900 
  279000    1.0029056   -3.0726117   -3.0726117   -1.5682572  0.074240911   -3.0726117    1.5043546   396900 
  280000    1.0025003   -3.0738497   -3.0738497   -1.5701031   0.07190746   -3.0738497    1.5037466   396900 
  281000    1.0029515   -3.0728071   -3.0728071   -1.5683837  0.072000237   -3.0728071    1.5044234   396900 
  282000    1.0031998   -3.0748815   -3.0748815   -1.5700857  0.073411403   -3.0748815    1.5047959   396900 
  283000    1.0034656    -3.077179    -3.077179   -1.5719845  0.065075747    -3.077179    1.5051945   396900 
  284000    1.0034381    -3.075158    -3.075158   -1.5700046  0.068630952    -3.075158    1.5051534   396900 
  285000    1.0051406   -3.0776585   -3.0776585   -1.5699514  0.075801433   -3.0776585     1.507707   396900 
  286000    1.0044886   -3.0777113   -3.0777113   -1.5709822  0.075178502   -3.0777113    1.5067291   396900 
  287000    1.0028215   -3.0769087   -3.0769087   -1.5726803  0.073876022   -3.0769087    1.5042284   396900 
  288000    1.0012105   -3.0769642   -3.0769642   -1.5751523  0.082067898   -3.0769642    1.5018119   396900 
  289000    1.0030281   -3.0778464   -3.0778464    -1.573308  0.073077209   -3.0778464    1.5045384   396900 
  290000    1.0028972   -3.0772365   -3.0772365   -1.5728944    0.0720882   -3.0772365    1.5043421   396900 
  291000     1.002565   -3.0778112   -3.0778112   -1.5739674  0.071373764   -3.0778112    1.5038438   396900 
  292000    1.0016448   -3.0774494   -3.0774494    -1.574986  0.072814012   -3.0774494    1.5024634   396900 
  293000    1.0022829   -3.0760617   -3.0760617   -1.5726412  0.069214084   -3.0760617    1.5034205   396900 
  294000    1.0034303   -3.0777771   -3.0777771   -1.5726355  0.071742745   -3.0777771    1.5051416   396900 
  295000    1.0026718   -3.0767108   -3.0767108   -1.5727069  0.075191764   -3.0767108    1.5040039   396900 
  296000    1.0034079    -3.075638    -3.075638   -1.5705299   0.07287561    -3.075638    1.5051081   396900 
  297000    1.0047479   -3.0761077   -3.0761077   -1.5689896  0.072659701   -3.0761077    1.5071181   396900 
  298000    1.0037176   -3.0769378   -3.0769378   -1.5713651   0.07372482   -3.0769378    1.5055727   396900 
  299000    1.0044697   -3.0773929   -3.0773929   -1.5706922  0.075871039   -3.0773929    1.5067007   396900 
  300000    1.0032505   -3.0773522   -3.0773522   -1.5724803  0.076768241   -3.0773522     1.504872   396900 
  301000    1.0049262   -3.0814633   -3.0814633   -1.5740778  0.071076152   -3.0814633    1.5073855   396900 
  302000    1.0025207   -3.0806013   -3.0806013    -1.576824  0.073356564   -3.0806013    1.5037773   396900 
  303000    1.0028629   -3.0787771   -3.0787771   -1.5744866  0.076842184   -3.0787771    1.5042905   396900 
  304000    1.0031606   -3.0815907   -3.0815907   -1.5768536  0.068248145   -3.0815907    1.5047371   396900 
  305000    1.0046448   -3.0822081   -3.0822081   -1.5752447  0.074028998   -3.0822081    1.5069634   396900 
  306000    1.0036475   -3.0799872   -3.0799872   -1.5745197  0.073109765   -3.0799872    1.5054675   396900 
  307000    1.0027284    -3.079785    -3.079785   -1.5756962  0.071380371    -3.079785    1.5040888   396900 
  308000     1.004806   -3.0804983   -3.0804983   -1.5732932  0.070133319   -3.0804983    1.5072052   396900 
  309000    1.0031038   -3.0800113   -3.0800113   -1.5753594  0.077622209   -3.0800113     1.504652   396900 
  310000    1.0048349   -3.0804215   -3.0804215   -1.5731731  0.074168548   -3.0804215    1.5072485   396900 
  311000    1.0046967   -3.0832508   -3.0832508   -1.5762095  0.072312121   -3.0832508    1.5070413   396900 
  312000    1.0015034   -3.0795959   -3.0795959   -1.5773447  0.068204603   -3.0795959    1.5022512   396900 
  313000     1.001512   -3.0806534   -3.0806534   -1.5783892  0.065032659   -3.0806534    1.5022642   396900 
  314000    1.0042709   -3.0836186   -3.0836186    -1.577216  0.074824799   -3.0836186    1.5064025   396900 
  315000    1.0013188   -3.0813743   -3.0813743   -1.5793999  0.076956084   -3.0813743    1.5019744   396900 
  316000    1.0012386   -3.0821418   -3.0821418   -1.5802876  0.074532462   -3.0821418    1.5018542   396900 
  317000    1.0015415   -3.0848551   -3.0848551   -1.5825466  0.072820832   -3.0848551    1.5023085   396900 
  318000    1.0019743   -3.0865763   -3.0865763   -1.5836187  0.073628106   -3.0865763    1.5029576   396900 
  319000    1.0039512    -3.089428    -3.089428    -1.583505  0.073050144    -3.089428     1.505923   396900 
  320000    1.0034477    -3.090324    -3.090324   -1.5851562  0.075751501    -3.090324    1.5051678   396900 
  321000    1.0016271    -3.091167    -3.091167   -1.5887302  0.071807233    -3.091167    1.5024368   396900 
  322000    1.0024326   -3.0907178   -3.0907178   -1.5870727  0.072903071   -3.0907178    1.5036451   396900 
  323000    1.0002059   -3.0906167   -3.0906167   -1.5903116  0.067013111   -3.0906167    1.5003051   396900 
  324000    1.0023864   -3.0901958   -3.0901958     -1.58662  0.075040323   -3.0901958    1.5035758   396900 
  325000    1.0019704   -3.0923325   -3.0923325   -1.5893806  0.072711177   -3.0923325    1.5029518   396900 
  326000    1.0026707   -3.0906382   -3.0906382    -1.586636  0.069910073   -3.0906382    1.5040022   396900 
  327000    1.0027126   -3.0911078   -3.0911078   -1.5870427  0.073589685   -3.0911078    1.5040651   396900 
  328000    1.0013553   -3.0884271   -3.0884271   -1.5863979  0.073429691   -3.0884271    1.5020292   396900 
  329000   0.99993664   -3.0874549   -3.0874549   -1.5875537  0.070965032   -3.0874549    1.4999012   396900 
  330000    1.0028526   -3.0881515   -3.0881515   -1.5838763   0.07075744   -3.0881515    1.5042751   396900 
  331000    1.0022135   -3.0882713   -3.0882713   -1.5849549  0.071248777   -3.0882713    1.5033164   396900 
  332000    1.0031637   -3.0903121   -3.0903121   -1.5855703  0.074415106   -3.0903121    1.5047418   396900 
  333000    1.0012174   -3.0883752   -3.0883752   -1.5865529  0.075130644   -3.0883752    1.5018223   396900 
  334000    1.0018232   -3.0910066   -3.0910066   -1.5882756  0.071445585   -3.0910066     1.502731   396900 
  335000   0.99983884    -3.090465    -3.090465   -1.5907105  0.073790839    -3.090465    1.4997545   396900 
  336000    1.0007706    -3.092528    -3.092528   -1.5913759  0.069448693    -3.092528    1.5011521   396900 
  337000   0.99988091   -3.0925767   -3.0925767   -1.5927591   0.07431861   -3.0925767    1.4998176   396900 
  338000    1.0009771   -3.0943471   -3.0943471   -1.5928853  0.075786877   -3.0943471    1.5014618   396900 
  339000    1.0015082    -3.095611    -3.095611   -1.5933524  0.071440303    -3.095611    1.5022586   396900 
  340000   0.99923797   -3.0955862   -3.0955862    -1.596733  0.072933508   -3.0955862    1.4988532   396900 
  341000    1.0024736   -3.0967293   -3.0967293   -1.5930228  0.075062059   -3.0967293    1.5037065   396900 
  342000    1.0017332   -3.0967848   -3.0967848   -1.5941888  0.070920423   -3.0967848     1.502596   396900 
  343000    1.0013422   -3.0999982   -3.0999982   -1.5979887  0.069993478   -3.0999982    1.5020095   396900 
  344000    1.0016399    -3.102101    -3.102101   -1.5996449  0.070073893    -3.102101     1.502456   396900 
  345000      1.00283   -3.0986599   -3.0986599   -1.5944186  0.075742828   -3.0986599    1.5042413   396900 
  346000   0.99985004   -3.0978765   -3.0978765   -1.5981053  0.076744106   -3.0978765    1.4997713   396900 
  347000    1.0001382   -3.0993156   -3.0993156    -1.599112  0.069813976   -3.0993156    1.5002036   396900 
  348000   0.99897125   -3.0983111   -3.0983111    -1.599858  0.067343848   -3.0983111    1.4984531   396900 
  349000    1.0013385   -3.1005719   -3.1005719   -1.5985679    0.0725887   -3.1005719    1.5020039   396900 
  350000    1.0008379    -3.099616    -3.099616   -1.5983629  0.071359901    -3.099616    1.5012531   396900 
  351000    1.0009588   -3.1011907   -3.1011907   -1.5997563  0.070024159   -3.1011907    1.5014343   396900 
  352000    1.0010988   -3.1008486   -3.1008486   -1.5992042  0.072655341   -3.1008486    1.5016445   396900 
  353000    1.0029022   -3.1013365   -3.1013365   -1.5969871  0.072648937   -3.1013365    1.5043494   396900 
  354000    1.0011685   -3.0995577   -3.0995577   -1.5978087  0.072614723   -3.0995577     1.501749   396900 
  355000     1.002232   -3.1032041   -3.1032041   -1.5998598   0.07208248   -3.1032041    1.5033442   396900 
  356000    0.9986092   -3.0998063   -3.0998063   -1.6018963  0.068344696   -3.0998063      1.49791   396900 
  357000    1.0005934   -3.1014074   -3.1014074    -1.600521  0.070080556   -3.1014074    1.5008864   396900 
  358000   0.99842913   -3.1007418   -3.1007418   -1.6031019    0.0738141   -3.1007418    1.4976399   396900 
  359000   0.99970107   -3.1034613   -3.1034613   -1.6039135  0.072643504   -3.1034613    1.4995478   396900 
  360000   0.99902256   -3.1038187   -3.1038187   -1.6052886  0.070948327   -3.1038187    1.4985301   396900 
  361000   0.99991361   -3.1049298   -3.1049298   -1.6050632  0.069617795   -3.1049298    1.4998666   396900 
  362000    1.0024657   -3.1064023   -3.1064023   -1.6027075  0.071906701   -3.1064023    1.5036948   396900 
  363000   0.99874317   -3.1032722   -3.1032722   -1.6051612  0.073698448   -3.1032722     1.498111   396900 
  364000   0.99964451   -3.1051615   -3.1051615   -1.6056985   0.07315109   -3.1051615     1.499463   396900 
  365000   0.99973447   -3.1065361   -3.1065361   -1.6069382   0.07544706   -3.1065361    1.4995979   396900 
  366000     1.000109    -3.107548    -3.107548   -1.6073883  0.073429975    -3.107548    1.5001596   396900 
  367000     1.000574   -3.1104619   -3.1104619   -1.6096047  0.070286457   -3.1104619    1.5008572   396900 
  368000    1.0003685   -3.1104673   -3.1104673   -1.6099184  0.072004601   -3.1104673    1.5005489   396900 
  369000   0.99698829   -3.1085989   -3.1085989   -1.6131203  0.070699433   -3.1085989    1.4954787   396900 
  370000   0.99855709   -3.1108768   -3.1108768   -1.6130449  0.071849049   -3.1108768    1.4978319   396900 
  371000     0.998772   -3.1133481   -3.1133481   -1.6151939  0.073770126   -3.1133481    1.4981542   396900 
  372000   0.99879319   -3.1120452   -3.1120452   -1.6138592  0.068319116   -3.1120452     1.498186   396900 
  373000   0.99690823   -3.1108105   -3.1108105   -1.6154519  0.072653363   -3.1108105    1.4953586   396900 
  374000   0.99872596   -3.1113083   -3.1113083   -1.6132231  0.069952099   -3.1113083    1.4980852   396900 
  375000   0.99870763    -3.112767    -3.112767   -1.6147094   0.07111833    -3.112767    1.4980577   396900 
  376000   0.99963857   -3.1139858   -3.1139858   -1.6145318  0.069947961   -3.1139858    1.4994541   396900 
  377000    1.0001413   -3.1153034   -3.1153034   -1.6150953  0.069763208   -3.1153034    1.5002081   396900 
  378000   0.99791635   -3.1146512   -3.1146512   -1.6177805  0.065419166   -3.1146512    1.4968708   396900 
  379000   0.99930466   -3.1166297   -3.1166297   -1.6176765   0.07208951   -3.1166297    1.4989532   396900 
  380000   0.99903438   -3.1166874   -3.1166874   -1.6181396  0.066739297   -3.1166874    1.4985478   396900 
  381000   0.99869415   -3.1165821   -3.1165821   -1.6185447   0.07246619   -3.1165821    1.4980374   396900 
  382000   0.99968582   -3.1177152   -3.1177152   -1.6181902   0.07416638   -3.1177152    1.4995249   396900 
  383000   0.99807469   -3.1165586   -3.1165586   -1.6194504  0.071856711   -3.1165586    1.4971083   396900 
  384000   0.99765611   -3.1168378   -3.1168378   -1.6203574  0.071997779   -3.1168378    1.4964804   396900 
  385000    0.9996915   -3.1197756   -3.1197756   -1.6202421  0.070746808   -3.1197756    1.4995335   396900 
  386000   0.99997223   -3.1178623   -3.1178623   -1.6179077  0.068479181   -3.1178623    1.4999546   396900 
  387000   0.99870642   -3.1174855   -3.1174855   -1.6194297  0.068921948   -3.1174855    1.4980559   396900 
  388000   0.99931317   -3.1164392   -3.1164392   -1.6174733  0.073159188   -3.1164392     1.498966   396900 
  389000   0.99836588   -3.1146826   -3.1146826   -1.6171375  0.073355457   -3.1146826     1.497545   396900 
  390000   0.99671175   -3.1156479   -3.1156479   -1.6205841  0.067466591   -3.1156479    1.4950639   396900 
  391000   0.99849373   -3.1149721   -3.1149721   -1.6172353  0.070239578   -3.1149721    1.4977368   396900 
  392000   0.99888735   -3.1143328   -3.1143328   -1.6160055  0.070377909   -3.1143328    1.4983273   396900 
  393000   0.99843085   -3.1136402   -3.1136402   -1.6159977  0.075045188   -3.1136402    1.4976425   396900 
  394000    1.0007572   -3.1169727   -3.1169727   -1.6158407  0.071269938   -3.1169727     1.501132   396900 
  395000   0.99883798   -3.1148705   -3.1148705   -1.6166173   0.07400115   -3.1148705    1.4982532   396900 
  396000   0.99696988   -3.1143139   -3.1143139   -1.6188629   0.07291112   -3.1143139    1.4954511   396900 
  397000   0.99910437    -3.117025    -3.117025   -1.6183722  0.066171654    -3.117025    1.4986528   396900 
  398000   0.99885952   -3.1154079   -3.1154079   -1.6171224  0.068169428   -3.1154079    1.4982855   396900 
  399000   0.99877608   -3.1161226   -3.1161226   -1.6179622  0.071753067   -3.1161226    1.4981603   396900 
  400000   0.99776626   -3.1177363   -3.1177363   -1.6210906  0.070267263   -3.1177363    1.4966456   396900 
  401000   0.99666656   -3.1170137   -3.1170137   -1.6220177  0.067846997   -3.1170137    1.4949961   396900 
  402000   0.99749641   -3.1172689   -3.1172689   -1.6210281   0.07300553   -3.1172689    1.4962408   396900 
  403000   0.99454601    -3.118018    -3.118018   -1.6262027  0.073444555    -3.118018    1.4918153   396900 
  404000   0.99663804   -3.1204503   -3.1204503    -1.625497  0.065732264   -3.1204503    1.4949533   396900 
  405000    0.9968106   -3.1176033   -3.1176033   -1.6223911  0.073632244   -3.1176033    1.4952121   396900 
  406000   0.99733072   -3.1192505   -3.1192505   -1.6232582  0.070350667   -3.1192505    1.4959923   396900 
  407000   0.99828882   -3.1202788   -3.1202788   -1.6228493  0.068240698   -3.1202788    1.4974295   396900 
  408000   0.99634689   -3.1186355   -3.1186355   -1.6241189  0.071255587   -3.1186355    1.4945166   396900 
  409000   0.99901975   -3.1226144   -3.1226144   -1.6240885  0.071568396   -3.1226144    1.4985259   396900 
  410000   0.99908283   -3.1252626   -3.1252626   -1.6266422  0.068123524   -3.1252626    1.4986205   396900 
  411000   0.99789485   -3.1250726   -3.1250726   -1.6282341  0.070294398   -3.1250726    1.4968385   396900 
  412000   0.99785472   -3.1240756   -3.1240756   -1.6272972  0.072710572   -3.1240756    1.4967783   396900 
  413000    0.9987412   -3.1245432   -3.1245432   -1.6264352  0.071505823   -3.1245432     1.498108   396900 
  414000   0.99786877   -3.1254833   -3.1254833   -1.6286839  0.071180362   -3.1254833    1.4967994   396900 
  415000   0.99732995   -3.1256858   -3.1256858   -1.6296946  0.070842185   -3.1256858    1.4959912   396900 
  416000   0.99632754   -3.1262006   -3.1262006   -1.6317131  0.071189016   -3.1262006    1.4944876   396900 
  417000   0.99625299   -3.1290392   -3.1290392   -1.6346635  0.070113216   -3.1290392    1.4943757   396900 
  418000   0.99675443   -3.1290223   -3.1290223   -1.6338944  0.071200952   -3.1290223    1.4951279   396900 
  419000   0.99786286   -3.1317084   -3.1317084   -1.6349178  0.075879187   -3.1317084    1.4967905   396900 
  420000   0.99658195   -3.1304925   -3.1304925   -1.6356233  0.074975801   -3.1304925    1.4948692   396900 
  421000   0.99775058   -3.1309887   -3.1309887   -1.6343666  0.071899563   -3.1309887    1.4966221   396900 
  422000   0.99865309   -3.1322628   -3.1322628    -1.634287  0.070933511   -3.1322628    1.4979759   396900 
  423000   0.99800394   -3.1329288   -3.1329288   -1.6359267   0.06746977   -3.1329288    1.4970021   396900 
  424000   0.99690631   -3.1332363   -3.1332363   -1.6378806  0.070040146   -3.1332363    1.4953557   396900 
  425000   0.99575998   -3.1338958   -3.1338958   -1.6402596  0.072929643   -3.1338958    1.4936362   396900 
  426000   0.99687587   -3.1345706   -3.1345706   -1.6392606   0.07559488   -3.1345706      1.49531   396900 
  427000   0.99751558   -3.1357757   -3.1357757   -1.6395061   0.07056718   -3.1357757    1.4962696   396900 
  428000   0.99714167    -3.134609    -3.134609   -1.6389003  0.071926022    -3.134609    1.4957087   396900 
  429000   0.99624878   -3.1338552   -3.1338552   -1.6394858  0.071849757   -3.1338552    1.4943694   396900 
  430000   0.99789876   -3.1346971   -3.1346971   -1.6378527  0.067853788   -3.1346971    1.4968444   396900 
  431000   0.99773079   -3.1348118   -3.1348118   -1.6382194    0.0731336   -3.1348118    1.4965924   396900 
  432000   0.99684179   -3.1329051   -3.1329051   -1.6376462  0.068640838   -3.1329051    1.4952589   396900 
  433000   0.99631526   -3.1307734   -3.1307734   -1.6363042  0.067904992   -3.1307734    1.4944691   396900 
  434000   0.99458254   -3.1304151   -3.1304151    -1.638545  0.074927212   -3.1304151      1.49187   396900 
  435000    0.9949637   -3.1312266   -3.1312266   -1.6387848  0.069351671   -3.1312266    1.4924418   396900 
  436000   0.99833724   -3.1315677   -3.1315677   -1.6340656  0.071067885   -3.1315677    1.4975021   396900 
  437000   0.99795922   -3.1292359   -3.1292359   -1.6323008   0.07426721   -3.1292359    1.4969351   396900 
  438000   0.99796148   -3.1313615   -3.1313615   -1.6344231  0.071427911   -3.1313615    1.4969384   396900 
  439000   0.99788745   -3.1316251   -3.1316251   -1.6347977  0.067313671   -3.1316251    1.4968274   396900 
  440000   0.99528057   -3.1296235   -3.1296235   -1.6367064  0.069748773   -3.1296235    1.4929171   396900 
  441000   0.99775852   -3.1311808   -3.1311808   -1.6345468  0.070341487   -3.1311808     1.496634   396900 
  442000   0.99707378   -3.1325963   -3.1325963   -1.6369894  0.069424191   -3.1325963    1.4956069   396900 
  443000   0.99770352   -3.1317051   -3.1317051   -1.6351536  0.074430158   -3.1317051    1.4965515   396900 
  444000   0.99730784   -3.1329486   -3.1329486   -1.6369906  0.071283738   -3.1329486     1.495958   396900 
  445000   0.99681067   -3.1358843   -3.1358843    -1.640672  0.069395788   -3.1358843    1.4952122   396900 
  446000   0.99498177   -3.1358619   -3.1358619    -1.643393  0.072531539   -3.1358619    1.4924689   396900 
  447000   0.99589178   -3.1362901   -3.1362901   -1.6424562  0.073946168   -3.1362901    1.4938339   396900 
  448000   0.99408228   -3.1345776   -3.1345776   -1.6434579  0.070674491   -3.1345776    1.4911197   396900 
  449000   0.99591906     -3.13763     -3.13763   -1.6437552  0.070845669     -3.13763    1.4938748   396900 
  450000   0.99812083   -3.1394147   -3.1394147   -1.6422372   0.07425091   -3.1394147    1.4971775   396900 
  451000    0.9974356   -3.1384703   -3.1384703   -1.6423206  0.076274667   -3.1384703    1.4961496   396900 
  452000   0.99603779   -3.1385722   -3.1385722   -1.6445193  0.070018192   -3.1385722    1.4940529   396900 
  453000   0.99571575   -3.1368347   -3.1368347   -1.6432649  0.070800082   -3.1368347    1.4935699   396900 
  454000   0.99538995   -3.1392152   -3.1392152    -1.646134   0.06995328   -3.1392152    1.4930812   396900 
  455000   0.99495626   -3.1382412   -3.1382412   -1.6458106  0.073799911   -3.1382412    1.4924306   396900 
  456000   0.99594489   -3.1403764   -3.1403764   -1.6464628  0.071936914   -3.1403764    1.4939136   396900 
  457000   0.99639264   -3.1383443   -3.1383443   -1.6437591  0.073860108   -3.1383443    1.4945852   396900 
  458000   0.99619139   -3.1408259   -3.1408259   -1.6465426  0.070278566   -3.1408259    1.4942833   396900 
  459000   0.99489692    -3.140834    -3.140834   -1.6484924  0.069557861    -3.140834    1.4923416   396900 
  460000   0.99483203   -3.1409709   -3.1409709   -1.6487266   0.06751545   -3.1409709    1.4922443   396900 
  461000   0.99579464    -3.141775    -3.141775   -1.6480868  0.067332165    -3.141775    1.4936882   396900 
  462000   0.99471328   -3.1402552   -3.1402552   -1.6481891  0.070606363   -3.1402552    1.4920662   396900 
  463000   0.99372601   -3.1385984   -3.1385984   -1.6480131  0.062750513   -3.1385984    1.4905853   396900 
  464000   0.99607659   -3.1399951   -3.1399951    -1.645884  0.065392813   -3.1399951    1.4941111   396900 
  465000   0.99645877   -3.1424602   -3.1424602   -1.6477758  0.070447212   -3.1424602    1.4946844   396900 
  466000   0.99704936   -3.1433617   -3.1433617   -1.6477914  0.074718968   -3.1433617    1.4955703   396900 
  467000   0.99661372    -3.143618    -3.143618   -1.6487012  0.065352433    -3.143618    1.4949168   396900 
  468000   0.99502672   -3.1426979   -3.1426979   -1.6501615  0.073190113   -3.1426979    1.4925363   396900 
  469000   0.99592712   -3.1448559   -3.1448559    -1.650969  0.072040491   -3.1448559    1.4938869   396900 
  470000   0.99442247   -3.1456593   -3.1456593   -1.6540294  0.066342854   -3.1456593      1.49163   396900 
  471000   0.99358972   -3.1452116   -3.1452116   -1.6548308  0.067257712   -3.1452116    1.4903808   396900 
  472000   0.99416327   -3.1447298   -3.1447298   -1.6534886  0.072017743   -3.1447298    1.4912412   396900 
  473000   0.99432325   -3.1455869   -3.1455869   -1.6541058  0.064856051   -3.1455869    1.4914811   396900 
  474000   0.99489314   -3.1456133   -3.1456133   -1.6532774  0.067920929   -3.1456133    1.4923359   396900 
  475000   0.99424777   -3.1441758   -3.1441758   -1.6528079  0.068893674   -3.1441758    1.4913679   396900 
  476000   0.99468594   -3.1430819   -3.1430819   -1.6510568  0.069628213   -3.1430819    1.4920251   396900 
  477000   0.99196632    -3.141552    -3.141552   -1.6536062  0.067222301    -3.141552    1.4879457   396900 
  478000    0.9945022   -3.1439965   -3.1439965    -1.652247  0.072606614   -3.1439965    1.4917495   396900 
  479000    0.9939184   -3.1461349   -3.1461349   -1.6552611  0.069047613   -3.1461349    1.4908738   396900 
  480000   0.99554542   -3.1468055   -3.1468055   -1.6534912  0.070855544   -3.1468055    1.4933144   396900 
  481000   0.99330293   -3.1459889   -3.1459889   -1.6560383  0.067072516   -3.1459889    1.4899506   396900 
  482000   0.99388563    -3.146523    -3.146523   -1.6556983  0.068309342    -3.146523    1.4908247   396900 
  483000   0.99460402   -3.1474804   -3.1474804   -1.6555782  0.065680287   -3.1474804    1.4919023   396900 
  484000   0.99312821   -3.1462769   -3.1462769   -1.6565883  0.070949615   -3.1462769    1.4896886   396900 
  485000   0.99495774   -3.1477322   -3.1477322   -1.6552994  0.069651179   -3.1477322    1.4924328   396900 
  486000   0.99618298   -3.1496086   -3.1496086   -1.6553379  0.070449643   -3.1496086    1.4942707   396900 
  487000   0.99583141   -3.1490881   -3.1490881   -1.6553448  0.068087189   -3.1490881    1.4937433   396900 
  488000   0.99484603   -3.1495941   -3.1495941   -1.6573288  0.069076806   -3.1495941    1.4922653   396900 
  489000   0.99563248   -3.1509768   -3.1509768   -1.6575319  0.070967303   -3.1509768     1.493445   396900 
  490000   0.99606058   -3.1517019   -3.1517019   -1.6576148  0.072108524   -3.1517019    1.4940871   396900 
  491000   0.99396051    -3.151074    -3.151074    -1.660137  0.071169961    -3.151074     1.490937   396900 
  492000    0.9960276     -3.15322     -3.15322   -1.6591824  0.071111555     -3.15322    1.4940376   396900 
  493000    0.9933119   -3.1518227   -3.1518227   -1.6618586  0.069379711   -3.1518227    1.4899641   396900 
  494000   0.99545621   -3.1531687   -3.1531687   -1.6599881  0.070523491   -3.1531687    1.4931806   396900 
  495000   0.99534542   -3.1532321   -3.1532321   -1.6602178  0.073299981   -3.1532321    1.4930144   396900 
  496000   0.99346161    -3.150571    -3.150571   -1.6603824  0.074176009    -3.150571    1.4901887   396900 
  497000   0.99402325   -3.1527885   -3.1527885   -1.6617573  0.071655494   -3.1527885    1.4910311   396900 
  498000   0.99324186   -3.1514725   -3.1514725   -1.6616135  0.072260644   -3.1514725     1.489859   396900 
  499000   0.99541411   -3.1546301   -3.1546301   -1.6615127  0.070012728   -3.1546301    1.4931174   396900 
  500000   0.99348303   -3.1512062   -3.1512062   -1.6609854  0.068148304   -3.1512062    1.4902208   396900 
  501000   0.99299536   -3.1528768   -3.1528768   -1.6633876   0.06620241   -3.1528768    1.4894893   396900 
  502000   0.99508478   -3.1575384   -3.1575384    -1.664915   0.07264784   -3.1575384    1.4926234   396900 
  503000   0.99492301   -3.1545065   -3.1545065   -1.6621258  0.070167721   -3.1545065    1.4923808   396900 
  504000   0.99337501   -3.1554549   -3.1554549   -1.6653962  0.073905272   -3.1554549    1.4900588   396900 
  505000   0.99272242   -3.1575793   -3.1575793   -1.6684995  0.068441589   -3.1575793    1.4890799   396900 
  506000   0.99346164   -3.1571783   -3.1571783   -1.6669896  0.067507362   -3.1571783    1.4901887   396900 
  507000   0.99327373   -3.1594062   -3.1594062   -1.6694994   0.07101399   -3.1594062    1.4899068   396900 
  508000   0.99466987     -3.15866     -3.15866   -1.6666589  0.070560155     -3.15866     1.492001   396900 
  509000   0.99373101   -3.1598214   -3.1598214   -1.6692287  0.061658206   -3.1598214    1.4905928   396900 
  510000   0.99241395    -3.158795    -3.158795   -1.6701778  0.070649285    -3.158795    1.4886172   396900 
  511000   0.99184039   -3.1596273   -3.1596273   -1.6718705  0.068653618   -3.1596273    1.4877568   396900 
  512000   0.99176154   -3.1589973   -3.1589973   -1.6713587  0.065472707   -3.1589973    1.4876386   396900 
  513000   0.99152227   -3.1591777   -3.1591777   -1.6718981  0.067451456   -3.1591777    1.4872797   396900 
  514000   0.99256084   -3.1606252   -3.1606252   -1.6717877  0.069739191   -3.1606252    1.4888375   396900 
  515000   0.99281071    -3.162237    -3.162237   -1.6730247  0.067163344    -3.162237    1.4892123   396900 
  516000   0.99164909   -3.1601109   -3.1601109    -1.672641  0.066177131   -3.1601109    1.4874699   396900 
  517000   0.99199958    -3.157863    -3.157863   -1.6698673  0.068785673    -3.157863    1.4879956   396900 
  518000    0.9912535   -3.1583651   -3.1583651   -1.6714886  0.065665437   -3.1583651    1.4868765   396900 
  519000    0.9932748    -3.162891    -3.162891   -1.6729825  0.068953206    -3.162891    1.4899084   396900 
  520000   0.99332655   -3.1608873   -3.1608873   -1.6709013  0.071876176   -3.1608873    1.4899861   396900 
  521000    0.9931744   -3.1621384   -3.1621384   -1.6723805  0.070656214   -3.1621384    1.4897578   396900 
  522000   0.99259501   -3.1609187   -3.1609187   -1.6720299  0.071692326   -3.1609187    1.4888888   396900 
  523000   0.99450328   -3.1626991   -3.1626991   -1.6709479  0.068983159   -3.1626991    1.4917512   396900 
  524000   0.99336669   -3.1616714   -3.1616714   -1.6716251   0.06969613   -3.1616714    1.4900463   396900 
  525000   0.99430386   -3.1618373   -3.1618373   -1.6703853  0.068610753   -3.1618373     1.491452   396900 
  526000    0.9938415    -3.161633    -3.161633   -1.6708746   0.07248406    -3.161633    1.4907585   396900 
  527000   0.99276305   -3.1589065   -3.1589065   -1.6697657  0.071530827   -3.1589065    1.4891408   396900 
  528000   0.99329273   -3.1603727   -3.1603727   -1.6704373  0.066180204   -3.1603727    1.4899353   396900 
  529000   0.99409155    -3.160316    -3.160316   -1.6691825  0.071979909    -3.160316    1.4911336   396900 
  530000   0.99264903   -3.1614062   -3.1614062   -1.6724364  0.069051624   -3.1614062    1.4889698   396900 
  531000   0.99277163   -3.1613525   -3.1613525   -1.6721988  0.066054866   -3.1613525    1.4891537   396900 
  532000   0.99259351   -3.1619188   -3.1619188   -1.6730323  0.068451952   -3.1619188    1.4888865   396900 
  533000   0.99474971   -3.1658647   -3.1658647   -1.6737439  0.069398031   -3.1658647    1.4921208   396900 
  534000   0.99330951   -3.1662609   -3.1662609   -1.6763004  0.070367682   -3.1662609    1.4899605   396900 
  535000   0.99293322   -3.1683989   -3.1683989   -1.6790028  0.068162811   -3.1683989    1.4893961   396900 
  536000   0.99279133   -3.1681686   -3.1681686   -1.6789854  0.062679965   -3.1681686    1.4891832   396900 
  537000   0.99079481   -3.1678794   -3.1678794   -1.6816909  0.070271132   -3.1678794    1.4861885   396900 
  538000   0.99039486   -3.1676826   -3.1676826   -1.6820941  0.066804972   -3.1676826    1.4855886   396900 
  539000     0.990931   -3.1695951   -3.1695951   -1.6832023  0.065783233   -3.1695951    1.4863928   396900 
  540000   0.99090161    -3.170723    -3.170723   -1.6843743  0.067733688    -3.170723    1.4863487   396900 
  541000   0.99003283   -3.1711284   -3.1711284   -1.6860829   0.07107059   -3.1711284    1.4850455   396900 
  542000   0.99058202   -3.1702049   -3.1702049   -1.6843356  0.074901501   -3.1702049    1.4858693   396900 
  543000   0.99019053   -3.1710901   -3.1710901   -1.6858081   0.07180843   -3.1710901    1.4852821   396900 
  544000   0.99208657   -3.1749679   -3.1749679   -1.6868418  0.069464523   -3.1749679    1.4881261   396900 
  545000   0.99126656   -3.1736851   -3.1736851    -1.686789  0.065775431   -3.1736851    1.4868961   396900 
  546000   0.99099931   -3.1733304   -3.1733304   -1.6868352  0.068442412   -3.1733304    1.4864952   396900 
  547000   0.99113413   -3.1756833   -3.1756833   -1.6889859  0.067889815   -3.1756833    1.4866975   396900 
  548000   0.99099097   -3.1754906   -3.1754906   -1.6890079  0.064764087   -3.1754906    1.4864827   396900 
  549000   0.99020423   -3.1735111   -3.1735111   -1.6882085  0.062975467   -3.1735111    1.4853026   396900 
  550000   0.98977149   -3.1716558   -3.1716558   -1.6870023  0.069241983   -3.1716558    1.4846535   396900 
  551000   0.99115988   -3.1728701   -3.1728701    -1.686134  0.070030972   -3.1728701    1.4867361   396900 
  552000   0.98880311   -3.1732116   -3.1732116   -1.6900107    0.0646758   -3.1732116    1.4832009   396900 
  553000   0.99076438   -3.1745852   -3.1745852   -1.6884424  0.069112499   -3.1745852    1.4861428   396900 
  554000   0.98964543   -3.1765738   -3.1765738   -1.6921094  0.069535816   -3.1765738    1.4844644   396900 
  555000   0.98842261   -3.1747737   -3.1747737   -1.6921435  0.068774218   -3.1747737    1.4826302   396900 
  556000   0.98832808   -3.1735781   -3.1735781   -1.6910897  0.065342425   -3.1735781    1.4824884   396900 
  557000   0.98973126   -3.1766844   -3.1766844   -1.6920913  0.069330544   -3.1766844    1.4845932   396900 
  558000   0.98978718   -3.1759287   -3.1759287   -1.6912516  0.068233872   -3.1759287     1.484677   396900 
  559000    0.9902795   -3.1775197   -3.1775197   -1.6921042  0.063356922   -3.1775197    1.4854155   396900 
  560000   0.99168904   -3.1760319   -3.1760319   -1.6885021  0.069323475   -3.1760319    1.4875298   396900 
  561000   0.98964121   -3.1739266   -3.1739266   -1.6894685  0.068983287   -3.1739266    1.4844581   396900 
  562000   0.99091447   -3.1767028   -3.1767028   -1.6903348  0.066974399   -3.1767028     1.486368   396900 
  563000   0.98849344    -3.174038    -3.174038   -1.6913016  0.067949751    -3.174038    1.4827364   396900 
  564000   0.98835463   -3.1744406   -3.1744406   -1.6919124  0.062474546   -3.1744406    1.4825282   396900 
  565000   0.98903843   -3.1767176   -3.1767176   -1.6931636  0.066963434   -3.1767176    1.4835539   396900 
  566000    0.9890916   -3.1756506   -3.1756506   -1.6920169  0.065736812   -3.1756506    1.4836337   396900 
  567000   0.98939872   -3.1762534   -3.1762534   -1.6921591  0.064026687   -3.1762534    1.4840943   396900 
  568000    0.9890043   -3.1761071   -3.1761071   -1.6926044  0.065316062   -3.1761071    1.4835027   396900 
  569000   0.99019408   -3.1767064   -3.1767064    -1.691419  0.064675967   -3.1767064    1.4852874   396900 
  570000   0.98893634   -3.1745597   -3.1745597    -1.691159  0.066363833   -3.1745597    1.4834008   396900 
  571000   0.98858005   -3.1747088   -3.1747088   -1.6918425  0.063345689   -3.1747088    1.4828663   396900 
  572000   0.99006092   -3.1752678   -3.1752678   -1.6901802  0.069015209   -3.1752678    1.4850876   396900 
  573000   0.99059939   -3.1738642   -3.1738642   -1.6879688   0.06711877   -3.1738642    1.4858953   396900 
  574000   0.99098874   -3.1760495   -3.1760495   -1.6895702  0.065560112   -3.1760495    1.4864794   396900 
  575000   0.99123466   -3.1742154   -3.1742154   -1.6873671  0.065535818   -3.1742154    1.4868482   396900 
  576000    0.9909914   -3.1743829   -3.1743829   -1.6878996   0.06542316   -3.1743829    1.4864834   396900 
  577000   0.99183811   -3.1751446   -3.1751446   -1.6873912  0.063093468   -3.1751446    1.4877534   396900 
  578000   0.98959764   -3.1733256   -3.1733256   -1.6889329  0.067762451   -3.1733256    1.4843927   396900 
  579000   0.98957362   -3.1751684   -3.1751684   -1.6908117  0.066603127   -3.1751684    1.4843567   396900 
  580000   0.98924657   -3.1738672   -3.1738672   -1.6900011  0.063519901   -3.1738672    1.4838661   396900 
  581000   0.99077155   -3.1749808   -3.1749808   -1.6888273  0.062714463   -3.1749808    1.4861536   396900 
  582000    0.9895032    -3.174887    -3.174887   -1.6906359  0.062141393    -3.174887    1.4842511   396900 
  583000   0.98998413   -3.1747563   -3.1747563   -1.6897838   0.07061058   -3.1747563    1.4849724   396900 
  584000   0.99009789   -3.1762088   -3.1762088   -1.6910657  0.065587949   -3.1762088    1.4851431   396900 
  585000   0.99031002   -3.1770066   -3.1770066   -1.6915454  0.070584496   -3.1770066    1.4854613   396900 
  586000   0.98901707   -3.1775996   -3.1775996   -1.6940777  0.066165073   -3.1775996    1.4835219   396900 
  587000   0.99061318   -3.1798678   -3.1798678   -1.6939518  0.068929982   -3.1798678     1.485916   396900 
  588000   0.99006273    -3.178292    -3.178292   -1.6932016  0.070234208    -3.178292    1.4850904   396900 
  589000   0.99020645   -3.1786494   -3.1786494   -1.6933435  0.063803267   -3.1786494    1.4853059   396900 
  590000   0.99109402   -3.1786919   -3.1786919   -1.6920546  0.066966943   -3.1786919    1.4866373   396900 
  591000   0.99094582    -3.179653    -3.179653    -1.693238  0.067974872    -3.179653     1.486415   396900 
  592000   0.98983086   -3.1809062   -3.1809062   -1.6961636  0.066996148   -3.1809062    1.4847426   396900 
  593000   0.99001318   -3.1819909   -3.1819909   -1.6969749  0.063228643   -3.1819909     1.485016   396900 
  594000   0.98871363   -3.1801037   -3.1801037    -1.697037  0.068500484   -3.1801037    1.4830667   396900 
  595000   0.98816448   -3.1823839   -3.1823839   -1.7001409  0.060475518   -3.1823839     1.482243   396900 
  596000    0.9889105    -3.182015    -3.182015    -1.698653  0.065725964    -3.182015     1.483362   396900 
  597000    0.9886179   -3.1817219   -3.1817219   -1.6987988  0.068627506   -3.1817219    1.4829231   396900 
  598000   0.98975082   -3.1829624   -3.1829624   -1.6983399  0.065516286   -3.1829624    1.4846225   396900 
  599000   0.98998592   -3.1841261   -3.1841261    -1.699151   0.06541223   -3.1841261    1.4849751   396900 
  600000   0.99063462   -3.1829357   -3.1829357   -1.6969875   0.06485335   -3.1829357    1.4859482   396900 
  601000    0.9889303   -3.1811877   -3.1811877    -1.697796  0.067208751   -3.1811877    1.4833917   396900 
  602000   0.99077828   -3.1844272   -3.1844272   -1.6982636  0.066888291   -3.1844272    1.4861637   396900 
  603000   0.98880961   -3.1819051   -3.1819051   -1.6986944  0.073313514   -3.1819051    1.4832107   396900 
  604000   0.98941082   -3.1852887   -3.1852887   -1.7011762  0.066047282   -3.1852887    1.4841125   396900 
  605000    0.9880868   -3.1845582   -3.1845582   -1.7024318  0.066559897   -3.1845582    1.4821265   396900 
  606000   0.98948007   -3.1863496   -3.1863496   -1.7021332   0.06383764   -3.1863496    1.4842164   396900 
  607000   0.99013357   -3.1887022   -3.1887022   -1.7035056  0.067273881   -3.1887022    1.4851966   396900 
  608000   0.98810902   -3.1883183   -3.1883183   -1.7061585  0.065440861   -3.1883183    1.4821598   396900 
  609000    0.9870713   -3.1880603   -3.1880603   -1.7074571  0.068267073   -3.1880603    1.4806032   396900 
  610000   0.98728517     -3.18951     -3.18951    -1.708586  0.067357761     -3.18951     1.480924   396900 
  611000    0.9887871    -3.189248    -3.189248   -1.7060711  0.064907056    -3.189248    1.4831769   396900 
  612000   0.98770053   -3.1867946   -3.1867946   -1.7052475   0.06488685   -3.1867946    1.4815471   396900 
  613000   0.99045149   -3.1898641   -3.1898641   -1.7041906  0.066652113   -3.1898641    1.4856735   396900 
  614000   0.98730364   -3.1879903   -3.1879903   -1.7070386  0.069125255   -3.1879903    1.4809517   396900 
  615000   0.98743833   -3.1899953   -3.1899953   -1.7088415  0.063522921   -3.1899953    1.4811538   396900 
  616000   0.98867251   -3.1934079   -3.1934079   -1.7104028   0.06316943   -3.1934079     1.483005   396900 
  617000   0.98675454   -3.1895733   -3.1895733   -1.7094452  0.065222851   -3.1895733    1.4801281   396900 
  618000   0.98934741   -3.1913779   -3.1913779   -1.7073605  0.064573905   -3.1913779    1.4840174   396900 
  619000   0.99023698   -3.1927305   -3.1927305   -1.7073788  0.065010074   -3.1927305    1.4853517   396900 
  620000   0.98771398   -3.1879077   -3.1879077   -1.7063405  0.066828059   -3.1879077    1.4815672   396900 
  621000   0.98849472   -3.1894956   -3.1894956   -1.7067572  0.065724301   -3.1894956    1.4827384   396900 
  622000    0.9879227   -3.1907096   -3.1907096   -1.7088293  0.066773165   -3.1907096    1.4818803   396900 
  623000    0.9905519   -3.1932691   -3.1932691    -1.707445  0.066070347   -3.1932691    1.4858241   396900 
  624000   0.98789768   -3.1929573   -3.1929573   -1.7111145  0.059434111   -3.1929573    1.4818428   396900 
  625000   0.98774108   -3.1918231   -3.1918231   -1.7102153  0.064421655   -3.1918231    1.4816079   396900 
  626000   0.98795992   -3.1926862   -3.1926862     -1.71075  0.061374379   -3.1926862    1.4819361   396900 
  627000   0.98837351    -3.190263    -3.190263   -1.7077064  0.065192383    -3.190263    1.4825565   396900 
  628000   0.98814884   -3.1904521   -3.1904521   -1.7082325  0.068418767   -3.1904521    1.4822195   396900 
  629000   0.98694945   -3.1922757   -3.1922757   -1.7118553  0.060455545   -3.1922757    1.4804204   396900 
  630000   0.98941513   -3.1924365   -3.1924365   -1.7083175  0.070612893   -3.1924365     1.484119   396900 
  631000   0.98688414   -3.1910583   -3.1910583   -1.7107358  0.065868075   -3.1910583    1.4803225   396900 
  632000    0.9883022   -3.1927121   -3.1927121   -1.7102626  0.069551885   -3.1927121    1.4824496   396900 
  633000   0.98825579   -3.1923014   -3.1923014   -1.7099214   0.07012436   -3.1923014    1.4823799   396900 
  634000   0.98933319   -3.1944851   -3.1944851    -1.710489   0.06604401   -3.1944851     1.483996   396900 
  635000   0.98881619   -3.1960095   -3.1960095    -1.712789  0.069432096   -3.1960095    1.4832206   396900 
  636000   0.99018791   -3.1971503   -3.1971503   -1.7118721  0.069459422   -3.1971503    1.4852781   396900 
  637000   0.98696229   -3.1933455   -3.1933455   -1.7129058  0.064046304   -3.1933455    1.4804397   396900 
  638000   0.98770062    -3.194447    -3.194447   -1.7128998  0.066655395    -3.194447    1.4815472   396900 
  639000   0.98843318   -3.1951217   -3.1951217   -1.7124757  0.069974556   -3.1951217     1.482646   396900 
  640000   0.98869351   -3.1934375   -3.1934375   -1.7104009    0.0766041   -3.1934375    1.4830365   396900 
  641000   0.98744045    -3.193943    -3.193943    -1.712786    0.0627142    -3.193943    1.4811569   396900 
  642000   0.98621173   -3.1968458   -3.1968458   -1.7175319  0.060592572   -3.1968458    1.4793139   396900 
  643000   0.98746394    -3.197252    -3.197252   -1.7160599  0.066057099    -3.197252    1.4811922   396900 
  644000   0.98625256    -3.195308    -3.195308   -1.7159329  0.069650831    -3.195308    1.4793751   396900 
  645000   0.98765106   -3.1966324   -3.1966324   -1.7151595  0.064843328   -3.1966324    1.4814729   396900 
  646000   0.98791878   -3.1970735   -3.1970735   -1.7151991  0.064441597   -3.1970735    1.4818744   396900 
  647000   0.98675084   -3.1966582   -3.1966582   -1.7165357  0.064888876   -3.1966582    1.4801225   396900 
  648000   0.98736176    -3.197684    -3.197684   -1.7166451  0.062883722    -3.197684    1.4810389   396900 
  649000   0.98817129   -3.2008208   -3.2008208   -1.7185676  0.062407939   -3.2008208    1.4822532   396900 
  650000   0.98745875   -3.2000314   -3.2000314    -1.718847  0.065902045   -3.2000314    1.4811844   396900 
  651000   0.98598257   -3.2006968   -3.2006968   -1.7217266  0.065593016   -3.2006968    1.4789701   396900 
  652000   0.98636213   -3.2024031   -3.2024031   -1.7228637  0.060514336   -3.2024031    1.4795395   396900 
  653000   0.98605672   -3.2028694   -3.2028694    -1.723788   0.06568084   -3.2028694    1.4790813   396900 
  654000   0.98776719   -3.2023835   -3.2023835   -1.7207365  0.066923284   -3.2023835    1.4816471   396900 
  655000   0.98938543   -3.2036014   -3.2036014    -1.719527  0.069444492   -3.2036014    1.4840744   396900 
  656000    0.9873586   -3.2022111   -3.2022111   -1.7211769  0.062531161   -3.2022111    1.4810342   396900 
  657000   0.98641718   -3.1990561   -3.1990561    -1.719434  0.067900967   -3.1990561     1.479622   396900 
  658000   0.98623275   -3.2004643   -3.2004643   -1.7211189  0.066691237   -3.2004643    1.4793454   396900 
  659000   0.98522252   -3.1996564   -3.1996564   -1.7218263  0.062419203   -3.1996564    1.4778301   396900 
  660000   0.98646431   -3.2024574   -3.2024574   -1.7227647   0.06429833   -3.2024574    1.4796927   396900 
  661000   0.98666668   -3.2021555   -3.2021555   -1.7221592  0.067244615   -3.2021555    1.4799963   396900 
  662000   0.98863518   -3.2065287   -3.2065287   -1.7235797  0.064001689   -3.2065287     1.482949   396900 
  663000   0.98886691   -3.2067725   -3.2067725   -1.7234759  0.067230884   -3.2067725    1.4832966   396900 
  664000   0.98864436    -3.207659    -3.207659   -1.7246962  0.066665891    -3.207659    1.4829628   396900 
  665000   0.98539343   -3.2047372   -3.2047372   -1.7266507  0.064999983   -3.2047372    1.4780864   396900 
  666000   0.98663894   -3.2066053   -3.2066053   -1.7266506  0.069292638   -3.2066053    1.4799547   396900 
  667000   0.98576725   -3.2053027   -3.2053027   -1.7266556  0.068469627   -3.2053027    1.4786471   396900 
  668000   0.98678647   -3.2088496   -3.2088496   -1.7286737  0.065975804   -3.2088496     1.480176   396900 
  669000   0.98652247   -3.2080767   -3.2080767   -1.7282967  0.061860796   -3.2080767      1.47978   396900 
  670000   0.98780815   -3.2076041   -3.2076041   -1.7258956  0.062200618   -3.2076041    1.4817085   396900 
  671000   0.98528794   -3.2048495   -3.2048495   -1.7269213  0.065253937   -3.2048495    1.4779282   396900 
  672000   0.98679203    -3.205617    -3.205617   -1.7254327  0.064114017    -3.205617    1.4801843   396900 
  673000   0.98717739   -3.2041143   -3.2041143   -1.7233519  0.065694077   -3.2041143    1.4807624   396900 
  674000   0.98507687   -3.2057907   -3.2057907   -1.7281791  0.066685003   -3.2057907    1.4776116   396900 
  675000   0.98643345   -3.2066228   -3.2066228   -1.7269764  0.061492453   -3.2066228    1.4796464   396900 
  676000   0.98540269   -3.2077108   -3.2077108   -1.7296105  0.063170129   -3.2077108    1.4781003   396900 
  677000   0.98449911   -3.2073737   -3.2073737   -1.7306288  0.062863349   -3.2073737    1.4767449   396900 
  678000    0.9842563   -3.2087142   -3.2087142   -1.7323335   0.06144012   -3.2087142    1.4763807   396900 
  679000   0.98430933   -3.2086608   -3.2086608   -1.7322006  0.067599953   -3.2086608    1.4764603   396900 
  680000   0.98514042   -3.2104583   -3.2104583   -1.7327514  0.061901186   -3.2104583    1.4777069   396900 
  681000   0.98658805   -3.2128443   -3.2128443    -1.732966  0.068490921   -3.2128443    1.4798783   396900 
  682000   0.98698395   -3.2140115   -3.2140115   -1.7335393  0.065120626   -3.2140115    1.4804722   396900 
  683000   0.98482762   -3.2127977   -3.2127977     -1.73556  0.067893642   -3.2127977    1.4772377   396900 
  684000   0.98649064   -3.2128752   -3.2128752    -1.733143  0.068061867   -3.2128752    1.4797322   396900 
  685000   0.98715101   -3.2145491   -3.2145491   -1.7338263  0.068299701   -3.2145491    1.4807228   396900 
  686000   0.98544647   -3.2128044   -3.2128044   -1.7346384  0.073508665   -3.2128044     1.478166   396900 
  687000   0.98402193   -3.2123708   -3.2123708   -1.7363416  0.065588514   -3.2123708    1.4760292   396900 
  688000   0.98062607    -3.210457    -3.210457   -1.7395216  0.062470813    -3.210457    1.4709354   396900 
  689000    0.9836826   -3.2147244   -3.2147244   -1.7392043  0.065556738   -3.2147244    1.4755202   396900 
  690000   0.98389996   -3.2147066   -3.2147066   -1.7388603  0.064216578   -3.2147066    1.4758462   396900 
  691000    0.9867444   -3.2152385   -3.2152385   -1.7351256  0.070368464   -3.2152385    1.4801129   396900 
  692000   0.98495892   -3.2126408   -3.2126408   -1.7352061  0.068412178   -3.2126408    1.4774347   396900 
  693000   0.98358923    -3.213405    -3.213405   -1.7380249  0.061472354    -3.213405    1.4753801   396900 
  694000   0.98341919   -3.2110847   -3.2110847   -1.7359596  0.064129011   -3.2110847    1.4751251   396900 
  695000   0.98528098   -3.2144558   -3.2144558    -1.736538  0.062949137   -3.2144558    1.4779177   396900 
  696000   0.98405158   -3.2163041   -3.2163041   -1.7402305  0.065392623   -3.2163041    1.4760737   396900 
  697000   0.98381447   -3.2165008   -3.2165008   -1.7407829  0.058531202   -3.2165008     1.475718   396900 
  698000   0.98257517   -3.2150843   -3.2150843   -1.7412252  0.060849598   -3.2150843     1.473859   396900 
  699000   0.98373443   -3.2153189   -3.2153189    -1.739721  0.064591708   -3.2153189    1.4755979   396900 
  700000    0.9834713   -3.2160746   -3.2160746   -1.7408713  0.066097588   -3.2160746    1.4752032   396900 
  701000   0.98357295    -3.214179    -3.214179   -1.7388233   0.06729545    -3.214179    1.4753557   396900 
  702000   0.98674384   -3.2186183   -3.2186183   -1.7385063  0.068827857   -3.2186183     1.480112   396900 
  703000    0.9852613   -3.2188415   -3.2188415   -1.7409532  0.065424643   -3.2188415    1.4778882   396900 
  704000   0.98535891   -3.2215124   -3.2215124   -1.7434777  0.061165073   -3.2215124    1.4780346   396900 
  705000   0.98387611   -3.2194646   -3.2194646   -1.7436541  0.072055097   -3.2194646    1.4758104   396900 
  706000    0.9859212     -3.22199     -3.22199   -1.7431119  0.062820813     -3.22199    1.4788781   396900 
  707000   0.98396566   -3.2233014   -3.2233014   -1.7473567  0.063340625   -3.2233014    1.4759448   396900 
  708000    0.9821143   -3.2210981   -3.2210981   -1.7479303  0.063621945   -3.2210981    1.4731677   396900 
  709000   0.98352187   -3.2224732   -3.2224732   -1.7471941  0.066423896   -3.2224732    1.4752791   396900 
  710000   0.98572087   -3.2258921   -3.2258921   -1.7473146  0.067959521   -3.2258921    1.4785776   396900 
  711000   0.98429398   -3.2218958   -3.2218958   -1.7454585  0.065525695   -3.2218958    1.4764373   396900 
  712000   0.98537332   -3.2243068   -3.2243068   -1.7462506  0.068542115   -3.2243068    1.4780563   396900 
  713000   0.98324653   -3.2236204   -3.2236204   -1.7487543  0.063720878   -3.2236204    1.4748661   396900 
  714000   0.98280931   -3.2220753   -3.2220753    -1.747865  0.061903365   -3.2220753    1.4742103   396900 
  715000   0.98507031   -3.2225138   -3.2225138   -1.7449121  0.067103915   -3.2225138    1.4776017   396900 
  716000   0.98524922   -3.2255552   -3.2255552   -1.7476851  0.066118391   -3.2255552    1.4778701   396900 
  717000    0.9838575   -3.2255071   -3.2255071   -1.7497246  0.065408431   -3.2255071    1.4757825   396900 
  718000   0.98395065   -3.2267716   -3.2267716   -1.7508493  0.063515825   -3.2267716    1.4759223   396900 
  719000   0.98332675   -3.2261781   -3.2261781   -1.7511917  0.062608066   -3.2261781    1.4749864   396900 
  720000   0.98111291   -3.2229401   -3.2229401   -1.7512744  0.068106738   -3.2229401    1.4716657   396900 
  721000   0.98253957   -3.2253083   -3.2253083   -1.7515027  0.060514528   -3.2253083    1.4738056   396900 
  722000   0.98217747   -3.2250938   -3.2250938   -1.7518313  0.063517276   -3.2250938    1.4732625   396900 
  723000   0.98314777   -3.2245316   -3.2245316   -1.7498137  0.062832551   -3.2245316    1.4747179   396900 
  724000    0.9849898   -3.2282584   -3.2282584   -1.7507774  0.067886497   -3.2282584     1.477481   396900 
  725000   0.98367103   -3.2277959   -3.2277959   -1.7522931  0.060879184   -3.2277959    1.4755028   396900 
  726000   0.98300557   -3.2256498   -3.2256498   -1.7511452  0.059448224   -3.2256498    1.4745046   396900 
  727000   0.98420104   -3.2277916   -3.2277916   -1.7514938  0.064745017   -3.2277916    1.4762978   396900 
  728000   0.98509917   -3.2291697   -3.2291697   -1.7515247  0.064016982   -3.2291697     1.477645   396900 
  729000   0.98450133   -3.2275619   -3.2275619   -1.7508136  0.070625517   -3.2275619    1.4767483   396900 
  730000   0.98200287   -3.2277081   -3.2277081   -1.7547075  0.061661339   -3.2277081    1.4730006   396900 
  731000   0.98355137   -3.2291316   -3.2291316   -1.7538083  0.062236708   -3.2291316    1.4753233   396900 
  732000   0.98329507   -3.2276678   -3.2276678   -1.7527289  0.066953321   -3.2276678    1.4749389   396900 
  733000   0.98368116   -3.2281119   -3.2281119   -1.7525939  0.068719524   -3.2281119     1.475518   396900 
  734000    0.9822741   -3.2266046   -3.2266046   -1.7531972  0.070967257   -3.2266046    1.4734074   396900 
  735000   0.98204749   -3.2279736   -3.2279736    -1.754906  0.062289426   -3.2279736    1.4730675   396900 
  736000   0.98317751   -3.2294473   -3.2294473   -1.7546848  0.058722096   -3.2294473    1.4747626   396900 
  737000   0.98368473   -3.2303246   -3.2303246   -1.7548012  0.064327255   -3.2303246    1.4755234   396900 
  738000   0.98343398   -3.2328301   -3.2328301   -1.7576828  0.060206625   -3.2328301    1.4751473   396900 
  739000   0.98596728     -3.23277     -3.23277   -1.7538228  0.060491767     -3.23277    1.4789472   396900 
  740000   0.98402035    -3.231826    -3.231826   -1.7557992  0.062802375    -3.231826    1.4760268   396900 
  741000   0.98400767   -3.2309479   -3.2309479   -1.7549401  0.066871776   -3.2309479    1.4760078   396900 
  742000   0.98273523   -3.2296176   -3.2296176   -1.7555185  0.068777448   -3.2296176    1.4740991   396900 
  743000    0.9831626   -3.2320479   -3.2320479   -1.7573077  0.062935866   -3.2320479    1.4747402   396900 
  744000   0.98340049   -3.2300051   -3.2300051   -1.7549081  0.066472192   -3.2300051     1.475097   396900 
  745000   0.98395074   -3.2324117   -3.2324117   -1.7564893  0.065057115   -3.2324117    1.4759224   396900 
  746000   0.98235353   -3.2310493   -3.2310493   -1.7575227  0.062495119   -3.2310493    1.4735266   396900 
  747000   0.98254022    -3.231721    -3.231721   -1.7579144  0.064225187    -3.231721    1.4738066   396900 
  748000    0.9817626    -3.231101    -3.231101   -1.7584608  0.063949209    -3.231101    1.4726402   396900 
  749000   0.98185184   -3.2321539   -3.2321539   -1.7593798  0.064082695   -3.2321539     1.472774   396900 
  750000   0.98203797   -3.2332377   -3.2332377   -1.7601845  0.065604639   -3.2332377    1.4730532   396900 
  751000   0.98338709   -3.2332247   -3.2332247   -1.7581478  0.062337826   -3.2332247    1.4750769   396900 
  752000   0.98486893   -3.2312338   -3.2312338   -1.7539341  0.069521122   -3.2312338    1.4772997   396900 
  753000   0.98202447   -3.2307498   -3.2307498   -1.7577168  0.058525761   -3.2307498     1.473033   396900 
  754000   0.98443542   -3.2330244   -3.2330244    -1.756375  0.067676718   -3.2330244    1.4766494   396900 
  755000   0.98093655   -3.2322998   -3.2322998   -1.7608987  0.068322337   -3.2322998    1.4714011   396900 
  756000   0.98152873   -3.2338193   -3.2338193   -1.7615299  0.061544663   -3.2338193    1.4722894   396900 
  757000   0.98113737   -3.2324682   -3.2324682   -1.7607659   0.06522182   -3.2324682    1.4717023   396900 
  758000   0.98037013   -3.2329271   -3.2329271   -1.7623756  0.062923189   -3.2329271    1.4705515   396900 
  759000   0.98169398   -3.2369449   -3.2369449   -1.7644077  0.066810017   -3.2369449    1.4725373   396900 
  760000   0.98329827    -3.238474    -3.238474   -1.7635303  0.064817794    -3.238474    1.4749437   396900 
  761000   0.98205476   -3.2348238   -3.2348238   -1.7617454   0.05948621   -3.2348238    1.4730784   396900 
  762000   0.98035545   -3.2333033   -3.2333033   -1.7627738  0.061577191   -3.2333033    1.4705295   396900 
  763000   0.98294294   -3.2356542   -3.2356542   -1.7612435  0.062483176   -3.2356542    1.4744107   396900 
  764000   0.98428263   -3.2366802   -3.2366802     -1.76026  0.062588298   -3.2366802    1.4764202   396900 
  765000   0.98276871   -3.2348116   -3.2348116   -1.7606622  0.069187049   -3.2348116    1.4741494   396900 
  766000   0.98068646   -3.2330964   -3.2330964   -1.7620704  0.062221657   -3.2330964     1.471026   396900 
  767000   0.98039101   -3.2349248   -3.2349248    -1.764342  0.067370853   -3.2349248    1.4705828   396900 
  768000   0.98292478   -3.2378731   -3.2378731   -1.7634897  0.063946017   -3.2378731    1.4743835   396900 
  769000   0.98198193   -3.2360641   -3.2360641   -1.7630949  0.066573223   -3.2360641    1.4729692   396900 
  770000   0.98039626   -3.2351838   -3.2351838   -1.7645931   0.06029222   -3.2351838    1.4705907   396900 
  771000   0.98240749    -3.237116    -3.237116   -1.7635085  0.062564784    -3.237116    1.4736075   396900 
  772000   0.98048004   -3.2356346   -3.2356346   -1.7649183  0.060980734   -3.2356346    1.4707164   396900 
  773000   0.98105892   -3.2373209   -3.2373209   -1.7657362  0.063863077   -3.2373209    1.4715847   396900 
  774000   0.98086068   -3.2357113   -3.2357113    -1.764424  0.061451506   -3.2357113    1.4712873   396900 
  775000   0.98072147   -3.2365661   -3.2365661   -1.7654876    0.0595021   -3.2365661    1.4710785   396900 
  776000   0.98160993   -3.2372721   -3.2372721   -1.7648609  0.061781532   -3.2372721    1.4724112   396900 
  777000   0.98195534   -3.2359935   -3.2359935   -1.7630642  0.068612973   -3.2359935    1.4729293   396900 
  778000   0.98289468   -3.2360884   -3.2360884   -1.7617501  0.064093535   -3.2360884    1.4743383   396900 
  779000   0.98184991   -3.2369326   -3.2369326   -1.7641614   0.06090701   -3.2369326    1.4727712   396900 
  780000   0.98002878   -3.2360523   -3.2360523   -1.7660128   0.06656478   -3.2360523    1.4700395   396900 
  781000   0.98105055   -3.2359979   -3.2359979   -1.7644258  0.058106325   -3.2359979    1.4715721   396900 
  782000   0.98022262   -3.2339558   -3.2339558   -1.7636256  0.067912915   -3.2339558    1.4703302   396900 
  783000   0.98107574   -3.2346125   -3.2346125   -1.7630026  0.062525916   -3.2346125    1.4716099   396900 
  784000   0.98054444   -3.2365031   -3.2365031   -1.7656901  0.059386777   -3.2365031     1.470813   396900 
  785000   0.97988801   -3.2337171   -3.2337171   -1.7638888  0.061059006   -3.2337171    1.4698283   396900 
  786000   0.97976499    -3.234769    -3.234769   -1.7651252  0.063381944    -3.234769    1.4696438   396900 
  787000    0.9814288   -3.2383038   -3.2383038   -1.7661643  0.063681146   -3.2383038    1.4721395   396900 
  788000   0.98208478   -3.2385092   -3.2385092   -1.7653858  0.066540261   -3.2385092    1.4731235   396900 
  789000    0.9795011   -3.2392505   -3.2392505   -1.7700025  0.061762802   -3.2392505    1.4692479   396900 
  790000   0.97984495   -3.2392024   -3.2392024   -1.7694386  0.060058818   -3.2392024    1.4697637   396900 
  791000   0.98012062   -3.2434243   -3.2434243   -1.7732471  0.066093896   -3.2434243    1.4701772   396900 
  792000   0.97955026    -3.242084    -3.242084   -1.7727623  0.061747341    -3.242084    1.4693217   396900 
  793000    0.9796524   -3.2427393   -3.2427393   -1.7732644  0.068889249   -3.2427393    1.4694749   396900 
  794000   0.98044148   -3.2441894   -3.2441894   -1.7735309  0.066130112   -3.2441894    1.4706585   396900 
  795000   0.98184077   -3.2456936   -3.2456936   -1.7729361  0.061705399   -3.2456936    1.4727574   396900 
  796000   0.98201577   -3.2468306   -3.2468306   -1.7738106   0.05880732   -3.2468306    1.4730199   396900 
  797000   0.98091731   -3.2450088   -3.2450088   -1.7736365  0.060628594   -3.2450088    1.4713723   396900 
  798000   0.98249469   -3.2446709   -3.2446709   -1.7709326  0.059315692   -3.2446709    1.4737383   396900 
  799000   0.98082499   -3.2458217   -3.2458217   -1.7745879  0.069040415   -3.2458217    1.4712338   396900 
  800000   0.98060564   -3.2479015   -3.2479015   -1.7769968  0.064653114   -3.2479015    1.4709048   396900 
  801000   0.98061786    -3.245487    -3.245487    -1.774564  0.063981742    -3.245487    1.4709231   396900 
  802000   0.98201024   -3.2479355   -3.2479355   -1.7749238  0.063995912   -3.2479355    1.4730117   396900 
  803000   0.98169405   -3.2475155   -3.2475155   -1.7749782  0.066353062   -3.2475155    1.4725374   396900 
  804000   0.98192866   -3.2479427   -3.2479427   -1.7750534  0.062769214   -3.2479427    1.4728893   396900 
  805000   0.98174534   -3.2472488   -3.2472488   -1.7746345  0.058692683   -3.2472488    1.4726143   396900 
  806000   0.97901693   -3.2449028   -3.2449028   -1.7763811   0.06754275   -3.2449028    1.4685217   396900 
  807000    0.9786804   -3.2448114   -3.2448114   -1.7767945  0.066071452   -3.2448114    1.4680169   396900 
  808000   0.98236718    -3.250277    -3.250277     -1.77673  0.057159173    -3.250277    1.4735471   396900 
  809000   0.97957254   -3.2438282   -3.2438282   -1.7744731  0.060260032   -3.2438282    1.4693551   396900 
  810000   0.98249271   -3.2463553   -3.2463553     -1.77262  0.059077176   -3.2463553    1.4737353   396900 
  811000   0.97872398   -3.2434817   -3.2434817   -1.7753995   0.06315183   -3.2434817    1.4680823   396900 
  812000   0.98010057   -3.2475531   -3.2475531    -1.777406  0.059375984   -3.2475531    1.4701471   396900 
  813000   0.97994954   -3.2466968   -3.2466968   -1.7767762  0.058971734   -3.2466968    1.4699206   396900 
  814000    0.9795924   -3.2465418   -3.2465418   -1.7771569  0.059578213   -3.2465418    1.4693849   396900 
  815000   0.98020145   -3.2450932   -3.2450932   -1.7747947  0.061310007   -3.2450932    1.4702985   396900 
  816000   0.97967523   -3.2456867   -3.2456867   -1.7761775  0.059261944   -3.2456867    1.4695091   396900 
  817000   0.98040976   -3.2476228   -3.2476228   -1.7770119  0.061402872   -3.2476228    1.4706109   396900 
  818000    0.9790939    -3.249434    -3.249434   -1.7807969   0.05781204    -3.249434    1.4686371   396900 
  819000   0.97860904   -3.2467133   -3.2467133   -1.7788034  0.063172664   -3.2467133    1.4679099   396900 
  820000   0.97811451   -3.2474196   -3.2474196   -1.7802516  0.061074101   -3.2474196    1.4671681   396900 
  821000   0.98015434   -3.2482927   -3.2482927   -1.7780649  0.059580842   -3.2482927    1.4702278   396900 
  822000   0.98091492   -3.2492996   -3.2492996   -1.7779309  0.061948972   -3.2492996    1.4713687   396900 
  823000   0.97931303    -3.247063    -3.247063   -1.7780972   0.06044359    -3.247063    1.4689658   396900 
  824000   0.98107857   -3.2496373   -3.2496373   -1.7780232  0.067014157   -3.2496373    1.4716141   396900 
  825000   0.97980575   -3.2482662   -3.2482662   -1.7785613  0.063143699   -3.2482662    1.4697049   396900 
  826000   0.97881219   -3.2485912   -3.2485912   -1.7803767  0.062031994   -3.2485912    1.4682146   396900 
  827000   0.98011117   -3.2500219   -3.2500219   -1.7798588  0.057297051   -3.2500219    1.4701631   396900 
  828000   0.97950886   -3.2495262   -3.2495262   -1.7802666  0.058943133   -3.2495262    1.4692596   396900 
  829000   0.97959987   -3.2491168   -3.2491168   -1.7797207  0.060629095   -3.2491168    1.4693961   396900 
  830000   0.97875576   -3.2469297   -3.2469297   -1.7787997  0.058816996   -3.2469297    1.4681299   396900 
  831000   0.97915444   -3.2512479   -3.2512479   -1.7825199  0.058151902   -3.2512479     1.468728   396900 
  832000   0.97751879   -3.2494771   -3.2494771   -1.7832026  0.056715524   -3.2494771    1.4662745   396900 
  833000   0.98124516   -3.2536323   -3.2536323   -1.7817683    0.0601286   -3.2536323     1.471864   396900 
  834000   0.97811727   -3.2511251   -3.2511251   -1.7839529  0.058720463   -3.2511251    1.4671722   396900 
  835000   0.98038886     -3.25327     -3.25327   -1.7826904  0.058343848     -3.25327    1.4705796   396900 
  836000   0.97932342   -3.2525207   -3.2525207   -1.7835393  0.062852094   -3.2525207    1.4689814   396900 
  837000   0.98070567   -3.2532884   -3.2532884   -1.7822336  0.062085699   -3.2532884    1.4710548   396900 
  838000    0.9783522   -3.2532052   -3.2532052   -1.7856806  0.066122687   -3.2532052    1.4675246   396900 
  839000   0.97834653   -3.2519322   -3.2519322   -1.7844161  0.062976696   -3.2519322    1.4675161   396900 
  840000   0.97990656   -3.2525675   -3.2525675   -1.7827114  0.061361026   -3.2525675    1.4698561   396900 
  841000   0.97876568   -3.2502983   -3.2502983   -1.7821535  0.060648413   -3.2502983    1.4681448   396900 
  842000   0.97911707   -3.2550075   -3.2550075   -1.7863356  0.060206934   -3.2550075    1.4686719   396900 
  843000   0.97884219   -3.2545111   -3.2545111   -1.7862515  0.065976983   -3.2545111    1.4682596   396900 
  844000   0.97918071   -3.2551404   -3.2551404    -1.786373  0.060262726   -3.2551404    1.4687674   396900 
  845000   0.98022559   -3.2556555   -3.2556555   -1.7853208  0.068012328   -3.2556555    1.4703347   396900 
  846000   0.98056159   -3.2579516   -3.2579516   -1.7871129   0.06403405   -3.2579516    1.4708387   396900 
  847000   0.97959498    -3.257334    -3.257334   -1.7879452  0.066386412    -3.257334    1.4693888   396900 
  848000   0.98127613   -3.2616479   -3.2616479   -1.7897374  0.062364142   -3.2616479    1.4719105   396900 
  849000   0.97818402   -3.2589336   -3.2589336   -1.7916613  0.062918945   -3.2589336    1.4672723   396900 
  850000   0.97808113   -3.2578259   -3.2578259   -1.7907079  0.062813496   -3.2578259     1.467118   396900 
  851000   0.97853167    -3.258805    -3.258805   -1.7910112  0.058544315    -3.258805    1.4677938   396900 
  852000   0.98219885   -3.2611117   -3.2611117   -1.7878172  0.061374895   -3.2611117    1.4732946   396900 
  853000   0.97925396   -3.2587508   -3.2587508   -1.7898736   0.06324511   -3.2587508    1.4688772   396900 
  854000   0.98016642   -3.2603708   -3.2603708   -1.7901249   0.05983167   -3.2603708    1.4702459   396900 
  855000   0.97844832   -3.2623753   -3.2623753   -1.7947065  0.060532913   -3.2623753    1.4676688   396900 
  856000   0.97755734   -3.2596523   -3.2596523     -1.79332  0.062667633   -3.2596523    1.4663323   396900 
  857000   0.97678067   -3.2596224   -3.2596224   -1.7944551   0.06270937   -3.2596224    1.4651673   396900 
  858000   0.97711362    -3.260922    -3.260922   -1.7952552    0.0586872    -3.260922    1.4656667   396900 
  859000    0.9802724   -3.2635796   -3.2635796   -1.7931747  0.062765294   -3.2635796    1.4704049   396900 
  860000   0.97759578   -3.2625684   -3.2625684   -1.7961784  0.063686224   -3.2625684      1.46639   396900 
  861000   0.98007583   -3.2637845   -3.2637845   -1.7936745  0.057347384   -3.2637845      1.47011   396900 
  862000   0.97855168   -3.2633541   -3.2633541   -1.7955302  0.062115392   -3.2633541    1.4678238   396900 
  863000   0.97637483   -3.2627645   -3.2627645    -1.798206  0.059446282   -3.2627645    1.4645585   396900 
  864000    0.9765624   -3.2635271   -3.2635271   -1.7986872  0.056693833   -3.2635271    1.4648399   396900 
  865000   0.97740825   -3.2670101   -3.2670101   -1.8009014  0.053429451   -3.2670101    1.4661087   396900 
  866000   0.97731195   -3.2648078   -3.2648078   -1.7988435  0.063857084   -3.2648078    1.4659642   396900 
  867000   0.97862827   -3.2668881   -3.2668881   -1.7989494   0.05816215   -3.2668881    1.4679387   396900 
  868000   0.97707913   -3.2653593   -3.2653593   -1.7997443  0.061156286   -3.2653593     1.465615   396900 
  869000    0.9781173   -3.2627516   -3.2627516   -1.7955794  0.067084559   -3.2627516    1.4671723   396900 
  870000   0.97803951   -3.2653347   -3.2653347   -1.7982792  0.060367438   -3.2653347    1.4670556   396900 
  871000   0.97810057   -3.2654651   -3.2654651   -1.7983179    0.0597786   -3.2654651    1.4671472   396900 
  872000   0.97948085    -3.268368    -3.268368   -1.7991505  0.065125436    -3.268368    1.4692176   396900 
  873000   0.97885559   -3.2691707   -3.2691707    -1.800891  0.066620257   -3.2691707    1.4682797   396900 
  874000   0.97825869   -3.2679937   -3.2679937   -1.8006094  0.058269002   -3.2679937    1.4673843   396900 
  875000   0.97635033   -3.2683639   -3.2683639   -1.8038421  0.062721029   -3.2683639    1.4645218   396900 
  876000   0.97790201   -3.2691908   -3.2691908   -1.8023414  0.059289015   -3.2691908    1.4668493   396900 
  877000   0.97819109   -3.2702272   -3.2702272   -1.8029443  0.065297638   -3.2702272    1.4672829   396900 
  878000   0.97846715   -3.2698496   -3.2698496   -1.8021526  0.067226545   -3.2698496     1.467697   396900 
  879000   0.97830828   -3.2732902   -3.2732902   -1.8058315  0.055854059   -3.2732902    1.4674587   396900 
  880000   0.97802515   -3.2707602   -3.2707602   -1.8037262  0.056161334   -3.2707602     1.467034   396900 
  881000   0.97772197   -3.2705003   -3.2705003   -1.8039211  0.061724866   -3.2705003    1.4665793   396900 
  882000   0.97809298   -3.2695002   -3.2695002   -1.8023644  0.060814443   -3.2695002    1.4671358   396900 
  883000     0.976834   -3.2664774   -3.2664774     -1.80123  0.063030884   -3.2664774    1.4652473   396900 
  884000   0.97732654   -3.2679613   -3.2679613   -1.8019752   0.05899207   -3.2679613    1.4659861   396900 
  885000   0.97647421   -3.2701422   -3.2701422   -1.8054345  0.059269361   -3.2701422    1.4647076   396900 
  886000   0.97832795   -3.2691773   -3.2691773    -1.801689  0.060816978   -3.2691773    1.4674882   396900 
  887000    0.9753492    -3.268487    -3.268487   -1.8054669  0.063794492    -3.268487    1.4630201   396900 
  888000   0.97791768    -3.270434    -3.270434   -1.8035612  0.059704111    -3.270434    1.4668728   396900 
  889000   0.97740175   -3.2702709   -3.2702709    -1.804172  0.061846332   -3.2702709    1.4660989   396900 
  890000   0.97653087   -3.2697745   -3.2697745   -1.8049818  0.057406899   -3.2697745    1.4647926   396900 
  891000   0.97326628   -3.2669089   -3.2669089   -1.8070132  0.056363514   -3.2669089    1.4598957   396900 
  892000   0.97412795   -3.2665857   -3.2665857   -1.8053975   0.05272962   -3.2665857    1.4611882   396900 
  893000   0.97809599   -3.2703543   -3.2703543    -1.803214  0.062154536   -3.2703543    1.4671403   396900 
  894000   0.97643726   -3.2668778   -3.2668778   -1.8022256   0.06212019   -3.2668778    1.4646522   396900 
  895000   0.97593044   -3.2660659   -3.2660659    -1.802174  0.060151936   -3.2660659     1.463892   396900 
  896000   0.97642241   -3.2683389   -3.2683389   -1.8037089  0.060730299   -3.2683389    1.4646299   396900 
  897000   0.97613236   -3.2684627   -3.2684627   -1.8042679  0.059161471   -3.2684627    1.4641949   396900 
  898000   0.97505591   -3.2691551   -3.2691551   -1.8065749  0.061040837   -3.2691551    1.4625802   396900 
  899000   0.97551304   -3.2696567   -3.2696567   -1.8063909     0.056545   -3.2696567    1.4632659   396900 
  900000   0.97604228   -3.2655337   -3.2655337   -1.8014739  0.063829082   -3.2655337    1.4640597   396900 
  901000   0.97594223   -3.2661271   -3.2661271   -1.8022174  0.057764833   -3.2661271    1.4639097   396900 
  902000   0.97614671   -3.2653431   -3.2653431   -1.8011267   0.05894477   -3.2653431    1.4642164   396900 
  903000   0.97850169   -3.2661987   -3.2661987   -1.7984498  0.060662056   -3.2661987    1.4677488   396900 
  904000   0.97665649   -3.2675019   -3.2675019   -1.8025208  0.056838218   -3.2675019     1.464981   396900 
  905000   0.97694484   -3.2673686   -3.2673686   -1.8019551    0.0627014   -3.2673686    1.4654136   396900 
  906000   0.97657427   -3.2660105   -3.2660105   -1.8011528  0.062360779   -3.2660105    1.4648577   396900 
  907000   0.97566997   -3.2658163   -3.2658163   -1.8023151  0.061825374   -3.2658163    1.4635013   396900 
  908000   0.97799196    -3.268073    -3.268073   -1.8010888  0.060295323    -3.268073    1.4669842   396900 
  909000   0.97718862   -3.2677354   -3.2677354   -1.8019562  0.057851978   -3.2677354    1.4657792   396900 
  910000   0.97621129   -3.2694018   -3.2694018   -1.8050886  0.059275505   -3.2694018    1.4643132   396900 
  911000    0.9768144   -3.2724778   -3.2724778   -1.8072599  0.061585805   -3.2724778    1.4652179   396900 
  912000   0.97643985   -3.2704661   -3.2704661     -1.80581  0.062040288   -3.2704661    1.4646561   396900 
  913000    0.9762843   -3.2731203   -3.2731203   -1.8086975   0.05956591   -3.2731203    1.4644228   396900 
  914000   0.97463874   -3.2732915   -3.2732915   -1.8113371  0.054418629   -3.2732915    1.4619544   396900 
  915000   0.97574514   -3.2728216   -3.2728216   -1.8092076  0.061517704   -3.2728216     1.463614   396900 
  916000   0.97769681   -3.2751537   -3.2751537   -1.8086122  0.059493714   -3.2751537    1.4665415   396900 
  917000   0.97604569   -3.2729115   -3.2729115   -1.8088466  0.061882467   -3.2729115    1.4640649   396900 
  918000   0.97638088   -3.2745626   -3.2745626   -1.8099949  0.063896938   -3.2745626    1.4645676   396900 
  919000   0.97375292   -3.2726024   -3.2726024   -1.8119766  0.058345412   -3.2726024    1.4606257   396900 
  920000   0.97588585   -3.2764209   -3.2764209   -1.8125958  0.061082345   -3.2764209    1.4638251   396900 
  921000   0.97544433   -3.2755415   -3.2755415   -1.8123787  0.060627725   -3.2755415    1.4631628   396900 
  922000   0.97476301   -3.2729818   -3.2729818    -1.810841  0.059904037   -3.2729818    1.4621408   396900 
  923000   0.97565262   -3.2728732   -3.2728732   -1.8093979  0.059796467   -3.2728732    1.4634752   396900 
  924000    0.9756212   -3.2735141   -3.2735141   -1.8100859  0.059902867   -3.2735141    1.4634281   396900 
  925000    0.9742539   -3.2719995   -3.2719995   -1.8106223  0.059237312   -3.2719995    1.4613772   396900 
  926000   0.97620202   -3.2757554   -3.2757554    -1.811456  0.056951067   -3.2757554    1.4642993   396900 
  927000   0.97391522   -3.2733858   -3.2733858   -1.8125166  0.060934354   -3.2733858    1.4608691   396900 
  928000   0.97639224   -3.2768814   -3.2768814   -1.8122967  0.062829999   -3.2768814    1.4645847   396900 
  929000   0.97603645    -3.278026    -3.278026    -1.813975  0.058164692    -3.278026     1.464051   396900 
  930000   0.97381694   -3.2759622   -3.2759622   -1.8152404  0.059914347   -3.2759622    1.4607217   396900 
  931000   0.97591018   -3.2781278   -3.2781278   -1.8142662  0.060935233   -3.2781278    1.4638616   396900 
  932000   0.97631137   -3.2799831   -3.2799831   -1.8155198  0.061489754   -3.2799831    1.4644634   396900 
  933000    0.9760459    -3.278993    -3.278993   -1.8149278  0.061551634    -3.278993    1.4640652   396900 
  934000   0.97599312   -3.2817832   -3.2817832   -1.8177972  0.057898532   -3.2817832     1.463986   396900 
  935000   0.97448455   -3.2791782   -3.2791782    -1.817455  0.064041097   -3.2791782    1.4617231   396900 
  936000   0.97608841   -3.2818183   -3.2818183   -1.8176894  0.058101365   -3.2818183    1.4641289   396900 
  937000   0.97419683   -3.2824389   -3.2824389   -1.8211473  0.059261267   -3.2824389    1.4612916   396900 
  938000   0.97534607   -3.2826308   -3.2826308   -1.8196154  0.060776158   -3.2826308    1.4630154   396900 
  939000   0.97555931     -3.28165     -3.28165   -1.8183147  0.061115903     -3.28165    1.4633353   396900 
  940000    0.9757176   -3.2814648   -3.2814648   -1.8178921  0.062531417   -3.2814648    1.4635727   396900 
  941000   0.97539797   -3.2823712   -3.2823712   -1.8192779  0.058066373   -3.2823712    1.4630933   396900 
  942000   0.97527069   -3.2820984   -3.2820984   -1.8191961  0.057544534   -3.2820984    1.4629023   396900 
  943000   0.97479217   -3.2831193   -3.2831193   -1.8209348  0.059540237   -3.2831193    1.4621846   396900 
  944000   0.97471771   -3.2837128   -3.2837128     -1.82164  0.058655568   -3.2837128    1.4620729   396900 
  945000   0.97528815    -3.281755    -3.281755   -1.8188265  0.061787579    -3.281755    1.4629285   396900 
  946000   0.97519758   -3.2807228   -3.2807228   -1.8179301   0.06238757   -3.2807228    1.4627927   396900 
  947000   0.97508028   -3.2825082   -3.2825082   -1.8198915  0.063249848   -3.2825082    1.4626167   396900 
  948000   0.97631944   -3.2863606   -3.2863606   -1.8218851  0.058713255   -3.2863606    1.4644755   396900 
  949000    0.9744544   -3.2822049   -3.2822049    -1.820527  0.064682432   -3.2822049    1.4616779   396900 
  950000   0.97448865   -3.2828031   -3.2828031   -1.8210738  0.062984992   -3.2828031    1.4617293   396900 
  951000   0.97582567   -3.2830256   -3.2830256   -1.8192908  0.063744555   -3.2830256    1.4637348   396900 
  952000    0.9738232   -3.2818304   -3.2818304   -1.8210993  0.064709041   -3.2818304    1.4607311   396900 
  953000   0.97382659   -3.2847898   -3.2847898   -1.8240536  0.058898989   -3.2847898    1.4607362   396900 
  954000   0.97476389   -3.2858025   -3.2858025   -1.8236603  0.063710876   -3.2858025    1.4621422   396900 
  955000   0.97395108   -3.2846961   -3.2846961   -1.8237731  0.061475364   -3.2846961    1.4609229   396900 
  956000   0.97368607   -3.2854144   -3.2854144   -1.8248889  0.065595816   -3.2854144    1.4605254   396900 
  957000   0.97498239   -3.2867852   -3.2867852   -1.8243153  0.060869904   -3.2867852    1.4624699   396900 
  958000   0.97289961   -3.2836664   -3.2836664   -1.8243206  0.058718599   -3.2836664    1.4593457   396900 
  959000    0.9740282   -3.2850022   -3.2850022   -1.8239636  0.060263178   -3.2850022    1.4610386   396900 
  960000   0.97658015    -3.287439    -3.287439   -1.8225725  0.061990681    -3.287439    1.4648665   396900 
  961000   0.97517921   -3.2858677   -3.2858677   -1.8231026  0.061833135   -3.2858677    1.4627651   396900 
  962000   0.97623267   -3.2887635   -3.2887635   -1.8244182  0.058874774   -3.2887635    1.4643453   396900 
  963000   0.97695435   -3.2881906   -3.2881906   -1.8227628  0.065755222   -3.2881906    1.4654278   396900 
  964000   0.97426763    -3.288242    -3.288242   -1.8268443  0.062263674    -3.288242    1.4613978   396900 
  965000   0.97498123   -3.2883781   -3.2883781     -1.82591  0.058507085   -3.2883781    1.4624682   396900 
  966000   0.97491213   -3.2890054   -3.2890054   -1.8266408   0.06115049   -3.2890054    1.4623645   396900 
  967000   0.97549037   -3.2897024   -3.2897024   -1.8264706  0.062498107   -3.2897024    1.4632319   396900 
  968000   0.97457522   -3.2884931   -3.2884931    -1.826634  0.058949241   -3.2884931    1.4618591   396900 
  969000   0.97346088   -3.2868382   -3.2868382   -1.8266505  0.057204256   -3.2868382    1.4601876   396900 
  970000   0.97518225    -3.288495    -3.288495   -1.8257253   0.05981951    -3.288495    1.4627697   396900 
  971000   0.97565464   -3.2910698   -3.2910698   -1.8275915  0.060525968   -3.2910698    1.4634783   396900 
  972000   0.97344215   -3.2892307   -3.2892307   -1.8290712  0.059743474   -3.2892307    1.4601596   396900 
  973000   0.97416886    -3.290445    -3.290445   -1.8291954  0.059274337    -3.290445    1.4612496   396900 
  974000   0.97461807   -3.2902276   -3.2902276   -1.8283042  0.064168104   -3.2902276    1.4619234   396900 
  975000   0.97509772   -3.2909311   -3.2909311   -1.8282882  0.058583269   -3.2909311    1.4626429   396900 
  976000   0.97354336   -3.2921462   -3.2921462   -1.8318349  0.059425365   -3.2921462    1.4603114   396900 
  977000   0.97355183   -3.2916997   -3.2916997   -1.8313756  0.058734236   -3.2916997    1.4603241   396900 
  978000   0.97258384   -3.2922535   -3.2922535   -1.8333814   0.05689101   -3.2922535    1.4588721   396900 
  979000   0.97478825   -3.2943268   -3.2943268   -1.8321481  0.061107772   -3.2943268    1.4621787   396900 
  980000   0.97518122   -3.2953069   -3.2953069   -1.8325388  0.061422198   -3.2953069    1.4627681   396900 
  981000   0.97626453   -3.2958146   -3.2958146   -1.8314215  0.061471918   -3.2958146    1.4643931   396900 
  982000   0.97220737   -3.2906162   -3.2906162   -1.8323088  0.058901289   -3.2906162    1.4583074   396900 
  983000   0.97203936   -3.2912547   -3.2912547   -1.8331993  0.058587142   -3.2912547    1.4580554   396900 
  984000   0.97155765   -3.2912726   -3.2912726   -1.8339397   0.05838893   -3.2912726    1.4573328   396900 
  985000   0.97490229    -3.293885    -3.293885   -1.8315353  0.058540579    -3.293885    1.4623497   396900 
  986000   0.97458211   -3.2925386   -3.2925386   -1.8306691   0.06010438   -3.2925386    1.4618695   396900 
  987000    0.9741722   -3.2927028   -3.2927028   -1.8314482  0.060807784   -3.2927028    1.4612546   396900 
  988000    0.9746086   -3.2917112   -3.2917112   -1.8298019  0.063582809   -3.2917112    1.4619092   396900 
  989000   0.97274245   -3.2917154   -3.2917154   -1.8326054  0.054609895   -3.2917154      1.45911   396900 
  990000   0.97288866   -3.2924155   -3.2924155   -1.8330862  0.058820597   -3.2924155    1.4593293   396900 
  991000   0.97407599   -3.2929345   -3.2929345   -1.8318242  0.055041103   -3.2929345    1.4611103   396900 
  992000   0.97302071   -3.2909342   -3.2909342   -1.8314069  0.060939167   -3.2909342    1.4595274   396900 
  993000   0.97354742   -3.2925506   -3.2925506   -1.8322332  0.062381456   -3.2925506    1.4603174   396900 
  994000   0.97366408   -3.2921599   -3.2921599   -1.8316675  0.062507847   -3.2921599    1.4604924   396900 
  995000   0.97379332   -3.2930234   -3.2930234   -1.8323371  0.062068459   -3.2930234    1.4606863   396900 
  996000    0.9738965   -3.2938612   -3.2938612   -1.8330201  0.063717636   -3.2938612    1.4608411   396900 
  997000   0.97563414   -3.2960444   -3.2960444   -1.8325969  0.064080501   -3.2960444    1.4634475   396900 
  998000   0.97562465   -3.2973502   -3.2973502   -1.8339169  0.056428722   -3.2973502    1.4634333   396900 
  999000   0.97245305   -3.2936627   -3.2936627   -1.8349867  0.059271132   -3.2936627    1.4586759   396900 
 1000000   0.97205138   -3.2949538   -3.2949538   -1.8368804  0.060570189   -3.2949538    1.4580734   396900 
 1001000   0.97276613   -3.2968613   -3.2968613   -1.8377157  0.057768515   -3.2968613    1.4591455   396900 
 1002000   0.97287526   -3.2947657   -3.2947657   -1.8354565  0.061274412   -3.2947657    1.4593092   396900 
 1003000   0.97279335   -3.2950899   -3.2950899   -1.8359036  0.065465821   -3.2950899    1.4591863   396900 
 1004000   0.97090001   -3.2940581   -3.2940581   -1.8377117  0.059804863   -3.2940581    1.4563463   396900 
 1005000   0.97235691   -3.2938998   -3.2938998   -1.8353681  0.064801688   -3.2938998    1.4585317   396900 
 1006000   0.97375594   -3.2962915   -3.2962915   -1.8356612  0.056591492   -3.2962915    1.4606302   396900 
 1007000   0.97355572   -3.2957909   -3.2957909    -1.835461  0.065193496   -3.2957909    1.4603299   396900 
 1008000   0.97468417   -3.2960816   -3.2960816    -1.834059  0.056650546   -3.2960816    1.4620226   396900 
 1009000   0.97193214   -3.2926978   -3.2926978   -1.8348033  0.058164761   -3.2926978    1.4578945   396900 
 1010000    0.9719758   -3.2939281   -3.2939281   -1.8359681  0.059313825   -3.2939281      1.45796   396900 
 1011000   0.97450683   -3.2970951   -3.2970951   -1.8353385  0.061179595   -3.2970951    1.4617566   396900 
 1012000   0.97235768    -3.295325    -3.295325   -1.8367921  0.059017941    -3.295325    1.4585329   396900 
 1013000   0.97382798   -3.2975363   -3.2975363   -1.8367981  0.058013246   -3.2975363    1.4607383   396900 
 1014000   0.97262216   -3.2958518   -3.2958518   -1.8369222  0.058825904   -3.2958518    1.4589296   396900 
 1015000   0.97276067   -3.2982308   -3.2982308   -1.8390935  0.061350763   -3.2982308    1.4591373   396900 
 1016000   0.97236356   -3.2997483   -3.2997483   -1.8412066    0.0542864   -3.2997483    1.4585417   396900 
 1017000      0.97367   -3.3021264   -3.3021264   -1.8416251  0.055982988   -3.3021264    1.4605013   396900 
 1018000   0.97414507   -3.3043545   -3.3043545   -1.8431406  0.060088281   -3.3043545    1.4612139   396900 
 1019000   0.97202209   -3.3009449   -3.3009449   -1.8429155  0.059204063   -3.3009449    1.4580295   396900 
 1020000   0.97303826   -3.3018354   -3.3018354   -1.8422817  0.064316751   -3.3018354    1.4595537   396900 
 1021000   0.97482526   -3.3054081   -3.3054081   -1.8431738   0.06619956   -3.3054081    1.4622342   396900 
 1022000   0.97266384   -3.3032142   -3.3032142   -1.8442222  0.059512722   -3.3032142    1.4589921   396900 
 1023000   0.97262338     -3.30234     -3.30234   -1.8434086  0.064293435     -3.30234    1.4589314   396900 
 1024000   0.97242273   -3.3021365   -3.3021365   -1.8435061   0.05749405   -3.3021365    1.4586304   396900 
 1025000   0.97165027   -3.3049774   -3.3049774   -1.8475057  0.060263407   -3.3049774    1.4574717   396900 
 1026000   0.97109415   -3.3058575   -3.3058575   -1.8492199  0.062329268   -3.3058575    1.4566376   396900 
 1027000    0.9713563   -3.3065816   -3.3065816   -1.8495508  0.054465397   -3.3065816    1.4570308   396900 
 1028000   0.97183135   -3.3064672   -3.3064672   -1.8487239  0.061104393   -3.3064672    1.4577433   396900 
 1029000   0.96943927    -3.303806    -3.303806   -1.8496508  0.058893814    -3.303806    1.4541552   396900 
 1030000   0.97119909   -3.3032577   -3.3032577   -1.8464628  0.063676518   -3.3032577     1.456795   396900 
 1031000    0.9719095   -3.3067277   -3.3067277   -1.8488671  0.056426266   -3.3067277    1.4578606   396900 
 1032000   0.97153174   -3.3067871   -3.3067871   -1.8494931  0.061089728   -3.3067871    1.4572939   396900 
 1033000   0.97208925   -3.3070858   -3.3070858   -1.8489556  0.059745648   -3.3070858    1.4581302   396900 
 1034000   0.97207461   -3.3070609   -3.3070609   -1.8489527  0.060410026   -3.3070609    1.4581082   396900 
 1035000   0.97392843   -3.3082695   -3.3082695   -1.8473805  0.056132548   -3.3082695     1.460889   396900 
 1036000   0.97326014   -3.3064979   -3.3064979   -1.8466113  0.061169455   -3.3064979    1.4598865   396900 
 1037000   0.97180073   -3.3033069   -3.3033069   -1.8456095  0.060878108   -3.3033069    1.4576974   396900 
 1038000   0.97291854   -3.3044438   -3.3044438   -1.8450696  0.062114292   -3.3044438    1.4593741   396900 
 1039000   0.97062852    -3.303481    -3.303481   -1.8475419  0.061320088    -3.303481    1.4559391   396900 
 1040000    0.9693827   -3.3014637   -3.3014637   -1.8473933  0.063119595   -3.3014637    1.4540704   396900 
 1041000   0.97246073   -3.3062023   -3.3062023   -1.8475149  0.050832129   -3.3062023    1.4586874   396900 
 1042000   0.96958258   -3.3026531   -3.3026531   -1.8482829  0.059594237   -3.3026531    1.4543702   396900 
 1043000   0.97124171   -3.3029232   -3.3029232   -1.8460643  0.059264067   -3.3029232    1.4568589   396900 
 1044000   0.97095884   -3.3068883   -3.3068883   -1.8504537  0.053678292   -3.3068883    1.4564346   396900 
 1045000   0.97097909   -3.3038864   -3.3038864   -1.8474214  0.059307211   -3.3038864     1.456465   396900 
 1046000   0.97091272   -3.3033229   -3.3033229   -1.8469575  0.061357918   -3.3033229    1.4563654   396900 
 1047000   0.97280878   -3.3082895   -3.3082895     -1.84908  0.057757149   -3.3082895    1.4592095   396900 
 1048000   0.97002587   -3.3063041   -3.3063041    -1.851269  0.061571864   -3.3063041    1.4550351   396900 
 1049000   0.96934029   -3.3035399   -3.3035399   -1.8495331  0.060323936   -3.3035399    1.4540068   396900 
 1050000   0.97021729   -3.3044122   -3.3044122   -1.8490899  0.054937543   -3.3044122    1.4553223   396900 
 1051000   0.97267571   -3.3061296   -3.3061296   -1.8471197  0.065079664   -3.3061296    1.4590099   396900 
 1052000   0.97207636   -3.3097463   -3.3097463   -1.8516354  0.056596694   -3.3097463    1.4581109   396900 
 1053000   0.97170081   -3.3093155   -3.3093155   -1.8517679  0.058172085   -3.3093155    1.4575475   396900 
 1054000   0.97296129   -3.3099602   -3.3099602   -1.8505219  0.065703383   -3.3099602    1.4594383   396900 
 1055000   0.97056604   -3.3074114   -3.3074114    -1.851566  0.062169702   -3.3074114    1.4558454   396900 
 1056000   0.97127524   -3.3112271   -3.3112271   -1.8543179  0.059262221   -3.3112271    1.4569092   396900 
 1057000   0.97110334    -3.310702    -3.310702   -1.8540506  0.058303677    -3.310702    1.4566513   396900 
 1058000    0.9715445   -3.3118026   -3.3118026   -1.8544896    0.0631207   -3.3118026    1.4573131   396900 
 1059000   0.97119028   -3.3134423   -3.3134423   -1.8566606   0.05539948   -3.3134423    1.4567818   396900 
 1060000   0.96802257   -3.3097322   -3.3097322    -1.857702  0.060983291   -3.3097322    1.4520302   396900 
 1061000   0.97148418   -3.3136045   -3.3136045   -1.8563819  0.054325632   -3.3136045    1.4572226   396900 
 1062000    0.9704318   -3.3171385   -3.3171385   -1.8614945  0.055396344   -3.3171385     1.455644   396900 
 1063000   0.97034988    -3.313105    -3.313105   -1.8575838   0.05797281    -3.313105    1.4555211   396900 
 1064000   0.96903282   -3.3135949   -3.3135949   -1.8600493  0.058714388   -3.3135949    1.4535456   396900 
 1065000   0.97123957   -3.3163787   -3.3163787   -1.8595231  0.062813491   -3.3163787    1.4568557   396900 
 1066000   0.97350992     -3.31948     -3.31948   -1.8592189  0.068227113     -3.31948    1.4602612   396900 
 1067000   0.97217719   -3.3207476   -3.3207476   -1.8624855  0.057551016   -3.3207476    1.4582621   396900 
 1068000   0.97014351   -3.3173516   -3.3173516     -1.86214  0.061003852   -3.3173516    1.4552116   396900 
 1069000    0.9715748   -3.3176985   -3.3176985     -1.86034  0.061436401   -3.3176985    1.4573585   396900 
 1070000   0.97081486   -3.3183947   -3.3183947   -1.8621761  0.065358716   -3.3183947    1.4562186   396900 
 1071000    0.9721209   -3.3200085   -3.3200085   -1.8618308   0.06300081   -3.3200085    1.4581777   396900 
 1072000   0.97110731   -3.3210362   -3.3210362   -1.8643789  0.059813111   -3.3210362    1.4566573   396900 
 1073000   0.97018541   -3.3202517   -3.3202517   -1.8649773  0.063235589   -3.3202517    1.4552744   396900 
 1074000   0.97131477   -3.3205996   -3.3205996   -1.8636311  0.066031891   -3.3205996    1.4569685   396900 
 1075000   0.97048753   -3.3192558   -3.3192558   -1.8635282  0.059333568   -3.3192558    1.4557276   396900 
 1076000   0.96905796   -3.3193155   -3.3193155   -1.8657323  0.058487089   -3.3193155    1.4535833   396900 
 1077000   0.96863507   -3.3194838   -3.3194838   -1.8665348  0.059196384   -3.3194838    1.4529489   396900 
 1078000   0.97008605   -3.3206515   -3.3206515   -1.8655261    0.0611679   -3.3206515    1.4551254   396900 
 1079000   0.97143566   -3.3204446   -3.3204446   -1.8632948  0.058162499   -3.3204446    1.4571498   396900 
 1080000   0.97029952   -3.3207327   -3.3207327   -1.8652871  0.061199208   -3.3207327    1.4554456   396900 
 1081000   0.96958604    -3.321727    -3.321727   -1.8673516  0.058689318    -3.321727    1.4543754   396900 
 1082000   0.97122019   -3.3241577   -3.3241577   -1.8673311  0.061080776   -3.3241577    1.4568266   396900 
 1083000   0.96834466   -3.3211663   -3.3211663    -1.868653  0.058626087   -3.3211663    1.4525133   396900 
 1084000   0.96812392   -3.3224916   -3.3224916   -1.8703094  0.058338597   -3.3224916    1.4521822   396900 
 1085000   0.96642372   -3.3227804   -3.3227804   -1.8731484  0.056114075   -3.3227804    1.4496319   396900 
 1086000   0.96933546   -3.3251251   -3.3251251   -1.8711255  0.053403263   -3.3251251    1.4539995   396900 
 1087000   0.97039028   -3.3242098   -3.3242098    -1.868628  0.057634284   -3.3242098    1.4555818   396900 
 1088000     0.969698   -3.3232081   -3.3232081   -1.8686648  0.065735486   -3.3232081    1.4545433   396900 
 1089000   0.96881505   -3.3231791   -3.3231791   -1.8699602  0.059899651   -3.3231791    1.4532189   396900 
 1090000   0.96937824   -3.3238513   -3.3238513   -1.8697876  0.063068966   -3.3238513    1.4540637   396900 
 1091000   0.97059555   -3.3238139   -3.3238139   -1.8679242  0.063516997   -3.3238139    1.4558897   396900 
 1092000   0.97065849   -3.3265262   -3.3265262   -1.8705421  0.057950415   -3.3265262    1.4559841   396900 
 1093000     0.967866   -3.3235986   -3.3235986   -1.8718033  0.062923251   -3.3235986    1.4517953   396900 
 1094000   0.96985222   -3.3250689   -3.3250689   -1.8702942   0.05843149   -3.3250689    1.4547747   396900 
 1095000   0.96837307   -3.3236948   -3.3236948   -1.8711388  0.064244613   -3.3236948     1.452556   396900 
 1096000   0.96865613   -3.3273384   -3.3273384   -1.8743579   0.05952547   -3.3273384    1.4529805   396900 
 1097000   0.97027056   -3.3283901   -3.3283901    -1.872988  0.059778848   -3.3283901    1.4554022   396900 
 1098000   0.96922068   -3.3247348   -3.3247348   -1.8709074  0.053602618   -3.3247348    1.4538274   396900 
 1099000   0.96853937    -3.322857    -3.322857   -1.8700516  0.054791491    -3.322857    1.4528054   396900 
 1100000   0.96807557   -3.3220815   -3.3220815   -1.8699718  0.058717917   -3.3220815    1.4521097   396900 
 1101000   0.96774683   -3.3215506   -3.3215506    -1.869934  0.060955969   -3.3215506    1.4516166   396900 
 1102000   0.97043164   -3.3232484   -3.3232484   -1.8676046  0.061153762   -3.3232484    1.4556438   396900 
 1103000   0.97104222   -3.3229728   -3.3229728   -1.8664131  0.055164251   -3.3229728    1.4565597   396900 
 1104000   0.97080454   -3.3233069   -3.3233069   -1.8671037   0.05912816   -3.3233069    1.4562031   396900 
 1105000   0.97113845   -3.3251966   -3.3251966   -1.8684926  0.061283246   -3.3251966     1.456704   396900 
 1106000   0.96868788   -3.3249497   -3.3249497   -1.8719216  0.055259849   -3.3249497    1.4530282   396900 
 1107000   0.96957978   -3.3231775   -3.3231775   -1.8688115  0.064310304   -3.3231775     1.454366   396900 
 1108000   0.96993001   -3.3240117   -3.3240117   -1.8691204   0.05728018   -3.3240117    1.4548913   396900 
 1109000   0.96951253   -3.3233586   -3.3233586   -1.8690934  0.054717704   -3.3233586    1.4542651   396900 
 1110000   0.97001632   -3.3244471   -3.3244471   -1.8694262  0.057763664   -3.3244471    1.4550208   396900 
 1111000   0.96946957   -3.3231282   -3.3231282   -1.8689275  0.056068325   -3.3231282    1.4542007   396900 
 1112000   0.96923415   -3.3231897   -3.3231897   -1.8693421  0.061232671   -3.3231897    1.4538476   396900 
 1113000   0.97008513   -3.3250866   -3.3250866   -1.8699626  0.058616737   -3.3250866     1.455124   396900 
 1114000   0.96899181   -3.3234191   -3.3234191   -1.8699351  0.055979948   -3.3234191    1.4534841   396900 
 1115000   0.97009545    -3.321503    -3.321503   -1.8663634  0.056027213    -3.321503    1.4551395   396900 
 1116000   0.96956254   -3.3216563   -3.3216563   -1.8673162  0.059846366   -3.3216563    1.4543402   396900 
 1117000   0.97116448   -3.3255784   -3.3255784   -1.8688353   0.05177847   -3.3255784    1.4567431   396900 
 1118000   0.96972304   -3.3224897   -3.3224897   -1.8679088    0.0573859   -3.3224897    1.4545809   396900 
 1119000   0.96860662   -3.3216637   -3.3216637   -1.8687574  0.057844356   -3.3216637    1.4529063   396900 
 1120000   0.96994624   -3.3224365   -3.3224365   -1.8675208  0.059520528   -3.3224365    1.4549157   396900 
 1121000   0.96847644   -3.3235798   -3.3235798   -1.8708688   0.06110333   -3.3235798     1.452711   396900 
 1122000   0.96864992    -3.325113    -3.325113   -1.8721418   0.05801669    -3.325113    1.4529712   396900 
 1123000   0.96866741   -3.3232578   -3.3232578   -1.8702603  0.058476787   -3.3232578    1.4529975   396900 
 1124000   0.96724381   -3.3224268   -3.3224268   -1.8715648  0.061341818   -3.3224268    1.4508621   396900 
 1125000    0.9681885   -3.3233832   -3.3233832   -1.8711041  0.062129318   -3.3233832    1.4522791   396900 
 1126000   0.96853931    -3.325187    -3.325187   -1.8723817  0.059841356    -3.325187    1.4528053   396900 
 1127000   0.96921309   -3.3265124   -3.3265124   -1.8726964  0.058652748   -3.3265124     1.453816   396900 
 1128000   0.96695506   -3.3269449   -3.3269449    -1.876516  0.057077461   -3.3269449    1.4504289   396900 
 1129000   0.96829091   -3.3275347   -3.3275347    -1.875102  0.054141614   -3.3275347    1.4524327   396900 
 1130000   0.96620879   -3.3266157   -3.3266157   -1.8773061  0.059096975   -3.3266157    1.4493095   396900 
 1131000   0.96667035   -3.3298358   -3.3298358   -1.8798339  0.056756308   -3.3298358    1.4500019   396900 
 1132000   0.96874747   -3.3312244   -3.3312244   -1.8781069  0.060293335   -3.3312244    1.4531175   396900 
 1133000   0.96819383   -3.3322558   -3.3322558   -1.8799687  0.053480262   -3.3322558    1.4522871   396900 
 1134000   0.96704336   -3.3325787   -3.3325787   -1.8820173  0.056774575   -3.3325787    1.4505614   396900 
 1135000   0.96621318   -3.3337487   -3.3337487   -1.8844326  0.054298862   -3.3337487    1.4493161   396900 
 1136000   0.96737284   -3.3347888   -3.3347888   -1.8837332  0.057435074   -3.3347888    1.4510556   396900 
 1137000   0.96870763   -3.3340401   -3.3340401   -1.8809823  0.059162804   -3.3340401    1.4530578   396900 
 1138000   0.96870987   -3.3335299   -3.3335299   -1.8804688  0.058642734   -3.3335299    1.4530611   396900 
 1139000   0.96859954   -3.3340229   -3.3340229   -1.8811272  0.061455069   -3.3340229    1.4528957   396900 
 1140000   0.96798954   -3.3320671   -3.3320671   -1.8800864  0.059812244   -3.3320671    1.4519807   396900 
 1141000   0.97030287   -3.3338857   -3.3338857   -1.8784351  0.065344412   -3.3338857    1.4554506   396900 
 1142000   0.96907101   -3.3346289   -3.3346289    -1.881026  0.061551307   -3.3346289    1.4536028   396900 
 1143000   0.96546122   -3.3330688   -3.3330688   -1.8848806  0.057790903   -3.3330688    1.4481882   396900 
 1144000   0.96809993   -3.3344358   -3.3344358   -1.8822896  0.058662401   -3.3344358    1.4521462   396900 
 1145000   0.96568947   -3.3319202   -3.3319202   -1.8833897  0.058403008   -3.3319202    1.4485306   396900 
 1146000   0.96740067   -3.3342941   -3.3342941   -1.8831967  0.059992869   -3.3342941    1.4510974   396900 
 1147000   0.96701053      -3.3321      -3.3321   -1.8815879  0.063481798      -3.3321    1.4505121   396900 
 1148000   0.96846091   -3.3331639   -3.3331639   -1.8804762  0.062866005   -3.3331639    1.4526877   396900 
 1149000    0.9693334   -3.3310894   -3.3310894   -1.8770929  0.065568539   -3.3310894    1.4539964   396900 
 1150000   0.96976264   -3.3356601   -3.3356601   -1.8810198  0.056782649   -3.3356601    1.4546403   396900 
 1151000   0.96754695    -3.332621    -3.332621   -1.8813042  0.062945326    -3.332621    1.4513168   396900 
 1152000   0.96739759   -3.3311108   -3.3311108   -1.8800181  0.055664975   -3.3311108    1.4510927   396900 
 1153000   0.96506871   -3.3295597   -3.3295597   -1.8819603   0.05907401   -3.3295597    1.4475994   396900 
 1154000   0.96720913   -3.3336781   -3.3336781    -1.882868  0.058676591   -3.3336781      1.45081   396900 
 1155000   0.96756706   -3.3342624   -3.3342624   -1.8829155  0.057886219   -3.3342624    1.4513469   396900 
 1156000   0.96776304   -3.3360403   -3.3360403   -1.8843994  0.059926377   -3.3360403    1.4516409   396900 
 1157000     0.968753   -3.3363655   -3.3363655   -1.8832396  0.060541502   -3.3363655    1.4531258   396900 
 1158000   0.96739009   -3.3354241   -3.3354241   -1.8843426  0.058763974   -3.3354241    1.4510815   396900 
 1159000   0.96572111   -3.3354422   -3.3354422   -1.8868642  0.060579306   -3.3354422     1.448578   396900 
 1160000   0.96679902   -3.3387907   -3.3387907   -1.8885958  0.062433896   -3.3387907    1.4501949   396900 
 1161000   0.96680401   -3.3392485   -3.3392485   -1.8890461  0.060466669   -3.3392485    1.4502024   396900 
 1162000   0.96628638   -3.3403713   -3.3403713   -1.8909454  0.056560364   -3.3403713    1.4494259   396900 
 1163000   0.96363468   -3.3379147   -3.3379147   -1.8924663  0.055250373   -3.3379147    1.4454484   396900 
 1164000   0.96490601   -3.3381263   -3.3381263   -1.8907709   0.06122564   -3.3381263    1.4473554   396900 
 1165000   0.96598807   -3.3391629   -3.3391629   -1.8901844  0.057204639   -3.3391629    1.4489785   396900 
 1166000   0.96827904   -3.3398506   -3.3398506   -1.8874357   0.05597835   -3.3398506    1.4524149   396900 
 1167000   0.96814402   -3.3395657   -3.3395657   -1.8873533  0.062879284   -3.3395657    1.4522124   396900 
 1168000   0.96757942   -3.3392193   -3.3392193   -1.8878538  0.060786509   -3.3392193    1.4513655   396900 
 1169000   0.96771781   -3.3397553   -3.3397553   -1.8881822  0.060791704   -3.3397553    1.4515731   396900 
 1170000   0.96651932   -3.3405973   -3.3405973    -1.890822  0.061343275   -3.3405973    1.4497753   396900 
 1171000   0.96533549   -3.3415809   -3.3415809   -1.8935813  0.056718228   -3.3415809    1.4479996   396900 
 1172000   0.96515752    -3.338037    -3.338037   -1.8903044  0.054556238    -3.338037    1.4477326   396900 
 1173000   0.96582374    -3.337598    -3.337598    -1.888866  0.053083738    -3.337598     1.448732   396900 
 1174000   0.96621526   -3.3377466   -3.3377466   -1.8884273  0.053313942   -3.3377466    1.4493192   396900 
 1175000   0.96557221   -3.3373854   -3.3373854   -1.8890307  0.055401459   -3.3373854    1.4483547   396900 
 1176000   0.96729084   -3.3383989   -3.3383989   -1.8874663  0.058702645   -3.3383989    1.4509326   396900 
 1177000   0.96756696   -3.3389228   -3.3389228    -1.887576  0.055816557   -3.3389228    1.4513468   396900 
 1178000     0.966032   -3.3371337   -3.3371337   -1.8880894  0.061770549   -3.3371337    1.4490444   396900 
 1179000    0.9660659   -3.3367645   -3.3367645   -1.8876693  0.064910503   -3.3367645    1.4490952   396900 
 1180000    0.9670529   -3.3366285   -3.3366285   -1.8860528  0.055620785   -3.3366285    1.4505757   396900 
 1181000   0.96845451   -3.3391365   -3.3391365   -1.8864584  0.057568566   -3.3391365    1.4526781   396900 
 1182000   0.96561844   -3.3359749   -3.3359749   -1.8875509  0.057393021   -3.3359749     1.448424   396900 
 1183000   0.96680325   -3.3362415   -3.3362415   -1.8860403  0.059130722   -3.3362415    1.4502012   396900 
 1184000   0.96583606   -3.3358951   -3.3358951   -1.8871447  0.061784388   -3.3358951    1.4487504   396900 
 1185000   0.96482615   -3.3360601   -3.3360601   -1.8888245  0.055597504   -3.3360601    1.4472356   396900 
 1186000   0.96643454   -3.3370225   -3.3370225   -1.8873744  0.057320329   -3.3370225    1.4496482   396900 
 1187000   0.96803387    -3.338268    -3.338268   -1.8862209  0.057527647    -3.338268    1.4520472   396900 
 1188000   0.96787107   -3.3377337   -3.3377337   -1.8859307   0.05946495   -3.3377337     1.451803   396900 
 1189000   0.96917516   -3.3386791   -3.3386791     -1.88492  0.059340568   -3.3386791    1.4537591   396900 
 1190000   0.96797301   -3.3365372   -3.3365372   -1.8845813  0.061819594   -3.3365372    1.4519559   396900 
 1191000   0.96706507   -3.3372272   -3.3372272   -1.8866333  0.052703607   -3.3372272    1.4505939   396900 
 1192000   0.96718418   -3.3348594   -3.3348594   -1.8840868  0.059716843   -3.3348594    1.4507726   396900 
 1193000   0.96744026   -3.3366637   -3.3366637   -1.8855069  0.056657305   -3.3366637    1.4511567   396900 
 1194000   0.96731712   -3.3383148   -3.3383148   -1.8873428  0.058190553   -3.3383148     1.450972   396900 
 1195000   0.96709976    -3.337345    -3.337345    -1.886699  0.062977543    -3.337345     1.450646   396900 
 1196000   0.96794668   -3.3387277   -3.3387277   -1.8868113   0.05921421   -3.3387277    1.4519164   396900 
 1197000   0.96740148   -3.3419901   -3.3419901   -1.8908915  0.057442156   -3.3419901    1.4510986   396900 
 1198000   0.96562952   -3.3396273   -3.3396273   -1.8911867  0.058948803   -3.3396273    1.4484406   396900 
 1199000   0.96560929   -3.3401702   -3.3401702   -1.8917599  0.056148607   -3.3401702    1.4484103   396900 
 1200000    0.9667805   -3.3418841   -3.3418841    -1.891717  0.053978887   -3.3418841    1.4501671   396900 
 1201000   0.96497212   -3.3398204   -3.3398204   -1.8923659  0.055018092   -3.3398204    1.4474545   396900 
 1202000   0.96384729   -3.3391091   -3.3391091   -1.8933418   0.05469273   -3.3391091    1.4457673   396900 
 1203000   0.96558716   -3.3419821   -3.3419821    -1.893605  0.052197272   -3.3419821    1.4483771   396900 
 1204000   0.96501052   -3.3403641   -3.3403641   -1.8928519  0.057835632   -3.3403641    1.4475121   396900 
 1205000   0.96627783   -3.3433916   -3.3433916   -1.8939786  0.052431973   -3.3433916    1.4494131   396900 
 1206000   0.96376559   -3.3402832   -3.3402832   -1.8946384  0.054457722   -3.3402832    1.4456447   396900 
 1207000   0.96413478   -3.3420766   -3.3420766   -1.8958781  0.056457442   -3.3420766    1.4461985   396900 
 1208000   0.96570941   -3.3442452   -3.3442452   -1.8956848  0.059884443   -3.3442452    1.4485605   396900 
 1209000   0.96549429   -3.3436909   -3.3436909   -1.8954531  0.055647351   -3.3436909    1.4482378   396900 
 1210000   0.96643864   -3.3454911   -3.3454911   -1.8958368  0.053042451   -3.3454911    1.4496543   396900 
 1211000   0.96445844   -3.3430824   -3.3430824   -1.8963984  0.056198999   -3.3430824     1.446684   396900 
 1212000   0.96577223   -3.3451824   -3.3451824   -1.8965277  0.055930455   -3.3451824    1.4486547   396900 
 1213000   0.96568862   -3.3456078   -3.3456078   -1.8970785  0.055618046   -3.3456078    1.4485293   396900 
 1214000   0.96504741   -3.3422972   -3.3422972   -1.8947298  0.061787156   -3.3422972    1.4475675   396900 
 1215000   0.96709078   -3.3457053   -3.3457053   -1.8950728   0.05616663   -3.3457053    1.4506325   396900 
 1216000   0.96715597   -3.3467003   -3.3467003     -1.89597   0.05453714   -3.3467003    1.4507303   396900 
 1217000   0.96519056   -3.3479867   -3.3479867   -1.9002045  0.055732666   -3.3479867    1.4477822   396900 
 1218000   0.96550939    -3.346883    -3.346883   -1.8986226  0.052101407    -3.346883    1.4482604   396900 
 1219000   0.96286076   -3.3470126   -3.3470126    -1.902725  0.056202013   -3.3470126    1.4442875   396900 
 1220000   0.96328264   -3.3485924   -3.3485924   -1.9036721  0.055746018   -3.3485924    1.4449203   396900 
 1221000   0.96387715   -3.3470107   -3.3470107   -1.9011986  0.057671336   -3.3470107    1.4458121   396900 
 1222000    0.9645437   -3.3492923   -3.3492923   -1.9024804  0.052321199   -3.3492923    1.4468119   396900 
 1223000   0.96126695   -3.3479714   -3.3479714   -1.9060746  0.052134199   -3.3479714    1.4418968   396900 
 1224000   0.96331001   -3.3494237   -3.3494237   -1.9044623  0.056161638   -3.3494237    1.4449614   396900 
 1225000   0.96397466   -3.3504867   -3.3504867   -1.9045283  0.054764514   -3.3504867    1.4459584   396900 
 1226000   0.96501548   -3.3506544   -3.3506544   -1.9031348  0.055702238   -3.3506544    1.4475196   396900 
 1227000   0.96377097   -3.3501707   -3.3501707   -1.9045179  0.058627937   -3.3501707    1.4456528   396900 
 1228000   0.96639977   -3.3555303   -3.3555303   -1.9059343  0.051613073   -3.3555303     1.449596   396900 
 1229000   0.96395491    -3.352426    -3.352426   -1.9064972  0.065262857    -3.352426    1.4459287   396900 
 1230000   0.96432432   -3.3522768   -3.3522768    -1.905794  0.056312357   -3.3522768    1.4464828   396900 
 1231000    0.9642417   -3.3539683   -3.3539683   -1.9076094  0.054998379   -3.3539683    1.4463589   396900 
 1232000   0.96411651   -3.3563083   -3.3563083   -1.9101372  0.053712578   -3.3563083    1.4461711   396900 
 1233000   0.96360441   -3.3571867   -3.3571867   -1.9117837  0.052055651   -3.3571867     1.445403   396900 
 1234000   0.96431396   -3.3567864   -3.3567864   -1.9103191  0.051669843   -3.3567864    1.4464673   396900 
 1235000   0.96390873   -3.3571733   -3.3571733   -1.9113139  0.060303189   -3.3571733    1.4458594   396900 
 1236000   0.96416927   -3.3568356   -3.3568356   -1.9105854  0.056502102   -3.3568356    1.4462503   396900 
 1237000   0.96295576    -3.353081    -3.353081    -1.908651  0.058320381    -3.353081      1.44443   396900 
 1238000   0.96470026   -3.3550582   -3.3550582   -1.9080114  0.059477197   -3.3550582    1.4470467   396900 
 1239000    0.9634588    -3.353842    -3.353842   -1.9086575  0.059426194    -3.353842    1.4451846   396900 
 1240000    0.9633707   -3.3544602   -3.3544602   -1.9094078  0.055805687   -3.3544602    1.4450524   396900 
 1241000   0.96358467   -3.3537914   -3.3537914    -1.908418   0.05134249   -3.3537914    1.4453734   396900 
 1242000   0.96113061   -3.3538916   -3.3538916   -1.9121993  0.052811911   -3.3538916    1.4416923   396900 
 1243000   0.96566275   -3.3576781   -3.3576781   -1.9091876  0.057029998   -3.3576781    1.4484905   396900 
 1244000   0.96542233   -3.3572152   -3.3572152   -1.9090854  0.058598036   -3.3572152    1.4481298   396900 
 1245000   0.96536394   -3.3550626   -3.3550626   -1.9070203  0.060662902   -3.3550626    1.4480423   396900 
 1246000   0.96381268   -3.3537753   -3.3537753   -1.9080599  0.052391189   -3.3537753    1.4457154   396900 
 1247000    0.9643463   -3.3552261   -3.3552261   -1.9087102  0.054515102   -3.3552261    1.4465158   396900 
 1248000   0.96398601   -3.3556735   -3.3556735   -1.9096982  0.054037332   -3.3556735    1.4459754   396900 
 1249000   0.96334479   -3.3536958   -3.3536958   -1.9086823  0.056365956   -3.3536958    1.4450135   396900 
 1250000    0.9620839   -3.3552973   -3.3552973   -1.9121751   0.05184641   -3.3552973    1.4431222   396900 
 1251000   0.96327227   -3.3549555   -3.3549555   -1.9100508  0.055976591   -3.3549555    1.4449048   396900 
 1252000    0.9636627   -3.3579891   -3.3579891   -1.9124987  0.056423686   -3.3579891    1.4454904   396900 
 1253000   0.96162092   -3.3554709   -3.3554709   -1.9130431  0.054763252   -3.3554709    1.4424277   396900 
 1254000   0.96267548   -3.3552945   -3.3552945    -1.911285  0.054248177   -3.3552945    1.4440096   396900 
 1255000   0.96307862   -3.3587548   -3.3587548   -1.9141405  0.057543895   -3.3587548    1.4446143   396900 
 1256000   0.96601317   -3.3616686   -3.3616686   -1.9126525  0.056362147   -3.3616686    1.4490161   396900 
 1257000    0.9619606   -3.3598823   -3.3598823    -1.916945  0.053901785   -3.3598823    1.4429373   396900 
 1258000   0.96296847   -3.3603536   -3.3603536   -1.9159046  0.058029953   -3.3603536    1.4444491   396900 
 1259000   0.96508502   -3.3626116   -3.3626116   -1.9149878   0.06018905   -3.3626116    1.4476239   396900 
 1260000   0.96474976   -3.3660264   -3.3660264   -1.9189054  0.061274554   -3.3660264     1.447121   396900 
 1261000   0.96255822   -3.3646778   -3.3646778   -1.9208441  0.052476017   -3.3646778    1.4438337   396900 
 1262000   0.96236258   -3.3631928   -3.3631928   -1.9196526   0.05687672   -3.3631928    1.4435402   396900 
 1263000   0.96554799   -3.3658863   -3.3658863    -1.917568  0.057481136   -3.3658863    1.4483183   396900 
 1264000   0.96351436    -3.364379    -3.364379    -1.919111  0.055150704    -3.364379    1.4452679   396900 
 1265000   0.96250088   -3.3651126   -3.3651126    -1.921365  0.053007175   -3.3651126    1.4437477   396900 
 1266000   0.96319596   -3.3639118   -3.3639118   -1.9191215  0.059762769   -3.3639118    1.4447903   396900 
 1267000   0.96102491    -3.363042    -3.363042   -1.9215082  0.056776582    -3.363042    1.4415337   396900 
 1268000   0.96370676   -3.3651394   -3.3651394    -1.919583  0.060412451   -3.3651394    1.4455565   396900 
 1269000    0.9629512   -3.3646533   -3.3646533   -1.9202301  0.060049076   -3.3646533    1.4444232   396900 
 1270000   0.96052622   -3.3618533   -3.3618533   -1.9210676  0.058767557   -3.3618533    1.4407857   396900 
 1271000   0.96301557   -3.3665293   -3.3665293   -1.9220096  0.052890493   -3.3665293    1.4445197   396900 
 1272000   0.96295401   -3.3660138   -3.3660138   -1.9215864  0.057680016   -3.3660138    1.4444274   396900 
 1273000   0.96260816   -3.3657685   -3.3657685   -1.9218599   0.05632412   -3.3657685    1.4439086   396900 
 1274000   0.96098086   -3.3617297   -3.3617297    -1.920262   0.05924017   -3.3617297    1.4414677   396900 
 1275000    0.9643695   -3.3660077   -3.3660077   -1.9194571  0.051809479   -3.3660077    1.4465506   396900 
 1276000    0.9627737   -3.3626346   -3.3626346   -1.9184776  0.058138304   -3.3626346    1.4441569   396900 
 1277000   0.96423878   -3.3639478   -3.3639478   -1.9175933  0.058468466   -3.3639478    1.4463545   396900 
 1278000   0.96298726    -3.364268    -3.364268   -1.9197908  0.057360661    -3.364268    1.4444773   396900 
 1279000   0.96188987   -3.3632253   -3.3632253   -1.9203941  0.052882046   -3.3632253    1.4428312   396900 
 1280000   0.96240198     -3.36489     -3.36489   -1.9212907  0.056394681     -3.36489    1.4435993   396900 
 1281000   0.96200666   -3.3674856   -3.3674856   -1.9244792  0.046403434   -3.3674856    1.4430063   396900 
 1282000   0.96257352   -3.3647375   -3.3647375   -1.9208808  0.058563208   -3.3647375    1.4438566   396900 
 1283000   0.96356063   -3.3640667   -3.3640667   -1.9187294   0.05943896   -3.3640667    1.4453373   396900 
 1284000   0.96197448   -3.3650015   -3.3650015   -1.9220434  0.058876488   -3.3650015    1.4429581   396900 
 1285000   0.96235946   -3.3667831   -3.3667831   -1.9232475  0.055713715   -3.3667831    1.4435356   396900 
 1286000   0.96266841   -3.3652071   -3.3652071   -1.9212081  0.058820958   -3.3652071     1.443999   396900 
 1287000   0.96276738   -3.3674656   -3.3674656   -1.9233182   0.05854077   -3.3674656    1.4441474   396900 
 1288000   0.96123569    -3.364731    -3.364731   -1.9228811  0.049590736    -3.364731    1.4418499   396900 
 1289000    0.9612206   -3.3646386   -3.3646386   -1.9228113  0.056171241   -3.3646386    1.4418273   396900 
 1290000   0.96118756   -3.3651861   -3.3651861   -1.9234084   0.05583352   -3.3651861    1.4417777   396900 
 1291000   0.96333112   -3.3678548   -3.3678548   -1.9228618  0.053337211   -3.3678548     1.444993   396900 
 1292000    0.9647784   -3.3670833   -3.3670833   -1.9199194  0.057065528   -3.3670833     1.447164   396900 
 1293000   0.96381294   -3.3660435   -3.3660435   -1.9203277  0.061138736   -3.3660435    1.4457158   396900 
 1294000   0.96417116   -3.3666355   -3.3666355   -1.9203824  0.059901328   -3.3666355    1.4462531   396900 
 1295000   0.96320905   -3.3677751   -3.3677751   -1.9229652  0.051720766   -3.3677751    1.4448099   396900 
 1296000   0.96234623   -3.3672031   -3.3672031   -1.9236874  0.051540759   -3.3672031    1.4435157   396900 
 1297000   0.96418258   -3.3694926   -3.3694926   -1.9232224  0.056291035   -3.3694926    1.4462702   396900 
 1298000   0.96387171   -3.3686852   -3.3686852   -1.9228813      0.06021   -3.3686852    1.4458039   396900 
 1299000   0.96363541   -3.3692471   -3.3692471   -1.9237976  0.056953558   -3.3692471    1.4454495   396900 
 1300000   0.96356027   -3.3717709   -3.3717709   -1.9264342  0.054312573   -3.3717709    1.4453368   396900 
 1301000   0.96416626   -3.3708479   -3.3708479   -1.9246022   0.05633077   -3.3708479    1.4462457   396900 
 1302000   0.96470966   -3.3696493   -3.3696493   -1.9225885  0.061006772   -3.3696493    1.4470608   396900 
 1303000    0.9634085   -3.3703177   -3.3703177   -1.9252085  0.057406059   -3.3703177    1.4451091   396900 
 1304000   0.96189548   -3.3689935   -3.3689935   -1.9261539  0.058671852   -3.3689935    1.4428396   396900 
 1305000   0.96284709   -3.3693094   -3.3693094   -1.9250424  0.055027827   -3.3693094     1.444267   396900 
 1306000   0.96259821    -3.368799    -3.368799   -1.9249053  0.058150887    -3.368799    1.4438937   396900 
 1307000   0.96307236   -3.3697942   -3.3697942   -1.9251893   0.05510213   -3.3697942    1.4446049   396900 
 1308000   0.96267659   -3.3718749   -3.3718749   -1.9278637  0.056445532   -3.3718749    1.4440112   396900 
 1309000    0.9625734   -3.3691471   -3.3691471   -1.9252906  0.060845695   -3.3691471    1.4438565   396900 
 1310000   0.96108561   -3.3720805   -3.3720805   -1.9304557  0.058648584   -3.3720805    1.4416248   396900 
 1311000   0.96144172    -3.374284    -3.374284    -1.932125  0.051468117    -3.374284     1.442159   396900 
 1312000   0.96326036   -3.3729995   -3.3729995   -1.9281126  0.060374888   -3.3729995    1.4448869   396900 
 1313000    0.9608335   -3.3743064   -3.3743064   -1.9330598  0.058242158   -3.3743064    1.4412466   396900 
 1314000   0.96219217   -3.3765115   -3.3765115   -1.9332269  0.055162861   -3.3765115    1.4432846   396900 
 1315000   0.96020999   -3.3755664   -3.3755664   -1.9352551  0.054317108   -3.3755664    1.4403113   396900 
 1316000   0.96247843   -3.3780891   -3.3780891   -1.9343751  0.053515426   -3.3780891     1.443714   396900 
 1317000   0.96053132   -3.3760355   -3.3760355   -1.9352421   0.05268392   -3.3760355    1.4407933   396900 
 1318000   0.96173527   -3.3758077   -3.3758077   -1.9332085  0.055797114   -3.3758077    1.4425993   396900 
 1319000   0.96087569    -3.374684    -3.374684   -1.9333741  0.058113221    -3.374684    1.4413099   396900 
 1320000   0.95987212    -3.376261    -3.376261   -1.9364564  0.051846251    -3.376261    1.4398046   396900 
 1321000   0.95870404   -3.3754369   -3.3754369   -1.9373845  0.056599032   -3.3754369    1.4380524   396900 
 1322000   0.96095976   -3.3769747   -3.3769747   -1.9355387  0.050735383   -3.3769747     1.441436   396900 
 1323000   0.96223319   -3.3770756   -3.3770756   -1.9337295  0.050722056   -3.3770756    1.4433461   396900 
 1324000   0.96183502   -3.3778389   -3.3778389     -1.93509  0.057405849   -3.3778389    1.4427489   396900 
 1325000   0.96208298   -3.3768147   -3.3768147   -1.9336938  0.058385193   -3.3768147    1.4431208   396900 
 1326000   0.96045361   -3.3737315   -3.3737315   -1.9330547  0.057409333   -3.3737315    1.4406768   396900 
 1327000   0.95951641   -3.3737208   -3.3737208   -1.9344498  0.055909125   -3.3737208     1.439271   396900 
 1328000   0.95939448   -3.3761032   -3.3761032   -1.9370151  0.048813302   -3.3761032    1.4390881   396900 
 1329000   0.95894785   -3.3759444   -3.3759444   -1.9375262  0.055454046   -3.3759444    1.4384181   396900 
 1330000   0.95844961   -3.3773027   -3.3773027   -1.9396319   0.05396929   -3.3773027    1.4376708   396900 
 1331000   0.95809495   -3.3772672   -3.3772672   -1.9401284  0.059233112   -3.3772672    1.4371388   396900 
 1332000   0.96014526   -3.3798586   -3.3798586   -1.9396443  0.051920048   -3.3798586    1.4402143   396900 
 1333000   0.96056148   -3.3770585   -3.3770585   -1.9362199  0.057918584   -3.3770585    1.4408386   396900 
 1334000   0.96034131   -3.3796096   -3.3796096   -1.9391012  0.055494804   -3.3796096    1.4405083   396900 
 1335000   0.95986682   -3.3798215   -3.3798215   -1.9400249   0.05578663   -3.3798215    1.4397966   396900 
 1336000   0.95905087   -3.3788025   -3.3788025   -1.9402298  0.060285396   -3.3788025    1.4385727   396900 
 1337000   0.96069577   -3.3805125   -3.3805125   -1.9394725  0.060718164   -3.3805125      1.44104   396900 
 1338000   0.96093844   -3.3793323   -3.3793323   -1.9379283  0.054882873   -3.3793323     1.441404   396900 
 1339000   0.95966807   -3.3781031   -3.3781031   -1.9386046  0.057477506   -3.3781031    1.4394985   396900 
 1340000   0.96098271   -3.3781359   -3.3781359   -1.9366655  0.054168024   -3.3781359    1.4414704   396900 
 1341000   0.96032008   -3.3773696   -3.3773696   -1.9368931   0.05256066   -3.3773696    1.4404765   396900 
 1342000   0.96098165   -3.3780415   -3.3780415   -1.9365727  0.052473227   -3.3780415    1.4414688   396900 
 1343000   0.95957433   -3.3767999   -3.3767999    -1.937442  0.055801832   -3.3767999    1.4393579   396900 
 1344000   0.96087592   -3.3794232   -3.3794232    -1.938113  0.053698664   -3.3794232    1.4413102   396900 
 1345000   0.96079941   -3.3794407   -3.3794407   -1.9382452   0.05278905   -3.3794407    1.4411955   396900 
 1346000   0.96188765   -3.3800249   -3.3800249   -1.9371971  0.060399135   -3.3800249    1.4428278   396900 
 1347000   0.96078831   -3.3786368   -3.3786368   -1.9374579  0.054564899   -3.3786368    1.4411788   396900 
 1348000   0.96160345   -3.3800208   -3.3800208   -1.9376192  0.056897337   -3.3800208    1.4424015   396900 
 1349000   0.96070942   -3.3801613   -3.3801613   -1.9391009  0.057925104   -3.3801613    1.4410605   396900 
 1350000   0.96062243   -3.3798336   -3.3798336   -1.9389036  0.061597708   -3.3798336      1.44093   396900 
 1351000   0.96011151   -3.3810873   -3.3810873   -1.9409236  0.052728132   -3.3810873    1.4401636   396900 
 1352000   0.96050315   -3.3819053   -3.3819053   -1.9411542  0.056205757   -3.3819053    1.4407511   396900 
 1353000   0.95944719   -3.3813218   -3.3813218   -1.9421546   0.04971319   -3.3813218    1.4391672   396900 
 1354000   0.95848283   -3.3815794   -3.3815794   -1.9438588  0.055262717   -3.3815794    1.4377206   396900 
 1355000   0.95882804   -3.3805599   -3.3805599   -1.9423214  0.050825596   -3.3805599    1.4382384   396900 
 1356000    0.9596994   -3.3821739   -3.3821739   -1.9426285   0.05748799   -3.3821739    1.4395455   396900 
 1357000   0.96013135   -3.3813725   -3.3813725   -1.9411791  0.051137119   -3.3813725    1.4401934   396900 
 1358000   0.95988932   -3.3816563   -3.3816563   -1.9418259   0.05758489   -3.3816563    1.4398304   396900 
 1359000   0.95871048   -3.3815437   -3.3815437   -1.9434816  0.057319356   -3.3815437    1.4380621   396900 
 1360000   0.96126346   -3.3852412   -3.3852412   -1.9433496  0.053578319   -3.3852412    1.4418916   396900 
 1361000   0.95981329   -3.3821107   -3.3821107   -1.9423944  0.054440817   -3.3821107    1.4397163   396900 
 1362000   0.95938357   -3.3816105   -3.3816105   -1.9425388  0.057311822   -3.3816105    1.4390717   396900 
 1363000   0.95924622    -3.382749    -3.382749   -1.9438833  0.058500048    -3.382749    1.4388657   396900 
 1364000   0.95933644   -3.3820178   -3.3820178   -1.9430167  0.055974084   -3.3820178     1.439001   396900 
 1365000   0.95888422   -3.3838894   -3.3838894   -1.9455667   0.04919487   -3.3838894    1.4383227   396900 
 1366000   0.95960089   -3.3851711   -3.3851711   -1.9457734  0.055599455   -3.3851711    1.4393977   396900 
 1367000   0.96093418   -3.3855027   -3.3855027   -1.9441051  0.053928822   -3.3855027    1.4413976   396900 
 1368000   0.96035535   -3.3870114   -3.3870114    -1.946482  0.057216408   -3.3870114    1.4405294   396900 
 1369000   0.96150529   -3.3874824   -3.3874824   -1.9452281  0.056856704   -3.3874824    1.4422543   396900 
 1370000   0.95708249   -3.3858165   -3.3858165   -1.9501964  0.058691263   -3.3858165    1.4356201   396900 
 1371000   0.95702854   -3.3866679   -3.3866679   -1.9511287  0.056449478   -3.3866679    1.4355392   396900 
 1372000   0.95924306   -3.3905527   -3.3905527   -1.9516917  0.059845663   -3.3905527     1.438861   396900 
 1373000    0.9583994   -3.3883467   -3.3883467   -1.9507512  0.057211342   -3.3883467    1.4375955   396900 
 1374000   0.96040266   -3.3910038   -3.3910038   -1.9504035  0.054846616   -3.3910038    1.4406004   396900 
 1375000   0.96267469   -3.3923202   -3.3923202   -1.9483117  0.056468977   -3.3923202    1.4440084   396900 
 1376000   0.96010195   -3.3900404   -3.3900404   -1.9498911  0.055723867   -3.3900404    1.4401493   396900 
 1377000   0.95892786   -3.3905463   -3.3905463   -1.9521582  0.055996314   -3.3905463    1.4383882   396900 
 1378000   0.95859316   -3.3891364   -3.3891364   -1.9512503  0.061109758   -3.3891364    1.4378861   396900 
 1379000   0.95979505   -3.3900374   -3.3900374   -1.9503484  0.051760568   -3.3900374     1.439689   396900 
 1380000   0.95769273   -3.3877222   -3.3877222   -1.9511867  0.051810187   -3.3877222    1.4365355   396900 
 1381000   0.95792124    -3.388922    -3.388922   -1.9520438  0.059603833    -3.388922    1.4368782   396900 
 1382000   0.95877532   -3.3900911   -3.3900911   -1.9519317   0.05632704   -3.3900911    1.4381594   396900 
 1383000   0.95899226   -3.3917134   -3.3917134   -1.9532286  0.057488443   -3.3917134    1.4384848   396900 
 1384000    0.9575757   -3.3898221   -3.3898221   -1.9534622  0.054649297   -3.3898221    1.4363599   396900 
 1385000   0.95606389    -3.390172    -3.390172   -1.9560798  0.056530407    -3.390172    1.4340922   396900 
 1386000   0.95863673   -3.3900677   -3.3900677   -1.9521162  0.056450959   -3.3900677    1.4379515   396900 
 1387000   0.95774897   -3.3904283   -3.3904283   -1.9538085  0.055424889   -3.3904283    1.4366198   396900 
 1388000   0.95901969    -3.391012    -3.391012   -1.9524861  0.054064937    -3.391012    1.4385259   396900 
 1389000   0.96019827   -3.3923412   -3.3923412   -1.9520474  0.056852885   -3.3923412    1.4402938   396900 
 1390000   0.96013806   -3.3916505   -3.3916505    -1.951447  0.057560671   -3.3916505    1.4402035   396900 
 1391000   0.95954487   -3.3894781   -3.3894781   -1.9501644  0.059269909   -3.3894781    1.4393137   396900 
 1392000   0.95866647   -3.3905296   -3.3905296   -1.9525335  0.058907755   -3.3905296    1.4379961   396900 
 1393000   0.95917254   -3.3902292   -3.3902292    -1.951474  0.057942263   -3.3902292    1.4387552   396900 
 1394000   0.95859806   -3.3892541   -3.3892541   -1.9513606   0.05497782   -3.3892541    1.4378935   396900 
 1395000   0.95888055   -3.3887482   -3.3887482    -1.950431  0.057312397   -3.3887482    1.4383172   396900 
 1396000   0.95871283   -3.3902734   -3.3902734   -1.9522078  0.054505142   -3.3902734    1.4380656   396900 
 1397000   0.96135954   -3.3910256   -3.3910256   -1.9489899  0.053046745   -3.3910256    1.4420357   396900 
 1398000   0.95907265   -3.3887956   -3.3887956   -1.9501902  0.055899379   -3.3887956    1.4386054   396900 
 1399000   0.96049244   -3.3871576   -3.3871576   -1.9464226   0.05442584   -3.3871576     1.440735   396900 
 1400000   0.95947058   -3.3882499   -3.3882499   -1.9490477  0.047419538   -3.3882499    1.4392022   396900 
 1401000   0.95973217   -3.3861578   -3.3861578   -1.9465632  0.051521803   -3.3861578    1.4395946   396900 
 1402000   0.96038145   -3.3855686   -3.3855686   -1.9450001  0.052733813   -3.3855686    1.4405685   396900 
 1403000   0.95965635   -3.3845134   -3.3845134   -1.9450325  0.053827106   -3.3845134    1.4394809   396900 
 1404000   0.95952056   -3.3833386   -3.3833386   -1.9440614  0.060600229   -3.3833386    1.4392772   396900 
 1405000   0.95901784   -3.3878026   -3.3878026   -1.9492795  0.053900086   -3.3878026    1.4385231   396900 
 1406000    0.9574046    -3.388122    -3.388122   -1.9520187  0.050795403    -3.388122    1.4361033   396900 
 1407000   0.95949147   -3.3906679   -3.3906679   -1.9514343  0.056433479   -3.3906679    1.4392336   396900 
 1408000   0.96027311   -3.3927408   -3.3927408   -1.9523348  0.055111903   -3.3927408     1.440406   396900 
 1409000   0.95820054   -3.3917389   -3.3917389   -1.9544417  0.054421453   -3.3917389    1.4372972   396900 
 1410000   0.95905176   -3.3919435   -3.3919435   -1.9533695  0.053315768   -3.3919435     1.438574   396900 
 1411000   0.95889694   -3.3920505   -3.3920505   -1.9537087  0.054690845   -3.3920505    1.4383418   396900 
 1412000   0.95685454   -3.3941708   -3.3941708   -1.9588926   0.05270933   -3.3941708    1.4352782   396900 
 1413000   0.95917236   -3.3963063   -3.3963063   -1.9575514  0.049020992   -3.3963063    1.4387549   396900 
 1414000   0.95651388   -3.3913317   -3.3913317   -1.9565645  0.058502327   -3.3913317    1.4347672   396900 
 1415000   0.95868277   -3.3926667   -3.3926667   -1.9546462  0.052926754   -3.3926667    1.4380205   396900 
 1416000   0.95705104    -3.391157    -3.391157    -1.955584  0.053836379    -3.391157    1.4355729   396900 
 1417000   0.95791843   -3.3929002   -3.3929002   -1.9560262  0.050823989   -3.3929002     1.436874   396900 
 1418000   0.95629029   -3.3914699   -3.3914699   -1.9570381   0.05127008   -3.3914699    1.4344318   396900 
 1419000    0.9594145   -3.3955439   -3.3955439   -1.9564258  0.055162966   -3.3955439    1.4391181   396900 
 1420000   0.95910389   -3.3968979   -3.3968979   -1.9582457  0.049865103   -3.3968979    1.4386522   396900 
 1421000   0.95765728    -3.393503    -3.393503   -1.9570207  0.051034839    -3.393503    1.4364823   396900 
 1422000   0.95851983   -3.3962428   -3.3962428   -1.9584667  0.054713203   -3.3962428    1.4377761   396900 
 1423000   0.95668011   -3.3945675   -3.3945675    -1.959551  0.057851915   -3.3945675    1.4350166   396900 
 1424000   0.95842533   -3.3973727   -3.3973727   -1.9597384  0.050156938   -3.3973727    1.4376344   396900 
 1425000   0.95698223   -3.3961633   -3.3961633   -1.9606936  0.046853351   -3.3961633    1.4354697   396900 
 1426000   0.95850263   -3.3966619   -3.3966619   -1.9589116  0.053485719   -3.3966619    1.4377503   396900 
 1427000   0.95862205   -3.3966691   -3.3966691   -1.9587397  0.058165305   -3.3966691    1.4379295   396900 
 1428000   0.95917226   -3.3984889   -3.3984889   -1.9597341  0.051841116   -3.3984889    1.4387548   396900 
 1429000   0.95695163   -3.3973891   -3.3973891   -1.9619652  0.055483349   -3.3973891    1.4354238   396900 
 1430000   0.95655623   -3.3984092   -3.3984092   -1.9635784   0.05397532   -3.3984092    1.4348307   396900 
 1431000   0.95722288   -3.3986834   -3.3986834   -1.9628527  0.050753419   -3.3986834    1.4358307   396900 
 1432000   0.95808077    -3.401093    -3.401093   -1.9639754  0.050539744    -3.401093    1.4371175   396900 
 1433000   0.95723028   -3.3996403   -3.3996403   -1.9637985  0.050926342   -3.3996403    1.4358418   396900 
 1434000   0.95590446   -3.3987133   -3.3987133   -1.9648602  0.052061184   -3.3987133    1.4338531   396900 
 1435000   0.95501548   -3.3978765   -3.3978765   -1.9653569  0.052020435   -3.3978765    1.4325196   396900 
 1436000   0.95699676   -3.4002193   -3.4002193   -1.9647278   0.04974153   -3.4002193    1.4354915   396900 
 1437000   0.95704101   -3.4012566   -3.4012566   -1.9656987   0.05483305   -3.4012566    1.4355579   396900 
 1438000   0.95573336   -3.4011871   -3.4011871   -1.9675907  0.052164874   -3.4011871    1.4335964   396900 
 1439000   0.95675095   -3.4014526   -3.4014526   -1.9663298  0.052521467   -3.4014526    1.4351228   396900 
 1440000   0.95761796   -3.4036518   -3.4036518   -1.9672285  0.048156906   -3.4036518    1.4364233   396900 
 1441000   0.95673788    -3.403726    -3.403726   -1.9686228  0.052463182    -3.403726    1.4351032   396900 
 1442000   0.95814704     -3.40441     -3.40441   -1.9671931  0.054631602     -3.40441    1.4372169   396900 
 1443000   0.95737041   -3.4047829   -3.4047829   -1.9687309  0.056289922   -3.4047829     1.436052   396900 
 1444000   0.95755945   -3.4077178   -3.4077178   -1.9713822  0.052474914   -3.4077178    1.4363356   396900 
 1445000   0.95817001   -3.4066018   -3.4066018   -1.9693504  0.060120683   -3.4066018    1.4372514   396900 
 1446000   0.95997338   -3.4091258   -3.4091258   -1.9691694  0.051497856   -3.4091258    1.4399564   396900 
 1447000    0.9577874   -3.4074438   -3.4074438   -1.9707664  0.054717094   -3.4074438    1.4366775   396900 
 1448000   0.95607464   -3.4058748   -3.4058748   -1.9717664  0.055382932   -3.4058748    1.4341083   396900 
 1449000    0.9560951     -3.40503     -3.40503    -1.970891  0.056267819     -3.40503     1.434139   396900 
 1450000   0.95573016   -3.4029973   -3.4029973   -1.9694057  0.057878215   -3.4029973    1.4335916   396900 
 1451000   0.95744703    -3.405411    -3.405411   -1.9692441  0.050172146    -3.405411    1.4361669   396900 
 1452000   0.95676258   -3.4043626   -3.4043626   -1.9692224  0.051604098   -3.4043626    1.4351403   396900 
 1453000   0.95593928   -3.4047558   -3.4047558   -1.9708505  0.056225455   -3.4047558    1.4339053   396900 
 1454000   0.95578457   -3.4044042   -3.4044042    -1.970731  0.055053063   -3.4044042    1.4336732   396900 
 1455000   0.95616646   -3.4048292   -3.4048292   -1.9705831  0.056592776   -3.4048292    1.4342461   396900 
 1456000   0.95484417   -3.4045841   -3.4045841   -1.9723215  0.051069318   -3.4045841    1.4322626   396900 
 1457000   0.95913193   -3.4094854   -3.4094854   -1.9707911  0.055286427   -3.4094854    1.4386943   396900 
 1458000   0.95751199   -3.4057258   -3.4057258   -1.9694614  0.056622758   -3.4057258    1.4362644   396900 
 1459000   0.95600781   -3.4041604   -3.4041604   -1.9701523  0.052019564   -3.4041604    1.4340081   396900 
 1460000   0.95796543   -3.4066099   -3.4066099   -1.9696653  0.051715182   -3.4066099    1.4369445   396900 
 1461000   0.95531672   -3.4057041   -3.4057041   -1.9727327  0.047864914   -3.4057041    1.4329715   396900 
 1462000   0.95678649   -3.4057671   -3.4057671    -1.970591  0.056683318   -3.4057671    1.4351761   396900 
 1463000   0.95585717   -3.4045147   -3.4045147   -1.9707326  0.053135527   -3.4045147    1.4337821   396900 
 1464000   0.95716165   -3.4054048   -3.4054048   -1.9696659  0.052841994   -3.4054048    1.4357389   396900 
 1465000   0.95537931   -3.4066973   -3.4066973    -1.973632   0.05537442   -3.4066973    1.4330654   396900 
 1466000   0.95589941    -3.406397    -3.406397   -1.9725515  0.053577962    -3.406397    1.4338455   396900 
 1467000   0.95536419    -3.407663    -3.407663   -1.9746203  0.053717751    -3.407663    1.4330427   396900 
 1468000   0.95639595   -3.4079555   -3.4079555   -1.9733652   0.05319835   -3.4079555    1.4345903   396900 
 1469000   0.95633866   -3.4083204   -3.4083204    -1.973816  0.051974846   -3.4083204    1.4345044   396900 
 1470000   0.95601501   -3.4076975   -3.4076975   -1.9736786  0.056200931   -3.4076975    1.4340189   396900 
 1471000   0.95674106   -3.4092693   -3.4092693   -1.9741614  0.053454284   -3.4092693     1.435108   396900 
 1472000   0.95589524   -3.4104726   -3.4104726   -1.9766334  0.051883982   -3.4104726    1.4338392   396900 
 1473000   0.95423595   -3.4098315   -3.4098315   -1.9784812   0.05036417   -3.4098315    1.4313503   396900 
 1474000   0.95440438   -3.4082414   -3.4082414   -1.9766384  0.058676929   -3.4082414     1.431603   396900 
 1475000   0.95603981   -3.4094725   -3.4094725   -1.9754164  0.059533435   -3.4094725    1.4340561   396900 
 1476000   0.95669671   -3.4117093   -3.4117093   -1.9766678  0.053003583   -3.4117093    1.4350415   396900 
 1477000   0.95407301   -3.4080897   -3.4080897   -1.9769838  0.051224813   -3.4080897    1.4311059   396900 
 1478000   0.95466528   -3.4082225   -3.4082225   -1.9762282  0.050227479   -3.4082225    1.4319943   396900 
 1479000   0.95396762   -3.4098094   -3.4098094   -1.9788616  0.049303464   -3.4098094    1.4309478   396900 
 1480000   0.95327299   -3.4064959   -3.4064959     -1.97659   0.04798243   -3.4064959    1.4299059   396900 
 1481000   0.95559939    -3.410263    -3.410263   -1.9768675  0.049646777    -3.410263    1.4333955   396900 
 1482000    0.9547183   -3.4096824   -3.4096824   -1.9776086   0.05370606   -3.4096824    1.4320738   396900 
 1483000   0.95470229   -3.4122421   -3.4122421   -1.9801923  0.053062214   -3.4122421    1.4320498   396900 
 1484000   0.95539563   -3.4115916   -3.4115916   -1.9785018  0.051975716   -3.4115916    1.4330898   396900 
 1485000   0.95649466   -3.4131778   -3.4131778   -1.9784394  0.050766562   -3.4131778    1.4347384   396900 
 1486000   0.95475251   -3.4098153   -3.4098153   -1.9776901  0.054230723   -3.4098153    1.4321252   396900 
 1487000   0.95473736   -3.4071873   -3.4071873   -1.9750849  0.051001401   -3.4071873    1.4321024   396900 
 1488000   0.95419659   -3.4073927   -3.4073927   -1.9761014  0.053694358   -3.4073927    1.4312913   396900 
 1489000   0.95671689   -3.4106777   -3.4106777    -1.975606   0.05288018   -3.4106777    1.4350717   396900 
 1490000   0.95653598   -3.4126075   -3.4126075   -1.9778071  0.048442747   -3.4126075    1.4348004   396900 
 1491000   0.95552395   -3.4116013   -3.4116013    -1.978319  0.053820637   -3.4116013    1.4332823   396900 
 1492000   0.95655034   -3.4111883   -3.4111883   -1.9763664   0.05287613   -3.4111883    1.4348219   396900 
 1493000   0.95648303    -3.411274    -3.411274   -1.9765531  0.060046427    -3.411274    1.4347209   396900 
 1494000   0.95490997   -3.4133434   -3.4133434    -1.980982  0.050891804   -3.4133434    1.4323614   396900 
 1495000   0.95472295    -3.412405    -3.412405   -1.9803242  0.054981571    -3.412405    1.4320808   396900 
 1496000    0.9557299   -3.4120197   -3.4120197   -1.9784284  0.054869081   -3.4120197    1.4335912   396900 
 1497000   0.95495263   -3.4112606   -3.4112606   -1.9788353  0.061452289   -3.4112606    1.4324253   396900 
 1498000   0.95464229   -3.4113248   -3.4113248   -1.9793649  0.056319617   -3.4113248    1.4319598   396900 
 1499000   0.95342114   -3.4110416   -3.4110416   -1.9809135  0.053375269   -3.4110416    1.4301281   396900 
 1500000   0.95544033   -3.4160581   -3.4160581   -1.9829012  0.055116422   -3.4160581    1.4331569   396900 
 1501000   0.95637691    -3.415761    -3.415761   -1.9811993  0.053329889    -3.415761    1.4345618   396900 
 1502000   0.95545071   -3.4142282   -3.4142282   -1.9810557  0.048712805   -3.4142282    1.4331725   396900 
 1503000    0.9532778   -3.4118556   -3.4118556   -1.9819424  0.053956045   -3.4118556    1.4299131   396900 
 1504000   0.95520377   -3.4156824   -3.4156824   -1.9828804  0.054842117   -3.4156824     1.432802   396900 
 1505000   0.95463761   -3.4154646   -3.4154646   -1.9835118  0.054827993   -3.4154646    1.4319528   396900 
 1506000   0.95384344   -3.4147049   -3.4147049   -1.9839433  0.054343238   -3.4147049    1.4307615   396900 
 1507000   0.95351688    -3.417389    -3.417389   -1.9871173  0.048648634    -3.417389    1.4302717   396900 
 1508000   0.95361445   -3.4157983   -3.4157983   -1.9853802  0.050836258   -3.4157983    1.4304181   396900 
 1509000   0.95448969   -3.4178992   -3.4178992   -1.9861683  0.052675865   -3.4178992    1.4317309   396900 
 1510000   0.95359273   -3.4182301   -3.4182301   -1.9878446  0.053223023   -3.4182301    1.4303855   396900 
 1511000   0.95144588   -3.4168845   -3.4168845   -1.9897192  0.051901675   -3.4168845    1.4271652   396900 
 1512000   0.95388122   -3.4192574   -3.4192574   -1.9884391   0.04989738   -3.4192574    1.4308182   396900 
 1513000    0.9537368    -3.421301    -3.421301   -1.9906994  0.051945017    -3.421301    1.4306016   396900 
 1514000   0.95227015   -3.4196283   -3.4196283   -1.9912267  0.048145135   -3.4196283    1.4284016   396900 
 1515000    0.9532757   -3.4206032   -3.4206032   -1.9906932  0.055877882   -3.4206032      1.42991   396900 
 1516000   0.95293028   -3.4207248   -3.4207248   -1.9913329  0.047033455   -3.4207248    1.4293918   396900 
 1517000   0.95383561   -3.4212132   -3.4212132   -1.9904634  0.052967204   -3.4212132    1.4307498   396900 
 1518000   0.95408783   -3.4219795   -3.4219795   -1.9908514   0.05881867   -3.4219795    1.4311281   396900 
 1519000   0.95677635   -3.4245306   -3.4245306   -1.9893697  0.052287959   -3.4245306    1.4351609   396900 
 1520000   0.95645815   -3.4248642   -3.4248642   -1.9901806   0.05668651   -3.4248642    1.4346836   396900 
 1521000   0.95629663   -3.4245101   -3.4245101   -1.9900688  0.053552241   -3.4245101    1.4344413   396900 
 1522000   0.95350711     -3.42367     -3.42367    -1.993413  0.052079233     -3.42367    1.4302571   396900 
 1523000    0.9534559   -3.4223281   -3.4223281   -1.9921479  0.056238325   -3.4223281    1.4301803   396900 
 1524000   0.95237918   -3.4227209   -3.4227209   -1.9941557  0.052571551   -3.4227209    1.4285652   396900 
 1525000   0.95451701   -3.4214757   -3.4214757   -1.9897038  0.055629402   -3.4214757    1.4317719   396900 
 1526000   0.95542338    -3.420493    -3.420493   -1.9873615  0.054938341    -3.420493    1.4331315   396900 
 1527000   0.95554273   -3.4225155   -3.4225155    -1.989205  0.054357057   -3.4225155    1.4333105   396900 
 1528000   0.95434524   -3.4214151   -3.4214151   -1.9899009  0.051648305   -3.4214151    1.4315143   396900 
 1529000   0.95352986   -3.4221477   -3.4221477   -1.9918565  0.050043752   -3.4221477    1.4302912   396900 
 1530000   0.95468239   -3.4212714   -3.4212714   -1.9892514  0.054008222   -3.4212714      1.43202   396900 
 1531000   0.95566334   -3.4222293   -3.4222293   -1.9887379  0.053042876   -3.4222293    1.4334914   396900 
 1532000   0.95324967   -3.4199941   -3.4199941   -1.9901232   0.05403271   -3.4199941    1.4298709   396900 
 1533000   0.95477677   -3.4234388   -3.4234388   -1.9912773  0.050781847   -3.4234388    1.4321615   396900 
 1534000   0.95463195   -3.4228335   -3.4228335   -1.9908892   0.05331163   -3.4228335    1.4319443   396900 
 1535000   0.95324993   -3.4217726   -3.4217726   -1.9919013  0.051114537   -3.4217726    1.4298713   396900 
 1536000   0.95248148   -3.4227703   -3.4227703   -1.9940517  0.049372467   -3.4227703    1.4287186   396900 
 1537000   0.95172783   -3.4198474   -3.4198474   -1.9922593  0.051355331   -3.4198474    1.4275881   396900 
 1538000   0.95332742   -3.4188649   -3.4188649   -1.9888773  0.057086941   -3.4188649    1.4299875   396900 
 1539000   0.95288843   -3.4214557   -3.4214557   -1.9921266  0.052712697   -3.4214557    1.4293291   396900 
 1540000   0.95122191   -3.4202395   -3.4202395   -1.9934103  0.052546667   -3.4202395    1.4268293   396900 
 1541000   0.95314341   -3.4207277   -3.4207277   -1.9910162    0.0548109   -3.4207277    1.4297115   396900 
 1542000   0.95247278   -3.4204319   -3.4204319   -1.9917263  0.054670168   -3.4204319    1.4287056   396900 
 1543000   0.95294963   -3.4204151   -3.4204151   -1.9909942  0.051779787   -3.4204151    1.4294208   396900 
 1544000   0.95524937   -3.4225191   -3.4225191   -1.9896486  0.055122519   -3.4225191    1.4328704   396900 
 1545000   0.95397509    -3.423479    -3.423479     -1.99252  0.055092312    -3.423479     1.430959   396900 
 1546000   0.95452386   -3.4226905   -3.4226905   -1.9909083  0.053287437   -3.4226905    1.4317822   396900 
 1547000   0.95248534   -3.4220424   -3.4220424    -1.993318  0.047833356   -3.4220424    1.4287244   396900 
 1548000   0.95358984   -3.4218791   -3.4218791   -1.9914979  0.050157186   -3.4218791    1.4303812   396900 
 1549000   0.95029497    -3.418075    -3.418075   -1.9926362   0.05426894    -3.418075    1.4254389   396900 
 1550000   0.95291004   -3.4210251   -3.4210251   -1.9916637  0.051500537   -3.4210251    1.4293615   396900 
 1551000   0.95221536   -3.4197021   -3.4197021   -1.9913827  0.048899603   -3.4197021    1.4283194   396900 
 1552000   0.95550015   -3.4239983   -3.4239983   -1.9907517  0.048253477   -3.4239983    1.4332466   396900 
 1553000   0.95447092   -3.4219045   -3.4219045   -1.9902017  0.050442934   -3.4219045    1.4317028   396900 
 1554000   0.95396119   -3.4242358   -3.4242358   -1.9932976  0.053992561   -3.4242358    1.4309382   396900 
 1555000   0.95374215   -3.4241383   -3.4241383   -1.9935286   0.05330669   -3.4241383    1.4306096   396900 
 1556000   0.95320766   -3.4225551   -3.4225551   -1.9927472  0.049367249   -3.4225551    1.4298079   396900 
 1557000    0.9532025   -3.4240428   -3.4240428   -1.9942426  0.047056821   -3.4240428    1.4298001   396900 
 1558000   0.95191816    -3.423057    -3.423057   -1.9951834  0.053324913    -3.423057    1.4278736   396900 
 1559000   0.95224783   -3.4244993   -3.4244993   -1.9961311  0.053065191   -3.4244993    1.4283682   396900 
 1560000   0.95284071   -3.4264035   -3.4264035   -1.9971461  0.050118164   -3.4264035    1.4292575   396900 
 1561000   0.95137053   -3.4264168   -3.4264168   -1.9993646  0.050657825   -3.4264168    1.4270522   396900 
 1562000    0.9522595   -3.4266265   -3.4266265   -1.9982409  0.052923667   -3.4266265    1.4283856   396900 
 1563000   0.95371053   -3.4269343   -3.4269343   -1.9963721  0.050445537   -3.4269343    1.4305622   396900 
 1564000   0.95229722    -3.427867    -3.427867   -1.9994247  0.050077511    -3.427867    1.4284422   396900 
 1565000   0.95366365   -3.4281795   -3.4281795   -1.9976876  0.052954808   -3.4281795    1.4304919   396900 
 1566000    0.9526256   -3.4279504   -3.4279504   -1.9990156  0.058582327   -3.4279504    1.4289348   396900 
 1567000   0.95144817   -3.4283809   -3.4283809   -2.0012122  0.054207832   -3.4283809    1.4271687   396900 
 1568000   0.95221258   -3.4295629   -3.4295629   -2.0012476   0.05236154   -3.4295629    1.4283153   396900 
 1569000   0.95319702   -3.4286717   -3.4286717   -1.9988798   0.05565712   -3.4286717    1.4297919   396900 
 1570000   0.95364703   -3.4291053   -3.4291053   -1.9986384  0.055005949   -3.4291053    1.4304669   396900 
 1571000    0.9512325   -3.4279549   -3.4279549   -2.0011098  0.055113558   -3.4279549    1.4268452   396900 
 1572000   0.95141084   -3.4290802   -3.4290802   -2.0019676  0.049283858   -3.4290802    1.4271127   396900 
 1573000   0.95134146   -3.4291586   -3.4291586     -2.00215  0.054488089   -3.4291586    1.4270086   396900 
 1574000   0.95058507   -3.4270522   -3.4270522   -2.0011782  0.055227365   -3.4270522     1.425874   396900 
 1575000   0.95316779   -3.4318992   -3.4318992   -2.0021511  0.049418224   -3.4318992    1.4297481   396900 
 1576000     0.950168   -3.4277492   -3.4277492   -2.0025008  0.054963117   -3.4277492    1.4252484   396900 
 1577000   0.95006284   -3.4287461   -3.4287461   -2.0036554  0.047928524   -3.4287461    1.4250907   396900 
 1578000   0.95069143   -3.4303792   -3.4303792   -2.0043457  0.050748999   -3.4303792    1.4260335   396900 
 1579000   0.95162709   -3.4290119   -3.4290119   -2.0015748  0.054422048   -3.4290119     1.427437   396900 
 1580000   0.95284113   -3.4317284   -3.4317284   -2.0024703  0.050011996   -3.4317284    1.4292581   396900 
 1581000   0.95254387   -3.4299763   -3.4299763   -2.0011641  0.055098258   -3.4299763    1.4288122   396900 
 1582000   0.95234684    -3.431891    -3.431891   -2.0033744    0.0525825    -3.431891    1.4285167   396900 
 1583000   0.95015674   -3.4271815   -3.4271815     -2.00195  0.055052945   -3.4271815    1.4252315   396900 
 1584000   0.95101957   -3.4312086   -3.4312086   -2.0046828  0.051502132   -3.4312086    1.4265258   396900 
 1585000   0.95116724   -3.4335234   -3.4335234   -2.0067761  0.048578041   -3.4335234    1.4267473   396900 
 1586000   0.94897094   -3.4312931   -3.4312931   -2.0078403  0.054841287   -3.4312931    1.4234528   396900 
 1587000   0.95006109   -3.4328025   -3.4328025   -2.0077145  0.047109548   -3.4328025     1.425088   396900 
 1588000   0.94991749   -3.4315757   -3.4315757    -2.006703  0.054511057   -3.4315757    1.4248726   396900 
 1589000   0.95168559   -3.4355109   -3.4355109   -2.0079861  0.050689644   -3.4355109    1.4275248   396900 
 1590000   0.95099978   -3.4324868   -3.4324868   -2.0059907  0.054606965   -3.4324868    1.4264961   396900 
 1591000   0.94965123    -3.433444    -3.433444   -2.0089707  0.048285375    -3.433444    1.4244733   396900 
 1592000   0.95324648   -3.4349297   -3.4349297   -2.0050636  0.049135876   -3.4349297    1.4298661   396900 
 1593000   0.95244437   -3.4350276   -3.4350276   -2.0063646   0.05287681   -3.4350276     1.428663   396900 
 1594000   0.94956387   -3.4345794   -3.4345794   -2.0102372  0.052647229   -3.4345794    1.4243422   396900 
 1595000   0.95115086   -3.4340869   -3.4340869   -2.0073642  0.052681896   -3.4340869    1.4267227   396900 
 1596000   0.95037682   -3.4325254   -3.4325254   -2.0069638  0.051747928   -3.4325254    1.4255616   396900 
 1597000   0.94956157   -3.4326759   -3.4326759   -2.0083371  0.052285536   -3.4326759    1.4243388   396900 
 1598000   0.95185742   -3.4353544   -3.4353544   -2.0075718  0.047111323   -3.4353544    1.4277825   396900 
 1599000   0.95149007   -3.4346251   -3.4346251   -2.0073936  0.050243019   -3.4346251    1.4272315   396900 
 1600000   0.95022114   -3.4336284   -3.4336284   -2.0083003  0.045679605   -3.4336284    1.4253281   396900 
 1601000   0.95051153   -3.4342715   -3.4342715   -2.0085078  0.047271807   -3.4342715    1.4257637   396900 
 1602000   0.94940426   -3.4343953   -3.4343953   -2.0102925  0.052169662   -3.4343953    1.4241028   396900 
 1603000   0.95031889   -3.4349392   -3.4349392   -2.0094645  0.050185357   -3.4349392    1.4254747   396900 
 1604000   0.95012439   -3.4368908   -3.4368908   -2.0117078  0.050005492   -3.4368908     1.425183   396900 
 1605000   0.94977334    -3.435435    -3.435435   -2.0107786  0.048270025    -3.435435    1.4246564   396900 
 1606000   0.94928487   -3.4364264   -3.4364264   -2.0125027  0.051583449   -3.4364264    1.4239237   396900 
 1607000   0.95016539   -3.4387261   -3.4387261   -2.0134816  0.050097804   -3.4387261    1.4252445   396900 
 1608000   0.95149113   -3.4391222   -3.4391222   -2.0118891   0.05655361   -3.4391222    1.4272331   396900 
 1609000   0.95006081   -3.4376343   -3.4376343   -2.0125467  0.054006767   -3.4376343    1.4250876   396900 
 1610000    0.9498675   -3.4387248   -3.4387248   -2.0139271  0.049196585   -3.4387248    1.4247977   396900 
 1611000   0.95026044   -3.4408533   -3.4408533   -2.0154663  0.045814558   -3.4408533    1.4253871   396900 
 1612000   0.95027858   -3.4394222   -3.4394222   -2.0140079  0.048509168   -3.4394222    1.4254143   396900 
 1613000   0.95077986   -3.4414532   -3.4414532    -2.015287  0.048931469   -3.4414532    1.4261662   396900 
 1614000   0.95039814   -3.4386053   -3.4386053   -2.0130117  0.052763334   -3.4386053    1.4255936   396900 
 1615000   0.94977311   -3.4397573   -3.4397573   -2.0151013  0.054269917   -3.4397573    1.4246561   396900 
 1616000   0.95226522   -3.4434199   -3.4434199   -2.0150257  0.052712531   -3.4434199    1.4283942   396900 
 1617000    0.9482577   -3.4396142   -3.4396142   -2.0172313   0.05463272   -3.4396142     1.422383   396900 
 1618000   0.94967502   -3.4405351   -3.4405351   -2.0160261  0.049001849   -3.4405351    1.4245089   396900 
 1619000   0.94853928   -3.4413618   -3.4413618   -2.0185565  0.051427989   -3.4413618    1.4228053   396900 
 1620000   0.94807163   -3.4434175   -3.4434175   -2.0213136   0.04677203   -3.4434175    1.4221039   396900 
 1621000   0.94831946   -3.4417303   -3.4417303   -2.0192547  0.054813507   -3.4417303    1.4224756   396900 
 1622000   0.94802896   -3.4401589   -3.4401589    -2.018119  0.050723146   -3.4401589    1.4220399   396900 
 1623000   0.94926701   -3.4430646   -3.4430646   -2.0191677  0.049447716   -3.4430646    1.4238969   396900 
 1624000    0.9486745   -3.4413465   -3.4413465   -2.0183383  0.051098522   -3.4413465    1.4230082   396900 
 1625000   0.94832984    -3.441115    -3.441115   -2.0186238  0.052423814    -3.441115    1.4224912   396900 
 1626000   0.94933631   -3.4431713   -3.4431713   -2.0191704  0.052614673   -3.4431713    1.4240009   396900 
 1627000    0.9497716   -3.4434319   -3.4434319   -2.0187781  0.050852871   -3.4434319    1.4246538   396900 
 1628000   0.94924839   -3.4426003   -3.4426003   -2.0187313   0.05270952   -3.4426003     1.423869   396900 
 1629000   0.94921175   -3.4427701   -3.4427701   -2.0189561   0.05202649   -3.4427701     1.423814   396900 
 1630000   0.94943536   -3.4441655   -3.4441655    -2.020016  0.051717806   -3.4441655    1.4241495   396900 
 1631000   0.94970016   -3.4434101   -3.4434101   -2.0188635  0.054127018   -3.4434101    1.4245466   396900 
 1632000   0.95072737   -3.4453638   -3.4453638   -2.0192764  0.052023347   -3.4453638    1.4260875   396900 
 1633000   0.95020582   -3.4443263   -3.4443263   -2.0190212  0.052242158   -3.4443263    1.4253051   396900 
 1634000   0.94935293   -3.4426103   -3.4426103   -2.0185845  0.050871055   -3.4426103    1.4240258   396900 
 1635000    0.9493537   -3.4421583   -3.4421583   -2.0181314  0.050298729   -3.4421583     1.424027   396900 
 1636000   0.94840229   -3.4430188   -3.4430188    -2.020419  0.048388257   -3.4430188    1.4225998   396900 
 1637000   0.94683457   -3.4408112   -3.4408112   -2.0205629  0.049264395   -3.4408112    1.4202483   396900 
 1638000   0.94792722   -3.4409129   -3.4409129   -2.0190256  0.051908596   -3.4409129    1.4218872   396900 
 1639000   0.94771656   -3.4417536   -3.4417536   -2.0201824  0.049134847   -3.4417536    1.4215713   396900 
 1640000   0.95000495   -3.4445297   -3.4445297   -2.0195259  0.050628654   -3.4445297    1.4250038   396900 
 1641000   0.95132887   -3.4473392   -3.4473392   -2.0203495  0.053954321   -3.4473392    1.4269897   396900 
 1642000   0.95193584   -3.4471053   -3.4471053   -2.0192052  0.049734471   -3.4471053    1.4279002   396900 
 1643000   0.95071566   -3.4458242   -3.4458242   -2.0197543  0.048509804   -3.4458242    1.4260699   396900 
 1644000   0.94857337   -3.4447235   -3.4447235    -2.021867  0.057571814   -3.4447235    1.4228565   396900 
 1645000   0.94890508   -3.4456298   -3.4456298   -2.0222758  0.054474825   -3.4456298     1.423354   396900 
 1646000   0.94792472   -3.4448853   -3.4448853   -2.0230018  0.048908163   -3.4448853    1.4218835   396900 
 1647000   0.94732722     -3.44554     -3.44554   -2.0245527   0.04942739     -3.44554    1.4209872   396900 
 1648000   0.94925653   -3.4474905   -3.4474905   -2.0236093  0.050971043   -3.4474905    1.4238812   396900 
 1649000   0.94715636    -3.446378    -3.446378    -2.025647  0.054027457    -3.446378     1.420731   396900 
 1650000   0.94739453   -3.4475581   -3.4475581   -2.0264699  0.055510585   -3.4475581    1.4210882   396900 
 1651000    0.9473497   -3.4486064   -3.4486064   -2.0275854  0.050013001   -3.4486064     1.421021   396900 
 1652000   0.94723029   -3.4486734   -3.4486734   -2.0278315  0.047942348   -3.4486734    1.4208419   396900 
 1653000   0.94874553   -3.4483383   -3.4483383   -2.0252236  0.050643784   -3.4483383    1.4231147   396900 
 1654000   0.94892026   -3.4473307   -3.4473307   -2.0239539  0.050247623   -3.4473307    1.4233768   396900 
 1655000   0.94801333   -3.4475217   -3.4475217   -2.0255053  0.050120792   -3.4475217    1.4220164   396900 
 1656000   0.94889333   -3.4476443   -3.4476443   -2.0243079  0.047696183   -3.4476443    1.4233364   396900 
 1657000    0.9487521   -3.4474027   -3.4474027   -2.0242782  0.051178486   -3.4474027    1.4231246   396900 
 1658000   0.94915019   -3.4489114   -3.4489114   -2.0251897  0.050317313   -3.4489114    1.4237217   396900 
 1659000   0.95081153   -3.4481945   -3.4481945   -2.0219808  0.055292074   -3.4481945    1.4262137   396900 
 1660000   0.94940924   -3.4486757   -3.4486757   -2.0245654  0.053651743   -3.4486757    1.4241103   396900 
 1661000   0.94876594    -3.448255    -3.448255   -2.0251097  0.049192496    -3.448255    1.4231453   396900 
 1662000   0.95044944   -3.4472863   -3.4472863   -2.0216157  0.052299617   -3.4472863    1.4256706   396900 
 1663000   0.95068943   -3.4497498   -3.4497498   -2.0237193  0.050641227   -3.4497498    1.4260306   396900 
 1664000   0.94997157   -3.4478171   -3.4478171   -2.0228634  0.051096754   -3.4478171    1.4249538   396900 
 1665000   0.94823905   -3.4448449   -3.4448449   -2.0224899  0.048731295   -3.4448449     1.422355   396900 
 1666000   0.94667701   -3.4448913   -3.4448913   -2.0248794  0.046243319   -3.4448913    1.4200119   396900 
 1667000   0.94816714   -3.4455265   -3.4455265   -2.0232793  0.047696896   -3.4455265    1.4222471   396900 
 1668000   0.94771533   -3.4448694   -3.4448694   -2.0232999  0.048748934   -3.4448694    1.4215694   396900 
 1669000   0.94782105    -3.446281    -3.446281    -2.024553  0.049060253    -3.446281     1.421728   396900 
 1670000   0.94728863    -3.446765    -3.446765   -2.0258357  0.048530108    -3.446765    1.4209294   396900 
 1671000   0.94592308   -3.4461556   -3.4461556   -2.0272745  0.047824457   -3.4461556    1.4188811   396900 
 1672000   0.94899721   -3.4508538   -3.4508538   -2.0273616  0.047134914   -3.4508538    1.4234922   396900 
 1673000   0.95086937   -3.4513063   -3.4513063   -2.0250058  0.046271554   -3.4513063    1.4263005   396900 
 1674000   0.94771713   -3.4498892   -3.4498892   -2.0283171  0.050941896   -3.4498892    1.4215721   396900 
 1675000   0.94636819   -3.4492316   -3.4492316   -2.0296829  0.047895308   -3.4492316    1.4195487   396900 
 1676000   0.94865043   -3.4500148   -3.4500148   -2.0270428   0.05223826   -3.4500148    1.4229721   396900 
 1677000   0.94807429   -3.4501766   -3.4501766   -2.0280688  0.052451374   -3.4501766    1.4221078   396900 
 1678000   0.94917458   -3.4527036   -3.4527036   -2.0289453  0.053457315   -3.4527036    1.4237583   396900 
 1679000   0.94660342   -3.4525425   -3.4525425   -2.0326409  0.044373946   -3.4525425    1.4199015   396900 
 1680000   0.94714117    -3.451105    -3.451105   -2.0303968  0.047714509    -3.451105    1.4207082   396900 
 1681000   0.94734109   -3.4536573   -3.4536573   -2.0326493  0.048210448   -3.4536573    1.4210081   396900 
 1682000   0.94675212   -3.4547324   -3.4547324   -2.0346078  0.047232329   -3.4547324    1.4201246   396900 
 1683000    0.9460648   -3.4557651   -3.4557651   -2.0366714  0.048482715   -3.4557651    1.4190936   396900 
 1684000   0.94853957   -3.4544062   -3.4544062   -2.0316005   0.05476507   -3.4544062    1.4228058   396900 
 1685000   0.94785238    -3.453953    -3.453953    -2.032178  0.049287946    -3.453953     1.421775   396900 
 1686000   0.94749739   -3.4546081   -3.4546081   -2.0333656  0.048573837   -3.4546081    1.4212425   396900 
 1687000   0.94806805   -3.4553604   -3.4553604   -2.0332619  0.048902599   -3.4553604    1.4220985   396900 
 1688000   0.94578851   -3.4547794   -3.4547794   -2.0361002  0.051086965   -3.4547794    1.4186792   396900 
 1689000   0.94708265   -3.4573212   -3.4573212   -2.0367008  0.048885847   -3.4573212    1.4206204   396900 
 1690000    0.9459147    -3.455779    -3.455779   -2.0369105  0.054132356    -3.455779    1.4188685   396900 
 1691000   0.94747782   -3.4580492   -3.4580492    -2.036836  0.052250687   -3.4580492    1.4212132   396900 
 1692000   0.94728653   -3.4586813   -3.4586813   -2.0377551  0.054793733   -3.4586813    1.4209262   396900 
 1693000   0.94861954   -3.4594566   -3.4594566   -2.0365309  0.053202563   -3.4594566    1.4229257   396900 
 1694000   0.94704614   -3.4559615   -3.4559615   -2.0353959  0.049795309   -3.4559615    1.4205656   396900 
 1695000   0.94706188   -3.4570749   -3.4570749   -2.0364857  0.049864148   -3.4570749    1.4205892   396900 
 1696000   0.94685533   -3.4553579   -3.4553579   -2.0350785  0.051580644   -3.4553579    1.4202794   396900 
 1697000   0.94516463   -3.4553373   -3.4553373   -2.0375939  0.047003823   -3.4553373    1.4177434   396900 
 1698000   0.94501812    -3.454533    -3.454533   -2.0370094  0.048322826    -3.454533    1.4175236   396900 
 1699000    0.9472716   -3.4583519   -3.4583519   -2.0374481  0.048114484   -3.4583519    1.4209038   396900 
 1700000   0.94774339   -3.4590115   -3.4590115      -2.0374  0.045890836   -3.4590115    1.4216115   396900 
 1701000   0.94529734   -3.4561825   -3.4561825     -2.03824  0.046109089   -3.4561825    1.4179424   396900 
 1702000   0.94664183    -3.457431    -3.457431   -2.0374718  0.052221979    -3.457431    1.4199592   396900 
 1703000    0.9473162   -3.4581704   -3.4581704   -2.0371996  0.049565188   -3.4581704    1.4209707   396900 
 1704000   0.94730241   -3.4585529   -3.4585529   -2.0376028  0.050279116   -3.4585529      1.42095   396900 
 1705000   0.94586509   -3.4574107   -3.4574107   -2.0386167  0.049902211   -3.4574107    1.4187941   396900 
 1706000   0.94747589    -3.460266    -3.460266   -2.0390557  0.049360966    -3.460266    1.4212103   396900 
 1707000    0.9457549    -3.457388    -3.457388   -2.0387592  0.053834595    -3.457388    1.4186288   396900 
 1708000   0.94789665   -3.4613927   -3.4613927   -2.0395513  0.048873276   -3.4613927    1.4218414   396900 
 1709000   0.94750449   -3.4621455   -3.4621455   -2.0408924  0.042995066   -3.4621455    1.4212532   396900 
 1710000   0.94555006   -3.4604321   -3.4604321   -2.0421106  0.044033414   -3.4604321    1.4183215   396900 
 1711000   0.94645732   -3.4629858   -3.4629858   -2.0433034   0.04814916   -3.4629858    1.4196824   396900 
 1712000   0.94802197   -3.4615671   -3.4615671   -2.0395377  0.053516835   -3.4615671    1.4220294   396900 
 1713000   0.94838925   -3.4630803   -3.4630803      -2.0405  0.048598007   -3.4630803    1.4225803   396900 
 1714000   0.94826641     -3.46278     -3.46278    -2.040384  0.052945931     -3.46278     1.422396   396900 
 1715000   0.94715542   -3.4634896   -3.4634896   -2.0427601  0.048212667   -3.4634896    1.4207295   396900 
 1716000   0.94678387   -3.4656709   -3.4656709   -2.0454986  0.047899966   -3.4656709    1.4201722   396900 
 1717000   0.94819412   -3.4659831   -3.4659831   -2.0436955  0.050442913   -3.4659831    1.4222876   396900 
 1718000   0.94720243   -3.4639939   -3.4639939   -2.0431938  0.055069878   -3.4639939    1.4208001   396900 
 1719000   0.94612017   -3.4625617   -3.4625617    -2.043385  0.052144524   -3.4625617    1.4191767   396900 
 1720000   0.94530758   -3.4617353   -3.4617353   -2.0437775  0.053807925   -3.4617353    1.4179578   396900 
 1721000    0.9482556   -3.4656376   -3.4656376   -2.0432578  0.048728362   -3.4656376    1.4223798   396900 
 1722000   0.94609144   -3.4622094   -3.4622094   -2.0430758  0.051950035   -3.4622094    1.4191336   396900 
 1723000   0.94513697   -3.4625986   -3.4625986   -2.0448967  0.048661637   -3.4625986    1.4177019   396900 
 1724000   0.94661938     -3.46429     -3.46429   -2.0443645  0.048952101     -3.46429    1.4199255   396900 
 1725000   0.94741028    -3.465158    -3.465158   -2.0440462  0.052648293    -3.465158    1.4211118   396900 
 1726000   0.94636553   -3.4625335   -3.4625335   -2.0429887  0.054512234   -3.4625335    1.4195447   396900 
 1727000   0.94653102   -3.4620463   -3.4620463   -2.0422534  0.053229525   -3.4620463     1.419793   396900 
 1728000   0.94724234   -3.4653373   -3.4653373   -2.0444774  0.047996982   -3.4653373    1.4208599   396900 
 1729000   0.94676453   -3.4656871   -3.4656871   -2.0455438  0.049730678   -3.4656871    1.4201432   396900 
 1730000   0.94620647   -3.4652005   -3.4652005   -2.0458944  0.049056214   -3.4652005    1.4193061   396900 
 1731000   0.94638504   -3.4654393   -3.4654393   -2.0458653  0.044474255   -3.4654393     1.419574   396900 
 1732000   0.94516989    -3.466091    -3.466091   -2.0483398  0.051262236    -3.466091    1.4177513   396900 
 1733000   0.94640492   -3.4681923   -3.4681923   -2.0485885  0.050333733   -3.4681923    1.4196038   396900 
 1734000   0.94587494   -3.4677718   -3.4677718    -2.048963   0.05127773   -3.4677718    1.4188088   396900 
 1735000   0.94593259   -3.4658671   -3.4658671   -2.0469717  0.047239553   -3.4658671    1.4188953   396900 
 1736000    0.9469874   -3.4696736   -3.4696736   -2.0491961  0.046193776   -3.4696736    1.4204775   396900 
 1737000   0.94585959   -3.4689229   -3.4689229   -2.0501371  0.050317846   -3.4689229    1.4187858   396900 
 1738000   0.94404161   -3.4681766   -3.4681766   -2.0521177  0.055149321   -3.4681766    1.4160588   396900 
 1739000   0.94657134   -3.4714158   -3.4714158   -2.0515624  0.053196466   -3.4714158    1.4198534   396900 
 1740000   0.94617525   -3.4715526   -3.4715526   -2.0522933  0.050239224   -3.4715526    1.4192593   396900 
 1741000   0.94791665   -3.4726412   -3.4726412   -2.0507698  0.051214869   -3.4726412    1.4218714   396900 
 1742000   0.94662034    -3.471912    -3.471912   -2.0519851  0.053768022    -3.471912    1.4199269   396900 
 1743000   0.94522711   -3.4702893   -3.4702893   -2.0524522  0.051566749   -3.4702893    1.4178371   396900 
 1744000   0.94723486   -3.4736236   -3.4736236   -2.0527749  0.049908195   -3.4736236    1.4208487   396900 
 1745000   0.94714856   -3.4737622   -3.4737622   -2.0530429  0.049680745   -3.4737622    1.4207193   396900 
 1746000   0.94543647   -3.4718524   -3.4718524   -2.0537013  0.053900107   -3.4718524    1.4181511   396900 
 1747000   0.94556834    -3.472688    -3.472688   -2.0543391  0.049786068    -3.472688    1.4183489   396900 
 1748000   0.94626604   -3.4720236   -3.4720236   -2.0526281  0.049721583   -3.4720236    1.4193955   396900 
 1749000   0.94439524   -3.4669094   -3.4669094   -2.0503201  0.053622094   -3.4669094    1.4165893   396900 
 1750000   0.94528193   -3.4698207   -3.4698207   -2.0519013  0.051195604   -3.4698207    1.4179193   396900 
 1751000   0.94478365    -3.470277    -3.470277   -2.0531051  0.044735125    -3.470277    1.4171719   396900 
 1752000   0.94409646   -3.4676846   -3.4676846   -2.0515434  0.051298832   -3.4676846    1.4161411   396900 
 1753000   0.94476021   -3.4666278   -3.4666278   -2.0494911  0.048614063   -3.4666278    1.4171367   396900 
 1754000   0.94675257   -3.4683694   -3.4683694   -2.0482441  0.045292837   -3.4683694    1.4201253   396900 
 1755000   0.94339538   -3.4662285   -3.4662285    -2.051139  0.045554649   -3.4662285    1.4150895   396900 
 1756000   0.94269758    -3.466195    -3.466195   -2.0521522  0.052718276    -3.466195    1.4140428   396900 
 1757000   0.94614937   -3.4695162   -3.4695162   -2.0502957  0.050557145   -3.4695162    1.4192205   396900 
 1758000   0.94447771   -3.4698704   -3.4698704   -2.0531574   0.04671512   -3.4698704     1.416713   396900 
 1759000   0.94567338   -3.4724482   -3.4724482   -2.0539417  0.052474542   -3.4724482    1.4185065   396900 
 1760000   0.94657084   -3.4746216   -3.4746216   -2.0547689  0.053024534   -3.4746216    1.4198527   396900 
 1761000   0.94689942   -3.4755909   -3.4755909   -2.0552454  0.051721188   -3.4755909    1.4203456   396900 
 1762000   0.94536495    -3.475907    -3.475907   -2.0578631  0.049768162    -3.475907    1.4180439   396900 
 1763000   0.94574526   -3.4753697   -3.4753697   -2.0567554  0.053412213   -3.4753697    1.4186143   396900 
 1764000   0.94586971   -3.4758485   -3.4758485   -2.0570475  0.054479275   -3.4758485     1.418801   396900 
 1765000   0.94449474   -3.4740013   -3.4740013   -2.0572628  0.050441679   -3.4740013    1.4167385   396900 
 1766000   0.94488181   -3.4777969   -3.4777969   -2.0604777  0.049679805   -3.4777969    1.4173191   396900 
 1767000   0.94423364   -3.4767208   -3.4767208    -2.060374  0.050652776   -3.4767208    1.4163469   396900 
 1768000   0.94475156   -3.4769275   -3.4769275   -2.0598037  0.045307503   -3.4769275    1.4171238   396900 
 1769000   0.94422208   -3.4785762   -3.4785762   -2.0622466  0.047892288   -3.4785762    1.4163295   396900 
 1770000   0.94485538   -3.4787407   -3.4787407   -2.0614612  0.045641493   -3.4787407    1.4172795   396900 
 1771000   0.94543063    -3.477616    -3.477616   -2.0594736  0.051211915    -3.477616    1.4181424   396900 
 1772000   0.94385119   -3.4781837   -3.4781837   -2.0624105  0.054155219   -3.4781837    1.4157732   396900 
 1773000   0.94508812   -3.4791372   -3.4791372   -2.0615085  0.049698455   -3.4791372    1.4176286   396900 
 1774000   0.94521161   -3.4785583   -3.4785583   -2.0607445  0.051061095   -3.4785583    1.4178138   396900 
 1775000   0.94427459     -3.47667     -3.47667   -2.0602617  0.050527002     -3.47667    1.4164083   396900 
 1776000      0.94544   -3.4797489   -3.4797489   -2.0615925  0.046258109   -3.4797489    1.4181564   396900 
 1777000   0.94485253   -3.4773568   -3.4773568   -2.0600816  0.045236242   -3.4773568    1.4172752   396900 
 1778000   0.94516326   -3.4761077   -3.4761077   -2.0583664   0.05020745   -3.4761077    1.4177413   396900 
 1779000   0.94425495    -3.477583    -3.477583   -2.0612041     0.049398    -3.477583    1.4163789   396900 
 1780000   0.94360177   -3.4776567   -3.4776567   -2.0622576  0.043605088   -3.4776567    1.4153991   396900 
 1781000   0.94529519   -3.4776559   -3.4776559   -2.0597166  0.047704178   -3.4776559    1.4179392   396900 
 1782000   0.94420149   -3.4766978   -3.4766978   -2.0603991   0.04772104   -3.4766978    1.4162987   396900 
 1783000   0.94429572   -3.4764176   -3.4764176   -2.0599776   0.04740124   -3.4764176      1.41644   396900 
 1784000   0.94462482   -3.4780073   -3.4780073   -2.0610736  0.043269848   -3.4780073    1.4169337   396900 
 1785000   0.94413333     -3.47583     -3.47583   -2.0596336  0.050539927     -3.47583    1.4161964   396900 
 1786000   0.94219007   -3.4759626   -3.4759626   -2.0626811  0.047320065   -3.4759626    1.4132815   396900 
 1787000   0.94462497   -3.4797743   -3.4797743   -2.0628404  0.049456547   -3.4797743    1.4169339   396900 
 1788000   0.94529583    -3.479442    -3.479442   -2.0615018  0.053670979    -3.479442    1.4179402   396900 
 1789000    0.9452428   -3.4805139   -3.4805139   -2.0626532  0.049795698   -3.4805139    1.4178606   396900 
 1790000   0.94383369   -3.4785086   -3.4785086   -2.0627617  0.054762998   -3.4785086     1.415747   396900 
 1791000    0.9460861   -3.4832183   -3.4832183   -2.0640927  0.049729526   -3.4832183    1.4191256   396900 
 1792000    0.9447882   -3.4826593   -3.4826593   -2.0654806   0.05096463   -3.4826593    1.4171787   396900 
 1793000   0.94419942   -3.4835614   -3.4835614   -2.0672658  0.048411768   -3.4835614    1.4162956   396900 
 1794000    0.9453023   -3.4851131   -3.4851131   -2.0671632  0.050619027   -3.4851131    1.4179499   396900 
 1795000   0.94326103   -3.4802963   -3.4802963   -2.0654083  0.051626512   -3.4802963     1.414888   396900 
 1796000    0.9453013    -3.481971    -3.481971   -2.0640226   0.04916633    -3.481971    1.4179484   396900 
 1797000   0.94425724   -3.4824203   -3.4824203    -2.066038  0.048029679   -3.4824203    1.4163823   396900 
 1798000   0.94220255   -3.4819866   -3.4819866   -2.0686863  0.046607782   -3.4819866    1.4133003   396900 
 1799000   0.94331917   -3.4829242   -3.4829242    -2.067949  0.044497153   -3.4829242    1.4149752   396900 
 1800000   0.94410181   -3.4862508   -3.4862508   -2.0701016  0.043948953   -3.4862508    1.4161491   396900 
 1801000   0.94269348   -3.4822306   -3.4822306   -2.0681939  0.054384036   -3.4822306    1.4140367   396900 
 1802000   0.94157444   -3.4822172   -3.4822172   -2.0698591  0.046217823   -3.4822172    1.4123581   396900 
 1803000   0.94246096   -3.4818323   -3.4818323   -2.0681444  0.050669991   -3.4818323    1.4136879   396900 
 1804000   0.94201165   -3.4812093   -3.4812093   -2.0681954  0.052670712   -3.4812093    1.4130139   396900 
 1805000   0.94293559   -3.4831909   -3.4831909   -2.0687911  0.055433659   -3.4831909    1.4143998   396900 
 1806000   0.94336658   -3.4857544   -3.4857544   -2.0707081  0.044722054   -3.4857544    1.4150463   396900 
 1807000   0.94576818   -3.4863153   -3.4863153   -2.0676666  0.048076882   -3.4863153    1.4186487   396900 
 1808000   0.94457563   -3.4844242   -3.4844242   -2.0675643  0.052006553   -3.4844242    1.4168599   396900 
 1809000   0.94334066   -3.4836287   -3.4836287   -2.0686213  0.047532328   -3.4836287    1.4150074   396900 
 1810000   0.94333612   -3.4848941   -3.4848941   -2.0698935   0.04500163   -3.4848941    1.4150006   396900 
 1811000   0.94159681   -3.4822973   -3.4822973   -2.0699056  0.049784095   -3.4822973    1.4123916   396900 
 1812000   0.94291138   -3.4839927   -3.4839927   -2.0696292  0.049200436   -3.4839927    1.4143635   396900 
 1813000   0.94300036    -3.482376    -3.482376    -2.067879  0.050366924    -3.482376     1.414497   396900 
 1814000   0.94358474   -3.4839426   -3.4839426    -2.068569  0.046038003   -3.4839426    1.4153735   396900 
 1815000   0.94373746    -3.485163    -3.485163   -2.0695603  0.047022785    -3.485163    1.4156026   396900 
 1816000   0.94168174   -3.4828516   -3.4828516   -2.0703325  0.045907642   -3.4828516    1.4125191   396900 
 1817000   0.94404724   -3.4849956   -3.4849956   -2.0689283  0.043157493   -3.4849956    1.4160673   396900 
 1818000   0.94376147   -3.4848475   -3.4848475   -2.0692089  0.047687518   -3.4848475    1.4156386   396900 
 1819000   0.94316351   -3.4837025   -3.4837025   -2.0689608  0.047375961   -3.4837025    1.4147417   396900 
 1820000   0.94336575   -3.4838531   -3.4838531   -2.0688081  0.050239466   -3.4838531    1.4150451   396900 
 1821000   0.94498368   -3.4841009   -3.4841009   -2.0666289  0.051400029   -3.4841009    1.4174719   396900 
 1822000   0.94318878   -3.4828099   -3.4828099   -2.0680303  0.043156164   -3.4828099    1.4147796   396900 
 1823000   0.94278992   -3.4846463   -3.4846463    -2.070465  0.048950779   -3.4846463    1.4141813   396900 
 1824000   0.94296181   -3.4834657   -3.4834657   -2.0690265  0.049513127   -3.4834657    1.4144391   396900 
 1825000   0.94481639   -3.4852942   -3.4852942   -2.0680732  0.044674725   -3.4852942     1.417221   396900 
 1826000   0.94353993   -3.4835463   -3.4835463     -2.06824  0.039204544   -3.4835463    1.4153063   396900 
 1827000   0.94182714   -3.4836146   -3.4836146   -2.0708775   0.05007682   -3.4836146    1.4127372   396900 
 1828000   0.94423342    -3.485859    -3.485859   -2.0695124  0.054938327    -3.485859    1.4163466   396900 
 1829000   0.94453741   -3.4828253   -3.4828253   -2.0660227  0.051429914   -3.4828253    1.4168026   396900 
 1830000   0.94559264   -3.4841852   -3.4841852   -2.0657998  0.051362795   -3.4841852    1.4183854   396900 
 1831000   0.94651018    -3.485846    -3.485846   -2.0660843  0.049458443    -3.485846    1.4197617   396900 
 1832000   0.94468354   -3.4855441   -3.4855441   -2.0685224  0.045266022   -3.4855441    1.4170217   396900 
 1833000    0.9443086   -3.4877276   -3.4877276   -2.0712683  0.047554749   -3.4877276    1.4164593   396900 
 1834000   0.94167091   -3.4848177   -3.4848177   -2.0723149  0.045838929   -3.4848177    1.4125028   396900 
 1835000   0.94069731   -3.4859474   -3.4859474   -2.0749049  0.042139859   -3.4859474    1.4110424   396900 
 1836000   0.94219116   -3.4877512   -3.4877512   -2.0744681   0.04293799   -3.4877512    1.4132832   396900 
 1837000   0.94130386   -3.4857919   -3.4857919   -2.0738397   0.04351713   -3.4857919    1.4119522   396900 
 1838000   0.94265063   -3.4866083   -3.4866083   -2.0726359  0.048585693   -3.4866083    1.4139724   396900 
 1839000   0.94218507   -3.4857328   -3.4857328   -2.0724588  0.047935197   -3.4857328     1.413274   396900 
 1840000   0.94227023   -3.4875999   -3.4875999   -2.0741981  0.049222409   -3.4875999    1.4134018   396900 
 1841000   0.94128464   -3.4883894   -3.4883894    -2.076466   0.04319611   -3.4883894    1.4119234   396900 
 1842000   0.94224175   -3.4898084   -3.4898084   -2.0764493  0.047134427   -3.4898084    1.4133591   396900 
 1843000   0.94407842   -3.4918161   -3.4918161    -2.075702  0.050013196   -3.4918161    1.4161141   396900 
 1844000   0.94233749   -3.4910795   -3.4910795   -2.0775768  0.051474646   -3.4910795    1.4135027   396900 
 1845000   0.94169173   -3.4904493   -3.4904493   -2.0779152  0.043882359   -3.4904493     1.412534   396900 
 1846000   0.94417761   -3.4926023   -3.4926023   -2.0763394  0.052898832   -3.4926023    1.4162628   396900 
 1847000   0.94289601   -3.4921518   -3.4921518   -2.0778113  0.052406355   -3.4921518    1.4143404   396900 
 1848000   0.94337914   -3.4926739   -3.4926739   -2.0776087  0.040524274   -3.4926739    1.4150651   396900 
 1849000   0.94177371   -3.4901127   -3.4901127   -2.0774557  0.052975996   -3.4901127     1.412657   396900 
 1850000   0.94382527   -3.4956607   -3.4956607   -2.0799263  0.047696982   -3.4956607    1.4157343   396900 
 1851000   0.94317325   -3.4955357   -3.4955357   -2.0807794  0.050245732   -3.4955357    1.4147563   396900 
 1852000   0.94173717   -3.4909822   -3.4909822     -2.07838  0.050141223   -3.4909822    1.4126022   396900 
 1853000    0.9423605   -3.4936781   -3.4936781   -2.0801409  0.049500391   -3.4936781    1.4135372   396900 
 1854000   0.94160922   -3.4932621   -3.4932621   -2.0808519  0.051389295   -3.4932621    1.4124103   396900 
 1855000   0.94284241   -3.4949628   -3.4949628   -2.0807028  0.050347879   -3.4949628      1.41426   396900 
 1856000   0.94112689    -3.495098    -3.495098   -2.0834112  0.047717501    -3.495098    1.4116868   396900 
 1857000   0.93992979   -3.4926143   -3.4926143   -2.0827232  0.047864683   -3.4926143    1.4098911   396900 
 1858000    0.9449779   -3.4957148   -3.4957148   -2.0782516  0.049828132   -3.4957148    1.4174633   396900 
 1859000   0.94461663   -3.4959366   -3.4959366   -2.0790152  0.046882412   -3.4959366    1.4169214   396900 
 1860000   0.94251269   -3.4940175   -3.4940175   -2.0802521   0.04486056   -3.4940175    1.4137655   396900 
 1861000   0.93889057    -3.491761    -3.491761   -2.0834287  0.047691165    -3.491761    1.4083323   396900 
 1862000   0.94083672   -3.4968604   -3.4968604   -2.0856089  0.042968754   -3.4968604    1.4112515   396900 
 1863000   0.94136803   -3.4963021   -3.4963021   -2.0842536  0.042383474   -3.4963021    1.4120485   396900 
 1864000   0.94056468   -3.4940337   -3.4940337   -2.0831903  0.045250289   -3.4940337    1.4108435   396900 
 1865000   0.94160541   -3.4951514   -3.4951514   -2.0827469  0.045674704   -3.4951514    1.4124046   396900 
 1866000   0.94215074   -3.4977633   -3.4977633   -2.0845408  0.046796735   -3.4977633    1.4132225   396900 
 1867000   0.94188121   -3.4971457   -3.4971457   -2.0843275  0.049078769   -3.4971457    1.4128183   396900 
 1868000   0.94328307   -3.5013013   -3.5013013   -2.0863803  0.047681202   -3.5013013     1.414921   396900 
 1869000   0.94324946   -3.5001025   -3.5001025   -2.0852319  0.045156991   -3.5001025    1.4148706   396900 
 1870000   0.94105888   -3.4975931   -3.4975931   -2.0860083  0.045517705   -3.4975931    1.4115848   396900 
 1871000   0.94112733   -3.4994699   -3.4994699   -2.0877824  0.045661401   -3.4994699    1.4116874   396900 
 1872000   0.94032833   -3.5002621   -3.5002621   -2.0897732  0.051022689   -3.5002621    1.4104889   396900 
 1873000   0.94222115   -3.4997162   -3.4997162    -2.086388  0.044724995   -3.4997162    1.4133282   396900 
 1874000    0.9401145    -3.498458    -3.498458   -2.0882898    0.0508803    -3.498458    1.4101682   396900 
 1875000   0.94309845   -3.5027392   -3.5027392   -2.0880951  0.046997796   -3.5027392    1.4146441   396900 
 1876000   0.94208768   -3.5006796   -3.5006796   -2.0875517  0.049617945   -3.5006796     1.413128   396900 
 1877000   0.93961812   -3.4998989   -3.4998989   -2.0904753  0.042564113   -3.4998989    1.4094236   396900 
 1878000   0.94041397   -3.4994515   -3.4994515   -2.0888341  0.047738286   -3.4994515    1.4106174   396900 
 1879000   0.94022662   -3.4986294   -3.4986294    -2.088293   0.04691843   -3.4986294    1.4103364   396900 
 1880000   0.94029775   -3.4993997   -3.4993997   -2.0889566  0.048776373   -3.4993997    1.4104431   396900 
 1881000   0.94160216   -3.4988776   -3.4988776   -2.0864779  0.050100353   -3.4988776    1.4123997   396900 
 1882000   0.94248818   -3.4991653   -3.4991653   -2.0854365  0.047542759   -3.4991653    1.4137287   396900 
 1883000   0.94070962   -3.4970184   -3.4970184   -2.0859575   0.04668145   -3.4970184    1.4110609   396900 
 1884000   0.94002182   -3.4974924   -3.4974924   -2.0874632  0.044214558   -3.4974924    1.4100292   396900 
 1885000   0.93937706   -3.4972183   -3.4972183   -2.0881563  0.046781916   -3.4972183     1.409062   396900 
 1886000   0.94079897   -3.5016756   -3.5016756   -2.0904806  0.043666613   -3.5016756    1.4111949   396900 
 1887000   0.94075609   -3.5006077   -3.5006077   -2.0894772  0.048971835   -3.5006077    1.4111306   396900 
 1888000   0.94150771   -3.5034646   -3.5034646   -2.0912066  0.045351399   -3.5034646     1.412258   396900 
 1889000   0.94183714    -3.502249    -3.502249   -2.0894969  0.049685563    -3.502249    1.4127521   396900 
 1890000   0.94126463   -3.4992817   -3.4992817   -2.0873883  0.045119216   -3.4992817    1.4118934   396900 
 1891000   0.94104305   -3.4999862   -3.4999862   -2.0884252  0.045716817   -3.4999862     1.411561   396900 
 1892000   0.94063082   -3.5003169   -3.5003169   -2.0893743  0.043993069   -3.5003169    1.4109427   396900 
 1893000   0.94100769   -3.5008908   -3.5008908   -2.0893828  0.046691228   -3.5008908     1.411508   396900 
 1894000   0.93929964   -3.4995408   -3.4995408   -2.0905949  0.048652743   -3.4995408    1.4089459   396900 
 1895000   0.93902635   -3.4990588   -3.4990588   -2.0905228     0.047147   -3.4990588     1.408536   396900 
 1896000   0.94080071    -3.500624    -3.500624   -2.0894264  0.056548994    -3.500624    1.4111975   396900 
 1897000   0.94137518   -3.5033725   -3.5033725   -2.0913133  0.048551338   -3.5033725    1.4120592   396900 
 1898000   0.94059108   -3.5016359   -3.5016359   -2.0907529  0.053072786   -3.5016359    1.4108831   396900 
 1899000   0.94331733   -3.5055172   -3.5055172   -2.0905448  0.053284975   -3.5055172    1.4149724   396900 
 1900000   0.94157465   -3.5038312   -3.5038312   -2.0914728  0.047743684   -3.5038312    1.4123584   396900 
 1901000   0.94012644   -3.5049495   -3.5049495   -2.0947634  0.045370193   -3.5049495    1.4101861   396900 
 1902000   0.94064001   -3.5065712   -3.5065712   -2.0956147  0.050608071   -3.5065712    1.4109565   396900 
 1903000   0.93875407   -3.5072694   -3.5072694   -2.0991418  0.046289042   -3.5072694    1.4081276   396900 
 1904000   0.94008513   -3.5075394   -3.5075394   -2.0974153  0.049711928   -3.5075394    1.4101241   396900 
 1905000   0.94107247   -3.5084306   -3.5084306   -2.0968255  0.049439845   -3.5084306    1.4116051   396900 
 1906000    0.9395996    -3.506509    -3.506509   -2.0971131  0.056603699    -3.506509    1.4093959   396900 
 1907000   0.94016277   -3.5073382   -3.5073382   -2.0970976  0.046279009   -3.5073382    1.4102406   396900 
 1908000   0.94105379   -3.5104916   -3.5104916   -2.0989145  0.049418756   -3.5104916    1.4115771   396900 
 1909000   0.93759987   -3.5063697   -3.5063697   -2.0999734   0.04828444   -3.5063697    1.4063963   396900 
 1910000   0.93827568   -3.5082198   -3.5082198   -2.1008098  0.045804834   -3.5082198      1.40741   396900 
 1911000   0.93801534   -3.5075077   -3.5075077   -2.1004882  0.044962806   -3.5075077    1.4070195   396900 
 1912000   0.93887615   -3.5066233   -3.5066233   -2.0983126  0.049049904   -3.5066233    1.4083107   396900 
 1913000   0.93820137   -3.5057268   -3.5057268   -2.0984283  0.045454533   -3.5057268    1.4072985   396900 
 1914000   0.93914168   -3.5065738   -3.5065738   -2.0978648  0.047316257   -3.5065738     1.408709   396900 
 1915000   0.93937911   -3.5056987   -3.5056987   -2.0966336   0.04755491   -3.5056987    1.4090651   396900 
 1916000   0.93909002   -3.5042066   -3.5042066   -2.0955751  0.045750601   -3.5042066    1.4086315   396900 
 1917000   0.94194937   -3.5081588   -3.5081588   -2.0952383  0.045167367   -3.5081588    1.4129205   396900 
 1918000   0.94068111   -3.5052029   -3.5052029   -2.0941848  0.050836978   -3.5052029    1.4110181   396900 
 1919000   0.93893349   -3.5041687   -3.5041687    -2.095772  0.047783559   -3.5041687    1.4083967   396900 
 1920000   0.93789427   -3.5054328   -3.5054328    -2.098595  0.049735822   -3.5054328    1.4068379   396900 
 1921000   0.93967291   -3.5083933   -3.5083933   -2.0988875  0.043459608   -3.5083933    1.4095058   396900 
 1922000   0.93961743   -3.5070485   -3.5070485    -2.097626  0.052748605   -3.5070485    1.4094226   396900 
 1923000   0.94138615   -3.5073506   -3.5073506    -2.095275  0.044208718   -3.5073506    1.4120757   396900 
 1924000   0.94036949   -3.5069038   -3.5069038   -2.0963531  0.043564916   -3.5069038    1.4105507   396900 
 1925000   0.93932252   -3.5076093   -3.5076093   -2.0986291  0.040389911   -3.5076093    1.4089802   396900 
 1926000   0.94098781   -3.5081885   -3.5081885   -2.0967104   0.05033743   -3.5081885    1.4114782   396900 
 1927000   0.93820591   -3.5065817   -3.5065817   -2.0992764  0.045694242   -3.5065817    1.4073053   396900 
 1928000   0.93966717   -3.5089975   -3.5089975   -2.0995003  0.043208126   -3.5089975    1.4094972   396900 
 1929000   0.93844641   -3.5060808   -3.5060808   -2.0984147  0.050941365   -3.5060808    1.4076661   396900 
 1930000   0.94009074   -3.5077997   -3.5077997   -2.0976671  0.052024134   -3.5077997    1.4101326   396900 
 1931000   0.94037553   -3.5111623   -3.5111623   -2.1006026  0.043549039   -3.5111623    1.4105597   396900 
 1932000   0.94031023   -3.5103996   -3.5103996   -2.0999378  0.048307568   -3.5103996    1.4104618   396900 
 1933000   0.94012257   -3.5112594   -3.5112594   -2.1010791  0.044448258   -3.5112594    1.4101803   396900 
 1934000   0.93966281   -3.5126425   -3.5126425   -2.1031518  0.047325792   -3.5126425    1.4094907   396900 
 1935000   0.93851676   -3.5100193   -3.5100193   -2.1022477  0.046849935   -3.5100193    1.4077716   396900 
 1936000   0.93961171   -3.5113767   -3.5113767   -2.1019627  0.045480694   -3.5113767     1.409414   396900 
 1937000   0.93873597   -3.5118995   -3.5118995   -2.1037991  0.045337215   -3.5118995    1.4081004   396900 
 1938000   0.93927242   -3.5113347   -3.5113347   -2.1024296  0.043096946   -3.5113347    1.4089051   396900 
 1939000   0.93949974   -3.5132524   -3.5132524   -2.1040063  0.044595719   -3.5132524    1.4092461   396900 
 1940000   0.94054984   -3.5126218   -3.5126218   -2.1018006  0.050624727   -3.5126218    1.4108212   396900 
 1941000   0.94003975   -3.5123975   -3.5123975   -2.1023415  0.056605938   -3.5123975    1.4100561   396900 
 1942000    0.9386535   -3.5147597   -3.5147597    -2.106783  0.046328674   -3.5147597    1.4079767   396900 
 1943000   0.93960869    -3.515697    -3.515697   -2.1062875  0.047810926    -3.515697    1.4094095   396900 
 1944000   0.93739913   -3.5153063   -3.5153063   -2.1092112  0.047828421   -3.5153063    1.4060952   396900 
 1945000   0.93901236   -3.5161683   -3.5161683   -2.1076533  0.042420829   -3.5161683     1.408515   396900 
 1946000   0.94038352    -3.519047    -3.519047   -2.1084752  0.046065746    -3.519047    1.4105717   396900 
 1947000   0.93870872   -3.5160183   -3.5160183   -2.1079588  0.053412401   -3.5160183    1.4080595   396900 
 1948000   0.93811374   -3.5152142   -3.5152142   -2.1080472  0.048879982   -3.5152142    1.4071671   396900 
 1949000   0.93978123   -3.5175433   -3.5175433    -2.107875  0.049804299   -3.5175433    1.4096683   396900 
 1950000   0.93933998   -3.5196079   -3.5196079   -2.1106015  0.047636344   -3.5196079    1.4090064   396900 
 1951000   0.93835218   -3.5166135   -3.5166135   -2.1090888  0.045762525   -3.5166135    1.4075247   396900 
 1952000   0.93893888   -3.5210854   -3.5210854   -2.1126806  0.044225619   -3.5210854    1.4084048   396900 
 1953000   0.93793245   -3.5198817   -3.5198817   -2.1129866  0.050867394   -3.5198817    1.4068951   396900 
 1954000   0.93899074   -3.5217463   -3.5217463   -2.1132637  0.047193632   -3.5217463    1.4084826   396900 
 1955000   0.93913135   -3.5241163   -3.5241163   -2.1154228  0.051060311   -3.5241163    1.4086935   396900 
 1956000   0.93808807   -3.5237059   -3.5237059   -2.1165774  0.049549614   -3.5237059    1.4071286   396900 
 1957000   0.93751783   -3.5214187   -3.5214187   -2.1151455   0.05124561   -3.5214187    1.4062732   396900 
 1958000      0.93899    -3.522859    -3.522859   -2.1143776  0.046937822    -3.522859    1.4084814   396900 
 1959000   0.93760611     -3.52262     -3.52262   -2.1162144  0.049882868     -3.52262    1.4064056   396900 
 1960000   0.93630916   -3.5206132   -3.5206132    -2.116153   0.04113636   -3.5206132    1.4044602   396900 
 1961000   0.93934863   -3.5205632   -3.5205632   -2.1115438  0.045695794   -3.5205632    1.4090194   396900 
 1962000   0.93866691   -3.5201519   -3.5201519   -2.1121551  0.046623339   -3.5201519    1.4079968   396900 
 1963000   0.93612914   -3.5167997   -3.5167997   -2.1126095  0.048617924   -3.5167997    1.4041902   396900 
 1964000   0.93934081   -3.5219614   -3.5219614   -2.1129538  0.046939343   -3.5219614    1.4090077   396900 
 1965000   0.93752767    -3.515239    -3.515239   -2.1089511  0.055530298    -3.515239     1.406288   396900 
 1966000   0.93849873   -3.5173964   -3.5173964   -2.1096518  0.051931481   -3.5173964    1.4077446   396900 
 1967000   0.93788077   -3.5183011   -3.5183011   -2.1114835   0.04340083   -3.5183011    1.4068176   396900 
 1968000   0.93944461   -3.5212328   -3.5212328   -2.1120695  0.050488318   -3.5212328    1.4091634   396900 
 1969000   0.93829582   -3.5187527   -3.5187527   -2.1113125  0.053763423   -3.5187527    1.4074402   396900 
 1970000   0.93681037   -3.5193928   -3.5193928   -2.1141808  0.046235661   -3.5193928     1.405212   396900 
 1971000    0.9383573   -3.5199641   -3.5199641   -2.1124317  0.049818538   -3.5199641    1.4075324   396900 
 1972000   0.93821743   -3.5194833   -3.5194833   -2.1121607  0.046101279   -3.5194833    1.4073226   396900 
 1973000   0.93803568   -3.5211753   -3.5211753   -2.1141253  0.046704009   -3.5211753      1.40705   396900 
 1974000   0.93833461    -3.522204    -3.522204   -2.1147057  0.045670438    -3.522204    1.4074984   396900 
 1975000    0.9365305   -3.5202177   -3.5202177   -2.1154255  0.045805094   -3.5202177    1.4047922   396900 
 1976000   0.93693966   -3.5188203   -3.5188203   -2.1134144  0.048785256   -3.5188203    1.4054059   396900 
 1977000   0.93769112   -3.5195067   -3.5195067   -2.1129736  0.049928418   -3.5195067    1.4065331   396900 
 1978000   0.93899432   -3.5222311   -3.5222311   -2.1137431  0.049203897   -3.5222311    1.4084879   396900 
 1979000   0.93748241   -3.5216628   -3.5216628   -2.1154428  0.048920814   -3.5216628    1.4062201   396900 
 1980000    0.9376961    -3.520704    -3.520704   -2.1141634  0.047895287    -3.520704    1.4065406   396900 
 1981000   0.93694352   -3.5219224   -3.5219224   -2.1165107  0.047331118   -3.5219224    1.4054117   396900 
 1982000   0.93713927   -3.5221446   -3.5221446   -2.1164393  0.047781805   -3.5221446    1.4057054   396900 
 1983000   0.93791848    -3.521366    -3.521366   -2.1144918  0.051654371    -3.521366    1.4068742   396900 
 1984000   0.93913935   -3.5223895   -3.5223895    -2.113684  0.049319168   -3.5223895    1.4087055   396900 
 1985000   0.94035759   -3.5246261   -3.5246261   -2.1140933   0.05258348   -3.5246261    1.4105328   396900 
 1986000   0.93580873   -3.5205276   -3.5205276   -2.1168181  0.051413977   -3.5205276    1.4037096   396900 
 1987000   0.93821911   -3.5250934   -3.5250934   -2.1177683  0.049717617   -3.5250934    1.4073251   396900 
 1988000   0.93774171   -3.5245919   -3.5245919   -2.1179829  0.049624111   -3.5245919     1.406609   396900 
 1989000   0.93749502   -3.5247827   -3.5247827   -2.1185437  0.049739713   -3.5247827     1.406239   396900 
 1990000   0.93659088   -3.5245182   -3.5245182   -2.1196354  0.047958274   -3.5245182    1.4048828   396900 
 1991000    0.9364078   -3.5234309   -3.5234309   -2.1188227  0.050800981   -3.5234309    1.4046082   396900 
 1992000   0.93857614   -3.5245581   -3.5245581   -2.1166974  0.046626218   -3.5245581    1.4078607   396900 
 1993000    0.9390906    -3.524587    -3.524587   -2.1159547  0.052036275    -3.524587    1.4086323   396900 
 1994000   0.93906305   -3.5264617   -3.5264617   -2.1178707  0.050924033   -3.5264617     1.408591   396900 
 1995000   0.93934049   -3.5248293   -3.5248293   -2.1158221  0.049738846   -3.5248293    1.4090072   396900 
 1996000   0.93779985   -3.5260771   -3.5260771   -2.1193809  0.045970375   -3.5260771    1.4066962   396900 
 1997000   0.93440748   -3.5237175   -3.5237175   -2.1221099  0.043319418   -3.5237175    1.4016077   396900 
 1998000   0.93555112   -3.5232292   -3.5232292   -2.1199061  0.046394333   -3.5232292    1.4033231   396900 
 1999000   0.93685987   -3.5260331   -3.5260331   -2.1207468  0.048100655   -3.5260331    1.4052863   396900 
 2000000   0.93760469   -3.5283338   -3.5283338   -2.1219303  0.048305764   -3.5283338    1.4064035   396900 
 2001000   0.93487645   -3.5237853   -3.5237853   -2.1214742  0.050163046   -3.5237853    1.4023111   396900 
 2002000   0.93404985   -3.5233284   -3.5233284   -2.1222571  0.043719202   -3.5233284    1.4010712   396900 
 2003000   0.93642065   -3.5256832   -3.5256832   -2.1210558  0.047922886   -3.5256832    1.4046274   396900 
 2004000   0.93751963   -3.5246405   -3.5246405   -2.1183646  0.043431134   -3.5246405    1.4062759   396900 
 2005000   0.93854901    -3.526383    -3.526383    -2.118563    0.0389675    -3.526383      1.40782   396900 
 2006000   0.93742267    -3.525353    -3.525353   -2.1192225  0.049408725    -3.525353    1.4061305   396900 
 2007000   0.93577321   -3.5248197   -3.5248197   -2.1211634  0.046839703   -3.5248197    1.4036563   396900 
 2008000   0.93571559   -3.5263289   -3.5263289    -2.122759  0.039846552   -3.5263289    1.4035698   396900 
 2009000   0.93726189   -3.5271934   -3.5271934   -2.1213041  0.047352575   -3.5271934    1.4058893   396900 
 2010000   0.93722918   -3.5270734   -3.5270734   -2.1212332  0.051020209   -3.5270734    1.4058402   396900 
 2011000   0.93745001   -3.5287822   -3.5287822   -2.1226107   0.04918342   -3.5287822    1.4061715   396900 
 2012000   0.93549691   -3.5287816   -3.5287816   -2.1255397  0.045239186   -3.5287816    1.4032418   396900 
 2013000   0.93589327   -3.5300702   -3.5300702   -2.1262338  0.046304222   -3.5300702    1.4038364   396900 
 2014000   0.93579112    -3.531059    -3.531059   -2.1273759  0.051878467    -3.531059    1.4036831   396900 
 2015000   0.93714955   -3.5340747   -3.5340747    -2.128354  0.047012126   -3.5340747    1.4057208   396900 
 2016000   0.93567018   -3.5328668   -3.5328668   -2.1293651  0.046403635   -3.5328668    1.4035017   396900 
 2017000   0.93655866   -3.5338543   -3.5338543   -2.1290198  0.047815789   -3.5338543    1.4048344   396900 
 2018000   0.93601514   -3.5349046   -3.5349046   -2.1308855   0.04967779   -3.5349046    1.4040192   396900 
 2019000   0.93571869   -3.5291118   -3.5291118   -2.1255373  0.047599492   -3.5291118    1.4035745   396900 
 2020000   0.93569249   -3.5282334   -3.5282334   -2.1246982  0.047639237   -3.5282334    1.4035352   396900 
 2021000   0.93657005   -3.5311893   -3.5311893   -2.1263378  0.049895511   -3.5311893    1.4048515   396900 
 2022000   0.93551088   -3.5297646   -3.5297646   -2.1265018  0.045988656   -3.5297646    1.4032628   396900 
 2023000    0.9351805   -3.5290414   -3.5290414   -2.1262742  0.046261378   -3.5290414    1.4027672   396900 
 2024000   0.93739693    -3.531735    -3.531735   -2.1256432  0.047709569    -3.531735    1.4060919   396900 
 2025000    0.9364229   -3.5310213   -3.5310213   -2.1263905  0.042213066   -3.5310213    1.4046308   396900 
 2026000    0.9360794   -3.5316776   -3.5316776    -2.127562  0.042322127   -3.5316776    1.4041156   396900 
 2027000   0.93604399   -3.5314308   -3.5314308   -2.1273684  0.051040185   -3.5314308    1.4040625   396900 
 2028000   0.93715887   -3.5337834   -3.5337834   -2.1280486  0.049544642   -3.5337834    1.4057348   396900 
 2029000   0.93637407   -3.5310307   -3.5310307   -2.1264731  0.045234704   -3.5310307    1.4045576   396900 
 2030000   0.93581193   -3.5294651   -3.5294651   -2.1257507   0.04669106   -3.5294651    1.4037144   396900 
 2031000   0.93660135   -3.5312938   -3.5312938   -2.1263954  0.049524767   -3.5312938    1.4048985   396900 
 2032000   0.93615741   -3.5297037   -3.5297037   -2.1254711  0.047080449   -3.5297037    1.4042326   396900 
 2033000    0.9365228   -3.5299748   -3.5299748   -2.1251942  0.048673382   -3.5299748    1.4047807   396900 
 2034000   0.93565473   -3.5314315   -3.5314315   -2.1279529  0.048029087   -3.5314315    1.4034786   396900 
 2035000   0.93612846   -3.5324186   -3.5324186   -2.1282295  0.046377724   -3.5324186    1.4041892   396900 
 2036000   0.93430878   -3.5323226   -3.5323226    -2.130863  0.044133281   -3.5323226    1.4014596   396900 
 2037000   0.93336688   -3.5295831   -3.5295831   -2.1295364  0.045470047   -3.5295831    1.4000468   396900 
 2038000   0.93501919    -3.531378    -3.531378   -2.1288527  0.045100428    -3.531378    1.4025253   396900 
 2039000   0.93366082   -3.5282011   -3.5282011   -2.1277134  0.049364108   -3.5282011    1.4004877   396900 
 2040000   0.93540334   -3.5310241   -3.5310241   -2.1279226  0.045317652   -3.5310241    1.4031015   396900 
 2041000   0.93749342   -3.5316735   -3.5316735    -2.125437  0.051116751   -3.5316735    1.4062366   396900 
 2042000   0.93602471     -3.53029     -3.53029   -2.1262565  0.047110611     -3.53029    1.4040335   396900 
 2043000   0.93607764   -3.5298608   -3.5298608   -2.1257479  0.046809325   -3.5298608    1.4041129   396900 
 2044000   0.93425609   -3.5290264   -3.5290264   -2.1276458  0.046809955   -3.5290264    1.4013806   396900 
 2045000   0.93503741   -3.5308919   -3.5308919   -2.1283393  0.046186414   -3.5308919    1.4025526   396900 
 2046000   0.93464748   -3.5290496   -3.5290496   -2.1270819   0.04718229   -3.5290496    1.4019677   396900 
 2047000   0.93286737   -3.5278553   -3.5278553   -2.1285578  0.048805054   -3.5278553    1.3992975   396900 
 2048000   0.93598965   -3.5296277   -3.5296277   -2.1256468  0.043322736   -3.5296277    1.4039809   396900 
 2049000   0.93707537   -3.5316303   -3.5316303   -2.1260208  0.046335268   -3.5316303    1.4056095   396900 
 2050000     0.935526   -3.5304678   -3.5304678   -2.1271823  0.046622822   -3.5304678    1.4032855   396900 
 2051000   0.93408689   -3.5307052   -3.5307052   -2.1295784  0.038631489   -3.5307052    1.4011268   396900 
 2052000   0.93288211   -3.5313144   -3.5313144   -2.1319947  0.038726047   -3.5313144    1.3993196   396900 
 2053000   0.93482488   -3.5322738   -3.5322738     -2.13004   0.04539175   -3.5322738    1.4022338   396900 
 2054000   0.93377756   -3.5309514   -3.5309514   -2.1302886  0.040358614   -3.5309514    1.4006628   396900 
 2055000   0.93484602   -3.5333141   -3.5333141   -2.1310486  0.046930134   -3.5333141    1.4022655   396900 
 2056000   0.93549958   -3.5326297   -3.5326297   -2.1293839  0.050231816   -3.5326297    1.4032458   396900 
 2057000   0.93454859   -3.5328246   -3.5328246   -2.1310052  0.044180292   -3.5328246    1.4018194   396900 
 2058000   0.93432817   -3.5356925   -3.5356925   -2.1342038  0.044735936   -3.5356925    1.4014887   396900 
 2059000   0.93591468   -3.5364844   -3.5364844   -2.1326159  0.050611114   -3.5364844    1.4038685   396900 
 2060000   0.93551292    -3.538501    -3.538501   -2.1352351  0.047415672    -3.538501    1.4032658   396900 
 2061000   0.93553586   -3.5378957   -3.5378957   -2.1345954  0.047496828   -3.5378957    1.4033003   396900 
 2062000   0.93528329   -3.5397948   -3.5397948   -2.1368734  0.046666134   -3.5397948    1.4029214   396900 
 2063000   0.93377848   -3.5397327   -3.5397327   -2.1390685  0.046472423   -3.5397327    1.4006642   396900 
 2064000    0.9341339   -3.5412574   -3.5412574   -2.1400601  0.041207988   -3.5412574    1.4011973   396900 
 2065000   0.93432081   -3.5422041   -3.5422041   -2.1407264  0.046758763   -3.5422041    1.4014777   396900 
 2066000   0.93537792   -3.5427884   -3.5427884    -2.139725   0.05215336   -3.5427884    1.4030633   396900 
 2067000   0.93490046   -3.5423109   -3.5423109   -2.1399638  0.047211772   -3.5423109    1.4023472   396900 
 2068000    0.9344982   -3.5439126   -3.5439126   -2.1421689  0.046951619   -3.5439126    1.4017438   396900 
 2069000    0.9334638   -3.5432812   -3.5432812    -2.143089  0.047167075   -3.5432812    1.4001922   396900 
 2070000   0.93465606   -3.5454359   -3.5454359   -2.1434554  0.047750477   -3.5454359    1.4019806   396900 
 2071000    0.9345381    -3.544481    -3.544481   -2.1426774  0.045670427    -3.544481    1.4018036   396900 
 2072000   0.93450717   -3.5446254   -3.5446254   -2.1428682  0.053078771   -3.5446254    1.4017572   396900 
 2073000   0.93235823   -3.5443053   -3.5443053   -2.1457715  0.047295001   -3.5443053    1.3985338   396900 
 2074000   0.93404106   -3.5451083   -3.5451083   -2.1440503  0.047451438   -3.5451083    1.4010581   396900 
 2075000   0.93209971   -3.5425162   -3.5425162   -2.1443701   0.05008059   -3.5425162     1.398146   396900 
 2076000   0.93445634   -3.5462711   -3.5462711   -2.1445901  0.048577382   -3.5462711     1.401681   396900 
 2077000   0.93417848   -3.5457768   -3.5457768   -2.1445126   0.05182132   -3.5457768    1.4012642   396900 
 2078000   0.93444615   -3.5456804   -3.5456804   -2.1440148  0.046373758   -3.5456804    1.4016657   396900 
 2079000   0.93361135   -3.5458374   -3.5458374   -2.1454239  0.041385082   -3.5458374    1.4004135   396900 
 2080000   0.93221811   -3.5422368   -3.5422368   -2.1439131  0.046521716   -3.5422368    1.3983236   396900 
 2081000   0.93295455   -3.5444484   -3.5444484   -2.1450201  0.047817515   -3.5444484    1.3994283   396900 
 2082000   0.93245982    -3.544858    -3.544858   -2.1461718  0.042310261    -3.544858    1.3986862   396900 
 2083000   0.93268244   -3.5442458   -3.5442458   -2.1452257  0.049826677   -3.5442458    1.3990201   396900 
 2084000   0.93516843   -3.5454373   -3.5454373   -2.1426882  0.044472276   -3.5454373    1.4027491   396900 
 2085000   0.93362006   -3.5459327   -3.5459327   -2.1455062  0.044087564   -3.5459327    1.4004266   396900 
 2086000   0.93307842   -3.5437474   -3.5437474   -2.1441333  0.044465099   -3.5437474    1.3996141   396900 
 2087000   0.93436475   -3.5451277   -3.5451277   -2.1435841  0.043002659   -3.5451277    1.4015436   396900 
 2088000   0.93294958   -3.5430811   -3.5430811   -2.1436603  0.045062297   -3.5430811    1.3994208   396900 
 2089000   0.93415196   -3.5445665   -3.5445665   -2.1433421  0.041178675   -3.5445665    1.4012244   396900 
 2090000    0.9313456   -3.5429098   -3.5429098   -2.1458949   0.04215247   -3.5429098    1.3970149   396900 
 2091000   0.93187109   -3.5432612   -3.5432612    -2.145458  0.045901821   -3.5432612    1.3978031   396900 
 2092000   0.93374309   -3.5447909   -3.5447909   -2.1441798  0.051947344   -3.5447909    1.4006111   396900 
 2093000   0.93370159   -3.5416449   -3.5416449    -2.141096  0.049372499   -3.5416449    1.4005489   396900 
 2094000    0.9355328    -3.544692    -3.544692   -2.1413963   0.04636671    -3.544692    1.4032957   396900 
 2095000   0.93107957   -3.5437601   -3.5437601   -2.1471442  0.045221839   -3.5437601    1.3966158   396900 
 2096000   0.93184926   -3.5459632   -3.5459632   -2.1481929    0.0429085   -3.5459632    1.3977704   396900 
 2097000   0.93146265   -3.5429418   -3.5429418   -2.1457513  0.042811928   -3.5429418    1.3971905   396900 
 2098000   0.93254764     -3.54526     -3.54526    -2.146442  0.040233513     -3.54526    1.3988179   396900 
 2099000   0.93411106   -3.5443054   -3.5443054   -2.1431423  0.046995771   -3.5443054    1.4011631   396900 
 2100000   0.93386661   -3.5436646   -3.5436646   -2.1428682  0.049774436   -3.5436646    1.4007964   396900 
 2101000   0.93328043   -3.5456057   -3.5456057   -2.1456886   0.04838515   -3.5456057    1.3999171   396900 
 2102000   0.93427754   -3.5474296   -3.5474296   -2.1460169  0.048695685   -3.5474296    1.4014128   396900 
 2103000   0.93419294   -3.5478178   -3.5478178   -2.1465319  0.046293298   -3.5478178    1.4012859   396900 
 2104000   0.93343181   -3.5495785   -3.5495785   -2.1494343  0.046850722   -3.5495785    1.4001442   396900 
 2105000   0.93105243   -3.5451557   -3.5451557   -2.1485805  0.049273073   -3.5451557    1.3965751   396900 
 2106000   0.93161263   -3.5471724   -3.5471724   -2.1497569  0.040203995   -3.5471724    1.3974154   396900 
 2107000   0.93289712   -3.5478722   -3.5478722     -2.14853  0.047316759   -3.5478722    1.3993422   396900 
 2108000   0.92957015   -3.5461143   -3.5461143   -2.1517626  0.044060817   -3.5461143    1.3943517   396900 
 2109000   0.92989894    -3.547243    -3.547243   -2.1523981  0.043632622    -3.547243    1.3948449   396900 
 2110000    0.9315782   -3.5471898   -3.5471898    -2.149826  0.039750541   -3.5471898    1.3973638   396900 
 2111000   0.93499091   -3.5494742   -3.5494742   -2.1469913   0.04258937   -3.5494742    1.4024828   396900 
 2112000   0.93166147   -3.5496662   -3.5496662   -2.1521775  0.051541303   -3.5496662    1.3974887   396900 
 2113000   0.93320836   -3.5514614   -3.5514614   -2.1516524  0.043701234   -3.5514614     1.399809   396900 
 2114000   0.93220421   -3.5499978   -3.5499978    -2.151695  0.044447485   -3.5499978    1.3983028   396900 
 2115000   0.93126672   -3.5488024   -3.5488024   -2.1519058  0.048700257   -3.5488024    1.3968966   396900 
 2116000    0.9320971   -3.5480757   -3.5480757   -2.1499336  0.042912515   -3.5480757    1.3981421   396900 
 2117000   0.93426298   -3.5496002   -3.5496002   -2.1482093  0.043817777   -3.5496002    1.4013909   396900 
 2118000   0.93320466   -3.5494017   -3.5494017   -2.1495983  0.037258335   -3.5494017    1.3998035   396900 
 2119000   0.93193082   -3.5478458   -3.5478458   -2.1499531  0.040625975   -3.5478458    1.3978927   396900 
 2120000   0.93063626   -3.5454526   -3.5454526   -2.1495017  0.045071608   -3.5454526    1.3959509   396900 
 2121000   0.93062001   -3.5457942   -3.5457942   -2.1498677  0.039052639   -3.5457942    1.3959265   396900 
 2122000   0.93303583   -3.5486582   -3.5486582    -2.149108  0.040522802   -3.5486582    1.3995502   396900 
 2123000   0.93343752   -3.5463036   -3.5463036   -2.1461508  0.046209696   -3.5463036    1.4001528   396900 
 2124000   0.93138744   -3.5440756   -3.5440756   -2.1469979  0.044912128   -3.5440756    1.3970776   396900 
 2125000   0.93224929   -3.5435111   -3.5435111   -2.1451407  0.050016355   -3.5435111    1.3983704   396900 
 2126000   0.93082668   -3.5430836   -3.5430836   -2.1468471  0.046553317   -3.5430836    1.3962365   396900 
 2127000   0.93082166   -3.5446539   -3.5446539   -2.1484249  0.041613898   -3.5446539     1.396229   396900 
 2128000   0.93204773   -3.5480453   -3.5480453   -2.1499773  0.038525485   -3.5480453    1.3980681   396900 
 2129000   0.93030255   -3.5473513   -3.5473513    -2.151901  0.037547543   -3.5473513    1.3954503   396900 
 2130000   0.93137989    -3.546738    -3.546738   -2.1496717  0.043392294    -3.546738    1.3970663   396900 
 2131000   0.93064819   -3.5457722   -3.5457722   -2.1498034  0.043383785   -3.5457722    1.3959688   396900 
 2132000   0.93204676   -3.5489104   -3.5489104   -2.1508438  0.041787492   -3.5489104    1.3980666   396900 
 2133000   0.93233212   -3.5475911   -3.5475911   -2.1490965  0.045065295   -3.5475911    1.3984947   396900 
 2134000   0.93312409   -3.5489157   -3.5489157   -2.1492331  0.042655561   -3.5489157    1.3996826   396900 
 2135000   0.93059406   -3.5476162   -3.5476162   -2.1517287  0.040400059   -3.5476162    1.3958876   396900 
 2136000   0.93164165   -3.5498638   -3.5498638   -2.1524049  0.042840764   -3.5498638     1.397459   396900 
 2137000   0.93262217   -3.5501995   -3.5501995   -2.1512698  0.048927822   -3.5501995    1.3989297   396900 
 2138000   0.93137906    -3.551734    -3.551734   -2.1546689  0.038752516    -3.551734    1.3970651   396900 
 2139000   0.93125909   -3.5531202   -3.5531202    -2.156235  0.045494432   -3.5531202    1.3968851   396900 
 2140000   0.93160152     -3.55368     -3.55368   -2.1562812  0.044908675     -3.55368    1.3973988   396900 
 2141000   0.92915386   -3.5528556   -3.5528556   -2.1591284  0.042201064   -3.5528556    1.3937273   396900 
 2142000   0.93264863   -3.5543625   -3.5543625   -2.1553931  0.048316505   -3.5543625    1.3989694   396900 
 2143000    0.9319704    -3.556074    -3.556074   -2.1581219  0.042163427    -3.556074    1.3979521   396900 
 2144000   0.93086966   -3.5539453   -3.5539453   -2.1576444  0.046341434   -3.5539453     1.396301   396900 
 2145000   0.93184117   -3.5555111   -3.5555111   -2.1577529  0.046506264   -3.5555111    1.3977582   396900 
 2146000   0.93262094   -3.5566901   -3.5566901   -2.1577622   0.05055795   -3.5566901    1.3989279   396900 
 2147000   0.92978958   -3.5542194   -3.5542194   -2.1595385  0.048688386   -3.5542194    1.3946809   396900 
 2148000   0.93140669   -3.5552923   -3.5552923   -2.1581858  0.045251268   -3.5552923    1.3971065   396900 
 2149000   0.93307758   -3.5559674   -3.5559674   -2.1563546  0.045610293   -3.5559674    1.3996128   396900 
 2150000   0.93086415    -3.557553    -3.557553   -2.1612603  0.044304677    -3.557553    1.3962927   396900 
 2151000   0.92992746   -3.5553354   -3.5553354   -2.1604477  0.042135067   -3.5553354    1.3948877   396900 
 2152000   0.93233469   -3.5550601   -3.5550601   -2.1565616  0.042190134   -3.5550601    1.3984985   396900 
 2153000   0.93232091   -3.5544359   -3.5544359    -2.155958  0.047802719   -3.5544359    1.3984778   396900 
 2154000   0.93147693   -3.5525234   -3.5525234   -2.1553115  0.047088637   -3.5525234    1.3972119   396900 
 2155000   0.93308173   -3.5525354   -3.5525354   -2.1529164  0.043590907   -3.5525354    1.3996191   396900 
 2156000   0.93145021   -3.5513627   -3.5513627   -2.1541909  0.045556652   -3.5513627    1.3971718   396900 
 2157000   0.93273431   -3.5547546   -3.5547546   -2.1556566  0.044412025   -3.5547546    1.3990979   396900 
 2158000   0.93295926   -3.5519888   -3.5519888   -2.1525534  0.040658491   -3.5519888    1.3994354   396900 
 2159000   0.93061185   -3.5499294   -3.5499294   -2.1540151  0.047326427   -3.5499294    1.3959143   396900 
 2160000   0.93356854   -3.5540148   -3.5540148   -2.1536656  0.047332521   -3.5540148    1.4003493   396900 
 2161000   0.93090385   -3.5534107   -3.5534107   -2.1570585  0.045958379   -3.5534107    1.3963523   396900 
 2162000   0.93048125   -3.5539999   -3.5539999   -2.1582816   0.03950245   -3.5539999    1.3957184   396900 
 2163000   0.93230229   -3.5536066   -3.5536066   -2.1551567  0.040338483   -3.5536066    1.3984499   396900 
 2164000   0.93313055   -3.5549026   -3.5549026   -2.1552103  0.045251761   -3.5549026    1.3996923   396900 
 2165000   0.93138448   -3.5529019   -3.5529019   -2.1558287  0.042287357   -3.5529019    1.3970732   396900 
 2166000   0.93098574   -3.5533204   -3.5533204   -2.1568453  0.040168045   -3.5533204    1.3964751   396900 
 2167000   0.92989384   -3.5538882   -3.5538882   -2.1590509  0.046374757   -3.5538882    1.3948373   396900 
 2168000   0.92936562   -3.5540047   -3.5540047   -2.1599598  0.039998216   -3.5540047    1.3940449   396900 
 2169000   0.93107233   -3.5565026   -3.5565026   -2.1598977  0.044992422   -3.5565026     1.396605   396900 
 2170000   0.93277468   -3.5607159   -3.5607159   -2.1615574  0.044521669   -3.5607159    1.3991585   396900 
 2171000    0.9317446    -3.558993    -3.558993   -2.1613796  0.043848864    -3.558993    1.3976134   396900 
 2172000   0.93050541   -3.5581205   -3.5581205   -2.1623659  0.045588124   -3.5581205    1.3957546   396900 
 2173000   0.93218775   -3.5613593   -3.5613593   -2.1630812  0.042560863   -3.5613593    1.3982781   396900 
 2174000   0.93090139   -3.5601377   -3.5601377   -2.1637892  0.044191388   -3.5601377    1.3963486   396900 
 2175000   0.92950533   -3.5592087   -3.5592087   -2.1649543  0.046236852   -3.5592087    1.3942545   396900 
 2176000   0.93134342   -3.5617112   -3.5617112   -2.1646996  0.046380551   -3.5617112    1.3970116   396900 
 2177000   0.93141147   -3.5634518   -3.5634518   -2.1663382  0.046750229   -3.5634518    1.3971137   396900 
 2178000   0.93053797   -3.5633112   -3.5633112   -2.1675078  0.043557734   -3.5633112    1.3958034   396900 
 2179000   0.92967634   -3.5643454   -3.5643454   -2.1698344    0.0459701   -3.5643454     1.394511   396900 
 2180000   0.93290523   -3.5666985   -3.5666985   -2.1673441  0.050075872   -3.5666985    1.3993543   396900 
 2181000   0.93063503   -3.5648709   -3.5648709   -2.1689219  0.052355884   -3.5648709     1.395949   396900 
 2182000   0.93207402   -3.5687643   -3.5687643   -2.1706568  0.048754057   -3.5687643    1.3981075   396900 
 2183000   0.93082611   -3.5680025   -3.5680025   -2.1717668  0.045865457   -3.5680025    1.3962356   396900 
 2184000   0.93315466   -3.5692489   -3.5692489   -2.1695204  0.042831022   -3.5692489    1.3997285   396900 
 2185000   0.93206466   -3.5671768   -3.5671768   -2.1690833  0.043537177   -3.5671768    1.3980935   396900 
 2186000   0.93290652   -3.5680479   -3.5680479   -2.1686916  0.046631156   -3.5680479    1.3993563   396900 
 2187000   0.93062639    -3.567435    -3.567435    -2.171499   0.04856249    -3.567435    1.3959361   396900 
 2188000   0.93052627   -3.5668993   -3.5668993   -2.1711134  0.046222113   -3.5668993    1.3957859   396900 
 2189000   0.92968942   -3.5648449   -3.5648449   -2.1703143  0.045176188   -3.5648449    1.3945306   396900 
 2190000   0.92932208   -3.5661253   -3.5661253   -2.1721457  0.045454714   -3.5661253    1.3939796   396900 
 2191000   0.92943708    -3.563057    -3.563057   -2.1689049  0.046393096    -3.563057    1.3941521   396900 
 2192000    0.9309095   -3.5664096   -3.5664096   -2.1700489  0.044664348   -3.5664096    1.3963607   396900 
 2193000   0.93169736   -3.5692729   -3.5692729   -2.1717304  0.049659352   -3.5692729    1.3975425   396900 
 2194000   0.93049666   -3.5679474   -3.5679474   -2.1722059  0.046539377   -3.5679474    1.3957415   396900 
 2195000    0.9287437   -3.5684682   -3.5684682   -2.1753562  0.051272784   -3.5684682     1.393112   396900 
 2196000   0.92877619   -3.5695447   -3.5695447   -2.1763839  0.047901316   -3.5695447    1.3931608   396900 
 2197000   0.93032205   -3.5741022   -3.5741022   -2.1786226  0.036533304   -3.5741022    1.3954796   396900 
 2198000   0.92878447   -3.5720653   -3.5720653   -2.1788921  0.044708709   -3.5720653    1.3931732   396900 
 2199000   0.92900536   -3.5716071   -3.5716071   -2.1781025  0.041602328   -3.5716071    1.3935045   396900 
 2200000   0.92914696    -3.570195    -3.570195   -2.1764781  0.044531803    -3.570195    1.3937169   396900 
 2201000   0.92900611   -3.5691805   -3.5691805   -2.1756749  0.050023831   -3.5691805    1.3935056   396900 
 2202000   0.92853242   -3.5706259   -3.5706259   -2.1778308  0.040456593   -3.5706259    1.3927951   396900 
 2203000   0.92915429   -3.5722236   -3.5722236   -2.1784957  0.038082946   -3.5722236    1.3937279   396900 
 2204000   0.92979959   -3.5709489   -3.5709489    -2.176253  0.049757639   -3.5709489    1.3946959   396900 
 2205000   0.93009017    -3.572094    -3.572094   -2.1769622   0.03950128    -3.572094    1.3951317   396900 
 2206000   0.92845885   -3.5693766   -3.5693766   -2.1766918  0.046937958   -3.5693766    1.3926848   396900 
 2207000    0.9306773   -3.5717079   -3.5717079   -2.1756955  0.041658019   -3.5717079    1.3960124   396900 
 2208000   0.93109725   -3.5709109   -3.5709109   -2.1742685  0.045955178   -3.5709109    1.3966424   396900 
 2209000   0.93033447   -3.5709505   -3.5709505   -2.1754524   0.04545456   -3.5709505    1.3954982   396900 
 2210000   0.92975608   -3.5717994   -3.5717994   -2.1771688  0.043064618   -3.5717994    1.3946306   396900 
 2211000   0.92772104    -3.569672    -3.569672   -2.1780939  0.042564354    -3.569672     1.391578   396900 
 2212000   0.92878511     -3.56981     -3.56981   -2.1766358  0.041646723     -3.56981    1.3931742   396900 
 2213000   0.92920487   -3.5695511   -3.5695511   -2.1757473  0.045218005   -3.5695511    1.3938038   396900 
 2214000   0.93096306   -3.5709761   -3.5709761    -2.174535  0.047427831   -3.5709761    1.3964411   396900 
 2215000   0.92890301   -3.5715597   -3.5715597   -2.1782087  0.049924356   -3.5715597     1.393351   396900 
 2216000   0.92840135   -3.5728741   -3.5728741   -2.1802756  0.041213968   -3.5728741    1.3925985   396900 
 2217000   0.92972188   -3.5709992   -3.5709992   -2.1764199   0.04668928   -3.5709992    1.3945793   396900 
 2218000   0.93003821   -3.5739108   -3.5739108    -2.178857  0.043278645   -3.5739108    1.3950538   396900 
 2219000   0.92953591   -3.5731364   -3.5731364    -2.178836  0.045061366   -3.5731364    1.3943003   396900 
 2220000   0.92766355   -3.5714581   -3.5714581   -2.1799663  0.043068364   -3.5714581    1.3914918   396900 
 2221000   0.92842887   -3.5706657   -3.5706657   -2.1780259  0.049672044   -3.5706657    1.3926398   396900 
 2222000   0.93001965   -3.5730981   -3.5730981   -2.1780721  0.042818112   -3.5730981     1.395026   396900 
 2223000   0.93062936   -3.5716673   -3.5716673   -2.1757268  0.043703252   -3.5716673    1.3959405   396900 
 2224000   0.93018262   -3.5719923   -3.5719923   -2.1767219  0.046672631   -3.5719923    1.3952704   396900 
 2225000    0.9286798   -3.5704217   -3.5704217   -2.1774055  0.042768766   -3.5704217    1.3930162   396900 
 2226000   0.92777032   -3.5680222   -3.5680222   -2.1763703  0.052552262   -3.5680222     1.391652   396900 
 2227000    0.9300041   -3.5715032   -3.5715032   -2.1765005   0.03831404   -3.5715032    1.3950026   396900 
 2228000   0.92909225   -3.5697352   -3.5697352   -2.1761004  0.044977732   -3.5697352    1.3936349   396900 
 2229000   0.92708063   -3.5684787   -3.5684787   -2.1778612   0.04572122   -3.5684787    1.3906174   396900 
 2230000    0.9282874   -3.5681328   -3.5681328   -2.1757052  0.041244388   -3.5681328    1.3924276   396900 
 2231000   0.92752769   -3.5691341   -3.5691341    -2.177846  0.038172878   -3.5691341     1.391288   396900 
 2232000   0.92710797   -3.5670213   -3.5670213   -2.1763629   0.04632468   -3.5670213    1.3906585   396900 
 2233000   0.92917748   -3.5712045   -3.5712045   -2.1774418  0.043571986   -3.5712045    1.3937627   396900 
 2234000    0.9301105   -3.5694874   -3.5694874   -2.1743252  0.046076701   -3.5694874    1.3951622   396900 
 2235000   0.92814553     -3.57124     -3.57124   -2.1790252  0.041312474     -3.57124    1.3922148   396900 
 2236000   0.92768408   -3.5715614   -3.5715614   -2.1800388  0.045969543   -3.5715614    1.3915226   396900 
 2237000   0.92983626   -3.5741345   -3.5741345   -2.1793836  0.046895232   -3.5741345    1.3947509   396900 
 2238000    0.9279845   -3.5719395   -3.5719395   -2.1799663  0.045411695   -3.5719395    1.3919732   396900 
 2239000   0.92947866   -3.5755058   -3.5755058   -2.1812913  0.040570918   -3.5755058    1.3942145   396900 
 2240000   0.92890652   -3.5749833   -3.5749833   -2.1816271   0.04914145   -3.5749833    1.3933563   396900 
 2241000   0.93048333   -3.5775348   -3.5775348   -2.1818133   0.04835316   -3.5775348    1.3957215   396900 
 2242000   0.93095117   -3.5787002   -3.5787002    -2.182277  0.041789418   -3.5787002    1.3964232   396900 
 2243000   0.92941981   -3.5755571   -3.5755571   -2.1814309  0.043521985   -3.5755571    1.3941262   396900 
 2244000   0.92883486   -3.5755219   -3.5755219   -2.1822731  0.041871401   -3.5755219    1.3932488   396900 
 2245000   0.92835963   -3.5768367   -3.5768367   -2.1843007  0.037439112   -3.5768367    1.3925359   396900 
 2246000   0.92934285   -3.5782357   -3.5782357    -2.184225  0.038729331   -3.5782357    1.3940108   396900 
 2247000   0.92837761   -3.5750247   -3.5750247   -2.1824618  0.046223413   -3.5750247    1.3925629   396900 
 2248000   0.92798494   -3.5758905   -3.5758905   -2.1839166  0.042983465   -3.5758905    1.3919739   396900 
 2249000   0.92866847   -3.5776663   -3.5776663   -2.1846671  0.043624392   -3.5776663    1.3929992   396900 
 2250000   0.92833952    -3.578036    -3.578036   -2.1855302  0.047668389    -3.578036    1.3925058   396900 
 2251000   0.92725527   -3.5779461   -3.5779461   -2.1870667  0.044210393   -3.5779461    1.3908794   396900 
 2252000    0.9281944   -3.5782126   -3.5782126   -2.1859245  0.044007953   -3.5782126    1.3922881   396900 
 2253000   0.92835402   -3.5781499   -3.5781499   -2.1856223  0.048055208   -3.5781499    1.3925275   396900 
 2254000    0.9286328   -3.5787231   -3.5787231   -2.1857774   0.04255413   -3.5787231    1.3929457   396900 
 2255000   0.92816743   -3.5788805   -3.5788805   -2.1866329  0.048027985   -3.5788805    1.3922476   396900 
 2256000   0.92899842   -3.5780828   -3.5780828   -2.1845887  0.046387596   -3.5780828    1.3934941   396900 
 2257000   0.92903942   -3.5795865   -3.5795865   -2.1860309  0.042036699   -3.5795865    1.3935556   396900 
 2258000   0.92863084   -3.5784178   -3.5784178   -2.1854751  0.044795902   -3.5784178    1.3929427   396900 
 2259000   0.92789832   -3.5793798   -3.5793798   -2.1875358   0.04596072   -3.5793798     1.391844   396900 
 2260000     0.926504   -3.5786221   -3.5786221   -2.1888696  0.041545336   -3.5786221    1.3897525   396900 
 2261000   0.92766898   -3.5817607   -3.5817607   -2.1902607  0.039043528   -3.5817607       1.3915   396900 
 2262000   0.93057146   -3.5832529   -3.5832529   -2.1873993  0.046466005   -3.5832529    1.3958537   396900 
 2263000   0.93052769   -3.5821001   -3.5821001   -2.1863121   0.04174232   -3.5821001     1.395788   396900 
 2264000   0.92728572   -3.5811354   -3.5811354   -2.1902103  0.041149217   -3.5811354    1.3909251   396900 
 2265000   0.92841821   -3.5819907   -3.5819907   -2.1893669  0.045468411   -3.5819907    1.3926238   396900 
 2266000   0.92574653   -3.5773295   -3.5773295   -2.1887132  0.045598109   -3.5773295    1.3886163   396900 
 2267000   0.92807388   -3.5805276   -3.5805276   -2.1884203  0.048595675   -3.5805276    1.3921073   396900 
 2268000   0.92598894   -3.5791317   -3.5791317   -2.1901518  0.047469094   -3.5791317    1.3889799   396900 
 2269000   0.92601384   -3.5802748   -3.5802748   -2.1912575  0.041029429   -3.5802748    1.3890173   396900 
 2270000   0.92745605   -3.5781951   -3.5781951   -2.1870145   0.04934423   -3.5781951    1.3911806   396900 
 2271000   0.92891995   -3.5816666   -3.5816666   -2.1882901  0.043033562   -3.5816666    1.3933764   396900 
 2272000    0.9279555   -3.5813973   -3.5813973   -2.1894675  0.038991787   -3.5813973    1.3919297   396900 
 2273000   0.92734499   -3.5784222   -3.5784222   -2.1874082  0.044924635   -3.5784222     1.391014   396900 
 2274000   0.92824894   -3.5792607   -3.5792607   -2.1868908  0.050100384   -3.5792607    1.3923699   396900 
 2275000   0.92886617   -3.5810762   -3.5810762   -2.1877805  0.047177059   -3.5810762    1.3932957   396900 
 2276000   0.92712756   -3.5797177   -3.5797177   -2.1890298  0.045394795   -3.5797177    1.3906878   396900 
 2277000   0.92705247   -3.5812541   -3.5812541   -2.1906789  0.042296665   -3.5812541    1.3905752   396900 
 2278000   0.92661352   -3.5818483   -3.5818483   -2.1919316  0.045008413   -3.5818483    1.3899168   396900 
 2279000   0.92715894   -3.5804529   -3.5804529    -2.189718  0.040652493   -3.5804529    1.3907349   396900 
 2280000    0.9251608   -3.5790172   -3.5790172   -2.1912795  0.041365739   -3.5790172    1.3877377   396900 
 2281000   0.92599899   -3.5799854   -3.5799854   -2.1909904  0.037832992   -3.5799854     1.388995   396900 
 2282000   0.92736112   -3.5803401   -3.5803401   -2.1893019  0.043938684   -3.5803401    1.3910382   396900 
 2283000   0.92630427   -3.5811074   -3.5811074   -2.1916545  0.046160688   -3.5811074    1.3894529   396900 
 2284000   0.92775819   -3.5823394   -3.5823394   -2.1907056  0.044961828   -3.5823394    1.3916338   396900 
 2285000   0.92895378   -3.5856135   -3.5856135   -2.1921864  0.044106618   -3.5856135    1.3934272   396900 
 2286000   0.92794082   -3.5830185   -3.5830185   -2.1911108  0.050771838   -3.5830185    1.3919077   396900 
 2287000   0.92806359   -3.5835461   -3.5835461   -2.1914542    0.0460564   -3.5835461    1.3920919   396900 
 2288000   0.92695481   -3.5836585   -3.5836585   -2.1932298  0.041287081   -3.5836585    1.3904287   396900 
 2289000   0.92698609   -3.5845657   -3.5845657   -2.1940901  0.040056764   -3.5845657    1.3904756   396900 
 2290000   0.92558332   -3.5837594   -3.5837594   -2.1953879   0.04562379   -3.5837594    1.3883715   396900 
 2291000   0.92545088   -3.5861854   -3.5861854   -2.1980126  0.042628769   -3.5861854    1.3881728   396900 
 2292000   0.92616104   -3.5883584   -3.5883584   -2.1991204   0.04601634   -3.5883584    1.3892381   396900 
 2293000   0.92722686   -3.5871419   -3.5871419   -2.1963051  0.038221096   -3.5871419    1.3908368   396900 
 2294000   0.92674917   -3.5841246   -3.5841246   -2.1940043  0.050994576   -3.5841246    1.3901203   396900 
 2295000    0.9249599   -3.5859717   -3.5859717   -2.1985353  0.041603287   -3.5859717    1.3874364   396900 
 2296000   0.92741622    -3.587176    -3.587176   -2.1960552  0.042600528    -3.587176    1.3911208   396900 
 2297000   0.92910693    -3.588003    -3.588003   -2.1943461  0.046000404    -3.588003    1.3936569   396900 
 2298000   0.92665471   -3.5864221   -3.5864221   -2.1964435  0.041299742   -3.5864221    1.3899786   396900 
 2299000   0.92693869    -3.588215    -3.588215   -2.1978105  0.044482366    -3.588215    1.3904045   396900 
 2300000   0.92752798   -3.5890634   -3.5890634   -2.1977749  0.043392422   -3.5890634    1.3912885   396900 
 2301000   0.92733139    -3.588498    -3.588498   -2.1975045  0.045195604    -3.588498    1.3909936   396900 
 2302000   0.92651563   -3.5870033   -3.5870033   -2.1972333  0.046213551   -3.5870033    1.3897699   396900 
 2303000   0.92724783   -3.5893697   -3.5893697   -2.1985014  0.036939739   -3.5893697    1.3908682   396900 
 2304000   0.92519087   -3.5874702   -3.5874702   -2.1996874  0.041846796   -3.5874702    1.3877828   396900 
 2305000   0.92686559   -3.5892514   -3.5892514   -2.1989565   0.04347722   -3.5892514    1.3902949   396900 
 2306000   0.92576148   -3.5882535   -3.5882535   -2.1996148  0.043280864   -3.5882535    1.3886387   396900 
 2307000   0.92659265   -3.5902682   -3.5902682   -2.2003827   0.04360038   -3.5902682    1.3898855   396900 
 2308000   0.92503872   -3.5862209   -3.5862209   -2.1986663  0.044381078   -3.5862209    1.3875546   396900 
 2309000   0.92550209   -3.5882679   -3.5882679   -2.2000183   0.04303493   -3.5882679    1.3882496   396900 
 2310000   0.92785426   -3.5905198   -3.5905198    -2.198742  0.040740761   -3.5905198    1.3917779   396900 
 2311000   0.92875711   -3.5930704   -3.5930704   -2.1999383  0.044582055   -3.5930704    1.3931321   396900 
 2312000   0.92660917    -3.589725    -3.589725   -2.1998147  0.044177875    -3.589725    1.3899103   396900 
 2313000   0.92728457   -3.5927562   -3.5927562   -2.2018329  0.044597386   -3.5927562    1.3909233   396900 
 2314000    0.9270332   -3.5938951   -3.5938951   -2.2033488  0.045051098   -3.5938951    1.3905463   396900 
 2315000   0.92623017   -3.5920024   -3.5920024   -2.2026606  0.044057909   -3.5920024    1.3893418   396900 
 2316000   0.92779835    -3.592319    -3.592319    -2.200625  0.045796906    -3.592319     1.391694   396900 
 2317000   0.92712152   -3.5896943   -3.5896943   -2.1990155  0.045283437   -3.5896943    1.3906788   396900 
 2318000   0.92694705   -3.5892179   -3.5892179   -2.1988009  0.041000986   -3.5892179    1.3904171   396900 
 2319000   0.92505622    -3.589775    -3.589775   -2.2021941  0.039425379    -3.589775    1.3875808   396900 
 2320000    0.9228902   -3.5887026   -3.5887026   -2.2043708   0.04691189   -3.5887026    1.3843318   396900 
 2321000   0.92727713   -3.5910641   -3.5910641   -2.2001519  0.042385572   -3.5910641    1.3909122   396900 
 2322000   0.92476941   -3.5907642   -3.5907642   -2.2036136  0.041117291   -3.5907642    1.3871506   396900 
 2323000   0.92619948    -3.592117    -3.592117   -2.2028213  0.040638324    -3.592117    1.3892957   396900 
 2324000   0.92746742    -3.591797    -3.591797   -2.2005994  0.049749399    -3.591797    1.3911976   396900 
 2325000   0.92710534   -3.5910703   -3.5910703   -2.2004158  0.039577183   -3.5910703    1.3906545   396900 
 2326000   0.92471685   -3.5887798   -3.5887798    -2.201708  0.044477302   -3.5887798    1.3870718   396900 
 2327000   0.92732043   -3.5904005   -3.5904005   -2.1994234  0.042232342   -3.5904005    1.3909771   396900 
 2328000    0.9263408   -3.5886114   -3.5886114   -2.1991037  0.041896863   -3.5886114    1.3895077   396900 
 2329000    0.9253711   -3.5884305   -3.5884305   -2.2003773  0.041788291   -3.5884305    1.3880532   396900 
 2330000   0.92570997   -3.5891374   -3.5891374   -2.2005759  0.042749588   -3.5891374    1.3885615   396900 
 2331000   0.92704656   -3.5922531   -3.5922531   -2.2016868  0.044382189   -3.5922531    1.3905663   396900 
 2332000   0.92698451   -3.5927268   -3.5927268   -2.2022535  0.039431494   -3.5927268    1.3904733   396900 
 2333000   0.92569712    -3.588986    -3.588986   -2.2004438  0.042017756    -3.588986    1.3885422   396900 
 2334000   0.92859096   -3.5930357   -3.5930357   -2.2001527  0.043517008   -3.5930357    1.3928829   396900 
 2335000   0.92647074   -3.5896576   -3.5896576   -2.1999549  0.040318781   -3.5896576    1.3897026   396900 
 2336000   0.92654847     -3.58928     -3.58928   -2.1994608  0.043842942     -3.58928    1.3898192   396900 
 2337000   0.92691943   -3.5908981   -3.5908981   -2.2005225  0.043438992   -3.5908981    1.3903756   396900 
 2338000   0.92685988   -3.5899588   -3.5899588   -2.1996725  0.043710487   -3.5899588    1.3902863   396900 
 2339000   0.92740251   -3.5898319   -3.5898319   -2.1987316  0.043865104   -3.5898319    1.3911003   396900 
 2340000   0.92717092   -3.5915003   -3.5915003   -2.2007474  0.045355331   -3.5915003    1.3907529   396900 
 2341000   0.92631661   -3.5915059   -3.5915059   -2.2020345  0.045223325   -3.5915059    1.3894714   396900 
 2342000   0.92739213   -3.5908082   -3.5908082   -2.1997235  0.041553887   -3.5908082    1.3910847   396900 
 2343000   0.92589534   -3.5898031   -3.5898031   -2.2009636  0.045583309   -3.5898031    1.3888395   396900 
 2344000   0.92674054   -3.5928969   -3.5928969   -2.2027896  0.046088376   -3.5928969    1.3901073   396900 
 2345000   0.92471804    -3.592352    -3.592352   -2.2052784  0.040409056    -3.592352    1.3870736   396900 
 2346000   0.92544745   -3.5932677   -3.5932677      -2.2051  0.042071846   -3.5932677    1.3881677   396900 
 2347000   0.92579167   -3.5929187   -3.5929187   -2.2042347  0.046006435   -3.5929187     1.388684   396900 
 2348000   0.92734731   -3.5960647   -3.5960647   -2.2050472  0.045814471   -3.5960647    1.3910175   396900 
 2349000   0.92479856   -3.5939334   -3.5939334   -2.2067391  0.041550731   -3.5939334    1.3871943   396900 
 2350000   0.92520688   -3.5939958   -3.5939958    -2.206189  0.041917054   -3.5939958    1.3878068   396900 
 2351000   0.92500692   -3.5948994   -3.5948994   -2.2073925  0.041488549   -3.5948994    1.3875069   396900 
 2352000   0.92325447     -3.59252     -3.59252   -2.2076418  0.041808859     -3.59252    1.3848782   396900 
 2353000   0.92512674   -3.5958557   -3.5958557   -2.2081691  0.038121782   -3.5958557    1.3876866   396900 
 2354000   0.92488497   -3.5943423   -3.5943423   -2.2070183  0.044240747   -3.5943423     1.387324   396900 
 2355000   0.92448485   -3.5942096   -3.5942096   -2.2074859  0.040636876   -3.5942096    1.3867238   396900 
 2356000   0.92425499   -3.5928163   -3.5928163   -2.2064373  0.041390358   -3.5928163     1.386379   396900 
 2357000   0.92310086   -3.5945733   -3.5945733   -2.2099255  0.037979115   -3.5945733    1.3846478   396900 
 2358000     0.922829   -3.5951119   -3.5951119   -2.2108718  0.039341483   -3.5951119      1.38424   396900 
 2359000   0.92564398   -3.5958862   -3.5958862   -2.2074237   0.03849277   -3.5958862    1.3884625   396900 
 2360000    0.9237615   -3.5930181   -3.5930181   -2.2073793   0.04784003   -3.5930181    1.3856388   396900 
 2361000   0.92553179   -3.5951494   -3.5951494   -2.2068552  0.044162766   -3.5951494    1.3882942   396900 
 2362000   0.92541473   -3.5968601   -3.5968601   -2.2087415  0.045824726   -3.5968601    1.3881186   396900 
 2363000   0.92573582   -3.5971904   -3.5971904   -2.2085902  0.042202096   -3.5971904    1.3886002   396900 
 2364000    0.9258809   -3.5983447   -3.5983447   -2.2095268  0.042228687   -3.5983447    1.3888178   396900 
 2365000   0.92447951   -3.5970853   -3.5970853   -2.2103695  0.044977773   -3.5970853    1.3867158   396900 
 2366000   0.92526672   -3.5985291   -3.5985291   -2.2106325  0.042111094   -3.5985291    1.3878966   396900 
 2367000   0.92511902   -3.5963307   -3.5963307   -2.2086557  0.040367453   -3.5963307     1.387675   396900 
 2368000   0.92333386   -3.5946832   -3.5946832   -2.2096859  0.042074844   -3.5946832    1.3849973   396900 
 2369000   0.92339443   -3.5950943   -3.5950943   -2.2100061  0.040844673   -3.5950943    1.3850882   396900 
 2370000   0.92529398   -3.5970692   -3.5970692   -2.2091317  0.039875876   -3.5970692    1.3879375   396900 
 2371000   0.92383681   -3.5963998   -3.5963998   -2.2106481  0.043930488   -3.5963998    1.3857517   396900 
 2372000   0.92377442   -3.5981089   -3.5981089   -2.2124508  0.038736185   -3.5981089    1.3856581   396900 
 2373000   0.92386397   -3.5987912   -3.5987912   -2.2129987  0.040391634   -3.5987912    1.3857925   396900 
 2374000   0.92342386   -3.5996837   -3.5996837   -2.2145514  0.043287478   -3.5996837    1.3851323   396900 
 2375000   0.92351275   -3.6002625   -3.6002625   -2.2149969  0.039169077   -3.6002625    1.3852656   396900 
 2376000   0.92471261   -3.6012325   -3.6012325   -2.2141671  0.043926957   -3.6012325    1.3870654   396900 
 2377000   0.92561107   -3.6026243   -3.6026243   -2.2142112  0.042044725   -3.6026243    1.3884131   396900 
 2378000   0.92474173   -3.6026989   -3.6026989   -2.2155898  0.040651734   -3.6026989    1.3871091   396900 
 2379000   0.92330398   -3.5998491   -3.5998491   -2.2148966  0.044267188   -3.5998491    1.3849525   396900 
 2380000   0.92362206   -3.6012822   -3.6012822   -2.2158526  0.040276427   -3.6012822    1.3854296   396900 
 2381000   0.92345826   -3.6022313   -3.6022313   -2.2170474  0.039856026   -3.6022313    1.3851839   396900 
 2382000   0.92454063   -3.6028507   -3.6028507   -2.2160433  0.040865219   -3.6028507    1.3868074   396900 
 2383000   0.92571382   -3.6038222   -3.6038222    -2.215255  0.046553577   -3.6038222    1.3885672   396900 
 2384000   0.92686994    -3.606694    -3.606694   -2.2163926  0.041741623    -3.606694    1.3903014   396900 
 2385000   0.92332435   -3.6027124   -3.6027124   -2.2177293  0.048304104   -3.6027124     1.384983   396900 
 2386000   0.92280916   -3.6049623   -3.6049623   -2.2207521  0.040144223   -3.6049623    1.3842103   396900 
 2387000   0.92304485   -3.6038075   -3.6038075   -2.2192437  0.040886165   -3.6038075    1.3845638   396900 
 2388000   0.92390971   -3.6038743   -3.6038743   -2.2180132  0.046908326   -3.6038743    1.3858611   396900 
 2389000   0.92401873   -3.6039691   -3.6039691   -2.2179444  0.042274995   -3.6039691    1.3860246   396900 
 2390000   0.92350497   -3.6028543   -3.6028543   -2.2176003  0.042867476   -3.6028543     1.385254   396900 
 2391000   0.92478015   -3.6057209   -3.6057209   -2.2185542  0.039637945   -3.6057209    1.3871667   396900 
 2392000   0.92360762   -3.6045088   -3.6045088   -2.2191008  0.045331069   -3.6045088    1.3854079   396900 
 2393000    0.9234059   -3.6031347   -3.6031347   -2.2180294    0.0426802   -3.6031347    1.3851054   396900 
 2394000     0.923074   -3.6047119   -3.6047119   -2.2201044  0.041651434   -3.6047119    1.3846075   396900 
 2395000   0.92369228   -3.6042617   -3.6042617   -2.2187267  0.040567761   -3.6042617    1.3855349   396900 
 2396000   0.92458758   -3.6075154   -3.6075154   -2.2206375  0.039583463   -3.6075154    1.3868779   396900 
 2397000   0.92520873   -3.6088839   -3.6088839   -2.2210743  0.043921835   -3.6088839    1.3878096   396900 
 2398000   0.92506434   -3.6075742   -3.6075742   -2.2199812  0.048918344   -3.6075742     1.387593   396900 
 2399000   0.92341683    -3.607222    -3.607222   -2.2221002  0.045752775    -3.607222    1.3851218   396900 
 2400000   0.92196815   -3.6081312   -3.6081312   -2.2251825  0.045017481   -3.6081312    1.3829487   396900 
 2401000   0.92170362   -3.6075058   -3.6075058   -2.2249538  0.042200956   -3.6075058    1.3825519   396900 
 2402000    0.9211724   -3.6046097   -3.6046097   -2.2228546  0.041136264   -3.6046097    1.3817551   396900 
 2403000   0.92365198   -3.6073051   -3.6073051   -2.2218306  0.043589914   -3.6073051    1.3854745   396900 
 2404000   0.92371482   -3.6069435   -3.6069435   -2.2213748  0.044513549   -3.6069435    1.3855687   396900 
 2405000   0.92545434   -3.6091289   -3.6091289   -2.2209509  0.045970774   -3.6091289     1.388178   396900 
 2406000   0.92480147   -3.6076906   -3.6076906   -2.2204919  0.043281631   -3.6076906    1.3871987   396900 
 2407000   0.92150679   -3.6040259   -3.6040259   -2.2217692  0.041937066   -3.6040259    1.3822567   396900 
 2408000   0.92296364   -3.6068846   -3.6068846   -2.2224427  0.038949037   -3.6068846     1.384442   396900 
 2409000    0.9227808   -3.6070529   -3.6070529   -2.2228852  0.039662739   -3.6070529    1.3841677   396900 
 2410000   0.92134836   -3.6060698   -3.6060698   -2.2240507  0.041827607   -3.6060698    1.3820191   396900 
 2411000   0.91997047   -3.6044004   -3.6044004   -2.2244482   0.03980203   -3.6044004    1.3799522   396900 
 2412000   0.92171582   -3.6074385   -3.6074385   -2.2248683  0.042301901   -3.6074385    1.3825703   396900 
 2413000   0.92124951   -3.6049303   -3.6049303   -2.2230595  0.039047095   -3.6049303    1.3818708   396900 
 2414000   0.92225002   -3.6064616   -3.6064616     -2.22309  0.049343059   -3.6064616    1.3833715   396900 
 2415000   0.92102517   -3.6070852   -3.6070852   -2.2255509   0.04081053   -3.6070852    1.3815343   396900 
 2416000   0.92160979   -3.6083002   -3.6083002    -2.225889  0.036302587   -3.6083002    1.3824112   396900 
 2417000   0.92193283   -3.6117329   -3.6117329   -2.2288372  0.038277439   -3.6117329    1.3828958   396900 
 2418000   0.92213876   -3.6088283   -3.6088283   -2.2256237  0.043427094   -3.6088283    1.3832047   396900 
 2419000   0.92318534   -3.6119249   -3.6119249   -2.2271504  0.042296312   -3.6119249    1.3847745   396900 
 2420000   0.92275856   -3.6109778   -3.6109778   -2.2268435   0.04149536   -3.6109778    1.3841344   396900 
 2421000   0.92209129   -3.6112913   -3.6112913   -2.2281578   0.04532698   -3.6112913    1.3831334   396900 
 2422000   0.92354382   -3.6125308   -3.6125308   -2.2272186  0.044583794   -3.6125308    1.3853122   396900 
 2423000   0.92122055   -3.6130539   -3.6130539   -2.2312266  0.045209142   -3.6130539    1.3818273   396900 
 2424000   0.92137802   -3.6144941   -3.6144941   -2.2324306  0.040331471   -3.6144941    1.3820635   396900 
 2425000   0.92019028   -3.6129089   -3.6129089    -2.232627  0.039754632   -3.6129089    1.3802819   396900 
 2426000   0.91955327   -3.6122808   -3.6122808   -2.2329544  0.039709245   -3.6122808    1.3793264   396900 
 2427000   0.92208267   -3.6142747   -3.6142747   -2.2311542  0.040371299   -3.6142747    1.3831205   396900 
 2428000   0.92105724   -3.6130921   -3.6130921   -2.2315097  0.045797098   -3.6130921    1.3815824   396900 
 2429000   0.92173091   -3.6144038   -3.6144038   -2.2318109  0.044108689   -3.6144038    1.3825929   396900 
 2430000   0.92185999   -3.6160899   -3.6160899   -2.2333034  0.040025262   -3.6160899    1.3827865   396900 
 2431000   0.92070775   -3.6169145   -3.6169145   -2.2358564  0.046075054   -3.6169145    1.3810581   396900 
 2432000   0.92156343   -3.6212465   -3.6212465   -2.2389049  0.038687027   -3.6212465    1.3823417   396900 
 2433000   0.91896706   -3.6176195   -3.6176195   -2.2391724  0.043382904   -3.6176195    1.3784471   396900 
 2434000   0.92135804   -3.6202613   -3.6202613   -2.2382277  0.037288441   -3.6202613    1.3820336   396900 
 2435000   0.92249241   -3.6206309   -3.6206309   -2.2368958  0.041525546   -3.6206309    1.3837351   396900 
 2436000   0.92176359   -3.6192423   -3.6192423   -2.2366004  0.041462417   -3.6192423    1.3826419   396900 
 2437000   0.92083384   -3.6188137   -3.6188137   -2.2375665  0.042640549   -3.6188137    1.3812473   396900 
 2438000   0.92170187   -3.6175576   -3.6175576   -2.2350082   0.04907637   -3.6175576    1.3825493   396900 
 2439000   0.92177894   -3.6205215   -3.6205215   -2.2378566  0.042369269   -3.6205215    1.3826649   396900 
 2440000   0.92205061   -3.6187704   -3.6187704   -2.2356979  0.044262889   -3.6187704    1.3830724   396900 
 2441000   0.92278078   -3.6206007   -3.6206007    -2.236433  0.040404473   -3.6206007    1.3841677   396900 
 2442000   0.92112468   -3.6190881   -3.6190881   -2.2374045  0.038751274   -3.6190881    1.3816835   396900 
 2443000   0.91943155   -3.6188119   -3.6188119   -2.2396681  0.045450347   -3.6188119    1.3791438   396900 
 2444000   0.92061865   -3.6214292   -3.6214292   -2.2405047   0.03587142   -3.6214292    1.3809245   396900 
 2445000   0.92173665   -3.6224031   -3.6224031   -2.2398016  0.039408401   -3.6224031    1.3826015   396900 
 2446000   0.92138013   -3.6215216   -3.6215216   -2.2394549  0.039928805   -3.6215216    1.3820667   396900 
 2447000   0.92076745   -3.6205287   -3.6205287    -2.239381  0.046795022   -3.6205287    1.3811477   396900 
 2448000   0.92082208   -3.6220656   -3.6220656   -2.2408359  0.042521926   -3.6220656    1.3812296   396900 
 2449000   0.92285589   -3.6238769   -3.6238769   -2.2395966  0.043954455   -3.6238769    1.3842803   396900 
 2450000   0.92104102   -3.6222146   -3.6222146   -2.2406566  0.041817384   -3.6222146    1.3815581   396900 
 2451000   0.92305805    -3.623805    -3.623805   -2.2392214   0.04609662    -3.623805    1.3845836   396900 
 2452000   0.92188101   -3.6238347   -3.6238347   -2.2410167  0.047720414   -3.6238347     1.382818   396900 
 2453000   0.91974218   -3.6221602   -3.6221602   -2.2425504  0.040103976   -3.6221602    1.3796098   396900 
 2454000    0.9212051   -3.6239449   -3.6239449   -2.2421408  0.044722788   -3.6239449    1.3818042   396900 
 2455000   0.92024332   -3.6236569   -3.6236569   -2.2432954  0.038459969   -3.6236569    1.3803615   396900 
 2456000    0.9217287   -3.6249023   -3.6249023   -2.2423127  0.038315818   -3.6249023    1.3825896   396900 
 2457000    0.9215454   -3.6233817   -3.6233817   -2.2410671  0.044157502   -3.6233817    1.3823146   396900 
 2458000   0.92356287   -3.6267229   -3.6267229   -2.2413821  0.048500982   -3.6267229    1.3853408   396900 
 2459000   0.92020839   -3.6250923   -3.6250923   -2.2447832  0.040195391   -3.6250923    1.3803091   396900 
 2460000   0.92125527   -3.6285172   -3.6285172   -2.2466378  0.038731242   -3.6285172    1.3818794   396900 
 2461000   0.91948604   -3.6270484   -3.6270484   -2.2478228  0.040028586   -3.6270484    1.3792256   396900 
 2462000   0.91842363   -3.6250262   -3.6250262   -2.2473942  0.042176497   -3.6250262     1.377632   396900 
 2463000    0.9182791   -3.6266616   -3.6266616   -2.2492464  0.043210393   -3.6266616    1.3774152   396900 
 2464000   0.91804184   -3.6288022   -3.6288022   -2.2517429  0.040776662   -3.6288022    1.3770593   396900 
 2465000   0.92138922     -3.62983     -3.62983   -2.2477496  0.043963095     -3.62983    1.3820803   396900 
 2466000   0.92010338   -3.6301042   -3.6301042   -2.2499526  0.048298013   -3.6301042    1.3801516   396900 
 2467000   0.92023922   -3.6325299   -3.6325299   -2.2521745  0.044098257   -3.6325299    1.3803554   396900 
 2468000   0.92067637   -3.6334018   -3.6334018   -2.2523907  0.043095388   -3.6334018    1.3810111   396900 
 2469000   0.92105747    -3.633331    -3.633331   -2.2517483  0.046509144    -3.633331    1.3815827   396900 
 2470000   0.92312353   -3.6350554   -3.6350554   -2.2503735  0.048942413   -3.6350554    1.3846818   396900 
 2471000   0.92045833   -3.6319104   -3.6319104   -2.2512263  0.048629994   -3.6319104     1.380684   396900 
 2472000   0.92110675   -3.6336423   -3.6336423   -2.2519857  0.044849999   -3.6336423    1.3816566   396900 
 2473000   0.92064435   -3.6355787   -3.6355787   -2.2546156  0.044309123   -3.6355787     1.380963   396900 
 2474000   0.92048251   -3.6357547   -3.6357547   -2.2550344  0.040101158   -3.6357547    1.3807203   396900 
 2475000   0.92017244    -3.633485    -3.633485   -2.2532298  0.048458378    -3.633485    1.3802552   396900 
 2476000   0.91989183   -3.6357697   -3.6357697   -2.2559354  0.044591092   -3.6357697    1.3798343   396900 
 2477000   0.92149398    -3.633899    -3.633899   -2.2516616  0.043541976    -3.633899    1.3822375   396900 
 2478000   0.92077049   -3.6332828   -3.6332828   -2.2521305  0.046818336   -3.6332828    1.3811523   396900 
 2479000   0.92031057   -3.6328411   -3.6328411   -2.2523788  0.041927194   -3.6328411    1.3804624   396900 
 2480000   0.91974617    -3.633411    -3.633411   -2.2537952  0.037738109    -3.633411    1.3796158   396900 
 2481000   0.91834296   -3.6321626   -3.6321626   -2.2546517  0.042865806   -3.6321626     1.377511   396900 
 2482000   0.92087466   -3.6342405   -3.6342405    -2.252932   0.03527531   -3.6342405    1.3813085   396900 
 2483000   0.91915896   -3.6296297   -3.6296297   -2.2508947  0.042486884   -3.6296297     1.378735   396900 
 2484000   0.91835238   -3.6301308   -3.6301308   -2.2526057   0.04089303   -3.6301308    1.3775251   396900 
 2485000    0.9186683   -3.6296559   -3.6296559   -2.2516569  0.042615739   -3.6296559     1.377999   396900 
 2486000   0.91993708   -3.6303271   -3.6303271   -2.2504249  0.043716112   -3.6303271    1.3799021   396900 
 2487000   0.92021834    -3.631928    -3.631928   -2.2516039  0.043228568    -3.631928     1.380324   396900 
 2488000   0.92015043   -3.6317433   -3.6317433   -2.2515211  0.040239766   -3.6317433    1.3802222   396900 
 2489000   0.92049659   -3.6304472   -3.6304472   -2.2497058  0.043690511   -3.6304472    1.3807414   396900 
 2490000   0.92008124   -3.6312997   -3.6312997   -2.2511813  0.043670266   -3.6312997    1.3801184   396900 
 2491000   0.91920782   -3.6317822   -3.6317822   -2.2529739   0.03599445   -3.6317822    1.3788083   396900 
 2492000    0.9190212   -3.6291498   -3.6291498   -2.2506215  0.049568245   -3.6291498    1.3785283   396900 
 2493000   0.92010303     -3.63182     -3.63182   -2.2516689  0.043486588     -3.63182    1.3801511   396900 
 2494000    0.9185052   -3.6307497   -3.6307497   -2.2529953   0.04140545   -3.6307497    1.3777543   396900 
 2495000   0.91761702   -3.6324021   -3.6324021     -2.25598  0.039944234   -3.6324021    1.3764221   396900 
 2496000   0.91865438   -3.6314579   -3.6314579   -2.2534798  0.039698876   -3.6314579    1.3779781   396900 
 2497000   0.91932572   -3.6315363   -3.6315363   -2.2525512  0.045901859   -3.6315363    1.3789851   396900 
 2498000   0.91964528    -3.632941    -3.632941   -2.2534765  0.040079778    -3.632941    1.3794644   396900 
 2499000   0.91875898   -3.6323319   -3.6323319   -2.2541969  0.041485233   -3.6323319     1.378135   396900 
 2500000   0.91888529    -3.630642    -3.630642   -2.2523175  0.045090979    -3.630642    1.3783245   396900 
 2501000   0.92112938   -3.6337384   -3.6337384   -2.2520478  0.043810114   -3.6337384    1.3816906   396900 
 2502000   0.92060342   -3.6334504   -3.6334504   -2.2525487  0.044153403   -3.6334504    1.3809017   396900 
 2503000   0.91999242   -3.6314466   -3.6314466   -2.2514614  0.042036522   -3.6314466    1.3799852   396900 
 2504000   0.91880314   -3.6306471   -3.6306471   -2.2524459  0.046177667   -3.6306471    1.3782012   396900 
 2505000   0.91928807   -3.6333365   -3.6333365   -2.2544078  0.041957944   -3.6333365    1.3789286   396900 
 2506000   0.91883482   -3.6316216   -3.6316216   -2.2533729  0.049328847   -3.6316216    1.3782488   396900 
 2507000   0.91829204   -3.6308254   -3.6308254   -2.2533908  0.044275063   -3.6308254    1.3774346   396900 
 2508000   0.91914209   -3.6318765   -3.6318765   -2.2531669  0.041979796   -3.6318765    1.3787097   396900 
 2509000   0.91965457   -3.6314541   -3.6314541   -2.2519757  0.036231373   -3.6314541    1.3794784   396900 
 2510000   0.91828588   -3.6306729   -3.6306729   -2.2532476  0.039472261   -3.6306729    1.3774253   396900 
 2511000   0.91741521   -3.6298577   -3.6298577   -2.2537384  0.044604373   -3.6298577    1.3761193   396900 
 2512000   0.91826284   -3.6314834   -3.6314834   -2.2540926  0.040684505   -3.6314834    1.3773908   396900 
 2513000   0.91922582   -3.6336908   -3.6336908   -2.2548555  0.038262962   -3.6336908    1.3788353   396900 
 2514000   0.92036391   -3.6354706   -3.6354706   -2.2549282  0.043049203   -3.6354706    1.3805424   396900 
 2515000   0.91699192   -3.6337267   -3.6337267   -2.2582423  0.039149254   -3.6337267    1.3754844   396900 
 2516000   0.91706267   -3.6335638   -3.6335638   -2.2579732  0.041961314   -3.6335638    1.3755905   396900 
 2517000   0.91900482   -3.6349773   -3.6349773   -2.2564735  0.040143763   -3.6349773    1.3785038   396900 
 2518000   0.91675361   -3.6325534   -3.6325534   -2.2574265  0.042450914   -3.6325534    1.3751269   396900 
 2519000   0.91960193    -3.633671    -3.633671   -2.2542716  0.043902814    -3.633671    1.3793994   396900 
 2520000   0.91868159   -3.6338457   -3.6338457   -2.2558268  0.045078055   -3.6338457    1.3780189   396900 
 2521000   0.91868265    -3.631935    -3.631935   -2.2539145  0.041612262    -3.631935    1.3780205   396900 
 2522000   0.91888029   -3.6338973   -3.6338973   -2.2555803  0.038619609   -3.6338973     1.378317   396900 
 2523000     0.919973   -3.6349081   -3.6349081   -2.2549521  0.037931112   -3.6349081     1.379956   396900 
 2524000    0.9185583   -3.6340175   -3.6340175   -2.2561835  0.040601117   -3.6340175     1.377834   396900 
 2525000   0.92028934   -3.6331204   -3.6331204   -2.2526899  0.041835688   -3.6331204    1.3804305   396900 
 2526000    0.9187411   -3.6323357   -3.6323357   -2.2542275  0.043514295   -3.6323357    1.3781082   396900 
 2527000   0.91697267   -3.6317253   -3.6317253   -2.2562697  0.043915677   -3.6317253    1.3754555   396900 
 2528000   0.91793096   -3.6325211   -3.6325211   -2.2556282  0.038652378   -3.6325211     1.376893   396900 
 2529000   0.91864416   -3.6317087   -3.6317087   -2.2537459  0.040712118   -3.6317087    1.3779628   396900 
 2530000   0.91987754   -3.6329468   -3.6329468   -2.2531339  0.041344977   -3.6329468    1.3798128   396900 
 2531000   0.91897132   -3.6334668   -3.6334668   -2.2550133  0.047906864   -3.6334668    1.3784535   396900 
 2532000   0.91916131   -3.6374407   -3.6374407   -2.2587022  0.040399954   -3.6374407    1.3787385   396900 
 2533000   0.91919076   -3.6384308   -3.6384308   -2.2596481  0.046970781   -3.6384308    1.3787827   396900 
 2534000   0.91816938   -3.6391981   -3.6391981   -2.2619475  0.044101145   -3.6391981    1.3772506   396900 
 2535000   0.91714475   -3.6390873   -3.6390873   -2.2633736  0.038091509   -3.6390873    1.3757137   396900 
 2536000    0.9177688   -3.6415333   -3.6415333   -2.2648836  0.040816036   -3.6415333    1.3766497   396900 
 2537000   0.91896205   -3.6422628   -3.6422628   -2.2638232  0.045078263   -3.6422628    1.3784396   396900 
 2538000   0.91848639   -3.6434616   -3.6434616   -2.2657355  0.040911766   -3.6434616    1.3777261   396900 
 2539000   0.91698783   -3.6423069   -3.6423069   -2.2668286  0.043619119   -3.6423069    1.3754783   396900 
 2540000   0.91672616   -3.6411181   -3.6411181   -2.2660323  0.043038594   -3.6411181    1.3750858   396900 
 2541000    0.9153703   -3.6400068   -3.6400068   -2.2669548    0.0444715   -3.6400068     1.373052   396900 
 2542000   0.91802176   -3.6436732   -3.6436732   -2.2666441  0.038166296   -3.6436732    1.3770292   396900 
 2543000   0.91785274   -3.6418779   -3.6418779   -2.2651023  0.045750397   -3.6418779    1.3767756   396900 
 2544000   0.91727709   -3.6436953   -3.6436953   -2.2677832  0.037669399   -3.6436953    1.3759122   396900 
 2545000   0.91613174   -3.6434579   -3.6434579   -2.2692638  0.042529644   -3.6434579    1.3741942   396900 
 2546000   0.91879955   -3.6449383   -3.6449383   -2.2667425  0.040927817   -3.6449383    1.3781959   396900 
 2547000   0.91703842   -3.6401815   -3.6401815   -2.2646274  0.047160316   -3.6401815    1.3755542   396900 
 2548000   0.91887049   -3.6453112   -3.6453112    -2.267009  0.042802497   -3.6453112    1.3783023   396900 
 2549000   0.91758023   -3.6434929   -3.6434929   -2.2671261  0.046744659   -3.6434929    1.3763669   396900 
 2550000   0.91713593    -3.643271    -3.643271   -2.2675706  0.044331414    -3.643271    1.3757004   396900 
 2551000   0.91747726   -3.6433434   -3.6433434    -2.267131  0.042013102   -3.6433434    1.3762124   396900 
 2552000   0.91560882   -3.6411027   -3.6411027   -2.2676929  0.041580486   -3.6411027    1.3734098   396900 
 2553000    0.9175054   -3.6412703   -3.6412703   -2.2650157   0.04040018   -3.6412703    1.3762546   396900 
 2554000   0.91816531   -3.6422053   -3.6422053   -2.2649608  0.042364443   -3.6422053    1.3772445   396900 
 2555000   0.91596501   -3.6399447   -3.6399447   -2.2660006  0.045757026   -3.6399447    1.3739441   396900 
 2556000   0.91732368   -3.6435416   -3.6435416   -2.2675596  0.037442955   -3.6435416    1.3759821   396900 
 2557000   0.91776929   -3.6427728   -3.6427728   -2.2661223  0.042210734   -3.6427728    1.3766505   396900 
 2558000    0.9180214   -3.6435453   -3.6435453   -2.2665167  0.046996477   -3.6435453    1.3770286   396900 
 2559000    0.9170505   -3.6417125   -3.6417125   -2.2661402  0.047652504   -3.6417125    1.3755723   396900 
 2560000   0.91808372   -3.6433601   -3.6433601   -2.2662379  0.046883625   -3.6433601    1.3771221   396900 
 2561000    0.9169472   -3.6436013   -3.6436013    -2.268184  0.040172004   -3.6436013    1.3754173   396900 
 2562000   0.91570396   -3.6405014   -3.6405014   -2.2669489  0.038694494   -3.6405014    1.3735525   396900 
 2563000   0.91506966    -3.640957    -3.640957    -2.268356  0.041964297    -3.640957     1.372601   396900 
 2564000   0.91874259   -3.6444806   -3.6444806   -2.2663702  0.039813584   -3.6444806    1.3781104   396900 
 2565000   0.91774556   -3.6439477   -3.6439477   -2.2673328  0.043518065   -3.6439477    1.3766149   396900 
 2566000   0.91577798   -3.6426338   -3.6426338   -2.2689703  0.039223291   -3.6426338    1.3736635   396900 
 2567000    0.9165096   -3.6424017   -3.6424017   -2.2676408   0.04175154   -3.6424017    1.3747609   396900 
 2568000   0.91725135    -3.642953    -3.642953   -2.2670794  0.044086811    -3.642953    1.3758736   396900 
 2569000   0.91837048   -3.6459113   -3.6459113    -2.268359  0.038341092   -3.6459113    1.3775522   396900 
 2570000   0.91651088   -3.6425428   -3.6425428   -2.2677799  0.041727968   -3.6425428    1.3747629   396900 
 2571000   0.91763273   -3.6427765   -3.6427765   -2.2663309  0.041919652   -3.6427765    1.3764456   396900 
 2572000   0.91811275   -3.6442067   -3.6442067    -2.267041  0.039912508   -3.6442067    1.3771657   396900 
 2573000   0.91721802   -3.6446164   -3.6446164   -2.2687928  0.042324947   -3.6446164    1.3758236   396900 
 2574000   0.91617133   -3.6432905   -3.6432905    -2.269037  0.039928351   -3.6432905    1.3742535   396900 
 2575000   0.91861038   -3.6450271   -3.6450271    -2.267115  0.042493475   -3.6450271    1.3779121   396900 
 2576000   0.91794241    -3.643188    -3.643188   -2.2662778  0.040571898    -3.643188    1.3769101   396900 
 2577000   0.91907736   -3.6466937   -3.6466937   -2.2680812  0.039609112   -3.6466937    1.3786126   396900 
 2578000   0.91965725   -3.6441386   -3.6441386   -2.2646562  0.038732195   -3.6441386    1.3794824   396900 
 2579000   0.91821098   -3.6432563   -3.6432563   -2.2659433  0.041378107   -3.6432563     1.377313   396900 
 2580000   0.91642282   -3.6428696   -3.6428696   -2.2682389  0.037988165   -3.6428696    1.3746308   396900 
 2581000    0.9164621   -3.6411932   -3.6411932   -2.2665035  0.045018985   -3.6411932    1.3746897   396900 
 2582000   0.91755757   -3.6432952   -3.6432952   -2.2669623  0.041324494   -3.6432952    1.3763329   396900 
 2583000   0.91735927   -3.6434652   -3.6434652   -2.2674298  0.040041332   -3.6434652    1.3760354   396900 
 2584000   0.91612883   -3.6434086   -3.6434086   -2.2692189  0.038645966   -3.6434086    1.3741898   396900 
 2585000   0.91647928   -3.6420696   -3.6420696   -2.2673542  0.041379791   -3.6420696    1.3747155   396900 
 2586000   0.91598603   -3.6436085   -3.6436085    -2.269633  0.035867556   -3.6436085    1.3739756   396900 
 2587000   0.91720786   -3.6445437   -3.6445437   -2.2687353  0.039381253   -3.6445437    1.3758083   396900 
 2588000   0.91878842   -3.6485995   -3.6485995   -2.2704203  0.044057556   -3.6485995    1.3781792   396900 
 2589000   0.91736737   -3.6460525   -3.6460525   -2.2700049  0.042529594   -3.6460525    1.3760476   396900 
 2590000   0.91553188   -3.6459758   -3.6459758   -2.2726815  0.040884514   -3.6459758    1.3732944   396900 
 2591000   0.91467694   -3.6446386   -3.6446386   -2.2726266  0.042731972   -3.6446386     1.372012   396900 
 2592000   0.91490935   -3.6439183   -3.6439183   -2.2715577  0.038625167   -3.6439183    1.3723606   396900 
 2593000   0.91729094   -3.6474306   -3.6474306   -2.2714977  0.035563394   -3.6474306     1.375933   396900 
 2594000   0.91608488   -3.6450014   -3.6450014   -2.2708776  0.037590183   -3.6450014    1.3741239   396900 
 2595000   0.91661704    -3.647177    -3.647177   -2.2722549   0.03367809    -3.647177    1.3749221   396900 
 2596000   0.91588115   -3.6481461   -3.6481461   -2.2743278    0.0341968   -3.6481461    1.3738183   396900 
 2597000   0.91800519   -3.6513587   -3.6513587   -2.2743544  0.036114658   -3.6513587    1.3770043   396900 
 2598000   0.91370157   -3.6443462   -3.6443462   -2.2737973  0.037555639   -3.6443462    1.3705489   396900 
 2599000   0.91666571   -3.6478953   -3.6478953   -2.2729002  0.039796272   -3.6478953    1.3749951   396900 
 2600000   0.91588949   -3.6461187   -3.6461187    -2.272288  0.037665592   -3.6461187    1.3738308   396900 
 2601000   0.91575549   -3.6468593   -3.6468593   -2.2732295  0.038453892   -3.6468593    1.3736298   396900 
 2602000   0.91574895   -3.6466643   -3.6466643   -2.2730443  0.040708849   -3.6466643      1.37362   396900 
 2603000   0.91459404    -3.644241    -3.644241   -2.2723534  0.035612599    -3.644241    1.3718876   396900 
 2604000   0.91560795   -3.6453083   -3.6453083   -2.2718998  0.039174902   -3.6453083    1.3734085   396900 
 2605000   0.91553742   -3.6462563   -3.6462563   -2.2729537  0.040533981   -3.6462563    1.3733027   396900 
 2606000   0.91693955   -3.6466438   -3.6466438    -2.271238  0.040861633   -3.6466438    1.3754059   396900 
 2607000   0.91538103   -3.6473674   -3.6473674   -2.2742993  0.037164176   -3.6473674    1.3730681   396900 
 2608000   0.91551392   -3.6470461   -3.6470461   -2.2737787  0.045109163   -3.6470461    1.3732674   396900 
 2609000   0.91743897   -3.6479534   -3.6479534   -2.2717984  0.041177196   -3.6479534     1.376155   396900 
 2610000   0.91663856    -3.647542    -3.647542   -2.2725877  0.036849361    -3.647542    1.3749544   396900 
 2611000   0.91857546   -3.6494239   -3.6494239   -2.2715641  0.038320616   -3.6494239    1.3778597   396900 
 2612000   0.91689953   -3.6485668   -3.6485668   -2.2732209  0.036219197   -3.6485668    1.3753458   396900 
 2613000   0.91545696   -3.6470297   -3.6470297   -2.2738477  0.041480435   -3.6470297     1.373182   396900 
 2614000   0.91455174   -3.6469171   -3.6469171   -2.2750929  0.038985052   -3.6469171    1.3718242   396900 
 2615000   0.91670994   -3.6477196   -3.6477196   -2.2726582  0.037473198   -3.6477196    1.3750614   396900 
 2616000   0.91642933   -3.6481508   -3.6481508   -2.2735103  0.034279244   -3.6481508    1.3746405   396900 
 2617000   0.91666761   -3.6466542   -3.6466542   -2.2716563  0.042289019   -3.6466542     1.374998   396900 
 2618000   0.91577271   -3.6464488   -3.6464488   -2.2727932   0.03762183   -3.6464488    1.3736556   396900 
 2619000   0.91662202   -3.6486656   -3.6486656    -2.273736  0.037237588   -3.6486656    1.3749296   396900 
 2620000   0.91559544   -3.6480574   -3.6480574   -2.2746677  0.044542617   -3.6480574    1.3733897   396900 
 2621000   0.91710173    -3.649476    -3.649476   -2.2738269  0.041465612    -3.649476    1.3756491   396900 
 2622000    0.9142017   -3.6475751   -3.6475751    -2.276276  0.034704514   -3.6475751    1.3712991   396900 
 2623000    0.9145344   -3.6497947   -3.6497947   -2.2779966  0.040621777   -3.6497947    1.3717981   396900 
 2624000   0.91489848   -3.6536668   -3.6536668   -2.2813226  0.038603616   -3.6536668    1.3723443   396900 
 2625000   0.91604943   -3.6532834   -3.6532834   -2.2792127  0.039878208   -3.6532834    1.3740707   396900 
 2626000    0.9168746   -3.6553768   -3.6553768   -2.2800683   0.04289945   -3.6553768    1.3753084   396900 
 2627000   0.91761304   -3.6543667   -3.6543667   -2.2779506  0.041882904   -3.6543667    1.3764161   396900 
 2628000    0.9166428   -3.6531772   -3.6531772   -2.2782164  0.045765139   -3.6531772    1.3749607   396900 
 2629000   0.91704105   -3.6569542   -3.6569542    -2.281396  0.040562116   -3.6569542    1.3755581   396900 
 2630000   0.91474669   -3.6538264   -3.6538264   -2.2817098  0.043820216   -3.6538264    1.3721166   396900 
 2631000   0.91563072    -3.656138    -3.656138   -2.2826954  0.043526071    -3.656138    1.3734426   396900 
 2632000    0.9160099   -3.6550222   -3.6550222   -2.2810108  0.040738451   -3.6550222    1.3740114   396900 
 2633000   0.91638487    -3.658128    -3.658128   -2.2835542  0.038508436    -3.658128    1.3745738   396900 
 2634000    0.9147844    -3.656702    -3.656702   -2.2845289  0.037207011    -3.656702    1.3721731   396900 
 2635000   0.91419695   -3.6579182   -3.6579182   -2.2866262  0.034959406   -3.6579182     1.371292   396900 
 2636000   0.91378716   -3.6561237   -3.6561237   -2.2854464  0.035765286   -3.6561237    1.3706773   396900 
 2637000   0.91464798   -3.6573797   -3.6573797   -2.2854112  0.036197604   -3.6573797    1.3719685   396900 
 2638000   0.91653156   -3.6590172   -3.6590172   -2.2842234  0.043265725   -3.6590172    1.3747939   396900 
 2639000   0.91573752   -3.6570325   -3.6570325   -2.2834297  0.041396885   -3.6570325    1.3736028   396900 
 2640000   0.91543263   -3.6555572   -3.6555572   -2.2824117  0.039242711   -3.6555572    1.3731455   396900 
 2641000    0.9148832   -3.6561472   -3.6561472   -2.2838259  0.037199349   -3.6561472    1.3723213   396900 
 2642000   0.91281798   -3.6555527   -3.6555527   -2.2863292  0.039281768   -3.6555527    1.3692235   396900 
 2643000   0.91358689   -3.6575161   -3.6575161   -2.2871393  0.041790052   -3.6575161    1.3703769   396900 
 2644000   0.91244771   -3.6548476   -3.6548476   -2.2861795  0.044520691   -3.6548476    1.3686681   396900 
 2645000   0.91459513   -3.6549509   -3.6549509   -2.2830617  0.042176803   -3.6549509    1.3718892   396900 
 2646000   0.91468599   -3.6565977   -3.6565977   -2.2845721  0.041607634   -3.6565977    1.3720255   396900 
 2647000   0.91540128   -3.6573165   -3.6573165    -2.284218  0.041422285   -3.6573165    1.3730985   396900 
 2648000   0.91623971   -3.6593527   -3.6593527   -2.2849966  0.036976924   -3.6593527    1.3743561   396900 
 2649000   0.91312552   -3.6594919   -3.6594919   -2.2898071  0.042177339   -3.6594919    1.3696848   396900 
 2650000   0.91426505    -3.661536    -3.661536   -2.2901419  0.038153415    -3.661536    1.3713941   396900 
 2651000    0.9141297   -3.6598789   -3.6598789   -2.2886878  0.041910737   -3.6598789    1.3711911   396900 
 2652000    0.9157008   -3.6626392   -3.6626392   -2.2890915  0.042885826   -3.6626392    1.3735477   396900 
 2653000   0.91564415   -3.6636277   -3.6636277   -2.2901649  0.045705591   -3.6636277    1.3734628   396900 
 2654000   0.91610341    -3.661449    -3.661449   -2.2872974  0.047036948    -3.661449    1.3741517   396900 
 2655000   0.91695389   -3.6642129   -3.6642129   -2.2887855  0.040651347   -3.6642129    1.3754274   396900 
 2656000   0.91359167   -3.6620794   -3.6620794   -2.2916954  0.041637507   -3.6620794    1.3703841   396900 
 2657000   0.91421969   -3.6649132   -3.6649132   -2.2935871   0.03918934   -3.6649132    1.3713261   396900 
 2658000   0.91362998   -3.6628689   -3.6628689   -2.2924274  0.040155898   -3.6628689    1.3704415   396900 
 2659000   0.91317876   -3.6635504   -3.6635504   -2.2937857  0.037390262   -3.6635504    1.3697647   396900 
 2660000   0.91395947   -3.6632135   -3.6632135   -2.2922778  0.038331923   -3.6632135    1.3709357   396900 
 2661000   0.91422231   -3.6631416   -3.6631416   -2.2918116  0.042719528   -3.6631416      1.37133   396900 
 2662000   0.91519724   -3.6629357   -3.6629357   -2.2901433  0.039302201   -3.6629357    1.3727924   396900 
 2663000   0.91519303   -3.6628516   -3.6628516   -2.2900655  0.041726979   -3.6628516    1.3727861   396900 
 2664000   0.91505017   -3.6636992   -3.6636992   -2.2911274  0.045298134   -3.6636992    1.3725718   396900 
 2665000   0.91550039   -3.6632027   -3.6632027   -2.2899556   0.04336004   -3.6632027    1.3732471   396900 
 2666000     0.912979   -3.6600865   -3.6600865   -2.2906215  0.038165317   -3.6600865    1.3694651   396900 
 2667000   0.91486318   -3.6645207   -3.6645207   -2.2922294  0.039812356   -3.6645207    1.3722913   396900 
 2668000   0.91416266    -3.663818    -3.663818   -2.2925775  0.039442962    -3.663818    1.3712405   396900 
 2669000   0.91563787   -3.6635417   -3.6635417   -2.2900884  0.037941116   -3.6635417    1.3734533   396900 
 2670000   0.91342683   -3.6623436   -3.6623436   -2.2922068  0.039199102   -3.6623436    1.3701368   396900 
 2671000    0.9138318   -3.6635712   -3.6635712    -2.292827  0.042203948   -3.6635712    1.3707442   396900 
 2672000   0.91348697   -3.6633712   -3.6633712   -2.2931442  0.034429838   -3.6633712     1.370227   396900 
 2673000   0.91291604   -3.6618556   -3.6618556    -2.292485  0.042564219   -3.6618556    1.3693706   396900 
 2674000   0.91380996   -3.6638687   -3.6638687   -2.2931573  0.037285276   -3.6638687    1.3707115   396900 
 2675000   0.91406523   -3.6617758   -3.6617758   -2.2906815  0.039742037   -3.6617758    1.3710944   396900 
 2676000   0.91427629   -3.6622729   -3.6622729   -2.2908619  0.041698167   -3.6622729     1.371411   396900 
 2677000   0.91442072   -3.6625294   -3.6625294   -2.2909018  0.040182825   -3.6625294    1.3716276   396900 
 2678000   0.91273628   -3.6601911   -3.6601911   -2.2910901  0.039011713   -3.6601911     1.369101   396900 
 2679000   0.91278988   -3.6610975   -3.6610975   -2.2919162  0.045699545   -3.6610975    1.3691814   396900 
 2680000   0.91450558   -3.6651225   -3.6651225   -2.2933676   0.03886413   -3.6651225    1.3717549   396900 
 2681000    0.9135261   -3.6639804   -3.6639804   -2.2936947  0.042240196   -3.6639804    1.3702857   396900 
 2682000   0.91359027   -3.6648509   -3.6648509    -2.294469  0.039363604   -3.6648509    1.3703819   396900 
 2683000    0.9134944    -3.663255    -3.663255   -2.2930168  0.044662573    -3.663255    1.3702382   396900 
 2684000    0.9142617   -3.6642067   -3.6642067   -2.2928176  0.046111918   -3.6642067    1.3713891   396900 
 2685000   0.91498706    -3.667547    -3.667547   -2.2950698  0.039577376    -3.667547    1.3724771   396900 
 2686000   0.91331672   -3.6655256   -3.6655256    -2.295554  0.041040409   -3.6655256    1.3699716   396900 
 2687000   0.91291654   -3.6647251   -3.6647251   -2.2953537  0.043662324   -3.6647251    1.3693714   396900 
 2688000    0.9144202   -3.6667827   -3.6667827   -2.2951559  0.038284616   -3.6667827    1.3716268   396900 
 2689000   0.91218463   -3.6627494   -3.6627494   -2.2944759  0.039942996   -3.6627494    1.3682735   396900 
 2690000   0.91290127    -3.664035    -3.664035   -2.2946866  0.040385894    -3.664035    1.3693485   396900 
 2691000   0.91353716   -3.6665081   -3.6665081   -2.2962058  0.039591363   -3.6665081    1.3703023   396900 
 2692000   0.91618278   -3.6695752   -3.6695752   -2.2953045  0.039987669   -3.6695752    1.3742707   396900 
 2693000   0.91493574   -3.6691692   -3.6691692   -2.2967691   0.04149156   -3.6691692    1.3724001   396900 
 2694000   0.91260722   -3.6649018   -3.6649018   -2.2959944   0.03761897   -3.6649018    1.3689074   396900 
 2695000   0.91449624   -3.6660418   -3.6660418   -2.2943009  0.041777376   -3.6660418    1.3717409   396900 
 2696000   0.91508017   -3.6679414   -3.6679414   -2.2953246  0.043726291   -3.6679414    1.3726168   396900 
 2697000   0.91247673   -3.6668688   -3.6668688   -2.2981572  0.030954642   -3.6668688    1.3687116   396900 
 2698000   0.91369613   -3.6670801   -3.6670801   -2.2965394    0.0385504   -3.6670801    1.3705407   396900 
 2699000   0.91497691     -3.66712     -3.66712   -2.2946581  0.041465367     -3.66712    1.3724619   396900 
 2700000   0.91301527   -3.6660118   -3.6660118   -2.2964924  0.034308959   -3.6660118    1.3695195   396900 
 2701000   0.91376463   -3.6661791   -3.6661791   -2.2955356   0.03914905   -3.6661791    1.3706435   396900 
 2702000   0.91418767   -3.6677936   -3.6677936   -2.2965155  0.036889441   -3.6677936     1.371278   396900 
 2703000   0.91159548   -3.6657022   -3.6657022   -2.2983125   0.03544466   -3.6657022    1.3673898   396900 
 2704000    0.9126569   -3.6684665   -3.6684665   -2.2994846  0.034756918   -3.6684665    1.3689819   396900 
 2705000   0.91287469   -3.6667964   -3.6667964   -2.2974879  0.037114553   -3.6667964    1.3693086   396900 
 2706000   0.91293244    -3.670226    -3.670226   -2.3008308  0.034022128    -3.670226    1.3693952   396900 
 2707000   0.91381379   -3.6700614   -3.6700614   -2.2993442  0.038020034   -3.6700614    1.3707172   396900 
 2708000   0.91444036   -3.6699423   -3.6699423   -2.2982852   0.03996664   -3.6699423    1.3716571   396900 
 2709000   0.91312414   -3.6697355   -3.6697355   -2.3000528  0.036341507   -3.6697355    1.3696828   396900 
 2710000   0.91291219    -3.670098    -3.670098   -2.3007331  0.043557736    -3.670098    1.3693648   396900 
 2711000   0.91434888   -3.6688677   -3.6688677   -2.2973478  0.046448941   -3.6688677    1.3715199   396900 
 2712000   0.91450994   -3.6701078   -3.6701078   -2.2983463  0.038017389   -3.6701078    1.3717615   396900 
 2713000   0.91331096   -3.6699657   -3.6699657   -2.3000027  0.035613591   -3.6699657     1.369963   396900 
 2714000   0.91103589   -3.6700231   -3.6700231   -2.3034727  0.030352144   -3.6700231    1.3665504   396900 
 2715000   0.91090691   -3.6665608   -3.6665608   -2.3002038  0.038569769   -3.6665608    1.3663569   396900 
 2716000   0.91190744   -3.6665141   -3.6665141   -2.2986563  0.035656885   -3.6665141    1.3678577   396900 
 2717000   0.91372292   -3.6699696   -3.6699696   -2.2993887  0.038313324   -3.6699696    1.3705809   396900 
 2718000   0.91254875   -3.6690327   -3.6690327    -2.300213  0.037412576   -3.6690327    1.3688197   396900 
 2719000   0.91322181   -3.6686122   -3.6686122   -2.2987829  0.033700361   -3.6686122    1.3698293   396900 
 2720000   0.91366344   -3.6687857   -3.6687857    -2.298294  0.035827761   -3.6687857    1.3704917   396900 
 2721000   0.91343717   -3.6702875   -3.6702875   -2.3001352  0.039247603   -3.6702875    1.3701523   396900 
 2722000   0.91270019   -3.6698952   -3.6698952   -2.3008483  0.041167647   -3.6698952    1.3690468   396900 
 2723000   0.91477193   -3.6746415   -3.6746415   -2.3024871  0.035736222   -3.6746415    1.3721544   396900 
 2724000   0.91262707   -3.6725321   -3.6725321    -2.303595  0.046106748   -3.6725321    1.3689372   396900 
 2725000   0.91265365    -3.672082    -3.672082    -2.303105   0.04125173    -3.672082     1.368977   396900 
 2726000   0.91277171   -3.6757784   -3.6757784   -2.3066243  0.033801586   -3.6757784    1.3691541   396900 
 2727000   0.91155114    -3.675142    -3.675142   -2.3078187  0.042032652    -3.675142    1.3673233   396900 
 2728000   0.91189004   -3.6751617   -3.6751617   -2.3073301  0.037261762   -3.6751617    1.3678316   396900 
 2729000   0.91013197   -3.6744713   -3.6744713   -2.3092768  0.042796609   -3.6744713    1.3651945   396900 
 2730000   0.91160658   -3.6765564   -3.6765564   -2.3091499  0.038552644   -3.6765564    1.3674064   396900 
 2731000   0.91222711   -3.6777983   -3.6777983   -2.3094611  0.039768446   -3.6777983    1.3683372   396900 
 2732000   0.91018336    -3.674796    -3.674796   -2.3095244  0.043005908    -3.674796    1.3652716   396900 
 2733000   0.91264224   -3.6767274   -3.6767274   -2.3077675  0.041755187   -3.6767274    1.3689599   396900 
 2734000   0.91330701   -3.6780117   -3.6780117   -2.3080546  0.043588207   -3.6780117    1.3699571   396900 
 2735000    0.9130576   -3.6790855   -3.6790855   -2.3095026  0.043025717   -3.6790855    1.3695829   396900 
 2736000   0.91100532   -3.6773862   -3.6773862   -2.3108817  0.043897984   -3.6773862    1.3665045   396900 
 2737000   0.91195387   -3.6778003   -3.6778003    -2.309873  0.039416124   -3.6778003    1.3679274   396900 
 2738000   0.90947485   -3.6765427   -3.6765427   -2.3123338  0.038232615   -3.6765427    1.3642088   396900 
 2739000   0.91210307   -3.6784692   -3.6784692   -2.3103181  0.036791092   -3.6784692    1.3681512   396900 
 2740000   0.91093557    -3.678368    -3.678368   -2.3119681  0.037212087    -3.678368    1.3663999   396900 
 2741000   0.91215591    -3.679145    -3.679145   -2.3109146  0.035926923    -3.679145    1.3682304   396900 
 2742000    0.9110756   -3.6782536   -3.6782536   -2.3116437  0.039588413   -3.6782536      1.36661   396900 
 2743000   0.91048081   -3.6781483   -3.6781483   -2.3124306   0.03915398   -3.6781483    1.3657178   396900 
 2744000    0.9113133   -3.6800073   -3.6800073   -2.3130408  0.042575711   -3.6800073    1.3669665   396900 
 2745000   0.91035828   -3.6809476   -3.6809476   -2.3154137  0.038648768   -3.6809476     1.365534   396900 
 2746000   0.90980793   -3.6795431   -3.6795431   -2.3148347  0.037629275   -3.6795431    1.3647085   396900 
 2747000   0.90931725   -3.6799552   -3.6799552   -2.3159828  0.038489662   -3.6799552    1.3639724   396900 
 2748000   0.91124174   -3.6808133   -3.6808133   -2.3139542  0.043118288   -3.6808133    1.3668592   396900 
 2749000    0.9118498   -3.6795219   -3.6795219   -2.3117507  0.040658218   -3.6795219    1.3677713   396900 
 2750000   0.91256409   -3.6831138   -3.6831138   -2.3142711  0.035306518   -3.6831138    1.3688427   396900 
 2751000    0.9121803   -3.6823271   -3.6823271   -2.3140601  0.044560501   -3.6823271     1.368267   396900 
 2752000   0.91024302   -3.6797503   -3.6797503   -2.3143892  0.036068811   -3.6797503    1.3653611   396900 
 2753000   0.90825628   -3.6783081   -3.6783081   -2.3159271  0.042039843   -3.6783081     1.362381   396900 
 2754000   0.91057879    -3.678605    -3.678605   -2.3127402    0.0411603    -3.678605    1.3658647   396900 
 2755000   0.91034562   -3.6797722   -3.6797722   -2.3142572  0.037247042   -3.6797722     1.365515   396900 
 2756000   0.91075835   -3.6784259   -3.6784259   -2.3122918  0.039770535   -3.6784259    1.3661341   396900 
 2757000   0.91079166   -3.6773479   -3.6773479   -2.3111639  0.041595214   -3.6773479     1.366184   396900 
 2758000   0.91168748    -3.679276    -3.679276   -2.3117482  0.039054213    -3.679276    1.3675278   396900 
 2759000   0.91062016   -3.6799386   -3.6799386   -2.3140118  0.038184481   -3.6799386    1.3659268   396900 
 2760000   0.91136177   -3.6808842   -3.6808842    -2.313845  0.037738812   -3.6808842    1.3670392   396900 
 2761000   0.91072379   -3.6802698   -3.6802698   -2.3141875  0.041358628   -3.6802698    1.3660822   396900 
 2762000   0.91134594    -3.682831    -3.682831   -2.3158156  0.035055494    -3.682831    1.3670155   396900 
 2763000   0.91098344   -3.6849646   -3.6849646   -2.3184929  0.040092664   -3.6849646    1.3664717   396900 
 2764000   0.91051585    -3.684479    -3.684479   -2.3187087  0.044614647    -3.684479    1.3657703   396900 
 2765000   0.90987087   -3.6841435   -3.6841435   -2.3193407  0.035878968   -3.6841435    1.3648029   396900 
 2766000   0.91046396   -3.6849654   -3.6849654   -2.3192729   0.04078631   -3.6849654    1.3656925   396900 
 2767000   0.91003058   -3.6851327   -3.6851327   -2.3200903  0.040789571   -3.6851327    1.3650424   396900 
 2768000   0.91018279   -3.6846726   -3.6846726   -2.3194019  0.037656867   -3.6846726    1.3652707   396900 
 2769000   0.91030006   -3.6857765   -3.6857765   -2.3203299  0.033989411   -3.6857765    1.3654466   396900 
 2770000   0.90916639   -3.6833458   -3.6833458   -2.3195996  0.045250652   -3.6833458    1.3637462   396900 
 2771000   0.90911395    -3.683629    -3.683629   -2.3199615  0.041768763    -3.683629    1.3636675   396900 
 2772000    0.9080389   -3.6846049   -3.6846049     -2.32255   0.04196514   -3.6846049    1.3620549   396900 
 2773000   0.90951955   -3.6861337   -3.6861337   -2.3218579  0.037735552   -3.6861337    1.3642759   396900 
 2774000   0.90821962   -3.6861166   -3.6861166   -2.3237906  0.038004186   -3.6861166     1.362326   396900 
 2775000   0.90934109   -3.6895741   -3.6895741   -2.3255659  0.042484861   -3.6895741    1.3640082   396900 
 2776000   0.90783882   -3.6843026   -3.6843026   -2.3225478   0.03895957   -3.6843026    1.3617548   396900 
 2777000   0.90871596    -3.684951    -3.684951   -2.3218805  0.039410473    -3.684951    1.3630705   396900 
 2778000   0.90916547   -3.6849118   -3.6849118    -2.321167  0.040971967   -3.6849118    1.3637448   396900 
 2779000   0.90950738   -3.6857652   -3.6857652   -2.3215076  0.036124855   -3.6857652    1.3642576   396900 
 2780000   0.90849063    -3.685989    -3.685989   -2.3232565  0.039562526    -3.685989    1.3627325   396900 
 2781000   0.90772015   -3.6848747   -3.6848747   -2.3232979  0.044411262   -3.6848747    1.3615768   396900 
 2782000   0.90864349   -3.6853531   -3.6853531   -2.3223913  0.040408013   -3.6853531    1.3629618   396900 
 2783000   0.90953714   -3.6873503   -3.6873503   -2.3230481  0.038267662   -3.6873503    1.3643023   396900 
 2784000   0.90811199   -3.6877846   -3.6877846   -2.3256201  0.037873108   -3.6877846    1.3621646   396900 
 2785000   0.90752453   -3.6867335   -3.6867335   -2.3254501  0.035634237   -3.6867335    1.3612834   396900 
 2786000   0.90786538   -3.6891737   -3.6891737    -2.327379  0.040237563   -3.6891737    1.3617946   396900 
 2787000   0.90934004   -3.6877538   -3.6877538   -2.3237471  0.039898145   -3.6877538    1.3640066   396900 
 2788000   0.90893768   -3.6882734   -3.6882734   -2.3248703  0.034118793   -3.6882734    1.3634031   396900 
 2789000   0.90818386   -3.6880721   -3.6880721   -2.3257997  0.033388635   -3.6880721    1.3622724   396900 
 2790000   0.90862846   -3.6871679   -3.6871679   -2.3242286  0.037039173   -3.6871679    1.3629393   396900 
 2791000   0.90881449   -3.6894677   -3.6894677   -2.3262494  0.033382013   -3.6894677    1.3632183   396900 
 2792000   0.90838918   -3.6874525   -3.6874525   -2.3248722  0.037471797   -3.6874525    1.3625803   396900 
 2793000   0.90982056   -3.6892871   -3.6892871   -2.3245597  0.039310657   -3.6892871    1.3647274   396900 
 2794000   0.91084358   -3.6880149   -3.6880149    -2.321753  0.045162633   -3.6880149    1.3662619   396900 
 2795000   0.91015343   -3.6885429   -3.6885429   -2.3233162  0.039591478   -3.6885429    1.3652267   396900 
 2796000    0.9096574   -3.6884284   -3.6884284   -2.3239458  0.041875577   -3.6884284    1.3644827   396900 
 2797000   0.91095622   -3.6909067   -3.6909067   -2.3244758  0.037791853   -3.6909067    1.3664309   396900 
 2798000   0.90901792   -3.6868883   -3.6868883   -2.3233649   0.04164378   -3.6868883    1.3635234   396900 
 2799000   0.90955314   -3.6886986   -3.6886986   -2.3243723  0.037719257   -3.6886986    1.3643263   396900 
 2800000   0.91034128   -3.6899704   -3.6899704   -2.3244619  0.042722185   -3.6899704    1.3655085   396900 
 2801000   0.90888096   -3.6878786   -3.6878786   -2.3245606  0.036142809   -3.6878786     1.363318   396900 
 2802000   0.90593623   -3.6840965   -3.6840965   -2.3251956  0.038606502   -3.6840965    1.3589009   396900 
 2803000   0.90831836    -3.685392    -3.685392   -2.3229179  0.036395625    -3.685392    1.3624741   396900 
 2804000   0.90787663   -3.6841823   -3.6841823   -2.3223708  0.032837076   -3.6841823    1.3618115   396900 
 2805000   0.90976344   -3.6850586   -3.6850586   -2.3204169  0.036712702   -3.6850586    1.3646417   396900 
 2806000   0.91085897   -3.6889171   -3.6889171   -2.3226321  0.040113376   -3.6889171     1.366285   396900 
 2807000   0.90856892   -3.6861009   -3.6861009    -2.323251  0.036341016   -3.6861009    1.3628499   396900 
 2808000   0.90784706   -3.6854598   -3.6854598   -2.3236926  0.039745743   -3.6854598    1.3617672   396900 
 2809000   0.90919428   -3.6851014   -3.6851014   -2.3213134  0.039740872   -3.6851014     1.363788   396900 
 2810000   0.90828481   -3.6854047   -3.6854047   -2.3229809  0.039028115   -3.6854047    1.3624238   396900 
 2811000   0.90962018   -3.6863196   -3.6863196   -2.3218928  0.040183786   -3.6863196    1.3644268   396900 
 2812000   0.90868437   -3.6868435   -3.6868435   -2.3238204  0.036022659   -3.6868435    1.3630231   396900 
 2813000   0.90985032   -3.6870497   -3.6870497   -2.3222777  0.036823704   -3.6870497     1.364772   396900 
 2814000   0.91151238   -3.6879523   -3.6879523   -2.3206872  0.038680793   -3.6879523    1.3672651   396900 
 2815000   0.90977491   -3.6871764   -3.6871764   -2.3225174  0.037652745   -3.6871764    1.3646589   396900 
 2816000   0.91062146   -3.6882025   -3.6882025   -2.3222738  0.037280887   -3.6882025    1.3659288   396900 
 2817000   0.91151807     -3.68816     -3.68816   -2.3208863  0.040386093     -3.68816    1.3672737   396900 
 2818000    0.9092995   -3.6867405   -3.6867405   -2.3227946  0.037282864   -3.6867405    1.3639458   396900 
 2819000   0.90868036   -3.6849627   -3.6849627   -2.3219456  0.039720647   -3.6849627    1.3630171   396900 
 2820000    0.9092788   -3.6874528   -3.6874528    -2.323538   0.03868114   -3.6874528    1.3639148   396900 
 2821000   0.90804133   -3.6867442   -3.6867442   -2.3246856  0.038387758   -3.6867442    1.3620586   396900 
 2822000   0.90998535   -3.6876762   -3.6876762   -2.3227017   0.03898914   -3.6876762    1.3649746   396900 
 2823000   0.91119479   -3.6881735   -3.6881735   -2.3213847   0.04197469   -3.6881735    1.3667887   396900 
 2824000   0.90867372   -3.6869029   -3.6869029   -2.3238957  0.037097574   -3.6869029    1.3630071   396900 
 2825000   0.90799894   -3.6876287   -3.6876287   -2.3256337  0.037067758   -3.6876287     1.361995   396900 
 2826000   0.90851385    -3.689753    -3.689753   -2.3269856  0.034553135    -3.689753    1.3627673   396900 
 2827000   0.90863584   -3.6877261   -3.6877261   -2.3247758  0.035727254   -3.6877261    1.3629503   396900 
 2828000   0.90960841   -3.6881924   -3.6881924   -2.3237832  0.033370155   -3.6881924    1.3644092   396900 
 2829000   0.91001907   -3.6871845   -3.6871845   -2.3221594  0.038933306   -3.6871845    1.3650252   396900 
 2830000   0.90958775   -3.6903748   -3.6903748   -2.3259966  0.031712503   -3.6903748    1.3643782   396900 
 2831000   0.90873416   -3.6916546   -3.6916546   -2.3285568  0.037945242   -3.6916546    1.3630978   396900 
 2832000   0.90805166   -3.6928758   -3.6928758   -2.3308018  0.034560673   -3.6928758    1.3620741   396900 
 2833000   0.90913265   -3.6942805   -3.6942805    -2.330585  0.034443827   -3.6942805    1.3636955   396900 
 2834000   0.90756651   -3.6916368   -3.6916368   -2.3302905  0.039938409   -3.6916368    1.3613463   396900 
 2835000   0.90879967   -3.6933253   -3.6933253   -2.3301292  0.042997942   -3.6933253    1.3631961   396900 
 2836000   0.90699301   -3.6914516   -3.6914516   -2.3309655  0.039082494   -3.6914516    1.3604861   396900 
 2837000   0.90866021   -3.6939751   -3.6939751   -2.3309882  0.041356549   -3.6939751    1.3629869   396900 
 2838000   0.91018462   -3.6949246   -3.6949246   -2.3296511  0.038433834   -3.6949246    1.3652735   396900 
 2839000   0.90993507   -3.6961751   -3.6961751   -2.3312759  0.039908591   -3.6961751    1.3648992   396900 
 2840000   0.90873144   -3.6940133   -3.6940133   -2.3309196  0.036848651   -3.6940133    1.3630937   396900 
 2841000   0.91019252   -3.6966613   -3.6966613    -2.331376  0.037347289   -3.6966613    1.3652853   396900 
 2842000   0.90730146   -3.6954971   -3.6954971   -2.3345483  0.038344728   -3.6954971    1.3609488   396900 
 2843000   0.90819553    -3.696995    -3.696995   -2.3347051  0.033256807    -3.696995    1.3622899   396900 
 2844000   0.91118178   -3.6972813   -3.6972813    -2.330512  0.040693759   -3.6972813    1.3667692   396900 
 2845000   0.90884185    -3.694502    -3.694502   -2.3312427  0.037650468    -3.694502    1.3632593   396900 
 2846000   0.90835137   -3.6956368   -3.6956368   -2.3331132  0.038730036   -3.6956368    1.3625236   396900 
 2847000   0.90747393   -3.6954301   -3.6954301   -2.3342227  0.038261159   -3.6954301    1.3612075   396900 
 2848000   0.90752396   -3.6968688   -3.6968688   -2.3355863  0.035316668   -3.6968688    1.3612825   396900 
 2849000   0.90833471   -3.6945951   -3.6945951   -2.3320965  0.039069775   -3.6945951    1.3624986   396900 
 2850000   0.90896248   -3.6962619   -3.6962619   -2.3328216  0.040121103   -3.6962619    1.3634403   396900 
 2851000   0.90923052   -3.6983158   -3.6983158   -2.3344735  0.041595017   -3.6983158    1.3638423   396900 
 2852000    0.9078394   -3.6954522   -3.6954522   -2.3336965  0.042288232   -3.6954522    1.3617557   396900 
 2853000   0.90839332   -3.6975009   -3.6975009   -2.3349143  0.042678799   -3.6975009    1.3625865   396900 
 2854000   0.90783085    -3.697548    -3.697548   -2.3358051  0.041708513    -3.697548    1.3617428   396900 
 2855000   0.90695163   -3.6968684   -3.6968684   -2.3364443  0.040140032   -3.6968684     1.360424   396900 
 2856000   0.90736166   -3.6988065   -3.6988065   -2.3377675  0.039007084   -3.6988065    1.3610391   396900 
 2857000   0.90532587    -3.697101    -3.697101   -2.3391156  0.037016289    -3.697101    1.3579854   396900 
 2858000    0.9078083   -3.6978757   -3.6978757   -2.3361667  0.039274397   -3.6978757     1.361709   396900 
 2859000   0.91021453   -3.6991808   -3.6991808   -2.3338624  0.043353481   -3.6991808    1.3653184   396900 
 2860000   0.90961248   -3.7007977   -3.7007977   -2.3363824  0.036129544   -3.7007977    1.3644153   396900 
 2861000   0.90947115   -3.6985137   -3.6985137   -2.3343104  0.047361882   -3.6985137    1.3642033   396900 
 2862000   0.90893572   -3.6991396   -3.6991396   -2.3357395   0.04044847   -3.6991396    1.3634001   396900 
 2863000   0.90651158    -3.697953    -3.697953    -2.338189  0.036245702    -3.697953    1.3597639   396900 
 2864000   0.90811395   -3.6977357   -3.6977357   -2.3355682  0.041282549   -3.6977357    1.3621675   396900 
 2865000   0.90890755   -3.7005238   -3.7005238   -2.3371659  0.039491384   -3.7005238    1.3633579   396900 
 2866000   0.90894771   -3.6991304   -3.6991304   -2.3357122  0.035367931   -3.6991304    1.3634181   396900 
 2867000   0.90803102   -3.6984912   -3.6984912   -2.3364481  0.036838088   -3.6984912    1.3620431   396900 
 2868000   0.90842295   -3.6974099   -3.6974099   -2.3347789  0.040289402   -3.6974099     1.362631   396900 
 2869000   0.90893189    -3.698706    -3.698706   -2.3353116  0.040987501    -3.698706    1.3633944   396900 
 2870000   0.90742579   -3.6989885   -3.6989885   -2.3378532  0.034770426   -3.6989885    1.3611353   396900 
 2871000   0.90675806   -3.6995105   -3.6995105   -2.3393769  0.035556233   -3.6995105    1.3601337   396900 
 2872000   0.90754463   -3.6984782   -3.6984782   -2.3371646  0.035737387   -3.6984782    1.3613135   396900 
 2873000   0.90806276   -3.7007097   -3.7007097    -2.338619  0.039284659   -3.7007097    1.3620907   396900 
 2874000   0.90788402   -3.7031795   -3.7031795   -2.3413569  0.036281494   -3.7031795    1.3618226   396900 
 2875000    0.9083325   -3.7025541   -3.7025541   -2.3400588  0.038499972   -3.7025541    1.3624953   396900 
 2876000   0.90717207   -3.7016195   -3.7016195   -2.3408648  0.039484112   -3.7016195    1.3607547   396900 
 2877000   0.90471542   -3.6980767   -3.6980767    -2.341007  0.035820058   -3.6980767    1.3570697   396900 
 2878000   0.90656008   -3.7002831   -3.7002831   -2.3404464  0.040198134   -3.7002831    1.3598367   396900 
 2879000   0.90595335   -3.6988402   -3.6988402   -2.3399136  0.039426693   -3.6988402    1.3589266   396900 
 2880000   0.90732056   -3.6999711   -3.6999711   -2.3389937  0.035132794   -3.6999711    1.3609774   396900 
 2881000   0.90712533   -3.6989121   -3.6989121   -2.3382276   0.03872452   -3.6989121    1.3606846   396900 
 2882000   0.90705233   -3.7020166   -3.7020166   -2.3414415   0.03464732   -3.7020166    1.3605751   396900 
 2883000   0.90724113   -3.7016445   -3.7016445   -2.3407862  0.037600204   -3.7016445    1.3608583   396900 
 2884000   0.90608785   -3.7014352   -3.7014352   -2.3423069  0.033918466   -3.7014352    1.3591284   396900 
 2885000    0.9069569   -3.7033838   -3.7033838   -2.3429518  0.038688824   -3.7033838    1.3604319   396900 
 2886000   0.90714033   -3.7027584   -3.7027584   -2.3420514  0.040182061   -3.7027584    1.3607071   396900 
 2887000   0.90599249   -3.7040665   -3.7040665   -2.3450812  0.041399552   -3.7040665    1.3589853   396900 
 2888000   0.90733728   -3.7050223   -3.7050223   -2.3440198  0.045841405   -3.7050223    1.3610025   396900 
 2889000   0.90785019    -3.706518    -3.706518   -2.3447462  0.037116204    -3.706518    1.3617719   396900 
 2890000    0.9069534   -3.7055202   -3.7055202   -2.3450935  0.040076048   -3.7055202    1.3604267   396900 
 2891000   0.90533092   -3.7041945   -3.7041945   -2.3462016  0.038518528   -3.7041945     1.357993   396900 
 2892000   0.90863955   -3.7095608   -3.7095608   -2.3466049  0.039091393   -3.7095608    1.3629559   396900 
 2893000   0.90532946   -3.7052131   -3.7052131   -2.3472223  0.040341366   -3.7052131    1.3579908   396900 
 2894000   0.90609775   -3.7055549   -3.7055549   -2.3464117  0.041288674   -3.7055549    1.3591432   396900 
 2895000   0.90799847   -3.7070151   -3.7070151   -2.3450208  0.043117655   -3.7070151    1.3619943   396900 
 2896000   0.90721319   -3.7083326   -3.7083326   -2.3475163  0.033229548   -3.7083326    1.3608164   396900 
 2897000   0.90653812   -3.7075618   -3.7075618   -2.3477581  0.040169242   -3.7075618    1.3598037   396900 
 2898000   0.90661128   -3.7071364   -3.7071364   -2.3472229  0.036316626   -3.7071364    1.3599135   396900 
 2899000   0.90552207   -3.7061801   -3.7061801   -2.3479004  0.038863948   -3.7061801    1.3582797   396900 
 2900000   0.90674321   -3.7051189   -3.7051189   -2.3450075   0.04591634   -3.7051189    1.3601114   396900 
 2901000   0.90741063   -3.7069832   -3.7069832   -2.3458707  0.045367642   -3.7069832    1.3611125   396900 
 2902000   0.90618032   -3.7070857   -3.7070857   -2.3478186  0.044240433   -3.7070857    1.3592671   396900 
 2903000   0.90794606   -3.7101225   -3.7101225   -2.3482068   0.03405207   -3.7101225    1.3619157   396900 
 2904000   0.90525508   -3.7071419   -3.7071419   -2.3492627  0.033706825   -3.7071419    1.3578792   396900 
 2905000   0.90575371   -3.7083811   -3.7083811   -2.3497539  0.035693998   -3.7083811    1.3586271   396900 
 2906000   0.90400022   -3.7057448   -3.7057448   -2.3497478  0.034881166   -3.7057448    1.3559969   396900 
 2907000   0.90531215   -3.7077014   -3.7077014   -2.3497366  0.031411054   -3.7077014    1.3579648   396900 
 2908000   0.90789701   -3.7080016   -3.7080016   -2.3461595  0.037630289   -3.7080016    1.3618421   396900 
 2909000   0.90899604   -3.7080972   -3.7080972   -2.3446066  0.040579884   -3.7080972    1.3634906   396900 
 2910000   0.90644955   -3.7072143   -3.7072143   -2.3475434  0.038230822   -3.7072143    1.3596709   396900 
 2911000   0.90685424   -3.7108746   -3.7108746   -2.3505966  0.036538827   -3.7108746    1.3602779   396900 
 2912000   0.90371572    -3.706391    -3.706391   -2.3508209  0.039178476    -3.706391    1.3555702   396900 
 2913000   0.90584951   -3.7088924   -3.7088924   -2.3501216  0.037969041   -3.7088924    1.3587708   396900 
 2914000   0.90738175    -3.711086    -3.711086   -2.3500169  0.038724625    -3.711086    1.3610692   396900 
 2915000    0.9058496   -3.7079885   -3.7079885   -2.3492175  0.036108526   -3.7079885     1.358771   396900 
 2916000   0.90529828   -3.7088959   -3.7088959   -2.3509519  0.037585233   -3.7088959     1.357944   396900 
 2917000   0.90689388   -3.7120623   -3.7120623   -2.3517249  0.037123611   -3.7120623    1.3603374   396900 
 2918000   0.90620045   -3.7105118   -3.7105118   -2.3512146  0.041836833   -3.7105118    1.3592973   396900 
 2919000   0.90549141   -3.7079722   -3.7079722   -2.3497385  0.042081101   -3.7079722    1.3582337   396900 
 2920000    0.9068062   -3.7095771   -3.7095771   -2.3493713  0.034934293   -3.7095771    1.3602059   396900 
 2921000   0.90481813   -3.7077006   -3.7077006   -2.3504768  0.038384027   -3.7077006    1.3572238   396900 
 2922000   0.90664264   -3.7090747   -3.7090747   -2.3491141  0.035855176   -3.7090747    1.3599605   396900 
 2923000   0.90747828   -3.7094167   -3.7094167   -2.3482027  0.040773004   -3.7094167     1.361214   396900 
 2924000    0.9063575   -3.7078502   -3.7078502   -2.3483174  0.041946164   -3.7078502    1.3595328   396900 
 2925000   0.90586448   -3.7059736   -3.7059736   -2.3471803  0.041574627   -3.7059736    1.3587933   396900 
 2926000   0.90795821   -3.7083394   -3.7083394   -2.3464055  0.041375311   -3.7083394    1.3619339   396900 
 2927000   0.90698057   -3.7066607   -3.7066607   -2.3461933  0.037389017   -3.7066607    1.3604674   396900 
 2928000    0.9085144   -3.7095691   -3.7095691   -2.3468009  0.035565322   -3.7095691    1.3627682   396900 
 2929000   0.90824085   -3.7101893   -3.7101893   -2.3478315  0.039449873   -3.7101893    1.3623578   396900 
 2930000    0.9051355   -3.7083605   -3.7083605   -2.3506607  0.031242721   -3.7083605    1.3576998   396900 
 2931000   0.90604424   -3.7081161   -3.7081161   -2.3490532  0.040202647   -3.7081161    1.3590629   396900 
 2932000    0.9082387   -3.7116576   -3.7116576   -2.3493029  0.039138989   -3.7116576    1.3623546   396900 
 2933000   0.90564239   -3.7104244   -3.7104244   -2.3519642  0.039731597   -3.7104244    1.3584602   396900 
 2934000   0.90494077   -3.7101625   -3.7101625   -2.3527547  0.040668273   -3.7101625    1.3574077   396900 
 2935000   0.90522999   -3.7118234   -3.7118234   -2.3539818  0.041242535   -3.7118234    1.3578416   396900 
 2936000   0.90435321   -3.7119868   -3.7119868   -2.3554604  0.041582672   -3.7119868    1.3565264   396900 
 2937000   0.90453179   -3.7137974   -3.7137974   -2.3570031  0.038716857   -3.7137974    1.3567943   396900 
 2938000   0.90735798   -3.7180205   -3.7180205   -2.3569869  0.037170356   -3.7180205    1.3610335   396900 
 2939000    0.9057698   -3.7148528   -3.7148528   -2.3562016  0.038744069   -3.7148528    1.3586513   396900 
 2940000   0.90459475   -3.7166205   -3.7166205   -2.3597318  0.037256026   -3.7166205    1.3568887   396900 
 2941000   0.90351175   -3.7151417   -3.7151417   -2.3598775  0.033859976   -3.7151417    1.3552642   396900 
 2942000    0.9039284   -3.7166121   -3.7166121   -2.3607229  0.033855286   -3.7166121    1.3558892   396900 
 2943000   0.90375122   -3.7138357   -3.7138357   -2.3582123  0.043996237   -3.7138357    1.3556234   396900 
 2944000   0.90464407   -3.7148539   -3.7148539   -2.3578912   0.03998443   -3.7148539    1.3569627   396900 
 2945000    0.9067309   -3.7159372   -3.7159372   -2.3558442  0.036080924   -3.7159372    1.3600929   396900 
 2946000   0.90640492   -3.7158666   -3.7158666   -2.3562627  0.038133006   -3.7158666     1.359604   396900 
 2947000   0.90413602   -3.7149659   -3.7149659   -2.3587653  0.037889294   -3.7149659    1.3562006   396900 
 2948000   0.90477122   -3.7147699   -3.7147699   -2.3576165  0.040212036   -3.7147699    1.3571534   396900 
 2949000   0.90445551   -3.7142904   -3.7142904   -2.3576106   0.03638864   -3.7142904    1.3566799   396900 
 2950000   0.90492634   -3.7135251   -3.7135251    -2.356139   0.03622842   -3.7135251    1.3573861   396900 
 2951000   0.90439183   -3.7134348   -3.7134348   -2.3568505  0.038344145   -3.7134348    1.3565843   396900 
 2952000   0.90482856   -3.7131324   -3.7131324   -2.3558929  0.038371204   -3.7131324    1.3572394   396900 
 2953000   0.90715165   -3.7159222   -3.7159222   -2.3551981  0.038475729   -3.7159222    1.3607241   396900 
 2954000   0.90453387   -3.7154193   -3.7154193   -2.3586219  0.041417463   -3.7154193    1.3567974   396900 
 2955000   0.90542711   -3.7159533   -3.7159533    -2.357816  0.034626684   -3.7159533    1.3581372   396900 
 2956000   0.90607945   -3.7182481   -3.7182481   -2.3591324  0.036862564   -3.7182481    1.3591157   396900 
 2957000   0.90579045   -3.7165039   -3.7165039   -2.3578217  0.040459124   -3.7165039    1.3586822   396900 
 2958000   0.90640591    -3.715512    -3.715512   -2.3559066  0.042039244    -3.715512    1.3596054   396900 
 2959000   0.90623057   -3.7135217   -3.7135217   -2.3541793   0.03836932   -3.7135217    1.3593424   396900 
 2960000   0.90525001   -3.7155541   -3.7155541   -2.3576825  0.037995454   -3.7155541    1.3578716   396900 
 2961000   0.90476998    -3.715932    -3.715932   -2.3587805  0.033698668    -3.715932    1.3571516   396900 
 2962000   0.90468768   -3.7151469   -3.7151469   -2.3581188  0.036591922   -3.7151469    1.3570281   396900 
 2963000   0.90486134   -3.7162982   -3.7162982   -2.3590096  0.034973452   -3.7162982    1.3572886   396900 
 2964000   0.90415839   -3.7149086   -3.7149086   -2.3586744  0.039075089   -3.7149086    1.3562342   396900 
 2965000   0.90704661   -3.7185233   -3.7185233   -2.3579568  0.039625067   -3.7185233    1.3605665   396900 
 2966000     0.905368   -3.7165602   -3.7165602   -2.3585116  0.037676911   -3.7165602    1.3580486   396900 
 2967000   0.90460538   -3.7155478   -3.7155478   -2.3586432  0.031961907   -3.7155478    1.3569046   396900 
 2968000   0.90471083    -3.718336    -3.718336   -2.3612732  0.035626885    -3.718336    1.3570628   396900 
 2969000   0.90478808   -3.7181583   -3.7181583   -2.3609796  0.032874703   -3.7181583    1.3571787   396900 
 2970000   0.90386333   -3.7159261   -3.7159261   -2.3601345  0.040115907   -3.7159261    1.3557916   396900 
 2971000   0.90343292   -3.7166594   -3.7166594   -2.3615134  0.036601367   -3.7166594     1.355146   396900 
 2972000   0.90420182   -3.7190885   -3.7190885   -2.3627892  0.036288098   -3.7190885    1.3562993   396900 
 2973000    0.9054878   -3.7197106   -3.7197106   -2.3614823  0.042705211   -3.7197106    1.3582283   396900 
 2974000    0.9049608   -3.7204495   -3.7204495   -2.3630117  0.034652974   -3.7204495    1.3574378   396900 
 2975000   0.90561145   -3.7213831   -3.7213831   -2.3629693  0.035946858   -3.7213831    1.3584138   396900 
 2976000   0.90540457   -3.7226778   -3.7226778   -2.3645744  0.033926189   -3.7226778    1.3581034   396900 
 2977000   0.90471884   -3.7202931   -3.7202931   -2.3632182  0.034122604   -3.7202931    1.3570748   396900 
 2978000   0.90464995    -3.722988    -3.722988   -2.3660165  0.040279134    -3.722988    1.3569715   396900 
 2979000   0.90449224   -3.7213765   -3.7213765   -2.3646416  0.040255568   -3.7213765    1.3567349   396900 
 2980000   0.90495941   -3.7226978   -3.7226978   -2.3652621  0.039817329   -3.7226978    1.3574357   396900 
 2981000   0.90406117   -3.7214257   -3.7214257   -2.3653373  0.038417818   -3.7214257    1.3560883   396900 
 2982000    0.9050471   -3.7199495   -3.7199495   -2.3623822   0.03678236   -3.7199495    1.3575672   396900 
 2983000   0.90414442   -3.7177067   -3.7177067   -2.3614935  0.039962684   -3.7177067    1.3562132   396900 
 2984000   0.90482472   -3.7182305   -3.7182305   -2.3609968    0.0448173   -3.7182305    1.3572337   396900 
 2985000   0.90458995   -3.7202754   -3.7202754   -2.3633939  0.037760919   -3.7202754    1.3568815   396900 
 2986000   0.90427556   -3.7210168   -3.7210168   -2.3646069  0.036207688   -3.7210168    1.3564099   396900 
 2987000    0.9033006   -3.7213662   -3.7213662   -2.3664188  0.037741496   -3.7213662    1.3549475   396900 
 2988000   0.90384143   -3.7254009   -3.7254009   -2.3696422  0.028671417   -3.7254009    1.3557587   396900 
 2989000   0.90411771   -3.7236978   -3.7236978   -2.3675246  0.033883579   -3.7236978    1.3561731   396900 
 2990000   0.90250503   -3.7220392   -3.7220392   -2.3682851  0.031360375   -3.7220392    1.3537541   396900 
 2991000   0.90197941   -3.7227488   -3.7227488   -2.3697831  0.034453973   -3.7227488    1.3529657   396900 
 2992000   0.90413174   -3.7242693   -3.7242693   -2.3680751  0.032959166   -3.7242693    1.3561942   396900 
 2993000   0.90450704    -3.725227    -3.725227   -2.3684699  0.035199935    -3.725227    1.3567571   396900 
 2994000   0.90561525    -3.726238    -3.726238   -2.3678186  0.036195164    -3.726238    1.3584195   396900 
 2995000   0.90251948   -3.7236936   -3.7236936   -2.3699178  0.037181058   -3.7236936    1.3537758   396900 
 2996000   0.90055242   -3.7239111   -3.7239111   -2.3730859   0.03459876   -3.7239111    1.3508252   396900 
 2997000   0.90374358   -3.7272873   -3.7272873   -2.3716753  0.035130283   -3.7272873     1.355612   396900 
 2998000   0.90263017   -3.7263391   -3.7263391   -2.3723973  0.036447566   -3.7263391    1.3539418   396900 
 2999000   0.90224869   -3.7288439   -3.7288439   -2.3754742  0.034627783   -3.7288439    1.3533696   396900 
 3000000   0.90466311   -3.7289135   -3.7289135   -2.3719222  0.044711579   -3.7289135    1.3569912   396900 
Loop time of 16673.1 on 48 procs for 3000000 steps with 396900 atoms

Performance: 77729.857 tau/day, 179.930 timesteps/s
89.7% CPU use with 48 MPI tasks x 1 OpenMP threads

MPI task timing breakdown:
Section |  min time  |  avg time  |  max time  |%varavg|  %CPU | %total
-----------------------------------------------------------------------
Pair    | 1592.4     | 7162.1     | 9024.8     |2167.6 |  97.6 | 42.96
Bond    | 2.056      | 2.2767     | 2.4309     |   5.4 | 100.0 |  0.01
Neigh   | 1026       | 3394       | 4501.4     |1308.5 |  99.4 | 20.36
Comm    | 2373.9     | 4862.4     | 13594      |4182.4 |  76.0 | 29.16
Output  | 81.842     | 82.044     | 82.053     |   0.3 |  70.9 |  0.49
Modify  | 205.94     | 918.71     | 1401.2     |1513.9 |  86.5 |  5.51
Other   |            | 251.5      |            |       |       |  1.51

Nlocal:        8268.75 ave       12984 max        3396 min
Histogram: 3 0 3 0 1 35 0 2 1 3
Nghost:        7874.92 ave        9089 max        2711 min
Histogram: 3 0 0 0 0 12 0 0 0 33
Neighs:        254145.0 ave      338989 max       25516 min
Histogram: 3 0 2 1 0 0 0 30 9 3

Total # of neighbors = 12198974
Ave neighs/atom = 30.735636
Ave special neighs/atom = 0.0000000
Neighbor list builds = 300000
Dangerous builds = 297000

write_data	data.lj
System init for write_data ...
WARNING: Not all mixed pair coeffs generated from mixing. Use write_data with 'pair ij' option to store all pair coeffs. (src/write_data.cpp:312)
Total wall time: 4:37:53
