LAMMPS (24 Dec 2020)
OMP_NUM_THREADS environment is not set. Defaulting to 1 thread. (src/comm.cpp:94)
  using 1 OpenMP thread(s) per MPI task
# Simple rigid body system
# needed variables: startTemp, temp

units		lj
atom_style	full
dimension 	3
boundary	p p f
pair_style	lj/cut/opt 2.5


variable 	sigma		equal 1.0
variable 	epsilon 	equal 1.0


region		box block 0 160 0 160 0 160
create_box 	3 box
Created orthogonal box = (0.0000000 0.0000000 0.0000000) to (160.00000 160.00000 160.00000)
  6 by 4 by 6 MPI processor grid
lattice 	sc 1.0
Lattice spacing in x,y,z = 1.0000000 1.0000000 1.0000000

create_atoms 	1 region box
Created 4096000 atoms
  create_atoms CPU = 0.058 seconds

mass		1 1.0
mass		2 1.0
mass		3 1.0


group		solvent type 1
4096000 atoms in group solvent


velocity 	solvent create ${startTemp} 563435 loop geom
velocity 	solvent create 0.5 563435 loop geom

read_data	data.vac add append
Reading data file ...
  orthogonal box = (0.0000000 0.0000000 0.0000000) to (160.00000 160.00000 320.00000)
  4 by 4 by 9 MPI processor grid
Finding 1-2 1-3 1-4 neighbors ...
  special bond factors lj:    0        0        0       
  special bond factors coul:  0        0        0       
     0 = max # of 1-2 neighbors
     0 = max # of 1-3 neighbors
     0 = max # of 1-4 neighbors
     1 = max # of special neighbors
  special bonds CPU = 0.916 seconds
  read_data CPU = 0.953 seconds

neighbor 	0.4 bin

pair_coeff	1 1 1.0 1.0
pair_coeff	2 2 0.0 0.0
pair_coeff	3 3 0.0 0.0
pair_coeff	2 3 0.0 0.0
pair_coeff	1 2*3 0.0 0.0

pair_modify 	shift yes


balance 	1.05 shift z 10 1.05
Balancing ...
Neighbor list info ...
  update every 1 steps, delay 10 steps, check yes
  max neighbors/atom: 2000, page size: 100000
  master list distance cutoff = 2.9
  ghost atom cutoff = 2.9
  binsize = 1.45, bins = 111 111 221
  1 neighbor lists, perpetual/occasional/extra = 1 0 0
  (1) pair lj/cut/opt, perpetual
      attributes: half, newton on
      pair build: half/bin/newton
      stencil: half/bin/3d/newton
      bin: standard
 rebalancing time: 0.061 seconds
  iteration count = 5
  initial/final maximal load/proc = 57600.000 41600.000
  initial/final imbalance factor  = 2.0250000 1.4625000
  x cuts: 0.0000000 0.25000000 0.50000000 0.75000000 1.0000000
  y cuts: 0.0000000 0.25000000 0.50000000 0.75000000 1.0000000
  z cuts: 0.0000000 0.052083333 0.10416667 0.15972222 0.22569444 0.27430556 0.31944444 0.37500000 0.45486111 1.0000000


####################### WALLS ###########################


region	       low block  EDGE EDGE EDGE EDGE 0 2

region 	       top block  EDGE EDGE EDGE EDGE 159 160


delete_atoms   region low
WARNING: Ignoring 'compress yes' for molecular system (src/delete_atoms.cpp:125)
Deleted 76800 atoms, new total = 4019200

delete_atoms   region top
WARNING: Ignoring 'compress yes' for molecular system (src/delete_atoms.cpp:125)
Deleted 25600 atoms, new total = 3993600


variable       epsilonWall equal 2*${epsilon}
variable       epsilonWall equal 2*1

variable       cutoffTop   equal   0.7147*${sigma}
variable       cutoffTop   equal   0.7147*1

variable       cutoffLow   equal   3*${sigma}
variable       cutoffLow   equal   3*1


fix            topWall all wall/lj93 zhi EDGE                ${epsilonWall} ${sigma} ${cutoffTop} units box
fix            topWall all wall/lj93 zhi EDGE                2 ${sigma} ${cutoffTop} units box
fix            topWall all wall/lj93 zhi EDGE                2 1 ${cutoffTop} units box
fix            topWall all wall/lj93 zhi EDGE                2 1 0.7147 units box

fix            lowWall all wall/lj93 zlo EDGE                ${epsilonWall} ${sigma} ${cutoffLow} units box
fix            lowWall all wall/lj93 zlo EDGE                2 ${sigma} ${cutoffLow} units box
fix            lowWall all wall/lj93 zlo EDGE                2 1 ${cutoffLow} units box
fix            lowWall all wall/lj93 zlo EDGE                2 1 3 units box


###################### COMPUTES ##########################

compute        bin1 solvent chunk/atom bin/1d z upper 1.0



######################	FIXES ############################


fix 		peclet solvent ave/chunk 1000 1 1000 bin1 density/number norm 		 none ave one file density.profile

fix 		 temp solvent  ave/chunk 1000 1 1000 bin1 temp norm 		 none ave one file temp.profile

fix 		2 solvent nve

## Thermostat


region		regthermo block EDGE EDGE EDGE EDGE 0 20

group 		thermo dynamic solvent region regthermo every 1000
dynamic group thermo defined

fix 		3 thermo langevin ${startTemp} ${temp} 10 156453
fix 		3 thermo langevin 0.5 ${temp} 10 156453
fix 		3 thermo langevin 0.5 .7 10 156453



#### Load balancing


fix 		bal all balance 1000 1.05 shift z 10 1.05


############### Diagnostics and computes ###################
#compute 	com cube	  rigid/local	1 mol x y z
#compute 	quat cube	  rigid/local	1 mol quatw quati quatj quatk

thermo 		1000
thermo_style 	custom step temp epair evdwl etotal press pe ke vol

dump		1 all custom 100000 dump.lammpstrj id mol type x y z
dump 		2 all image 10000 image.*.png type type
dump 		3 all movie 1000 movie.avi type type
#dump 		com cube local 1000 dump.*.xyz c_com[*]
#dump		quat cube      local 1000 dump.*.quat c_quat[*]


#restart 	500000 restart.dat
timestep 	0.01
timer 		full
New timer settings: style=full  mode=nosync  timeout=off


run		1000000
Per MPI rank memory allocation (min/avg/max) = 30.98 | 35.02 | 39.72 Mbytes
Step Temp E_pair E_vdwl TotEng Press PotEng KinEng Volume 
       0   0.49997217   -3.3137429   -3.3137429   -2.5637849    8.4475947   -3.3137429   0.74995807      8192000 
    1000    1.3825942    -4.881294    -4.881294   -2.8074033    2.8449509    -4.881294    2.0738907      8192000 
    2000    1.3081686   -4.9210385   -4.9210385   -2.9587862   0.81490204   -4.9210385    1.9622524      8192000 
    3000    1.1680013   -4.7201511   -4.7201511   -2.9681496  -0.18002776   -4.7201511    1.7520015      8192000 
    4000    1.1572601   -4.6876395   -4.6876395   -2.9517497  0.017978866   -4.6876395    1.7358898      8192000 
    5000    1.1657467    -4.708939    -4.708939   -2.9603194   0.13690186    -4.708939    1.7486197      8192000 
    6000    1.1648958   -4.7200433   -4.7200433      -2.9727   0.14927772   -4.7200433    1.7473433      8192000 
    7000    1.1726781    -4.738358    -4.738358   -2.9793413    0.2132873    -4.738358    1.7590167      8192000 
    8000    1.1659989   -4.7361119   -4.7361119    -2.987114   0.19597208   -4.7361119    1.7489979      8192000 
    9000    1.1660797   -4.7426075   -4.7426075   -2.9934883    0.2080507   -4.7426075    1.7491192      8192000 
   10000    1.1668933   -4.7501121   -4.7501121   -2.9997726   0.22675714   -4.7501121    1.7503395      8192000 
   11000    1.1688982   -4.7600542   -4.7600542   -3.0067073   0.50759883   -4.7600542    1.7533469      8192000 
   12000    1.1650592   -4.7586822   -4.7586822   -3.0110939    1.9387063   -4.7586822    1.7475884      8192000 
   13000    1.1756692   -4.7764409   -4.7764409   -3.0129375    2.0201958   -4.7764409    1.7635034      8192000 
   14000    1.1537078   -4.7438125   -4.7438125   -3.0132513    1.0617644   -4.7438125    1.7305612      8192000 
   15000    1.0545781   -4.6000331   -4.6000331   -3.0181662   0.43562185   -4.6000331    1.5818668      8192000 
   16000   0.95519347   -4.4571946   -4.4571946   -3.0244048  0.054731232   -4.4571946    1.4327898      8192000 
   17000   0.89042336   -4.3667891   -4.3667891   -3.0311544 -0.082422803   -4.3667891    1.3356347      8192000 
   18000   0.87899443   -4.3571179   -4.3571179   -3.0386266 -0.041543215   -4.3571179    1.3184913      8192000 
   19000   0.89583139   -4.3908947   -4.3908947   -3.0471479  0.066719357   -4.3908947    1.3437468      8192000 
   20000    0.9005663   -4.4069233   -4.4069233   -3.0560742   0.12158868   -4.4069233    1.3508491      8192000 
   21000    0.8953504   -4.4087995   -4.4087995   -3.0657742   0.11885524   -4.4087995    1.3430253      8192000 
   22000   0.88721261   -4.4076809   -4.4076809   -3.0768624   0.10579115   -4.4076809    1.3308186      8192000 
   23000   0.87906472   -4.4070462   -4.4070462   -3.0884495  0.087286935   -4.4070462    1.3185967      8192000 
   24000   0.87036005   -4.4050659   -4.4050659   -3.0995262  0.062371879   -4.4050659    1.3055397      8192000 
   25000   0.86238149   -4.4039899   -4.4039899    -3.110418  0.043051817   -4.4039899    1.2935719      8192000 
   26000   0.86049074   -4.4121423   -4.4121423   -3.1214065   0.04309371   -4.4121423    1.2907358      8192000 
   27000   0.86167416   -4.4247171   -4.4247171   -3.1322062   0.05794034   -4.4247171    1.2925109      8192000 
   28000   0.86389088   -4.4387052   -4.4387052   -3.1428692  0.074443868   -4.4387052     1.295836      8192000 
   29000   0.86282718   -4.4472583   -4.4472583   -3.1530179  0.078287613   -4.4472583    1.2942404      8192000 
   30000   0.85947414   -4.4521072   -4.4521072   -3.1628963  0.065843016   -4.4521072    1.2892109      8192000 
   31000   0.85665966   -4.4574471   -4.4574471    -3.172458  0.059193056   -4.4574471    1.2849892      8192000 
   32000   0.85723779   -4.4678377   -4.4678377   -3.1819813  0.065865545   -4.4678377    1.2858564      8192000 
   33000   0.86248719   -4.4852156   -4.4852156   -3.1914851   0.09051288   -4.4852156    1.2937305      8192000 
   34000   0.86966266   -4.5058568   -4.5058568   -3.2013631   0.12999733   -4.5058568    1.3044937      8192000 
   35000   0.87959767   -4.5310506   -4.5310506   -3.2116544   0.17689278   -4.5310506    1.3193962      8192000 
   36000   0.89398278   -4.5641246   -4.5641246   -3.2231507   0.25523905   -4.5641246    1.3409738      8192000 
   37000   0.91200822    -4.605117    -4.605117    -3.237105   0.38904783    -4.605117     1.368012      8192000 
   38000   0.92582215   -4.6432295   -4.6432295   -3.2544966   0.52331342   -4.6432295    1.3887329      8192000 
   39000    0.9301951   -4.6672423   -4.6672423     -3.27195      0.59571   -4.6672423    1.3952923      8192000 
   40000   0.92205253   -4.6712146   -4.6712146   -3.2881362   0.57115568   -4.6712146    1.3830784      8192000 
   41000   0.90257574   -4.6568408   -4.6568408   -3.3029775   0.46040199   -4.6568408    1.3538633      8192000 
   42000   0.87394938   -4.6266901   -4.6266901   -3.3157663   0.30505417   -4.6266901    1.3109237      8192000 
   43000   0.84403132   -4.5910271   -4.5910271   -3.3249804    0.1557657   -4.5910271    1.2660467      8192000 
   44000   0.81379797   -4.5519305   -4.5519305   -3.3312338  0.034031758   -4.5519305    1.2206966      8192000 
   45000   0.78741022   -4.5170163   -4.5170163   -3.3359013 -0.049919086   -4.5170163     1.181115      8192000 
   46000   0.77221991   -4.4981355   -4.4981355   -3.3398059 -0.089007558   -4.4981355    1.1583296      8192000 
   47000   0.77364301   -4.5052222   -4.5052222    -3.344758 -0.070870672   -4.5052222    1.1604642      8192000 
   48000   0.78526794   -4.5285951   -4.5285951   -3.3506935 -0.018265095   -4.5285951    1.1779016      8192000 
   49000   0.79750727   -4.5527909   -4.5527909   -3.3565303  0.031163378   -4.5527909    1.1962606      8192000 
   50000    0.8018605   -4.5651016   -4.5651016   -3.3623111  0.057402725   -4.5651016    1.2027904      8192000 
   51000   0.79751561   -4.5638962   -4.5638962   -3.3676231  0.039273315   -4.5638962    1.1962731      8192000 
   52000    0.7864206   -4.5530257   -4.5530257   -3.3733951 -0.0061416886   -4.5530257    1.1796306      8192000 
   53000   0.77919341   -4.5477649   -4.5477649   -3.3789751 -0.029885145   -4.5477649    1.1687898      8192000 
   54000   0.78094443   -4.5558789   -4.5558789   -3.3844626 -0.015636174   -4.5558789    1.1714164      8192000 
   55000   0.78869058   -4.5726679   -4.5726679   -3.3896323  0.020757726   -4.5726679    1.1830356      8192000 
   56000   0.79410382   -4.5860369   -4.5860369   -3.3948815   0.04678021   -4.5860369    1.1911554      8192000 
   57000   0.79014722   -4.5851271   -4.5851271   -3.3999065  0.034004649   -4.5851271    1.1852205      8192000 
   58000   0.78110341   -4.5771793   -4.5771793   -3.4055245  0.000869626   -4.5771793    1.1716548      8192000 
   59000   0.77575302   -4.5740755   -4.5740755   -3.4104463 -0.018189797   -4.5740755    1.1636292      8192000 
   60000   0.77675628   -4.5808307   -4.5808307   -3.4156966 -0.0076074562   -4.5808307    1.1651341      8192000 
   61000   0.78300366    -4.595179    -4.595179   -3.4206738  0.019498265    -4.595179    1.1745052      8192000 
   62000   0.78645413   -4.6052491   -4.6052491   -3.4255682  0.039354376   -4.6052491    1.1796809      8192000 
   63000   0.78247516   -4.6040954   -4.6040954   -3.4303829  0.026083833   -4.6040954    1.1737124      8192000 
   64000    0.7747214   -4.5971113   -4.5971113   -3.4350295 0.0012840723   -4.5971113    1.1620818      8192000 
   65000   0.77143612   -4.5969786   -4.5969786   -3.4398247 -0.014187766   -4.5969786    1.1571539      8192000 
   66000   0.77238327   -4.6029813   -4.6029813   -3.4444067 0.00016251516   -4.6029813    1.1585746      8192000 
   67000   0.77754161   -4.6153724   -4.6153724   -3.4490603  0.022419307   -4.6153724    1.1663121      8192000 
   68000   0.77885973   -4.6217965   -4.6217965   -3.4535072    0.0331476   -4.6217965    1.1682893      8192000 
   69000   0.77512324   -4.6203699   -4.6203699   -3.4576853  0.020552475   -4.6203699    1.1626846      8192000 
   70000   0.76984214   -4.6168372   -4.6168372   -3.4620743 -0.0014534303   -4.6168372    1.1547629      8192000 
   71000   0.76729497   -4.6175506   -4.6175506   -3.4666084 -0.0075089471   -4.6175506    1.1509422      8192000 
   72000   0.76953937   -4.6252135   -4.6252135   -3.4709048  0.004187328   -4.6252135    1.1543088      8192000 
   73000    0.7731189   -4.6347371   -4.6347371    -3.475059  0.023061151   -4.6347371    1.1596781      8192000 
   74000   0.77293797   -4.6387746   -4.6387746   -3.4793679  0.027583156   -4.6387746    1.1594067      8192000 
   75000   0.76949188   -4.6376883   -4.6376883   -3.4834507  0.015293933   -4.6376883    1.1542375      8192000 
   76000   0.76571244   -4.6358607   -4.6358607   -3.4872924 0.0033932603   -4.6358607    1.1485684      8192000 
   77000   0.76651053    -4.640968    -4.640968   -3.4912025 0.0085606287    -4.640968    1.1497655      8192000 
   78000   0.77406032   -4.6560014   -4.6560014   -3.4949112  0.049417343   -4.6560014    1.1610902      8192000 
   79000    0.7871984   -4.6792935   -4.6792935   -3.4984962   0.12552871   -4.6792935    1.1807973      8192000 
   80000   0.80080609   -4.7032114   -4.7032114   -3.5020026   0.21572781   -4.7032114    1.2012088      8192000 
   81000    0.8057317   -4.7132307   -4.7132307   -3.5046334   0.24759333   -4.7132307    1.2085972      8192000 
   82000   0.79722395   -4.7035571   -4.7035571   -3.5077215   0.18619715   -4.7035571    1.1958356      8192000 
   83000   0.77684705   -4.6761355   -4.6761355   -3.5108653  0.081003357   -4.6761355    1.1652703      8192000 
   84000   0.75876917   -4.6520276   -4.6520276   -3.5138741 0.0026891678   -4.6520276    1.1381535      8192000 
   85000   0.74986048   -4.6422483   -4.6422483   -3.5174579  -0.03112017   -4.6422483    1.1247904      8192000 
   86000   0.75124071   -4.6476437   -4.6476437   -3.5207829 -0.022080463   -4.6476437    1.1268608      8192000 
   87000   0.75894764   -4.6627356   -4.6627356   -3.5243145  0.012492249   -4.6627356    1.1384212      8192000 
   88000   0.76551349     -4.67615     -4.67615     -3.52788  0.045505219     -4.67615      1.14827      8192000 
   89000     0.764962   -4.6783642   -4.6783642   -3.5309215  0.042019722   -4.6783642    1.1474427      8192000 
   90000   0.75721068   -4.6700918   -4.6700918   -3.5342761  0.012794047   -4.6700918    1.1358157      8192000 
   91000    0.7490858   -4.6613789   -4.6613789   -3.5377505 -0.021856126   -4.6613789    1.1236284      8192000 
   92000   0.74600915   -4.6602659   -4.6602659   -3.5412525  -0.03222474   -4.6602659    1.1190134      8192000 
   93000   0.74944956   -4.6685715   -4.6685715   -3.5443974 -0.013875189   -4.6685715    1.1241741      8192000 
   94000   0.75611655   -4.6814989   -4.6814989   -3.5473244  0.018555605   -4.6814989    1.1341745      8192000 
   95000   0.76087164   -4.6920952   -4.6920952    -3.550788  0.038378015   -4.6920952    1.1413072      8192000 
   96000   0.75806447   -4.6911291   -4.6911291   -3.5540327  0.027776388   -4.6911291    1.1370964      8192000 
   97000   0.75156347   -4.6844456   -4.6844456   -3.5571007 -0.0033902074   -4.6844456    1.1273449      8192000 
   98000   0.74540432   -4.6783086   -4.6783086   -3.5602025 -0.024766447   -4.6783086    1.1181062      8192000 
   99000   0.74508192    -4.680664    -4.680664   -3.5630414 -0.024706361    -4.680664    1.1176226      8192000 
  100000    0.7493934   -4.6903233   -4.6903233   -3.5662335 -0.0037162307   -4.6903233    1.1240898      8192000 
  101000   0.75487953    -4.701649    -4.701649     -3.56933  0.020038767    -4.701649     1.132319      8192000 
  102000   0.75672762   -4.7071899   -4.7071899   -3.5720988  0.031960646   -4.7071899    1.1350911      8192000 
  103000   0.75303971   -4.7047507   -4.7047507   -3.5751914  0.016841786   -4.7047507    1.1295593      8192000 
  104000   0.74730883   -4.6991215   -4.6991215   -3.5781586 -0.0082369475   -4.6991215     1.120963      8192000 
  105000   0.74308375   -4.6959031   -4.6959031   -3.5812778 -0.022162479   -4.6959031    1.1146253      8192000 
  106000   0.74423134   -4.7005334   -4.7005334   -3.5841867  -0.01636003   -4.7005334    1.1163467      8192000 
  107000   0.74864386   -4.7098927   -4.7098927   -3.5869272 0.0051868851   -4.7098927    1.1229655      8192000 
  108000   0.75309088   -4.7191597   -4.7191597   -3.5895237  0.022029195   -4.7191597     1.129636      8192000 
  109000   0.75321423   -4.7222159   -4.7222159   -3.5923948  0.025649264   -4.7222159    1.1298211      8192000 
  110000   0.74894678    -4.718933    -4.718933   -3.5955131 0.0077000294    -4.718933    1.1234199      8192000 
  111000   0.74373126   -4.7140733   -4.7140733   -3.5984767 -0.011900342   -4.7140733    1.1155966      8192000 
  112000   0.74186773   -4.7138791   -4.7138791   -3.6010778 -0.017879681   -4.7138791    1.1128013      8192000 
  113000   0.74341776   -4.7189694   -4.7189694   -3.6038431 -0.0089433055   -4.7189694    1.1151264      8192000 
  114000   0.74816838   -4.7289507   -4.7289507   -3.6066984 0.0088855168   -4.7289507    1.1222523      8192000 
  115000   0.75052075   -4.7350813   -4.7350813   -3.6093005  0.021732309   -4.7350813    1.1257808      8192000 
  116000   0.74881126   -4.7353214   -4.7353214   -3.6121048  0.018575513   -4.7353214    1.1232166      8192000 
  117000   0.74508522   -4.7323911   -4.7323911   -3.6147635 0.0016066017   -4.7323911    1.1176276      8192000 
  118000   0.74142427    -4.729876    -4.729876   -3.6177399 -0.013128819    -4.729876    1.1121361      8192000 
  119000   0.74061243    -4.731443    -4.731443   -3.6205247 -0.016046806    -4.731443    1.1109184      8192000 
  120000   0.74366557   -4.7384584   -4.7384584   -3.6229603 -0.0028014674   -4.7384584    1.1154981      8192000 
  121000   0.74625892   -4.7450844   -4.7450844   -3.6256963  0.012929727   -4.7450844    1.1193881      8192000 
  122000   0.74752051   -4.7495221   -4.7495221   -3.6282416  0.017264383   -4.7495221    1.1212805      8192000 
  123000   0.74574924   -4.7497493   -4.7497493   -3.6311258  0.010000807   -4.7497493    1.1186236      8192000 
  124000   0.74175187   -4.7466251   -4.7466251   -3.6339976 -0.0050058541   -4.7466251    1.1126275      8192000 
  125000   0.73894005   -4.7447748   -4.7447748    -3.636365  -0.01548882   -4.7447748    1.1084098      8192000 
  126000   0.73920476   -4.7478501   -4.7478501   -3.6390432 -0.010368268   -4.7478501    1.1088069      8192000 
  127000   0.74214542   -4.7550896   -4.7550896   -3.6418718 0.0019198311   -4.7550896    1.1132178      8192000 
  128000   0.74439023   -4.7611091   -4.7611091    -3.644524  0.012537827   -4.7611091    1.1165851      8192000 
  129000   0.74458144    -4.763749    -4.763749   -3.6468771   0.01337857    -4.763749    1.1168719      8192000 
  130000   0.74228757   -4.7627754   -4.7627754   -3.6493443 0.0027011662   -4.7627754    1.1134311      8192000 
  131000   0.73937285    -4.761353    -4.761353    -3.652294 -0.0078195923    -4.761353     1.109059      8192000 
  132000   0.73711762   -4.7602851   -4.7602851    -3.654609 -0.013479725   -4.7602851    1.1056761      8192000 
  133000   0.73840519   -4.7649057   -4.7649057   -3.6572982 -0.0081489069   -4.7649057    1.1076075      8192000 
  134000   0.74122465    -4.771742    -4.771742   -3.6599053 0.0037735266    -4.771742    1.1118367      8192000 
  135000   0.74251843   -4.7763878   -4.7763878   -3.6626104   0.01130497   -4.7763878    1.1137774      8192000 
  136000   0.74131933   -4.7772939   -4.7772939   -3.6653152 0.0093675212   -4.7772939    1.1119787      8192000 
  137000   0.73934089   -4.7764944   -4.7764944   -3.6674833 -0.0015490749   -4.7764944    1.1090111      8192000 
  138000   0.73646041   -4.7744621   -4.7744621   -3.6697718 -0.0077079787   -4.7744621    1.1046903      8192000 
  139000   0.73599593   -4.7764577   -4.7764577   -3.6724641  -0.01113882   -4.7764577    1.1039936      8192000 
  140000   0.73768437   -4.7814407   -4.7814407   -3.6749144 -0.0036467581   -4.7814407    1.1065263      8192000 
  141000   0.73938221   -4.7864326   -4.7864326   -3.6773595 0.0060840235   -4.7864326     1.109073      8192000 
  142000   0.73988467    -4.789277    -4.789277   -3.6794503 0.0095278371    -4.789277    1.1098267      8192000 
  143000   0.73918185   -4.7906307   -4.7906307   -3.6818582 0.0045720111   -4.7906307    1.1087725      8192000 
  144000   0.73664815   -4.7895173   -4.7895173   -3.6845453 -0.0049238074   -4.7895173     1.104972      8192000 
  145000   0.73478984   -4.7887209   -4.7887209   -3.6865364 -0.0082252404   -4.7887209    1.1021845      8192000 
  146000   0.73531877   -4.7917789   -4.7917789    -3.688801 -0.010511316   -4.7917789    1.1029779      8192000 
  147000   0.73647112   -4.7961045   -4.7961045   -3.6913981 -0.0011345365   -4.7961045    1.1047064      8192000 
  148000   0.73818638   -4.8009265   -4.8009265   -3.6936472 0.0046805419   -4.8009265    1.1072793      8192000 
  149000   0.73781739   -4.8025821   -4.8025821   -3.6958563 0.0086097271   -4.8025821    1.1067258      8192000 
  150000   0.73683166   -4.8034555   -4.8034555   -3.6982083 0.0032274512   -4.8034555    1.1052472      8192000 
  151000   0.73494562   -4.8031575   -4.8031575   -3.7007394 -0.0047653407   -4.8031575    1.1024182      8192000 
  152000   0.73358913   -4.8036642   -4.8036642   -3.7032808 -0.0088033044   -4.8036642    1.1003834      8192000 
  153000   0.73402257   -4.8066663   -4.8066663   -3.7056327 -0.0058568611   -4.8066663    1.1010336      8192000 
  154000   0.73580484   -4.8116688   -4.8116688   -3.7079618 -0.00062008937   -4.8116688     1.103707      8192000 
  155000   0.73635696   -4.8145078   -4.8145078   -3.7099726 0.0055075796   -4.8145078    1.1045352      8192000 
  156000   0.73646701   -4.8167756   -4.8167756   -3.7120753  0.007128932   -4.8167756    1.1047002      8192000 
  157000   0.73561708   -4.8174174   -4.8174174    -3.713992 0.0029420673   -4.8174174    1.1034253      8192000 
  158000   0.73463205   -4.8186139   -4.8186139   -3.7166661 -0.00030308147   -4.8186139    1.1019478      8192000 
  159000    0.7343157   -4.8202308   -4.8202308   -3.7187575 -0.0015794656   -4.8202308    1.1014733      8192000 
  160000   0.73514803   -4.8235504   -4.8235504   -3.7208286 0.0025880774   -4.8235504    1.1027218      8192000 
  161000   0.73600214   -4.8273709   -4.8273709   -3.7233679 0.0082570728   -4.8273709    1.1040029      8192000 
  162000    0.7372783   -4.8314698   -4.8314698   -3.7255526  0.014359344   -4.8314698    1.1059172      8192000 
  163000    0.7377245   -4.8346656   -4.8346656   -3.7280791  0.017893486   -4.8346656    1.1065865      8192000 
  164000   0.73877886   -4.8384034   -4.8384034   -3.7302353   0.02393932   -4.8384034     1.108168      8192000 
  165000   0.74142913   -4.8447304   -4.8447304    -3.732587  0.039841695   -4.8447304    1.1121434      8192000 
  166000   0.74630759   -4.8550164   -4.8550164   -3.7355553  0.071294031   -4.8550164    1.1194611      8192000 
  167000   0.75251179   -4.8678143   -4.8678143   -3.7390469   0.11357083   -4.8678143    1.1287674      8192000 
  168000    0.7570111   -4.8777081   -4.8777081   -3.7421917   0.13668306   -4.8777081    1.1355164      8192000 
  169000   0.75654049   -4.8796977   -4.8796977   -3.7448873   0.13182647   -4.8796977    1.1348105      8192000 
  170000   0.75046013   -4.8734664   -4.8734664   -3.7477764   0.10777458   -4.8734664    1.1256899      8192000 
  171000   0.74260334   -4.8639788   -4.8639788   -3.7500741  0.068195037   -4.8639788    1.1139047      8192000 
  172000   0.73333368   -4.8525355   -4.8525355   -3.7525352  0.016327909   -4.8525355    1.1000002      8192000 
  173000   0.72417181   -4.8401911   -4.8401911   -3.7539337 -0.031886926   -4.8401911    1.0862574      8192000 
  174000   0.71596763   -4.8291297   -4.8291297   -3.7551786 -0.069810552   -4.8291297    1.0739512      8192000 
  175000   0.70913998   -4.8196743   -4.8196743   -3.7559646  -0.10007985   -4.8196743    1.0637097      8192000 
  176000   0.70468033   -4.8140077   -4.8140077   -3.7569874   -0.1171813   -4.8140077    1.0570202      8192000 
  177000   0.70380225     -4.81395     -4.81395   -3.7582469   -0.1171469     -4.81395    1.0557031      8192000 
  178000   0.70709443   -4.8202678   -4.8202678   -3.7596265  -0.10256816   -4.8202678    1.0606414      8192000 
  179000    0.7134679   -4.8311896   -4.8311896    -3.760988 -0.075996334   -4.8311896    1.0702016      8192000 
  180000   0.72138165   -4.8448146   -4.8448146   -3.7627424 -0.039014495   -4.8448146    1.0820722      8192000 
  181000    0.7295418    -4.859188    -4.859188   -3.7648756 0.0087692229    -4.859188    1.0943124      8192000 
  182000   0.73711402    -4.873719    -4.873719   -3.7680482  0.054688871    -4.873719    1.1056708      8192000 
  183000    0.7431393   -4.8858679   -4.8858679   -3.7711593  0.092714537   -4.8858679    1.1147087      8192000 
  184000    0.7471742   -4.8950156   -4.8950156   -3.7742545    0.1185162   -4.8950156     1.120761      8192000 
  185000   0.74758916   -4.8988504   -4.8988504    -3.777467   0.12111203   -4.8988504    1.1213835      8192000 
  186000   0.74373793   -4.8957143   -4.8957143   -3.7801077   0.10279182   -4.8957143    1.1156066      8192000 
  187000   0.73678556   -4.8872438   -4.8872438   -3.7820657  0.067988302   -4.8872438    1.1051781      8192000 
  188000   0.72897353   -4.8776726   -4.8776726   -3.7842126   0.02344485   -4.8776726      1.09346      8192000 
  189000   0.72039567   -4.8661838   -4.8661838   -3.7855905 -0.020384719   -4.8661838    1.0805932      8192000 
  190000   0.71268605   -4.8557561   -4.8557561   -3.7867273 -0.060377009   -4.8557561    1.0690288      8192000 
  191000   0.70643305   -4.8474666   -4.8474666   -3.7878173 -0.086632515   -4.8474666    1.0596493      8192000 
  192000   0.70315377   -4.8437007   -4.8437007   -3.7889703  -0.10520735   -4.8437007    1.0547304      8192000 
  193000   0.70256943   -4.8438655   -4.8438655   -3.7900116  -0.10426366   -4.8438655    1.0538539      8192000 
  194000   0.70494131   -4.8488821   -4.8488821   -3.7914704 -0.091381168   -4.8488821    1.0574117      8192000 
  195000    0.7105595    -4.859007    -4.859007    -3.793168 -0.065374505    -4.859007     1.065839      8192000 
  196000   0.71744018   -4.8710809   -4.8710809   -3.7949209 -0.027522352   -4.8710809      1.07616      8192000 
  197000   0.72494457   -4.8846298   -4.8846298   -3.7972132  0.016360957   -4.8846298    1.0874166      8192000 
  198000   0.73197966   -4.8979997   -4.8979997   -3.8000305   0.05645263   -4.8979997    1.0979692      8192000 
  199000   0.73688335   -4.9081291   -4.9081291   -3.8028043  0.089472127   -4.9081291    1.1053247      8192000 
  200000   0.73984709   -4.9154728   -4.9154728   -3.8057025   0.10722475   -4.9154728    1.1097704      8192000 
  201000   0.73902346   -4.9169353   -4.9169353   -3.8084004   0.10708936   -4.9169353    1.1085349      8192000 
  202000   0.73532248   -4.9136863   -4.9136863   -3.8107029  0.084817215   -4.9136863    1.1029834      8192000 
  203000   0.72879323   -4.9061745   -4.9061745    -3.812985  0.050976306   -4.9061745    1.0931896      8192000 
  204000   0.72116751   -4.8962777   -4.8962777   -3.8145267 0.0098298736   -4.8962777     1.081751      8192000 
  205000   0.71370991   -4.8864135   -4.8864135   -3.8158489 -0.030992968   -4.8864135    1.0705646      8192000 
  206000   0.70705015   -4.8773206   -4.8773206   -3.8167457 -0.064283817   -4.8773206     1.060575      8192000 
  207000   0.70286274   -4.8719724   -4.8719724   -3.8176785 -0.087200556   -4.8719724    1.0542939      8192000 
  208000   0.70025835   -4.8691835   -4.8691835   -3.8187963 -0.095754162   -4.8691835    1.0503873      8192000 
  209000   0.70150503   -4.8718331   -4.8718331   -3.8195758 -0.091129074   -4.8718331    1.0522573      8192000 
  210000   0.70467158   -4.8778673   -4.8778673   -3.8208602 -0.070904132   -4.8778673    1.0570071      8192000 
  211000   0.71042957   -4.8878544   -4.8878544   -3.8222104  -0.04100873   -4.8878544    1.0656441      8192000 
  212000   0.71696765   -4.8999053   -4.8999053   -3.8244541 -0.0041395919   -4.8999053    1.0754512      8192000 
  213000   0.72377193   -4.9122538   -4.9122538   -3.8265962  0.034110668   -4.9122538    1.0856576      8192000 
  214000   0.72895851   -4.9224028   -4.9224028   -3.8289653  0.068319314   -4.9224028    1.0934375      8192000 
  215000   0.73182253   -4.9293782   -4.9293782   -3.8316447  0.090828574   -4.9293782    1.0977335      8192000 
  216000   0.73281055   -4.9333944   -4.9333944   -3.8341788  0.095957549   -4.9333944    1.0992156      8192000 
  217000   0.73071175   -4.9327622   -4.9327622   -3.8366949  0.084418102   -4.9327622    1.0960674      8192000 
  218000   0.72596191   -4.9272054   -4.9272054   -3.8382628  0.057354643   -4.9272054    1.0889426      8192000 
  219000   0.71921595   -4.9188674   -4.9188674   -3.8400437  0.022699708   -4.9188674    1.0788237      8192000 
  220000   0.71262181   -4.9103294   -4.9103294   -3.8413969 -0.014176456   -4.9103294    1.0689324      8192000 
  221000   0.70637483   -4.9016286   -4.9016286   -3.8420666 -0.045676531   -4.9016286     1.059562      8192000 
  222000   0.70171028   -4.8955983   -4.8955983   -3.8430331 -0.070051864   -4.8955983    1.0525652      8192000 
  223000   0.69934837   -4.8929742   -4.8929742   -3.8439519  -0.08142372   -4.8929742    1.0490223      8192000 
  224000   0.69931218   -4.8937324   -4.8937324   -3.8447644  -0.08074599   -4.8937324     1.048968      8192000 
  225000   0.70164153   -4.8982918   -4.8982918   -3.8458298 -0.067277764   -4.8982918     1.052462      8192000 
  226000   0.70642542   -4.9067008   -4.9067008   -3.8470629 -0.040767457   -4.9067008    1.0596379      8192000 
  227000   0.71232101   -4.9175954   -4.9175954   -3.8491142 -0.0087532699   -4.9175954    1.0684813      8192000 
  228000   0.71823361     -4.92833     -4.92833   -3.8509798  0.023933782     -4.92833    1.0773502      8192000 
  229000   0.72276303   -4.9373995   -4.9373995   -3.8532553  0.057171875   -4.9373995    1.0841443      8192000 
  230000   0.72592577   -4.9447173   -4.9447173   -3.8558289  0.078487237   -4.9447173    1.0888884      8192000 
  231000   0.72706911   -4.9486852   -4.9486852   -3.8580818  0.083593244   -4.9486852    1.0906034      8192000 
  232000   0.72508384   -4.9478504   -4.9478504   -3.8602249  0.077374435   -4.9478504    1.0876255      8192000 
  233000   0.72149207    -4.944184    -4.944184   -3.8619461  0.053372994    -4.944184    1.0822378      8192000 
  234000   0.71573714   -4.9370632   -4.9370632   -3.8634578  0.024344716   -4.9370632    1.0736054      8192000 
  235000   0.71027431   -4.9299831   -4.9299831   -3.8645719 -0.011616436   -4.9299831    1.0654112      8192000 
  236000   0.70468921   -4.9227586   -4.9227586   -3.8657251  -0.04129844   -4.9227586    1.0570336      8192000 
  237000   0.70040846   -4.9174974   -4.9174974   -3.8668849 -0.063085834   -4.9174974    1.0506124      8192000 
  238000   0.69803354   -4.9145287   -4.9145287   -3.8674786 -0.072606256   -4.9145287    1.0470501      8192000 
  239000   0.69836556   -4.9157982   -4.9157982   -3.8682501 -0.072357605   -4.9157982    1.0475481      8192000 
  240000   0.70008826   -4.9198779   -4.9198779   -3.8697458 -0.058516364   -4.9198779    1.0501321      8192000 
  241000   0.70416746   -4.9276532   -4.9276532   -3.8714022 -0.034611476   -4.9276532    1.0562509      8192000 
  242000   0.70945809   -4.9372238   -4.9372238   -3.8730369 -0.0061386652   -4.9372238    1.0641869      8192000 
  243000   0.71457178   -4.9470498   -4.9470498   -3.8751924  0.024350151   -4.9470498    1.0718574      8192000 
  244000   0.71864562    -4.954995    -4.954995   -3.8770268  0.052896064    -4.954995    1.0779682      8192000 
  245000   0.72111798   -4.9608586   -4.9608586   -3.8791819  0.070846253   -4.9608586    1.0816767      8192000 
  246000   0.72185917    -4.964493    -4.964493   -3.8817045  0.073071765    -4.964493    1.0827885      8192000 
  247000   0.72021995    -4.963899    -4.963899   -3.8835693  0.063466458    -4.963899    1.0803296      8192000 
  248000   0.71627365   -4.9598054   -4.9598054   -3.8853952  0.041332255   -4.9598054    1.0744102      8192000 
  249000   0.71144467   -4.9538643   -4.9538643   -3.8866975  0.014133001   -4.9538643    1.0671667      8192000 
  250000   0.70641152   -4.9476007   -4.9476007   -3.8879837 -0.016250377   -4.9476007     1.059617      8192000 
  251000   0.70142647   -4.9412856   -4.9412856   -3.8891461 -0.042017526   -4.9412856    1.0521394      8192000 
  252000   0.69798134   -4.9368224   -4.9368224   -3.8898507 -0.059157775   -4.9368224    1.0469717      8192000 
  253000   0.69658143   -4.9356923   -4.9356923   -3.8908204 -0.066168226   -4.9356923    1.0448719      8192000 
  254000   0.69716043   -4.9375072   -4.9375072   -3.8917669  -0.06266564   -4.9375072    1.0457404      8192000 
  255000   0.69960308   -4.9423167   -4.9423167   -3.8929123 -0.047932641   -4.9423167    1.0494044      8192000 
  256000   0.70341039   -4.9495286   -4.9495286   -3.8944133 -0.024388912   -4.9495286    1.0551153      8192000 
  257000   0.70753302   -4.9572353   -4.9572353   -3.8959361 0.0044779603   -4.9572353    1.0612993      8192000 
  258000   0.71229573     -4.96594     -4.96594   -3.8974966  0.029236964     -4.96594    1.0684433      8192000 
  259000   0.71538877    -4.972657    -4.972657   -3.8995741  0.051876534    -4.972657    1.0730829      8192000 
  260000   0.71666219   -4.9764769   -4.9764769   -3.9014839  0.063509924   -4.9764769     1.074993      8192000 
  261000   0.71659139   -4.9780513   -4.9780513   -3.9031645  0.063204363   -4.9780513    1.0748868      8192000 
  262000    0.7141543    -4.976496    -4.976496   -3.9052648  0.048286931    -4.976496    1.0712312      8192000 
  263000   0.71059351   -4.9726597   -4.9726597   -3.9067697  0.027324474   -4.9726597      1.06589      8192000 
  264000   0.70617543   -4.9671004   -4.9671004   -3.9078375 0.00028775293   -4.9671004    1.0592629      8192000 
  265000   0.70166393    -4.961281    -4.961281   -3.9087854 -0.024434232    -4.961281    1.0524956      8192000 
  266000   0.69761924   -4.9559768   -4.9559768   -3.9095482 -0.042874891   -4.9559768    1.0464286      8192000 
  267000   0.69566248   -4.9539007   -4.9539007   -3.9104072 -0.055503553   -4.9539007    1.0434935      8192000 
  268000   0.69519456   -4.9540249   -4.9540249   -3.9112333 -0.056481605   -4.9540249    1.0427916      8192000 
  269000   0.69639319   -4.9566729   -4.9566729   -3.9120833 -0.046395718   -4.9566729    1.0445895      8192000 
  270000   0.69955426   -4.9625078   -4.9625078   -3.9131767 -0.031189399   -4.9625078    1.0493311      8192000 
  271000   0.70289144   -4.9689958   -4.9689958   -3.9146589 -0.0078637472   -4.9689958    1.0543369      8192000 
  272000   0.70721603   -4.9771707   -4.9771707    -3.916347  0.014799191   -4.9771707    1.0608238      8192000 
  273000   0.70993886   -4.9832996   -4.9832996   -3.9183916  0.037900097   -4.9832996     1.064908      8192000 
  274000   0.71219851   -4.9883489   -4.9883489   -3.9200514  0.052026293   -4.9883489    1.0682975      8192000 
  275000   0.71282705   -4.9913743   -4.9913743    -3.922134  0.055915968   -4.9913743    1.0692403      8192000 
  276000   0.71145997   -4.9909283   -4.9909283   -3.9237386  0.050035263   -4.9909283    1.0671897      8192000 
  277000   0.70905783   -4.9886594   -4.9886594   -3.9250729  0.033272789   -4.9886594    1.0635865      8192000 
  278000   0.70526376   -4.9840352   -4.9840352   -3.9261398  0.011485632   -4.9840352    1.0578954      8192000 
  279000    0.7008532    -4.978564    -4.978564   -3.9272844 -0.0098780554    -4.978564    1.0512795      8192000 
  280000   0.69725246   -4.9739843   -4.9739843   -3.9281059 -0.029964799   -4.9739843    1.0458784      8192000 
  281000   0.69481798   -4.9710927   -4.9710927    -3.928866 -0.043870612   -4.9710927    1.0422267      8192000 
  282000   0.69401854   -4.9705102   -4.9705102   -3.9294827 -0.050034101   -4.9705102    1.0410275      8192000 
  283000   0.69437005   -4.9720554   -4.9720554   -3.9305006 -0.044776248   -4.9720554    1.0415548      8192000 
  284000   0.69644648   -4.9763292   -4.9763292   -3.9316598 -0.032619304   -4.9763292    1.0446695      8192000 
  285000   0.69961151   -4.9820396   -4.9820396   -3.9326226 -0.013059272   -4.9820396     1.049417      8192000 
  286000   0.70245806   -4.9879157   -4.9879157   -3.9342289 0.0084706442   -4.9879157    1.0536868      8192000 
  287000   0.70554453   -4.9942671   -4.9942671   -3.9359505  0.030208987   -4.9942671    1.0583165      8192000 
  288000    0.7078177   -4.9996043   -4.9996043    -3.937878  0.043611107   -4.9996043    1.0617263      8192000 
  289000   0.70875946    -5.002499    -5.002499   -3.9393601  0.048982464    -5.002499    1.0631389      8192000 
  290000   0.70779814   -5.0025616   -5.0025616   -3.9408647  0.049687883   -5.0025616    1.0616969      8192000 
  291000   0.70604704   -5.0013396   -5.0013396   -3.9422693  0.034705162   -5.0013396    1.0590703      8192000 
  292000   0.70291802   -4.9979081   -4.9979081   -3.9435313   0.01714896   -4.9979081    1.0543768      8192000 
  293000   0.69980198    -4.994128    -4.994128   -3.9444253 -0.0038027391    -4.994128    1.0497027      8192000 
  294000   0.69638862   -4.9897639   -4.9897639   -3.9451812 -0.023016015   -4.9897639    1.0445827      8192000 
  295000   0.69354003   -4.9863581   -4.9863581   -3.9460483 -0.036759905   -4.9863581    1.0403098      8192000 
  296000    0.6926241   -4.9854445   -4.9854445   -3.9465086 -0.041648215   -4.9854445    1.0389359      8192000 
  297000   0.69293793   -4.9867882   -4.9867882   -3.9473816 -0.039697145   -4.9867882    1.0394066      8192000 
  298000   0.69448876   -4.9899501   -4.9899501   -3.9482172 -0.029648467   -4.9899501    1.0417329      8192000 
  299000   0.69743382   -4.9954487   -4.9954487   -3.9492983 -0.014724911   -4.9954487    1.0461505      8192000 
  300000   0.69966277   -5.0003005   -5.0003005   -3.9508067 0.0044973492   -5.0003005    1.0494939      8192000 
  301000   0.70265992   -5.0060643   -5.0060643   -3.9520747  0.022522169   -5.0060643    1.0539896      8192000 
  302000   0.70430349   -5.0099432   -5.0099432   -3.9534883  0.040449089   -5.0099432     1.056455      8192000 
  303000   0.70560345   -5.0138346   -5.0138346   -3.9554297  0.043046698   -5.0138346    1.0584049      8192000 
  304000   0.70494307   -5.0140503   -5.0140503    -3.956636  0.042831912   -5.0140503    1.0574143      8192000 
  305000   0.70320896   -5.0125454   -5.0125454   -3.9577322  0.033552077   -5.0125454    1.0548132      8192000 
  306000   0.70063325   -5.0094936   -5.0094936    -3.958544  0.017575854   -5.0094936    1.0509496      8192000 
  307000   0.69798778   -5.0063912   -5.0063912   -3.9594098 0.00029499228   -5.0063912    1.0469814      8192000 
  308000   0.69517873   -5.0029298   -5.0029298    -3.960162 -0.016367081   -5.0029298    1.0427678      8192000 
  309000   0.69263161   -4.9996654   -4.9996654   -3.9607182 -0.028077359   -4.9996654    1.0389471      8192000 
  310000   0.69145376   -4.9988013   -4.9988013   -3.9616209 -0.033153898   -4.9988013    1.0371804      8192000 
  311000    0.6916461   -4.9999357   -4.9999357   -3.9624668 -0.034879108   -4.9999357    1.0374689      8192000 
  312000   0.69289255   -5.0026013   -5.0026013   -3.9632628 -0.026236665   -5.0026013    1.0393386      8192000 
  313000   0.69523591   -5.0070222   -5.0070222   -3.9641686 -0.011232453   -5.0070222    1.0428536      8192000 
  314000   0.69770143   -5.0117879   -5.0117879    -3.965236 0.0039671309   -5.0117879    1.0465519      8192000 
  315000   0.70008824   -5.0164857   -5.0164857   -3.9663537  0.021037922   -5.0164857    1.0501321      8192000 
  316000   0.70165974   -5.0205292   -5.0205292   -3.9680398  0.032949327   -5.0205292    1.0524893      8192000 
  317000   0.70286367   -5.0235381   -5.0235381   -3.9692429  0.038293481   -5.0235381    1.0542952      8192000 
  318000   0.70201897   -5.0235482   -5.0235482     -3.97052  0.037537871   -5.0235482    1.0530282      8192000 
  319000   0.70086433   -5.0227028   -5.0227028   -3.9714066  0.028405334   -5.0227028    1.0512962      8192000 
  320000   0.69843156   -5.0200367   -5.0200367   -3.9723896   0.01630607   -5.0200367    1.0476471      8192000 
  321000   0.69564827   -5.0166343   -5.0166343   -3.9731622 0.00081348696   -5.0166343    1.0434721      8192000 
  322000   0.69317453   -5.0136538   -5.0136538   -3.9738923 -0.012003414   -5.0136538    1.0397615      8192000 
  323000   0.69122062   -5.0114931   -5.0114931   -3.9746624 -0.023773463   -5.0114931    1.0368307      8192000 
  324000   0.69072005    -5.011221    -5.011221   -3.9751412 -0.030255157    -5.011221    1.0360798      8192000 
  325000   0.69061552   -5.0120472   -5.0120472   -3.9761242  -0.02715183   -5.0120472     1.035923      8192000 
  326000   0.69139254   -5.0142869   -5.0142869   -3.9771984 -0.020259699   -5.0142869    1.0370886      8192000 
  327000   0.69361779   -5.0187083   -5.0187083   -3.9782819 -0.009198412   -5.0187083    1.0404264      8192000 
  328000   0.69552997   -5.0227522   -5.0227522   -3.9794575  0.007355359   -5.0227522    1.0432947      8192000 
  329000   0.69758985    -5.026987    -5.026987   -3.9806025  0.020649024    -5.026987    1.0463845      8192000 
  330000   0.69930896    -5.030665    -5.030665   -3.9817019  0.030129377    -5.030665    1.0489632      8192000 
  331000   0.69969002   -5.0326019   -5.0326019   -3.9830672  0.036302288   -5.0326019    1.0495348      8192000 
  332000   0.70003076   -5.0341622   -5.0341622   -3.9841163  0.032920531   -5.0341622    1.0500459      8192000 
  333000   0.69803052   -5.0321852   -5.0321852   -3.9851397  0.026318956   -5.0321852    1.0470455      8192000 
  334000   0.69631981     -5.03059     -5.03059   -3.9861105   0.01273176     -5.03059    1.0444795      8192000 
  335000   0.69351141   -5.0272009   -5.0272009   -3.9869341 0.00060875087   -5.0272009    1.0402669      8192000 
  336000   0.69151052   -5.0247999   -5.0247999   -3.9875343 -0.011450982   -5.0247999    1.0372655      8192000 
  337000   0.68966183   -5.0229676   -5.0229676   -3.9884751 -0.019983543   -5.0229676    1.0344925      8192000 
  338000   0.68926584   -5.0227108   -5.0227108   -3.9888123 -0.023065843   -5.0227108    1.0338985      8192000 
  339000   0.68950309   -5.0237437   -5.0237437   -3.9894893 -0.023472227   -5.0237437    1.0342544      8192000 
  340000   0.69060342   -5.0263583   -5.0263583   -3.9904535 -0.014508392   -5.0263583    1.0359049      8192000 
  341000   0.69229096   -5.0299113   -5.0299113   -3.9914751 -0.0042323923   -5.0299113    1.0384362      8192000 
  342000   0.69395169   -5.0334202   -5.0334202    -3.992493 0.0081202644   -5.0334202    1.0409273      8192000 
  343000   0.69618315   -5.0376948   -5.0376948   -3.9934204  0.019902946   -5.0376948    1.0442745      8192000 
  344000     0.696897   -5.0399488   -5.0399488   -3.9946035  0.029078678   -5.0399488    1.0453452      8192000 
  345000   0.69747587   -5.0419595   -5.0419595    -3.995746  0.031322707   -5.0419595    1.0462135      8192000 
  346000   0.69711979    -5.042444    -5.042444   -3.9967646  0.029359156    -5.042444    1.0456794      8192000 
  347000   0.69536029   -5.0404422   -5.0404422    -3.997402   0.02330471   -5.0404422    1.0430402      8192000 
  348000    0.6934666   -5.0384452   -5.0384452   -3.9982455  0.011935963   -5.0384452    1.0401996      8192000 
  349000   0.69190584   -5.0369671   -5.0369671   -3.9991086 -0.0020729438   -5.0369671    1.0378585      8192000 
  350000   0.68980986   -5.0341234   -5.0341234   -3.9994088 -0.010537264   -5.0341234    1.0347145      8192000 
  351000   0.68809224   -5.0322489   -5.0322489   -4.0001108 -0.017550708   -5.0322489    1.0321381      8192000 
  352000   0.68787604   -5.0324004   -5.0324004   -4.0005866 -0.020091995   -5.0324004    1.0318138      8192000 
  353000   0.68820542   -5.0337957   -5.0337957   -4.0014878 -0.017509053   -5.0337957    1.0323079      8192000 
  354000   0.68974285   -5.0366993   -5.0366993   -4.0020853 -0.0096123387   -5.0366993     1.034614      8192000 
  355000   0.69104857   -5.0393711   -5.0393711   -4.0027986 0.0021721575   -5.0393711    1.0365726      8192000 
  356000   0.69300106   -5.0432167   -5.0432167   -4.0037154  0.011950752   -5.0432167    1.0395013      8192000 
  357000   0.69427915   -5.0459934   -5.0459934   -4.0045749  0.024048901   -5.0459934    1.0414185      8192000 
  358000   0.69476712   -5.0480133   -5.0480133   -4.0058629  0.029324083   -5.0480133    1.0421504      8192000 
  359000   0.69496994    -5.049343    -5.049343   -4.0068884  0.030665988    -5.049343    1.0424547      8192000 
  360000   0.69419728   -5.0490225   -5.0490225   -4.0077268  0.028588812   -5.0490225    1.0412957      8192000 
  361000    0.6928395   -5.0477622   -5.0477622   -4.0085032  0.019762623   -5.0477622     1.039259      8192000 
  362000   0.69129518   -5.0463288   -5.0463288   -4.0093863 0.0084849807   -5.0463288    1.0369425      8192000 
  363000   0.68940288   -5.0438555   -5.0438555   -4.0097515 -0.00090536281   -5.0438555    1.0341041      8192000 
  364000   0.68812944    -5.042169    -5.042169   -4.0099751 -0.0098563836    -5.042169    1.0321939      8192000 
  365000   0.68741698   -5.0416085   -5.0416085   -4.0104833  -0.01534498   -5.0416085    1.0311252      8192000 
  366000   0.68669449    -5.041304    -5.041304   -4.0112625 -0.015227074    -5.041304    1.0300415      8192000 
  367000   0.68744817   -5.0432813   -5.0432813   -4.0121093 -0.013539683   -5.0432813     1.031172      8192000 
  368000    0.6884814    -5.045651    -5.045651   -4.0129291 -0.0050489386    -5.045651    1.0327218      8192000 
  369000   0.68984575   -5.0484635   -5.0484635   -4.0136951 0.0064825425   -5.0484635    1.0347684      8192000 
  370000   0.69171482   -5.0520668   -5.0520668   -4.0144949  0.015474832   -5.0520668     1.037572      8192000 
  371000   0.69240011   -5.0540557   -5.0540557   -4.0154558  0.024962947   -5.0540557    1.0385999      8192000 
  372000    0.6930264   -5.0557798   -5.0557798   -4.0162405  0.028404544   -5.0557798    1.0395393      8192000 
  373000   0.69305507   -5.0570198   -5.0570198   -4.0174375   0.02666171   -5.0570198    1.0395823      8192000 
  374000   0.69242195   -5.0563803   -5.0563803   -4.0177476  0.022754572   -5.0563803    1.0386327      8192000 
  375000   0.69099931   -5.0545209   -5.0545209   -4.0180222  0.016609605   -5.0545209    1.0364987      8192000 
  376000   0.68933689    -5.052731    -5.052731   -4.0187259 0.0060599161    -5.052731    1.0340051      8192000 
  377000   0.68775375   -5.0511477   -5.0511477   -4.0195173 -0.0045855021   -5.0511477    1.0316304      8192000 
  378000   0.68645356   -5.0497015   -5.0497015   -4.0200215 -0.010391126   -5.0497015    1.0296801      8192000 
  379000   0.68580509   -5.0494954   -5.0494954   -4.0207881 -0.012259332   -5.0494954    1.0287074      8192000 
  380000   0.68568277   -5.0498355   -5.0498355   -4.0213116 -0.012898359   -5.0498355    1.0285239      8192000 
  381000   0.68654173   -5.0514984   -5.0514984   -4.0216861 -0.0075775808   -5.0514984    1.0298123      8192000 
  382000   0.68816768   -5.0547062   -5.0547062   -4.0224549 0.00015913313   -5.0547062    1.0322513      8192000 
  383000     0.689101   -5.0567923   -5.0567923   -4.0231411 0.0098600139   -5.0567923    1.0336512      8192000 
  384000    0.6905303   -5.0598917   -5.0598917   -4.0240965  0.020031253   -5.0598917    1.0357952      8192000 
  385000   0.69149763   -5.0622157   -5.0622157   -4.0249695  0.025319284   -5.0622157    1.0372462      8192000 
  386000   0.69151638    -5.063042    -5.063042   -4.0257677  0.028021013    -5.063042    1.0372743      8192000 
  387000   0.69099625    -5.063199    -5.063199   -4.0267049  0.025852849    -5.063199    1.0364941      8192000 
  388000   0.69025494   -5.0626715   -5.0626715   -4.0272894  0.020043676   -5.0626715    1.0353822      8192000 
  389000   0.68875655   -5.0611986   -5.0611986    -4.028064  0.014019391   -5.0611986    1.0331346      8192000 
  390000    0.6873018     -5.05957     -5.05957   -4.0286176 0.0030431966     -5.05957    1.0309524      8192000 
  391000   0.68603344   -5.0576324   -5.0576324   -4.0285825 -0.0042372133   -5.0576324    1.0290499      8192000 
  392000    0.6852401   -5.0571415   -5.0571415   -4.0292816 -0.0091198104   -5.0571415    1.0278599      8192000 
  393000   0.68515186   -5.0574029   -5.0574029   -4.0296753 -0.011797946   -5.0574029    1.0277275      8192000 
  394000   0.68519499   -5.0580683   -5.0580683   -4.0302761 -0.0086458459   -5.0580683    1.0277922      8192000 
  395000    0.6863025   -5.0600262   -5.0600262   -4.0305727 -0.0023039261   -5.0600262    1.0294535      8192000 
  396000   0.68699504   -5.0619642   -5.0619642   -4.0314719 0.0061816323   -5.0619642    1.0304923      8192000 
  397000   0.68832233   -5.0644707   -5.0644707   -4.0319875  0.015375913   -5.0644707    1.0324832      8192000 
  398000   0.68930662   -5.0668218   -5.0668218   -4.0328621  0.020550657   -5.0668218    1.0339597      8192000 
  399000   0.68952509   -5.0682467   -5.0682467   -4.0339593  0.024841876   -5.0682467    1.0342874      8192000 
  400000   0.68977022   -5.0691047   -5.0691047   -4.0344496  0.023616751   -5.0691047    1.0346551      8192000 
  401000   0.68876087   -5.0681761   -5.0681761    -4.035035  0.022711806   -5.0681761     1.033141      8192000 
  402000   0.68830924   -5.0680843   -5.0680843   -4.0356207  0.014410935   -5.0680843    1.0324636      8192000 
  403000   0.68693307   -5.0665288   -5.0665288   -4.0361294 0.0065982492   -5.0665288    1.0303994      8192000 
  404000    0.6854193    -5.064571    -5.064571   -4.0364423 0.0022569701    -5.064571    1.0281287      8192000 
  405000   0.68451992   -5.0637536   -5.0637536    -4.036974 -0.0035913457   -5.0637536    1.0267796      8192000 
  406000   0.68395775    -5.063286    -5.063286   -4.0373496 -0.0070631692    -5.063286    1.0259364      8192000 
  407000   0.68413647   -5.0639025   -5.0639025    -4.037698 -0.005042093   -5.0639025    1.0262044      8192000 
  408000   0.68498958   -5.0657534   -5.0657534   -4.0382693 -0.0022916435   -5.0657534    1.0274841      8192000 
  409000   0.68535435   -5.0669535   -5.0669535   -4.0389222 0.0036721174   -5.0669535    1.0280313      8192000 
  410000   0.68650521   -5.0693107   -5.0693107   -4.0395532  0.010930146   -5.0693107    1.0297576      8192000 
  411000    0.6873624   -5.0711966   -5.0711966   -4.0401532  0.018373512   -5.0711966    1.0310433      8192000 
  412000   0.68821436   -5.0732108   -5.0732108   -4.0408895  0.020980642   -5.0732108    1.0323213      8192000 
  413000   0.68837768   -5.0740026   -5.0740026   -4.0414364  0.023225385   -5.0740026    1.0325663      8192000 
  414000   0.68829351   -5.0745241   -5.0745241   -4.0420841  0.020628948   -5.0745241      1.03244      8192000 
  415000   0.68731818   -5.0738956   -5.0738956   -4.0429186  0.016607602   -5.0738956     1.030977      8192000 
  416000   0.68594992   -5.0724395   -5.0724395   -4.0435149  0.011142194   -5.0724395    1.0289246      8192000 
  417000    0.6851634   -5.0716856   -5.0716856   -4.0439407 0.0044916652   -5.0716856    1.0277448      8192000 
  418000     0.684118   -5.0703949   -5.0703949   -4.0442182 -0.00018717399   -5.0703949    1.0261767      8192000 
  419000   0.68360259   -5.0701147   -5.0701147   -4.0447111 -0.0052236464   -5.0701147    1.0254036      8192000 
  420000   0.68305136   -5.0696205   -5.0696205   -4.0450437 -0.004421279   -5.0696205    1.0245768      8192000 
  421000   0.68340918    -5.070551    -5.070551   -4.0454375 -0.0023857407    -5.070551    1.0251135      8192000 
  422000   0.68406709    -5.071577    -5.071577   -4.0454766 0.0028997732    -5.071577    1.0261004      8192000 
  423000   0.68507809   -5.0735593   -5.0735593   -4.0459424 0.0087082134   -5.0735593    1.0276169      8192000 
  424000   0.68583163   -5.0754636   -5.0754636   -4.0467164  0.016144385   -5.0754636    1.0287472      8192000 
  425000   0.68664208   -5.0773203   -5.0773203   -4.0473574  0.018599009   -5.0773203    1.0299629      8192000 
  426000    0.6865593   -5.0779966   -5.0779966   -4.0481579  0.022657756   -5.0779966    1.0298387      8192000 
  427000   0.68631864   -5.0780696   -5.0780696   -4.0485919  0.023216575   -5.0780696    1.0294777      8192000 
  428000   0.68592038   -5.0779137   -5.0779137   -4.0490334  0.018722238   -5.0779137    1.0288803      8192000 
  429000   0.68552875   -5.0776867   -5.0776867   -4.0493938  0.015094784   -5.0776867    1.0282929      8192000 
  430000   0.68457496   -5.0769508   -5.0769508   -4.0500887 0.0077118993   -5.0769508    1.0268622      8192000 
  431000   0.68338155   -5.0753893   -5.0753893   -4.0503173 0.0032150005   -5.0753893    1.0250721      8192000 
  432000    0.6826532   -5.0746358   -5.0746358   -4.0506563 0.00097871811   -5.0746358    1.0239795      8192000 
  433000   0.68249627   -5.0750479   -5.0750479   -4.0513037 -0.0018869568   -5.0750479    1.0237441      8192000 
  434000   0.68259565   -5.0754156   -5.0754156   -4.0515224 5.5763342e-05   -5.0754156    1.0238932      8192000 
  435000   0.68347817   -5.0768679   -5.0768679   -4.0516509 0.0022554257   -5.0768679     1.025217      8192000 
  436000   0.68385838   -5.0783465   -5.0783465   -4.0525592 0.0063435493   -5.0783465    1.0257873      8192000 
  437000   0.68455509   -5.0798741   -5.0798741   -4.0530417  0.012819263   -5.0798741    1.0268324      8192000 
  438000   0.68486386   -5.0807401   -5.0807401   -4.0534445  0.017680917   -5.0807401    1.0272955      8192000 
  439000   0.68536635   -5.0821479   -5.0821479   -4.0540986  0.021181491   -5.0821479    1.0280493      8192000 
  440000   0.68539125   -5.0828059   -5.0828059   -4.0547193  0.020674251   -5.0828059    1.0280866      8192000 
  441000   0.68525744   -5.0826857   -5.0826857   -4.0547998  0.021810298   -5.0826857    1.0278859      8192000 
  442000   0.68434686   -5.0816195   -5.0816195   -4.0550994  0.017702484   -5.0816195      1.02652      8192000 
  443000   0.68371913    -5.081151    -5.081151   -4.0555726  0.010500052    -5.081151    1.0255784      8192000 
  444000   0.68317703   -5.0806542   -5.0806542   -4.0558889 0.0054619141   -5.0806542    1.0247653      8192000 
  445000   0.68226999   -5.0800167   -5.0800167    -4.056612 0.0015392956   -5.0800167    1.0234047      8192000 
  446000   0.68178099    -5.079447    -5.079447   -4.0567757 -0.0015317479    -5.079447    1.0226712      8192000 
  447000   0.68164609   -5.0793926   -5.0793926   -4.0569237 -0.00067255778   -5.0793926    1.0224689      8192000 
  448000   0.68191154   -5.0800935   -5.0800935   -4.0572264 0.0033910918   -5.0800935     1.022867      8192000 
  449000   0.68275849   -5.0819213   -5.0819213   -4.0577838 0.0074086139   -5.0819213    1.0241375      8192000 
  450000   0.68340694   -5.0832433   -5.0832433   -4.0581332  0.012964324   -5.0832433    1.0251102      8192000 
  451000   0.68420796   -5.0850263   -5.0850263   -4.0587146  0.017143527   -5.0850263    1.0263117      8192000 
  452000    0.6841477   -5.0853747   -5.0853747   -4.0591534  0.020246385   -5.0853747    1.0262213      8192000 
  453000   0.68492748   -5.0869543   -5.0869543   -4.0595633  0.019877281   -5.0869543     1.027391      8192000 
  454000   0.68440607    -5.086717    -5.086717   -4.0601081  0.021054592    -5.086717    1.0266089      8192000 
  455000   0.68406303    -5.086486    -5.086486   -4.0603917  0.017086212    -5.086486    1.0260943      8192000 
  456000   0.68336983   -5.0858842   -5.0858842   -4.0608297  0.013154378   -5.0858842    1.0250545      8192000 
  457000    0.6825398   -5.0848734   -5.0848734    -4.061064 0.0080196752   -5.0848734    1.0238094      8192000 
  458000    0.6818237   -5.0839907   -5.0839907   -4.0612554 0.0053591853   -5.0839907    1.0227353      8192000 
  459000   0.68138979   -5.0836374   -5.0836374   -4.0615529 0.0037642135   -5.0836374    1.0220844      8192000 
  460000   0.68118262   -5.0834195   -5.0834195   -4.0616459 0.00073401811   -5.0834195    1.0217737      8192000 
  461000   0.68107217   -5.0838847   -5.0838847   -4.0622767 0.0029637341   -5.0838847     1.021608      8192000 
  462000    0.6813036    -5.084853    -5.084853   -4.0628979 0.0051894275    -5.084853    1.0219551      8192000 
  463000   0.68191293   -5.0861571   -5.0861571   -4.0632879  0.010006149   -5.0861571    1.0228691      8192000 
  464000   0.68251608   -5.0876104   -5.0876104   -4.0638365  0.013532223   -5.0876104    1.0237739      8192000 
  465000   0.68292058   -5.0881105   -5.0881105   -4.0637299  0.018344296   -5.0881105    1.0243806      8192000 
  466000   0.68335637   -5.0894458   -5.0894458   -4.0644115  0.019491803   -5.0894458    1.0250343      8192000 
  467000   0.68323582   -5.0892533   -5.0892533   -4.0643998  0.022049647   -5.0892533    1.0248535      8192000 
  468000     0.683128   -5.0893933   -5.0893933   -4.0647015  0.018472525   -5.0893933    1.0246917      8192000 
  469000   0.68243203   -5.0887331   -5.0887331   -4.0650853  0.016441917   -5.0887331    1.0236478      8192000 
  470000   0.68169409   -5.0876652   -5.0876652   -4.0651243  0.013336721   -5.0876652    1.0225409      8192000 
  471000   0.68117516    -5.087228    -5.087228   -4.0654655 0.0063746392    -5.087228    1.0217625      8192000 
  472000   0.68048478   -5.0863842   -5.0863842   -4.0656573 0.0049847727   -5.0863842    1.0207269      8192000 
  473000   0.68015066   -5.0862891   -5.0862891   -4.0660633 0.0031824555   -5.0862891    1.0202257      8192000 
  474000   0.68030864   -5.0863996   -5.0863996   -4.0659369 0.0027437182   -5.0863996    1.0204627      8192000 
  475000   0.68043702   -5.0867804   -5.0867804   -4.0661251 0.0060047855   -5.0867804    1.0206553      8192000 
  476000     0.681035   -5.0879825   -5.0879825   -4.0664302 0.0094826914   -5.0879825    1.0215522      8192000 
  477000   0.68149938   -5.0890786   -5.0890786   -4.0668298  0.011086386   -5.0890786    1.0222488      8192000 
  478000   0.68196914   -5.0901555   -5.0901555    -4.067202  0.016513856   -5.0901555    1.0229535      8192000 
  479000    0.6820647   -5.0904533   -5.0904533   -4.0673565  0.020959462   -5.0904533    1.0230968      8192000 
  480000   0.68234997   -5.0908621   -5.0908621   -4.0673374  0.020226404   -5.0908621    1.0235247      8192000 
  481000   0.68226251   -5.0912793   -5.0912793   -4.0678858  0.019614732   -5.0912793    1.0233935      8192000 
  482000    0.6816227   -5.0905753   -5.0905753   -4.0681415  0.016710638   -5.0905753    1.0224338      8192000 
  483000   0.68157101   -5.0906005   -5.0906005   -4.0682442  0.011518946   -5.0906005    1.0223563      8192000 
  484000   0.68053948   -5.0890917   -5.0890917   -4.0682827  0.010387532   -5.0890917     1.020809      8192000 
  485000   0.67983611   -5.0880378   -5.0880378   -4.0682839 0.0063396259   -5.0880378    1.0197539      8192000 
  486000   0.67978179   -5.0878482   -5.0878482   -4.0681757 0.0037270552   -5.0878482    1.0196724      8192000 
  487000   0.67961324   -5.0879222   -5.0879222   -4.0685026 0.0055127768   -5.0879222    1.0194196      8192000 
  488000   0.67964155    -5.088398    -5.088398   -4.0689359 0.0041936265    -5.088398    1.0194621      8192000 
  489000    0.6797694   -5.0889779   -5.0889779    -4.069324 0.0069932088   -5.0889779    1.0196538      8192000 
  490000   0.68042287   -5.0899977   -5.0899977   -4.0693636 0.0099234944   -5.0899977    1.0206341      8192000 
  491000    0.6806078   -5.0908795   -5.0908795   -4.0699681  0.014848058   -5.0908795    1.0209115      8192000 
  492000   0.68103869   -5.0919584   -5.0919584   -4.0704007  0.017739866   -5.0919584    1.0215578      8192000 
  493000    0.6813053   -5.0923907   -5.0923907    -4.070433  0.020417633   -5.0923907    1.0219577      8192000 
  494000   0.68150989   -5.0931703   -5.0931703   -4.0709057  0.020946371   -5.0931703    1.0222646      8192000 
  495000   0.68097366   -5.0925528   -5.0925528   -4.0710926  0.019510748   -5.0925528    1.0214602      8192000 
  496000   0.68098389   -5.0927736   -5.0927736    -4.071298  0.015040976   -5.0927736    1.0214756      8192000 
  497000   0.67983291   -5.0909575   -5.0909575   -4.0712084  0.013186586   -5.0909575    1.0197491      8192000 
  498000   0.67943373   -5.0904145   -5.0904145   -4.0712641  0.011115598   -5.0904145    1.0191503      8192000 
  499000   0.67882107   -5.0898081   -5.0898081   -4.0715768 0.0070154829   -5.0898081    1.0182313      8192000 
  500000   0.67844649   -5.0892878   -5.0892878   -4.0716183 0.0052706568   -5.0892878    1.0176695      8192000 
  501000   0.67881873   -5.0898794   -5.0898794   -4.0716515 0.0053390196   -5.0898794    1.0182278      8192000 
  502000   0.67864907   -5.0896939   -5.0896939   -4.0717206 0.0068035072   -5.0896939    1.0179733      8192000 
  503000   0.67944236   -5.0906239   -5.0906239   -4.0714607  0.010489824   -5.0906239    1.0191633      8192000 
  504000   0.68000115     -5.09147     -5.09147   -4.0714685  0.013350375     -5.09147    1.0200015      8192000 
  505000   0.68010733   -5.0920801   -5.0920801   -4.0719193  0.016751089   -5.0920801    1.0201607      8192000 
  506000   0.68050464   -5.0928829   -5.0928829   -4.0721262  0.018049647   -5.0928829    1.0207567      8192000 
  507000   0.68047561   -5.0928664   -5.0928664   -4.0721533  0.019551651   -5.0928664    1.0207132      8192000 
  508000    0.6806697   -5.0936306   -5.0936306   -4.0726263  0.019014937   -5.0936306    1.0210043      8192000 
  509000    0.6796839   -5.0924245   -5.0924245   -4.0728989  0.017863154   -5.0924245    1.0195256      8192000 
  510000   0.67945764   -5.0919255   -5.0919255   -4.0727393  0.015010807   -5.0919255    1.0191862      8192000 
  511000   0.67872447   -5.0906728   -5.0906728   -4.0725863  0.014013191   -5.0906728    1.0180865      8192000 
  512000   0.67870315   -5.0910373   -5.0910373   -4.0729828 0.0094621676   -5.0910373    1.0180545      8192000 
  513000   0.67849184   -5.0904636   -5.0904636   -4.0727261 0.0067303535   -5.0904636    1.0177375      8192000 
  514000   0.67841475    -5.090517    -5.090517   -4.0728951 0.0052607459    -5.090517    1.0176219      8192000 
  515000   0.67798782   -5.0896144   -5.0896144   -4.0726329 0.0086626649   -5.0896144    1.0169815      8192000 
  516000   0.67850408    -5.090813    -5.090813   -4.0730571 0.0095775857    -5.090813    1.0177559      8192000 
  517000   0.67906717   -5.0917001   -5.0917001   -4.0730996  0.013337052   -5.0917001    1.0186005      8192000 
  518000   0.67949304   -5.0921388   -5.0921388   -4.0728995  0.015523696   -5.0921388    1.0192393      8192000 
  519000   0.67940354   -5.0923553   -5.0923553   -4.0732503  0.016575026   -5.0923553     1.019105      8192000 
  520000   0.67981176   -5.0932268   -5.0932268   -4.0735094  0.018733437   -5.0932268    1.0197174      8192000 
  521000   0.67998743   -5.0935577   -5.0935577   -4.0735768   0.01910987   -5.0935577    1.0199809      8192000 
  522000   0.67958984   -5.0929195   -5.0929195    -4.073535  0.016747502   -5.0929195    1.0193845      8192000 
  523000   0.67954691   -5.0926046   -5.0926046   -4.0732845  0.015818412   -5.0926046    1.0193201      8192000 
  524000   0.67851946   -5.0916307   -5.0916307   -4.0738517  0.013738259   -5.0916307    1.0177789      8192000 
  525000   0.67845335   -5.0909957   -5.0909957    -4.073316  0.010494114   -5.0909957    1.0176798      8192000 
  526000    0.6782795   -5.0906203   -5.0906203   -4.0732013 0.0094322624   -5.0906203     1.017419      8192000 
  527000   0.67821401   -5.0906673   -5.0906673   -4.0733465 0.0079262533   -5.0906673    1.0173208      8192000 
  528000   0.67794746   -5.0901393   -5.0901393   -4.0732184 0.0084249387   -5.0901393    1.0169209      8192000 
  529000   0.67784325   -5.0900164   -5.0900164   -4.0732518 0.0096988916   -5.0900164    1.0167646      8192000 
  530000   0.67818079   -5.0906334   -5.0906334   -4.0733624   0.01080644   -5.0906334    1.0172709      8192000 
  531000   0.67879358   -5.0916749   -5.0916749   -4.0734848  0.012506684   -5.0916749    1.0181901      8192000 
  532000   0.67846884   -5.0911724   -5.0911724   -4.0734694  0.017964167   -5.0911724     1.017703      8192000 
  533000   0.67936134   -5.0926929   -5.0926929   -4.0736512  0.017194318   -5.0926929    1.0190418      8192000 
  534000   0.67887939   -5.0918385   -5.0918385   -4.0735197  0.018564789   -5.0918385    1.0183188      8192000 
  535000   0.67895096   -5.0918505   -5.0918505   -4.0734243  0.019600315   -5.0918505    1.0184262      8192000 
  536000   0.67901083   -5.0921652   -5.0921652   -4.0736492  0.017024114   -5.0921652     1.018516      8192000 
  537000   0.67875442   -5.0917712   -5.0917712   -4.0736398  0.016991731   -5.0917712    1.0181314      8192000 
  538000   0.67831153   -5.0911765   -5.0911765   -4.0737095  0.012808811   -5.0911765     1.017467      8192000 
  539000   0.67764524   -5.0899208   -5.0899208   -4.0734532  0.012667545   -5.0899208    1.0164676      8192000 
  540000    0.6776718    -5.089471    -5.089471   -4.0729636  0.011880713    -5.089471    1.0165074      8192000 
  541000   0.67747979   -5.0894001   -5.0894001   -4.0731807  0.010137738   -5.0894001    1.0162194      8192000 
  542000   0.67734211   -5.0890646   -5.0890646   -4.0730517  0.010817011   -5.0890646    1.0160129      8192000 
  543000   0.67753565   -5.0892102   -5.0892102   -4.0729069  0.010869842   -5.0892102    1.0163032      8192000 
  544000   0.67756567   -5.0893287   -5.0893287   -4.0729805    0.0108165   -5.0893287    1.0163482      8192000 
  545000    0.6785191   -5.0907598   -5.0907598   -4.0729814  0.011800922   -5.0907598    1.0177784      8192000 
  546000   0.67814515   -5.0899678   -5.0899678   -4.0727503  0.016868178   -5.0899678    1.0172175      8192000 
  547000   0.67833836   -5.0898844   -5.0898844   -4.0723772  0.018062978   -5.0898844    1.0175073      8192000 
  548000   0.67821186   -5.0898036   -5.0898036   -4.0724861  0.018803405   -5.0898036    1.0173175      8192000 
  549000   0.67862107   -5.0903448   -5.0903448   -4.0724135   0.01692448   -5.0903448    1.0179314      8192000 
  550000   0.67852713   -5.0902187   -5.0902187   -4.0724283  0.015650792   -5.0902187    1.0177904      8192000 
  551000   0.67775459   -5.0891023   -5.0891023   -4.0724707  0.016595218   -5.0891023    1.0166316      8192000 
  552000   0.67741133   -5.0884166   -5.0884166   -4.0722998  0.014263414   -5.0884166    1.0161167      8192000 
  553000     0.677201   -5.0879799   -5.0879799   -4.0721787 0.0098442868   -5.0879799    1.0158013      8192000 
  554000   0.67693099   -5.0875553   -5.0875553   -4.0721591 0.0093950704   -5.0875553    1.0153962      8192000 
  555000   0.67707452   -5.0873077   -5.0873077   -4.0716962 0.0091178751   -5.0873077    1.0156115      8192000 
  556000   0.67704681   -5.0870117   -5.0870117   -4.0714417   0.01117177   -5.0870117      1.01557      8192000 
  557000   0.67713108   -5.0867283   -5.0867283   -4.0710319  0.012002985   -5.0867283    1.0156964      8192000 
  558000   0.67726169   -5.0868729   -5.0868729   -4.0709806  0.014489791   -5.0868729    1.0158923      8192000 
  559000   0.67754162   -5.0869085   -5.0869085   -4.0705963  0.016285749   -5.0869085    1.0163122      8192000 
  560000   0.67778427   -5.0871252   -5.0871252    -4.070449  0.016593196   -5.0871252    1.0166761      8192000 
  561000    0.6773034   -5.0865269   -5.0865269   -4.0705721  0.018531193   -5.0865269    1.0159548      8192000 
  562000   0.67773944   -5.0867204   -5.0867204   -4.0701115  0.018135479   -5.0867204    1.0166089      8192000 
  563000   0.67752057   -5.0864854   -5.0864854   -4.0702048  0.016335045   -5.0864854    1.0162806      8192000 
  564000   0.67739323   -5.0859724   -5.0859724   -4.0698828  0.013891795   -5.0859724    1.0160896      8192000 
  565000   0.67729276   -5.0854127   -5.0854127   -4.0694738  0.014050032   -5.0854127    1.0159389      8192000 
  566000   0.67651128   -5.0839526   -5.0839526    -4.069186  0.012604773   -5.0839526    1.0147667      8192000 
  567000   0.67671799   -5.0843275   -5.0843275   -4.0692508    0.0102137   -5.0843275    1.0150767      8192000 
  568000   0.67643796    -5.083644    -5.083644   -4.0689873  0.011477286    -5.083644    1.0146567      8192000 
  569000   0.67680933   -5.0835486   -5.0835486   -4.0683348 0.0096047917   -5.0835486    1.0152137      8192000 
  570000    0.6770115   -5.0835573   -5.0835573   -4.0680403  0.010038913   -5.0835573     1.015517      8192000 
  571000   0.67700484   -5.0828293   -5.0828293   -4.0673223  0.016340723   -5.0828293     1.015507      8192000 
  572000     0.677363   -5.0833769   -5.0833769   -4.0673326  0.014069426   -5.0833769    1.0160442      8192000 
  573000   0.67712031   -5.0827061   -5.0827061   -4.0670259  0.016838577   -5.0827061    1.0156802      8192000 
  574000   0.67732422   -5.0831824   -5.0831824   -4.0671963  0.017765203   -5.0831824    1.0159861      8192000 
  575000   0.67715644   -5.0823675   -5.0823675   -4.0666331  0.017348695   -5.0823675    1.0157344      8192000 
  576000   0.67730475   -5.0823978   -5.0823978    -4.066441  0.015322943   -5.0823978    1.0159569      8192000 
  577000   0.67703598   -5.0814614   -5.0814614   -4.0659076  0.016222453   -5.0814614    1.0155537      8192000 
  578000   0.67686794   -5.0807964   -5.0807964   -4.0654947  0.013227796   -5.0807964    1.0153016      8192000 
  579000   0.67659291   -5.0800373   -5.0800373   -4.0651481  0.012850454   -5.0800373    1.0148891      8192000 
  580000   0.67635856   -5.0792249   -5.0792249   -4.0646873  0.012158484   -5.0792249    1.0145376      8192000 
  581000   0.67598528   -5.0783361   -5.0783361   -4.0643584   0.01039702   -5.0783361    1.0139777      8192000 
  582000   0.67658823   -5.0787117   -5.0787117   -4.0638296  0.010175495   -5.0787117    1.0148821      8192000 
  583000    0.6762897   -5.0781153   -5.0781153    -4.063681  0.013279092   -5.0781153    1.0144343      8192000 
  584000     0.676267   -5.0777186   -5.0777186   -4.0633183  0.012949246   -5.0777186    1.0144002      8192000 
  585000   0.67694614   -5.0781595   -5.0781595   -4.0627406  0.012326963   -5.0781595     1.015419      8192000 
  586000   0.67706899   -5.0780381   -5.0780381   -4.0624349  0.015134023   -5.0780381    1.0156032      8192000 
  587000   0.67682129   -5.0773326   -5.0773326    -4.062101  0.016066947   -5.0773326    1.0152317      8192000 
  588000   0.67727557   -5.0774421   -5.0774421    -4.061529  0.015488756   -5.0774421    1.0159131      8192000 
  589000   0.67698662    -5.076901    -5.076901   -4.0614213  0.015637242    -5.076901    1.0154797      8192000 
  590000   0.67669491   -5.0763493   -5.0763493   -4.0613072   0.01490022   -5.0763493    1.0150421      8192000 
  591000   0.67708698   -5.0765557   -5.0765557   -4.0609255  0.012394968   -5.0765557    1.0156302      8192000 
  592000   0.67660064   -5.0757893   -5.0757893   -4.0608886  0.011490279   -5.0757893    1.0149007      8192000 
  593000   0.67658275    -5.075089    -5.075089   -4.0602152  0.011979841    -5.075089    1.0148739      8192000 
  594000   0.67606181   -5.0737003   -5.0737003   -4.0596079  0.011788781   -5.0737003    1.0140925      8192000 
  595000   0.67603888   -5.0731742   -5.0731742   -4.0591161  0.012645535   -5.0731742    1.0140581      8192000 
  596000   0.67602967    -5.072519    -5.072519   -4.0584748  0.013464725    -5.072519    1.0140443      8192000 
  597000   0.67627775   -5.0722727   -5.0722727   -4.0578564  0.012466188   -5.0722727    1.0144164      8192000 
  598000   0.67662935   -5.0724737   -5.0724737     -4.05753   0.01222523   -5.0724737    1.0149438      8192000 
  599000   0.67601688   -5.0708306   -5.0708306   -4.0568056  0.015104587   -5.0708306    1.0140251      8192000 
  600000   0.67641018   -5.0709219   -5.0709219   -4.0563069  0.014513876   -5.0709219     1.014615      8192000 
  601000   0.67660158   -5.0709357   -5.0709357   -4.0560336  0.013762058   -5.0709357    1.0149021      8192000 
  602000     0.676493   -5.0700968   -5.0700968   -4.0553575  0.013958267   -5.0700968    1.0147392      8192000 
  603000   0.67612803   -5.0689102   -5.0689102   -4.0547184  0.014385792   -5.0689102    1.0141918      8192000 
  604000   0.67617666   -5.0682581   -5.0682581   -4.0539934  0.012789403   -5.0682581    1.0142647      8192000 
  605000   0.67672239   -5.0686376   -5.0686376   -4.0535543  0.011253612   -5.0686376    1.0150833      8192000 
  606000   0.67644875   -5.0675275   -5.0675275   -4.0528546  0.011130359   -5.0675275    1.0146729      8192000 
  607000   0.67582033   -5.0658772   -5.0658772   -4.0521469  0.013518388   -5.0658772    1.0137302      8192000 
  608000   0.67620013   -5.0659862   -5.0659862   -4.0516862  0.010563234   -5.0659862    1.0142999      8192000 
  609000   0.67639201   -5.0655898   -5.0655898    -4.051002  0.011168744   -5.0655898    1.0145878      8192000 
  610000   0.67582566   -5.0641102   -5.0641102   -4.0503719  0.011613825   -5.0641102    1.0137382      8192000 
  611000   0.67602903   -5.0635174   -5.0635174   -4.0494741  0.013184734   -5.0635174    1.0140433      8192000 
  612000   0.67628878   -5.0630055   -5.0630055   -4.0485726  0.012494487   -5.0630055    1.0144329      8192000 
  613000   0.67616244   -5.0620628   -5.0620628   -4.0478193  0.013365668   -5.0620628    1.0142434      8192000 
  614000   0.67630639   -5.0616957   -5.0616957   -4.0472363  0.011985082   -5.0616957    1.0144593      8192000 
  615000   0.67611842   -5.0609586   -5.0609586   -4.0467812  0.012200146   -5.0609586    1.0141774      8192000 
  616000   0.67571248    -5.059528    -5.059528   -4.0459595  0.011878887    -5.059528    1.0135685      8192000 
  617000   0.67602246   -5.0596663   -5.0596663   -4.0456329   0.01141032   -5.0596663    1.0140334      8192000 
  618000   0.67608745   -5.0588024   -5.0588024   -4.0446715  0.010933304   -5.0588024    1.0141309      8192000 
  619000     0.675805   -5.0574957   -5.0574957   -4.0437884   0.01010131   -5.0574957    1.0137072      8192000 
  620000   0.67594662    -5.056759    -5.056759   -4.0428393   0.01169819    -5.056759    1.0139197      8192000 
  621000   0.67591781    -5.056173    -5.056173   -4.0422966 0.0093396221    -5.056173    1.0138765      8192000 
  622000   0.67581069   -5.0547861   -5.0547861   -4.0410703  0.011753559   -5.0547861    1.0137158      8192000 
  623000   0.67591289   -5.0544107   -5.0544107   -4.0405416  0.012144229   -5.0544107    1.0138691      8192000 
  624000   0.67639456   -5.0542419   -5.0542419   -4.0396503   0.01086434   -5.0542419    1.0145916      8192000 
  625000   0.67593748   -5.0529181   -5.0529181   -4.0390121  0.011214822   -5.0529181     1.013906      8192000 
  626000   0.67627167   -5.0523258   -5.0523258   -4.0379186  0.011781827   -5.0523258    1.0144073      8192000 
  627000   0.67545807   -5.0507078   -5.0507078    -4.037521  0.012164717   -5.0507078    1.0131868      8192000 
  628000   0.67560318   -5.0503893   -5.0503893   -4.0369848  0.011937919   -5.0503893    1.0134045      8192000 
  629000   0.67597051   -5.0496849   -5.0496849   -4.0357294  0.012535986   -5.0496849    1.0139555      8192000 
  630000   0.67589821   -5.0486341   -5.0486341    -4.034787  0.011620562   -5.0486341    1.0138471      8192000 
  631000   0.67583942   -5.0474554   -5.0474554   -4.0336966  0.011029376   -5.0474554    1.0137589      8192000 
  632000   0.67581987   -5.0463935   -5.0463935    -4.032664  0.011175756   -5.0463935    1.0137296      8192000 
  633000   0.67550972   -5.0450339   -5.0450339   -4.0317696  0.010388087   -5.0450339    1.0132643      8192000 
  634000    0.6754144   -5.0437346   -5.0437346   -4.0306133  0.011440819   -5.0437346    1.0131213      8192000 
  635000   0.67561297   -5.0430004   -5.0430004   -4.0295812  0.010211531   -5.0430004    1.0134192      8192000 
  636000   0.67558371   -5.0418665   -5.0418665   -4.0284911  0.010006547   -5.0418665    1.0133753      8192000 
  637000   0.67529368   -5.0403395   -5.0403395   -4.0273993 0.0099372441   -5.0403395    1.0129403      8192000 
  638000   0.67571049   -5.0398518   -5.0398518   -4.0262863  0.010599134   -5.0398518    1.0135655      8192000 
  639000   0.67554082   -5.0387143   -5.0387143   -4.0254033  0.010045084   -5.0387143     1.013311      8192000 
  640000   0.67576775   -5.0374575   -5.0374575   -4.0238061  0.011515686   -5.0374575    1.0136514      8192000 
  641000   0.67570865   -5.0362843   -5.0362843   -4.0227216  0.011116887   -5.0362843    1.0135627      8192000 
  642000   0.67601208   -5.0358994   -5.0358994   -4.0218816  0.011168098   -5.0358994    1.0140179      8192000 
  643000   0.67551811   -5.0343088   -5.0343088   -4.0210319  0.011359717   -5.0343088    1.0132769      8192000 
  644000   0.67549694   -5.0337363   -5.0337363   -4.0204912 0.0096038996   -5.0337363    1.0132452      8192000 
  645000   0.67591024   -5.0332001   -5.0332001    -4.019335 0.0086406421   -5.0332001    1.0138651      8192000 
  646000   0.67530593   -5.0309689   -5.0309689   -4.0180102  0.011006343   -5.0309689    1.0129586      8192000 
  647000    0.6756837     -5.03017     -5.03017   -4.0166447   0.01046202     -5.03017    1.0135253      8192000 
  648000   0.67540265   -5.0287329   -5.0287329   -4.0156291  0.010935654   -5.0287329    1.0131037      8192000 
  649000   0.67585164   -5.0280282   -5.0280282    -4.014251 0.0086310867   -5.0280282    1.0137772      8192000 
  650000   0.67564243   -5.0262567   -5.0262567   -4.0127933  0.010322935   -5.0262567    1.0134634      8192000 
  651000   0.67572406   -5.0256764   -5.0256764   -4.0120906 0.0094593599   -5.0256764    1.0135858      8192000 
  652000   0.67565074   -5.0241183   -5.0241183   -4.0106424 0.0091549099   -5.0241183    1.0134758      8192000 
  653000   0.67571904   -5.0229593   -5.0229593    -4.009381 0.0093892801   -5.0229593    1.0135783      8192000 
  654000   0.67587678   -5.0217416   -5.0217416   -4.0079267 0.0096839433   -5.0217416    1.0138149      8192000 
  655000   0.67585116   -5.0204798   -5.0204798   -4.0067034  0.010579473   -5.0204798    1.0137765      8192000 
  656000   0.67559273   -5.0188558   -5.0188558    -4.005467  0.010731592   -5.0188558    1.0133888      8192000 
  657000   0.67570887   -5.0179296   -5.0179296   -4.0043665 0.0061316805   -5.0179296     1.013563      8192000 
  658000    0.6753315   -5.0158862   -5.0158862   -4.0028892  0.010073907   -5.0158862     1.012997      8192000 
  659000   0.67527734   -5.0145105   -5.0145105   -4.0015948   0.01103367   -5.0145105    1.0129158      8192000 
  660000   0.67559863   -5.0135064   -5.0135064   -4.0001087  0.008296725   -5.0135064    1.0133977      8192000 
  661000   0.67559836   -5.0120389   -5.0120389   -3.9986416  0.009784042   -5.0120389    1.0133973      8192000 
  662000   0.67545316   -5.0105649   -5.0105649   -3.9973854 0.0081385081   -5.0105649    1.0131795      8192000 
  663000   0.67558653   -5.0093916   -5.0093916    -3.996012 0.0079755089   -5.0093916    1.0133795      8192000 
  664000   0.67581141    -5.007953    -5.007953   -3.9942362 0.0093966026    -5.007953    1.0137169      8192000 
  665000   0.67577887   -5.0062507   -5.0062507   -3.9925826  0.010322501   -5.0062507    1.0136681      8192000 
  666000    0.6758932   -5.0047165   -5.0047165    -3.990877  0.010140341   -5.0047165    1.0138395      8192000 
  667000   0.67596182   -5.0037222   -5.0037222   -3.9897797 0.0099549709   -5.0037222    1.0139425      8192000 
  668000   0.67576182   -5.0023338   -5.0023338   -3.9886913 0.0094611343   -5.0023338    1.0136425      8192000 
  669000    0.6758158   -5.0004745   -5.0004745   -3.9867511 0.0056284984   -5.0004745    1.0137234      8192000 
  670000   0.67578009   -4.9990338   -4.9990338    -3.985364 0.0080932475   -4.9990338    1.0136699      8192000 
  671000   0.67577211    -4.997225    -4.997225   -3.9835671 0.0099327333    -4.997225    1.0136579      8192000 
  672000   0.67608246   -4.9960472   -4.9960472   -3.9819237 0.0085441927   -4.9960472    1.0141234      8192000 
  673000   0.67592209   -4.9941492   -4.9941492   -3.9802664 0.0082749121   -4.9941492    1.0138829      8192000 
  674000   0.67595243   -4.9928125   -4.9928125   -3.9788841  0.006720886   -4.9928125    1.0139284      8192000 
  675000   0.67575682   -4.9909182   -4.9909182   -3.9772832 0.0072414292   -4.9909182     1.013635      8192000 
  676000   0.67569151   -4.9894742   -4.9894742   -3.9759372 0.0073815876   -4.9894742     1.013537      8192000 
  677000   0.67535499   -4.9871378   -4.9871378   -3.9741056 0.0093222984   -4.9871378    1.0130322      8192000 
  678000    0.6761201   -4.9862415   -4.9862415   -3.9720616 0.0073403683   -4.9862415    1.0141799      8192000 
  679000   0.67601858   -4.9844675   -4.9844675   -3.9704399 0.0078689298   -4.9844675    1.0140276      8192000 
  680000   0.67604904   -4.9828765   -4.9828765   -3.9688032 0.0071890922   -4.9828765    1.0140733      8192000 
  681000   0.67627796   -4.9815235   -4.9815235   -3.9671068 0.0078324009   -4.9815235    1.0144167      8192000 
  682000   0.67633455   -4.9798338   -4.9798338   -3.9653322  0.006543468   -4.9798338    1.0145016      8192000 
  683000   0.67607263   -4.9778491   -4.9778491   -3.9637404 0.0074779238   -4.9778491    1.0141087      8192000 
  684000   0.67582634   -4.9758122   -4.9758122    -3.962073  0.009112306   -4.9758122    1.0137392      8192000 
  685000   0.67568572    -4.973994    -4.973994   -3.9604657  0.007616508    -4.973994    1.0135283      8192000 
  686000    0.6758662   -4.9724333   -4.9724333   -3.9586342  0.008321022   -4.9724333     1.013799      8192000 
  687000   0.67597691   -4.9713577   -4.9713577   -3.9573925 0.0075853675   -4.9713577    1.0139651      8192000 
  688000   0.67606887   -4.9696417   -4.9696417   -3.9555386 0.0074387546   -4.9696417     1.014103      8192000 
  689000   0.67647076   -4.9684662   -4.9684662   -3.9537603 0.0068393475   -4.9684662    1.0147059      8192000 
  690000   0.67614791   -4.9662218   -4.9662218   -3.9520002 0.0063584527   -4.9662218    1.0142216      8192000 
  691000   0.67630933    -4.964804    -4.964804   -3.9503402  0.006899033    -4.964804    1.0144637      8192000 
  692000    0.6760266   -4.9628877   -4.9628877   -3.9488481 0.0073470188   -4.9628877    1.0140396      8192000 
  693000   0.67617382    -4.961279    -4.961279   -3.9470185 0.0074444592    -4.961279    1.0142605      8192000 
  694000    0.6763696   -4.9594894   -4.9594894   -3.9449352 0.0069174731   -4.9594894    1.0145541      8192000 
  695000   0.67651509   -4.9579676   -4.9579676   -3.9431952 0.0065489379   -4.9579676    1.0147724      8192000 
  696000   0.67670472   -4.9563912   -4.9563912   -3.9413344 0.0077315371   -4.9563912    1.0150568      8192000 
  697000   0.67634159    -4.954356    -4.954356   -3.9398439 0.0071374682    -4.954356    1.0145121      8192000 
  698000   0.67638255   -4.9523682   -4.9523682   -3.9377947 0.0080579617   -4.9523682    1.0145736      8192000 
  699000   0.67654685   -4.9513226   -4.9513226   -3.9365026 0.0051917889   -4.9513226      1.01482      8192000 
  700000   0.67651651   -4.9493828   -4.9493828   -3.9346083 0.0074643783   -4.9493828    1.0147745      8192000 
  701000   0.67639249   -4.9474349   -4.9474349   -3.9328464 0.0074611015   -4.9474349    1.0145885      8192000 
  702000   0.67621747   -4.9453404   -4.9453404   -3.9310145 0.0081686839   -4.9453404    1.0143259      8192000 
  703000   0.67669975   -4.9448314   -4.9448314   -3.9297821 0.0056550687   -4.9448314    1.0150494      8192000 
  704000   0.67665216   -4.9431474   -4.9431474   -3.9281694  0.004842028   -4.9431474     1.014978      8192000 
  705000   0.67671396   -4.9415925   -4.9415925   -3.9265218 0.0056205223   -4.9415925    1.0150707      8192000 
  706000   0.67693064   -4.9404218   -4.9404218   -3.9250261 0.0048664311   -4.9404218    1.0153957      8192000 
  707000   0.67711453   -4.9390515   -4.9390515     -3.92338 0.0065942493   -4.9390515    1.0156715      8192000 
  708000   0.67700904   -4.9373706   -4.9373706   -3.9218573 0.0061556665   -4.9373706    1.0155133      8192000 
  709000   0.67693735   -4.9353583   -4.9353583   -3.9199526 0.0087006298   -4.9353583    1.0154058      8192000 
  710000    0.6772873      -4.9347      -4.9347   -3.9187693  0.005751256      -4.9347    1.0159307      8192000 
  711000   0.67723669   -4.9331067   -4.9331067   -3.9172519 0.0080068771   -4.9331067    1.0158548      8192000 
  712000   0.67776197   -4.9324112   -4.9324112   -3.9157685 0.0046658716   -4.9324112    1.0166427      8192000 
  713000   0.67705216   -4.9301845   -4.9301845   -3.9146065 0.0060306905   -4.9301845     1.015578      8192000 
  714000   0.67715007   -4.9290968   -4.9290968   -3.9133719 0.0036148114   -4.9290968    1.0157249      8192000 
  715000   0.67702804   -4.9273531   -4.9273531   -3.9118113 0.0041841739   -4.9273531    1.0155418      8192000 
  716000   0.67756573   -4.9268801   -4.9268801   -3.9105318 0.0031754698   -4.9268801    1.0163483      8192000 
  717000   0.67696126   -4.9250611   -4.9250611   -3.9096194 0.0055459224   -4.9250611    1.0154416      8192000 
  718000   0.67721451   -4.9243481   -4.9243481   -3.9085266 0.0058678716   -4.9243481    1.0158215      8192000 
  719000   0.67685933   -4.9228925   -4.9228925   -3.9076038 0.0047957673   -4.9228925    1.0152887      8192000 
  720000   0.67720481   -4.9225985   -4.9225985   -3.9067915 0.0038267532   -4.9225985     1.015807      8192000 
  721000   0.67745348    -4.921877    -4.921877    -3.905697 0.0059768561    -4.921877      1.01618      8192000 
  722000   0.67802783    -4.921483    -4.921483   -3.9044415 0.0061453392    -4.921483    1.0170415      8192000 
  723000   0.67836856   -4.9211687   -4.9211687   -3.9036162 0.0061244011   -4.9211687    1.0175526      8192000 
  724000   0.67834672   -4.9201519   -4.9201519   -3.9026321 0.0078039015   -4.9201519    1.0175198      8192000 
  725000   0.67830207   -4.9192225   -4.9192225   -3.9017697 0.0065204262   -4.9192225    1.0174529      8192000 
  726000   0.67817496   -4.9178668   -4.9178668   -3.9006046 0.0079278468   -4.9178668    1.0172622      8192000 
  727000   0.67798401   -4.9172084   -4.9172084   -3.9002326 0.0070459874   -4.9172084    1.0169758      8192000 
  728000   0.67842162   -4.9167674   -4.9167674   -3.8991353 0.0055785693   -4.9167674    1.0176322      8192000 
  729000    0.6782488   -4.9158918   -4.9158918   -3.8985188 0.0052295237   -4.9158918     1.017373      8192000 
  730000    0.6782255   -4.9151777   -4.9151777   -3.8978397 0.0043306499   -4.9151777     1.017338      8192000 
  731000   0.67779103   -4.9141342   -4.9141342   -3.8974479 0.0033523709   -4.9141342    1.0166863      8192000 
  732000   0.67788758   -4.9136356   -4.9136356   -3.8968045 0.0030758109   -4.9136356    1.0168311      8192000 
  733000    0.6784491   -4.9140974   -4.9140974    -3.896424 0.00092900479   -4.9140974    1.0176734      8192000 
  734000   0.67852149    -4.913848    -4.913848    -3.896066  0.002294087    -4.913848     1.017782      8192000 
  735000   0.67830357   -4.9130547   -4.9130547   -3.8955996 0.0042668388   -4.9130547    1.0174551      8192000 
  736000   0.67915393     -4.91393     -4.91393   -3.8951994 0.0025917941     -4.91393    1.0187306      8192000 
  737000    0.6791002   -4.9134922   -4.9134922   -3.8948421 0.0042486727   -4.9134922      1.01865      8192000 
  738000   0.67901625   -4.9135209   -4.9135209   -3.8949967 0.0055796304   -4.9135209    1.0185241      8192000 
  739000   0.67944505   -4.9135456   -4.9135456   -3.8943783  0.005882838   -4.9135456    1.0191673      8192000 
  740000   0.67928418   -4.9133698   -4.9133698   -3.8944438  0.006946811   -4.9133698     1.018926      8192000 
  741000   0.67946998   -4.9135815   -4.9135815   -3.8943768 0.0060147673   -4.9135815    1.0192047      8192000 
  742000   0.67925868   -4.9134372   -4.9134372   -3.8945494 0.0065983557   -4.9134372    1.0188878      8192000 
  743000   0.67932748   -4.9132272   -4.9132272   -3.8942363 0.0071513329   -4.9132272     1.018991      8192000 
  744000   0.67896538   -4.9124938   -4.9124938    -3.894046 0.0073250147   -4.9124938    1.0184478      8192000 
  745000   0.67914208   -4.9123194   -4.9123194   -3.8936066 0.0062380168   -4.9123194    1.0187129      8192000 
  746000   0.67900951   -4.9120027   -4.9120027   -3.8934886 0.0063931785   -4.9120027     1.018514      8192000 
  747000   0.67945874   -4.9124022   -4.9124022   -3.8932144 0.0043719805   -4.9124022    1.0191878      8192000 
  748000   0.67911739    -4.911738    -4.911738   -3.8930622 0.0049027527    -4.911738    1.0186758      8192000 
  749000   0.67902785   -4.9115637   -4.9115637   -3.8930222 0.0022428089   -4.9115637    1.0185415      8192000 
  750000   0.67918906   -4.9113608   -4.9113608   -3.8925774 0.0054333698   -4.9113608    1.0187833      8192000 
  751000   0.67935404   -4.9114509   -4.9114509   -3.8924201 0.0048096089   -4.9114509    1.0190308      8192000 
  752000   0.67950503   -4.9112625   -4.9112625   -3.8920052 0.0054295772   -4.9112625    1.0192573      8192000 
  753000   0.67961014   -4.9111779   -4.9111779   -3.8917629  0.006051575   -4.9111779     1.019415      8192000 
  754000   0.67962317   -4.9109694   -4.9109694   -3.8915349 0.0059187635   -4.9109694    1.0194345      8192000 
  755000   0.67958672   -4.9106334   -4.9106334   -3.8912536 0.0077881433   -4.9106334    1.0193798      8192000 
  756000   0.68004185   -4.9111489   -4.9111489   -3.8910864 0.0062608493   -4.9111489    1.0200625      8192000 
  757000   0.68001366   -4.9110177   -4.9110177   -3.8909975 0.0065573286   -4.9110177    1.0200202      8192000 
  758000   0.67995026   -4.9108884   -4.9108884   -3.8909633 0.0071925243   -4.9108884    1.0199251      8192000 
  759000   0.67978757   -4.9105831   -4.9105831    -3.890902 0.0056271214   -4.9105831    1.0196811      8192000 
  760000   0.67963849   -4.9101144   -4.9101144   -3.8906569 0.0048165569   -4.9101144    1.0194575      8192000 
  761000   0.67977777   -4.9102453   -4.9102453   -3.8905789 0.0038521644   -4.9102453    1.0196664      8192000 
  762000   0.67920087   -4.9093656   -4.9093656   -3.8905646 0.0044769261   -4.9093656     1.018801      8192000 
  763000   0.67962081   -4.9096804   -4.9096804   -3.8902494 0.0047539181   -4.9096804     1.019431      8192000 
  764000   0.67974982   -4.9094534   -4.9094534    -3.889829  0.004474342   -4.9094534    1.0196245      8192000 
  765000   0.67981582   -4.9096157   -4.9096157   -3.8898922 0.0047854701   -4.9096157    1.0197235      8192000 
  766000   0.67967866   -4.9092579   -4.9092579   -3.8897402 0.0062450387   -4.9092579    1.0195177      8192000 
  767000   0.68034192   -4.9099081   -4.9099081   -3.8893955 0.0047911013   -4.9099081    1.0205126      8192000 
  768000   0.68022962   -4.9093669   -4.9093669   -3.8890227 0.0055992254   -4.9093669    1.0203442      8192000 
  769000   0.68018316   -4.9091947   -4.9091947   -3.8889202 0.0061949215   -4.9091947    1.0202745      8192000 
  770000    0.6806622   -4.9096351   -4.9096351   -3.8886421 0.0050240263   -4.9096351     1.020993      8192000 
  771000   0.68038134   -4.9091525   -4.9091525   -3.8885807 0.0060214264   -4.9091525    1.0205718      8192000 
  772000   0.68017707     -4.90891     -4.90891   -3.8886447 0.0040758336     -4.90891    1.0202654      8192000 
  773000   0.68044698   -4.9090117   -4.9090117   -3.8883415 0.0045402162   -4.9090117    1.0206702      8192000 
  774000   0.68035537   -4.9084672   -4.9084672   -3.8879344 0.0045409761   -4.9084672    1.0205328      8192000 
  775000   0.68040958   -4.9085555   -4.9085555   -3.8879414 0.0050958336   -4.9085555    1.0206141      8192000 
  776000   0.68033994   -4.9082666   -4.9082666    -3.887757 0.0053270882   -4.9082666    1.0205097      8192000 
  777000   0.68019443   -4.9081018   -4.9081018   -3.8878104 0.0049881307   -4.9081018    1.0202914      8192000 
  778000    0.6803753   -4.9080819   -4.9080819   -3.8875192 0.0040968023   -4.9080819    1.0205627      8192000 
  779000   0.68013757   -4.9075325   -4.9075325   -3.8873264 0.0052088113   -4.9075325    1.0202061      8192000 
  780000   0.67997284   -4.9073292   -4.9073292   -3.8873702  0.005808009   -4.9073292     1.019959      8192000 
  781000   0.68063508    -4.907902    -4.907902   -3.8869497 0.0059978465    -4.907902    1.0209524      8192000 
  782000   0.68088065   -4.9081232   -4.9081232   -3.8868025 0.0055326851   -4.9081232    1.0213207      8192000 
  783000   0.68084887   -4.9080724   -4.9080724   -3.8867993 0.0046088565   -4.9080724    1.0212731      8192000 
  784000   0.68056001   -4.9076326   -4.9076326   -3.8867929 0.0065010399   -4.9076326    1.0208398      8192000 
  785000   0.68064221   -4.9077569   -4.9077569   -3.8867939 0.0052205589   -4.9077569    1.0209631      8192000 
  786000   0.68057962   -4.9076789   -4.9076789   -3.8868098  0.004457256   -4.9076789    1.0208692      8192000 
  787000    0.6806354   -4.9075213   -4.9075213   -3.8865685 0.0061457059   -4.9075213    1.0209529      8192000 
  788000   0.68101907   -4.9075325   -4.9075325   -3.8860042 0.0074278239   -4.9075325    1.0215283      8192000 
  789000   0.68100364   -4.9074828   -4.9074828   -3.8859775  0.006736699   -4.9074828    1.0215052      8192000 
  790000   0.68134562   -4.9076698   -4.9076698   -3.8856516 0.0045452921   -4.9076698    1.0220182      8192000 
  791000   0.68068886   -4.9064823   -4.9064823   -3.8854493 0.0069894917   -4.9064823     1.021033      8192000 
  792000   0.68095543   -4.9066201   -4.9066201   -3.8851872 0.0043661998   -4.9066201    1.0214329      8192000 
  793000   0.68077031   -4.9061764   -4.9061764   -3.8850212  0.005278018   -4.9061764    1.0211552      8192000 
  794000    0.6810612   -4.9064347   -4.9064347   -3.8848431 0.0036021091   -4.9064347    1.0215915      8192000 
  795000   0.68112105   -4.9067273   -4.9067273    -3.885046 0.0024458668   -4.9067273    1.0216813      8192000 
  796000   0.68074834   -4.9056218   -4.9056218   -3.8844995 0.0054628582   -4.9056218    1.0211222      8192000 
  797000   0.68065401   -4.9056478   -4.9056478    -3.884667 0.0043117856   -4.9056478    1.0209808      8192000 
  798000   0.68110943    -4.905917    -4.905917   -3.8842531 0.0032960165    -4.905917    1.0216639      8192000 
  799000   0.68129163   -4.9058228   -4.9058228   -3.8838856 0.0053386933   -4.9058228    1.0219372      8192000 
  800000   0.68161123   -4.9056666   -4.9056666     -3.88325 0.0063246294   -4.9056666    1.0224166      8192000 
  801000   0.68180659   -4.9054334   -4.9054334   -3.8827238 0.0082782655   -4.9054334    1.0227096      8192000 
  802000   0.68209156   -4.9060802   -4.9060802   -3.8829431 0.0053416033   -4.9060802    1.0231371      8192000 
  803000   0.68176196   -4.9055381   -4.9055381   -3.8828954 0.0047382591   -4.9055381    1.0226427      8192000 
  804000   0.68159386   -4.9049506   -4.9049506   -3.8825601 0.0055688707   -4.9049506    1.0223905      8192000 
  805000   0.68140732   -4.9045716   -4.9045716   -3.8824609 0.0049555998   -4.9045716    1.0221107      8192000 
  806000   0.68181664    -4.904663    -4.904663   -3.8819383 0.0045047321    -4.904663    1.0227247      8192000 
  807000   0.68197286   -4.9047681   -4.9047681    -3.881809 0.0040273003   -4.9047681     1.022959      8192000 
  808000   0.68156445   -4.9038358   -4.9038358   -3.8814894 0.0053402911   -4.9038358    1.0223464      8192000 
  809000   0.68153975   -4.9038644   -4.9038644    -3.881555 0.0034259723   -4.9038644    1.0223094      8192000 
  810000   0.68184898   -4.9038127   -4.9038127   -3.8810395 0.0017124043   -4.9038127    1.0227732      8192000 
  811000   0.68143532   -4.9030415   -4.9030415   -3.8808888 0.0039289833   -4.9030415    1.0221527      8192000 
  812000   0.68174406   -4.9030633   -4.9030633   -3.8804474 0.0063602584   -4.9030633    1.0226158      8192000 
  813000    0.6819792   -4.9032136   -4.9032136   -3.8802451 0.0067889784   -4.9032136    1.0229685      8192000 
  814000   0.68234736   -4.9036249   -4.9036249   -3.8801041 0.0050917463   -4.9036249    1.0235208      8192000 
  815000   0.68195863   -4.9029583   -4.9029583   -3.8800206 0.0060050336   -4.9029583    1.0229377      8192000 
  816000   0.68200272   -4.9030921   -4.9030921   -3.8800883 0.0054651819   -4.9030921    1.0230038      8192000 
  817000   0.68225312   -4.9034188   -4.9034188   -3.8800393 0.0041871812   -4.9034188    1.0233794      8192000 
  818000   0.68249659   -4.9033178   -4.9033178   -3.8795732 0.0051996364   -4.9033178    1.0237446      8192000 
  819000   0.68251144   -4.9028004   -4.9028004   -3.8790335 0.0076432286   -4.9028004    1.0237669      8192000 
  820000   0.68240266   -4.9026903   -4.9026903   -3.8790866 0.0070597283   -4.9026903    1.0236037      8192000 
  821000   0.68263671    -4.902502    -4.902502   -3.8785472 0.0059567216    -4.902502    1.0239548      8192000 
  822000   0.68256948   -4.9023074   -4.9023074   -3.8784534  0.006516845   -4.9023074     1.023854      8192000 
  823000    0.6820734    -4.901506    -4.901506   -3.8783961 0.0044080312    -4.901506    1.0231099      8192000 
  824000   0.68190467   -4.9009319   -4.9009319   -3.8780751 0.0061846136   -4.9009319    1.0228567      8192000 
  825000   0.68240648   -4.9018031   -4.9018031   -3.8781936  0.003010577   -4.9018031    1.0236095      8192000 
  826000   0.68230411   -4.9014389   -4.9014389    -3.877983 0.0030728655   -4.9014389    1.0234559      8192000 
  827000   0.68221901   -4.9009964   -4.9009964   -3.8776681 0.0041697793   -4.9009964    1.0233283      8192000 
  828000   0.68247746   -4.9010985   -4.9010985   -3.8773826 0.0031335053   -4.9010985    1.0237159      8192000 
  829000   0.68251638   -4.9008239   -4.9008239   -3.8770496   0.00502752   -4.9008239    1.0237743      8192000 
  830000   0.68265272    -4.900947    -4.900947   -3.8769682 0.0055041067    -4.900947    1.0239788      8192000 
  831000   0.68282758   -4.9011012   -4.9011012   -3.8768601 0.0063546543   -4.9011012    1.0242411      8192000 
  832000   0.68299066   -4.9011738   -4.9011738   -3.8766881 0.0051552692   -4.9011738    1.0244857      8192000 
  833000   0.68298938   -4.9014118   -4.9014118    -3.876928 0.0055945102   -4.9014118    1.0244838      8192000 
  834000   0.68307868   -4.9011795   -4.9011795   -3.8765617   0.00515594   -4.9011795    1.0246178      8192000 
  835000   0.68289282   -4.9010401   -4.9010401   -3.8767011 0.0071185408   -4.9010401     1.024339      8192000 
  836000   0.68283035   -4.9004597   -4.9004597   -3.8762144 0.0080775544   -4.9004597    1.0242453      8192000 
  837000   0.68270226   -4.9002676   -4.9002676   -3.8762145 0.0058717112   -4.9002676    1.0240531      8192000 
  838000    0.6832442   -4.9005425   -4.9005425   -3.8756765 0.0055116127   -4.9005425     1.024866      8192000 
  839000   0.68314931   -4.8999458   -4.8999458   -3.8752221 0.0052763662   -4.8999458    1.0247237      8192000 
  840000   0.68344696   -4.9001996   -4.9001996   -3.8750294 0.0034378539   -4.9001996    1.0251702      8192000 
  841000   0.68296549   -4.8994656   -4.8994656   -3.8750176 0.0045388069   -4.8994656     1.024448      8192000 
  842000   0.68290611   -4.8991532   -4.8991532   -3.8747943 0.0037314269   -4.8991532    1.0243589      8192000 
  843000   0.68323186   -4.8992408   -4.8992408   -3.8743933 0.0019657704   -4.8992408    1.0248475      8192000 
  844000   0.68306905   -4.8987905   -4.8987905   -3.8741872 0.0040851038   -4.8987905    1.0246033      8192000 
  845000   0.68364453   -4.8992309   -4.8992309   -3.8737644 0.0024261565   -4.8992309    1.0254665      8192000 
  846000   0.68325969   -4.8987356   -4.8987356   -3.8738463 0.0043474161   -4.8987356    1.0248893      8192000 
  847000   0.68377423   -4.8990926   -4.8990926   -3.8734315 0.0043677668   -4.8990926    1.0256611      8192000 
  848000   0.68369583   -4.8987478   -4.8987478   -3.8732044  0.004956409   -4.8987478    1.0255435      8192000 
  849000   0.68323633   -4.8978884   -4.8978884   -3.8730341  0.006020416   -4.8978884    1.0248542      8192000 
  850000   0.68414665   -4.8991224   -4.8991224   -3.8729027 0.0041214287   -4.8991224    1.0262197      8192000 
  851000    0.6838133   -4.8985055   -4.8985055   -3.8727858  0.006796971   -4.8985055    1.0257197      8192000 
  852000    0.6839599    -4.898482    -4.898482   -3.8725424 0.0054087922    -4.898482    1.0259396      8192000 
  853000   0.68403476    -4.898195    -4.898195   -3.8721431 0.0061337381    -4.898195    1.0260519      8192000 
  854000   0.68415761   -4.8979056   -4.8979056   -3.8716695 0.0054775617   -4.8979056    1.0262362      8192000 
  855000   0.68407859   -4.8976331   -4.8976331   -3.8715155 0.0042284893   -4.8976331    1.0261176      8192000 
  856000   0.68396712   -4.8974151   -4.8974151   -3.8714647 0.0043410188   -4.8974151    1.0259504      8192000 
  857000   0.68442342   -4.8981357   -4.8981357   -3.8715009 0.0019785622   -4.8981357    1.0266349      8192000 
  858000   0.68396677   -4.8969853   -4.8969853   -3.8710354 0.0027834478   -4.8969853    1.0259499      8192000 
  859000   0.68400948   -4.8967225   -4.8967225   -3.8707086 0.0022900725   -4.8967225     1.026014      8192000 
  860000   0.68371679   -4.8961059   -4.8961059    -3.870531  0.004673961   -4.8961059    1.0255749      8192000 
  861000   0.68408397   -4.8962287   -4.8962287    -3.870103 0.0039025459   -4.8962287    1.0261257      8192000 
  862000   0.68409302   -4.8960296   -4.8960296   -3.8698903  0.004758352   -4.8960296    1.0261393      8192000 
  863000   0.68451648    -4.896333    -4.896333   -3.8695585 0.0041719351    -4.896333    1.0267745      8192000 
  864000   0.68478344   -4.8961372   -4.8961372   -3.8689623  0.003800138   -4.8961372    1.0271749      8192000 
  865000   0.68426466   -4.8954312   -4.8954312   -3.8690344 0.0045816892   -4.8954312    1.0263967      8192000 
  866000   0.68418772   -4.8949856   -4.8949856   -3.8687042 0.0054323189   -4.8949856    1.0262813      8192000 
  867000   0.68442464   -4.8950773   -4.8950773   -3.8684406 0.0060987526   -4.8950773    1.0266367      8192000 
  868000    0.6845255   -4.8947831   -4.8947831   -3.8679951 0.0054456702   -4.8947831     1.026788      8192000 
  869000   0.68506013   -4.8951249   -4.8951249   -3.8675349  0.005447332   -4.8951249    1.0275899      8192000 
  870000   0.68465138   -4.8945717   -4.8945717   -3.8675949 0.0051891349   -4.8945717    1.0269768      8192000 
  871000    0.6846637   -4.8944793   -4.8944793   -3.8674841 0.0049323772   -4.8944793    1.0269953      8192000 
  872000   0.68436345   -4.8938683   -4.8938683   -3.8673234 0.0035670794   -4.8938683    1.0265449      8192000 
  873000   0.68472376   -4.8941493   -4.8941493   -3.8670639 0.0037966975   -4.8941493    1.0270854      8192000 
  874000   0.68455543   -4.8938698   -4.8938698   -3.8670369 0.0048516029   -4.8938698    1.0268329      8192000 
  875000   0.68460008   -4.8935119   -4.8935119    -3.866612  0.005537418   -4.8935119    1.0268999      8192000 
  876000   0.68498335   -4.8934861   -4.8934861   -3.8660114 0.0060972635   -4.8934861    1.0274748      8192000 
  877000   0.68535309   -4.8938247   -4.8938247   -3.8657953 0.0051525486   -4.8938247    1.0280294      8192000 
  878000    0.6851746   -4.8934061   -4.8934061   -3.8656445 0.0056948942   -4.8934061    1.0277616      8192000 
  879000    0.6853127   -4.8934816   -4.8934816   -3.8655128 0.0044211688   -4.8934816    1.0279688      8192000 
  880000   0.68539966   -4.8934005   -4.8934005   -3.8653012  0.005120663   -4.8934005    1.0280992      8192000 
  881000   0.68531351   -4.8930562   -4.8930562   -3.8650862 0.0044391725   -4.8930562      1.02797      8192000 
  882000   0.68504806   -4.8926237   -4.8926237   -3.8650519  0.003924224   -4.8926237    1.0275718      8192000 
  883000   0.68532438   -4.8923307   -4.8923307   -3.8643444  0.005774888   -4.8923307    1.0279863      8192000 
  884000   0.68530097   -4.8923568   -4.8923568   -3.8644056 0.0041917015   -4.8923568    1.0279512      8192000 
  885000   0.68553646   -4.8923022   -4.8923022   -3.8639978 0.0038874946   -4.8923022    1.0283044      8192000 
  886000   0.68531799   -4.8915313   -4.8915313   -3.8635546 0.0047939544   -4.8915313    1.0279767      8192000 
  887000   0.68563488   -4.8919084   -4.8919084   -3.8634563 0.0037157499   -4.8919084    1.0284521      8192000 
  888000   0.68582082   -4.8917726   -4.8917726   -3.8630417 0.0057423798   -4.8917726     1.028731      8192000 
  889000    0.6857945   -4.8914493   -4.8914493   -3.8627578 0.0054140019   -4.8914493    1.0286915      8192000 
  890000   0.68569976   -4.8911275   -4.8911275   -3.8625781 0.0052238015   -4.8911275    1.0285494      8192000 
  891000   0.68599689   -4.8913794   -4.8913794   -3.8623843 0.0048144483   -4.8913794    1.0289951      8192000 
  892000   0.68601994   -4.8908624   -4.8908624   -3.8618327 0.0035450515   -4.8908624    1.0290296      8192000 
  893000   0.68585618   -4.8902229   -4.8902229   -3.8614389 0.0048226805   -4.8902229     1.028784      8192000 
  894000   0.68599422   -4.8903462   -4.8903462   -3.8613551 0.0043181781   -4.8903462    1.0289911      8192000 
  895000   0.68606861   -4.8899188   -4.8899188   -3.8608161 0.0042186689   -4.8899188    1.0291027      8192000 
  896000   0.68569817   -4.8892112   -4.8892112   -3.8606643 0.0057552238   -4.8892112     1.028547      8192000 
  897000   0.68605393   -4.8894358   -4.8894358   -3.8603551 0.0037725972   -4.8894358    1.0290806      8192000 
  898000   0.68615284   -4.8893285   -4.8893285   -3.8600995 0.0046860258   -4.8893285     1.029229      8192000 
  899000    0.6860298   -4.8890978   -4.8890978   -3.8600534 0.0046635478   -4.8890978    1.0290444      8192000 
  900000   0.68605185   -4.8885871   -4.8885871   -3.8595095 0.0066097206   -4.8885871    1.0290775      8192000 
  901000   0.68660919   -4.8895105   -4.8895105   -3.8595969  0.003222681   -4.8895105    1.0299135      8192000 
  902000   0.68626174   -4.8890863   -4.8890863    -3.859694 0.0018335996   -4.8890863    1.0293923      8192000 
  903000   0.68632708   -4.8892162   -4.8892162   -3.8597258 0.0025071871   -4.8892162    1.0294904      8192000 
  904000   0.68628837   -4.8888532   -4.8888532   -3.8594209 0.0031766644   -4.8888532    1.0294323      8192000 
  905000   0.68651782   -4.8887552   -4.8887552   -3.8589787 0.0052942363   -4.8887552    1.0297765      8192000 
  906000   0.68705484   -4.8888867   -4.8888867   -3.8583047 0.0078598546   -4.8888867     1.030582      8192000 
  907000   0.68682366   -4.8884545   -4.8884545   -3.8582192 0.0059931174   -4.8884545    1.0302352      8192000 
  908000   0.68660129   -4.8877006   -4.8877006   -3.8577989 0.0069348233   -4.8877006    1.0299017      8192000 
  909000   0.68661462   -4.8878111   -4.8878111   -3.8578894 0.0054702911   -4.8878111    1.0299217      8192000 
  910000   0.68655481   -4.8876673   -4.8876673   -3.8578354 0.0046080098   -4.8876673     1.029832      8192000 
  911000   0.68711735   -4.8879175   -4.8879175   -3.8572417 0.0033097225   -4.8879175    1.0306758      8192000 
  912000   0.68700598   -4.8872824   -4.8872824   -3.8567737 0.0052358862   -4.8872824    1.0305087      8192000 
  913000    0.6870219   -4.8870413   -4.8870413   -3.8565087 0.0031183017   -4.8870413    1.0305326      8192000 
  914000   0.68653009   -4.8859156   -4.8859156   -3.8561207  0.002811734   -4.8859156    1.0297949      8192000 
  915000    0.6866176   -4.8854516   -4.8854516   -3.8555255 0.0028151974   -4.8854516    1.0299261      8192000 
  916000   0.68679596   -4.8853675   -4.8853675   -3.8551738  0.003557473   -4.8853675    1.0301937      8192000 
  917000   0.68714194      -4.8854      -4.8854   -3.8546874 0.0040984848      -4.8854    1.0307126      8192000 
  918000   0.68798442    -4.885733    -4.885733   -3.8537567 0.0040106096    -4.885733    1.0319764      8192000 
  919000   0.68730191   -4.8850652   -4.8850652   -3.8541126 0.0036551476   -4.8850652    1.0309526      8192000 
  920000   0.68726047   -4.8848729   -4.8848729   -3.8539825 0.0019058186   -4.8848729    1.0308904      8192000 
  921000   0.68725127    -4.884714    -4.884714   -3.8538373 0.0041965746    -4.884714    1.0308766      8192000 
  922000    0.6875954   -4.8848895   -4.8848895   -3.8534966 0.0041507819   -4.8848895    1.0313928      8192000 
  923000   0.68744887   -4.8845697   -4.8845697   -3.8533967 0.0052676949   -4.8845697    1.0311731      8192000 
  924000   0.68783929   -4.8847122   -4.8847122   -3.8529535 0.0050695614   -4.8847122    1.0317587      8192000 
  925000   0.68793713   -4.8848016   -4.8848016   -3.8528961 0.0032190784   -4.8848016    1.0319054      8192000 
  926000   0.68817599   -4.8850518   -4.8850518   -3.8527881  0.003718913   -4.8850518    1.0322637      8192000 
  927000   0.68792692   -4.8842603   -4.8842603   -3.8523702  0.005248041   -4.8842603    1.0318901      8192000 
  928000   0.68819613   -4.8844173   -4.8844173   -3.8521234 0.0063357277   -4.8844173    1.0322939      8192000 
  929000   0.68798288   -4.8836313   -4.8836313   -3.8516572 0.0072825113   -4.8836313    1.0319741      8192000 
  930000   0.68826483   -4.8838579   -4.8838579   -3.8514609 0.0053586279   -4.8838579     1.032397      8192000 
  931000   0.68791918   -4.8830766   -4.8830766   -3.8511981 0.0048578874   -4.8830766    1.0318785      8192000 
  932000   0.68798579   -4.8830582   -4.8830582   -3.8510798 0.0037059302   -4.8830582    1.0319784      8192000 
  933000   0.68761899   -4.8826613   -4.8826613   -3.8512331 0.0041297731   -4.8826613    1.0314282      8192000 
  934000   0.68768346   -4.8823205   -4.8823205   -3.8507955 0.0055368676   -4.8823205    1.0315249      8192000 
  935000   0.68825025    -4.882709    -4.882709   -3.8503339 0.0030734899    -4.882709    1.0323751      8192000 
  936000   0.68819118   -4.8822492   -4.8822492   -3.8499627 0.0037412409   -4.8822492    1.0322865      8192000 
  937000   0.68819248   -4.8822866   -4.8822866   -3.8499982  0.003333638   -4.8822866    1.0322885      8192000 
  938000   0.68821481    -4.881983    -4.881983    -3.849661 0.0040846076    -4.881983     1.032322      8192000 
  939000   0.68820915   -4.8819176   -4.8819176   -3.8496042 0.0046016138   -4.8819176    1.0323135      8192000 
  940000   0.68839251   -4.8817856   -4.8817856    -3.849197 0.0048044007   -4.8817856    1.0325885      8192000 
  941000   0.68831638   -4.8814022   -4.8814022   -3.8489279  0.005898832   -4.8814022    1.0324743      8192000 
  942000   0.68866763   -4.8813893   -4.8813893   -3.8483882 0.0063834792   -4.8813893    1.0330012      8192000 
  943000   0.68888532   -4.8818643   -4.8818643   -3.8485365 0.0050242009   -4.8818643    1.0333277      8192000 
  944000   0.68880801   -4.8813913   -4.8813913   -3.8481795 0.0049475484   -4.8813913    1.0332118      8192000 
  945000   0.68893222   -4.8812936   -4.8812936   -3.8478956 0.0038249926   -4.8812936    1.0333981      8192000 
  946000    0.6888666   -4.8807994   -4.8807994   -3.8474997 0.0046167778   -4.8807994    1.0332996      8192000 
  947000   0.68865526   -4.8803093   -4.8803093   -3.8473266 0.0042573398   -4.8803093    1.0329826      8192000 
  948000   0.68912238   -4.8805671   -4.8805671   -3.8468838 0.0030677346   -4.8805671    1.0336833      8192000 
  949000   0.68870879   -4.8801195   -4.8801195   -3.8470566 0.0032385583   -4.8801195    1.0330629      8192000 
  950000   0.68908361   -4.8799292   -4.8799292   -3.8463041 0.0026565984   -4.8799292    1.0336252      8192000 
  951000   0.68938751   -4.8801571   -4.8801571   -3.8460761 0.0022306425   -4.8801571     1.034081      8192000 
  952000   0.68910045   -4.8794638   -4.8794638   -3.8458134   0.00220121   -4.8794638    1.0336504      8192000 
  953000   0.68926676   -4.8794005   -4.8794005   -3.8455006 0.0035488565   -4.8794005    1.0338999      8192000 
  954000   0.68935075   -4.8791226   -4.8791226   -3.8450967 0.0049944407   -4.8791226    1.0340259      8192000 
  955000   0.68952296   -4.8788243   -4.8788243   -3.8445401 0.0041188023   -4.8788243    1.0342842      8192000 
  956000   0.68986898   -4.8792375   -4.8792375   -3.8444343 0.0045874995   -4.8792375    1.0348032      8192000 
  957000   0.68921811   -4.8777211   -4.8777211   -3.8438942 0.0064171142   -4.8777211    1.0338269      8192000 
  958000   0.68948775   -4.8782264   -4.8782264    -3.843995 0.0036813021   -4.8782264    1.0342314      8192000 
  959000   0.68977752   -4.8784237   -4.8784237   -3.8437577 0.0026451624   -4.8784237     1.034666      8192000 
  960000   0.68959973    -4.877524    -4.877524   -3.8431246 0.0035561202    -4.877524    1.0343993      8192000 
  961000   0.68964338    -4.877228    -4.877228   -3.8427632 0.0054330578    -4.877228    1.0344648      8192000 
  962000     0.689519   -4.8766648   -4.8766648   -3.8423865 0.0043917125   -4.8766648    1.0342782      8192000 
  963000   0.69021299   -4.8772513   -4.8772513   -3.8419321 0.0041709414   -4.8772513    1.0353192      8192000 
  964000   0.68943752   -4.8759894   -4.8759894   -3.8418334 0.0058406677   -4.8759894     1.034156      8192000 
  965000   0.69039675   -4.8767927   -4.8767927   -3.8411978 0.0025014432   -4.8767927    1.0355949      8192000 
  966000   0.69039343   -4.8767318   -4.8767318   -3.8411419 0.0036928335   -4.8767318    1.0355899      8192000 
  967000    0.6899073   -4.8754753   -4.8754753   -3.8406146 0.0041553713   -4.8754753    1.0348607      8192000 
  968000   0.69009812    -4.875607    -4.875607     -3.84046 0.0048435254    -4.875607    1.0351469      8192000 
  969000   0.69042351   -4.8758011   -4.8758011   -3.8401661 0.0025761304   -4.8758011     1.035635      8192000 
  970000   0.69043905   -4.8753699   -4.8753699   -3.8397116 0.0038182318   -4.8753699    1.0356583      8192000 
  971000   0.69051064   -4.8747904   -4.8747904   -3.8390247 0.0048101665   -4.8747904    1.0357657      8192000 
  972000   0.69045744   -4.8745329   -4.8745329    -3.838847 0.0047971958   -4.8745329    1.0356859      8192000 
  973000   0.69006674   -4.8741539   -4.8741539   -3.8390541 0.0050732867   -4.8741539    1.0350999      8192000 
  974000   0.68993609   -4.8735863   -4.8735863   -3.8386824   0.00318155   -4.8735863    1.0349039      8192000 
  975000   0.69055079   -4.8743251   -4.8743251   -3.8384992 0.0021601376   -4.8743251    1.0358259      8192000 
  976000   0.69025821   -4.8737547   -4.8737547   -3.8383676 0.0029978929   -4.8737547    1.0353871      8192000 
  977000   0.69053644   -4.8736397   -4.8736397   -3.8378353 0.0025026216   -4.8736397    1.0358044      8192000 
  978000   0.69093533   -4.8735447   -4.8735447   -3.8371419 0.0033515707   -4.8735447    1.0364027      8192000 
  979000   0.69083834   -4.8735926   -4.8735926   -3.8373353 0.0036334845   -4.8735926    1.0362572      8192000 
  980000   0.69115819   -4.8734373   -4.8734373   -3.8367003 0.0046512317   -4.8734373     1.036737      8192000 
  981000   0.69073652   -4.8726914   -4.8726914   -3.8365869 0.0054243409   -4.8726914    1.0361045      8192000 
  982000   0.69110359   -4.8729516   -4.8729516   -3.8362965 0.0028394282   -4.8729516    1.0366551      8192000 
  983000   0.69068191   -4.8720869   -4.8720869   -3.8360643 0.0047613887   -4.8720869    1.0360226      8192000 
  984000   0.69105753   -4.8723527   -4.8723527   -3.8357667 0.0039815676   -4.8723527     1.036586      8192000 
  985000    0.6909485   -4.8716774   -4.8716774   -3.8352549 0.0056716531   -4.8716774    1.0364225      8192000 
  986000   0.69143634   -4.8723354   -4.8723354   -3.8351811 0.0035596314   -4.8723354    1.0371542      8192000 
  987000   0.69101982   -4.8710429   -4.8710429   -3.8345134 0.0057157777   -4.8710429    1.0365295      8192000 
  988000   0.69130343    -4.871091    -4.871091   -3.8341361 0.0027880387    -4.871091    1.0369549      8192000 
  989000   0.69139691   -4.8713479   -4.8713479   -3.8342528 0.0025058426   -4.8713479    1.0370951      8192000 
  990000   0.69143344   -4.8711637   -4.8711637   -3.8340138   0.00354406   -4.8711637    1.0371499      8192000 
  991000   0.69140295   -4.8704512   -4.8704512    -3.833347 0.0036518638   -4.8704512    1.0371042      8192000 
  992000   0.69154562   -4.8701058   -4.8701058   -3.8327876  0.003549707   -4.8701058    1.0373182      8192000 
  993000   0.69145965   -4.8698409   -4.8698409   -3.8326517 0.0045619319   -4.8698409    1.0371892      8192000 
  994000   0.69221319   -4.8705593   -4.8705593   -3.8322398 0.0033731547   -4.8705593    1.0383195      8192000 
  995000   0.69189541   -4.8701457   -4.8701457   -3.8323028 0.0031530725   -4.8701457    1.0378429      8192000 
  996000   0.69226924   -4.8699977   -4.8699977   -3.8315941 0.0027615892   -4.8699977    1.0384036      8192000 
  997000   0.69179179   -4.8691054   -4.8691054    -3.831418  0.004631611   -4.8691054    1.0376874      8192000 
  998000   0.69181771   -4.8691962   -4.8691962   -3.8314699 0.0028022874   -4.8691962    1.0377263      8192000 
  999000   0.69229532   -4.8692514   -4.8692514   -3.8308087 0.0031405433   -4.8692514    1.0384427      8192000 
 1000000   0.69220705   -4.8690535   -4.8690535   -3.8307432 0.0037484866   -4.8690535    1.0383103      8192000 
Loop time of 23046.1 on 144 procs for 1000000 steps with 3993600 atoms

Performance: 37489.998 tau/day, 43.391 timesteps/s
99.5% CPU use with 144 MPI tasks x 1 OpenMP threads

MPI task timing breakdown:
Section |  min time  |  avg time  |  max time  |%varavg|  %CPU | %total
-----------------------------------------------------------------------
Pair    | 9297.9     | 11651      | 12985      | 780.8 |  99.5 | 50.55
Bond    | 0.80704    | 0.93981    | 1.0425     |   4.6 | 100.0 |  0.00
Neigh   | 3901.6     | 4757.6     | 5318.5     | 427.2 |  99.6 | 20.64
Comm    | 3065.2     | 5404.5     | 8577       |1664.2 |  99.3 | 23.45
Output  | 57.481     | 57.885     | 57.892     |   0.4 |  98.2 |  0.25
Modify  | 523.91     | 747.38     | 1727.1     |1236.5 |  99.0 |  3.24
Other   |            | 427        |            |       |       |  1.85

Nlocal:        27733.3 ave       28847 max       27211 min
Histogram: 4 1 63 66 0 3 4 1 1 1
Nghost:        17174.6 ave       18395 max       13310 min
Histogram: 32 0 0 0 0 0 0 0 0 112
Neighs:    1.07800e+06 ave 1.10344e+06 max      944354 min
Histogram: 6 0 6 3 1 0 0 1 29 98

Total # of neighbors = 1.552325e+08
Ave neighs/atom = 38.870318
Ave special neighs/atom = 0.0000000
Neighbor list builds = 100000
Dangerous builds = 99000
write_restart 	restart.01
System init for write_restart ...
write_data	data.lj
System init for write_data ...
WARNING: Not all mixed pair coeffs generated from mixing. Use write_data with 'pair ij' option to store all pair coeffs. (src/write_data.cpp:312)
Total wall time: 6:24:15
