LAMMPS (24 Dec 2020)
OMP_NUM_THREADS environment is not set. Defaulting to 1 thread. (src/comm.cpp:94)
  using 1 OpenMP thread(s) per MPI task
#Read the equilibrated lj fluid and add nanocubes

units           lj
atom_style      full
#atom_modify     map array first cubes
dimension       3
boundary        p p f
pair_style      lj/smooth/linear 2.0

variable        sigma           equal 1.0
variable        epsilon         equal 1.0
read_restart	restart.dat.5000000
Reading restart file ...
  restart file = 24 Dec 2020, LAMMPS = 24 Dec 2020
WARNING: Restart file used different # of processors: 288 vs. 336 (src/read_restart.cpp:697)
  restoring atom style full from restart
  orthogonal box = (0.0000000 0.0000000 0.0000000) to (80.000000 80.000000 160.00000)
  6 by 4 by 14 MPI processor grid
  restoring pair style lj/smooth/linear from restart
  426349 atoms
Finding 1-2 1-3 1-4 neighbors ...
  special bond factors lj:    0        0        0       
  special bond factors coul:  0        0        0       
     0 = max # of 1-2 neighbors
     0 = max # of 1-3 neighbors
     0 = max # of 1-4 neighbors
     1 = max # of special neighbors
  special bonds CPU = 2.666 seconds
  read_restart CPU = 3.123 seconds

group		solvent type 1
353197 atoms in group solvent
group 		hull  type 2
28544 atoms in group hull
group 		dummy type 3
44608 atoms in group dummy

neighbor      0.4 bin
neigh_modify  exclude molecule/intra cubes


pair_modify   shift yes

pair_coeff    1 1 1.0 1.0 #solvent
pair_coeff    2 2 1.0 1.0 1.12 #np
pair_coeff    3 3 0.0 0.0 0.0 #dummy
pair_coeff    2 3 0.0 0.0 0.0 #np dummy
pair_coeff    1 2 ${eps} ${sig} ${nscut} #np solvent
pair_coeff    1 2 2.0 ${sig} ${nscut} 
pair_coeff    1 2 2.0 1.0 ${nscut} 
pair_coeff    1 2 2.0 1.0 4.0 
pair_coeff    1 3 0.0 0.0 0.0 #dummy solvent


comm_modify   mode multi cutoff/multi 1 2.0 cutoff/multi 2 2.0 cutoff/multi 3 6.95

reset_timestep 	0

balance 	1.05 shift z 10 1.05
Balancing ...
Unused restart file global fix info:
  fix style: STORE, fix ID: msd_COMPUTE_STORE
Unused restart file peratom fix info:
  fix style: STORE, fix ID: bin1_COMPUTE_STORE
Neighbor list info ...
  update every 1 steps, delay 10 steps, check yes
  max neighbors/atom: 2000, page size: 100000
  master list distance cutoff = 4.4
  ghost atom cutoff = 6.95
  binsize = 2.2, bins = 37 37 73
  1 neighbor lists, perpetual/occasional/extra = 1 0 0
  (1) pair lj/smooth/linear, perpetual
      attributes: half, newton on
      pair build: half/bin/newton
      stencil: half/bin/3d/newton
      bin: standard
 rebalancing time: 0.060 seconds
  iteration count = 5
  initial/final maximal load/proc = 2726.0000 2430.0000
  initial/final imbalance factor  = 2.1483245 1.9150508
  x cuts: 0.0000000 0.16666667 0.33333333 0.50000000 0.66666667 0.83333333 1.0000000
  y cuts: 0.0000000 0.25000000 0.50000000 0.75000000 1.0000000
  z cuts: 0.0000000 0.046875000 0.091517857 0.12946429 0.17410714 0.21651786 0.24776786 0.29241071 0.33035714 0.38392857 0.41294643 0.46205357 0.51116071 0.60491071 1.0000000

####################### WALLS ###########################

variable       epsilonWall equal 2*${epsilon}
variable       epsilonWall equal 2*1
variable       repulsive   equal   0.7147*${sigma}
variable       repulsive   equal   0.7147*1
variable       full	   equal   3*${sigma}
variable       full	   equal   3*1
#region         lowWall block EDGE EDGE EDGE EDGE EDGE 2

fix            topWall all wall/lj93 zhi EDGE 	       ${epsilonWall} ${sigma} ${repulsive} units box
fix            topWall all wall/lj93 zhi EDGE 	       2 ${sigma} ${repulsive} units box
fix            topWall all wall/lj93 zhi EDGE 	       2 1 ${repulsive} units box
fix            topWall all wall/lj93 zhi EDGE 	       2 1 0.7147 units box
fix            lowSol solvent wall/lj93 zlo EDGE                ${epsilonWall} ${sigma} ${full} units box
fix            lowSol solvent wall/lj93 zlo EDGE                2 ${sigma} ${full} units box
fix            lowSol solvent wall/lj93 zlo EDGE                2 1 ${full} units box
fix            lowSol solvent wall/lj93 zlo EDGE                2 1 3 units box
fix 	       lowCub cubes wall/lj93 zlo EDGE                ${epsilonWall} ${sigma} ${repulsive} units box
fix 	       lowCub cubes wall/lj93 zlo EDGE                2 ${sigma} ${repulsive} units box
fix 	       lowCub cubes wall/lj93 zlo EDGE                2 1 ${repulsive} units box
fix 	       lowCub cubes wall/lj93 zlo EDGE                2 1 0.7147 units box


###################### COMPUTES ##########################

compute        bin1 solvent chunk/atom bin/1d z lower 1.0 units box


######################  FIXES ############################


fix             peclet solvent ave/chunk 100 1 10000 bin1 density/number norm                  none ave one file density.profile

fix              temp solvent ave/chunk 100 1 10000 bin1 temp norm                  none ave one file temp.profile

fix             1 cubes rigid/nve/small molecule
  create bodies CPU = 0.030 seconds
  64 rigid bodies with 73152 atoms
  6.9282032 = max distance from body owner to body atom

fix             2 solvent nve


## Thermostat
region          regthermo block EDGE EDGE EDGE EDGE 0 15
group           thermo dynamic solvent region regthermo every 1000
dynamic group thermo defined
fix             3 thermo langevin ${temp} ${temp} 10 156453
fix             3 thermo langevin 0.6 ${temp} 10 156453
fix             3 thermo langevin 0.6 0.6 10 156453

## Evaporation
region		regevap block EDGE EDGE EDGE EDGE 140 EDGE
fix		4 solvent evaporate ${evap} 1 regevap 156415
fix		4 solvent evaporate 185 1 regevap 156415


#### Load balancing

fix             bal all balance 1000 1.05 shift z 10 1.05

############### Diagnostics and computes ###################

compute          cluster all cluster/atom 1.5
compute          cc1 all chunk/atom c_cluster compress yes
compute          size all property/chunk cc1 count
compute          myChunk all temp/chunk cc1 temp
fix              tempe all ave/time 5000 1 5000 c_myChunk file tmp.out mode scalar
compute          comChunk all com/chunk cc1
fix              com all ave/time 10000 1 10000 c_size c_comChunk[*] file com.xyz mode vector


compute        	com cubes          rigid/local   1 mol x y z
compute        	quat cubes         rigid/local   1 mol quatw quati quatj quatk

compute 	cc2 cubes 	   chunk/atom 	 molecule
compute 	msd cubes 	   msd/chunk 	 cc2

fix 		msd all ave/time  1 1 10000 c_msd[*] file dump.msd ave one mode vector

dump            1 all custom 100000 dump.lammpstrj id mol type x y z c_cluster c_cc1
dump		hulltrj hull custom 100000 hull.lammpstrj id mol type x y z
dump		cubestrj cubes custom 100000 cubes.lammpstrj id mol type x y z

dump            com cubes local 100000 dump.*.xyz c_com[*]
dump	        xyz cubes xyz 100000 cubes.*.xyz
dump            quat cubes      local 100000 dump.*.quat c_quat[*]


dump            2 all image 10000 image.*.png type type zoom 1.5 size 1280 720
dump_modify     2 pad 8
dump		image cubes image 10000 image_cubes.*.png type type zoom 1.5 size 1280 720
dump_modify	image pad 8
dump            3 all movie 5000 movie.avi type type zoom 1.5 size 1280 720
dump		4 cubes movie 5000 movie_cubes.avi type type zoom 1.5 size 1280 720


thermo          10000
thermo_style    custom step temp epair evdwl etotal press pe ke atoms

restart         1000000 restart.dat
timestep        0.005
timer           full
New timer settings: style=full  mode=nosync  timeout=off

run 		30000000
Neighbor list info ...
  update every 1 steps, delay 10 steps, check yes
  max neighbors/atom: 2000, page size: 100000
  master list distance cutoff = 4.4
  ghost atom cutoff = 6.95
  binsize = 2.2, bins = 37 37 73
  2 neighbor lists, perpetual/occasional/extra = 1 1 0
  (1) pair lj/smooth/linear, perpetual
      attributes: half, newton on
      pair build: half/bin/newton
      stencil: half/bin/3d/newton
      bin: standard
  (2) compute cluster/atom, occasional
      attributes: full, newton on
      pair build: full/bin
      stencil: full/bin/3d
      bin: standard
Per MPI rank memory allocation (min/avg/max) = 24.98 | 31.21 | 35.98 Mbytes
Step Temp E_pair E_vdwl TotEng Press PotEng KinEng Atoms 
       0   0.60459926   -2.6062658   -2.6062658   -1.8547004  0.016221924   -2.6062658   0.75156536   426349 
   10000   0.60543366   -2.6088217   -2.6088217   -1.8561238  0.037830036   -2.6088217   0.75269792   426295 
   20000    0.6034596   -2.6069559   -2.6069559   -1.8566172  0.024923087   -2.6069559   0.75033875   426241 
   30000   0.60444861   -2.6078605   -2.6078605   -1.8561968  0.043893617   -2.6078605   0.75166371   426187 
   40000   0.60439364   -2.6070464   -2.6070464   -1.8553558  0.034516165   -2.6070464   0.75169059   426133 
   50000   0.60309691   -2.6075466   -2.6075466   -1.8573737  0.038025886   -2.6075466    0.7501729   426079 
   60000   0.60373855   -2.6100284   -2.6100284   -1.8589622  0.031303824   -2.6100284   0.75106621   426025 
   70000   0.60341189   -2.6097722   -2.6097722   -1.8590172  0.041418593   -2.6097722   0.75075499   425971 
   80000    0.6033272   -2.6101934   -2.6101934   -1.8594486  0.035580031   -2.6101934   0.75074479   425917 
   90000   0.60386407   -2.6103484   -2.6103484   -1.8588403  0.026781072   -2.6103484   0.75150812   425863 
  100000    0.6044038   -2.6111411   -2.6111411   -1.8588659  0.031344163   -2.6111411   0.75227521   425809 
  110000   0.60369761   -2.6104294   -2.6104294   -1.8589378  0.037198319   -2.6104294   0.75149155   425755 
  120000   0.60361994    -2.610827    -2.610827   -1.8593368  0.038541982    -2.610827   0.75149017   425701 
  130000   0.60298042   -2.6093425   -2.6093425   -1.8585533  0.040777489   -2.6093425   0.75078922   425647 
  140000   0.60339403   -2.6103496   -2.6103496     -1.85895  0.034494921   -2.6103496   0.75139955   425593 
  150000   0.60541363   -2.6130965   -2.6130965   -1.8590863  0.033577391   -2.6130965    0.7540102   425539 
  160000   0.60419703   -2.6128734   -2.6128734    -1.860283  0.028203008   -2.6128734   0.75259049   425485 
  170000   0.60302234   -2.6113305   -2.6113305   -1.8601079  0.029046112   -2.6113305   0.75122263   425431 
  180000   0.60318994   -2.6135548   -2.6135548    -1.862028  0.033428778   -2.6135548   0.75152682   425377 
  190000   0.60313875   -2.6137476   -2.6137476   -1.8621874  0.035621342   -2.6137476   0.75156022   425322 
  200000   0.60244093   -2.6121107   -2.6121107   -1.8613247  0.040734805   -2.6121107     0.750786   425268 
  210000   0.60256499   -2.6131044   -2.6131044   -1.8620685  0.040162587   -2.6131044   0.75103597   425214 
  220000   0.60257797   -2.6153683   -2.6153683   -1.8642208  0.041753153   -2.6153683   0.75114754   425160 
  230000    0.6036308   -2.6149001   -2.6149001   -1.8623446  0.047498211   -2.6149001   0.75255554   425106 
  240000   0.60292619   -2.6140836   -2.6140836    -1.862311  0.034734202   -2.6140836   0.75177259   425052 
  250000   0.60180753   -2.6144987   -2.6144987   -1.8640256  0.038749273   -2.6144987    0.7504731   424998 
  260000   0.60209885   -2.6162861   -2.6162861   -1.8653543  0.048109648   -2.6162861    0.7509318   424944 
  270000   0.60219189   -2.6164089   -2.6164089   -1.8652656  0.032132758   -2.6164089   0.75114328   424890 
  280000   0.60139048   -2.6140164   -2.6140164   -1.8637774  0.038984668   -2.6140164     0.750239   424836 
  290000   0.60223733   -2.6170521   -2.6170521   -1.8656612  0.044198296   -2.6170521   0.75139096   424782 
  300000   0.60205567   -2.6175618   -2.6175618    -1.866302  0.028329498   -2.6175618   0.75125981   424728 
  310000   0.60186546   -2.6193747   -2.6193747   -1.8682567   0.03284437   -2.6193747   0.75111796   424674 
  320000   0.60185447    -2.620017    -2.620017   -1.8688172  0.027211595    -2.620017   0.75119976   424620 
  330000   0.60108322   -2.6192796   -2.6192796    -1.868947  0.033231774   -2.6192796   0.75033256   424566 
  340000   0.60188479   -2.6202762   -2.6202762   -1.8688475  0.045170075   -2.6202762   0.75142872   424512 
  350000   0.60123867   -2.6190787   -2.6190787   -1.8683612  0.038903246   -2.6190787   0.75071757   424458 
  360000   0.60018604   -2.6183046   -2.6183046    -1.868806  0.036679437   -2.6183046   0.74949859   424404 
  370000   0.60088158   -2.6177096   -2.6177096   -1.8672452  0.033993722   -2.6177096   0.75046442   424349 
  380000   0.60114907   -2.6200602   -2.6200602   -1.8691662  0.032337509   -2.6200602   0.75089405   424295 
  390000    0.6012454   -2.6209642   -2.6209642   -1.8698542  0.034996728   -2.6209642   0.75110997   424241 
  400000   0.59928844   -2.6210008   -2.6210008   -1.8722403  0.033922048   -2.6210008   0.74876053   424187 
  410000   0.60001581   -2.6232374   -2.6232374   -1.8734727  0.035480899   -2.6232374   0.74976476   424133 
  420000    0.5999607   -2.6206765   -2.6206765   -1.8708851  0.032572985   -2.6206765   0.74979136   424079 
  430000   0.59992137   -2.6214834   -2.6214834   -1.8716457  0.035656954   -2.6214834   0.74983769   424025 
  440000   0.60121766   -2.6240574   -2.6240574   -1.8725038  0.048649366   -2.6240574   0.75155363   423971 
  450000   0.59813875   -2.6219407   -2.6219407   -1.8741407  0.038220001   -2.6219407   0.74780007   423917 
  460000   0.59921595    -2.622644    -2.622644   -1.8734018   0.03927882    -2.622644   0.74924225   423863 
  470000   0.60061416   -2.6253305   -2.6253305   -1.8742443  0.038199484   -2.6253305   0.75108621   423809 
  480000   0.59842119   -2.6247029   -2.6247029   -1.8762637  0.031319561   -2.6247029   0.74843919   423755 
  490000   0.59781027   -2.6247126   -2.6247126   -1.8769422  0.027568712   -2.6247126   0.74777041   423701 
  500000   0.59801723    -2.622576    -2.622576   -1.8744514  0.038883169    -2.622576   0.74812464   423647 
  510000   0.59905934   -2.6246076   -2.6246076   -1.8750837  0.036885984   -2.6246076   0.74952387   423593 
  520000   0.59899121   -2.6239471   -2.6239471   -1.8744129  0.028086997   -2.6239471   0.74953417   423539 
  530000   0.59826011   -2.6225124   -2.6225124   -1.8737976  0.024047632   -2.6225124   0.74871479   423485 
  540000   0.59798672   -2.6222582   -2.6222582   -1.8737901  0.020855764   -2.6222582   0.74846808   423431 
  550000   0.59814117   -2.6240528   -2.6240528   -1.8752959  0.031380913   -2.6240528    0.7487569   423377 
  560000   0.59853584   -2.6254372   -2.6254372    -1.876089  0.030181946   -2.6254372   0.74934828   423322 
  570000    0.5972898   -2.6252675   -2.6252675   -1.8773839  0.027961049   -2.6252675   0.74788368   423268 
  580000   0.59780175   -2.6254502   -2.6254502     -1.87683  0.036107297   -2.6254502   0.74862022   423214 
  590000   0.59821302   -2.6266698   -2.6266698   -1.8774389  0.036318617   -2.6266698   0.74923084   423160 
  600000   0.59746974   -2.6246606   -2.6246606   -1.8762652  0.039609024   -2.6246606   0.74839543   423106 
  610000   0.59742635   -2.6264249   -2.6264249   -1.8779883  0.033260359   -2.6264249    0.7484366   423052 
  620000   0.59850634   -2.6271323   -2.6271323    -1.877247  0.035358104   -2.6271323    0.7498853   422998 
  630000   0.59721853   -2.6254737   -2.6254737   -1.8771064   0.03622876   -2.6254737    0.7483673   422944 
  640000   0.59692915   -2.6243937   -2.6243937   -1.8762935  0.036295601   -2.6243937    0.7481002   422890 
  650000    0.5973295   -2.6240406   -2.6240406   -1.8753431  0.032163547   -2.6240406   0.74869754   422836 
  660000   0.59781407   -2.6275911   -2.6275911   -1.8781905  0.030462518   -2.6275911    0.7494006   422782 
  670000   0.59644579   -2.6260371   -2.6260371   -1.8782562  0.036981967   -2.6260371   0.74778088   422728 
  680000   0.59576187    -2.625587    -2.625587   -1.8785681  0.035943583    -2.625587   0.74701886   422674 
  690000   0.59669418    -2.627267    -2.627267   -1.8789835  0.037592738    -2.627267   0.74828347   422620 
  700000   0.59631766   -2.6273952   -2.6273952   -1.8794883  0.035934466   -2.6273952   0.74790687   422566 
  710000   0.59778063   -2.6295487   -2.6295487   -1.8797111  0.028772834   -2.6295487   0.74983755   422512 
  720000   0.59613707    -2.628699    -2.628699   -1.8808275  0.032095953    -2.628699   0.74787151   422458 
  730000   0.59658801   -2.6281925   -2.6281925   -1.8796596  0.042933712   -2.6281925   0.74853291   422404 
  740000    0.5959844    -2.630616    -2.630616    -1.882743  0.038761534    -2.630616   0.74787294   422349 
  750000   0.59379621   -2.6287576   -2.6287576   -1.8835353  0.035110963   -2.6287576   0.74522237   422295 
  760000   0.59513624   -2.6279589   -2.6279589   -1.8809593  0.039723563   -2.6279589   0.74699964   422241 
  770000   0.59647339   -2.6298356   -2.6298356   -1.8810619  0.025157832   -2.6298356   0.74877376   422187 
  780000   0.59593405    -2.630392    -2.630392   -1.8821996  0.038266639    -2.630392    0.7481924   422133 
  790000   0.59421278   -2.6287872   -2.6287872   -1.8826604  0.025154506   -2.6287872   0.74612681   422079 
  800000    0.5955807   -2.6295726   -2.6295726   -1.8816325   0.02623756   -2.6295726   0.74794013   422025 
  810000   0.59520363   -2.6290431   -2.6290431   -1.8814808  0.036133961   -2.6290431   0.74756226   421971 
  820000   0.59575241   -2.6285846   -2.6285846   -1.8802373  0.031688107   -2.6285846   0.74834727   421917 
  830000    0.5954455   -2.6302039   -2.6302039   -1.8821464  0.031027675   -2.6302039   0.74805749   421863 
  840000   0.59526879   -2.6297976   -2.6297976   -1.8818664  0.037232984   -2.6297976   0.74793123   421809 
  850000   0.59491988   -2.6314001   -2.6314001   -1.8838115  0.033021943   -2.6314001   0.74758855   421755 
  860000     0.593573   -2.6298783   -2.6298783   -1.8838868  0.039865412   -2.6298783   0.74599155   421701 
  870000   0.59459898   -2.6315767   -2.6315767      -1.8842    0.0365892   -2.6315767   0.74737668   421647 
  880000   0.59559839   -2.6317858   -2.6317858    -1.883057  0.027770299   -2.6317858   0.74872877   421593 
  890000   0.59547307   -2.6307909   -2.6307909   -1.8821238  0.034923466   -2.6307909   0.74866712   421539 
  900000   0.59415701   -2.6294448   -2.6294448   -1.8823366  0.035294475   -2.6294448    0.7471082   421485 
  910000   0.59340985    -2.630446    -2.630446   -1.8841817  0.037287536    -2.630446   0.74626431   421431 
  920000    0.5938012    -2.631748    -2.631748   -1.8848959   0.03799908    -2.631748   0.74685215   421377 
  930000   0.59460449   -2.6347836   -2.6347836   -1.8868235  0.034686181   -2.6347836   0.74796013   421322 
  940000   0.59288932   -2.6334919   -2.6334919   -1.8875937  0.029413023   -2.6334919    0.7458982   421268 
  950000   0.59378919    -2.634294    -2.634294    -1.887168  0.026424342    -2.634294   0.74712606   421214 
  960000   0.59208293   -2.6329992   -2.6329992   -1.8879245  0.023454403   -2.6329992    0.7450747   421160 
  970000   0.59436067   -2.6355149   -2.6355149   -1.8874779  0.032365881   -2.6355149   0.74803691   421106 
  980000   0.59310823   -2.6354429   -2.6354429   -1.8888865  0.035211853   -2.6354429   0.74655639   421052 
  990000   0.59390489    -2.636255    -2.636255      -1.8886  0.035444348    -2.636255   0.74765504   420998 
 1000000   0.59345969   -2.6374356   -2.6374356   -1.8902452  0.031854803   -2.6374356   0.74719042   420944 
 1010000   0.59352994   -2.6376406   -2.6376406   -1.8902659  0.032911542   -2.6376406   0.74737475   420890 
 1020000    0.5929225   -2.6374656   -2.6374656   -1.8907599  0.027909838   -2.6374656   0.74670566   420836 
 1030000   0.59280121   -2.6373666   -2.6373666   -1.8907178  0.021521696   -2.6373666   0.74664872   420782 
 1040000     0.592915   -2.6369805   -2.6369805   -1.8900927  0.036146627   -2.6369805   0.74688789   420728 
 1050000   0.59281526   -2.6374385   -2.6374385   -1.8905804  0.040290462   -2.6374385    0.7468581   420674 
 1060000    0.5920694   -2.6374508   -2.6374508   -1.8914366   0.03205472   -2.6374508    0.7460142   420620 
 1070000   0.59263657   -2.6373046   -2.6373046   -1.8904799  0.035013696   -2.6373046   0.74682472   420566 
 1080000   0.59233187   -2.6383731   -2.6383731   -1.8918365  0.032860195   -2.6383731    0.7465366   420512 
 1090000   0.59208838   -2.6385411   -2.6385411   -1.8922156   0.02405488   -2.6385411   0.74632556   420458 
 1100000   0.59250751   -2.6373012   -2.6373012   -1.8903514  0.023755581   -2.6373012    0.7469498   420404 
 1110000   0.59319124   -2.6381956   -2.6381956    -1.890286  0.039317402   -2.6381956   0.74790959   420349 
 1120000   0.59166656   -2.6374947   -2.6374947   -1.8914116  0.032259448   -2.6374947   0.74608309   420295 
 1130000   0.59119065   -2.6377302   -2.6377302   -1.8921514  0.044488035   -2.6377302   0.74557877   420241 
 1140000   0.59252095   -2.6397447   -2.6397447   -1.8923922  0.031175393   -2.6397447   0.74735251   420187 
 1150000   0.59208104   -2.6402651   -2.6402651   -1.8933715   0.02869369   -2.6402651   0.74689363   420133 
 1160000   0.59214497    -2.639685    -2.639685   -1.8926147  0.028014758    -2.639685   0.74707029   420079 
 1170000   0.59049999   -2.6381492   -2.6381492   -1.8930585  0.030764723   -2.6381492   0.74509071   420025 
 1180000   0.59171519   -2.6384398   -2.6384398   -1.8917197  0.031529256   -2.6384398   0.74672005   419971 
 1190000   0.59064955   -2.6383471   -2.6383471    -1.892876  0.040918447   -2.6383471   0.74547111   419917 
 1200000    0.5910958    -2.639644    -2.639644   -1.8935138  0.034335754    -2.639644   0.74613028   419863 
 1210000   0.59084461   -2.6405863   -2.6405863   -1.8946772  0.041004033   -2.6405863   0.74590914   419809 
 1220000   0.59072831   -2.6407586   -2.6407586   -1.8949003  0.033648414   -2.6407586   0.74585826   419755 
 1230000   0.59096224   -2.6398503   -2.6398503   -1.8936006   0.02865046   -2.6398503   0.74624963   419701 
 1240000   0.59090377   -2.6400984   -2.6400984   -1.8938266  0.038438298   -2.6400984   0.74627181   419647 
 1250000     0.590518   -2.6405155   -2.6405155   -1.8946349  0.042462278   -2.6405155   0.74588059   419593 
 1260000   0.59042102   -2.6401973   -2.6401973   -1.8943432  0.043182649   -2.6401973   0.74585408   419539 
 1270000    0.5899185   -2.6398217   -2.6398217   -1.8945065  0.037617636   -2.6398217   0.74531519   419485 
 1280000   0.58985903   -2.6401043   -2.6401043   -1.8947683  0.026507105   -2.6401043     0.745336   419431 
 1290000   0.58905654   -2.6383587   -2.6383587   -1.8939409  0.028460658   -2.6383587   0.74441784   419377 
 1300000   0.59020649   -2.6424782   -2.6424782   -1.8965093  0.036433972   -2.6424782   0.74596891   419322 
 1310000   0.59065435   -2.6416468   -2.6416468   -1.8950157  0.029042507   -2.6416468   0.74663112   419268 
 1320000   0.58920002   -2.6405137   -2.6405137   -1.8956251  0.027658601   -2.6405137   0.74488868   419214 
 1330000   0.58912202   -2.6405199   -2.6405199   -1.8956339  0.029358279   -2.6405199   0.74488602   419160 
 1340000   0.58876501   -2.6418444   -2.6418444   -1.8973139  0.025851719   -2.6418444   0.74453053   419106 
 1350000   0.58999133   -2.6425281   -2.6425281   -1.8963507  0.034750295   -2.6425281   0.74617743   419052 
 1360000   0.58880355   -2.6401828   -2.6401828   -1.8954116  0.036225331   -2.6401828   0.74477119   418998 
 1370000   0.58923374   -2.6405859   -2.6405859   -1.8951745  0.034735516   -2.6405859    0.7454114   418944 
 1380000   0.58845513   -2.6403902   -2.6403902   -1.8958678  0.033442734   -2.6403902   0.74452238   418890 
 1390000   0.59005641   -2.6436748   -2.6436748   -1.8970302  0.037981202   -2.6436748    0.7466446   418836 
 1400000   0.58869904    -2.640513    -2.640513   -1.8954899  0.026140857    -2.640513   0.74502306   418782 
 1410000   0.58798936   -2.6408246   -2.6408246   -1.8966037  0.037633217   -2.6408246   0.74422089   418728 
 1420000   0.58791655   -2.6403943   -2.6403943   -1.8961696  0.035236659   -2.6403943   0.74422472   418674 
 1430000   0.58829635   -2.6413963   -2.6413963   -1.8965948  0.033281741   -2.6413963   0.74480156   418620 
 1440000   0.58723714   -2.6411997   -2.6411997   -1.8976432  0.030752716   -2.6411997   0.74355648   418566 
 1450000   0.58869309   -2.6444913   -2.6444913   -1.8989951   0.03132226   -2.6444913   0.74549618   418512 
 1460000   0.58709101    -2.642572    -2.642572   -1.8990087  0.036689898    -2.642572   0.74356331   418458 
 1470000   0.58792618   -2.6449768   -2.6449768   -1.9002596  0.038327814   -2.6449768   0.74471718   418404 
 1480000   0.58730351   -2.6437599   -2.6437599   -1.8997337  0.034868255   -2.6437599   0.74402625   418349 
 1490000   0.58670865   -2.6435531   -2.6435531   -1.9001844  0.023491579   -2.6435531    0.7433686   418295 
 1500000   0.58866558   -2.6452585   -2.6452585   -1.8993141  0.030088582   -2.6452585   0.74594436   418241 
 1510000   0.58780701   -2.6438055   -2.6438055   -1.8988529  0.041293982   -2.6438055   0.74495258   418187 
 1520000   0.58838787   -2.6449315   -2.6449315   -1.8991465  0.033110044   -2.6449315   0.74578503   418133 
 1530000   0.58711751   -2.6426226   -2.6426226   -1.8983517  0.031947029   -2.6426226   0.74427097   418079 
 1540000   0.58760706   -2.6445626   -2.6445626   -1.8995748  0.041663274   -2.6445626   0.74498778   418025 
 1550000   0.58819543   -2.6448865   -2.6448865   -1.8990565  0.037847655   -2.6448865   0.74583008   417971 
 1560000   0.58657118   -2.6422345   -2.6422345   -1.8983678  0.031046297   -2.6422345   0.74386664   417917 
 1570000   0.58654696   -2.6429797   -2.6429797   -1.8990476  0.029661432   -2.6429797   0.74393204   417863 
 1580000   0.58810603   -2.6451644   -2.6451644   -1.8991585  0.036744485   -2.6451644   0.74600586   417809 
 1590000   0.58646534    -2.646614    -2.646614   -1.9025932  0.029246536    -2.646614   0.74402083   417755 
 1600000   0.58572535   -2.6451652   -2.6451652   -1.9019871  0.033355059   -2.6451652   0.74317811   417701 
 1610000   0.58650831   -2.6451495   -2.6451495   -1.9008817  0.027706744   -2.6451495   0.74426774   417647 
 1620000   0.58621246   -2.6442878   -2.6442878   -1.9002993   0.03086127   -2.6442878   0.74398852   417593 
 1630000   0.58666794   -2.6464276   -2.6464276   -1.9017647  0.036009897   -2.6464276   0.74466288   417539 
 1640000   0.58512745   -2.6464237   -2.6464237   -1.9036201  0.034692046   -2.6464237   0.74280359   417485 
 1650000   0.58555357   -2.6470332   -2.6470332   -1.9035925  0.029311552   -2.6470332    0.7434407   417431 
 1660000   0.58528625   -2.6472571   -2.6472571   -1.9040597  0.030771447   -2.6472571   0.74319745   417377 
 1670000   0.58456333   -2.6465771   -2.6465771   -1.9041998  0.035358407   -2.6465771    0.7423773   417322 
 1680000   0.58591964   -2.6469998   -2.6469998   -1.9028037  0.025224821   -2.6469998   0.74419607   417268 
 1690000   0.58554118   -2.6452178   -2.6452178   -1.9014062  0.034830426   -2.6452178   0.74381164   417214 
 1700000   0.58590661   -2.6471872   -2.6471872    -1.902815  0.031667656   -2.6471872   0.74437218   417160 
 1710000   0.58490908   -2.6485585   -2.6485585   -1.9053574  0.050513082   -2.6485585   0.74320106   417106 
 1720000   0.58382255   -2.6458214   -2.6458214   -1.9039049  0.029638933   -2.6458214   0.74191654   417052 
 1730000   0.58385273    -2.645603    -2.645603    -1.903552  0.025687475    -2.645603   0.74205098   416998 
 1740000   0.58510688   -2.6474271   -2.6474271   -1.9036859  0.035194879   -2.6474271   0.74374126   416944 
 1750000   0.58466092   -2.6479556   -2.6479556   -1.9046849  0.031437481   -2.6479556   0.74327066   416890 
 1760000   0.58480493   -2.6489836   -2.6489836   -1.9054335  0.040034892   -2.6489836   0.74355005   416836 
 1770000   0.58419428   -2.6468467   -2.6468467   -1.9039769  0.021655439   -2.6468467   0.74286987   416782 
 1780000   0.58384081   -2.6491778   -2.6491778   -1.9066612  0.032262839   -2.6491778   0.74251659   416728 
 1790000   0.58407384   -2.6487272   -2.6487272   -1.9058179  0.039682652   -2.6487272   0.74290923   416674 
 1800000   0.58424366   -2.6488495   -2.6488495    -1.905628  0.035695366   -2.6488495   0.74322154   416620 
 1810000    0.5850304   -2.6491186   -2.6491186   -1.9047997  0.035296054   -2.6491186   0.74431885   416566 
 1820000   0.58397496   -2.6496893   -2.6496893   -1.9066169  0.038511819   -2.6496893   0.74307236   416512 
 1830000   0.58313765   -2.6491173   -2.6491173   -1.9070141  0.039380813   -2.6491173   0.74210314   416458 
 1840000   0.58324912   -2.6499164   -2.6499164   -1.9075752  0.038337182   -2.6499164   0.74234126   416404 
 1850000   0.58445195   -2.6514357   -2.6514357   -1.9074652  0.035270053   -2.6514357   0.74397044   416349 
 1860000   0.58277242   -2.6508917   -2.6508917    -1.908963  0.030512763   -2.6508917   0.74192873   416295 
 1870000   0.58275761    -2.650352    -2.650352   -1.9083459  0.025473769    -2.650352   0.74200614   416241 
 1880000   0.58268612    -2.651269    -2.651269   -1.9092576   0.03689858    -2.651269   0.74201137   416187 
 1890000   0.58175805   -2.6515155   -2.6515155   -1.9105899  0.033708057   -2.6515155   0.74092567   416133 
 1900000   0.58398197   -2.6531009   -2.6531009   -1.9092463  0.034205498   -2.6531009   0.74385458   416079 
 1910000   0.58348346   -2.6515739   -2.6515739   -1.9082579  0.033075124   -2.6515739   0.74331606   416025 
 1920000   0.58211337   -2.6492985   -2.6492985   -1.9076316  0.034374995   -2.6492985   0.74166693   415971 
 1930000   0.58215988   -2.6494788   -2.6494788   -1.9076563  0.029961071   -2.6494788    0.7418225   415917 
 1940000   0.58207109   -2.6513654   -2.6513654   -1.9095598  0.028440507   -2.6513654   0.74180566   415863 
 1950000     0.583313   -2.6522093   -2.6522093   -1.9087244  0.032293025   -2.6522093   0.74348493   415809 
 1960000   0.58294857   -2.6510343   -2.6510343   -1.9079174  0.040448295   -2.6510343   0.74311693   415755 
 1970000   0.58293063   -2.6499904   -2.6499904   -1.9067998   0.04311417   -2.6499904    0.7431906   415701 
 1980000   0.58363737   -2.6511619   -2.6511619   -1.9069736  0.024435478   -2.6511619    0.7441883   415647 
 1990000   0.58208155   -2.6512426   -2.6512426   -1.9089417  0.026677005   -2.6512426   0.74230093   415593 
 2000000   0.58304443   -2.6506743   -2.6506743   -1.9070488  0.037263154   -2.6506743   0.74362547   415539 
 2010000   0.58069766    -2.649459    -2.649459   -1.9087303  0.029991123    -2.649459   0.74072862   415485 
 2020000    0.5814802   -2.6502917   -2.6502917   -1.9084685  0.031374495   -2.6502917   0.74182323   415431 
 2030000   0.58229039   -2.6528599   -2.6528599   -1.9099065  0.037688345   -2.6528599    0.7429534   415377 
 2040000   0.58053435   -2.6505622   -2.6505622   -1.9097513  0.030428148   -2.6505622   0.74081093   415322 
 2050000   0.58215719    -2.652964    -2.652964   -1.9099856  0.031938444    -2.652964   0.74297841   415268 
 2060000   0.58302343   -2.6520919   -2.6520919   -1.9079112  0.034873366   -2.6520919   0.74418073   415214 
 2070000   0.58095098   -2.6497234   -2.6497234   -1.9080915  0.037407789   -2.6497234   0.74163186   415160 
 2080000   0.58194202   -2.6515427   -2.6515427    -1.908549  0.035714019   -2.6515427   0.74299366   415106 
 2090000   0.57981239   -2.6495784   -2.6495784   -1.9092075  0.033606034   -2.6495784   0.74037097   415052 
 2100000   0.58083391   -2.6516709   -2.6516709    -1.909899  0.033534759   -2.6516709   0.74177187   414998 
 2110000   0.58096909   -2.6524838   -2.6524838   -1.9104428  0.032943395   -2.6524838   0.74204105   414944 
 2120000   0.58090365   -2.6524113   -2.6524113   -1.9103573  0.029392348   -2.6524113   0.74205404   414890 
 2130000   0.58075209   -2.6519606   -2.6519606   -1.9100036  0.037954326   -2.6519606   0.74195701   414836 
 2140000   0.58035031   -2.6522785   -2.6522785   -1.9107382  0.048242642   -2.6522785   0.74154023   414782 
 2150000    0.5817519   -2.6513119   -2.6513119    -1.907884  0.037681186   -2.6513119   0.74342789   414728 
 2160000   0.58078775   -2.6509944   -2.6509944   -1.9087019  0.025479918   -2.6509944   0.74229244   414674 
 2170000   0.58056285   -2.6532493   -2.6532493   -1.9111477  0.028320624   -2.6532493   0.74210165   414620 
 2180000   0.57973392   -2.6538833   -2.6538833   -1.9127447  0.036633579   -2.6538833   0.74113859   414566 
 2190000   0.57848521   -2.6514905   -2.6514905    -1.911852  0.032047599   -2.6514905   0.73963857   414512 
 2200000   0.57810334   -2.6507412   -2.6507412   -1.9114945  0.031557002   -2.6507412   0.73924662   414458 
 2210000   0.57938562   -2.6538758   -2.6538758   -1.9128929  0.027893183   -2.6538758   0.74098287   414404 
 2220000   0.58122899   -2.6563199   -2.6563199   -1.9128808  0.032748008   -2.6563199   0.74343905   414349 
 2230000   0.58017676   -2.6548409   -2.6548409    -1.912651  0.033813108   -2.6548409   0.74218988   414295 
 2240000   0.57941533   -2.6532272   -2.6532272   -1.9119147  0.030463972   -2.6532272   0.74131246   414241 
 2250000   0.57975178   -2.6539708   -2.6539708   -1.9121312  0.030163349   -2.6539708   0.74183962   414187 
 2260000    0.5803858   -2.6538281   -2.6538281   -1.9110803  0.028361804   -2.6538281   0.74274773   414133 
 2270000   0.57865507   -2.6536081   -2.6536081   -1.9129787  0.029526892   -2.6536081   0.74062941   414079 
 2280000   0.57966164   -2.6531112   -2.6531112   -1.9110967  0.042369525   -2.6531112    0.7420145   414025 
 2290000   0.57798944   -2.6521001   -2.6521001   -1.9121296  0.032843133   -2.6521001   0.73997046   413971 
 2300000   0.57910763   -2.6530901   -2.6530901   -1.9115914  0.037317126   -2.6530901   0.74149874   413917 
 2310000   0.57737313   -2.6513289   -2.6513289   -1.9119545  0.030074007   -2.6513289   0.73937433   413863 
 2320000   0.57788379   -2.6543425   -2.6543425   -1.9142176  0.026048495   -2.6543425   0.74012484   413809 
 2330000   0.57879171    -2.656992    -2.656992   -1.9156076  0.039303906    -2.656992    0.7413844   413755 
 2340000   0.57719424   -2.6533208   -2.6533208   -1.9138861  0.033448338   -2.6533208   0.73943468   413701 
 2350000   0.57822635   -2.6526782   -2.6526782   -1.9118246  0.023025529   -2.6526782   0.74085361   413647 
 2360000   0.57792893   -2.6537036   -2.6537036   -1.9131344  0.036197404   -2.6537036   0.74056922   413593 
 2370000   0.57768889   -2.6534919   -2.6534919   -1.9131336  0.042665184   -2.6534919   0.74035828   413539 
 2380000   0.57751614   -2.6534593   -2.6534593   -1.9132257  0.032650998   -2.6534593   0.74023354   413485 
 2390000   0.57722654   -2.6526023   -2.6526023   -1.9126433   0.03188956   -2.6526023   0.73995898   413431 
 2400000   0.57739116   -2.6522684   -2.6522684   -1.9120017  0.027476821   -2.6522684   0.74026671   413377 
 2410000   0.57815036    -2.653633    -2.653633   -1.9122943   0.02792216    -2.653633   0.74133871   413322 
 2420000   0.57657278    -2.653102    -2.653102   -1.9136896  0.037570119    -2.653102   0.73941245   413268 
 2430000   0.57727374   -2.6547015   -2.6547015   -1.9142934  0.032063683   -2.6547015   0.74040812   413214 
 2440000    0.5776215   -2.6560621   -2.6560621   -1.9151111   0.03143325   -2.6560621   0.74095098   413160 
 2450000   0.57635312   -2.6524327   -2.6524327   -1.9130121  0.023959097   -2.6524327    0.7394206   413106 
 2460000   0.57733371   -2.6556998   -2.6556998   -1.9149243  0.031187305   -2.6556998   0.74077546   413052 
 2470000   0.57754197   -2.6551246   -2.6551246    -1.913985  0.025844709   -2.6551246   0.74113957   412998 
 2480000   0.57667985   -2.6553939   -2.6553939   -1.9152639   0.02141424   -2.6553939   0.74013001   412944 
 2490000   0.57788129   -2.6578334   -2.6578334   -1.9160644  0.035936088   -2.6578334   0.74176898   412890 
 2500000    0.5773849   -2.6569815   -2.6569815   -1.9157527  0.025786318   -2.6569815   0.74122876   412836 
 2510000   0.57544014   -2.6555674   -2.6555674   -1.9167386  0.033608541   -2.6555674   0.73882877   412782 
 2520000   0.57632432   -2.6564062   -2.6564062   -1.9163454  0.032083396   -2.6564062   0.74006082   412728 
 2530000   0.57581242     -2.65524     -2.65524   -1.9157398  0.038022401     -2.65524   0.73950023   412674 
 2540000   0.57563087   -2.6554732   -2.6554732   -1.9161094  0.026395689   -2.6554732   0.73936383   412620 
 2550000   0.57644325   -2.6568603   -2.6568603   -1.9163561   0.03426798   -2.6568603   0.74050419   412566 
 2560000   0.57559515   -2.6572419   -2.6572419   -1.9177304  0.028321946   -2.6572419   0.73951151   412512 
 2570000   0.57604811    -2.658321    -2.658321   -1.9181306  0.027681683    -2.658321   0.74019035   412458 
 2580000   0.57553089   -2.6581756   -2.6581756    -1.918553  0.032831404   -2.6581756   0.73962259   412404 
 2590000   0.57569304   -2.6583743   -2.6583743   -1.9184446  0.033861011   -2.6583743   0.73992965   412349 
 2600000   0.57501406   -2.6579925   -2.6579925   -1.9188387  0.038560501   -2.6579925   0.73915377   412295 
 2610000   0.57535329   -2.6594605   -2.6594605   -1.9197738  0.033335677   -2.6594605   0.73968671   412241 
 2620000   0.57508838    -2.659366    -2.659366    -1.919923  0.033982105    -2.659366   0.73944299   412187 
 2630000   0.57426212   -2.6557343   -2.6557343    -1.917257  0.021661376   -2.6557343   0.73847735   412133 
 2640000   0.57564682   -2.6568106   -2.6568106   -1.9164556   0.03369495   -2.6568106   0.74035501   412079 
 2650000   0.57524204   -2.6561864   -2.6561864    -1.916255  0.038026817   -2.6561864   0.73993139   412025 
 2660000   0.57529874   -2.6559142   -2.6559142   -1.9158129  0.037332591   -2.6559142   0.74010132   411971 
 2670000    0.5747517   -2.6568662   -2.6568662   -1.9173718  0.027765789   -2.6568662   0.73949449   411917 
 2680000   0.57477171   -2.6577859   -2.6577859   -1.9181687  0.033274965   -2.6577859    0.7396172   411863 
 2690000   0.57381103   -2.6576257   -2.6576257   -1.9191479  0.029531955   -2.6576257   0.73847782   411809 
 2700000   0.57369677   -2.6570426   -2.6570426    -1.918615  0.033208664   -2.6570426    0.7384276   411755 
 2710000   0.57433546   -2.6583562   -2.6583562   -1.9190096   0.02969291   -2.6583562   0.73934665   411701 
 2720000   0.57294784    -2.655733    -2.655733   -1.9180758  0.039033138    -2.655733    0.7376571   411647 
 2730000   0.57312815   -2.6544013   -2.6544013   -1.9164152  0.036413751   -2.6544013   0.73798606   411593 
 2740000   0.57353287   -2.6533059   -2.6533059   -1.9147018  0.025584955   -2.6533059    0.7386041   411539 
 2750000   0.57347196   -2.6538184   -2.6538184   -1.9151958  0.024198107   -2.6538184   0.73862258   411485 
 2760000   0.57476249   -2.6565745   -2.6565745   -1.9161926  0.028931699   -2.6565745   0.74038192   411431 
 2770000   0.57407431   -2.6570885   -2.6570885    -1.917496  0.039123324   -2.6570885    0.7395925   411377 
 2780000   0.57420221   -2.6568475   -2.6568475   -1.9169913   0.03493252   -2.6568475    0.7398562   411322 
 2790000   0.57342164   -2.6555783   -2.6555783   -1.9166309  0.041258814   -2.6555783   0.73894745   411268 
 2800000   0.57392674   -2.6556465   -2.6556465    -1.915951  0.023971178   -2.6556465   0.73969548   411214 
 2810000   0.57272841   -2.6532634   -2.6532634   -1.9150154  0.031933211   -2.6532634   0.73824798   411160 
 2820000   0.57388988   -2.6556561   -2.6556561   -1.9158138  0.031674584   -2.6556561   0.73984228   411106 
 2830000   0.57393011   -2.6565282   -2.6565282   -1.9165368  0.032287265   -2.6565282   0.73999135   411052 
 2840000   0.57312841   -2.6567281   -2.6567281   -1.9176734  0.028647676   -2.6567281   0.73905477   410998 
 2850000   0.57360674   -2.6565008   -2.6565008    -1.916732  0.035975809   -2.6565008   0.73976878   410944 
 2860000   0.57288774   -2.6543443   -2.6543443   -1.9154057  0.041040829   -2.6543443    0.7389386   410890 
 2870000   0.57252861   -2.6566578   -2.6566578   -1.9180854    0.0308834   -2.6566578   0.73857245   410836 
 2880000   0.57370205   -2.6579401   -2.6579401   -1.9177566  0.040456838   -2.6579401   0.74018349   410782 
 2890000   0.57189244   -2.6556786   -2.6556786   -1.9177329  0.030773037   -2.6556786   0.73794576   410728 
 2900000   0.57307057   -2.6557579   -2.6557579   -1.9161947    0.0245527   -2.6557579    0.7395632   410674 
 2910000    0.5729401   -2.6571917   -2.6571917   -1.9176996  0.032816823   -2.6571917   0.73949207   410620 
 2920000   0.57175084    -2.656073    -2.656073   -1.9180189   0.02931672    -2.656073   0.73805415   410566 
 2930000   0.57322104   -2.6587374   -2.6587374   -1.9186881  0.031336134   -2.6587374   0.74004932   410512 
 2940000   0.57166806   -2.6560902   -2.6560902   -1.9179487  0.023244518   -2.6560902   0.73814146   410458 
 2950000   0.57148246   -2.6558804   -2.6558804   -1.9178815  0.038034668   -2.6558804   0.73799891   410404 
 2960000   0.57185541   -2.6567687   -2.6567687   -1.9181892   0.02755352   -2.6567687    0.7385795   410349 
 2970000   0.57137563   -2.6580058   -2.6580058   -1.9199488  0.033598134   -2.6580058   0.73805697   410295 
 2980000    0.5706636   -2.6550999   -2.6550999   -1.9178656  0.029346399   -2.6550999   0.73723426   410241 
 2990000   0.57311344   -2.6564878   -2.6564878   -1.9159912  0.037681269   -2.6564878   0.74049665   410187 
 3000000   0.57230953     -2.65685     -2.65685   -1.9172947  0.028397915     -2.65685   0.73955532   410133 
 3010000   0.57205992   -2.6570639   -2.6570639   -1.9177338  0.033818836   -2.6570639    0.7393301   410079 
 3020000   0.57126459   -2.6567106   -2.6567106   -1.9183112  0.028762988   -2.6567106   0.73839945   410025 
 3030000   0.57232246   -2.6573048   -2.6573048   -1.9174405   0.03536623   -2.6573048   0.73986426   409971 
 3040000   0.57215469   -2.6576267   -2.6576267   -1.9178819  0.018957274   -2.6576267   0.73974482   409917 
 3050000   0.57237117   -2.6590343   -2.6590343   -1.9189121  0.036602205   -2.6590343    0.7401222   409863 
 3060000   0.57204101   -2.6589588   -2.6589588    -1.919166  0.027039476   -2.6589588   0.73979275   409809 
 3070000   0.57223276   -2.6570802   -2.6570802   -1.9169419  0.027384895   -2.6570802   0.74013826   409755 
 3080000   0.57051913   -2.6542851   -2.6542851    -1.916266  0.028317302   -2.6542851   0.73801907   409701 
 3090000   0.57109814   -2.6565386   -2.6565386   -1.9176732   0.03090526   -2.6565386   0.73886546   409647 
 3100000   0.57098411   -2.6602504   -2.6602504   -1.9214351  0.031794505   -2.6602504   0.73881532   409593 
 3110000   0.57035882   -2.6565591   -2.6565591   -1.9184556  0.033913948   -2.6565591   0.73810355   409539 
 3120000   0.56902323   -2.6545374   -2.6545374   -1.9180651  0.035952614   -2.6545374   0.73647227   409485 
 3130000   0.56982781    -2.654891    -2.654891   -1.9172801  0.029401323    -2.654891   0.73761088   409431 
 3140000   0.57118042   -2.6574229   -2.6574229   -1.9179636  0.037218054   -2.6574229   0.73945929   409377 
 3150000   0.57187822   -2.6585077   -2.6585077   -1.9180455  0.026383716   -2.6585077   0.74046215   409322 
 3160000   0.57120026   -2.6591945   -2.6591945   -1.9195126   0.03503262   -2.6591945   0.73968192   409268 
 3170000   0.57232057   -2.6613227   -2.6613227   -1.9200922   0.03441353   -2.6613227   0.74123048   409214 
 3180000   0.56948506   -2.6578797   -2.6578797   -1.9202243   0.04095483   -2.6578797   0.73765546   409160 
 3190000   0.57011242   -2.6582619   -2.6582619   -1.9196964  0.034405175   -2.6582619   0.73856556   409106 
 3200000   0.56977994   -2.6589018   -2.6589018   -1.9206695  0.036017516   -2.6589018   0.73823228   409052 
 3210000   0.56999214   -2.6599809   -2.6599809   -1.9213762  0.032473715   -2.6599809   0.73860473   408998 
 3220000   0.57066765   -2.6600203   -2.6600203   -1.9204426  0.036788894   -2.6600203    0.7395777   408944 
 3230000   0.56978923   -2.6598124   -2.6598124   -1.9212756  0.030621287   -2.6598124    0.7385368   408890 
 3240000   0.56944416   -2.6590638   -2.6590638   -1.9208768  0.036827272   -2.6590638   0.73818703   408836 
 3250000   0.56874456   -2.6575693   -2.6575693   -1.9201918  0.032917827   -2.6575693   0.73737752   408782 
 3260000   0.56888044    -2.657509    -2.657509   -1.9198578   0.02902935    -2.657509   0.73765113   408728 
 3270000    0.5694814   -2.6590996   -2.6590996   -1.9205716  0.039255585   -2.6590996   0.73852795   408674 
 3280000   0.56912353   -2.6588665   -2.6588665   -1.9207051  0.031230314   -2.6588665   0.73816138   408620 
 3290000   0.56818337   -2.6581608   -2.6581608   -1.9211214  0.031503215   -2.6581608   0.73703938   408566 
 3300000   0.56829455   -2.6588047   -2.6588047   -1.9215237  0.040901157   -2.6588047   0.73728104   408512 
 3310000   0.56769751   -2.6586692   -2.6586692   -1.9220653   0.02177263   -2.6586692   0.73660384   408458 
 3320000    0.5689897   -2.6571902   -2.6571902   -1.9188121  0.027689304   -2.6571902   0.73837811   408404 
 3330000   0.56850199   -2.6585466   -2.6585466    -1.920702  0.030747182   -2.6585466   0.73784458   408349 
 3340000   0.56825597   -2.6578127   -2.6578127   -1.9201898  0.022118514   -2.6578127   0.73762282   408295 
 3350000   0.56750174    -2.657065    -2.657065   -1.9203237  0.030155535    -2.657065   0.73674123   408241 
 3360000   0.56826003   -2.6588574   -2.6588574   -1.9210341  0.031521254   -2.6588574   0.73782325   408187 
 3370000   0.56869951   -2.6601696   -2.6601696   -1.9216781   0.02872869   -2.6601696   0.73849157   408133 
 3380000   0.56761566   -2.6578894   -2.6578894   -1.9207078  0.032343452   -2.6578894   0.73718166   408079 
 3390000   0.56918019   -2.6589598   -2.6589598   -1.9196484  0.040756397   -2.6589598    0.7393114   408025 
 3400000   0.56844049   -2.6586676   -2.6586676   -1.9202193  0.033939732   -2.6586676   0.73844833   407971 
 3410000   0.56746558   -2.6582639   -2.6582639   -1.9209845  0.019244358   -2.6582639   0.73727943   407917 
 3420000   0.56718735   -2.6573291   -2.6573291   -1.9203136  0.032099477   -2.6573291   0.73701551   407863 
 3430000   0.56619784   -2.6571295   -2.6571295   -1.9213024  0.028196103   -2.6571295   0.73582713   407809 
 3440000   0.56790245   -2.6608196   -2.6608196   -1.9226794   0.03019217   -2.6608196   0.73814018   407755 
 3450000   0.56823676   -2.6602278   -2.6602278   -1.9215552  0.028110225   -2.6602278   0.73867252   407701 
 3460000   0.56749842   -2.6592961   -2.6592961   -1.9214856  0.037405842   -2.6592961   0.73781046   407647 
 3470000   0.56710257   -2.6597856   -2.6597856   -1.9223921  0.024619728   -2.6597856   0.73739349   407593 
 3480000   0.56692815    -2.660156    -2.660156   -1.9228916  0.029129786    -2.660156   0.73726436   407539 
 3490000   0.56725672   -2.6602232   -2.6602232   -1.9224337  0.025041053   -2.6602232   0.73778942   407485 
 3500000   0.56662977    -2.659379    -2.659379   -1.9223073  0.035409113    -2.659379   0.73707166   407431 
 3510000   0.56700916   -2.6610302   -2.6610302   -1.9233672  0.025977241   -2.6610302   0.73766295   407377 
 3520000   0.56633015   -2.6605251   -2.6605251    -1.923646  0.020495891   -2.6605251   0.73687905   407322 
 3530000   0.56833042   -2.6629062   -2.6629062   -1.9233265  0.032850321   -2.6629062   0.73957975   407268 
 3540000    0.5651265   -2.6580501   -2.6580501   -1.9225421   0.01991233   -2.6580501   0.73550794   407214 
 3550000   0.56653752   -2.6597403   -2.6597403   -1.9222982  0.029831538   -2.6597403   0.73744218   407160 
 3560000   0.56733632   -2.6601751   -2.6601751   -1.9215952  0.027756923   -2.6601751    0.7385799   407106 
 3570000   0.56602574   -2.6577217   -2.6577217   -1.9207502  0.023758656   -2.6577217   0.73697149   407052 
 3580000   0.56587016   -2.6578635   -2.6578635   -1.9209969  0.033205905   -2.6578635   0.73686667   406998 
 3590000   0.56712782   -2.6602137   -2.6602137   -1.9216114  0.034154485   -2.6602137   0.73860237   406944 
 3600000   0.56581342   -2.6589896   -2.6589896   -1.9220013   0.04721382   -2.6589896   0.73698835   406890 
 3610000   0.56503781   -2.6573954   -2.6573954   -1.9213197  0.036186432   -2.6573954   0.73607578   406836 
 3620000   0.56628922   -2.6595753   -2.6595753   -1.9217713  0.020645679   -2.6595753   0.73780393   406782 
 3630000    0.5644306   -2.6579148   -2.6579148   -1.9224348  0.036638366   -2.6579148   0.73548002   406728 
 3640000   0.56568985   -2.6578191   -2.6578191   -1.9206004  0.019990679   -2.6578191   0.73721875   406674 
 3650000   0.56634701   -2.6603733   -2.6603733   -1.9222001  0.025385709   -2.6603733    0.7381732   406620 
 3660000   0.56561943   -2.6594954   -2.6594954   -1.9221726  0.033907883   -2.6594954   0.73732279   406566 
 3670000   0.56403057   -2.6560201   -2.6560201   -1.9206708  0.029028843   -2.6560201   0.73534927   406512 
 3680000   0.56507517   -2.6593203   -2.6593203   -1.9225113  0.035661318   -2.6593203   0.73680905   406458 
 3690000    0.5653315   -2.6605117   -2.6605117   -1.9232705  0.030966689   -2.6605117   0.73724122   406404 
 3700000    0.5646824   -2.6602172   -2.6602172   -1.9237228   0.02611097   -2.6602172   0.73649441   406349 
 3710000   0.56509022   -2.6613672   -2.6613672    -1.924243  0.029278436   -2.6613672   0.73712427   406295 
 3720000   0.56461983   -2.6614946   -2.6614946    -1.924886  0.024393254   -2.6614946   0.73660857   406241 
 3730000   0.56386344   -2.6601606   -2.6601606    -1.924441  0.021183345   -2.6601606   0.73571958   406187 
 3740000   0.56469704   -2.6600052   -2.6600052      -1.9231  0.033668321   -2.6600052   0.73690522   406133 
 3750000   0.56445735   -2.6593615   -2.6593615   -1.9226711  0.026056574   -2.6593615   0.73669039   406079 
 3760000   0.56420351   -2.6585547   -2.6585547   -1.9220977  0.033924287   -2.6585547   0.73645702   406025 
 3770000   0.56608121   -2.6622388   -2.6622388   -1.9232325  0.031077144   -2.6622388   0.73900627   405971 
 3780000   0.56379146   -2.6591656   -2.6591656   -1.9230506  0.030269943   -2.6591656   0.73611497   405917 
 3790000   0.56315292   -2.6578144   -2.6578144   -1.9224353  0.024218107   -2.6578144   0.73537909   405863 
 3800000   0.56384454   -2.6587303   -2.6587303   -1.9223501  0.025861039   -2.6587303    0.7363802   405809 
 3810000   0.56362644   -2.6586936   -2.6586936   -1.9225003  0.027332291   -2.6586936   0.73619333   405755 
 3820000   0.56447407   -2.6603548   -2.6603548   -1.9229562  0.032673771   -2.6603548   0.73739862   405701 
 3830000   0.56375783   -2.6611782   -2.6611782   -1.9246172  0.031138258   -2.6611782   0.73656099   405647 
 3840000   0.56466144   -2.6623862   -2.6623862   -1.9245464  0.041277196   -2.6623862    0.7378398   405593 
 3850000    0.5632261   -2.6594615   -2.6594615   -1.9233992   0.03536777   -2.6594615   0.73606224   405539 
 3860000   0.56244349   -2.6596111   -2.6596111   -1.9244737  0.035242977   -2.6596111   0.73513737   405485 
 3870000   0.56248731   -2.6607028   -2.6607028   -1.9254102   0.03073983   -2.6607028   0.73529256   405431 
 3880000   0.56285438   -2.6606009   -2.6606009   -1.9247305  0.030462999   -2.6606009   0.73587042   405377 
 3890000   0.56368109   -2.6619779   -2.6619779   -1.9249267  0.031476972   -2.6619779   0.73705125   405322 
 3900000   0.56329493   -2.6591239   -2.6591239   -1.9224794  0.034265492   -2.6591239   0.73664445   405268 
 3910000   0.56268299   -2.6601969   -2.6601969   -1.9242546  0.027066725   -2.6601969   0.73594226   405214 
 3920000   0.56311481   -2.6641809   -2.6641809   -1.9275757  0.031927234   -2.6641809    0.7366052   405160 
 3930000   0.56243182   -2.6633599   -2.6633599   -1.9275501  0.033085061   -2.6633599   0.73580987   405106 
 3940000   0.56263705   -2.6618911   -2.6618911   -1.9257146  0.033256486   -2.6618911   0.73617649   405052 
 3950000   0.56192399   -2.6612668   -2.6612668   -1.9259252  0.035948332   -2.6612668   0.73534153   404998 
 3960000   0.56142697   -2.6614134   -2.6614134   -1.9266243  0.027448437   -2.6614134   0.73478909   404944 
 3970000   0.56154882    -2.659631    -2.659631   -1.9245844    0.0271932    -2.659631   0.73504658   404890 
 3980000    0.5631936   -2.6607616   -2.6607616   -1.9234637  0.032877614   -2.6607616   0.73729788   404836 
 3990000   0.56189953   -2.6610932   -2.6610932   -1.9253913  0.026782961   -2.6610932    0.7357019   404782 
 4000000    0.5609853   -2.6619757   -2.6619757   -1.9273728   0.03839527   -2.6619757   0.73460289   404728 
 4010000   0.56110572   -2.6622579   -2.6622579   -1.9273993  0.036013346   -2.6622579   0.73485862   404674 
 4020000   0.56240319   -2.6630152   -2.6630152    -1.926359  0.037392161   -2.6630152   0.73665616   404620 
 4030000   0.56115528   -2.6620258   -2.6620258   -1.9269061  0.031475457   -2.6620258   0.73511972   404566 
 4040000   0.56161686   -2.6623918   -2.6623918   -1.9265692   0.01910235   -2.6623918    0.7358226   404512 
 4050000   0.56159966   -2.6609205   -2.6609205   -1.9250222  0.029697918   -2.6609205    0.7358983   404458 
 4060000   0.56163532   -2.6601144   -2.6601144   -1.9240711  0.039211848   -2.6601144    0.7360433   404404 
 4070000   0.56273898   -2.6610011   -2.6610011   -1.9234111  0.030596565   -2.6610011   0.73759001   404349 
 4080000     0.560895   -2.6610485   -2.6610485   -1.9257773  0.024184607   -2.6610485   0.73527127   404295 
 4090000   0.56083083   -2.6622298   -2.6622298   -1.9269444  0.036349964   -2.6622298   0.73528536   404241 
 4100000    0.5601171   -2.6613564   -2.6613564   -1.9269087  0.026174607   -2.6613564   0.73444772   404187 
 4110000   0.55999508   -2.6628105   -2.6628105   -1.9284247  0.019620375   -2.6628105   0.73438584   404133 
 4120000   0.56200125   -2.6621616   -2.6621616   -1.9250463  0.027208212   -2.6621616   0.73711525   404079 
 4130000   0.56147063   -2.6609403   -2.6609403   -1.9244226  0.029957889   -2.6609403   0.73651773   404025 
 4140000     0.559743   -2.6592881   -2.6592881   -1.9249385  0.034639993   -2.6592881   0.73434963   403971 
 4150000   0.56113508   -2.6621135   -2.6621135   -1.9258391  0.037957486   -2.6621135   0.73627437   403917 
 4160000   0.56005912    -2.660296    -2.660296   -1.9253352  0.036338036    -2.660296   0.73496085   403863 
 4170000   0.56125496   -2.6604289   -2.6604289   -1.9238003  0.027559319   -2.6604289   0.73662863   403809 
 4180000   0.55934089   -2.6582786   -2.6582786    -1.924064  0.031069009   -2.6582786   0.73421467   403755 
 4190000   0.56053518   -2.6610058   -2.6610058   -1.9251251  0.035059384   -2.6610058   0.73588076   403701 
 4200000   0.55998923   -2.6595114   -2.6595114    -1.924249  0.022458053   -2.6595114   0.73526237   403647 
 4210000   0.55985895   -2.6600357   -2.6600357    -1.924846  0.029263457   -2.6600357   0.73518967   403593 
 4220000   0.55953432   -2.6571527   -2.6571527    -1.922291  0.028556107   -2.6571527    0.7348617   403539 
 4230000   0.55942867   -2.6586839   -2.6586839   -1.9238626  0.033548053   -2.6586839   0.73482128   403485 
 4240000   0.56107479   -2.6619231   -2.6619231    -1.924841  0.023877136   -2.6619231   0.73708214   403431 
 4250000   0.55925783   -2.6589005   -2.6589005   -1.9241069  0.037141475   -2.6589005   0.73479355   403377 
 4260000   0.55940923   -2.6597032   -2.6597032   -1.9246105  0.030665352   -2.6597032    0.7350927   403322 
 4270000   0.56057281   -2.6606869   -2.6606869   -1.9239665  0.031680643   -2.6606869   0.73672034   403268 
 4280000   0.56013208   -2.6605213   -2.6605213   -1.9242816  0.028032877   -2.6605213   0.73623972   403214 
 4290000   0.55948907    -2.660547    -2.660547    -1.925054  0.038943681    -2.660547   0.73549304   403160 
 4300000   0.55985009   -2.6616591   -2.6616591   -1.9255929   0.02829914   -2.6616591   0.73606623   403106 
 4310000   0.55947976   -2.6625505   -2.6625505   -1.9268726  0.030504766   -2.6625505   0.73567787   403052 
 4320000   0.55766274   -2.6598117   -2.6598117   -1.9264248  0.024879861   -2.6598117   0.73338688   402998 
 4330000   0.56029957   -2.6635762   -2.6635762   -1.9266228  0.030903054   -2.6635762   0.73695334   402944 
 4340000   0.55927677   -2.6601868   -2.6601868   -1.9244802  0.036440339   -2.6601868   0.73570666   402890 
 4350000   0.55764046    -2.659144    -2.659144   -1.9254915  0.027886679    -2.659144   0.73365249   402836 
 4360000   0.55923858   -2.6619843   -2.6619843   -1.9261306  0.031883458   -2.6619843   0.73585368   402782 
 4370000    0.5585055   -2.6625228   -2.6625228   -1.9275352  0.037242331   -2.6625228   0.73498763   402728 
 4380000   0.55773159   -2.6600936   -2.6600936    -1.926026  0.023608781   -2.6600936   0.73406759   402674 
 4390000   0.55904033   -2.6626393   -2.6626393   -1.9267505  0.027971059   -2.6626393    0.7358888   402620 
 4400000   0.55811347   -2.6615447   -2.6615447   -1.9267774  0.030579882   -2.6615447   0.73476728   402566 
 4410000   0.55884466   -2.6613177   -2.6613177   -1.9254891  0.028769802   -2.6613177   0.73582861   402512 
 4420000    0.5579393   -2.6593295   -2.6593295   -1.9245944  0.025841451   -2.6593295    0.7347351   402458 
 4430000   0.55734445   -2.6590425   -2.6590425   -1.9249923  0.028102978   -2.6590425   0.73405025   402404 
 4440000   0.55878216   -2.6597768   -2.6597768   -1.9237324   0.02822912   -2.6597768   0.73604438   402349 
 4450000   0.55897805   -2.6582991   -2.6582991   -1.9218979  0.032016897   -2.6582991   0.73640126   402295 
 4460000   0.55748109   -2.6567163   -2.6567163   -1.9221885  0.035071794   -2.6567163   0.73452774   402241 
 4470000   0.55898521   -2.6599017   -2.6599017   -1.9232933  0.035957468   -2.6599017   0.73660843   402187 
 4480000   0.55802388   -2.6593418   -2.6593418   -1.9239014  0.030261889   -2.6593418   0.73544037   402133 
 4490000   0.55718934   -2.6584448   -2.6584448   -1.9240057  0.030320569   -2.6584448   0.73443913   402079 
 4500000   0.55705888   -2.6588339   -2.6588339   -1.9244681  0.028749144   -2.6588339   0.73436579   402025 
 4510000   0.55909873   -2.6617599   -2.6617599    -1.924606  0.038429222   -2.6617599   0.73715393   401971 
 4520000   0.55839918   -2.6605098   -2.6605098   -1.9241793  0.024334873   -2.6605098    0.7363305   401917 
 4530000    0.5565399   -2.6585294   -2.6585294   -1.9245521  0.030414411   -2.6585294   0.73397739   401863 
 4540000    0.5573803   -2.6591931   -2.6591931   -1.9240086  0.031169453   -2.6591931   0.73518452   401809 
 4550000   0.55754996   -2.6606263   -2.6606263   -1.9251192  0.031857467   -2.6606263   0.73550714   401755 
 4560000   0.55608322   -2.6603361   -2.6603361   -1.9266652   0.03040338   -2.6603361   0.73367087   401701 
 4570000   0.55831743   -2.6613001   -2.6613001   -1.9245824  0.038153908   -2.6613001   0.73671762   401647 
 4580000   0.55582971   -2.6584655   -2.6584655   -1.9249319  0.032552582   -2.6584655   0.73353362   401593 
 4590000    0.5570638   -2.6609832   -2.6609832    -1.925722  0.026607152   -2.6609832   0.73526112   401539 
 4600000   0.55694517   -2.6615027   -2.6615027   -1.9262993  0.030295878   -2.6615027   0.73520342   401485 
 4610000   0.55618381   -2.6592616   -2.6592616   -1.9249645  0.037143809   -2.6592616   0.73429714   401431 
 4620000   0.55700183   -2.6608379   -2.6608379   -1.9253618  0.030592883   -2.6608379   0.73547605   401377 
 4630000   0.55741777   -2.6615455   -2.6615455   -1.9254194  0.033769352   -2.6615455   0.73612614   401322 
 4640000   0.55555618   -2.6592067   -2.6592067   -1.9254402  0.026874681   -2.6592067   0.73376646   401268 
 4650000   0.55751345   -2.6615102   -2.6615102   -1.9250595  0.027380391   -2.6615102   0.73645068   401214 
 4660000   0.55560867   -2.6608169   -2.6608169   -1.9267835   0.03050174   -2.6608169   0.73403335   401160 
 4670000   0.55577181   -2.6600658   -2.6600658   -1.9257181  0.032761217   -2.6600658   0.73434773   401106 
 4680000   0.55544944   -2.6601076   -2.6601076    -1.926087  0.037007633   -2.6601076   0.73402059   401052 
 4690000   0.55415724   -2.6599698   -2.6599698   -1.9275582  0.025420704   -2.6599698   0.73241158   400998 
 4700000   0.55549949   -2.6605317   -2.6605317   -1.9262472  0.044075713   -2.6605317   0.73428447   400944 
 4710000   0.55570233   -2.6601919   -2.6601919   -1.9255403  0.029613679   -2.6601919   0.73465154   400890 
 4720000   0.55432583   -2.6583714   -2.6583714   -1.9254409    0.0217585   -2.6583714    0.7329305   400836 
 4730000   0.55592108   -2.6606015   -2.6606015   -1.9254627  0.029187289   -2.6606015   0.73513878   400782 
 4740000   0.55638475   -2.6621005   -2.6621005   -1.9262494  0.038161268   -2.6621005   0.73585107   400728 
 4750000   0.55589218   -2.6605431   -2.6605431   -1.9252444  0.039917093   -2.6605431   0.73529871   400674 
 4760000   0.55492989   -2.6602022   -2.6602022   -1.9260774  0.032562255   -2.6602022   0.73412479   400620 
 4770000   0.55568469   -2.6600088   -2.6600088   -1.9247863  0.031236679   -2.6600088   0.73522242   400566 
 4780000   0.55385305   -2.6572129   -2.6572129   -1.9243151  0.023633334   -2.6572129   0.73289779   400512 
 4790000   0.55561627   -2.6595781   -2.6595781    -1.924248  0.029297418   -2.6595781   0.73533016   400458 
 4800000   0.55427037    -2.656951    -2.656951   -1.9233032  0.031321256    -2.656951   0.73364786   400404 
 4810000   0.55480173   -2.6591194   -2.6591194   -1.9246673   0.03534003   -2.6591194   0.73445206   400349 
 4820000   0.55388149   -2.6602001   -2.6602001   -1.9268674  0.021918837   -2.6602001   0.73333275   400295 
 4830000   0.55513829   -2.6615458   -2.6615458   -1.9264499   0.03612856   -2.6615458   0.73509591   400241 
 4840000   0.55513434   -2.6630857   -2.6630857   -1.9278958  0.029512003   -2.6630857   0.73518987   400187 
 4850000   0.55384783   -2.6616141   -2.6616141    -1.928029  0.027434056   -2.6616141   0.73358507   400133 
 4860000   0.55374662    -2.660382    -2.660382    -1.926832  0.028405042    -2.660382   0.73355002   400079 
 4870000   0.55324443   -2.6596365   -2.6596365   -1.9266528  0.032032109   -2.6596365   0.73298369   400025 
 4880000   0.55419529   -2.6608932   -2.6608932   -1.9265506  0.021909547   -2.6608932    0.7343426   399971 
 4890000   0.55273983   -2.6599677   -2.6599677   -1.9274548  0.025671185   -2.6599677   0.73251292   399917 
 4900000   0.55262753   -2.6579335   -2.6579335   -1.9254705  0.033485013   -2.6579335   0.73246301   399863 
 4910000   0.55350129   -2.6587721   -2.6587721   -1.9250519  0.033031298   -2.6587721   0.73372018   399809 
 4920000   0.55455166   -2.6590587   -2.6590587   -1.9238469  0.017423373   -2.6590587   0.73521186   399755 
 4930000   0.55498089   -2.6609023   -2.6609023    -1.925022  0.035026621   -2.6609023   0.73588033   399701 
 4940000   0.55291863   -2.6565194   -2.6565194   -1.9232745  0.027294567   -2.6565194   0.73324493   399647 
 4950000   0.55330012   -2.6578577   -2.6578577   -1.9240077  0.043286256   -2.6578577   0.73384998   399593 
 4960000    0.5530715   -2.6569631   -2.6569631   -1.9233172  0.034204609   -2.6569631    0.7336459   399539 
 4970000   0.55308139   -2.6592313   -2.6592313   -1.9254731  0.029718278   -2.6592313   0.73375819   399485 
 4980000   0.55348928   -2.6612042   -2.6612042   -1.9268056   0.04147455   -2.6612042   0.73439861   399431 
 4990000   0.55167205    -2.658699    -2.658699   -1.9266127   0.03747702    -2.658699   0.73208638   399377 
 5000000   0.55235942   -2.6601645   -2.6601645    -1.927065  0.030230826   -2.6601645    0.7330995   399322 
 5010000   0.55258154   -2.6607679   -2.6607679   -1.9272744  0.034246855   -2.6607679   0.73349349   399268 
 5020000   0.55227829   -2.6611882   -2.6611882    -1.927998  0.028813859   -2.6611882   0.73319013   399214 
 5030000   0.55225936   -2.6615861   -2.6615861   -1.9283219  0.027105268   -2.6615861   0.73326418   399160 
 5040000   0.55270449   -2.6619749   -2.6619749   -1.9280204  0.036362424   -2.6619749    0.7339545   399106 
 5050000   0.55204262   -2.6608682   -2.6608682   -1.9276934   0.02840426   -2.6608682   0.73317477   399052 
 5060000   0.55104367   -2.6617985   -2.6617985   -1.9298514  0.032998465   -2.6617985    0.7319471   398998 
 5070000   0.55274412   -2.6623805   -2.6623805   -1.9280754  0.037692555   -2.6623805   0.73430517   398944 
 5080000   0.55058912   -2.6598067   -2.6598067   -1.9282653  0.030408178   -2.6598067   0.73154134   398890 
 5090000   0.55270545    -2.662288    -2.662288   -1.9278354  0.026209765    -2.662288   0.73445263   398836 
 5100000    0.5508808   -2.6617566   -2.6617566   -1.9296295  0.020127865   -2.6617566    0.7321271   398782 
 5110000   0.55165128   -2.6628896   -2.6628896   -1.9296392  0.025184396   -2.6628896   0.73325037   398728 
 5120000   0.55160786   -2.6621413   -2.6621413   -1.9288493  0.032767395   -2.6621413   0.73329197   398674 
 5130000   0.55105433   -2.6617931   -2.6617931   -1.9291377  0.026762514   -2.6617931   0.73265536   398620 
 5140000   0.55106762   -2.6613337   -2.6613337   -1.9285614  0.028224263   -2.6613337    0.7327723   398566 
 5150000   0.55188328   -2.6619327   -2.6619327   -1.9279763  0.018901689   -2.6619327   0.73395634   398512 
 5160000   0.55247401   -2.6610498   -2.6610498   -1.9262083  0.031666012   -2.6610498   0.73484155   398458 
 5170000   0.55139981   -2.6608336   -2.6608336   -1.9273214  0.036234853   -2.6608336   0.73351216   398404 
 5180000   0.55174536   -2.6618765   -2.6618765   -1.9278033  0.028862356   -2.6618765   0.73407318   398349 
 5190000     0.551286   -2.6621369   -2.6621369   -1.9285754   0.03061961   -2.6621369   0.73356146   398295 
 5200000    0.5512652   -2.6627737   -2.6627737   -1.9291405    0.0308502   -2.6627737   0.73363324   398241 
 5210000   0.55028177   -2.6611116   -2.6611116   -1.9286878  0.037130823   -2.6611116    0.7324238   398187 
 5220000   0.55101516   -2.6601098   -2.6601098   -1.9266104  0.028701057   -2.6601098    0.7334994   398133 
 5230000   0.55022371   -2.6595005   -2.6595005   -1.9269553   0.02136475   -2.6595005    0.7325452   398079 
 5240000   0.55019208   -2.6602888   -2.6602888   -1.9276864  0.028378624   -2.6602888   0.73260248   398025 
 5250000   0.54963728   -2.6598336   -2.6598336   -1.9278706  0.032758033   -2.6598336   0.73196304   397971 
 5260000   0.54996884   -2.6589898   -2.6589898   -1.9264858  0.031895087   -2.6589898   0.73250397   397917 
 5270000    0.5503612   -2.6595382   -2.6595382   -1.9264122  0.028181161   -2.6595382   0.73312605   397863 
 5280000   0.55099614   -2.6617295   -2.6617295    -1.927658  0.032240137   -2.6617295   0.73407148   397809 
 5290000   0.55020303   -2.6619738   -2.6619738   -1.9288594  0.020546233   -2.6619738   0.73311436   397755 
 5300000   0.54914723   -2.6564215   -2.6564215   -1.9246145  0.034893372   -2.6564215   0.73180693   397701 
 5310000   0.54991889   -2.6589289   -2.6589289   -1.9259941  0.039554177   -2.6589289   0.73293477   397647 
 5320000   0.54937178   -2.6588266   -2.6588266   -1.9265215  0.031688868   -2.6588266   0.73230502   397593 
 5330000   0.54967426    -2.658534    -2.658534   -1.9257263  0.026191593    -2.658534   0.73280775   397539 
 5340000   0.55100134   -2.6576367   -2.6576367   -1.9229599   0.02459975   -2.6576367   0.73467677   397485 
 5350000   0.55006403   -2.6588644   -2.6588644   -1.9253377  0.032643453   -2.6588644   0.73352667   397431 
 5360000   0.55146446    -2.660162    -2.660162   -1.9246679  0.034576454    -2.660162   0.73549411   397377 
 5370000   0.55049923   -2.6585863   -2.6585863   -1.9242779  0.046377828   -2.6585863   0.73430841   397322 
 5380000   0.55068995    -2.660572    -2.660572   -1.9259093  0.034234322    -2.660572   0.73466266   397268 
 5390000    0.5500821   -2.6605842   -2.6605842   -1.9266326  0.019652314   -2.6605842   0.73395151   397214 
 5400000   0.54898284   -2.6584678   -2.6584678   -1.9258833    0.0205895   -2.6584678    0.7325844   397160 
 5410000   0.54986039   -2.6604109   -2.6604109   -1.9265557  0.024267563   -2.6604109   0.73385521   397106 
 5420000   0.54954225   -2.6615231   -2.6615231   -1.9279927   0.03003351   -2.6615231   0.73353036   397052 
 5430000   0.54852084     -2.65961     -2.65961   -1.9273434  0.030525029     -2.65961   0.73226657   396998 
 5440000   0.54983587   -2.6606975   -2.6606975   -1.9265755  0.034102984   -2.6606975   0.73412198   396944 
 5450000   0.55002094   -2.6598988   -2.6598988   -1.9254298   0.02464153   -2.6598988     0.734469   396890 
 5460000   0.54859725   -2.6584324   -2.6584324   -1.9257648  0.028792415   -2.6584324   0.73266755   396836 
 5470000   0.54902548   -2.6590598   -2.6590598   -1.9257205  0.030071243   -2.6590598   0.73333925   396782 
 5480000    0.5501495   -2.6593125   -2.6593125   -1.9243719   0.03469307   -2.6593125   0.73494065   396728 
 5490000   0.54909948   -2.6573176   -2.6573176   -1.9236798  0.028803411   -2.6573176   0.73363779   396674 
 5500000   0.54947781   -2.6588524   -2.6588524   -1.9246092  0.040414795   -2.6588524   0.73424322   396620 
 5510000   0.54889145   -2.6616501   -2.6616501   -1.9280905  0.031784556   -2.6616501   0.73355956   396566 
 5520000   0.54794651   -2.6579869   -2.6579869   -1.9255904  0.024129394   -2.6579869   0.73239644   396512 
 5530000   0.54775638   -2.6584016   -2.6584016   -1.9261596  0.042101865   -2.6584016   0.73224204   396458 
 5540000   0.54763029   -2.6591435   -2.6591435   -1.9269703  0.022308081   -2.6591435    0.7321732   396404 
 5550000   0.54731784   -2.6590074   -2.6590074   -1.9271504  0.027821793   -2.6590074     0.731857   396349 
 5560000   0.54880416   -2.6618597   -2.6618597   -1.9279152  0.028245846   -2.6618597   0.73394446   396295 
 5570000   0.54901761   -2.6609303   -2.6609303   -1.9266004  0.030573819   -2.6609303   0.73432998   396241 
 5580000    0.5463642   -2.6574689   -2.6574689   -1.9265883  0.028548894   -2.6574689   0.73088056   396187 
 5590000   0.54859852   -2.6610401   -2.6610401   -1.9270706  0.036809844   -2.6610401   0.73396948   396133 
 5600000   0.54798743   -2.6589519   -2.6589519      -1.9257  0.041898175   -2.6589519   0.73325186   396079 
 5610000   0.54721523   -2.6595912   -2.6595912   -1.9272728  0.033583413   -2.6595912   0.73231844   396025 
 5620000    0.5477204   -2.6609468   -2.6609468   -1.9278524   0.02788782   -2.6609468   0.73309445   395971 
 5630000   0.54895427   -2.6616728   -2.6616728   -1.9268267  0.018701673   -2.6616728   0.73484613   395917 
 5640000   0.54720709   -2.6601376   -2.6601376   -1.9275303  0.036636158   -2.6601376   0.73260724   395863 
 5650000   0.54695607    -2.658858    -2.658858    -1.926487  0.027042638    -2.658858   0.73237107   395809 
 5660000   0.54726132   -2.6570816   -2.6570816   -1.9242018  0.033847791   -2.6570816   0.73287978   395755 
 5670000   0.54790795   -2.6591961   -2.6591961   -1.9253502  0.035804974   -2.6591961   0.73384587   395701 
 5680000   0.54730272   -2.6605996   -2.6605996   -1.9274643  0.038196259   -2.6605996   0.73313529   395647 
 5690000   0.54824743   -2.6616622   -2.6616622   -1.9271612   0.03659348   -2.6616622   0.73450102   395593 
 5700000    0.5462291   -2.6592944   -2.6592944   -1.9273975  0.028247112   -2.6592944   0.73189691   395539 
 5710000   0.54722287   -2.6629109   -2.6629109   -1.9295823  0.036748883   -2.6629109   0.73332859   395485 
 5720000   0.54539809   -2.6630018   -2.6630018   -1.9320188  0.037625063   -2.6630018   0.73098304   395431 
 5730000   0.54701025   -2.6646893   -2.6646893   -1.9314454  0.028468544   -2.6646893   0.73324391   395377 
 5740000   0.54551247   -2.6590365   -2.6590365   -1.9276985  0.023604527   -2.6590365   0.73133793   395322 
 5750000   0.54545521   -2.6598971   -2.6598971    -1.928536  0.029866184   -2.6598971   0.73136107   395268 
 5760000   0.54600917   -2.6607319   -2.6607319    -1.928528    0.0331001   -2.6607319   0.73220387   395214 
 5770000   0.54457236   -2.6594646   -2.6594646   -1.9290878   0.03015979   -2.6594646   0.73037687   395160 
 5780000    0.5447914   -2.6596332   -2.6596332   -1.9288627  0.031479604   -2.6596332   0.73077051   395106 
 5790000   0.54696601   -2.6621302   -2.6621302   -1.9283424  0.032979096   -2.6621302   0.73378778   395052 
 5800000   0.54504435   -2.6608064   -2.6608064   -1.9294966  0.029454796   -2.6608064   0.73130972   394998 
 5810000   0.54510765   -2.6600359   -2.6600359   -1.9285413  0.037156544   -2.6600359   0.73149464   394944 
 5820000   0.54566882   -2.6590716   -2.6590716   -1.9267238   0.03640781   -2.6590716   0.73234783   394890 
 5830000   0.54510832    -2.660255    -2.660255   -1.9285594  0.026763762    -2.660255   0.73169564   394836 
 5840000   0.54474546   -2.6602302   -2.6602302   -1.9289216  0.042802035   -2.6602302   0.73130859   394782 
 5850000   0.54558439   -2.6614726   -2.6614726   -1.9289376  0.036504592   -2.6614726   0.73253503   394728 
 5860000   0.54626758     -2.66279     -2.66279   -1.9292373  0.030783256     -2.66279   0.73355267   394674 
 5870000   0.54571509   -2.6617459   -2.6617459   -1.9288349  0.029513026   -2.6617459   0.73291105   394620 
 5880000   0.54470042   -2.6600109   -2.6600109   -1.9283624  0.032099483   -2.6600109   0.73164844   394566 
 5890000   0.54383212   -2.6604239   -2.6604239   -1.9298417  0.036442376   -2.6604239   0.73058211   394512 
 5900000   0.54482583   -2.6624358   -2.6624358   -1.9304185  0.028010122   -2.6624358   0.73201725   394458 
 5910000   0.54446704   -2.6598726   -2.6598726   -1.9282373  0.023700722   -2.6598726   0.73163535   394404 
 5920000   0.54357179   -2.6595407   -2.6595407   -1.9290065  0.030281031   -2.6595407   0.73053422   394349 
 5930000    0.5454368   -2.6603755   -2.6603755   -1.9272344  0.038142842   -2.6603755   0.73314109   394295 
 5940000   0.54409751    -2.661197    -2.661197    -1.929756  0.033652606    -2.661197   0.73144109   394241 
 5950000   0.54436585   -2.6624246   -2.6624246   -1.9305225  0.034538778   -2.6624246   0.73190207   394187 
 5960000   0.54397243   -2.6628077   -2.6628077   -1.9313344  0.031116399   -2.6628077   0.73147332   394133 
 5970000   0.54446295   -2.6619835   -2.6619835   -1.9297503  0.029367988   -2.6619835   0.73223324   394079 
 5980000   0.54402924   -2.6628048   -2.6628048   -1.9310546  0.021677972   -2.6628048   0.73175022   394025 
 5990000   0.54354325   -2.6624378   -2.6624378   -1.9312411  0.023397185   -2.6624378   0.73119675   393971 
 6000000   0.54405903   -2.6639071   -2.6639071   -1.9319162  0.038461491   -2.6639071   0.73199093   393917 
 6010000   0.54267438   -2.6636081   -2.6636081     -1.93338  0.021927518   -2.6636081   0.73022809   393863 
 6020000   0.54369507   -2.6624255   -2.6624255   -1.9307237  0.032745404   -2.6624255   0.73170185   393809 
 6030000   0.54441713   -2.6633199   -2.6633199   -1.9305458  0.037712146   -2.6633199   0.73277408   393755 
 6040000   0.54278249   -2.6607596   -2.6607596   -1.9300856  0.035581398   -2.6607596   0.73067409   393701 
 6050000   0.54185633   -2.6606977   -2.6606977   -1.9311703   0.01804274   -2.6606977    0.7295274   393647 
 6060000   0.54308249   -2.6610708   -2.6610708   -1.9297922  0.043384951   -2.6610708   0.73127855   393593 
 6070000   0.54363448   -2.6634715   -2.6634715   -1.9313493  0.031484043   -2.6634715   0.73212226   393539 
 6080000   0.54337426   -2.6653781   -2.6653781   -1.9335058  0.029170041   -2.6653781   0.73187225   393485 
 6090000   0.54313681   -2.6636368   -2.6636368   -1.9319839  0.029673264   -2.6636368   0.73165283   393431 
 6100000   0.54262173   -2.6614829   -2.6614829   -1.9304236  0.029136782   -2.6614829   0.73105931   393377 
 6110000   0.54350433   -2.6624741   -2.6624741   -1.9301233  0.036088522   -2.6624741   0.73235082   393322 
 6120000   0.54213408   -2.6605831   -2.6605831   -1.9299784   0.02292017   -2.6605831   0.73060476   393268 
 6130000   0.54327522   -2.6617796   -2.6617796   -1.9295364  0.032295627   -2.6617796   0.73224316   393214 
 6140000   0.54373022   -2.6656825   -2.6656825   -1.9327254  0.034283785   -2.6656825   0.73295708   393160 
 6150000   0.54111529   -2.6603027   -2.6603027   -1.9307704   0.03044197   -2.6603027   0.72953231   393106 
 6160000   0.54348915   -2.6623431   -2.6623431   -1.9295097  0.032592204   -2.6623431   0.73283342   393052 
 6170000   0.54241933   -2.6605685   -2.6605685   -1.9290772  0.030242166   -2.6605685   0.73149138   392998 
 6180000    0.5433192   -2.6613384   -2.6613384   -1.9285327   0.03438787   -2.6613384   0.73280562   392944 
 6190000   0.54239469   -2.6612866   -2.6612866   -1.9296274  0.024617356   -2.6612866   0.73165922   392890 
 6200000    0.5426854   -2.6611677   -2.6611677   -1.9290157  0.030760051   -2.6611677   0.73215201   392836 
 6210000   0.54335146   -2.6606312   -2.6606312   -1.9274798  0.022758564   -2.6606312   0.73315139   392782 
 6220000   0.54187038   -2.6587868   -2.6587868   -1.9275333  0.028660822   -2.6587868   0.73125347   392728 
 6230000   0.54161568   -2.6580028   -2.6580028   -1.9269925  0.023060756   -2.6580028   0.73101028   392674 
 6240000    0.5423611   -2.6597837   -2.6597837   -1.9276667  0.030851527   -2.6597837   0.73211703   392620 
 6250000   0.54272813   -2.6625892   -2.6625892   -1.9298759  0.026301554   -2.6625892   0.73271325   392566 
 6260000   0.54129239   -2.6618005   -2.6618005    -1.930925  0.032193165   -2.6618005   0.73087547   392512 
 6270000   0.54102546   -2.6597519   -2.6597519   -1.9291363  0.030339566   -2.6597519   0.73061555   392458 
 6280000   0.54007804   -2.6588708   -2.6588708   -1.9294343   0.04057385   -2.6588708    0.7294365   392404 
 6290000   0.54280958   -2.6619949   -2.6619949   -1.9287664   0.02454925   -2.6619949   0.73322853   392349 
 6300000   0.54118903   -2.6597354   -2.6597354   -1.9285953  0.024167091   -2.6597354   0.73114011   392295 
 6310000    0.5401685    -2.662035    -2.662035   -1.9321731  0.027199202    -2.662035   0.72986185   392241 
 6320000   0.54174389   -2.6637864   -2.6637864   -1.9316952  0.019259524   -2.6637864   0.73209127   392187 
 6330000   0.54065198   -2.6606206   -2.6606206   -1.9299042  0.032829137   -2.6606206   0.73071632   392133 
 6340000   0.54011082   -2.6590456   -2.6590456   -1.9289602  0.025186772   -2.6590456   0.73008545   392079 
 6350000   0.54156518   -2.6600084   -2.6600084   -1.9278562  0.045796358   -2.6600084   0.73215219   392025 
 6360000   0.53880796   -2.6563809   -2.6563809   -1.9278559  0.026338733   -2.6563809     0.728525   391971 
 6370000   0.54011579   -2.6586859   -2.6586859    -1.928292  0.024975677   -2.6586859   0.73039395   391917 
 6380000   0.54144139   -2.6605253   -2.6605253   -1.9282378   0.02040188   -2.6605253   0.73228746   391863 
 6390000   0.54053193   -2.6584187   -2.6584187   -1.9272605  0.021719735   -2.6584187   0.73115818   391809 
 6400000   0.53932622   -2.6566355   -2.6566355   -1.9270077  0.035005301   -2.6566355   0.72962782   391755 
 6410000    0.5406717   -2.6587068   -2.6587068   -1.9271579  0.035013069   -2.6587068   0.73154889   391701 
 6420000   0.54007958     -2.65925     -2.65925   -1.9284015  0.030068965     -2.65925   0.73084849   391647 
 6430000   0.53883106   -2.6569494   -2.6569494   -1.9276899  0.024422101   -2.6569494   0.72925951   391593 
 6440000   0.54032225   -2.6575677   -2.6575677   -1.9261891  0.027972159   -2.6575677   0.73137856   391539 
 6450000    0.5398105   -2.6575589   -2.6575589   -1.9267722  0.036623422   -2.6575589   0.73078664   391485 
 6460000   0.54103377   -2.6604479   -2.6604479   -1.9279042  0.034274616   -2.6604479   0.73254372   391431 
 6470000   0.53875494   -2.6576759   -2.6576759    -1.928117  0.017598759   -2.6576759    0.7295589   391377 
 6480000   0.53969443   -2.6582763   -2.6582763   -1.9273425  0.030539894   -2.6582763   0.73093384   391322 
 6490000   0.53874007   -2.6587764   -2.6587764   -1.9290344  0.031881198   -2.6587764   0.72974201   391268 
 6500000   0.54003934   -2.6597727   -2.6597727   -1.9281699  0.028385401   -2.6597727   0.73160288   391214 
 6510000   0.54096481   -2.6590142   -2.6590142   -1.9260564  0.029594162   -2.6590142    0.7329578   391160 
 6520000   0.54000656   -2.6581264   -2.6581264   -1.9263659  0.024388234   -2.6581264   0.73176048   391106 
 6530000   0.53797893    -2.655995    -2.655995   -1.9268815  0.032137387    -2.655995   0.72911352   391052 
 6540000   0.53933367   -2.6581041   -2.6581041   -1.9270536  0.034979826   -2.6581041   0.73105052   390998 
 6550000   0.53983265   -2.6591305   -2.6591305   -1.9273025  0.025516823   -2.6591305   0.73182795   390944 
 6560000   0.53945839   -2.6594175   -2.6594175   -1.9279958  0.037950434   -2.6594175   0.73142162   390890 
 6570000   0.53974812   -2.6596976   -2.6596976    -1.927782  0.026720955   -2.6596976   0.73191556   390836 
 6580000   0.53871627   -2.6610308   -2.6610308   -1.9304136  0.030182433   -2.6610308   0.73061727   390782 
 6590000   0.53816647   -2.6599686   -2.6599686   -1.9299961  0.028748305   -2.6599686    0.7299725   390728 
 6600000   0.53826156   -2.6604215   -2.6604215   -1.9302191  0.037427605   -2.6604215    0.7302024   390674 
 6610000   0.53839831   -2.6606316   -2.6606316   -1.9301428  0.038475379   -2.6606316   0.73048888   390620 
 6620000   0.53809992    -2.659159    -2.659159    -1.928974  0.029470139    -2.659159   0.73018497   390566 
 6630000   0.53924363   -2.6596528   -2.6596528   -1.9278146  0.025732407   -2.6596528   0.73183814   390512 
 6640000   0.53814991   -2.6600105   -2.6600105   -1.9295557  0.028779107   -2.6600105    0.7304548   390458 
 6650000   0.53861654   -2.6610311   -2.6610311   -1.9298418  0.026403116   -2.6610311   0.73118929   390404 
 6660000   0.53550914    -2.657827    -2.657827   -1.9307537  0.034311193    -2.657827   0.72707333   390349 
 6670000   0.53798404   -2.6602282   -2.6602282   -1.9296936  0.031128711   -2.6602282   0.73053463   390295 
 6680000    0.5383879   -2.6615263   -2.6615263   -1.9303421  0.040358419   -2.6615263   0.73118419   390241 
 6690000     0.538151    -2.659248    -2.659248   -1.9282844  0.032542268    -2.659248   0.73096361   390187 
 6700000   0.53839141   -2.6593595   -2.6593595   -1.9279681  0.031108421   -2.6593595   0.73139137   390133 
 6710000   0.53883316   -2.6605416   -2.6605416   -1.9284488  0.035900007   -2.6605416   0.73209282   390079 
 6720000   0.53740015   -2.6595627   -2.6595627   -1.9293157  0.029308258   -2.6595627   0.73024693   390025 
 6730000    0.5370128   -2.6572886   -2.6572886    -1.927467  0.028279632   -2.6572886   0.72982162   389971 
 6740000   0.53782489    -2.657948    -2.657948   -1.9269215  0.031664048    -2.657948    0.7310265   389917 
 6750000   0.53704316   -2.6570454   -2.6570454   -1.9269803  0.026638152   -2.6570454   0.73006506   389863 
 6760000   0.53698016   -2.6573425   -2.6573425   -1.9272619  0.036105299   -2.6573425   0.73008055   389809 
 6770000   0.53723335   -2.6590141   -2.6590141   -1.9284881  0.029541491   -2.6590141   0.73052599   389755 
 6780000   0.53791637   -2.6595308   -2.6595308   -1.9279747   0.03120586   -2.6595308    0.7315561   389701 
 6790000   0.53713727   -2.6582242   -2.6582242   -1.9276264  0.034478234   -2.6582242   0.73059778   389647 
 6800000   0.53618864   -2.6590139   -2.6590139   -1.9296053  0.031860241   -2.6590139   0.72940857   389593 
 6810000     0.536993   -2.6606546   -2.6606546   -1.9300506  0.043934589   -2.6606546   0.73060406   389539 
 6820000   0.53532524   -2.6581639   -2.6581639   -1.9297279  0.029178109   -2.6581639   0.72843596   389485 
 6830000   0.53633649   -2.6592085   -2.6592085   -1.9292953  0.028457837   -2.6592085   0.72991321   389431 
 6840000   0.53656223   -2.6606776   -2.6606776   -1.9303559  0.031213098   -2.6606776    0.7303217   389377 
 6850000    0.5361025   -2.6611097   -2.6611097   -1.9313107  0.032568234   -2.6611097   0.72979903   389322 
 6860000   0.53482195   -2.6588867   -2.6588867   -1.9307299  0.030254446   -2.6588867   0.72815681   389268 
 6870000   0.53577447   -2.6620935   -2.6620935   -1.9325386  0.032262963   -2.6620935   0.72955487   389214 
 6880000   0.53642434   -2.6612208   -2.6612208   -1.9306797  0.022292378   -2.6612208   0.73054114   389160 
 6890000   0.53507793   -2.6586434   -2.6586434   -1.9298348    0.0253574   -2.6586434   0.72880863   389106 
 6900000   0.53624985   -2.6588196   -2.6588196   -1.9283134  0.024970769   -2.6588196   0.73050624   389052 
 6910000   0.53648869    -2.659086    -2.659086   -1.9281529  0.036783341    -2.659086   0.73093306   388998 
 6920000   0.53618563   -2.6594987   -2.6594987   -1.9288771   0.03448852   -2.6594987   0.73062158   388944 
 6930000   0.53608889    -2.661123    -2.661123   -1.9305318   0.02891298    -2.661123   0.73059119   388890 
 6940000   0.53521089   -2.6625756   -2.6625756   -1.9330797  0.035334276   -2.6625756   0.72949593   388836 
 6950000   0.53512534   -2.6611177   -2.6611177   -1.9316371  0.035449152   -2.6611177   0.72948063   388782 
 6960000   0.53464191   -2.6604241   -2.6604241   -1.9315013   0.03034396   -2.6604241   0.72892286   388728 
 6970000   0.53382354   -2.6582101   -2.6582101   -1.9303018  0.026025592   -2.6582101   0.72790822   388674 
 6980000   0.53398586   -2.6577064   -2.6577064   -1.9294757  0.019633768   -2.6577064   0.72823074   388620 
 6990000   0.53442812   -2.6569259   -2.6569259   -1.9279907   0.03535714   -2.6569259   0.72893517   388566 
 7000000   0.53447591   -2.6604033   -2.6604033   -1.9313016   0.04418344   -2.6604033   0.72910167   388512 
 7010000   0.53576038   -2.6606759   -2.6606759   -1.9297205  0.028359013   -2.6606759   0.73095547   388458 
 7020000   0.53391701   -2.6591586   -2.6591586   -1.9306168  0.039623376   -2.6591586   0.72854178   388404 
 7030000   0.53334752   -2.6603971   -2.6603971   -1.9325293   0.02855517   -2.6603971   0.72786777   388349 
 7040000   0.53273832   -2.6589184   -2.6589184   -1.9317809  0.032085898   -2.6589184   0.72713749   388295 
 7050000    0.5343295   -2.6618689   -2.6618689   -1.9324582  0.032787912   -2.6618689   0.72941074   388241 
 7060000   0.53524792   -2.6598223   -2.6598223   -1.9290562  0.036487857   -2.6598223   0.73076611   388187 
 7070000   0.53336662   -2.6594011   -2.6594011   -1.9311022  0.037064634   -2.6594011   0.72829891   388133 
 7080000   0.53448469   -2.6622242   -2.6622242    -1.932297   0.02826105   -2.6622242   0.72992716   388079 
 7090000   0.53391813   -2.6625271   -2.6625271   -1.9332722  0.035643475   -2.6625271    0.7292549   388025 
 7100000   0.53405654   -2.6605439   -2.6605439   -1.9309984  0.032552729   -2.6605439   0.72954548   387971 
 7110000   0.53430815   -2.6608558   -2.6608558    -1.930865  0.033667801   -2.6608558   0.72999079   387917 
 7120000   0.53223594   -2.6589749   -2.6589749    -1.931714  0.028386336   -2.6589749    0.7272609   387863 
 7130000   0.53385191   -2.6607275   -2.6607275   -1.9311569  0.033697069   -2.6607275   0.72957059   387809 
 7140000   0.53418743   -2.6604302   -2.6604302   -1.9302994  0.033104619   -2.6604302   0.73013078   387755 
 7150000   0.53476393   -2.6609787   -2.6609787   -1.9299581  0.033464856   -2.6609787   0.73102054   387701 
 7160000   0.53308717   -2.6593661   -2.6593661   -1.9305362  0.031494546   -2.6593661   0.72882994   387647 
 7170000   0.53341072   -2.6604053   -2.6604053   -1.9310314  0.031816475   -2.6604053   0.72937389   387593 
 7180000   0.53261688   -2.6595068   -2.6595068   -1.9311169   0.02014381   -2.6595068    0.7283899   387539 
 7190000    0.5323606   -2.6596502   -2.6596502   -1.9315093  0.028337931   -2.6596502   0.72814086   387485 
 7200000   0.53138893   -2.6592827   -2.6592827   -1.9323695  0.035692749   -2.6592827   0.72691316   387431 
 7210000   0.53157881    -2.659703    -2.659703   -1.9324287  0.030622889    -2.659703   0.72727428   387377 
 7220000   0.53136156   -2.6590724   -2.6590724   -1.9319921  0.035511327   -2.6590724   0.72708028   387322 
 7230000   0.53240771    -2.659956    -2.659956   -1.9313426  0.033386849    -2.659956   0.72861334   387268 
 7240000   0.53200526   -2.6593413   -2.6593413   -1.9311772  0.032299255   -2.6593413   0.72816411   387214 
 7250000   0.53304996   -2.6605273   -2.6605273   -1.9308316  0.036371703   -2.6605273   0.72969578   387160 
 7260000   0.53285341   -2.6605385   -2.6605385     -1.93101  0.023432374   -2.6605385   0.72952847   387106 
 7270000   0.53234759   -2.6604145   -2.6604145   -1.9314769  0.030370623   -2.6604145   0.72893763   387052 
 7280000   0.53195373   -2.6595182   -2.6595182   -1.9310182  0.033392631   -2.6595182   0.72849996   386998 
 7290000   0.53203897   -2.6593422   -2.6593422   -1.9306239  0.025889695   -2.6593422   0.72871838   386944 
 7300000   0.53318558   -2.6615001   -2.6615001   -1.9311093  0.036389056   -2.6615001   0.73039079   386890 
 7310000   0.53236715    -2.660477    -2.660477   -1.9311055  0.023347076    -2.660477   0.72937145   386836 
 7320000   0.53040687   -2.6562465   -2.6562465   -1.9294593  0.021860789   -2.6562465   0.72678722   386782 
 7330000   0.53132346   -2.6592294   -2.6592294   -1.9310846   0.02330749   -2.6592294   0.72814483   386728 
 7340000   0.53187544    -2.660111    -2.660111   -1.9311079  0.032645613    -2.660111   0.72900309   386674 
 7350000    0.5306346   -2.6586484   -2.6586484   -1.9312445  0.047372715   -2.6586484   0.72740393   386620 
 7360000   0.53138845   -2.6591077   -2.6591077   -1.9305686  0.038840907   -2.6591077   0.72853909   386566 
 7370000   0.53166781   -2.6589498   -2.6589498   -1.9299258  0.027348743   -2.6589498   0.72902393   386512 
 7380000   0.53191217   -2.6598564   -2.6598564   -1.9303955  0.036555673   -2.6598564   0.72946091   386458 
 7390000   0.53004846   -2.6595334   -2.6595334   -1.9325268   0.02752686   -2.6595334   0.72700661   386404 
 7400000   0.53057526   -2.6591402   -2.6591402   -1.9313075  0.032459843   -2.6591402   0.72783277   386349 
 7410000   0.53140486   -2.6608018   -2.6608018   -1.9317291  0.030981378   -2.6608018   0.72907269   386295 
 7420000   0.53099797   -2.6611967   -2.6611967   -1.9325804  0.036958333   -2.6611967    0.7286163   386241 
 7430000   0.53026906   -2.6587435   -2.6587435   -1.9310257  0.027823276   -2.6587435   0.72771786   386187 
 7440000   0.53028968   -2.6603207   -2.6603207   -1.9324728  0.023682664   -2.6603207   0.72784793   386133 
 7450000   0.52990192   -2.6599328   -2.6599328   -1.9325154  0.031664552   -2.6599328   0.72741744   386079 
 7460000   0.52983204   -2.6581262   -2.6581262   -1.9307029  0.026326395   -2.6581262   0.72742326   386025 
 7470000   0.53057292   -2.6601347   -2.6601347   -1.9315923  0.028191001   -2.6601347   0.72854235   385971 
 7480000   0.53006088   -2.6580086   -2.6580086   -1.9300675  0.022945605   -2.6580086    0.7279411   385917 
 7490000    0.5303235   -2.6587196   -2.6587196   -1.9303159  0.023740982   -2.6587196   0.72840368   385863 
 7500000   0.53071556   -2.6613937   -2.6613937   -1.9323495  0.023878677   -2.6613937   0.72904421   385809 
 7510000   0.52922438   -2.6598523   -2.6598523   -1.9327547  0.033942477   -2.6598523   0.72709754   385755 
 7520000   0.52910504   -2.6590176   -2.6590176   -1.9319822  0.028929771   -2.6590176   0.72703536   385701 
 7530000   0.52996479   -2.6602064   -2.6602064   -1.9318877  0.035750601   -2.6602064   0.72831869   385647 
 7540000   0.52968647   -2.6624432   -2.6624432   -1.9344051  0.032180613   -2.6624432   0.72803815   385593 
 7550000    0.5302733   -2.6612645   -2.6612645   -1.9323177  0.032083386   -2.6612645   0.72894682   385539 
 7560000   0.52942936   -2.6593561   -2.6593561   -1.9314675  0.026513064   -2.6593561   0.72788863   385485 
 7570000    0.5284245   -2.6589023   -2.6589023   -1.9322934  0.029380838   -2.6589023   0.72660888   385431 
 7580000   0.52905551   -2.6596014   -2.6596014   -1.9320229  0.021112188   -2.6596014   0.72757849   385377 
 7590000   0.52852857   -2.6598364   -2.6598364   -1.9328789  0.025406953   -2.6598364   0.72695757   385322 
 7600000   0.52863532   -2.6605584   -2.6605584    -1.933352   0.02446499   -2.6605584   0.72720631   385268 
 7610000   0.52920328   -2.6589314   -2.6589314   -1.9308417  0.026800574   -2.6589314   0.72808965   385214 
 7620000   0.52771899   -2.6576783   -2.6576783    -1.931529  0.029366145   -2.6576783   0.72614934   385160 
 7630000   0.52796187   -2.6569802   -2.6569802   -1.9303948  0.030746277   -2.6569802    0.7265854   385106 
 7640000   0.52932819   -2.6594426   -2.6594426   -1.9308747  0.031341029   -2.6594426    0.7285679   385052 
 7650000   0.52812889   -2.6576207   -2.6576207   -1.9306015    0.0284325   -2.6576207   0.72701915   384998 
 7660000   0.52845219   -2.6570089   -2.6570089   -1.9294426  0.027863239   -2.6570089   0.72756625   384944 
 7670000   0.52879444   -2.6600026   -2.6600026    -1.931863  0.025742455   -2.6600026    0.7281396   384890 
 7680000   0.52925343   -2.6593454   -2.6593454   -1.9304716  0.033367606   -2.6593454   0.72887389   384836 
 7690000   0.52733087   -2.6564802   -2.6564802   -1.9301521   0.03718493   -2.6564802    0.7263281   384782 
 7700000    0.5274836   -2.6573376   -2.6573376   -1.9306972  0.030578574   -2.6573376   0.72664045   384728 
 7710000   0.52915355    -2.659309    -2.659309   -1.9302658  0.029161802    -2.659309   0.72904323   384674 
 7720000   0.52763584   -2.6603533   -2.6603533    -1.933299  0.031188716   -2.6603533   0.72705425   384620 
 7730000   0.52860775   -2.6595171   -2.6595171   -1.9310213  0.026089937   -2.6595171   0.72849578   384566 
 7740000   0.52857002   -2.6585036   -2.6585036   -1.9299575  0.030902616   -2.6585036   0.72854608   384512 
 7750000   0.52781461   -2.6563218   -2.6563218   -1.9287148  0.038227093   -2.6563218   0.72760706   384458 
 7760000   0.52731246   -2.6592578   -2.6592578   -1.9322409  0.027336592   -2.6592578   0.72701695   384404 
 7770000   0.52658036    -2.657845    -2.657845   -1.9317336  0.032153712    -2.657845   0.72611147   384349 
 7780000   0.52643085   -2.6568196   -2.6568196   -1.9308123  0.024861184   -2.6568196   0.72600731   384295 
 7790000   0.52813768   -2.6588474   -2.6588474   -1.9303838  0.036753283   -2.6588474   0.72846358   384241 
 7800000   0.52681346   -2.6584911   -2.6584911   -1.9317519   0.03272003   -2.6584911   0.72673921   384187 
 7810000   0.52709313   -2.6594288   -2.6594288   -1.9322015  0.023789181   -2.6594288   0.72722724   384133 
 7820000   0.52664308   -2.6575841   -2.6575841   -1.9308756  0.029433968   -2.6575841   0.72670846   384079 
 7830000   0.52573044   -2.6558476   -2.6558476   -1.9302965  0.025346526   -2.6558476   0.72555113   384025 
 7840000   0.52811676   -2.6583244   -2.6583244   -1.9293775  0.025890894   -2.6583244   0.72894695   383971 
 7850000   0.52780831   -2.6608548   -2.6608548   -1.9322312  0.030350384   -2.6608548   0.72862367   383917 
 7860000   0.52793826   -2.6606239   -2.6606239   -1.9317183  0.022609246   -2.6606239   0.72890559   383863 
 7870000   0.52730495   -2.6604209   -2.6604209   -1.9322873  0.030412734   -2.6604209   0.72813363   383809 
 7880000   0.52685316   -2.6598356   -2.6598356   -1.9322234  0.030403662   -2.6598356   0.72761214   383755 
 7890000   0.52632109   -2.6581585   -2.6581585   -1.9311789  0.029296015   -2.6581585   0.72697963   383701 
 7900000    0.5260724   -2.6569238   -2.6569238   -1.9301854  0.025368595   -2.6569238   0.72673841   383647 
 7910000   0.52719045    -2.657566    -2.657566   -1.9291806  0.035507916    -2.657566   0.72838544   383593 
 7920000   0.52512842   -2.6566145   -2.6566145   -1.9309759  0.024158204   -2.6566145   0.72563861   383539 
 7930000   0.52621068   -2.6555839   -2.6555839   -1.9283474  0.023077321   -2.6555839   0.72723651   383485 
 7940000   0.52606927    -2.657437    -2.657437   -1.9302936  0.029856262    -2.657437   0.72714348   383431 
 7950000   0.52700636   -2.6577648   -2.6577648   -1.9292235  0.031126166   -2.6577648   0.72854134   383377 
 7960000   0.52726645   -2.6602381   -2.6602381   -1.9312327  0.021291918   -2.6602381   0.72900547   383322 
 7970000   0.52714038   -2.6592902   -2.6592902   -1.9303563  0.027747723   -2.6592902   0.72893386   383268 
 7980000   0.52619829   -2.6597551   -2.6597551   -1.9320215  0.036670113   -2.6597551   0.72773365   383214 
 7990000   0.52610732   -2.6607746   -2.6607746   -1.9330642  0.034798518   -2.6607746    0.7277104   383160 
 8000000   0.52524478   -2.6600848   -2.6600848   -1.9334651  0.029640955   -2.6600848   0.72661974   383106 
 8010000   0.52600829   -2.6588243   -2.6588243   -1.9310458  0.026626804   -2.6588243   0.72777855   383052 
 8020000   0.52585625   -2.6591131   -2.6591131   -1.9314424  0.037071746   -2.6591131   0.72767077   382998 
 8030000   0.52482566   -2.6567326   -2.6567326   -1.9303855  0.026296385   -2.6567326   0.72634708   382944 
 8040000   0.52463253   -2.6571501   -2.6571501   -1.9309679  0.027348445   -2.6571501   0.72618218   382890 
 8050000   0.52550289    -2.660188    -2.660188   -1.9326985  0.026644889    -2.660188   0.72748951   382836 
 8060000   0.52333641   -2.6584058   -2.6584058   -1.9338132  0.035137175   -2.6584058   0.72459252   382782 
 8070000   0.52493978   -2.6608901   -2.6608901   -1.9339751  0.038060404   -2.6608901   0.72691503   382728 
 8080000   0.52459204   -2.6614606   -2.6614606   -1.9349246  0.024529134   -2.6614606     0.726536   382674 
 8090000   0.52472682   -2.6597128   -2.6597128   -1.9328876  0.033288499   -2.6597128   0.72682523   382620 
 8100000   0.52464153    -2.660709    -2.660709   -1.9338994  0.031622532    -2.660709   0.72680966   382566 
 8110000   0.52413381   -2.6602405   -2.6602405   -1.9340317  0.025014493   -2.6602405    0.7262088   382512 
 8120000   0.52409165   -2.6629043   -2.6629043   -1.9366514  0.033570084   -2.6629043   0.72625292   382458 
 8130000    0.5241984   -2.6599228   -2.6599228   -1.9334194  0.032697126   -2.6599228   0.72650342   382404 
 8140000    0.5244594   -2.6593995   -2.6593995   -1.9324298  0.035122327   -2.6593995    0.7269697   382349 
 8150000   0.52503425   -2.6608245   -2.6608245   -1.9329551  0.029197354   -2.6608245   0.72786932   382295 
 8160000   0.52430598   -2.6588348   -2.6588348   -1.9318724  0.034158957   -2.6588348   0.72696238   382241 
 8170000   0.52420623   -2.6621938   -2.6621938   -1.9352671  0.025863476   -2.6621938   0.72692678   382187 
 8180000   0.52382241   -2.6618011   -2.6618011   -1.9353039  0.027235586   -2.6618011   0.72649717   382133 
 8190000   0.52261657   -2.6592547   -2.6592547   -1.9343275  0.031906564   -2.6592547   0.72492722   382079 
 8200000   0.52366557   -2.6604323   -2.6604323   -1.9339473  0.032555154   -2.6604323   0.72648496   382025 
 8210000   0.52337021   -2.6619846   -2.6619846   -1.9358067  0.021070123   -2.6619846   0.72617786   381971 
 8220000   0.52232851   -2.6597385   -2.6597385   -1.9349036  0.030375032   -2.6597385   0.72483497   381917 
 8230000   0.52400374   -2.6605845   -2.6605845    -1.933322  0.026290984   -2.6605845   0.72726252   381863 
 8240000   0.52307917   -2.6589178   -2.6589178   -1.9328358  0.029411577   -2.6589178   0.72608199   381809 
 8250000   0.52331387   -2.6605097   -2.6605097   -1.9339992  0.025042904   -2.6605097   0.72651053   381755 
 8260000   0.52115492   -2.6588757   -2.6588757   -1.9352601  0.025872893   -2.6588757   0.72361564   381701 
 8270000    0.5233625   -2.6613806   -2.6613806    -1.934597  0.039763386   -2.6613806   0.72678365   381647 
 8280000   0.52320689   -2.6613864   -2.6613864   -1.9347161   0.03762432   -2.6613864   0.72667037   381593 
 8290000   0.52279339    -2.661254    -2.661254   -1.9350551  0.032428202    -2.661254   0.72619883   381539 
 8300000   0.52242035   -2.6603561   -2.6603561   -1.9345728  0.029216163   -2.6603561   0.72578337   381485 
 8310000    0.5220195    -2.659121    -2.659121   -1.9337919  0.033480235    -2.659121   0.72532916   381431 
 8320000   0.52184738   -2.6572299   -2.6572299   -1.9320372  0.031418617   -2.6572299   0.72519268   381377 
 8330000   0.52086843   -2.6584173   -2.6584173   -1.9344806  0.014387966   -2.6584173   0.72393667   381322 
 8340000   0.52208063   -2.6583495   -2.6583495   -1.9326253  0.027938652   -2.6583495   0.72572422   381268 
 8350000   0.52298296   -2.6609826   -2.6609826   -1.9339011  0.023971988   -2.6609826    0.7270815   381214 
 8360000   0.52259589   -2.6620386   -2.6620386   -1.9353923  0.036173779   -2.6620386    0.7266463   381160 
 8370000   0.52159589   -2.6607818   -2.6607818   -1.9354232  0.024449945   -2.6607818   0.72535862   381106 
 8380000   0.52220053   -2.6593359   -2.6593359   -1.9330335  0.021709269   -2.6593359   0.72630236   381052 
 8390000   0.52078063   -2.6593806   -2.6593806   -1.9349504  0.035011148   -2.6593806   0.72443017   380998 
 8400000   0.52140319   -2.6605577   -2.6605577   -1.9351587  0.024533305   -2.6605577   0.72539899   380944 
 8410000   0.52180194   -2.6589519   -2.6589519   -1.9328952  0.035628509   -2.6589519   0.72605666   380890 
 8420000   0.52133738   -2.6599565   -2.6599565   -1.9344434  0.042774973   -2.6599565   0.72551312   380836 
 8430000   0.52025816   -2.6597819   -2.6597819    -1.935668  0.036429825   -2.6597819   0.72411391   380782 
 8440000   0.52089509   -2.6610741   -2.6610741   -1.9359708  0.034396776   -2.6610741   0.72510323   380728 
 8450000    0.5210089   -2.6606236   -2.6606236    -1.935259  0.032326658   -2.6606236   0.72536455   380674 
 8460000   0.52123434   -2.6593282   -2.6593282   -1.9335468  0.032065375   -2.6593282   0.72578136   380620 
 8470000   0.52007122   -2.6572363   -2.6572363   -1.9329718   0.02475027   -2.6572363   0.72426455   380566 
 8480000   0.52215593   -2.6617237   -2.6617237   -1.9344527  0.038852446   -2.6617237   0.72727097   380512 
 8490000   0.52099552   -2.6603739   -2.6603739   -1.9346162  0.033393145   -2.6603739   0.72575773   380458 
 8500000   0.52061121   -2.6598863   -2.6598863    -1.934561  0.035398021   -2.6598863   0.72532532   380404 
 8510000   0.52000576   -2.6587164   -2.6587164   -1.9341298  0.029276749   -2.6587164   0.72458656   380349 
 8520000   0.52091282   -2.6607419   -2.6607419   -1.9347884   0.03840849   -2.6607419   0.72595354   380295 
 8530000   0.52015357    -2.662124    -2.662124   -1.9371256  0.027733359    -2.662124   0.72499838   380241 
 8540000   0.51894123   -2.6581759   -2.6581759   -1.9347645  0.018736953   -2.6581759   0.72341134   380187 
 8550000   0.51959063   -2.6583273   -2.6583273   -1.9339078  0.038904326   -2.6583273   0.72441951   380133 
 8560000   0.52004356   -2.6583685   -2.6583685   -1.9332145  0.039129696   -2.6583685     0.725154   380079 
 8570000    0.5197134   -2.6579359   -2.6579359   -1.9331393  0.028933354   -2.6579359   0.72479659   380025 
 8580000   0.52000558   -2.6570733   -2.6570733   -1.9317661  0.024263295   -2.6570733   0.72530714   379971 
 8590000   0.51992537   -2.6594067   -2.6594067   -1.9341083  0.037603988   -2.6594067   0.72529833   379917 
 8600000   0.51994072   -2.6596529   -2.6596529     -1.93423  0.026688422   -2.6596529   0.72542286   379863 
 8610000   0.51945933   -2.6580318   -2.6580318   -1.9331776  0.037637842   -2.6580318   0.72485426   379809 
 8620000    0.5187683   -2.6567665   -2.6567665   -1.9327735  0.031147707   -2.6567665   0.72399294   379755 
 8630000   0.51910072   -2.6569937   -2.6569937   -1.9324338   0.01989177   -2.6569937   0.72455989   379701 
 8640000   0.51986786   -2.6603279   -2.6603279   -1.9345941  0.034007678   -2.6603279   0.72573387   379647 
 8650000   0.51870162   -2.6578139   -2.6578139   -1.9336051  0.027309618   -2.6578139   0.72420881   379593 
 8660000   0.51917733   -2.6583513   -2.6583513   -1.9333752  0.027427107   -2.6583513   0.72497614   379539 
 8670000   0.51936514   -2.6583539   -2.6583539   -1.9330123  0.024172597   -2.6583539   0.72534159   379485 
 8680000    0.5186661   -2.6584633   -2.6584633   -1.9339949  0.025395523   -2.6584633   0.72446841   379431 
 8690000   0.51871489   -2.6591535   -2.6591535   -1.9345138  0.025449043   -2.6591535   0.72463968   379377 
 8700000   0.51742905   -2.6547312   -2.6547312    -1.931783  0.033510528   -2.6547312   0.72294819   379322 
 8710000   0.51847537   -2.6586946   -2.6586946   -1.9341813  0.029156175   -2.6586946   0.72451324   379268 
 8720000   0.51986317   -2.6595458   -2.6595458   -1.9329898  0.028057657   -2.6595458   0.72655599   379214 
 8730000   0.51838144   -2.6570401   -2.6570401   -1.9324518  0.023938386   -2.6570401   0.72458832   379160 
 8740000   0.51969385   -2.6602183   -2.6602183   -1.9336921  0.031778447   -2.6602183   0.72652626   379106 
 8750000   0.51873092   -2.6589476   -2.6589476   -1.9336642  0.024929558   -2.6589476    0.7252834   379052 
 8760000     0.517873   -2.6588262   -2.6588262   -1.9346392  0.032491652   -2.6588262   0.72418704   378998 
 8770000   0.51771748   -2.6583797   -2.6583797   -1.9343069  0.031209723   -2.6583797   0.72407273   378944 
 8780000   0.51941999   -2.6601037   -2.6601037   -1.9335464   0.03771013   -2.6601037   0.72655737   378890 
 8790000   0.51738681   -2.6577272   -2.6577272   -1.9339106  0.036574836   -2.6577272   0.72381655   378836 
 8800000   0.51858479   -2.6587856   -2.6587856   -1.9331897  0.037126347   -2.6587856   0.72559593   378782 
 8810000   0.51815494   -2.6587602   -2.6587602   -1.9336623  0.021969234   -2.6587602   0.72509787   378728 
 8820000   0.51752545    -2.657518    -2.657518   -1.9331978   0.03230907    -2.657518   0.72432024   378674 
 8830000   0.51776223   -2.6574248   -2.6574248   -1.9326698  0.033736119   -2.6574248   0.72475498   378620 
 8840000   0.51735313   -2.6596294   -2.6596294   -1.9353438  0.034646431   -2.6596294   0.72428564   378566 
 8850000   0.51817813   -2.6600647   -2.6600647   -1.9345205  0.028932461   -2.6600647   0.72554412   378512 
 8860000   0.51718205   -2.6603964   -2.6603964   -1.9361437  0.033821089   -2.6603964   0.72425274   378458 
 8870000   0.51705104   -2.6590285   -2.6590285   -1.9348559  0.033526665   -2.6590285   0.72417261   378404 
 8880000   0.51622645   -2.6566194   -2.6566194   -1.9334966  0.039751747   -2.6566194   0.72312281   378349 
 8890000    0.5172294    -2.657521    -2.657521   -1.9328899  0.032184514    -2.657521   0.72463114   378295 
 8900000   0.51829876   -2.6596161   -2.6596161   -1.9333832  0.025820209   -2.6596161   0.72623298   378241 
 8910000   0.51724034   -2.6581256   -2.6581256   -1.9332722  0.034891516   -2.6581256   0.72485341   378187 
 8920000   0.51695548   -2.6594226   -2.6594226   -1.9348649  0.028662282   -2.6594226   0.72455768   378133 
 8930000   0.51773282   -2.6594444   -2.6594444   -1.9336935  0.024827676   -2.6594444   0.72575083   378079 
 8940000   0.51759543   -2.6596328   -2.6596328   -1.9339709  0.020659957   -2.6596328   0.72566188   378025 
 8950000   0.51664685   -2.6606578   -2.6606578   -1.9362223  0.020537118   -2.6606578   0.72443547   377971 
 8960000   0.51679752   -2.6595552   -2.6595552   -1.9348049  0.026343768   -2.6595552   0.72475027   377917 
 8970000   0.51588868   -2.6570205   -2.6570205   -1.9334414  0.030251818   -2.6570205   0.72357912   377863 
 8980000   0.51582647   -2.6569292   -2.6569292    -1.933334  0.030424288   -2.6569292   0.72359528   377809 
 8990000   0.51662483   -2.6576885   -2.6576885   -1.9328697  0.042483531   -2.6576885   0.72481881   377755 
 9000000   0.51535418   -2.6565292   -2.6565292   -1.9333898  0.028783642   -2.6565292   0.72313947   377701 
 9010000   0.51610876   -2.6597627   -2.6597627   -1.9354608  0.030242843   -2.6597627   0.72430184   377647 
 9020000   0.51648806   -2.6599471   -2.6599471   -1.9350093  0.029791468   -2.6599471   0.72493781   377593 
 9030000   0.51564901    -2.659036    -2.659036   -1.9351723  0.029490111    -2.659036   0.72386364   377539 
 9040000   0.51619277   -2.6601508   -2.6601508   -1.9354202  0.020463612   -2.6601508   0.72473063   377485 
 9050000   0.51532281   -2.6580872   -2.6580872   -1.9344745  0.037321825   -2.6580872   0.72361273   377431 
 9060000   0.51536413   -2.6588225   -2.6588225   -1.9350482   0.03264819   -2.6588225    0.7237743   377377 
 9070000   0.51594207   -2.6613005   -2.6613005   -1.9366089  0.032132852   -2.6613005   0.72469158   377322 
 9080000   0.51596524   -2.6590976   -2.6590976   -1.9342697  0.023356403   -2.6590976   0.72482786   377268 
 9090000   0.51706371    -2.660463    -2.660463   -1.9339881  0.038845947    -2.660463   0.72647497   377214 
 9100000   0.51604662   -2.6595232   -2.6595232   -1.9343735   0.03628266   -2.6595232   0.72514976   377160 
 9110000   0.51627138   -2.6591413   -2.6591413   -1.9335718  0.035877075   -2.6591413   0.72556949   377106 
 9120000   0.51533693   -2.6589666   -2.6589666   -1.9346067  0.022329168   -2.6589666   0.72435992   377052 
 9130000   0.51590449   -2.6583969   -2.6583969   -1.9331353  0.024973676   -2.6583969   0.72526156   376998 
 9140000   0.51482981   -2.6568977   -2.6568977   -1.9330432  0.025654892   -2.6568977   0.72385445   376944 
 9150000   0.51615099   -2.6592032   -2.6592032   -1.9333872  0.027187058   -2.6592032   0.72581602   376890 
 9160000   0.51482123   -2.6600912   -2.6600912   -1.9360414  0.034143451   -2.6600912   0.72404983   376836 
 9170000   0.51589686   -2.6605829   -2.6605829   -1.9349163  0.033105924   -2.6605829    0.7256666   376782 
 9180000   0.51485916   -2.6593141   -2.6593141   -1.9350033   0.03012615   -2.6593141   0.72431077   376728 
 9190000   0.51497574   -2.6592248   -2.6592248   -1.9346462  0.042355877   -2.6592248   0.72457864   376674 
 9200000    0.5157062   -2.6588746   -2.6588746   -1.9331641   0.03682378   -2.6588746   0.72571044   376620 
 9210000   0.51468923   -2.6579376   -2.6579376   -1.9335544  0.028502996   -2.6579376    0.7243832   376566 
 9220000   0.51464722   -2.6574241   -2.6574241   -1.9329961  0.038059369   -2.6574241   0.72442796   376512 
 9230000   0.51473536   -2.6570447   -2.6570447   -1.9323887  0.028894989   -2.6570447   0.72465596   376458 
 9240000    0.5154018   -2.6584745   -2.6584745   -1.9327762   0.03126379   -2.6584745   0.72569828   376404 
 9250000   0.51523733   -2.6580674   -2.6580674   -1.9324946  0.036388499   -2.6580674   0.72557273   376349 
 9260000   0.51454261   -2.6557472   -2.6557472   -1.9310488  0.030366694   -2.6557472   0.72469839   376295 
 9270000    0.5138087   -2.6567988   -2.6567988   -1.9330302  0.039450259   -2.6567988   0.72376859   376241 
 9280000   0.51470601   -2.6562552   -2.6562552   -1.9311186  0.030286678   -2.6562552   0.72513664   376187 
 9290000   0.51443754   -2.6578346   -2.6578346   -1.9329721   0.03970712   -2.6578346   0.72486247   376133 
 9300000   0.51396448   -2.6584275   -2.6584275   -1.9341276  0.040991054   -2.6584275   0.72429989   376079 
 9310000   0.51432519   -2.6590082   -2.6590082   -1.9340959  0.039089247   -2.6590082   0.72491231   376025 
 9320000   0.51433055   -2.6594062   -2.6594062   -1.9343822  0.033473592   -2.6594062   0.72502398   375971 
 9330000   0.51289894   -2.6580727   -2.6580727   -1.9349629   0.03074304   -2.6580727   0.72310977   375917 
 9340000   0.51464639   -2.6595483   -2.6595483   -1.9338706  0.041639358   -2.6595483   0.72567766   375863 
 9350000    0.5138605   -2.6558521   -2.6558521   -1.9311784  0.029663982   -2.6558521   0.72467363   375809 
 9360000   0.51446133   -2.6568746   -2.6568746   -1.9312494  0.024882512   -2.6568746   0.72562521   375755 
 9370000   0.51330318   -2.6569718   -2.6569718   -1.9328761  0.037253429   -2.6569718   0.72409575   375701 
 9380000   0.51378012   -2.6600909   -2.6600909   -1.9352182  0.040902306   -2.6600909   0.72487274   375647 
 9390000    0.5120046   -2.6543531   -2.6543531   -1.9318815   0.03710804   -2.6543531   0.72247158   375593 
 9400000    0.5133084   -2.6558209   -2.6558209   -1.9314054   0.02953641   -2.6558209   0.72441548   375539 
 9410000   0.51393695   -2.6584512   -2.6584512   -1.9330443  0.023257996   -2.6584512   0.72540685   375485 
 9420000   0.51433034   -2.6600336   -2.6600336    -1.933967   0.02787498   -2.6600336   0.72606652   375431 
 9430000   0.51284389   -2.6573109   -2.6573109   -1.9332386  0.033964926   -2.6573109   0.72407228   375377 
 9440000   0.51249099   -2.6562863   -2.6562863   -1.9326063  0.029558829   -2.6562863   0.72368006   375322 
 9450000   0.51232462   -2.6544451   -2.6544451   -1.9308959  0.035485596   -2.6544451   0.72354923   375268 
 9460000   0.51308492   -2.6562348   -2.6562348   -1.9315075  0.028499088   -2.6562348   0.72472729   375214 
 9470000   0.51300269   -2.6581605   -2.6581605    -1.933445  0.029194889   -2.6581605   0.72471544   375160 
 9480000    0.5118887   -2.6568547   -2.6568547   -1.9336089  0.035040062   -2.6568547   0.72324581   375106 
 9490000   0.51181622   -2.6557452   -2.6557452   -1.9324976  0.029540113   -2.6557452   0.72324752   375052 
 9500000   0.51060407   -2.6536424   -2.6536424   -1.9320039  0.028364773   -2.6536424   0.72163854   374998 
 9510000   0.51220372   -2.6552764   -2.6552764   -1.9312728  0.027761082   -2.6552764   0.72400359   374944 
 9520000   0.51070218   -2.6531928   -2.6531928   -1.9312076   0.02345647   -2.6531928   0.72198512   374890 
 9530000   0.51199736   -2.6550751   -2.6550751   -1.9311547  0.039538879   -2.6550751   0.72392042   374836 
 9540000   0.51216295   -2.6555091   -2.6555091   -1.9312502  0.025590298   -2.6555091   0.72425888   374782 
 9550000   0.51159622   -2.6550912   -2.6550912   -1.9315295  0.034768389   -2.6550912   0.72356171   374728 
 9560000   0.51115049   -2.6529567   -2.6529567   -1.9299212  0.030829381   -2.6529567    0.7230355   374674 
 9570000   0.51146515   -2.6528981   -2.6528981   -1.9293132  0.022473505   -2.6528981   0.72358488   374620 
 9580000   0.51207743   -2.6557572   -2.6557572   -1.9312016  0.032528884   -2.6557572   0.72455553   374566 
 9590000   0.51116284   -2.6534981   -2.6534981   -1.9301324  0.026165255   -2.6534981   0.72336574   374512 
 9600000   0.51138169   -2.6520081   -2.6520081   -1.9282283  0.025856534   -2.6520081   0.72377979   374458 
 9610000   0.51206503   -2.6522142   -2.6522142   -1.9273627   0.03259281   -2.6522142   0.72485149   374404 
 9620000   0.51134506    -2.651074    -2.651074   -1.9271353  0.045055166    -2.651074   0.72393869   374349 
 9630000   0.51068554    -2.650518    -2.650518   -1.9274087  0.038886945    -2.650518   0.72310928   374295 
 9640000   0.51116867   -2.6527149   -2.6527149   -1.9288171  0.029947118   -2.6527149   0.72389781   374241 
 9650000   0.51162226   -2.6528838   -2.6528838    -1.928239  0.036505416   -2.6528838   0.72464472   374187 
 9660000   0.51167703   -2.6526315   -2.6526315   -1.9278046   0.02316395   -2.6526315   0.72482691   374133 
 9670000   0.51017808   -2.6506163   -2.6506163   -1.9278084  0.019780221   -2.6506163   0.72280785   374079 
 9680000   0.51084991   -2.6546368   -2.6546368   -1.9307726   0.03547486   -2.6546368   0.72386418   374025 
 9690000    0.5107249   -2.6542426   -2.6542426    -1.930451  0.028145559   -2.6542426   0.72379154   373971 
 9700000   0.51068554   -2.6533873   -2.6533873    -1.929547  0.030712715   -2.6533873   0.72384028   373917 
 9710000   0.51019035   -2.6525837   -2.6525837   -1.9293408  0.027950891   -2.6525837   0.72324286   373863 
 9720000   0.51112415   -2.6548521   -2.6548521   -1.9301809  0.034914842   -2.6548521   0.72467128   373809 
 9730000   0.51099438   -2.6546019   -2.6546019   -1.9300099  0.039206025   -2.6546019   0.72459196   373755 
 9740000   0.50967492    -2.651953    -2.651953   -1.9291276   0.03051489    -2.651953   0.72282539   373701 
 9750000   0.51066428    -2.651295    -2.651295   -1.9269618  0.027291183    -2.651295   0.72433318   373647 
 9760000    0.5100214   -2.6519119   -2.6519119   -1.9283861  0.027003346   -2.6519119   0.72352587   373593 
 9770000   0.51143165   -2.6545048   -2.6545048   -1.9288734   0.02410313   -2.6545048   0.72563136   373539 
 9780000   0.50981473   -2.6521661   -2.6521661   -1.9287243  0.026454958   -2.6521661   0.72344182   373485 
 9790000   0.50977814   -2.6559888   -2.6559888   -1.9324943   0.02963747   -2.6559888    0.7234945   373431 
 9800000   0.51025268   -2.6558539   -2.6558539   -1.9315812  0.029555442   -2.6558539   0.72427272   373377 
 9810000   0.50939059   -2.6546184   -2.6546184   -1.9314628  0.024647939   -2.6546184   0.72315556   373322 
 9820000   0.50931943   -2.6535571   -2.6535571    -1.930398  0.029124697   -2.6535571   0.72315915   373268 
 9830000   0.50909485   -2.6527188   -2.6527188   -1.9297739  0.031217139   -2.6527188   0.72294486   373214 
 9840000   0.50762959   -2.6508965   -2.6508965   -1.9299281   0.02285726   -2.6508965   0.72096842   373160 
 9850000   0.50928859   -2.6555803   -2.6555803    -1.932151  0.032378127   -2.6555803   0.72342933   373106 
 9860000   0.50911894   -2.6552202   -2.6552202   -1.9319272  0.033809888   -2.6552202   0.72329302   373052 
 9870000   0.50919228   -2.6549257   -2.6549257   -1.9314238  0.034344421   -2.6549257   0.72350195   372998 
 9880000   0.50924616   -2.6530418   -2.6530418   -1.9293585  0.034066875   -2.6530418   0.72368328   372944 
 9890000   0.50946328   -2.6523981   -2.6523981   -1.9283014  0.029291618   -2.6523981   0.72409666   372890 
 9900000   0.51038166   -2.6546166   -2.6546166   -1.9291096  0.032265579   -2.6546166   0.72550701   372836 
 9910000   0.50930292   -2.6510472   -2.6510472   -1.9269687  0.026945257   -2.6510472   0.72407846   372782 
 9920000   0.50821057   -2.6494675   -2.6494675   -1.9268374  0.029094491   -2.6494675   0.72263014   372728 
 9930000   0.50806657   -2.6535902   -2.6535902   -1.9310601  0.027679739   -2.6535902   0.72253006   372674 
 9940000   0.50946282   -2.6543437   -2.6543437    -1.929723  0.030506169   -2.6543437    0.7246207   372620 
 9950000   0.50833462   -2.6513723   -2.6513723   -1.9282514  0.032010356   -2.6513723   0.72312082   372566 
 9960000   0.50839597   -2.6526565   -2.6526565   -1.9293435   0.03630287   -2.6526565   0.72331293   372512 
 9970000   0.50859658   -2.6546805   -2.6546805   -1.9309772  0.027686762   -2.6546805   0.72370326   372458 
 9980000   0.50792824   -2.6533998   -2.6533998   -1.9305428  0.036465492   -2.6533998   0.72285704   372404 
 9990000   0.50808381   -2.6528486   -2.6528486   -1.9296633  0.020713333   -2.6528486   0.72318526   372349 
10000000   0.50817367    -2.652093    -2.652093   -1.9286749  0.045549266    -2.652093   0.72341807   372295 
10010000   0.50775397   -2.6515391   -2.6515391   -1.9286137  0.031765205   -2.6515391   0.72292546   372241 
10020000   0.50747405   -2.6527418   -2.6527418     -1.93011  0.025798685   -2.6527418   0.72263175   372187 
10030000   0.50764396   -2.6535721   -2.6535721   -1.9305936  0.033335879   -2.6535721    0.7229786   372133 
10040000   0.50682054   -2.6525851   -2.6525851   -1.9306744  0.027643323   -2.6525851   0.72191065   372079 
10050000   0.50730216   -2.6531221   -2.6531221   -1.9304205  0.022347272   -2.6531221   0.72270155   372025 
10060000   0.50786483   -2.6532782   -2.6532782     -1.92967  0.029599058   -2.6532782   0.72360816   371971 
10070000   0.50684865    -2.650925    -2.650925   -1.9286599  0.029635743    -2.650925   0.72226515   371917 
10080000   0.50801258   -2.6505255   -2.6505255   -1.9264966  0.033149515   -2.6505255   0.72402889   371863 
10090000   0.50754161   -2.6526734   -2.6526734   -1.9292106  0.030486275   -2.6526734   0.72346271   371809 
10100000   0.50775667   -2.6513182   -2.6513182   -1.9274438  0.034000752   -2.6513182    0.7238744   371755 
10110000   0.50724294   -2.6525296   -2.6525296   -1.9292825  0.024440518   -2.6525296   0.72324707   371701 
10120000   0.50577215    -2.651174    -2.651174   -1.9299193  0.021659423    -2.651174   0.72125474   371647 
10130000   0.50663303   -2.6528618   -2.6528618   -1.9302744  0.034064006   -2.6528618   0.72258738   371593 
10140000   0.50709625   -2.6527144   -2.6527144   -1.9293612  0.026714483   -2.6527144   0.72335316   371539 
10150000   0.50580838   -2.6522069   -2.6522069   -1.9305859  0.032578592   -2.6522069   0.72162096   371485 
10160000   0.50495184   -2.6510408   -2.6510408   -1.9305371  0.028381474   -2.6510408   0.72050369   371431 
10170000   0.50482005    -2.652319    -2.652319   -1.9318986  0.031667651    -2.652319   0.72042038   371377 
10180000    0.5058152   -2.6522746   -2.6522746   -1.9303271  0.029523538   -2.6522746   0.72194746   371322 
10190000   0.50548685   -2.6522926   -2.6522926   -1.9307088  0.034264719   -2.6522926   0.72158374   371268 
10200000   0.50637576   -2.6530924   -2.6530924   -1.9301346  0.033431725   -2.6530924   0.72295782   371214 
10210000   0.50508858   -2.6499972   -2.6499972   -1.9287722  0.026790438   -2.6499972   0.72122501   371160 
10220000   0.50614927   -2.6546703   -2.6546703   -1.9318256  0.032916912   -2.6546703   0.72284476   371106 
10230000   0.50496213   -2.6551041   -2.6551041   -1.9338498  0.024574099   -2.6551041   0.72125433   371052 
10240000   0.50548845   -2.6553106   -2.6553106   -1.9331994  0.033545302   -2.6553106   0.72211118   370998 
10250000   0.50541929   -2.6547902   -2.6547902   -1.9326727   0.01990608   -2.6547902   0.72211749   370944 
10260000   0.50473809   -2.6534756   -2.6534756   -1.9322264  0.037513203   -2.6534756   0.72124922   370890 
10270000   0.50554569   -2.6535687   -2.6535687   -1.9310603   0.02500242   -2.6535687   0.72250844   370836 
10280000   0.50532776   -2.6520636   -2.6520636   -1.9297615  0.036987787   -2.6520636   0.72230216   370782 
10290000   0.50411577   -2.6506242   -2.6506242   -1.9299495  0.037594471   -2.6506242   0.72067472   370728 
10300000    0.5053297   -2.6532348   -2.6532348   -1.9307194   0.03415241   -2.6532348   0.72251538   370674 
10310000   0.50338872   -2.6522573   -2.6522573   -1.9324123  0.035105977   -2.6522573   0.71984506   370620 
10320000   0.50418121   -2.6526319   -2.6526319   -1.9315485  0.020019149   -2.6526319   0.72108337   370566 
10330000   0.50424162   -2.6513188   -2.6513188   -1.9300439  0.030296862   -2.6513188   0.72127488   370512 
10340000   0.50518884   -2.6513243   -2.6513243   -1.9285892  0.032894219   -2.6513243   0.72273514   370458 
10350000   0.50473841   -2.6495557   -2.6495557   -1.9273597   0.02693542   -2.6495557   0.72219601   370404 
10360000   0.50448405   -2.6495731   -2.6495731   -1.9276339  0.029089942   -2.6495731   0.72193927   370349 
10370000   0.50539151   -2.6513194   -2.6513194    -1.927976  0.037541654   -2.6513194   0.72334334   370295 
10380000   0.50529542   -2.6488827   -2.6488827   -1.9255714  0.030267699   -2.6488827   0.72331129   370241 
10390000   0.50422572   -2.6471457   -2.6471457   -1.9252603  0.031361067   -2.6471457   0.72188535   370187 
10400000    0.5056477   -2.6497662   -2.6497662   -1.9257394  0.022967543   -2.6497662   0.72402678   370133 
10410000   0.50397854   -2.6470049   -2.6470049   -1.9252628  0.028779777   -2.6470049   0.72174204   370079 
10420000   0.50486195    -2.647861    -2.647861   -1.9247483  0.030231775    -2.647861   0.72311267   370025 
10430000    0.5044901   -2.6492352   -2.6492352   -1.9265496  0.026618105   -2.6492352   0.72268554   369971 
10440000   0.50395718   -2.6490346   -2.6490346   -1.9270071   0.02747799   -2.6490346   0.72202752   369917 
10450000   0.50467779   -2.6497248   -2.6497248   -1.9265593  0.035400145   -2.6497248   0.72316551   369863 
10460000   0.50482306   -2.6489982   -2.6489982   -1.9255189  0.024063718   -2.6489982   0.72347929   369809 
10470000   0.50331289   -2.6472074   -2.6472074    -1.925787  0.029909328   -2.6472074   0.72142036   369755 
10480000   0.50369991   -2.6471972   -2.6471972   -1.9251166  0.021123764   -2.6471972   0.72208054   369701 
10490000   0.50298566   -2.6484766   -2.6484766   -1.9273147  0.030989408   -2.6484766   0.72116197   369647 
10500000   0.50285912   -2.6491014   -2.6491014   -1.9280155  0.034191982   -2.6491014   0.72108588   369593 
10510000   0.50404824   -2.6505292   -2.6505292   -1.9276325  0.020002077   -2.6505292   0.72289666   369539 
10520000   0.50379384   -2.6505262   -2.6505262   -1.9278888  0.025823687   -2.6505262   0.72263741   369485 
10530000   0.50323728   -2.6495305   -2.6495305   -1.9275859  0.029452706   -2.6495305   0.72194459   369431 
10540000   0.50266975   -2.6488231   -2.6488231   -1.9275872  0.029104053   -2.6488231   0.72123583   369377 
10550000   0.50339152    -2.649308    -2.649308    -1.926929   0.02338506    -2.649308     0.722379   369322 
10560000   0.50238967   -2.6482501   -2.6482501   -1.9272034  0.029850787   -2.6482501   0.72104674   369268 
10570000   0.50168621   -2.6493984   -2.6493984    -1.929256  0.040090788   -2.6493984   0.72014243   369214 
10580000   0.50322358   -2.6512241   -2.6512241   -1.9287692  0.030399686   -2.6512241   0.72245491   369160 
10590000   0.50353128   -2.6508142   -2.6508142   -1.9278118  0.037966117   -2.6508142   0.72300241   369106 
10600000   0.50252172   -2.6493168   -2.6493168   -1.9276584  0.024435257   -2.6493168   0.72165841   369052 
10610000   0.50276052   -2.6500698   -2.6500698   -1.9279628  0.033129878   -2.6500698     0.722107   368998 
10620000   0.50380823   -2.6516127   -2.6516127    -1.927895  0.029691377   -2.6516127   0.72371771   368944 
10630000    0.5021311   -2.6488771   -2.6488771   -1.9274629  0.026791063   -2.6488771   0.72141411   368890 
10640000   0.50148088   -2.6482112   -2.6482112   -1.9276258  0.033056383   -2.6482112   0.72058543   368836 
10650000   0.50285749   -2.6485146   -2.6485146   -1.9258452  0.020969739   -2.6485146   0.72266931   368782 
10660000   0.50224988   -2.6488474   -2.6488474   -1.9269456  0.025041858   -2.6488474    0.7219018   368728 
10670000   0.50247871   -2.6503053   -2.6503053   -1.9279688  0.029619049   -2.6503053   0.72233648   368674 
10680000   0.50128266   -2.6496513   -2.6496513   -1.9289287  0.030059089   -2.6496513   0.72072268   368620 
10690000   0.50176524    -2.651462    -2.651462   -1.9299398  0.034950163    -2.651462    0.7215222   368566 
10700000   0.50093029   -2.6517404   -2.6517404   -1.9313133  0.034566201   -2.6517404   0.72042712   368512 
10710000    0.5005844   -2.6516256   -2.6516256   -1.9315904  0.029478288   -2.6516256   0.72003519   368458 
10720000   0.49971206   -2.6490704   -2.6490704   -1.9301846  0.024820697   -2.6490704   0.71888577   368404 
10730000   0.50080307    -2.650604    -2.650604   -1.9300411   0.02445533    -2.650604   0.72056287   368349 
10740000   0.50096107   -2.6511097   -2.6511097   -1.9302138  0.027863117   -2.6511097   0.72089589   368295 
10750000   0.50178496    -2.652085    -2.652085   -1.9298976  0.025148987    -2.652085   0.72218738   368241 
10760000    0.5010986   -2.6515109   -2.6515109   -1.9302055  0.028241011   -2.6515109   0.72130532   368187 
10770000   0.49973154   -2.6513951   -2.6513951   -1.9319521  0.035973167   -2.6513951   0.71944302   368133 
10780000   0.50108235   -2.6526747   -2.6526747   -1.9311811  0.035118492   -2.6526747   0.72149357   368079 
10790000   0.50010878   -2.6506119   -2.6506119   -1.9304145   0.03365012   -2.6506119   0.72019742   368025 
10800000   0.50125986   -2.6534539   -2.6534539   -1.9314929  0.033272702   -2.6534539   0.72196099   367971 
10810000    0.4996836    -2.653468    -2.653468   -1.9336717  0.034920747    -2.653468   0.71979635   367917 
10820000    0.5007444   -2.6543901   -2.6543901   -1.9329598   0.03305943   -2.6543901   0.72143032   367863 
10830000   0.49960602   -2.6534531   -2.6534531   -1.9335572   0.03347626   -2.6534531   0.71989592   367809 
10840000   0.50015536   -2.6527794   -2.6527794   -1.9319861  0.035297592   -2.6527794   0.72079329   367755 
10850000   0.50001482   -2.6527826   -2.6527826    -1.932086  0.029487026   -2.6527826   0.72069659   367701 
10860000   0.49995659    -2.654008    -2.654008   -1.9332895  0.031455888    -2.654008    0.7207185   367647 
10870000   0.49911963   -2.6546428   -2.6546428   -1.9350251  0.036988818   -2.6546428   0.71961767   367593 
10880000   0.49923708   -2.6554446   -2.6554446   -1.9355519   0.02427261   -2.6554446   0.71989276   367539 
10890000   0.49941344   -2.6560815   -2.6560815   -1.9358287  0.020036903   -2.6560815   0.72025288   367485 
10900000   0.49898448   -2.6518137   -2.6518137   -1.9320737  0.012963328   -2.6518137      0.71974   367431 
10910000   0.49897468   -2.6516809   -2.6516809   -1.9318493  0.030065659   -2.6516809   0.71983166   367377 
10920000   0.49917396   -2.6529007   -2.6529007   -1.9326738  0.026832833   -2.6529007   0.72022697   367322 
10930000   0.49982788   -2.6519989   -2.6519989   -1.9307224   0.04073717   -2.6519989   0.72127651   367268 
10940000   0.50025257   -2.6531029   -2.6531029   -1.9311073    0.0405849   -2.6531029   0.72199551   367214 
10950000   0.49943736    -2.649734    -2.649734    -1.928809  0.030812826    -2.649734   0.72092497   367160 
10960000   0.49985175   -2.6507941   -2.6507941   -1.9291649  0.030072627   -2.6507941   0.72162926   367106 
10970000    0.4986599   -2.6495675   -2.6495675    -1.929553  0.033190025   -2.6495675   0.72001451   367052 
10980000   0.49876697   -2.6493355   -2.6493355   -1.9290604  0.041094906   -2.6493355   0.72027507   366998 
10990000   0.49972663   -2.6517353   -2.6517353   -1.9299682  0.026305412   -2.6517353   0.72176713   366944 
11000000   0.49918132   -2.6507239   -2.6507239   -1.9296382  0.033456899   -2.6507239   0.72108564   366890 
11010000   0.49789975   -2.6479788   -2.6479788   -1.9286386  0.033260131   -2.6479788   0.71934024   366836 
11020000    0.4989399   -2.6498858   -2.6498858   -1.9289366  0.040364402   -2.6498858   0.72094912   366782 
11030000   0.49873461   -2.6494293   -2.6494293   -1.9286707  0.034484142   -2.6494293    0.7207586   366728 
11040000     0.498071   -2.6477242   -2.6477242   -1.9278186  0.026433685   -2.6477242   0.71990558   366674 
11050000   0.49845382   -2.6491275   -2.6491275   -1.9285625  0.036083538   -2.6491275   0.72056502   366620 
11060000   0.49885978   -2.6491248   -2.6491248   -1.9278667  0.036889696   -2.6491248   0.72125811   366566 
11070000   0.49844972   -2.6503441   -2.6503441   -1.9295727  0.024992292   -2.6503441   0.72077142   366512 
11080000   0.49769932   -2.6491608   -2.6491608   -1.9293684  0.028222433   -2.6491608   0.71979237   366458 
11090000   0.49924811   -2.6516636   -2.6516636   -1.9295249  0.037534635   -2.6516636    0.7221387   366404 
11100000   0.49788823   -2.6496931   -2.6496931   -1.9294133  0.027505413   -2.6496931   0.72027981   366349 
11110000   0.49850863   -2.6511757   -2.6511757   -1.9298921  0.036178821   -2.6511757   0.72128365   366295 
11120000   0.49682762   -2.6490442   -2.6490442   -1.9300868  0.025279506   -2.6490442   0.71895741   366241 
11130000   0.49769289   -2.6489533   -2.6489533   -1.9286375  0.015699184   -2.6489533   0.72031575   366187 
11140000    0.4967917   -2.6511282   -2.6511282   -1.9320107  0.030607539   -2.6511282    0.7191175   366133 
11150000   0.49591095   -2.6516029   -2.6516029   -1.9336544  0.034236583   -2.6516029   0.71794848   366079 
11160000   0.49767717    -2.653252    -2.653252   -1.9326402  0.029633522    -2.653252    0.7206118   366025 
11170000   0.49613842    -2.651214    -2.651214   -1.9327242  0.030249363    -2.651214   0.71848976   365971 
11180000   0.49731759   -2.6527569   -2.6527569   -1.9324532  0.035958582   -2.6527569   0.72030367   365917 
11190000    0.4961757   -2.6475606   -2.6475606   -1.9288048  0.033705318   -2.6475606   0.71875585   365863 
11200000   0.49708661   -2.6498029   -2.6498029   -1.9296212  0.024857668   -2.6498029   0.72018169   365809 
11210000   0.49766904   -2.6522286   -2.6522286   -1.9310967  0.031417532   -2.6522286   0.72113198   365755 
11220000   0.49605614   -2.6493184   -2.6493184   -1.9304174  0.026553174   -2.6493184   0.71890099   365701 
11230000   0.49644073   -2.6484226   -2.6484226    -1.928858  0.023186576   -2.6484226    0.7195646   365647 
11240000   0.49601717   -2.6488756   -2.6488756   -1.9298188   0.02204545   -2.6488756   0.71905686   365593 
11250000   0.49611126   -2.6493647   -2.6493647   -1.9300652  0.035743788   -2.6493647    0.7192995   365539 
11260000   0.49646261   -2.6503245   -2.6503245   -1.9304093  0.025657755   -2.6503245   0.71991528   365485 
11270000   0.49567306   -2.6501809   -2.6501809   -1.9313043   0.02761721   -2.6501809   0.71887657   365431 
11280000   0.49640919   -2.6517105   -2.6517105   -1.9316599  0.030202616   -2.6517105   0.72005058   365377 
11290000   0.49457467    -2.648117    -2.648117   -1.9306195  0.032388832    -2.648117   0.71749758   365322 
11300000   0.49550646   -2.6495218   -2.6495218   -1.9305662   0.02832545   -2.6495218   0.71895564   365268 
11310000   0.49655842   -2.6507638   -2.6507638   -1.9301753   0.03368021   -2.6507638    0.7205885   365214 
11320000   0.49616256   -2.6498128   -2.6498128   -1.9296923  0.034779326   -2.6498128   0.72012052   365160 
11330000   0.49596648   -2.6508889   -2.6508889   -1.9309465  0.032788482   -2.6508889    0.7199424   365106 
11340000   0.49464617   -2.6510667   -2.6510667   -1.9329346  0.032641536   -2.6510667   0.71813205   365052 
11350000   0.49509228    -2.649796    -2.649796     -1.93091  0.035908623    -2.649796   0.71888607   364998 
11360000   0.49575026   -2.6516312   -2.6516312   -1.9316832  0.028492659   -2.6516312   0.71994798   364944 
11370000   0.49478802   -2.6517939   -2.6517939    -1.933137  0.033290715   -2.6517939   0.71865692   364890 
11380000   0.49418457   -2.6501484   -2.6501484   -1.9322617  0.030206233   -2.6501484   0.71788668   364836 
11390000   0.49658237    -2.651896    -2.651896   -1.9304193  0.029369389    -2.651896   0.72147668   364782 
11400000   0.49450938   -2.6506094   -2.6506094   -1.9320382   0.03473483   -2.6506094   0.71857123   364728 
11410000   0.49505705   -2.6514147   -2.6514147   -1.9319411  0.032044418   -2.6514147   0.71947357   364674 
11420000     0.495845   -2.6538866   -2.6538866   -1.9331612  0.029991516   -2.6538866   0.72072544   364620 
11430000   0.49328073   -2.6513327   -2.6513327   -1.9342283  0.023876872   -2.6513327   0.71710439   364566 
11440000   0.49520631   -2.6529269   -2.6529269   -1.9329166  0.034824042   -2.6529269   0.72001035   364512 
11450000   0.49409534   -2.6517551   -2.6517551   -1.9332536  0.031081589   -2.6517551   0.71850148   364458 
11460000   0.49564999   -2.6509305   -2.6509305   -1.9300615  0.034491536   -2.6509305   0.72086903   364404 
11470000   0.49483048   -2.6515228   -2.6515228   -1.9317371  0.030717824   -2.6515228   0.71978578   364349 
11480000   0.49552634    -2.650757    -2.650757   -1.9298522  0.030148821    -2.650757   0.72090482   364295 
11490000   0.49361582   -2.6487679   -2.6487679   -1.9305361  0.029065727   -2.6487679   0.71823181   364241 
11500000     0.494481    -2.651518    -2.651518   -1.9319206  0.030549529    -2.651518   0.71959737   364187 
11510000   0.49332949   -2.6509679   -2.6509679   -1.9329398  0.028489346   -2.6509679    0.7180281   364133 
11520000   0.49460488   -2.6507381   -2.6507381    -1.930747  0.027212321   -2.6507381   0.71999116   364079 
11530000   0.49261611   -2.6494602   -2.6494602   -1.9322577  0.037162882   -2.6494602   0.71720251   364025 
11540000   0.49298846   -2.6516758   -2.6516758   -1.9338247  0.031524917   -2.6516758   0.71785109   363971 
11550000    0.4931618   -2.6519549   -2.6519549   -1.9337448  0.029535341   -2.6519549   0.71821006   363917 
11560000   0.49251071   -2.6493868   -2.6493868   -1.9320185  0.034879768   -2.6493868    0.7173683   363863 
11570000   0.49271752   -2.6464393   -2.6464393   -1.9286633  0.032494988   -2.6464393   0.71777605   363809 
11580000   0.49323738   -2.6493503   -2.6493503   -1.9307103  0.018438759   -2.6493503   0.71864003   363755 
11590000   0.49268065   -2.6493917   -2.6493917   -1.9314562  0.038069137   -2.6493917   0.71793546   363701 
11600000   0.49295001   -2.6520373   -2.6520373   -1.9336027    0.0292652   -2.6520373   0.71843465   363647 
11610000   0.49384941   -2.6517906   -2.6517906   -1.9319382  0.037553594   -2.6517906   0.71985234   363593 
11620000   0.49202217   -2.6514971   -2.6514971   -1.9342017  0.028788472   -2.6514971   0.71729542   363539 
11630000   0.49317416   -2.6512026   -2.6512026    -1.932121  0.028778416   -2.6512026   0.71908167   363485 
11640000   0.49270869   -2.6497507   -2.6497507   -1.9312409  0.029645482   -2.6497507   0.71850973   363431 
11650000   0.49255748    -2.650221    -2.650221    -1.931825   0.03224032    -2.650221   0.71839596   363377 
11660000   0.49261169   -2.6514925   -2.6514925   -1.9329087  0.032027531   -2.6514925   0.71858379   363322 
11670000   0.49185756   -2.6498436   -2.6498436   -1.9322533  0.028442318   -2.6498436   0.71759038   363268 
11680000   0.49301119   -2.6521695   -2.6521695   -1.9327891  0.028562305   -2.6521695   0.71938038   363214 
11690000   0.49168796   -2.6519242   -2.6519242   -1.9343679  0.030751734   -2.6519242   0.71755627   363160 
11700000   0.49182045   -2.6512457   -2.6512457   -1.9333893  0.021658932   -2.6512457   0.71785637   363106 
11710000   0.49201134   -2.6500378   -2.6500378    -1.931796    0.0294074   -2.6500378   0.71824181   363052 
11720000   0.49239721   -2.6527929   -2.6527929   -1.9338809  0.031346366   -2.6527929   0.71891203   362998 
11730000   0.49226329   -2.6512939   -2.6512939   -1.9324705  0.020692562   -2.6512939   0.71882343   362944 
11740000   0.49009847   -2.6465978   -2.6465978   -1.9308291  0.026496278   -2.6465978   0.71576877   362890 
11750000    0.4915047   -2.6493587   -2.6493587   -1.9314293  0.028376846   -2.6493587   0.71792934   362836 
11760000   0.49105107   -2.6490803   -2.6490803   -1.9317068  0.030671067   -2.6490803    0.7173735   362782 
11770000   0.49108041   -2.6498484   -2.6498484   -1.9323253  0.035307336   -2.6498484   0.71752317   362728 
11780000   0.49120131    -2.650978    -2.650978   -1.9331713  0.026172445    -2.650978   0.71780667   362674 
11790000   0.48965872   -2.6478829   -2.6478829   -1.9322239  0.026001018   -2.6478829     0.715659   362620 
11800000   0.49077917    -2.650355    -2.650355   -1.9329516   0.02689861    -2.650355   0.71740342   362566 
11810000   0.49146492   -2.6510861   -2.6510861   -1.9325733  0.032350357   -2.6510861   0.71851284   362512 
11820000   0.49159139   -2.6513308   -2.6513308   -1.9325259  0.026000672   -2.6513308   0.71880481   362458 
11830000   0.49119068    -2.649711    -2.649711   -1.9313851  0.035608081    -2.649711   0.71832591   362404 
11840000     0.489441   -2.6484459   -2.6484459   -1.9325701  0.029900457   -2.6484459    0.7158758   362349 
11850000   0.49012767   -2.6508754   -2.6508754   -1.9338884  0.033483356   -2.6508754     0.716987   362295 
11860000   0.49038501    -2.649342    -2.649342   -1.9318716   0.02672202    -2.649342   0.71747039   362241 
11870000   0.49087413   -2.6500381   -2.6500381   -1.9317451  0.033989734   -2.6500381   0.71829308   362187 
11880000    0.4902981   -2.6492789   -2.6492789   -1.9317217  0.027260532   -2.6492789   0.71755716   362133 
11890000   0.48898763   -2.6472987   -2.6472987   -1.9315527  0.028457515   -2.6472987     0.715746   362079 
11900000   0.48949853   -2.6470835   -2.6470835   -1.9304828  0.030543246   -2.6470835   0.71660069   362025 
11910000   0.49187147   -2.6510914   -2.6510914   -1.9309095  0.025527326   -2.6510914   0.72018199   361971 
11920000   0.49006844   -2.6500299   -2.6500299   -1.9323808  0.031600182   -2.6500299   0.71764911   361917 
11930000   0.49054728   -2.6512815   -2.6512815    -1.932824  0.023318274   -2.6512815   0.71845751   361863 
11940000   0.48968364   -2.6489969   -2.6489969   -1.9316973  0.025213563   -2.6489969   0.71729966   361809 
11950000   0.49001754   -2.6470421   -2.6470421   -1.9291462   0.04140625   -2.6470421   0.71789592   361755 
11960000   0.48963152   -2.6486653   -2.6486653   -1.9312278  0.032371939   -2.6486653   0.71743747   361701 
11970000   0.49065706   -2.6502831   -2.6502831   -1.9312356  0.021702701   -2.6502831    0.7190475   361647 
11980000   0.49047321   -2.6495262   -2.6495262   -1.9306408  0.030821766   -2.6495262   0.71888542   361593 
11990000   0.49060216   -2.6513857   -2.6513857   -1.9322038  0.026676819   -2.6513857   0.71918182   361539 
12000000   0.49027437   -2.6477138   -2.6477138   -1.9289051  0.030366134   -2.6477138   0.71880867   361485 
12010000   0.48979019   -2.6500456   -2.6500456   -1.9318395  0.032746971   -2.6500456   0.71820608   361431 
12020000    0.4893657   -2.6518182   -2.6518182   -1.9341274  0.027896754   -2.6518182   0.71769085   361377 
12030000   0.49012936   -2.6519572   -2.6519572    -1.933037  0.031186807   -2.6519572   0.71892024   361322 
12040000   0.49150903   -2.6516127   -2.6516127    -1.930561  0.034396657   -2.6516127    0.7210517   361268 
12050000   0.48842032   -2.6479229   -2.6479229   -1.9312953  0.024761411   -2.6479229   0.71662763   361214 
12060000    0.4889885   -2.6483731   -2.6483731   -1.9308046   0.02497758   -2.6483731   0.71756855   361160 
12070000   0.48773177   -2.6472878   -2.6472878   -1.9314564  0.023334667   -2.6472878   0.71583139   361106 
12080000    0.4893785   -2.6484679   -2.6484679   -1.9301122  0.031337434   -2.6484679   0.71835568   361052 
12090000    0.4881361   -2.6465975   -2.6465975   -1.9299583   0.02615629   -2.6465975   0.71663915   360998 
12100000   0.48870416   -2.6490343   -2.6490343   -1.9314538  0.032870431   -2.6490343   0.71758046   360944 
12110000   0.48872113   -2.6484369   -2.6484369   -1.9307241  0.028821102   -2.6484369   0.71771276   360890 
12120000   0.48895223   -2.6500278   -2.6500278   -1.9318682  0.024371661   -2.6500278   0.71815959   360836 
12130000   0.48871534   -2.6497311   -2.6497311    -1.931812  0.033813014   -2.6497311   0.71791909   360782 
12140000   0.48860366    -2.649566    -2.649566   -1.9317035  0.031400904    -2.649566   0.71786248   360728 
12150000   0.48725149     -2.64846     -2.64846   -1.9324769  0.025636207     -2.64846   0.71598304   360674 
12160000   0.48661465    -2.646143    -2.646143   -1.9309887   0.03525171    -2.646143   0.71515432   360620 
12170000   0.48815047   -2.6499367   -2.6499367   -1.9324179  0.027183885   -2.6499367   0.71751889   360566 
12180000   0.48778391   -2.6462904   -2.6462904    -1.929203  0.035897634   -2.6462904   0.71708748   360512 
12190000   0.48692626     -2.64422     -2.64422   -1.9282861  0.035159285     -2.64422    0.7159339   360458 
12200000   0.48821923   -2.6472813   -2.6472813   -1.9293388  0.026597044   -2.6472813   0.71794253   360404 
12210000   0.48845065   -2.6484947   -2.6484947   -1.9301023  0.031039497   -2.6484947   0.71839246   360349 
12220000   0.48861498   -2.6488967   -2.6488967   -1.9301548  0.029892073   -2.6488967   0.71874185   360295 
12230000   0.48830754   -2.6488829   -2.6488829   -1.9304856  0.032682543   -2.6488829   0.71839729   360241 
12240000    0.4877451   -2.6479105   -2.6479105   -1.9302331  0.030223813   -2.6479105   0.71767742   360187 
12250000   0.48656054   -2.6457105   -2.6457105   -1.9296687  0.036993333   -2.6457105   0.71604178   360133 
12260000   0.48668856   -2.6489261   -2.6489261   -1.9325885  0.022214559   -2.6489261    0.7163376   360079 
12270000   0.48634379   -2.6477146   -2.6477146   -1.9317771  0.025160562   -2.6477146   0.71593751   360025 
12280000    0.4864962   -2.6483406   -2.6483406   -1.9320713  0.027415377   -2.6483406   0.71626929   359971 
12290000   0.48714529   -2.6494627   -2.6494627   -1.9321302  0.033288775   -2.6494627   0.71733257   359917 
12300000   0.48712352   -2.6492165   -2.6492165   -1.9318083  0.038665757   -2.6492165   0.71740814   359863 
12310000   0.48711561   -2.6499093   -2.6499093   -1.9324052  0.025203803   -2.6499093   0.71750416   359809 
12320000   0.48675483   -2.6520829   -2.6520829   -1.9350025  0.028665671   -2.6520829   0.71708037   359755 
12330000   0.48612211   -2.6505828   -2.6505828    -1.934327  0.040878846   -2.6505828   0.71625575   359701 
12340000   0.48672333   -2.6504733   -2.6504733   -1.9332241  0.033287894   -2.6504733   0.71724928   359647 
12350000   0.48649657   -2.6490649   -2.6490649   -1.9320421  0.034251852   -2.6490649   0.71702277   359593 
12360000   0.48685615   -2.6482788   -2.6482788   -1.9306183  0.029829233   -2.6482788   0.71766051   359539 
12370000   0.48665988   -2.6478638   -2.6478638   -1.9303849  0.026195085   -2.6478638   0.71747896   359485 
12380000   0.48618429   -2.6478163   -2.6478163   -1.9309308   0.02989416   -2.6478163   0.71688548   359431 
12390000   0.48540273   -2.6481814   -2.6481814   -1.9323408  0.027090938   -2.6481814   0.71584062   359377 
12400000   0.48507762   -2.6494193   -2.6494193   -1.9339487  0.030353266   -2.6494193   0.71547066   359322 
12410000   0.48631208   -2.6493982   -2.6493982   -1.9319989  0.033977829   -2.6493982   0.71739924   359268 
12420000   0.48605499   -2.6490418   -2.6490418    -1.931914  0.031898813   -2.6490418   0.71712778   359214 
12430000   0.48644819   -2.6505824   -2.6505824   -1.9327666  0.031130895   -2.6505824   0.71781582   359160 
12440000   0.48684491   -2.6491368   -2.6491368   -1.9306275  0.038603302   -2.6491368   0.71850926   359106 
12450000   0.48645361   -2.6481293   -2.6481293   -1.9300895  0.038019693   -2.6481293   0.71803974   359052 
12460000   0.48454085   -2.6473592   -2.6473592   -1.9320352  0.034554508   -2.6473592   0.71532395   358998 
12470000    0.4852055     -2.64971     -2.64971   -1.9332971  0.027046227     -2.64971   0.71641293   358944 
12480000   0.48579298   -2.6479969   -2.6479969   -1.9306086  0.024742581   -2.6479969   0.71738827   358890 
12490000    0.4849077   -2.6482552   -2.6482552   -1.9320665  0.021180034   -2.6482552   0.71618871   358836 
12500000   0.48445641   -2.6462712   -2.6462712   -1.9306413  0.027061346   -2.6462712   0.71562987   358782 
12510000   0.48654989   -2.6481848   -2.6481848   -1.9293543  0.035178619   -2.6481848   0.71883051   358728 
12520000    0.4845938   -2.6471382   -2.6471382   -1.9310898  0.019995389   -2.6471382   0.71604837   358674 
12530000   0.48553458   -2.6483901   -2.6483901   -1.9308436  0.027552208   -2.6483901   0.71754651   358620 
12540000   0.48455538   -2.6493286   -2.6493286   -1.9331213  0.043212034   -2.6493286   0.71620725   358566 
12550000   0.48552661   -2.6500755   -2.6500755   -1.9323246  0.026372425   -2.6500755   0.71775089   358512 
12560000    0.4838881   -2.6471482   -2.6471482   -1.9317117  0.035088653   -2.6471482   0.71543645   358458 
12570000    0.4841344   -2.6469002   -2.6469002   -1.9309918  0.030539694   -2.6469002   0.71590846   358404 
12580000   0.48611656   -2.6508433   -2.6508433   -1.9318934  0.029984862   -2.6508433   0.71894988   358349 
12590000   0.48337553   -2.6475874   -2.6475874   -1.9325836  0.037966017   -2.6475874   0.71500374   358295 
12600000   0.48356904   -2.6470296   -2.6470296   -1.9316318  0.029234662   -2.6470296   0.71539779   358241 
12610000   0.48402885   -2.6464949   -2.6464949   -1.9303089  0.030205379   -2.6464949   0.71618599   358187 
12620000   0.48362791   -2.6474974   -2.6474974   -1.9317967  0.037923172   -2.6474974   0.71570064   358133 
12630000   0.48243956   -2.6464226   -2.6464226   -1.9323729  0.030066139   -2.6464226   0.71404972   358079 
12640000   0.48267732     -2.64911     -2.64911   -1.9346007  0.034552898     -2.64911   0.71450938   358025 
12650000   0.48410464   -2.6503457   -2.6503457   -1.9336153  0.034321034   -2.6503457   0.71673036   357971 
12660000   0.48347958   -2.6484571   -2.6484571   -1.9325442  0.032844105   -2.6484571   0.71591293   357917 
12670000   0.48356528   -2.6508663   -2.6508663   -1.9347184  0.030819591   -2.6508663   0.71614788   357863 
12680000   0.48221765   -2.6486413   -2.6486413   -1.9343814  0.022529323   -2.6486413   0.71425985   357809 
12690000   0.48289886   -2.6489129   -2.6489129   -1.9335361  0.025934027   -2.6489129   0.71537683   357755 
12700000   0.48253008   -2.6467855   -2.6467855    -1.931847   0.02801559   -2.6467855   0.71493842   357701 
12710000   0.48426325   -2.6469902   -2.6469902   -1.9293755  0.026283045   -2.6469902   0.71761469   357647 
12720000   0.48404992   -2.6461409   -2.6461409    -1.928734  0.028693244   -2.6461409   0.71740689   357593 
12730000   0.48296558   -2.6456274   -2.6456274   -1.9297195  0.025849035   -2.6456274   0.71590791   357539 
12740000   0.48319685   -2.6459264   -2.6459264   -1.9295675  0.026847218   -2.6459264   0.71635891   357485 
12750000   0.48389293   -2.6476419   -2.6476419   -1.9301426  0.028610705   -2.6476419   0.71749927   357431 
12760000   0.48266766   -2.6460414   -2.6460414   -1.9302508  0.034324848   -2.6460414   0.71579062   357377 
12770000   0.48276159   -2.6472188   -2.6472188   -1.9311787  0.031693052   -2.6472188   0.71604011   357322 
12780000   0.48133151   -2.6449139   -2.6449139    -1.930887  0.035881331   -2.6449139   0.71402689   357268 
12790000   0.48202182   -2.6467863   -2.6467863   -1.9316273  0.030747087   -2.6467863   0.71515902   357214 
12800000   0.48213754   -2.6464086   -2.6464086   -1.9309698   0.02328216   -2.6464086   0.71543888   357160 
12810000   0.48225868   -2.6469041   -2.6469041   -1.9311773  0.037276485   -2.6469041   0.71572684   357106 
12820000   0.48148352     -2.64823     -2.64823   -1.9335455  0.033828045     -2.64823   0.71468448   357052 
12830000   0.48283096   -2.6466041   -2.6466041   -1.9298112  0.044204092   -2.6466041   0.71679295   356998 
12840000   0.48242989   -2.6481597   -2.6481597   -1.9318538   0.03354403   -2.6481597   0.71630588   356944 
12850000   0.48141819   -2.6478234   -2.6478234   -1.9329115  0.025731494   -2.6478234   0.71491188   356890 
12860000   0.48097073   -2.6472387   -2.6472387   -1.9328832  0.029410989   -2.6472387   0.71435549   356836 
12870000   0.48083384   -2.6461492   -2.6461492    -1.931889  0.036682667   -2.6461492   0.71426026   356782 
12880000   0.48277573    -2.647722    -2.647722   -1.9304685  0.035111855    -2.647722   0.71725342   356728 
12890000   0.48184964   -2.6465337   -2.6465337   -1.9305478  0.030768934   -2.6465337   0.71598592   356674 
12900000   0.48172457   -2.6476885   -2.6476885     -1.93178  0.034950421   -2.6476885   0.71590847   356620 
12910000   0.48111747   -2.6446126   -2.6446126   -1.9294981   0.03773669   -2.6446126   0.71511452   356566 
12920000   0.48199027   -2.6453418   -2.6453418   -1.9288215  0.027138896   -2.6453418   0.71652033   356512 
12930000   0.48214274   -2.6463091   -2.6463091   -1.9294535  0.039581032   -2.6463091   0.71685557   356458 
12940000    0.4819765   -2.6460033   -2.6460033   -1.9292864  0.027241293   -2.6460033   0.71671697   356404 
12950000   0.48206212   -2.6477856   -2.6477856   -1.9308306  0.033215468   -2.6477856   0.71695494   356349 
12960000   0.48136964   -2.6447025   -2.6447025    -1.928669  0.033000611   -2.6447025   0.71603354   356295 
12970000   0.48177809   -2.6457291   -2.6457291   -1.9289794  0.037172986   -2.6457291   0.71674973   356241 
12980000   0.48268591   -2.6479267   -2.6479267   -1.9297175  0.038114709   -2.6479267   0.71820919   356187 
12990000   0.48053738   -2.6457274   -2.6457274   -1.9306067  0.024312036   -2.6457274   0.71512072   356133 
13000000   0.48061665    -2.648788    -2.648788   -1.9334408  0.024207916    -2.648788   0.71534715   356079 
13010000   0.48171548   -2.6476057   -2.6476057   -1.9305143  0.027673676   -2.6476057   0.71709138   356025 
13020000    0.4818201   -2.6477641   -2.6477641   -1.9304082  0.029739153   -2.6477641   0.71735593   355971 
13030000   0.47890323   -2.6464668   -2.6464668   -1.9333454  0.025507021   -2.6464668   0.71312134   355917 
13040000    0.4806163   -2.6484676   -2.6484676   -1.9326867  0.027392555   -2.6484676   0.71578083   355863 
13050000   0.47885577   -2.6463917   -2.6463917   -1.9331245  0.034765404   -2.6463917   0.71326711   355809 
13060000   0.47967728   -2.6476301   -2.6476301   -1.9330309  0.032747101   -2.6476301   0.71459921   355755 
13070000   0.47900253   -2.6477562   -2.6477562   -1.9340539   0.02834129   -2.6477562   0.71370233   355701 
13080000   0.47960951   -2.6482212   -2.6482212   -1.9335059  0.032048211   -2.6482212   0.71471522   355647 
13090000   0.48005066   -2.6462021   -2.6462021   -1.9307208  0.021978141   -2.6462021   0.71548127   355593 
13100000   0.47834782   -2.6449912   -2.6449912   -1.9319396  0.042925286   -2.6449912   0.71305158   355539 
13110000   0.47978491   -2.6457206   -2.6457206   -1.9304181    0.0311165   -2.6457206   0.71530244   355485 
13120000   0.48045441   -2.6489101   -2.6489101   -1.9325007    0.0236029   -2.6489101    0.7164094   355431 
13130000   0.47930284    -2.644808    -2.644808   -1.9300072   0.03240226    -2.644808   0.71480089   355377 
13140000   0.47948013   -2.6452372   -2.6452372   -1.9300612  0.039646137   -2.6452372   0.71517598   355322 
13150000   0.47965147   -2.6473986   -2.6473986   -1.9318584  0.027031824   -2.6473986   0.71554028   355268 
13160000   0.47957464   -2.6457235   -2.6457235   -1.9301891  0.029569112   -2.6457235   0.71553442   355214 
13170000   0.47973396   -2.6464091   -2.6464091   -1.9305281  0.022718304   -2.6464091   0.71588097   355160 
13180000   0.47892753   -2.6452797   -2.6452797   -1.9304934  0.043954546   -2.6452797   0.71478626   355106 
13190000   0.47831657    -2.645093    -2.645093     -1.93111  0.026156564    -2.645093   0.71398298   355052 
13200000   0.47860073   -2.6462897   -2.6462897   -1.9317739  0.032791086   -2.6462897   0.71451582   354998 
13210000   0.47864371   -2.6471617   -2.6471617    -1.932473  0.023124896   -2.6471617    0.7146887   354944 
13220000   0.47872743   -2.6476417   -2.6476417   -1.9327192  0.038077297   -2.6476417   0.71492247   354890 
13230000   0.47917089   -2.6490542   -2.6490542   -1.9333606  0.034141118   -2.6490542   0.71569363   354836 
13240000   0.47717593   -2.6473906   -2.6473906   -1.9345681  0.023409338   -2.6473906   0.71282241   354782 
13250000   0.47825816   -2.6461485   -2.6461485   -1.9316007  0.025198334   -2.6461485   0.71454785   354728 
13260000   0.47796506   -2.6447303   -2.6447303   -1.9305116  0.029555064   -2.6447303   0.71421866   354674 
13270000   0.47829361   -2.6459662   -2.6459662   -1.9311477  0.025730768   -2.6459662   0.71481844   354620 
13280000   0.47799242   -2.6459442   -2.6459442   -1.9314671  0.034559582   -2.6459442   0.71447711   354566 
13290000   0.47947934   -2.6493323   -2.6493323   -1.9325235  0.020406727   -2.6493323   0.71680884   354512 
13300000   0.47714064   -2.6469096   -2.6469096   -1.9334884  0.020748492   -2.6469096   0.71342122   354458 
13310000   0.47707379   -2.6466043   -2.6466043   -1.9331743  0.031918713   -2.6466043   0.71342996   354404 
13320000   0.47810776   -2.6479454   -2.6479454   -1.9328582  0.030251982   -2.6479454   0.71508715   354349 
13330000    0.4780463   -2.6465638   -2.6465638   -1.9314596  0.032896204   -2.6465638   0.71510422   354295 
13340000   0.47782785   -2.6457974   -2.6457974   -1.9309111  0.032739337   -2.6457974   0.71488639   354241 
13350000   0.47780791   -2.6462423   -2.6462423   -1.9312767  0.034465341   -2.6462423   0.71496555   354187 
13360000   0.47741165   -2.6439299   -2.6439299   -1.9294484  0.037559419   -2.6439299   0.71448153   354133 
13370000   0.47705792   -2.6415368   -2.6415368   -1.9274758  0.027912307   -2.6415368   0.71406103   354079 
13380000   0.47607902   -2.6432024   -2.6432024   -1.9304978  0.021172218   -2.6432024   0.71270452   354025 
13390000   0.47737269    -2.643896    -2.643896   -1.9291458  0.034090555    -2.643896    0.7147502   353971 
13400000   0.47706531   -2.6435326   -2.6435326   -1.9291337  0.027375882   -2.6435326   0.71439895   353917 
13410000   0.47578596    -2.641866    -2.641866   -1.9292741  0.027719883    -2.641866   0.71259188   353863 
13420000   0.47593131   -2.6424447   -2.6424447   -1.9295264  0.026068467   -2.6424447   0.71291836   353809 
13430000   0.47718527   -2.6454248   -2.6454248   -1.9305189   0.03360535   -2.6454248   0.71490583   353755 
13440000   0.47715142   -2.6443674   -2.6443674   -1.9294032  0.022464162   -2.6443674   0.71496426   353701 
13450000    0.4765604   -2.6435271   -2.6435271   -1.9293394  0.026730692   -2.6435271   0.71418771   353647 
13460000   0.47698174   -2.6463165   -2.6463165   -1.9313882  0.025093191   -2.6463165   0.71492831   353593 
13470000   0.47533424   -2.6444404   -2.6444404   -1.9318727  0.033064031   -2.6444404   0.71256776   353539 
13480000   0.47640269   -2.6473436   -2.6473436    -1.933065  0.035622805   -2.6473436   0.71427856   353485 
13490000   0.47524001   -2.6434464   -2.6434464   -1.9308022  0.031104664   -2.6434464    0.7126442   353431 
13500000   0.47679001   -2.6459704   -2.6459704   -1.9308927  0.028835751   -2.6459704   0.71507776   353377 
13510000   0.47471498   -2.6451513   -2.6451513   -1.9330748  0.024386963   -2.6451513    0.7120765   353322 
13520000   0.47695359    -2.645983    -2.645983   -1.9304392  0.037283056    -2.645983   0.71554379   353268 
13530000     0.475299   -2.6438039   -2.6438039   -1.9306334  0.030879936   -2.6438039   0.71317052   353214 
13540000   0.47578706   -2.6435703   -2.6435703   -1.9295583  0.024534809   -2.6435703     0.714012   353160 
13550000   0.47647219   -2.6463348   -2.6463348   -1.9311852   0.04097816   -2.6463348   0.71514953   353106 
13560000   0.47550361   -2.6439811   -2.6439811   -1.9301762  0.033904891   -2.6439811   0.71380492   353052 
13570000   0.47518805   -2.6464925   -2.6464925   -1.9330521  0.027753864   -2.6464925   0.71344034   352998 
13580000   0.47533452   -2.6449383   -2.6449383   -1.9311688  0.034573067   -2.6449383   0.71376944   352944 
13590000   0.47514525    -2.644469    -2.644469   -1.9308746  0.029352246    -2.644469   0.71359441   352890 
13600000   0.47574181   -2.6460662   -2.6460662   -1.9314665  0.034838246   -2.6460662    0.7145997   352836 
13610000   0.47517901   -2.6432917   -2.6432917   -1.9294281  0.025895993   -2.6432917   0.71386358   352782 
13620000   0.47524884   -2.6470526   -2.6470526   -1.9329748  0.039510026   -2.6470526   0.71407779   352728 
13630000   0.47408331   -2.6443032   -2.6443032   -1.9318676  0.024819163   -2.6443032   0.71243561   352674 
13640000   0.47432257     -2.64462     -2.64462   -1.9317157  0.034078442     -2.64462   0.71290431   352620 
13650000   0.47482798   -2.6477921   -2.6477921   -1.9340189  0.035726885   -2.6477921   0.71377325   352566 
13660000   0.47323685   -2.6472377   -2.6472377   -1.9357473  0.027492152   -2.6472377    0.7114904   352512 
13670000   0.47443092   -2.6486038   -2.6486038   -1.9352089  0.021820649   -2.6486038   0.71339491   352458 
13680000   0.47392952   -2.6477527   -2.6477527   -1.9350025  0.029434982   -2.6477527   0.71275017   352404 
13690000   0.47386358   -2.6475366   -2.6475366   -1.9347744  0.024306633   -2.6475366   0.71276224   352349 
13700000     0.472569   -2.6462486   -2.6462486   -1.9353246  0.036809472   -2.6462486   0.71092396   352295 
13710000   0.47308753   -2.6484242   -2.6484242    -1.936611  0.034167461   -2.6484242   0.71181313   352241 
13720000   0.47359964   -2.6484381   -2.6484381   -1.9357452  0.036861713   -2.6484381   0.71269291   352187 
13730000   0.47323701   -2.6459534   -2.6459534    -1.933697  0.022068431   -2.6459534   0.71225641   352133 
13740000   0.47292915   -2.6434712   -2.6434712    -1.931569  0.022434434   -2.6434712   0.71190224   352079 
13750000   0.47282304   -2.6458422   -2.6458422   -1.9339906  0.037193897   -2.6458422   0.71185169   352025 
13760000   0.47306622    -2.646604    -2.646604   -1.9342769  0.026883345    -2.646604   0.71232707   351971 
13770000   0.47317257   -2.6471233   -2.6471233   -1.9345267  0.030533812   -2.6471233   0.71259654   351917 
13780000   0.47306899   -2.6433993   -2.6433993   -1.9308495  0.027384989   -2.6433993   0.71254989   351863 
13790000   0.47298436   -2.6448683   -2.6448683   -1.9323365  0.031686047   -2.6448683   0.71253176   351809 
13800000   0.47298013   -2.6464051   -2.6464051   -1.9337703  0.033528087   -2.6464051   0.71263479   351755 
13810000   0.47386338   -2.6446327   -2.6446327   -1.9305575  0.035798382   -2.6446327   0.71407519   351701 
13820000   0.47275694    -2.643373    -2.643373   -1.9308557  0.027761914    -2.643373   0.71251727   351647 
13830000   0.47297682    -2.643179    -2.643179   -1.9302209  0.030286781    -2.643179   0.71295814   351593 
13840000   0.47324176   -2.6439925   -2.6439925   -1.9305254  0.031165041   -2.6439925   0.71346709   351539 
13850000    0.4729222   -2.6436535   -2.6436535   -1.9305587  0.033317342   -2.6436535   0.71309486   351485 
13860000   0.47302998   -2.6445162   -2.6445162   -1.9311492  0.025673176   -2.6445162   0.71336696   351431 
13870000   0.47310788   -2.6440147   -2.6440147   -1.9304207  0.035464812   -2.6440147   0.71359409   351377 
13880000   0.47155988   -2.6433216   -2.6433216    -1.931951    0.0276049   -2.6433216   0.71137058   351322 
13890000   0.47380896   -2.6459505   -2.6459505   -1.9310772  0.033053841   -2.6459505    0.7148733   351268 
13900000   0.47133215   -2.6431351   -2.6431351   -1.9318894  0.033382085   -2.6431351   0.71124569   351214 
13910000   0.47349988   -2.6445456   -2.6445456   -1.9299189  0.032118407   -2.6445456   0.71462669   351160 
13920000   0.47109197    -2.642774    -2.642774   -1.9316721  0.024586219    -2.642774   0.71110191   351106 
13930000   0.47304477   -2.6461718   -2.6461718   -1.9320123  0.018754499   -2.6461718   0.71415945   351052 
13940000   0.47334834   -2.6468451   -2.6468451   -1.9321174  0.037098453   -2.6468451    0.7147277   350998 
13950000   0.47185633   -2.6445463   -2.6445463   -1.9319618  0.032778226   -2.6445463   0.71258449   350944 
13960000   0.47136673   -2.6451848   -2.6451848   -1.9332301   0.03383537   -2.6451848   0.71195466   350890 
13970000   0.47092993   -2.6445174   -2.6445174    -1.933113  0.031385309   -2.6445174   0.71140439   350836 
13980000   0.47326982   -2.6456731   -2.6456731   -1.9306239  0.037171159   -2.6456731   0.71504918   350782 
13990000   0.47150181   -2.6439511   -2.6439511   -1.9314634  0.022596476   -2.6439511   0.71248762   350728 
14000000   0.47158218    -2.645376    -2.645376   -1.9326572  0.024744259    -2.645376    0.7127188   350674 
14010000   0.47098945   -2.6462859   -2.6462859   -1.9343533  0.023726238   -2.6462859   0.71193262   350620 
14020000   0.47091405   -2.6451796   -2.6451796   -1.9332513  0.030115976   -2.6451796   0.71192829   350566 
14030000   0.47051151   -2.6453123   -2.6453123    -1.933883  0.027741275   -2.6453123   0.71142932   350512 
14040000   0.47094188   -2.6465889   -2.6465889   -1.9343991  0.035753909   -2.6465889   0.71218977   350458 
14050000   0.47097242   -2.6464256   -2.6464256   -1.9340799  0.036492782   -2.6464256   0.71234571   350404 
14060000   0.47051121   -2.6454878   -2.6454878   -1.9337279  0.027663535   -2.6454878   0.71175986   350349 
14070000   0.47086239   -2.6461001   -2.6461001   -1.9336992  0.033498479   -2.6461001    0.7124009   350295 
14080000   0.46986539   -2.6442035   -2.6442035   -1.9332014  0.033580944   -2.6442035   0.71100207   350241 
14090000   0.47082616   -2.6459975   -2.6459975   -1.9334317  0.035858622   -2.6459975   0.71256578   350187 
14100000   0.46981956    -2.645071    -2.645071    -1.933919   0.03281049    -2.645071   0.71115202   350133 
14110000   0.47084906   -2.6438775   -2.6438775   -1.9310572   0.03699499   -2.6438775   0.71282028   350079 
14120000   0.47101118   -2.6439889   -2.6439889   -1.9308132  0.030004332   -2.6439889   0.71317572   350025 
14130000   0.47153009   -2.6447075   -2.6447075   -1.9306359  0.025725296   -2.6447075   0.71407158   349971 
14140000   0.47071981   -2.6448381   -2.6448381   -1.9318836  0.030264342   -2.6448381   0.71295453   349917 
14150000   0.47064356   -2.6447411   -2.6447411   -1.9317921  0.026056193   -2.6447411   0.71294907   349863 
14160000   0.47040851   -2.6459232   -2.6459232   -1.9332202  0.026321893   -2.6459232     0.712703   349809 
14170000   0.47008415   -2.6429513   -2.6429513   -1.9306297  0.027142927   -2.6429513   0.71232153   349755 
14180000   0.47062433   -2.6460077   -2.6460077   -1.9327575  0.026678003   -2.6460077   0.71325019   349701 
14190000   0.47055528   -2.6440938   -2.6440938   -1.9308381  0.031209474   -2.6440938   0.71325568   349647 
14200000   0.46855297   -2.6405771   -2.6405771   -1.9302468  0.031721067   -2.6405771   0.71033034   349593 
14210000   0.46968189   -2.6427343   -2.6427343   -1.9305825  0.026882395   -2.6427343   0.71215179   349539 
14220000   0.46809085     -2.63904     -2.63904   -1.9291909  0.020091931     -2.63904   0.70984905   349485 
14230000   0.46956163   -2.6410962   -2.6410962   -1.9289067  0.028687943   -2.6410962   0.71218949   349431 
14240000   0.46847121   -2.6421102   -2.6421102   -1.9314647  0.038030147   -2.6421102   0.71064547   349377 
14250000   0.46869151   -2.6411931   -2.6411931   -1.9301015  0.025817752   -2.6411931    0.7110916   349322 
14260000    0.4691842   -2.6431816   -2.6431816   -1.9312325   0.02202265   -2.6431816   0.71194915   349268 
14270000    0.4687698   -2.6431215   -2.6431215   -1.9316912  0.022832131   -2.6431215   0.71143033   349214 
14280000   0.46889264   -2.6425908   -2.6425908   -1.9308639    0.0262921   -2.6425908   0.71172681   349160 
14290000   0.46963532   -2.6441116   -2.6441116   -1.9311472  0.038035545   -2.6441116   0.71296438   349106 
14300000   0.46914205   -2.6429028   -2.6429028   -1.9305771  0.028378874   -2.6429028   0.71232572   349052 
14310000   0.46956915   -2.6439118   -2.6439118   -1.9308272  0.027580421   -2.6439118   0.71308454   348998 
14320000   0.46818718   -2.6445414   -2.6445414   -1.9334455   0.02973103   -2.6445414    0.7110959   348944 
14330000   0.46868536   -2.6436034   -2.6436034   -1.9316407  0.023786153   -2.6436034   0.71196273   348890 
14340000   0.46844857   -2.6435082   -2.6435082    -1.931795  0.031439653   -2.6435082    0.7117132   348836 
14350000   0.46834685   -2.6439535   -2.6439535   -1.9322847  0.026115118   -2.6439535   0.71166881   348782 
14360000   0.46875084    -2.646656    -2.646656    -1.934263  0.035930711    -2.646656     0.712393   348728 
14370000   0.46885031   -2.6452294   -2.6452294   -1.9325749  0.031021002   -2.6452294   0.71265451   348674 
14380000   0.46822351   -2.6440023   -2.6440023   -1.9321903  0.031185254   -2.6440023   0.71181201   348620 
14390000   0.46852798   -2.6461827   -2.6461827   -1.9337975  0.024453972   -2.6461827   0.71238523   348566 
14400000   0.46735719    -2.648513    -2.648513   -1.9377978  0.018263866    -2.648513   0.71071517   348512 
14410000   0.46675265   -2.6446174   -2.6446174   -1.9347115  0.020125919   -2.6446174   0.70990584   348458 
14420000   0.46792519   -2.6457692   -2.6457692   -1.9339697    0.0364727   -2.6457692   0.71179952   348404 
14430000   0.46777446   -2.6471965   -2.6471965   -1.9355139  0.031771579   -2.6471965   0.71168258   348349 
14440000   0.46763261   -2.6480377   -2.6480377   -1.9364606  0.031238984   -2.6480377   0.71157708   348295 
14450000   0.46771762   -2.6475826   -2.6475826   -1.9357658  0.024709391   -2.6475826   0.71181679   348241 
14460000   0.46682396    -2.646054    -2.646054   -1.9354871  0.028942904    -2.646054   0.71056692   348187 
14470000   0.46685588   -2.6463921   -2.6463921   -1.9356663  0.028703343   -2.6463921   0.71072573   348133 
14480000   0.46754747    -2.645144    -2.645144    -1.933255  0.028360978    -2.645144     0.711889   348079 
14490000   0.46709538   -2.6467831   -2.6467831   -1.9354721  0.030428882   -2.6467831   0.71131101   348025 
14500000   0.46736055   -2.6469338   -2.6469338   -1.9351085  0.033730084   -2.6469338   0.71182527   347971 
14510000   0.46574076   -2.6450926   -2.6450926   -1.9356243  0.023266593   -2.6450926   0.70946829   347917 
14520000   0.46495013   -2.6440331   -2.6440331   -1.9356592  0.028132403   -2.6440331   0.70837387   347863 
14530000   0.46735167   -2.6486979   -2.6486979   -1.9365547  0.036802587   -2.6486979   0.71214329   347809 
14540000   0.46709683    -2.648692    -2.648692   -1.9368265  0.031885574    -2.648692   0.71186548   347755 
14550000   0.46628036   -2.6484733   -2.6484733   -1.9377418  0.020442387   -2.6484733   0.71073153   347701 
14560000   0.46527433   -2.6488164   -2.6488164   -1.9395082  0.035251091   -2.6488164   0.70930824   347647 
14570000   0.46498164   -2.6477253   -2.6477253   -1.9387532  0.031527033   -2.6477253   0.70897216   347593 
14580000   0.46502186   -2.6490757   -2.6490757    -1.939932  0.024176733   -2.6490757   0.70914365   347539 
14590000    0.4647047   -2.6478808   -2.6478808   -1.9391107  0.024149859   -2.6478808   0.70877012   347485 
14600000   0.46514687   -2.6478536   -2.6478536   -1.9382988  0.035178708   -2.6478536   0.70955479   347431 
14610000   0.46496791   -2.6458941   -2.6458941    -1.936502  0.027319897   -2.6458941   0.70939205   347377 
14620000   0.46530718   -2.6481713   -2.6481713   -1.9381492  0.026915375   -2.6481713   0.71002209   347322 
14630000   0.46390758   -2.6453894   -2.6453894    -1.937393  0.034089924   -2.6453894   0.70799648   347268 
14640000   0.46429392   -2.6446772   -2.6446772   -1.9359809  0.033281762   -2.6446772   0.70869631   347214 
14650000   0.46533118   -2.6498251   -2.6498251   -1.9394351  0.026708685   -2.6498251   0.71039005   347160 
14660000   0.46467788    -2.647375    -2.647375   -1.9378719  0.037104309    -2.647375   0.70950306   347106 
14670000   0.46600187    -2.648794    -2.648794   -1.9371587  0.023983914    -2.648794   0.71163534   347052 
14680000   0.46457958   -2.6471119   -2.6471119   -1.9375381  0.032059234   -2.6471119   0.70957375   346998 
14690000   0.46444556   -2.6466628   -2.6466628   -1.9371834  0.025976547   -2.6466628   0.70947947   346944 
14700000   0.46528953   -2.6459463   -2.6459463    -1.935067  0.032932114   -2.6459463   0.71087934   346890 
14710000   0.46381094   -2.6461637   -2.6461637   -1.9374331  0.036547571   -2.6461637   0.70873065   346836 
14720000   0.46432434   -2.6466311   -2.6466311   -1.9370055  0.036306672   -2.6466311   0.70962564   346782 
14730000   0.46401343   -2.6460656   -2.6460656   -1.9368047  0.025386729   -2.6460656   0.70926093   346728 
14740000   0.46522997   -2.6477512   -2.6477512   -1.9365199  0.035237051   -2.6477512   0.71123122   346674 
14750000   0.46466683    -2.648437    -2.648437   -1.9379561  0.033974685    -2.648437   0.71048097   346620 
14760000   0.46403066   -2.6449723   -2.6449723   -1.9353535  0.037430552   -2.6449723   0.70961881   346566 
14770000   0.46343789   -2.6449465   -2.6449465   -1.9361238  0.044125654   -2.6449465   0.70882276   346512 
14780000   0.46327717   -2.6466673   -2.6466673   -1.9379799  0.036137125   -2.6466673   0.70868739   346458 
14790000   0.46410252   -2.6469199   -2.6469199   -1.9368592  0.027825202   -2.6469199   0.71006063   346404 
14800000   0.46323143   -2.6444668   -2.6444668   -1.9356264  0.027362307   -2.6444668   0.70884043   346349 
14810000   0.46443007   -2.6479707   -2.6479707   -1.9371853  0.029558012   -2.6479707   0.71078542   346295 
14820000   0.46362275   -2.6475298   -2.6475298   -1.9378693   0.03552315   -2.6475298   0.70966052   346241 
14830000   0.46264255   -2.6474576   -2.6474576    -1.939187  0.030086401   -2.6474576   0.70827059   346187 
14840000   0.46428487   -2.6471342   -2.6471342   -1.9362385  0.032463146   -2.6471342   0.71089576   346133 
14850000   0.46340609   -2.6473061   -2.6473061   -1.9376452  0.032595297   -2.6473061   0.70966092   346079 
14860000   0.46329585   -2.6456452   -2.6456452   -1.9360424  0.031306018   -2.6456452   0.70960282   346025 
14870000   0.46368256   -2.6471958   -2.6471958   -1.9368899    0.0342454   -2.6471958   0.71030597   345971 
14880000   0.46320174    -2.644693    -2.644693   -1.9350129  0.032107942    -2.644693   0.70968017   345917 
14890000   0.46443965   -2.6447433   -2.6447433   -1.9330554  0.034389932   -2.6447433    0.7116879   345863 
14900000   0.46291195    -2.642395    -2.642395   -1.9329373  0.029025154    -2.642395   0.70945768   345809 
14910000   0.46239051   -2.6438708   -2.6438708   -1.9351016  0.023240345   -2.6438708   0.70876921   345755 
14920000   0.46372394   -2.6442478   -2.6442478   -1.9333236  0.030155075   -2.6442478   0.71092417   345701 
14930000   0.46259133   -2.6437637   -2.6437637   -1.9344651  0.029299064   -2.6437637   0.70929858   345647 
14940000   0.46345573   -2.6444812   -2.6444812   -1.9337462   0.03447428   -2.6444812   0.71073502   345593 
14950000   0.46230406   -2.6426975   -2.6426975   -1.9336178  0.019969053   -2.6426975   0.70907967   345539 
14960000   0.46294117   -2.6457238   -2.6457238   -1.9355559  0.030828674   -2.6457238   0.71016784   345485 
14970000   0.46204521   -2.6446673   -2.6446673    -1.935763  0.030602894   -2.6446673   0.70890422   345431 
14980000   0.46252096   -2.6447079   -2.6447079   -1.9349628  0.037328301   -2.6447079    0.7097451   345377 
14990000   0.46176315   -2.6427902   -2.6427902   -1.9340951   0.03276178   -2.6427902   0.70869509   345322 
15000000   0.46328027   -2.6440233   -2.6440233   -1.9328886  0.028205002   -2.6440233    0.7111347   345268 
15010000   0.46217225   -2.6447238   -2.6447238   -1.9351789  0.018137261   -2.6447238   0.70954486   345214 
15020000   0.46226771   -2.6466649   -2.6466649   -1.9368624  0.035598187   -2.6466649   0.70980245   345160 
15030000   0.46122311   -2.6452929   -2.6452929   -1.9369836  0.030167424   -2.6452929    0.7083093   345106 
15040000   0.46142684   -2.6440986   -2.6440986   -1.9353655  0.032579265   -2.6440986   0.70873307   345052 
15050000   0.46188568   -2.6427167   -2.6427167   -1.9331679  0.034277878   -2.6427167   0.70954887   344998 
15060000   0.46211335   -2.6445997   -2.6445997   -1.9345899  0.027351928   -2.6445997   0.71000975   344944 
15070000   0.46096393   -2.6426182   -2.6426182   -1.9342635  0.031137947   -2.6426182   0.70835463   344890 
15080000   0.46151928   -2.6456235   -2.6456235   -1.9363044  0.031105269   -2.6456235   0.70931909   344836 
15090000   0.46166237   -2.6456715   -2.6456715   -1.9360213  0.025145342   -2.6456715   0.70965013   344782 
15100000   0.46155883   -2.6455531   -2.6455531    -1.935951  0.031096451   -2.6455531   0.70960211   344728 
15110000    0.4597646    -2.645986    -2.645986   -1.9390316     0.024281    -2.645986    0.7069544   344674 
15120000    0.4614122   -2.6449294   -2.6449294   -1.9353304  0.022346037   -2.6449294     0.709599   344620 
15130000   0.45951949   -2.6423292   -2.6423292   -1.9355302  0.031414807   -2.6423292   0.70679898   344566 
15140000    0.4621289   -2.6465549   -2.6465549   -1.9356309  0.030628547   -2.6465549   0.71092399   344512 
15150000   0.46067869   -2.6448529   -2.6448529   -1.9360488  0.030767945   -2.6448529   0.70880414   344458 
15160000   0.46180558   -2.6466127   -2.6466127   -1.9359634   0.02760269   -2.6466127   0.71064939   344404 
15170000   0.46054682   -2.6462258   -2.6462258   -1.9374002  0.032962592   -2.6462258   0.70882555   344349 
15180000   0.46057826   -2.6457502   -2.6457502   -1.9367651  0.029656395   -2.6457502   0.70898512   344295 
15190000   0.46050485   -2.6439916   -2.6439916   -1.9350083  0.027573431   -2.6439916    0.7089833   344241 
15200000   0.46000671   -2.6434668   -2.6434668   -1.9351393  0.035202714   -2.6434668   0.70832749   344187 
15210000   0.45980794   -2.6440545   -2.6440545    -1.935922  0.033499808   -2.6440545   0.70813253   344133 
15220000    0.4608044   -2.6462953   -2.6462953   -1.9365168  0.036652702   -2.6462953   0.70977852   344079 
15230000   0.46057795   -2.6422263   -2.6422263   -1.9326852  0.018067102   -2.6422263   0.70954106   344025 
15240000    0.4617208   -2.6458157   -2.6458157   -1.9344024  0.033476972   -2.6458157   0.71141335   343971 
15250000    0.4599384   -2.6445282   -2.6445282   -1.9357499  0.033597827   -2.6445282   0.70877832   343917 
15260000      0.46101   -2.6456249   -2.6456249   -1.9350837    0.0335997   -2.6456249   0.71054125   343863 
15270000    0.4593586   -2.6440973   -2.6440973   -1.9359901  0.022109122   -2.6440973    0.7081072   343809 
15280000   0.45958295   -2.6455975   -2.6455975   -1.9370332  0.041348642   -2.6455975   0.70856433   343755 
15290000   0.45947371   -2.6478665   -2.6478665   -1.9393593  0.033927922   -2.6478665   0.70850721   343701 
15300000   0.45990675    -2.646364    -2.646364   -1.9370776  0.025017016    -2.646364   0.70928639   343647 
15310000    0.4598996    -2.645733    -2.645733   -1.9363462  0.028830076    -2.645733   0.70938684   343593 
15320000    0.4596796   -2.6462407   -2.6462407   -1.9370817  0.036746281   -2.6462407   0.70915894   343539 
15330000   0.45913379   -2.6469902   -2.6469902   -1.9385619  0.036575209   -2.6469902   0.70842827   343485 
15340000   0.45940315   -2.6460477   -2.6460477   -1.9370924  0.030872199   -2.6460477   0.70895534   343431 
15350000   0.45841975    -2.644658    -2.644658    -1.937109  0.033914547    -2.644658   0.70754899   343377 
15360000   0.45817552   -2.6424921   -2.6424921   -1.9352068  0.023087883   -2.6424921   0.70728532   343322 
15370000   0.45878682   -2.6434259   -2.6434259   -1.9350855  0.034110885   -2.6434259    0.7083404   343268 
15380000   0.45839723   -2.6437996   -2.6437996   -1.9359494  0.026700839   -2.6437996   0.70785025   343214 
15390000   0.45912943   -2.6436457   -2.6436457   -1.9345532   0.03441657   -2.6436457   0.70909246   343160 
15400000   0.45834844   -2.6442474   -2.6442474   -1.9362497  0.027091385   -2.6442474   0.70799769   343106 
15410000   0.45860886   -2.6455431   -2.6455431   -1.9370316   0.02203271   -2.6455431   0.70851147   343052 
15420000   0.45763904   -2.6441715   -2.6441715    -1.937047   0.02635148   -2.6441715   0.70712448   342998 
15430000   0.45842601   -2.6450028   -2.6450028   -1.9365508  0.027073762   -2.6450028   0.70845202   342944 
15440000   0.45848038   -2.6452576   -2.6452576     -1.93661   0.02209666   -2.6452576   0.70864763   342890 
15450000   0.45800716   -2.6466131   -2.6466131   -1.9385854  0.025201244   -2.6466131    0.7080277   342836 
15460000   0.45797317   -2.6461497   -2.6461497    -1.938063   0.03577257   -2.6461497   0.70808667   342782 
15470000   0.45789281   -2.6455944   -2.6455944   -1.9375205  0.028347848   -2.6455944   0.70807398   342728 
15480000   0.45792438   -2.6466516   -2.6466516   -1.9384172  0.027381294   -2.6466516   0.70823438   342674 
15490000   0.45732111   -2.6437453   -2.6437453   -1.9363325  0.041235494   -2.6437453   0.70741283   342620 
15500000   0.45849096   -2.6448348   -2.6448348   -1.9355006  0.035882471   -2.6448348   0.70933423   342566 
15510000   0.45722698   -2.6448908   -2.6448908   -1.9374005  0.014707916   -2.6448908   0.70749025   342512 
15520000   0.45895244   -2.6485377   -2.6485377   -1.9382656  0.026593992   -2.6485377   0.71027212   342458 
15530000   0.45806638   -2.6465695   -2.6465695   -1.9375569  0.036037807   -2.6465695   0.70901265   342404 
15540000   0.45701084    -2.646397    -2.646397   -1.9389045  0.034166336    -2.646397   0.70749248   342349 
15550000   0.45758395   -2.6462236   -2.6462236   -1.9377321  0.027399061   -2.6462236   0.70849147   342295 
15560000   0.45723796   -2.6445028   -2.6445028   -1.9364354  0.031298544   -2.6445028   0.70806746   342241 
15570000   0.45681191   -2.6454288   -2.6454288   -1.9379095  0.034157612   -2.6454288   0.70751934   342187 
15580000   0.45731972   -2.6474689   -2.6474689   -1.9390513  0.029883728   -2.6474689   0.70841763   342133 
15590000    0.4563653   -2.6446839   -2.6446839   -1.9376331  0.034639657   -2.6446839   0.70705077   342079 
15600000   0.45730636   -2.6477766   -2.6477766    -1.939156   0.01852891   -2.6477766   0.70862062   342025 
15610000   0.45643291   -2.6469382   -2.6469382   -1.9395593  0.039122076   -2.6469382   0.70737884   341971 
15620000   0.45665805   -2.6459954   -2.6459954   -1.9381558  0.028833314   -2.6459954   0.70783954   341917 
15630000   0.45607191   -2.6458744   -2.6458744   -1.9388317  0.035518558   -2.6458744   0.70704266   341863 
15640000   0.45685522   -2.6460092   -2.6460092   -1.9376402  0.024579545   -2.6460092   0.70836892   341809 
15650000   0.45686554   -2.6471886   -2.6471886   -1.9386917  0.030311244   -2.6471886   0.70849685   341755 
15660000   0.45644097   -2.6465766   -2.6465766   -1.9386263  0.029327924   -2.6465766    0.7079503   341701 
15670000   0.45625458   -2.6465201   -2.6465201   -1.9387471  0.029519907   -2.6465201   0.70777305   341647 
15680000   0.45645565   -2.6473491   -2.6473491   -1.9391522  0.028738442   -2.6473491    0.7081969   341593 
15690000   0.45624293   -2.6464711   -2.6464711   -1.9384923  0.034870274   -2.6464711   0.70797879   341539 
15700000   0.45533254   -2.6465009   -2.6465009   -1.9398231  0.027313914   -2.6465009   0.70667781   341485 
15710000   0.45465456   -2.6469356   -2.6469356   -1.9411984  0.024457871   -2.6469356   0.70573719   341431 
15720000   0.45598216   -2.6481836   -2.6481836   -1.9402737  0.029155796   -2.6481836    0.7079099   341377 
15730000   0.45523622   -2.6464728   -2.6464728    -1.939607  0.021287938   -2.6464728   0.70686573   341322 
15740000   0.45562713   -2.6485999   -2.6485999   -1.9410152  0.027116232   -2.6485999   0.70758466   341268 
15750000   0.45598389   -2.6466167   -2.6466167   -1.9383659   0.03092334   -2.6466167   0.70825077   341214 
15760000   0.45485886   -2.6453371   -2.6453371   -1.9387219  0.036007787   -2.6453371   0.70661516   341160 
15770000   0.45470108   -2.6453381   -2.6453381   -1.9388562   0.02512908   -2.6453381   0.70648187   341106 
15780000    0.4561768   -2.6481825   -2.6481825   -1.9392955  0.029239519   -2.6481825   0.70888697   341052 
15790000   0.45398786   -2.6458688   -2.6458688   -1.9402716  0.026269258   -2.6458688   0.70559713   340998 
15800000   0.45573932   -2.6482986   -2.6482986   -1.9398671  0.032692871   -2.6482986   0.70843147   340944 
15810000   0.45554523   -2.6468755   -2.6468755   -1.9386336  0.036028439   -2.6468755   0.70824193   340890 
15820000   0.45561803   -2.6464337   -2.6464337   -1.9379664  0.027461638   -2.6464337   0.70846734   340836 
15830000    0.4559206   -2.6465086   -2.6465086   -1.9374584  0.030433916   -2.6465086   0.70905016   340782 
15840000    0.4540752   -2.6452036   -2.6452036   -1.9389115   0.03410356   -2.6452036   0.70629211   340728 
15850000    0.4547741   -2.6479288   -2.6479288   -1.9404374  0.027572968   -2.6479288   0.70749135   340674 
15860000    0.4555298   -2.6471842   -2.6471842   -1.9384049  0.035396105   -2.6471842   0.70877934   340620 
15870000   0.45564738   -2.6488082   -2.6488082   -1.9397335  0.028803975   -2.6488082    0.7090747   340566 
15880000   0.45283469   -2.6448355   -2.6448355   -1.9400262  0.026491972   -2.6448355   0.70480936   340512 
15890000   0.45424627   -2.6461481   -2.6461481   -1.9390296  0.034978175   -2.6461481   0.70711854   340458 
15900000   0.45531019    -2.647295    -2.647295   -1.9384079  0.037487871    -2.647295   0.70888717   340404 
15910000   0.45430463   -2.6464278   -2.6464278   -1.9389919  0.027407915   -2.6464278   0.70743588   340349 
15920000   0.45412662   -2.6446203   -2.6446203   -1.9373494  0.039610143   -2.6446203   0.70727089   340295 
15930000   0.45414084   -2.6453892   -2.6453892   -1.9379839   0.03102121   -2.6453892    0.7074053   340241 
15940000   0.45320036   -2.6462582   -2.6462582   -1.9402058  0.029030284   -2.6462582   0.70605239   340187 
15950000   0.45329916    -2.645627    -2.645627   -1.9393086  0.026032045    -2.645627   0.70631844   340133 
15960000   0.45295129   -2.6440696   -2.6440696   -1.9381811  0.022615839   -2.6440696   0.70588847   340079 
15970000   0.45289271   -2.6436194   -2.6436194   -1.9377101  0.030640189   -2.6436194   0.70590926   340025 
15980000   0.45349796   -2.6448803   -2.6448803   -1.9379154  0.023519132   -2.6448803   0.70696491   339971 
15990000   0.45223177   -2.6435824   -2.6435824   -1.9384794  0.028663619   -2.6435824   0.70510303   339917 
16000000   0.45276326   -2.6441336   -2.6441336   -1.9380897  0.040208139   -2.6441336   0.70604387   339863 
16010000   0.45362071   -2.6463638   -2.6463638   -1.9388704  0.036470365   -2.6463638   0.70749339   339809 
16020000   0.45266814   -2.6448025   -2.6448025   -1.9386826   0.02393237   -2.6448025   0.70611993   339755 
16030000    0.4544678   -2.6449226   -2.6449226   -1.9358827  0.026295358   -2.6449226   0.70903993   339701 
16040000   0.45384149   -2.6448621   -2.6448621   -1.9366867  0.027661396   -2.6448621   0.70817536   339647 
16050000   0.45363383   -2.6440604   -2.6440604   -1.9360965  0.035285364   -2.6440604   0.70796388   339593 
16060000   0.45299657   -2.6438568   -2.6438568   -1.9367751  0.025183507   -2.6438568   0.70708178   339539 
16070000   0.45247482   -2.6439754   -2.6439754   -1.9375957  0.026674041   -2.6439754   0.70637973   339485 
16080000   0.45254795   -2.6444915   -2.6444915   -1.9378852  0.035706322   -2.6444915   0.70660628   339431 
16090000    0.4526361   -2.6454286   -2.6454286   -1.9385722  0.035145552   -2.6454286   0.70685637   339377 
16100000   0.45179887   -2.6429431   -2.6429431   -1.9372798  0.039359259   -2.6429431   0.70566328   339322 
16110000   0.45266053    -2.643348    -2.643348   -1.9362263  0.022379552    -2.643348   0.70712163   339268 
16120000   0.45012756   -2.6418536   -2.6418536   -1.9385769  0.031565459   -2.6418536   0.70327671   339214 
16130000    0.4520715   -2.6410766   -2.6410766   -1.9346502  0.025516709   -2.6410766   0.70642637   339160 
16140000   0.45267413   -2.6405024   -2.6405024   -1.9330217   0.02937188   -2.6405024   0.70748071   339106 
16150000   0.45284374   -2.6425745   -2.6425745    -1.934716  0.028514286   -2.6425745    0.7078585   339052 
16160000   0.45190252   -2.6418284   -2.6418284   -1.9353287   0.03614462   -2.6418284   0.70649977   338998 
16170000   0.45144375   -2.6403201   -2.6403201   -1.9344251  0.035924789   -2.6403201   0.70589497   338944 
16180000   0.45378006    -2.642678    -2.642678   -1.9330168  0.036143567    -2.642678   0.70966119   338890 
16190000   0.45197556    -2.640474    -2.640474   -1.9335222  0.027505189    -2.640474    0.7069518   338836 
16200000   0.45125049   -2.6423623   -2.6423623   -1.9364321  0.037617631   -2.6423623   0.70593019   338782 
16210000   0.45121025   -2.6425848   -2.6425848    -1.936605  0.022002761   -2.6425848   0.70597977   338728 
16220000   0.45170354   -2.6426773   -2.6426773    -1.935813  0.037246902   -2.6426773   0.70686427   338674 
16230000   0.45083326   -2.6420885   -2.6420885   -1.9364736  0.028120638   -2.6420885    0.7056149   338620 
16240000   0.45209018   -2.6427439   -2.6427439   -1.9350489  0.026974332   -2.6427439     0.707695   338566 
16250000   0.44987547   -2.6404273   -2.6404273   -1.9360868  0.036704219   -2.6404273   0.70434047   338512 
16260000   0.45079506   -2.6474947   -2.6474947   -1.9416019  0.032230976   -2.6474947   0.70589281   338458 
16270000   0.45116154   -2.6449866   -2.6449866   -1.9384072  0.039610093   -2.6449866   0.70657941   338404 
16280000   0.45046699   -2.6437814   -2.6437814   -1.9381751  0.017261871   -2.6437814   0.70560633   338349 
16290000   0.45113803   -2.6447092   -2.6447092    -1.937939  0.027847744   -2.6447092   0.70677024   338295 
16300000   0.45163652   -2.6424239   -2.6424239   -1.9347598  0.031403877   -2.6424239   0.70766416   338241 
16310000   0.45123048   -2.6427656   -2.6427656   -1.9356248  0.026253204   -2.6427656   0.70714084   338187 
16320000   0.45013239    -2.642679    -2.642679   -1.9371464   0.02787724    -2.642679   0.70553262   338133 
16330000   0.45057375   -2.6443141   -2.6443141   -1.9379769  0.037428555   -2.6443141   0.70633721   338079 
16340000   0.45109221   -2.6439468   -2.6439468   -1.9366839  0.034658389   -2.6439468   0.70726295   338025 
16350000   0.45027135   -2.6435967   -2.6435967    -1.937508  0.033441867   -2.6435967   0.70608873   337971 
16360000    0.4508536   -2.6450099   -2.6450099   -1.9378952  0.029379821   -2.6450099   0.70711475   337917 
16370000   0.45071169   -2.6449934   -2.6449934   -1.9379883  0.034465937   -2.6449934   0.70700517   337863 
16380000   0.44947607   -2.6435674   -2.6435674   -1.9383878  0.023485792   -2.6435674   0.70517962   337809 
16390000   0.44924245    -2.644479    -2.644479   -1.9395532  0.032616232    -2.644479   0.70492579   337755 
16400000   0.44998004   -2.6423351   -2.6423351    -1.936139  0.014390994   -2.6423351   0.70619608   337701 
16410000    0.4498724   -2.6421817   -2.6421817   -1.9360417   0.03075184   -2.6421817   0.70614007   337647 
16420000   0.44943265   -2.6438008   -2.6438008   -1.9382382  0.037695982   -2.6438008   0.70556266   337593 
16430000   0.44998514   -2.6421111   -2.6421111   -1.9355681  0.025357795   -2.6421111   0.70654301   337539 
16440000   0.44954571   -2.6415546   -2.6415546   -1.9355886  0.032335438   -2.6415546   0.70596598   337485 
16450000   0.44820788   -2.6432459   -2.6432459   -1.9392682  0.029723753   -2.6432459   0.70397771   337431 
16460000   0.44835363   -2.6439887   -2.6439887   -1.9396693  0.035151113   -2.6439887   0.70431935   337377 
16470000    0.4486243    -2.644404    -2.644404   -1.9395446  0.034135663    -2.644404   0.70485944   337322 
16480000   0.44841737   -2.6443936   -2.6443936   -1.9397464  0.029332891   -2.6443936   0.70464714   337268 
16490000   0.44856975   -2.6451401   -2.6451401   -1.9401406  0.023403031   -2.6451401   0.70499946   337214 
16500000   0.44792904   -2.6453159   -2.6453159   -1.9412107  0.029017575   -2.6453159   0.70410524   337160 
16510000   0.44812852    -2.644766    -2.644766   -1.9402344  0.045299332    -2.644766   0.70453163   337106 
16520000   0.44744612   -2.6429529   -2.6429529   -1.9393814  0.030070857   -2.6429529   0.70357149   337052 
16530000   0.44766268   -2.6419632   -2.6419632   -1.9379384  0.037702736   -2.6419632   0.70402481   336998 
16540000   0.44780236   -2.6429336   -2.6429336   -1.9385763  0.020665664   -2.6429336   0.70435735   336944 
16550000   0.44777185   -2.6431978   -2.6431978   -1.9387756   0.03226441   -2.6431978   0.70442224   336890 
16560000   0.44821447   -2.6418819   -2.6418819   -1.9366502   0.03396234   -2.6418819   0.70523161   336836 
16570000   0.44747119   -2.6417598   -2.6417598   -1.9375848  0.034434452   -2.6417598     0.704175   336782 
16580000    0.4463184   -2.6408151   -2.6408151   -1.9383416  0.025809637   -2.6408151   0.70247352   336728 
16590000   0.44806966   -2.6431778   -2.6431778   -1.9378348  0.035908627   -2.6431778     0.705343   336674 
16600000   0.44880407   -2.6448426   -2.6448426   -1.9382302  0.027060978   -2.6448426   0.70661242   336620 
16610000   0.44780803   -2.6464929   -2.6464929   -1.9413356  0.030672417   -2.6464929   0.70515734   336566 
16620000   0.44756426   -2.6437751   -2.6437751   -1.9388885  0.027349746   -2.6437751   0.70488657   336512 
16630000   0.44779479   -2.6434617   -2.6434617   -1.9380989  0.031735439   -2.6434617   0.70536283   336458 
16640000   0.44658934   -2.6427842   -2.6427842   -1.9392073  0.017160462   -2.6427842   0.70357694   336404 
16650000   0.44645028   -2.6424259   -2.6424259   -1.9389531  0.026350568   -2.6424259   0.70347287   336349 
16660000   0.44740868   -2.6412061   -2.6412061   -1.9361099  0.040491658   -2.6412061   0.70509623   336295 
16670000   0.44663823   -2.6416913   -2.6416913   -1.9376963  0.033491038   -2.6416913   0.70399509   336241 
16680000   0.44754023   -2.6407554   -2.6407554   -1.9352252  0.021225269   -2.6407554   0.70553012   336187 
16690000   0.44879733   -2.6433566   -2.6433566    -1.935731  0.026433878   -2.6433566   0.70762555   336133 
16700000   0.44636614   -2.6439896   -2.6439896   -1.9400842  0.031273574   -2.6439896   0.70390535   336079 
16710000   0.44602827   -2.6427222   -2.6427222   -1.9392366  0.037739185   -2.6427222   0.70348556   336025 
16720000   0.44700575   -2.6439267   -2.6439267   -1.9387861  0.024740146   -2.6439267   0.70514059   335971 
16730000   0.44660771   -2.6452201   -2.6452201   -1.9405942  0.020197454   -2.6452201   0.70462594   335917 
16740000   0.44726922   -2.6454833   -2.6454833   -1.9397002  0.031503167   -2.6454833   0.70578309   335863 
16750000   0.44546439   -2.6422721   -2.6422721   -1.9392239  0.030006915   -2.6422721   0.70304813   335809 
16760000   0.44588101   -2.6422713   -2.6422713   -1.9384525  0.033797023   -2.6422713   0.70381884   335755 
16770000   0.44636039   -2.6443329   -2.6443329    -1.939644  0.035662584   -2.6443329   0.70468888   335701 
16780000   0.44632706   -2.6421995   -2.6421995   -1.9374499  0.024199766   -2.6421995   0.70474961   335647 
16790000    0.4456869   -2.6411263   -2.6411263   -1.9372743  0.028849154   -2.6411263   0.70385205   335593 
16800000   0.44581337   -2.6420245   -2.6420245   -1.9378595  0.036769263   -2.6420245   0.70416508   335539 
16810000   0.44559477   -2.6419588   -2.6419588   -1.9380258  0.030807671   -2.6419588   0.70393308   335485 
16820000   0.44680222   -2.6448441   -2.6448441   -1.9388899  0.031227582   -2.6448441    0.7059542   335431 
16830000   0.44507563   -2.6414123   -2.6414123   -1.9380729  0.028258631   -2.6414123   0.70333939   335377 
16840000   0.44617153    -2.644428    -2.644428   -1.9392412  0.029609009    -2.644428   0.70518686   335322 
16850000   0.44508955   -2.6432136   -2.6432136   -1.9396235  0.028621908   -2.6432136   0.70359005   335268 
16860000   0.44584032   -2.6438748   -2.6438748   -1.9389844  0.031719155   -2.6438748   0.70489039   335214 
16870000   0.44537109   -2.6441392   -2.6441392   -1.9398772  0.041097553   -2.6441392   0.70426197   335160 
16880000    0.4455284   -2.6429954   -2.6429954   -1.9383712  0.037547952   -2.6429954   0.70462425   335106 
16890000   0.44586286   -2.6413099   -2.6413099    -1.936043  0.029096697   -2.6413099   0.70526687   335052 
16900000   0.44568821   -2.6407627   -2.6407627   -1.9356584  0.036108321   -2.6407627   0.70510425   334998 
16910000   0.44456432   -2.6410461   -2.6410461   -1.9376065  0.032910511   -2.6410461   0.70343958   334944 
16920000   0.44549779   -2.6413991   -2.6413991   -1.9363689  0.025711724   -2.6413991   0.70503028   334890 
16930000   0.44510561    -2.642181    -2.642181   -1.9376578  0.034946254    -2.642181   0.70452324   334836 
16940000   0.44607683   -2.6418122   -2.6418122   -1.9356378  0.031675486   -2.6418122   0.70617438   334782 
16950000   0.44530272   -2.6385941   -2.6385941   -1.9335314  0.033982399   -2.6385941   0.70506265   334728 
16960000   0.44474613   -2.6415404   -2.6415404   -1.9372454  0.040199452   -2.6415404   0.70429499   334674 
16970000   0.44425196   -2.6417751   -2.6417751   -1.9381491  0.018305728   -2.6417751   0.70362596   334620 
16980000   0.44448425    -2.639649    -2.639649   -1.9355415  0.025441344    -2.639649   0.70410749   334566 
16990000   0.44529387   -2.6408021   -2.6408021   -1.9352982  0.032820145   -2.6408021   0.70550389   334512 
17000000   0.44466122   -2.6407115   -2.6407115   -1.9360962  0.029444508   -2.6407115   0.70461529   334458 
17010000   0.44445284   -2.6411326   -2.6411326   -1.9367338  0.027374697   -2.6411326   0.70439881   334404 
17020000   0.44506093   -2.6421223   -2.6421223   -1.9366438  0.032445577   -2.6421223    0.7054786   334349 
17030000   0.44410376   -2.6388912   -2.6388912   -1.9348162  0.030804521   -2.6388912   0.70407507   334295 
17040000   0.44316105   -2.6382938   -2.6382938   -1.9355998  0.034923384   -2.6382938   0.70269402   334241 
17050000   0.44405079   -2.6381769   -2.6381769   -1.9339583  0.031567719   -2.6381769   0.70421861   334187 
17060000   0.44427039   -2.6380424   -2.6380424   -1.9333617  0.036092127   -2.6380424   0.70468073   334133 
17070000   0.44324374   -2.6366598   -2.6366598   -1.9334938  0.033643392   -2.6366598   0.70316595   334079 
17080000    0.4433433   -2.6369074   -2.6369074   -1.9334698  0.030666078   -2.6369074   0.70343759   334025 
17090000   0.44418407   -2.6389999   -2.6389999   -1.9341143  0.044887916   -2.6389999   0.70488557   333971 
17100000   0.44426055   -2.6385751   -2.6385751   -1.9334542   0.02919417   -2.6385751   0.70512095   333917 
17110000    0.4432994   -2.6370975   -2.6370975   -1.9333883   0.03164535   -2.6370975   0.70370924   333863 
17120000   0.44251512   -2.6389995   -2.6389995   -1.9364216  0.025974471   -2.6389995   0.70257787   333809 
17130000    0.4422061   -2.6374802   -2.6374802   -1.9352793  0.022046943   -2.6374802   0.70220085   333755 
17140000   0.44378128   -2.6381026   -2.6381026   -1.9332864   0.03466292   -2.6381026   0.70481619   333701 
17150000    0.4422305   -2.6363406   -2.6363406   -1.9338737  0.019137152   -2.6363406    0.7024669   333647 
17160000   0.44261992   -2.6394483   -2.6394483    -1.936249   0.02888934   -2.6394483   0.70319928   333593 
17170000    0.4436719   -2.6391137   -2.6391137    -1.934129  0.023297375   -2.6391137   0.70498472   333539 
17180000   0.44252505   -2.6378573   -2.6378573    -1.934581  0.029578709   -2.6378573   0.70327624   333485 
17190000   0.44242208   -2.6385719   -2.6385719   -1.9353454  0.030137047   -2.6385719   0.70322648   333431 
17200000   0.44306178   -2.6396905   -2.6396905   -1.9353331  0.033015682   -2.6396905   0.70435735   333377 
17210000   0.44348358   -2.6389257   -2.6389257   -1.9337814  0.027957426   -2.6389257   0.70514425   333322 
17220000   0.44173867   -2.6387475   -2.6387475   -1.9362639  0.030124773   -2.6387475   0.70248362   333268 
17230000   0.44253281    -2.639792    -2.639792   -1.9359314  0.028068767    -2.639792   0.70386057   333214 
17240000   0.44240888   -2.6401621   -2.6401621   -1.9363846  0.035409864   -2.6401621    0.7037775   333160 
17250000   0.44086913   -2.6394377   -2.6394377   -1.9379959  0.036103406   -2.6394377   0.70144178   333106 
17260000   0.44202513   -2.6396158   -2.6396158   -1.9362207  0.031666268   -2.6396158   0.70339505   333052 
17270000   0.44204286   -2.6405409   -2.6405409   -1.9370036  0.034012148   -2.6405409   0.70353733   332998 
17280000   0.44027397   -2.6358415   -2.6358415   -1.9350058    0.0283966   -2.6358415    0.7008357   332944 
17290000   0.44155723    -2.638365    -2.638365   -1.9353725  0.034865975    -2.638365   0.70299243   332890 
17300000   0.44034987   -2.6387622   -2.6387622   -1.9375782  0.033349898   -2.6387622   0.70118397   332836 
17310000   0.44054281   -2.6395601   -2.6395601   -1.9379551  0.033726178   -2.6395601   0.70160502   332782 
17320000   0.44185156   -2.6426444   -2.6426444   -1.9388409  0.030137967   -2.6426444   0.70380352   332728 
17330000   0.43984524   -2.6364075   -2.6364075    -1.935686  0.040041012   -2.6364075   0.70072148   332674 
17340000    0.4405199   -2.6377093   -2.6377093   -1.9357991  0.025230713   -2.6377093   0.70191023   332620 
17350000   0.44048575   -2.6351184   -2.6351184   -1.9331487  0.022477293   -2.6351184   0.70196978   332566 
17360000   0.44127847   -2.6385599   -2.6385599   -1.9352127   0.03469509   -2.6385599   0.70334728   332512 
17370000   0.44170407   -2.6408251   -2.6408251   -1.9366851  0.033813134   -2.6408251   0.70413999   332458 
17380000   0.44010728   -2.6375404   -2.6375404   -1.9358319  0.029634828   -2.6375404   0.70170846   332404 
17390000   0.43963823   -2.6363736   -2.6363736    -1.935297  0.033348472   -2.6363736    0.7010766   332349 
17400000   0.44127545    -2.638251    -2.638251   -1.9344492  0.032547315    -2.638251   0.70380178   332295 
17410000    0.4392467   -2.6344667   -2.6344667   -1.9337867  0.026832177   -2.6344667   0.70067994   332241 
17420000   0.44176604   -2.6368987   -2.6368987   -1.9320854  0.033587728   -2.6368987   0.70481331   332187 
17430000   0.43985655   -2.6359987   -2.6359987   -1.9341178  0.030387098   -2.6359987   0.70188091   332133 
17440000   0.43983841   -2.6355037   -2.6355037   -1.9335376  0.022767466   -2.6355037    0.7019661   332079 
17450000   0.43990496   -2.6356849   -2.6356849   -1.9334984  0.032198843   -2.6356849   0.70218649   332025 
17460000   0.44096864   -2.6400175   -2.6400175   -1.9360186  0.030322427   -2.6400175   0.70399885   331971 
17470000   0.43951748   -2.6392655   -2.6392655   -1.9374693  0.016020274   -2.6392655   0.70179627   331917 
17480000   0.43942405   -2.6376935   -2.6376935   -1.9359323  0.028487715   -2.6376935   0.70176126   331863 
17490000   0.43982142   -2.6404958   -2.6404958   -1.9379856  0.027796224   -2.6404958   0.70251017   331809 
17500000   0.43969832   -2.6411603   -2.6411603   -1.9387324  0.036968218   -2.6411603   0.70242786   331755 
17510000   0.43935024    -2.638997    -2.638997    -1.937011  0.031600566    -2.638997   0.70198606   331701 
17520000   0.43956647   -2.6385388   -2.6385388   -1.9360929  0.023136367   -2.6385388   0.70244589   331647 
17530000    0.4392425   -2.6385598   -2.6385598   -1.9365174  0.029384095   -2.6385598   0.70204249   331593 
17540000   0.43999283   -2.6394358   -2.6394358   -1.9360795  0.027996899   -2.6394358   0.70335629   331539 
17550000   0.43903367   -2.6386697   -2.6386697   -1.9367324  0.026001663   -2.6386697   0.70193734   331485 
17560000   0.43876402    -2.638804    -2.638804   -1.9371835   0.03430392    -2.638804   0.70162051   331431 
17570000    0.4386754   -2.6380921   -2.6380921    -1.936499  0.030707156   -2.6380921   0.70159312   331377 
17580000   0.43814023   -2.6358483   -2.6358483   -1.9349948  0.030136973   -2.6358483   0.70085351   331322 
17590000   0.43870942    -2.638591    -2.638591   -1.9367127  0.026457134    -2.638591   0.70187839   331268 
17600000   0.43882778   -2.6397473   -2.6397473   -1.9375651  0.022069921   -2.6397473   0.70218221   331214 
17610000   0.43812322   -2.6401478   -2.6401478   -1.9389786  0.032158225   -2.6401478   0.70116914   331160 
17620000    0.4387733   -2.6410373   -2.6410373   -1.9387133  0.030537774   -2.6410373   0.70232405   331106 
17630000   0.43636615   -2.6380071   -2.6380071   -1.9394221  0.023957647   -2.6380071   0.69858496   331052 
17640000   0.43766358   -2.6393371   -2.6393371   -1.9385607  0.022655089   -2.6393371   0.70077635   330998 
17650000   0.43760828   -2.6370854   -2.6370854   -1.9362832  0.033315043   -2.6370854   0.70080213   330944 
17660000   0.43870772   -2.6383477   -2.6383477   -1.9356702  0.035175626   -2.6383477   0.70267748   330890 
17670000   0.43922551   -2.6374838   -2.6374838   -1.9338622  0.030639638   -2.6374838   0.70362165   330836 
17680000   0.43862917   -2.6388838   -2.6388838   -1.9361027   0.02246652   -2.6388838   0.70278105   330782 
17690000   0.43755898   -2.6368754   -2.6368754   -1.9356945  0.022098022   -2.6368754   0.70118083   330728 
17700000   0.43885456   -2.6385913   -2.6385913   -1.9352195  0.035442597   -2.6385913   0.70337182   330674 
17710000   0.43746434   -2.6374612   -2.6374612    -1.936203  0.028940697   -2.6374612   0.70125818   330620 
17720000   0.43767034   -2.6364222   -2.6364222   -1.9347192  0.027296121   -2.6364222   0.70170299   330566 
17730000   0.43743344   -2.6364881   -2.6364881   -1.9350504  0.037030495   -2.6364881   0.70143777   330512 
17740000   0.43624818   -2.6363557   -2.6363557   -1.9367043  0.026099554   -2.6363557   0.69965148   330458 
17750000   0.43717382   -2.6355379   -2.6355379   -1.9342873  0.035360272   -2.6355379   0.70125061   330404 
17760000   0.43764823    -2.636728    -2.636728   -1.9345996  0.025808157    -2.636728   0.70212846   330349 
17770000   0.43773463   -2.6374102   -2.6374102   -1.9350283  0.021800988   -2.6374102   0.70238189   330295 
17780000   0.43691589   -2.6373979   -2.6373979   -1.9362151  0.027699306   -2.6373979   0.70118279   330241 
17790000   0.43748015   -2.6361626   -2.6361626   -1.9339595  0.026064263   -2.6361626   0.70220316   330187 
17800000   0.43631515   -2.6365186   -2.6365186   -1.9360708  0.019320202   -2.6365186   0.70044777   330133 
17810000   0.43756898   -2.6359595   -2.6359595    -1.933384  0.029697253   -2.6359595   0.70257555   330079 
17820000   0.43704335    -2.636241    -2.636241   -1.9343946  0.032552627    -2.636241    0.7018464   330025 
17830000   0.43649961   -2.6373045   -2.6373045   -1.9362166  0.037034308   -2.6373045   0.70108792   329971 
17840000    0.4361168   -2.6369401   -2.6369401   -1.9363524  0.031051443   -2.6369401   0.70058772   329917 
17850000   0.43562114    -2.635926    -2.635926     -1.93602  0.030013153    -2.635926   0.69990603   329863 
17860000   0.43743727   -2.6368925   -2.6368925   -1.9339534  0.032681943   -2.6368925   0.70293906   329809 
17870000   0.43606253   -2.6366132   -2.6366132   -1.9357685  0.025917286   -2.6366132   0.70084467   329755 
17880000   0.43702774    -2.634993    -2.634993    -1.932482   0.03177142    -2.634993   0.70251101   329701 
17890000   0.43646866   -2.6320089   -2.6320089   -1.9302817   0.02481881   -2.6320089   0.70172723   329647 
17900000   0.43659733   -2.6319847   -2.6319847   -1.9299356  0.024534878   -2.6319847   0.70204911   329593 
17910000   0.43702658   -2.6314724   -2.6314724   -1.9286179  0.026170281   -2.6314724   0.70285451   329539 
17920000   0.43583443   -2.6330699   -2.6330699   -1.9320178  0.037510137   -2.6330699   0.70105208   329485 
17930000   0.43688228   -2.6350008   -2.6350008    -1.932148  0.020719446   -2.6350008   0.70285277   329431 
17940000   0.43637485   -2.6344103   -2.6344103   -1.9322587  0.035818654   -2.6344103   0.70215152   329377 
17950000   0.43552401   -2.6344413   -2.6344413   -1.9335418  0.016754129   -2.6344413    0.7008995   329322 
17960000   0.43582607   -2.6362491   -2.6362491   -1.9347485  0.028530014   -2.6362491   0.70150064   329268 
17970000   0.43616865   -2.6360939   -2.6360939   -1.9339267  0.032582927   -2.6360939   0.70216721   329214 
17980000   0.43510763    -2.635433    -2.635433   -1.9348589  0.032678362    -2.635433   0.70057405   329160 
17990000   0.43603358   -2.6342008   -2.6342008   -1.9320207  0.023746175   -2.6342008   0.70218013   329106 
18000000   0.43512367   -2.6332032   -2.6332032   -1.9323734  0.031998424   -2.6332032   0.70082983   329052 
18010000   0.43561603     -2.63225     -2.63225    -1.930512  0.033553493     -2.63225     0.701738   328998 
18020000    0.4367211   -2.6358552   -2.6358552   -1.9322215  0.038726445   -2.6358552   0.70363366   328944 
18030000   0.43619633   -2.6367427   -2.6367427   -1.9338391  0.032475744   -2.6367427   0.70290355   328890 
18040000   0.43562452   -2.6348822   -2.6348822   -1.9327848  0.028597931   -2.6348822   0.70209738   328836 
18050000   0.43626364   -2.6334128   -2.6334128   -1.9301698  0.032399172   -2.6334128   0.70324295   328782 
18060000   0.43415328   -2.6328854   -2.6328854   -1.9329293  0.034712633   -2.6328854   0.69995607   328728 
18070000   0.43529911   -2.6356816   -2.6356816   -1.9337629    0.0352208   -2.6356816   0.70191872   328674 
18080000   0.43463807   -2.6336469   -2.6336469    -1.932679  0.032270782   -2.6336469   0.70096796   328620 
18090000   0.43474053   -2.6329952   -2.6329952   -1.9317467  0.021928198   -2.6329952   0.70124845   328566 
18100000   0.43519346     -2.63521     -2.63521   -1.9331156  0.035902141     -2.63521   0.70209441   328512 
18110000   0.43492195   -2.6349534   -2.6349534   -1.9331816  0.031009807   -2.6349534   0.70177174   328458 
18120000   0.43411467    -2.632579    -2.632579   -1.9319947  0.024303084    -2.632579   0.70058434   328404 
18130000   0.43472929   -2.6345867   -2.6345867   -1.9328929  0.030899302   -2.6345867   0.70169374   328349 
18140000   0.43371219   -2.6317053   -2.6317053   -1.9315381  0.037122284   -2.6317053   0.70016719   328295 
18150000   0.43468308   -2.6341472   -2.6341472   -1.9322972  0.030891152   -2.6341472      0.70185   328241 
18160000   0.43530637   -2.6325463   -2.6325463   -1.9295743  0.041770691   -2.6325463   0.70297203   328187 
18170000   0.43417072   -2.6352668   -2.6352668   -1.9340134   0.02464359   -2.6352668   0.70125347   328133 
18180000    0.4343185   -2.6365944   -2.6365944   -1.9349868  0.024679015   -2.6365944   0.70160762   328079 
18190000   0.43403441   -2.6335184   -2.6335184   -1.9322543  0.025251596   -2.6335184   0.70126411   328025 
18200000    0.4335648   -2.6329184   -2.6329184   -1.9322977  0.023608118   -2.6329184   0.70062071   327971 
18210000   0.43386525   -2.6327242   -2.6327242   -1.9315026  0.031182315   -2.6327242   0.70122168   327917 
18220000   0.43344097   -2.6342796   -2.6342796   -1.9336283  0.031053997   -2.6342796   0.70065133   327863 
18230000   0.43316168   -2.6345391   -2.6345391   -1.9342239  0.028509744   -2.6345391   0.70031521   327809 
18240000   0.43427217   -2.6359186   -2.6359186   -1.9336923  0.032890417   -2.6359186   0.70222627   327755 
18250000   0.43371253   -2.6350242   -2.6350242   -1.9335873  0.024273619   -2.6350242   0.70143689   327701 
18260000   0.43355072   -2.6338605   -2.6338605   -1.9325697  0.032656784   -2.6338605   0.70129076   327647 
18270000   0.43319209   -2.6346697   -2.6346697   -1.9338436  0.031724944   -2.6346697   0.70082616   327593 
18280000   0.43275914   -2.6339758   -2.6339758   -1.9337346  0.041099966   -2.6339758   0.70024116   327539 
18290000   0.43335649   -2.6345365   -2.6345365   -1.9332132  0.038327571   -2.6345365   0.70132333   327485 
18300000   0.43382337   -2.6326717   -2.6326717    -1.930477  0.037160675   -2.6326717    0.7021947   327431 
18310000   0.43240559   -2.6332464   -2.6332464   -1.9332311  0.024089466   -2.6332464   0.70001531   327377 
18320000   0.43293514   -2.6318535   -2.6318535   -1.9308632  0.028713067   -2.6318535   0.70099035   327322 
18330000   0.43296022   -2.6321691   -2.6321691   -1.9310225  0.028597754   -2.6321691   0.70114663   327268 
18340000   0.43211783   -2.6305697   -2.6305697   -1.9306718  0.029109307   -2.6305697   0.69989793   327214 
18350000   0.43269587   -2.6335929   -2.6335929    -1.932643   0.03288032   -2.6335929   0.70094985   327160 
18360000   0.43298902   -2.6330503   -2.6330503   -1.9315098  0.033773035   -2.6330503   0.70154053   327106 
18370000   0.43232906    -2.633528    -2.633528   -1.9329411  0.031630343    -2.633528   0.70058691   327052 
18380000   0.43242736   -2.6359502   -2.6359502   -1.9350883  0.025665604   -2.6359502   0.70086192   326998 
18390000    0.4326071   -2.6349908   -2.6349908   -1.9337218  0.027736583   -2.6349908   0.70126904   326944 
18400000   0.43092194   -2.6339992   -2.6339992   -1.9353465  0.029384537   -2.6339992   0.69865274   326890 
18410000   0.43185752   -2.6356433   -2.6356433    -1.935358  0.036867707   -2.6356433   0.70028529   326836 
18420000   0.43137396   -2.6348958   -2.6348958    -1.935279   0.02972016   -2.6348958   0.69961675   326782 
18430000   0.43146139   -2.6341981   -2.6341981   -1.9343239  0.020864421   -2.6341981    0.6998742   326728 
18440000   0.43211161   -2.6354818   -2.6354818    -1.934437  0.021251701   -2.6354818   0.70104478   326674 
18450000   0.43095831   -2.6345242   -2.6345242   -1.9352349   0.03334023   -2.6345242    0.6992893   326620 
18460000    0.4319233   -2.6347042   -2.6347042   -1.9337332  0.024741075   -2.6347042   0.70097103   326566 
18470000   0.43111422   -2.6323319   -2.6323319   -1.9325582  0.030620995   -2.6323319   0.69977367   326512 
18480000   0.43076528   -2.6354512   -2.6354512   -1.9361283   0.02661956   -2.6354512   0.69932294   326458 
18490000   0.43158367    -2.635597    -2.635597   -1.9348296   0.03279297    -2.635597   0.70076746   326404 
18500000   0.43096822   -2.6344978   -2.6344978   -1.9346117  0.035197012   -2.6344978   0.69988609   326349 
18510000   0.43106731   -2.6342377   -2.6342377   -1.9340748  0.029354873   -2.6342377   0.70016285   326295 
18520000   0.43041486   -2.6315394   -2.6315394   -1.9323206  0.030000569   -2.6315394   0.69921883   326241 
18530000   0.43206669    -2.635069    -2.635069   -1.9330505  0.026770894    -2.635069   0.70201847   326187 
18540000   0.43086406   -2.6341763   -2.6341763    -1.933996  0.028363349   -2.6341763   0.70018035   326133 
18550000   0.43025353    -2.634434    -2.634434     -1.93513  0.028388906    -2.634434   0.69930399   326079 
18560000   0.42923027   -2.6345031   -2.6345031   -1.9367467  0.021573945   -2.6345031   0.69775642   326025 
18570000   0.43086425   -2.6356657   -2.6356657    -1.935137  0.032314161   -2.6356657   0.70052864   325971 
18580000   0.43052076    -2.634838    -2.634838   -1.9347519  0.032442697    -2.634838   0.70008614   325917 
18590000   0.42992525   -2.6341264   -2.6341264   -1.9348928  0.025968312   -2.6341264   0.69923362   325863 
18600000   0.42999518     -2.63669     -2.63669   -1.9372267  0.029787973     -2.63669   0.69946325   325809 
18610000   0.42742316   -2.6335252   -2.6335252   -1.9381305   0.03138993   -2.6335252   0.69539466   325755 
18620000   0.42976293   -2.6348331   -2.6348331   -1.9355158  0.028616007   -2.6348331   0.69931727   325701 
18630000   0.42872456   -2.6339064   -2.6339064   -1.9361631  0.032520586   -2.6339064   0.69774331   325647 
18640000   0.42896752   -2.6355141   -2.6355141   -1.9372596  0.028820659   -2.6355141   0.69825451   325593 
18650000   0.42871932   -2.6355612   -2.6355612    -1.937595  0.034424038   -2.6355612   0.69796626   325539 
18660000   0.42907122   -2.6346926   -2.6346926   -1.9360376  0.030982999   -2.6346926   0.69865505   325485 
18670000   0.42912185   -2.6337032   -2.6337032   -1.9348497  0.032679116   -2.6337032   0.69885344   325431 
18680000   0.42793318   -2.6339486   -2.6339486   -1.9369153  0.036976302   -2.6339486   0.69703328   325377 
18690000   0.42899239    -2.635116    -2.635116   -1.9362393   0.03982785    -2.635116   0.69887668   325322 
18700000   0.42963553   -2.6353261   -2.6353261   -1.9352855  0.026430638   -2.6353261   0.70004063   325268 
18710000   0.42849345   -2.6341563   -2.6341563   -1.9358607  0.035584576   -2.6341563   0.69829567   325214 
18720000   0.42913266    -2.636196    -2.636196   -1.9367425   0.03367123    -2.636196   0.69945351   325160 
18730000   0.42885519   -2.6381025   -2.6381025   -1.9389852   0.03992136   -2.6381025   0.69911735   325106 
18740000   0.42848227   -2.6368135   -2.6368135    -1.938188  0.021292622   -2.6368135   0.69862546   325052 
18750000   0.42731275   -2.6337375   -2.6337375   -1.9369031    0.0355367   -2.6337375   0.69683437   324998 
18760000   0.42802183   -2.6375708   -2.6375708   -1.9394641   0.03677286   -2.6375708   0.69810668   324944 
18770000   0.42771292   -2.6368337   -2.6368337   -1.9391149  0.035405237   -2.6368337   0.69771879   324890 
18780000   0.42841158   -2.6360081   -2.6360081   -1.9370334  0.027749194   -2.6360081   0.69897469   324836 
18790000   0.42796511    -2.635443    -2.635443   -1.9370806  0.025602709    -2.635443   0.69836234   324782 
18800000   0.42778268   -2.6374144   -2.6374144   -1.9392336  0.028748852   -2.6374144   0.69818073   324728 
18810000    0.4276733   -2.6350382   -2.6350382   -1.9369199  0.026860016   -2.6350382    0.6981183   324674 
18820000    0.4297335   -2.6366171   -2.6366171   -1.9350191  0.038758138   -2.6366171   0.70159798   324620 
18830000   0.42782766    -2.635514    -2.635514   -1.9369114  0.034916027    -2.635514   0.69860265   324566 
18840000   0.42881473   -2.6365955   -2.6365955   -1.9362645  0.025589848   -2.6365955   0.70033097   324512 
18850000    0.4285492   -2.6364176   -2.6364176   -1.9364038  0.033138377   -2.6364176   0.70001379   324458 
18860000   0.42730945   -2.6347357   -2.6347357   -1.9366308  0.033178435   -2.6347357   0.69810492   324404 
18870000   0.42805412   -2.6376791   -2.6376791    -1.938239  0.034964093   -2.6376791   0.69944008   324349 
18880000   0.42776284   -2.6376815   -2.6376815    -1.938601  0.033087141   -2.6376815   0.69908052   324295 
18890000   0.42824394   -2.6378747   -2.6378747   -1.9378914  0.028114159   -2.6378747   0.69998333   324241 
18900000   0.42765868   -2.6382392   -2.6382392   -1.9390961  0.032643299   -2.6382392   0.69914312   324187 
18910000   0.42651758   -2.6354412   -2.6354412   -1.9380474  0.036279831   -2.6354412   0.69739381   324133 
18920000   0.42775742   -2.6378949   -2.6378949   -1.9383573  0.030751465   -2.6378949   0.69953759   324079 
18930000   0.42681113   -2.6365218   -2.6365218   -1.9384154  0.031677884   -2.6365218   0.69810639   324025 
18940000   0.42770154   -2.6382638   -2.6382638   -1.9385844  0.024045978   -2.6382638   0.69967939   323971 
18950000   0.42703927   -2.6393363   -2.6393363   -1.9406239  0.033281584   -2.6393363   0.69871243   323917 
18960000   0.42750947   -2.6388775   -2.6388775   -1.9392791  0.025969468   -2.6388775   0.69959839   323863 
18970000   0.42587475   -2.6348659   -2.6348659   -1.9378264   0.02888133   -2.6348659   0.69703948   323809 
18980000   0.42811439   -2.6371299   -2.6371299   -1.9363079  0.038558174   -2.6371299   0.70082202   323755 
18990000   0.42595641   -2.6359408   -2.6359408   -1.9385351  0.034711115   -2.6359408   0.69740573   323701 
19000000   0.42648639   -2.6385537   -2.6385537   -1.9401638  0.034256651   -2.6385537   0.69838995   323647 
19010000   0.42506918   -2.6342685   -2.6342685   -1.9380831  0.031965019   -2.6342685   0.69618537   323593 
19020000   0.42705749   -2.6360104   -2.6360104   -1.9364518  0.028983737   -2.6360104    0.6995586   323539 
19030000   0.42557323   -2.6336672   -2.6336672   -1.9364236  0.025665936   -2.6336672   0.69724363   323485 
19040000   0.42577282   -2.6360761   -2.6360761    -1.938389  0.036590624   -2.6360761    0.6976871   323431 
19050000   0.42637096   -2.6362146   -2.6362146   -1.9374307  0.027837561   -2.6362146    0.6987839   323377 
19060000   0.42646274   -2.6378355   -2.6378355   -1.9387823  0.021917275   -2.6378355   0.69905321   323322 
19070000   0.42560779   -2.6370016   -2.6370016   -1.9392333  0.032561286   -2.6370016   0.69776832   323268 
19080000   0.42545237   -2.6362567   -2.6362567   -1.9386267  0.023652288   -2.6362567   0.69763006   323214 
19090000   0.42706912   -2.6381537   -2.6381537   -1.9377556  0.029849304   -2.6381537   0.70039811   323160 
19100000    0.4258401   -2.6351759   -2.6351759   -1.9366767  0.033731398   -2.6351759   0.69849922   323106 
19110000    0.4260628   -2.6364729   -2.6364729   -1.9374915  0.026214229   -2.6364729   0.69898133   323052 
19120000   0.42586858    -2.638331    -2.638331   -1.9395515  0.029405435    -2.638331   0.69877952   322998 
19130000   0.42393545    -2.635652    -2.635652   -1.9399281  0.025487291    -2.635652   0.69572388   322944 
19140000   0.42516048   -2.6391383   -2.6391383   -1.9412874  0.030021137   -2.6391383   0.69785098   322890 
19150000   0.42489456    -2.640614    -2.640614   -1.9430828    0.0347771    -2.640614   0.69753115   322836 
19160000   0.42451154    -2.637654    -2.637654    -1.940635  0.027497839    -2.637654   0.69701896   322782 
19170000   0.42677711   -2.6418095   -2.6418095   -1.9409533  0.031432168   -2.6418095   0.70085611   322728 
19180000   0.42415593   -2.6384642   -2.6384642   -1.9417961  0.031638869   -2.6384642   0.69666816   322674 
19190000   0.42349472   -2.6356347   -2.6356347   -1.9399361  0.020658365   -2.6356347   0.69569857   322620 
19200000    0.4255656   -2.6402398   -2.6402398   -1.9410222   0.02833879   -2.6402398   0.69921756   322566 
19210000   0.42390955   -2.6387992   -2.6387992    -1.942186  0.034259619   -2.6387992   0.69661324   322512 
19220000    0.4254284   -2.6386084   -2.6386084   -1.9393822  0.023563235   -2.6386084   0.69922624   322458 
19230000   0.42497604   -2.6375441   -2.6375441   -1.9389444   0.03266318   -2.6375441   0.69859974   322404 
19240000   0.42373252   -2.6359767   -2.6359767   -1.9393023  0.024952379   -2.6359767   0.69667442   322349 
19250000    0.4235971   -2.6371706   -2.6371706   -1.9406021  0.036709105   -2.6371706   0.69656846   322295 
19260000   0.42386647   -2.6407828   -2.6407828   -1.9436546  0.033271572   -2.6407828   0.69712822   322241 
19270000   0.42340358   -2.6371935   -2.6371935   -1.9407099  0.040831143   -2.6371935   0.69648363   322187 
19280000   0.42282041   -2.6335701   -2.6335701   -1.9379292  0.031013126   -2.6335701   0.69564092   322133 
19290000   0.42309881   -2.6368238   -2.6368238   -1.9406081   0.02361105   -2.6368238   0.69621567   322079 
19300000   0.42341078   -2.6375001   -2.6375001   -1.9406543  0.027556817   -2.6375001   0.69684586   322025 
19310000   0.42359472   -2.6375546   -2.6375546   -1.9402891  0.025320223   -2.6375546   0.69726551   321971 
19320000   0.42378098   -2.6372845   -2.6372845   -1.9395954  0.029996319   -2.6372845   0.69768912   321917 
19330000    0.4228985   -2.6371906   -2.6371906   -1.9408375  0.035705657   -2.6371906   0.69635306   321863 
19340000   0.42207122   -2.6349993   -2.6349993   -1.9398919  0.027970395   -2.6349993   0.69510746   321809 
19350000   0.42325514   -2.6374256   -2.6374256   -1.9402514  0.027780457   -2.6374256   0.69717424   321755 
19360000   0.42339863   -2.6387006   -2.6387006   -1.9411729  0.036927209   -2.6387006   0.69752766   321701 
19370000   0.42279368   -2.6357293   -2.6357293   -1.9390813  0.021841312   -2.6357293   0.69664798   321647 
19380000   0.42285872   -2.6358737   -2.6358737   -1.9390015  0.038104222   -2.6358737   0.69687213   321593 
19390000   0.42402729   -2.6374316   -2.6374316   -1.9385163  0.029903339   -2.6374316    0.6989153   321539 
19400000   0.42242618   -2.6380642   -2.6380642   -1.9416711  0.026396643   -2.6380642   0.69639318   321485 
19410000   0.42216266   -2.6398732   -2.6398732   -1.9437975  0.036076356   -2.6398732   0.69607567   321431 
19420000   0.42159752   -2.6365469   -2.6365469   -1.9412863  0.018203562   -2.6365469   0.69526065   321377 
19430000    0.4232592   -2.6357832   -2.6357832   -1.9376627  0.029939659   -2.6357832   0.69812041   321322 
19440000   0.42223533   -2.6340364   -2.6340364   -1.9374877  0.027211616   -2.6340364   0.69654872   321268 
19450000   0.42235246   -2.6352813   -2.6352813   -1.9384223  0.026434278   -2.6352813   0.69685908   321214 
19460000   0.42153835    -2.633792    -2.633792   -1.9381593  0.029276352    -2.633792   0.69563279   321160 
19470000   0.42200663   -2.6336256   -2.6336256   -1.9371029  0.028226302   -2.6336256   0.69652267   321106 
19480000   0.42325176   -2.6341531   -2.6341531   -1.9354578  0.032823063   -2.6341531   0.69869526   321052 
19490000   0.42257993   -2.6327769   -2.6327769   -1.9350734  0.029776295   -2.6327769   0.69770356   320998 
19500000   0.42225605   -2.6327642   -2.6327642    -1.935478  0.020210704   -2.6327642   0.69728612   320944 
19510000   0.42213298   -2.6345621   -2.6345621   -1.9373619  0.029467079   -2.6345621   0.69720019   320890 
19520000    0.4224447   -2.6333454   -2.6333454   -1.9355129  0.033253736   -2.6333454   0.69783246   320836 
19530000   0.42223985   -2.6354508   -2.6354508   -1.9378393  0.030723938   -2.6354508   0.69761149   320782 
19540000   0.42167797   -2.6361803   -2.6361803   -1.9393798  0.033928396   -2.6361803   0.69680047   320728 
19550000   0.42143816   -2.6356395   -2.6356395   -1.9391181  0.023507689   -2.6356395   0.69652147   320674 
19560000   0.42070231   -2.6332869   -2.6332869   -1.9378645  0.025136765   -2.6332869   0.69542242   320620 
19570000   0.42018809   -2.6345488   -2.6345488   -1.9398594   0.01990274   -2.6345488   0.69468941   320566 
19580000   0.42104676   -2.6375556   -2.6375556   -1.9413293  0.028682694   -2.6375556   0.69622631   320512 
19590000   0.42063659   -2.6358974   -2.6358974   -1.9402321  0.027989655   -2.6358974   0.69566528   320458 
19600000   0.42090867   -2.6353737   -2.6353737   -1.9391411  0.031017046   -2.6353737   0.69623258   320404 
19610000   0.42096121   -2.6342694   -2.6342694   -1.9378303  0.026756759   -2.6342694   0.69643904   320349 
19620000   0.42132685   -2.6360395   -2.6360395   -1.9388781  0.034783427   -2.6360395   0.69716146   320295 
19630000   0.42090534   -2.6359147   -2.6359147   -1.9393333  0.024906101   -2.6359147   0.69658144   320241 
19640000   0.42072247   -2.6351667   -2.6351667   -1.9387704  0.034498014   -2.6351667   0.69639622   320187 
19650000   0.42020134   -2.6333108   -2.6333108   -1.9376599  0.038634018   -2.6333108   0.69565095   320133 
19660000   0.42065308   -2.6361894   -2.6361894   -1.9396731  0.026359602   -2.6361894   0.69651631   320079 
19670000   0.42177981   -2.6370376   -2.6370376   -1.9385378    0.0283955   -2.6370376   0.69849979   320025 
19680000   0.42049763   -2.6343723   -2.6343723   -1.9378784  0.026455293   -2.6343723   0.69649393   319971 
19690000   0.42091848   -2.6355564   -2.6355564   -1.9382478  0.029410971   -2.6355564   0.69730869   319917 
19700000   0.42018846   -2.6357058   -2.6357058    -1.939489  0.039488857   -2.6357058   0.69621683   319863 
19710000   0.42077141    -2.637749    -2.637749   -1.9404486  0.021683057    -2.637749   0.69730043   319809 
19720000   0.42109254   -2.6369072   -2.6369072   -1.9389568   0.01447547   -2.6369072   0.69795046   319755 
19730000   0.41979456   -2.6356199   -2.6356199   -1.9397033  0.024533856   -2.6356199   0.69591662   319701 
19740000   0.41971398   -2.6345939   -2.6345939   -1.9386933  0.024121788   -2.6345939   0.69590059   319647 
19750000   0.41975978   -2.6343699   -2.6343699   -1.9382758  0.028839858   -2.6343699   0.69609411   319593 
19760000    0.4196574   -2.6365509   -2.6365509   -1.9405089  0.023827835   -2.6365509   0.69604195   319539 
19770000   0.41966431    -2.636363    -2.636363   -1.9401919  0.021880783    -2.636363   0.69617105   319485 
19780000   0.41872157   -2.6357257   -2.6357257   -1.9410011  0.033091607   -2.6357257   0.69472459   319431 
19790000   0.42033897   -2.6346621   -2.6346621   -1.9371361  0.037394441   -2.6346621   0.69752603   319377 
19800000   0.41857344   -2.6329962   -2.6329962   -1.9382804  0.025872801   -2.6329962   0.69471588   319322 
19810000   0.42010867    -2.637861    -2.637861   -1.9404792  0.034535222    -2.637861   0.69738187   319268 
19820000   0.41865917   -2.6359833   -2.6359833     -1.94089  0.035958636   -2.6359833   0.69509325   319214 
19830000   0.41791434   -2.6339699   -2.6339699   -1.9399959  0.016992689   -2.6339699   0.69397402   319160 
19840000   0.41951729   -2.6352576   -2.6352576   -1.9385039  0.037749888   -2.6352576   0.69675372   319106 
19850000   0.41988533   -2.6354258   -2.6354258   -1.9379427  0.030065543   -2.6354258   0.69748301   319052 
19860000   0.41903221   -2.6338443   -2.6338443   -1.9376606  0.027828428   -2.6338443    0.6961837   318998 
19870000   0.41917772   -2.6358678   -2.6358678   -1.9393244  0.025783851   -2.6358678   0.69654335   318944 
19880000    0.4185162   -2.6324854   -2.6324854   -1.9369236  0.033367268   -2.6324854   0.69556187   318890 
19890000   0.41918354   -2.6343931   -2.6343931   -1.9376041  0.018318973   -2.6343931   0.69678897   318836 
19900000   0.41941878   -2.6333966   -2.6333966   -1.9360985  0.035714414   -2.6333966    0.6972981   318782 
19910000   0.41915334   -2.6325992   -2.6325992   -1.9356244  0.029019473   -2.6325992   0.69697485   318728 
19920000   0.41853137   -2.6336173   -2.6336173   -1.9375587  0.032416807   -2.6336173   0.69605857   318674 
19930000   0.41892382   -2.6324708   -2.6324708   -1.9356415  0.033464942   -2.6324708   0.69682932   318620 
19940000   0.41869189   -2.6314342   -2.6314342   -1.9348726  0.022758639   -2.6314342    0.6965616   318566 
19950000   0.41819515   -2.6311525   -2.6311525   -1.9352993    0.0282989   -2.6311525   0.69585313   318512 
19960000   0.41828199   -2.6331982   -2.6331982   -1.9370826    0.0268244   -2.6331982   0.69611565   318458 
19970000   0.41873878   -2.6363148   -2.6363148   -1.9393208  0.030077051   -2.6363148   0.69699404   318404 
19980000   0.41881243   -2.6356985   -2.6356985   -1.9384615  0.024073004   -2.6356985   0.69723707   318349 
19990000   0.41658273   -2.6338402   -2.6338402   -1.9401975  0.037921727   -2.6338402   0.69364273   318295 
20000000   0.41700953   -2.6355814   -2.6355814   -1.9411102  0.035672764   -2.6355814   0.69447121   318241 
20010000   0.41608487   -2.6360864   -2.6360864   -1.9430375  0.035242977   -2.6360864   0.69304892   318187 
20020000   0.41763897   -2.6355896   -2.6355896    -1.939834  0.027628032   -2.6355896   0.69575557   318133 
20030000   0.41639541   -2.6344907   -2.6344907    -1.940689  0.028407797   -2.6344907   0.69380166   318079 
20040000   0.41751962   -2.6359969   -2.6359969   -1.9402039  0.026773843   -2.6359969   0.69579295   318025 
20050000   0.41773875   -2.6359388   -2.6359388   -1.9396624  0.038898814   -2.6359388   0.69627636   317971 
20060000   0.41681095   -2.6345723   -2.6345723   -1.9397243  0.033835854   -2.6345723   0.69484793   317917 
20070000   0.41695961   -2.6376488   -2.6376488    -1.942435  0.027049479   -2.6376488   0.69521384   317863 
20080000   0.41668129   -2.6371993   -2.6371993   -1.9423315  0.027503932   -2.6371993   0.69486783   317809 
20090000   0.41518612   -2.6338615   -2.6338615   -1.9413694  0.020189022   -2.6338615   0.69249211   317755 
20100000    0.4168557   -2.6366417   -2.6366417   -1.9412467  0.027769807   -2.6366417     0.695395   317701 
20110000    0.4154429   -2.6337972   -2.6337972   -1.9406412  0.037177193   -2.6337972   0.69315599   317647 
20120000   0.41655287   -2.6348333   -2.6348333   -1.9397072  0.037295272   -2.6348333   0.69512611   317593 
20130000   0.41554753   -2.6361532   -2.6361532   -1.9425868  0.029033344   -2.6361532   0.69356637   317539 
20140000   0.41582441   -2.6360053   -2.6360053   -1.9418587  0.027553798   -2.6360053   0.69414654   317485 
20150000   0.41610226   -2.6368403   -2.6368403   -1.9421118  0.022748054   -2.6368403   0.69472853   317431 
20160000   0.41574192   -2.6355594   -2.6355594   -1.9413144  0.027341785   -2.6355594   0.69424501   317377 
20170000    0.4158943   -2.6368795   -2.6368795   -1.9422596  0.033322987   -2.6368795   0.69461985   317322 
20180000   0.41459934   -2.6333015   -2.6333015   -1.9407266  0.029596267   -2.6333015   0.69257488   317268 
20190000   0.41515528   -2.6365046   -2.6365046    -1.942883  0.025985445   -2.6365046    0.6936216   317214 
20200000   0.41612611   -2.6368598   -2.6368598   -1.9414978   0.03253639   -2.6368598   0.69536201   317160 
20210000   0.41478334   -2.6359958   -2.6359958   -1.9427596    0.0302394   -2.6359958   0.69323621   317106 
20220000   0.41414595   -2.6376978   -2.6376978    -1.945409  0.023053186   -2.6376978   0.69228882   317052 
20230000    0.4148375   -2.6388941   -2.6388941   -1.9453311  0.029235288   -2.6388941   0.69356295   316998 
20240000   0.41540415   -2.6387217   -2.6387217    -1.944093  0.033021518   -2.6387217   0.69462865   316944 
20250000   0.41440359   -2.6338213   -2.6338213   -1.9407477  0.033424781   -2.6338213   0.69307363   316890 
20260000    0.4145812   -2.6345997   -2.6345997   -1.9411109  0.030568337   -2.6345997   0.69348884   316836 
20270000   0.41560075   -2.6377785   -2.6377785   -1.9424657   0.02868076   -2.6377785    0.6953128   316782 
20280000   0.41488379   -2.6368941   -2.6368941   -1.9426625  0.029253477   -2.6368941   0.69423165   316728 
20290000    0.4152413   -2.6379654   -2.6379654   -1.9430171  0.025299642   -2.6379654   0.69494836   316674 
20300000   0.41434268   -2.6377494   -2.6377494   -1.9441867  0.031494821   -2.6377494   0.69356269   316620 
20310000   0.41537384   -2.6360736   -2.6360736   -1.9406663  0.034522651   -2.6360736   0.69540733   316566 
20320000    0.4141516   -2.6347408   -2.6347408   -1.9412614  0.025301459   -2.6347408    0.6934794   316512 
20330000   0.41387552   -2.6387796   -2.6387796   -1.9456442  0.031858433   -2.6387796   0.69313536   316458 
20340000   0.41366749   -2.6383377   -2.6383377   -1.9454324  0.035765797   -2.6383377   0.69290521   316404 
20350000   0.41424147     -2.63824     -2.63824   -1.9442528  0.035313285     -2.63824   0.69398728   316349 
20360000   0.41308467   -2.6344696   -2.6344696   -1.9423022  0.029773329   -2.6344696   0.69216742   316295 
20370000   0.41340675   -2.6342398   -2.6342398   -1.9414144  0.033621721   -2.6342398   0.69282537   316241 
20380000   0.41374361   -2.6329614   -2.6329614   -1.9394531  0.033234671   -2.6329614   0.69350833   316187 
20390000    0.4137118   -2.6367253   -2.6367253   -1.9431518  0.025767642   -2.6367253   0.69357347   316133 
20400000   0.41283136   -2.6340365   -2.6340365   -1.9418208  0.036967745   -2.6340365   0.69221569   316079 
20410000   0.41283024    -2.634667    -2.634667   -1.9423349  0.021987166    -2.634667   0.69233209   316025 
20420000   0.41311763   -2.6342375   -2.6342375    -1.941305  0.022804767   -2.6342375   0.69293245   315971 
20430000   0.41268614   -2.6350965   -2.6350965   -1.9427695  0.024394375   -2.6350965   0.69232702   315917 
20440000   0.41295998   -2.6377307   -2.6377307   -1.9448258  0.030572734   -2.6377307   0.69290486   315863 
20450000   0.41257064   -2.6365316   -2.6365316   -1.9441617   0.02644856   -2.6365316   0.69236995   315809 
20460000   0.41279909   -2.6363155   -2.6363155   -1.9434437  0.027082871   -2.6363155    0.6928718   315755 
20470000   0.41309461   -2.6354472   -2.6354472   -1.9419608  0.035529768   -2.6354472   0.69348644   315701 
20480000    0.4119764   -2.6343173   -2.6343173   -1.9425898   0.01759756   -2.6343173   0.69172754   315647 
20490000   0.41225043   -2.6324924   -2.6324924   -1.9401863  0.028772213   -2.6324924   0.69230609   315593 
20500000   0.41244118   -2.6372083   -2.6372083   -1.9444633  0.028074788   -2.6372083   0.69274495   315539 
20510000   0.41319275   -2.6364494   -2.6364494   -1.9423233  0.011882997   -2.6364494    0.6941261   315485 
20520000    0.4121415   -2.6315572   -2.6315572   -1.9390785  0.024710727   -2.6315572   0.69247862   315431 
20530000   0.41217763   -2.6340212   -2.6340212   -1.9413633  0.034744933   -2.6340212   0.69265791   315377 
20540000   0.41256381   -2.6350296   -2.6350296   -1.9416017  0.033057719   -2.6350296   0.69342781   315322 
20550000   0.41262448    -2.634755    -2.634755   -1.9411064   0.02838229    -2.634755   0.69364857   315268 
20560000   0.41217256   -2.6318565   -2.6318565   -1.9388489  0.027089209   -2.6318565   0.69300756   315214 
20570000   0.41241007   -2.6341794   -2.6341794   -1.9406537  0.029228668   -2.6341794    0.6935257   315160 
20580000   0.41332855   -2.6351913   -2.6351913    -1.940002  0.036275169   -2.6351913   0.69518937   315106 
20590000   0.41115753   -2.6316953   -2.6316953   -1.9400389  0.024855186   -2.6316953   0.69165641   315052 
20600000   0.41179858   -2.6326469   -2.6326469   -1.9397934  0.025817835   -2.6326469   0.69285355   314998 
20610000    0.4115543   -2.6319454   -2.6319454   -1.9393842  0.030497027   -2.6319454   0.69256126   314944 
20620000   0.41120379   -2.6328514   -2.6328514   -1.9407613  0.026945548   -2.6328514    0.6920901   314890 
20630000     0.411268   -2.6317088   -2.6317088   -1.9393919  0.025305569   -2.6317088   0.69231689   314836 
20640000   0.41101143   -2.6330235   -2.6330235   -1.9410198  0.023933928   -2.6330235   0.69200368   314782 
20650000   0.41174098   -2.6324285   -2.6324285   -1.9390776  0.037031673   -2.6324285   0.69335095   314728 
20660000   0.41057318    -2.632681    -2.632681   -1.9411779  0.028229155    -2.632681   0.69150307   314674 
20670000   0.41145817   -2.6321268   -2.6321268   -1.9390143  0.024456794   -2.6321268   0.69311255   314620 
20680000   0.41089108   -2.6324348   -2.6324348   -1.9401587   0.02944453   -2.6324348    0.6922761   314566 
20690000   0.41168548   -2.6351094   -2.6351094   -1.9413758  0.036052391   -2.6351094    0.6937336   314512 
20700000   0.41071001    -2.632503    -2.632503   -1.9402944  0.026616952    -2.632503   0.69220867   314458 
20710000   0.41111841   -2.6319577   -2.6319577   -1.9389417   0.02895796   -2.6319577     0.693016   314404 
20720000   0.41012428   -2.6320796   -2.6320796   -1.9406184  0.038307013   -2.6320796   0.69146117   314349 
20730000   0.41047423   -2.6324528   -2.6324528   -1.9402827  0.031750797   -2.6324528   0.69217008   314295 
20740000   0.41153492   -2.6361357   -2.6361357   -1.9420577  0.037005143   -2.6361357   0.69407794   314241 
20750000   0.41056528   -2.6327957   -2.6327957   -1.9402341  0.030357715   -2.6327957   0.69256159   314187 
20760000   0.41055053    -2.632422    -2.632422   -1.9397662  0.024960258    -2.632422   0.69265576   314133 
20770000   0.41020551   -2.6319502   -2.6319502   -1.9397575  0.025072284   -2.6319502   0.69219266   314079 
20780000   0.40946619   -2.6322832   -2.6322832   -1.9412192  0.032089176   -2.6322832   0.69106392   314025 
20790000   0.40936898    -2.631533    -2.631533   -1.9405143  0.036873192    -2.631533   0.69101868   313971 
20800000    0.4106815   -2.6326521   -2.6326521   -1.9392986  0.029770746   -2.6326521   0.69335348   313917 
20810000   0.41066988   -2.6321504   -2.6321504   -1.9386973  0.025631566   -2.6321504   0.69345316   313863 
20820000   0.40895409   -2.6295584   -2.6295584   -1.9388837  0.030322151   -2.6295584   0.69067472   313809 
20830000   0.41135774   -2.6321719   -2.6321719   -1.9373181  0.030684137   -2.6321719   0.69485377   313755 
20840000    0.4094852   -2.6291416   -2.6291416   -1.9373318  0.030310232   -2.6291416    0.6918098   313701 
20850000    0.4102694   -2.6320738   -2.6320738   -1.9388198  0.026441553   -2.6320738   0.69325401   313647 
20860000   0.40903904   -2.6294633   -2.6294633   -1.9381693   0.02958261   -2.6294633   0.69129402   313593 
20870000   0.40962108    -2.628856    -2.628856   -1.9364591  0.029042697    -2.628856   0.69239692   313539 
20880000   0.40911805    -2.628359    -2.628359   -1.9366933  0.031636266    -2.628359   0.69166576   313485 
20890000   0.40917714   -2.6294973   -2.6294973   -1.9376125  0.017992265   -2.6294973   0.69188484   313431 
20900000   0.40885187   -2.6299586   -2.6299586   -1.9385046  0.032060565   -2.6299586   0.69145397   313377 
20910000   0.40969426   -2.6301529   -2.6301529   -1.9371527  0.021125486   -2.6301529   0.69300025   313322 
20920000   0.40923171   -2.6277742   -2.6277742    -1.935437  0.015651264   -2.6277742   0.69233716   313268 
20930000   0.40860853   -2.6270998   -2.6270998   -1.9356978  0.024948763   -2.6270998   0.69140204   313214 
20940000   0.40832727   -2.6272907   -2.6272907   -1.9362454   0.02434786   -2.6272907   0.69104528   313160 
20950000   0.40922944   -2.6273419   -2.6273419   -1.9346503  0.027809599   -2.6273419   0.69269154   313106 
20960000   0.40788886   -2.6262444   -2.6262444   -1.9357029  0.031520499   -2.6262444   0.69054146   313052 
20970000   0.40868465   -2.6282745   -2.6282745   -1.9362664  0.025213793   -2.6282745   0.69200808   312998 
20980000   0.40726097   -2.6279328   -2.6279328   -1.9382164  0.033089187   -2.6279328    0.6897164   312944 
20990000    0.4087697   -2.6296393   -2.6296393   -1.9372483  0.034108022   -2.6296393   0.69239099   312890 
21000000   0.40808594   -2.6298945   -2.6298945   -1.9385424  0.018155629   -2.6298945   0.69135214   312836 
21010000   0.40787564   -2.6276512   -2.6276512    -1.936536  0.025916833   -2.6276512   0.69111515   312782 
21020000   0.40651486   -2.6270266   -2.6270266   -1.9380983  0.032291469   -2.6270266   0.68892834   312728 
21030000   0.40786221    -2.628611    -2.628611   -1.9372799  0.026202858    -2.628611    0.6913311   312674 
21040000   0.40926646   -2.6301292   -2.6301292   -1.9362981  0.025633331   -2.6301292   0.69383115   312620 
21050000   0.40832514   -2.6274995   -2.6274995   -1.9351446  0.028960904   -2.6274995   0.69235492   312566 
21060000    0.4072106   -2.6282238   -2.6282238   -1.9376394  0.036023463   -2.6282238   0.69058441   312512 
21070000   0.40785586   -2.6258502   -2.6258502    -1.934052  0.029647202   -2.6258502   0.69179825   312458 
21080000   0.40832426   -2.6284607   -2.6284607   -1.9357482  0.028679586   -2.6284607   0.69271245   312404 
21090000    0.4077612   -2.6283048   -2.6283048   -1.9364258  0.032359385   -2.6283048   0.69187904   312349 
21100000    0.4077806   -2.6294243   -2.6294243   -1.9373927  0.019506938   -2.6294243    0.6920316   312295 
21110000   0.40859966   -2.6308708   -2.6308708   -1.9373292  0.023602823   -2.6308708   0.69354152   312241 
21120000   0.40710461   -2.6284147   -2.6284147   -1.9372913  0.033914526   -2.6284147   0.69112342   312187 
21130000   0.40749292   -2.6295419   -2.6295419   -1.9376396  0.040967425   -2.6295419   0.69190231   312133 
21140000   0.40755415   -2.6282618   -2.6282618   -1.9361358  0.030590148   -2.6282618   0.69212601   312079 
21150000   0.40731766   -2.6299844   -2.6299844   -1.9381403  0.028275879   -2.6299844   0.69184411   312025 
21160000   0.40669904   -2.6273792   -2.6273792   -1.9364663  0.038499677   -2.6273792   0.69091293   311971 
21170000   0.40671057   -2.6290066   -2.6290066   -1.9379545  0.029811447   -2.6290066   0.69105213   311917 
21180000   0.40649599   -2.6288714   -2.6288714   -1.9380642  0.023835087   -2.6288714   0.69080713   311863 
21190000   0.40815899   -2.6322758   -2.6322758   -1.9385224  0.029715871   -2.6322758    0.6937534   311809 
21200000   0.40659581   -2.6306032   -2.6306032   -1.9393871  0.027296787   -2.6306032   0.69121613   311755 
21210000    0.4066841   -2.6290382   -2.6290382   -1.9375522  0.026248546   -2.6290382   0.69148601   311701 
21220000   0.40595376    -2.629002    -2.629002   -1.9386382  0.032740163    -2.629002    0.6903638   311647 
21230000   0.40653245   -2.6312188   -2.6312188    -1.939751    0.0300579   -2.6312188   0.69146775   311593 
21240000   0.40694359   -2.6331119   -2.6331119   -1.9408249  0.027013708   -2.6331119   0.69228702   311539 
21250000   0.40535751   -2.6290106   -2.6290106   -1.9393022  0.027301521   -2.6290106   0.68970835   311485 
21260000   0.40608016   -2.6305533   -2.6305533   -1.9394956  0.024958756   -2.6305533   0.69105774   311431 
21270000   0.40630098   -2.6279713   -2.6279713   -1.9364179  0.021526411   -2.6279713   0.69155343   311377 
21280000   0.40539964   -2.6264456   -2.6264456   -1.9363044    0.0278805   -2.6264456   0.69014118   311322 
21290000   0.40570786   -2.6289382   -2.6289382   -1.9381525   0.02944182   -2.6289382   0.69078571   311268 
21300000   0.40591567   -2.6273942   -2.6273942   -1.9361347  0.027415553   -2.6273942   0.69125946   311214 
21310000   0.40596351   -2.6301539   -2.6301539    -1.938693  0.028348014   -2.6301539   0.69146091   311160 
21320000   0.40614974   -2.6279844   -2.6279844   -1.9360862  0.030218005   -2.6279844   0.69189818   311106 
21330000   0.40512469   -2.6292498   -2.6292498    -1.938978  0.022893666   -2.6292498   0.69027177   311052 
21340000   0.40439651   -2.6298263   -2.6298263   -1.9406756  0.026081718   -2.6298263   0.68915069   310998 
21350000   0.40511391    -2.631021    -2.631021   -1.9405279  0.033370509    -2.631021   0.69049315   310944 
21360000   0.40379734    -2.628152    -2.628152   -1.9397833  0.036476784    -2.628152   0.68836868   310890 
21370000   0.40436852   -2.6280377   -2.6280377   -1.9385756  0.025781887   -2.6280377   0.68946215   310836 
21380000    0.4038415   -2.6287303   -2.6287303   -1.9400471  0.021890875   -2.6287303    0.6886832   310782 
21390000   0.40405814   -2.6311444   -2.6311444    -1.941972  0.028238084   -2.6311444   0.68917238   310728 
21400000   0.40403454    -2.631539    -2.631539   -1.9422871  0.020259928    -2.631539   0.68925191   310674 
21410000   0.40381563   -2.6323934   -2.6323934   -1.9433952  0.029890449   -2.6323934   0.68899823   310620 
21420000   0.40310421   -2.6287729   -2.6287729   -1.9408689  0.021688266   -2.6287729   0.68790398   310566 
21430000   0.40509081   -2.6320806   -2.6320806   -1.9406662   0.02779199   -2.6320806   0.69141436   310512 
21440000    0.4044819    -2.632608    -2.632608   -1.9421129  0.030307538    -2.632608   0.69049515   310458 
21450000   0.40425879   -2.6320734   -2.6320734   -1.9418391  0.033231918   -2.6320734   0.69023434   310404 
21460000   0.40345461   -2.6283938   -2.6283938   -1.9394104  0.022509255   -2.6283938   0.68898335   310349 
21470000   0.40441275   -2.6305677   -2.6305677   -1.9398279  0.025221194   -2.6305677   0.69073976   310295 
21480000    0.4049759   -2.6296023   -2.6296023   -1.9377803  0.036497144   -2.6296023   0.69182202   310241 
21490000   0.40423516   -2.6302955   -2.6302955   -1.9396186   0.02867976   -2.6302955   0.69067683   310187 
21500000   0.40426728   -2.6310797   -2.6310797   -1.9402277   0.02842515   -2.6310797   0.69085199   310133 
21510000   0.40296098   -2.6284603   -2.6284603   -1.9397207  0.031047133   -2.6284603   0.68873957   310079 
21520000   0.40373884   -2.6312594   -2.6312594   -1.9410701  0.025863768   -2.6312594   0.69018928   310025 
21530000   0.40404534   -2.6304289   -2.6304289   -1.9395953   0.02462656   -2.6304289   0.69083357   309971 
21540000   0.40319202   -2.6292064   -2.6292064   -1.9397117  0.025499727   -2.6292064   0.68949468   309917 
21550000   0.40288896   -2.6284091   -2.6284091   -1.9393126  0.028753498   -2.6284091   0.68909649   309863 
21560000     0.403292   -2.6268965   -2.6268965   -1.9369904  0.025837917   -2.6268965   0.68990609   309809 
21570000    0.4035789   -2.6283689   -2.6283689   -1.9378516  0.027668027   -2.6283689   0.69051725   309755 
21580000   0.40364775   -2.6275833   -2.6275833   -1.9368279  0.033627267   -2.6275833   0.69075546   309701 
21590000   0.40327737   -2.6275014   -2.6275014   -1.9372594  0.037558194   -2.6275014   0.69024199   309647 
21600000   0.40156979   -2.6271002   -2.6271002    -1.939661  0.028250909   -2.6271002   0.68743921   309593 
21610000   0.40228849   -2.6286995   -2.6286995   -1.9399098  0.038014339   -2.6286995   0.68878967   309539 
21620000   0.40195821   -2.6282061   -2.6282061   -1.9398618  0.028102485   -2.6282061   0.68834427   309485 
21630000    0.4013571   -2.6272146   -2.6272146   -1.9397798  0.025285703   -2.6272146   0.68743481   309431 
21640000   0.40281766   -2.6279627   -2.6279627   -1.9379058  0.022588954   -2.6279627   0.69005685   309377 
21650000   0.40146339   -2.6275116   -2.6275116   -1.9396524  0.029673121   -2.6275116   0.68785917   309322 
21660000   0.40292409   -2.6305935   -2.6305935    -1.940111  0.027606269   -2.6305935   0.69048245   309268 
21670000   0.40185979    -2.630734    -2.630734   -1.9419552  0.027064833    -2.630734   0.68877885   309214 
21680000   0.40240589   -2.6288674   -2.6288674   -1.9390321  0.026981182   -2.6288674   0.68983531   309160 
21690000   0.40108218   -2.6284159   -2.6284159   -1.9407297  0.039919656   -2.6284159   0.68768624   309106 
21700000   0.40197221    -2.630462    -2.630462   -1.9411294  0.033322282    -2.630462   0.68933268   309052 
21710000   0.40149519   -2.6293855   -2.6293855   -1.9407506  0.024893685   -2.6293855   0.68863497   308998 
21720000   0.39973586    -2.629753    -2.629753   -1.9440157  0.029208914    -2.629753   0.68573726   308944 
21730000   0.40152231   -2.6341236   -2.6341236   -1.9452013  0.035590274   -2.6341236   0.68892228   308890 
21740000   0.40171029   -2.6305278   -2.6305278   -1.9411625  0.036153076   -2.6305278   0.68936532   308836 
21750000   0.40027888   -2.6291783   -2.6291783   -1.9421493  0.025821979   -2.6291783   0.68702904   308782 
21760000   0.40211519   -2.6333787   -2.6333787   -1.9430771  0.030007897   -2.6333787   0.69030156   308728 
21770000   0.40077841   -2.6309463   -2.6309463   -1.9428192  0.031779999   -2.6309463    0.6881271   308674 
21780000   0.40091082   -2.6322509   -2.6322509    -1.943776  0.025783316   -2.6322509    0.6884749   308620 
21790000   0.40095497   -2.6320885   -2.6320885   -1.9434173  0.027215531   -2.6320885   0.68867121   308566 
21800000   0.40125765   -2.6318763   -2.6318763   -1.9425646  0.028161666   -2.6318763   0.68931172   308512 
21810000   0.40154312   -2.6329661   -2.6329661   -1.9430433  0.034503281   -2.6329661   0.68992287   308458 
21820000   0.40092011   -2.6336835   -2.6336835   -1.9447104  0.026209393   -2.6336835   0.68897306   308404 
21830000   0.40050644   -2.6335572   -2.6335572   -1.9451723  0.032921416   -2.6335572   0.68838494   308349 
21840000   0.39898248   -2.6329182   -2.6329182   -1.9470325   0.02294809   -2.6329182   0.68588568   308295 
21850000   0.40051538   -2.6342546   -2.6342546   -1.9456131  0.028608162   -2.6342546   0.68864149   308241 
21860000   0.39921321   -2.6318306   -2.6318306   -1.9453078  0.029796503   -2.6318306   0.68652283   308187 
21870000   0.40019212   -2.6323899   -2.6323899   -1.9440631  0.036062574   -2.6323899   0.68832687   308133 
21880000   0.40082487   -2.6336793   -2.6336793   -1.9441432  0.035807109   -2.6336793   0.68953603   308079 
21890000   0.39919321    -2.629601    -2.629601   -1.9427515  0.032173442    -2.629601   0.68684949   308025 
21900000   0.39981533   -2.6283334   -2.6283334   -1.9402929  0.027428633   -2.6283334   0.68804052   307971 
21910000   0.40005668   -2.6306108   -2.6306108   -1.9420342  0.028557822   -2.6306108    0.6885766   307917 
21920000   0.40020897     -2.62967     -2.62967   -1.9407105  0.021921554     -2.62967   0.68895955   307863 
21930000   0.39893249   -2.6287694   -2.6287694   -1.9418869  0.034388593   -2.6287694   0.68688255   307809 
21940000   0.39897903   -2.6313809   -2.6313809   -1.9442977  0.037620207   -2.6313809   0.68708323   307755 
21950000   0.40045552   -2.6317118   -2.6317118   -1.9419648   0.02687004   -2.6317118   0.68974693   307701 
21960000   0.39919815   -2.6312565   -2.6312565   -1.9435546  0.032421133   -2.6312565   0.68770192   307647 
21970000   0.39854002   -2.6297982   -2.6297982   -1.9431095  0.029858999   -2.6297982   0.68668868   307593 
21980000   0.39923413   -2.6306525   -2.6306525   -1.9426471  0.033591425   -2.6306525   0.68800543   307539 
21990000   0.39901957   -2.6305244   -2.6305244   -1.9427679  0.027025309   -2.6305244   0.68775643   307485 
22000000   0.39945942   -2.6292824   -2.6292824   -1.9406469   0.02555584   -2.6292824   0.68863549   307431 
22010000   0.39919921   -2.6277566   -2.6277566   -1.9394488  0.034732337   -2.6277566   0.68830781   307377 
22020000   0.39785921   -2.6267946   -2.6267946   -1.9406744  0.025868965   -2.6267946   0.68612013   307322 
22030000     0.399745   -2.6307012   -2.6307012   -1.9412078  0.033092113   -2.6307012   0.68949338   307268 
22040000   0.39854547   -2.6297563   -2.6297563    -1.942211  0.033643096   -2.6297563   0.68754523   307214 
22050000   0.39883509   -2.6301056   -2.6301056   -1.9419398  0.031774444   -2.6301056   0.68816582   307160 
22060000   0.39887277   -2.6323355   -2.6323355   -1.9439836   0.02789237   -2.6323355   0.68835186   307106 
22070000   0.39860456   -2.6315335   -2.6315335   -1.9435236   0.02386999   -2.6315335   0.68800996   307052 
22080000   0.39832579    -2.630147    -2.630147   -1.9424973  0.027740683    -2.630147   0.68764972   306998 
22090000   0.39809554   -2.6290039   -2.6290039   -1.9416308  0.024053748   -2.6290039   0.68737314   306944 
22100000    0.3982806   -2.6302299   -2.6302299   -1.9424162   0.02579704   -2.6302299   0.68781369   306890 
22110000   0.39780873   -2.6298192   -2.6298192   -1.9426995  0.019280754   -2.6298192   0.68711969   306836 
22120000   0.39893377   -2.6297276   -2.6297276   -1.9405434   0.02986543   -2.6297276   0.68918422   306782 
22130000   0.39746497   -2.6277822   -2.6277822   -1.9410145  0.041073502   -2.6277822   0.68676766   306728 
22140000   0.39921787   -2.6285561   -2.6285561   -1.9386382  0.033488268   -2.6285561    0.6899179   306674 
22150000   0.39812759   -2.6286878   -2.6286878    -1.940533  0.030673002   -2.6286878   0.68815488   306620 
22160000   0.39738221   -2.6277783   -2.6277783   -1.9407908  0.027390858   -2.6277783   0.68698749   306566 
22170000   0.39788408   -2.6298786   -2.6298786   -1.9419023  0.025733148   -2.6298786   0.68797629   306512 
22180000   0.39686774   -2.6284803   -2.6284803   -1.9421404  0.032989965   -2.6284803   0.68633988   306458 
22190000   0.39837259   -2.6293368   -2.6293368   -1.9402731  0.028332237   -2.6293368   0.68906378   306404 
22200000   0.39751763   -2.6265778   -2.6265778   -1.9388694  0.035061327   -2.6265778   0.68770839   306349 
22210000   0.39692597   -2.6289093   -2.6289093   -1.9421034  0.028770548   -2.6289093   0.68680589   306295 
22220000   0.39642357   -2.6280567   -2.6280567   -1.9419992  0.025895574   -2.6280567   0.68605753   306241 
22230000   0.39674675   -2.6281303   -2.6281303   -1.9413923  0.021966928   -2.6281303   0.68673793   306187 
22240000   0.39598356   -2.6282279   -2.6282279   -1.9426901  0.036135521   -2.6282279    0.6855378   306133 
22250000   0.39722216   -2.6290927   -2.6290927   -1.9412893  0.024320292   -2.6290927   0.68780342   306079 
22260000   0.39845405   -2.6295552   -2.6295552    -1.939497  0.031179785   -2.6295552   0.69005822   306025 
22270000   0.39770594   -2.6300656   -2.6300656   -1.9411815  0.028846566   -2.6300656   0.68888418   305971 
22280000   0.39734611   -2.6296884   -2.6296884    -1.941306  0.035563848   -2.6296884   0.68838239   305917 
22290000   0.39772025   -2.6295484   -2.6295484   -1.9403961  0.030495221   -2.6295484   0.68915221   305863 
22300000   0.39665213   -2.6291689   -2.6291689   -1.9417461  0.033826993   -2.6291689   0.68742279   305809 
22310000   0.39712592   -2.6322388   -2.6322388   -1.9438734  0.031512636   -2.6322388   0.68836544   305755 
22320000   0.39646155   -2.6299878   -2.6299878   -1.9426526  0.037735545   -2.6299878   0.68733524   305701 
22330000   0.39721468   -2.6296732   -2.6296732   -1.9409106  0.028078262   -2.6296732   0.68876259   305647 
22340000   0.39583111   -2.6279741   -2.6279741   -1.9414893  0.032288426   -2.6279741   0.68648478   305593 
22350000   0.39658063   -2.6286161   -2.6286161   -1.9407099  0.030579304   -2.6286161   0.68790623   305539 
22360000    0.3952822   -2.6307369   -2.6307369   -1.9449617  0.034040182   -2.6307369   0.68577518   305485 
22370000   0.39587819   -2.6308207   -2.6308207   -1.9438901  0.038501349   -2.6308207   0.68693059   305431 
22380000   0.39601098   -2.6299088   -2.6299088   -1.9426262  0.028869674   -2.6299088   0.68728253   305377 
22390000    0.3953814   -2.6281879   -2.6281879   -1.9418744  0.026179534   -2.6281879   0.68631348   305322 
22400000   0.39600991   -2.6307844   -2.6307844   -1.9432584  0.028668387   -2.6307844   0.68752606   305268 
22410000   0.39482147   -2.6292164   -2.6292164   -1.9436324  0.025994296   -2.6292164   0.68558405   305214 
22420000   0.39502505   -2.6322794   -2.6322794   -1.9462204  0.034572839   -2.6322794   0.68605895   305160 
22430000   0.39553615   -2.6327315   -2.6327315   -1.9456633  0.025773978   -2.6327315   0.68706817   305106 
22440000   0.39435473   -2.6320284   -2.6320284   -1.9468911  0.020052976   -2.6320284   0.68513725   305052 
22450000   0.39613313   -2.6374837   -2.6374837   -1.9491349  0.029930014   -2.6374837   0.68834882   304998 
22460000   0.39499324   -2.6340023   -2.6340023   -1.9475126  0.037258689   -2.6340023   0.68648962   304944 
22470000   0.39462659   -2.6316197   -2.6316197   -1.9456458   0.02777521   -2.6316197   0.68597385   304890 
22480000   0.39556101   -2.6322428   -2.6322428   -1.9445229  0.030344182   -2.6322428   0.68771995   304836 
22490000   0.39407581   -2.6340971   -2.6340971   -1.9488379  0.023974075   -2.6340971   0.68525917   304782 
22500000   0.39532419   -2.6353829   -2.6353829   -1.9478311  0.026679153   -2.6353829   0.68755181   304728 
22510000   0.39454443   -2.6327031   -2.6327031   -1.9463859  0.026563507   -2.6327031   0.68631725   304674 
22520000     0.394153   -2.6334002   -2.6334002   -1.9476423  0.030020085   -2.6334002   0.68575791   304620 
22530000    0.3941294   -2.6325926   -2.6325926   -1.9467542  0.039796911   -2.6325926   0.68583841   304566 
22540000   0.39477032   -2.6358781   -2.6358781   -1.9488026  0.029399193   -2.6358781   0.68707553   304512 
22550000   0.39403491   -2.6342579   -2.6342579   -1.9483407  0.030612699   -2.6342579   0.68591722   304458 
22560000   0.39422782   -2.6325415   -2.6325415   -1.9461667  0.026318064   -2.6325415   0.68637477   304404 
22570000   0.39299513   -2.6327951   -2.6327951   -1.9484429  0.037385611   -2.6327951   0.68435222   304349 
22580000   0.39335478   -2.6331958   -2.6331958   -1.9480958  0.035862465   -2.6331958   0.68510007   304295 
22590000   0.39331271   -2.6305314   -2.6305314    -1.945383  0.026543032   -2.6305314   0.68514839   304241 
22600000   0.39254943   -2.6309235   -2.6309235   -1.9469833  0.036776517   -2.6309235   0.68394015   304187 
22610000    0.3941645   -2.6337346   -2.6337346   -1.9468586  0.019097567   -2.6337346   0.68687602   304133 
22620000    0.3926394   -2.6303002   -2.6303002   -1.9459604  0.028174558   -2.6303002   0.68433987   304079 
22630000   0.39359168   -2.6334388   -2.6334388   -1.9473173  0.025493422   -2.6334388   0.68612147   304025 
22640000   0.39317095   -2.6345753   -2.6345753   -1.9490655   0.03279561   -2.6345753   0.68550981   303971 
22650000    0.3935844   -2.6341089   -2.6341089   -1.9477563  0.035576969   -2.6341089    0.6863526   303917 
22660000   0.39358062   -2.6310351   -2.6310351   -1.9445671   0.02503876   -2.6310351   0.68646798   303863 
22670000   0.39332197   -2.6311172   -2.6311172   -1.9449784  0.039079723   -2.6311172   0.68613877   303809 
22680000   0.39299571   -2.6310218   -2.6310218   -1.9453303  0.042714691   -2.6310218   0.68569151   303755 
22690000   0.39328216   -2.6293083   -2.6293083    -1.942995  0.032463294   -2.6293083   0.68631332   303701 
22700000   0.39322162   -2.6315694   -2.6315694   -1.9452397   0.02609601   -2.6315694   0.68632969   303647 
22710000   0.39290319   -2.6322654   -2.6322654   -1.9463695    0.0288787   -2.6322654   0.68589588   303593 
22720000   0.39202727   -2.6323139   -2.6323139   -1.9478254  0.024421742   -2.6323139   0.68448853   303539 
22730000   0.39315907   -2.6309443   -2.6309443   -1.9443575  0.030919059   -2.6309443   0.68658683   303485 
22740000   0.39265722   -2.6289498   -2.6289498   -1.9431174  0.027291033   -2.6289498   0.68583247   303431 
22750000   0.39238726   -2.6291118   -2.6291118   -1.9436289  0.027714805   -2.6291118   0.68548293   303377 
22760000   0.39139394   -2.6266694   -2.6266694   -1.9427978  0.019677301   -2.6266694   0.68387162   303322 
22770000   0.39198884   -2.6304292   -2.6304292   -1.9453961  0.033546404   -2.6304292   0.68503303   303268 
22780000   0.39259766   -2.6301421   -2.6301421   -1.9439229  0.032118666   -2.6301421   0.68621919   303214 
22790000   0.39263118   -2.6312341   -2.6312341   -1.9448341   0.03484659   -2.6312341   0.68640001   303160 
22800000   0.39195772   -2.6320946   -2.6320946   -1.9467499  0.035454079   -2.6320946   0.68534475   303106 
22810000   0.39276366   -2.6319287   -2.6319287   -1.9450524  0.027218439   -2.6319287   0.68687632   303052 
22820000   0.39220183   -2.6327864   -2.6327864   -1.9467704  0.033029824   -2.6327864   0.68601601   302998 
22830000   0.39151859   -2.6305349   -2.6305349   -1.9455919  0.027045085   -2.6305349     0.684943   302944 
22840000   0.39154129   -2.6313548   -2.6313548   -1.9462499  0.028614722   -2.6313548   0.68510483   302890 
22850000   0.39073288   -2.6315919   -2.6315919   -1.9477797  0.027311507   -2.6315919   0.68381222   302836 
22860000   0.39142615   -2.6327718   -2.6327718   -1.9476241  0.030675435   -2.6327718   0.68514766   302782 
22870000   0.39251793   -2.6331743   -2.6331743    -1.945993   0.02498949   -2.6331743   0.68718126   302728 
22880000   0.39189569   -2.6325913   -2.6325913    -1.946377  0.021284417   -2.6325913   0.68621431   302674 
22890000   0.39120668   -2.6340254   -2.6340254   -1.9488953  0.030167856   -2.6340254   0.68513008   302620 
22900000   0.39123353   -2.6336618   -2.6336618   -1.9483624  0.025203038   -2.6336618   0.68529938   302566 
22910000   0.39123001   -2.6328413   -2.6328413   -1.9474257  0.028171952   -2.6328413   0.68541554   302512 
22920000   0.39188746   -2.6334096   -2.6334096   -1.9467197  0.030181741   -2.6334096   0.68668995   302458 
22930000   0.39180428   -2.6331084   -2.6331084   -1.9464416  0.029803959   -2.6331084   0.68666679   302404 
22940000   0.39043397    -2.632336    -2.632336   -1.9479463  0.018791885    -2.632336   0.68438969   302349 
22950000   0.39109655    -2.632682    -2.632682   -1.9470084  0.018291245    -2.632682   0.68567358   302295 
22960000   0.39051544   -2.6321351   -2.6321351    -1.947358  0.036265462   -2.6321351    0.6847771   302241 
22970000   0.39086683   -2.6336405   -2.6336405   -1.9481248  0.026566293   -2.6336405   0.68551575   302187 
22980000   0.38993341   -2.6314564   -2.6314564   -1.9474555  0.030194055   -2.6314564   0.68400091   302133 
22990000   0.39092912   -2.6312355   -2.6312355   -1.9453654  0.027215116   -2.6312355   0.68587012   302079 
23000000   0.38894631   -2.6308258   -2.6308258   -1.9483124  0.032581039   -2.6308258   0.68251337   302025 
23010000   0.38964592   -2.6316493   -2.6316493    -1.947786  0.031079228   -2.6316493   0.68386329   301971 
23020000   0.38921532   -2.6311867   -2.6311867    -1.947957  0.024445345   -2.6311867   0.68322973   301917 
23030000   0.38933809   -2.6309433   -2.6309433   -1.9473758   0.02695992   -2.6309433    0.6835675   301863 
23040000   0.38952217   -2.6281222   -2.6281222   -1.9441092  0.032789458   -2.6281222   0.68401306   301809 
23050000   0.38955033   -2.6302247   -2.6302247   -1.9460398  0.032075043   -2.6302247   0.68418492   301755 
23060000   0.38922108   -2.6310369   -2.6310369   -1.9473079  0.021573737   -2.6310369   0.68372901   301701 
23070000   0.38865584    -2.630866    -2.630866   -1.9480077  0.016278182    -2.630866   0.68285828   301647 
23080000   0.38987811   -2.6317985   -2.6317985     -1.94667  0.026242585   -2.6317985   0.68512843   301593 
23090000   0.38914626   -2.6317825   -2.6317825   -1.9478177  0.026072175   -2.6317825   0.68396482   301539 
23100000   0.38785378   -2.6302796   -2.6302796   -1.9484643  0.028178855   -2.6302796   0.68181525   301485 
23110000    0.3891209   -2.6330564   -2.6330564   -1.9488911  0.030773657   -2.6330564    0.6841653   301431 
23120000   0.38865473   -2.6327789   -2.6327789   -1.9493108   0.02602832   -2.6327789    0.6834681   301377 
23130000   0.38775926   -2.6273063   -2.6273063   -1.9452884  0.031064608   -2.6273063   0.68201784   301322 
23140000   0.38848761   -2.6313181   -2.6313181   -1.9478967  0.029552641   -2.6313181   0.68342139   301268 
23150000   0.38863726   -2.6310781   -2.6310781   -1.9472708  0.029248083   -2.6310781   0.68380722   301214 
23160000   0.38917371   -2.6318487   -2.6318487   -1.9469748  0.035664881   -2.6318487   0.68487389   301160 
23170000   0.38839888   -2.6296976   -2.6296976   -1.9460647  0.032213365   -2.6296976    0.6836329   301106 
23180000   0.38786434    -2.628333    -2.628333   -1.9455185  0.024944477    -2.628333   0.68281449   301052 
23190000   0.38818517   -2.6292236   -2.6292236   -1.9457217  0.028640687   -2.6292236    0.6835019   300998 
23200000   0.38687001   -2.6266871   -2.6266871   -1.9453787  0.028086954   -2.6266871   0.68130844   300944 
23210000   0.38740769   -2.6281329   -2.6281329   -1.9457552  0.023775026   -2.6281329   0.68237779   300890 
23220000   0.38725806   -2.6248813   -2.6248813   -1.9426446  0.031944861   -2.6248813   0.68223667   300836 
23230000   0.38833445    -2.623642    -2.623642   -1.9393862  0.027216044    -2.623642   0.68425577   300782 
23240000   0.38726473   -2.6247211   -2.6247211   -1.9422276  0.031278772   -2.6247211   0.68249344   300728 
23250000   0.38845613   -2.6253522   -2.6253522   -1.9406361  0.026979942   -2.6253522   0.68471604   300674 
23260000   0.38556694   -2.6231255   -2.6231255     -1.94338   0.03784777   -2.6231255   0.67974545   300620 
23270000   0.38794391   -2.6241532   -2.6241532   -1.9400943  0.036042607   -2.6241532   0.68405887   300566 
23280000   0.38722966   -2.6214534   -2.6214534   -1.9385313  0.034907539   -2.6214534   0.68292214   300512 
23290000   0.38654761   -2.6241131   -2.6241131   -1.9422713   0.03213797   -2.6241131    0.6818418   300458 
23300000   0.38683011   -2.6238357   -2.6238357   -1.9413729  0.023075493   -2.6238357   0.68246276   300404 
23310000   0.38867195   -2.6274922   -2.6274922   -1.9416544  0.032328131   -2.6274922   0.68583778   300349 
23320000   0.38766959   -2.6269955   -2.6269955   -1.9428034  0.021840112   -2.6269955   0.68419207   300295 
23330000   0.38700273   -2.6254097   -2.6254097   -1.9422718    0.0280245   -2.6254097   0.68313798   300241 
23340000   0.38687343    -2.626472    -2.626472   -1.9434394  0.031585644    -2.626472   0.68303258   300187 
23350000   0.38540645   -2.6233481   -2.6233481   -1.9427831  0.023624662   -2.6233481   0.68056503   300133 
23360000   0.38662384   -2.6272319   -2.6272319   -1.9443943  0.030303481   -2.6272319   0.68283759   300079 
23370000   0.38669226   -2.6272581   -2.6272581   -1.9441767  0.026112554   -2.6272581   0.68308136   300025 
23380000   0.38683694   -2.6275841   -2.6275841   -1.9441242  0.034540995   -2.6275841   0.68345994   299971 
23390000   0.38632039   -2.6238053   -2.6238053   -1.9411351  0.031466883   -2.6238053    0.6826702   299917 
23400000   0.38721156   -2.6241885   -2.6241885   -1.9398203  0.031708172   -2.6241885   0.68436821   299863 
23410000   0.38600356   -2.6239113   -2.6239113   -1.9415552  0.036480581   -2.6239113   0.68235605   299809 
23420000   0.38585262   -2.6235855   -2.6235855   -1.9413734  0.023020074   -2.6235855    0.6822121   299755 
23430000   0.38601672   -2.6226026   -2.6226026   -1.9399774  0.030705624   -2.6226026    0.6826252   299701 
23440000   0.38520417   -2.6248732   -2.6248732   -1.9435621  0.040396135   -2.6248732   0.68131106   299647 
23450000   0.38619611   -2.6249315   -2.6249315   -1.9417429  0.023706448   -2.6249315   0.68318863   299593 
23460000    0.3854682   -2.6243707   -2.6243707   -1.9423468  0.032752094   -2.6243707   0.68202387   299539 
23470000   0.38473777   -2.6225656   -2.6225656   -1.9417113  0.032791624   -2.6225656   0.68085423   299485 
23480000   0.38477862   -2.6220332   -2.6220332   -1.9409838  0.040348978   -2.6220332   0.68104934   299431 
23490000   0.38514094   -2.6222086   -2.6222086    -1.940395  0.030725204   -2.6222086   0.68181359   299377 
23500000   0.38517045   -2.6259328   -2.6259328   -1.9439417  0.026957063   -2.6259328   0.68199111   299322 
23510000   0.38416336   -2.6243391   -2.6243391   -1.9440084  0.039882571   -2.6243391   0.68033069   299268 
23520000   0.38514147   -2.6257009   -2.6257009    -1.943515  0.034897627   -2.6257009   0.68218596   299214 
23530000   0.38480169    -2.624251    -2.624251   -1.9425439  0.031680911    -2.624251   0.68170714   299160 
23540000   0.38493368    -2.622396    -2.622396   -1.9403319  0.028047269    -2.622396   0.68206408   299106 
23550000   0.38539391   -2.6244563   -2.6244563   -1.9414534  0.029400047   -2.6244563   0.68300288   299052 
23560000   0.38497082   -2.6238775   -2.6238775   -1.9415012    0.0285289   -2.6238775   0.68237628   298998 
23570000   0.38566824   -2.6255331   -2.6255331   -1.9417971  0.025116902   -2.6255331   0.68373598   298944 
23580000   0.38389155   -2.6233538   -2.6233538   -1.9426447  0.033160456   -2.6233538   0.68070911   298890 
23590000   0.38361546   -2.6217809   -2.6217809   -1.9414385  0.032641797   -2.6217809   0.68034248   298836 
23600000   0.38423782   -2.6210027   -2.6210027   -1.9394333   0.03426717   -2.6210027   0.68156939   298782 
23610000   0.38357722   -2.6196222   -2.6196222   -1.9391016  0.032543812   -2.6196222    0.6805206   298728 
23620000   0.38398683    -2.617977    -2.617977   -1.9366066  0.033630499    -2.617977   0.68137047   298674 
23630000   0.38409329   -2.6195941   -2.6195941   -1.9379114  0.030136882   -2.6195941   0.68168262   298620 
23640000   0.38363033   -2.6191702   -2.6191702   -1.9381861  0.029508332   -2.6191702   0.68098412   298566 
23650000   0.38466079   -2.6215723   -2.6215723   -1.9386355  0.022942087   -2.6215723   0.68293681   298512 
23660000   0.38383235    -2.621881    -2.621881   -1.9402917  0.024032312    -2.621881   0.68158927   298458 
23670000   0.38296295   -2.6194658   -2.6194658   -1.9392973  0.027983111   -2.6194658    0.6801685   298404 
23680000   0.38395505   -2.6194561   -2.6194561   -1.9373998  0.028022859   -2.6194561   0.68205625   298349 
23690000   0.38403488   -2.6195894   -2.6195894   -1.9372679  0.029063327   -2.6195894   0.68232156   298295 
23700000    0.3839728   -2.6209036   -2.6209036   -1.9385688  0.025967227   -2.6209036   0.68233479   298241 
23710000   0.38368787   -2.6183392   -2.6183392   -1.9363873  0.031355798   -2.6183392   0.68195192   298187 
23720000   0.38412451   -2.6232097   -2.6232097    -1.940358   0.03108147   -2.6232097   0.68285166   298133 
23730000   0.38313513   -2.6207106   -2.6207106   -1.9394944  0.022458496   -2.6207106   0.68121623   298079 
23740000   0.38384154   -2.6205243   -2.6205243   -1.9379283  0.025446448   -2.6205243    0.6825959   298025 
23750000   0.38333387   -2.6192508   -2.6192508   -1.9374342  0.021693941   -2.6192508   0.68181663   297971 
23760000   0.38321193   -2.6214952   -2.6214952   -1.9397719  0.031360018   -2.6214952   0.68172329   297917 
23770000   0.38330445   -2.6212418   -2.6212418   -1.9392303  0.024201483   -2.6212418   0.68201151   297863 
23780000   0.38261094    -2.620219    -2.620219    -1.939318  0.037157124    -2.620219   0.68090098   297809 
23790000   0.38182908   -2.6207744   -2.6207744   -1.9411416  0.027317917   -2.6207744   0.67963281   297755 
23800000   0.38229713   -2.6220084   -2.6220084   -1.9414191  0.025256709   -2.6220084   0.68058935   297701 
23810000     0.381992   -2.6229022   -2.6229022   -1.9427327  0.031223803   -2.6229022   0.68016951   297647 
23820000   0.38297696   -2.6238192   -2.6238192   -1.9417721   0.02663339   -2.6238192   0.68204706   297593 
23830000   0.38320262   -2.6214171   -2.6214171   -1.9388443  0.024054078   -2.6214171   0.68257278   297539 
23840000   0.38283154   -2.6235926   -2.6235926   -1.9415571  0.032206801   -2.6235926   0.68203558   297485 
23850000   0.38260083    -2.623902    -2.623902   -1.9421537  0.032598345    -2.623902   0.68174832   297431 
23860000   0.38332248   -2.6231648   -2.6231648   -1.9400066  0.028652167   -2.6231648   0.68315823   297377 
23870000   0.38358612   -2.6223662   -2.6223662   -1.9386116  0.028653411   -2.6223662   0.68375456   297322 
23880000     0.381965   -2.6219364   -2.6219364   -1.9409479  0.024631817   -2.6219364   0.68098855   297268 
23890000   0.38114789   -2.6229194   -2.6229194   -1.9432642   0.03833263   -2.6229194   0.67965521   297214 
23900000   0.38300545   -2.6240952   -2.6240952   -1.9410035  0.030266237   -2.6240952   0.68309169   297160 
23910000   0.38201275   -2.6230971   -2.6230971    -1.941652  0.032163517   -2.6230971   0.68144504   297106 
23920000   0.38227495   -2.6227954   -2.6227954   -1.9407587  0.025988778   -2.6227954   0.68203672   297052 
23930000   0.38295706     -2.62415     -2.62415   -1.9407721  0.031357965     -2.62415   0.68337794   296998 
23940000    0.3814588   -2.6220474   -2.6220474   -1.9412193  0.035080513   -2.6220474   0.68082811   296944 
23950000   0.38262467   -2.6212916   -2.6212916   -1.9382584  0.036084429   -2.6212916   0.68303317   296890 
23960000   0.38130897   -2.6208348   -2.6208348   -1.9400265  0.030285467   -2.6208348   0.68080832   296836 
23970000   0.38186763   -2.6213895   -2.6213895   -1.9394597  0.024454918   -2.6213895   0.68192983   296782 
23980000   0.38148488   -2.6218894   -2.6218894   -1.9405191  0.036950881   -2.6218894    0.6813703   296728 
23990000   0.38125029   -2.6233286   -2.6233286   -1.9422534  0.031779834   -2.6233286   0.68107524   296674 
24000000   0.38098427   -2.6248176   -2.6248176   -1.9440937  0.023126599   -2.6248176   0.68072393   296620 
24010000   0.38000773   -2.6237784   -2.6237784   -1.9446756  0.036390606   -2.6237784   0.67910272   296566 
24020000   0.38135144   -2.6243452   -2.6243452    -1.942717  0.029955467   -2.6243452   0.68162814   296512 
24030000   0.38026612    -2.622986    -2.622986    -1.943174  0.028907839    -2.622986   0.67981205   296458 
24040000    0.3809998   -2.6251298   -2.6251298    -1.943882  0.029447279   -2.6251298   0.68124776   296404 
24050000    0.3807959   -2.6252764   -2.6252764   -1.9442669  0.032756397   -2.6252764   0.68100954   296349 
24060000   0.37984734   -2.6241895   -2.6241895   -1.9447526  0.029327988   -2.6241895   0.67943695   296295 
24070000   0.37988558   -2.6239454   -2.6239454   -1.9443162  0.031594505   -2.6239454   0.67962922   296241 
24080000   0.37985033   -2.6225703   -2.6225703   -1.9428802  0.033474596   -2.6225703   0.67969004   296187 
24090000   0.38035365   -2.6229802   -2.6229802   -1.9422654  0.030886788   -2.6229802   0.68071478   296133 
24100000   0.38126507   -2.6252351   -2.6252351   -1.9427648  0.032266011   -2.6252351   0.68247039   296079 
24110000   0.37951507   -2.6243579   -2.6243579   -1.9448961  0.032891238   -2.6243579   0.67946177   296025 
24120000   0.38067366   -2.6249766   -2.6249766   -1.9433162   0.02970499   -2.6249766   0.68166039   295971 
24130000   0.38039669   -2.6246614   -2.6246614   -1.9433727  0.029216039   -2.6246614   0.68128874   295917 
24140000   0.37944827   -2.6239972   -2.6239972    -1.944283  0.028789557   -2.6239972   0.67971415   295863 
24150000   0.37928167   -2.6226539   -2.6226539   -1.9431142   0.02468616   -2.6226539   0.67953975   295809 
24160000   0.38019847   -2.6233799   -2.6233799   -1.9420732  0.035296864   -2.6233799   0.68130671   295755 
24170000   0.37893796   -2.6201598   -2.6201598   -1.9409879  0.032160776   -2.6201598   0.67917192   295701 
24180000   0.37949607   -2.6225403   -2.6225403   -1.9422439  0.032346509   -2.6225403   0.68029645   295647 
24190000   0.37907704   -2.6235403   -2.6235403   -1.9438709  0.028784718   -2.6235403   0.67966942   295593 
24200000   0.37957391   -2.6247837   -2.6247837   -1.9440991  0.026802171   -2.6247837   0.68068464   295539 
24210000   0.37989526   -2.6258938   -2.6258938   -1.9445084  0.039209444   -2.6258938   0.68138541   295485 
24220000   0.37787823   -2.6218841   -2.6218841   -1.9439925  0.035565678   -2.6218841   0.67789152   295431 
24230000    0.3787284   -2.6228781   -2.6228781   -1.9433373   0.03424341   -2.6228781   0.67954089   295377 
24240000   0.37915258   -2.6235625   -2.6235625   -1.9431339  0.038314001   -2.6235625   0.68042868   295322 
24250000   0.37937554   -2.6245988   -2.6245988   -1.9436454  0.035489475   -2.6245988   0.68095332   295268 
24260000   0.37867978   -2.6247846   -2.6247846   -1.9449558  0.039070511   -2.6247846   0.67982881   295214 
24270000   0.37748686    -2.622566    -2.622566   -1.9447548  0.027314941    -2.622566   0.67781119   295160 
24280000   0.37890925   -2.6235242   -2.6235242   -1.9430344  0.030377441   -2.6235242   0.68048972   295106 
24290000   0.37822527   -2.6244454   -2.6244454   -1.9450598   0.03384359   -2.6244454   0.67938566   295052 
24300000   0.37893441    -2.624411    -2.624411    -1.943627  0.030130532    -2.624411   0.68078405   294998 
24310000   0.37752799   -2.6236295   -2.6236295    -1.945248  0.031433396   -2.6236295   0.67838149   294944 
24320000   0.37796011   -2.6261443   -2.6261443    -1.946862  0.035764194   -2.6261443   0.67928234   294890 
24330000    0.3786861    -2.627395    -2.627395   -1.9466833  0.022155851    -2.627395   0.68071176   294836 
24340000   0.37890899   -2.6257907   -2.6257907   -1.9445535  0.031938014   -2.6257907   0.68123718   294782 
24350000   0.37855127   -2.6263614   -2.6263614   -1.9456427  0.019916301   -2.6263614   0.68071874   294728 
24360000   0.37875794   -2.6260453   -2.6260453   -1.9448301  0.034309302   -2.6260453    0.6812152   294674 
24370000   0.37837096   -2.6241542   -2.6241542   -1.9435103  0.028262641   -2.6241542   0.68064392   294620 
24380000   0.37820558   -2.6226679   -2.6226679   -1.9421968  0.020480578   -2.6226679   0.68047114   294566 
24390000    0.3779967   -2.6244107   -2.6244107   -1.9441907   0.02703021   -2.6244107   0.68022001   294512 
24400000   0.37810684   -2.6235825   -2.6235825   -1.9430394  0.035108643   -2.6235825   0.68054301   294458 
24410000   0.37745075   -2.6213853   -2.6213853   -1.9418986  0.031050532   -2.6213853   0.67948674   294404 
24420000   0.37872164   -2.6260434   -2.6260434   -1.9441414  0.026633927   -2.6260434   0.68190198   294349 
24430000   0.37664498    -2.623395    -2.623395   -1.9451077  0.029052455    -2.623395   0.67828733   294295 
24440000   0.37716678   -2.6217959   -2.6217959   -1.9424442  0.028618966   -2.6217959   0.67935167   294241 
24450000   0.37762186   -2.6238155   -2.6238155   -1.9435193  0.025321031   -2.6238155   0.68029621   294187 
24460000   0.37676861   -2.6243489   -2.6243489   -1.9454653  0.036868961   -2.6243489   0.67888366   294133 
24470000   0.37679141   -2.6246138   -2.6246138   -1.9455644  0.027641363   -2.6246138   0.67904941   294079 
24480000   0.37695827   -2.6234287   -2.6234287   -1.9439538  0.030517232   -2.6234287   0.67947489   294025 
24490000   0.37629257    -2.625019    -2.625019   -1.9466195  0.031526031    -2.625019   0.67839955   293971 
24500000   0.37651244    -2.622995    -2.622995   -1.9440743  0.026628473    -2.622995   0.67892065   293917 
24510000   0.37590997   -2.6216379   -2.6216379   -1.9436791  0.029927225   -2.6216379   0.67795885   293863 
24520000   0.37613891   -2.6213026   -2.6213026   -1.9428062  0.030274101   -2.6213026   0.67849643   293809 
24530000    0.3761466   -2.6207914   -2.6207914   -1.9421564  0.030217131   -2.6207914   0.67863502   293755 
24540000   0.37759862   -2.6225533   -2.6225533   -1.9411733  0.028378942   -2.6225533   0.68137998   293701 
24550000   0.37652758   -2.6208616   -2.6208616   -1.9412894  0.036058777   -2.6208616   0.67957223   293647 
24560000   0.37593859   -2.6189021   -2.6189021   -1.9402681  0.040514526   -2.6189021     0.678634   293593 
24570000   0.37668423   -2.6182968   -2.6182968   -1.9381917  0.036645956   -2.6182968   0.68010509   293539 
24580000   0.37580493   -2.6177973   -2.6177973   -1.9391549  0.016704252   -2.6177973   0.67864236   293485 
24590000   0.37665889   -2.6200369   -2.6200369   -1.9397272  0.035710383   -2.6200369   0.68030965   293431 
24600000    0.3745856   -2.6189688   -2.6189688   -1.9422793  0.034314928   -2.6189688   0.67668946   293377 
24610000   0.37594409   -2.6199282   -2.6199282   -1.9406573  0.041000918   -2.6199282   0.67927092   293322 
24620000   0.37558637   -2.6190587   -2.6190587   -1.9403091  0.035285174   -2.6190587   0.67874954   293268 
24630000   0.37572572   -2.6199606   -2.6199606   -1.9408342  0.029187882   -2.6199606   0.67912641   293214 
24640000   0.37549372    -2.619887    -2.619887   -1.9410549  0.023368698    -2.619887   0.67883208   293160 
24650000   0.37605295   -2.6229548   -2.6229548   -1.9429865  0.035451197   -2.6229548   0.67996834   293106 
24660000     0.374818   -2.6212414   -2.6212414   -1.9433812  0.032556446   -2.6212414   0.67786021   293052 
24670000   0.37528266   -2.6210336   -2.6210336    -1.942208  0.031973457   -2.6210336   0.67882564   292998 
24680000   0.37592787   -2.6245703   -2.6245703   -1.9444522  0.032023241   -2.6245703   0.68011808   292944 
24690000    0.3740147   -2.6189649   -2.6189649   -1.9421834  0.034009407   -2.6189649   0.67678156   292890 
24700000   0.37433024   -2.6236808   -2.6236808   -1.9462034     0.024488   -2.6236808   0.67747746   292836 
24710000   0.37482492   -2.6207141   -2.6207141   -1.9422163  0.033822572   -2.6207141   0.67849787   292782 
24720000   0.37484402    -2.621008    -2.621008   -1.9423504  0.026366421    -2.621008    0.6786576   292728 
24730000    0.3750278   -2.6207951   -2.6207951   -1.9416794  0.032342882   -2.6207951   0.67911562   292674 
24740000   0.37450135   -2.6227262   -2.6227262   -1.9444387  0.020715882   -2.6227262   0.67828745   292620 
24750000   0.37506758   -2.6247071   -2.6247071   -1.9452688  0.028647675   -2.6247071   0.67943837   292566 
24760000   0.37460484   -2.6238905   -2.6238905   -1.9451651  0.028966078   -2.6238905   0.67872539   292512 
24770000   0.37492537   -2.6224302   -2.6224302   -1.9429987  0.031438876   -2.6224302   0.67943156   292458 
24780000   0.37420363   -2.6214345   -2.6214345   -1.9431856   0.03365654   -2.6214345   0.67824887   292404 
24790000    0.3746255   -2.6250906   -2.6250906   -1.9459493  0.033586973   -2.6250906   0.67914126   292349 
24800000   0.37329059   -2.6220681   -2.6220681   -1.9452218  0.024129047   -2.6220681    0.6768463   292295 
24810000   0.37385502   -2.6252523   -2.6252523   -1.9472573   0.03465533   -2.6252523   0.67799497   292241 
24820000   0.37325523   -2.6236403   -2.6236403   -1.9466079  0.035202842   -2.6236403   0.67703233   292187 
24830000   0.37365201    -2.624195    -2.624195   -1.9463177  0.030225255    -2.624195   0.67787731   292133 
24840000   0.37347612   -2.6241269   -2.6241269   -1.9464434  0.032882941   -2.6241269   0.67768349   292079 
24850000   0.37241937   -2.6214626   -2.6214626   -1.9455716  0.034500976   -2.6214626   0.67589095   292025 
24860000   0.37265484   -2.6238913   -2.6238913   -1.9474479  0.029441215   -2.6238913   0.67644337   291971 
24870000   0.37252815   -2.6247799   -2.6247799   -1.9484414  0.035838383   -2.6247799    0.6763385   291917 
24880000   0.37264165   -2.6258179   -2.6258179   -1.9491482  0.030912248   -2.6258179   0.67666973   291863 
24890000   0.37288736   -2.6255758   -2.6255758   -1.9483346  0.023779085   -2.6255758   0.67724121   291809 
24900000   0.37360005    -2.626675    -2.626675   -1.9480138  0.028681014    -2.626675   0.67866119   291755 
24910000   0.37195115   -2.6235562   -2.6235562   -1.9477652  0.031235172   -2.6235562   0.67579097   291701 
24920000   0.37326877   -2.6231593   -2.6231593   -1.9448488  0.024151954   -2.6231593   0.67831049   291647 
24930000    0.3727193     -2.62078     -2.62078   -1.9433426  0.035270196     -2.62078   0.67743743   291593 
24940000   0.37235009   -2.6216165   -2.6216165   -1.9447248  0.033643278   -2.6216165   0.67689172   291539 
24950000   0.37183707   -2.6224088   -2.6224088   -1.9463245  0.022970205   -2.6224088   0.67608433   291485 
24960000    0.3721203    -2.620544    -2.620544   -1.9438193  0.028717885    -2.620544   0.67672468   291431 
24970000   0.37258996   -2.6233756   -2.6233756   -1.9456712  0.026692486   -2.6233756   0.67770435   291377 
24980000   0.37158844   -2.6220558   -2.6220558   -1.9460455  0.028045086   -2.6220558    0.6760103   291322 
24990000   0.37140081   -2.6206127   -2.6206127   -1.9448185  0.024727874   -2.6206127   0.67579421   291268 
25000000   0.37237574   -2.6207442   -2.6207442   -1.9430504   0.03414428   -2.6207442   0.67769383   291214 
25010000   0.37201413   -2.6204367   -2.6204367   -1.9432754  0.029288655   -2.6204367   0.67716129   291160 
25020000   0.37179484   -2.6201472   -2.6201472   -1.9432596  0.024261532   -2.6201472   0.67688766   291106 
25030000   0.37190785   -2.6204255   -2.6204255   -1.9432065   0.02098227   -2.6204255   0.67721904   291052 
25040000   0.37146965    -2.618929    -2.618929   -1.9423824  0.020512587    -2.618929   0.67654662   290998 
25050000   0.37224124    -2.619705    -2.619705   -1.9416273  0.015063236    -2.619705   0.67807772   290944 
25060000   0.37096816   -2.6195549   -2.6195549   -1.9436708  0.030489182   -2.6195549   0.67588411   290890 
25070000   0.37165554   -2.6185798   -2.6185798   -1.9413176  0.022066928   -2.6185798   0.67726221   290836 
25080000    0.3704538   -2.6178562   -2.6178562   -1.9426585  0.022797441   -2.6178562   0.67519767   290782 
25090000   0.37122735   -2.6167705   -2.6167705   -1.9400373  0.029002572   -2.6167705   0.67673323   290728 
25100000    0.3707347   -2.6210619   -2.6210619   -1.9451012  0.030317182   -2.6210619    0.6759607   290674 
25110000   0.37048192   -2.6194571   -2.6194571   -1.9438318  0.024429138   -2.6194571   0.67562532   290620 
25120000   0.37016936   -2.6185099   -2.6185099   -1.9433292  0.018174247   -2.6185099   0.67518078   290566 
25130000   0.37077383   -2.6192029   -2.6192029   -1.9427939  0.018547757   -2.6192029   0.67640902   290512 
25140000   0.37112482   -2.6214463   -2.6214463   -1.9442711  0.030319373   -2.6214463   0.67717522   290458 
25150000   0.37032071   -2.6210669   -2.6210669   -1.9452332  0.025760379   -2.6210669   0.67583364   290404 
25160000   0.37218304   -2.6207628   -2.6207628   -1.9414018  0.034100455   -2.6207628   0.67936104   290349 
25170000   0.37043683   -2.6208419   -2.6208419   -1.9445425  0.020326059   -2.6208419   0.67629939   290295 
25180000   0.37035299   -2.6206649   -2.6206649   -1.9443928  0.026234944   -2.6206649   0.67627214   290241 
25190000   0.36995205   -2.6212243   -2.6212243   -1.9455586  0.024222366   -2.6212243   0.67566571   290187 
25200000    0.3696048   -2.6233075   -2.6233075   -1.9481504  0.026992348   -2.6233075   0.67515716   290133 
25210000   0.36999462   -2.6213644   -2.6213644   -1.9453693  0.034270305   -2.6213644   0.67599505   290079 
25220000   0.36962213   -2.6232123   -2.6232123   -1.9477721  0.027980318   -2.6232123   0.67544024   290025 
25230000   0.36939109   -2.6213352   -2.6213352   -1.9461915  0.032375689   -2.6213352   0.67514373   289971 
25240000   0.36920247   -2.6236064   -2.6236064   -1.9486817  0.029100157   -2.6236064   0.67492469   289917 
25250000   0.36918263   -2.6216613   -2.6216613   -1.9466472  0.045084492   -2.6216613   0.67501415   289863 
25260000   0.36935907   -2.6243229   -2.6243229   -1.9488603  0.029860538   -2.6243229   0.67546259   289809 
25270000   0.36981242     -2.62167     -2.62167   -1.9452523  0.027473676     -2.62167   0.67641768   289755 
25280000   0.36924747   -2.6228281   -2.6228281   -1.9473179  0.027416965   -2.6228281   0.67551024   289701 
25290000    0.3688021   -2.6232485   -2.6232485   -1.9484273  0.025610565   -2.6232485   0.67482125   289647 
25300000   0.36832407   -2.6214277   -2.6214277   -1.9473554  0.029247739   -2.6214277   0.67407223   289593 
25310000    0.3685937   -2.6208394   -2.6208394   -1.9461479  0.021964542   -2.6208394    0.6746915   289539 
25320000    0.3688283   -2.6202756   -2.6202756   -1.9450287  0.031046639   -2.6202756   0.67524685   289485 
25330000   0.36847665   -2.6195037   -2.6195037   -1.9447748  0.024812885   -2.6195037   0.67472892   289431 
25340000   0.36910491    -2.620203    -2.620203   -1.9441975  0.030371825    -2.620203   0.67600547   289377 
25350000   0.36835985   -2.6208873   -2.6208873   -1.9461182  0.016825928   -2.6208873   0.67476916   289322 
25360000   0.36854126   -2.6204111   -2.6204111   -1.9451836  0.030994651   -2.6204111   0.67522751   289268 
25370000   0.36876513   -2.6229314   -2.6229314   -1.9471676  0.025489175   -2.6229314   0.67576382   289214 
25380000   0.36883711   -2.6227641   -2.6227641   -1.9467422   0.03253069   -2.6227641   0.67602194   289160 
25390000   0.36847669   -2.6195413   -2.6195413   -1.9440538  0.028430613   -2.6195413    0.6754875   289106 
25400000   0.36830886   -2.6196108   -2.6196108   -1.9443048  0.033341369   -2.6196108   0.67530596   289052 
25410000   0.36765508   -2.6198842   -2.6198842   -1.9456511  0.033967767   -2.6198842   0.67423319   288998 
25420000   0.36879998   -2.6222316   -2.6222316   -1.9457724  0.023021698   -2.6222316   0.67645919   288944 
25430000   0.36726109     -2.62019     -2.62019   -1.9464276  0.028901074     -2.62019   0.67376246   288890 
25440000   0.36842107   -2.6219374   -2.6219374   -1.9459205  0.033302404   -2.6219374   0.67601687   288836 
25450000   0.36724373   -2.6214714   -2.6214714   -1.9474888  0.031482687   -2.6214714   0.67398258   288782 
25460000   0.36804258   -2.6214897   -2.6214897   -1.9459147   0.03051504   -2.6214897   0.67557499   288728 
25470000   0.36694656   -2.6225933   -2.6225933   -1.9489041  0.022129327   -2.6225933   0.67368914   288674 
25480000   0.36756666   -2.6225381   -2.6225381   -1.9475842  0.018119852   -2.6225381   0.67495387   288620 
25490000    0.3673276   -2.6231075   -2.6231075   -1.9484664   0.02752092   -2.6231075   0.67464111   288566 
25500000   0.36601969   -2.6212171   -2.6212171   -1.9488524  0.035168224   -2.6212171   0.67236479   288512 
25510000   0.36620158   -2.6237347   -2.6237347   -1.9509098  0.023342678   -2.6237347   0.67282485   288458 
25520000   0.36695786   -2.6224598   -2.6224598   -1.9481192  0.027324856   -2.6224598   0.67434061   288404 
25530000   0.36621447    -2.623351    -2.623351   -1.9502481  0.027227548    -2.623351   0.67310287   288349 
25540000   0.36613621   -2.6223469   -2.6223469   -1.9492618  0.038077082   -2.6223469   0.67308508   288295 
25550000     0.366775   -2.6225028   -2.6225028   -1.9481171  0.024816197   -2.6225028   0.67438571   288241 
25560000    0.3674955   -2.6206047   -2.6206047   -1.9447676  0.025190498   -2.6206047   0.67583711   288187 
25570000   0.36676684    -2.619336    -2.619336   -1.9447125  0.024764554    -2.619336   0.67462349   288133 
25580000   0.36719921    -2.621256    -2.621256   -1.9457106  0.035130332    -2.621256   0.67554539   288079 
25590000   0.36702869   -2.6215736   -2.6215736   -1.9462153  0.029085583   -2.6215736   0.67535828   288025 
25600000   0.36739961   -2.6211819   -2.6211819   -1.9450143  0.026526715   -2.6211819   0.67616756   287971 
25610000   0.36670849   -2.6205654   -2.6205654   -1.9455432  0.035289783   -2.6205654    0.6750222   287917 
25620000   0.36547666   -2.6221108   -2.6221108   -1.9492299  0.027725242   -2.6221108   0.67288089   287863 
25630000   0.36675871   -2.6226658   -2.6226658   -1.9472978  0.031264454   -2.6226658   0.67536798   287809 
25640000   0.36651126    -2.621822    -2.621822    -1.946783  0.029996173    -2.621822   0.67503897   287755 
25650000    0.3667514   -2.6213613   -2.6213613   -1.9457532  0.030476513   -2.6213613   0.67560804   287701 
25660000   0.36559883   -2.6203917   -2.6203917   -1.9467804  0.034128231   -2.6203917   0.67361128   287647 
25670000   0.36541938   -2.6188623   -2.6188623   -1.9454552  0.027597835   -2.6188623   0.67340706   287593 
25680000   0.36505073   -2.6207878   -2.6207878   -1.9479338  0.027970238   -2.6207878   0.67285403   287539 
25690000   0.36609869   -2.6210711   -2.6210711   -1.9461588  0.019847977   -2.6210711   0.67491237   287485 
25700000   0.36559116   -2.6230096   -2.6230096   -1.9489062  0.029470011   -2.6230096   0.67410333   287431 
25710000   0.36556533   -2.6213148   -2.6213148   -1.9471325   0.02651794   -2.6213148   0.67418237   287377 
25720000   0.36453088   -2.6222099   -2.6222099   -1.9498066  0.031237032   -2.6222099   0.67240331   287322 
25730000     0.365199   -2.6220514   -2.6220514   -1.9482891  0.026965406   -2.6220514   0.67376233   287268 
25740000   0.36490123    -2.623212    -2.623212   -1.9498724  0.026024513    -2.623212   0.67333953   287214 
25750000   0.36594458   -2.6237259   -2.6237259   -1.9483341  0.032863094   -2.6237259   0.67539178   287160 
25760000   0.36503059   -2.6228862   -2.6228862   -1.9490545   0.03977023   -2.6228862   0.67383163   287106 
25770000   0.36439959   -2.6215524   -2.6215524    -1.948759  0.028413622   -2.6215524   0.67279337   287052 
25780000   0.36422137   -2.6220609   -2.6220609   -1.9494701  0.025686332   -2.6220609   0.67259085   286998 
25790000   0.36431216   -2.6228299   -2.6228299   -1.9499448  0.029372217   -2.6228299    0.6728851   286944 
25800000   0.36421839   -2.6221984   -2.6221984   -1.9493598  0.022410344   -2.6221984   0.67283854   286890 
25810000   0.36422776   -2.6203579   -2.6203579   -1.9473754  0.014569228   -2.6203579   0.67298252   286836 
25820000   0.36468405   -2.6223099   -2.6223099   -1.9483574   0.02339734   -2.6223099   0.67395249   286782 
25830000   0.36499992   -2.6241537   -2.6241537   -1.9494904  0.023474512   -2.6241537   0.67466327   286728 
25840000   0.36430605   -2.6227283   -2.6227283   -1.9492207  0.028381681   -2.6227283   0.67350756   286674 
25850000   0.36425364   -2.6221935   -2.6221935   -1.9486559   0.02801975   -2.6221935   0.67353754   286620 
25860000   0.36475646    -2.624008    -2.624008   -1.9494136  0.028783533    -2.624008   0.67459439   286566 
25870000   0.36516043   -2.6230353   -2.6230353   -1.9475665  0.026280557   -2.6230353   0.67546879   286512 
25880000   0.36418053   -2.6196832   -2.6196832      -1.9459   0.02442792   -2.6196832   0.67378317   286458 
25890000   0.36436158   -2.6221744   -2.6221744   -1.9479291  0.033849398   -2.6221744   0.67424525   286404 
25900000   0.36305872   -2.6196025   -2.6196025   -1.9476391  0.025165001   -2.6196025   0.67196336   286349 
25910000   0.36372139    -2.621036    -2.621036   -1.9477192  0.025528935    -2.621036   0.67331685   286295 
25920000   0.36267594   -2.6193753   -2.6193753   -1.9478672  0.025480036   -2.6193753   0.67150817   286241 
25930000   0.36270363   -2.6189933   -2.6189933   -1.9473072   0.03918234   -2.6189933   0.67168615   286187 
25940000   0.36352129   -2.6208478   -2.6208478   -1.9475203  0.024464345   -2.6208478   0.67332743   286133 
25950000   0.36269427   -2.6207358   -2.6207358   -1.9488134   0.02786544   -2.6207358   0.67192239   286079 
25960000   0.36373889   -2.6234799   -2.6234799    -1.949495  0.025834483   -2.6234799   0.67398485   286025 
25970000   0.36314746   -2.6207769   -2.6207769   -1.9477609  0.021149807   -2.6207769   0.67301605   285971 
25980000   0.36321461   -2.6213614   -2.6213614   -1.9480938  0.027578011   -2.6213614   0.67326763   285917 
25990000   0.36286208   -2.6207412   -2.6207412       -1.948   0.02844761   -2.6207412   0.67274122   285863 
26000000   0.36301778   -2.6188944   -2.6188944   -1.9457373  0.036480508   -2.6188944   0.67315704   285809 
26010000   0.36338083   -2.6204408   -2.6204408   -1.9464831  0.036867145   -2.6204408    0.6739576   285755 
26020000    0.3628042   -2.6188617   -2.6188617   -1.9458463  0.035478432   -2.6188617   0.67301531   285701 
26030000   0.36258425      -2.6184      -2.6184   -1.9456656  0.026624326      -2.6184   0.67273444   285647 
26040000   0.36228829   -2.6179597   -2.6179597   -1.9456473  0.023734614   -2.6179597   0.67231243   285593 
26050000   0.36300497   -2.6214226   -2.6214226   -1.9476528  0.032160734   -2.6214226   0.67376979   285539 
26060000   0.36308545   -2.6174372   -2.6174372   -1.9433906  0.031848424   -2.6174372   0.67404664   285485 
26070000   0.36251325   -2.6172525   -2.6172525   -1.9441408  0.031604614   -2.6172525    0.6731117   285431 
26080000   0.36113784   -2.6172477   -2.6172477   -1.9465629  0.031002075   -2.6172477   0.67068475   285377 
26090000   0.36106344   -2.6160935   -2.6160935   -1.9454177   0.02673565   -2.6160935   0.67067583   285322 
26100000   0.36217467   -2.6195633   -2.6195633    -1.946696  0.026117635   -2.6195633   0.67286728   285268 
26110000   0.36221394   -2.6177237   -2.6177237   -1.9446561   0.03300609   -2.6177237   0.67306765   285214 
26120000   0.36196436   -2.6168882   -2.6168882    -1.944157  0.022598058   -2.6168882   0.67273124   285160 
26130000   0.36197081   -2.6184661   -2.6184661   -1.9455954  0.028219697   -2.6184661   0.67287066   285106 
26140000   0.36169155   -2.6171387   -2.6171387   -1.9446598  0.039212407   -2.6171387   0.67247891   285052 
26150000   0.36042761   -2.6181586   -2.6181586   -1.9479028  0.028339283   -2.6181586   0.67025588   284998 
26160000   0.35968063   -2.6177395   -2.6177395   -1.9487459  0.029538555   -2.6177395   0.66899356   284944 
26170000   0.36049474   -2.6177595   -2.6177595   -1.9471247  0.030554667   -2.6177595   0.67063486   284890 
26180000   0.36015938   -2.6160885   -2.6160885   -1.9459505  0.027483185   -2.6160885     0.670138   284836 
26190000   0.35991612   -2.6162551   -2.6162551   -1.9464427   0.02429888   -2.6162551   0.66981237   284782 
26200000   0.36066023   -2.6147523   -2.6147523   -1.9434278  0.023887353   -2.6147523   0.67132447   284728 
26210000   0.36048389   -2.6155814   -2.6155814   -1.9444579  0.023663207   -2.6155814   0.67112351   284674 
26220000   0.36034147    -2.615635    -2.615635   -1.9446493  0.032854037    -2.615635   0.67098565   284620 
26230000   0.36083272    -2.617878    -2.617878   -1.9458502  0.030766425    -2.617878   0.67202789   284566 
26240000   0.36065772   -2.6176204   -2.6176204   -1.9457909  0.037664513   -2.6176204   0.67182946   284512 
26250000   0.35985034   -2.6182802   -2.6182802   -1.9478275  0.018640985   -2.6182802   0.67045272   284458 
26260000   0.36020132   -2.6209619   -2.6209619   -1.9497279  0.023998804   -2.6209619   0.67123408   284404 
26270000   0.35883715    -2.620861    -2.620861   -1.9520397  0.029345805    -2.620861   0.66882129   284349 
26280000   0.35867968   -2.6200199   -2.6200199   -1.9513651  0.031974873   -2.6200199   0.66865477   284295 
26290000    0.3590961   -2.6203562   -2.6203562   -1.9507979  0.022682057   -2.6203562   0.66955825   284241 
26300000   0.36028131   -2.6209351   -2.6209351   -1.9490393    0.0252472   -2.6209351   0.67189579   284187 
26310000   0.35938849   -2.6190491   -2.6190491    -1.948691  0.028940639   -2.6190491   0.67035814   284133 
26320000   0.36082236   -2.6187715   -2.6187715   -1.9456109  0.032731647   -2.6187715   0.67316063   284079 
26330000   0.36009389   -2.6169901   -2.6169901   -1.9450608  0.028852307   -2.6169901   0.67192931   284025 
26340000   0.35988993   -2.6200269   -2.6200269   -1.9483504  0.036563066   -2.6200269   0.67167642   283971 
26350000   0.35882422   -2.6175102   -2.6175102   -1.9476954  0.026520318   -2.6175102   0.66981481   283917 
26360000   0.36073084   -2.6197075   -2.6197075   -1.9462055  0.032343665   -2.6197075     0.673502   283863 
26370000   0.35964177   -2.6182209   -2.6182209   -1.9466245  0.028993573   -2.6182209    0.6715964   283809 
26380000   0.36010057   -2.6189399   -2.6189399   -1.9463587  0.024708024   -2.6189399   0.67258114   283755 
26390000   0.35963485   -2.6193255   -2.6193255   -1.9474864   0.03032281   -2.6193255   0.67183914   283701 
26400000   0.35890419   -2.6181108   -2.6181108   -1.9475089  0.028320326   -2.6181108   0.67060182   283647 
26410000   0.35834515      -2.6192      -2.6192   -1.9495152  0.030142221      -2.6192   0.66968477   283593 
26420000   0.35939823   -2.6185856   -2.6185856   -1.9468049  0.025853435   -2.6185856   0.67178071   283539 
26430000   0.35806698   -2.6180234   -2.6180234   -1.9486036  0.034351447   -2.6180234   0.66941985   283485 
26440000   0.35915274   -2.6191478   -2.6191478   -1.9475701  0.026458935   -2.6191478   0.67157765   283431 
26450000   0.35842047   -2.6178774   -2.6178774   -1.9475413  0.029179625   -2.6178774   0.67033609   283377 
26460000   0.35840644   -2.6179592   -2.6179592   -1.9475192  0.029361852   -2.6179592   0.67043998   283322 
26470000   0.35770237   -2.6168461   -2.6168461   -1.9475956  0.035417639   -2.6168461    0.6692505   283268 
26480000   0.35873757   -2.6202826   -2.6202826   -1.9489673  0.036934076   -2.6202826    0.6713153   283214 
26490000   0.35793745    -2.619489    -2.619489   -1.9495432  0.025974515    -2.619489   0.66994575   283160 
26500000   0.35837908   -2.6195162   -2.6195162   -1.9486159  0.026900448   -2.6195162   0.67090027   283106 
26510000    0.3580259    -2.619829    -2.619829    -1.949462  0.032853943    -2.619829   0.67036698   283052 
26520000    0.3572273   -2.6171657   -2.6171657   -1.9481664  0.028058666   -2.6171657   0.66899931   282998 
26530000   0.35767143   -2.6198534   -2.6198534   -1.9498945  0.025728623   -2.6198534    0.6699589   282944 
26540000   0.35916505   -2.6217211   -2.6217211   -1.9488361  0.026819675   -2.6217211   0.67288504   282890 
26550000   0.35758534   -2.6192245   -2.6192245   -1.9491711  0.027123995   -2.6192245   0.67005341   282836 
26560000   0.35725425   -2.6180988   -2.6180988    -1.948538  0.030111183   -2.6180988   0.66956083   282782 
26570000   0.35800394   -2.6191717   -2.6191717   -1.9480777  0.033525969   -2.6191717   0.67109405   282728 
26580000   0.35835345   -2.6208367   -2.6208367   -1.9489591  0.025867902   -2.6208367   0.67187755   282674 
26590000   0.35752192   -2.6164135   -2.6164135   -1.9459669  0.031056103   -2.6164135   0.67044659   282620 
26600000   0.35746995   -2.6172055   -2.6172055   -1.9467283  0.040097873   -2.6172055   0.67047723   282566 
26610000   0.35813738   -2.6201513   -2.6201513   -1.9482938  0.021374012   -2.6201513   0.67185746   282512 
26620000   0.35799728   -2.6208858   -2.6208858   -1.9491628   0.02366967   -2.6208858   0.67172303   282458 
26630000   0.35778512    -2.620955    -2.620955   -1.9495017  0.030215209    -2.620955   0.67145332   282404 
26640000   0.35747747   -2.6186905   -2.6186905   -1.9476839  0.038973804   -2.6186905   0.67100664   282349 
26650000   0.35705512   -2.6182349   -2.6182349   -1.9478928  0.029372985   -2.6182349   0.67034207   282295 
26660000   0.35763002   -2.6205483   -2.6205483   -1.9489984  0.033942407   -2.6205483   0.67154986   282241 
26670000   0.35653434   -2.6160704   -2.6160704   -1.9464499  0.027725694   -2.6160704   0.66962052   282187 
26680000   0.35734836   -2.6189618   -2.6189618   -1.9476839  0.032151043   -2.6189618   0.67127783   282133 
26690000   0.35767723   -2.6163904   -2.6163904   -1.9443662  0.027964883   -2.6163904   0.67202423   282079 
26700000   0.35610953   -2.6178252   -2.6178252   -1.9486183  0.020042448   -2.6178252   0.66920685   282025 
26710000   0.35640529   -2.6181169   -2.6181169    -1.948226  0.038559441   -2.6181169   0.66989092   281971 
26720000   0.35566695   -2.6176537   -2.6176537   -1.9490225  0.028456579   -2.6176537   0.66863121   281917 
26730000   0.35611315   -2.6190365   -2.6190365   -1.9494382  0.024863144   -2.6190365    0.6695983   281863 
26740000   0.35563421   -2.6182512   -2.6182512   -1.9494253  0.032240328   -2.6182512   0.66882588   281809 
26750000   0.35692356   -2.6207783   -2.6207783    -1.949399  0.028752337   -2.6207783   0.67137936   281755 
26760000   0.35550512    -2.619005    -2.619005   -1.9501656  0.025408961    -2.619005   0.66883944   281701 
26770000   0.35668153   -2.6190203   -2.6190203    -1.947839  0.031746928   -2.6190203   0.67118135   281647 
26780000    0.3561043   -2.6207044   -2.6207044   -1.9504807  0.031346309   -2.6207044   0.67022366   281593 
26790000   0.35469015   -2.6189277   -2.6189277   -1.9512375  0.028915606   -2.6189277   0.66769014   281539 
26800000   0.35463664   -2.6170441   -2.6170441   -1.9493266  0.036744713   -2.6170441   0.66771748   281485 
26810000   0.35581795   -2.6195677   -2.6195677   -1.9494975  0.031489615   -2.6195677   0.67007023   281431 
26820000   0.35497543   -2.6190648   -2.6190648   -1.9504529  0.027055307   -2.6190648   0.66861189   281377 
26830000   0.35514413   -2.6217862   -2.6217862   -1.9527257  0.029412982   -2.6217862   0.66906042   281322 
26840000   0.35352084   -2.6151072   -2.6151072    -1.948977  0.037950421   -2.6151072   0.66613016   281268 
26850000   0.35521357   -2.6197647   -2.6197647   -1.9503164  0.031302516   -2.6197647   0.66944824   281214 
26860000   0.35540318   -2.6205254   -2.6205254   -1.9505912  0.029092106   -2.6205254   0.66993423   281160 
26870000   0.35456758   -2.6181807   -2.6181807   -1.9496932  0.027534681   -2.6181807   0.66848752   281106 
26880000   0.35424423   -2.6177034   -2.6177034   -1.9496972  0.020835634   -2.6177034   0.66800621   281052 
26890000   0.35440898   -2.6166216   -2.6166216   -1.9481762  0.033580663   -2.6166216   0.66844532   280998 
26900000   0.35436255   -2.6160268   -2.6160268   -1.9475406  0.028480237   -2.6160268   0.66848622   280944 
26910000   0.35398436   -2.6195255   -2.6195255   -1.9516243  0.020865391   -2.6195255   0.66790115   280890 
26920000   0.35340696   -2.6217426   -2.6217426   -1.9548027  0.032212937   -2.6217426   0.66693993   280836 
26930000   0.35463893    -2.621729    -2.621729   -1.9523354  0.026463205    -2.621729   0.66939358   280782 
26940000   0.35412697   -2.6204055   -2.6204055   -1.9518497  0.038837133   -2.6204055   0.66855581   280728 
26950000   0.35335672   -2.6226477   -2.6226477   -1.9554176  0.031967412   -2.6226477   0.66723001   280674 
26960000   0.35382527   -2.6231673   -2.6231673    -1.954924  0.034518347   -2.6231673   0.66824332   280620 
26970000   0.35356086   -2.6228928   -2.6228928   -1.9550203  0.025744054   -2.6228928   0.66787247   280566 
26980000   0.35340094   -2.6217306   -2.6217306   -1.9540318  0.027224512   -2.6217306   0.66769888   280512 
26990000   0.35396877   -2.6209345   -2.6209345   -1.9520341   0.02770751   -2.6209345   0.66890048   280458 
27000000    0.3542177   -2.6217705   -2.6217705   -1.9522707  0.032189102   -2.6217705    0.6694998   280404 
27010000   0.35290934   -2.6203369   -2.6203369   -1.9531791  0.029683382   -2.6203369   0.66715776   280349 
27020000   0.35325649   -2.6189162   -2.6189162   -1.9509735  0.034398341   -2.6189162   0.66794268   280295 
27030000   0.35342537   -2.6184058   -2.6184058    -1.950015  0.029196131   -2.6184058   0.66839077   280241 
27040000    0.3529291   -2.6200491   -2.6200491   -1.9524683   0.03405037   -2.6200491   0.66758088   280187 
27050000   0.35196791   -2.6183196   -2.6183196   -1.9524286  0.028529898   -2.6183196   0.66589107   280133 
27060000   0.35263069   -2.6179783   -2.6179783   -1.9507047  0.023931695   -2.6179783   0.66727363   280079 
27070000   0.35239765   -2.6176776   -2.6176776   -1.9507163  0.031705969   -2.6176776   0.66696124   280025 
27080000    0.3541665   -2.6207939   -2.6207939   -1.9503556  0.027521067   -2.6207939   0.67043831   279971 
27090000   0.35219078   -2.6176716   -2.6176716   -1.9508447  0.024557323   -2.6176716    0.6668269   279917 
27100000   0.35307861   -2.6193975   -2.6193975   -1.9507607  0.031026862   -2.6193975   0.66863686   279863 
27110000   0.35235782   -2.6164076   -2.6164076   -1.9490069  0.026579061   -2.6164076   0.66740066   279809 
27120000   0.35316711   -2.6180444   -2.6180444   -1.9489817   0.03010726   -2.6180444   0.66906266   279755 
27130000   0.35250814   -2.6192653   -2.6192653   -1.9513221  0.034399551   -2.6192653   0.66794319   279701 
27140000    0.3526632   -2.6169795   -2.6169795   -1.9486134  0.029690459   -2.6169795   0.66836604   279647 
27150000   0.35389105   -2.6221008   -2.6221008   -1.9512782  0.030995199   -2.6221008    0.6708226   279593 
27160000   0.35358353   -2.6196574   -2.6196574   -1.9492882  0.035765739   -2.6196574   0.67036915   279539 
27170000   0.35205465    -2.618014    -2.618014   -1.9504145  0.022861081    -2.618014   0.66759946   279485 
27180000   0.35232964   -2.6182263   -2.6182263   -1.9499762  0.027944275   -2.6182263   0.66825004   279431 
27190000   0.35168094   -2.6158194   -2.6158194   -1.9486708  0.028293912   -2.6158194   0.66714861   279377 
27200000   0.35205296   -2.6181595   -2.6181595   -1.9501737  0.038217345   -2.6181595   0.66798584   279322 
27210000   0.35198588   -2.6192434   -2.6192434   -1.9512558  0.029824337   -2.6192434   0.66798769   279268 
27220000   0.35200991   -2.6186254   -2.6186254   -1.9504629   0.04012874   -2.6186254    0.6681625   279214 
27230000   0.35136862   -2.6165319   -2.6165319   -1.9494577  0.026902268   -2.6165319   0.66707426   279160 
27240000   0.35267351   -2.6189362   -2.6189362   -1.9492551  0.031650315   -2.6189362   0.66968114   279106 
27250000   0.35169882   -2.6173659   -2.6173659   -1.9494063  0.019194338   -2.6173659   0.66795956   279052 
27260000   0.35222253   -2.6171494   -2.6171494   -1.9480657  0.030909138   -2.6171494   0.66908368   278998 
27270000   0.35019869   -2.6175023   -2.6175023   -1.9521343  0.030745505   -2.6175023   0.66536798   278944 
27280000   0.35154906   -2.6204815   -2.6204815   -1.9524186   0.01890485   -2.6204815   0.66806296   278890 
27290000   0.35053513   -2.6161266   -2.6161266   -1.9498614   0.02840314   -2.6161266   0.66626515   278836 
27300000   0.35119655   -2.6196419   -2.6196419   -1.9519903  0.034664735   -2.6196419   0.66765163   278782 
27310000   0.35222762   -2.6213035   -2.6213035    -1.951562  0.039636773   -2.6213035    0.6697415   278728 
27320000   0.35179557   -2.6185324   -2.6185324   -1.9494828  0.020778978   -2.6185324   0.66904959   278674 
27330000   0.35127273   -2.6184541   -2.6184541   -1.9502694  0.024788082   -2.6184541   0.66818472   278620 
27340000   0.35124259   -2.6178204   -2.6178204   -1.9495635  0.026814397   -2.6178204   0.66825691   278566 
27350000   0.35097096   -2.6174234   -2.6174234   -1.9495538  0.026606805   -2.6174234   0.66786959   278512 
27360000   0.35013319   -2.6164464   -2.6164464   -1.9500418  0.030923005   -2.6164464   0.66640459   278458 
27370000   0.35177897   -2.6165498   -2.6165498    -1.946883  0.028439287   -2.6165498   0.66966685   278404 
27380000   0.34980361   -2.6136651   -2.6136651   -1.9476271   0.02962261   -2.6136651   0.66603802   278349 
27390000   0.35092049   -2.6172821   -2.6172821   -1.9489879  0.034743387   -2.6172821   0.66829424   278295 
27400000   0.34959214   -2.6125867   -2.6125867    -1.946693  0.024282458   -2.6125867   0.66589373   278241 
27410000    0.3497611   -2.6146547   -2.6146547   -1.9483098  0.027915625   -2.6146547   0.66634488   278187 
27420000   0.35043753   -2.6138389   -2.6138389   -1.9460757  0.031045065   -2.6138389   0.66776321   278133 
27430000   0.35010423    -2.614561    -2.614561   -1.9473033  0.032526668    -2.614561   0.66725764   278079 
27440000   0.35067651   -2.6154446   -2.6154446   -1.9469665  0.023644803   -2.6154446   0.66847817   278025 
27450000   0.34984798   -2.6167603   -2.6167603    -1.949732   0.03514697   -2.6167603   0.66702833   277971 
27460000   0.34872497   -2.6144827   -2.6144827   -1.9494663  0.033645008   -2.6144827   0.66501635   277917 
27470000   0.34962684   -2.6156826   -2.6156826   -1.9488168  0.022216154   -2.6156826   0.66686579   277863 
27480000   0.34933454   -2.6156393   -2.6156393   -1.9492015  0.031713949   -2.6156393   0.66643779   277809 
27490000   0.35006423   -2.6185171   -2.6185171   -1.9505574  0.028952849   -2.6185171   0.66795967   277755 
27500000   0.34897662   -2.6148156   -2.6148156   -1.9488017  0.025914105   -2.6148156   0.66601389   277701 
27510000   0.34919393   -2.6165485   -2.6165485   -1.9499902  0.035065482   -2.6165485   0.66655823   277647 
27520000   0.34898419   -2.6172214   -2.6172214    -1.950934  0.023137618   -2.6172214   0.66628746   277593 
27530000   0.34962053   -2.6171419   -2.6171419   -1.9495097  0.029728267   -2.6171419   0.66763225   277539 
27540000   0.34880286   -2.6166745   -2.6166745   -1.9504741  0.038046463   -2.6166745   0.66620046   277485 
27550000   0.34869333   -2.6152576   -2.6152576   -1.9491367   0.03333722   -2.6152576   0.66612089   277431 
27560000    0.3481003   -2.6124543   -2.6124543   -1.9473369  0.028576473   -2.6124543   0.66511746   277377 
27570000   0.34840349   -2.6144081   -2.6144081   -1.9485793  0.034675003   -2.6144081   0.66582879   277322 
27580000   0.34868387   -2.6121959   -2.6121959   -1.9457015  0.029387258   -2.6121959    0.6664944   277268 
27590000   0.34854752    -2.613427    -2.613427   -1.9470634  0.027127114    -2.613427   0.66636355   277214 
27600000   0.34771835   -2.6133526   -2.6133526   -1.9484448  0.027532736   -2.6133526   0.66490783   277160 
27610000   0.34864299    -2.615496    -2.615496   -1.9486902  0.040198108    -2.615496   0.66680586   277106 
27620000    0.3488572   -2.6171535   -2.6171535   -1.9498079  0.026818103   -2.6171535    0.6673456   277052 
27630000   0.34827949    -2.616653    -2.616653   -1.9502827  0.023714488    -2.616653   0.66637036   276998 
27640000   0.34849594   -2.6177238   -2.6177238   -1.9508093  0.041239567   -2.6177238   0.66691451   276944 
27650000   0.34776804   -2.6165018   -2.6165018   -1.9508505  0.026211802   -2.6165018   0.66565132   276890 
27660000   0.34724229    -2.613529    -2.613529   -1.9487543  0.032448979    -2.613529   0.66477464   276836 
27670000   0.34608108   -2.6141826   -2.6141826   -1.9515017  0.031522969   -2.6141826   0.66268084   276782 
27680000   0.34759917   -2.6121621   -2.6121621   -1.9464446  0.032361399   -2.6121621   0.66571758   276728 
27690000   0.34680799   -2.6139756   -2.6139756   -1.9496436  0.020659035   -2.6139756   0.66433195   276674 
27700000   0.34723095   -2.6179913   -2.6179913   -1.9527193  0.023812862   -2.6179913     0.665272   276620 
27710000   0.34839873   -2.6165709   -2.6165709   -1.9489311  0.021104475   -2.6165709   0.66763973   276566 
27720000   0.34728124   -2.6161754   -2.6161754   -1.9505472   0.02645033   -2.6161754   0.66562824   276512 
27730000   0.34785252    -2.617103    -2.617103   -1.9502496  0.018777472    -2.617103   0.66685343   276458 
27740000   0.34796406    -2.619677    -2.619677   -1.9524795  0.025565254    -2.619677   0.66719758   276404 
27750000   0.34656938   -2.6185657   -2.6185657   -1.9539101  0.026673759   -2.6185657   0.66465564   276349 
27760000   0.34680067   -2.6153567   -2.6153567   -1.9501275  0.018014968   -2.6153567    0.6652292   276295 
27770000    0.3469125   -2.6175566   -2.6175566   -1.9519828  0.022157322   -2.6175566   0.66557378   276241 
27780000    0.3461487   -2.6151953   -2.6151953   -1.9509571  0.023585211   -2.6151953   0.66423823   276187 
27790000   0.34677625   -2.6196632   -2.6196632   -1.9540906  0.021288103   -2.6196632    0.6655726   276133 
27800000   0.34661139   -2.6180343   -2.6180343    -1.952648  0.028392381   -2.6180343    0.6653863   276079 
27810000   0.34696754   -2.6187879   -2.6187879   -1.9525876   0.03589543   -2.6187879    0.6662003   276025 
27820000   0.34560592   -2.6179141   -2.6179141   -1.9541983  0.027883885   -2.6179141   0.66371576   275971 
27830000   0.34596136   -2.6182656   -2.6182656   -1.9537372  0.026872786   -2.6182656   0.66452838   275917 
27840000   0.34629341     -2.62097     -2.62097   -1.9556736  0.034776695     -2.62097   0.66529639   275863 
27850000   0.34511376   -2.6183087   -2.6183087   -1.9551488  0.035466262   -2.6183087   0.66315987   275809 
27860000   0.34510422   -2.6173735   -2.6173735   -1.9541021  0.029301889   -2.6173735    0.6632714   275755 
27870000   0.34675111    -2.615908    -2.615908   -1.9493408  0.027224924    -2.615908   0.66656716   275701 
27880000    0.3461524   -2.6186444   -2.6186444   -1.9530978  0.022985816   -2.6186444   0.66554661   275647 
27890000    0.3449596   -2.6170483   -2.6170483   -1.9536651   0.03612614   -2.6170483   0.66338317   275593 
27900000   0.34539604   -2.6159944   -2.6159944   -1.9516417  0.021955232   -2.6159944   0.66435265   275539 
27910000    0.3454126   -2.6161435   -2.6161435   -1.9516287  0.027408137   -2.6161435   0.66451473   275485 
27920000   0.34479574   -2.6163572   -2.6163572   -1.9528992  0.031396062   -2.6163572   0.66345806   275431 
27930000   0.34479168   -2.6199093   -2.6199093    -1.956329  0.029907407   -2.6199093   0.66358033   275377 
27940000   0.34518994   -2.6180815   -2.6180815    -1.953602  0.035915785   -2.6180815   0.66447954   275322 
27950000   0.34511285   -2.6161997   -2.6161997   -1.9517382  0.034415657   -2.6161997   0.66446147   275268 
27960000    0.3457989   -2.6190816   -2.6190816   -1.9531686  0.026609041   -2.6190816   0.66591298   275214 
27970000   0.34429682   -2.6139429   -2.6139429   -1.9507924  0.022433207   -2.6139429   0.66315051   275160 
27980000   0.34423384   -2.6158351   -2.6158351   -1.9526758  0.026265691   -2.6158351   0.66315936   275106 
27990000   0.34451408   -2.6145711   -2.6145711   -1.9507416  0.031442826   -2.6145711   0.66382953   275052 
28000000   0.34475843   -2.6165214   -2.6165214   -1.9520906  0.023452887   -2.6165214    0.6644308   274998 
28010000    0.3445717   -2.6165383   -2.6165383   -1.9523369  0.032619374   -2.6165383   0.66420136   274944 
28020000   0.34505107   -2.6189458   -2.6189458   -1.9536897  0.026415712   -2.6189458   0.66525606   274890 
28030000   0.34341576   -2.6146763   -2.6146763    -1.952443   0.02818014   -2.6146763   0.66223328   274836 
28040000   0.34357566   -2.6148153   -2.6148153   -1.9521435  0.030754987   -2.6148153   0.66267182   274782 
28050000   0.34431471    -2.616027    -2.616027   -1.9517992  0.023221844    -2.616027   0.66422781   274728 
28060000   0.34373058   -2.6155434   -2.6155434   -1.9523121  0.025976326   -2.6155434   0.66323131   274674 
28070000   0.34323632   -2.6133068   -2.6133068    -1.950899  0.022037926   -2.6133068   0.66240785   274620 
28080000   0.34359139    -2.614877    -2.614877   -1.9516535  0.027357328    -2.614877   0.66322351   274566 
28090000   0.34321722    -2.615292    -2.615292   -1.9526604  0.022697388    -2.615292   0.66263159   274512 
28100000   0.34394182   -2.6151177   -2.6151177   -1.9509565  0.029831786   -2.6151177   0.66416118   274458 
28110000   0.34354666   -2.6135974   -2.6135974   -1.9500687  0.032476748   -2.6135974   0.66352867   274404 
28120000   0.34352049   -2.6139298   -2.6139298   -1.9503187  0.028849219   -2.6139298   0.66361113   274349 
28130000   0.34286497   -2.6130604   -2.6130604   -1.9505852  0.024228783   -2.6130604    0.6624752   274295 
28140000   0.34261749    -2.611789    -2.611789   -1.9496616  0.036671481    -2.611789   0.66212738   274241 
28150000   0.34222487   -2.6116373   -2.6116373   -1.9501385  0.016948221   -2.6116373   0.66149887   274187 
28160000   0.34355116   -2.6128622   -2.6128622   -1.9486689  0.029133116   -2.6128622   0.66419331   274133 
28170000   0.34373864   -2.6129599   -2.6129599   -1.9482732  0.033232519   -2.6129599    0.6646867   274079 
28180000   0.34221767   -2.6118469   -2.6118469   -1.9499709  0.025818686   -2.6118469     0.661876   274025 
28190000   0.34299797   -2.6136219   -2.6136219    -1.950106  0.031932386   -2.6136219   0.66351593   273971 
28200000   0.34274646   -2.6142785   -2.6142785   -1.9511184  0.032879944   -2.6142785   0.66316011   273917 
28210000   0.34164535   -2.6128789   -2.6128789   -1.9517189  0.025016163   -2.6128789   0.66115996   273863 
28220000   0.34287199   -2.6136598   -2.6136598   -1.9499952  0.025210129   -2.6136598   0.66366465   273809 
28230000   0.34168304   -2.6099729   -2.6099729   -1.9484791  0.019625497   -2.6099729   0.66149377   273755 
28240000   0.34229022   -2.6105199   -2.6105199   -1.9477199  0.017536373   -2.6105199   0.66280001   273701 
28250000    0.3429641   -2.6123448   -2.6123448   -1.9481088  0.027701963   -2.6123448   0.66423594   273647 
28260000   0.34292255   -2.6117467   -2.6117467   -1.9474601  0.028371959   -2.6117467   0.66428656   273593 
28270000   0.34304968   -2.6093363   -2.6093363   -1.9446723  0.028343896   -2.6093363   0.66466401   273539 
28280000   0.34281827   -2.6126008   -2.6126008   -1.9482541  0.035349561   -2.6126008   0.66434679   273485 
28290000   0.34159429   -2.6111654   -2.6111654   -1.9490599  0.037107709   -2.6111654   0.66210558   273431 
28300000   0.34095003   -2.6106667   -2.6106667   -1.9496793  0.038524666   -2.6106667   0.66098737   273377 
28310000   0.34269952   -2.6137214   -2.6137214   -1.9492087  0.028824726   -2.6137214   0.66451273   273322 
28320000   0.34158085   -2.6147101   -2.6147101   -1.9522356  0.028927408   -2.6147101   0.66247446   273268 
28330000   0.34051563   -2.6107971   -2.6107971    -1.950258  0.031186095   -2.6107971   0.66053905   273214 
28340000    0.3409334   -2.6134503   -2.6134503   -1.9519701  0.022702295   -2.6134503    0.6614802   273160 
28350000   0.34101614   -2.6152228   -2.6152228   -1.9534513  0.028282937   -2.6152228   0.66177154   273106 
28360000   0.34042534   -2.6132962   -2.6132962   -1.9525405  0.033579649   -2.6132962    0.6607557   273052 
28370000   0.34061683   -2.6131686   -2.6131686   -1.9519104  0.031109492   -2.6131686   0.66125815   272998 
28380000   0.34067496   -2.6111181   -2.6111181   -1.9496162  0.026774415   -2.6111181   0.66150184   272944 
28390000   0.34124258    -2.612636    -2.612636   -1.9499009  0.022723344    -2.612636   0.66273514   272890 
28400000   0.34159913   -2.6125549   -2.6125549    -1.948996  0.030528289   -2.6125549   0.66355891   272836 
28410000   0.34174579   -2.6121344   -2.6121344   -1.9481592  0.026990973   -2.6121344    0.6639752   272782 
28420000   0.34115264   -2.6108233   -2.6108233   -1.9478693  0.037136085   -2.6108233   0.66295401   272728 
28430000   0.34046253   -2.6119593   -2.6119593   -1.9502153  0.033897529   -2.6119593   0.66174398   272674 
28440000   0.34031218    -2.609639    -2.609639   -1.9480563  0.029057543    -2.609639   0.66158275   272620 
28450000   0.33974116   -2.6104726   -2.6104726   -1.9498691  0.036157183   -2.6104726   0.66060353   272566 
28460000   0.34165103   -2.6109505   -2.6109505   -1.9465017  0.031684074   -2.6109505   0.66444876   272512 
28470000   0.34143264   -2.6143826   -2.6143826    -1.950227  0.028373362   -2.6143826   0.66415565   272458 
28480000   0.34029937   -2.6121246   -2.6121246   -1.9500422  0.023212347   -2.6121246   0.66208243   272404 
28490000   0.34054676   -2.6144521   -2.6144521   -1.9517546  0.020038676   -2.6144521   0.66269755   272349 
28500000   0.34063435   -2.6116506   -2.6116506   -1.9486511  0.026292474   -2.6116506   0.66299945   272295 
28510000   0.34111677   -2.6132765   -2.6132765   -1.9492064  0.033248975   -2.6132765   0.66407011   272241 
28520000   0.34025306   -2.6101664   -2.6101664   -1.9476463   0.02191044   -2.6101664   0.66252011   272187 
28530000   0.34092892   -2.6102796   -2.6102796   -1.9463117  0.023788364   -2.6102796   0.66396782   272133 
28540000   0.34154773   -2.6080081   -2.6080081   -1.9427032  0.035218473   -2.6080081   0.66530498   272079 
28550000   0.33958539   -2.6052384   -2.6052384   -1.9436246  0.030071927   -2.6052384   0.66161383   272025 
28560000   0.34133942   -2.6101202   -2.6101202   -1.9449569  0.032035148   -2.6101202   0.66516325   271971 
28570000   0.34003111   -2.6079962   -2.6079962   -1.9452508  0.038702618   -2.6079962   0.66274535   271917 
28580000   0.34035125   -2.6086409   -2.6086409   -1.9451398  0.024849845   -2.6086409   0.66350108   271863 
28590000   0.33923678   -2.6074594   -2.6074594   -1.9459995  0.029939883   -2.6074594   0.66145987   271809 
28600000   0.33921366   -2.6076393   -2.6076393   -1.9460931  0.031516621   -2.6076393   0.66154621   271755 
28610000   0.33898838   -2.6078642   -2.6078642   -1.9466259  0.031106646   -2.6078642   0.66123825   271701 
28620000   0.34019508   -2.6108619   -2.6108619   -1.9471379  0.038327865   -2.6108619   0.66372399   271647 
28630000   0.33915664    -2.607208    -2.607208   -1.9453785  0.035137324    -2.607208   0.66182954   271593 
28640000   0.33850591   -2.6089552   -2.6089552   -1.9482642  0.027374339   -2.6089552   0.66069107   271539 
28650000    0.3390558   -2.6094021   -2.6094021   -1.9475061   0.03521303   -2.6094021   0.66189597   271485 
28660000   0.33938231   -2.6110934   -2.6110934   -1.9484282  0.027293051   -2.6110934   0.66266519   271431 
28670000   0.33885133   -2.6104408   -2.6104408   -1.9486807  0.021116271   -2.6104408   0.66176006   271377 
28680000   0.33893696   -2.6119979   -2.6119979   -1.9499364  0.023267787   -2.6119979   0.66206148   271322 
28690000   0.33965393   -2.6101788   -2.6101788   -1.9465848   0.02711638   -2.6101788   0.66359403   271268 
28700000   0.33860648   -2.6082719   -2.6082719   -1.9465926  0.020753326   -2.6082719   0.66167931   271214 
28710000   0.33845796    -2.609889    -2.609889   -1.9483682  0.022551371    -2.609889   0.66152081   271160 
28720000     0.339207   -2.6093593   -2.6093593   -1.9462424  0.030614288   -2.6093593   0.66311686   271106 
28730000   0.33990206   -2.6121617   -2.6121617   -1.9475537   0.02521751   -2.6121617   0.66460803   271052 
28740000   0.33968383   -2.6113107   -2.6113107   -1.9469971  0.022831101   -2.6113107   0.66431366   270998 
28750000   0.33819063   -2.6088105   -2.6088105   -1.9472853  0.028741305   -2.6088105   0.66152527   270944 
28760000   0.33828388   -2.6087392   -2.6087392   -1.9468996   0.03176993   -2.6087392   0.66183958   270890 
28770000   0.33860074   -2.6101169   -2.6101169   -1.9475253  0.030971248   -2.6101169   0.66259157   270836 
28780000   0.33883276   -2.6096862   -2.6096862   -1.9465083  0.020971575   -2.6096862   0.66317783   270782 
28790000   0.33778601   -2.6093248   -2.6093248   -1.9480638  0.034209065   -2.6093248   0.66126096   270728 
28800000   0.33820794   -2.6109771   -2.6109771    -1.948758  0.033307367   -2.6109771   0.66221903   270674 
28810000   0.33786425   -2.6087012   -2.6087012   -1.9470231   0.02815895   -2.6087012   0.66167807   270620 
28820000   0.33703375   -2.6113099   -2.6113099   -1.9511265  0.026541524   -2.6113099   0.66018335   270566 
28830000   0.33797145   -2.6118932   -2.6118932   -1.9497409  0.011923009   -2.6118932   0.66215227   270512 
28840000   0.33653064   -2.6092009   -2.6092009   -1.9497398  0.035780934   -2.6092009    0.6594611   270458 
28850000   0.33717416   -2.6104014   -2.6104014   -1.9495473  0.020668591   -2.6104014   0.66085407   270404 
28860000   0.33744209   -2.6110462   -2.6110462   -1.9495324  0.030193837   -2.6110462   0.66151376   270349 
28870000   0.33683562   -2.6098116   -2.6098116   -1.9493548  0.028226823   -2.6098116   0.66045678   270295 
28880000   0.33662145   -2.6092626   -2.6092626   -1.9490938  0.024491464   -2.6092626   0.66016873   270241 
28890000   0.33709127   -2.6120413   -2.6120413   -1.9508191  0.017999344   -2.6120413   0.66122223   270187 
28900000   0.33651314   -2.6121603   -2.6121603   -1.9519402  0.032290131   -2.6121603   0.66022015   270133 
28910000   0.33659319   -2.6138163   -2.6138163   -1.9533071  0.022809078   -2.6138163   0.66050925   270079 
28920000   0.33725356   -2.6139309   -2.6139309   -1.9519934  0.035777968   -2.6139309   0.66193747   270025 
28930000   0.33541294   -2.6100458   -2.6100458   -1.9515893  0.020713079   -2.6100458    0.6584565   269971 
28940000   0.33588015   -2.6102429   -2.6102429   -1.9507373  0.024694643   -2.6102429   0.65950561   269917 
28950000    0.3350887   -2.6081981   -2.6081981   -1.9501148  0.037455805   -2.6081981   0.65808325   269863 
28960000   0.33589805   -2.6120692   -2.6120692   -1.9522644   0.02448051   -2.6120692   0.65980476   269809 
28970000   0.33598595   -2.6121851   -2.6121851   -1.9520756  0.020914017   -2.6121851   0.66010955   269755 
28980000   0.33667955   -2.6113551   -2.6113551   -1.9497504  0.028718476   -2.6113551   0.66160469   269701 
28990000   0.33541029   -2.6095917   -2.6095917   -1.9503492  0.031230835   -2.6095917   0.65924248   269647 
29000000   0.33604636   -2.6113512   -2.6113512   -1.9507262  0.024059749   -2.6113512   0.66062497   269593 
29010000   0.33529719   -2.6112133   -2.6112133   -1.9519291  0.031770603   -2.6112133   0.65928425   269539 
29020000   0.33489392   -2.6117536   -2.6117536   -1.9531304  0.024031958   -2.6117536   0.65862326   269485 
29030000   0.33587333   -2.6136552   -2.6136552   -1.9529734  0.033914018   -2.6136552   0.66068181   269431 
29040000   0.33529462   -2.6096158   -2.6096158   -1.9499401  0.031911827   -2.6096158   0.65967568   269377 
29050000   0.33546791   -2.6087242   -2.6087242   -1.9485728  0.028347748   -2.6087242    0.6601514   269322 
29060000   0.33540651   -2.6093881   -2.6093881   -1.9492252  0.026286783   -2.6093881   0.66016293   269268 
29070000   0.33569983   -2.6090286   -2.6090286   -1.9481558  0.029356979   -2.6090286   0.66087279   269214 
29080000   0.33513048   -2.6098599   -2.6098599   -1.9499756  0.032661873   -2.6098599   0.65988431   269160 
29090000   0.33444941   -2.6091529   -2.6091529   -1.9504775   0.02541888   -2.6091529   0.65867541   269106 
29100000   0.33395068   -2.6073864   -2.6073864   -1.9495612  0.021732569   -2.6073864    0.6578252   269052 
29110000   0.33486649   -2.6082144   -2.6082144   -1.9484528  0.019148157   -2.6082144   0.65976159   268998 
29120000    0.3345878   -2.6064409   -2.6064409    -1.947096  0.030706543   -2.6064409   0.65934488   268944 
29130000   0.33430992   -2.6054386   -2.6054386    -1.946509  0.023763008   -2.6054386   0.65892958   268890 
29140000   0.33442886   -2.6063989   -2.6063989   -1.9471025  0.032962004   -2.6063989   0.65929642   268836 
29150000   0.33445068   -2.6053711   -2.6053711   -1.9458992  0.023893859   -2.6053711    0.6594719   268782 
29160000   0.33461788   -2.6081925   -2.6081925   -1.9482584  0.028345619   -2.6081925   0.65993417   268728 
29170000   0.33383994     -2.60805     -2.60805   -1.9495177  0.013474459     -2.60805   0.65853225   268674 
29180000   0.33343438   -2.6066997   -2.6066997   -1.9488352  0.033499406   -2.6066997   0.65786446   268620 
29190000   0.33399267   -2.6092628   -2.6092628   -1.9501643    0.0323347   -2.6092628   0.65909847   268566 
29200000   0.33321767   -2.6074086   -2.6074086   -1.9497073  0.020367643   -2.6074086   0.65770132   268512 
29210000   0.33365379   -2.6093039   -2.6093039   -1.9506093  0.040071285   -2.6093039    0.6586946   268458 
29220000   0.33234073   -2.6062592   -2.6062592   -1.9500248  0.030801279   -2.6062592   0.65623439   268404 
29230000   0.33181073     -2.60539     -2.60539   -1.9500678  0.029685543     -2.60539   0.65532215   268349 
29240000   0.33377924    -2.607998    -2.607998   -1.9486554  0.030193391    -2.607998   0.65934261   268295 
29250000    0.3350412   -2.6089897   -2.6089897   -1.9470211    0.0339334   -2.6089897   0.66196869   268241 
29260000   0.33368289   -2.6053004   -2.6053004   -1.9458827  0.032163875   -2.6053004   0.65941772   268187 
29270000   0.33305355   -2.6079657   -2.6079657   -1.9496592   0.02546988   -2.6079657   0.65830658   268133 
29280000   0.33353384   -2.6064553   -2.6064553   -1.9470666  0.038495876   -2.6064553   0.65938871   268079 
29290000   0.33273453   -2.6072087   -2.6072087   -1.9492677  0.030369943   -2.6072087   0.65794102   268025 
29300000   0.33380161   -2.6107701   -2.6107701    -1.950586  0.028054815   -2.6107701   0.66018405   267971 
29310000   0.33328523   -2.6086499   -2.6086499   -1.9493543  0.033680427   -2.6086499   0.65929563   267917 
29320000   0.33289727   -2.6055762   -2.6055762   -1.9469152  0.035394628   -2.6055762   0.65866094   267863 
29330000   0.33331279    -2.606207    -2.606207    -1.946591  0.024911202    -2.606207   0.65961603   267809 
29340000   0.33243491   -2.6065448   -2.6065448   -1.9485333  0.038158063   -2.6065448   0.65801142   267755 
29350000   0.33285654   -2.6040586   -2.6040586   -1.9450797  0.029161596   -2.6040586   0.65897889   267701 
29360000   0.33233543   -2.6056811   -2.6056811   -1.9476011  0.026639682   -2.6056811   0.65807996   267647 
29370000   0.33305582   -2.6052989   -2.6052989   -1.9456594  0.027895507   -2.6052989   0.65963953   267593 
29380000   0.33212795   -2.6020292   -2.6020292   -1.9440946  0.028230714   -2.6020292    0.6579346   267539 
29390000   0.33202126   -2.6034593   -2.6034593   -1.9456033   0.02590644   -2.6034593   0.65785602   267485 
29400000   0.33199622   -2.6058116   -2.6058116   -1.9478723  0.021849248   -2.6058116   0.65793924   267431 
29410000   0.33212279   -2.6082974   -2.6082974   -1.9499744  0.019285528   -2.6082974   0.65832299   267377 
29420000   0.33255479   -2.6051891   -2.6051891   -1.9458742  0.025606842   -2.6051891   0.65931492   267322 
29430000   0.33252237   -2.6073159   -2.6073159    -1.947932  0.030413619   -2.6073159   0.65938385   267268 
29440000   0.33212104   -2.6071011   -2.6071011     -1.94838  0.018506769   -2.6071011    0.6587211   267214 
29450000   0.33161273   -2.6085442   -2.6085442   -1.9506984  0.031538668   -2.6085442   0.65784588   267160 
29460000   0.33146119   -2.6065355   -2.6065355   -1.9488573  0.041569343   -2.6065355   0.65767819   267106 
29470000   0.33118764   -2.6075233   -2.6075233    -1.950255  0.018779792   -2.6075233   0.65726829   267052 
29480000    0.3316658   -2.6071003   -2.6071003   -1.9487499  0.019766009   -2.6071003   0.65835037   266998 
29490000   0.33185741    -2.605975    -2.605975   -1.9471111  0.035499407    -2.605975   0.65886396   266944 
29500000   0.33176337   -2.6070325   -2.6070325    -1.948222  0.032314039   -2.6070325   0.65881052   266890 
29510000   0.33014391   -2.6060786   -2.6060786   -1.9503513  0.028755319   -2.6060786   0.65572731   266836 
29520000   0.33066691     -2.60651     -2.60651   -1.9496109  0.021718052     -2.60651   0.65689902   266782 
29530000     0.331162    -2.607994    -2.607994   -1.9499782  0.020174453    -2.607994   0.65801575   266728 
29540000   0.33047986   -2.6060198   -2.6060198   -1.9492265  0.029661993   -2.6060198   0.65679331   266674 
29550000   0.33106307   -2.6088466   -2.6088466    -1.950761  0.035093223   -2.6088466   0.65808563   266620 
29560000   0.33081199   -2.6085314   -2.6085314   -1.9508116  0.025370497   -2.6085314   0.65771976   266566 
29570000   0.33198357   -2.6116727   -2.6116727   -1.9514899  0.032052398   -2.6116727   0.66018283   266512 
29580000   0.33067853   -2.6092832   -2.6092832   -1.9515623  0.028965047   -2.6092832   0.65772089   266458 
29590000   0.32990028    -2.609007    -2.609007   -1.9527011  0.025091741    -2.609007   0.65630595   266404 
29600000   0.32989217   -2.6089151   -2.6089151   -1.9524898  0.021859892   -2.6089151   0.65642533   266349 
29610000   0.32974012   -2.6098713   -2.6098713   -1.9536155  0.031407071   -2.6098713   0.65625584   266295 
29620000   0.32979541   -2.6083448   -2.6083448   -1.9518458  0.028558218   -2.6083448   0.65649899   266241 
29630000   0.32946978   -2.6082882   -2.6082882   -1.9523044   0.03335099   -2.6082882   0.65598383   266187 
29640000   0.32884217    -2.609032    -2.609032   -1.9541649  0.027554304    -2.609032   0.65486711   266133 
29650000   0.32828483   -2.6099264   -2.6099264   -1.9560365  0.029614862   -2.6099264   0.65388988   266079 
29660000   0.32999227   -2.6103838   -2.6103838   -1.9529596  0.032175411   -2.6103838   0.65742424   266025 
29670000   0.32840143   -2.6082459   -2.6082459   -1.9538581  0.030723845   -2.6082459   0.65438774   265971 
29680000   0.32854871   -2.6085415   -2.6085415   -1.9537274  0.019205256   -2.6085415   0.65481416   265917 
29690000   0.32922843   -2.6102856   -2.6102856   -1.9539834  0.024657374   -2.6102856   0.65630215   265863 
29700000   0.32937932    -2.607549    -2.607549   -1.9508127  0.028588302    -2.607549   0.65673633   265809 
29710000   0.32884893   -2.6070895   -2.6070895   -1.9512775  0.034424752   -2.6070895   0.65581205   265755 
29720000   0.32987849   -2.6097348   -2.6097348   -1.9517359  0.019147752   -2.6097348   0.65799896   265701 
29730000   0.32854915   -2.6056373   -2.6056373   -1.9501568  0.038731819   -2.6056373   0.65548058   265647 
29740000   0.32834239   -2.6061899   -2.6061899   -1.9509886  0.021328348   -2.6061899   0.65520127   265593 
29750000   0.32905852   -2.6087521   -2.6087521   -1.9519883  0.046557308   -2.6087521   0.65676382   265539 
29760000     0.329064   -2.6090238   -2.6090238   -1.9521154  0.036173066   -2.6090238   0.65690835   265485 
29770000   0.32866234   -2.6089106   -2.6089106   -1.9526706  0.028312678   -2.6089106   0.65623999   265431 
29780000   0.32763003    -2.607461    -2.607461   -1.9531491  0.028982414    -2.607461   0.65431189   265377 
29790000   0.32814105   -2.6063831   -2.6063831   -1.9509148  0.030921821   -2.6063831    0.6554683   265322 
29800000   0.32855225    -2.608683    -2.608683   -1.9522597  0.026857947    -2.608683   0.65642328   265268 
29810000    0.3279452   -2.6065016   -2.6065016   -1.9511578  0.035224326   -2.6065016   0.65534385   265214 
29820000    0.3283009   -2.6072569   -2.6072569   -1.9510686  0.020120962   -2.6072569   0.65618826   265160 
29830000   0.32877676   -2.6033287   -2.6033287   -1.9460555  0.032771196   -2.6033287   0.65727324   265106 
29840000   0.32947533   -2.6071201   -2.6071201   -1.9483161  0.023114628   -2.6071201   0.65880398   265052 
29850000   0.32796062   -2.6053516   -2.6053516   -1.9494427  0.030555702   -2.6053516   0.65590887   264998 
29860000   0.32757802   -2.6051986   -2.6051986   -1.9499214  0.026508304   -2.6051986   0.65527721   264944 
29870000   0.32788823   -2.6031238   -2.6031238   -1.9470924  0.023856673   -2.6031238   0.65603145   264890 
29880000    0.3277027   -2.6033704   -2.6033704   -1.9475764  0.033042223   -2.6033704   0.65579394   264836 
29890000   0.32794965   -2.6059288   -2.6059288   -1.9495068  0.027693902   -2.6059288   0.65642197   264782 
29900000   0.32751864   -2.6080704   -2.6080704   -1.9523774  0.033820589   -2.6080704     0.655693   264728 
29910000   0.32676059   -2.6067306   -2.6067306   -1.9524217  0.026146609   -2.6067306   0.65430885   264674 
29920000   0.32654333   -2.6074403   -2.6074403   -1.9534331  0.020129469   -2.6074403   0.65400723   264620 
29930000   0.32723121    -2.607823    -2.607823   -1.9523043   0.02852311    -2.607823   0.65551871   264566 
29940000   0.32699293   -2.6080814   -2.6080814   -1.9529063  0.026450396   -2.6080814   0.65517509   264512 
29950000   0.32669791   -2.6072224   -2.6072224   -1.9525047  0.031480729   -2.6072224   0.65471764   264458 
29960000   0.32691477   -2.6075926   -2.6075926   -1.9523066  0.031963224   -2.6075926   0.65528605   264404 
29970000   0.32591082    -2.605498    -2.605498   -1.9520884  0.030557098    -2.605498    0.6534096   264349 
29980000   0.32725091   -2.6076399   -2.6076399   -1.9514096  0.027260584   -2.6076399   0.65623035   264295 
29990000   0.32655207   -2.6084134   -2.6084134   -1.9534506  0.026277371   -2.6084134    0.6549628   264241 
30000000    0.3253531   -2.6076745   -2.6076745   -1.9549831  0.035136939   -2.6076745   0.65269142   264187 
Loop time of 79502.7 on 336 procs for 30000000 steps with 264187 atoms

Performance: 163013.432 tau/day, 377.346 timesteps/s
89.1% CPU use with 336 MPI tasks x 1 OpenMP threads

MPI task timing breakdown:
Section |  min time  |  avg time  |  max time  |%varavg|  %CPU | %total
-----------------------------------------------------------------------
Pair    | 1002.2     | 10138      | 20753      |4278.4 |  92.9 | 12.75
Bond    | 19.241     | 20.432     | 24.782     |  16.1 | 100.0 |  0.03
Neigh   | 2844.7     | 14961      | 28059      |4493.2 |  98.6 | 18.82
Comm    | 18702      | 35070      | 61297      |5161.6 |  86.8 | 44.11
Output  | 3071.8     | 3426.9     | 3909.8     | 363.7 |  82.2 |  4.31
Modify  | 7248.9     | 15229      | 45158      |3808.6 |  87.0 | 19.15
Other   |            | 658.7      |            |       |       |  0.83

Nlocal:        786.271 ave        1876 max          83 min
Histogram: 16 13 13 144 103 32 8 3 2 2
Nghost:        5187.76 ave        8918 max         630 min
Histogram: 33 7 26 32 19 37 58 77 43 4
Neighs:        20817.5 ave       59573 max         203 min
Histogram: 62 28 43 50 74 46 16 8 7 2
FullNghs:      41634.9 ave      122482 max         421 min
Histogram: 62 32 42 60 71 40 12 10 5 2

Total # of neighbors = 13989328
Ave neighs/atom = 52.952371
Ave special neighs/atom = 0.0000000
Neighbor list builds = 3013251
Dangerous builds = 2135632
Total wall time: 22:05:08
