LAMMPS (29 Oct 2020)
  using 1 OpenMP thread(s) per MPI task
units           lj
atom_style      full
atom_modify     map array first cubes
dimension       3
boundary        p p f

variable        sigma           equal 1.0
variable        epsilon         equal 1.0

region 		box block 0 100 0 100 0 133

read_data       data.rigid
Reading data file ...
  orthogonal box = (0.0000000 0.0000000 0.0000000) to (14.285700 14.285700 13.000000)
  4 by 4 by 4 MPI processor grid
  reading atoms ...
  1143 atoms
Finding 1-2 1-3 1-4 neighbors ...
  special bond factors lj:    0.0      0.0      0.0     
  special bond factors coul:  0.0      0.0      0.0     
     0 = max # of 1-2 neighbors
     0 = max # of 1-3 neighbors
     0 = max # of 1-4 neighbors
     1 = max # of special neighbors
  special bonds CPU = 1.665 seconds
  read_data CPU = 1.786 seconds

replicate       7 7 10			# 490 cubes
Replicating atoms ...
WARNING: Replicating in a non-periodic dimension (src/replicate.cpp:75)
  orthogonal box = (0.0000000 0.0000000 0.0000000) to (99.999900 99.999900 130.00000)
  4 by 4 by 4 MPI processor grid
  560070 atoms
Finding 1-2 1-3 1-4 neighbors ...
  special bond factors lj:    0.0      0.0      0.0     
  special bond factors coul:  0.0      0.0      0.0     
     0 = max # of 1-2 neighbors
     0 = max # of 1-3 neighbors
     0 = max # of 1-4 neighbors
     1 = max # of special neighbors
  special bonds CPU = 0.028 seconds
  replicate CPU = 0.056 seconds

group           cubes type 2 3
560070 atoms in group cubes


## relax the structure

pair_style      soft 1.12
pair_coeff      1 1 0.0 0.0
pair_coeff      2 2 0.0
pair_coeff      3 3 0.0
pair_coeff      1 3 0.0 0.0
pair_coeff      2 3 0.0
pair_coeff      1 2 0.0 0.0

variable        prefactor equal ramp(0,60)
fix             soft all adapt 1 pair soft a * * v_prefactor

neighbor        0.3 bin
neigh_modify    delay 0 every 1 check yes

#fix             1     cubes rigid molecule

dump 		1 all movie 100 movie.avi type type

compute         tbig all temp
thermo_modify   temp tbig

thermo          100
run             1000
Neighbor list info ...
  update every 1 steps, delay 0 steps, check yes
  max neighbors/atom: 2000, page size: 100000
  master list distance cutoff = 1.42
  ghost atom cutoff = 1.42
  binsize = 0.71, bins = 141 141 184
  1 neighbor lists, perpetual/occasional/extra = 1 0 0
  (1) pair soft, perpetual
      attributes: half, newton on
      pair build: half/bin/newton
      stencil: half/bin/3d/newton
      bin: standard
Setting up Verlet run ...
  Unit style    : lj
  Current step  : 0
  Time step     : 0.005
Per MPI rank memory allocation (min/avg/max) = 9.257 | 9.321 | 9.354 Mbytes
Step Temp E_pair E_mol TotEng Press 
       0            0            0            0            0            0 
     100            0   0.90670399            0   0.90670399    2.1496369 
     200            0     1.813408            0     1.813408    4.2992737 
     300            0     2.720112            0     2.720112    6.4489106 
     400            0    3.6268159            0    3.6268159    8.5985474 
     500            0    4.5335199            0    4.5335199    10.748184 
     600            0    5.4402239            0    5.4402239    12.897821 
     700            0    6.3469279            0    6.3469279    15.047458 
     800            0    7.2536319            0    7.2536319    17.197095 
     900            0    8.1603359            0    8.1603359    19.346732 
    1000            0    9.0670399            0    9.0670399    21.496369 
Loop time of 4.38902 on 64 procs for 1000 steps with 560070 atoms

Performance: 98427.433 tau/day, 227.841 timesteps/s
76.5% CPU use with 64 MPI tasks x 1 OpenMP threads

MPI task timing breakdown:
Section |  min time  |  avg time  |  max time  |%varavg| %total
---------------------------------------------------------------
Pair    | 0.80907    | 1.2714     | 2.1317     |  33.6 | 28.97
Bond    | 8.4837e-05 | 0.00029297 | 0.00089648 |   0.0 |  0.01
Neigh   | 0          | 0          | 0          |   0.0 |  0.00
Comm    | 0.20238    | 1.2721     | 2.9136     |  60.1 | 28.98
Output  | 0.37769    | 0.38969    | 0.39441    |   0.8 |  8.88
Modify  | 0.0021824  | 0.0049783  | 0.0097527  |   3.0 |  0.11
Other   |            | 1.451      |            |       | 33.05

Nlocal:        8751.09 ave        9973 max        7116 min
Histogram: 2 6 4 2 10 16 0 8 8 8
Nghost:        2410.16 ave        3809 max        1415 min
Histogram: 8 8 8 8 10 2 12 0 6 2
Neighs:        67390.3 ave       78281 max       54243 min
Histogram: 4 6 2 4 16 4 12 0 4 12

Total # of neighbors = 4312980
Ave neighs/atom = 7.7007874
Ave special neighs/atom = 0.0000000
Neighbor list builds = 0
Dangerous builds = 0
unfix 		soft

reset_timestep 	0

# Jetzt die eigentliche verteilung

pair_style	lj/cut/opt 2.5
pair_modify	shift yes

pair_coeff	1 1 0.0 0.0

pair_coeff	2 2 1.0 1.0

pair_coeff	1 2 0.0 0.0

pair_coeff	1 3 0.0 0.0

pair_coeff	2 3 0.0 0.0

pair_coeff	3 3 0.0 0.0

comm_modify	cutoff 6.93

fix 		1 cubes rigid/small molecule
  create bodies CPU = 0.025 seconds
  490 rigid bodies with 560070 atoms
  6.9282032 = max distance from body owner to body atom


####################### WALLS ###########################

variable       epsilonWall equal 2*${epsilon}
variable       epsilonWall equal 2*1

variable       cutoffTop   equal   0.7147*${sigma}
variable       cutoffTop   equal   0.7147*1

variable       cutoffLow   equal   3*${sigma}
variable       cutoffLow   equal   3*1


fix            topWall all wall/lj93 zhi EDGE                ${epsilonWall} ${sigma} ${cutoffTop} units box
fix            topWall all wall/lj93 zhi EDGE                2 ${sigma} ${cutoffTop} units box
fix            topWall all wall/lj93 zhi EDGE                2 1 ${cutoffTop} units box
fix            topWall all wall/lj93 zhi EDGE                2 1 0.7147 units box

fix            lowWall all wall/lj93 zlo EDGE                ${epsilonWall} ${sigma} ${cutoffTop} units box
fix            lowWall all wall/lj93 zlo EDGE                2 ${sigma} ${cutoffTop} units box
fix            lowWall all wall/lj93 zlo EDGE                2 1 ${cutoffTop} units box
fix            lowWall all wall/lj93 zlo EDGE                2 1 0.7147 units box


velocity	all create ${temp} ${seed} loop geom
velocity	all create 10.0 ${seed} loop geom
velocity	all create 10.0 23735 loop geom
WARNING: Changing velocities of atoms in rigid bodies. This has no effect unless rigid bodies are rebuild (src/velocity.cpp:71)
WARNING: Cannot count rigid body degrees-of-freedom before bodies are fully initialized (src/RIGID/fix_rigid_small.cpp:1166)


############### Diagnostics and computes ###################
compute        com cubes          rigid/local   1 mol x y z
compute        quat cubes         rigid/local   1 mol quatw quati quatj quatk

thermo          1000
thermo_style    custom step temp epair evdwl etotal press pe ke vol
WARNING: New thermo_style command, previous thermo_modify settings will be lost (src/output.cpp:693)

#dump            1 all custom 100000 dump.lammpstrj id mol type x y z
dump            2 all image 10000 image.*.png type type

dump_modify     2 pad 8


dump            image cubes image 10000 image_cubes.*.png type type

dump_modify     image pad 8

dump            3 all movie 5000 movie.avi type type
dump           com cubes local 1000 dump.*.xyz c_com[*]
dump           quat cubes      local 1000 dump.*.quat c_quat[*]


restart         250000 restart.dat
timestep        0.005
timer           full
New timer settings: style=full  mode=nosync  timeout=off

run 		1000000
Neighbor list info ...
  update every 1 steps, delay 0 steps, check yes
  max neighbors/atom: 2000, page size: 100000
  master list distance cutoff = 2.8
  ghost atom cutoff = 6.93
  binsize = 1.4, bins = 72 72 93
  1 neighbor lists, perpetual/occasional/extra = 1 0 0
  (1) pair lj/cut/opt, perpetual
      attributes: half, newton on
      pair build: half/bin/newton
      stencil: half/bin/3d/newton
      bin: standard
Setting up Verlet run ...
  Unit style    : lj
  Current step  : 0
  Time step     : 0.005
Per MPI rank memory allocation (min/avg/max) = 30.16 | 31.76 | 38.74 Mbytes
Step Temp E_pair E_vdwl TotEng Press PotEng KinEng Volume 
       0    9.9405818  -0.36619638  -0.36619638  -0.34013224   0.48751692  -0.36619638  0.026064143    1299997.4 
    1000    11.075868  -0.36929213  -0.36929213  -0.34025127 0.0087947839  -0.36929213  0.029040857    1299997.4 
    2000    16.365779   -0.3830748   -0.3830748  -0.34016383  0.020795901   -0.3830748  0.042910968    1299997.4 
    3000    19.133039  -0.39032504  -0.39032504  -0.34015833  0.025818432  -0.39032504  0.050166709    1299997.4 
    4000       21.134  -0.39562118  -0.39562118  -0.34020796  0.045339863  -0.39562118  0.055413213    1299997.4 
    5000    22.241034   -0.3984591   -0.3984591  -0.34014325  0.059441487   -0.3984591   0.05831585    1299997.4 
    6000    22.868976  -0.40019733  -0.40019733  -0.34023502  0.072032732  -0.40019733  0.059962311    1299997.4 
    7000    23.648382  -0.40217759  -0.40217759  -0.34017168  0.023258833  -0.40217759  0.062005909    1299997.4 
    8000    24.254792   -0.4037444   -0.4037444  -0.34014849  0.049502385   -0.4037444  0.063595912    1299997.4 
    9000    24.196993  -0.40362578  -0.40362578  -0.34018142  0.050225803  -0.40362578  0.063444363    1299997.4 
   10000    23.887892  -0.40287339  -0.40287339  -0.34023949  0.062787313  -0.40287339  0.062633901    1299997.4 
   11000    24.467035  -0.40438681  -0.40438681   -0.3402344  0.033497873  -0.40438681   0.06415241    1299997.4 
   12000     24.87352  -0.40540128  -0.40540128  -0.34018306  0.043322194  -0.40540128  0.065218212    1299997.4 
   13000    24.692518  -0.40497392  -0.40497392   -0.3402303  0.067934196  -0.40497392  0.064743625    1299997.4 
   14000    24.479428  -0.40440333  -0.40440333  -0.34021842  0.052198038  -0.40440333  0.064184904    1299997.4 
   15000    24.838968  -0.40529505  -0.40529505  -0.34016743  0.038493062  -0.40529505  0.065127618    1299997.4 
   16000    24.971009  -0.40586608  -0.40586608  -0.34039225  0.058177311  -0.40586608  0.065473828    1299997.4 
   17000    24.966868  -0.40572991  -0.40572991  -0.34026694  0.072536204  -0.40572991   0.06546297    1299997.4 
   18000     25.37888  -0.40671477  -0.40671477  -0.34017151  0.052126072  -0.40671477  0.066543262    1299997.4 
   19000     25.03255  -0.40584564  -0.40584564  -0.34021046  0.039366921  -0.40584564  0.065635187    1299997.4 
   20000    25.437007  -0.40685384  -0.40685384  -0.34015817  0.046948061  -0.40685384  0.066695671    1299997.4 
   21000    24.957938  -0.40566515  -0.40566515  -0.34022559  0.053503571  -0.40566515  0.065439557    1299997.4 
   22000    24.286913  -0.40391622  -0.40391622  -0.34023609  0.096253919  -0.40391622  0.063680133    1299997.4 
   23000     24.97098   -0.4056949   -0.4056949  -0.34022114  0.059212971   -0.4056949  0.065473753    1299997.4 
   24000    25.889221  -0.40813111  -0.40813111  -0.34024973  0.061930366  -0.40813111  0.067881375    1299997.4 
   25000    25.108763  -0.40615288  -0.40615288  -0.34031786  0.081486569  -0.40615288  0.065835019    1299997.4 
   26000    24.637576   -0.4048634   -0.4048634  -0.34026384   0.06395737   -0.4048634  0.064599568    1299997.4 
   27000    24.551364  -0.40457524  -0.40457524  -0.34020171  0.082994973  -0.40457524  0.064373522    1299997.4 
   28000    25.000267  -0.40569155  -0.40569155  -0.34014101  0.072239035  -0.40569155  0.065550543    1299997.4 
   29000     24.49483   -0.4045978   -0.4045978  -0.34037252  0.064587904   -0.4045978  0.064225289    1299997.4 
   30000    24.507082  -0.40445128  -0.40445128  -0.34019386  0.052942467  -0.40445128  0.064257415    1299997.4 
   31000    24.183898  -0.40364301  -0.40364301  -0.34023298  0.056044075  -0.40364301  0.063410029    1299997.4 
   32000    24.471313  -0.40438947  -0.40438947  -0.34022584  0.032402838  -0.40438947  0.064163627    1299997.4 
   33000    24.733053  -0.40503961  -0.40503961   -0.3401897  0.055411858  -0.40503961  0.064849909    1299997.4 
   34000     25.14327  -0.40609438  -0.40609438  -0.34016889  0.060428237  -0.40609438  0.065925495    1299997.4 
   35000    25.094317   -0.4059923   -0.4059923  -0.34019516    0.0515099   -0.4059923  0.065797142    1299997.4 
   36000    25.516453  -0.40743044  -0.40743044  -0.34052647  0.062460681  -0.40743044  0.066903977    1299997.4 
   37000    25.958475  -0.40827504  -0.40827504  -0.34021208  0.065010958  -0.40827504  0.068062958    1299997.4 
   38000    26.086347  -0.40869031  -0.40869031  -0.34029208  0.058263075  -0.40869031  0.068398238    1299997.4 
   39000     26.21051  -0.40890089  -0.40890089  -0.34017709   0.06741429  -0.40890089  0.068723792    1299997.4 
   40000    25.892211  -0.40804976  -0.40804976  -0.34016055  0.091114805  -0.40804976  0.067889213    1299997.4 
   41000    26.119659  -0.40870246  -0.40870246  -0.34021687  0.055679986  -0.40870246  0.068485582    1299997.4 
   42000    26.527067  -0.40980325  -0.40980325  -0.34024945   0.06162749  -0.40980325  0.069553803    1299997.4 
   43000    25.833114  -0.40786918  -0.40786918  -0.34013492  0.080263002  -0.40786918   0.06773426    1299997.4 
   44000    25.651761  -0.40747587  -0.40747587  -0.34021712  0.042557698  -0.40747587  0.067258755    1299997.4 
   45000    25.462036  -0.40694533  -0.40694533  -0.34018404  0.043289919  -0.40694533  0.066761297    1299997.4 
   46000    25.918689  -0.40809663  -0.40809663  -0.34013799  0.052628457  -0.40809663  0.067958638    1299997.4 
   47000    25.146959  -0.40610074  -0.40610074  -0.34016557  0.016442206  -0.40610074  0.065935167    1299997.4 
   48000    25.350479   -0.4067654   -0.4067654  -0.34029661   0.05831309   -0.4067654  0.066468796    1299997.4 
   49000    26.290123  -0.40910493  -0.40910493   -0.3401724  0.038153669  -0.40910493  0.068932537    1299997.4 
   50000    25.387387  -0.40681181  -0.40681181  -0.34024624  0.064323654  -0.40681181  0.066565567    1299997.4 
   51000    25.289533  -0.40653054  -0.40653054  -0.34022154   0.07228273  -0.40653054  0.066308996    1299997.4 
   52000    25.582606  -0.40750485  -0.40750485  -0.34042742  0.070953984  -0.40750485  0.067077432    1299997.4 
   53000    25.558671  -0.40716279  -0.40716279  -0.34014811  0.074481249  -0.40716279  0.067014673    1299997.4 
   54000    25.247095  -0.40638282  -0.40638282   -0.3401851  0.082438209  -0.40638282  0.066197723    1299997.4 
   55000    25.103714  -0.40599126  -0.40599126  -0.34016949  0.098495685  -0.40599126  0.065821779    1299997.4 
   56000    25.430285   -0.4069127   -0.4069127  -0.34023465  0.048510253   -0.4069127  0.066678047    1299997.4 
   57000    25.190996  -0.40628865  -0.40628865  -0.34023801  0.062784532  -0.40628865  0.066050631    1299997.4 
   58000    25.456221  -0.40691073  -0.40691073  -0.34016468  0.066950804  -0.40691073   0.06674605    1299997.4 
   59000    25.394956  -0.40683455  -0.40683455  -0.34024914  0.067273456  -0.40683455  0.066585414    1299997.4 
   60000     25.06104   -0.4059958   -0.4059958  -0.34028591   0.05544715   -0.4059958   0.06570989    1299997.4 
   61000    25.166702  -0.40619349  -0.40619349  -0.34020656  0.052635303  -0.40619349  0.065986933    1299997.4 
   62000    25.171983  -0.40619773  -0.40619773  -0.34019695  0.079171972  -0.40619773   0.06600078    1299997.4 
   63000    24.912253  -0.40546666  -0.40546666  -0.34014689  0.039679383  -0.40546666   0.06531977    1299997.4 
   64000    24.729538   -0.4050745   -0.4050745  -0.34023381  0.077700556   -0.4050745  0.064840693    1299997.4 
   65000    24.568761  -0.40460589  -0.40460589  -0.34018675  0.085576207  -0.40460589  0.064419136    1299997.4 
   66000    24.559995  -0.40459205  -0.40459205   -0.3401959  0.067062849  -0.40459205   0.06439615    1299997.4 
   67000     24.70957  -0.40499355  -0.40499355  -0.34020521  0.069856652  -0.40499355  0.064788336    1299997.4 
   68000    24.757365  -0.40509356  -0.40509356  -0.34017991  0.034660048  -0.40509356  0.064913654    1299997.4 
   69000    25.673527  -0.40758398  -0.40758398  -0.34026815  0.069500316  -0.40758398  0.067315825    1299997.4 
   70000    25.098817  -0.40597941  -0.40597941  -0.34017047  0.049406617  -0.40597941  0.065808939    1299997.4 
   71000    25.481703  -0.40695234  -0.40695234  -0.34013948  0.081700949  -0.40695234  0.066812863    1299997.4 
   72000    25.565354  -0.40740318  -0.40740318  -0.34037098  0.051070929  -0.40740318  0.067032196    1299997.4 
   73000    25.656788  -0.40748549  -0.40748549  -0.34021356  0.077831148  -0.40748549  0.067271936    1299997.4 
   74000    25.808103  -0.40793148  -0.40793148   -0.3402628  0.030376632  -0.40793148  0.067668682    1299997.4 
   75000    25.562406  -0.40728839  -0.40728839  -0.34026392   0.07653733  -0.40728839  0.067024466    1299997.4 
   76000     25.32925  -0.40654936  -0.40654936  -0.34013623  0.050627935  -0.40654936  0.066413133    1299997.4 
   77000    25.505101  -0.40731899  -0.40731899  -0.34044477  0.045694616  -0.40731899  0.066874213    1299997.4 
   78000    25.215229  -0.40639535  -0.40639535  -0.34028118  0.080201041  -0.40639535  0.066114171    1299997.4 
   79000    25.074983  -0.40588352  -0.40588352  -0.34013708  0.063233989  -0.40588352  0.065746447    1299997.4 
   80000    25.056502  -0.40590518  -0.40590518  -0.34020719  0.062414929  -0.40590518  0.065697989    1299997.4 
   81000    25.266897  -0.40664604  -0.40664604  -0.34039639  0.062062032  -0.40664604  0.066249643    1299997.4 
   82000    25.514247  -0.40713176  -0.40713176  -0.34023356  0.067683247  -0.40713176  0.066898194    1299997.4 
   83000    25.908888  -0.40807237  -0.40807237  -0.34013943  0.029227533  -0.40807237  0.067932941    1299997.4 
   84000    25.894558  -0.40807874  -0.40807874  -0.34018338  0.048632202  -0.40807874  0.067895367    1299997.4 
   85000    25.361144  -0.40671118  -0.40671118  -0.34021443  0.065456739  -0.40671118  0.066496758    1299997.4 
   86000    25.686654   -0.4075232   -0.4075232  -0.34017296  0.065754137   -0.4075232  0.067350244    1299997.4 
   87000    25.319834   -0.4066381   -0.4066381  -0.34024966   0.09347823   -0.4066381  0.066388444    1299997.4 
   88000    25.162287   -0.4062477   -0.4062477  -0.34027234  0.077127922   -0.4062477  0.065975358    1299997.4 
   89000    24.996799  -0.40588622  -0.40588622  -0.34034477   0.05225394  -0.40588622   0.06554145    1299997.4 
   90000    25.443752  -0.40712576  -0.40712576  -0.34041241  0.095910241  -0.40712576  0.066713357    1299997.4 
   91000    25.573444  -0.40729818  -0.40729818  -0.34024477  0.090493951  -0.40729818  0.067053408    1299997.4 
   92000    25.324835  -0.40657295  -0.40657295  -0.34017139  0.070210572  -0.40657295  0.066401557    1299997.4 
   93000     25.59908  -0.40727972  -0.40727972   -0.3401591   0.06353244  -0.40727972  0.067120626    1299997.4 
   94000    25.397945  -0.40680126  -0.40680126  -0.34020801  0.077522159  -0.40680126  0.066593252    1299997.4 
   95000     25.35536  -0.40664381  -0.40664381  -0.34016222  0.085187598  -0.40664381  0.066481593    1299997.4 
   96000    25.702717  -0.40779694  -0.40779694  -0.34040458  0.081476994  -0.40779694   0.06739236    1299997.4 
   97000    26.781386   -0.4104027   -0.4104027  -0.34018207  0.062469266   -0.4104027  0.070220626    1299997.4 
   98000     26.70774  -0.41016443  -0.41016443   -0.3401369  0.077956116  -0.41016443  0.070027525    1299997.4 
   99000    25.651776   -0.4074753   -0.4074753   -0.3402165   0.06340259   -0.4074753  0.067258795    1299997.4 
  100000    25.377759   -0.4069157   -0.4069157  -0.34037538   0.10998634   -0.4069157  0.066540323    1299997.4 
  101000    25.686275  -0.40751346  -0.40751346  -0.34016421  0.046067315  -0.40751346  0.067349251    1299997.4 
  102000    26.211162  -0.40890371  -0.40890371  -0.34017821  0.073386543  -0.40890371  0.068725501    1299997.4 
  103000    26.792998  -0.41044919  -0.41044919  -0.34019812  0.061904848  -0.41044919  0.070251072    1299997.4 
  104000      26.2086  -0.40904429  -0.40904429  -0.34032551  0.057305772  -0.40904429  0.068718783    1299997.4 
  105000    26.151847  -0.40871919  -0.40871919  -0.34014921  0.084973251  -0.40871919  0.068569977    1299997.4 
  106000    26.765547  -0.41040333  -0.41040333  -0.34022424   0.05645614  -0.41040333  0.070179096    1299997.4 
  107000    25.506612  -0.40712945  -0.40712945  -0.34025128  0.067087243  -0.40712945  0.066878176    1299997.4 
  108000    25.631754  -0.40739395  -0.40739395  -0.34018765  0.072171031  -0.40739395  0.067206296    1299997.4 
  109000     26.20497  -0.40884165  -0.40884165  -0.34013238   0.06373204  -0.40884165  0.068709265    1299997.4 
  110000    26.110866  -0.40867831  -0.40867831  -0.34021578  0.042457312  -0.40867831  0.068462525    1299997.4 
  111000    25.824074  -0.40792676  -0.40792676  -0.34021621  0.074530452  -0.40792676  0.067710558    1299997.4 
  112000    25.842784  -0.40792304  -0.40792304  -0.34016343  0.053537125  -0.40792304  0.067759617    1299997.4 
  113000    25.397444  -0.40678405  -0.40678405  -0.34019211  0.065785042  -0.40678405  0.066591938    1299997.4 
  114000     24.95772  -0.40563129  -0.40563129  -0.34019231  0.045810714  -0.40563129  0.065438985    1299997.4 
  115000     24.55642  -0.40465004  -0.40465004  -0.34026326  0.063897938  -0.40465004  0.064386779    1299997.4 
  116000    24.967792  -0.40571528  -0.40571528  -0.34024989  0.048483781  -0.40571528  0.065465394    1299997.4 
  117000     25.75149  -0.40776281  -0.40776281  -0.34024256  0.078038003  -0.40776281  0.067520243    1299997.4 
  118000    26.150583  -0.40871436  -0.40871436  -0.34014769  0.085623202  -0.40871436  0.068566663    1299997.4 
  119000    25.405376  -0.40688175  -0.40688175  -0.34026902  0.073737205  -0.40688175  0.066612735    1299997.4 
  120000    25.689278  -0.40758935  -0.40758935  -0.34023223  0.064734481  -0.40758935  0.067357124    1299997.4 
  121000    25.833261    -0.407976    -0.407976  -0.34024135  0.091975476    -0.407976  0.067734648    1299997.4 
  122000    26.236824  -0.40897489  -0.40897489   -0.3401821  0.054647761  -0.40897489  0.068792788    1299997.4 
  123000    25.706626  -0.40762017  -0.40762017  -0.34021755   0.11515301  -0.40762017  0.067402611    1299997.4 
  124000    25.620964   -0.4074261   -0.4074261  -0.34024809  0.070080273   -0.4074261  0.067178004    1299997.4 
  125000    25.664256  -0.40743996  -0.40743996  -0.34014844  0.055090425  -0.40743996  0.067291517    1299997.4 
  126000    25.802226  -0.40794128  -0.40794128    -0.340288  0.066662885  -0.40794128  0.067653273    1299997.4 
  127000    25.749985  -0.40770308  -0.40770308  -0.34018679  0.041026364  -0.40770308  0.067516297    1299997.4 
  128000    26.062739  -0.40848724  -0.40848724   -0.3401509  0.025621122  -0.40848724  0.068336337    1299997.4 
  129000    24.388101  -0.40432858  -0.40432858  -0.34038314  0.099038947  -0.40432858  0.063945446    1299997.4 
  130000    25.322319  -0.40661841  -0.40661841  -0.34022345  0.086209575  -0.40661841   0.06639496    1299997.4 
  131000    25.835156  -0.40787019  -0.40787019  -0.34013057  0.077857056  -0.40787019  0.067739617    1299997.4 
  132000    25.309103  -0.40668722  -0.40668722  -0.34032692   0.06374031  -0.40668722  0.066360307    1299997.4 
  133000    25.785311  -0.40778511  -0.40778511  -0.34017619   0.06375416  -0.40778511  0.067608922    1299997.4 
  134000    25.669071  -0.40748188  -0.40748188  -0.34017774  0.063562624  -0.40748188  0.067304141    1299997.4 
  135000    25.561389  -0.40729168  -0.40729168  -0.34026988  0.055350781  -0.40729168  0.067021801    1299997.4 
  136000    26.168807  -0.40876646  -0.40876646  -0.34015201  0.059926042  -0.40876646  0.068614447    1299997.4 
  137000    26.071517  -0.40863819  -0.40863819  -0.34027884  0.078494856  -0.40863819  0.068359354    1299997.4 
  138000    25.487768  -0.40701324  -0.40701324  -0.34018447  0.081656926  -0.40701324  0.066828766    1299997.4 
  139000    25.788941  -0.40784021  -0.40784021  -0.34022177  0.041464245  -0.40784021   0.06761844    1299997.4 
  140000    25.661999   -0.4075123   -0.4075123   -0.3402267  0.086906886   -0.4075123  0.067285599    1299997.4 
  141000    26.255503  -0.40901651  -0.40901651  -0.34017475  0.080684392  -0.40901651  0.068841763    1299997.4 
  142000    26.298808  -0.40924645  -0.40924645  -0.34029114  0.047967997  -0.40924645  0.068955307    1299997.4 
  143000    26.339265  -0.40919366  -0.40919366  -0.34013228  0.042907577  -0.40919366  0.069061387    1299997.4 
  144000    25.789588  -0.40780959  -0.40780959  -0.34018946  0.075619504  -0.40780959  0.067620137    1299997.4 
  145000    25.972171  -0.40839353  -0.40839353  -0.34029466  0.084133737  -0.40839353  0.068098868    1299997.4 
  146000    25.177705  -0.40616186  -0.40616186  -0.34014608   0.07241759  -0.40616186  0.066015783    1299997.4 
  147000    25.143027  -0.40614665  -0.40614665  -0.34022179  0.036701264  -0.40614665  0.065924859    1299997.4 
  148000    25.265884  -0.40641258  -0.40641258  -0.34016559  0.059046845  -0.40641258  0.066246987    1299997.4 
  149000    24.659128  -0.40479531  -0.40479531  -0.34013923  0.077826166  -0.40479531  0.064656078    1299997.4 
  150000    24.955445  -0.40570144  -0.40570144  -0.34026842  0.058899191  -0.40570144   0.06543302    1299997.4 
  151000    24.588822  -0.40475081  -0.40475081  -0.34027908  0.054168785  -0.40475081  0.064471737    1299997.4 
  152000     24.78285  -0.40519661  -0.40519661  -0.34021613  0.039777253  -0.40519661  0.064980475    1299997.4 
  153000     24.67123  -0.40488309  -0.40488309  -0.34019528  0.053684799  -0.40488309  0.064687809    1299997.4 
  154000    24.466456  -0.40430657  -0.40430657  -0.34015568  0.080594621  -0.40430657  0.064150892    1299997.4 
  155000    24.615506  -0.40480142  -0.40480142  -0.34025972  0.066750127  -0.40480142    0.0645417    1299997.4 
  156000    25.570817   -0.4073047   -0.4073047  -0.34025817  0.096742257   -0.4073047  0.067046521    1299997.4 
  157000    25.325163  -0.40665374  -0.40665374  -0.34025132  0.084500585  -0.40665374  0.066402417    1299997.4 
  158000    24.651887  -0.40477966  -0.40477966  -0.34014257   0.07414518  -0.40477966  0.064637093    1299997.4 
  159000    25.591192  -0.40733421  -0.40733421  -0.34023426  0.057292405  -0.40733421  0.067099943    1299997.4 
  160000    25.793234  -0.40789057  -0.40789057  -0.34026087  0.059979507  -0.40789057  0.067629697    1299997.4 
  161000    26.105691  -0.40865993  -0.40865993  -0.34021097  0.059303265  -0.40865993  0.068448957    1299997.4 
  162000    25.822287  -0.40785803  -0.40785803  -0.34015216   0.12165326  -0.40785803  0.067705873    1299997.4 
  163000    25.665494   -0.4076187   -0.4076187  -0.34032394  0.058438601   -0.4076187  0.067294763    1299997.4 
  164000    25.150702  -0.40624766  -0.40624766  -0.34030268  0.053279286  -0.40624766  0.065944982    1299997.4 
  165000     25.51661  -0.40721972  -0.40721972  -0.34031533  0.035337349  -0.40721972  0.066904391    1299997.4 
  166000    25.762634  -0.40768858  -0.40768858  -0.34013912  0.058696906  -0.40768858  0.067549463    1299997.4 
  167000    26.020422  -0.40865756  -0.40865756  -0.34043218  0.089077543  -0.40865756  0.068225382    1299997.4 
  168000    25.567703  -0.40720724  -0.40720724  -0.34016888  0.059729732  -0.40720724  0.067038357    1299997.4 
  169000    25.485857  -0.40711417  -0.40711417  -0.34029042  0.063171593  -0.40711417  0.066823756    1299997.4 
  170000    25.544434  -0.40734634  -0.40734634  -0.34036899  0.076883446  -0.40734634  0.066977345    1299997.4 
  171000    24.889717  -0.40555586  -0.40555586  -0.34029518  0.075657804  -0.40555586  0.065260682    1299997.4 
  172000    26.082557  -0.40867726  -0.40867726  -0.34028896  0.033129457  -0.40867726  0.068388299    1299997.4 
  173000    25.668723  -0.40750927  -0.40750927  -0.34020604  0.076321101  -0.40750927   0.06730323    1299997.4 
  174000     25.30508  -0.40650974  -0.40650974  -0.34015998   0.07851276  -0.40650974   0.06634976    1299997.4 
  175000    25.964455  -0.40824728  -0.40824728  -0.34016864  0.085123732  -0.40824728  0.068078637    1299997.4 
  176000    25.567626  -0.40730454  -0.40730454  -0.34026638  0.051566655  -0.40730454  0.067038155    1299997.4 
  177000    24.922329  -0.40551851  -0.40551851  -0.34017232  0.037746383  -0.40551851   0.06534619    1299997.4 
  178000    25.154627  -0.40612266  -0.40612266  -0.34016738  0.073088522  -0.40612266  0.065955272    1299997.4 
  179000    25.449585  -0.40695493  -0.40695493  -0.34022628  0.056168548  -0.40695493  0.066728651    1299997.4 
  180000    25.263637  -0.40639576  -0.40639576  -0.34015467  0.058822667  -0.40639576  0.066241095    1299997.4 
  181000    25.047323  -0.40589319  -0.40589319  -0.34021927  0.072354352  -0.40589319  0.065673922    1299997.4 
  182000    24.712191  -0.40502274  -0.40502274  -0.34022753  0.060501601  -0.40502274  0.064795208    1299997.4 
  183000    24.301849  -0.40396073  -0.40396073  -0.34024144  0.094150005  -0.40396073  0.063719294    1299997.4 
  184000    24.517777  -0.40453017  -0.40453017  -0.34024472   0.06606433  -0.40453017  0.064285455    1299997.4 
  185000    24.532903  -0.40454443  -0.40454443  -0.34021931  0.054264637  -0.40454443  0.064325115    1299997.4 
  186000    25.063392  -0.40596072  -0.40596072  -0.34024466  0.051894004  -0.40596072  0.065716055    1299997.4 
  187000    24.762053  -0.40516527  -0.40516527  -0.34023933  0.081807678  -0.40516527  0.064925946    1299997.4 
  188000    24.633986  -0.40484292  -0.40484292  -0.34025277  0.054104913  -0.40484292  0.064590155    1299997.4 
  189000    24.176756  -0.40387012  -0.40387012  -0.34047882  0.061281427  -0.40387012  0.063391301    1299997.4 
  190000    24.220994  -0.40366547  -0.40366547  -0.34015818  0.069353994  -0.40366547  0.063507292    1299997.4 
  191000    24.287168  -0.40408019  -0.40408019  -0.34039939    0.1027686  -0.40408019  0.063680802    1299997.4 
  192000    24.613138  -0.40467651  -0.40467651  -0.34014101  0.046767983  -0.40467651  0.064535493    1299997.4 
  193000    24.542989  -0.40460726  -0.40460726  -0.34025569  0.082836142  -0.40460726  0.064351562    1299997.4 
  194000    25.495573  -0.40702367  -0.40702367  -0.34017444  0.028641393  -0.40702367  0.066849231    1299997.4 
  195000    25.262902  -0.40652149  -0.40652149  -0.34028232  0.044055053  -0.40652149  0.066239169    1299997.4 
  196000    25.638792  -0.40755845  -0.40755845   -0.3403337  0.054536653  -0.40755845  0.067224751    1299997.4 
  197000    25.368915  -0.40668526  -0.40668526  -0.34016812  0.069297676  -0.40668526  0.066517136    1299997.4 
  198000    25.670177  -0.40751671  -0.40751671  -0.34020967  0.079837326  -0.40751671  0.067307042    1299997.4 
  199000    25.732131  -0.40771747  -0.40771747  -0.34024798  0.040843042  -0.40771747  0.067469486    1299997.4 
  200000    24.985118  -0.40585781  -0.40585781  -0.34034699  0.094448625  -0.40585781  0.065510821    1299997.4 
  201000    25.348285  -0.40665981  -0.40665981  -0.34019677  0.058639112  -0.40665981  0.066463042    1299997.4 
  202000     24.96517  -0.40562277  -0.40562277  -0.34016425    0.0360816  -0.40562277  0.065458519    1299997.4 
  203000    25.474375  -0.40698502  -0.40698502  -0.34019137  0.056895184  -0.40698502  0.066793651    1299997.4 
  204000    25.488308  -0.40701245  -0.40701245  -0.34018227  0.062789927  -0.40701245  0.066830183    1299997.4 
  205000    25.243894  -0.40639841  -0.40639841  -0.34020908  0.061746228  -0.40639841  0.066189331    1299997.4 
  206000    25.173663  -0.40624263  -0.40624263  -0.34023745  0.077068013  -0.40624263  0.066005185    1299997.4 
  207000    24.877268  -0.40548327  -0.40548327  -0.34025522  0.086427475  -0.40548327  0.065228041    1299997.4 
  208000    25.546368  -0.40716547  -0.40716547  -0.34018305  0.060519004  -0.40716547  0.066982417    1299997.4 
  209000    25.563735  -0.40721727  -0.40721727  -0.34018932  0.068734622  -0.40721727  0.067027952    1299997.4 
  210000    25.103959  -0.40620587  -0.40620587  -0.34038345  0.082697489  -0.40620587  0.065822423    1299997.4 
  211000     25.32598  -0.40655302  -0.40655302  -0.34014846  0.069573096  -0.40655302   0.06640456    1299997.4 
  212000    24.881331  -0.40543867  -0.40543867  -0.34019998  0.067975412  -0.40543867  0.065238693    1299997.4 
  213000    25.194565  -0.40619296  -0.40619296  -0.34013297  0.084648378  -0.40619296  0.066059989    1299997.4 
  214000    25.124573  -0.40608179  -0.40608179  -0.34020532  0.077058964  -0.40608179  0.065876472    1299997.4 
  215000    24.612588  -0.40475262  -0.40475262  -0.34021857  0.089254217  -0.40475262   0.06453405    1299997.4 
  216000    26.082043  -0.40857689  -0.40857689  -0.34018994  0.075352675  -0.40857689  0.068386951    1299997.4 
  217000    26.319462  -0.40919199  -0.40919199  -0.34018253  0.058953038  -0.40919199  0.069009464    1299997.4 
  218000    26.250464  -0.40899172  -0.40899172  -0.34016316  0.079043927  -0.40899172  0.068828552    1299997.4 
  219000    26.410236  -0.40942701  -0.40942701  -0.34017954  0.069252356  -0.40942701  0.069247471    1299997.4 
  220000    26.125743  -0.40870268  -0.40870268  -0.34020115  0.070888479  -0.40870268  0.068501534    1299997.4 
  221000    25.891377  -0.40802299  -0.40802299  -0.34013596  0.076920192  -0.40802299  0.067887027    1299997.4 
  222000    26.384006   -0.4093326   -0.4093326   -0.3401539  0.075098257   -0.4093326  0.069178698    1299997.4 
  223000    26.374475    -0.409386    -0.409386  -0.34023229   0.05980839    -0.409386  0.069153708    1299997.4 
  224000    26.577392  -0.40992878  -0.40992878  -0.34024303  0.062552973  -0.40992878  0.069685754    1299997.4 
  225000    26.063301  -0.40853185  -0.40853185  -0.34019404  0.070122276  -0.40853185   0.06833781    1299997.4 
  226000    26.371427   -0.4093469   -0.4093469  -0.34020118  0.060899526   -0.4093469  0.069145716    1299997.4 
  227000    25.746821  -0.40769867  -0.40769867  -0.34019067  0.065803356  -0.40769867  0.067508003    1299997.4 
  228000    25.560111  -0.40718256  -0.40718256  -0.34016411  0.034427653  -0.40718256  0.067018449    1299997.4 
  229000    25.486634  -0.40715404  -0.40715404  -0.34032824  0.059508032  -0.40715404  0.066825794    1299997.4 
  230000     25.38484  -0.40678176  -0.40678176  -0.34022287  0.069789117  -0.40678176   0.06655889    1299997.4 
  231000    25.666145  -0.40755191  -0.40755191  -0.34025545  0.041269585  -0.40755191  0.067296469    1299997.4 
  232000    25.392453  -0.40682737  -0.40682737  -0.34024852   0.07413527  -0.40682737  0.066578851    1299997.4 
  233000     25.53069  -0.40722962  -0.40722962  -0.34028831  0.084183466  -0.40722962  0.066941309    1299997.4 
  234000    24.828122  -0.40531424  -0.40531424  -0.34021506  0.099908226  -0.40531424  0.065099179    1299997.4 
  235000    25.079158  -0.40593162  -0.40593162  -0.34017422   0.05413923  -0.40593162  0.065757394    1299997.4 
  236000    25.712564  -0.40760425  -0.40760425  -0.34018607  0.046865977  -0.40760425  0.067418181    1299997.4 
  237000    25.321958  -0.40661162  -0.40661162  -0.34021761  0.062236271  -0.40661162  0.066394015    1299997.4 
  238000    25.717479  -0.40771622  -0.40771622  -0.34028516  0.060913366  -0.40771622  0.067431067    1299997.4 
  239000    25.896838  -0.40803827  -0.40803827  -0.34013693  0.073813658  -0.40803827  0.067901346    1299997.4 
  240000    25.999862  -0.40841901  -0.40841901  -0.34024754  0.066866993  -0.40841901  0.068171473    1299997.4 
  241000    25.306402  -0.40656969  -0.40656969  -0.34021647   0.11253512  -0.40656969  0.066353225    1299997.4 
  242000    25.950183  -0.40829405  -0.40829405  -0.34025283  0.078734656  -0.40829405  0.068041215    1299997.4 
  243000    25.600205   -0.4074657   -0.4074657  -0.34034213   0.08405797   -0.4074657  0.067123575    1299997.4 
  244000    26.518513  -0.40970912  -0.40970912  -0.34017775  0.052245014  -0.40970912  0.069531374    1299997.4 
  245000    26.098071  -0.40868505  -0.40868505  -0.34025607  0.053020243  -0.40868505  0.068428977    1299997.4 
  246000    25.867259  -0.40811898  -0.40811898  -0.34029519  0.094940233  -0.40811898  0.067823789    1299997.4 
  247000    26.490734  -0.40967773  -0.40967773   -0.3402192  0.024303367  -0.40967773  0.069458538    1299997.4 
  248000     25.85175  -0.40797218  -0.40797218  -0.34018906  0.064723327  -0.40797218  0.067783125    1299997.4 
  249000    25.545492  -0.40731573  -0.40731573  -0.34033561  0.051646588  -0.40731573  0.066980118    1299997.4 
  250000    25.722863  -0.40765198  -0.40765198  -0.34020679  0.053286819  -0.40765198  0.067445184    1299997.4 
  251000    25.985449  -0.40834548  -0.40834548   -0.3402118  0.050852661  -0.40834548  0.068133682    1299997.4 
  252000    25.939606  -0.40815953  -0.40815953  -0.34014605  0.052042301  -0.40815953  0.068013483    1299997.4 
  253000    25.782066  -0.40774274  -0.40774274  -0.34014232  0.079279566  -0.40774274  0.067600413    1299997.4 
  254000    25.518918  -0.40718876  -0.40718876  -0.34027831  0.093082757  -0.40718876  0.066910441    1299997.4 
  255000    26.143618  -0.40875135  -0.40875135  -0.34020295  0.066686277  -0.40875135  0.068548401    1299997.4 
  256000    25.924135  -0.40820078  -0.40820078  -0.34022786  0.037565289  -0.40820078  0.067972919    1299997.4 
  257000    26.030438  -0.40841917  -0.40841917  -0.34016753  0.082423507  -0.40841917  0.068251645    1299997.4 
  258000    25.253439  -0.40645957  -0.40645957  -0.34024521  0.091557577  -0.40645957  0.066214357    1299997.4 
  259000    25.305682   -0.4066392   -0.4066392  -0.34028786  0.087090128   -0.4066392  0.066351337    1299997.4 
  260000    25.641253  -0.40744205  -0.40744205  -0.34021085  0.049476905  -0.40744205  0.067231203    1299997.4 
  261000    26.254418  -0.40909641  -0.40909641  -0.34025749  0.042408433  -0.40909641  0.068838919    1299997.4 
  262000    25.704752  -0.40762444  -0.40762444  -0.34022674  0.074895339  -0.40762444  0.067397696    1299997.4 
  263000    25.485011  -0.40698295  -0.40698295  -0.34016141  0.051007613  -0.40698295  0.066821539    1299997.4 
  264000    25.257086  -0.40639843  -0.40639843  -0.34017451  0.064955104  -0.40639843   0.06622392    1299997.4 
  265000     25.39529  -0.40688416  -0.40688416  -0.34029787  0.042502618  -0.40688416  0.066586289    1299997.4 
  266000     25.53698  -0.40722584  -0.40722584  -0.34026803  0.073529737  -0.40722584  0.066957801    1299997.4 
  267000    26.165904  -0.40905498  -0.40905498  -0.34044814  0.086329976  -0.40905498  0.068606834    1299997.4 
  268000    26.089154  -0.40868889  -0.40868889  -0.34028329  0.048513596  -0.40868889  0.068405596    1299997.4 
  269000    25.795966  -0.40801757  -0.40801757  -0.34038072  0.091255505  -0.40801757  0.067636859    1299997.4 
  270000    25.961793   -0.4082161   -0.4082161  -0.34014444  0.064499199   -0.4082161  0.068071658    1299997.4 
  271000    25.978056  -0.40835231  -0.40835231  -0.34023801  0.070567772  -0.40835231  0.068114299    1299997.4 
  272000    26.058423  -0.40851621  -0.40851621  -0.34019119  0.074828151  -0.40851621  0.068325022    1299997.4 
  273000    26.178031  -0.40886752  -0.40886752  -0.34022889  0.055936287  -0.40886752  0.068638631    1299997.4 
  274000    26.414704  -0.40946669  -0.40946669  -0.34020751  0.064274935  -0.40946669  0.069259187    1299997.4 
  275000    26.295865  -0.40919346  -0.40919346  -0.34024587  0.044104685  -0.40919346  0.068947591    1299997.4 
  276000    25.950608  -0.40829243  -0.40829243   -0.3402501  0.042467173  -0.40829243   0.06804233    1299997.4 
  277000    25.491812  -0.40713275  -0.40713275  -0.34029338   0.11856225  -0.40713275  0.066839371    1299997.4 
  278000    25.730264  -0.40762138  -0.40762138  -0.34015679  0.077425956  -0.40762138   0.06746459    1299997.4 
  279000    25.510375  -0.40705929  -0.40705929  -0.34017125  0.057831581  -0.40705929  0.066888041    1299997.4 
  280000    25.722284  -0.40760665  -0.40760665  -0.34016298   0.06492326  -0.40760665  0.067443667    1299997.4 
  281000    26.444459  -0.40950429  -0.40950429  -0.34016708  0.059133012  -0.40950429  0.069337205    1299997.4 
  282000    25.816812  -0.40799606  -0.40799606  -0.34030455  0.051474148  -0.40799606  0.067691517    1299997.4 
  283000    26.078209  -0.40856656  -0.40856656  -0.34018966  0.083895572  -0.40856656    0.0683769    1299997.4 
  284000    25.413506  -0.40678922  -0.40678922  -0.34015517  0.080185944  -0.40678922  0.066634053    1299997.4 
  285000    25.878812  -0.40799328  -0.40799328   -0.3401392  0.068831218  -0.40799328   0.06785408    1299997.4 
  286000    26.135355  -0.40871013  -0.40871013   -0.3401834  0.086129008  -0.40871013  0.068526734    1299997.4 
  287000    26.217883  -0.40897244  -0.40897244  -0.34022931  0.061283982  -0.40897244  0.068743123    1299997.4 
  288000    26.592571  -0.40988387  -0.40988387  -0.34015832   0.03934206  -0.40988387  0.069725552    1299997.4 
  289000    25.890695  -0.40803874  -0.40803874   -0.3401535  0.049513307  -0.40803874  0.067885238    1299997.4 
  290000     25.96588  -0.40831893  -0.40831893  -0.34023656  0.074120882  -0.40831893  0.068082373    1299997.4 
  291000    26.403463  -0.40938434  -0.40938434  -0.34015463  0.068628789  -0.40938434  0.069229714    1299997.4 
  292000    26.139271  -0.40866836  -0.40866836  -0.34013136  0.075065283  -0.40866836  0.068537003    1299997.4 
  293000    25.590203  -0.40729083  -0.40729083  -0.34019348  0.048548368  -0.40729083   0.06709735    1299997.4 
  294000    25.338909  -0.40657813  -0.40657813  -0.34013967  0.066056136  -0.40657813  0.066438458    1299997.4 
  295000    25.003469  -0.40576809  -0.40576809  -0.34020916  0.069397237  -0.40576809  0.065558939    1299997.4 
  296000    24.984624  -0.40576049  -0.40576049  -0.34025096  0.078941337  -0.40576049  0.065509527    1299997.4 
  297000    25.429637  -0.40691861  -0.40691861  -0.34024227  0.045907796  -0.40691861  0.066676348    1299997.4 
  298000    25.460405  -0.40691548  -0.40691548  -0.34015846  0.055992155  -0.40691548  0.066757021    1299997.4 
  299000    25.161651  -0.40615255  -0.40615255  -0.34017886  0.087026805  -0.40615255  0.065973689    1299997.4 
  300000    25.835116  -0.40791872  -0.40791872  -0.34017921  0.069558372  -0.40791872   0.06773951    1299997.4 
  301000    25.610017  -0.40738626  -0.40738626  -0.34023696    0.0427028  -0.40738626  0.067149301    1299997.4 
  302000    25.838601  -0.40791161  -0.40791161  -0.34016296  0.068262581  -0.40791161  0.067748649    1299997.4 
  303000    25.817818  -0.40785241  -0.40785241  -0.34015825  0.081683725  -0.40785241  0.067694155    1299997.4 
  304000    25.661902  -0.40758459  -0.40758459  -0.34029924  0.070344846  -0.40758459  0.067285345    1299997.4 
  305000    25.682583   -0.4075007   -0.4075007  -0.34016113  0.095470925   -0.4075007   0.06733957    1299997.4 
  306000    25.565523  -0.40725555  -0.40725555  -0.34022291  0.031807007  -0.40725555  0.067032639    1299997.4 
  307000    25.156551  -0.40617542  -0.40617542   -0.3402151  0.051090307  -0.40617542  0.065960319    1299997.4 
  308000    25.657668  -0.40745835  -0.40745835  -0.34018411  0.048437373  -0.40745835  0.067274242    1299997.4 
  309000    25.152665  -0.40614261  -0.40614261  -0.34019248  0.034526091  -0.40614261  0.065950128    1299997.4 
  310000    25.408811  -0.40676113  -0.40676113  -0.34013939  0.052116259  -0.40676113  0.066621742    1299997.4 
  311000    25.549344  -0.40713401  -0.40713401  -0.34014379  0.054212956  -0.40713401  0.066990218    1299997.4 
  312000    25.881712  -0.40810752  -0.40810752  -0.34024584  0.054938071  -0.40810752  0.067861685    1299997.4 
  313000    25.790027  -0.40776425  -0.40776425  -0.34014296  0.056716805  -0.40776425  0.067621287    1299997.4 
  314000    26.310541  -0.40922826  -0.40922826  -0.34024219  0.072259857  -0.40922826  0.068986073    1299997.4 
  315000    25.594718  -0.40740152  -0.40740152  -0.34029233   0.10907189  -0.40740152  0.067109189    1299997.4 
  316000    25.935154  -0.40821965  -0.40821965  -0.34021784   0.05357545  -0.40821965  0.068001811    1299997.4 
  317000    26.686331  -0.41011575  -0.41011575  -0.34014436   0.09040376  -0.41011575   0.06997139    1299997.4 
  318000    26.301583  -0.40921745  -0.40921745  -0.34025487  0.037716847  -0.40921745  0.068962584    1299997.4 
  319000    26.233232  -0.40913902  -0.40913902  -0.34035565  0.050740536  -0.40913902  0.068783369    1299997.4 
  320000    26.040462  -0.40850518  -0.40850518  -0.34022725  0.053541058  -0.40850518  0.068277928    1299997.4 
  321000    26.032043   -0.4085582   -0.4085582  -0.34030234  0.067832884   -0.4085582  0.068255853    1299997.4 
  322000    26.805823  -0.41059199  -0.41059199  -0.34030729  0.061338875  -0.41059199    0.0702847    1299997.4 
  323000     26.48517  -0.40958868  -0.40958868  -0.34014473   0.04438874  -0.40958868  0.069443948    1299997.4 
  324000    26.826278  -0.41055232  -0.41055232  -0.34021399  0.061209264  -0.41055232  0.070338332    1299997.4 
  325000    26.178329  -0.40894129  -0.40894129  -0.34030188  0.043447048  -0.40894129  0.068639413    1299997.4 
  326000    26.213378  -0.40897611  -0.40897611   -0.3402448  0.062496461  -0.40897611  0.068731311    1299997.4 
  327000     26.24818  -0.40896712  -0.40896712  -0.34014456  0.050216234  -0.40896712  0.068822563    1299997.4 
  328000    26.064977  -0.40849742  -0.40849742  -0.34015522  0.058785995  -0.40849742  0.068342206    1299997.4 
  329000     26.21326  -0.40905501  -0.40905501  -0.34032401  0.060497744  -0.40905501  0.068731002    1299997.4 
  330000    26.583224   -0.4098654   -0.4098654  -0.34016435  0.061223746   -0.4098654  0.069701046    1299997.4 
  331000    25.270131  -0.40640454  -0.40640454  -0.34014641  0.071921145  -0.40640454  0.066258125    1299997.4 
  332000    25.185611  -0.40629036  -0.40629036  -0.34025384   0.08350095  -0.40629036  0.066036513    1299997.4 
  333000     25.66569  -0.40743896  -0.40743896  -0.34014368  0.078829208  -0.40743896  0.067295278    1299997.4 
  334000    25.028451  -0.40586308  -0.40586308  -0.34023864   0.06674558  -0.40586308   0.06562444    1299997.4 
  335000    24.939774  -0.40570395  -0.40570395  -0.34031202  0.059557467  -0.40570395  0.065391931    1299997.4 
  336000     25.17805  -0.40624548  -0.40624548  -0.34022879   0.10178328  -0.40624548  0.066016689    1299997.4 
  337000     26.10496   -0.4087258   -0.4087258  -0.34027876  0.060721703   -0.4087258   0.06844704    1299997.4 
  338000    26.574906  -0.40985378  -0.40985378  -0.34017455  0.045918161  -0.40985378  0.069679236    1299997.4 
  339000    26.127895  -0.40876934  -0.40876934  -0.34026216  0.070622298  -0.40876934  0.068507176    1299997.4 
  340000    25.727726  -0.40763605  -0.40763605  -0.34017812  0.065638825  -0.40763605  0.067457934    1299997.4 
  341000    25.798486  -0.40783069  -0.40783069  -0.34018722  0.038087958  -0.40783069  0.067643466    1299997.4 
  342000    25.876399   -0.4080586   -0.4080586  -0.34021084  0.066974669   -0.4080586  0.067847754    1299997.4 
  343000    25.940582  -0.40819211  -0.40819211  -0.34017607  0.073619317  -0.40819211  0.068016041    1299997.4 
  344000    25.756293  -0.40767381  -0.40767381  -0.34014097  0.061406827  -0.40767381  0.067532837    1299997.4 
  345000    26.253664  -0.40899577  -0.40899577  -0.34015883  0.054046906  -0.40899577   0.06883694    1299997.4 
  346000    25.734035  -0.40770625  -0.40770625  -0.34023178  0.049165119  -0.40770625  0.067474478    1299997.4 
  347000    25.636534  -0.40741243  -0.40741243   -0.3401936  0.064838256  -0.40741243  0.067218831    1299997.4 
  348000    25.684435  -0.40757505  -0.40757505  -0.34023063  0.054433585  -0.40757505  0.067344425    1299997.4 
  349000    25.256449  -0.40640352  -0.40640352  -0.34018127  0.038620313  -0.40640352  0.066222249    1299997.4 
  350000    25.353445  -0.40667508  -0.40667508  -0.34019851  0.074952759  -0.40667508  0.066476574    1299997.4 
  351000    25.254418  -0.40641501  -0.40641501  -0.34019808  0.032801349  -0.40641501  0.066216924    1299997.4 
  352000    25.174492  -0.40619372  -0.40619372  -0.34018636  0.072328593  -0.40619372  0.066007358    1299997.4 
  353000    25.588658  -0.40738357  -0.40738357  -0.34029027  0.028584064  -0.40738357    0.0670933    1299997.4 
  354000    25.990273  -0.40832695  -0.40832695  -0.34018062  0.070302653  -0.40832695  0.068146332    1299997.4 
  355000    25.486527  -0.40708926  -0.40708926  -0.34026375  0.073501481  -0.40708926  0.066825513    1299997.4 
  356000    25.946108  -0.40817693  -0.40817693   -0.3401464  0.062103647  -0.40817693   0.06803053    1299997.4 
  357000    25.646729   -0.4074024   -0.4074024  -0.34015684   0.10315114   -0.4074024  0.067245562    1299997.4 
  358000    26.235292  -0.40906284  -0.40906284  -0.34027407   0.05699106  -0.40906284  0.068788771    1299997.4 
  359000    25.921673  -0.40830034  -0.40830034  -0.34033388  0.045872075  -0.40830034  0.067966464    1299997.4 
  360000    25.420353  -0.40687383  -0.40687383  -0.34022183  0.060699102  -0.40687383  0.066652004    1299997.4 
  361000    25.532469  -0.40716364  -0.40716364  -0.34021767  0.083994651  -0.40716364  0.066945973    1299997.4 
  362000    25.311357  -0.40657182  -0.40657182   -0.3402056   0.04437534  -0.40657182  0.066366219    1299997.4 
  363000    25.141152  -0.40626116  -0.40626116  -0.34034121  0.070434778  -0.40626116  0.065919943    1299997.4 
  364000    25.230479  -0.40641869  -0.40641869  -0.34026453  0.074250751  -0.40641869  0.066154156    1299997.4 
  365000    25.390238  -0.40677167  -0.40677167  -0.34019862   0.07008706  -0.40677167  0.066573044    1299997.4 
  366000    25.391704   -0.4067785   -0.4067785  -0.34020161  0.053989203   -0.4067785  0.066576888    1299997.4 
  367000    25.836655  -0.40800162  -0.40800162  -0.34025808  0.073800531  -0.40800162  0.067743547    1299997.4 
  368000    25.995479  -0.40841401  -0.40841401  -0.34025403   0.08379289  -0.40841401  0.068159982    1299997.4 
  369000    26.699093  -0.41032672  -0.41032672  -0.34032187  0.062391054  -0.41032672  0.070004853    1299997.4 
  370000    26.732866  -0.41024084  -0.41024084  -0.34014744  0.039990066  -0.41024084  0.070093406    1299997.4 
  371000    26.410306  -0.40960528  -0.40960528  -0.34035762  0.080101145  -0.40960528  0.069247656    1299997.4 
  372000     26.77033  -0.41037478  -0.41037478  -0.34018314  0.028644584  -0.41037478  0.070191636    1299997.4 
  373000    26.742495  -0.41026225  -0.41026225   -0.3401436  0.059521035  -0.41026225  0.070118652    1299997.4 
  374000     25.48116  -0.40698524  -0.40698524  -0.34017379  0.037223009  -0.40698524  0.066811441    1299997.4 
  375000    25.794178  -0.40777066  -0.40777066  -0.34013848  0.068197694  -0.40777066  0.067632172    1299997.4 
  376000    25.533748  -0.40713662  -0.40713662  -0.34018729  0.086601599  -0.40713662  0.066949326    1299997.4 
  377000     25.60873  -0.40736576  -0.40736576  -0.34021983   0.07180671  -0.40736576  0.067145928    1299997.4 
  378000    25.456207   -0.4071622   -0.4071622  -0.34041618   0.06284569   -0.4071622  0.066746015    1299997.4 
  379000    25.950098   -0.4082069   -0.4082069  -0.34016591  0.088463084   -0.4082069  0.068040992    1299997.4 
  380000    25.830926  -0.40796655  -0.40796655  -0.34023803  0.069301651  -0.40796655  0.067728525    1299997.4 
  381000    25.122032  -0.40608638  -0.40608638  -0.34021657  0.071844037  -0.40608638  0.065869809    1299997.4 
  382000    25.485601  -0.40713486  -0.40713486  -0.34031178  0.079240385  -0.40713486  0.066823086    1299997.4 
  383000     25.26606  -0.40656179  -0.40656179  -0.34031434   0.07143999  -0.40656179  0.066247451    1299997.4 
  384000    25.806829  -0.40787091  -0.40787091  -0.34020556  0.072317388  -0.40787091  0.067665344    1299997.4 
  385000    25.522773  -0.40719655  -0.40719655    -0.340276  0.047374424  -0.40719655  0.066920549    1299997.4 
  386000    25.966363  -0.40824945  -0.40824945  -0.34016581  0.060110952  -0.40824945   0.06808364    1299997.4 
  387000    26.254443   -0.4090255   -0.4090255  -0.34018652  0.036002307   -0.4090255  0.068838985    1299997.4 
  388000      25.7698  -0.40774083  -0.40774083  -0.34017258  0.065063905  -0.40774083  0.067568254    1299997.4 
  389000     26.03703  -0.40857082  -0.40857082  -0.34030189  0.053831483  -0.40857082  0.068268928    1299997.4 
  390000    25.589789  -0.40731538  -0.40731538  -0.34021912  0.080593689  -0.40731538  0.067096265    1299997.4 
  391000     25.07098  -0.40595522  -0.40595522  -0.34021927  0.062660047  -0.40595522  0.065735951    1299997.4 
  392000    25.038716  -0.40581291  -0.40581291  -0.34016156  0.080781711  -0.40581291  0.065651354    1299997.4 
  393000    25.539346  -0.40713621  -0.40713621  -0.34017221     0.040202  -0.40713621  0.066964004    1299997.4 
  394000     25.59657  -0.40735362  -0.40735362  -0.34023958  0.035218327  -0.40735362  0.067114044    1299997.4 
  395000    25.196562  -0.40622752  -0.40622752   -0.3401623   0.07962564  -0.40622752  0.066065226    1299997.4 
  396000    25.581951   -0.4073724   -0.4073724  -0.34029668  0.057745391   -0.4073724  0.067075713    1299997.4 
  397000    25.581267  -0.40745265  -0.40745265  -0.34037873  0.057085608  -0.40745265  0.067073921    1299997.4 
  398000    25.549643   -0.4071489   -0.4071489   -0.3401579  0.048073492   -0.4071489  0.066991002    1299997.4 
  399000    25.898472  -0.40819802  -0.40819802  -0.34029239  0.067426958  -0.40819802  0.067905629    1299997.4 
  400000    25.868597  -0.40803914  -0.40803914  -0.34021184  0.056634425  -0.40803914  0.067827297    1299997.4 
  401000    26.153057  -0.40876587  -0.40876587  -0.34019272  0.078574565  -0.40876587   0.06857315    1299997.4 
  402000    25.855789  -0.40811927  -0.40811927  -0.34032556  0.063159892  -0.40811927  0.067793715    1299997.4 
  403000    26.101944  -0.40863993  -0.40863993   -0.3402008  0.048370676  -0.40863993  0.068439133    1299997.4 
  404000    26.226076  -0.40898037  -0.40898037  -0.34021576  0.037730576  -0.40898037  0.068764606    1299997.4 
  405000    26.308774  -0.40912422  -0.40912422  -0.34014278   0.07334318  -0.40912422   0.06898144    1299997.4 
  406000    25.329408  -0.40659934  -0.40659934  -0.34018579  0.091772417  -0.40659934  0.066413547    1299997.4 
  407000    25.695316  -0.40755545  -0.40755545  -0.34018249  0.019952769  -0.40755545  0.067372956    1299997.4 
  408000    25.278429   -0.4064545   -0.4064545  -0.34017462  0.059012165   -0.4064545  0.066279882    1299997.4 
  409000    24.860201  -0.40545236  -0.40545236  -0.34026907   0.07122177  -0.40545236   0.06518329    1299997.4 
  410000    25.146736  -0.40621605  -0.40621605  -0.34028147  0.090428919  -0.40621605  0.065934583    1299997.4 
  411000    25.523758  -0.40715092  -0.40715092  -0.34022778  0.061192548  -0.40715092  0.066923133    1299997.4 
  412000    25.287074  -0.40647696  -0.40647696  -0.34017441  0.045482146  -0.40647696  0.066302549    1299997.4 
  413000    25.871394  -0.40797814  -0.40797814  -0.34014351  0.059123949  -0.40797814  0.067834631    1299997.4 
  414000    24.979039   -0.4056709   -0.4056709  -0.34017602  0.090610703   -0.4056709  0.065494883    1299997.4 
  415000    25.564099  -0.40720598  -0.40720598  -0.34017707  0.047996765  -0.40720598  0.067028906    1299997.4 
  416000    25.885737  -0.40801318  -0.40801318  -0.34014094  0.075986387  -0.40801318   0.06787224    1299997.4 
  417000    25.441138  -0.40689185  -0.40689185  -0.34018535  0.075763265  -0.40689185  0.066706504    1299997.4 
  418000    25.725484  -0.40779567  -0.40779567  -0.34034361  0.066932767  -0.40779567  0.067452057    1299997.4 
  419000    25.282121  -0.40652021  -0.40652021  -0.34023065  0.078035796  -0.40652021   0.06628956    1299997.4 
  420000    25.449323  -0.40691664  -0.40691664  -0.34018868  0.077591465  -0.40691664  0.066727964    1299997.4 
  421000    26.051414  -0.40852854  -0.40852854   -0.3402219  0.047573295  -0.40852854  0.068306642    1299997.4 
  422000    26.353671  -0.40937148  -0.40937148  -0.34027232  0.085919527  -0.40937148   0.06909916    1299997.4 
  423000    26.206918  -0.40903698  -0.40903698  -0.34032261  0.065295524  -0.40903698  0.068714373    1299997.4 
  424000    26.520641  -0.40972445  -0.40972445  -0.34018749  0.059664833  -0.40972445  0.069536954    1299997.4 
  425000    26.424029   -0.4095414   -0.4095414  -0.34025777  0.058466224   -0.4095414  0.069283638    1299997.4 
  426000    25.706555  -0.40766018  -0.40766018  -0.34025776  0.035240408  -0.40766018  0.067402425    1299997.4 
  427000    25.189561  -0.40626379  -0.40626379  -0.34021692   0.10342517  -0.40626379  0.066046871    1299997.4 
  428000    25.666913  -0.40754257  -0.40754257  -0.34024409  0.082975822  -0.40754257  0.067298484    1299997.4 
  429000    25.906566  -0.40810641  -0.40810641  -0.34017956  0.059935325  -0.40810641  0.067926853    1299997.4 
  430000    25.911834  -0.40816019  -0.40816019  -0.34021952  0.048145658  -0.40816019  0.067940664    1299997.4 
  431000    26.520009  -0.40983172  -0.40983172  -0.34029643  0.064551164  -0.40983172  0.069535295    1299997.4 
  432000    26.732714  -0.41042545  -0.41042545  -0.34033244  0.036621119  -0.41042545  0.070093008    1299997.4 
  433000    25.926468  -0.40827701  -0.40827701  -0.34029798   0.12429106  -0.40827701  0.067979036    1299997.4 
  434000    25.699533  -0.40753191  -0.40753191  -0.34014789  0.066366307  -0.40753191  0.067384013    1299997.4 
  435000    26.763966   -0.4103678   -0.4103678  -0.34019285  0.068725787   -0.4103678  0.070174949    1299997.4 
  436000    26.192741  -0.40892604  -0.40892604  -0.34024884  0.091635268  -0.40892604  0.068677201    1299997.4 
  437000    26.174474  -0.40890055  -0.40890055  -0.34027124  0.045667423  -0.40890055  0.068629304    1299997.4 
  438000    26.031156  -0.40845321  -0.40845321  -0.34019969  0.087756123  -0.40845321  0.068253526    1299997.4 
  439000    25.741244  -0.40771948  -0.40771948   -0.3402261  0.083616794  -0.40771948  0.067493379    1299997.4 
  440000    25.997039  -0.40835686  -0.40835686  -0.34019279  0.048756362  -0.40835686  0.068164071    1299997.4 
  441000    25.740111  -0.40768379  -0.40768379  -0.34019338  0.090937858  -0.40768379  0.067490409    1299997.4 
  442000    25.510725  -0.40711974  -0.40711974  -0.34023078  0.062844699  -0.40711974  0.066888959    1299997.4 
  443000    25.972944  -0.40832304  -0.40832304  -0.34022214  0.099704223  -0.40832304  0.068100894    1299997.4 
  444000    25.915716  -0.40821965  -0.40821965  -0.34026881  0.083228584  -0.40821965  0.067950845    1299997.4 
  445000    26.862215  -0.41057782  -0.41057782  -0.34014526  0.050745643  -0.41057782  0.070432559    1299997.4 
  446000    26.597866  -0.40994321  -0.40994321  -0.34020378  0.059159371  -0.40994321  0.069739437    1299997.4 
  447000    26.340796  -0.40921037  -0.40921037  -0.34014497  0.027842914  -0.40921037    0.0690654    1299997.4 
  448000    25.528908  -0.40710361  -0.40710361  -0.34016698  0.045386958  -0.40710361  0.066936634    1299997.4 
  449000    26.092289  -0.40873533  -0.40873533  -0.34032151  0.064833242  -0.40873533  0.068413817    1299997.4 
  450000    26.517956  -0.40969997  -0.40969997  -0.34017006  0.086389591  -0.40969997  0.069529912    1299997.4 
  451000    26.206917  -0.40903165  -0.40903165  -0.34031728  0.044975737  -0.40903165   0.06871437    1299997.4 
  452000    26.510775  -0.40975809  -0.40975809  -0.34024701    0.0702933  -0.40975809  0.069511084    1299997.4 
  453000    26.232049  -0.40892863  -0.40892863  -0.34014837  0.055071943  -0.40892863  0.068780266    1299997.4 
  454000    25.567508  -0.40726276  -0.40726276  -0.34022492  0.063097361  -0.40726276  0.067037844    1299997.4 
  455000     25.12537  -0.40614847  -0.40614847   -0.3402699  0.052321948  -0.40614847  0.065878561    1299997.4 
  456000     25.31019   -0.4065153   -0.4065153  -0.34015215  0.050750041   -0.4065153  0.066363158    1299997.4 
  457000    24.839132  -0.40536824  -0.40536824  -0.34024019  0.068945186  -0.40536824  0.065128048    1299997.4 
  458000    24.620049   -0.4047018   -0.4047018  -0.34014819  0.067381678   -0.4047018  0.064553612    1299997.4 
  459000    24.296252   -0.4038697   -0.4038697  -0.34016508  0.069498418   -0.4038697  0.063704618    1299997.4 
  460000    24.489905  -0.40440732  -0.40440732  -0.34019494  0.055316767  -0.40440732  0.064212377    1299997.4 
  461000    24.788773  -0.40529411  -0.40529411   -0.3402981  0.033009104  -0.40529411  0.064996006    1299997.4 
  462000    24.977277  -0.40574487  -0.40574487   -0.3402546  0.074819494  -0.40574487  0.065490264    1299997.4 
  463000    24.960234  -0.40570933  -0.40570933  -0.34026375  0.079478914  -0.40570933  0.065445576    1299997.4 
  464000    24.746682  -0.40504897  -0.40504897  -0.34016333  0.088006556  -0.40504897  0.064885643    1299997.4 
  465000    25.186558   -0.4062481   -0.4062481   -0.3402091  0.094709059   -0.4062481  0.066038996    1299997.4 
  466000    25.180345  -0.40621696  -0.40621696  -0.34019425  0.061867171  -0.40621696  0.066022704    1299997.4 
  467000    24.796398  -0.40521212  -0.40521212  -0.34019612  0.065455412  -0.40521212  0.065015999    1299997.4 
  468000    25.425819  -0.40689959  -0.40689959  -0.34023325  0.073316492  -0.40689959  0.066666338    1299997.4 
  469000    25.124613  -0.40609264  -0.40609264  -0.34021606   0.10064351  -0.40609264  0.065876577    1299997.4 
  470000    25.665545  -0.40746444  -0.40746444  -0.34016955  0.061922318  -0.40746444  0.067294896    1299997.4 
  471000     25.17079  -0.40621985  -0.40621985   -0.3402222  0.041078802  -0.40621985  0.065997651    1299997.4 
  472000    25.190928  -0.40645988  -0.40645988  -0.34040943     0.076081  -0.40645988  0.066050453    1299997.4 
  473000    24.797398   -0.4052539   -0.4052539  -0.34023528  0.092951219   -0.4052539  0.065018621    1299997.4 
  474000    24.638599  -0.40479806  -0.40479806   -0.3401958  0.091310041  -0.40479806  0.064602252    1299997.4 
  475000     24.99354  -0.40587504  -0.40587504  -0.34034214  0.051563247  -0.40587504  0.065532903    1299997.4 
  476000    24.912163  -0.40546832  -0.40546832  -0.34014879  0.072479542  -0.40546832  0.065319535    1299997.4 
  477000    24.836958  -0.40542258  -0.40542258  -0.34030023  0.077088461  -0.40542258  0.065122346    1299997.4 
  478000    24.880922   -0.4055367   -0.4055367  -0.34029908  0.071695047   -0.4055367  0.065237619    1299997.4 
  479000    24.659218  -0.40482847  -0.40482847  -0.34017216   0.10258105  -0.40482847  0.064656313    1299997.4 
  480000    24.927696  -0.40560725  -0.40560725  -0.34024699  0.040879581  -0.40560725  0.065360261    1299997.4 
  481000    25.488175  -0.40705792  -0.40705792  -0.34022809  0.050011296  -0.40705792  0.066829834    1299997.4 
  482000    25.406756  -0.40681371  -0.40681371  -0.34019735  0.057932696  -0.40681371  0.066616354    1299997.4 
  483000    24.402468   -0.4041893   -0.4041893  -0.34020618  0.084283983   -0.4041893  0.063983118    1299997.4 
  484000    24.915665  -0.40562654  -0.40562654  -0.34029782    0.1013335  -0.40562654  0.065328716    1299997.4 
  485000    25.453798  -0.40690983  -0.40690983  -0.34017013  0.068788559  -0.40690983  0.066739696    1299997.4 
  486000    24.766973  -0.40518357  -0.40518357  -0.34024472  0.063366847  -0.40518357  0.064938846    1299997.4 
  487000    24.663293  -0.40487791  -0.40487791  -0.34021092  0.084318509  -0.40487791  0.064666998    1299997.4 
  488000    24.838756  -0.40537165  -0.40537165  -0.34024459  0.042024759  -0.40537165  0.065127062    1299997.4 
  489000    25.355666  -0.40673354  -0.40673354  -0.34025115  0.064946112  -0.40673354  0.066482395    1299997.4 
  490000    24.927003  -0.40553535  -0.40553535  -0.34017691  0.049941028  -0.40553535  0.065358444    1299997.4 
  491000    24.777458  -0.40511162  -0.40511162  -0.34014528  0.065504635  -0.40511162  0.064966338    1299997.4 
  492000    24.694069  -0.40494532  -0.40494532  -0.34019763  0.041216942  -0.40494532  0.064747694    1299997.4 
  493000    25.197401  -0.40640237  -0.40640237  -0.34033494  0.063444709  -0.40640237  0.066067426    1299997.4 
  494000    24.047472  -0.40343529  -0.40343529  -0.34038297  0.050303676  -0.40343529  0.063052321    1299997.4 
  495000    24.549403  -0.40461426  -0.40461426  -0.34024588  0.041407802  -0.40461426  0.064368379    1299997.4 
  496000    24.854205  -0.40564398  -0.40564398  -0.34047641  0.045482789  -0.40564398  0.065167569    1299997.4 
  497000    25.243989  -0.40639316  -0.40639316  -0.34020358  0.090530587  -0.40639316  0.066189581    1299997.4 
  498000     25.17479  -0.40625256  -0.40625256  -0.34024442  0.052916429  -0.40625256  0.066008141    1299997.4 
  499000    24.892969  -0.40561076  -0.40561076  -0.34034155  0.052214479  -0.40561076  0.065269207    1299997.4 
  500000    24.946582  -0.40555486  -0.40555486  -0.34014508    0.0377156  -0.40555486  0.065409781    1299997.4 
  501000    24.922887  -0.40556752  -0.40556752  -0.34021986  0.064548232  -0.40556752  0.065347653    1299997.4 
  502000    25.098222  -0.40598214  -0.40598214  -0.34017476  0.073217782  -0.40598214   0.06580738    1299997.4 
  503000      25.5855  -0.40731378  -0.40731378  -0.34022876   0.06659116  -0.40731378  0.067085019    1299997.4 
  504000    25.726482  -0.40766431  -0.40766431  -0.34020964  0.038451672  -0.40766431  0.067454673    1299997.4 
  505000    25.782042  -0.40785661  -0.40785661  -0.34025626  0.051728811  -0.40785661  0.067600351    1299997.4 
  506000    25.727347  -0.40784589  -0.40784589  -0.34038895  0.074407402  -0.40784589  0.067456942    1299997.4 
  507000    25.177244  -0.40616563  -0.40616563  -0.34015105   0.05874156  -0.40616563  0.066014575    1299997.4 
  508000     24.92861  -0.40562143  -0.40562143  -0.34025877  0.069608788  -0.40562143  0.065362657    1299997.4 
  509000    25.716047  -0.40763646  -0.40763646  -0.34020915  0.050528613  -0.40763646  0.067427312    1299997.4 
  510000    25.114475  -0.40614236  -0.40614236  -0.34029237   0.08417257  -0.40614236  0.065849994    1299997.4 
  511000    25.746181  -0.40766668  -0.40766668  -0.34016035  0.078764973  -0.40766668  0.067506323    1299997.4 
  512000    25.948574  -0.40822348  -0.40822348  -0.34018649  0.062600811  -0.40822348  0.068036996    1299997.4 
  513000    26.527987  -0.40970062  -0.40970062   -0.3401444  0.089794305  -0.40970062  0.069556214    1299997.4 
  514000    27.162551   -0.4115207   -0.4115207  -0.34030066   0.07696606   -0.4115207  0.071220037    1299997.4 
  515000    26.740774  -0.41041091  -0.41041091  -0.34029677  0.083110922  -0.41041091  0.070114139    1299997.4 
  516000    26.105334  -0.40868193  -0.40868193  -0.34023391  0.080983935  -0.40868193   0.06844802    1299997.4 
  517000    26.356212  -0.40924365  -0.40924365  -0.34013783  0.036304978  -0.40924365  0.069105821    1299997.4 
  518000    25.885968  -0.40807704  -0.40807704   -0.3402042  0.077919339  -0.40807704  0.067872846    1299997.4 
  519000    26.207829  -0.40893604  -0.40893604  -0.34021928  0.077900768  -0.40893604  0.068716761    1299997.4 
  520000    26.367247  -0.40936242  -0.40936242  -0.34022766  0.074796497  -0.40936242  0.069134754    1299997.4 
  521000    26.900544   -0.4107403   -0.4107403  -0.34020724  0.072658804   -0.4107403  0.070533056    1299997.4 
  522000    27.903754  -0.41332815  -0.41332815  -0.34016468  0.050874734  -0.41332815  0.073163468    1299997.4 
  523000     27.49152  -0.41235417  -0.41235417  -0.34027157  0.073939449  -0.41235417  0.072082591    1299997.4 
  524000    26.283307  -0.40916537  -0.40916537  -0.34025071  0.056964058  -0.40916537  0.068914664    1299997.4 
  525000    26.363165  -0.40929801  -0.40929801  -0.34017396  0.086112413  -0.40929801  0.069124053    1299997.4 
  526000    25.924114  -0.40820588  -0.40820588  -0.34023302  0.082864338  -0.40820588  0.067972862    1299997.4 
  527000    25.412808  -0.40685044  -0.40685044  -0.34021822   0.11155766  -0.40685044  0.066632223    1299997.4 
  528000    26.464471  -0.40960643  -0.40960643  -0.34021676  0.077530575  -0.40960643  0.069389675    1299997.4 
  529000    26.479565  -0.40961959  -0.40961959  -0.34019034  0.056024712  -0.40961959  0.069429251    1299997.4 
  530000    25.994728  -0.40833724  -0.40833724  -0.34017922  0.060374404  -0.40833724  0.068158011    1299997.4 
  531000     25.71864  -0.40765854  -0.40765854  -0.34022443  0.062719454  -0.40765854  0.067434112    1299997.4 
  532000    26.189145  -0.40895848  -0.40895848   -0.3402907   0.07336761  -0.40895848  0.068667774    1299997.4 
  533000    26.118748  -0.40883355  -0.40883355  -0.34035036   0.05655825  -0.40883355  0.068483191    1299997.4 
  534000    26.465272   -0.4095948   -0.4095948  -0.34020302  0.071239229   -0.4095948  0.069391776    1299997.4 
  535000    26.039043  -0.40841372  -0.40841372  -0.34013951  0.071759399  -0.40841372  0.068274206    1299997.4 
  536000    26.054568  -0.40848377  -0.40848377  -0.34016886  0.061780423  -0.40848377  0.068314912    1299997.4 
  537000    25.758072  -0.40776011  -0.40776011  -0.34022261  0.049122935  -0.40776011  0.067537501    1299997.4 
  538000    26.154059  -0.40874168  -0.40874168  -0.34016591  0.048016922  -0.40874168  0.068575777    1299997.4 
  539000    26.201586  -0.40884095  -0.40884095  -0.34014056  0.034465505  -0.40884095  0.068700394    1299997.4 
  540000    26.240129  -0.40908819  -0.40908819  -0.34028674  0.048188635  -0.40908819  0.068801453    1299997.4 
  541000    25.752522  -0.40767182  -0.40767182  -0.34014887  0.076602828  -0.40767182  0.067522951    1299997.4 
  542000    26.270635   -0.4090312   -0.4090312  -0.34014976  0.046937603   -0.4090312  0.068881439    1299997.4 
  543000    26.194313  -0.40893197  -0.40893197  -0.34025065  0.039460092  -0.40893197  0.068681324    1299997.4 
  544000    25.994464   -0.4083385   -0.4083385  -0.34018118  0.061775622   -0.4083385  0.068157321    1299997.4 
  545000    25.814102  -0.40812344  -0.40812344  -0.34043903   0.06011341  -0.40812344  0.067684411    1299997.4 
  546000    25.710503  -0.40755806  -0.40755806  -0.34014528  0.053789529  -0.40755806  0.067412776    1299997.4 
  547000    25.897469  -0.40804674  -0.40804674  -0.34014375  0.067595813  -0.40804674  0.067902999    1299997.4 
  548000    26.017199  -0.40836266  -0.40836266  -0.34014573  0.057182233  -0.40836266  0.068216931    1299997.4 
  549000    26.207543  -0.40895678  -0.40895678  -0.34024076  0.087467283  -0.40895678  0.068716012    1299997.4 
  550000    25.504054  -0.40705273  -0.40705273  -0.34018126  0.051078809  -0.40705273  0.066871469    1299997.4 
  551000    25.287644  -0.40659855  -0.40659855  -0.34029451  0.076340828  -0.40659855  0.066304043    1299997.4 
  552000    25.303856  -0.40655683  -0.40655683  -0.34021028    0.0417224  -0.40655683  0.066346551    1299997.4 
  553000    25.671344  -0.40758552  -0.40758552  -0.34027541  0.075875773  -0.40758552  0.067310102    1299997.4 
  554000    25.984489  -0.40830604  -0.40830604  -0.34017488  0.041053187  -0.40830604  0.068131165    1299997.4 
  555000     25.98736  -0.40839931  -0.40839931  -0.34026061  0.020835263  -0.40839931  0.068138693    1299997.4 
  556000    25.915017  -0.40815498  -0.40815498  -0.34020597  0.059004891  -0.40815498  0.067949011    1299997.4 
  557000    26.025262  -0.40841989  -0.40841989  -0.34018182   0.10759388  -0.40841989  0.068238073    1299997.4 
  558000    26.897811  -0.41071131  -0.41071131  -0.34018542  0.076864329  -0.41071131   0.07052589    1299997.4 
  559000    26.644909  -0.41007752  -0.41007752  -0.34021473  0.059066765  -0.41007752  0.069862784    1299997.4 
  560000    25.873758  -0.40800709  -0.40800709  -0.34016626  0.068007243  -0.40800709   0.06784083    1299997.4 
  561000    25.879575  -0.40799053  -0.40799053  -0.34013445  0.058710782  -0.40799053  0.067856081    1299997.4 
  562000     25.59128  -0.40740224  -0.40740224  -0.34030207  0.052641789  -0.40740224  0.067100174    1299997.4 
  563000    25.578992   -0.4073835   -0.4073835  -0.34031555   0.07552732   -0.4073835  0.067067954    1299997.4 
  564000    25.267998  -0.40657496  -0.40657496  -0.34032243   0.06936248  -0.40657496  0.066252532    1299997.4 
  565000    25.658972  -0.40751099  -0.40751099  -0.34023332   0.11206525  -0.40751099  0.067277662    1299997.4 
  566000    25.984689  -0.40840149  -0.40840149   -0.3402698  0.035091646  -0.40840149   0.06813169    1299997.4 
  567000    25.233245  -0.40636212  -0.40636212  -0.34020071  0.042616537  -0.40636212  0.066161408    1299997.4 
  568000    25.602087   -0.4076825   -0.4076825  -0.34055399  0.054775858   -0.4076825  0.067128511    1299997.4 
  569000    26.089173   -0.4086227   -0.4086227  -0.34021706  0.063526826   -0.4086227  0.068405646    1299997.4 
  570000    26.522593  -0.40970266  -0.40970266  -0.34016059  0.031954376  -0.40970266  0.069542071    1299997.4 
  571000     25.65521  -0.40747065  -0.40747065  -0.34020285  0.072720804  -0.40747065  0.067267798    1299997.4 
  572000    26.118313  -0.40878507  -0.40878507  -0.34030301  0.079559941  -0.40878507  0.068482052    1299997.4 
  573000    26.957154  -0.41091062  -0.41091062  -0.34022914  0.059989284  -0.41091062  0.070681488    1299997.4 
  574000    25.826598  -0.40801543  -0.40801543  -0.34029825  0.063745023  -0.40801543  0.067717178    1299997.4 
  575000    26.077569  -0.40852574  -0.40852574  -0.34015052  0.038157579  -0.40852574   0.06837522    1299997.4 
  576000    25.690094  -0.40765927  -0.40765927  -0.34030001  0.081523755  -0.40765927  0.067359264    1299997.4 
  577000    26.023678  -0.40842045  -0.40842045  -0.34018653  0.067862744  -0.40842045  0.068233918    1299997.4 
  578000    26.401461  -0.40941609  -0.40941609  -0.34019162  0.069053893  -0.40941609  0.069224464    1299997.4 
  579000    25.986759  -0.40833357  -0.40833357  -0.34019645  0.056602628  -0.40833357  0.068137118    1299997.4 
  580000    26.048149  -0.40846457  -0.40846457  -0.34016648   0.07099518  -0.40846457  0.068298083    1299997.4 
  581000    26.229528   -0.4089176   -0.4089176  -0.34014395  0.047344864   -0.4089176  0.068773656    1299997.4 
  582000    26.076531  -0.40859804  -0.40859804  -0.34022554  0.059632197  -0.40859804  0.068372498    1299997.4 
  583000    25.821227  -0.40785755  -0.40785755  -0.34015446  0.081615367  -0.40785755  0.067703095    1299997.4 
  584000    25.596718   -0.4072612   -0.4072612  -0.34014677  0.047668429   -0.4072612  0.067114432    1299997.4 
  585000    25.917346  -0.40818003  -0.40818003  -0.34022491  0.078755737  -0.40818003  0.067955118    1299997.4 
  586000    25.795242  -0.40789353  -0.40789353  -0.34025857  0.064911329  -0.40789353  0.067634962    1299997.4 
  587000    26.029891  -0.40843772  -0.40843772  -0.34018751  0.051114562  -0.40843772   0.06825021    1299997.4 
  588000    26.256145  -0.40905047  -0.40905047  -0.34020702  0.098038222  -0.40905047  0.068843447    1299997.4 
  589000    26.426019  -0.40950194  -0.40950194  -0.34021309  0.053497165  -0.40950194  0.069288854    1299997.4 
  590000    27.139242  -0.41134535  -0.41134535  -0.34018643   0.07495158  -0.41134535   0.07115892    1299997.4 
  591000    27.337476  -0.41189212  -0.41189212  -0.34021343  0.067090803  -0.41189212  0.071678689    1299997.4 
  592000     26.61905  -0.41010452  -0.41010452  -0.34030954  0.067625813  -0.41010452   0.06979498    1299997.4 
  593000    25.967872  -0.40825276  -0.40825276  -0.34016517  0.096513048  -0.40825276  0.068087596    1299997.4 
  594000    25.954251  -0.40833508  -0.40833508   -0.3402832  0.066006243  -0.40833508  0.068051882    1299997.4 
  595000    26.677954  -0.41010166  -0.41010166  -0.34015224  0.042250466  -0.41010166  0.069949426    1299997.4 
  596000    26.384582    -0.409387    -0.409387   -0.3402068  0.047793656    -0.409387  0.069180206    1299997.4 
  597000     27.07713  -0.41122836  -0.41122836   -0.3402323  0.059551017  -0.41122836  0.070996065    1299997.4 
  598000    26.853822  -0.41057491  -0.41057491  -0.34016435  0.059612083  -0.41057491  0.070410552    1299997.4 
  599000    26.540552  -0.40992465  -0.40992465  -0.34033549  0.052939871  -0.40992465  0.069589159    1299997.4 
  600000    26.673578  -0.41018456  -0.41018456  -0.34024661  0.093453739  -0.41018456  0.069937952    1299997.4 
  601000    25.815948  -0.40793501  -0.40793501  -0.34024576   0.08013595  -0.40793501  0.067689252    1299997.4 
  602000     25.96347  -0.40828651  -0.40828651  -0.34021046  0.063051124  -0.40828651  0.068076055    1299997.4 
  603000    26.376675  -0.40931837  -0.40931837   -0.3401589  0.072159639  -0.40931837  0.069159475    1299997.4 
  604000    26.225297  -0.40899139  -0.40899139  -0.34022882  0.060636295  -0.40899139  0.068762562    1299997.4 
  605000    26.189606  -0.40899035  -0.40899035  -0.34032137  0.058898953  -0.40899035   0.06866898    1299997.4 
  606000    26.597647  -0.40999307  -0.40999307  -0.34025421  0.026658961  -0.40999307  0.069738862    1299997.4 
  607000    26.314386   -0.4091981   -0.4091981  -0.34020194  0.048835796   -0.4091981  0.068996153    1299997.4 
  608000    26.565781  -0.41003653  -0.41003653  -0.34038122  0.029120275  -0.41003653   0.06965531    1299997.4 
  609000    26.276612  -0.40917798  -0.40917798  -0.34028087  0.036188448  -0.40917798  0.068897111    1299997.4 
  610000    26.176503  -0.40883139  -0.40883139  -0.34019677  0.052932545  -0.40883139  0.068634626    1299997.4 
  611000    25.656815  -0.40745453  -0.40745453  -0.34018252  0.084388955  -0.40745453  0.067272008    1299997.4 
  612000    26.154452  -0.40887751  -0.40887751  -0.34030071  0.050232029  -0.40887751  0.068576808    1299997.4 
  613000    26.570761   -0.4099007   -0.4099007  -0.34023234   0.03241332   -0.4099007  0.069668367    1299997.4 
  614000    25.704118  -0.40763743  -0.40763743   -0.3402414  0.051746346  -0.40763743  0.067396035    1299997.4 
  615000       25.663   -0.4075216   -0.4075216  -0.34023338  0.068077698   -0.4075216  0.067288224    1299997.4 
  616000    25.273545  -0.40651928  -0.40651928  -0.34025221  0.076276511  -0.40651928  0.066267075    1299997.4 
  617000    25.414213  -0.40682542  -0.40682542  -0.34018951  0.067487732  -0.40682542  0.066635906    1299997.4 
  618000    25.259217  -0.40641481  -0.40641481   -0.3401853  0.054904132  -0.40641481  0.066229508    1299997.4 
  619000    25.537356  -0.40714253  -0.40714253  -0.34018374  0.068737244  -0.40714253  0.066958787    1299997.4 
  620000    25.393145  -0.40692396  -0.40692396   -0.3403433    0.1071344  -0.40692396  0.066580666    1299997.4 
  621000    25.935684   -0.4082226   -0.4082226   -0.3402194  0.049151269   -0.4082226  0.068003199    1299997.4 
  622000    25.761035  -0.40771661  -0.40771661  -0.34017134  0.062927024  -0.40771661   0.06754527    1299997.4 
  623000    26.036544  -0.40843078  -0.40843078  -0.34016312  0.074211312  -0.40843078  0.068267654    1299997.4 
  624000    25.940383  -0.40833683  -0.40833683  -0.34032131  0.087857237  -0.40833683   0.06801552    1299997.4 
  625000    26.061513  -0.40859588  -0.40859588  -0.34026276    0.0932193  -0.40859588  0.068333124    1299997.4 
  626000    26.372589  -0.40941575  -0.40941575  -0.34026699  0.063367525  -0.40941575  0.069148761    1299997.4 
  627000    26.197519  -0.40887717  -0.40887717  -0.34018744  0.090271043  -0.40887717   0.06868973    1299997.4 
  628000    26.656161   -0.4102237   -0.4102237  -0.34033142  0.081134732   -0.4102237  0.069892284    1299997.4 
  629000    25.986157  -0.40839437  -0.40839437  -0.34025883  0.070080448  -0.40839437  0.068135538    1299997.4 
  630000    26.599086  -0.41000612  -0.41000612  -0.34026349  0.078443211  -0.41000612  0.069742636    1299997.4 
  631000    26.320003  -0.40917025  -0.40917025  -0.34015936  0.082750328  -0.40917025  0.069010881    1299997.4 
  632000    26.751029  -0.41040243  -0.41040243  -0.34026141  0.034469536  -0.41040243  0.070141028    1299997.4 
  633000    26.141355  -0.40872264  -0.40872264  -0.34018017   0.07878893  -0.40872264  0.068542468    1299997.4 
  634000    25.866507  -0.40800051  -0.40800051  -0.34017869  0.036306479  -0.40800051  0.067821817    1299997.4 
  635000     26.53756  -0.40980523  -0.40980523  -0.34022391  0.047236935  -0.40980523  0.069581315    1299997.4 
  636000    26.304144  -0.40932696  -0.40932696  -0.34035766  0.088526579  -0.40932696    0.0689693    1299997.4 
  637000    27.384037  -0.41212388  -0.41212388   -0.3403231   0.04142655  -0.41212388  0.071800773    1299997.4 
  638000    26.507654  -0.40970388  -0.40970388  -0.34020098  0.055091334  -0.40970388  0.069502902    1299997.4 
  639000    25.878419  -0.40814205  -0.40814205    -0.340289   0.05699362  -0.40814205  0.067853051    1299997.4 
  640000    26.100217  -0.40867205  -0.40867205  -0.34023745  0.067989195  -0.40867205  0.068434603    1299997.4 
  641000    26.524321  -0.40980609  -0.40980609  -0.34025948  0.070591614  -0.40980609  0.069546601    1299997.4 
  642000    26.213949  -0.40889578  -0.40889578  -0.34016297  0.063439944  -0.40889578  0.068732808    1299997.4 
  643000    26.819613  -0.41046003  -0.41046003  -0.34013918  0.043193437  -0.41046003  0.070320855    1299997.4 
  644000    25.738599  -0.40779496  -0.40779496  -0.34030852  0.087221915  -0.40779496  0.067486444    1299997.4 
  645000    25.638484  -0.40741113  -0.40741113  -0.34018718  0.056834561  -0.40741113  0.067223944    1299997.4 
  646000    26.230933  -0.40903874  -0.40903874   -0.3402614  0.036504103  -0.40903874  0.068777341    1299997.4 
  647000    26.156381  -0.40874294  -0.40874294  -0.34016107  0.067345557  -0.40874294  0.068581866    1299997.4 
  648000    26.170775  -0.40879171  -0.40879171  -0.34017211  0.061433049  -0.40879171  0.068619606    1299997.4 
  649000    25.388621  -0.40675687  -0.40675687  -0.34018807  0.041941609  -0.40675687  0.066568803    1299997.4 
  650000    25.962406  -0.40841547  -0.40841547  -0.34034221  0.057449472  -0.40841547  0.068073263    1299997.4 
  651000    25.483188  -0.40699814  -0.40699814  -0.34018138  0.044349657  -0.40699814  0.066816757    1299997.4 
  652000    25.605632  -0.40735884  -0.40735884  -0.34022103  0.093797399  -0.40735884  0.067137806    1299997.4 
  653000    25.387888  -0.40684711  -0.40684711  -0.34028023  0.075714085  -0.40684711  0.066566883    1299997.4 
  654000    25.697288  -0.40764646  -0.40764646  -0.34026833  0.060375574  -0.40764646  0.067378128    1299997.4 
  655000    24.990331  -0.40568728  -0.40568728  -0.34016278  0.042289737  -0.40568728  0.065524491    1299997.4 
  656000    24.560456  -0.40455831  -0.40455831  -0.34016095  0.094573927  -0.40455831   0.06439736    1299997.4 
  657000    24.876547  -0.40543516  -0.40543516  -0.34020901  0.056162297  -0.40543516  0.065226148    1299997.4 
  658000    25.547324  -0.40716628  -0.40716628  -0.34018136  0.048535665  -0.40716628  0.066984922    1299997.4 
  659000      25.9961  -0.40835833  -0.40835833  -0.34019672  0.052890992  -0.40835833   0.06816161    1299997.4 
  660000    26.306344  -0.40915297  -0.40915297   -0.3401779  0.050460822  -0.40915297  0.068975068    1299997.4 
  661000    25.752993  -0.40768786  -0.40768786  -0.34016368  0.057729075  -0.40768786  0.067524184    1299997.4 
  662000     25.57475   -0.4074036   -0.4074036  -0.34034677  0.054548682   -0.4074036  0.067056833    1299997.4 
  663000    26.228645  -0.40890864  -0.40890864   -0.3401373  0.054455811  -0.40890864  0.068771342    1299997.4 
  664000    25.866197  -0.40798507  -0.40798507  -0.34016407  0.053885559  -0.40798507  0.067821006    1299997.4 
  665000    25.418282  -0.40684771  -0.40684771  -0.34020113   0.08256852  -0.40684771  0.066646575    1299997.4 
  666000    25.516016  -0.40709753  -0.40709753  -0.34019469   0.05359193  -0.40709753  0.066902833    1299997.4 
  667000    26.052321  -0.40859124  -0.40859124  -0.34028222  0.065853639  -0.40859124   0.06830902    1299997.4 
  668000    25.447117   -0.4069293   -0.4069293  -0.34020712  0.033099576   -0.4069293  0.066722179    1299997.4 
  669000    25.686322  -0.40755707  -0.40755707   -0.3402077  0.065533558  -0.40755707  0.067349374    1299997.4 
  670000     25.83787  -0.40788287  -0.40788287  -0.34013613   0.04175879  -0.40788287  0.067746733    1299997.4 
  671000    25.128707  -0.40618448  -0.40618448  -0.34029717   0.03432584  -0.40618448  0.065887312    1299997.4 
  672000    25.445774  -0.40691171  -0.40691171  -0.34019306  0.044958842  -0.40691171  0.066718658    1299997.4 
  673000    25.012049  -0.40577813  -0.40577813  -0.34019669  0.055374224  -0.40577813  0.065581435    1299997.4 
  674000     25.41923  -0.40695626  -0.40695626   -0.3403072  0.083123222  -0.40695626   0.06664906    1299997.4 
  675000    25.451892  -0.40696527  -0.40696527  -0.34023057  0.049630317  -0.40696527    0.0667347    1299997.4 
  676000    25.021212  -0.40591097  -0.40591097  -0.34030551  0.092185647  -0.40591097   0.06560546    1299997.4 
  677000    25.289425  -0.40651584  -0.40651584  -0.34020712  0.095765837  -0.40651584  0.066308713    1299997.4 
  678000    25.952198  -0.40829499  -0.40829499  -0.34024849  0.058835696  -0.40829499  0.068046498    1299997.4 
  679000    25.518944  -0.40707639  -0.40707639  -0.34016588  0.070172561  -0.40707639   0.06691051    1299997.4 
  680000    25.898887  -0.40809419  -0.40809419  -0.34018747   0.06114685  -0.40809419  0.067906719    1299997.4 
  681000    25.129767  -0.40605373  -0.40605373  -0.34016364  0.069714728  -0.40605373   0.06589009    1299997.4 
  682000    24.778396  -0.40535243  -0.40535243  -0.34038363  0.061593496  -0.40535243  0.064968799    1299997.4 
  683000    24.870271   -0.4053693   -0.4053693  -0.34015961  0.062906734   -0.4053693  0.065209693    1299997.4 
  684000    25.265732  -0.40641418  -0.40641418  -0.34016759  0.057961356  -0.40641418   0.06624659    1299997.4 
  685000    25.810623  -0.40784601  -0.40784601  -0.34017072  0.079859344  -0.40784601   0.06767529    1299997.4 
  686000    25.561901  -0.40718458  -0.40718458  -0.34016144  0.034158875  -0.40718458  0.067023144    1299997.4 
  687000     25.47204  -0.40703563  -0.40703563   -0.3402481  0.065868265  -0.40703563  0.066787529    1299997.4 
  688000    24.994004  -0.40570018  -0.40570018  -0.34016606   0.06037895  -0.40570018   0.06553412    1299997.4 
  689000    25.089432  -0.40604198  -0.40604198  -0.34025765  0.084189317  -0.40604198  0.065784333    1299997.4 
  690000    25.901313  -0.40804655  -0.40804655  -0.34013347  0.047561377  -0.40804655  0.067913078    1299997.4 
  691000    26.087001  -0.40858111  -0.40858111  -0.34018115  0.050657918  -0.40858111  0.068399952    1299997.4 
  692000    26.961491   -0.4108365   -0.4108365  -0.34014364  0.081818466   -0.4108365  0.070692859    1299997.4 
  693000    26.071888  -0.40854053  -0.40854053   -0.3401802  0.051851325  -0.40854053  0.068360326    1299997.4 
  694000    25.654132  -0.40744632  -0.40744632  -0.34018135  0.047466121  -0.40744632  0.067264971    1299997.4 
  695000    25.646278  -0.40763146  -0.40763146  -0.34038708  0.072970324  -0.40763146   0.06724438    1299997.4 
  696000    25.960034  -0.40826679  -0.40826679  -0.34019975  0.094402021  -0.40826679  0.068067045    1299997.4 
  697000      26.3371   -0.4092254   -0.4092254  -0.34016969  0.081672057   -0.4092254  0.069055709    1299997.4 
  698000     26.28959  -0.40911925  -0.40911925  -0.34018811  0.068811665  -0.40911925  0.068931139    1299997.4 
  699000    26.150002  -0.40883443  -0.40883443  -0.34026929  0.090770105  -0.40883443  0.068565141    1299997.4 
  700000    26.660871  -0.41017886  -0.41017886  -0.34027422  0.043651746  -0.41017886  0.069904634    1299997.4 
  701000    26.992753  -0.41095786  -0.41095786  -0.34018304  0.073117039  -0.41095786  0.070774828    1299997.4 
  702000    26.222777  -0.40891587  -0.40891587  -0.34015992  0.059292312  -0.40891587  0.068755957    1299997.4 
  703000    26.500267  -0.40975275  -0.40975275  -0.34026921  0.053871778  -0.40975275  0.069483533    1299997.4 
  704000    26.135477  -0.40878561  -0.40878561  -0.34025855  0.056393708  -0.40878561  0.068527054    1299997.4 
  705000    26.248947  -0.40913266  -0.40913266  -0.34030808  0.069491016  -0.40913266  0.068824574    1299997.4 
  706000     25.72099  -0.40776897  -0.40776897  -0.34032869  0.078719152  -0.40776897  0.067440273    1299997.4 
  707000    25.127037  -0.40613408  -0.40613408  -0.34025115  0.060217445  -0.40613408  0.065882932    1299997.4 
  708000    25.106266  -0.40598851  -0.40598851  -0.34016004  0.033515767  -0.40598851  0.065828472    1299997.4 
  709000     25.28941  -0.40661177  -0.40661177   -0.3403031  0.066602305  -0.40661177  0.066308674    1299997.4 
  710000    25.362079  -0.40663954  -0.40663954  -0.34014032  0.097900689  -0.40663954  0.066499211    1299997.4 
  711000     25.91617  -0.40811685  -0.40811685  -0.34016482  0.054339184  -0.40811685  0.067952034    1299997.4 
  712000    25.748467  -0.40773716  -0.40773716  -0.34022485   0.10179423  -0.40773716  0.067512317    1299997.4 
  713000    26.253286  -0.40913651  -0.40913651  -0.34030056  0.050445823  -0.40913651   0.06883595    1299997.4 
  714000    25.856617  -0.40801856  -0.40801856  -0.34022267  0.071405635  -0.40801856  0.067795885    1299997.4 
  715000      26.0368  -0.40841302  -0.40841302   -0.3401447  0.080193079  -0.40841302  0.068268325    1299997.4 
  716000    25.849985  -0.40800267  -0.40800267  -0.34022417   0.04020216  -0.40800267  0.067778497    1299997.4 
  717000    26.214278   -0.4088877   -0.4088877  -0.34015403  0.067342745   -0.4088877  0.068733672    1299997.4 
  718000     26.25969  -0.40900558  -0.40900558  -0.34015283  0.040560093  -0.40900558  0.068852742    1299997.4 
  719000    26.239154  -0.40899696  -0.40899696  -0.34019806  0.055828267  -0.40899696  0.068798896    1299997.4 
  720000    26.730894  -0.41035638  -0.41035638  -0.34026815  0.028377942  -0.41035638  0.070088235    1299997.4 
  721000    26.329419  -0.40917581  -0.40917581  -0.34014024  0.057795359  -0.40917581   0.06903557    1299997.4 
  722000    26.634379  -0.41001917  -0.41001917    -0.340184  0.068510942  -0.41001917  0.069835173    1299997.4 
  723000    26.373021  -0.40935991  -0.40935991  -0.34021001   0.06630297  -0.40935991  0.069149895    1299997.4 
  724000    26.363708  -0.40930328  -0.40930328   -0.3401778   0.10128751  -0.40930328  0.069125477    1299997.4 
  725000    25.989049  -0.40840727  -0.40840727  -0.34026415  0.058582547  -0.40840727  0.068143123    1299997.4 
  726000    26.169749  -0.40878779  -0.40878779  -0.34017087  0.077660225  -0.40878779  0.068616917    1299997.4 
  727000    26.393883  -0.40957322  -0.40957322  -0.34036862  0.056995038  -0.40957322  0.069204594    1299997.4 
  728000    26.603586  -0.40989577  -0.40989577  -0.34014134  0.065507374  -0.40989577  0.069754433    1299997.4 
  729000    25.888504  -0.40808983  -0.40808983  -0.34021034  0.043326781  -0.40808983  0.067879493    1299997.4 
  730000    26.583667  -0.40991907  -0.40991907  -0.34021686  0.067552956  -0.40991907  0.069702207    1299997.4 
  731000    26.220825  -0.40908633  -0.40908633   -0.3403355  0.065405848  -0.40908633  0.068750838    1299997.4 
  732000    26.256389  -0.40905683  -0.40905683  -0.34021274  0.066260001  -0.40905683  0.068844087    1299997.4 
  733000    25.924147   -0.4082144   -0.4082144  -0.34024145  0.050600417   -0.4082144   0.06797295    1299997.4 
  734000    26.581241  -0.41003624  -0.41003624  -0.34034039  0.072618052  -0.41003624  0.069695846    1299997.4 
  735000    26.261487  -0.40899596  -0.40899596   -0.3401385  0.079625517  -0.40899596  0.068857453    1299997.4 
  736000    26.002813  -0.40834703  -0.40834703  -0.34016782  0.055106727  -0.40834703  0.068179212    1299997.4 
  737000    26.287041  -0.40912308  -0.40912308  -0.34019862  0.060791962  -0.40912308  0.068924455    1299997.4 
  738000     26.05781   -0.4085644   -0.4085644  -0.34024099  0.082323237   -0.4085644  0.068323414    1299997.4 
  739000    25.886559  -0.40807287  -0.40807287  -0.34019847  0.066735352  -0.40807287  0.067874394    1299997.4 
  740000     25.68481  -0.40756497  -0.40756497  -0.34021957  0.056627067  -0.40756497  0.067345408    1299997.4 
  741000    25.837964  -0.40791843  -0.40791843  -0.34017145  0.074102196  -0.40791843  0.067746979    1299997.4 
  742000    25.583005  -0.40731332  -0.40731332  -0.34023484  0.048812174  -0.40731332  0.067078478    1299997.4 
  743000    25.007795  -0.40575638  -0.40575638   -0.3401861  0.060677834  -0.40575638  0.065570281    1299997.4 
  744000    25.490561  -0.40701092  -0.40701092  -0.34017484  0.074725665  -0.40701092   0.06683609    1299997.4 
  745000    25.789951  -0.40778262  -0.40778262  -0.34016153  0.069048694  -0.40778262  0.067621088    1299997.4 
  746000    25.892947  -0.40812563  -0.40812563  -0.34023448  0.054429754  -0.40812563  0.067891143    1299997.4 
  747000    25.749479   -0.4077268   -0.4077268  -0.34021183  0.059661748   -0.4077268  0.067514972    1299997.4 
  748000    26.510384   -0.4097257   -0.4097257  -0.34021564  0.064342044   -0.4097257   0.06951006    1299997.4 
  749000    24.868838  -0.40559695  -0.40559695  -0.34039101  0.053615496  -0.40559695  0.065205935    1299997.4 
  750000     25.32224  -0.40671808  -0.40671808  -0.34032332  0.055949976  -0.40671808  0.066394754    1299997.4 
  751000    26.062741  -0.40868794  -0.40868794   -0.3403516  0.064279413  -0.40868794  0.068336343    1299997.4 
  752000     25.55469  -0.40717511  -0.40717511  -0.34017087  0.059113259  -0.40717511  0.067004235    1299997.4 
  753000     25.97636  -0.40827804  -0.40827804  -0.34016818   0.05156346  -0.40827804  0.068109851    1299997.4 
  754000    25.517266  -0.40719488  -0.40719488  -0.34028877  0.067248637  -0.40719488  0.066906111    1299997.4 
  755000    25.737067  -0.40775406  -0.40775406  -0.34027164  0.030199289  -0.40775406  0.067482427    1299997.4 
  756000    25.131549  -0.40604818  -0.40604818  -0.34015342   0.05325333  -0.40604818  0.065894763    1299997.4 
  757000    25.122113  -0.40603186  -0.40603186  -0.34016184  0.036068124  -0.40603186  0.065870021    1299997.4 
  758000    25.295134  -0.40654496  -0.40654496  -0.34022128  0.091489677  -0.40654496  0.066323683    1299997.4 
  759000     24.82218  -0.40527582  -0.40527582  -0.34019222  0.072663243  -0.40527582    0.0650836    1299997.4 
  760000    25.120251  -0.40610726  -0.40610726  -0.34024212  0.022066931  -0.40610726   0.06586514    1299997.4 
  761000    24.806157  -0.40523014  -0.40523014  -0.34018856  0.060394685  -0.40523014  0.065041586    1299997.4 
  762000    25.227439    -0.406291    -0.406291  -0.34014481  0.081547984    -0.406291  0.066146185    1299997.4 
  763000    25.272735  -0.40644922  -0.40644922  -0.34018427  0.099889713  -0.40644922  0.066264952    1299997.4 
  764000     25.47862  -0.40708271  -0.40708271  -0.34027793  0.073554967  -0.40708271   0.06680478    1299997.4 
  765000    25.145892  -0.40619937  -0.40619937    -0.340267  0.069430629  -0.40619937  0.065932371    1299997.4 
  766000    24.522062   -0.4044544   -0.4044544  -0.34015771  0.037084128   -0.4044544  0.064296693    1299997.4 
  767000    25.420619  -0.40686116  -0.40686116  -0.34020845  0.064288693  -0.40686116  0.066652701    1299997.4 
  768000    24.898779  -0.40546145  -0.40546145    -0.340177  0.070145729  -0.40546145  0.065284442    1299997.4 
  769000    25.474518  -0.40698745  -0.40698745  -0.34019343  0.035950487  -0.40698745  0.066794025    1299997.4 
  770000    25.021324  -0.40580177  -0.40580177  -0.34019602  0.049098087  -0.40580177  0.065605753    1299997.4 
  771000    26.062335  -0.40863083  -0.40863083  -0.34029556  0.064045685  -0.40863083  0.068335279    1299997.4 
  772000    25.305037  -0.40665607  -0.40665607  -0.34030643  0.079600841  -0.40665607  0.066349648    1299997.4 
  773000    25.672211  -0.40755478  -0.40755478  -0.34024241  0.066236165  -0.40755478  0.067312375    1299997.4 
  774000    25.827867  -0.40786385  -0.40786385  -0.34014334  0.069214559  -0.40786385  0.067720505    1299997.4 
  775000    25.857937   -0.4080021   -0.4080021  -0.34020275  0.051605613   -0.4080021  0.067799348    1299997.4 
  776000    25.774687  -0.40790551  -0.40790551  -0.34032445  0.051291384  -0.40790551  0.067581067    1299997.4 
  777000    25.752238  -0.40773293  -0.40773293  -0.34021073  0.062679869  -0.40773293  0.067522205    1299997.4 
  778000    26.090092  -0.40860862  -0.40860862  -0.34020057  0.053724941  -0.40860862  0.068408055    1299997.4 
  779000    25.538723  -0.40713754  -0.40713754  -0.34017517  0.071391174  -0.40713754  0.066962371    1299997.4 
  780000    25.713007  -0.40762762  -0.40762762  -0.34020828  0.063912917  -0.40762762  0.067419341    1299997.4 
  781000    24.872937  -0.40538697  -0.40538697  -0.34017028  0.080174112  -0.40538697  0.065216683    1299997.4 
  782000     24.97114  -0.40564805  -0.40564805  -0.34017387  0.058776748  -0.40564805  0.065474172    1299997.4 
  783000    25.350653   -0.4066858   -0.4066858  -0.34021654  0.069939104   -0.4066858  0.066469253    1299997.4 
  784000    25.374708  -0.40675866  -0.40675866  -0.34022633  0.064024748  -0.40675866  0.066532323    1299997.4 
  785000    25.615627  -0.40734614  -0.40734614  -0.34018213  0.060660634  -0.40734614  0.067164013    1299997.4 
  786000    26.063333  -0.40847922  -0.40847922  -0.34014133  0.055566638  -0.40847922  0.068337895    1299997.4 
  787000    24.897513  -0.40545246  -0.40545246  -0.34017133  0.069211087  -0.40545246  0.065281121    1299997.4 
  788000    24.846129  -0.40536309  -0.40536309   -0.3402167  0.058508089  -0.40536309  0.065146393    1299997.4 
  789000    25.111773   -0.4060727   -0.4060727  -0.34022979  0.040138379   -0.4060727  0.065842911    1299997.4 
  790000    25.132906  -0.40604439  -0.40604439  -0.34014607  0.085718673  -0.40604439   0.06589832    1299997.4 
  791000     24.74225  -0.40504807  -0.40504807  -0.34017405   0.06047803  -0.40504807  0.064874024    1299997.4 
  792000    24.522493  -0.40450052  -0.40450052  -0.34020269  0.079390231  -0.40450052  0.064297822    1299997.4 
  793000    25.328032  -0.40655073  -0.40655073  -0.34014079  0.081932748  -0.40655073  0.066409939    1299997.4 
  794000     25.30927  -0.40650099  -0.40650099  -0.34014024  0.077604295  -0.40650099  0.066360746    1299997.4 
  795000    25.103397  -0.40621007  -0.40621007  -0.34038912  0.075059095  -0.40621007  0.065820949    1299997.4 
  796000    24.897503  -0.40550535  -0.40550535  -0.34022426   0.10225701  -0.40550535  0.065281095    1299997.4 
  797000    25.308244  -0.40681939  -0.40681939  -0.34046134  0.079563424  -0.40681939  0.066358056    1299997.4 
  798000    25.972225  -0.40855834  -0.40855834  -0.34045934  0.099816632  -0.40855834   0.06809901    1299997.4 
  799000    25.689663  -0.40753998  -0.40753998  -0.34018185  0.070870389  -0.40753998  0.067358133    1299997.4 
  800000     26.29601  -0.40917377  -0.40917377   -0.3402258  0.028103489  -0.40917377  0.068947972    1299997.4 
  801000    25.134422  -0.40620721  -0.40620721  -0.34030491  0.085033144  -0.40620721  0.065902294    1299997.4 
  802000    25.742151  -0.40781256  -0.40781256   -0.3403168  0.063779849  -0.40781256  0.067495757    1299997.4 
  803000     25.84412  -0.40794488  -0.40794488  -0.34018176  0.060667118  -0.40794488   0.06776312    1299997.4 
  804000    25.198552  -0.40633807  -0.40633807  -0.34026763  0.047623094  -0.40633807  0.066070444    1299997.4 
  805000    25.109481  -0.40605754  -0.40605754  -0.34022064  0.050896933  -0.40605754    0.0658369    1299997.4 
  806000    25.235624  -0.40636265  -0.40636265    -0.340195   0.10142973  -0.40636265  0.066167647    1299997.4 
  807000    25.264547  -0.40639653  -0.40639653  -0.34015305  0.041549706  -0.40639653  0.066243482    1299997.4 
  808000    25.407106  -0.40680666  -0.40680666  -0.34018939  0.063212588  -0.40680666  0.066617273    1299997.4 
  809000    25.332588  -0.40675091  -0.40675091  -0.34032903  0.095525411  -0.40675091  0.066421886    1299997.4 
  810000    26.012281  -0.40837851  -0.40837851  -0.34017447  0.061021633  -0.40837851  0.068204036    1299997.4 
  811000    25.163611  -0.40618823  -0.40618823   -0.3402094  0.084649179  -0.40618823   0.06597883    1299997.4 
  812000    25.542641  -0.40733769  -0.40733769  -0.34036504  0.065628892  -0.40733769  0.066972643    1299997.4 
  813000    25.015106  -0.40582903  -0.40582903  -0.34023958  0.035035917  -0.40582903  0.065589449    1299997.4 
  814000    25.218839   -0.4063469   -0.4063469  -0.34022326  0.085119428   -0.4063469  0.066123637    1299997.4 
  815000    25.647741  -0.40746623  -0.40746623  -0.34021802  0.073894615  -0.40746623  0.067248214    1299997.4 
  816000    26.089965  -0.40854553  -0.40854553  -0.34013781  0.047969432  -0.40854553  0.068407724    1299997.4 
  817000     24.85401  -0.40540828  -0.40540828  -0.34024123  0.034292406  -0.40540828  0.065167056    1299997.4 
  818000     25.43708  -0.40692199  -0.40692199  -0.34022612  0.055072314  -0.40692199  0.066695864    1299997.4 
  819000    25.554205  -0.40734823  -0.40734823  -0.34034527  0.072018097  -0.40734823  0.067002964    1299997.4 
  820000     25.48409  -0.40700881  -0.40700881  -0.34018968  0.094754287  -0.40700881  0.066819123    1299997.4 
  821000    25.595622  -0.40733396  -0.40733396   -0.3402224  0.055448943  -0.40733396   0.06711156    1299997.4 
  822000    25.215219  -0.40625176  -0.40625176  -0.34013761  0.029892873  -0.40625176  0.066114144    1299997.4 
  823000    24.905963  -0.40562231  -0.40562231  -0.34031903  0.048384249  -0.40562231  0.065303279    1299997.4 
  824000    25.830389  -0.40810805  -0.40810805  -0.34038093  0.070474931  -0.40810805  0.067727117    1299997.4 
  825000    24.566676  -0.40483038  -0.40483038  -0.34041671  0.070539716  -0.40483038   0.06441367    1299997.4 
  826000    24.679378  -0.40501217  -0.40501217  -0.34030299  0.065864937  -0.40501217  0.064709173    1299997.4 
  827000    25.514113  -0.40717772  -0.40717772  -0.34027987  0.041985016  -0.40717772  0.066897842    1299997.4 
  828000    25.073991  -0.40598116  -0.40598116  -0.34023732  0.047646198  -0.40598116  0.065743845    1299997.4 
  829000    25.030174  -0.40581047  -0.40581047  -0.34018151  0.079613854  -0.40581047  0.065628957    1299997.4 
  830000    25.491566  -0.40710461  -0.40710461  -0.34026589   0.04298687  -0.40710461  0.066838725    1299997.4 
  831000    25.090859  -0.40598848  -0.40598848   -0.3402004  0.058201116  -0.40598848  0.065788074    1299997.4 
  832000    25.373499  -0.40677074  -0.40677074  -0.34024158  0.041705595  -0.40677074  0.066529155    1299997.4 
  833000    25.095917  -0.40599688  -0.40599688  -0.34019555   0.06169161  -0.40599688  0.065801336    1299997.4 
  834000    25.174775  -0.40631439  -0.40631439  -0.34030629  0.057106312  -0.40631439    0.0660081    1299997.4 
  835000    25.344964  -0.40673015  -0.40673015  -0.34027581   0.05037914  -0.40673015  0.066454336    1299997.4 
  836000    25.561263  -0.40719698  -0.40719698  -0.34017551  0.058378398  -0.40719698   0.06702147    1299997.4 
  837000    25.092964  -0.40595013  -0.40595013  -0.34015654  0.082424959  -0.40595013  0.065793593    1299997.4 
  838000    25.313369  -0.40661188  -0.40661188  -0.34024038  0.076317309  -0.40661188  0.066371493    1299997.4 
  839000    25.915488  -0.40811932  -0.40811932  -0.34016908  0.084853632  -0.40811932  0.067950247    1299997.4 
  840000    25.677927  -0.40762261  -0.40762261  -0.34029524  0.073793517  -0.40762261  0.067327363    1299997.4 
  841000    25.277621  -0.40648467  -0.40648467  -0.34020691  0.086476603  -0.40648467  0.066277762    1299997.4 
  842000    26.157632  -0.40877357  -0.40877357  -0.34018843  0.063598948  -0.40877357  0.068585146    1299997.4 
  843000    25.462347  -0.40697822  -0.40697822  -0.34021611  0.067301673  -0.40697822  0.066762114    1299997.4 
  844000    25.700867  -0.40767734  -0.40767734  -0.34028983  0.074119906  -0.40767734  0.067387511    1299997.4 
  845000    25.691596  -0.40757085  -0.40757085  -0.34020765  0.053005656  -0.40757085  0.067363203    1299997.4 
  846000    25.757757  -0.40770494  -0.40770494  -0.34016827  0.053704901  -0.40770494  0.067536677    1299997.4 
  847000    24.730066   -0.4050526   -0.4050526  -0.34021052  0.087131268   -0.4050526  0.064842078    1299997.4 
  848000     25.55568  -0.40729763  -0.40729763   -0.3402908  0.047478851  -0.40729763   0.06700683    1299997.4 
  849000    24.818679  -0.40525151  -0.40525151  -0.34017709  0.054386587  -0.40525151  0.065074419    1299997.4 
  850000    24.999263  -0.40572573  -0.40572573  -0.34017782  0.058337331  -0.40572573   0.06554791    1299997.4 
  851000    25.602781  -0.40729534  -0.40729534  -0.34016501  0.032917644  -0.40729534   0.06713033    1299997.4 
  852000    25.198856  -0.40622291  -0.40622291  -0.34015167  0.076012579  -0.40622291  0.066071241    1299997.4 
  853000    25.183413  -0.40619217  -0.40619217  -0.34016143  0.085855581  -0.40619217  0.066030749    1299997.4 
  854000    25.309103  -0.40651179  -0.40651179  -0.34015149  0.053380086  -0.40651179  0.066360308    1299997.4 
  855000    24.952688  -0.40556286  -0.40556286  -0.34013706  0.061979842  -0.40556286  0.065425791    1299997.4 
  856000    24.903388  -0.40558324  -0.40558324  -0.34028671  0.069799748  -0.40558324  0.065296527    1299997.4 
  857000    25.401941  -0.40679622  -0.40679622  -0.34019249   0.06641468  -0.40679622  0.066603728    1299997.4 
  858000    25.175261  -0.40619419  -0.40619419  -0.34018482  0.058662959  -0.40619419  0.066009376    1299997.4 
  859000    24.958574  -0.40565844  -0.40565844  -0.34021722  0.055931931  -0.40565844  0.065441223    1299997.4 
  860000    25.437413  -0.40693158  -0.40693158  -0.34023485  0.057149982  -0.40693158  0.066696736    1299997.4 
  861000    25.523863  -0.40723092  -0.40723092  -0.34030751     0.054592  -0.40723092  0.066923408    1299997.4 
  862000    24.773946  -0.40522415  -0.40522415  -0.34026702  0.060963208  -0.40522415  0.064957129    1299997.4 
  863000    25.166179  -0.40624962  -0.40624962  -0.34026405  0.065402931  -0.40624962  0.065985562    1299997.4 
  864000    24.955436  -0.40562642  -0.40562642  -0.34019343  0.060473763  -0.40562642  0.065432995    1299997.4 
  865000     23.90766  -0.40284906  -0.40284906  -0.34016332  0.064700197  -0.40284906  0.062685734    1299997.4 
  866000    24.407153  -0.40424689  -0.40424689  -0.34025149  0.075990681  -0.40424689  0.063995402    1299997.4 
  867000    24.752292  -0.40510633  -0.40510633  -0.34020598  0.078988877  -0.40510633  0.064900353    1299997.4 
  868000    24.719191   -0.4050007   -0.4050007  -0.34018713  0.068835069   -0.4050007  0.064813563    1299997.4 
  869000    24.947296  -0.40560446  -0.40560446  -0.34019281  0.078446272  -0.40560446  0.065411652    1299997.4 
  870000    25.298288  -0.40648687  -0.40648687  -0.34015492  0.043123626  -0.40648687  0.066331952    1299997.4 
  871000    24.672248  -0.40494859  -0.40494859  -0.34025811  0.082849828  -0.40494859  0.064690479    1299997.4 
  872000    24.185976  -0.40371118  -0.40371118   -0.3402957  0.063532765  -0.40371118  0.063415475    1299997.4 
  873000    24.748864  -0.40504163  -0.40504163  -0.34015027  0.044270755  -0.40504163  0.064891365    1299997.4 
  874000    24.864313  -0.40535895  -0.40535895  -0.34016488   0.07098377  -0.40535895  0.065194071    1299997.4 
  875000    24.574971  -0.40462687  -0.40462687  -0.34019145  0.052246065  -0.40462687  0.064435418    1299997.4 
  876000    25.157009  -0.40612711  -0.40612711  -0.34016559  0.048696014  -0.40612711  0.065961519    1299997.4 
  877000    24.759503  -0.40511874  -0.40511874  -0.34019948   0.11913316  -0.40511874   0.06491926    1299997.4 
  878000    25.044538  -0.40585246  -0.40585246  -0.34018584  0.078255249  -0.40585246  0.065666619    1299997.4 
  879000    24.766021  -0.40512286  -0.40512286   -0.3401865  0.072071082  -0.40512286  0.064936352    1299997.4 
  880000    24.302268  -0.40388537  -0.40388537  -0.34016498  0.067943506  -0.40388537  0.063720392    1299997.4 
  881000    25.285541  -0.40648892  -0.40648892  -0.34019039  0.031069408  -0.40648892   0.06629853    1299997.4 
  882000    24.735466  -0.40515101  -0.40515101  -0.34029478  0.052470643  -0.40515101  0.064856235    1299997.4 
  883000    25.018943  -0.40575027  -0.40575027  -0.34015075  0.053345725  -0.40575027  0.065599511    1299997.4 
  884000    24.553377  -0.40453398  -0.40453398  -0.34015518  0.078238858  -0.40453398    0.0643788    1299997.4 
  885000    24.702701  -0.40500083  -0.40500083   -0.3402305  0.053691816  -0.40500083  0.064770327    1299997.4 
  886000    24.921711   -0.4056795   -0.4056795  -0.34033493  0.051948321   -0.4056795   0.06534457    1299997.4 
  887000    24.851773  -0.40544621  -0.40544621  -0.34028502  0.083615669  -0.40544621  0.065161192    1299997.4 
  888000    24.994192  -0.40578261  -0.40578261  -0.34024799   0.01241777  -0.40578261  0.065534614    1299997.4 
  889000    25.049327  -0.40583287  -0.40583287  -0.34015369  0.062548677  -0.40583287  0.065679177    1299997.4 
  890000    24.941044  -0.40572854  -0.40572854  -0.34033328  0.076660741  -0.40572854   0.06539526    1299997.4 
  891000    25.164232  -0.40617893  -0.40617893  -0.34019848   0.04476538  -0.40617893  0.065980457    1299997.4 
  892000    26.083027  -0.40854057  -0.40854057  -0.34015104  0.079514039  -0.40854057  0.068389532    1299997.4 
  893000     25.06068  -0.40596932  -0.40596932  -0.34026038  0.072359753  -0.40596932  0.065708945    1299997.4 
  894000    25.652165  -0.40761838  -0.40761838  -0.34035857  0.079090498  -0.40761838  0.067259815    1299997.4 
  895000    25.644638  -0.40739169  -0.40739169  -0.34015161   0.09726324  -0.40739169   0.06724008    1299997.4 
  896000    26.024091   -0.4084546   -0.4084546   -0.3402196  0.062726929   -0.4084546  0.068235002    1299997.4 
  897000    25.883152  -0.40809532  -0.40809532  -0.34022986  0.060570404  -0.40809532   0.06786546    1299997.4 
  898000    25.714357  -0.40761778  -0.40761778   -0.3401949  0.078471229  -0.40761778  0.067422881    1299997.4 
  899000    25.609774  -0.40731844  -0.40731844  -0.34016978  0.088406507  -0.40731844  0.067148665    1299997.4 
  900000     25.65974  -0.40753077  -0.40753077   -0.3402511  0.039403605  -0.40753077  0.067279677    1299997.4 
  901000    25.718549  -0.40771892  -0.40771892  -0.34028505  0.053262661  -0.40771892  0.067433872    1299997.4 
  902000    25.731796  -0.40776366  -0.40776366  -0.34029506  0.081383428  -0.40776366  0.067468607    1299997.4 
  903000    26.142174  -0.40911338  -0.40911338  -0.34056876  0.060984614  -0.40911338  0.068544615    1299997.4 
  904000    25.341185  -0.40660011  -0.40660011  -0.34015569   0.10794362  -0.40660011  0.066444426    1299997.4 
  905000     25.32526  -0.40657744  -0.40657744  -0.34017477  0.080054056  -0.40657744  0.066402672    1299997.4 
  906000    25.937975  -0.40819078  -0.40819078  -0.34018158   0.06591481  -0.40819078  0.068009207    1299997.4 
  907000    25.808694  -0.40783301  -0.40783301  -0.34016277  0.044893063  -0.40783301  0.067670234    1299997.4 
  908000    25.294256  -0.40651791  -0.40651791  -0.34019653  0.073449027  -0.40651791   0.06632138    1299997.4 
  909000    25.018758  -0.40575533  -0.40575533   -0.3401563  0.050628872  -0.40575533  0.065599024    1299997.4 
  910000    25.193051  -0.40624965  -0.40624965  -0.34019363  0.067948954  -0.40624965   0.06605602    1299997.4 
  911000    25.194368  -0.40622468  -0.40622468  -0.34016521  0.059431454  -0.40622468  0.066059474    1299997.4 
  912000    25.116814  -0.40608297  -0.40608297  -0.34022685  0.082770678  -0.40608297  0.065856127    1299997.4 
  913000    25.028161  -0.40581939  -0.40581939  -0.34019571  0.089049664  -0.40581939   0.06562368    1299997.4 
  914000    24.949619   -0.4056293   -0.4056293  -0.34021155  0.038514679   -0.4056293  0.065417742    1299997.4 
  915000    25.118444  -0.40607632  -0.40607632  -0.34021592   0.08718605  -0.40607632    0.0658604    1299997.4 
  916000    25.298733  -0.40651558  -0.40651558  -0.34018246   0.04826033  -0.40651558  0.066333119    1299997.4 
  917000    25.393001  -0.40678799  -0.40678799   -0.3402077  0.068089902  -0.40678799  0.066580287    1299997.4 
  918000     25.16719  -0.40619284  -0.40619284  -0.34020462  0.079186969  -0.40619284  0.065988212    1299997.4 
  919000     25.32598  -0.40667233  -0.40667233  -0.34026777  0.049246561  -0.40667233  0.066404559    1299997.4 
  920000    24.405076  -0.40417116  -0.40417116  -0.34018121   0.06306627  -0.40417116  0.063989954    1299997.4 
  921000    24.658506  -0.40490751  -0.40490751  -0.34025307  0.056912985  -0.40490751  0.064654446    1299997.4 
  922000    24.651013  -0.40488025  -0.40488025  -0.34024545  0.072414907  -0.40488025  0.064634801    1299997.4 
  923000    25.189336  -0.40623488  -0.40623488   -0.3401886  0.067794136  -0.40623488  0.066046279    1299997.4 
  924000    24.800931  -0.40518784  -0.40518784  -0.34015996  0.052297986  -0.40518784  0.065027884    1299997.4 
  925000    24.931211  -0.40555615  -0.40555615  -0.34018667  0.055888059  -0.40555615  0.065369479    1299997.4 
  926000    25.119434  -0.40600756  -0.40600756  -0.34014456  0.079303208  -0.40600756  0.065862998    1299997.4 
  927000    24.667978  -0.40493015  -0.40493015  -0.34025087  0.081401069  -0.40493015  0.064679283    1299997.4 
  928000    24.944843  -0.40565192  -0.40565192   -0.3402467  0.042788551  -0.40565192   0.06540522    1299997.4 
  929000    25.203468  -0.40633094  -0.40633094  -0.34024761  0.040652655  -0.40633094  0.066083335    1299997.4 
  930000    25.952325  -0.40820494  -0.40820494  -0.34015811  0.057843702  -0.40820494  0.068046832    1299997.4 
  931000    26.043268    -0.408512    -0.408512  -0.34022672  0.034886476    -0.408512  0.068285284    1299997.4 
  932000    25.855093  -0.40798276  -0.40798276  -0.34019087  0.044154048  -0.40798276   0.06779189    1299997.4 
  933000    25.680658  -0.40754924  -0.40754924  -0.34021472  0.069094562  -0.40754924  0.067334522    1299997.4 
  934000    25.552522  -0.40731945  -0.40731945   -0.3403209  0.080398442  -0.40731945  0.066998551    1299997.4 
  935000    25.975598  -0.40833907  -0.40833907  -0.34023122  0.073563022  -0.40833907  0.068107853    1299997.4 
  936000    25.893634  -0.40805807  -0.40805807  -0.34016512  0.072840579  -0.40805807  0.067892945    1299997.4 
  937000    26.261767  -0.40905762  -0.40905762  -0.34019943  0.082748688  -0.40905762  0.068858188    1299997.4 
  938000    26.455839  -0.40960215  -0.40960215   -0.3402351  0.081647777  -0.40960215  0.069367042    1299997.4 
  939000     26.65295  -0.41007108  -0.41007108  -0.34018722  0.073468435  -0.41007108  0.069883866    1299997.4 
  940000    26.562429  -0.40991213  -0.40991213  -0.34026561    0.0786111  -0.40991213   0.06964652    1299997.4 
  941000    25.914686  -0.40819635  -0.40819635  -0.34024821  0.054414651  -0.40819635  0.067948143    1299997.4 
  942000    26.120244  -0.40868737  -0.40868737  -0.34020026  0.061335031  -0.40868737  0.068487114    1299997.4 
  943000    25.610549  -0.40739644  -0.40739644  -0.34024575   0.12110018  -0.40739644  0.067150697    1299997.4 
  944000    26.499208  -0.40966925  -0.40966925   -0.3401885  0.072685856  -0.40966925  0.069480756    1299997.4 
  945000     26.65999  -0.41012883  -0.41012883  -0.34022651  0.032931781  -0.41012883  0.069902325    1299997.4 
  946000    25.975963  -0.40828812  -0.40828812  -0.34017931   0.10503231  -0.40828812  0.068108811    1299997.4 
  947000    26.458477  -0.40959195  -0.40959195  -0.34021799  0.025577812  -0.40959195   0.06937396    1299997.4 
  948000    26.068528  -0.40851927  -0.40851927  -0.34016775  0.030084035  -0.40851927  0.068351515    1299997.4 
  949000    25.612263  -0.40740938  -0.40740938  -0.34025419  0.071457132  -0.40740938  0.067155192    1299997.4 
  950000     25.42549  -0.40689706  -0.40689706  -0.34023158  0.048880884  -0.40689706  0.066665475    1299997.4 
  951000    25.286295  -0.40650952  -0.40650952  -0.34020901  0.068927888  -0.40650952  0.066300506    1299997.4 
  952000    25.532352  -0.40719226  -0.40719226  -0.34024659  0.062592966  -0.40719226  0.066945665    1299997.4 
  953000    25.767878  -0.40770881  -0.40770881   -0.3401456   0.11662274  -0.40770881  0.067563212    1299997.4 
  954000    25.468324  -0.40708975  -0.40708975  -0.34031197   0.08482129  -0.40708975  0.066777784    1299997.4 
  955000    25.554665  -0.40722022  -0.40722022  -0.34021605   0.08976499  -0.40722022   0.06700417    1299997.4 
  956000     25.80059  -0.40786222  -0.40786222  -0.34021324  0.055685269  -0.40786222  0.067648984    1299997.4 
  957000    25.408273   -0.4068023   -0.4068023  -0.34018197  0.063087745   -0.4068023  0.066620331    1299997.4 
  958000    25.280861  -0.40644032  -0.40644032  -0.34015406  0.079879366  -0.40644032  0.066286258    1299997.4 
  959000    25.527688  -0.40715225  -0.40715225  -0.34021881  0.081855258  -0.40715225  0.066933438    1299997.4 
  960000    26.154718  -0.40877164  -0.40877164  -0.34019414  0.063633801  -0.40877164  0.068577506    1299997.4 
  961000    25.475965  -0.40717098  -0.40717098  -0.34037316  0.098915798  -0.40717098   0.06679782    1299997.4 
  962000    25.729732  -0.40776337  -0.40776337  -0.34030017  0.064782606  -0.40776337  0.067463194    1299997.4 
  963000    25.508568  -0.40710575  -0.40710575  -0.34022244  0.060233201  -0.40710575  0.066883305    1299997.4 
  964000    25.376254  -0.40670988  -0.40670988   -0.3401735  0.032056094  -0.40670988  0.066536379    1299997.4 
  965000    25.454984  -0.40701181  -0.40701181  -0.34026901  0.090773637  -0.40701181  0.066742807    1299997.4 
  966000    25.173845  -0.40622653  -0.40622653  -0.34022087   0.09778833  -0.40622653  0.066005661    1299997.4 
  967000    24.954676  -0.40587126  -0.40587126  -0.34044026   0.07548347  -0.40587126  0.065431004    1299997.4 
  968000    25.240026  -0.40658764  -0.40658764  -0.34040845  0.075485301  -0.40658764  0.066179189    1299997.4 
  969000    25.827981  -0.40799071  -0.40799071  -0.34026991  0.059563935  -0.40799071  0.067720804    1299997.4 
  970000    26.140347  -0.40874719  -0.40874719  -0.34020737  0.038324972  -0.40874719  0.068539826    1299997.4 
  971000    26.364949  -0.40935896  -0.40935896  -0.34023023  0.065178991  -0.40935896  0.069128729    1299997.4 
  972000    26.865029  -0.41064555  -0.41064555  -0.34020562  0.078523831  -0.41064555  0.070439936    1299997.4 
  973000       26.191  -0.40885705  -0.40885705  -0.34018441  0.065240352  -0.40885705  0.068672638    1299997.4 
  974000    25.721179  -0.40774375  -0.40774375  -0.34030298  0.059221771  -0.40774375   0.06744077    1299997.4 
  975000    25.859165  -0.40824589  -0.40824589  -0.34044333   0.07041357  -0.40824589  0.067802567    1299997.4 
  976000    25.651166  -0.40743721  -0.40743721  -0.34018002  0.075647524  -0.40743721  0.067257194    1299997.4 
  977000    25.231488  -0.40636554  -0.40636554  -0.34020873  0.069958269  -0.40636554  0.066156803    1299997.4 
  978000    25.750607  -0.40777486  -0.40777486  -0.34025693  0.068178343  -0.40777486  0.067517928    1299997.4 
  979000    25.749457  -0.40779321  -0.40779321   -0.3402783  0.064982455  -0.40779321  0.067514912    1299997.4 
  980000    25.312114  -0.40655048  -0.40655048  -0.34018227  0.069699913  -0.40655048  0.066368204    1299997.4 
  981000    25.741376  -0.40770676  -0.40770676  -0.34021304  0.067102042  -0.40770676  0.067493725    1299997.4 
  982000    25.812247  -0.40788224  -0.40788224  -0.34020269  0.035668011  -0.40788224   0.06767955    1299997.4 
  983000    25.304001  -0.40657526  -0.40657526  -0.34022833  0.062466447  -0.40657526  0.066346932    1299997.4 
  984000    25.216357  -0.40629392  -0.40629392  -0.34017679  0.065156994  -0.40629392  0.066117129    1299997.4 
  985000    24.484348  -0.40441268  -0.40441268  -0.34021487  0.073591411  -0.40441268  0.064197806    1299997.4 
  986000    25.053469  -0.40599103  -0.40599103  -0.34030099  0.048047673  -0.40599103  0.065690037    1299997.4 
  987000    25.010243  -0.40576884  -0.40576884  -0.34019214  0.073726794  -0.40576884  0.065576698    1299997.4 
  988000     25.06284  -0.40590897  -0.40590897  -0.34019437  0.045710052  -0.40590897  0.065714608    1299997.4 
  989000    24.887536  -0.40550331  -0.40550331  -0.34024835  0.057601158  -0.40550331  0.065254962    1299997.4 
  990000    24.594009  -0.40475561  -0.40475561  -0.34027027  0.034972391  -0.40475561  0.064485335    1299997.4 
  991000    24.842207  -0.40536823  -0.40536823  -0.34023212  0.077033926  -0.40536823  0.065136111    1299997.4 
  992000    24.915787  -0.40555346  -0.40555346  -0.34022443  0.045467085  -0.40555346  0.065329035    1299997.4 
  993000    24.667405  -0.40485666  -0.40485666  -0.34017888  0.085787334  -0.40485666  0.064677779    1299997.4 
  994000    25.092671  -0.40598104  -0.40598104  -0.34018821   0.05556144  -0.40598104  0.065792824    1299997.4 
  995000    24.981076  -0.40565876  -0.40565876  -0.34015854  0.061545958  -0.40565876  0.065500224    1299997.4 
  996000    24.875642  -0.40548172  -0.40548172  -0.34025794  0.042415806  -0.40548172  0.065223777    1299997.4 
  997000    24.945308  -0.40561767  -0.40561767  -0.34021123  0.073294533  -0.40561767  0.065406439    1299997.4 
  998000    25.626496  -0.40736062  -0.40736062  -0.34016811  0.048045618  -0.40736062   0.06719251    1299997.4 
  999000    25.495993  -0.40703899  -0.40703899  -0.34018866  0.061114708  -0.40703899  0.066850332    1299997.4 
 1000000    25.869936  -0.40801595  -0.40801595  -0.34018515  0.049736681  -0.40801595  0.067830808    1299997.4 
Loop time of 18993.8 on 64 procs for 1000000 steps with 560070 atoms

Performance: 22744.296 tau/day, 52.649 timesteps/s
77.0% CPU use with 64 MPI tasks x 1 OpenMP threads

MPI task timing breakdown:
Section |  min time  |  avg time  |  max time  |%varavg|  %CPU | %total
-----------------------------------------------------------------------
Pair    | 2888.6     | 4592.8     | 8288.3     |1620.3 |  91.9 | 24.18
Bond    | 0.44959    | 0.73588    | 1.5962     |  36.5 | 100.0 |  0.00
Neigh   | 535.66     | 767.13     | 1289.2     | 522.7 |  98.3 |  4.04
Comm    | 5306.8     | 9158.1     | 11951      |1492.8 |  69.3 | 48.22
Output  | 145.3      | 216.75     | 397.68     | 355.2 |  73.7 |  1.14
Modify  | 1715.6     | 3335.4     | 4265.9     |1009.6 |  74.2 | 17.56
Other   |            | 922.9      |            |       |       |  4.86

Nlocal:        8751.09 ave       10853 max        7455 min
Histogram: 5 12 6 18 6 8 1 4 2 2
Nghost:        19233.7 ave       24703 max       14642 min
Histogram: 7 12 11 2 2 1 12 3 11 3
Neighs:       276285.0 ave      347825 max      229490 min
Histogram: 4 10 8 16 7 9 2 3 3 2

Total # of neighbors = 17682232
Ave neighs/atom = 31.571468
Ave special neighs/atom = 0.0000000
Neighbor list builds = 40153
Dangerous builds = 0

write_data      data.cubes
System init for write_data ...
WARNING: Not all mixed pair coeffs generated from mixing. Use write_data with 'pair ij' option to store all pair coeffs. (src/write_data.cpp:312)
Total wall time: 5:16:44
