LAMMPS (24 Dec 2020)
OMP_NUM_THREADS environment is not set. Defaulting to 1 thread. (src/comm.cpp:94)
  using 1 OpenMP thread(s) per MPI task
#Read the equilibrated lj fluid and add nanocubes

units           lj
atom_style      full
atom_modify     map array first cubes
dimension       3
boundary        p p f
pair_style      lj/cut/opt 2.0

variable        sigma           equal 1.0
variable        epsilon         equal 1.0
read_restart	restart.dat.5000000
Reading restart file ...
  restart file = 24 Dec 2020, LAMMPS = 24 Dec 2020
WARNING: Restart file used different # of processors: 192 vs. 288 (src/read_restart.cpp:697)
  restoring atom style full from restart
  orthogonal box = (0.0000000 0.0000000 0.0000000) to (80.000000 80.000000 160.00000)
  6 by 4 by 12 MPI processor grid
  restoring pair style lj/smooth/linear from restart
  439061 atoms
Finding 1-2 1-3 1-4 neighbors ...
  special bond factors lj:    0        0        0       
  special bond factors coul:  0        0        0       
     0 = max # of 1-2 neighbors
     0 = max # of 1-3 neighbors
     0 = max # of 1-4 neighbors
     1 = max # of special neighbors
  special bonds CPU = 2.378 seconds
  read_restart CPU = 2.805 seconds

group		solvent type 1
439061 atoms in group solvent

read_data	data_96.cubes group cubes add append
Reading data file ...
  orthogonal box = (0.0000000 0.0000000 0.0000000) to (80.000000 80.000000 160.00000)
  6 by 4 by 12 MPI processor grid
WARNING: Pair style in data file differs from currently defined pair style (src/read_data.cpp:588)
  reading atoms ...
  127776 atoms
  reading velocities ...
  127776 velocities
Finding 1-2 1-3 1-4 neighbors ...
  special bond factors lj:    0        0        0       
  special bond factors coul:  0        0        0       
     0 = max # of 1-2 neighbors
     0 = max # of 1-3 neighbors
     0 = max # of 1-4 neighbors
     1 = max # of special neighbors
  special bonds CPU = 0.035 seconds
  read_data CPU = 0.368 seconds

group 		hull  type 2
57792 atoms in group hull
group 		dummy type 3
69984 atoms in group dummy

neighbor      0.4 bin
neigh_modify  exclude molecule/intra cubes


pair_modify   shift yes

pair_coeff    1 1 1.0 1.0 #solvent
pair_coeff    2 2 1.0 1.0 1.12 #np
pair_coeff    3 3 0.0 0.0 0.0 #dummy
pair_coeff    2 3 0.0 0.0 0.0 #np dummy
pair_coeff    1 2 ${eps} ${sig} ${nscut} #np solvent
pair_coeff    1 2 2.0 ${sig} ${nscut} 
pair_coeff    1 2 2.0 1.0 ${nscut} 
pair_coeff    1 2 2.0 1.0 4.0 
pair_coeff    1 3 0.0 0.0 2.5 #dummy solvent

# delete solvent where the cubes are
delete_atoms  overlap 2.0 solvent cubes
System init for delete_atoms ...
Neighbor list info ...
  update every 1 steps, delay 10 steps, check yes
  max neighbors/atom: 2000, page size: 100000
  master list distance cutoff = 4.4
  ghost atom cutoff = 4.4
  binsize = 2.2, bins = 37 37 73
  2 neighbor lists, perpetual/occasional/extra = 1 1 0
  (1) command delete_atoms, occasional
      attributes: full, newton on
      pair build: full/bin
      stencil: full/bin/3d
      bin: standard
  (2) pair lj/smooth/linear, perpetual
      attributes: half, newton on
      pair build: half/bin/newton
      stencil: half/bin/3d/newton
      bin: standard
WARNING: Delete_atoms cutoff > minimum neighbor cutoff (src/delete_atoms.cpp:307)
WARNING: Ignoring 'compress yes' for molecular system (src/delete_atoms.cpp:125)
Deleted 148648 atoms, new total = 418189



pair_coeff    1 1 1.0 1.0 #solvent
pair_coeff    2 2 1.0 1.0 1.12 #np
pair_coeff    3 3 0.0 0.0 0.0 #dummy
pair_coeff    2 3 0.0 0.0 0.0 #np dummy
pair_coeff    1 2 ${eps} ${sig} ${nscut} #np solvent
pair_coeff    1 2 2.0 ${sig} ${nscut} 
pair_coeff    1 2 2.0 1.0 ${nscut} 
pair_coeff    1 2 2.0 1.0 4.0 
pair_coeff    1 3 0.0 0.0 0.0 #dummy solvent


comm_modify   mode multi cutoff/multi 1 2.0 cutoff/multi 2 2.0 cutoff/multi 3 8.67

reset_timestep 	0

balance 	1.05 shift z 10 1.05
Balancing ...
Neighbor list info ...
  update every 1 steps, delay 10 steps, check yes
  max neighbors/atom: 2000, page size: 100000
  master list distance cutoff = 4.4
  ghost atom cutoff = 8.67
  binsize = 2.2, bins = 37 37 73
  1 neighbor lists, perpetual/occasional/extra = 1 0 0
  (1) pair lj/smooth/linear, perpetual
      attributes: half, newton on
      pair build: half/bin/newton
      stencil: half/bin/3d/newton
      bin: standard
 rebalancing time: 0.004 seconds
  iteration count = 4
  initial/final maximal load/proc = 2244.0000 2124.0000
  initial/final imbalance factor  = 1.5454065 1.4627644
  x cuts: 0.0000000 0.16666667 0.33333333 0.50000000 0.66666667 0.83333333 1.0000000
  y cuts: 0.0000000 0.25000000 0.50000000 0.75000000 1.0000000
  z cuts: 0.0000000 0.057291667 0.11979167 0.17187500 0.23958333 0.30208333 0.34375000 0.41145833 0.46354167 0.51562500 0.59895833 0.64583333 1.0000000

####################### WALLS ###########################

variable       epsilonWall equal 2*${epsilon}
variable       epsilonWall equal 2*1
variable       repulsive   equal   0.7147*${sigma}
variable       repulsive   equal   0.7147*1
variable       full	   equal   3*${sigma}
variable       full	   equal   3*1
region         lowWall block EDGE EDGE EDGE EDGE EDGE 2

fix            topWall all wall/lj93 zhi EDGE 	       ${epsilonWall} ${sigma} ${repulsive} units box
fix            topWall all wall/lj93 zhi EDGE 	       2 ${sigma} ${repulsive} units box
fix            topWall all wall/lj93 zhi EDGE 	       2 1 ${repulsive} units box
fix            topWall all wall/lj93 zhi EDGE 	       2 1 0.7147 units box
fix            lowSol solvent wall/lj93 zlo EDGE                ${epsilonWall} ${sigma} ${full} units box
fix            lowSol solvent wall/lj93 zlo EDGE                2 ${sigma} ${full} units box
fix            lowSol solvent wall/lj93 zlo EDGE                2 1 ${full} units box
fix            lowSol solvent wall/lj93 zlo EDGE                2 1 3 units box
fix 	       lowCub cubes wall/lj93 zlo EDGE                ${epsilonWall} ${sigma} ${repulsive} units box
fix 	       lowCub cubes wall/lj93 zlo EDGE                2 ${sigma} ${repulsive} units box
fix 	       lowCub cubes wall/lj93 zlo EDGE                2 1 ${repulsive} units box
fix 	       lowCub cubes wall/lj93 zlo EDGE                2 1 0.7147 units box


###################### COMPUTES ##########################

compute        bin1 solvent chunk/atom bin/1d z lower 1.0 units box


######################  FIXES ############################


fix             peclet solvent ave/chunk 10 10 10000 bin1 density/number norm                  none ave one file density.profile

fix              temp solvent ave/chunk 10 10 10000 bin1 temp norm                  none ave one file temp.profile

fix             1 cubes rigid/nve/small molecule
  create bodies CPU = 0.047 seconds
  96 rigid bodies with 127776 atoms
  8.6602540 = max distance from body owner to body atom

fix             2 solvent nve# temp ${temp} ${temp} 10


## Thermostat
region          regthermo block EDGE EDGE EDGE EDGE 0 15
group           thermo dynamic solvent region regthermo every 1000
dynamic group thermo defined
fix             3 thermo langevin ${temp} ${temp} 10 156453
fix             3 thermo langevin 0.6 ${temp} 10 156453
fix             3 thermo langevin 0.6 0.6 10 156453


#### Load balancing

fix             bal all balance 1000 1.05 shift z 10 1.05

############### Diagnostics and computes ###################

compute        	com cubes          rigid/local   1 mol x y z
compute        	quat cubes         rigid/local   1 mol quatw quati quatj quatk

compute 	cc2 cubes 	   chunk/atom 	 molecule
compute 	msd cubes 	   msd/chunk 	 cc2

fix 		msd all ave/time  1 1 10000 c_msd[*] file dump.msd ave one mode vector

dump            1 all custom 500000 dump.lammpstrj id mol type x y z
dump		cubetrj hull custom 500000 cubes.lammpstrj id mol type x y z
dump            com cubes local 10000 dump.*.xyz c_com[*]
dump	        xyz hull xyz 100000 cubes.xyz
dump            quat cubes      local 10000 dump.*.quat c_quat[*]
#dump		mol cubes molfile 10000 mol.xyz xyz


dump            2 all image 10000 image.*.png type type zoom 1.5 size 1280 720
dump_modify     2 pad 8
dump		image cubes image 10000 image_cubes.*.png type type zoom 1.5 size 1280 720
dump_modify	image pad 8
dump            3 all movie 5000 movie.avi type type zoom 1.5 size 1280 720
dump		4 cubes movie 5000 movie_cubes.avi type type size 1280 720


thermo          1000
thermo_style    custom step temp epair evdwl etotal press pe ke atoms

restart         1000000 restart.dat
timestep        0.005
timer           full
New timer settings: style=full  mode=nosync  timeout=off

run 		5000000
Per MPI rank memory allocation (min/avg/max) = 14.12 | 20.75 | 23.70 Mbytes
Step Temp E_pair E_vdwl TotEng Press PotEng KinEng Atoms 
       0   0.60857357   -1.4953955   -1.4953955  -0.86103909 -0.021980076   -1.4953955   0.63435641   418189 
    1000     0.869964   -1.7803345   -1.7803345  -0.87351356   0.10449676   -1.7803345    0.9068209   418189 
    2000   0.96234674   -1.9030412   -1.9030412  -0.89992362   0.19470818   -1.9030412    1.0031175   418189 
    3000   0.99604478   -1.9673782   -1.9673782  -0.92913494   0.22669282   -1.9673782    1.0382432   418189 
    4000    1.0059066   -2.0073105   -2.0073105  -0.95878763   0.23380114   -2.0073105    1.0485228   418189 
    5000    1.0031904   -2.0331016   -2.0331016  -0.98740999   0.23396218   -2.0331016    1.0456916   418189 
    6000   0.99909092   -2.0570953   -2.0570953   -1.0156769   0.23028349   -2.0570953    1.0414184   418189 
    7000   0.99105011   -2.0753122   -2.0753122   -1.0422752   0.23442035   -2.0753122     1.033037   418189 
    8000   0.98097922   -2.0897187   -2.0897187   -1.0671793   0.22022308   -2.0897187    1.0225394   418189 
    9000   0.97200388   -2.1018977   -2.1018977   -1.0887139   0.20515775   -2.1018977    1.0131838   418189 
   10000   0.96304237   -2.1114311   -2.1114311   -1.1075885   0.20490158   -2.1114311    1.0038426   418189 
   11000    0.9558202   -2.1196818   -2.1196818   -1.1233673   0.18558096   -2.1196818   0.99631449   418189 
   12000   0.95074378   -2.1277427   -2.1277427   -1.1367197    0.1722119   -2.1277427   0.99102301   418189 
   13000   0.94800136   -2.1360065   -2.1360065   -1.1478421    0.1772108   -2.1360065    0.9881644   418189 
   14000   0.94649407   -2.1439898   -2.1439898   -1.1573966   0.17217966   -2.1439898   0.98659325   418189 
   15000   0.94553626   -2.1506554   -2.1506554   -1.1650606   0.17312335   -2.1506554   0.98559486   418189 
   16000   0.94763919   -2.1599585   -2.1599585   -1.1721716    0.1819308   -2.1599585   0.98778689   418189 
   17000   0.94666947   -2.1650984   -2.1650984   -1.1783223   0.17640503   -2.1650984   0.98677608   418189 
   18000   0.94570469   -2.1696472   -2.1696472   -1.1838768    0.1776681   -2.1696472   0.98577042   418189 
   19000   0.94292833   -2.1716975   -2.1716975   -1.1888211   0.18573994   -2.1716975   0.98287645   418189 
   20000   0.94396388   -2.1769902   -2.1769902   -1.1930344   0.17786349   -2.1769902   0.98395587   418189 
   21000   0.94327842   -2.1806266   -2.1806266   -1.1973852   0.17760762   -2.1806266   0.98324137   418189 
   22000   0.94456926   -2.1855909   -2.1855909    -1.201004   0.19917899   -2.1855909    0.9845869   418189 
   23000   0.94288961   -2.1873028   -2.1873028   -1.2044667   0.19647025   -2.1873028   0.98283608   418189 
   24000   0.93858229   -2.1863885   -2.1863885   -1.2080422   0.18281836   -2.1863885   0.97834628   418189 
   25000   0.93855219   -2.1886525   -2.1886525   -1.2103376    0.1736016   -2.1886525    0.9783149   418189 
   26000   0.93755448   -2.1900721   -2.1900721   -1.2127971   0.18863818   -2.1900721   0.97727493   418189 
   27000   0.93556018   -2.1904709   -2.1904709   -1.2152748   0.17581468   -2.1904709   0.97519614   418189 
   28000   0.93345015   -2.1908673   -2.1908673   -1.2178706   0.17446124   -2.1908673   0.97299671   418189 
   29000   0.93032337   -2.1896472   -2.1896472   -1.2199097   0.18876812   -2.1896472   0.96973746   418189 
   30000   0.92995089   -2.1915882   -2.1915882    -1.222239   0.15002274   -2.1915882    0.9693492   418189 
   31000   0.92747729   -2.1918538   -2.1918538    -1.225083   0.16966478   -2.1918538   0.96677081   418189 
   32000   0.92462444   -2.1907016   -2.1907016   -1.2269045   0.18720833   -2.1907016   0.96379709   418189 
   33000   0.92387213   -2.1924193   -2.1924193   -1.2294064   0.18507863   -2.1924193   0.96301291   418189 
   34000   0.92352788    -2.193674    -2.193674     -1.23102    0.1566084    -2.193674   0.96265407   418189 
   35000   0.92215063   -2.1950581   -2.1950581   -1.2338396   0.16530288   -2.1950581   0.96121848   418189 
   36000   0.91996715   -2.1949575   -2.1949575    -1.236015   0.18167271   -2.1949575   0.95894249   418189 
   37000   0.91840881    -2.196788    -2.196788   -1.2394698   0.16986741    -2.196788   0.95731813   418189 
   38000   0.91832677   -2.2003803   -2.2003803   -1.2431477   0.18096008   -2.2003803   0.95723261   418189 
   39000   0.91650249   -2.2031475   -2.2031475   -1.2478165   0.16958067   -2.2031475   0.95533104   418189 
   40000   0.91517795   -2.2059435   -2.2059435   -1.2519931    0.1769753   -2.2059435   0.95395039   418189 
   41000   0.91404126   -2.2097498   -2.2097498   -1.2569843   0.17558403   -2.2097498   0.95276554   418189 
   42000   0.91062234   -2.2118474   -2.2118474   -1.2626456   0.17541213   -2.2118474   0.94920178   418189 
   43000    0.9108554    -2.218088    -2.218088   -1.2686433   0.18801136    -2.218088   0.94944471   418189 
   44000   0.90947708   -2.2212407   -2.2212407   -1.2732327   0.17602205   -2.2212407     0.948008   418189 
   45000   0.90763088    -2.224706    -2.224706   -1.2786224   0.18334461    -2.224706   0.94608358   418189 
   46000   0.90604837   -2.2280237   -2.2280237   -1.2835897   0.17604768   -2.2280237   0.94443402   418189 
   47000   0.90348261   -2.2308363   -2.2308363   -1.2890768   0.19032691   -2.2308363   0.94175956   418189 
   48000    0.9013837   -2.2330317   -2.2330317   -1.2934599   0.17591429   -2.2330317   0.93957173   418189 
   49000   0.90012249   -2.2367113   -2.2367113   -1.2984542    0.1791498   -2.2367113   0.93825709   418189 
   50000    0.8985033   -2.2399693   -2.2399693      -1.3034   0.19435324   -2.2399693   0.93656931   418189 
   51000   0.89528985   -2.2407982   -2.2407982   -1.3075785    0.1909382   -2.2407982   0.93321971   418189 
   52000   0.89263157   -2.2429218   -2.2429218    -1.312473   0.18912672   -2.2429218   0.93044881   418189 
   53000   0.89202031   -2.2470267   -2.2470267    -1.317215   0.16899142   -2.2470267   0.92981166   418189 
   54000   0.88879187   -2.2469773   -2.2469773   -1.3205309   0.18178142   -2.2469773   0.92644643   418189 
   55000   0.88606112   -2.2487504   -2.2487504   -1.3251504   0.16835015   -2.2487504       0.9236   418189 
   56000   0.88501769   -2.2509798   -2.2509798   -1.3284674   0.17009015   -2.2509798   0.92251236   418189 
   57000   0.88233953   -2.2516193   -2.2516193   -1.3318986   0.16364895   -2.2516193   0.91972073   418189 
   58000   0.88113709   -2.2536022   -2.2536022   -1.3351349   0.16918761   -2.2536022   0.91846735   418189 
   59000   0.87846969   -2.2535689   -2.2535689   -1.3378819   0.16915834   -2.2535689   0.91568695   418189 
   60000   0.87708485   -2.2556835   -2.2556835     -1.34144   0.17841333   -2.2556835   0.91424344   418189 
   61000   0.87559008   -2.2568469   -2.2568469   -1.3441616   0.16099792   -2.2568469   0.91268533   418189 
   62000   0.87474549   -2.2580955   -2.2580955   -1.3462906   0.15876359   -2.2580955   0.91180497   418189 
   63000   0.87433932   -2.2605696   -2.2605696    -1.349188   0.16252775   -2.2605696   0.91138159   418189 
   64000    0.8732676    -2.261914    -2.261914   -1.3516496   0.16312622    -2.261914   0.91026446   418189 
   65000    0.8728987   -2.2642161   -2.2642161   -1.3543362   0.16110241   -2.2642161   0.90987993   418189 
   66000   0.87244582   -2.2666745   -2.2666745   -1.3572667   0.16315666   -2.2666745   0.90940787   418189 
   67000   0.87139796   -2.2685624   -2.2685624   -1.3602468   0.16923053   -2.2685624   0.90831562   418189 
   68000   0.87167241   -2.2709793   -2.2709793   -1.3623776   0.14478694   -2.2709793    0.9086017   418189 
   69000   0.87266102   -2.2744065   -2.2744065   -1.3647743   0.15556276   -2.2744065   0.90963219   418189 
   70000   0.87005856   -2.2734508   -2.2734508   -1.3665314   0.15520492   -2.2734508   0.90691947   418189 
   71000   0.86733805    -2.273559    -2.273559   -1.3694753   0.15512069    -2.273559   0.90408371   418189 
   72000   0.86860166   -2.2765726   -2.2765726   -1.3711718   0.15240342   -2.2765726   0.90540085   418189 
   73000   0.86912882   -2.2787331   -2.2787331   -1.3727828   0.13798527   -2.2787331   0.90595034   418189 
   74000   0.86699273   -2.2784902   -2.2784902   -1.3747664   0.16068643   -2.2784902   0.90372375   418189 
   75000   0.86848685   -2.2820824   -2.2820824   -1.3768013   0.16959171   -2.2820824   0.90528117   418189 
   76000   0.86680904    -2.282053    -2.282053   -1.3785207   0.14739139    -2.282053   0.90353228   418189 
   77000   0.86567301     -2.28334     -2.28334   -1.3809919   0.14675645     -2.28334   0.90234812   418189 
   78000   0.86405839   -2.2839559   -2.2839559   -1.3832908    0.1532089   -2.2839559    0.9006651   418189 
   79000   0.86306286   -2.2839286   -2.2839286   -1.3843012    0.1572384   -2.2839286   0.89962739   418189 
   80000   0.86392809   -2.2862821   -2.2862821   -1.3857528   0.13197077   -2.2862821   0.90052928   418189 
   81000   0.86209123   -2.2861035   -2.2861035    -1.387489   0.14748125   -2.2861035   0.89861459   418189 
   82000   0.86270659   -2.2883486   -2.2883486   -1.3890925   0.15215208   -2.2883486   0.89925602   418189 
   83000   0.86147996   -2.2898599   -2.2898599   -1.3918825   0.15995461   -2.2898599   0.89797743   418189 
   84000   0.86059283   -2.2911429   -2.2911429   -1.3940902   0.14589075   -2.2911429   0.89705271   418189 
   85000   0.85939413   -2.2916549   -2.2916549   -1.3958517   0.14159934   -2.2916549   0.89580324   418189 
   86000   0.86058759   -2.2944738   -2.2944738   -1.3974265   0.15191724   -2.2944738   0.89704725   418189 
   87000   0.86012193   -2.2967016   -2.2967016   -1.4001397   0.16460443   -2.2967016   0.89656187   418189 
   88000   0.85870048   -2.2962428   -2.2962428   -1.4011626   0.13241258   -2.2962428    0.8950802   418189 
   89000   0.85729656   -2.2978519   -2.2978519   -1.4042351   0.14915785   -2.2978519    0.8936168   418189 
   90000   0.85867547   -2.3011734   -2.3011734   -1.4061193   0.14851271   -2.3011734   0.89505413   418189 
   91000    0.8585084   -2.3034819   -2.3034819   -1.4086019   0.16276847   -2.3034819   0.89487997   418189 
   92000    0.8583264   -2.3059849   -2.3059849   -1.4112947   0.16789083   -2.3059849   0.89469027   418189 
   93000   0.85673788   -2.3060764   -2.3060764   -1.4130419   0.14493538   -2.3060764   0.89303445   418189 
   94000   0.85661377   -2.3084803   -2.3084803   -1.4155752   0.15117442   -2.3084803   0.89290508   418189 
   95000   0.85448056   -2.3091431   -2.3091431   -1.4184616   0.14985492   -2.3091431   0.89068149   418189 
   96000   0.85534649   -2.3129135   -2.3129135   -1.4213294   0.16248603   -2.3129135   0.89158411   418189 
   97000   0.85261356   -2.3126901   -2.3126901   -1.4239547   0.14728935   -2.3126901    0.8887354   418189 
   98000   0.85107296    -2.313226    -2.313226   -1.4260965   0.15533748    -2.313226   0.88712952   418189 
   99000   0.85073846   -2.3152419   -2.3152419   -1.4284611   0.16186315   -2.3152419   0.88678085   418189 
  100000   0.84977727   -2.3172879   -2.3172879   -1.4315089   0.14754649   -2.3172879   0.88577894   418189 
  101000   0.85173795   -2.3214793   -2.3214793   -1.4336566   0.15850602   -2.3214793   0.88782269   418189 
  102000   0.84727834   -2.3189421   -2.3189421    -1.435768   0.14775378   -2.3189421   0.88317414   418189 
  103000   0.84817563   -2.3214971   -2.3214971   -1.4373876   0.15084493   -2.3214971   0.88410945   418189 
  104000   0.84717346   -2.3219595   -2.3219595   -1.4388947   0.14310735   -2.3219595   0.88306483   418189 
  105000   0.84428351   -2.3221286   -2.3221286   -1.4420762   0.14431219   -2.3221286   0.88005243   418189 
  106000   0.84487367   -2.3249403   -2.3249403   -1.4442727   0.14500054   -2.3249403    0.8806676   418189 
  107000   0.84521189    -2.327375    -2.327375   -1.4463548   0.14597556    -2.327375   0.88102015   418189 
  108000   0.84484626   -2.3280896   -2.3280896   -1.4474506   0.16193109   -2.3280896   0.88063903   418189 
  109000   0.84210761   -2.3271084   -2.3271084    -1.449324   0.13827443   -2.3271084   0.87778435   418189 
  110000   0.84167478   -2.3285692   -2.3285692    -1.451236   0.15897069   -2.3285692   0.87733318   418189 
  111000   0.83902272   -2.3279713   -2.3279713   -1.4534025   0.14596236   -2.3279713   0.87456877   418189 
  112000   0.83977799   -2.3304849   -2.3304849   -1.4551288   0.15163039   -2.3304849   0.87535603   418189 
  113000   0.83969744   -2.3323399   -2.3323399   -1.4570678   0.15419228   -2.3323399   0.87527207   418189 
  114000   0.83872474   -2.3328049   -2.3328049   -1.4585467   0.13646304   -2.3328049   0.87425816   418189 
  115000   0.83858398     -2.33374     -2.33374   -1.4596286   0.13795664     -2.33374   0.87411144   418189 
  116000    0.8371149   -2.3336098   -2.3336098   -1.4610297   0.14226378   -2.3336098   0.87258012   418189 
  117000   0.83694292   -2.3356474   -2.3356474   -1.4632465   0.14245308   -2.3356474   0.87240085   418189 
  118000   0.83697317   -2.3364248   -2.3364248   -1.4639924   0.14355627   -2.3364248   0.87243238   418189 
  119000   0.83640863   -2.3386304   -2.3386304   -1.4667865   0.13783922   -2.3386304   0.87184393   418189 
  120000    0.8365453   -2.3388638   -2.3388638   -1.4668774   0.15887733   -2.3388638   0.87198638   418189 
  121000   0.83555343   -2.3392204   -2.3392204   -1.4682679   0.14463627   -2.3392204    0.8709525   418189 
  122000   0.83492962   -2.3402038   -2.3402038   -1.4699015   0.13810049   -2.3402038   0.87030226   418189 
  123000   0.83407826   -2.3414373   -2.3414373   -1.4720225   0.12384985   -2.3414373   0.86941483   418189 
  124000   0.83517396   -2.3432436   -2.3432436   -1.4726867   0.14311791   -2.3432436   0.87055695   418189 
  125000   0.83448777   -2.3442357   -2.3442357    -1.474394    0.1449495   -2.3442357   0.86984169   418189 
  126000   0.83353749   -2.3452538   -2.3452538   -1.4764026    0.1381743   -2.3452538   0.86885115   418189 
  127000    0.8319664   -2.3462223   -2.3462223   -1.4790088   0.12977856   -2.3462223    0.8672135   418189 
  128000   0.83250335   -2.3487667   -2.3487667   -1.4809935   0.12646354   -2.3487667    0.8677732   418189 
  129000   0.83398615    -2.351488    -2.351488   -1.4821692   0.13914217    -2.351488   0.86931882   418189 
  130000   0.83266589   -2.3513359   -2.3513359   -1.4833933   0.12890651   -2.3513359   0.86794263   418189 
  131000    0.8292788   -2.3501849   -2.3501849   -1.4857729   0.14915824   -2.3501849   0.86441204   418189 
  132000   0.83082411   -2.3526406   -2.3526406   -1.4866178   0.14314008   -2.3526406   0.86602281   418189 
  133000   0.82968463   -2.3527996   -2.3527996   -1.4879646   0.12806988   -2.3527996   0.86483506   418189 
  134000   0.83020822   -2.3543428   -2.3543428    -1.488962    0.1458037   -2.3543428   0.86538083   418189 
  135000   0.82989534   -2.3553542   -2.3553542   -1.4902995   0.13840898   -2.3553542    0.8650547   418189 
  136000   0.82838466   -2.3556358   -2.3556358   -1.4921558   0.13026924   -2.3556358   0.86348002   418189 
  137000   0.82825632   -2.3570504   -2.3570504   -1.4937042   0.14675397   -2.3570504   0.86334623   418189 
  138000    0.8266278    -2.356799    -2.356799   -1.4951503   0.13097443    -2.356799   0.86164872   418189 
  139000     0.827335   -2.3591353   -2.3591353   -1.4967494   0.14136517   -2.3591353   0.86238588   418189 
  140000   0.82585004   -2.3600794   -2.3600794   -1.4992413   0.14939801   -2.3600794   0.86083801   418189 
  141000   0.82555856   -2.3610107   -2.3610107   -1.5004765   0.14196512   -2.3610107   0.86053418   418189 
  142000   0.82446703   -2.3617366   -2.3617366   -1.5023402   0.13903655   -2.3617366   0.85939641   418189 
  143000   0.82497222   -2.3639504   -2.3639504   -1.5040274   0.14273484   -2.3639504   0.85992301   418189 
  144000   0.82309735   -2.3638979   -2.3638979   -1.5059292   0.14124314   -2.3638979    0.8579687   418189 
  145000   0.82264629   -2.3657773   -2.3657773   -1.5082788   0.14080331   -2.3657773   0.85749853   418189 
  146000   0.82048501   -2.3650707   -2.3650707    -1.509825    0.1569455   -2.3650707   0.85524569   418189 
  147000   0.81932629    -2.365723    -2.365723   -1.5116851   0.12941223    -2.365723   0.85403788   418189 
  148000   0.82067623   -2.3688575   -2.3688575   -1.5134125   0.13667465   -2.3688575   0.85544501   418189 
  149000   0.82093104    -2.370177    -2.370177   -1.5144664    0.1278202    -2.370177   0.85571061   418189 
  150000   0.82086697   -2.3715957   -2.3715957   -1.5159519   0.13246198   -2.3715957   0.85564383   418189 
  151000   0.82133852   -2.3745191   -2.3745191   -1.5183837    0.1421248   -2.3745191   0.85613536   418189 
  152000   0.81864813   -2.3727012   -2.3727012   -1.5193702   0.14356079   -2.3727012   0.85333098   418189 
  153000   0.81802405   -2.3737227   -2.3737227   -1.5210423   0.13763626   -2.3737227   0.85268047   418189 
  154000   0.81764202   -2.3745843   -2.3745843    -1.522302    0.1347198   -2.3745843   0.85228225   418189 
  155000   0.81545018   -2.3734241   -2.3734241   -1.5234266   0.13471867   -2.3734241   0.84999755   418189 
  156000    0.8160625   -2.3754882   -2.3754882   -1.5248524   0.12735297   -2.3754882   0.85063581   418189 
  157000   0.81446229   -2.3752463   -2.3752463   -1.5262785    0.1324168   -2.3752463   0.84896781   418189 
  158000   0.81437619   -2.3769239   -2.3769239   -1.5280458   0.14029565   -2.3769239   0.84887806   418189 
  159000   0.81557176   -2.3790694   -2.3790694   -1.5289451   0.15058066   -2.3790694   0.85012428   418189 
  160000   0.81451033   -2.3793384   -2.3793384   -1.5303205    0.1405576   -2.3793384   0.84901789   418189 
  161000   0.81453359    -2.381163    -2.381163   -1.5321209    0.1155193    -2.381163   0.84904213   418189 
  162000   0.81353245   -2.3815621   -2.3815621   -1.5335636   0.12849775   -2.3815621   0.84799857   418189 
  163000   0.81250632   -2.3824837   -2.3824837   -1.5355547    0.1334551   -2.3824837   0.84692897   418189 
  164000   0.81147885   -2.3830112   -2.3830112   -1.5371533   0.13049114   -2.3830112   0.84585797   418189 
  165000   0.81196442   -2.3849605   -2.3849605   -1.5385964   0.13254871   -2.3849605   0.84636411   418189 
  166000    0.8121115    -2.386462    -2.386462   -1.5399446   0.12265723    -2.386462   0.84651743   418189 
  167000   0.81147487   -2.3866483   -2.3866483   -1.5407944   0.12507496   -2.3866483   0.84585382   418189 
  168000   0.81095791   -2.3872983   -2.3872983   -1.5419834   0.11610841   -2.3872983   0.84531497   418189 
  169000   0.81120291   -2.3889898   -2.3889898   -1.5434195   0.13616243   -2.3889898   0.84557034   418189 
  170000   0.80912337   -2.3888833   -2.3888833   -1.5454806   0.13551543   -2.3888833    0.8434027   418189 
  171000   0.80882242   -2.3907436   -2.3907436   -1.5476546    0.1341273   -2.3907436     0.843089   418189 
  172000   0.80971216   -2.3933083   -2.3933083   -1.5492918   0.13430331   -2.3933083   0.84401644   418189 
  173000   0.80787367   -2.3934128   -2.3934128   -1.5513128   0.13097858   -2.3934128   0.84210006   418189 
  174000   0.80793921    -2.394142    -2.394142   -1.5519736    0.1326621    -2.394142   0.84216837   418189 
  175000   0.80572716   -2.3935823   -2.3935823   -1.5537197   0.13520323   -2.3935823    0.8398626   418189 
  176000   0.80770095   -2.3975854   -2.3975854   -1.5556654   0.12251266   -2.3975854   0.84192001   418189 
  177000   0.80643307    -2.397608    -2.397608   -1.5570096   0.13201172    -2.397608   0.84059842   418189 
  178000   0.80566232   -2.3977501   -2.3977501   -1.5579551   0.10854099   -2.3977501   0.83979501   418189 
  179000   0.80452377   -2.3981263   -2.3981263   -1.5595181   0.13331477   -2.3981263   0.83860823   418189 
  180000   0.80503204   -2.3991285   -2.3991285   -1.5599904   0.12339414   -2.3991285   0.83913803   418189 
  181000   0.80639135   -2.4007175   -2.4007175   -1.5601626    0.1295448   -2.4007175   0.84055494   418189 
  182000   0.80720532   -2.4034105   -2.4034105   -1.5620071   0.14049945   -2.4034105   0.84140339   418189 
  183000   0.80435261    -2.401065    -2.401065   -1.5626352   0.13130788    -2.401065   0.83842982   418189 
  184000   0.80454561   -2.4032679   -2.4032679   -1.5646369   0.12543175   -2.4032679     0.838631   418189 
  185000   0.80416865   -2.4044027   -2.4044027   -1.5661646    0.1300737   -2.4044027   0.83823807   418189 
  186000   0.80369962   -2.4050608   -2.4050608   -1.5673116   0.12656768   -2.4050608   0.83774917   418189 
  187000    0.8036239   -2.4066645   -2.4066645   -1.5689942   0.12462703   -2.4066645   0.83767024   418189 
  188000   0.80330823   -2.4068623   -2.4068623   -1.5695211   0.12477998   -2.4068623    0.8373412   418189 
  189000   0.80053007   -2.4051347   -2.4051347   -1.5706894   0.13830779   -2.4051347   0.83444534   418189 
  190000   0.80212153   -2.4086711   -2.4086711   -1.5725669   0.13522857   -2.4086711   0.83610422   418189 
  191000   0.80202286   -2.4093178   -2.4093178   -1.5733165   0.12676325   -2.4093178   0.83600137   418189 
  192000   0.80235211   -2.4106619   -2.4106619   -1.5743174    0.1183984   -2.4106619   0.83634457   418189 
  193000   0.80068386   -2.4100893   -2.4100893   -1.5754837   0.12934525   -2.4100893   0.83460564   418189 
  194000   0.79990618   -2.4111515   -2.4111515   -1.5773565    0.1236261   -2.4111515   0.83379501   418189 
  195000   0.79943196   -2.4123527   -2.4123527    -1.579052   0.14148696   -2.4123527    0.8333007   418189 
  196000   0.79754426   -2.4111418   -2.4111418   -1.5798087   0.12270196   -2.4111418   0.83133303   418189 
  197000   0.79867083   -2.4128939   -2.4128939   -1.5803866   0.12219111   -2.4128939   0.83250733   418189 
  198000    0.7995218   -2.4153322   -2.4153322   -1.5819379   0.13142264   -2.4153322   0.83339435   418189 
  199000   0.79846951   -2.4141579   -2.4141579   -1.5818604   0.11832418   -2.4141579   0.83229747   418189 
  200000   0.79798172   -2.4153333   -2.4153333   -1.5835442   0.12630608   -2.4153333   0.83178902   418189 
  201000   0.79798893   -2.4164472   -2.4164472   -1.5846507   0.12462703   -2.4164472   0.83179654   418189 
  202000    0.7965731   -2.4166268   -2.4166268   -1.5863061   0.11242638   -2.4166268   0.83032073   418189 
  203000   0.79648272   -2.4181259   -2.4181259   -1.5878994   0.13028718   -2.4181259   0.83022652   418189 
  204000   0.79504214    -2.418118    -2.418118   -1.5893931   0.12834784    -2.418118   0.82872491   418189 
  205000   0.79518809   -2.4199403   -2.4199403   -1.5910633   0.13290442   -2.4199403   0.82887704   418189 
  206000   0.79459185   -2.4204692   -2.4204692   -1.5922137   0.12947429   -2.4204692   0.82825554   418189 
  207000   0.79560737   -2.4227105   -2.4227105   -1.5933965   0.12590186   -2.4227105   0.82931409   418189 
  208000   0.79594411   -2.4242163   -2.4242163   -1.5945512   0.13091255   -2.4242163   0.82966509   418189 
  209000   0.79429004   -2.4239657   -2.4239657   -1.5960247   0.12927798   -2.4239657   0.82794094   418189 
  210000   0.79222861   -2.4234801   -2.4234801   -1.5976879   0.11030957   -2.4234801   0.82579217   418189 
  211000   0.79208985    -2.424607    -2.424607   -1.5989594   0.12210106    -2.424607   0.82564754   418189 
  212000   0.79117678   -2.4248178   -2.4248178    -1.600122   0.12503667   -2.4248178   0.82469578   418189 
  213000    0.7909062   -2.4252304   -2.4252304   -1.6008167    0.1159117   -2.4252304   0.82441375   418189 
  214000   0.79042739   -2.4256328   -2.4256328   -1.6017182   0.10227026   -2.4256328   0.82391464   418189 
  215000   0.78982578   -2.4254814   -2.4254814   -1.6021939   0.13355179   -2.4254814   0.82328755   418189 
  216000   0.79146495   -2.4272866   -2.4272866   -1.6022904   0.11797265   -2.4272866   0.82499617   418189 
  217000   0.78818938   -2.4250096   -2.4250096   -1.6034278   0.12910841   -2.4250096   0.82158183   418189 
  218000   0.78922243    -2.427327    -2.427327   -1.6046684   0.12957176    -2.427327   0.82265864   418189 
  219000   0.78930761   -2.4286935   -2.4286935    -1.605946   0.13121124   -2.4286935   0.82274742   418189 
  220000   0.78868812   -2.4285553   -2.4285553   -1.6064536   0.12414074   -2.4285553   0.82210169   418189 
  221000   0.78977493   -2.4314183   -2.4314183   -1.6081837   0.12964669   -2.4314183   0.82323455   418189 
  222000   0.78917578    -2.431649    -2.431649    -1.609039   0.12969407    -2.431649   0.82261001   418189 
  223000   0.78813476   -2.4326128   -2.4326128   -1.6110879   0.12379246   -2.4326128   0.82152489   418189 
  224000   0.78675449   -2.4319497   -2.4319497   -1.6118635   0.11744061   -2.4319497   0.82008614   418189 
  225000   0.78667704   -2.4337063   -2.4337063   -1.6137009   0.13119518   -2.4337063   0.82000541   418189 
  226000   0.78696138   -2.4344857   -2.4344857   -1.6141839   0.11679449   -2.4344857   0.82030179   418189 
  227000   0.78730611    -2.436421    -2.436421   -1.6157599   0.12423731    -2.436421   0.82066113   418189 
  228000   0.78789413   -2.4383906   -2.4383906   -1.6171166   0.10878492   -2.4383906   0.82127406   418189 
  229000    0.7847089   -2.4358279   -2.4358279    -1.617874   0.11193204   -2.4358279   0.81795389   418189 
  230000   0.78530311   -2.4369914   -2.4369914   -1.6184181   0.11658393   -2.4369914   0.81857327   418189 
  231000   0.78511239   -2.4379206   -2.4379206   -1.6195462   0.12106181   -2.4379206   0.81837447   418189 
  232000   0.78532841    -2.438986    -2.438986   -1.6203864   0.11824582    -2.438986   0.81859964   418189 
  233000      0.78552    -2.440361    -2.440361   -1.6215616   0.11062084    -2.440361   0.81879935   418189 
  234000    0.7862208   -2.4415699   -2.4415699     -1.62204   0.10091286   -2.4415699   0.81952984   418189 
  235000    0.7838439   -2.4401143   -2.4401143   -1.6230621   0.12629776   -2.4401143   0.81705224   418189 
  236000   0.78394285   -2.4410155   -2.4410155   -1.6238602    0.1268849   -2.4410155   0.81715538   418189 
  237000   0.78370003   -2.4421057   -2.4421057   -1.6252034   0.10888205   -2.4421057   0.81690228   418189 
  238000   0.78450903   -2.4445135   -2.4445135    -1.626768   0.11520529   -2.4445135   0.81774555   418189 
  239000   0.78224449   -2.4434822   -2.4434822   -1.6280971   0.11568558   -2.4434822   0.81538507   418189 
  240000   0.78223533   -2.4443262   -2.4443262   -1.6289507   0.13465705   -2.4443262   0.81537552   418189 
  241000   0.78327567   -2.4458888   -2.4458888   -1.6294288   0.13105192   -2.4458888   0.81645994   418189 
  242000   0.78256747   -2.4450015   -2.4450015   -1.6292797   0.12086883   -2.4450015   0.81572173   418189 
  243000   0.78314728   -2.4462225   -2.4462225   -1.6298964   0.12103682   -2.4462225   0.81632611   418189 
  244000   0.78166928   -2.4471114   -2.4471114   -1.6323259    0.1124273   -2.4471114   0.81478549   418189 
  245000   0.78084206   -2.4476846   -2.4476846   -1.6337613   0.13137267   -2.4476846   0.81392323   418189 
  246000   0.78026288   -2.4477768   -2.4477768   -1.6344573   0.11924607   -2.4477768    0.8133195   418189 
  247000   0.77902821   -2.4475711   -2.4475711   -1.6355386   0.13000621   -2.4475711   0.81203253   418189 
  248000   0.78066243    -2.450344    -2.450344   -1.6366081   0.11225706    -2.450344   0.81373598   418189 
  249000   0.77776678   -2.4483315   -2.4483315   -1.6376139   0.12299222   -2.4483315   0.81071766   418189 
  250000   0.77906442   -2.4505756   -2.4505756   -1.6385054   0.12459856   -2.4505756   0.81207027   418189 
  251000   0.77982578   -2.4517426   -2.4517426   -1.6388788   0.10762778   -2.4517426   0.81286389   418189 
  252000    0.7807499   -2.4548501   -2.4548501    -1.641023   0.12388129   -2.4548501   0.81382716   418189 
  253000   0.77852353   -2.4535379   -2.4535379   -1.6420314   0.12238525   -2.4535379   0.81150647   418189 
  254000   0.77671448   -2.4534166   -2.4534166   -1.6437958   0.11705808   -2.4534166   0.80962078   418189 
  255000   0.77699009   -2.4544605   -2.4544605   -1.6445524    0.1117825   -2.4544605   0.80990806   418189 
  256000   0.77754731   -2.4563068   -2.4563068   -1.6458179   0.11851319   -2.4563068   0.81048888   418189 
  257000   0.77738643   -2.4563219   -2.4563219   -1.6460007   0.11582485   -2.4563219    0.8103212   418189 
  258000   0.77582116   -2.4559842   -2.4559842   -1.6472946   0.11852818   -2.4559842   0.80868961   418189 
  259000   0.77592818   -2.4574139   -2.4574139   -1.6486127   0.12259577   -2.4574139   0.80880116   418189 
  260000   0.77534478   -2.4578313   -2.4578313   -1.6496382   0.12334263   -2.4578313   0.80819304   418189 
  261000   0.77512865   -2.4578675   -2.4578675   -1.6498997   0.12459207   -2.4578675   0.80796776   418189 
  262000   0.77553262   -2.4592293   -2.4592293   -1.6508404   0.12469989   -2.4592293   0.80838884   418189 
  263000     0.774759   -2.4596865   -2.4596865   -1.6521041   0.11789327   -2.4596865   0.80758245   418189 
  264000   0.77548169   -2.4613745   -2.4613745   -1.6530388   0.11857811   -2.4613745   0.80833575   418189 
  265000    0.7745003   -2.4613211   -2.4613211   -1.6540083   0.11497562   -2.4613211   0.80731279   418189 
  266000   0.77459034   -2.4622195   -2.4622195   -1.6548129   0.12228959   -2.4622195   0.80740664   418189 
  267000   0.77408397   -2.4626081   -2.4626081   -1.6557293   0.11451526   -2.4626081   0.80687882   418189 
  268000   0.77328344   -2.4631565   -2.4631565   -1.6571121   0.11566029   -2.4631565   0.80604437   418189 
  269000   0.77257562   -2.4636194   -2.4636194   -1.6583128   0.11442157   -2.4636194   0.80530657   418189 
  270000   0.77422114    -2.465818    -2.465818   -1.6587962   0.13129864    -2.465818    0.8070218   418189 
  271000   0.77374049   -2.4652889   -2.4652889   -1.6587681   0.11722984   -2.4652889   0.80652079   418189 
  272000   0.77162936   -2.4642144   -2.4642144   -1.6598942   0.11485061   -2.4642144   0.80432022   418189 
  273000   0.77260797   -2.4659616   -2.4659616   -1.6606213   0.10006162   -2.4659616   0.80534029   418189 
  274000    0.7717628   -2.4665532   -2.4665532   -1.6620939   0.11409134   -2.4665532   0.80445932   418189 
  275000    0.7706083   -2.4664118   -2.4664118   -1.6631559   0.11595312   -2.4664118    0.8032559   418189 
  276000    0.7708096   -2.4674728   -2.4674728    -1.664007   0.11486071   -2.4674728   0.80346573   418189 
  277000   0.76986862   -2.4680281   -2.4680281   -1.6655432   0.12315962   -2.4680281   0.80248488   418189 
  278000   0.77074549    -2.469353    -2.469353   -1.6659542  0.094218471    -2.469353    0.8033989   418189 
  279000   0.77046594   -2.4704575   -2.4704575     -1.66735   0.12545916   -2.4704575    0.8031075   418189 
  280000   0.76982183   -2.4713387   -2.4713387   -1.6689026   0.10929769   -2.4713387   0.80243611   418189 
  281000   0.77002654    -2.471497    -2.471497   -1.6688475    0.1089862    -2.471497   0.80264949   418189 
  282000   0.76922664   -2.4716263   -2.4716263   -1.6698106   0.11876275   -2.4716263    0.8018157   418189 
  283000   0.76803137   -2.4721151   -2.4721151   -1.6715453   0.10177384   -2.4721151    0.8005698   418189 
  284000   0.76830989   -2.4730658   -2.4730658   -1.6722057   0.10474529   -2.4730658   0.80086011   418189 
  285000   0.76786927   -2.4733635   -2.4733635   -1.6729627   0.11968761   -2.4733635   0.80040083   418189 
  286000   0.76790159   -2.4747376   -2.4747376   -1.6743031   0.10245637   -2.4747376   0.80043452   418189 
  287000   0.76657942   -2.4745656   -2.4745656   -1.6755093  0.092365608   -2.4745656   0.79905634   418189 
  288000   0.76714015   -2.4771978   -2.4771978    -1.677557   0.12134019   -2.4771978   0.79964082   418189 
  289000   0.76764969   -2.4780874   -2.4780874   -1.6779154   0.11174041   -2.4780874   0.80017195   418189 
  290000   0.76725964   -2.4781289   -2.4781289   -1.6783636   0.10649966   -2.4781289   0.79976538   418189 
  291000   0.76737855   -2.4799044   -2.4799044   -1.6800151   0.11019336   -2.4799044   0.79988932   418189 
  292000   0.76665265   -2.4805876   -2.4805876   -1.6814549   0.10402787   -2.4805876   0.79913266   418189 
  293000   0.76473686   -2.4793925   -2.4793925   -1.6822568   0.10388469   -2.4793925   0.79713571   418189 
  294000   0.76648407    -2.482762    -2.482762   -1.6838051   0.10916687    -2.482762   0.79895695   418189 
  295000   0.76467525   -2.4807894   -2.4807894   -1.6837179   0.10275989   -2.4807894   0.79707149   418189 
  296000   0.76447082   -2.4800593   -2.4800593   -1.6832009   0.10644973   -2.4800593    0.7968584   418189 
  297000   0.76475169   -2.4820155   -2.4820155   -1.6848643    0.1136996   -2.4820155   0.79715117   418189 
  298000   0.76599749   -2.4840757   -2.4840757    -1.685626    0.1105976   -2.4840757   0.79844975   418189 
  299000   0.76473472   -2.4831325   -2.4831325    -1.685999   0.11952065   -2.4831325   0.79713348   418189 
  300000   0.76270465   -2.4828315   -2.4828315   -1.6878141   0.11477988   -2.4828315   0.79501741   418189 
  301000   0.76225657   -2.4824377   -2.4824377   -1.6878874   0.10658764   -2.4824377   0.79455034   418189 
  302000   0.76259464   -2.4838769   -2.4838769   -1.6889741   0.11385456   -2.4838769   0.79490274   418189 
  303000   0.76244042   -2.4846318   -2.4846318   -1.6898898   0.11022119   -2.4846318   0.79474198   418189 
  304000   0.76503804   -2.4867132   -2.4867132   -1.6892636   0.12019054   -2.4867132   0.79744965   418189 
  305000   0.76234646   -2.4856952   -2.4856952   -1.6910511   0.10616417   -2.4856952   0.79464404   418189 
  306000    0.7623369    -2.487411    -2.487411   -1.6927769   0.11136558    -2.487411   0.79463408   418189 
  307000   0.76095039    -2.486936    -2.486936   -1.6937472  0.096848967    -2.486936   0.79318882   418189 
  308000   0.76047651   -2.4875934   -2.4875934   -1.6948985   0.10950076   -2.4875934   0.79269487   418189 
  309000   0.75929862   -2.4860496   -2.4860496   -1.6945825   0.11260761   -2.4860496   0.79146707   418189 
  310000   0.76037468   -2.4888441   -2.4888441   -1.6962553  0.094067645   -2.4888441   0.79258872   418189 
  311000   0.75910599   -2.4878292   -2.4878292   -1.6965629   0.11512005   -2.4878292   0.79126628   418189 
  312000   0.75939295   -2.4889902   -2.4889902   -1.6974248   0.10832155   -2.4889902   0.79156541   418189 
  313000   0.76113288   -2.4918277   -2.4918277   -1.6984486  0.095624137   -2.4918277   0.79337905   418189 
  314000   0.75949531   -2.4919768   -2.4919768   -1.7003047   0.10000892   -2.4919768    0.7916721   418189 
  315000   0.76014724   -2.4941818   -2.4941818   -1.7018302   0.10036341   -2.4941818   0.79235165   418189 
  316000   0.75872053   -2.4931531   -2.4931531   -1.7022886   0.11599003   -2.4931531    0.7908645   418189 
  317000     0.759917   -2.4947837   -2.4947837    -1.702672    0.1007032   -2.4947837   0.79211165   418189 
  318000   0.75749995   -2.4932678   -2.4932678   -1.7036756   0.10563601   -2.4932678   0.78959221   418189 
  319000    0.7574559   -2.4939459   -2.4939459   -1.7043996   0.11211181   -2.4939459   0.78954629   418189 
  320000   0.75681435   -2.4932423   -2.4932423   -1.7043648    0.1154087   -2.4932423   0.78887755   418189 
  321000   0.75615506   -2.4936491   -2.4936491   -1.7054588    0.1075671   -2.4936491   0.78819033   418189 
  322000   0.75650188   -2.4950228   -2.4950228   -1.7064709   0.10593453   -2.4950228   0.78855185   418189 
  323000   0.75738147   -2.4962346   -2.4962346   -1.7067659   0.11312627   -2.4962346    0.7894687   418189 
  324000   0.75645371   -2.4958076   -2.4958076    -1.707306  0.098201657   -2.4958076   0.78850163   418189 
  325000   0.75630648   -2.4964483   -2.4964483   -1.7081001  0.097108171   -2.4964483   0.78834817   418189 
  326000   0.75689557   -2.4975496   -2.4975496   -1.7085874   0.10576576   -2.4975496   0.78896222   418189 
  327000   0.75550875   -2.4973129   -2.4973129   -1.7097963   0.10677278   -2.4973129   0.78751664   418189 
  328000   0.75452468   -2.4973518   -2.4973518    -1.710861  0.097576823   -2.4973518   0.78649088   418189 
  329000   0.75604966   -2.4999306   -2.4999306   -1.7118501   0.10375914   -2.4999306   0.78808046   418189 
  330000   0.75648483   -2.5010385   -2.5010385   -1.7125044   0.10971415   -2.5010385   0.78853407   418189 
  331000    0.7552768   -2.5004217   -2.5004217   -1.7131468   0.10899103   -2.5004217   0.78727487   418189 
  332000   0.75376771   -2.5005503   -2.5005503   -1.7148485   0.10351508   -2.5005503   0.78570184   418189 
  333000   0.75414211   -2.5012048   -2.5012048   -1.7151127  0.099515182   -2.5012048    0.7860921   418189 
  334000   0.75498328   -2.5039178   -2.5039178   -1.7169488    0.1086079   -2.5039178   0.78696891   418189 
  335000   0.75430891   -2.5036495   -2.5036495   -1.7173835   0.11000327   -2.5036495   0.78626597   418189 
  336000   0.75298954   -2.5041608   -2.5041608   -1.7192701   0.11384287   -2.5041608   0.78489071   418189 
  337000   0.75310718   -2.5050667   -2.5050667   -1.7200533   0.11410805   -2.5050667   0.78501333   418189 
  338000   0.75127168   -2.5042692   -2.5042692   -1.7211691   0.10135441   -2.5042692   0.78310006   418189 
  339000   0.75213439   -2.5048732   -2.5048732   -1.7208738   0.10294576   -2.5048732   0.78399933   418189 
  340000   0.75554508   -2.5086212   -2.5086212   -1.7210666  0.099542741   -2.5086212   0.78755451   418189 
  341000   0.75253723   -2.5067739   -2.5067739   -1.7223547   0.10416272   -2.5067739   0.78441923   418189 
  342000   0.75257517    -2.507419    -2.507419   -1.7229602   0.11083805    -2.507419   0.78445878   418189 
  343000   0.75347781   -2.5099276   -2.5099276   -1.7245279   0.09547291   -2.5099276   0.78539966   418189 
  344000    0.7547961   -2.5111224   -2.5111224   -1.7243486    0.1060556   -2.5111224   0.78677381   418189 
  345000   0.75009064    -2.507552    -2.507552   -1.7256831  0.085214052    -2.507552   0.78186898   418189 
  346000   0.75080122   -2.5092839   -2.5092839   -1.7266743   0.11583491   -2.5092839   0.78260967   418189 
  347000   0.75207611   -2.5117703   -2.5117703   -1.7278317   0.10511336   -2.5117703   0.78393857   418189 
  348000   0.75169876   -2.5119404   -2.5119404   -1.7283952   0.10651704   -2.5119404   0.78354523   418189 
  349000   0.74932773   -2.5111233   -2.5111233   -1.7300495   0.10686513   -2.5111233   0.78107376   418189 
  350000   0.75010106   -2.5127188   -2.5127188    -1.730839   0.11480699   -2.5127188   0.78187985   418189 
  351000   0.75026583   -2.5132197   -2.5132197   -1.7311681  0.096464967   -2.5132197    0.7820516   418189 
  352000   0.75088253   -2.5146005   -2.5146005    -1.731906   0.10510023   -2.5146005   0.78269443   418189 
  353000   0.75147914   -2.5162086   -2.5162086   -1.7328922   0.10147165   -2.5162086   0.78331631   418189 
  354000    0.7491126   -2.5143292   -2.5143292   -1.7334797  0.085921708   -2.5143292   0.78084952   418189 
  355000   0.74985447   -2.5153925   -2.5153925   -1.7337697   0.10842213   -2.5153925   0.78162282   418189 
  356000    0.7494908   -2.5155726   -2.5155726   -1.7343289   0.10698147   -2.5155726   0.78124373   418189 
  357000   0.74930165   -2.5164117   -2.5164117   -1.7353651  0.091066117   -2.5164117   0.78104657   418189 
  358000   0.75120392   -2.5179975   -2.5179975   -1.7349681   0.10749525   -2.5179975   0.78302943   418189 
  359000   0.74876054   -2.5161641   -2.5161641   -1.7356816  0.094203129   -2.5161641   0.78048254   418189 
  360000   0.74886132   -2.5166152   -2.5166152   -1.7360276    0.1027366   -2.5166152   0.78058759   418189 
  361000   0.74830164   -2.5167144   -2.5167144   -1.7367102  0.099418895   -2.5167144    0.7800042   418189 
  362000   0.75006731   -2.5195108   -2.5195108   -1.7376662   0.11106731   -2.5195108   0.78184467   418189 
  363000   0.75002809   -2.5207453   -2.5207453   -1.7389415   0.10786059   -2.5207453   0.78180378   418189 
  364000    0.7487597   -2.5204764   -2.5204764   -1.7399947    0.1102203   -2.5204764   0.78048166   418189 
  365000   0.74908859    -2.522012    -2.522012   -1.7411875   0.10106859    -2.522012   0.78082449   418189 
  366000   0.74783165   -2.5202619   -2.5202619   -1.7407476    0.1103218   -2.5202619    0.7795143   418189 
  367000   0.74829532   -2.5215125   -2.5215125   -1.7415149   0.11323692   -2.5215125   0.77999761   418189 
  368000   0.74605891   -2.5197637   -2.5197637   -1.7420973   0.10298317   -2.5197637   0.77766645   418189 
  369000   0.74618239   -2.5207988   -2.5207988   -1.7430036   0.11213508   -2.5207988   0.77779516   418189 
  370000   0.74651744   -2.5224454   -2.5224454   -1.7443009  0.099030672   -2.5224454   0.77814441   418189 
  371000   0.74655911   -2.5229876   -2.5229876   -1.7447997   0.11506679   -2.5229876   0.77818784   418189 
  372000   0.74634637   -2.5238767   -2.5238767   -1.7459106   0.10515834   -2.5238767   0.77796609   418189 
  373000   0.74443124    -2.523112    -2.523112   -1.7471422   0.10642714    -2.523112   0.77596983   418189 
  374000   0.74405642   -2.5241441   -2.5241441    -1.748565  0.094538093   -2.5241441   0.77557913   418189 
  375000   0.74626081   -2.5271494   -2.5271494   -1.7492725  0.091138358   -2.5271494   0.77787691   418189 
  376000   0.74537395   -2.5269781   -2.5269781   -1.7500256   0.11005359   -2.5269781   0.77695247   418189 
  377000   0.74539595   -2.5274925   -2.5274925   -1.7505171  0.097900473   -2.5274925   0.77697541   418189 
  378000   0.74372287   -2.5268391   -2.5268391   -1.7516077   0.10868795   -2.5268391   0.77523144   418189 
  379000    0.7440669    -2.528335    -2.528335   -1.7527449   0.11082229    -2.528335   0.77559005   418189 
  380000   0.74408339   -2.5287141   -2.5287141   -1.7531068  0.089177835   -2.5287141   0.77560723   418189 
  381000   0.74395154   -2.5285106   -2.5285106   -1.7530408   0.10149706   -2.5285106   0.77546979   418189 
  382000   0.74202467   -2.5275281   -2.5275281   -1.7540668   0.10800305   -2.5275281    0.7734613   418189 
  383000   0.74267813   -2.5290996   -2.5290996   -1.7549571   0.11692597   -2.5290996   0.77414244   418189 
  384000   0.74147071     -2.52871     -2.52871   -1.7558262  0.091224918     -2.52871   0.77288387   418189 
  385000   0.74405246   -2.5312414   -2.5312414   -1.7556664  0.099402349   -2.5312414     0.775575   418189 
  386000   0.74200843   -2.5301917   -2.5301917   -1.7567473  0.096263892   -2.5301917   0.77344437   418189 
  387000   0.74229055   -2.5307745   -2.5307745   -1.7570361  0.087978222   -2.5307745   0.77373844   418189 
  388000   0.74237392   -2.5314074   -2.5314074   -1.7575821  0.090365081   -2.5314074   0.77382534   418189 
  389000   0.74173293   -2.5322144   -2.5322144   -1.7590572   0.10411539   -2.5322144    0.7731572   418189 
  390000   0.74051354   -2.5320479   -2.5320479   -1.7601618  0.094737744   -2.5320479   0.77188615   418189 
  391000   0.74277102   -2.5344777   -2.5344777   -1.7602384  0.093553634   -2.5344777   0.77423927   418189 
  392000   0.74076355   -2.5343896   -2.5343896   -1.7622428    0.1023515   -2.5343896   0.77214675   418189 
  393000   0.74073511   -2.5333314   -2.5333314   -1.7612143   0.10529313   -2.5333314    0.7721171   418189 
  394000   0.74065848   -2.5335632   -2.5335632    -1.761526   0.10444112   -2.5335632   0.77203723   418189 
  395000   0.74092799   -2.5350993   -2.5350993   -1.7627811   0.10376183   -2.5350993   0.77231815   418189 
  396000   0.74000326   -2.5343677   -2.5343677   -1.7630134   0.10219187   -2.5343677   0.77135425   418189 
  397000   0.73925383   -2.5345152   -2.5345152   -1.7639421   0.11582518   -2.5345152   0.77057307   418189 
  398000   0.73806753   -2.5341053   -2.5341053   -1.7647688  0.088986008   -2.5341053    0.7693365   418189 
  399000   0.73796165    -2.534801    -2.534801   -1.7655749   0.10883811    -2.534801   0.76922614   418189 
  400000   0.73788539   -2.5357386   -2.5357386   -1.7665919   0.10921374   -2.5357386   0.76914665   418189 
  401000   0.73815827    -2.536453    -2.536453   -1.7670219  0.094812529    -2.536453    0.7694311   418189 
  402000   0.73855028    -2.537172    -2.537172   -1.7673323  0.096030133    -2.537172   0.76983971   418189 
  403000   0.73852583   -2.5381051   -2.5381051   -1.7682909   0.09821479   -2.5381051   0.76981423   418189 
  404000   0.73796412   -2.5385335   -2.5385335   -1.7693048   0.10913886   -2.5385335   0.76922871   418189 
  405000   0.73854171   -2.5402009   -2.5402009   -1.7703701   0.10563811   -2.5402009   0.76983078   418189 
  406000   0.73751693   -2.5405037   -2.5405037   -1.7717411   0.10045881   -2.5405037   0.76876258   418189 
  407000   0.73840752   -2.5416867   -2.5416867   -1.7719958  0.097159316   -2.5416867    0.7696909   418189 
  408000   0.73597439   -2.5403237   -2.5403237    -1.773169   0.10357354   -2.5403237   0.76715468   418189 
  409000   0.73696746   -2.5415755   -2.5415755   -1.7733857  0.086656102   -2.5415755   0.76818983   418189 
  410000   0.73690289   -2.5426965   -2.5426965   -1.7745739  0.096206149   -2.5426965   0.76812253   418189 
  411000   0.73584456   -2.5418682   -2.5418682   -1.7748489  0.099983501   -2.5418682   0.76701936   418189 
  412000   0.73685419   -2.5433615   -2.5433615   -1.7752897  0.087006287   -2.5433615   0.76807177   418189 
  413000   0.73536324   -2.5431261   -2.5431261   -1.7766085  0.094952561   -2.5431261   0.76651765   418189 
  414000    0.7356344    -2.543636    -2.543636   -1.7768357  0.096000072    -2.543636   0.76680029   418189 
  415000   0.73521887   -2.5436105   -2.5436105   -1.7772433   0.10416552   -2.5436105   0.76636716   418189 
  416000   0.73558486   -2.5445045   -2.5445045   -1.7777558  0.097061324   -2.5445045   0.76674865   418189 
  417000   0.73633564   -2.5453343   -2.5453343   -1.7778031  0.091448651   -2.5453343   0.76753124   418189 
  418000   0.73550551     -2.54503     -2.54503    -1.778364  0.090978929     -2.54503   0.76666595   418189 
  419000   0.73493655   -2.5461142   -2.5461142   -1.7800413  0.097712694   -2.5461142   0.76607289   418189 
  420000   0.73292442   -2.5452907   -2.5452907   -1.7813152  0.093463701   -2.5452907    0.7639755   418189 
  421000   0.73283264   -2.5455029   -2.5455029   -1.7816231  0.077458836   -2.5455029   0.76387983   418189 
  422000   0.73230591   -2.5451092   -2.5451092   -1.7817784  0.084262145   -2.5451092    0.7633308   418189 
  423000   0.73269052   -2.5459133   -2.5459133   -1.7821816  0.093663868   -2.5459133   0.76373169   418189 
  424000    0.7325088    -2.546401    -2.546401   -1.7828587   0.10766111    -2.546401   0.76354228   418189 
  425000   0.73191285   -2.5471338   -2.5471338   -1.7842127   0.08643208   -2.5471338   0.76292108   418189 
  426000   0.73239662   -2.5482253   -2.5482253   -1.7847999  0.090449363   -2.5482253   0.76342534   418189 
  427000   0.73272662   -2.5499184   -2.5499184   -1.7861491   0.09879948   -2.5499184   0.76376933   418189 
  428000   0.73050522   -2.5493991   -2.5493991   -1.7879453  0.088885491   -2.5493991   0.76145381   418189 
  429000   0.73141318   -2.5504675   -2.5504675   -1.7880672  0.095797991   -2.5504675   0.76240024   418189 
  430000    0.7310814   -2.5499636   -2.5499636   -1.7879092  0.087459361   -2.5499636    0.7620544   418189 
  431000   0.72959255   -2.5490969   -2.5490969   -1.7885944  0.088964166   -2.5490969   0.76050248   418189 
  432000    0.7318004   -2.5518772   -2.5518772   -1.7890733   0.11261202   -2.5518772   0.76280387   418189 
  433000   0.73151224   -2.5523863   -2.5523863   -1.7898828  0.087358174   -2.5523863    0.7625035   418189 
  434000   0.73028961   -2.5523385   -2.5523385   -1.7911095    0.0906816   -2.5523385   0.76122907   418189 
  435000   0.73117131   -2.5541817   -2.5541817   -1.7920335  0.089773852   -2.5541817   0.76214812   418189 
  436000   0.73034894   -2.5538692   -2.5538692   -1.7925783   0.10736112   -2.5538692   0.76129091   418189 
  437000   0.72983288   -2.5537919   -2.5537919   -1.7930389     0.098154   -2.5537919   0.76075299   418189 
  438000    0.7296397   -2.5539641   -2.5539641   -1.7934125  0.094125582   -2.5539641   0.76055162   418189 
  439000   0.72885888   -2.5538543   -2.5538543   -1.7941166     0.094752   -2.5538543   0.75973773   418189 
  440000   0.72989846   -2.5547775   -2.5547775   -1.7939562  0.091000189   -2.5547775   0.76082134   418189 
  441000   0.73039934   -2.5554254   -2.5554254   -1.7940819  0.088111223   -2.5554254   0.76134345   418189 
  442000   0.72967556   -2.5549599   -2.5549599   -1.7943709  0.076829226   -2.5549599     0.760589   418189 
  443000   0.72760461   -2.5540452   -2.5540452   -1.7956148   0.10768003   -2.5540452   0.75843032   418189 
  444000   0.72703737   -2.5548392   -2.5548392   -1.7970002  0.084010755   -2.5548392   0.75783905   418189 
  445000   0.72797723   -2.5560781   -2.5560781   -1.7972594  0.087200188   -2.5560781   0.75881872   418189 
  446000   0.72792798   -2.5564403   -2.5564403   -1.7976729  0.094516957   -2.5564403   0.75876738   418189 
  447000    0.7270686   -2.5567697   -2.5567697   -1.7988981   0.10537772   -2.5567697    0.7578716   418189 
  448000    0.7269021   -2.5574676   -2.5574676   -1.7997696  0.091287542   -2.5574676   0.75769805   418189 
  449000   0.72739144   -2.5587111   -2.5587111    -1.800503  0.090978894   -2.5587111   0.75820812   418189 
  450000    0.7276562   -2.5590183   -2.5590183   -1.8005342  0.089442161   -2.5590183   0.75848409   418189 
  451000    0.7259617   -2.5578655   -2.5578655   -1.8011477  0.097903931   -2.5578655    0.7567178   418189 
  452000   0.72963286   -2.5621608   -2.5621608   -1.8016163  0.091402687   -2.5621608   0.76054449   418189 
  453000   0.72535648   -2.5596404   -2.5596404   -1.8035535  0.079155032   -2.5596404   0.75608694   418189 
  454000   0.72740484   -2.5623912   -2.5623912   -1.8041691  0.096507639   -2.5623912   0.75822208   418189 
  455000   0.72533508   -2.5601336   -2.5601336   -1.8040689  0.090237448   -2.5601336   0.75606463   418189 
  456000   0.72681761   -2.5623343   -2.5623343   -1.8047244   0.09234631   -2.5623343   0.75760997   418189 
  457000   0.72664902   -2.5630192   -2.5630192    -1.805585    0.1022491   -2.5630192   0.75743424   418189 
  458000   0.72585943   -2.5629137   -2.5629137   -1.8063025   0.10121706   -2.5629137    0.7566112   418189 
  459000   0.72677396    -2.563624    -2.563624   -1.8060595  0.098925273    -2.563624   0.75756448   418189 
  460000   0.72663003   -2.5645295   -2.5645295    -1.807115   0.10344056   -2.5645295   0.75741445   418189 
  461000   0.72620894   -2.5640796   -2.5640796   -1.8071041   0.10281571   -2.5640796   0.75697552   418189 
  462000    0.7258201   -2.5640771   -2.5640771   -1.8075069  0.083516562   -2.5640771   0.75657021   418189 
  463000   0.72455968   -2.5639547   -2.5639547   -1.8086984   0.10047642   -2.5639547   0.75525638   418189 
  464000   0.72565538   -2.5657405   -2.5657405    -1.809342   0.10356491   -2.5657405    0.7563985   418189 
  465000   0.72538321   -2.5665611   -2.5665611   -1.8104463  0.091990149   -2.5665611   0.75611481   418189 
  466000   0.72472861   -2.5673127   -2.5673127   -1.8118803   0.10043859   -2.5673127   0.75543247   418189 
  467000   0.72451002   -2.5677087   -2.5677087    -1.812504  0.090968999   -2.5677087   0.75520462   418189 
  468000   0.72441268   -2.5683404   -2.5683404   -1.8132373  0.093070055   -2.5683404   0.75510315   418189 
  469000   0.72431662   -2.5692295   -2.5692295   -1.8142265  0.082102426   -2.5692295   0.75500302   418189 
  470000   0.72331756   -2.5678367   -2.5678367   -1.8138751  0.088234268   -2.5678367   0.75396164   418189 
  471000   0.72247857   -2.5683465   -2.5683465   -1.8152594  0.088632846   -2.5683465    0.7530871   418189 
  472000   0.72367402   -2.5704767   -2.5704767   -1.8161435    0.1041895   -2.5704767    0.7543332   418189 
  473000   0.72414807   -2.5715327   -2.5715327   -1.8167053  0.095915798   -2.5715327   0.75482733   418189 
  474000   0.72317886    -2.570925    -2.570925   -1.8171079  0.091343585    -2.570925   0.75381707   418189 
  475000    0.7222928   -2.5704428   -2.5704428   -1.8175494  0.089122311   -2.5704428   0.75289347   418189 
  476000   0.72273542   -2.5715699   -2.5715699    -1.818215  0.095621388   -2.5715699   0.75335483   418189 
  477000   0.72179677   -2.5708901   -2.5708901   -1.8185137  0.091898231   -2.5708901   0.75237642   418189 
  478000   0.72307108   -2.5723721   -2.5723721   -1.8186674   0.10131261   -2.5723721   0.75370471   418189 
  479000   0.72295662   -2.5722565   -2.5722565   -1.8186711    0.1012445   -2.5722565   0.75358541   418189 
  480000   0.72224445   -2.5712314   -2.5712314   -1.8183884  0.092190373   -2.5712314   0.75284307   418189 
  481000   0.72330383   -2.5732046   -2.5732046   -1.8192573  0.090642617   -2.5732046   0.75394732   418189 
  482000   0.71915817   -2.5702085   -2.5702085   -1.8205825  0.096829509   -2.5702085   0.74962603   418189 
  483000   0.72143218   -2.5743452   -2.5743452   -1.8223488   0.09341632   -2.5743452   0.75199638   418189 
  484000   0.72015054   -2.5735257   -2.5735257   -1.8228653  0.086697518   -2.5735257   0.75066045   418189 
  485000   0.71875154   -2.5731545   -2.5731545   -1.8239523  0.095987891   -2.5731545   0.74920218   418189 
  486000    0.7208277   -2.5753279   -2.5753279   -1.8239616  0.096868241   -2.5753279   0.75136629   418189 
  487000   0.72012161   -2.5755584   -2.5755584   -1.8249281   0.09181618   -2.5755584   0.75063029   418189 
  488000   0.71848955    -2.574452    -2.574452    -1.825523  0.086428866    -2.574452   0.74892908   418189 
  489000   0.71969215   -2.5761347   -2.5761347   -1.8259521  0.086359603   -2.5761347   0.75018263   418189 
  490000    0.7185942   -2.5759666   -2.5759666   -1.8269284  0.092513688   -2.5759666   0.74903817   418189 
  491000   0.72009172   -2.5776827   -2.5776827   -1.8270836  0.093016536   -2.5776827   0.75059913   418189 
  492000   0.71962872   -2.5781288   -2.5781288   -1.8280123  0.089824267   -2.5781288   0.75011652   418189 
  493000   0.71846983   -2.5773953   -2.5773953   -1.8284868  0.095312161   -2.5773953   0.74890854   418189 
  494000   0.71956247   -2.5781165   -2.5781165   -1.8280691  0.093569313   -2.5781165   0.75004746   418189 
  495000   0.71861049   -2.5780561   -2.5780561    -1.829001  0.098751037   -2.5780561   0.74905515   418189 
  496000   0.71897164   -2.5790573   -2.5790573   -1.8296257   0.10040607   -2.5790573    0.7494316   418189 
  497000   0.71714486   -2.5778045   -2.5778045   -1.8302771  0.090530736   -2.5778045   0.74752743   418189 
  498000   0.71783312   -2.5787469   -2.5787469    -1.830502   0.09601076   -2.5787469   0.74824484   418189 
  499000    0.7182031   -2.5793215   -2.5793215    -1.830691  0.087212108   -2.5793215    0.7486305   418189 
  500000   0.72010224   -2.5821078   -2.5821078   -1.8314977  0.091827003   -2.5821078    0.7506101   418189 
  501000   0.71691795   -2.5790042   -2.5790042   -1.8317133  0.099216046   -2.5790042    0.7472909   418189 
  502000    0.7188766   -2.5820998   -2.5820998   -1.8327672  0.089756502   -2.5820998   0.74933254   418189 
  503000   0.71846142   -2.5815916   -2.5815916   -1.8326918   0.08730732   -2.5815916   0.74889976   418189 
  504000   0.71763708   -2.5815645   -2.5815645    -1.833524  0.082728957   -2.5815645    0.7480405   418189 
  505000   0.71613497   -2.5813838   -2.5813838    -1.834909  0.084125288   -2.5813838   0.74647475   418189 
  506000   0.71578635   -2.5806336   -2.5806336   -1.8345223  0.097217619   -2.5806336   0.74611137   418189 
  507000   0.71669333   -2.5825978   -2.5825978    -1.835541  0.094359878   -2.5825978   0.74705677   418189 
  508000    0.7157983   -2.5815147   -2.5815147   -1.8353908  0.088840886   -2.5815147   0.74612382   418189 
  509000   0.71657282    -2.583181    -2.583181   -1.8362498  0.086874747    -2.583181   0.74693115   418189 
  510000   0.71636509   -2.5841842   -2.5841842   -1.8374695  0.086336285   -2.5841842   0.74671462   418189 
  511000   0.71564296   -2.5839153   -2.5839153   -1.8379534  0.075636723   -2.5839153    0.7459619   418189 
  512000   0.71446781   -2.5830223   -2.5830223   -1.8382854  0.085698515   -2.5830223   0.74473696   418189 
  513000    0.7159417   -2.5846066   -2.5846066   -1.8383333  0.082467983   -2.5846066   0.74627329   418189 
  514000   0.71570111   -2.5847997   -2.5847997   -1.8387772  0.083768519   -2.5847997   0.74602252   418189 
  515000   0.71504444   -2.5847208   -2.5847208   -1.8393828  0.098062623   -2.5847208   0.74533802   418189 
  516000   0.71499968   -2.5851588   -2.5851588   -1.8398674  0.085958942   -2.5851588   0.74529136   418189 
  517000   0.71564792   -2.5873302   -2.5873302   -1.8413631  0.093685546   -2.5873302   0.74596707   418189 
  518000   0.71576375   -2.5877281   -2.5877281   -1.8416403  0.078148462   -2.5877281    0.7460878   418189 
  519000   0.71485357   -2.5872961   -2.5872961    -1.842157  0.083805539   -2.5872961   0.74513907   418189 
  520000   0.71368318   -2.5866552   -2.5866552   -1.8427361  0.088505542   -2.5866552   0.74391909   418189 
  521000   0.71424604   -2.5879048   -2.5879048    -1.843399  0.085013103   -2.5879048    0.7445058   418189 
  522000   0.71264944   -2.5867168   -2.5867168   -1.8438752   0.09101075   -2.5867168   0.74284156   418189 
  523000   0.71432309   -2.5890938   -2.5890938   -1.8445077  0.095740262   -2.5890938   0.74458611   418189 
  524000   0.71269902   -2.5875903   -2.5875903   -1.8446971  0.082184535   -2.5875903   0.74289323   418189 
  525000   0.71469908   -2.5899567   -2.5899567   -1.8449787  0.073832544   -2.5899567   0.74497803   418189 
  526000   0.71419162   -2.5898849   -2.5898849   -1.8454358  0.083495677   -2.5898849   0.74444907   418189 
  527000   0.71399965   -2.5904031   -2.5904031   -1.8461541  0.082061544   -2.5904031   0.74424897   418189 
  528000    0.7140535   -2.5900064   -2.5900064   -1.8457014  0.094956273   -2.5900064    0.7443051   418189 
  529000   0.71247423   -2.5891838   -2.5891838   -1.8465249  0.089095611   -2.5891838   0.74265892   418189 
  530000   0.71241095   -2.5899044   -2.5899044   -1.8473115  0.082508709   -2.5899044   0.74259296   418189 
  531000   0.71234109   -2.5902423   -2.5902423   -1.8477222  0.078269328   -2.5902423   0.74252014   418189 
  532000   0.71169717   -2.5907882   -2.5907882   -1.8489392  0.079581162   -2.5907882   0.74184895   418189 
  533000   0.71330351   -2.5919406   -2.5919406   -1.8484173  0.094548493   -2.5919406   0.74352334   418189 
  534000   0.71313164   -2.5923146   -2.5923146   -1.8489704  0.087661239   -2.5923146   0.74334418   418189 
  535000   0.71155783    -2.591934    -2.591934   -1.8502303  0.084796613    -2.591934   0.74170369   418189 
  536000   0.71173993   -2.5920379   -2.5920379   -1.8501444   0.08846692   -2.5920379   0.74189351   418189 
  537000   0.71193328   -2.5930168   -2.5930168   -1.8509217   0.06962975   -2.5930168   0.74209505   418189 
  538000    0.7117414    -2.593538    -2.593538   -1.8516429  0.092249516    -2.593538   0.74189504   418189 
  539000   0.71184612   -2.5940208   -2.5940208   -1.8520166  0.096398294   -2.5940208   0.74200421   418189 
  540000     0.712443   -2.5953588   -2.5953588   -1.8527324  0.081871179   -2.5953588   0.74262637   418189 
  541000   0.71151657    -2.595804    -2.595804   -1.8541433  0.095248802    -2.595804   0.74166069   418189 
  542000   0.71188886   -2.5970549   -2.5970549   -1.8550061  0.090409976   -2.5970549   0.74204875   418189 
  543000   0.71172133   -2.5974667   -2.5974667   -1.8555926  0.090273121   -2.5974667   0.74187412   418189 
  544000   0.71125216   -2.5972889   -2.5972889   -1.8559038   0.07909728   -2.5972889   0.74138508   418189 
  545000   0.71189688   -2.5986884   -2.5986884   -1.8566313  0.079402017   -2.5986884   0.74205711   418189 
  546000   0.71020533   -2.5980225   -2.5980225   -1.8577286  0.091884638   -2.5980225    0.7402939   418189 
  547000   0.71123276   -2.5992075   -2.5992075   -1.8578426  0.075792634   -2.5992075   0.74136486   418189 
  548000   0.71056732   -2.5995136   -2.5995136   -1.8588424  0.074880805   -2.5995136   0.74067122   418189 
  549000   0.71123258   -2.6001987   -2.6001987    -1.858834  0.095236463   -2.6001987   0.74136466   418189 
  550000   0.71124265   -2.6007116   -2.6007116   -1.8593365  0.097796713   -2.6007116   0.74137517   418189 
  551000   0.71021748   -2.5997602   -2.5997602   -1.8594537  0.090597793   -2.5997602   0.74030656   418189 
  552000   0.70899956   -2.5993059   -2.5993059   -1.8602689  0.080580517   -2.5993059   0.73903704   418189 
  553000   0.70952942   -2.6011106   -2.6011106   -1.8615212  0.082888396   -2.6011106   0.73958935   418189 
  554000   0.70866074   -2.6002204   -2.6002204   -1.8615365  0.080003849   -2.6002204   0.73868387   418189 
  555000   0.70866947   -2.6004549   -2.6004549   -1.8617619  0.082133402   -2.6004549   0.73869297   418189 
  556000   0.70928388   -2.6019489   -2.6019489   -1.8626155  0.081154761   -2.6019489   0.73933341   418189 
  557000   0.70917059   -2.6020692   -2.6020692   -1.8628539  0.084535606   -2.6020692   0.73921532   418189 
  558000   0.70674456   -2.5998527   -2.5998527   -1.8631662  0.082930659   -2.5998527   0.73668651   418189 
  559000   0.70853519   -2.6020724   -2.6020724   -1.8635194  0.090873546   -2.6020724     0.738553   418189 
  560000   0.70897369   -2.6037482   -2.6037482   -1.8647381  0.092320189   -2.6037482   0.73901008   418189 
  561000   0.70723869   -2.6028011   -2.6028011   -1.8655996  0.090536793   -2.6028011   0.73720158   418189 
  562000   0.70632656   -2.6026339   -2.6026339   -1.8663831   0.11163854   -2.6026339    0.7362508   418189 
  563000   0.70820342   -2.6049732   -2.6049732    -1.866766  0.075347434   -2.6049732   0.73820717   418189 
  564000   0.70743887   -2.6046616   -2.6046616   -1.8672513  0.077941799   -2.6046616   0.73741024   418189 
  565000   0.70700256   -2.6035624   -2.6035624    -1.866607  0.077062529   -2.6035624   0.73695544   418189 
  566000   0.70581393   -2.6031289   -2.6031289   -1.8674124  0.080985194   -2.6031289   0.73571645   418189 
  567000   0.70634112   -2.6046275   -2.6046275   -1.8683615  0.084415216   -2.6046275   0.73626597   418189 
  568000   0.70669155   -2.6054504   -2.6054504   -1.8688192  0.086585961   -2.6054504   0.73663126   418189 
  569000   0.70684887    -2.605746    -2.605746   -1.8689508  0.083797108    -2.605746   0.73679524   418189 
  570000   0.70557673   -2.6050605   -2.6050605   -1.8695913  0.079833517   -2.6050605    0.7354692   418189 
  571000   0.70557443   -2.6053387   -2.6053387   -1.8698719  0.066388755   -2.6053387   0.73546681   418189 
  572000   0.70538969   -2.6052074   -2.6052074   -1.8699332  0.076883799   -2.6052074   0.73527424   418189 
  573000   0.70694379   -2.6079444   -2.6079444   -1.8710502  0.079297246   -2.6079444   0.73689417   418189 
  574000   0.70650235   -2.6073646   -2.6073646   -1.8709306  0.089948249   -2.6073646   0.73643403   418189 
  575000   0.70598047   -2.6072565   -2.6072565   -1.8713665  0.079534372   -2.6072565   0.73589005   418189 
  576000   0.70571202   -2.6075991   -2.6075991   -1.8719889  0.082273216   -2.6075991   0.73561022   418189 
  577000   0.70572059   -2.6083937   -2.6083937   -1.8727746  0.088660471   -2.6083937   0.73561915   418189 
  578000   0.70466708   -2.6071728   -2.6071728   -1.8726518  0.089361212   -2.6071728   0.73452101   418189 
  579000   0.70520804   -2.6079499   -2.6079499    -1.872865  0.087114283   -2.6079499    0.7350849   418189 
  580000   0.70525735   -2.6095436   -2.6095436   -1.8744073  0.093843315   -2.6095436   0.73513629   418189 
  581000   0.70591194   -2.6110009   -2.6110009   -1.8751823  0.091927439   -2.6110009   0.73581862   418189 
  582000   0.70412951   -2.6098239   -2.6098239   -1.8758632   0.10216948   -2.6098239   0.73396067   418189 
  583000   0.70445474   -2.6109069   -2.6109069   -1.8766073   0.07237842   -2.6109069   0.73429967   418189 
  584000   0.70460126    -2.611289    -2.611289   -1.8768366  0.095748655    -2.611289    0.7344524   418189 
  585000   0.70353768   -2.6109559   -2.6109559   -1.8776122  0.085128012   -2.6109559   0.73334377   418189 
  586000   0.70295813   -2.6100248   -2.6100248   -1.8772851  0.064182316   -2.6100248   0.73273966   418189 
  587000   0.70614631   -2.6133607   -2.6133607   -1.8772978  0.095174405   -2.6133607   0.73606291   418189 
  588000   0.70279431   -2.6111849   -2.6111849    -1.878616  0.099217403   -2.6111849   0.73256891   418189 
  589000   0.70264714   -2.6116525   -2.6116525    -1.879237    0.0781505   -2.6116525   0.73241549   418189 
  590000   0.70097639   -2.6108808   -2.6108808   -1.8802069  0.079749498   -2.6108808   0.73067397   418189 
  591000   0.70216324   -2.6127076   -2.6127076   -1.8807965  0.083308662   -2.6127076    0.7319111   418189 
  592000   0.70241867   -2.6131702   -2.6131702   -1.8809929  0.084145076   -2.6131702   0.73217735   418189 
  593000   0.70233099     -2.61404     -2.61404    -1.881954  0.087885176     -2.61404   0.73208595   418189 
  594000     0.701592   -2.6140608   -2.6140608   -1.8827451  0.072427612   -2.6140608   0.73131565   418189 
  595000   0.70026229   -2.6128327   -2.6128327   -1.8829031  0.085675182   -2.6128327   0.72992961   418189 
  596000   0.70122414    -2.613699    -2.613699   -1.8827668  0.088142811    -2.613699   0.73093221   418189 
  597000   0.70080139   -2.6137087   -2.6137087   -1.8832172  0.083546904   -2.6137087   0.73049155   418189 
  598000   0.70131878   -2.6143618   -2.6143618    -1.883331  0.067785244   -2.6143618   0.73103086   418189 
  599000     0.701217   -2.6153808   -2.6153808    -1.884456  0.085706281   -2.6153808   0.73092476   418189 
  600000   0.70034086   -2.6152645   -2.6152645    -1.885253  0.099749069   -2.6152645   0.73001151   418189 
  601000   0.70120324   -2.6164412   -2.6164412   -1.8855308  0.088950471   -2.6164412   0.73091043   418189 
  602000   0.70097035   -2.6167418   -2.6167418   -1.8860742  0.082786862   -2.6167418   0.73066767   418189 
  603000   0.69964055   -2.6157109   -2.6157109   -1.8864294  0.086420998   -2.6157109   0.72928153   418189 
  604000   0.70001399   -2.6167097   -2.6167097   -1.8870389  0.083122264   -2.6167097   0.72967079   418189 
  605000   0.69985367   -2.6175249   -2.6175249   -1.8880212  0.084784812   -2.6175249   0.72950368   418189 
  606000   0.70174726   -2.6197147   -2.6197147   -1.8882372  0.076158555   -2.6197147   0.73147749   418189 
  607000    0.6986045   -2.6174147   -2.6174147   -1.8892131  0.072954515   -2.6174147   0.72820159   418189 
  608000   0.69859549   -2.6187707   -2.6187707   -1.8905785  0.083071573   -2.6187707    0.7281922   418189 
  609000   0.69853085   -2.6189017   -2.6189017   -1.8907769  0.083328835   -2.6189017   0.72812482   418189 
  610000   0.69983652   -2.6205777   -2.6205777   -1.8910919  0.083943104   -2.6205777    0.7294858   418189 
  611000   0.69813714   -2.6194028   -2.6194028   -1.8916884  0.092286072   -2.6194028   0.72771443   418189 
  612000   0.69875848   -2.6204721   -2.6204721     -1.89211  0.077531325   -2.6204721   0.72836209   418189 
  613000   0.69907557    -2.620869    -2.620869   -1.8921764  0.070666038    -2.620869   0.72869262   418189 
  614000   0.69857223   -2.6214002   -2.6214002   -1.8932323  0.072980766   -2.6214002   0.72816795   418189 
  615000   0.69807577   -2.6214644   -2.6214644    -1.893814  0.081852214   -2.6214644   0.72765046   418189 
  616000   0.69901562   -2.6225644   -2.6225644   -1.8939342  0.081541097   -2.6225644   0.72863012   418189 
  617000   0.69881991   -2.6222619   -2.6222619   -1.8938358  0.088766655   -2.6222619   0.72842612   418189 
  618000   0.69794786   -2.6218285   -2.6218285   -1.8943113  0.081920813   -2.6218285   0.72751713   418189 
  619000   0.69801391   -2.6223743   -2.6223743   -1.8947884  0.082714658   -2.6223743   0.72758598   418189 
  620000   0.69728142   -2.6212946   -2.6212946   -1.8944722  0.074725126   -2.6212946   0.72682245   418189 
  621000    0.6979202   -2.6220652   -2.6220652   -1.8945769   0.07706215   -2.6220652    0.7274883   418189 
  622000   0.69725246   -2.6218445   -2.6218445   -1.8950522  0.080962065   -2.6218445   0.72679227   418189 
  623000    0.6974994   -2.6226822   -2.6226822   -1.8956325  0.069952779   -2.6226822   0.72704967   418189 
  624000   0.69719998   -2.6227455   -2.6227455   -1.8960079  0.069738215   -2.6227455   0.72673756   418189 
  625000   0.69925689   -2.6251093   -2.6251093   -1.8962277  0.074191534   -2.6251093   0.72888162   418189 
  626000   0.69876815   -2.6247156   -2.6247156   -1.8963434  0.069040251   -2.6247156   0.72837217   418189 
  627000   0.69773149    -2.624013    -2.624013   -1.8967214  0.072570787    -2.624013   0.72729159   418189 
  628000   0.69782631   -2.6249282   -2.6249282   -1.8975378  0.081873922   -2.6249282   0.72739043   418189 
  629000   0.69805239   -2.6251558   -2.6251558   -1.8975298  0.080357015   -2.6251558   0.72762609   418189 
  630000   0.69764811   -2.6249045   -2.6249045   -1.8976999   0.08021306   -2.6249045   0.72720467   418189 
  631000   0.69780505   -2.6259064   -2.6259064   -1.8985381  0.082023247   -2.6259064   0.72736827   418189 
  632000   0.69670003   -2.6257307   -2.6257307   -1.8995142  0.069482403   -2.6257307   0.72621643   418189 
  633000   0.69694737   -2.6261133   -2.6261133    -1.899639  0.076339256   -2.6261133   0.72647425   418189 
  634000   0.69657591   -2.6257708   -2.6257708   -1.8996837   0.08233019   -2.6257708   0.72608705   418189 
  635000    0.6964161    -2.626262    -2.626262   -1.9003415  0.067285992    -2.626262   0.72592047   418189 
  636000   0.69621646   -2.6262852   -2.6262852   -1.9005729  0.074537922   -2.6262852   0.72571237   418189 
  637000    0.6961739   -2.6264738   -2.6264738   -1.9008058  0.073224237   -2.6264738   0.72566801   418189 
  638000   0.69640595   -2.6274759   -2.6274759    -1.901566   0.08551472   -2.6274759    0.7259099   418189 
  639000    0.6966964   -2.6278104   -2.6278104   -1.9015977  0.072048667   -2.6278104   0.72621265   418189 
  640000   0.69455213   -2.6260964   -2.6260964   -1.9021188  0.063967932   -2.6260964   0.72397754   418189 
  641000   0.69529925    -2.627153    -2.627153   -1.9023967  0.081787969    -2.627153   0.72475631   418189 
  642000    0.6948641   -2.6266677   -2.6266677    -1.902365  0.078892958   -2.6266677   0.72430272   418189 
  643000   0.69559426   -2.6274071   -2.6274071   -1.9023433  0.078952108   -2.6274071   0.72506382   418189 
  644000   0.69616682   -2.6291828   -2.6291828   -1.9035221  0.082104064   -2.6291828   0.72566063   418189 
  645000    0.6946948   -2.6281385   -2.6281385   -1.9040122  0.066091645   -2.6281385   0.72412625   418189 
  646000   0.69365115   -2.6270413   -2.6270413   -1.9040029  0.080179068   -2.6270413   0.72303838   418189 
  647000   0.69448886   -2.6282682   -2.6282682   -1.9043567  0.071984042   -2.6282682   0.72391159   418189 
  648000   0.69334276   -2.6286631   -2.6286631   -1.9059462  0.075570308   -2.6286631   0.72271693   418189 
  649000   0.69416293   -2.6298103   -2.6298103   -1.9062385  0.069976369   -2.6298103   0.72357184   418189 
  650000   0.69262852   -2.6293094   -2.6293094    -1.907337  0.087794201   -2.6293094   0.72197243   418189 
  651000   0.69316321    -2.630119    -2.630119   -1.9075892  0.081386173    -2.630119   0.72252977   418189 
  652000   0.69320079   -2.6303424   -2.6303424   -1.9077735  0.074753725   -2.6303424   0.72256895   418189 
  653000   0.69400152   -2.6318161   -2.6318161   -1.9084125  0.071315476   -2.6318161    0.7234036   418189 
  654000   0.69350516   -2.6311564   -2.6311564   -1.9082702  0.078829821   -2.6311564   0.72288621   418189 
  655000   0.69235904   -2.6305585   -2.6305585    -1.908867  0.076672848   -2.6305585   0.72169153   418189 
  656000   0.69229681   -2.6314341   -2.6314341   -1.9098074  0.075059251   -2.6314341   0.72162667   418189 
  657000   0.69267402   -2.6321682   -2.6321682   -1.9101484  0.068777272   -2.6321682   0.72201986   418189 
  658000   0.69197645   -2.6321355   -2.6321355   -1.9108428  0.072590882   -2.6321355   0.72129273   418189 
  659000   0.69314438   -2.6334089   -2.6334089   -1.9108987  0.081841177   -2.6334089   0.72251014   418189 
  660000   0.69188784   -2.6323854   -2.6323854   -1.9111851  0.069625027   -2.6323854   0.72120037   418189 
  661000   0.69331454   -2.6340154   -2.6340154   -1.9113279  0.087090487   -2.6340154   0.72268751   418189 
  662000   0.69450802    -2.635616    -2.635616   -1.9116844  0.066635858    -2.635616   0.72393156   418189 
  663000   0.69289932   -2.6344086   -2.6344086   -1.9121539  0.069326034   -2.6344086    0.7222547   418189 
  664000   0.69307062   -2.6353057   -2.6353057   -1.9128725  0.073231661   -2.6353057   0.72243326   418189 
  665000    0.6924909   -2.6352664   -2.6352664   -1.9134375  0.067432608   -2.6352664   0.72182897   418189 
  666000   0.69365894   -2.6366421   -2.6366421   -1.9135956  0.070736296   -2.6366421    0.7230465   418189 
  667000    0.6940183    -2.636957    -2.636957   -1.9135359   0.07872897    -2.636957   0.72342108   418189 
  668000   0.69341442   -2.6373518   -2.6373518   -1.9145602  0.081040108   -2.6373518   0.72279163   418189 
  669000   0.69333764    -2.637812    -2.637812   -1.9151004  0.070182519    -2.637812   0.72271159   418189 
  670000   0.69148571   -2.6373112   -2.6373112     -1.91653  0.071022165   -2.6373112   0.72078121   418189 
  671000   0.69271537   -2.6398307   -2.6398307   -1.9177677  0.079887652   -2.6398307   0.72206296   418189 
  672000   0.69174956   -2.6387273   -2.6387273    -1.917671  0.086774724   -2.6387273   0.72105623   418189 
  673000   0.69199402   -2.6398279   -2.6398279   -1.9185169  0.061591512   -2.6398279   0.72131105   418189 
  674000    0.6906059   -2.6383156   -2.6383156   -1.9184515  0.074780239   -2.6383156   0.71986411   418189 
  675000   0.68973883   -2.6377957   -2.6377957   -1.9188354  0.075589362   -2.6377957   0.71896031   418189 
  676000   0.68874107   -2.6377265   -2.6377265   -1.9198062  0.087030919   -2.6377265   0.71792029   418189 
  677000   0.69092535   -2.6407841   -2.6407841    -1.920587   0.08263294   -2.6407841    0.7201971   418189 
  678000   0.69032005   -2.6405885   -2.6405885   -1.9210224  0.073161802   -2.6405885   0.71956615   418189 
  679000   0.69119351   -2.6420759   -2.6420759   -1.9215993  0.081445612   -2.6420759   0.72047662   418189 
  680000   0.68872034   -2.6401622   -2.6401622   -1.9222636   0.06520453   -2.6401622   0.71789868   418189 
  681000   0.68973641   -2.6410078   -2.6410078     -1.92205  0.088019054   -2.6410078   0.71895779   418189 
  682000    0.6905215   -2.6416807   -2.6416807   -1.9219046  0.066797165   -2.6416807   0.71977615   418189 
  683000   0.68882599   -2.6404087   -2.6404087   -1.9223999  0.077794333   -2.6404087    0.7180088   418189 
  684000   0.68991422   -2.6420873   -2.6420873   -1.9229441  0.075287482   -2.6420873   0.71914313   418189 
  685000     0.689997   -2.6425434   -2.6425434   -1.9233139  0.059320709   -2.6425434   0.71922942   418189 
  686000    0.6906823   -2.6430554   -2.6430554   -1.9231117   0.05662783   -2.6430554   0.71994375   418189 
  687000   0.68908506    -2.641841    -2.641841   -1.9235621  0.076315813    -2.641841   0.71827885   418189 
  688000   0.69012953   -2.6432898   -2.6432898   -1.9239222  0.067769334   -2.6432898   0.71936756   418189 
  689000   0.68953783   -2.6428199   -2.6428199   -1.9240691  0.073909032   -2.6428199   0.71875079   418189 
  690000   0.68997026   -2.6439226   -2.6439226    -1.924721  0.082814345   -2.6439226   0.71920155   418189 
  691000   0.68795196   -2.6425416   -2.6425416   -1.9254438  0.071366485   -2.6425416   0.71709774   418189 
  692000   0.68955113   -2.6445907   -2.6445907   -1.9258261  0.070813539   -2.6445907   0.71876466   418189 
  693000   0.68878135    -2.643744    -2.643744   -1.9257818  0.076793721    -2.643744   0.71796227   418189 
  694000   0.68948448    -2.644261    -2.644261   -1.9255658  0.075239083    -2.644261   0.71869519   418189 
  695000   0.68892299   -2.6448089   -2.6448089    -1.926699  0.075142769   -2.6448089   0.71810991   418189 
  696000   0.68761742   -2.6432929   -2.6432929   -1.9265439  0.058247363   -2.6432929   0.71674903   418189 
  697000   0.68714991   -2.6433696   -2.6433696   -1.9271079   0.06880793   -2.6433696   0.71626171   418189 
  698000   0.68925928    -2.646455    -2.646455   -1.9279945  0.076506921    -2.646455   0.71846045   418189 
  699000   0.68857134   -2.6452782   -2.6452782   -1.9275349  0.081006276   -2.6452782   0.71774336   418189 
  700000   0.68810441   -2.6455254   -2.6455254   -1.9282688  0.065323019   -2.6455254   0.71725665   418189 
  701000    0.6885322   -2.6457883   -2.6457883   -1.9280857  0.076874202   -2.6457883   0.71770256   418189 
  702000   0.68898625   -2.6465407   -2.6465407   -1.9283648  0.066398184   -2.6465407   0.71817585   418189 
  703000    0.6876816   -2.6471211   -2.6471211   -1.9303051  0.073191248   -2.6471211   0.71681593   418189 
  704000   0.68720053   -2.6470469   -2.6470469   -1.9307324  0.077217003   -2.6470469   0.71631448   418189 
  705000   0.68695643   -2.6482279   -2.6482279   -1.9321678  0.075200186   -2.6482279   0.71606003   418189 
  706000   0.68783281   -2.6481245   -2.6481245    -1.931151  0.071443354   -2.6481245   0.71697354   418189 
  707000   0.68878278   -2.6494633   -2.6494633   -1.9314995  0.082029596   -2.6494633   0.71796376   418189 
  708000   0.68687807   -2.6474627   -2.6474627   -1.9314843   0.07855457   -2.6474627   0.71597836   418189 
  709000   0.68723081   -2.6488908   -2.6488908   -1.9325447  0.071808248   -2.6488908   0.71634604   418189 
  710000   0.68708505   -2.6491376   -2.6491376   -1.9329435  0.060137804   -2.6491376   0.71619411   418189 
  711000   0.68697108   -2.6487253   -2.6487253     -1.93265  0.082742731   -2.6487253    0.7160753   418189 
  712000   0.68669473   -2.6489846   -2.6489846   -1.9331974  0.060850191   -2.6489846   0.71578725   418189 
  713000   0.68539238   -2.6477844   -2.6477844   -1.9333546  0.067019487   -2.6477844   0.71442973   418189 
  714000   0.68557811   -2.6490294   -2.6490294    -1.934406  0.076462941   -2.6490294   0.71462332   418189 
  715000   0.68701364   -2.6509685   -2.6509685   -1.9348488  0.067973392   -2.6509685   0.71611967   418189 
  716000   0.68649673   -2.6501387   -2.6501387   -1.9345578  0.092318385   -2.6501387   0.71558086   418189 
  717000   0.68545015   -2.6500646   -2.6500646   -1.9355746  0.076559625   -2.6500646   0.71448994   418189 
  718000   0.68674189    -2.651737    -2.651737   -1.9359006  0.077206168    -2.651737   0.71583641   418189 
  719000   0.68446321   -2.6500277   -2.6500277   -1.9365665  0.066874326   -2.6500277   0.71346119   418189 
  720000   0.68611524   -2.6516752   -2.6516752    -1.936492  0.093538771   -2.6516752    0.7151832   418189 
  721000   0.68374967   -2.6506605   -2.6506605   -1.9379431  0.068629174   -2.6506605   0.71271742   418189 
  722000    0.6863998   -2.6536233   -2.6536233   -1.9381435  0.081967209   -2.6536233   0.71547982   418189 
  723000   0.68483765   -2.6513382   -2.6513382   -1.9374867  0.070340013   -2.6513382   0.71385149   418189 
  724000   0.68549873   -2.6532403   -2.6532403   -1.9386997  0.061685368   -2.6532403   0.71454058   418189 
  725000   0.68549228   -2.6532561   -2.6532561   -1.9387223  0.082948654   -2.6532561   0.71453385   418189 
  726000   0.68595847   -2.6543693   -2.6543693   -1.9393495  0.067121661   -2.6543693    0.7150198   418189 
  727000   0.68487051   -2.6540433   -2.6540433   -1.9401576  0.080638928   -2.6540433   0.71388575   418189 
  728000   0.68499916   -2.6540772   -2.6540772   -1.9400574  0.067743915   -2.6540772   0.71401984   418189 
  729000   0.68420654   -2.6536829   -2.6536829   -1.9404892  0.076671104   -2.6536829   0.71319364   418189 
  730000   0.68425009    -2.654732    -2.654732   -1.9414929  0.066263178    -2.654732   0.71323903   418189 
  731000   0.68414621   -2.6551921   -2.6551921   -1.9420613   0.06823783   -2.6551921   0.71313076   418189 
  732000    0.6827361   -2.6536328   -2.6536328   -1.9419719    0.0782811   -2.6536328    0.7116609   418189 
  733000   0.68473379   -2.6557067   -2.6557067   -1.9419635  0.074450195   -2.6557067   0.71374323   418189 
  734000   0.68368287   -2.6558686   -2.6558686   -1.9432208  0.073630416   -2.6558686   0.71264778   418189 
  735000   0.68267584   -2.6552927   -2.6552927   -1.9436946  0.059766842   -2.6552927   0.71159809   418189 
  736000    0.6825868   -2.6549582   -2.6549582    -1.943453  0.076383324   -2.6549582   0.71150528   418189 
  737000   0.68390612   -2.6562953   -2.6562953   -1.9434148  0.074859969   -2.6562953    0.7128805   418189 
  738000   0.68393207   -2.6565543   -2.6565543   -1.9436467  0.079246193   -2.6565543   0.71290755   418189 
  739000   0.68366319   -2.6569306   -2.6569306   -1.9443033  0.064004235   -2.6569306   0.71262727   418189 
  740000   0.68443126    -2.657591    -2.657591   -1.9441631  0.083203301    -2.657591   0.71342789   418189 
  741000    0.6838961   -2.6579678   -2.6579678   -1.9450978  0.065311595   -2.6579678   0.71287005   418189 
  742000   0.68246233   -2.6576154   -2.6576154   -1.9462399  0.071044469   -2.6576154   0.71137553   418189 
  743000   0.68263025   -2.6582564   -2.6582564   -1.9467058  0.064718306   -2.6582564   0.71155058   418189 
  744000   0.68379983   -2.6597247   -2.6597247    -1.946955  0.072209124   -2.6597247    0.7127697   418189 
  745000   0.68253774   -2.6595779   -2.6595779   -1.9481238  0.083161725   -2.6595779   0.71145414   418189 
  746000   0.68257197   -2.6598837   -2.6598837   -1.9483939  0.067620549   -2.6598837   0.71148982   418189 
  747000   0.68189239   -2.6599559   -2.6599559   -1.9491744  0.081086175   -2.6599559   0.71078145   418189 
  748000    0.6820886   -2.6600842   -2.6600842   -1.9490982  0.061241175   -2.6600842   0.71098597   418189 
  749000    0.6819777   -2.6596404   -2.6596404   -1.9487701   0.07199949   -2.6596404   0.71087037   418189 
  750000   0.68243758   -2.6606348   -2.6606348   -1.9492851  0.079056925   -2.6606348   0.71134974   418189 
  751000   0.68229198   -2.6615752   -2.6615752   -1.9503772  0.069393566   -2.6615752   0.71119797   418189 
  752000   0.68027873   -2.6600492   -2.6600492   -1.9509498  0.059699448   -2.6600492   0.70909943   418189 
  753000   0.68040917   -2.6601778   -2.6601778   -1.9509424  0.066261646   -2.6601778    0.7092354   418189 
  754000   0.68103246   -2.6606829   -2.6606829   -1.9507978  0.072394223   -2.6606829   0.70988509   418189 
  755000   0.68067326   -2.6611557   -2.6611557    -1.951645  0.082517945   -2.6611557   0.70951067   418189 
  756000   0.68282523   -2.6631386   -2.6631386   -1.9513847  0.069375371   -2.6631386   0.71175381   418189 
  757000   0.68022939   -2.6618555   -2.6618555   -1.9528075  0.069278385   -2.6618555     0.709048   418189 
  758000   0.68093749   -2.6622085   -2.6622085   -1.9524224  0.081519499   -2.6622085    0.7097861   418189 
  759000     0.681486   -2.6633009   -2.6633009   -1.9529431  0.062805904   -2.6633009   0.71035785   418189 
  760000   0.68043749   -2.6624777   -2.6624777   -1.9532128  0.080958474   -2.6624777   0.70926492   418189 
  761000   0.68081874   -2.6636304   -2.6636304   -1.9539681   0.07089301   -2.6636304   0.70966231   418189 
  762000   0.68062925   -2.6638416   -2.6638416   -1.9543768  0.066436452   -2.6638416    0.7094648   418189 
  763000   0.68127103   -2.6652261   -2.6652261   -1.9550924  0.057126467   -2.6652261   0.71013376   418189 
  764000   0.68069857   -2.6641595   -2.6641595   -1.9546224  0.066282241   -2.6641595   0.70953705   418189 
  765000   0.68010417    -2.664364    -2.664364   -1.9554465  0.079183614    -2.664364   0.70891747   418189 
  766000   0.68105059   -2.6656965   -2.6656965   -1.9557925  0.056801834   -2.6656965   0.70990398   418189 
  767000   0.68007221    -2.664953    -2.664953   -1.9560689  0.078832034    -2.664953   0.70888416   418189 
  768000   0.67961833   -2.6656463   -2.6656463   -1.9572353  0.054151068   -2.6656463   0.70841105   418189 
  769000   0.68053877   -2.6652297   -2.6652297   -1.9558592   0.06637318   -2.6652297   0.70937048   418189 
  770000   0.67988461   -2.6653432   -2.6653432   -1.9566545  0.064566824   -2.6653432   0.70868861   418189 
  771000   0.67971854   -2.6650183   -2.6650183   -1.9565028  0.072642625   -2.6650183   0.70851551   418189 
  772000   0.67886793     -2.66598     -2.66598   -1.9583511  0.063110067     -2.66598   0.70762886   418189 
  773000   0.68044618   -2.6683232   -2.6683232   -1.9590493  0.074771627   -2.6683232   0.70927398   418189 
  774000    0.6789422   -2.6667382   -2.6667382   -1.9590319  0.060649678   -2.6667382   0.70770627   418189 
  775000   0.67915865   -2.6670691   -2.6670691   -1.9591372  0.058409337   -2.6670691    0.7079319   418189 
  776000   0.67980611   -2.6681501   -2.6681501   -1.9595433  0.058460039   -2.6681501   0.70860678   418189 
  777000   0.67942356   -2.6682384   -2.6682384   -1.9600304  0.075884262   -2.6682384   0.70820803   418189 
  778000   0.67908451   -2.6684987   -2.6684987   -1.9606441  0.058469429   -2.6684987   0.70785461   418189 
  779000   0.67888381   -2.6691867   -2.6691867   -1.9615413  0.071406969   -2.6691867   0.70764541   418189 
  780000   0.67606209   -2.6664599   -2.6664599   -1.9617558  0.069395707   -2.6664599   0.70470414   418189 
  781000   0.67711974   -2.6676237   -2.6676237   -1.9618171  0.082547392   -2.6676237    0.7058066   418189 
  782000   0.67767583   -2.6683255   -2.6683255   -1.9619393  0.076068287   -2.6683255   0.70638625   418189 
  783000   0.67838673   -2.6692395   -2.6692395   -1.9621122  0.077695639   -2.6692395   0.70712727   418189 
  784000   0.67619748   -2.6679252   -2.6679252   -1.9630799  0.070648938   -2.6679252   0.70484527   418189 
  785000   0.67853474   -2.6705879   -2.6705879   -1.9633063  0.071348088   -2.6705879   0.70728155   418189 
  786000   0.67800272   -2.6708401   -2.6708401   -1.9641131  0.076363622   -2.6708401   0.70672699   418189 
  787000   0.67848742   -2.6715251   -2.6715251   -1.9642929  0.065896521   -2.6715251   0.70723223   418189 
  788000   0.67774322   -2.6704916   -2.6704916   -1.9640351  0.075746161   -2.6704916    0.7064565   418189 
  789000   0.67890077    -2.672306    -2.672306   -1.9646429  0.062286074    -2.672306   0.70766309   418189 
  790000   0.67806683   -2.6716936   -2.6716936   -1.9648997  0.060321243   -2.6716936   0.70679382   418189 
  791000   0.67806164   -2.6713406   -2.6713406   -1.9645522  0.062339327   -2.6713406    0.7067884   418189 
  792000   0.67749026   -2.6713111   -2.6713111   -1.9651183   0.06099141   -2.6713111   0.70619282   418189 
  793000   0.67805333   -2.6728424   -2.6728424   -1.9660627  0.060787206   -2.6728424   0.70677975   418189 
  794000   0.67602637   -2.6709141   -2.6709141   -1.9662471  0.074819067   -2.6709141   0.70466691   418189 
  795000   0.67805881   -2.6734816   -2.6734816   -1.9666962  0.071924606   -2.6734816   0.70678546   418189 
  796000   0.67676557   -2.6724103   -2.6724103   -1.9669729  0.078008158   -2.6724103   0.70543743   418189 
  797000    0.6758245   -2.6715271   -2.6715271   -1.9670706   0.08159196   -2.6715271   0.70445649   418189 
  798000   0.67794741   -2.6736539   -2.6736539   -1.9669845  0.070933324   -2.6736539   0.70666934   418189 
  799000   0.67725232   -2.6733907   -2.6733907   -1.9674459  0.065476795   -2.6733907    0.7059448   418189 
  800000    0.6773355   -2.6741133   -2.6741133   -1.9680818  0.072474687   -2.6741133    0.7060315   418189 
  801000   0.67596853   -2.6727085   -2.6727085   -1.9681019  0.061764343   -2.6727085   0.70460662   418189 
  802000   0.67687885   -2.6746163   -2.6746163   -1.9690608  0.073000783   -2.6746163    0.7055555   418189 
  803000   0.67580614   -2.6727915   -2.6727915   -1.9683541  0.070069122   -2.6727915   0.70443735   418189 
  804000   0.67626988   -2.6739091   -2.6739091   -1.9689884  0.061100012   -2.6739091   0.70492074   418189 
  805000   0.67588419   -2.6746889   -2.6746889   -1.9701702  0.067673123   -2.6746889   0.70451871   418189 
  806000   0.67538378   -2.6740906   -2.6740906   -1.9700935  0.071293547   -2.6740906   0.70399709   418189 
  807000   0.67636823    -2.675527    -2.675527   -1.9705038  0.065283142    -2.675527   0.70502325   418189 
  808000   0.67487856   -2.6749555   -2.6749555    -1.971485  0.070666257   -2.6749555   0.70347047   418189 
  809000   0.67542921   -2.6760123   -2.6760123   -1.9719679  0.074861615   -2.6760123   0.70404445   418189 
  810000   0.67561496   -2.6768964   -2.6768964   -1.9726583  0.068083427   -2.6768964   0.70423807   418189 
  811000   0.67643566   -2.6779252   -2.6779252   -1.9728316  0.079036434   -2.6779252   0.70509354   418189 
  812000   0.67433189   -2.6769193   -2.6769193   -1.9740186  0.077772693   -2.6769193   0.70290064   418189 
  813000   0.67538099   -2.6781396   -2.6781396   -1.9741454  0.079850755   -2.6781396   0.70399419   418189 
  814000   0.67558949   -2.6789918   -2.6789918   -1.9747803  0.068383969   -2.6789918   0.70421153   418189 
  815000   0.67501803   -2.6798265   -2.6798265   -1.9762106  0.067496977   -2.6798265   0.70361585   418189 
  816000   0.67314676   -2.6780808   -2.6780808   -1.9764155  0.073052257   -2.6780808    0.7016653   418189 
  817000   0.67451235   -2.6791902   -2.6791902   -1.9761014  0.079372101   -2.6791902   0.70308875   418189 
  818000   0.67325999   -2.6783795   -2.6783795   -1.9765961  0.059016197   -2.6783795   0.70178333   418189 
  819000   0.67363682   -2.6786718   -2.6786718   -1.9764957  0.061317695   -2.6786718   0.70217613   418189 
  820000   0.67354307   -2.6783025   -2.6783025   -1.9762241   0.06646225   -2.6783025   0.70207841   418189 
  821000   0.67282308    -2.678854    -2.678854   -1.9775261  0.072840823    -2.678854   0.70132791   418189 
  822000   0.67338786   -2.6800901   -2.6800901   -1.9781735   0.06872504   -2.6800901   0.70191661   418189 
  823000    0.6737906   -2.6808013   -2.6808013   -1.9784649  0.071124196   -2.6808013   0.70233642   418189 
  824000   0.67156906   -2.6788682   -2.6788682   -1.9788474  0.077786379   -2.6788682   0.70002077   418189 
  825000   0.67190376   -2.6788701   -2.6788701   -1.9785004  0.071463683   -2.6788701   0.70036964   418189 
  826000   0.67297386   -2.6800003   -2.6800003   -1.9785152  0.061247213   -2.6800003   0.70148508   418189 
  827000   0.67391187   -2.6814782   -2.6814782   -1.9790153   0.05772141   -2.6814782   0.70246283   418189 
  828000   0.67306277   -2.6801478   -2.6801478     -1.97857  0.056815152   -2.6801478   0.70157775   418189 
  829000   0.67259123   -2.6794314   -2.6794314   -1.9783452  0.067492193   -2.6794314   0.70108624   418189 
  830000   0.67331249   -2.6813168   -2.6813168   -1.9794787  0.069754032   -2.6813168   0.70183806   418189 
  831000   0.67385965   -2.6829625   -2.6829625   -1.9805541  0.058633491   -2.6829625    0.7024084   418189 
  832000   0.67183962   -2.6807976   -2.6807976   -1.9804948  0.074580235   -2.6807976   0.70030278   418189 
  833000   0.67295442   -2.6813688   -2.6813688    -1.979904   0.06604383   -2.6813688   0.70146482   418189 
  834000   0.67324936   -2.6821717   -2.6821717   -1.9803994  0.060293424   -2.6821717   0.70177225   418189 
  835000   0.67210511    -2.681846    -2.681846   -1.9812665  0.073552436    -2.681846   0.70057952   418189 
  836000   0.67379342   -2.6838142   -2.6838142   -1.9814749  0.071351949   -2.6838142   0.70233936   418189 
  837000   0.67307251   -2.6835138   -2.6835138   -1.9819259    0.0639256   -2.6835138   0.70158791   418189 
  838000   0.67211367   -2.6831996   -2.6831996   -1.9826112  0.059082305   -2.6831996   0.70058845   418189 
  839000   0.67246809   -2.6834683   -2.6834683   -1.9825104  0.063732569   -2.6834683   0.70095788   418189 
  840000   0.67100152   -2.6820988   -2.6820988   -1.9826696  0.071132996   -2.6820988   0.69942918   418189 
  841000   0.67236036   -2.6831038   -2.6831038   -1.9822582  0.070645682   -2.6831038   0.70084558   418189 
  842000   0.67106894   -2.6818145   -2.6818145    -1.982315   0.05687187   -2.6818145   0.69949945   418189 
  843000   0.67275221   -2.6832355   -2.6832355   -1.9819814  0.069298388   -2.6832355   0.70125404   418189 
  844000   0.67260199   -2.6830887   -2.6830887   -1.9819912  0.063033277   -2.6830887   0.70109745   418189 
  845000   0.67206506   -2.6840516   -2.6840516   -1.9835138  0.055941135   -2.6840516   0.70053778   418189 
  846000   0.67205205   -2.6842052   -2.6842052   -1.9836809  0.060836087   -2.6842052   0.70052421   418189 
  847000   0.67145608    -2.684473    -2.684473     -1.98457  0.055677161    -2.684473     0.699903   418189 
  848000   0.67223546   -2.6854563   -2.6854563   -1.9847409  0.058622266   -2.6854563   0.70071539   418189 
  849000   0.67181701   -2.6846649   -2.6846649   -1.9843857  0.063575433   -2.6846649   0.70027921   418189 
  850000   0.67132488   -2.6844691   -2.6844691   -1.9847028  0.056570349   -2.6844691   0.69976624   418189 
  851000   0.67137389   -2.6851512   -2.6851512   -1.9853339  0.075300917   -2.6851512   0.69981732   418189 
  852000   0.67153498    -2.686199    -2.686199   -1.9862138  0.063247096    -2.686199   0.69998524   418189 
  853000   0.67212313   -2.6872792   -2.6872792   -1.9866809   0.06435366   -2.6872792   0.70059831   418189 
  854000   0.67023574   -2.6864524   -2.6864524   -1.9878214  0.064075911   -2.6864524   0.69863095   418189 
  855000   0.67019341   -2.6864128   -2.6864128   -1.9878259  0.066234694   -2.6864128   0.69858683   418189 
  856000   0.66963191   -2.6855877   -2.6855877   -1.9875861  0.063788471   -2.6855877   0.69800154   418189 
  857000   0.67045604   -2.6866653   -2.6866653   -1.9878047  0.063726213   -2.6866653   0.69886059   418189 
  858000   0.67125808    -2.688019    -2.688019   -1.9883224  0.063981101    -2.688019   0.69969661   418189 
  859000   0.67054307   -2.6870562   -2.6870562   -1.9881048  0.071776896   -2.6870562   0.69895131   418189 
  860000    0.6694534   -2.6863249   -2.6863249   -1.9885094  0.069272083   -2.6863249   0.69781547   418189 
  861000   0.66954286   -2.6860597   -2.6860597   -1.9881509  0.053952396   -2.6860597   0.69790872   418189 
  862000    0.6704665   -2.6873796   -2.6873796   -1.9885081   0.07647595   -2.6873796   0.69887149   418189 
  863000   0.67099308   -2.6876767   -2.6876767   -1.9882563  0.063157895   -2.6876767   0.69942038   418189 
  864000   0.67016741   -2.6878171   -2.6878171   -1.9892574  0.069921924   -2.6878171   0.69855973   418189 
  865000   0.66955983   -2.6878624   -2.6878624    -1.989936  0.060107854   -2.6878624   0.69792641   418189 
  866000   0.66963169   -2.6886709   -2.6886709   -1.9906696   0.06907641   -2.6886709   0.69800131   418189 
  867000   0.67027744    -2.689663    -2.689663   -1.9909886  0.069711256    -2.689663   0.69867442   418189 
  868000   0.66982516   -2.6896059   -2.6896059   -1.9914029   0.06902463   -2.6896059   0.69820298   418189 
  869000   0.66952677   -2.6889453   -2.6889453   -1.9910534  0.062413195   -2.6889453   0.69789195   418189 
  870000   0.67118225    -2.690882    -2.690882   -1.9912645  0.068019477    -2.690882   0.69961757   418189 
  871000   0.67026872    -2.690826    -2.690826   -1.9921606  0.067481546    -2.690826   0.69866533   418189 
  872000   0.66813911   -2.6892171   -2.6892171   -1.9927716  0.057926871   -2.6892171    0.6964455   418189 
  873000   0.66949714   -2.6899132   -2.6899132   -1.9920522  0.073855894   -2.6899132   0.69786106   418189 
  874000   0.66884474   -2.6890943   -2.6890943   -1.9919133  0.072173556   -2.6890943   0.69718103   418189 
  875000   0.66939921   -2.6895782   -2.6895782   -1.9918192  0.061595433   -2.6895782   0.69775898   418189 
  876000   0.66832543    -2.689377    -2.689377   -1.9927373  0.051736696    -2.689377   0.69663971   418189 
  877000   0.66903795   -2.6906552   -2.6906552   -1.9932728  0.070456887   -2.6906552   0.69738242   418189 
  878000   0.67040172   -2.6922535   -2.6922535   -1.9934495  0.060323699   -2.6922535   0.69880396   418189 
  879000   0.67007295   -2.6921074   -2.6921074   -1.9936462  0.059309618   -2.6921074   0.69846127   418189 
  880000   0.66916757   -2.6908491   -2.6908491   -1.9933316  0.072682217   -2.6908491   0.69751754   418189 
  881000   0.66959114    -2.691565    -2.691565    -1.993606  0.066469569    -2.691565   0.69795905   418189 
  882000   0.66869135   -2.6917584   -2.6917584   -1.9947373  0.065439788   -2.6917584   0.69702113   418189 
  883000   0.66836562   -2.6923043   -2.6923043   -1.9956227  0.065480451   -2.6923043    0.6966816   418189 
  884000   0.66949322   -2.6939943   -2.6939943   -1.9961374  0.065326711   -2.6939943   0.69785698   418189 
  885000   0.66805853   -2.6928636   -2.6928636   -1.9965021  0.057609139   -2.6928636   0.69636151   418189 
  886000   0.66851905   -2.6942929   -2.6942929   -1.9974514  0.071088281   -2.6942929   0.69684153   418189 
  887000   0.66984436   -2.6950161   -2.6950161   -1.9967931  0.068246957   -2.6950161   0.69822299   418189 
  888000   0.66794199   -2.6940477   -2.6940477   -1.9978076  0.054090593   -2.6940477   0.69624003   418189 
  889000   0.66749595   -2.6935951   -2.6935951     -1.99782  0.073641491   -2.6935951   0.69577509   418189 
  890000   0.66882631   -2.6946414   -2.6946414   -1.9974796   0.06083984   -2.6946414   0.69716181   418189 
  891000   0.66700102   -2.6937741   -2.6937741   -1.9985149  0.056852574   -2.6937741    0.6952592   418189 
  892000   0.66727133   -2.6949968   -2.6949968   -1.9994558  0.068669882   -2.6949968   0.69554096   418189 
  893000   0.66821549   -2.6958507   -2.6958507   -1.9993255  0.058588447   -2.6958507   0.69652511   418189 
  894000   0.66663311   -2.6938421   -2.6938421   -1.9989664  0.058864644   -2.6938421    0.6948757   418189 
  895000   0.66687165   -2.6940695   -2.6940695   -1.9989452  0.062988223   -2.6940695   0.69512434   418189 
  896000   0.66656391   -2.6949051   -2.6949051   -2.0001015  0.074391524   -2.6949051   0.69480357   418189 
  897000    0.6669886   -2.6961969   -2.6961969   -2.0009506  0.073029827   -2.6961969   0.69524625   418189 
  898000   0.66656076   -2.6958734   -2.6958734   -2.0010732  0.066952177   -2.6958734   0.69480028   418189 
  899000    0.6668675   -2.6956674   -2.6956674   -2.0005474   0.05635416   -2.6956674   0.69512002   418189 
  900000    0.6682969   -2.6978055   -2.6978055   -2.0011955  0.067164117   -2.6978055   0.69660997   418189 
  901000   0.66712197   -2.6970958   -2.6970958   -2.0017105  0.053343637   -2.6970958   0.69538527   418189 
  902000   0.66705896    -2.697576    -2.697576   -2.0022564  0.056645032    -2.697576   0.69531958   418189 
  903000   0.66706709    -2.697974    -2.697974   -2.0026459  0.069202423    -2.697974   0.69532806   418189 
  904000   0.66712231   -2.6981346   -2.6981346   -2.0027489  0.079709456   -2.6981346   0.69538562   418189 
  905000   0.66565261   -2.6973365   -2.6973365   -2.0034828  0.060623108   -2.6973365   0.69385365   418189 
  906000   0.66759045   -2.6989246   -2.6989246    -2.003051  0.069410002   -2.6989246    0.6958736   418189 
  907000   0.66669557    -2.699137    -2.699137   -2.0041962  0.061725306    -2.699137    0.6949408   418189 
  908000   0.66663123   -2.6990331   -2.6990331   -2.0041594  0.061218401   -2.6990331   0.69487373   418189 
  909000   0.66534506   -2.6980746   -2.6980746   -2.0045415  0.060508255   -2.6980746   0.69353307   418189 
  910000   0.66467474    -2.698282    -2.698282   -2.0054476  0.058448167    -2.698282   0.69283436   418189 
  911000    0.6640657   -2.6992126   -2.6992126   -2.0070131  0.055283212   -2.6992126   0.69219951   418189 
  912000   0.66527086   -2.6997709   -2.6997709   -2.0063151  0.067345866   -2.6997709   0.69345573   418189 
  913000   0.66489019   -2.6993169   -2.6993169    -2.006258  0.059246644   -2.6993169   0.69305893   418189 
  914000   0.66536973   -2.6996884   -2.6996884   -2.0061296  0.047217019   -2.6996884   0.69355879   418189 
  915000   0.66523381   -2.7006232   -2.7006232   -2.0072061  0.060783586   -2.7006232   0.69341711   418189 
  916000   0.66553503   -2.7008612   -2.7008612   -2.0071301  0.063146015   -2.7008612    0.6937311   418189 
  917000   0.66638728   -2.7011473   -2.7011473   -2.0065278  0.060162889   -2.7011473   0.69461946   418189 
  918000   0.66659668   -2.7018525   -2.7018525   -2.0070148  0.066640718   -2.7018525   0.69483773   418189 
  919000   0.66504279   -2.7010738   -2.7010738   -2.0078558  0.084332259   -2.7010738     0.693218   418189 
  920000    0.6642491   -2.7014135   -2.7014135   -2.0090228  0.066882626   -2.7014135   0.69239069   418189 
  921000   0.66506773   -2.7023483   -2.7023483   -2.0091043  0.062865387   -2.7023483     0.693244   418189 
  922000   0.66409588   -2.7017423   -2.7017423   -2.0095113  0.062869715   -2.7017423   0.69223097   418189 
  923000   0.66603759   -2.7048431   -2.7048431   -2.0105882  0.065998305   -2.7048431   0.69425495   418189 
  924000    0.6635736   -2.7031616   -2.7031616   -2.0114751  0.052909597   -2.7031616   0.69168656   418189 
  925000   0.66590236   -2.7053595   -2.7053595   -2.0112455  0.049797543   -2.7053595   0.69411399   418189 
  926000   0.66510384   -2.7047087   -2.7047087   -2.0114271  0.060407762   -2.7047087   0.69328164   418189 
  927000   0.66518151   -2.7051974   -2.7051974   -2.0118348  0.057684188   -2.7051974    0.6933626   418189 
  928000   0.66505922   -2.7056752   -2.7056752   -2.0124401  0.063296654   -2.7056752   0.69323512   418189 
  929000   0.66554657   -2.7063856   -2.7063856   -2.0126424  0.060263634   -2.7063856   0.69374312   418189 
  930000   0.66495855   -2.7060126   -2.7060126   -2.0128824  0.070741706   -2.7060126   0.69313019   418189 
  931000   0.66619699   -2.7068943   -2.7068943   -2.0124732  0.059917595   -2.7068943    0.6944211   418189 
  932000   0.66482079   -2.7067844   -2.7067844   -2.0137978  0.054852818   -2.7067844   0.69298659   418189 
  933000   0.66330997   -2.7051375   -2.7051375   -2.0137257  0.067265251   -2.7051375   0.69141177   418189 
  934000   0.66290032   -2.7049739   -2.7049739   -2.0139891  0.059121754   -2.7049739   0.69098476   418189 
  935000   0.66542453   -2.7070093   -2.7070093   -2.0133934  0.068782167   -2.7070093   0.69361592   418189 
  936000   0.66479551   -2.7071308   -2.7071308   -2.0141706  0.063381379   -2.7071308   0.69296025   418189 
  937000   0.66414955    -2.706441    -2.706441   -2.0141541  0.060940105    -2.706441   0.69228691   418189 
  938000   0.66269862   -2.7050743   -2.7050743   -2.0142998  0.050721954   -2.7050743   0.69077452   418189 
  939000   0.66439029   -2.7067855   -2.7067855   -2.0142477  0.056714362   -2.7067855   0.69253786   418189 
  940000   0.66300084   -2.7059868   -2.7059868   -2.0148973  0.067705939   -2.7059868   0.69108954   418189 
  941000   0.66264284   -2.7066911   -2.7066911   -2.0159748   0.05562423   -2.7066911   0.69071638   418189 
  942000   0.66340571   -2.7081349   -2.7081349   -2.0166233  0.064876774   -2.7081349   0.69151156   418189 
  943000   0.66330665   -2.7080898   -2.7080898   -2.0166815  0.065112451   -2.7080898   0.69140831   418189 
  944000   0.66349862   -2.7084579   -2.7084579   -2.0168495   0.05962871   -2.7084579   0.69160841   418189 
  945000   0.66409983   -2.7094517   -2.7094517   -2.0172166  0.063490636   -2.7094517   0.69223509   418189 
  946000   0.66372687   -2.7094741   -2.7094741   -2.0176278  0.070715536   -2.7094741   0.69184633   418189 
  947000   0.66300981   -2.7087657   -2.7087657   -2.0176668  0.063609441   -2.7087657   0.69109889   418189 
  948000   0.66304321   -2.7095919   -2.7095919   -2.0184582  0.056317556   -2.7095919    0.6911337   418189 
  949000   0.66329533   -2.7097983   -2.7097983   -2.0184018  0.053695383   -2.7097983   0.69139651   418189 
  950000   0.66394746   -2.7104635   -2.7104635   -2.0183872  0.056576712   -2.7104635   0.69207626   418189 
  951000   0.66353958   -2.7095537   -2.7095537   -2.0179026  0.060842025   -2.7095537   0.69165111   418189 
  952000   0.66339354    -2.709483    -2.709483   -2.0179841  0.066131312    -2.709483   0.69149888   418189 
  953000   0.66293505   -2.7095598   -2.7095598   -2.0185388  0.061969357   -2.7095598   0.69102097   418189 
  954000   0.66282643    -2.709112    -2.709112   -2.0182042  0.064997042    -2.709112   0.69090774   418189 
  955000   0.66235536   -2.7086666   -2.7086666   -2.0182499  0.069192085   -2.7086666   0.69041671   418189 
  956000   0.66107409    -2.708273    -2.708273   -2.0191919  0.057778798    -2.708273   0.68908116   418189 
  957000   0.66279409   -2.7100909   -2.7100909   -2.0192169  0.049959473   -2.7100909   0.69087403   418189 
  958000   0.66413348   -2.7117129   -2.7117129   -2.0194427   0.06663193   -2.7117129   0.69227017   418189 
  959000   0.66215949    -2.710292    -2.710292   -2.0200795  0.060553665    -2.710292   0.69021254   418189 
  960000   0.66197769   -2.7095953   -2.7095953   -2.0195723  0.075343071   -2.7095953   0.69002304   418189 
  961000   0.66170397   -2.7099312   -2.7099312   -2.0201934  0.062615006   -2.7099312   0.68973773   418189 
  962000   0.66199239   -2.7100236   -2.7100236   -2.0199852  0.052337425   -2.7100236   0.69003837   418189 
  963000   0.66264257   -2.7110436   -2.7110436   -2.0203275   0.07294231   -2.7110436   0.69071609   418189 
  964000   0.66173649   -2.7110198   -2.7110198   -2.0212481   0.06603269   -2.7110198   0.68977163   418189 
  965000   0.66363541    -2.712947    -2.712947    -2.021196  0.065166598    -2.712947   0.69175099   418189 
  966000   0.66218325   -2.7125968   -2.7125968   -2.0223595   0.06136495   -2.7125968   0.69023731   418189 
  967000   0.66239768   -2.7124522   -2.7124522   -2.0219913  0.060730153   -2.7124522   0.69046083   418189 
  968000   0.66133905   -2.7111684   -2.7111684   -2.0218111   0.05679008   -2.7111684   0.68935735   418189 
  969000   0.66249384   -2.7127686   -2.7127686   -2.0222076   0.06023178   -2.7127686   0.69056106   418189 
  970000   0.66247786   -2.7125919   -2.7125919   -2.0220475  0.057154964   -2.7125919   0.69054441   418189 
  971000   0.66261077   -2.7129858   -2.7129858   -2.0223028   0.06703537   -2.7129858   0.69068294   418189 
  972000   0.66319167   -2.7138402   -2.7138402   -2.0225518  0.063245808   -2.7138402   0.69128845   418189 
  973000   0.66195783   -2.7123234   -2.7123234   -2.0223211  0.055490046   -2.7123234   0.69000235   418189 
  974000   0.66268966   -2.7139437   -2.7139437   -2.0231785  0.060098815   -2.7139437   0.69076518   418189 
  975000   0.66111916   -2.7127811   -2.7127811    -2.023653  0.066877876   -2.7127811   0.68912815   418189 
  976000   0.66217464   -2.7148103   -2.7148103    -2.024582  0.059745232   -2.7148103   0.69022834   418189 
  977000    0.6607174   -2.7139011   -2.7139011   -2.0251917  0.055037719   -2.7139011   0.68870936   418189 
  978000   0.66186101   -2.7152989   -2.7152989   -2.0253974  0.055714487   -2.7152989   0.68990143   418189 
  979000   0.66138054   -2.7148467   -2.7148467   -2.0254461  0.074151705   -2.7148467    0.6894006   418189 
  980000   0.66185452   -2.7157803   -2.7157803   -2.0258856  0.046175024   -2.7157803   0.68989466   418189 
  981000   0.66121558   -2.7164257   -2.7164257   -2.0271971  0.065811701   -2.7164257   0.68922865   418189 
  982000    0.6616694   -2.7161714   -2.7161714   -2.0264697    0.0624113   -2.7161714   0.68970169   418189 
  983000   0.66303724   -2.7180692   -2.7180692   -2.0269417  0.061459715   -2.7180692   0.69112748   418189 
  984000   0.66267189     -2.71827     -2.71827   -2.0275233  0.073821137     -2.71827   0.69074665   418189 
  985000   0.66128359   -2.7171278   -2.7171278   -2.0278282  0.053639247   -2.7171278   0.68929954   418189 
  986000   0.66039445   -2.7163796   -2.7163796   -2.0280069   0.05520809   -2.7163796   0.68837273   418189 
  987000   0.66244439   -2.7183234   -2.7183234   -2.0278139  0.053753299   -2.7183234   0.69050952   418189 
  988000    0.6606467   -2.7169595   -2.7169595   -2.0283238  0.056097728   -2.7169595   0.68863566   418189 
  989000   0.66034248   -2.7168973   -2.7168973   -2.0285788  0.057446435   -2.7168973   0.68831856   418189 
  990000   0.66048986   -2.7169686   -2.7169686   -2.0284964  0.060824537   -2.7169686   0.68847218   418189 
  991000   0.66117593   -2.7184453   -2.7184453    -2.029258  0.056543943   -2.7184453   0.68918732   418189 
  992000    0.6603138    -2.717404    -2.717404   -2.0291154  0.052540421    -2.717404   0.68828866   418189 
  993000   0.65976766    -2.717401    -2.717401   -2.0296816  0.061612367    -2.717401   0.68771939   418189 
  994000   0.65996981   -2.7173446   -2.7173446   -2.0294145  0.050756458   -2.7173446    0.6879301   418189 
  995000   0.66112082   -2.7188886   -2.7188886   -2.0297587  0.069112976   -2.7188886   0.68912987   418189 
  996000   0.65977972   -2.7176128   -2.7176128   -2.0298809  0.070238448   -2.7176128   0.68773195   418189 
  997000   0.65861987   -2.7176331   -2.7176331   -2.0311102  0.068733501   -2.7176331   0.68652296   418189 
  998000   0.66016426   -2.7192785   -2.7192785   -2.0311457  0.045412117   -2.7192785   0.68813279   418189 
  999000    0.6600922   -2.7198543   -2.7198543   -2.0317966  0.062175351   -2.7198543   0.68805768   418189 
 1000000   0.65988769   -2.7198946   -2.7198946   -2.0320501  0.068764312   -2.7198946    0.6878445   418189 
 1001000   0.65900737    -2.719951    -2.719951   -2.0330242  0.058462312    -2.719951   0.68692688   418189 
 1002000    0.6588399   -2.7196672   -2.7196672   -2.0329148   0.06364867   -2.7196672   0.68675232   418189 
 1003000   0.65855712   -2.7193504   -2.7193504   -2.0328928  0.061244626   -2.7193504   0.68645756   418189 
 1004000   0.66058486   -2.7213554   -2.7213554   -2.0327842  0.058410047   -2.7213554    0.6885712   418189 
 1005000   0.65830346   -2.7203949   -2.7203949   -2.0342018  0.073427896   -2.7203949   0.68619315   418189 
 1006000     0.658572   -2.7202831   -2.7202831   -2.0338101  0.059666117   -2.7202831   0.68647307   418189 
 1007000   0.65826326   -2.7200811   -2.7200811   -2.0339298  0.046177551   -2.7200811   0.68615125   418189 
 1008000   0.65771747   -2.7192188   -2.7192188   -2.0336364  0.039611736   -2.7192188   0.68558234   418189 
 1009000   0.65834259   -2.7195486   -2.7195486   -2.0333146  0.052883411   -2.7195486   0.68623394   418189 
 1010000   0.65896148   -2.7206707   -2.7206707   -2.0337917  0.062705433   -2.7206707   0.68687905   418189 
 1011000   0.65822103   -2.7199091   -2.7199091   -2.0338019  0.080317188   -2.7199091   0.68610723   418189 
 1012000   0.65909964   -2.7211586   -2.7211586   -2.0341355  0.056860341   -2.7211586   0.68702306   418189 
 1013000   0.65954483   -2.7220982   -2.7220982   -2.0346111  0.061834138   -2.7220982   0.68748711   418189 
 1014000   0.65899012   -2.7209761   -2.7209761   -2.0340672  0.059580821   -2.7209761    0.6869089   418189 
 1015000    0.6583332   -2.7214723   -2.7214723   -2.0352482  0.043911957   -2.7214723   0.68622415   418189 
 1016000   0.65860809   -2.7212432   -2.7212432   -2.0347325  0.063424149   -2.7212432   0.68651069   418189 
 1017000   0.65867705   -2.7226092   -2.7226092   -2.0360266  0.060958125   -2.7226092   0.68658257   418189 
 1018000    0.6574947   -2.7216129   -2.7216129   -2.0362627  0.059155151   -2.7216129   0.68535013   418189 
 1019000   0.65691783   -2.7215903   -2.7215903   -2.0368415  0.068145979   -2.7215903   0.68474882   418189 
 1020000   0.65749631   -2.7226793   -2.7226793   -2.0373275  0.049283777   -2.7226793   0.68535181   418189 
 1021000   0.65697466   -2.7235552   -2.7235552   -2.0387472  0.054942176   -2.7235552   0.68480806   418189 
 1022000   0.65746047   -2.7243056   -2.7243056   -2.0389911   0.06147133   -2.7243056   0.68531445   418189 
 1023000   0.65640177   -2.7230371   -2.7230371   -2.0388262  0.048941202   -2.7230371    0.6842109   418189 
 1024000   0.65800307   -2.7247391   -2.7247391   -2.0388591   0.04721733   -2.7247391   0.68588004   418189 
 1025000   0.65607548   -2.7237863   -2.7237863   -2.0399155   0.05639629   -2.7237863   0.68387078   418189 
 1026000    0.6576269   -2.7256547   -2.7256547   -2.0401667  0.062822309   -2.7256547   0.68548793   418189 
 1027000   0.65791062   -2.7258697   -2.7258697    -2.040086  0.052708835   -2.7258697   0.68578367   418189 
 1028000   0.65716804   -2.7255704   -2.7255704   -2.0405607  0.049680425   -2.7255704   0.68500963   418189 
 1029000   0.65671518   -2.7258564   -2.7258564   -2.0413188  0.061631707   -2.7258564   0.68453758   418189 
 1030000   0.65637092    -2.725601    -2.725601   -2.0414223  0.069931102    -2.725601   0.68417874   418189 
 1031000    0.6563375   -2.7252516   -2.7252516   -2.0411077  0.073100926   -2.7252516    0.6841439   418189 
 1032000   0.65801474   -2.7276379   -2.7276379   -2.0417457  0.064208856   -2.7276379    0.6858922   418189 
 1033000    0.6564777   -2.7270655   -2.7270655   -2.0427754  0.064837471   -2.7270655   0.68429004   418189 
 1034000   0.65801234   -2.7286347   -2.7286347    -2.042745  0.064884669   -2.7286347   0.68588969   418189 
 1035000   0.65718448    -2.727519    -2.727519   -2.0424923  0.060428899    -2.727519   0.68502677   418189 
 1036000   0.65595437    -2.726543    -2.726543   -2.0427984  0.054846397    -2.726543   0.68374454   418189 
 1037000   0.65578992   -2.7265717   -2.7265717   -2.0429985  0.069479992   -2.7265717   0.68357312   418189 
 1038000   0.65581249   -2.7271754   -2.7271754   -2.0435787  0.066405675   -2.7271754   0.68359665   418189 
 1039000   0.65579521   -2.7273176   -2.7273176    -2.043739  0.062565453   -2.7273176   0.68357864   418189 
 1040000   0.65604751   -2.7282126   -2.7282126    -2.044371  0.061759639   -2.7282126   0.68384163   418189 
 1041000   0.65781377   -2.7301403   -2.7301403   -2.0444576  0.063164327   -2.7301403   0.68568271   418189 
 1042000   0.65574616   -2.7285662   -2.7285662   -2.0450387  0.070754805   -2.7285662   0.68352751   418189 
 1043000   0.65608052   -2.7286168   -2.7286168   -2.0447407   0.06755771   -2.7286168   0.68387603   418189 
 1044000   0.65701708   -2.7305913   -2.7305913    -2.045739  0.061713866   -2.7305913   0.68485227   418189 
 1045000   0.65545485   -2.7292541   -2.7292541   -2.0460302  0.053670914   -2.7292541   0.68322386   418189 
 1046000   0.65542142   -2.7294652   -2.7294652   -2.0462762  0.054745136   -2.7294652   0.68318901   418189 
 1047000   0.65551105   -2.7300232   -2.7300232   -2.0467407  0.069333262   -2.7300232   0.68328244   418189 
 1048000   0.65547594    -2.730288    -2.730288   -2.0470421  0.056634982    -2.730288   0.68324584   418189 
 1049000    0.6555317   -2.7303981   -2.7303981   -2.0470941  0.051556226   -2.7303981   0.68330396   418189 
 1050000   0.65565749   -2.7298766   -2.7298766   -2.0464415  0.053086464   -2.7298766   0.68343509   418189 
 1051000   0.65512917   -2.7298339   -2.7298339   -2.0469495  0.061930129   -2.7298339   0.68288438   418189 
 1052000   0.65468054   -2.7297927   -2.7297927   -2.0473759  0.051671855   -2.7297927   0.68241675   418189 
 1053000   0.65602749    -2.731052    -2.731052   -2.0472313  0.059100408    -2.731052   0.68382075   418189 
 1054000   0.65452686   -2.7297418   -2.7297418   -2.0474853  0.072929431   -2.7297418   0.68225656   418189 
 1055000   0.65500808   -2.7308879   -2.7308879   -2.0481298  0.059432183   -2.7308879   0.68275816   418189 
 1056000   0.65465128   -2.7309992   -2.7309992    -2.048613   0.06759672   -2.7309992   0.68238625   418189 
 1057000   0.65312679   -2.7296064   -2.7296064   -2.0488092  0.053901132   -2.7296064   0.68079717   418189 
 1058000   0.65474923   -2.7309457   -2.7309457   -2.0484574  0.058777122   -2.7309457   0.68248834   418189 
 1059000   0.65382889   -2.7315932   -2.7315932   -2.0500641  0.056748745   -2.7315932   0.68152901   418189 
 1060000   0.65364194   -2.7314929   -2.7314929   -2.0501587  0.052962387   -2.7314929   0.68133415   418189 
 1061000   0.65379117   -2.7305034   -2.7305034   -2.0490138  0.048404472   -2.7305034   0.68148969   418189 
 1062000   0.65531232   -2.7325936   -2.7325936   -2.0495183    0.0605113   -2.7325936   0.68307529   418189 
 1063000    0.6554638   -2.7328082   -2.7328082    -2.049575  0.041581542   -2.7328082   0.68323319   418189 
 1064000   0.65440625   -2.7320655   -2.7320655   -2.0499346   0.05959889   -2.7320655   0.68213084   418189 
 1065000   0.65434792   -2.7322588   -2.7322588   -2.0501888  0.057890815   -2.7322588   0.68207003   418189 
 1066000   0.65373771   -2.7324556   -2.7324556   -2.0510216  0.072470417   -2.7324556   0.68143397   418189 
 1067000   0.65441433    -2.733486    -2.733486   -2.0513467  0.040739722    -2.733486   0.68213926   418189 
 1068000   0.65408472   -2.7329779   -2.7329779   -2.0511823  0.066252702   -2.7329779   0.68179568   418189 
 1069000   0.65465144   -2.7333286   -2.7333286   -2.0509422  0.043880982   -2.7333286   0.68238641   418189 
 1070000   0.65204202   -2.7308079   -2.7308079   -2.0511415  0.063346445   -2.7308079   0.67966644   418189 
 1071000   0.65529881   -2.7348749   -2.7348749   -2.0518137  0.041671592   -2.7348749   0.68306121   418189 
 1072000   0.65466331   -2.7341522   -2.7341522   -2.0517534  0.065195582   -2.7341522   0.68239878   418189 
 1073000   0.65424058    -2.734155    -2.734155   -2.0521968  0.060821489    -2.734155   0.68195815   418189 
 1074000   0.65375191   -2.7348297   -2.7348297   -2.0533809  0.061751473   -2.7348297   0.68144877   418189 
 1075000   0.65443826   -2.7355696   -2.7355696   -2.0534054  0.059275924   -2.7355696    0.6821642   418189 
 1076000   0.65497229   -2.7360886   -2.7360886   -2.0533678  0.053406507   -2.7360886   0.68272085   418189 
 1077000    0.6546944     -2.73644     -2.73644   -2.0540088   0.05189928     -2.73644   0.68243119   418189 
 1078000   0.65427307   -2.7361923   -2.7361923   -2.0542003  0.061998272   -2.7361923   0.68199201   418189 
 1079000   0.65349763    -2.734759    -2.734759   -2.0535753  0.056698094    -2.734759   0.68118371   418189 
 1080000   0.65306773    -2.734941    -2.734941   -2.0542054  0.060426783    -2.734941    0.6807356   418189 
 1081000   0.65397647   -2.7358393   -2.7358393   -2.0541564  0.057720121   -2.7358393   0.68168285   418189 
 1082000   0.65360467   -2.7360272   -2.7360272   -2.0547319  0.054999635   -2.7360272   0.68129529   418189 
 1083000   0.65400548    -2.736507    -2.736507   -2.0547939  0.069782543    -2.736507   0.68171309   418189 
 1084000   0.65401133   -2.7372672   -2.7372672    -2.055548  0.067608381   -2.7372672   0.68171918   418189 
 1085000   0.65393443   -2.7370498   -2.7370498   -2.0554108  0.056748329   -2.7370498   0.68163902   418189 
 1086000   0.65251096   -2.7358955   -2.7358955   -2.0557402  0.059585444   -2.7358955   0.68015525   418189 
 1087000   0.65302402   -2.7363935   -2.7363935   -2.0557034  0.047761641   -2.7363935   0.68069005   418189 
 1088000   0.65219361   -2.7355233   -2.7355233   -2.0556988  0.051667303   -2.7355233   0.67982445   418189 
 1089000   0.65262975   -2.7361293   -2.7361293   -2.0558502  0.054039821   -2.7361293   0.68027907   418189 
 1090000   0.65341439   -2.7370829   -2.7370829    -2.055986  0.049439824   -2.7370829   0.68109696   418189 
 1091000     0.653639   -2.7374852   -2.7374852   -2.0561541  0.054744314   -2.7374852   0.68133108   418189 
 1092000   0.65194565   -2.7366989   -2.7366989   -2.0571329  0.054290349   -2.7366989   0.67956598   418189 
 1093000   0.65266262   -2.7376528   -2.7376528   -2.0573395  0.055535724   -2.7376528   0.68031333   418189 
 1094000   0.65279665   -2.7382823   -2.7382823   -2.0578292  0.052011827   -2.7382823   0.68045304   418189 
 1095000   0.65227124   -2.7392228   -2.7392228   -2.0593174  0.064866595   -2.7392228   0.67990538   418189 
 1096000   0.65276704   -2.7399143   -2.7399143   -2.0594922  0.053053662   -2.7399143   0.68042217   418189 
 1097000   0.65228355   -2.7395098   -2.7395098   -2.0595916   0.04349184   -2.7395098    0.6799182   418189 
 1098000   0.65257608   -2.7395823   -2.7395823   -2.0593592  0.062566913   -2.7395823   0.68022313   418189 
 1099000   0.65174463    -2.738396    -2.738396   -2.0590395  0.050267543    -2.738396   0.67935645   418189 
 1100000    0.6535595   -2.7400509   -2.7400509   -2.0588027  0.048378103   -2.7400509   0.68124821   418189 
 1101000   0.65217867   -2.7389981   -2.7389981   -2.0591892  0.056172002   -2.7389981   0.67980888   418189 
 1102000   0.65100851   -2.7378432   -2.7378432   -2.0592541  0.055522085   -2.7378432   0.67858914   418189 
 1103000   0.65149061   -2.7389215   -2.7389215   -2.0598298  0.062276207   -2.7389215   0.67909167   418189 
 1104000   0.65178891   -2.7392043   -2.7392043   -2.0598017  0.052468732   -2.7392043   0.67940261   418189 
 1105000   0.65194586   -2.7396776   -2.7396776   -2.0601114  0.066233944   -2.7396776    0.6795662   418189 
 1106000   0.65138119   -2.7394314   -2.7394314   -2.0604538  0.050180445   -2.7394314   0.67897761   418189 
 1107000   0.65141175   -2.7394744   -2.7394744   -2.0604649  0.050434871   -2.7394744   0.67900946   418189 
 1108000   0.65122617   -2.7398065   -2.7398065   -2.0609905  0.056780333   -2.7398065   0.67881602   418189 
 1109000   0.65276118   -2.7417191   -2.7417191    -2.061303  0.049413372   -2.7417191   0.68041606   418189 
 1110000   0.65250812   -2.7417737   -2.7417737   -2.0616214  0.063173525   -2.7417737   0.68015228   418189 
 1111000   0.65345561    -2.742047    -2.742047   -2.0609071  0.055815096    -2.742047   0.68113991   418189 
 1112000   0.65259619   -2.7417751   -2.7417751    -2.061531  0.057087512   -2.7417751   0.68024409   418189 
 1113000     0.651631   -2.7410482   -2.7410482   -2.0618102  0.056018279   -2.7410482   0.67923801   418189 
 1114000   0.65191468   -2.7424765   -2.7424765   -2.0629428  0.069812725   -2.7424765   0.67953371   418189 
 1115000   0.65153079   -2.7420479   -2.7420479   -2.0629144  0.060604902   -2.7420479   0.67913355   418189 
 1116000   0.65141906   -2.7418516   -2.7418516   -2.0628345  0.053621537   -2.7418516   0.67901709   418189 
 1117000   0.64996911   -2.7405875   -2.7405875   -2.0630817  0.077951819   -2.7405875   0.67750571   418189 
 1118000   0.65122858   -2.7416492   -2.7416492   -2.0628306  0.058735015   -2.7416492   0.67881854   418189 
 1119000   0.65171375   -2.7430262   -2.7430262    -2.063702  0.057147567   -2.7430262   0.67932427   418189 
 1120000   0.64953873   -2.7406397   -2.7406397   -2.0635826  0.042814982   -2.7406397    0.6770571   418189 
 1121000   0.65116565   -2.7417121   -2.7417121   -2.0629591  0.056025935   -2.7417121   0.67875294   418189 
 1122000   0.65047357    -2.741419    -2.741419   -2.0633874  0.062218965    -2.741419   0.67803154   418189 
 1123000   0.65080693   -2.7415991   -2.7415991   -2.0632201  0.050700106   -2.7415991   0.67837902   418189 
 1124000   0.65136578   -2.7421993   -2.7421993   -2.0632378   0.05526408   -2.7421993   0.67896155   418189 
 1125000   0.65177525   -2.7426152   -2.7426152   -2.0632268  0.055255384   -2.7426152   0.67938837   418189 
 1126000   0.65056998   -2.7421227   -2.7421227   -2.0639907  0.056663179   -2.7421227   0.67813204   418189 
 1127000   0.65035596   -2.7429712   -2.7429712   -2.0650622  0.068942186   -2.7429712   0.67790894   418189 
 1128000   0.65095444   -2.7440917   -2.7440917   -2.0655589  0.054639299   -2.7440917   0.67853278   418189 
 1129000   0.65169431   -2.7447367   -2.7447367   -2.0654327  0.051092837   -2.7447367   0.67930399   418189 
 1130000   0.65024973   -2.7442514   -2.7442514   -2.0664532  0.056456572   -2.7442514   0.67779822   418189 
 1131000   0.65020006   -2.7440009   -2.7440009   -2.0662545  0.052881401   -2.7440009   0.67774644   418189 
 1132000    0.6504841   -2.7440745   -2.7440745    -2.066032  0.041792465   -2.7440745   0.67804252   418189 
 1133000   0.65211893   -2.7448845   -2.7448845   -2.0651379  0.062274945   -2.7448845   0.67974661   418189 
 1134000   0.64910946   -2.7424729   -2.7424729   -2.0658632  0.055887343   -2.7424729   0.67660963   418189 
 1135000   0.65155899   -2.7449922   -2.7449922   -2.0658292  0.046249666   -2.7449922   0.67916294   418189 
 1136000   0.64954384   -2.7427448   -2.7427448   -2.0656824  0.048709721   -2.7427448   0.67706242   418189 
 1137000    0.6507289   -2.7451611   -2.7451611   -2.0668634  0.048802298   -2.7451611   0.67829769   418189 
 1138000   0.64986268    -2.744363    -2.744363   -2.0669683  0.055834757    -2.744363   0.67739476   418189 
 1139000   0.64929046   -2.7439331   -2.7439331   -2.0671348  0.057381434   -2.7439331    0.6767983   418189 
 1140000   0.64942143   -2.7451108   -2.7451108   -2.0681759  0.055426984   -2.7451108   0.67693482   418189 
 1141000   0.65008204   -2.7454593   -2.7454593   -2.0678359  0.051601811   -2.7454593   0.67762342   418189 
 1142000   0.65048555   -2.7466723   -2.7466723   -2.0686283  0.054895293   -2.7466723   0.67804403   418189 
 1143000   0.64943992   -2.7452739   -2.7452739   -2.0683198  0.051105216   -2.7452739    0.6769541   418189 
 1144000   0.65081515   -2.7470802   -2.7470802   -2.0686926  0.049902712   -2.7470802   0.67838759   418189 
 1145000   0.64953146   -2.7462911   -2.7462911   -2.0692416  0.058762305   -2.7462911   0.67704952   418189 
 1146000   0.64901518   -2.7460868   -2.7460868   -2.0695755  0.058125812   -2.7460868   0.67651136   418189 
 1147000    0.6498319   -2.7476177   -2.7476177    -2.070255  0.045797762   -2.7476177   0.67736269   418189 
 1148000   0.64984692   -2.7470048   -2.7470048   -2.0696264   0.05973392   -2.7470048   0.67737834   418189 
 1149000   0.64970186   -2.7476774   -2.7476774   -2.0704503  0.042202083   -2.7476774   0.67722714   418189 
 1150000   0.64884721   -2.7460468   -2.7460468   -2.0697106  0.061630512   -2.7460468   0.67633627   418189 
 1151000   0.64972871   -2.7470816   -2.7470816   -2.0698264  0.058953612   -2.7470816   0.67725512   418189 
 1152000   0.64937509   -2.7470873   -2.7470873   -2.0702008  0.056920318   -2.7470873   0.67688652   418189 
 1153000   0.64904752   -2.7469768   -2.7469768   -2.0704317  0.056552403   -2.7469768   0.67654508   418189 
 1154000   0.64859038   -2.7462409   -2.7462409   -2.0701723  0.059782949   -2.7462409   0.67606857   418189 
 1155000   0.64887022   -2.7476471   -2.7476471   -2.0712868  0.072372157   -2.7476471   0.67636026   418189 
 1156000    0.6500043   -2.7489379   -2.7489379   -2.0713955  0.054522166   -2.7489379   0.67754239   418189 
 1157000   0.64820234   -2.7478634   -2.7478634   -2.0721993  0.054062524   -2.7478634   0.67566409   418189 
 1158000   0.64833126   -2.7477112   -2.7477112   -2.0719128  0.054707892   -2.7477112   0.67579847   418189 
 1159000   0.64999236   -2.7488901   -2.7488901   -2.0713602  0.065433676   -2.7488901   0.67752995   418189 
 1160000   0.64876699   -2.7480665   -2.7480665   -2.0718138  0.057992509   -2.7480665   0.67625266   418189 
 1161000   0.64856832   -2.7479344   -2.7479344   -2.0718888  0.060715241   -2.7479344   0.67604557   418189 
 1162000   0.64796609   -2.7478689   -2.7478689   -2.0724511   0.04999842   -2.7478689   0.67541782   418189 
 1163000   0.64898267   -2.7483763   -2.7483763   -2.0718988  0.045580286   -2.7483763   0.67647748   418189 
 1164000   0.64930134   -2.7502271   -2.7502271   -2.0734175  0.056990478   -2.7502271   0.67680965   418189 
 1165000   0.64856373   -2.7496199   -2.7496199   -2.0735791  0.039547391   -2.7496199   0.67604079   418189 
 1166000   0.64888923   -2.7495948   -2.7495948   -2.0732147  0.054264929   -2.7495948   0.67638008   418189 
 1167000   0.64847506   -2.7498383   -2.7498383   -2.0738899  0.054978008   -2.7498383   0.67594837   418189 
 1168000   0.64848896   -2.7506526   -2.7506526   -2.0746898  0.064386819   -2.7506526   0.67596285   418189 
 1169000   0.64888096   -2.7516393   -2.7516393   -2.0752679    0.0546852   -2.7516393   0.67637145   418189 
 1170000   0.65062971    -2.752786    -2.752786   -2.0745917  0.038386414    -2.752786   0.67819429   418189 
 1171000   0.64850195   -2.7514654   -2.7514654    -2.075489  0.047279014   -2.7514654   0.67597639   418189 
 1172000   0.64790185   -2.7503663   -2.7503663   -2.0750154   0.05622744   -2.7503663   0.67535087   418189 
 1173000   0.64880368   -2.7520388   -2.7520388   -2.0757479  0.050064139   -2.7520388    0.6762909   418189 
 1174000   0.64907282   -2.7529946   -2.7529946   -2.0764231  0.064044247   -2.7529946   0.67657145   418189 
 1175000   0.64771307   -2.7514266   -2.7514266   -2.0762725  0.043812791   -2.7514266   0.67515409   418189 
 1176000   0.64804892    -2.751106    -2.751106   -2.0756018  0.059550527    -2.751106   0.67550417   418189 
 1177000   0.64768851   -2.7509743   -2.7509743   -2.0758458   0.04818113   -2.7509743   0.67512849   418189 
 1178000   0.64847486   -2.7514507   -2.7514507   -2.0755025  0.050513806   -2.7514507   0.67594816   418189 
 1179000   0.64782895   -2.7513172   -2.7513172   -2.0760423  0.049214669   -2.7513172   0.67527488   418189 
 1180000   0.64851935   -2.7522227   -2.7522227   -2.0762281  0.062623533   -2.7522227   0.67599453   418189 
 1181000   0.64869142   -2.7524547   -2.7524547   -2.0762808  0.062141453   -2.7524547   0.67617389   418189 
 1182000   0.64784258   -2.7516097   -2.7516097   -2.0763207  0.053508716   -2.7516097   0.67528909   418189 
 1183000   0.64639221    -2.751089    -2.751089   -2.0773117  0.061324598    -2.751089   0.67377727   418189 
 1184000   0.64575747   -2.7499211   -2.7499211   -2.0768054  0.044598385   -2.7499211   0.67311564   418189 
 1185000   0.64756351   -2.7521384   -2.7521384   -2.0771402  0.060862032   -2.7521384   0.67499819   418189 
 1186000   0.64726756   -2.7516451   -2.7516451   -2.0769554  0.041170542   -2.7516451   0.67468971   418189 
 1187000   0.64835277    -2.752212    -2.752212   -2.0763911   0.05105218    -2.752212   0.67582089   418189 
 1188000   0.64716109   -2.7515363   -2.7515363   -2.0769576   0.04644472   -2.7515363   0.67457873   418189 
 1189000   0.64717776   -2.7517457   -2.7517457   -2.0771496  0.038221217   -2.7517457    0.6745961   418189 
 1190000   0.64779314   -2.7527055   -2.7527055   -2.0774679  0.064673218   -2.7527055   0.67523755   418189 
 1191000   0.64591378   -2.7512963   -2.7512963   -2.0780177  0.057001723   -2.7512963   0.67327857   418189 
 1192000   0.64718588   -2.7522403   -2.7522403   -2.0776357  0.052478313   -2.7522403   0.67460457   418189 
 1193000   0.64718011   -2.7523928   -2.7523928   -2.0777943  0.047343296   -2.7523928   0.67459855   418189 
 1194000   0.64744217   -2.7518896   -2.7518896   -2.0770179  0.041449589   -2.7518896   0.67487172   418189 
 1195000   0.64805103   -2.7530644   -2.7530644   -2.0775581  0.049586366   -2.7530644   0.67550636   418189 
 1196000   0.64752692   -2.7531702   -2.7531702   -2.0782102  0.062700095   -2.7531702   0.67496006   418189 
 1197000   0.64980988   -2.7544872   -2.7544872   -2.0771475   0.04547373   -2.7544872   0.67733973   418189 
 1198000   0.64837868   -2.7538909   -2.7538909    -2.078043  0.059253521   -2.7538909    0.6758479   418189 
 1199000   0.64739756   -2.7533369   -2.7533369   -2.0785117  0.058845374   -2.7533369   0.67482522   418189 
 1200000   0.64804002   -2.7543244   -2.7543244   -2.0788295  0.058068785   -2.7543244   0.67549489   418189 
 1201000   0.64557526   -2.7520966   -2.7520966   -2.0791709  0.054378705   -2.7520966   0.67292571   418189 
 1202000   0.64785553   -2.7551352   -2.7551352   -2.0798326  0.054299079   -2.7551352   0.67530259   418189 
 1203000   0.64742428   -2.7540455   -2.7540455   -2.0791925  0.052564428   -2.7540455   0.67485307   418189 
 1204000   0.64843743   -2.7559623   -2.7559623   -2.0800532  0.068813785   -2.7559623   0.67590914   418189 
 1205000   0.64704487   -2.7550042   -2.7550042   -2.0805466  0.050418091   -2.7550042   0.67445758   418189 
 1206000   0.64737603   -2.7555936   -2.7555936   -2.0807909  0.058031839   -2.7555936   0.67480277   418189 
 1207000   0.64664944   -2.7552046   -2.7552046   -2.0811592  0.060935279   -2.7552046    0.6740454   418189 
 1208000   0.64719776   -2.7555577   -2.7555577   -2.0809408  0.057725366   -2.7555577   0.67461695   418189 
 1209000   0.64763985   -2.7565801   -2.7565801   -2.0815023  0.062529094   -2.7565801   0.67507777   418189 
 1210000   0.64673487   -2.7571852   -2.7571852   -2.0830507   0.05786251   -2.7571852   0.67413445   418189 
 1211000   0.64723171   -2.7585032   -2.7585032   -2.0838508  0.061213347   -2.7585032   0.67465234   418189 
 1212000   0.64480491   -2.7563564   -2.7563564   -2.0842337  0.054952556   -2.7563564   0.67212273   418189 
 1213000    0.6457184   -2.7578112   -2.7578112   -2.0847363   0.05180924   -2.7578112   0.67307492   418189 
 1214000   0.64612945   -2.7585831   -2.7585831   -2.0850798  0.054759541   -2.7585831   0.67350338   418189 
 1215000   0.64456735   -2.7571465   -2.7571465   -2.0852714  0.049560156   -2.7571465    0.6718751   418189 
 1216000   0.64610398   -2.7581011   -2.7581011   -2.0846243  0.056343263   -2.7581011   0.67347682   418189 
 1217000   0.64522965   -2.7573709   -2.7573709   -2.0848054  0.069451128   -2.7573709   0.67256546   418189 
 1218000   0.64591304   -2.7584977   -2.7584977   -2.0852199  0.054633377   -2.7584977   0.67327779   418189 
 1219000   0.64631435   -2.7584933   -2.7584933   -2.0847972   0.05734228   -2.7584933   0.67369611   418189 
 1220000    0.6460783   -2.7581633   -2.7581633   -2.0847132  0.062088657   -2.7581633   0.67345006   418189 
 1221000   0.64446753   -2.7567512   -2.7567512   -2.0849801  0.049941234   -2.7567512   0.67177104   418189 
 1222000   0.64464256   -2.7569798   -2.7569798   -2.0850263  0.055204871   -2.7569798   0.67195349   418189 
 1223000   0.64533472   -2.7577236   -2.7577236   -2.0850486  0.030928141   -2.7577236   0.67267498   418189 
 1224000    0.6448455   -2.7564869   -2.7564869   -2.0843218  0.054369138   -2.7564869   0.67216503   418189 
 1225000   0.64582086   -2.7575156   -2.7575156   -2.0843339  0.047655733   -2.7575156   0.67318172   418189 
 1226000   0.64589543    -2.758235    -2.758235   -2.0849755  0.046894223    -2.758235   0.67325944   418189 
 1227000   0.64586989   -2.7588532   -2.7588532   -2.0856204   0.05458173   -2.7588532   0.67323283   418189 
 1228000   0.64682963   -2.7598526   -2.7598526   -2.0856194  0.057480812   -2.7598526   0.67423322   418189 
 1229000   0.64550389   -2.7589073   -2.7589073    -2.086056  0.051282538   -2.7589073   0.67285131   418189 
 1230000   0.64603536   -2.7602749   -2.7602749   -2.0868696  0.053297198   -2.7602749    0.6734053   418189 
 1231000   0.64542936   -2.7597575   -2.7597575   -2.0869839  0.062286765   -2.7597575   0.67277363   418189 
 1232000   0.64486781   -2.7595984   -2.7595984   -2.0874101  0.051578859   -2.7595984   0.67218829   418189 
 1233000   0.64556276   -2.7610192   -2.7610192   -2.0881065  0.047969223   -2.7610192   0.67291268   418189 
 1234000   0.64529757    -2.759134    -2.759134   -2.0864977  0.062590567    -2.759134   0.67263626   418189 
 1235000   0.64608375   -2.7604209   -2.7604209   -2.0869651  0.048108768   -2.7604209   0.67345575   418189 
 1236000    0.6452635   -2.7602972   -2.7602972   -2.0876964  0.054270378   -2.7602972   0.67260074   418189 
 1237000   0.64639979   -2.7608333   -2.7608333   -2.0870481  0.052999524   -2.7608333   0.67378517   418189 
 1238000   0.64609492   -2.7603119   -2.7603119   -2.0868446  0.042513959   -2.7603119   0.67346739   418189 
 1239000   0.64528259   -2.7595279   -2.7595279   -2.0869072  0.055714118   -2.7595279   0.67262064   418189 
 1240000   0.64496268   -2.7600086   -2.7600086   -2.0877214   0.05120402   -2.7600086   0.67228718   418189 
 1241000   0.64535461   -2.7606462   -2.7606462   -2.0879505   0.06025858   -2.7606462   0.67269571   418189 
 1242000   0.64534493   -2.7613994   -2.7613994   -2.0887138  0.034183138   -2.7613994   0.67268562   418189 
 1243000   0.64557517   -2.7611692   -2.7611692   -2.0882436  0.054109851   -2.7611692   0.67292561   418189 
 1244000   0.64508277   -2.7616977   -2.7616977   -2.0892854  0.060253241   -2.7616977   0.67241235   418189 
 1245000    0.6445949   -2.7617896   -2.7617896   -2.0898858  0.056864145   -2.7617896   0.67190382   418189 
 1246000   0.64478453   -2.7617412   -2.7617412   -2.0896397  0.045770002   -2.7617412   0.67210148   418189 
 1247000   0.64565629   -2.7624049   -2.7624049   -2.0893947  0.074452382   -2.7624049   0.67301017   418189 
 1248000   0.64497247   -2.7623031   -2.7623031   -2.0900057   0.04224958   -2.7623031   0.67229738   418189 
 1249000   0.64645595   -2.7639768   -2.7639768   -2.0901331  0.054218428   -2.7639768   0.67384371   418189 
 1250000   0.64416215   -2.7622389   -2.7622389   -2.0907862  0.049992272   -2.7622389   0.67145273   418189 
 1251000   0.64407088   -2.7630934   -2.7630934   -2.0917358  0.049178486   -2.7630934   0.67135759   418189 
 1252000   0.64455039   -2.7632962   -2.7632962   -2.0914388  0.055345902   -2.7632962   0.67185742   418189 
 1253000   0.64366941   -2.7619241   -2.7619241    -2.090985  0.048751316   -2.7619241   0.67093911   418189 
 1254000   0.64417266   -2.7624578   -2.7624578   -2.0909941  0.057139875   -2.7624578   0.67146369   418189 
 1255000   0.64364984    -2.761705    -2.761705   -2.0907863  0.055044753    -2.761705   0.67091871   418189 
 1256000   0.64503127   -2.7627553   -2.7627553   -2.0903966  0.047139523   -2.7627553   0.67235867   418189 
 1257000   0.64387709   -2.7622883   -2.7622883   -2.0911327  0.039118634   -2.7622883   0.67115559   418189 
 1258000   0.64261119   -2.7615901   -2.7615901    -2.091754  0.056756732   -2.7615901   0.66983606   418189 
 1259000   0.64460004   -2.7633383   -2.7633383   -2.0914291  0.056531938   -2.7633383   0.67190917   418189 
 1260000   0.64418472   -2.7627192   -2.7627192    -2.091243  0.051157664   -2.7627192   0.67147625   418189 
 1261000   0.64270887   -2.7621669   -2.7621669    -2.092229  0.054888591   -2.7621669   0.66993788   418189 
 1262000   0.64332958   -2.7627437   -2.7627437   -2.0921588  0.056525081   -2.7627437   0.67058489   418189 
 1263000   0.64501394   -2.7644416   -2.7644416    -2.092101  0.054100066   -2.7644416    0.6723406   418189 
 1264000   0.64402847   -2.7640993   -2.7640993   -2.0927859   0.04400227   -2.7640993   0.67131339   418189 
 1265000   0.64366687   -2.7649085   -2.7649085    -2.093972  0.059677136   -2.7649085   0.67093647   418189 
 1266000   0.64293374    -2.764076    -2.764076   -2.0939037  0.041550284    -2.764076   0.67017228   418189 
 1267000   0.64346595   -2.7648244   -2.7648244   -2.0940974  0.054384745   -2.7648244   0.67072703   418189 
 1268000   0.64274892    -2.764446    -2.764446   -2.0944663  0.048261939    -2.764446   0.66997963   418189 
 1269000   0.64343673   -2.7650649   -2.7650649   -2.0943683  0.058891456   -2.7650649   0.67069658   418189 
 1270000   0.64413009   -2.7665434   -2.7665434   -2.0951241  0.040879932   -2.7665434   0.67141931   418189 
 1271000     0.643078   -2.7650647   -2.7650647   -2.0947421  0.050214569   -2.7650647   0.67032265   418189 
 1272000   0.64331108   -2.7656836   -2.7656836    -2.095118  0.038343544   -2.7656836    0.6705656   418189 
 1273000   0.64393143   -2.7660247   -2.7660247   -2.0948125  0.053515434   -2.7660247   0.67121224   418189 
 1274000   0.64497485    -2.767633    -2.767633   -2.0953331  0.043819022    -2.767633   0.67229986   418189 
 1275000    0.6443901    -2.767186    -2.767186   -2.0954957  0.045861744    -2.767186   0.67169034   418189 
 1276000   0.64303647   -2.7661019   -2.7661019   -2.0958225  0.046886509   -2.7661019   0.67027937   418189 
 1277000   0.64310408   -2.7667281   -2.7667281   -2.0963782  0.045304223   -2.7667281   0.67034983   418189 
 1278000   0.64348741    -2.767256    -2.767256   -2.0965066  0.052959278    -2.767256    0.6707494   418189 
 1279000   0.64373364   -2.7669054   -2.7669054   -2.0958993  0.048609864   -2.7669054   0.67100606   418189 
 1280000   0.64471967   -2.7681801   -2.7681801   -2.0961462  0.062206114   -2.7681801   0.67203387   418189 
 1281000   0.64356636   -2.7683525   -2.7683525   -2.0975208  0.045744178   -2.7683525    0.6708317   418189 
 1282000   0.64403562   -2.7684529   -2.7684529   -2.0971321  0.056059373   -2.7684529   0.67132084   418189 
 1283000   0.64420905   -2.7690413   -2.7690413   -2.0975397  0.044432501   -2.7690413   0.67150162   418189 
 1284000   0.64342906   -2.7683892   -2.7683892   -2.0977006  0.049831838   -2.7683892   0.67068858   418189 
 1285000   0.64178255    -2.766901    -2.766901   -2.0979287  0.050753321    -2.766901   0.66897232   418189 
 1286000   0.64219746   -2.7665985   -2.7665985   -2.0971936  0.053089306   -2.7665985   0.66940481   418189 
 1287000   0.64209406   -2.7668793   -2.7668793   -2.0975823  0.048983343   -2.7668793   0.66929702   418189 
 1288000   0.64272408   -2.7672082   -2.7672082   -2.0972545  0.034890349   -2.7672082   0.66995373   418189 
 1289000   0.64254014   -2.7681376   -2.7681376   -2.0983756  0.044420191   -2.7681376     0.669762   418189 
 1290000    0.6424465   -2.7674486   -2.7674486   -2.0977842  0.050176609   -2.7674486   0.66966439   418189 
 1291000   0.64110698   -2.7658006   -2.7658006   -2.0975325   0.05640378   -2.7658006   0.66826812   418189 
 1292000   0.64216167   -2.7676494   -2.7676494   -2.0982819  0.050199241   -2.7676494    0.6693675   418189 
 1293000   0.64260556    -2.767413    -2.767413   -2.0975828  0.034899227    -2.767413    0.6698302   418189 
 1294000   0.64379996   -2.7685293   -2.7685293   -2.0974541  0.041193594   -2.7685293    0.6710752   418189 
 1295000    0.6437328   -2.7688847   -2.7688847   -2.0978795  0.050308772   -2.7688847   0.67100519   418189 
 1296000   0.64274718   -2.7682779   -2.7682779   -2.0983001  0.039449957   -2.7682779   0.66997781   418189 
 1297000   0.64300866    -2.767954    -2.767954   -2.0977036  0.066008075    -2.767954   0.67025037   418189 
 1298000   0.64408491   -2.7697798   -2.7697798   -2.0984076  0.062907598   -2.7697798   0.67137222   418189 
 1299000   0.64430845    -2.769787    -2.769787   -2.0981818  0.053814627    -2.769787   0.67160523   418189 
 1300000    0.6421066   -2.7677647   -2.7677647   -2.0984546   0.04142402   -2.7677647    0.6693101   418189 
 1301000     0.644597   -2.7713713   -2.7713713   -2.0994653  0.043252612   -2.7713713   0.67190601   418189 
 1302000   0.64269073   -2.7698623   -2.7698623   -2.0999434  0.066223195   -2.7698623   0.66991897   418189 
 1303000   0.64269598   -2.7698864   -2.7698864    -2.099962   0.04023097   -2.7698864   0.66992444   418189 
 1304000    0.6440942   -2.7715897   -2.7715897   -2.1002078  0.054064189   -2.7715897    0.6713819   418189 
 1305000   0.64190698   -2.7702716   -2.7702716   -2.1011696  0.045978381   -2.7702716   0.66910202   418189 
 1306000   0.64159458   -2.7702716   -2.7702716   -2.1014952  0.058824145   -2.7702716   0.66877639   418189 
 1307000   0.64219556   -2.7709864   -2.7709864   -2.1015836  0.041461575   -2.7709864   0.66940283   418189 
 1308000   0.64004643   -2.7693214   -2.7693214   -2.1021588  0.049214667   -2.7693214   0.66716265   418189 
 1309000   0.64067688   -2.7710005   -2.7710005   -2.1031807  0.050228285   -2.7710005   0.66781981   418189 
 1310000   0.64066031   -2.7712269   -2.7712269   -2.1034244  0.049071197   -2.7712269   0.66780253   418189 
 1311000   0.64147243   -2.7717996   -2.7717996   -2.1031506  0.048439718   -2.7717996   0.66864906   418189 
 1312000   0.64090881   -2.7712343   -2.7712343   -2.1031727  0.042463873   -2.7712343   0.66806156   418189 
 1313000   0.64300845   -2.7728986   -2.7728986   -2.1026484  0.046238722   -2.7728986   0.67025015   418189 
 1314000   0.64093527    -2.770612    -2.770612   -2.1025229  0.054010025    -2.770612   0.66808914   418189 
 1315000    0.6418042   -2.7717174   -2.7717174   -2.1027226  0.059272186   -2.7717174   0.66899488   418189 
 1316000   0.64286095   -2.7730549   -2.7730549   -2.1029585  0.054396531   -2.7730549   0.67009641   418189 
 1317000   0.64226254    -2.772501    -2.772501   -2.1030283  0.032426401    -2.772501   0.66947265   418189 
 1318000    0.6404276   -2.7697859   -2.7697859   -2.1022259  0.056759159   -2.7697859   0.66755996   418189 
 1319000   0.64311766   -2.7729603   -2.7729603   -2.1025963  0.052386123   -2.7729603   0.67036399   418189 
 1320000   0.64152056   -2.7710231   -2.7710231   -2.1023239  0.050267514   -2.7710231   0.66869923   418189 
 1321000   0.64071485    -2.770843    -2.770843   -2.1029837  0.053985963    -2.770843   0.66785938   418189 
 1322000   0.64149933   -2.7723687   -2.7723687   -2.1036916   0.05633124   -2.7723687   0.66867709   418189 
 1323000   0.64019743   -2.7715636   -2.7715636   -2.1042435  0.033431649   -2.7715636   0.66732004   418189 
 1324000   0.63985896   -2.7716359   -2.7716359   -2.1046687  0.043723374   -2.7716359   0.66696723   418189 
 1325000   0.64082739   -2.7733473   -2.7733473   -2.1053706  0.045408752   -2.7733473   0.66797669   418189 
 1326000   0.64082126   -2.7731337   -2.7731337   -2.1051634  0.059979772   -2.7731337    0.6679703   418189 
 1327000   0.64262273   -2.7756664   -2.7756664   -2.1058183  0.068864101   -2.7756664   0.66984809   418189 
 1328000   0.64071116   -2.7738607   -2.7738607   -2.1060051  0.036718683   -2.7738607   0.66785554   418189 
 1329000   0.64141659   -2.7742397   -2.7742397   -2.1056489  0.061769513   -2.7742397   0.66859085   418189 
 1330000   0.64189412   -2.7750284   -2.7750284   -2.1059398  0.061126251   -2.7750284   0.66908862   418189 
 1331000   0.64087627    -2.774255    -2.774255   -2.1062274  0.065243035    -2.774255   0.66802765   418189 
 1332000   0.64100528   -2.7748162   -2.7748162   -2.1066541  0.048539687   -2.7748162   0.66816212   418189 
 1333000   0.64060212   -2.7750231   -2.7750231   -2.1072812    0.0530138   -2.7750231   0.66774188   418189 
 1334000   0.64099735   -2.7756689   -2.7756689   -2.1075151  0.053769816   -2.7756689   0.66815385   418189 
 1335000   0.64026645   -2.7749207   -2.7749207   -2.1075287   0.05685719   -2.7749207   0.66739198   418189 
 1336000    0.6407799   -2.7754421   -2.7754421    -2.107515  0.044072151   -2.7754421   0.66792719   418189 
 1337000   0.64176403   -2.7759081   -2.7759081    -2.106955  0.052929018   -2.7759081   0.66895301   418189 
 1338000   0.64035617   -2.7753221   -2.7753221   -2.1078366  0.061913784   -2.7753221   0.66748551   418189 
 1339000   0.64093635   -2.7759302   -2.7759302     -2.10784  0.050031749   -2.7759302   0.66809026   418189 
 1340000   0.64166637   -2.7767226   -2.7767226   -2.1078714  0.044888621   -2.7767226   0.66885122   418189 
 1341000   0.64204489   -2.7766885   -2.7766885   -2.1074427  0.057411379   -2.7766885   0.66924577   418189 
 1342000   0.64071562    -2.776531    -2.776531   -2.1086708  0.051495737    -2.776531   0.66786019   418189 
 1343000   0.64031936   -2.7759791   -2.7759791   -2.1085319  0.058863087   -2.7759791   0.66744714   418189 
 1344000    0.6412545   -2.7777655   -2.7777655   -2.1093436   0.04988484   -2.7777655   0.66842189   418189 
 1345000   0.64012533    -2.776751    -2.776751   -2.1095061   0.04630868    -2.776751   0.66724488   418189 
 1346000    0.6402831   -2.7768751   -2.7768751   -2.1094657  0.043898025   -2.7768751   0.66740934   418189 
 1347000   0.63993806   -2.7767845   -2.7767845   -2.1097349  0.046197346   -2.7767845   0.66704968   418189 
 1348000   0.64092986   -2.7779121   -2.7779121   -2.1098286  0.054830773   -2.7779121    0.6680835   418189 
 1349000   0.63923038   -2.7765055   -2.7765055   -2.1101935  0.056399008   -2.7765055   0.66631203   418189 
 1350000   0.63937058   -2.7771301   -2.7771301    -2.110672  0.065495889   -2.7771301   0.66645817   418189 
 1351000   0.63830539   -2.7770853   -2.7770853   -2.1117375   0.05327979   -2.7770853   0.66534784   418189 
 1352000   0.63834535   -2.7769118   -2.7769118   -2.1115223  0.061460111   -2.7769118    0.6653895   418189 
 1353000    0.6411334   -2.7793247   -2.7793247   -2.1110291  0.058618299   -2.7793247   0.66829567   418189 
 1354000   0.63877434   -2.7767573   -2.7767573   -2.1109206  0.046479328   -2.7767573   0.66583666   418189 
 1355000   0.63952039   -2.7783623   -2.7783623   -2.1117479  0.035080857   -2.7783623   0.66661432   418189 
 1356000   0.64033768   -2.7781751   -2.7781751   -2.1107089  0.048081409   -2.7781751   0.66746623   418189 
 1357000   0.63990155   -2.7784763   -2.7784763   -2.1114646  0.056121651   -2.7784763   0.66701163   418189 
 1358000   0.64107164   -2.7803623   -2.7803623    -2.112131  0.055737089   -2.7803623   0.66823129   418189 
 1359000   0.63933177   -2.7790442   -2.7790442   -2.1126265  0.060529396   -2.7790442    0.6664177   418189 
 1360000   0.64025725   -2.7801474   -2.7801474    -2.112765  0.053374177   -2.7801474    0.6673824   418189 
 1361000   0.63993445   -2.7798321   -2.7798321   -2.1127862  0.056233258   -2.7798321   0.66704592   418189 
 1362000   0.63977765   -2.7794749   -2.7794749   -2.1125924  0.031908341   -2.7794749   0.66688248   418189 
 1363000   0.63941129   -2.7791521   -2.7791521   -2.1126515  0.052255341   -2.7791521   0.66650059   418189 
 1364000   0.64002354   -2.7795357   -2.7795357   -2.1123969  0.063860463   -2.7795357   0.66713879   418189 
 1365000   0.63865559   -2.7782471   -2.7782471   -2.1125342  0.034946429   -2.7782471   0.66571288   418189 
 1366000   0.64046836   -2.7799306   -2.7799306   -2.1123282  0.050514057   -2.7799306   0.66760245   418189 
 1367000   0.63998039   -2.7790256   -2.7790256   -2.1119318  0.054056704   -2.7790256   0.66709381   418189 
 1368000   0.63990656    -2.780115    -2.780115   -2.1130981  0.053207936    -2.780115   0.66701685   418189 
 1369000   0.63997148   -2.7799221   -2.7799221   -2.1128376  0.055302538   -2.7799221   0.66708452   418189 
 1370000   0.64088326   -2.7815232   -2.7815232   -2.1134883  0.050677797   -2.7815232   0.66803492   418189 
 1371000   0.63863625   -2.7795364   -2.7795364   -2.1138437  0.049406108   -2.7795364   0.66569272   418189 
 1372000   0.63802902   -2.7786539   -2.7786539   -2.1135941  0.054600715   -2.7786539   0.66505976   418189 
 1373000   0.64069474   -2.7811696   -2.7811696   -2.1133312  0.046375174   -2.7811696   0.66783842   418189 
 1374000   0.63951814   -2.7804359   -2.7804359   -2.1138239  0.051012339   -2.7804359   0.66661197   418189 
 1375000   0.63940226   -2.7808402   -2.7808402    -2.114349  0.042219794   -2.7808402   0.66649118   418189 
 1376000   0.63983295   -2.7814063   -2.7814063   -2.1144662  0.054353188   -2.7814063   0.66694011   418189 
 1377000   0.63753221   -2.7793219   -2.7793219     -2.11478   0.05507009   -2.7793219   0.66454191   418189 
 1378000   0.63852627    -2.780105    -2.780105   -2.1145269  0.043393185    -2.780105   0.66557809   418189 
 1379000   0.63965209   -2.7812751   -2.7812751   -2.1145235  0.045502789   -2.7812751    0.6667516   418189 
 1380000     0.638854   -2.7799687   -2.7799687    -2.114049  0.053320349   -2.7799687    0.6659197   418189 
 1381000   0.63979543   -2.7809241   -2.7809241   -2.1140231  0.039072758   -2.7809241   0.66690101   418189 
 1382000   0.63784913   -2.7790992   -2.7790992   -2.1142269  0.053120624   -2.7790992   0.66487225   418189 
 1383000   0.63849585   -2.7797579   -2.7797579   -2.1142115   0.05158193   -2.7797579   0.66554637   418189 
 1384000   0.64000755   -2.7823646   -2.7823646   -2.1152425  0.045763109   -2.7823646   0.66712212   418189 
 1385000    0.6382207   -2.7804111   -2.7804111   -2.1151515  0.038945754   -2.7804111   0.66525956   418189 
 1386000   0.63917766   -2.7817306   -2.7817306   -2.1154735  0.040741627   -2.7817306   0.66625707   418189 
 1387000   0.63793874   -2.7800212   -2.7800212   -2.1150555  0.047888766   -2.7800212   0.66496566   418189 
 1388000   0.63820488   -2.7799343   -2.7799343   -2.1146912  0.046199269   -2.7799343   0.66524308   418189 
 1389000   0.63824238   -2.7798615   -2.7798615   -2.1145793  0.060441786   -2.7798615   0.66528216   418189 
 1390000   0.63934199    -2.780622    -2.780622   -2.1141937    0.0564192    -2.780622   0.66642836   418189 
 1391000    0.6388758   -2.7806795   -2.7806795   -2.1147371  0.055601879   -2.7806795   0.66594242   418189 
 1392000   0.63818421   -2.7807003   -2.7807003   -2.1154788  0.052469792   -2.7807003   0.66522153   418189 
 1393000   0.63796393   -2.7808025   -2.7808025   -2.1158106  0.050775044   -2.7808025   0.66499191   418189 
 1394000   0.63793096   -2.7801529   -2.7801529   -2.1151953  0.040022418   -2.7801529   0.66495755   418189 
 1395000   0.63817561   -2.7804685   -2.7804685   -2.1152559   0.04123935   -2.7804685   0.66521257   418189 
 1396000   0.63821366   -2.7811224   -2.7811224   -2.1158701  0.049360669   -2.7811224   0.66525223   418189 
 1397000   0.63850413   -2.7825152   -2.7825152   -2.1169602   0.04802874   -2.7825152   0.66555501   418189 
 1398000   0.63828782   -2.7823756   -2.7823756   -2.1170461  0.040713963   -2.7823756   0.66532953   418189 
 1399000     0.637272   -2.7820279   -2.7820279   -2.1177572  0.050382012   -2.7820279   0.66427067   418189 
 1400000   0.63781913   -2.7826587   -2.7826587   -2.1178177  0.047968213   -2.7826587   0.66484098   418189 
 1401000   0.63897573   -2.7837152   -2.7837152   -2.1176686  0.045248195   -2.7837152   0.66604659   418189 
 1402000   0.63848393   -2.7842492   -2.7842492   -2.1187153  0.035242709   -2.7842492   0.66553395   418189 
 1403000   0.63753295   -2.7831072   -2.7831072   -2.1185645  0.044193371   -2.7831072   0.66454267   418189 
 1404000   0.63853405   -2.7833858   -2.7833858   -2.1177996  0.041677631   -2.7833858   0.66558619   418189 
 1405000    0.6388483    -2.783637    -2.783637   -2.1177233  0.044915606    -2.783637   0.66591375   418189 
 1406000   0.63897047   -2.7836893   -2.7836893   -2.1176482  0.050025275   -2.7836893    0.6660411   418189 
 1407000   0.63834911   -2.7833802   -2.7833802   -2.1179868  0.064354011   -2.7833802   0.66539341   418189 
 1408000    0.6383996   -2.7840807   -2.7840807   -2.1186346  0.043036919   -2.7840807   0.66544604   418189 
 1409000   0.63786286   -2.7832166   -2.7832166   -2.1183301  0.039185422   -2.7832166   0.66488656   418189 
 1410000   0.63819863   -2.7843647   -2.7843647   -2.1191281  0.058778314   -2.7843647   0.66523656   418189 
 1411000   0.63636781   -2.7828516   -2.7828516   -2.1195234  0.047778881   -2.7828516   0.66332817   418189 
 1412000    0.6372543   -2.7837392   -2.7837392    -2.119487  0.033438979   -2.7837392   0.66425222   418189 
 1413000   0.63769276   -2.7847058   -2.7847058   -2.1199965  0.044954213   -2.7847058   0.66470925   418189 
 1414000   0.63785961   -2.7848652   -2.7848652    -2.119982  0.047023283   -2.7848652   0.66488317   418189 
 1415000   0.63875859   -2.7858086   -2.7858086   -2.1199884  0.056798494   -2.7858086   0.66582024   418189 
 1416000    0.6384888   -2.7860339   -2.7860339   -2.1204949  0.048225525   -2.7860339   0.66553902   418189 
 1417000   0.63796009   -2.7856101   -2.7856101   -2.1206221   0.05540064   -2.7856101   0.66498791   418189 
 1418000   0.63627554   -2.7845617   -2.7845617   -2.1213297  0.055545489   -2.7845617   0.66323199   418189 
 1419000   0.63620878    -2.784558    -2.784558   -2.1213956  0.058828973    -2.784558   0.66316241   418189 
 1420000   0.63771581   -2.7859257   -2.7859257   -2.1211924  0.054552925   -2.7859257   0.66473329   418189 
 1421000   0.63796054   -2.7863289   -2.7863289   -2.1213405  0.051887902   -2.7863289   0.66498838   418189 
 1422000   0.63633175   -2.7855412   -2.7855412   -2.1222506  0.039279788   -2.7855412   0.66329059   418189 
 1423000   0.63807814     -2.78717     -2.78717   -2.1220591  0.041210982     -2.78717   0.66511097   418189 
 1424000    0.6378907   -2.7877239   -2.7877239   -2.1228084  0.045297657   -2.7877239   0.66491558   418189 
 1425000   0.63707874   -2.7863926   -2.7863926   -2.1223234  0.054689226   -2.7863926   0.66406922   418189 
 1426000   0.63640462   -2.7858901   -2.7858901   -2.1225236   0.03618418   -2.7858901   0.66336655   418189 
 1427000   0.63572855   -2.7864404   -2.7864404   -2.1237785  0.046902443   -2.7864404   0.66266184   418189 
 1428000   0.63659174   -2.7873232   -2.7873232   -2.1237616   0.05133905   -2.7873232    0.6635616   418189 
 1429000   0.63649048   -2.7876013   -2.7876013   -2.1241453  0.052565769   -2.7876013   0.66345604   418189 
 1430000   0.63725966   -2.7882283   -2.7882283   -2.1239705  0.052219963   -2.7882283   0.66425781   418189 
 1431000   0.63650572   -2.7875026   -2.7875026   -2.1240307  0.044933108   -2.7875026   0.66347193   418189 
 1432000   0.63626497    -2.787088    -2.787088    -2.123867  0.048469839    -2.787088   0.66322097   418189 
 1433000   0.63645484   -2.7875521   -2.7875521   -2.1241332  0.046133485   -2.7875521   0.66341889   418189 
 1434000   0.63753693   -2.7876951   -2.7876951   -2.1231483  0.047869158   -2.7876951   0.66454682   418189 
 1435000   0.63794357   -2.7888687   -2.7888687    -2.123898  0.050453103   -2.7888687    0.6649707   418189 
 1436000   0.63775806   -2.7898457   -2.7898457   -2.1250684  0.048855691   -2.7898457   0.66477732   418189 
 1437000   0.63792547   -2.7901423   -2.7901423   -2.1251905  0.042716238   -2.7901423   0.66495183   418189 
 1438000   0.63578576      -2.7892      -2.7892   -2.1264785    0.0482624      -2.7892   0.66272147   418189 
 1439000   0.63546221    -2.788836    -2.788836   -2.1264518  0.034606184    -2.788836   0.66238421   418189 
 1440000   0.63589348   -2.7887867   -2.7887867    -2.125953  0.047205951   -2.7887867   0.66283375   418189 
 1441000   0.63525497   -2.7882157   -2.7882157   -2.1260475  0.042126509   -2.7882157   0.66216819   418189 
 1442000    0.6377218   -2.7915776   -2.7915776   -2.1268381  0.046479241   -2.7915776   0.66473953   418189 
 1443000   0.63687742   -2.7906448   -2.7906448   -2.1267854  0.041473894   -2.7906448   0.66385937   418189 
 1444000   0.63597636    -2.790357    -2.790357   -2.1274369  0.040680899    -2.790357   0.66292014   418189 
 1445000   0.63605214   -2.7913648   -2.7913648   -2.1283657  0.058987374   -2.7913648   0.66299913   418189 
 1446000   0.63658394   -2.7913152   -2.7913152   -2.1277617  0.047406287   -2.7913152   0.66355346   418189 
 1447000    0.6365788   -2.7911452   -2.7911452   -2.1275971  0.045099127   -2.7911452    0.6635481   418189 
 1448000   0.63527634    -2.789948    -2.789948   -2.1277575   0.05135845    -2.789948   0.66219046   418189 
 1449000    0.6348255   -2.7902205   -2.7902205   -2.1284999  0.052364747   -2.7902205   0.66172052   418189 
 1450000   0.63676102   -2.7921348   -2.7921348   -2.1283968  0.046742806   -2.7921348   0.66373805   418189 
 1451000   0.63518344   -2.7910259   -2.7910259   -2.1289323   0.04475282   -2.7910259   0.66209363   418189 
 1452000   0.63489249   -2.7902286   -2.7902286   -2.1284383  0.042017648   -2.7902286   0.66179035   418189 
 1453000   0.63783062   -2.7925097   -2.7925097   -2.1276568  0.040884393   -2.7925097   0.66485295   418189 
 1454000   0.63545502    -2.790174    -2.790174   -2.1277973  0.055892871    -2.790174   0.66237671   418189 
 1455000   0.63562627    -2.791042    -2.791042   -2.1284867  0.044801086    -2.791042   0.66255522   418189 
 1456000   0.63563992   -2.7920993   -2.7920993   -2.1295298  0.044915971   -2.7920993   0.66256945   418189 
 1457000   0.63587176   -2.7926186   -2.7926186   -2.1298075  0.053117675   -2.7926186   0.66281111   418189 
 1458000   0.63762977   -2.7937675   -2.7937675   -2.1291239  0.045933911   -2.7937675    0.6646436   418189 
 1459000   0.63653007    -2.793228    -2.793228   -2.1297307  0.072787673    -2.793228   0.66349731   418189 
 1460000   0.63472799    -2.792786    -2.792786   -2.1311671  0.045426947    -2.792786   0.66161888   418189 
 1461000   0.63526215   -2.7932489   -2.7932489   -2.1310732  0.061733767   -2.7932489   0.66217567   418189 
 1462000   0.63545699   -2.7933797   -2.7933797    -2.131001  0.052387985   -2.7933797   0.66237877   418189 
 1463000   0.63543641   -2.7930838   -2.7930838   -2.1307265  0.049576603   -2.7930838   0.66235732   418189 
 1464000   0.63680575   -2.7938829   -2.7938829   -2.1300983  0.052067268   -2.7938829   0.66378467   418189 
 1465000   0.63438096   -2.7923999   -2.7923999   -2.1311428  0.061375733   -2.7923999   0.66125715   418189 
 1466000   0.63724294   -2.7952187   -2.7952187   -2.1309784  0.050477937   -2.7952187   0.66424038   418189 
 1467000   0.63563353   -2.7937717   -2.7937717    -2.131209  0.063474376   -2.7937717   0.66256279   418189 
 1468000   0.63457995   -2.7927232   -2.7927232   -2.1312586  0.051015938   -2.7927232   0.66146457   418189 
 1469000   0.63567433   -2.7930184   -2.7930184   -2.1304131  0.044263321   -2.7930184   0.66260532   418189 
 1470000   0.63489015   -2.7921737   -2.7921737   -2.1303858  0.029468601   -2.7921737   0.66178791   418189 
 1471000   0.63459676   -2.7919431   -2.7919431    -2.130461  0.058911636   -2.7919431    0.6614821   418189 
 1472000   0.63503488   -2.7928754   -2.7928754   -2.1309366  0.057243781   -2.7928754   0.66193878   418189 
 1473000   0.63474045   -2.7923501   -2.7923501   -2.1307182  0.048195384   -2.7923501   0.66163187   418189 
 1474000   0.63403169   -2.7917611   -2.7917611   -2.1308681  0.045807071   -2.7917611   0.66089309   418189 
 1475000   0.63453843   -2.7931141   -2.7931141   -2.1316928  0.055801549   -2.7931141   0.66142129   418189 
 1476000   0.63543988    -2.794067    -2.794067   -2.1317061   0.04024776    -2.794067   0.66236093   418189 
 1477000   0.63390881   -2.7917535   -2.7917535   -2.1309885  0.052539801   -2.7917535   0.66076499   418189 
 1478000   0.63525819   -2.7935392   -2.7935392   -2.1313676  0.045781918   -2.7935392   0.66217154   418189 
 1479000   0.63434097   -2.7928186   -2.7928186   -2.1316031  0.045800914   -2.7928186   0.66121547   418189 
 1480000   0.63506055   -2.7937981   -2.7937981   -2.1318326  0.039810026   -2.7937981   0.66196554   418189 
 1481000   0.63555496   -2.7943634   -2.7943634   -2.1318825  0.055747264   -2.7943634   0.66248088   418189 
 1482000   0.63423992   -2.7928532   -2.7928532    -2.131743  0.056556687   -2.7928532   0.66111013   418189 
 1483000   0.63470378   -2.7941351   -2.7941351   -2.1325415  0.045303076   -2.7941351   0.66159365   418189 
 1484000   0.63472814   -2.7946516   -2.7946516   -2.1330325  0.035098618   -2.7946516   0.66161904   418189 
 1485000   0.63434745   -2.7943041   -2.7943041   -2.1330819  0.050307878   -2.7943041   0.66122223   418189 
 1486000   0.63474594   -2.7951369   -2.7951369   -2.1334993   0.04418858   -2.7951369   0.66163759   418189 
 1487000   0.63569814   -2.7967751   -2.7967751    -2.134145  0.038421389   -2.7967751   0.66263013   418189 
 1488000   0.63493331   -2.7954589   -2.7954589    -2.133626  0.063205328   -2.7954589    0.6618329   418189 
 1489000   0.63410728   -2.7948107   -2.7948107   -2.1338388  0.049548912   -2.7948107   0.66097188   418189 
 1490000   0.63542361   -2.7965056   -2.7965056   -2.1341617  0.045734111   -2.7965056   0.66234397   418189 
 1491000   0.63597932     -2.79678     -2.79678   -2.1338568  0.049369891     -2.79678   0.66292322   418189 
 1492000   0.63502313   -2.7956313   -2.7956313   -2.1337047  0.037464528   -2.7956313   0.66192653   418189 
 1493000   0.63511924   -2.7961831   -2.7961831   -2.1341564   0.04605021   -2.7961831   0.66202671   418189 
 1494000   0.63607668   -2.7966851   -2.7966851   -2.1336604  0.052289749   -2.7966851   0.66302471   418189 
 1495000    0.6352014   -2.7954018   -2.7954018   -2.1332895  0.044708864   -2.7954018   0.66211235   418189 
 1496000   0.63691889   -2.7983884   -2.7983884   -2.1344858  0.046512858   -2.7983884    0.6639026   418189 
 1497000   0.63588021     -2.79701     -2.79701   -2.1341901  0.046261575     -2.79701   0.66281992   418189 
 1498000   0.63474201   -2.7959565   -2.7959565    -2.134323  0.051711197   -2.7959565   0.66163349   418189 
 1499000   0.63460931   -2.7966302   -2.7966302    -2.135135  0.042650162   -2.7966302   0.66149517   418189 
 1500000    0.6360824   -2.7984921   -2.7984921   -2.1354614  0.050816927   -2.7984921   0.66303067   418189 
 1501000   0.63541983   -2.7982757   -2.7982757   -2.1359357  0.053813843   -2.7982757   0.66234004   418189 
 1502000   0.63623141    -2.800393    -2.800393    -2.137207    0.0374708    -2.800393     0.663186   418189 
 1503000   0.63496372   -2.7988338   -2.7988338   -2.1369692  0.033589313   -2.7988338    0.6618646   418189 
 1504000   0.63531766   -2.7993477   -2.7993477   -2.1371142  0.056110617   -2.7993477   0.66223354   418189 
 1505000   0.63462849    -2.798458    -2.798458   -2.1369429  0.043576515    -2.798458   0.66151516   418189 
 1506000     0.633586   -2.7980252   -2.7980252   -2.1375967  0.053552361   -2.7980252   0.66042851   418189 
 1507000   0.63395757   -2.7989494   -2.7989494   -2.1381335  0.056808936   -2.7989494   0.66081583   418189 
 1508000   0.63434904   -2.7997039   -2.7997039   -2.1384801  0.046406559   -2.7997039   0.66122388   418189 
 1509000   0.63434726   -2.7996356   -2.7996356   -2.1384136  0.053281364   -2.7996356   0.66122202   418189 
 1510000   0.63440163   -2.7995607   -2.7995607    -2.138282  0.041089613   -2.7995607   0.66127869   418189 
 1511000   0.63435995   -2.8004656   -2.8004656   -2.1392303  0.052764608   -2.8004656   0.66123525   418189 
 1512000   0.63348311   -2.7993605   -2.7993605   -2.1390392  0.047730795   -2.7993605   0.66032126   418189 
 1513000   0.63397238   -2.8004963   -2.8004963    -2.139665  0.050821072   -2.8004963   0.66083126   418189 
 1514000   0.63354597   -2.8008187   -2.8008187   -2.1404319  0.047645668   -2.8008187   0.66038678   418189 
 1515000    0.6348705   -2.8013065   -2.8013065   -2.1395391  0.045544526   -2.8013065   0.66176743   418189 
 1516000   0.63313958   -2.7990327   -2.7990327   -2.1390695  0.042586317   -2.7990327   0.65996318   418189 
 1517000   0.63386293   -2.8000663   -2.8000663   -2.1393491  0.038744154   -2.8000663   0.66071717   418189 
 1518000   0.63495232   -2.8011542   -2.8011542   -2.1393014  0.050096362   -2.8011542   0.66185272   418189 
 1519000   0.63510003   -2.8010774   -2.8010774   -2.1390707  0.053148854   -2.8010774   0.66200669   418189 
 1520000   0.63598085    -2.801321    -2.801321   -2.1383962  0.044333569    -2.801321   0.66292482   418189 
 1521000   0.63360413   -2.8000123   -2.8000123   -2.1395649  0.051435303   -2.8000123   0.66044741   418189 
 1522000    0.6330654   -2.8005098   -2.8005098   -2.1406239  0.050992036   -2.8005098   0.65988586   418189 
 1523000   0.63456869   -2.8017792   -2.8017792   -2.1403264  0.046071146   -2.8017792   0.66145283   418189 
 1524000   0.63370474   -2.8009376   -2.8009376   -2.1403853  0.043230565   -2.8009376   0.66055228   418189 
 1525000    0.6335869   -2.8011264   -2.8011264   -2.1406969  0.035966544   -2.8011264   0.66042945   418189 
 1526000   0.63314674   -2.8003216   -2.8003216    -2.140351  0.038974802   -2.8003216   0.65997064   418189 
 1527000   0.63279197    -2.800017    -2.800017   -2.1404162  0.035973769    -2.800017   0.65960085   418189 
 1528000   0.63300525   -2.8006223   -2.8006223   -2.1407992  0.046237734   -2.8006223   0.65982315   418189 
 1529000   0.63406066   -2.8017047   -2.8017047   -2.1407814  0.041741704   -2.8017047   0.66092328   418189 
 1530000    0.6345538    -2.802641    -2.802641   -2.1412037  0.057381856    -2.802641   0.66143731   418189 
 1531000   0.63325947   -2.8019162   -2.8019162    -2.141828  0.036949671   -2.8019162   0.66008814   418189 
 1532000   0.63335879   -2.8024121   -2.8024121   -2.1422204  0.052942081   -2.8024121   0.66019167   418189 
 1533000   0.63403003   -2.8028328   -2.8028328   -2.1419415  0.032688759   -2.8028328   0.66089136   418189 
 1534000   0.63366039   -2.8024761   -2.8024761   -2.1419701  0.045338785   -2.8024761   0.66050605   418189 
 1535000   0.63321129   -2.8025364   -2.8025364   -2.1424984  0.035872351   -2.8025364   0.66003793   418189 
 1536000    0.6327536   -2.8021522   -2.8021522   -2.1425913  0.055936543   -2.8021522   0.65956084   418189 
 1537000   0.63505716   -2.8041313   -2.8041313   -2.1421693  0.042244574   -2.8041313   0.66196199   418189 
 1538000   0.63360842   -2.8028701   -2.8028701   -2.1424182  0.053749037   -2.8028701   0.66045188   418189 
 1539000   0.63315796   -2.8015746   -2.8015746   -2.1415922  0.048942087   -2.8015746   0.65998234   418189 
 1540000   0.63424586   -2.8030636   -2.8030636   -2.1419473  0.048458193   -2.8030636   0.66111632   418189 
 1541000   0.63539691   -2.8049137   -2.8049137   -2.1425976  0.040661046   -2.8049137   0.66231614   418189 
 1542000   0.63359836    -2.803093    -2.803093   -2.1426516  0.051349847    -2.803093   0.66044139   418189 
 1543000   0.63324675   -2.8037332   -2.8037332   -2.1436583  0.050541045   -2.8037332   0.66007489   418189 
 1544000   0.63336602   -2.8041672   -2.8041672    -2.143968  0.052945988   -2.8041672   0.66019922   418189 
 1545000   0.63324388   -2.8044489   -2.8044489    -2.144377  0.051036714   -2.8044489   0.66007189   418189 
 1546000   0.63285343   -2.8043344   -2.8043344   -2.1446695  0.038717992   -2.8043344   0.65966491   418189 
 1547000   0.63053261   -2.8024758   -2.8024758     -2.14523  0.035588273   -2.8024758   0.65724577   418189 
 1548000   0.63188914   -2.8042455   -2.8042455   -2.1455858  0.051201102   -2.8042455   0.65865976   418189 
 1549000   0.63497711   -2.8065478   -2.8065478   -2.1446693  0.029922948   -2.8065478   0.66187855   418189 
 1550000   0.63318574   -2.8044692   -2.8044692   -2.1444579  0.042596142   -2.8044692   0.66001129   418189 
 1551000   0.63251252   -2.8045384   -2.8045384   -2.1452289  0.031218561   -2.8045384   0.65930955   418189 
 1552000   0.63419499   -2.8061411   -2.8061411   -2.1450778  0.048004302   -2.8061411    0.6610633   418189 
 1553000   0.63283759   -2.8052215   -2.8052215   -2.1455731  0.048201131   -2.8052215    0.6596484   418189 
 1554000   0.63418772   -2.8064936   -2.8064936   -2.1454379  0.047204357   -2.8064936   0.66105573   418189 
 1555000   0.63363304   -2.8058294   -2.8058294   -2.1453519  0.041641367   -2.8058294   0.66047754   418189 
 1556000   0.63332182   -2.8061328   -2.8061328   -2.1459796  0.050099868   -2.8061328   0.66015314   418189 
 1557000   0.63344493   -2.8057948   -2.8057948   -2.1455134  0.050659389   -2.8057948   0.66028146   418189 
 1558000   0.63407026   -2.8066287   -2.8066287   -2.1456955  0.047295929   -2.8066287   0.66093329   418189 
 1559000   0.63268625    -2.805881    -2.805881   -2.1463903  0.054892206    -2.805881   0.65949064   418189 
 1560000   0.63267872   -2.8065737   -2.8065737   -2.1470909   0.04943497   -2.8065737    0.6594828   418189 
 1561000   0.63243026   -2.8065108   -2.8065108    -2.147287  0.045472513   -2.8065108   0.65922381   418189 
 1562000   0.63245301   -2.8069453   -2.8069453   -2.1476978  0.063030803   -2.8069453   0.65924752   418189 
 1563000   0.63199331   -2.8065835   -2.8065835   -2.1478152  0.045489455   -2.8065835   0.65876834   418189 
 1564000   0.63122175   -2.8060716   -2.8060716   -2.1481075  0.045095512   -2.8060716    0.6579641   418189 
 1565000   0.63178152   -2.8062395   -2.8062395   -2.1476919  0.045960227   -2.8062395   0.65854759   418189 
 1566000   0.63340385   -2.8079735   -2.8079735   -2.1477349  0.052333172   -2.8079735   0.66023864   418189 
 1567000   0.63220732   -2.8081814   -2.8081814   -2.1491899  0.049156366   -2.8081814   0.65899142   418189 
 1568000   0.63289629   -2.8084924   -2.8084924   -2.1487828  0.040119185   -2.8084924   0.65970958   418189 
 1569000   0.63186443   -2.8074269   -2.8074269   -2.1487929  0.049902368   -2.8074269   0.65863401   418189 
 1570000   0.63183931   -2.8066874   -2.8066874   -2.1480796  0.058119316   -2.8066874   0.65860782   418189 
 1571000   0.63196242   -2.8078492   -2.8078492   -2.1491131  0.052919334   -2.8078492   0.65873614   418189 
 1572000   0.63068253   -2.8068904   -2.8068904   -2.1494883  0.049809422   -2.8068904   0.65740203   418189 
 1573000   0.63286539   -2.8080475   -2.8080475   -2.1483702  0.050782827   -2.8080475   0.65967737   418189 
 1574000    0.6313784   -2.8068978   -2.8068978   -2.1487704  0.044311994   -2.8068978   0.65812738   418189 
 1575000   0.63200137   -2.8083626   -2.8083626   -2.1495859  0.039879675   -2.8083626   0.65877674   418189 
 1576000   0.63226033   -2.8084302   -2.8084302   -2.1493835  0.049946587   -2.8084302   0.65904668   418189 
 1577000   0.63257469   -2.8090656   -2.8090656   -2.1496912  0.056725491   -2.8090656   0.65937436   418189 
 1578000   0.63328435   -2.8107631   -2.8107631    -2.150649  0.056819963   -2.8107631   0.66011408   418189 
 1579000   0.63368899   -2.8121167   -2.8121167   -2.1515808  0.037042634   -2.8121167   0.66053587   418189 
 1580000   0.63295027   -2.8116815   -2.8116815   -2.1519157   0.03537733   -2.8116815   0.65976585   418189 
 1581000   0.63339647   -2.8121519   -2.8121519   -2.1519209  0.049317718   -2.8121519   0.66023095   418189 
 1582000   0.63199537   -2.8109277   -2.8109277   -2.1521572  0.054906945   -2.8109277    0.6587705   418189 
 1583000   0.63195188   -2.8105207   -2.8105207   -2.1517956  0.048141722   -2.8105207   0.65872517   418189 
 1584000   0.63047521   -2.8092868   -2.8092868   -2.1521009  0.040413369   -2.8092868   0.65718593   418189 
 1585000   0.63164406   -2.8103209   -2.8103209   -2.1519166  0.050952096   -2.8103209    0.6584043   418189 
 1586000   0.63151631   -2.8100684   -2.8100684   -2.1517972  0.038325941   -2.8100684   0.65827114   418189 
 1587000   0.63288175    -2.810668    -2.810668   -2.1509736  0.045946255    -2.810668   0.65969442   418189 
 1588000    0.6320914   -2.8104071   -2.8104071   -2.1515365  0.051583869   -2.8104071   0.65887059   418189 
 1589000   0.63229474   -2.8101015   -2.8101015    -2.151019  0.047865503   -2.8101015   0.65908255   418189 
 1590000   0.63310582   -2.8109935   -2.8109935   -2.1510655   0.04977469   -2.8109935   0.65992799   418189 
 1591000   0.63223373   -2.8103577   -2.8103577   -2.1513387  0.053828226   -2.8103577   0.65901895   418189 
 1592000   0.63242077   -2.8109429   -2.8109429    -2.151729  0.051641165   -2.8109429   0.65921392   418189 
 1593000   0.63164866   -2.8099425   -2.8099425   -2.1515334  0.040655857   -2.8099425   0.65840909   418189 
 1594000   0.63113219   -2.8095862   -2.8095862   -2.1517155  0.049823319   -2.8095862   0.65787074   418189 
 1595000   0.63229699   -2.8114516   -2.8114516   -2.1523667  0.045087458   -2.8114516   0.65908489   418189 
 1596000   0.63254877   -2.8112036   -2.8112036   -2.1518563  0.055420254   -2.8112036   0.65934734   418189 
 1597000   0.63309613   -2.8114756   -2.8114756   -2.1515577  0.058886128   -2.8114756   0.65991789   418189 
 1598000   0.63288504    -2.811794    -2.811794   -2.1520961   0.05934693    -2.811794   0.65969785   418189 
 1599000   0.63227373   -2.8109047   -2.8109047    -2.151844  0.031653068   -2.8109047   0.65906064   418189 
 1600000   0.63124686   -2.8104111   -2.8104111   -2.1524208  0.051131659   -2.8104111   0.65799027   418189 
 1601000   0.63096574   -2.8103492   -2.8103492   -2.1526519  0.049275924   -2.8103492   0.65769724   418189 
 1602000   0.62968991   -2.8094381   -2.8094381   -2.1530708  0.040239853   -2.8094381   0.65636736   418189 
 1603000   0.63023579   -2.8101778   -2.8101778   -2.1532414  0.044221503   -2.8101778   0.65693637   418189 
 1604000   0.63092408   -2.8120455   -2.8120455   -2.1543916  0.039629126   -2.8120455   0.65765382   418189 
 1605000   0.63076515   -2.8127271   -2.8127271    -2.155239  0.033155697   -2.8127271   0.65748816   418189 
 1606000   0.62988275   -2.8119965   -2.8119965   -2.1554281  0.031865732   -2.8119965   0.65656837   418189 
 1607000   0.63008258   -2.8128329   -2.8128329   -2.1560562  0.041969989   -2.8128329   0.65677667   418189 
 1608000   0.63162355   -2.8143351   -2.8143351   -2.1559522  0.043639542   -2.8143351   0.65838292   418189 
 1609000   0.63200278   -2.8146449   -2.8146449   -2.1558666  0.070433294   -2.8146449   0.65877822   418189 
 1610000     0.630729   -2.8126948   -2.8126948   -2.1552443   0.03837157   -2.8126948   0.65745048   418189 
 1611000   0.62993952   -2.8125045   -2.8125045    -2.155877   0.05819633   -2.8125045   0.65662754   418189 
 1612000   0.63184716   -2.8141408   -2.8141408   -2.1555248  0.044707195   -2.8141408   0.65861601   418189 
 1613000   0.63114391   -2.8139361   -2.8139361   -2.1560531  0.035903046   -2.8139361   0.65788296   418189 
 1614000   0.63020274   -2.8129354   -2.8129354   -2.1560335  0.040388549   -2.8129354   0.65690192   418189 
 1615000   0.63235813   -2.8148842   -2.8148842   -2.1557356  0.051444147   -2.8148842   0.65914862   418189 
 1616000    0.6312024   -2.8137186   -2.8137186   -2.1557746  0.046512896   -2.8137186   0.65794393   418189 
 1617000   0.63192308   -2.8150085   -2.8150085   -2.1563134  0.042149052   -2.8150085   0.65869514   418189 
 1618000   0.63065681   -2.8145181   -2.8145181   -2.1571429   0.04336421   -2.8145181   0.65737522   418189 
 1619000   0.63056733   -2.8142218   -2.8142218   -2.1569398  0.047042316   -2.8142218   0.65728195   418189 
 1620000   0.63203887   -2.8159149   -2.8159149   -2.1570991  0.046619458   -2.8159149   0.65881584   418189 
 1621000   0.63195147   -2.8159868   -2.8159868   -2.1572621  0.040550865   -2.8159868   0.65872473   418189 
 1622000   0.63031274   -2.8147429   -2.8147429   -2.1577264  0.050077905   -2.8147429   0.65701657   418189 
 1623000   0.63067551   -2.8158528   -2.8158528   -2.1584581  0.056482593   -2.8158528   0.65739472   418189 
 1624000    0.6293878   -2.8147644   -2.8147644    -2.158712  0.042898279   -2.8147644   0.65605245   418189 
 1625000   0.63177965   -2.8176976   -2.8176976    -2.159152  0.035566882   -2.8176976   0.65854563   418189 
 1626000   0.62917366   -2.8146466   -2.8146466   -2.1588173  0.041930279   -2.8146466   0.65582924   418189 
 1627000   0.63109384   -2.8165795   -2.8165795   -2.1587487  0.055071519   -2.8165795   0.65783077   418189 
 1628000   0.63140226   -2.8170628   -2.8170628   -2.1589106  0.056486863   -2.8170628   0.65815226   418189 
 1629000    0.6293108   -2.8157337   -2.8157337   -2.1597615  0.050900138   -2.8157337   0.65597219   418189 
 1630000   0.63027736   -2.8167677   -2.8167677    -2.159788  0.051121233   -2.8167677    0.6569797   418189 
 1631000   0.62982678   -2.8164298   -2.8164298   -2.1599197  0.039470683   -2.8164298   0.65651003   418189 
 1632000   0.63023338   -2.8171677   -2.8171677   -2.1602338  0.035155818   -2.8171677   0.65693386   418189 
 1633000   0.63007818   -2.8174604   -2.8174604   -2.1606883  0.036627091   -2.8174604   0.65677208   418189 
 1634000   0.62910822   -2.8169575   -2.8169575   -2.1611965  0.051420177   -2.8169575   0.65576103   418189 
 1635000   0.62939679   -2.8181237   -2.8181237   -2.1620618  0.046256427   -2.8181237   0.65606182   418189 
 1636000   0.62925475   -2.8180874   -2.8180874   -2.1621736  0.038150478   -2.8180874   0.65591376   418189 
 1637000   0.63066703   -2.8199917   -2.8199917   -2.1626059  0.043999994   -2.8199917   0.65738587   418189 
 1638000     0.629997   -2.8186292   -2.8186292   -2.1619418  0.048959876   -2.8186292   0.65668747   418189 
 1639000   0.63040706   -2.8194775   -2.8194775   -2.1623626  0.053072026   -2.8194775   0.65711489   418189 
 1640000   0.62948099   -2.8186099   -2.8186099   -2.1624603    0.0494155   -2.8186099   0.65614959   418189 
 1641000   0.62988236   -2.8183619   -2.8183619    -2.161794   0.05631355   -2.8183619   0.65656796   418189 
 1642000    0.6299775   -2.8187943   -2.8187943   -2.1621271  0.046894073   -2.8187943   0.65666713   418189 
 1643000   0.62904431   -2.8183006   -2.8183006   -2.1626062  0.042124523   -2.8183006   0.65569441   418189 
 1644000   0.63117227   -2.8204948   -2.8204948   -2.1625823  0.042663527   -2.8204948   0.65791252   418189 
 1645000   0.62846149   -2.8176744   -2.8176744   -2.1625875  0.035365266   -2.8176744   0.65508689   418189 
 1646000   0.62972518   -2.8182262   -2.8182262   -2.1618221  0.051585571   -2.8182262   0.65640412   418189 
 1647000   0.62902649   -2.8179205   -2.8179205   -2.1622447  0.047768963   -2.8179205   0.65567583   418189 
 1648000   0.62879433   -2.8181898   -2.8181898    -2.162756  0.036229711   -2.8181898   0.65543384   418189 
 1649000   0.62923524   -2.8181302   -2.8181302   -2.1622367  0.036811366   -2.8181302   0.65589343   418189 
 1650000   0.62870087   -2.8180753   -2.8180753   -2.1627389  0.043954089   -2.8180753   0.65533642   418189 
 1651000   0.62973352   -2.8186415   -2.8186415   -2.1622287  0.055334817   -2.8186415   0.65641282   418189 
 1652000   0.62933425   -2.8177522   -2.8177522   -2.1617555  0.054809223   -2.8177522   0.65599663   418189 
 1653000   0.63131224   -2.8193534   -2.8193534    -2.161295  0.043828253   -2.8193534   0.65805842   418189 
 1654000   0.62968366   -2.8191281   -2.8191281   -2.1627672  0.055192586   -2.8191281   0.65636084   418189 
 1655000   0.62929223   -2.8197428   -2.8197428     -2.16379  0.038527027   -2.8197428   0.65595283   418189 
 1656000   0.62976424   -2.8203285   -2.8203285   -2.1638837  0.036043039   -2.8203285   0.65644483   418189 
 1657000   0.63076673   -2.8212973   -2.8212973   -2.1638075  0.044698382   -2.8212973    0.6574898   418189 
 1658000   0.62948289   -2.8198292   -2.8198292   -2.1636777   0.04917412   -2.8198292   0.65615157   418189 
 1659000    0.6296846    -2.820159    -2.820159   -2.1637972  0.031267608    -2.820159   0.65636183   418189 
 1660000   0.63165689   -2.8224792   -2.8224792   -2.1640615  0.044692087   -2.8224792   0.65841767   418189 
 1661000   0.62984307    -2.821074    -2.821074    -2.164547  0.051196364    -2.821074   0.65652701   418189 
 1662000   0.62851066   -2.8203697   -2.8203697   -2.1652315  0.048693522   -2.8203697   0.65513815   418189 
 1663000   0.62932121   -2.8215734   -2.8215734   -2.1655904  0.040197964   -2.8215734   0.65598303   418189 
 1664000   0.63039586    -2.822188    -2.822188   -2.1650848  0.043907915    -2.822188   0.65710322   418189 
 1665000   0.63053399   -2.8218634   -2.8218634   -2.1646162  0.049111759   -2.8218634    0.6572472   418189 
 1666000   0.62762711   -2.8194238   -2.8194238   -2.1652066  0.055007156   -2.8194238   0.65421716   418189 
 1667000   0.63035724   -2.8230308   -2.8230308   -2.1659679  0.042519186   -2.8230308   0.65706296   418189 
 1668000   0.63001498   -2.8232135   -2.8232135   -2.1665073  0.036767006   -2.8232135    0.6567062   418189 
 1669000   0.62827673   -2.8212903   -2.8212903    -2.166396  0.042830341   -2.8212903   0.65489431   418189 
 1670000   0.63000884   -2.8227719   -2.8227719   -2.1660721  0.056891042   -2.8227719    0.6566998   418189 
 1671000   0.62878434   -2.8210911   -2.8210911   -2.1656677  0.041403504   -2.8210911   0.65542343   418189 
 1672000   0.62893949   -2.8216534   -2.8216534   -2.1660682  0.041403966   -2.8216534   0.65558515   418189 
 1673000   0.62879009   -2.8214404   -2.8214404    -2.166011  0.043872035   -2.8214404   0.65542942   418189 
 1674000   0.62820228    -2.820756    -2.820756   -2.1659393  0.054015334    -2.820756   0.65481671   418189 
 1675000   0.62942834    -2.821467    -2.821467   -2.1653723  0.038492212    -2.821467   0.65609471   418189 
 1676000   0.62984031   -2.8223173   -2.8223173   -2.1657931  0.052232443   -2.8223173   0.65652413   418189 
 1677000   0.62768633   -2.8204794   -2.8204794   -2.1662006  0.035973091   -2.8204794   0.65427889   418189 
 1678000   0.62824101   -2.8211706   -2.8211706   -2.1663136  0.042991624   -2.8211706   0.65485707   418189 
 1679000   0.62758109   -2.8201723   -2.8201723   -2.1660031  0.045896518   -2.8201723   0.65416919   418189 
 1680000   0.62780542   -2.8207377   -2.8207377   -2.1663347  0.041638538   -2.8207377   0.65440303   418189 
 1681000   0.62944679   -2.8231925   -2.8231925   -2.1670785  0.046374961   -2.8231925   0.65611394   418189 
 1682000   0.62951387   -2.8231147   -2.8231147   -2.1669309  0.054676268   -2.8231147   0.65618387   418189 
 1683000   0.62779428   -2.8222009   -2.8222009   -2.1678095  0.035299689   -2.8222009   0.65439142   418189 
 1684000   0.62940323   -2.8239246   -2.8239246   -2.1678561  0.044194915   -2.8239246   0.65606854   418189 
 1685000   0.62841697   -2.8233783   -2.8233783   -2.1683379  0.036274777   -2.8233783   0.65504049   418189 
 1686000     0.628206   -2.8236963   -2.8236963   -2.1688757  0.044873898   -2.8236963   0.65482058   418189 
 1687000    0.6284016    -2.823914    -2.823914   -2.1688896   0.04448858    -2.823914   0.65502447   418189 
 1688000    0.6276337   -2.8232141   -2.8232141   -2.1689901  0.051281475   -2.8232141   0.65422403   418189 
 1689000    0.6276775    -2.823459    -2.823459   -2.1691893  0.050354011    -2.823459   0.65426969   418189 
 1690000   0.62751315   -2.8237257   -2.8237257   -2.1696273  0.050867787   -2.8237257   0.65409838   418189 
 1691000   0.62687291   -2.8233198   -2.8233198   -2.1698888  0.042049876   -2.8233198   0.65343101   418189 
 1692000   0.62699149   -2.8234437   -2.8234437   -2.1698891  0.045642157   -2.8234437   0.65355461   418189 
 1693000   0.62698648   -2.8234919   -2.8234919   -2.1699425  0.050577481   -2.8234919   0.65354939   418189 
 1694000   0.62822401   -2.8251394   -2.8251394      -2.1703  0.041152135   -2.8251394   0.65483935   418189 
 1695000   0.62796298   -2.8247834   -2.8247834   -2.1702162  0.039009689   -2.8247834   0.65456727   418189 
 1696000   0.62777275    -2.824253    -2.824253    -2.169884  0.046209465    -2.824253   0.65436897   418189 
 1697000   0.62741582   -2.8240589   -2.8240589    -2.170062  0.050668448   -2.8240589   0.65399692   418189 
 1698000   0.62876391   -2.8257896   -2.8257896   -2.1703875  0.026235171   -2.8257896   0.65540212   418189 
 1699000   0.62875758   -2.8263281   -2.8263281   -2.1709326  0.048563556   -2.8263281   0.65539553   418189 
 1700000    0.6274754   -2.8249981   -2.8249981    -2.170939   0.06019248   -2.8249981   0.65405903   418189 
 1701000   0.62780666   -2.8254035   -2.8254035   -2.1709992  0.056510325   -2.8254035   0.65440432   418189 
 1702000   0.62803843   -2.8258122   -2.8258122   -2.1711662  0.043296649   -2.8258122   0.65464591   418189 
 1703000   0.62957875   -2.8272598   -2.8272598   -2.1710083  0.042173027   -2.8272598   0.65625149   418189 
 1704000    0.6290813   -2.8262138   -2.8262138   -2.1704809  0.040106136   -2.8262138   0.65573296   418189 
 1705000   0.62890052   -2.8267207   -2.8267207   -2.1711762  0.042466277   -2.8267207   0.65554452   418189 
 1706000   0.62918095   -2.8270557   -2.8270557   -2.1712189  0.051945632   -2.8270557   0.65583684   418189 
 1707000   0.62882911   -2.8260407   -2.8260407   -2.1705707  0.049277852   -2.8260407   0.65547009   418189 
 1708000    0.6291259   -2.8266544   -2.8266544    -2.170875  0.044317674   -2.8266544   0.65577946   418189 
 1709000   0.62841304    -2.826255    -2.826255   -2.1712186   0.03382583    -2.826255    0.6550364   418189 
 1710000   0.62820589   -2.8255971   -2.8255971   -2.1707766   0.04332357   -2.8255971   0.65482047   418189 
 1711000   0.62856369   -2.8255142   -2.8255142   -2.1703208  0.053370531   -2.8255142   0.65519342   418189 
 1712000   0.62938589   -2.8267385   -2.8267385   -2.1706881  0.037857369   -2.8267385   0.65605046   418189 
 1713000   0.62852259   -2.8262326   -2.8262326    -2.171082  0.043689267   -2.8262326   0.65515059   418189 
 1714000   0.62891583   -2.8261748   -2.8261748   -2.1706143  0.037914979   -2.8261748   0.65556049   418189 
 1715000   0.62920963   -2.8257871   -2.8257871   -2.1699204  0.041949342   -2.8257871   0.65586673   418189 
 1716000   0.62906328   -2.8265089   -2.8265089   -2.1707947  0.041212068   -2.8265089   0.65571418   418189 
 1717000   0.63054056   -2.8280708   -2.8280708   -2.1708167   0.04252939   -2.8280708   0.65725405   418189 
 1718000   0.62871394    -2.826604    -2.826604    -2.171254  0.048246188    -2.826604   0.65535005   418189 
 1719000   0.62878326    -2.827055    -2.827055   -2.1716327  0.057611895    -2.827055    0.6554223   418189 
 1720000   0.62845929   -2.8267486   -2.8267486    -2.171664  0.044066945   -2.8267486    0.6550846   418189 
 1721000   0.62785889   -2.8260242   -2.8260242   -2.1715654  0.044332453   -2.8260242   0.65445877   418189 
 1722000   0.62737218   -2.8256411   -2.8256411   -2.1716897  0.046207223   -2.8256411   0.65395144   418189 
 1723000    0.6284786   -2.8264415   -2.8264415   -2.1713368  0.043537438   -2.8264415   0.65510473   418189 
 1724000   0.62782223   -2.8258188   -2.8258188   -2.1713983  0.060056678   -2.8258188   0.65442055   418189 
 1725000   0.62772593   -2.8256701   -2.8256701   -2.1713499   0.03958799   -2.8256701   0.65432018   418189 
 1726000   0.62677947   -2.8252011   -2.8252011   -2.1718674  0.048835807   -2.8252011   0.65333362   418189 
 1727000   0.62782585   -2.8269771   -2.8269771   -2.1725527  0.041443034   -2.8269771   0.65442432   418189 
 1728000   0.62777857   -2.8268544   -2.8268544   -2.1724793  0.037777314   -2.8268544   0.65437504   418189 
 1729000   0.62856836   -2.8281035   -2.8281035   -2.1729052  0.041985545   -2.8281035    0.6551983   418189 
 1730000   0.62741365    -2.827532    -2.827532   -2.1735373  0.045593316    -2.827532   0.65399466   418189 
 1731000   0.62897593   -2.8295579   -2.8295579   -2.1739348  0.034941012   -2.8295579   0.65562313   418189 
 1732000   0.62804987    -2.828793    -2.828793   -2.1741352  0.044399147    -2.828793   0.65465784   418189 
 1733000   0.62818849   -2.8294012   -2.8294012   -2.1745989  0.044603229   -2.8294012   0.65480233   418189 
 1734000   0.62947631   -2.8296605   -2.8296605   -2.1735158  0.038404712   -2.8296605   0.65614471   418189 
 1735000   0.62752478   -2.8278955   -2.8278955    -2.173785  0.045170361   -2.8278955    0.6541105   418189 
 1736000   0.62812334   -2.8283543   -2.8283543   -2.1736198  0.048872073   -2.8283543   0.65473442   418189 
 1737000   0.62917572   -2.8297026   -2.8297026   -2.1738712  0.060480459   -2.8297026   0.65583139   418189 
 1738000   0.62885243   -2.8295212   -2.8295212   -2.1740268  0.048720015   -2.8295212    0.6554944   418189 
 1739000   0.62822913   -2.8297691   -2.8297691   -2.1749244  0.043747052   -2.8297691   0.65484469   418189 
 1740000   0.62624622   -2.8273315   -2.8273315   -2.1745537  0.046473379   -2.8273315   0.65277778   418189 
 1741000   0.62779537    -2.828918    -2.828918   -2.1745254  0.040585887    -2.828918   0.65439256   418189 
 1742000   0.62684556   -2.8279457   -2.8279457   -2.1745432  0.053405558   -2.8279457   0.65340251   418189 
 1743000   0.62865517   -2.8294995   -2.8294995   -2.1742107  0.056812953   -2.8294995   0.65528878   418189 
 1744000   0.62715729   -2.8271083   -2.8271083   -2.1733808  0.045042462   -2.8271083   0.65372745   418189 
 1745000   0.62688646   -2.8271071   -2.8271071   -2.1736619  0.045546882   -2.8271071   0.65344514   418189 
 1746000   0.62907911   -2.8298478   -2.8298478   -2.1741171  0.029860947   -2.8298478   0.65573068   418189 
 1747000    0.6291303   -2.8308415   -2.8308415   -2.1750574  0.039643787   -2.8308415   0.65578404   418189 
 1748000   0.62858423   -2.8298483   -2.8298483   -2.1746335  0.043856042   -2.8298483   0.65521483   418189 
 1749000   0.62692928   -2.8278853   -2.8278853   -2.1743956  0.038450625   -2.8278853   0.65348977   418189 
 1750000   0.62895405   -2.8303139   -2.8303139   -2.1747136  0.043810436   -2.8303139   0.65560032   418189 
 1751000    0.6276139   -2.8290586   -2.8290586   -2.1748552  0.047117209   -2.8290586   0.65420339   418189 
 1752000   0.62793787   -2.8295869   -2.8295869   -2.1750459  0.039556295   -2.8295869   0.65454109   418189 
 1753000   0.62749841   -2.8301637   -2.8301637   -2.1760807  0.040439985   -2.8301637   0.65408302   418189 
 1754000   0.62911143   -2.8319678   -2.8319678   -2.1762035  0.043114537   -2.8319678   0.65576437   418189 
 1755000   0.62738821   -2.8306004   -2.8306004   -2.1766322  0.052951787   -2.8306004   0.65396815   418189 
 1756000   0.62706382   -2.8302562   -2.8302562   -2.1766262  0.044600012   -2.8302562   0.65363001   418189 
 1757000   0.62738378    -2.830141    -2.830141   -2.1761774  0.042502266    -2.830141   0.65396353   418189 
 1758000   0.62747868    -2.830234    -2.830234   -2.1761715   0.03916472    -2.830234   0.65406245   418189 
 1759000    0.6261991   -2.8298212   -2.8298212   -2.1770925   0.04717661   -2.8298212   0.65272866   418189 
 1760000   0.62571522   -2.8293501   -2.8293501   -2.1771258  0.045103082   -2.8293501   0.65222428   418189 
 1761000   0.62753362   -2.8313702   -2.8313702   -2.1772505  0.042366852   -2.8313702   0.65411972   418189 
 1762000   0.62749438   -2.8323154   -2.8323154   -2.1782366    0.0414011   -2.8323154   0.65407881   418189 
 1763000   0.62608443   -2.8304018   -2.8304018   -2.1777927  0.039844169   -2.8304018   0.65260913   418189 
 1764000   0.62636141   -2.8308385   -2.8308385   -2.1779407  0.051409105   -2.8308385   0.65289784   418189 
 1765000   0.62686492   -2.8313877   -2.8313877    -2.177965  0.048731449   -2.8313877   0.65342269   418189 
 1766000   0.62529067   -2.8310083   -2.8310083   -2.1792265   0.04446658   -2.8310083   0.65178174   418189 
 1767000   0.62519866   -2.8310972   -2.8310972   -2.1794114  0.050438117   -2.8310972   0.65168583   418189 
 1768000   0.62669412   -2.8320793   -2.8320793   -2.1788346  0.059069405   -2.8320793   0.65324465   418189 
 1769000   0.62737806   -2.8337037   -2.8337037   -2.1797461  0.051565915   -2.8337037   0.65395757   418189 
 1770000   0.62477963   -2.8310165   -2.8310165   -2.1797674  0.047958098   -2.8310165   0.65124905   418189 
 1771000   0.62575164   -2.8326028   -2.8326028   -2.1803406  0.049145094   -2.8326028   0.65226224   418189 
 1772000   0.62603294   -2.8324733   -2.8324733   -2.1799179  0.041825329   -2.8324733   0.65255546   418189 
 1773000   0.62762971   -2.8345291   -2.8345291   -2.1803093  0.047587185   -2.8345291   0.65421988   418189 
 1774000   0.62773938   -2.8340122   -2.8340122    -2.179678  0.053334953   -2.8340122   0.65433419   418189 
 1775000   0.62826526     -2.83486     -2.83486   -2.1799777   0.04876074     -2.83486   0.65488235   418189 
 1776000   0.62622649   -2.8325124   -2.8325124   -2.1797552  0.045425951   -2.8325124    0.6527572   418189 
 1777000   0.62685324   -2.8335423   -2.8335423   -2.1801318  0.055202373   -2.8335423   0.65341052   418189 
 1778000   0.62717297   -2.8340429   -2.8340429   -2.1802991  0.031437742   -2.8340429   0.65374378   418189 
 1779000   0.62600652   -2.8325556   -2.8325556   -2.1800277  0.041829102   -2.8325556   0.65252792   418189 
 1780000    0.6255511   -2.8317125   -2.8317125   -2.1796593  0.037815679   -2.8317125    0.6520532   418189 
 1781000   0.62569362   -2.8321475   -2.8321475   -2.1799457  0.037290796   -2.8321475   0.65220176   418189 
 1782000   0.62483129   -2.8310948   -2.8310948   -2.1797919  0.037708012   -2.8310948    0.6513029   418189 
 1783000   0.62593555   -2.8322586   -2.8322586   -2.1798047  0.053693708   -2.8322586   0.65245394   418189 
 1784000   0.62623619   -2.8332685   -2.8332685   -2.1805012  0.049299131   -2.8332685   0.65276732   418189 
 1785000   0.62577389   -2.8324062   -2.8324062   -2.1801207  0.049151168   -2.8324062   0.65228543   418189 
 1786000   0.62562063   -2.8324584   -2.8324584   -2.1803327  0.053251185   -2.8324584   0.65212568   418189 
 1787000   0.62627957   -2.8339066   -2.8339066    -2.181094  0.050957716   -2.8339066   0.65281254   418189 
 1788000   0.62572085   -2.8332136   -2.8332136   -2.1809835  0.043273785   -2.8332136   0.65223014   418189 
 1789000   0.62587209   -2.8339334   -2.8339334   -2.1815456  0.046337866   -2.8339334   0.65238779   418189 
 1790000   0.62528654    -2.833021    -2.833021   -2.1812436  0.051597281    -2.833021   0.65177744   418189 
 1791000   0.62601576   -2.8335306   -2.8335306   -2.1809931  0.049578111   -2.8335306   0.65253755   418189 
 1792000   0.62516697   -2.8332345   -2.8332345   -2.1815817  0.035734719   -2.8332345    0.6516528   418189 
 1793000   0.62674911    -2.834978    -2.834978    -2.181676  0.038469329    -2.834978   0.65330197   418189 
 1794000   0.62545683   -2.8334709   -2.8334709    -2.181516  0.047615798   -2.8334709   0.65195494   418189 
 1795000   0.62582452   -2.8339719   -2.8339719   -2.1816337  0.050591299   -2.8339719   0.65233821   418189 
 1796000   0.62546902   -2.8328912   -2.8328912   -2.1809235  0.043916174   -2.8328912   0.65196765   418189 
 1797000   0.62718076   -2.8349432   -2.8349432   -2.1811913  0.038225212   -2.8349432    0.6537519   418189 
 1798000   0.62453099   -2.8325994   -2.8325994   -2.1816095  0.038658217   -2.8325994   0.65098988   418189 
 1799000   0.62430551   -2.8324398   -2.8324398   -2.1816849  0.040236866   -2.8324398   0.65075484   418189 
 1800000   0.62657469   -2.8345804   -2.8345804   -2.1814603  0.041356846   -2.8345804   0.65312016   418189 
 1801000   0.62568831   -2.8330948   -2.8330948   -2.1808986  0.039010043   -2.8330948   0.65219622   418189 
 1802000   0.62665788   -2.8342654   -2.8342654   -2.1810585  0.042972113   -2.8342654   0.65320688   418189 
 1803000   0.62592366   -2.8332403   -2.8332403   -2.1807987  0.040793014   -2.8332403   0.65244155   418189 
 1804000   0.62661686   -2.8339796   -2.8339796   -2.1808155  0.045730271   -2.8339796   0.65316411   418189 
 1805000   0.62603809   -2.8333432   -2.8333432   -2.1807824  0.034466972   -2.8333432   0.65256083   418189 
 1806000   0.62663261   -2.8342355   -2.8342355    -2.181055  0.042454134   -2.8342355   0.65318054   418189 
 1807000   0.62635697   -2.8346894   -2.8346894   -2.1817962  0.040877911   -2.8346894   0.65289322   418189 
 1808000   0.62539238   -2.8333716   -2.8333716   -2.1814838  0.049014572   -2.8333716   0.65188776   418189 
 1809000   0.62597022   -2.8342847   -2.8342847   -2.1817946  0.040374151   -2.8342847   0.65249008   418189 
 1810000   0.62507035   -2.8344633   -2.8344633   -2.1829112   0.03923409   -2.8344633   0.65155208   418189 
 1811000   0.62560964   -2.8351824   -2.8351824   -2.1830681  0.038019285   -2.8351824   0.65211422   418189 
 1812000   0.62403037   -2.8341275   -2.8341275   -2.1836594  0.042311704   -2.8341275   0.65046805   418189 
 1813000   0.62484151   -2.8355174   -2.8355174   -2.1842039  0.042825735   -2.8355174   0.65131355   418189 
 1814000   0.62546113   -2.8361368   -2.8361368   -2.1841774  0.050823338   -2.8361368   0.65195942   418189 
 1815000   0.62558109    -2.836187    -2.836187   -2.1841025  0.049845724    -2.836187   0.65208447   418189 
 1816000   0.62450111   -2.8356031   -2.8356031   -2.1846444  0.038796675   -2.8356031   0.65095873   418189 
 1817000   0.62585279    -2.836994    -2.836994   -2.1846264  0.043522636    -2.836994   0.65236768   418189 
 1818000   0.62444337   -2.8355435   -2.8355435    -2.184645  0.049133525   -2.8355435   0.65089854   418189 
 1819000   0.62507689   -2.8367229   -2.8367229    -2.185164  0.038215031   -2.8367229   0.65155891   418189 
 1820000   0.62509412   -2.8374505   -2.8374505   -2.1858736  0.036733567   -2.8374505   0.65157686   418189 
 1821000   0.62573954   -2.8374401   -2.8374401   -2.1851905  0.044779261   -2.8374401   0.65224962   418189 
 1822000   0.62430323   -2.8365084   -2.8365084    -2.185756  0.032507189   -2.8365084   0.65075247   418189 
 1823000   0.62431726   -2.8366918   -2.8366918   -2.1859247  0.038291072   -2.8366918   0.65076709   418189 
 1824000   0.62583444   -2.8379044   -2.8379044   -2.1855558  0.039931403   -2.8379044   0.65234855   418189 
 1825000   0.62590972   -2.8374357   -2.8374357   -2.1850087  0.046071969   -2.8374357   0.65242702   418189 
 1826000   0.62604605   -2.8369178   -2.8369178   -2.1843487  0.053802947   -2.8369178   0.65256912   418189 
 1827000   0.62521244   -2.8362421   -2.8362421   -2.1845419  0.042311553   -2.8362421    0.6517002   418189 
 1828000    0.6235957   -2.8349267   -2.8349267   -2.1849117   0.05315593   -2.8349267   0.65001496   418189 
 1829000    0.6236794   -2.8349682   -2.8349682    -2.184866  0.041331275   -2.8349682   0.65010221   418189 
 1830000    0.6238232   -2.8353165   -2.8353165   -2.1850644  0.041563915   -2.8353165    0.6502521   418189 
 1831000   0.62369131   -2.8347547   -2.8347547   -2.1846401  0.035945664   -2.8347547   0.65011463   418189 
 1832000   0.62484723   -2.8356514   -2.8356514   -2.1843319  0.032291905   -2.8356514   0.65131951   418189 
 1833000   0.62518382   -2.8360179   -2.8360179   -2.1843475  0.053196467   -2.8360179   0.65167037   418189 
 1834000   0.62424871    -2.835741    -2.835741   -2.1850454   0.03661824    -2.835741   0.65069564   418189 
 1835000   0.62419059   -2.8368643   -2.8368643   -2.1862293  0.046901146   -2.8368643   0.65063505   418189 
 1836000   0.62531634   -2.8377766   -2.8377766   -2.1859681  0.041888402   -2.8377766    0.6518085   418189 
 1837000   0.62420623   -2.8362818   -2.8362818   -2.1856304  0.048104148   -2.8362818   0.65065136   418189 
 1838000   0.62345477   -2.8359432   -2.8359432   -2.1860752  0.025857135   -2.8359432   0.64986806   418189 
 1839000   0.62411472   -2.8363232   -2.8363232   -2.1857672  0.044275307   -2.8363232   0.65055597   418189 
 1840000   0.62601536    -2.838133    -2.838133   -2.1855959  0.043101116    -2.838133   0.65253713   418189 
 1841000   0.62319454   -2.8353624   -2.8353624   -2.1857656  0.040588207   -2.8353624    0.6495968   418189 
 1842000   0.62449979   -2.8361869   -2.8361869   -2.1852295  0.042752823   -2.8361869   0.65095736   418189 
 1843000   0.62334886     -2.83586     -2.83586   -2.1861024  0.040714108     -2.83586   0.64975766   418189 
 1844000   0.62393646   -2.8362084   -2.8362084   -2.1858383  0.044605899   -2.8362084   0.65037016   418189 
 1845000   0.62354995    -2.836157    -2.836157   -2.1861897  0.038019094    -2.836157   0.64996727   418189 
 1846000   0.62433492   -2.8370539   -2.8370539   -2.1862684  0.050955237   -2.8370539    0.6507855   418189 
 1847000   0.62422002   -2.8373888   -2.8373888    -2.186723  0.047073166   -2.8373888   0.65066573   418189 
 1848000   0.62320498   -2.8367985   -2.8367985   -2.1871908  0.043136106   -2.8367985   0.64960769   418189 
 1849000   0.62384316   -2.8387453   -2.8387453   -2.1884724  0.057660284   -2.8387453   0.65027291   418189 
 1850000   0.62344238   -2.8382019   -2.8382019   -2.1883467  0.034934199   -2.8382019   0.64985515   418189 
 1851000   0.62589763   -2.8409279   -2.8409279   -2.1885134  0.034986864   -2.8409279   0.65241442   418189 
 1852000    0.6241116   -2.8394066   -2.8394066   -2.1888539  0.043490561   -2.8394066   0.65055271   418189 
 1853000   0.62315717   -2.8379849   -2.8379849   -2.1884271  0.038933216   -2.8379849   0.64955785   418189 
 1854000   0.62498191   -2.8398624   -2.8398624   -2.1884025  0.036676505   -2.8398624    0.6514599   418189 
 1855000   0.62489146   -2.8394686   -2.8394686    -2.188103  0.038580976   -2.8394686   0.65136562   418189 
 1856000      0.62464   -2.8397501   -2.8397501   -2.1886466  0.040384059   -2.8397501   0.65110351   418189 
 1857000   0.62430477   -2.8385516   -2.8385516   -2.1877975   0.04533744   -2.8385516   0.65075407   418189 
 1858000   0.62429649   -2.8386065   -2.8386065   -2.1878611  0.032102173   -2.8386065   0.65074544   418189 
 1859000   0.62317155   -2.8375419   -2.8375419   -2.1879691  0.044100529   -2.8375419   0.64957285   418189 
 1860000   0.62289948   -2.8380037   -2.8380037   -2.1887145  0.045729052   -2.8380037   0.64928924   418189 
 1861000   0.62311161   -2.8388549   -2.8388549   -2.1893446  0.033640777   -2.8388549   0.64951036   418189 
 1862000   0.62519113   -2.8408405   -2.8408405   -2.1891625  0.039399541   -2.8408405   0.65167798   418189 
 1863000   0.62429531   -2.8401636   -2.8401636   -2.1894194  0.041904161   -2.8401636   0.65074421   418189 
 1864000   0.62395567   -2.8400851   -2.8400851   -2.1896949   0.04752033   -2.8400851   0.65039019   418189 
 1865000   0.62400158   -2.8402062   -2.8402062   -2.1897681   0.05143155   -2.8402062   0.65043804   418189 
 1866000   0.62420696   -2.8407184   -2.8407184   -2.1900662   0.04209302   -2.8407184   0.65065212   418189 
 1867000    0.6258851    -2.843004    -2.843004   -2.1906026  0.032085315    -2.843004   0.65240135   418189 
 1868000   0.62329126    -2.840143    -2.840143   -2.1904454  0.042267855    -2.840143   0.64969762   418189 
 1869000   0.62422866   -2.8414297   -2.8414297   -2.1907549  0.041179577   -2.8414297   0.65067474   418189 
 1870000   0.62249062   -2.8399721   -2.8399721    -2.191109   0.03001947   -2.8399721   0.64886306   418189 
 1871000   0.62282344   -2.8405871   -2.8405871   -2.1913771  0.043811898   -2.8405871   0.64920999   418189 
 1872000   0.62325726   -2.8413797   -2.8413797   -2.1917175  0.042547923   -2.8413797   0.64966219   418189 
 1873000   0.62434307   -2.8418902   -2.8418902   -2.1910963   0.03845419   -2.8418902     0.650794   418189 
 1874000   0.62451164   -2.8420331   -2.8420331   -2.1910634  0.042699645   -2.8420331   0.65096971   418189 
 1875000   0.62306655   -2.8408385   -2.8408385   -2.1913751  0.034398167   -2.8408385   0.64946339   418189 
 1876000   0.62303225   -2.8416812   -2.8416812   -2.1922535   0.04302279   -2.8416812   0.64942764   418189 
 1877000    0.6227588   -2.8406279   -2.8406279   -2.1914853  0.030773227   -2.8406279   0.64914261   418189 
 1878000   0.62366154   -2.8420429   -2.8420429   -2.1919593  0.038238697   -2.8420429    0.6500836   418189 
 1879000   0.62440534    -2.843447    -2.843447   -2.1925881   0.05060015    -2.843447   0.65085891   418189 
 1880000   0.62351089   -2.8422659   -2.8422659   -2.1923393  0.040742549   -2.8422659   0.64992656   418189 
 1881000   0.62367302   -2.8426621   -2.8426621   -2.1925666  0.046623119   -2.8426621   0.65009556   418189 
 1882000   0.62346248   -2.8426799   -2.8426799   -2.1928038  0.052133181   -2.8426799   0.64987609   418189 
 1883000   0.62299515   -2.8422818   -2.8422818   -2.1928929   0.04168643   -2.8422818   0.64938897   418189 
 1884000   0.62428936   -2.8432364   -2.8432364   -2.1924984  0.041968881   -2.8432364   0.65073801   418189 
 1885000   0.62262735   -2.8417436   -2.8417436    -2.192738  0.047857074   -2.8417436   0.64900559   418189 
 1886000   0.62416882   -2.8437778   -2.8437778   -2.1931655  0.026859884   -2.8437778   0.65061236   418189 
 1887000   0.62392012   -2.8429086   -2.8429086   -2.1925555  0.040931064   -2.8429086   0.65035313   418189 
 1888000   0.62269772    -2.842528    -2.842528    -2.193449   0.04080339    -2.842528   0.64907894   418189 
 1889000    0.6211051   -2.8404011   -2.8404011   -2.1929823  0.033889599   -2.8404011   0.64741884   418189 
 1890000   0.62272999   -2.8417506   -2.8417506   -2.1926381  0.047099631   -2.8417506   0.64911257   418189 
 1891000   0.62254208   -2.8419281   -2.8419281   -2.1930114   0.04583477   -2.8419281    0.6489167   418189 
 1892000   0.62379843   -2.8425578   -2.8425578   -2.1923315  0.041564747   -2.8425578   0.65022628   418189 
 1893000   0.62391514   -2.8429751   -2.8429751   -2.1926271  0.046259828   -2.8429751   0.65034794   418189 
 1894000   0.62376414   -2.8434193   -2.8434193   -2.1932287  0.031747509   -2.8434193   0.65019054   418189 
 1895000   0.62431923    -2.844209    -2.844209   -2.1934399  0.048209209    -2.844209   0.65076914   418189 
 1896000   0.62238472   -2.8416349   -2.8416349   -2.1928822  0.039525975   -2.8416349   0.64875268   418189 
 1897000    0.6232154   -2.8432753   -2.8432753   -2.1936568  0.038030329   -2.8432753   0.64961855   418189 
 1898000   0.62435639   -2.8441105   -2.8441105   -2.1933026  0.040302499   -2.8441105   0.65080788   418189 
 1899000   0.62418696   -2.8442606   -2.8442606   -2.1936293  0.057314361   -2.8442606   0.65063127   418189 
 1900000   0.62309163   -2.8436494   -2.8436494   -2.1941598  0.046889645   -2.8436494   0.64948954   418189 
 1901000   0.62310035   -2.8444369   -2.8444369   -2.1949383  0.051584282   -2.8444369   0.64949862   418189 
 1902000   0.62308946   -2.8442412   -2.8442412    -2.194754  0.055406498   -2.8442412   0.64948727   418189 
 1903000   0.62281968   -2.8447089   -2.8447089   -2.1955028  0.043118679   -2.8447089   0.64920607   418189 
 1904000   0.62146419   -2.8432553   -2.8432553   -2.1954622  0.044846336   -2.8432553   0.64779315   418189 
 1905000   0.62228336   -2.8438481   -2.8438481   -2.1952011   0.04164074   -2.8438481   0.64864702   418189 
 1906000   0.62357878   -2.8453124   -2.8453124   -2.1953151  0.045908378   -2.8453124   0.64999733   418189 
 1907000   0.62282807    -2.844964    -2.844964   -2.1957492  0.046077896    -2.844964   0.64921482   418189 
 1908000    0.6228288   -2.8447626   -2.8447626   -2.1955471  0.047582201   -2.8447626   0.64921557   418189 
 1909000   0.62245345    -2.844579    -2.844579   -2.1957547  0.043595991    -2.844579   0.64882432   418189 
 1910000   0.62366183   -2.8460234   -2.8460234   -2.1959395   0.04390776   -2.8460234    0.6500839   418189 
 1911000   0.62231309   -2.8447523   -2.8447523   -2.1960743  0.050171102   -2.8447523   0.64867801   418189 
 1912000   0.62146827   -2.8440807   -2.8440807   -2.1962833  0.041802517   -2.8440807    0.6477974   418189 
 1913000   0.62168495   -2.8442799   -2.8442799   -2.1962566   0.04654722   -2.8442799   0.64802326   418189 
 1914000   0.62164328   -2.8449419   -2.8449419   -2.1969621  0.053500217   -2.8449419   0.64797983   418189 
 1915000    0.6215432   -2.8449256   -2.8449256   -2.1970501  0.043749083   -2.8449256   0.64787551   418189 
 1916000   0.62143569   -2.8457184   -2.8457184    -2.197955  0.040396099   -2.8457184   0.64776345   418189 
 1917000   0.62148347   -2.8456101   -2.8456101   -2.1977969  0.032836505   -2.8456101   0.64781325   418189 
 1918000   0.62184974    -2.846492    -2.846492   -2.1982969  0.042930614    -2.846492   0.64819503   418189 
 1919000   0.62158572   -2.8466952   -2.8466952   -2.1987754  0.044490526   -2.8466952   0.64791983   418189 
 1920000   0.62196271   -2.8469679   -2.8469679   -2.1986551   0.03310094   -2.8469679   0.64831278   418189 
 1921000   0.62182507   -2.8466979   -2.8466979   -2.1985285   0.04333718   -2.8466979   0.64816932   418189 
 1922000   0.62230755   -2.8470083   -2.8470083    -2.198336   0.03536563   -2.8470083   0.64867224   418189 
 1923000    0.6227365   -2.8479026   -2.8479026   -2.1987833   0.04913584   -2.8479026   0.64911936   418189 
 1924000   0.62316156    -2.848556    -2.848556   -2.1989936  0.040229555    -2.848556   0.64956242   418189 
 1925000   0.62131207   -2.8462315   -2.8462315   -2.1985969  0.028547294   -2.8462315   0.64763458   418189 
 1926000   0.62227031   -2.8469564   -2.8469564    -2.198323  0.032279936   -2.8469564   0.64863342   418189 
 1927000    0.6225179   -2.8475245   -2.8475245    -2.198633  0.030759552   -2.8475245    0.6488915   418189 
 1928000    0.6234351   -2.8488119   -2.8488119   -2.1989643  0.039336201   -2.8488119   0.64984756   418189 
 1929000   0.62119595   -2.8460633   -2.8460633   -2.1985498  0.030107688   -2.8460633   0.64751355   418189 
 1930000   0.62344465   -2.8485621   -2.8485621   -2.1987046  0.029810113   -2.8485621   0.64985752   418189 
 1931000   0.62244611   -2.8478113   -2.8478113   -2.1989946  0.044475051   -2.8478113   0.64881667   418189 
 1932000   0.62212093   -2.8474258   -2.8474258   -2.1989481  0.042403559   -2.8474258   0.64847771   418189 
 1933000   0.62099245   -2.8457253   -2.8457253   -2.1984239  0.043482744   -2.8457253   0.64730142   418189 
 1934000    0.6218158   -2.8462301   -2.8462301   -2.1980704  0.048131549   -2.8462301   0.64815965   418189 
 1935000   0.62072133   -2.8454868   -2.8454868    -2.198468  0.033377674   -2.8454868   0.64701882   418189 
 1936000   0.62294921   -2.8484286   -2.8484286   -2.1990875  0.044745213   -2.8484286   0.64934108   418189 
 1937000     0.622787   -2.8481955   -2.8481955   -2.1990235   0.04250587   -2.8481955     0.649172   418189 
 1938000   0.62156112   -2.8464421   -2.8464421   -2.1985479  0.045883179   -2.8464421   0.64789418   418189 
 1939000   0.62248716   -2.8477176   -2.8477176   -2.1988581  0.041077719   -2.8477176   0.64885946   418189 
 1940000   0.62243171   -2.8470666   -2.8470666    -2.198265  0.032998665   -2.8470666   0.64880166   418189 
 1941000   0.62324671   -2.8484713   -2.8484713   -2.1988201  0.039622924   -2.8484713   0.64965119   418189 
 1942000   0.62256461   -2.8475161   -2.8475161   -2.1985759  0.040755085   -2.8475161   0.64894019   418189 
 1943000    0.6225524   -2.8477632   -2.8477632   -2.1988358   0.04264654   -2.8477632   0.64892747   418189 
 1944000    0.6227933   -2.8482693   -2.8482693   -2.1990908  0.029685293   -2.8482693   0.64917857   418189 
 1945000   0.62171198   -2.8472068   -2.8472068   -2.1991554  0.051803431   -2.8472068   0.64805144   418189 
 1946000   0.62223519   -2.8484295   -2.8484295   -2.1998327  0.044887846   -2.8484295   0.64859681   418189 
 1947000   0.62156675   -2.8474544   -2.8474544   -2.1995543  0.039933304   -2.8474544   0.64790005   418189 
 1948000   0.62131223   -2.8473379   -2.8473379   -2.1997031  0.039679867   -2.8473379   0.64763475   418189 
 1949000    0.6225213   -2.8487942   -2.8487942   -2.1998992  0.031024578   -2.8487942   0.64889505   418189 
 1950000   0.62217635   -2.8482491   -2.8482491   -2.1997136   0.04840657   -2.8482491   0.64853548   418189 
 1951000   0.62210641   -2.8483603   -2.8483603   -2.1998978  0.056482414   -2.8483603   0.64846258   418189 
 1952000    0.6218649   -2.8492153   -2.8492153   -2.2010045  0.043264812   -2.8492153   0.64821084   418189 
 1953000   0.62236534   -2.8491912   -2.8491912   -2.2004587  0.027901049   -2.8491912   0.64873248   418189 
 1954000   0.62287965   -2.8502621   -2.8502621   -2.2009935  0.043079427   -2.8502621   0.64926858   418189 
 1955000   0.62167558   -2.8488575   -2.8488575    -2.200844  0.026289922   -2.8488575    0.6480135   418189 
 1956000   0.62274312   -2.8497339   -2.8497339   -2.2006076  0.054637312   -2.8497339   0.64912626   418189 
 1957000   0.62307625   -2.8492104   -2.8492104   -2.1997369  0.025696903   -2.8492104   0.64947351   418189 
 1958000   0.62275224   -2.8492081   -2.8492081   -2.2000723  0.061624185   -2.8492081   0.64913576   418189 
 1959000   0.62230265   -2.8491655   -2.8491655   -2.2004983  0.050519068   -2.8491655   0.64866713   418189 
 1960000   0.62192637   -2.8488583   -2.8488583   -2.2005834  0.034376358   -2.8488583   0.64827491   418189 
 1961000   0.62148475   -2.8497386   -2.8497386   -2.2019241  0.045200733   -2.8497386   0.64781458   418189 
 1962000   0.62195952   -2.8499124   -2.8499124   -2.2016029   0.04037917   -2.8499124   0.64830946   418189 
 1963000   0.62138446   -2.8490609   -2.8490609   -2.2013509  0.041770884   -2.8490609   0.64771004   418189 
 1964000   0.62086639   -2.8484374   -2.8484374   -2.2012674  0.039000313   -2.8484374   0.64717002   418189 
 1965000   0.62188553   -2.8503622   -2.8503622   -2.2021298  0.034397562   -2.8503622   0.64823234   418189 
 1966000   0.62270309   -2.8509712   -2.8509712   -2.2018867  0.050281405   -2.8509712   0.64908454   418189 
 1967000    0.6217291   -2.8501503   -2.8501503    -2.202081  0.030776831   -2.8501503   0.64806929   418189 
 1968000   0.62196302   -2.8511857   -2.8511857   -2.2028726   0.02956205   -2.8511857   0.64831311   418189 
 1969000   0.62231267    -2.850879    -2.850879   -2.2022014  0.043971714    -2.850879   0.64867758   418189 
 1970000   0.62212899   -2.8514667   -2.8514667   -2.2029806   0.04471423   -2.8514667   0.64848611   418189 
 1971000   0.62238701   -2.8521928   -2.8521928   -2.2034377  0.044567276   -2.8521928   0.64875506   418189 
 1972000   0.62196024   -2.8514516   -2.8514516   -2.2031414  0.042541026   -2.8514516   0.64831021   418189 
 1973000   0.62301653    -2.851442    -2.851442   -2.2020307  0.042611768    -2.851442   0.64941126   418189 
 1974000   0.62307357   -2.8517342   -2.8517342   -2.2022635  0.041439712   -2.8517342   0.64947071   418189 
 1975000   0.62079407   -2.8496241   -2.8496241   -2.2025294  0.042981291   -2.8496241   0.64709464   418189 
 1976000   0.62221352   -2.8511751   -2.8511751   -2.2026009  0.041394694   -2.8511751   0.64857422   418189 
 1977000   0.62130266   -2.8507691   -2.8507691   -2.2031443  0.032807044   -2.8507691   0.64762478   418189 
 1978000   0.62112618   -2.8508495   -2.8508495   -2.2034087  0.044716484   -2.8508495   0.64744082   418189 
 1979000   0.62274866   -2.8525865   -2.8525865   -2.2034545  0.046353797   -2.8525865   0.64913204   418189 
 1980000   0.62085684   -2.8503864   -2.8503864   -2.2032263  0.030071617   -2.8503864   0.64716007   418189 
 1981000    0.6202688    -2.850045    -2.850045   -2.2034979  0.031268494    -2.850045   0.64654712   418189 
 1982000   0.62123857   -2.8510824   -2.8510824   -2.2035245  0.049018537   -2.8510824   0.64755797   418189 
 1983000   0.62133001   -2.8513545   -2.8513545   -2.2037012  0.041636451   -2.8513545   0.64765329   418189 
 1984000    0.6213317   -2.8519848   -2.8519848   -2.2043297  0.034807431   -2.8519848   0.64765505   418189 
 1985000   0.62245955   -2.8525037   -2.8525037   -2.2036731  0.032964505   -2.8525037   0.64883068   418189 
 1986000   0.62121913   -2.8515845   -2.8515845   -2.2040468  0.039735244   -2.8515845   0.64753771   418189 
 1987000   0.62050056   -2.8506382   -2.8506382   -2.2038495  0.037131273   -2.8506382   0.64678869   418189 
 1988000   0.62136525   -2.8510386   -2.8510386   -2.2033485  0.040898828   -2.8510386   0.64769002   418189 
 1989000   0.62042131   -2.8499392   -2.8499392   -2.2032331  0.043651132   -2.8499392   0.64670608   418189 
 1990000   0.62222513   -2.8513909   -2.8513909   -2.2028045  0.055107174   -2.8513909   0.64858633   418189 
 1991000   0.62111743   -2.8506371   -2.8506371   -2.2032054  0.042981063   -2.8506371    0.6474317   418189 
 1992000   0.62090038   -2.8511597   -2.8511597   -2.2039542   0.03770121   -2.8511597   0.64720546   418189 
 1993000   0.62202921   -2.8519385   -2.8519385   -2.2035564   0.04948971   -2.8519385   0.64838211   418189 
 1994000   0.62287646   -2.8527164   -2.8527164   -2.2034511  0.039817421   -2.8527164   0.64926525   418189 
 1995000   0.62134895   -2.8509723   -2.8509723   -2.2032993   0.06309763   -2.8509723   0.64767303   418189 
 1996000   0.62204413     -2.85241     -2.85241   -2.2040123  0.049168249     -2.85241   0.64839766   418189 
 1997000   0.62018061   -2.8511347   -2.8511347   -2.2046795  0.032693403   -2.8511347   0.64645519   418189 
 1998000   0.62051772   -2.8509059   -2.8509059   -2.2040993  0.050191029   -2.8509059   0.64680658   418189 
 1999000    0.6208687   -2.8516523   -2.8516523   -2.2044799  0.043284431   -2.8516523   0.64717243   418189 
 2000000   0.62101072    -2.852557    -2.852557   -2.2052365  0.041526982    -2.852557   0.64732047   418189 
 2001000   0.62188592   -2.8535018   -2.8535018   -2.2052691  0.052720339   -2.8535018   0.64823274   418189 
 2002000   0.62015112    -2.851906    -2.851906   -2.2054816  0.052643518    -2.851906   0.64642445   418189 
 2003000   0.62054258   -2.8532017   -2.8532017   -2.2063692  0.030065099   -2.8532017    0.6468325   418189 
 2004000   0.62095014   -2.8538371   -2.8538371   -2.2065798  0.033792959   -2.8538371   0.64725732   418189 
 2005000   0.62126706   -2.8538073   -2.8538073   -2.2062196  0.051807783   -2.8538073   0.64758766   418189 
 2006000   0.62116836   -2.8532966   -2.8532966   -2.2058118  0.032985412   -2.8532966   0.64748478   418189 
 2007000    0.6213865   -2.8533031   -2.8533031   -2.2055909  0.035728802   -2.8533031   0.64771216   418189 
 2008000   0.62193782   -2.8538884   -2.8538884   -2.2056016  0.025938635   -2.8538884   0.64828684   418189 
 2009000    0.6209614    -2.853051    -2.853051   -2.2057819  0.036216375    -2.853051   0.64726906   418189 
 2010000   0.62108795   -2.8531105   -2.8531105   -2.2057095  0.043530734   -2.8531105   0.64740097   418189 
 2011000   0.62161569   -2.8536451   -2.8536451   -2.2056941   0.04351908   -2.8536451   0.64795106   418189 
 2012000   0.62008014   -2.8519371   -2.8519371   -2.2055866  0.030811265   -2.8519371   0.64635047   418189 
 2013000   0.62153415   -2.8541609   -2.8541609   -2.2062948  0.057186987   -2.8541609   0.64786608   418189 
 2014000   0.62118579   -2.8531296   -2.8531296   -2.2056266  0.039011774   -2.8531296   0.64750295   418189 
 2015000   0.61905284   -2.8517055   -2.8517055   -2.2064259  0.050162208   -2.8517055   0.64527964   418189 
 2016000    0.6203095   -2.8537873   -2.8537873   -2.2071977  0.042868813   -2.8537873   0.64658954   418189 
 2017000   0.62135883   -2.8551988   -2.8551988   -2.2075155  0.032237456   -2.8551988   0.64768332   418189 
 2018000   0.62091264   -2.8534729   -2.8534729   -2.2062547  0.049773949   -2.8534729   0.64721824   418189 
 2019000   0.62082969   -2.8538172   -2.8538172   -2.2066855  0.047357597   -2.8538172   0.64713177   418189 
 2020000   0.62062421   -2.8550042   -2.8550042   -2.2080866  0.044235159   -2.8550042   0.64691758   418189 
 2021000   0.62190203   -2.8557016   -2.8557016   -2.2074521   0.02828412   -2.8557016   0.64824954   418189 
 2022000   0.62106969   -2.8549389   -2.8549389    -2.207557  0.031325568   -2.8549389   0.64738193   418189 
 2023000   0.62148799   -2.8554313   -2.8554313   -2.2076133  0.036927605   -2.8554313   0.64781796   418189 
 2024000   0.62043238   -2.8545411   -2.8545411   -2.2078234  0.042406886   -2.8545411   0.64671763   418189 
 2025000   0.62056818    -2.854462    -2.854462   -2.2076028  0.032563955    -2.854462   0.64685917   418189 
 2026000   0.62138996   -2.8551363   -2.8551363   -2.2074205  0.046486133   -2.8551363   0.64771577   418189 
 2027000   0.61942112   -2.8527528   -2.8527528   -2.2070893  0.029180908   -2.8527528   0.64566352   418189 
 2028000   0.62107289   -2.8547454   -2.8547454   -2.2073601  0.043977148   -2.8547454   0.64738527   418189 
 2029000   0.62011342    -2.854639    -2.854639   -2.2082539  0.029004118    -2.854639   0.64638515   418189 
 2030000   0.61963893   -2.8537629   -2.8537629   -2.2078723   0.03529759   -2.8537629   0.64589056   418189 
 2031000   0.62062335   -2.8554088   -2.8554088   -2.2084921  0.049044731   -2.8554088   0.64691668   418189 
 2032000   0.61979907   -2.8541452   -2.8541452   -2.2080877  0.052984323   -2.8541452   0.64605748   418189 
 2033000   0.61973979   -2.8547924   -2.8547924   -2.2087967  0.038710966   -2.8547924    0.6459957   418189 
 2034000   0.61924598   -2.8540228   -2.8540228   -2.2085419  0.056918993   -2.8540228   0.64548096   418189 
 2035000   0.61933327   -2.8541393   -2.8541393   -2.2085674  0.031756444   -2.8541393   0.64557195   418189 
 2036000   0.62024059    -2.854996    -2.854996   -2.2084783  0.029515604    -2.854996   0.64651771   418189 
 2037000   0.61948474   -2.8541999   -2.8541999     -2.20847  0.038169182   -2.8541999   0.64572984   418189 
 2038000   0.62101176   -2.8550601   -2.8550601   -2.2077385  0.031775359   -2.8550601   0.64732155   418189 
 2039000   0.62087392   -2.8543501   -2.8543501   -2.2071722  0.037273228   -2.8543501   0.64717787   418189 
 2040000   0.61953459   -2.8540226   -2.8540226   -2.2082408   0.04097511   -2.8540226    0.6457818   418189 
 2041000   0.62066335   -2.8544774   -2.8544774    -2.207519  0.038510997   -2.8544774   0.64695838   418189 
 2042000   0.62004225   -2.8537539   -2.8537539   -2.2074429  0.059788122   -2.8537539   0.64631097   418189 
 2043000   0.62178682   -2.8553975   -2.8553975    -2.207268  0.043383575   -2.8553975   0.64812945   418189 
 2044000   0.62210233   -2.8558161   -2.8558161   -2.2073578  0.037593615   -2.8558161   0.64845832   418189 
 2045000   0.62099569   -2.8548775   -2.8548775   -2.2075727  0.044546124   -2.8548775    0.6473048   418189 
 2046000   0.62090687   -2.8545207   -2.8545207   -2.2073085  0.042656323   -2.8545207   0.64721222   418189 
 2047000   0.62192368   -2.8561837   -2.8561837   -2.2079116  0.042033151   -2.8561837    0.6482721   418189 
 2048000   0.62156897   -2.8551552   -2.8551552   -2.2072528  0.047668197   -2.8551552   0.64790236   418189 
 2049000   0.62137774    -2.855318    -2.855318   -2.2076149  0.040681338    -2.855318   0.64770303   418189 
 2050000   0.62048749   -2.8548824   -2.8548824   -2.2081073  0.033115648   -2.8548824   0.64677507   418189 
 2051000   0.62203646   -2.8554079   -2.8554079   -2.2070183  0.051738035   -2.8554079   0.64838967   418189 
 2052000   0.62102337   -2.8545047   -2.8545047   -2.2071711  0.049056975   -2.8545047   0.64733366   418189 
 2053000   0.62013682   -2.8539025   -2.8539025   -2.2074929  0.035698636   -2.8539025   0.64640954   418189 
 2054000   0.61975831   -2.8536218   -2.8536218   -2.2076068  0.048798907   -2.8536218     0.646015   418189 
 2055000   0.62130722    -2.854959    -2.854959   -2.2073295  0.032788122    -2.854959   0.64762952   418189 
 2056000   0.62014087    -2.853631    -2.853631   -2.2072173  0.048952194    -2.853631   0.64641377   418189 
 2057000   0.62208084   -2.8560674   -2.8560674   -2.2076315  0.046631915   -2.8560674   0.64843592   418189 
 2058000   0.61986112    -2.854922    -2.854922   -2.2087998  0.048312694    -2.854922   0.64612217   418189 
 2059000   0.62043159    -2.855208    -2.855208   -2.2084912  0.035673754    -2.855208    0.6467168   418189 
 2060000   0.61946414   -2.8543331   -2.8543331   -2.2086247  0.033831951   -2.8543331   0.64570837   418189 
 2061000   0.62087459   -2.8552604   -2.8552604   -2.2080819  0.034938111   -2.8552604   0.64717857   418189 
 2062000   0.62095925   -2.8552697   -2.8552697   -2.2080029  0.039394421   -2.8552697   0.64726681   418189 
 2063000   0.62117642   -2.8558536   -2.8558536   -2.2083604   0.03705188   -2.8558536   0.64749318   418189 
 2064000    0.6205505   -2.8558194   -2.8558194   -2.2089786  0.048084053   -2.8558194   0.64684075   418189 
 2065000   0.62094787   -2.8563005   -2.8563005   -2.2090455  0.048803347   -2.8563005   0.64725496   418189 
 2066000   0.62073485   -2.8565174   -2.8565174   -2.2094845  0.035464279   -2.8565174   0.64703291   418189 
 2067000   0.62068326   -2.8565409   -2.8565409   -2.2095618  0.036592144   -2.8565409   0.64697914   418189 
 2068000   0.62114081   -2.8571371   -2.8571371   -2.2096811  0.033843787   -2.8571371   0.64745607   418189 
 2069000    0.6191686   -2.8551887   -2.8551887   -2.2097884  0.046578868   -2.8551887   0.64540031   418189 
 2070000    0.6206833   -2.8564502   -2.8564502    -2.209471  0.044835046   -2.8564502   0.64697918   418189 
 2071000   0.61957601   -2.8553941   -2.8553941   -2.2095691  0.035063074   -2.8553941   0.64582497   418189 
 2072000   0.62005705   -2.8568433   -2.8568433   -2.2105169  0.042704494   -2.8568433    0.6463264   418189 
 2073000   0.61985108   -2.8568598   -2.8568598   -2.2107481  0.033021957   -2.8568598    0.6461117   418189 
 2074000    0.6195878   -2.8571721   -2.8571721   -2.2113348  0.025140693   -2.8571721   0.64583727   418189 
 2075000   0.62064736   -2.8582788   -2.8582788   -2.2113371  0.039506607   -2.8582788   0.64694172   418189 
 2076000   0.62011233   -2.8579602   -2.8579602   -2.2115761  0.043684865   -2.8579602   0.64638402   418189 
 2077000   0.61989416   -2.8570763   -2.8570763   -2.2109197  0.031953917   -2.8570763    0.6461566   418189 
 2078000   0.61984028   -2.8575496   -2.8575496   -2.2114491  0.031331748   -2.8575496   0.64610044   418189 
 2079000   0.61998308   -2.8576034   -2.8576034   -2.2113542  0.051857267   -2.8576034   0.64624929   418189 
 2080000   0.61930653   -2.8572476   -2.8572476   -2.2117036  0.036599191   -2.8572476   0.64554407   418189 
 2081000   0.61928454   -2.8567205   -2.8567205   -2.2111993  0.037680997   -2.8567205   0.64552116   418189 
 2082000   0.61962395   -2.8575483   -2.8575483   -2.2116733  0.041908715   -2.8575483   0.64587495   418189 
 2083000   0.62020614   -2.8584264   -2.8584264   -2.2119446  0.033516392   -2.8584264    0.6464818   418189 
 2084000    0.6204848   -2.8591408   -2.8591408   -2.2123685  0.050234131   -2.8591408   0.64677226   418189 
 2085000   0.61980536   -2.8592105   -2.8592105   -2.2131465  0.045577375   -2.8592105   0.64606404   418189 
 2086000   0.61912324   -2.8585177   -2.8585177   -2.2131647  0.037560753   -2.8585177   0.64535303   418189 
 2087000   0.62022892   -2.8597354   -2.8597354   -2.2132299  0.048820316   -2.8597354   0.64650555   418189 
 2088000   0.62065123   -2.8592851   -2.8592851   -2.2123394   0.04755089   -2.8592851   0.64694575   418189 
 2089000   0.62082027   -2.8594145   -2.8594145   -2.2122926  0.042245223   -2.8594145   0.64712195   418189 
 2090000   0.62068451    -2.859661    -2.859661   -2.2126806  0.039552712    -2.859661   0.64698044   418189 
 2091000   0.62127667   -2.8603858   -2.8603858   -2.2127882  0.033738212   -2.8603858   0.64759769   418189 
 2092000   0.62041228   -2.8597391   -2.8597391   -2.2130425  0.033797174   -2.8597391   0.64669667   418189 
 2093000   0.62018479   -2.8601158   -2.8601158   -2.2136562  0.047441181   -2.8601158   0.64645955   418189 
 2094000   0.61985802   -2.8603101   -2.8603101   -2.2141911  0.040482826   -2.8603101   0.64611893   418189 
 2095000   0.61960177   -2.8600733   -2.8600733   -2.2142215  0.044510829   -2.8600733   0.64585182   418189 
 2096000   0.61865267   -2.8590366   -2.8590366   -2.2141741  0.036166971   -2.8590366   0.64486252   418189 
 2097000   0.62022373   -2.8607849   -2.8607849   -2.2142848  0.048601952   -2.8607849   0.64650014   418189 
 2098000    0.6199741   -2.8599261   -2.8599261   -2.2136861  0.033348531   -2.8599261   0.64623993   418189 
 2099000     0.619826   -2.8602019   -2.8602019   -2.2141164  0.040963325   -2.8602019   0.64608556   418189 
 2100000   0.61958815    -2.860025    -2.860025   -2.2141874  0.038351045    -2.860025   0.64583763   418189 
 2101000   0.62134308   -2.8612169   -2.8612169     -2.21355  0.032473651   -2.8612169   0.64766691   418189 
 2102000   0.61955449   -2.8590121   -2.8590121   -2.2132095  0.046315686   -2.8590121   0.64580255   418189 
 2103000   0.61998826   -2.8596353   -2.8596353   -2.2133806  0.042182645   -2.8596353   0.64625469   418189 
 2104000   0.62000883   -2.8598662   -2.8598662     -2.21359   0.03609244   -2.8598662   0.64627613   418189 
 2105000   0.61938651   -2.8591964   -2.8591964   -2.2135689  0.037469632   -2.8591964   0.64562744   418189 
 2106000   0.61951551   -2.8590367   -2.8590367   -2.2132748  0.057784448   -2.8590367   0.64576191   418189 
 2107000   0.61827802   -2.8584598   -2.8584598   -2.2139878  0.032682769   -2.8584598   0.64447199   418189 
 2108000   0.61964886   -2.8598483   -2.8598483   -2.2139473  0.049520291   -2.8598483   0.64590091   418189 
 2109000   0.61790963   -2.8582902   -2.8582902   -2.2142022  0.035277327   -2.8582902     0.644088   418189 
 2110000   0.61913501   -2.8594427   -2.8594427   -2.2140774  0.033870615   -2.8594427   0.64536529   418189 
 2111000   0.61904691   -2.8587563   -2.8587563   -2.2134828  0.032980448   -2.8587563   0.64527346   418189 
 2112000   0.61982102   -2.8599521   -2.8599521   -2.2138718  0.035259482   -2.8599521   0.64608037   418189 
 2113000   0.62026631    -2.860196    -2.860196   -2.2136514   0.03507854    -2.860196   0.64654452   418189 
 2114000    0.6198904   -2.8598152   -2.8598152   -2.2136625  0.044984026   -2.8598152   0.64615268   418189 
 2115000    0.6197999   -2.8609444   -2.8609444    -2.214886   0.04349526   -2.8609444   0.64605835   418189 
 2116000   0.61956885   -2.8607021   -2.8607021   -2.2148846  0.044090828   -2.8607021   0.64581751   418189 
 2117000   0.61914747   -2.8606045   -2.8606045   -2.2152262  0.031287524   -2.8606045   0.64537828   418189 
 2118000   0.61833453   -2.8601695   -2.8601695   -2.2156386  0.038090773   -2.8601695    0.6445309   418189 
 2119000    0.6186291   -2.8599497   -2.8599497   -2.2151118  0.032725093   -2.8599497   0.64483795   418189 
 2120000   0.61779463   -2.8592774   -2.8592774   -2.2153093  0.037505227   -2.8592774   0.64396813   418189 
 2121000   0.61967858   -2.8615057   -2.8615057   -2.2155738  0.045475069   -2.8615057   0.64593189   418189 
 2122000   0.61921225    -2.861175    -2.861175   -2.2157292  0.047970748    -2.861175   0.64544581   418189 
 2123000   0.61984686   -2.8621271   -2.8621271   -2.2160198  0.036699091   -2.8621271    0.6461073   418189 
 2124000   0.61788916   -2.8604624   -2.8604624   -2.2163957  0.049464558   -2.8604624   0.64406666   418189 
 2125000    0.6187804   -2.8615851   -2.8615851   -2.2165895  0.038382905   -2.8615851   0.64499566   418189 
 2126000   0.61898907   -2.8610585   -2.8610585   -2.2158454   0.03437711   -2.8610585   0.64521316   418189 
 2127000   0.61869511    -2.861326    -2.861326   -2.2164192  0.048415467    -2.861326   0.64490675   418189 
 2128000   0.61914846   -2.8624413   -2.8624413    -2.217062   0.04305608   -2.8624413   0.64537931   418189 
 2129000   0.61817292   -2.8616532   -2.8616532   -2.2172908  0.039377598   -2.8616532   0.64436244   418189 
 2130000   0.61766941   -2.8613413   -2.8613413   -2.2175037  0.038775068   -2.8613413    0.6438376   418189 
 2131000   0.61933989   -2.8629147   -2.8629147   -2.2173359  0.046692825   -2.8629147   0.64557886   418189 
 2132000   0.61940143   -2.8625991   -2.8625991   -2.2169561  0.034458739   -2.8625991     0.645643   418189 
 2133000   0.61874988   -2.8623888   -2.8623888   -2.2174249  0.037462996   -2.8623888   0.64496385   418189 
 2134000   0.61902364   -2.8628811   -2.8628811   -2.2176319  0.046451272   -2.8628811   0.64524921   418189 
 2135000   0.61919237   -2.8626494   -2.8626494   -2.2172243   0.05523299   -2.8626494   0.64542508   418189 
 2136000   0.62018767   -2.8639582   -2.8639582   -2.2174956  0.045431173   -2.8639582   0.64646255   418189 
 2137000   0.61936066   -2.8630482   -2.8630482   -2.2174477  0.050532653   -2.8630482    0.6456005   418189 
 2138000   0.61864883   -2.8619857   -2.8619857   -2.2171271  0.030475878   -2.8619857   0.64485852   418189 
 2139000   0.61863654   -2.8633587   -2.8633587    -2.218513  0.042998506   -2.8633587    0.6448457   418189 
 2140000   0.61829488   -2.8629082   -2.8629082   -2.2184186  0.044816455   -2.8629082   0.64448957   418189 
 2141000   0.61788295   -2.8617654   -2.8617654   -2.2177052  0.031963304   -2.8617654   0.64406019   418189 
 2142000   0.61717214   -2.8618054   -2.8618054   -2.2184861   0.03678876   -2.8618054   0.64331927   418189 
 2143000   0.61743938   -2.8620149   -2.8620149   -2.2184171  0.034296615   -2.8620149   0.64359783   418189 
 2144000   0.61883913   -2.8633448   -2.8633448   -2.2182879  0.036190115   -2.8633448   0.64505688   418189 
 2145000   0.61836868   -2.8628135   -2.8628135   -2.2182471  0.047119837   -2.8628135    0.6445665   418189 
 2146000   0.61948936   -2.8637032   -2.8637032   -2.2179686  0.036917669   -2.8637032   0.64573466   418189 
 2147000   0.61900906   -2.8631744   -2.8631744   -2.2179404  0.037234413   -2.8631744   0.64523401   418189 
 2148000   0.61882036   -2.8633791   -2.8633791   -2.2183418  0.040554638   -2.8633791   0.64503731   418189 
 2149000   0.61952782   -2.8639754   -2.8639754   -2.2182006  0.043105818   -2.8639754   0.64577474   418189 
 2150000   0.61903966   -2.8637294   -2.8637294   -2.2184635  0.045391516   -2.8637294    0.6452659   418189 
 2151000   0.61803264   -2.8631291   -2.8631291   -2.2189129  0.033677967   -2.8631291   0.64421622   418189 
 2152000   0.61696024   -2.8626279   -2.8626279   -2.2195295  0.036253277   -2.8626279   0.64309838   418189 
 2153000   0.61792287   -2.8631111   -2.8631111   -2.2190093  0.027807543   -2.8631111    0.6441018   418189 
 2154000   0.61730734   -2.8630989   -2.8630989   -2.2196387  0.037119533   -2.8630989   0.64346019   418189 
 2155000   0.61535831   -2.8619887   -2.8619887   -2.2205602  0.034909993   -2.8619887   0.64142858   418189 
 2156000   0.61858881   -2.8651258   -2.8651258   -2.2203298  0.032032687   -2.8651258   0.64479595   418189 
 2157000   0.61862309    -2.865684    -2.865684   -2.2208524  0.045002146    -2.865684   0.64483168   418189 
 2158000    0.6182565   -2.8658033   -2.8658033   -2.2213538  0.039387424   -2.8658033   0.64444956   418189 
 2159000   0.61786511   -2.8654669   -2.8654669   -2.2214253  0.026907194   -2.8654669   0.64404159   418189 
 2160000    0.6188908   -2.8665036   -2.8665036   -2.2213929  0.047915245   -2.8665036   0.64511073   418189 
 2161000   0.61713499   -2.8649618   -2.8649618   -2.2216813  0.030106616   -2.8649618   0.64328054   418189 
 2162000   0.61844399   -2.8662367   -2.8662367   -2.2215917  0.047132157   -2.8662367     0.644645   418189 
 2163000   0.61858499   -2.8670376   -2.8670376   -2.2222456    0.0338633   -2.8670376   0.64479196   418189 
 2164000   0.61723801   -2.8651901   -2.8651901   -2.2218022  0.039204188   -2.8651901   0.64338792   418189 
 2165000   0.61783157   -2.8655355   -2.8655355   -2.2215289  0.055150206   -2.8655355   0.64400663   418189 
 2166000   0.61759219   -2.8646391   -2.8646391    -2.220882  0.032368611   -2.8646391    0.6437571   418189 
 2167000   0.61915321   -2.8658993   -2.8658993    -2.220515  0.050901606   -2.8658993   0.64538426   418189 
 2168000   0.61851285   -2.8658847   -2.8658847    -2.221168  0.031881792   -2.8658847   0.64471677   418189 
 2169000   0.61790382   -2.8656348   -2.8656348   -2.2215528  0.039280707   -2.8656348   0.64408195   418189 
 2170000   0.61871532   -2.8659488   -2.8659488    -2.221021  0.049716763   -2.8659488   0.64492782   418189 
 2171000   0.61720588   -2.8648426   -2.8648426   -2.2214882  0.026146725   -2.8648426   0.64335443   418189 
 2172000   0.61853322   -2.8668202   -2.8668202   -2.2220822  0.027328891   -2.8668202     0.644738   418189 
 2173000   0.61706202   -2.8655024   -2.8655024   -2.2222979  0.040433106   -2.8655024   0.64320448   418189 
 2174000   0.61703289   -2.8660984   -2.8660984   -2.2229243  0.038556839   -2.8660984   0.64317411   418189 
 2175000   0.61882344   -2.8676018   -2.8676018   -2.2225613  0.039713834   -2.8676018   0.64504053   418189 
 2176000   0.61799882   -2.8669981   -2.8669981   -2.2228171  0.033859797   -2.8669981   0.64418096   418189 
 2177000   0.61739941   -2.8666956   -2.8666956   -2.2231395  0.027513699   -2.8666956   0.64355616   418189 
 2178000   0.61725147   -2.8673526   -2.8673526   -2.2239507  0.026648272   -2.8673526   0.64340195   418189 
 2179000   0.61809528   -2.8681281   -2.8681281   -2.2238466  0.043104245   -2.8681281   0.64428152   418189 
 2180000   0.61768822   -2.8678975   -2.8678975   -2.2240403  0.057879539   -2.8678975    0.6438572   418189 
 2181000   0.61749207    -2.867791    -2.867791   -2.2241382   0.03560197    -2.867791   0.64365275   418189 
 2182000   0.61513226   -2.8664551   -2.8664551   -2.2252622  0.044479342   -2.8664551   0.64119296   418189 
 2183000   0.61645679   -2.8681309   -2.8681309   -2.2255573  0.039682686   -2.8681309    0.6425736   418189 
 2184000   0.61748804   -2.8693505   -2.8693505   -2.2257019  0.046554481   -2.8693505   0.64364854   418189 
 2185000   0.61625772   -2.8675278   -2.8675278   -2.2251617  0.046045309   -2.8675278    0.6423661   418189 
 2186000   0.61702042   -2.8684365   -2.8684365   -2.2252754  0.041093023   -2.8684365   0.64316112   418189 
 2187000    0.6172248   -2.8686927   -2.8686927   -2.2253186  0.036578019   -2.8686927   0.64337415   418189 
 2188000   0.61736801   -2.8684894   -2.8684894    -2.224966  0.047713357   -2.8684894   0.64352343   418189 
 2189000   0.61783409   -2.8699806   -2.8699806   -2.2259714  0.037549156   -2.8699806   0.64400926   418189 
 2190000   0.61768635   -2.8693176   -2.8693176   -2.2254624   0.03833191   -2.8693176   0.64385525   418189 
 2191000   0.61714937    -2.868841    -2.868841   -2.2255454  0.051085365    -2.868841   0.64329553   418189 
 2192000   0.61781292    -2.868797    -2.868797   -2.2248098  0.041865697    -2.868797   0.64398719   418189 
 2193000   0.61812598   -2.8684149   -2.8684149   -2.2241014  0.045869647   -2.8684149   0.64431351   418189 
 2194000   0.61667785   -2.8673287   -2.8673287   -2.2245246  0.041099586   -2.8673287   0.64280403   418189 
 2195000   0.61857946    -2.869566    -2.869566   -2.2247798  0.039561129    -2.869566    0.6447862   418189 
 2196000   0.61792258   -2.8690407   -2.8690407   -2.2249393  0.034489628   -2.8690407   0.64410149   418189 
 2197000   0.61862415   -2.8694741   -2.8694741   -2.2246414   0.03805438   -2.8694741   0.64483278   418189 
 2198000   0.61812904   -2.8698067   -2.8698067     -2.22549  0.043350916   -2.8698067    0.6443167   418189 
 2199000   0.61674043   -2.8695872   -2.8695872   -2.2267179  0.030454712   -2.8695872   0.64286926   418189 
 2200000   0.61844186   -2.8704866   -2.8704866   -2.2258438  0.044709644   -2.8704866   0.64464278   418189 
 2201000   0.61726802   -2.8698232   -2.8698232    -2.226404  0.038788201   -2.8698232   0.64341921   418189 
 2202000   0.61820391   -2.8699594   -2.8699594   -2.2255646   0.03571422   -2.8699594   0.64439474   418189 
 2203000   0.61791901   -2.8700276   -2.8700276   -2.2259299  0.039018757   -2.8700276   0.64409778   418189 
 2204000   0.61671063   -2.8692106   -2.8692106   -2.2263724  0.035376945   -2.8692106    0.6428382   418189 
 2205000    0.6165824   -2.8698201   -2.8698201   -2.2271156  0.048885168   -2.8698201   0.64270454   418189 
 2206000   0.61654764   -2.8692531   -2.8692531   -2.2265848  0.033743455   -2.8692531    0.6426683   418189 
 2207000   0.61888117   -2.8716953   -2.8716953   -2.2265946  0.030943995   -2.8716953    0.6451007   418189 
 2208000   0.61701538   -2.8702754   -2.8702754   -2.2271195   0.03969004   -2.8702754   0.64315587   418189 
 2209000   0.61726034    -2.870904    -2.870904   -2.2274928  0.036393439    -2.870904    0.6434112   418189 
 2210000   0.61718851   -2.8704985   -2.8704985   -2.2271622  0.043997501   -2.8704985   0.64333632   418189 
 2211000   0.61735429   -2.8706073   -2.8706073   -2.2270981  0.043663035   -2.8706073   0.64350913   418189 
 2212000   0.61457645   -2.8679238   -2.8679238   -2.2273101  0.041648794   -2.8679238    0.6406136   418189 
 2213000   0.61543508   -2.8685382   -2.8685382   -2.2270296  0.036553252   -2.8685382   0.64150861   418189 
 2214000   0.61773395   -2.8706297   -2.8706297   -2.2267248  0.025663513   -2.8706297   0.64390487   418189 
 2215000   0.61618529   -2.8693846   -2.8693846    -2.227094  0.036916953   -2.8693846    0.6422906   418189 
 2216000    0.6161626   -2.8692629   -2.8692629   -2.2269959   0.03479333   -2.8692629   0.64226695   418189 
 2217000   0.61454247   -2.8682637   -2.8682637   -2.2276855  0.026577992   -2.8682637   0.64057818   418189 
 2218000   0.61595649   -2.8694219   -2.8694219   -2.2273698   0.03888912   -2.8694219   0.64205211   418189 
 2219000   0.61632913   -2.8698046   -2.8698046    -2.227364  0.040542278   -2.8698046   0.64244054   418189 
 2220000   0.61614702   -2.8694435   -2.8694435   -2.2271928  0.048532332   -2.8694435   0.64225071   418189 
 2221000   0.61756662   -2.8708211   -2.8708211   -2.2270907  0.042796476   -2.8708211   0.64373046   418189 
 2222000   0.61590602   -2.8691936   -2.8691936   -2.2271941  0.047764025   -2.8691936    0.6419995   418189 
 2223000   0.61719909   -2.8711712   -2.8711712   -2.2278238  0.038809949   -2.8711712   0.64334736   418189 
 2224000   0.61652736   -2.8708774   -2.8708774   -2.2282302   0.04016933   -2.8708774   0.64264717   418189 
 2225000   0.61785128   -2.8721811   -2.8721811   -2.2281539  0.041218758   -2.8721811   0.64402718   418189 
 2226000   0.61635483   -2.8712632   -2.8712632   -2.2287959  0.026637215   -2.8712632   0.64246733   418189 
 2227000   0.61687593   -2.8713171   -2.8713171   -2.2283066  0.036332453   -2.8713171   0.64301051   418189 
 2228000   0.61608404   -2.8704978   -2.8704978   -2.2283127  0.043058753   -2.8704978   0.64218506   418189 
 2229000   0.61721766   -2.8719337   -2.8719337    -2.228567  0.030171212   -2.8719337   0.64336671   418189 
 2230000   0.61756595   -2.8720855   -2.8720855   -2.2283558  0.039030559   -2.8720855   0.64372975   418189 
 2231000   0.61598424   -2.8711549   -2.8711549   -2.2290739  0.048551739   -2.8711549   0.64208103   418189 
 2232000   0.61711149   -2.8723778   -2.8723778   -2.2291218  0.042586984   -2.8723778   0.64325604   418189 
 2233000   0.61607369   -2.8715637   -2.8715637   -2.2293894  0.044921451   -2.8715637   0.64217428   418189 
 2234000   0.61529629   -2.8709443   -2.8709443   -2.2295804  0.034736242   -2.8709443   0.64136394   418189 
 2235000    0.6159372   -2.8718988   -2.8718988   -2.2298668  0.037028601   -2.8718988     0.642032   418189 
 2236000   0.61626616   -2.8713167   -2.8713167   -2.2289418  0.036077087   -2.8713167    0.6423749   418189 
 2237000   0.61553163   -2.8705624   -2.8705624   -2.2289531  0.027368528   -2.8705624   0.64160925   418189 
 2238000   0.61709724   -2.8731117   -2.8731117   -2.2298706  0.041841116   -2.8731117   0.64324118   418189 
 2239000   0.61592876   -2.8716188   -2.8716188   -2.2295956   0.03902377   -2.8716188    0.6420232   418189 
 2240000   0.61574142   -2.8713035   -2.8713035   -2.2294755  0.036457732   -2.8713035   0.64182793   418189 
 2241000   0.61915419   -2.8742546   -2.8742546   -2.2288693  0.025966228   -2.8742546   0.64538528   418189 
 2242000   0.61799793   -2.8730666   -2.8730666   -2.2288865  0.030548804   -2.8730666   0.64418003   418189 
 2243000   0.61804217   -2.8737993   -2.8737993   -2.2295732  0.035450089   -2.8737993   0.64422615   418189 
 2244000   0.61719958   -2.8730777   -2.8730777   -2.2297298  0.037763476   -2.8730777   0.64334786   418189 
 2245000   0.61675997   -2.8728882   -2.8728882   -2.2299985   0.05075869   -2.8728882   0.64288963   418189 
 2246000   0.61659184   -2.8726011   -2.8726011   -2.2298867  0.037226888   -2.8726011   0.64271438   418189 
 2247000   0.61668766   -2.8730493   -2.8730493   -2.2302351  0.033133828   -2.8730493   0.64281426   418189 
 2248000   0.61782646   -2.8739642   -2.8739642   -2.2299629  0.043804932   -2.8739642    0.6440013   418189 
 2249000   0.61666356   -2.8732706   -2.8732706   -2.2304814  0.047654914   -2.8732706   0.64278914   418189 
 2250000   0.61798652   -2.8744587   -2.8744587   -2.2302906  0.035479531   -2.8744587   0.64416814   418189 
 2251000   0.61727539   -2.8740677   -2.8740677   -2.2306408  0.039769161   -2.8740677   0.64342689   418189 
 2252000    0.6162176   -2.8730378   -2.8730378   -2.2307135  0.036666294   -2.8730378   0.64232428   418189 
 2253000   0.61649284   -2.8734427   -2.8734427   -2.2308315  0.052871883   -2.8734427   0.64261119   418189 
 2254000   0.61851262   -2.8750739   -2.8750739   -2.2303573  0.037699142   -2.8750739   0.64471654   418189 
 2255000   0.61692682    -2.873254    -2.873254   -2.2301904  0.038178849    -2.873254   0.64306354   418189 
 2256000   0.61723919   -2.8745427   -2.8745427   -2.2311536  0.046829576   -2.8745427   0.64338916   418189 
 2257000   0.61481998   -2.8719942   -2.8719942   -2.2311268  0.037217596   -2.8719942   0.64086745   418189 
 2258000   0.61522585   -2.8721688   -2.8721688   -2.2308783  0.031251356   -2.8721688   0.64129051   418189 
 2259000   0.61575456   -2.8729295   -2.8729295   -2.2310878  0.034212533   -2.8729295   0.64184162   418189 
 2260000   0.61480701   -2.8719557   -2.8719557   -2.2311018  0.030306041   -2.8719557   0.64085393   418189 
 2261000    0.6170551   -2.8733561   -2.8733561   -2.2301588  0.038856908   -2.8733561   0.64319726   418189 
 2262000   0.61764885   -2.8736291   -2.8736291   -2.2298129  0.042798637   -2.8736291   0.64381617   418189 
 2263000   0.61590863    -2.872825    -2.872825   -2.2308227  0.031154582    -2.872825   0.64200223   418189 
 2264000   0.61661856   -2.8734992   -2.8734992   -2.2307569  0.037640409   -2.8734992   0.64274223   418189 
 2265000   0.61742631   -2.8742886   -2.8742886   -2.2307044  0.039945618   -2.8742886    0.6435842   418189 
 2266000   0.61581881   -2.8741752   -2.8741752   -2.2322666  0.036346422   -2.8741752    0.6419086   418189 
 2267000   0.61644623   -2.8740524   -2.8740524   -2.2314898  0.030985102   -2.8740524    0.6425626   418189 
 2268000   0.61601463   -2.8744414   -2.8744414   -2.2323287  0.047511337   -2.8744414   0.64211271   418189 
 2269000   0.61669456   -2.8747796   -2.8747796   -2.2319581  0.040437174   -2.8747796   0.64282145   418189 
 2270000   0.61746245   -2.8758179   -2.8758179    -2.232196  0.048634798   -2.8758179   0.64362187   418189 
 2271000   0.61728477   -2.8752515   -2.8752515   -2.2318149  0.040135662   -2.8752515   0.64343667   418189 
 2272000   0.61745312   -2.8747348   -2.8747348   -2.2311227  0.039355456   -2.8747348   0.64361214   418189 
 2273000   0.61685954    -2.874718    -2.874718   -2.2317246  0.023737528    -2.874718   0.64299342   418189 
 2274000    0.6173709    -2.875526    -2.875526   -2.2319996  0.039782824    -2.875526   0.64352644   418189 
 2275000   0.61799678   -2.8757639   -2.8757639   -2.2315851  0.040450732   -2.8757639   0.64417884   418189 
 2276000   0.61625354   -2.8738805   -2.8738805   -2.2315188  0.044054176   -2.8738805   0.64236174   418189 
 2277000   0.61571967   -2.8736744   -2.8736744   -2.2318692  0.041240412   -2.8736744   0.64180526   418189 
 2278000   0.61727462   -2.8754078   -2.8754078   -2.2319817  0.021965338   -2.8754078   0.64342609   418189 
 2279000   0.61636042   -2.8751782   -2.8751782    -2.232705  0.033444241   -2.8751782   0.64247315   418189 
 2280000   0.61750603   -2.8756527   -2.8756527   -2.2319854  0.037341716   -2.8756527   0.64366729   418189 
 2281000   0.61650234   -2.8750947   -2.8750947   -2.2324736  0.022316062   -2.8750947   0.64262109   418189 
 2282000   0.61688126   -2.8759526   -2.8759526   -2.2329365  0.044783006   -2.8759526   0.64301606   418189 
 2283000   0.61613983    -2.875099    -2.875099   -2.2328558  0.034553163    -2.875099   0.64224322   418189 
 2284000   0.61476422   -2.8739165   -2.8739165   -2.2331072  0.029214905   -2.8739165   0.64080933   418189 
 2285000   0.61676365   -2.8753296   -2.8753296   -2.2324362  0.033856523   -2.8753296   0.64289346   418189 
 2286000   0.61668022   -2.8745522   -2.8745522   -2.2317457  0.035679248   -2.8745522    0.6428065   418189 
 2287000   0.61647753   -2.8744273   -2.8744273   -2.2318321  0.036266105   -2.8744273   0.64259522   418189 
 2288000   0.61662111   -2.8754105   -2.8754105   -2.2326656   0.04495545   -2.8754105   0.64274488   418189 
 2289000   0.61747203   -2.8759777   -2.8759777   -2.2323458  0.045346611   -2.8759777   0.64363185   418189 
 2290000   0.61740868   -2.8760248   -2.8760248   -2.2324589  0.028813497   -2.8760248   0.64356582   418189 
 2291000   0.61652988    -2.875402    -2.875402   -2.2327522  0.036528949    -2.875402    0.6426498   418189 
 2292000   0.61666105   -2.8759623   -2.8759623   -2.2331758   0.03416138   -2.8759623   0.64278652   418189 
 2293000   0.61601968   -2.8755787   -2.8755787   -2.2334608  0.025935312   -2.8755787   0.64211798   418189 
 2294000   0.61715439   -2.8768084   -2.8768084   -2.2335076  0.040357637   -2.8768084   0.64330076   418189 
 2295000   0.61734977   -2.8771033   -2.8771033   -2.2335989  0.031916163   -2.8771033   0.64350441   418189 
 2296000   0.61713536   -2.8765071   -2.8765071   -2.2332262  0.049065932   -2.8765071   0.64328093   418189 
 2297000   0.61700163   -2.8761422   -2.8761422   -2.2330007  0.038144332   -2.8761422   0.64314153   418189 
 2298000   0.61697133   -2.8757415   -2.8757415   -2.2326316  0.033854025   -2.8757415   0.64310995   418189 
 2299000   0.61695488   -2.8761152   -2.8761152   -2.2330225  0.042370087   -2.8761152   0.64309279   418189 
 2300000   0.61612797   -2.8756924   -2.8756924   -2.2334615  0.045376556   -2.8756924   0.64223086   418189 
 2301000   0.61626564   -2.8769527   -2.8769527   -2.2345784  0.038123186   -2.8769527   0.64237436   418189 
 2302000   0.61582384   -2.8758324   -2.8758324   -2.2339185  0.036607134   -2.8758324   0.64191384   418189 
 2303000   0.61700956   -2.8775813   -2.8775813   -2.2344315  0.039615181   -2.8775813    0.6431498   418189 
 2304000   0.61538531   -2.8761411   -2.8761411   -2.2346843  0.038833492   -2.8761411   0.64145673   418189 
 2305000   0.61639189   -2.8769366   -2.8769366   -2.2344307  0.038761428   -2.8769366   0.64250595   418189 
 2306000   0.61595651   -2.8762161   -2.8762161    -2.234164  0.042172099   -2.8762161   0.64205213   418189 
 2307000   0.61462611   -2.8751396   -2.8751396   -2.2344742  0.051104758   -2.8751396   0.64066537   418189 
 2308000   0.61536599   -2.8754149   -2.8754149   -2.2339783   0.03276073   -2.8754149    0.6414366   418189 
 2309000   0.61659313   -2.8763849   -2.8763849   -2.2336692  0.038601632   -2.8763849   0.64271572   418189 
 2310000   0.61675309   -2.8769478   -2.8769478   -2.2340654  0.031803076   -2.8769478   0.64288246   418189 
 2311000   0.61557889   -2.8758123   -2.8758123   -2.2341538  0.026707041   -2.8758123   0.64165852   418189 
 2312000   0.61742362   -2.8782425   -2.8782425   -2.2346611  0.041102097   -2.8782425    0.6435814   418189 
 2313000   0.61580327   -2.8763063   -2.8763063   -2.2344139  0.054230332   -2.8763063   0.64189239   418189 
 2314000   0.61593973   -2.8773011   -2.8773011   -2.2352665   0.03375058   -2.8773011   0.64203464   418189 
 2315000   0.61543657   -2.8761955   -2.8761955   -2.2346853  0.034209464   -2.8761955   0.64151016   418189 
 2316000   0.61724556   -2.8777443   -2.8777443   -2.2343485  0.039610847   -2.8777443    0.6433958   418189 
 2317000   0.61649467   -2.8772606   -2.8772606   -2.2346475   0.04002225   -2.8772606   0.64261309   418189 
 2318000   0.61720748   -2.8783429   -2.8783429   -2.2349868  0.034478107   -2.8783429    0.6433561   418189 
 2319000    0.6168204   -2.8763026   -2.8763026   -2.2333499   0.04899151   -2.8763026   0.64295262   418189 
 2320000   0.61677756   -2.8766255   -2.8766255   -2.2337175  0.034622275   -2.8766255   0.64290797   418189 
 2321000    0.6170294   -2.8773259   -2.8773259   -2.2341554  0.035177186   -2.8773259   0.64317047   418189 
 2322000   0.61697039   -2.8762554   -2.8762554   -2.2331464  0.048850192   -2.8762554   0.64310897   418189 
 2323000   0.61539456    -2.875051    -2.875051   -2.2335847  0.044103144    -2.875051   0.64146637   418189 
 2324000   0.61586931   -2.8759825   -2.8759825   -2.2340213  0.038947696   -2.8759825   0.64196124   418189 
 2325000   0.61710009    -2.877081    -2.877081   -2.2338369  0.043573946    -2.877081   0.64324415   418189 
 2326000   0.61684014   -2.8769296   -2.8769296   -2.2339564  0.048441887   -2.8769296    0.6429732   418189 
 2327000   0.61610099   -2.8764323   -2.8764323   -2.2342296  0.048690903   -2.8764323   0.64220273   418189 
 2328000   0.61644563   -2.8770678   -2.8770678   -2.2345059  0.030041858   -2.8770678   0.64256198   418189 
 2329000   0.61560444   -2.8774613   -2.8774613   -2.2357761  0.039374517   -2.8774613   0.64168515   418189 
 2330000   0.61454805   -2.8772345   -2.8772345   -2.2366505  0.044481129   -2.8772345     0.640584   418189 
 2331000    0.6163854   -2.8793413   -2.8793413   -2.2368421  0.050252619   -2.8793413   0.64249919   418189 
 2332000   0.61588147   -2.8791878   -2.8791878   -2.2372139   0.03164351   -2.8791878   0.64197391   418189 
 2333000   0.61547888   -2.8784772   -2.8784772   -2.2369229  0.047859605   -2.8784772   0.64155426   418189 
 2334000   0.61548338   -2.8788692   -2.8788692   -2.2373103   0.04222422   -2.8788692   0.64155895   418189 
 2335000   0.61669209    -2.879868    -2.879868   -2.2370491  0.037921839    -2.879868   0.64281888   418189 
 2336000   0.61564416   -2.8792606   -2.8792606    -2.237534  0.046280832   -2.8792606   0.64172655   418189 
 2337000   0.61505245   -2.8785071   -2.8785071   -2.2373974  0.036948767   -2.8785071   0.64110977   418189 
 2338000   0.61665054   -2.8801032   -2.8801032   -2.2373276  0.038221609   -2.8801032   0.64277556   418189 
 2339000   0.61591189   -2.8797564   -2.8797564   -2.2377508   0.02863961   -2.8797564   0.64200562   418189 
 2340000   0.61747858   -2.8808892   -2.8808892   -2.2372505  0.038707941   -2.8808892   0.64363869   418189 
 2341000   0.61743152   -2.8814259   -2.8814259   -2.2378362  0.040938489   -2.8814259   0.64358963   418189 
 2342000   0.61668387   -2.8802398   -2.8802398   -2.2374295  0.028281822   -2.8802398   0.64281031   418189 
 2343000   0.61602805   -2.8796928   -2.8796928   -2.2375661  0.035859684   -2.8796928    0.6421267   418189 
 2344000   0.61621172    -2.879217    -2.879217   -2.2368989  0.040906909    -2.879217   0.64231815   418189 
 2345000   0.61657953   -2.8790072   -2.8790072   -2.2363057   0.04355531   -2.8790072   0.64270155   418189 
 2346000   0.61626389    -2.879105    -2.879105   -2.2367325  0.038020595    -2.879105   0.64237254   418189 
 2347000   0.61660395   -2.8794197   -2.8794197   -2.2366927  0.036466037   -2.8794197     0.642727   418189 
 2348000   0.61671379   -2.8794382   -2.8794382   -2.2365967  0.036261141   -2.8794382    0.6428415   418189 
 2349000   0.61673275   -2.8794802   -2.8794802   -2.2366189  0.039008952   -2.8794802   0.64286126   418189 
 2350000   0.61519667   -2.8781131   -2.8781131    -2.236853  0.036234566   -2.8781131    0.6412601   418189 
 2351000   0.61506212   -2.8785254   -2.8785254   -2.2374055  0.047567213   -2.8785254   0.64111985   418189 
 2352000   0.61524533   -2.8786644   -2.8786644   -2.2373536  0.038862733   -2.8786644   0.64131082   418189 
 2353000   0.61569556   -2.8790283   -2.8790283   -2.2372482  0.034400357   -2.8790283   0.64178012   418189 
 2354000   0.61516242   -2.8786917   -2.8786917   -2.2374673  0.035057447   -2.8786917    0.6412244   418189 
 2355000   0.61547423   -2.8789248   -2.8789248   -2.2373754  0.025465689   -2.8789248   0.64154942   418189 
 2356000   0.61489833   -2.8789787   -2.8789787   -2.2380295  0.031263033   -2.8789787   0.64094912   418189 
 2357000   0.61688673   -2.8804762   -2.8804762   -2.2374544  0.045968932   -2.8804762   0.64302177   418189 
 2358000   0.61499957   -2.8787837   -2.8787837    -2.237729  0.035572289   -2.8787837   0.64105465   418189 
 2359000   0.61685534   -2.8805137   -2.8805137   -2.2375247  0.022334271   -2.8805137   0.64298904   418189 
 2360000   0.61634073   -2.8808592   -2.8808592   -2.2384065  0.033530351   -2.8808592   0.64245263   418189 
 2361000   0.61529178   -2.8795375   -2.8795375   -2.2381783  0.046334587   -2.8795375   0.64135924   418189 
 2362000   0.61563885   -2.8791773   -2.8791773   -2.2374563  0.026633956   -2.8791773   0.64172101   418189 
 2363000   0.61556745   -2.8801695   -2.8801695   -2.2385229  0.038572938   -2.8801695   0.64164659   418189 
 2364000    0.6163226   -2.8805362   -2.8805362   -2.2381025  0.041651735   -2.8805362   0.64243373   418189 
 2365000    0.6163982    -2.881805    -2.881805   -2.2392925  0.039610267    -2.881805   0.64251254   418189 
 2366000   0.61457082    -2.879735    -2.879735   -2.2391272  0.045664509    -2.879735   0.64060774   418189 
 2367000    0.6154551   -2.8800115   -2.8800115    -2.238482  0.038709087   -2.8800115   0.64152948   418189 
 2368000   0.61603948   -2.8814583   -2.8814583   -2.2393196  0.041267211   -2.8814583   0.64213862   418189 
 2369000   0.61681263   -2.8815344   -2.8815344   -2.2385899  0.030220943   -2.8815344   0.64294452   418189 
 2370000   0.61629456   -2.8811728   -2.8811728   -2.2387683  0.044142126   -2.8811728    0.6424045   418189 
 2371000   0.61542526   -2.8802222   -2.8802222   -2.2387238  0.041525305   -2.8802222   0.64149837   418189 
 2372000   0.61494343   -2.8806728   -2.8806728   -2.2396766  0.028331318   -2.8806728   0.64099613   418189 
 2373000   0.61604582   -2.8817622   -2.8817622   -2.2396169  0.042779338   -2.8817622   0.64214523   418189 
 2374000   0.61497324    -2.880888    -2.880888   -2.2398608  0.038981022    -2.880888   0.64102721   418189 
 2375000    0.6153205   -2.8812669   -2.8812669   -2.2398777  0.037136103   -2.8812669   0.64138918   418189 
 2376000   0.61549696   -2.8821593   -2.8821593   -2.2405862  0.044003066   -2.8821593   0.64157311   418189 
 2377000   0.61488485   -2.8815041   -2.8815041    -2.240569  0.046746754   -2.8815041   0.64093506   418189 
 2378000   0.61513978    -2.882002    -2.882002   -2.2408012  0.040884177    -2.882002    0.6412008   418189 
 2379000   0.61566823   -2.8821322   -2.8821322   -2.2403806  0.039519992   -2.8821322   0.64175163   418189 
 2380000   0.61408363   -2.8803394   -2.8803394   -2.2402395  0.046827185   -2.8803394   0.64009991   418189 
 2381000   0.61318333   -2.8798008   -2.8798008   -2.2406394  0.040263121   -2.8798008   0.63916146   418189 
 2382000   0.61517825   -2.8822096   -2.8822096   -2.2409687  0.030467703   -2.8822096    0.6412409   418189 
 2383000   0.61410063   -2.8806193   -2.8806193   -2.2405017  0.045607416   -2.8806193   0.64011763   418189 
 2384000   0.61500571   -2.8813655   -2.8813655   -2.2403044  0.050899144   -2.8813655   0.64106105   418189 
 2385000   0.61478436   -2.8818284   -2.8818284   -2.2409981  0.035840578   -2.8818284   0.64083032   418189 
 2386000   0.61494949   -2.8814923   -2.8814923   -2.2404899  0.045636267   -2.8814923   0.64100244   418189 
 2387000   0.61569006    -2.883041    -2.883041   -2.2412666  0.036006998    -2.883041   0.64177439   418189 
 2388000   0.61542973   -2.8819095   -2.8819095   -2.2404064  0.030619753   -2.8819095   0.64150303   418189 
 2389000   0.61545657   -2.8816343   -2.8816343   -2.2401033  0.036445284   -2.8816343   0.64153101   418189 
 2390000    0.6155387   -2.8813777   -2.8813777   -2.2397611  0.031063169   -2.8813777   0.64161662   418189 
 2391000   0.61550658   -2.8817491   -2.8817491   -2.2401659  0.031664928   -2.8817491   0.64158314   418189 
 2392000   0.61559215    -2.881827    -2.881827   -2.2401546  0.033618621    -2.881827   0.64167233   418189 
 2393000    0.6158331    -2.882357    -2.882357   -2.2404336  0.055196612    -2.882357   0.64192349   418189 
 2394000   0.61624106   -2.8839416   -2.8839416   -2.2415929  0.051347977   -2.8839416   0.64234873   418189 
 2395000   0.61587016   -2.8833158   -2.8833158   -2.2413537  0.028783355   -2.8833158   0.64196212   418189 
 2396000   0.61646633   -2.8834598   -2.8834598   -2.2408762  0.041157883   -2.8834598   0.64258355   418189 
 2397000    0.6149958   -2.8816498   -2.8816498   -2.2405991  0.031859914   -2.8816498   0.64105072   418189 
 2398000   0.61559953   -2.8821868   -2.8821868   -2.2405067  0.043377368   -2.8821868   0.64168003   418189 
 2399000   0.61479074    -2.882124    -2.882124    -2.241287  0.041975472    -2.882124   0.64083697   418189 
 2400000   0.61487582   -2.8822206   -2.8822206    -2.241295  0.041791969   -2.8822206   0.64092566   418189 
 2401000   0.61546831    -2.882482    -2.882482   -2.2409388  0.033601529    -2.882482   0.64154325   418189 
 2402000   0.61712261    -2.883609    -2.883609   -2.2403414  0.027921769    -2.883609   0.64326764   418189 
 2403000   0.61571177   -2.8834419   -2.8834419   -2.2416449   0.04371719   -2.8834419   0.64179702   418189 
 2404000   0.61554375   -2.8833638   -2.8833638   -2.2417419  0.043880125   -2.8833638   0.64162188   418189 
 2405000   0.61552341   -2.8824061   -2.8824061   -2.2408055  0.043819089   -2.8824061   0.64160068   418189 
 2406000   0.61493344   -2.8824854   -2.8824854   -2.2414997  0.038944563   -2.8824854   0.64098572   418189 
 2407000   0.61520137   -2.8825429   -2.8825429   -2.2412779  0.036024664   -2.8825429     0.641265   418189 
 2408000    0.6138741   -2.8808083   -2.8808083   -2.2409268  0.033741509   -2.8808083    0.6398815   418189 
 2409000   0.61457015   -2.8817181   -2.8817181   -2.2411111  0.039599349   -2.8817181   0.64060704   418189 
 2410000   0.61627889   -2.8833985   -2.8833985   -2.2410103  0.041814295   -2.8833985   0.64238816   418189 
 2411000   0.61532537   -2.8827548   -2.8827548   -2.2413605   0.04267343   -2.8827548   0.64139425   418189 
 2412000   0.61414572   -2.8823388   -2.8823388   -2.2421742  0.025685568   -2.8823388   0.64016463   418189 
 2413000   0.61478483   -2.8827768   -2.8827768   -2.2419459  0.040006379   -2.8827768   0.64083082   418189 
 2414000   0.61563915   -2.8841418   -2.8841418   -2.2424205  0.047075414   -2.8841418   0.64172132   418189 
 2415000   0.61453764   -2.8836265   -2.8836265   -2.2430533  0.044367524   -2.8836265   0.64057315   418189 
 2416000   0.61429588   -2.8836296   -2.8836296   -2.2433084  0.050903296   -2.8836296   0.64032115   418189 
 2417000   0.61452054   -2.8837408   -2.8837408   -2.2431854  0.026430338   -2.8837408   0.64055533   418189 
 2418000   0.61452008   -2.8841434   -2.8841434   -2.2435886  0.047049072   -2.8841434   0.64055485   418189 
 2419000   0.61344902   -2.8826315   -2.8826315   -2.2431931  0.035740214   -2.8826315   0.63943841   418189 
 2420000   0.61477847   -2.8842714   -2.8842714   -2.2434472  0.035786994   -2.8842714   0.64082418   418189 
 2421000   0.61334046   -2.8825224   -2.8825224   -2.2431971    0.0256542   -2.8825224   0.63932525   418189 
 2422000   0.61429694   -2.8839601   -2.8839601   -2.2436378  0.036590583   -2.8839601   0.64032225   418189 
 2423000   0.61429511   -2.8832912   -2.8832912   -2.2429709  0.038643485   -2.8832912   0.64032035   418189 
 2424000   0.61617097   -2.8851075   -2.8851075   -2.2428319   0.04010092   -2.8851075   0.64227568   418189 
 2425000   0.61436941   -2.8830239   -2.8830239   -2.2426261  0.035858089   -2.8830239   0.64039779   418189 
 2426000   0.61486034   -2.8839721   -2.8839721   -2.2430626  0.034942839   -2.8839721   0.64090953   418189 
 2427000    0.6152552   -2.8848376   -2.8848376   -2.2435165  0.044652159   -2.8848376   0.64132111   418189 
 2428000   0.61554036    -2.885022    -2.885022   -2.2434036  0.031902804    -2.885022   0.64161835   418189 
 2429000   0.61435792   -2.8834684   -2.8834684   -2.2430826  0.053639758   -2.8834684   0.64038581   418189 
 2430000   0.61337118   -2.8825923   -2.8825923   -2.2432351  0.043002588   -2.8825923   0.63935727   418189 
 2431000    0.6145616   -2.8836841   -2.8836841   -2.2430859  0.044656949   -2.8836841   0.64059813   418189 
 2432000    0.6127769   -2.8826502   -2.8826502   -2.2439124  0.018790602   -2.8826502   0.63873781   418189 
 2433000    0.6141546   -2.8846952   -2.8846952   -2.2445213   0.04201683   -2.8846952   0.64017388   418189 
 2434000   0.61419865   -2.8851122   -2.8851122   -2.2448924  0.020439899   -2.8851122    0.6402198   418189 
 2435000   0.61446211   -2.8849715   -2.8849715   -2.2444771  0.049415701   -2.8849715   0.64049442   418189 
 2436000   0.61498548   -2.8851138   -2.8851138   -2.2440739   0.04156811   -2.8851138   0.64103996   418189 
 2437000   0.61290227   -2.8838233   -2.8838233   -2.2449548  0.036825681   -2.8838233   0.63886849   418189 
 2438000   0.61473384    -2.885369    -2.885369   -2.2445913  0.042556027    -2.885369   0.64077766   418189 
 2439000   0.61551421   -2.8854807   -2.8854807   -2.2438896  0.043793788   -2.8854807    0.6415911   418189 
 2440000    0.6162411   -2.8861813   -2.8861813   -2.2438325  0.036697699   -2.8861813   0.64234878   418189 
 2441000   0.61259525   -2.8825052   -2.8825052   -2.2439567  0.030089308   -2.8825052   0.63854847   418189 
 2442000   0.61387447   -2.8846697   -2.8846697   -2.2447879  0.042334959   -2.8846697   0.63988189   418189 
 2443000   0.61455121   -2.8847593   -2.8847593    -2.244172  0.034504505   -2.8847593   0.64058729   418189 
 2444000   0.61352098   -2.8844411   -2.8844411   -2.2449277  0.041779485   -2.8844411   0.63951342   418189 
 2445000   0.61364495    -2.884602    -2.884602   -2.2449594   0.04177291    -2.884602   0.63964264   418189 
 2446000   0.61484122   -2.8857507   -2.8857507   -2.2448611  0.036674573   -2.8857507   0.64088959   418189 
 2447000   0.61564554   -2.8867917   -2.8867917   -2.2450637  0.037507791   -2.8867917   0.64172799   418189 
 2448000    0.6153517    -2.886635    -2.886635   -2.2452133  0.044217745    -2.886635    0.6414217   418189 
 2449000    0.6158406   -2.8863899   -2.8863899   -2.2444586  0.033967706   -2.8863899   0.64193131   418189 
 2450000   0.61470374    -2.885232    -2.885232   -2.2444857  0.028963328    -2.885232   0.64074628   418189 
 2451000   0.61514355   -2.8853128   -2.8853128   -2.2441081  0.039893053   -2.8853128   0.64120473   418189 
 2452000   0.61451046   -2.8853411   -2.8853411   -2.2447962   0.04582845   -2.8853411   0.64054482   418189 
 2453000   0.61373387   -2.8849949   -2.8849949   -2.2452596  0.034700318   -2.8849949   0.63973533   418189 
 2454000   0.61527142   -2.8865991   -2.8865991   -2.2452611  0.035891283   -2.8865991   0.64133802   418189 
 2455000   0.61331245   -2.8846422   -2.8846422   -2.2453462  0.044094787   -2.8846422   0.63929606   418189 
 2456000   0.61498307   -2.8856923   -2.8856923   -2.2446549  0.041726554   -2.8856923   0.64103745   418189 
 2457000   0.61525252   -2.8860209   -2.8860209   -2.2447026  0.033029437   -2.8860209   0.64131831   418189 
 2458000   0.61359573   -2.8840815   -2.8840815   -2.2444902   0.04168313   -2.8840815   0.63959134   418189 
 2459000   0.61432438   -2.8853079   -2.8853079    -2.244957  0.032249505   -2.8853079   0.64035086   418189 
 2460000   0.61395471   -2.8842551   -2.8842551   -2.2442895  0.043470279   -2.8842551   0.63996552   418189 
 2461000   0.61497332   -2.8851336   -2.8851336   -2.2441063  0.029880607   -2.8851336   0.64102729   418189 
 2462000   0.61506752   -2.8857034   -2.8857034   -2.2445779  0.032524632   -2.8857034   0.64112548   418189 
 2463000   0.61279128   -2.8843925   -2.8843925   -2.2456397  0.041569101   -2.8843925    0.6387528   418189 
 2464000   0.61478351   -2.8855031   -2.8855031   -2.2446736  0.037112837   -2.8855031   0.64082944   418189 
 2465000    0.6137963    -2.885488    -2.885488   -2.2456876  0.034042625    -2.885488    0.6398004   418189 
 2466000   0.61383919   -2.8855644   -2.8855644   -2.2457193  0.036700904   -2.8855644   0.63984511   418189 
 2467000   0.61495421   -2.8860209   -2.8860209   -2.2450135  0.032342412   -2.8860209   0.64100737   418189 
 2468000   0.61446588   -2.8854995   -2.8854995   -2.2450011  0.036225357   -2.8854995   0.64049835   418189 
 2469000   0.61459558   -2.8859597   -2.8859597   -2.2453262  0.042975575   -2.8859597   0.64063354   418189 
 2470000   0.61386393   -2.8854986   -2.8854986   -2.2456277  0.030429364   -2.8854986   0.63987089   418189 
 2471000   0.61562131   -2.8865601   -2.8865601   -2.2448574   0.05155797   -2.8865601   0.64170273   418189 
 2472000   0.61602897   -2.8872663   -2.8872663   -2.2451387   0.04916384   -2.8872663   0.64212766   418189 
 2473000   0.61562665   -2.8866519   -2.8866519   -2.2449436  0.036759266   -2.8866519   0.64170829   418189 
 2474000   0.61468364   -2.8855176   -2.8855176   -2.2447922   0.04083431   -2.8855176   0.64072533   418189 
 2475000   0.61524634   -2.8863598   -2.8863598   -2.2450479  0.034042081   -2.8863598   0.64131188   418189 
 2476000   0.61548835   -2.8862911   -2.8862911    -2.244727  0.037945078   -2.8862911   0.64156414   418189 
 2477000   0.61545996   -2.8863724   -2.8863724   -2.2448378  0.038068777   -2.8863724   0.64153455   418189 
 2478000   0.61557251    -2.886518    -2.886518   -2.2448661   0.02778387    -2.886518   0.64165186   418189 
 2479000    0.6138321   -2.8852551   -2.8852551   -2.2454174  0.041813409   -2.8852551   0.63983772   418189 
 2480000   0.61490253   -2.8867473   -2.8867473   -2.2457938  0.051238456   -2.8867473    0.6409535   418189 
 2481000   0.61588154   -2.8874921   -2.8874921   -2.2455181  0.043828298   -2.8874921   0.64197398   418189 
 2482000    0.6145335   -2.8862037   -2.8862037   -2.2456349  0.035204228   -2.8862037   0.64056884   418189 
 2483000   0.61526187   -2.8869194   -2.8869194   -2.2455913  0.037683092   -2.8869194   0.64132806   418189 
 2484000   0.61439599   -2.8867269   -2.8867269   -2.2463014  0.036100617   -2.8867269    0.6404255   418189 
 2485000   0.61412251   -2.8869185   -2.8869185   -2.2467781  0.040858893   -2.8869185   0.64014043   418189 
 2486000    0.6157338   -2.8888613   -2.8888613   -2.2470413  0.034818775   -2.8888613   0.64181998   418189 
 2487000    0.6143588   -2.8883991   -2.8883991   -2.2480123   0.03252146   -2.8883991   0.64038673   418189 
 2488000   0.61389889   -2.8878369   -2.8878369   -2.2479296   0.04204897   -2.8878369   0.63990734   418189 
 2489000   0.61286311   -2.8867957   -2.8867957   -2.2479681  0.035732437   -2.8867957   0.63882767   418189 
 2490000   0.61516658   -2.8890615   -2.8890615   -2.2478327  0.035028943   -2.8890615   0.64122873   418189 
 2491000   0.61337697   -2.8871784   -2.8871784   -2.2478151  0.041863243   -2.8871784   0.63936331   418189 
 2492000   0.61322861   -2.8870345   -2.8870345   -2.2478258  0.042043242   -2.8870345   0.63920866   418189 
 2493000    0.6125857   -2.8867445   -2.8867445    -2.248206   0.02341063   -2.8867445   0.63853851   418189 
 2494000   0.61323668   -2.8872745   -2.8872745   -2.2480575  0.047864535   -2.8872745   0.63921707   418189 
 2495000    0.6144478   -2.8881639   -2.8881639   -2.2476844   0.03422884   -2.8881639    0.6404795   418189 
 2496000   0.61577643   -2.8900262   -2.8900262   -2.2481617  0.030423384   -2.8900262   0.64186443   418189 
 2497000   0.61453186   -2.8888663   -2.8888663   -2.2482992  0.045769995   -2.8888663   0.64056712   418189 
 2498000   0.61346038   -2.8885052   -2.8885052    -2.249055  0.040232928   -2.8885052   0.63945025   418189 
 2499000   0.61474623   -2.8899363   -2.8899363   -2.2491458  0.021379955   -2.8899363   0.64079058   418189 
 2500000   0.61370878   -2.8891895   -2.8891895   -2.2494803  0.038905731   -2.8891895   0.63970918   418189 
 2501000    0.6133309    -2.888211    -2.888211   -2.2488957  0.040734567    -2.888211   0.63931529   418189 
 2502000   0.61326551   -2.8872404   -2.8872404   -2.2479933  0.040008857   -2.8872404   0.63924712   418189 
 2503000   0.61400537   -2.8878216   -2.8878216   -2.2478032  0.037701781   -2.8878216   0.64001833   418189 
 2504000   0.61384494   -2.8879117   -2.8879117   -2.2480606  0.035146551   -2.8879117    0.6398511   418189 
 2505000   0.61371402   -2.8870191   -2.8870191   -2.2473045   0.03328427   -2.8870191   0.63971464   418189 
 2506000   0.61338704   -2.8870681   -2.8870681   -2.2476943  0.032787175   -2.8870681    0.6393738   418189 
 2507000   0.61368978   -2.8871108   -2.8871108   -2.2474214  0.031448166   -2.8871108   0.63968937   418189 
 2508000   0.61451477   -2.8880053   -2.8880053    -2.247456  0.039091714   -2.8880053   0.64054931   418189 
 2509000   0.61295042   -2.8866778   -2.8866778   -2.2477591  0.030784703   -2.8866778   0.63891868   418189 
 2510000    0.6123807   -2.8869523   -2.8869523   -2.2486274  0.042726292   -2.8869523   0.63832483   418189 
 2511000   0.61451848   -2.8891187   -2.8891187   -2.2485655   0.03176617   -2.8891187   0.64055318   418189 
 2512000   0.61380298   -2.8878435   -2.8878435   -2.2480361  0.035286666   -2.8878435   0.63980736   418189 
 2513000   0.61429294   -2.8886675   -2.8886675   -2.2483494  0.034507098   -2.8886675   0.64031809   418189 
 2514000   0.61315035   -2.8874094   -2.8874094   -2.2482823  0.031986827   -2.8874094   0.63912708   418189 
 2515000   0.61484616    -2.888904    -2.888904   -2.2480092  0.041014864    -2.888904   0.64089474   418189 
 2516000   0.61442742    -2.888421    -2.888421   -2.2479627  0.045909148    -2.888421   0.64045826   418189 
 2517000   0.61395093   -2.8890905   -2.8890905   -2.2491289  0.033276389   -2.8890905   0.63996158   418189 
 2518000   0.61354058   -2.8874858   -2.8874858   -2.2479519  0.041363363   -2.8874858   0.63953385   418189 
 2519000   0.61319968   -2.8880543   -2.8880543   -2.2488758   0.04268546   -2.8880543    0.6391785   418189 
 2520000   0.61419103   -2.8885421   -2.8885421   -2.2483303  0.041613744   -2.8885421   0.64021186   418189 
 2521000   0.61454199   -2.8889675   -2.8889675   -2.2483898  0.028941644   -2.8889675   0.64057768   418189 
 2522000   0.61367593   -2.8877215   -2.8877215   -2.2480466  0.019266927   -2.8877215   0.63967493   418189 
 2523000   0.61317022   -2.8871554   -2.8871554   -2.2480076  0.035996472   -2.8871554    0.6391478   418189 
 2524000   0.61416301   -2.8886627   -2.8886627     -2.24848  0.043172177   -2.8886627   0.64018265   418189 
 2525000      0.61448   -2.8894048   -2.8894048   -2.2488917  0.038806786   -2.8894048   0.64051307   418189 
 2526000   0.61297103   -2.8884503   -2.8884503   -2.2495101  0.029337937   -2.8884503   0.63894016   418189 
 2527000   0.61451053   -2.8902328   -2.8902328   -2.2496879  0.052987047   -2.8902328   0.64054489   418189 
 2528000   0.61318387   -2.8887469   -2.8887469   -2.2495848  0.039257031   -2.8887469   0.63916203   418189 
 2529000   0.61225921   -2.8880954   -2.8880954   -2.2498972  0.038002623   -2.8880954   0.63819819   418189 
 2530000   0.61337695   -2.8892003   -2.8892003    -2.249837  0.022516778   -2.8892003   0.63936328   418189 
 2531000   0.61369147   -2.8892153   -2.8892153   -2.2495242  0.025122089   -2.8892153   0.63969113   418189 
 2532000   0.61410148   -2.8890925   -2.8890925    -2.248974  0.038292799   -2.8890925   0.64011851   418189 
 2533000   0.61409318   -2.8899661   -2.8899661   -2.2498562  0.037848782   -2.8899661   0.64010985   418189 
 2534000   0.61358486   -2.8892792   -2.8892792   -2.2496992  0.043694568   -2.8892792      0.63958   418189 
 2535000   0.61399671   -2.8902228   -2.8902228   -2.2502135  0.026120216   -2.8902228    0.6400093   418189 
 2536000   0.61265489   -2.8896587   -2.8896587   -2.2510481  0.024822828   -2.8896587   0.63861064   418189 
 2537000   0.61303053   -2.8901693   -2.8901693   -2.2511671  0.035560567   -2.8901693   0.63900219   418189 
 2538000   0.61256434   -2.8898844   -2.8898844   -2.2513682  0.040016202   -2.8898844   0.63851624   418189 
 2539000   0.61250999   -2.8901471   -2.8901471   -2.2516875  0.040229184   -2.8901471    0.6384596   418189 
 2540000   0.61451791   -2.8923063   -2.8923063   -2.2517537   0.03412079   -2.8923063   0.64055258   418189 
 2541000   0.61305378    -2.891404    -2.891404   -2.2523775  0.033955367    -2.891404   0.63902642   418189 
 2542000   0.61240486   -2.8900969   -2.8900969   -2.2517469  0.047528569   -2.8900969   0.63835001   418189 
 2543000   0.61360154   -2.8909441   -2.8909441   -2.2513467  0.035550638   -2.8909441   0.63959739   418189 
 2544000   0.61336105   -2.8915512   -2.8915512   -2.2522045  0.042848511   -2.8915512   0.63934672   418189 
 2545000   0.61372021    -2.890916    -2.890916   -2.2511949   0.04098945    -2.890916   0.63972108   418189 
 2546000   0.61355682   -2.8910346   -2.8910346   -2.2514838   0.04503077   -2.8910346   0.63955077   418189 
 2547000   0.61182263   -2.8906472   -2.8906472    -2.252904  0.024744475   -2.8906472   0.63774312   418189 
 2548000    0.6118173   -2.8897103   -2.8897103   -2.2519728  0.035326967   -2.8897103   0.63773755   418189 
 2549000   0.61111229   -2.8891564   -2.8891564   -2.2521538  0.028605087   -2.8891564   0.63700268   418189 
 2550000   0.61360433   -2.8912691   -2.8912691   -2.2516688  0.035467516   -2.8912691    0.6396003   418189 
 2551000   0.61254305   -2.8909645   -2.8909645   -2.2524705  0.041488409   -2.8909645   0.63849406   418189 
 2552000   0.61226238   -2.8906536   -2.8906536   -2.2524521   0.03713339   -2.8906536   0.63820149   418189 
 2553000   0.61341673   -2.8915567   -2.8915567    -2.252152  0.029141314   -2.8915567   0.63940475   418189 
 2554000   0.61254435   -2.8910493   -2.8910493   -2.2525539  0.035242827   -2.8910493   0.63849541   418189 
 2555000   0.61290977   -2.8910785   -2.8910785   -2.2522022   0.04528784   -2.8910785   0.63887631   418189 
 2556000   0.61142952   -2.8893992   -2.8893992   -2.2520658  0.028768501   -2.8893992   0.63733335   418189 
 2557000   0.61332897   -2.8912536   -2.8912536   -2.2519404  0.025909492   -2.8912536   0.63931327   418189 
 2558000   0.61280258   -2.8903765   -2.8903765   -2.2516119  0.033371794   -2.8903765   0.63876458   418189 
 2559000   0.61442727   -2.8922169   -2.8922169   -2.2517588  0.037948106   -2.8922169    0.6404581   418189 
 2560000    0.6142587   -2.8920358   -2.8920358   -2.2517534  0.044765949   -2.8920358   0.64028239   418189 
 2561000   0.61371135   -2.8923834   -2.8923834   -2.2526716  0.043272304   -2.8923834   0.63971185   418189 
 2562000   0.61393605   -2.8922928   -2.8922928   -2.2523467  0.035235412   -2.8922928   0.63994607   418189 
 2563000   0.61327877   -2.8921237   -2.8921237   -2.2528628  0.026046393   -2.8921237   0.63926094   418189 
 2564000   0.61201332    -2.890607    -2.890607   -2.2526651  0.047349695    -2.890607   0.63794188   418189 
 2565000   0.61184659    -2.891228    -2.891228   -2.2534599  0.023592518    -2.891228   0.63776809   418189 
 2566000   0.61308428   -2.8918859   -2.8918859   -2.2528276  0.030209994   -2.8918859   0.63905822   418189 
 2567000    0.6128136    -2.891701    -2.891701   -2.2529249   0.05375494    -2.891701   0.63877607   418189 
 2568000   0.61213496   -2.8912626   -2.8912626   -2.2531939  0.030857713   -2.8912626   0.63806868   418189 
 2569000   0.61207184   -2.8920276   -2.8920276   -2.2540247  0.029663006   -2.8920276   0.63800288   418189 
 2570000   0.61345197   -2.8923858   -2.8923858   -2.2529443  0.036347815   -2.8923858   0.63944149   418189 
 2571000   0.61415237   -2.8923816   -2.8923816     -2.25221  0.026877041   -2.8923816   0.64017155   418189 
 2572000   0.61529355   -2.8929353   -2.8929353   -2.2515743  0.030705177   -2.8929353   0.64136108   418189 
 2573000   0.61463279   -2.8928221   -2.8928221   -2.2521498  0.039342164   -2.8928221   0.64067233   418189 
 2574000   0.61291672    -2.890722    -2.890722   -2.2518384   0.01766277    -2.890722   0.63888356   418189 
 2575000   0.61320832   -2.8913938   -2.8913938   -2.2522063  0.044095921   -2.8913938   0.63918752   418189 
 2576000    0.6139659   -2.8929789   -2.8929789   -2.2530017  0.030508325   -2.8929789   0.63997718   418189 
 2577000   0.61391741   -2.8933229   -2.8933229   -2.2533962  0.041968116   -2.8933229   0.63992665   418189 
 2578000   0.61225119   -2.8910141   -2.8910141   -2.2528243  0.032057443   -2.8910141   0.63818983   418189 
 2579000   0.61366145   -2.8926528   -2.8926528    -2.252993  0.026283511   -2.8926528   0.63965984   418189 
 2580000   0.61354751   -2.8926327   -2.8926327   -2.2530916  0.036850948   -2.8926327   0.63954107   418189 
 2581000   0.61477914   -2.8942438   -2.8942438    -2.253419  0.033507799   -2.8942438   0.64082489   418189 
 2582000   0.61479956   -2.8941868   -2.8941868   -2.2533407  0.041909673   -2.8941868   0.64084617   418189 
 2583000    0.6124539   -2.8917113   -2.8917113   -2.2533101   0.03875096   -2.8917113   0.63840113   418189 
 2584000   0.61367067   -2.8939857   -2.8939857   -2.2543163   0.02784894   -2.8939857   0.63966944   418189 
 2585000   0.61409267   -2.8947665   -2.8947665   -2.2546572  0.039894829   -2.8947665   0.64010932   418189 
 2586000   0.61349948   -2.8936713   -2.8936713   -2.2541803  0.034203995   -2.8936713     0.639491   418189 
 2587000   0.61302879   -2.8925057   -2.8925057   -2.2535053   0.03716749   -2.8925057   0.63900038   418189 
 2588000   0.61224195   -2.8918169   -2.8918169   -2.2536367  0.050196023   -2.8918169    0.6381802   418189 
 2589000   0.61194167   -2.8915895   -2.8915895   -2.2537223  0.034139561   -2.8915895    0.6378672   418189 
 2590000   0.61278301   -2.8930044   -2.8930044   -2.2542602  0.046749515   -2.8930044   0.63874419   418189 
 2591000   0.61250719   -2.8923611   -2.8923611   -2.2539044  0.049583647   -2.8923611   0.63845668   418189 
 2592000   0.61327587   -2.8938018   -2.8938018   -2.2545439  0.030555984   -2.8938018   0.63925792   418189 
 2593000    0.6128546   -2.8929885   -2.8929885   -2.2541697  0.036101567   -2.8929885   0.63881881   418189 
 2594000   0.61275642   -2.8922554   -2.8922554   -2.2535389  0.046371782   -2.8922554   0.63871647   418189 
 2595000   0.61417852   -2.8938856   -2.8938856   -2.2536868  0.035758539   -2.8938856   0.64019882   418189 
 2596000   0.61379681   -2.8941439   -2.8941439    -2.254343  0.033518469   -2.8941439   0.63980093   418189 
 2597000   0.61262878   -2.8925114   -2.8925114    -2.253928  0.046995974   -2.8925114   0.63858342   418189 
 2598000   0.61427837   -2.8945526   -2.8945526   -2.2542497  0.051083277   -2.8945526   0.64030289   418189 
 2599000    0.6122517   -2.8927617   -2.8927617   -2.2545714  0.026179513   -2.8927617   0.63819037   418189 
 2600000    0.6130817   -2.8939316   -2.8939316   -2.2548761  0.024646457   -2.8939316   0.63905553   418189 
 2601000     0.612958   -2.8929417   -2.8929417   -2.2540152    0.0349247   -2.8929417   0.63892658   418189 
 2602000   0.61305325   -2.8932288   -2.8932288    -2.254203  0.031004697   -2.8932288   0.63902587   418189 
 2603000   0.61248943   -2.8928105   -2.8928105   -2.2543723  0.039665849   -2.8928105   0.63843817   418189 
 2604000   0.61277459   -2.8933453   -2.8933453   -2.2546099  0.037245576   -2.8933453   0.63873541   418189 
 2605000   0.61234271   -2.8936387   -2.8936387   -2.2553535  0.041117318   -2.8936387   0.63828523   418189 
 2606000   0.61317197   -2.8942503   -2.8942503   -2.2551007  0.035535394   -2.8942503   0.63914962   418189 
 2607000   0.61357414   -2.8946188   -2.8946188     -2.25505  0.050206958   -2.8946188   0.63956883   418189 
 2608000   0.61465667    -2.895638    -2.895638   -2.2549408  0.033375131    -2.895638   0.64069722   418189 
 2609000   0.61460161   -2.8955255   -2.8955255   -2.2548856  0.037063493   -2.8955255   0.64063983   418189 
 2610000    0.6127088   -2.8940398   -2.8940398    -2.255373  0.033006441   -2.8940398   0.63866683   418189 
 2611000   0.61432006   -2.8957038   -2.8957038   -2.2553574  0.026575149   -2.8957038   0.64034635   418189 
 2612000   0.61376394   -2.8950329   -2.8950329   -2.2552662  0.033991208   -2.8950329   0.63976667   418189 
 2613000   0.61418493   -2.8959047   -2.8959047   -2.2556992  0.041042833   -2.8959047    0.6402055   418189 
 2614000   0.61421116    -2.896485    -2.896485   -2.2562522  0.032546077    -2.896485   0.64023284   418189 
 2615000   0.61357404   -2.8952028   -2.8952028    -2.255634  0.039374552   -2.8952028   0.63956873   418189 
 2616000    0.6123503   -2.8944054   -2.8944054   -2.2561122  0.039615446   -2.8944054   0.63829314   418189 
 2617000   0.61295976   -2.8953644   -2.8953644    -2.256436  0.033612351   -2.8953644   0.63892842   418189 
 2618000   0.61380275   -2.8961938   -2.8961938   -2.2563867  0.036066134   -2.8961938   0.63980712   418189 
 2619000   0.61299907    -2.894716    -2.894716   -2.2557466  0.034685148    -2.894716    0.6389694   418189 
 2620000   0.61237606   -2.8945967   -2.8945967   -2.2562767  0.028922209   -2.8945967   0.63831999   418189 
 2621000   0.61141107   -2.8932294   -2.8932294   -2.2559152  0.035252584   -2.8932294   0.63731412   418189 
 2622000   0.61192151   -2.8938245   -2.8938245   -2.2559783  0.031312557   -2.8938245   0.63784618   418189 
 2623000    0.6125387   -2.8949749   -2.8949749   -2.2564854  0.041109099   -2.8949749   0.63848952   418189 
 2624000   0.61318858    -2.895568    -2.895568    -2.256401  0.036601258    -2.895568   0.63916694   418189 
 2625000   0.61273575   -2.8952044   -2.8952044   -2.2565095  0.047720225   -2.8952044   0.63869492   418189 
 2626000   0.61273349   -2.8953095   -2.8953095   -2.2566169  0.033213004   -2.8953095   0.63869256   418189 
 2627000   0.61307768   -2.8957352   -2.8957352   -2.2566838  0.042097745   -2.8957352   0.63905133   418189 
 2628000   0.61210739   -2.8953259   -2.8953259   -2.2572859  0.034462931   -2.8953259   0.63803994   418189 
 2629000   0.61218623   -2.8956556   -2.8956556   -2.2575335  0.028427608   -2.8956556   0.63812212   418189 
 2630000    0.6138626   -2.8962922   -2.8962922   -2.2564227  0.042384768   -2.8962922   0.63986951   418189 
 2631000   0.61276157   -2.8960175   -2.8960175   -2.2572957  0.047581202   -2.8960175   0.63872183   418189 
 2632000   0.61262691   -2.8958515   -2.8958515     -2.25727  0.056264833   -2.8958515   0.63858147   418189 
 2633000    0.6126399   -2.8962333   -2.8962333   -2.2576383  0.040350528   -2.8962333   0.63859501   418189 
 2634000   0.61338546   -2.8969427   -2.8969427   -2.2575706   0.04575744   -2.8969427   0.63937215   418189 
 2635000    0.6126108   -2.8955447   -2.8955447     -2.25698  0.041961925   -2.8955447   0.63856467   418189 
 2636000   0.61252728   -2.8954605   -2.8954605   -2.2569829  0.033473343   -2.8954605   0.63847761   418189 
 2637000   0.61221782   -2.8958279   -2.8958279   -2.2576729  0.039016702   -2.8958279   0.63815505   418189 
 2638000   0.61249664   -2.8960257   -2.8960257     -2.25758  0.036908223   -2.8960257   0.63844568   418189 
 2639000   0.61419726    -2.897687    -2.897687   -2.2574686  0.039083217    -2.897687   0.64021834   418189 
 2640000   0.61258833   -2.8951068   -2.8951068   -2.2565656  0.048133262   -2.8951068   0.63854125   418189 
 2641000   0.61280974   -2.8953575   -2.8953575   -2.2565854  0.036725575   -2.8953575   0.63877205   418189 
 2642000   0.61341751   -2.8950992   -2.8950992   -2.2556936  0.028636336   -2.8950992   0.63940557   418189 
 2643000   0.61144777   -2.8934844   -2.8934844    -2.256132  0.029463939   -2.8934844   0.63735237   418189 
 2644000   0.61252441   -2.8944527   -2.8944527   -2.2559781   0.03412947   -2.8944527   0.63847463   418189 
 2645000   0.61268982   -2.8942569   -2.8942569   -2.2556099  0.038357739   -2.8942569   0.63864705   418189 
 2646000   0.61271249   -2.8949838   -2.8949838   -2.2563131  0.031330219   -2.8949838   0.63867068   418189 
 2647000   0.61257928   -2.8950457   -2.8950457   -2.2565139  0.032668278   -2.8950457   0.63853182   418189 
 2648000   0.61254547   -2.8949778   -2.8949778   -2.2564812  0.030432474   -2.8949778   0.63849657   418189 
 2649000   0.61378114   -2.8962054   -2.8962054   -2.2564208  0.040367673   -2.8962054    0.6397846   418189 
 2650000   0.61281582   -2.8954479   -2.8954479   -2.2566695  0.026728216   -2.8954479   0.63877838   418189 
 2651000   0.61275625   -2.8958074   -2.8958074   -2.2570911  0.017008712   -2.8958074   0.63871629   418189 
 2652000   0.61297224   -2.8957832   -2.8957832   -2.2568418   0.04313627   -2.8957832   0.63894143   418189 
 2653000   0.61326469   -2.8959626   -2.8959626   -2.2567163  0.045221601   -2.8959626   0.63924627   418189 
 2654000   0.61404822   -2.8971772   -2.8971772   -2.2571142  0.035894334   -2.8971772   0.64006299   418189 
 2655000   0.61250247   -2.8958071   -2.8958071   -2.2573553  0.045424372   -2.8958071   0.63845175   418189 
 2656000   0.61284804   -2.8963639   -2.8963639   -2.2575519  0.027740657   -2.8963639   0.63881197   418189 
 2657000   0.61254068   -2.8957541   -2.8957541   -2.2572625  0.028792462   -2.8957541   0.63849159   418189 
 2658000   0.61121042   -2.8944358   -2.8944358   -2.2573309  0.033189724   -2.8944358   0.63710497   418189 
 2659000   0.61036839   -2.8936449   -2.8936449   -2.2574176  0.048825018   -2.8936449   0.63622727   418189 
 2660000   0.61058839   -2.8936038   -2.8936038   -2.2571472  0.025041825   -2.8936038   0.63645658   418189 
 2661000   0.61138266   -2.8949085   -2.8949085    -2.257624  0.042142115   -2.8949085    0.6372845   418189 
 2662000   0.61300198   -2.8965264   -2.8965264    -2.257554  0.032635093   -2.8965264   0.63897243   418189 
 2663000   0.61301138   -2.8962136   -2.8962136   -2.2572313  0.037021057   -2.8962136   0.63898222   418189 
 2664000   0.61317901   -2.8963047   -2.8963047   -2.2571478  0.046023646   -2.8963047   0.63915696   418189 
 2665000   0.61209629   -2.8950842   -2.8950842   -2.2570558  0.051152715   -2.8950842   0.63802837   418189 
 2666000   0.61292272   -2.8965463   -2.8965463   -2.2576565  0.040846543   -2.8965463   0.63888981   418189 
 2667000   0.61215768   -2.8968203   -2.8968203    -2.258728   0.03994597   -2.8968203   0.63809236   418189 
 2668000    0.6113828   -2.8956041   -2.8956041   -2.2583194  0.045405302   -2.8956041   0.63728465   418189 
 2669000   0.61224511   -2.8959151   -2.8959151   -2.2577316  0.032665001   -2.8959151   0.63818349   418189 
 2670000   0.61241232   -2.8961895   -2.8961895   -2.2578318  0.030646113   -2.8961895   0.63835779   418189 
 2671000   0.61294116   -2.8965751   -2.8965751   -2.2576661  0.032616369   -2.8965751   0.63890903   418189 
 2672000   0.61210359   -2.8957196   -2.8957196   -2.2576836  0.035678933   -2.8957196   0.63803597   418189 
 2673000   0.61214897   -2.8958845   -2.8958845   -2.2578012  0.030562282   -2.8958845   0.63808328   418189 
 2674000   0.61278453   -2.8965889   -2.8965889   -2.2578431  0.047689005   -2.8965889   0.63874576   418189 
 2675000   0.61427018   -2.8982912   -2.8982912   -2.2579968  0.043282126   -2.8982912   0.64029436   418189 
 2676000   0.61309297   -2.8975143   -2.8975143    -2.258447   0.03881721   -2.8975143   0.63906727   418189 
 2677000   0.61352172   -2.8972633   -2.8972633   -2.2577491  0.053038609   -2.8972633   0.63951419   418189 
 2678000   0.61367297   -2.8975267   -2.8975267   -2.2578549   0.04583895   -2.8975267   0.63967185   418189 
 2679000   0.61303639   -2.8966599   -2.8966599   -2.2576516  0.038910099   -2.8966599    0.6390083   418189 
 2680000   0.61384741   -2.8980932   -2.8980932   -2.2582395  0.031387964   -2.8980932   0.63985367   418189 
 2681000   0.61357718   -2.8977034   -2.8977034   -2.2581314  0.025297517   -2.8977034   0.63957199   418189 
 2682000   0.61213338   -2.8969571   -2.8969571     -2.25889  0.042471269   -2.8969571   0.63806703   418189 
 2683000   0.61272038   -2.8980053   -2.8980053   -2.2593264  0.045301146   -2.8980053    0.6386789   418189 
 2684000   0.61383254   -2.8984745   -2.8984745   -2.2586363  0.038083088   -2.8984745   0.63983818   418189 
 2685000   0.61155698   -2.8969419   -2.8969419   -2.2594757   0.03888946   -2.8969419   0.63746621   418189 
 2686000    0.6125377   -2.8978287   -2.8978287   -2.2593403  0.031599094   -2.8978287   0.63848848   418189 
 2687000   0.61274159   -2.8985608   -2.8985608   -2.2598598  0.035065214   -2.8985608   0.63870101   418189 
 2688000   0.61058071    -2.896792    -2.896792   -2.2603435   0.03476915    -2.896792   0.63644858   418189 
 2689000    0.6119914   -2.8979931   -2.8979931    -2.260074  0.033521944   -2.8979931   0.63791903   418189 
 2690000   0.61095414   -2.8973101   -2.8973101   -2.2604723  0.028725501   -2.8973101   0.63683783   418189 
 2691000   0.61109489   -2.8977177   -2.8977177   -2.2607331  0.025598694   -2.8977177   0.63698454   418189 
 2692000   0.61181452   -2.8986059   -2.8986059   -2.2608712  0.034783029   -2.8986059   0.63773466   418189 
 2693000   0.61072533    -2.896976    -2.896976   -2.2603767  0.025911384    -2.896976   0.63659932   418189 
 2694000   0.61265962   -2.8998352   -2.8998352   -2.2612196  0.041885813   -2.8998352   0.63861556   418189 
 2695000   0.61314811    -2.898858    -2.898858   -2.2597332  0.037542448    -2.898858   0.63912475   418189 
 2696000   0.61282736   -2.8994041   -2.8994041   -2.2606137  0.031810727   -2.8994041   0.63879041   418189 
 2697000   0.61186221   -2.8987092   -2.8987092   -2.2609248  0.030681487   -2.8987092   0.63778437   418189 
 2698000   0.61254944   -2.8988715   -2.8988715   -2.2603708  0.042420803   -2.8988715   0.63850072   418189 
 2699000   0.61234054   -2.8995577   -2.8995577   -2.2612747  0.038400925   -2.8995577   0.63828297   418189 
 2700000   0.61200407   -2.8991285   -2.8991285   -2.2611962  0.036192827   -2.8991285   0.63793224   418189 
 2701000   0.61110508   -2.8981134   -2.8981134   -2.2611183  0.034000367   -2.8981134   0.63699516   418189 
 2702000   0.61079155   -2.8985815   -2.8985815   -2.2619131  0.029400059   -2.8985815   0.63666836   418189 
 2703000   0.61042857   -2.8979209   -2.8979209   -2.2616309  0.028869507   -2.8979209      0.63629   418189 
 2704000   0.61148207   -2.8989743   -2.8989743   -2.2615862  0.046523694   -2.8989743   0.63738813   418189 
 2705000   0.61257209   -2.9001249   -2.9001249   -2.2616005  0.030164309   -2.9001249   0.63852433   418189 
 2706000   0.61195624   -2.8996895   -2.8996895   -2.2618071  0.038016859   -2.8996895   0.63788239   418189 
 2707000   0.61230787   -2.9002898   -2.9002898   -2.2620409  0.043217101   -2.9002898   0.63824891   418189 
 2708000   0.61310368   -2.9005629   -2.9005629   -2.2614845  0.038477992   -2.9005629   0.63907844   418189 
 2709000   0.61212754   -2.9007066   -2.9007066   -2.2626456  0.033191578   -2.9007066   0.63806094   418189 
 2710000   0.61167586   -2.9001834   -2.9001834   -2.2625933  0.046172118   -2.9001834   0.63759012   418189 
 2711000    0.6124507   -2.9004597   -2.9004597   -2.2620619  0.023656555   -2.9004597   0.63839779   418189 
 2712000   0.61272596   -2.9005254   -2.9005254   -2.2618407  0.056164697   -2.9005254   0.63868471   418189 
 2713000   0.61203093   -2.8991091   -2.8991091   -2.2611489  0.028659033   -2.8991091   0.63796024   418189 
 2714000   0.61160771    -2.898966    -2.898966   -2.2614469  0.039603123    -2.898966   0.63751909   418189 
 2715000   0.61245381   -2.9003091   -2.9003091   -2.2619081  0.033078245   -2.9003091   0.63840104   418189 
 2716000   0.61174063   -2.8993549   -2.8993549   -2.2616972  0.028636515   -2.8993549   0.63765764   418189 
 2717000   0.61121496   -2.8988639   -2.8988639   -2.2617542  0.035873586   -2.8988639    0.6371097   418189 
 2718000   0.61186941   -2.9001524   -2.9001524   -2.2623605  0.051306737   -2.9001524   0.63779187   418189 
 2719000   0.61137772   -2.8999081   -2.8999081   -2.2626287  0.048655201   -2.8999081   0.63727935   418189 
 2720000   0.61200546   -2.9001867   -2.9001867    -2.262253  0.031510291   -2.9001867   0.63793369   418189 
 2721000   0.61248061   -2.9003939   -2.9003939   -2.2619649  0.037234361   -2.9003939   0.63842898   418189 
 2722000   0.61310284   -2.9012591   -2.9012591   -2.2621816  0.017558815   -2.9012591   0.63907756   418189 
 2723000   0.61142787   -2.9001216   -2.9001216     -2.26279  0.036383119   -2.9001216   0.63733163   418189 
 2724000   0.61024719   -2.8993471   -2.8993471   -2.2632462  0.038105501   -2.8993471   0.63610093   418189 
 2725000   0.61296737   -2.9020447   -2.9020447   -2.2631084  0.036122325   -2.9020447   0.63893636   418189 
 2726000   0.61220275   -2.9010923   -2.9010923    -2.262953   0.03281911   -2.9010923   0.63813934   418189 
 2727000   0.61315555   -2.9029865   -2.9029865    -2.263854  0.024562553   -2.9029865   0.63913251   418189 
 2728000   0.61181928   -2.9018316   -2.9018316    -2.264092  0.024709041   -2.9018316   0.63773962   418189 
 2729000   0.61216964   -2.9017954   -2.9017954   -2.2636906  0.028198148   -2.9017954   0.63810483   418189 
 2730000   0.61288371   -2.9022986   -2.9022986   -2.2634495  0.037275592   -2.9022986   0.63884915   418189 
 2731000   0.61138257   -2.9011252   -2.9011252   -2.2638408  0.021650108   -2.9011252   0.63728441   418189 
 2732000   0.61264961   -2.9018139   -2.9018139   -2.2632088  0.044358161   -2.9018139   0.63860513   418189 
 2733000   0.61209106   -2.9008127   -2.9008127   -2.2627898  0.038696261   -2.9008127   0.63802292   418189 
 2734000   0.61158557    -2.900936    -2.900936     -2.26344  0.031692669    -2.900936   0.63749601   418189 
 2735000   0.61328411   -2.9028467   -2.9028467   -2.2635802  0.031667485   -2.9028467   0.63926651   418189 
 2736000   0.61038037   -2.8999652   -2.8999652   -2.2637255  0.031375927   -2.8999652   0.63623976   418189 
 2737000   0.61105948    -2.899703    -2.899703   -2.2627553    0.0377806    -2.899703   0.63694763   418189 
 2738000   0.61142347   -2.9002353   -2.9002353   -2.2629082  0.038131985   -2.9002353   0.63732704   418189 
 2739000    0.6097581   -2.8999155   -2.8999155   -2.2643244  0.020584628   -2.8999155   0.63559112   418189 
 2740000   0.61150289   -2.9009822   -2.9009822   -2.2635724   0.03335585   -2.9009822   0.63740982   418189 
 2741000   0.60972208   -2.8997414   -2.8997414   -2.2641878   0.04996233   -2.8997414   0.63555358   418189 
 2742000   0.61085243   -2.9007463   -2.9007463   -2.2640145  0.028045267   -2.9007463   0.63673182   418189 
 2743000   0.61138702   -2.9005844   -2.9005844   -2.2632954  0.033178007   -2.9005844   0.63728905   418189 
 2744000   0.61135725   -2.9010907   -2.9010907   -2.2638327  0.038862877   -2.9010907   0.63725802   418189 
 2745000   0.61090789   -2.9004776   -2.9004776    -2.263688   0.03462208   -2.9004776   0.63678962   418189 
 2746000   0.61083742   -2.8994945   -2.8994945   -2.2627784  0.035625544   -2.8994945   0.63671616   418189 
 2747000    0.6116841   -2.9009847   -2.9009847    -2.263386  0.049084031   -2.9009847   0.63759871   418189 
 2748000   0.61054701   -2.9001658   -2.9001658   -2.2637523  0.040566087   -2.9001658   0.63641346   418189 
 2749000   0.61168103   -2.9012098   -2.9012098   -2.2636143  0.027136424   -2.9012098   0.63759552   418189 
 2750000   0.61159814   -2.9002421   -2.9002421    -2.262733  0.038921571   -2.9002421   0.63750911   418189 
 2751000   0.61297594   -2.9020509   -2.9020509   -2.2631056   0.04136094   -2.9020509   0.63894529   418189 
 2752000   0.61239578   -2.9011697   -2.9011697   -2.2628291     0.031956   -2.9011697   0.63834055   418189 
 2753000   0.61224854   -2.9011106   -2.9011106   -2.2629236   0.03481049   -2.9011106   0.63818707   418189 
 2754000   0.61232566   -2.9019716   -2.9019716   -2.2637042  0.039712033   -2.9019716   0.63826746   418189 
 2755000   0.61261612   -2.9020287   -2.9020287   -2.2634585  0.033929999   -2.9020287   0.63857023   418189 
 2756000   0.60998719   -2.8999376   -2.8999376   -2.2641077   0.03840256   -2.8999376   0.63582992   418189 
 2757000   0.61092507   -2.9008083   -2.9008083   -2.2640008  0.035845281   -2.9008083   0.63680753   418189 
 2758000   0.61166006   -2.9022339   -2.9022339   -2.2646602  0.028695332   -2.9022339   0.63757366   418189 
 2759000   0.61072445   -2.9015197   -2.9015197   -2.2649213  0.034132923   -2.9015197   0.63659841   418189 
 2760000   0.61031684   -2.9006256   -2.9006256   -2.2644521  0.032390025   -2.9006256   0.63617353   418189 
 2761000   0.61202843    -2.902562    -2.902562   -2.2646044  0.038994576    -2.902562   0.63795763   418189 
 2762000   0.61083174   -2.9003331   -2.9003331   -2.2636229  0.019900756   -2.9003331   0.63671025   418189 
 2763000   0.61106877   -2.9012359   -2.9012359   -2.2642786  0.029736109   -2.9012359   0.63695732   418189 
 2764000   0.61080298   -2.9017138   -2.9017138   -2.2650335  0.029065925   -2.9017138   0.63668027   418189 
 2765000   0.60965952   -2.9011916   -2.9011916   -2.2657033    0.0369762   -2.9011916   0.63548837   418189 
 2766000   0.60946554   -2.9013615   -2.9013615   -2.2660753  0.048073198   -2.9013615   0.63528617   418189 
 2767000   0.61117953   -2.9032633   -2.9032633   -2.2661905  0.048982197   -2.9032633   0.63707277   418189 
 2768000   0.61082091   -2.9036329   -2.9036329   -2.2669339  0.031475937   -2.9036329   0.63669895   418189 
 2769000   0.61029203   -2.9024693   -2.9024693   -2.2663216  0.032804059   -2.9024693   0.63614767   418189 
 2770000   0.61171754   -2.9043006   -2.9043006    -2.266667   0.03629435   -2.9043006   0.63763357   418189 
 2771000   0.61158603   -2.9033623   -2.9033623   -2.2658658  0.048325704   -2.9033623   0.63749649   418189 
 2772000   0.61042977   -2.9027908   -2.9027908   -2.2664996  0.042131651   -2.9027908   0.63629125   418189 
 2773000   0.60962861   -2.9023454   -2.9023454   -2.2668892   0.03224223   -2.9023454   0.63545614   418189 
 2774000   0.61053549   -2.9035271   -2.9035271   -2.2671257  0.033825704   -2.9035271   0.63640144   418189 
 2775000    0.6106265   -2.9032461   -2.9032461   -2.2667498   0.05084613   -2.9032461   0.63649631   418189 
 2776000   0.61111433   -2.9032565   -2.9032565   -2.2662517  0.045391652   -2.9032565   0.63700481   418189 
 2777000   0.61003874   -2.9015381   -2.9015381   -2.2656544  0.036218472   -2.9015381   0.63588365   418189 
 2778000   0.61179662   -2.9025722   -2.9025722   -2.2648561  0.034141251   -2.9025722   0.63771601   418189 
 2779000   0.61049323   -2.9006995   -2.9006995   -2.2643421  0.047937558   -2.9006995   0.63635739   418189 
 2780000    0.6101027   -2.9009096   -2.9009096   -2.2649592  0.038379346   -2.9009096   0.63595032   418189 
 2781000   0.60984507   -2.9005826   -2.9005826   -2.2649008  0.037736344   -2.9005826   0.63568177   418189 
 2782000   0.61005973   -2.9004954   -2.9004954   -2.2645899   0.04718556   -2.9004954   0.63590552   418189 
 2783000   0.61061289    -2.900902    -2.900902   -2.2644199  0.039805646    -2.900902   0.63648212   418189 
 2784000   0.61060627    -2.901435    -2.901435   -2.2649598  0.020450431    -2.901435   0.63647523   418189 
 2785000   0.61097248   -2.9014858   -2.9014858   -2.2646289  0.043176782   -2.9014858   0.63685695   418189 
 2786000   0.61165577   -2.9023737   -2.9023737   -2.2648045    0.0389751   -2.9023737   0.63756919   418189 
 2787000     0.610782   -2.9020154   -2.9020154    -2.265357  0.035773972   -2.9020154    0.6366584   418189 
 2788000    0.6115281   -2.9021543   -2.9021543   -2.2647182  0.031992034   -2.9021543    0.6374361   418189 
 2789000   0.61175216     -2.90261     -2.90261   -2.2649403  0.045466366     -2.90261   0.63766966   418189 
 2790000   0.61100923   -2.9026305   -2.9026305   -2.2657352  0.020613872   -2.9026305   0.63689526   418189 
 2791000   0.61042583   -2.9024004   -2.9024004   -2.2661133  0.042087504   -2.9024004   0.63628714   418189 
 2792000   0.61088912   -2.9027855   -2.9027855   -2.2660154  0.029501323   -2.9027855   0.63677006   418189 
 2793000   0.61165032   -2.9029376   -2.9029376   -2.2653741  0.038323955   -2.9029376    0.6375635   418189 
 2794000   0.61241491   -2.9028494   -2.9028494    -2.264489  0.050684105   -2.9028494   0.63836049   418189 
 2795000   0.60945758   -2.9001886   -2.9001886   -2.2649107  0.043598517   -2.9001886   0.63527787   418189 
 2796000   0.61014537   -2.9012608   -2.9012608    -2.265266  0.022457995   -2.9012608   0.63599479   418189 
 2797000   0.61042502     -2.90119     -2.90119   -2.2649037  0.027898863     -2.90119   0.63628629   418189 
 2798000   0.61057042   -2.9015521   -2.9015521   -2.2651143   0.03304789   -2.9015521   0.63643785   418189 
 2799000   0.61238983   -2.9042974   -2.9042974    -2.265963  0.039169554   -2.9042974   0.63833434   418189 
 2800000   0.61229444   -2.9050032   -2.9050032   -2.2667683  0.042810521   -2.9050032   0.63823491   418189 
 2801000   0.61234859   -2.9045263   -2.9045263    -2.266235  0.029403957   -2.9045263   0.63829136   418189 
 2802000    0.6113607   -2.9042372   -2.9042372   -2.2669756  0.019668338   -2.9042372   0.63726161   418189 
 2803000   0.61069835   -2.9040451   -2.9040451   -2.2674739   0.03259139   -2.9040451    0.6365712   418189 
 2804000   0.61061335   -2.9031918   -2.9031918   -2.2667092  0.037122808   -2.9031918   0.63648261   418189 
 2805000   0.61058731    -2.903092    -2.903092   -2.2666365  0.044038944    -2.903092   0.63645546   418189 
 2806000    0.6107956   -2.9032478   -2.9032478   -2.2665752  0.048723336   -2.9032478   0.63667257   418189 
 2807000     0.611772   -2.9047085   -2.9047085   -2.2670181   0.03408537   -2.9047085   0.63769034   418189 
 2808000   0.61129019   -2.9039719   -2.9039719   -2.2667837   0.04547436   -2.9039719   0.63718812   418189 
 2809000   0.61122989   -2.9047778   -2.9047778   -2.2676526  0.035871539   -2.9047778   0.63712526   418189 
 2810000   0.61162179   -2.9043075   -2.9043075   -2.2667737  0.027563007   -2.9043075   0.63753377   418189 
 2811000   0.61139722   -2.9037173   -2.9037173   -2.2664176  0.044190792   -2.9037173   0.63729968   418189 
 2812000   0.61111867   -2.9031486   -2.9031486   -2.2661393  0.028767973   -2.9031486   0.63700934   418189 
 2813000   0.60912218   -2.9011378   -2.9011378   -2.2662096  0.035956106   -2.9011378   0.63492826   418189 
 2814000   0.61011805   -2.9015839   -2.9015839   -2.2656175  0.044999282   -2.9015839   0.63596632   418189 
 2815000   0.61072496   -2.9022306   -2.9022306   -2.2656316  0.044261488   -2.9022306   0.63659895   418189 
 2816000   0.61058505   -2.9020456   -2.9020456   -2.2655925  0.016837212   -2.9020456    0.6364531   418189 
 2817000   0.61032369   -2.9018417   -2.9018417    -2.265661  0.029369668   -2.9018417   0.63618067   418189 
 2818000   0.60915825   -2.9003719   -2.9003719    -2.265406  0.034982202   -2.9003719   0.63496586   418189 
 2819000   0.61028396   -2.9015602   -2.9015602    -2.265421  0.041852896   -2.9015602   0.63613926   418189 
 2820000   0.60877071   -2.9012196   -2.9012196   -2.2666577  0.028614497   -2.9012196    0.6345619   418189 
 2821000   0.60976012   -2.9021541   -2.9021541   -2.2665609  0.027005896   -2.9021541   0.63559323   418189 
 2822000   0.61028636   -2.9030372   -2.9030372   -2.2668954  0.027616662   -2.9030372   0.63614175   418189 
 2823000   0.61125713    -2.904541    -2.904541   -2.2673874  0.037483359    -2.904541   0.63715366   418189 
 2824000   0.61024097   -2.9035136   -2.9035136   -2.2674191  0.036728119   -2.9035136   0.63609444   418189 
 2825000   0.61130582   -2.9044449   -2.9044449   -2.2672405  0.050390654   -2.9044449   0.63720441   418189 
 2826000   0.61054079   -2.9035375   -2.9035375   -2.2671305  0.048116102   -2.9035375   0.63640696   418189 
 2827000   0.61014145   -2.9023419   -2.9023419   -2.2663511  0.045643547   -2.9023419   0.63599071   418189 
 2828000   0.61046399   -2.9034152   -2.9034152   -2.2670883  0.046850489   -2.9034152   0.63632692   418189 
 2829000   0.61067563   -2.9033958   -2.9033958   -2.2668482  0.030744392   -2.9033958   0.63654753   418189 
 2830000   0.61080353   -2.9032262   -2.9032262   -2.2665454  0.040185125   -2.9032262   0.63668084   418189 
 2831000   0.61113146    -2.903454    -2.903454   -2.2664313   0.04154282    -2.903454   0.63702267   418189 
 2832000   0.61151979   -2.9043871   -2.9043871   -2.2669596  0.028737796   -2.9043871   0.63742744   418189 
 2833000    0.6109713   -2.9039825   -2.9039825   -2.2671268  0.034686539   -2.9039825   0.63685571   418189 
 2834000    0.6110804   -2.9053124   -2.9053124   -2.2683429  0.031908044   -2.9053124   0.63696943   418189 
 2835000   0.61146648    -2.905891    -2.905891   -2.2685192  0.033410307    -2.905891   0.63737188   418189 
 2836000   0.60909424   -2.9036648   -2.9036648   -2.2687656  0.020428648   -2.9036648   0.63489913   418189 
 2837000   0.61099632   -2.9058839   -2.9058839   -2.2690021  0.030054956   -2.9058839    0.6368818   418189 
 2838000   0.61153991   -2.9053459   -2.9053459   -2.2678974  0.033300955   -2.9053459   0.63744842   418189 
 2839000   0.61057264   -2.9047403   -2.9047403   -2.2683002  0.038243124   -2.9047403   0.63644017   418189 
 2840000   0.61066515   -2.9052262   -2.9052262   -2.2686896  0.040120292   -2.9052262   0.63653659   418189 
 2841000   0.61042755   -2.9056611   -2.9056611   -2.2693722  0.028817863   -2.9056611   0.63628893   418189 
 2842000    0.6098961   -2.9057697   -2.9057697   -2.2700348  0.041557163   -2.9057697   0.63573497   418189 
 2843000   0.61050549   -2.9062934   -2.9062934   -2.2699232  0.033307451   -2.9062934   0.63637017   418189 
 2844000   0.61212708   -2.9075153   -2.9075153   -2.2694548  0.026355871   -2.9075153   0.63806046   418189 
 2845000   0.61132988   -2.9063237   -2.9063237   -2.2690942  0.037425727   -2.9063237   0.63722949   418189 
 2846000   0.60926948   -2.9047712   -2.9047712   -2.2696894  0.032829677   -2.9047712   0.63508179   418189 
 2847000    0.6104374   -2.9057295   -2.9057295   -2.2694303  0.054314619   -2.9057295   0.63629919   418189 
 2848000   0.60901129   -2.9044379   -2.9044379   -2.2696252  0.031402668   -2.9044379   0.63481267   418189 
 2849000   0.61021553    -2.904966    -2.904966   -2.2688981  0.023996006    -2.904966   0.63606792   418189 
 2850000   0.61156828   -2.9065055   -2.9065055   -2.2690275   0.04003564   -2.9065055   0.63747799   418189 
 2851000   0.61082742   -2.9060821   -2.9060821   -2.2693764  0.046631525   -2.9060821   0.63670574   418189 
 2852000   0.61038102   -2.9049488   -2.9049488   -2.2687084  0.032350578   -2.9049488   0.63624042   418189 
 2853000   0.60995898    -2.904384    -2.904384   -2.2685835  0.030843384    -2.904384   0.63580051   418189 
 2854000   0.61057575   -2.9050454   -2.9050454    -2.268602  0.055295542   -2.9050454   0.63644341   418189 
 2855000   0.61023975   -2.9045776   -2.9045776   -2.2684844  0.029097671   -2.9045776   0.63609317   418189 
 2856000   0.61084785    -2.905672    -2.905672   -2.2689449    0.0524868    -2.905672   0.63672704   418189 
 2857000   0.61165194   -2.9062657   -2.9062657   -2.2687005  0.043467427   -2.9062657   0.63756519   418189 
 2858000   0.60990901   -2.9054877   -2.9054877   -2.2697392  0.041206531   -2.9054877   0.63574843   418189 
 2859000   0.60979152   -2.9049615   -2.9049615   -2.2693356   0.03791558   -2.9049615   0.63562595   418189 
 2860000   0.60975323   -2.9048988   -2.9048988   -2.2693127  0.025760008   -2.9048988   0.63558604   418189 
 2861000   0.60954946   -2.9052967   -2.9052967    -2.269923  0.028506459   -2.9052967   0.63537364   418189 
 2862000    0.6097777   -2.9055975   -2.9055975    -2.269986  0.034231416   -2.9055975   0.63561155   418189 
 2863000   0.61002408   -2.9060537   -2.9060537   -2.2701853  0.038146673   -2.9060537   0.63586837   418189 
 2864000   0.61061773   -2.9064051   -2.9064051    -2.269918    0.0377524   -2.9064051   0.63648717   418189 
 2865000   0.61064219   -2.9058067   -2.9058067   -2.2692941  0.044463252   -2.9058067   0.63651266   418189 
 2866000   0.61017889   -2.9053892   -2.9053892   -2.2693595  0.033850523   -2.9053892   0.63602974   418189 
 2867000   0.61092239   -2.9062151   -2.9062151   -2.2694103  0.033979226   -2.9062151   0.63680474   418189 
 2868000   0.61041052   -2.9057661   -2.9057661   -2.2694949  0.038095953   -2.9057661   0.63627118   418189 
 2869000   0.61129868   -2.9060467   -2.9060467   -2.2688497  0.044799218   -2.9060467   0.63719696   418189 
 2870000   0.61197186   -2.9069243   -2.9069243   -2.2690256  0.037125985   -2.9069243   0.63789867   418189 
 2871000   0.61023886   -2.9058908   -2.9058908   -2.2697985  0.026421151   -2.9058908   0.63609225   418189 
 2872000   0.61083038   -2.9067669   -2.9067669   -2.2700581  0.040642101   -2.9067669   0.63670882   418189 
 2873000   0.61095045   -2.9076499   -2.9076499   -2.2708159  0.030341484   -2.9076499   0.63683399   418189 
 2874000   0.61126617   -2.9066967   -2.9066967   -2.2695336  0.036332083   -2.9066967   0.63716308   418189 
 2875000   0.61006659   -2.9068382   -2.9068382   -2.2709256  0.033087185   -2.9068382   0.63591268   418189 
 2876000   0.60968334   -2.9062644   -2.9062644   -2.2707512  0.043579806   -2.9062644    0.6355132   418189 
 2877000   0.61035155   -2.9058571   -2.9058571   -2.2696474  0.035725924   -2.9058571   0.63620972   418189 
 2878000   0.60881102   -2.9047105   -2.9047105   -2.2701066  0.055304273   -2.9047105   0.63460391   418189 
 2879000   0.61046305   -2.9063534   -2.9063534   -2.2700275  0.031156487   -2.9063534   0.63632593   418189 
 2880000   0.60976599   -2.9058435   -2.9058435   -2.2702442  0.039622575   -2.9058435   0.63559934   418189 
 2881000   0.61038808   -2.9060869   -2.9060869   -2.2698391  0.020887554   -2.9060869   0.63624779   418189 
 2882000   0.60959171   -2.9051186   -2.9051186   -2.2697009  0.041769337   -2.9051186   0.63541768   418189 
 2883000   0.60999663   -2.9055134   -2.9055134   -2.2696737  0.035286767   -2.9055134   0.63583975   418189 
 2884000   0.60961963   -2.9042338   -2.9042338    -2.268787  0.023547527   -2.9042338   0.63544678   418189 
 2885000   0.60986441   -2.9042608   -2.9042608   -2.2685589  0.045987704   -2.9042608   0.63570193   418189 
 2886000   0.61009503   -2.9049858   -2.9049858   -2.2690435  0.023226619   -2.9049858   0.63594233   418189 
 2887000   0.61134186   -2.9058048   -2.9058048   -2.2685629  0.030235231   -2.9058048   0.63724198   418189 
 2888000   0.60990643   -2.9045224   -2.9045224   -2.2687767  0.027648666   -2.9045224   0.63574573   418189 
 2889000   0.61066002   -2.9053752   -2.9053752    -2.268844  0.036275412   -2.9053752   0.63653125   418189 
 2890000   0.61079902   -2.9061457   -2.9061457   -2.2694696  0.029212262   -2.9061457   0.63667614   418189 
 2891000   0.60996422   -2.9050625   -2.9050625   -2.2692565  0.036712484   -2.9050625   0.63580597   418189 
 2892000   0.61089161   -2.9053591   -2.9053591   -2.2685865   0.03617953   -2.9053591   0.63677266   418189 
 2893000   0.61101253   -2.9056204   -2.9056204   -2.2687218  0.037936059   -2.9056204   0.63689869   418189 
 2894000   0.61079963   -2.9058295   -2.9058295   -2.2691528  0.028743604   -2.9058295   0.63667678   418189 
 2895000   0.61196238   -2.9071497   -2.9071497   -2.2692609  0.024225058   -2.9071497   0.63788879   418189 
 2896000   0.61018336   -2.9054902   -2.9054902   -2.2694558  0.039180999   -2.9054902    0.6360344   418189 
 2897000   0.61022964   -2.9055425   -2.9055425   -2.2694599  0.024953583   -2.9055425   0.63608264   418189 
 2898000   0.61032121   -2.9057562   -2.9057562   -2.2695781  0.042468359   -2.9057562   0.63617809   418189 
 2899000    0.6110965   -2.9063354   -2.9063354   -2.2693491  0.045853674   -2.9063354   0.63698623   418189 
 2900000   0.60946939    -2.903988    -2.903988   -2.2686978  0.031310645    -2.903988   0.63529018   418189 
 2901000   0.61089286   -2.9057893   -2.9057893   -2.2690153  0.027283039   -2.9057893   0.63677396   418189 
 2902000   0.61024379    -2.905215    -2.905215   -2.2691177  0.024064057    -2.905215   0.63609739   418189 
 2903000   0.60992078   -2.9048113   -2.9048113   -2.2690506  0.033939649   -2.9048113   0.63576069   418189 
 2904000   0.61063308   -2.9052438   -2.9052438   -2.2687407  0.034588846   -2.9052438   0.63650317   418189 
 2905000   0.61045989   -2.9056691   -2.9056691   -2.2693464  0.021674551   -2.9056691   0.63632264   418189 
 2906000   0.60958179   -2.9041792   -2.9041792   -2.2687718   0.03702786   -2.9041792   0.63540734   418189 
 2907000   0.60938792   -2.9052453   -2.9052453   -2.2700401  0.031476458   -2.9052453   0.63520526   418189 
 2908000   0.61048088   -2.9054283   -2.9054283   -2.2690837  0.033557213   -2.9054283   0.63634452   418189 
 2909000   0.61083521   -2.9052953   -2.9052953   -2.2685815  0.032589385   -2.9052953   0.63671386   418189 
 2910000    0.6099014   -2.9060842   -2.9060842   -2.2703437  0.036746833   -2.9060842   0.63574049   418189 
 2911000   0.61020522   -2.9066053   -2.9066053   -2.2705481  0.037255772   -2.9066053   0.63605718   418189 
 2912000   0.61059889   -2.9071653   -2.9071653   -2.2706978  0.030205042   -2.9071653   0.63646753   418189 
 2913000   0.61028432    -2.906807    -2.906807   -2.2706674  0.041530517    -2.906807   0.63613963   418189 
 2914000   0.60993171   -2.9070713   -2.9070713   -2.2712992  0.034782368   -2.9070713   0.63577208   418189 
 2915000   0.60972501   -2.9077433   -2.9077433   -2.2721866   0.04535212   -2.9077433   0.63555663   418189 
 2916000   0.60974092   -2.9076822   -2.9076822    -2.272109  0.038793909   -2.9076822   0.63557321   418189 
 2917000   0.60924473   -2.9073381   -2.9073381    -2.272282  0.028484027   -2.9073381     0.635056   418189 
 2918000   0.61034592    -2.909074    -2.909074   -2.2728702  0.035772625    -2.909074   0.63620384   418189 
 2919000   0.60980735   -2.9077512   -2.9077512   -2.2721088  0.034516736   -2.9077512   0.63564246   418189 
 2920000   0.60950178   -2.9073029   -2.9073029    -2.271979  0.041098344   -2.9073029   0.63532394   418189 
 2921000   0.60914972    -2.906768    -2.906768   -2.2718111  0.052696527    -2.906768   0.63495696   418189 
 2922000   0.60908604   -2.9068897   -2.9068897   -2.2719992  0.033735673   -2.9068897   0.63489059   418189 
 2923000     0.608088   -2.9065088   -2.9065088   -2.2726586  0.042123767   -2.9065088   0.63385026   418189 
 2924000   0.61024485   -2.9082019   -2.9082019   -2.2721035  0.037617914   -2.9082019   0.63609849   418189 
 2925000   0.60903438   -2.9073552   -2.9073552   -2.2725185  0.036549266   -2.9073552   0.63483673   418189 
 2926000   0.60935445   -2.9079191   -2.9079191   -2.2727487  0.032495039   -2.9079191   0.63517037   418189 
 2927000   0.60857849   -2.9078745   -2.9078745    -2.273513  0.031939913   -2.9078745   0.63436153   418189 
 2928000   0.60943056   -2.9090275   -2.9090275   -2.2737778  0.027709086   -2.9090275    0.6352497   418189 
 2929000    0.6087101   -2.9071319   -2.9071319   -2.2726332  0.033688747   -2.9071319   0.63449871   418189 
 2930000   0.60946953   -2.9087562   -2.9087562   -2.2734659   0.02662384   -2.9087562   0.63529032   418189 
 2931000   0.60883926   -2.9081501   -2.9081501   -2.2735167  0.035588192   -2.9081501   0.63463335   418189 
 2932000   0.60861409   -2.9072497   -2.9072497   -2.2728511   0.03459158   -2.9072497   0.63439864   418189 
 2933000   0.60955808   -2.9081671   -2.9081671   -2.2727845  0.035916846   -2.9081671   0.63538262   418189 
 2934000   0.60920563   -2.9074585   -2.9074585   -2.2724433  0.043205192   -2.9074585   0.63501525   418189 
 2935000   0.60880075   -2.9074699   -2.9074699   -2.2728767  0.041764927   -2.9074699    0.6345932   418189 
 2936000   0.60982611   -2.9088872   -2.9088872   -2.2732252  0.034963125   -2.9088872   0.63566201   418189 
 2937000   0.60908278   -2.9081215   -2.9081215   -2.2732344  0.023790009   -2.9081215   0.63488718   418189 
 2938000    0.6091614   -2.9090738   -2.9090738   -2.2741047  0.027113228   -2.9090738   0.63496914   418189 
 2939000   0.60819771   -2.9067318   -2.9067318   -2.2727672  0.032581664   -2.9067318   0.63396462   418189 
 2940000   0.60912118   -2.9082866   -2.9082866   -2.2733594  0.033843833   -2.9082866   0.63492722   418189 
 2941000   0.60837814   -2.9075986   -2.9075986   -2.2734459  0.022924682   -2.9075986    0.6341527   418189 
 2942000   0.60810689   -2.9072339   -2.9072339    -2.273364  0.032889851   -2.9072339   0.63386995   418189 
 2943000   0.60763388   -2.9079852   -2.9079852   -2.2746083  0.035872622   -2.9079852    0.6333769   418189 
 2944000   0.60849164   -2.9082307   -2.9082307   -2.2739597  0.023453415   -2.9082307   0.63427101   418189 
 2945000   0.60937144   -2.9087576   -2.9087576   -2.2735696  0.038268612   -2.9087576   0.63518808   418189 
 2946000   0.60965382   -2.9092974   -2.9092974    -2.273815  0.031088693   -2.9092974   0.63548242   418189 
 2947000   0.60934988   -2.9088531   -2.9088531   -2.2736875  0.039785496   -2.9088531    0.6351656   418189 
 2948000   0.60862095   -2.9078954   -2.9078954   -2.2734896  0.034822147   -2.9078954   0.63440579   418189 
 2949000   0.60825521   -2.9079698   -2.9079698   -2.2739452  0.035443229   -2.9079698   0.63402456   418189 
 2950000   0.60914609   -2.9091857   -2.9091857   -2.2742325  0.037494151   -2.9091857   0.63495318   418189 
 2951000   0.60804441   -2.9079436   -2.9079436   -2.2741388  0.042383339   -2.9079436   0.63380482   418189 
 2952000     0.609979   -2.9099799   -2.9099799   -2.2741586  0.044197722   -2.9099799   0.63582138   418189 
 2953000    0.6080477   -2.9083395   -2.9083395   -2.2745312  0.035082373   -2.9083395   0.63380826   418189 
 2954000   0.60895203   -2.9094514   -2.9094514   -2.2747005  0.044307673   -2.9094514    0.6347509   418189 
 2955000   0.60962028   -2.9101484   -2.9101484   -2.2747009  0.039536772   -2.9101484   0.63544746   418189 
 2956000   0.60958756   -2.9095632   -2.9095632   -2.2741499   0.04037815   -2.9095632   0.63541336   418189 
 2957000   0.60936914   -2.9095379   -2.9095379   -2.2743522  0.039666976   -2.9095379   0.63518568   418189 
 2958000   0.60913322   -2.9094099   -2.9094099   -2.2744702  0.043225401   -2.9094099   0.63493976   418189 
 2959000   0.60859961   -2.9088414   -2.9088414   -2.2744578  0.042834295   -2.9088414   0.63438355   418189 
 2960000   0.60939689   -2.9096852   -2.9096852   -2.2744706  0.034866191   -2.9096852   0.63521461   418189 
 2961000   0.61023009     -2.90985     -2.90985   -2.2737669  0.045756554     -2.90985   0.63608311   418189 
 2962000   0.60959077   -2.9093692   -2.9093692   -2.2739525  0.032697589   -2.9093692    0.6354167   418189 
 2963000   0.60930153   -2.9089552   -2.9089552     -2.27384  0.034080405   -2.9089552   0.63511521   418189 
 2964000   0.61019435   -2.9093719   -2.9093719    -2.273326  0.032122681   -2.9093719   0.63604585   418189 
 2965000   0.60990904   -2.9094102   -2.9094102   -2.2736617  0.035096925   -2.9094102   0.63574846   418189 
 2966000   0.60971338   -2.9094267   -2.9094267   -2.2738822  0.038985598   -2.9094267    0.6355445   418189 
 2967000    0.6089836   -2.9091325   -2.9091325   -2.2743487  0.044219499   -2.9091325    0.6347838   418189 
 2968000   0.60896015   -2.9084877   -2.9084877   -2.2737283  0.026290951   -2.9084877   0.63475936   418189 
 2969000    0.6092505   -2.9085307   -2.9085307   -2.2734687  0.030338946   -2.9085307   0.63506202   418189 
 2970000   0.60988536   -2.9086344   -2.9086344   -2.2729106  0.038795233   -2.9086344   0.63572377   418189 
 2971000   0.60891972   -2.9075418   -2.9075418   -2.2728246  0.042125665   -2.9075418   0.63471722   418189 
 2972000   0.61091788   -2.9093905   -2.9093905   -2.2725905  0.050744844   -2.9093905   0.63680003   418189 
 2973000   0.61019314   -2.9084157   -2.9084157   -2.2723711  0.027345042   -2.9084157   0.63604459   418189 
 2974000   0.61047507   -2.9093225   -2.9093225    -2.272984  0.023940828   -2.9093225   0.63633847   418189 
 2975000   0.61017447   -2.9099227   -2.9099227   -2.2738976  0.041445809   -2.9099227   0.63602513   418189 
 2976000    0.6106397   -2.9102473   -2.9102473   -2.2737372  0.039115127   -2.9102473   0.63651007   418189 
 2977000   0.60899932   -2.9089231   -2.9089231   -2.2741229  0.038995318   -2.9089231   0.63480019   418189 
 2978000   0.60957761   -2.9097156   -2.9097156   -2.2743127  0.038655783   -2.9097156   0.63540298   418189 
 2979000   0.61048125   -2.9104478   -2.9104478   -2.2741029  0.042599011   -2.9104478    0.6363449   418189 
 2980000   0.60973785   -2.9103914   -2.9103914   -2.2748213  0.027898293   -2.9103914   0.63557001   418189 
 2981000    0.6098344     -2.91021     -2.91021   -2.2745393  0.036655531     -2.91021   0.63567065   418189 
 2982000   0.60945821   -2.9109183   -2.9109183   -2.2756398  0.040294146   -2.9109183   0.63527852   418189 
 2983000   0.60933855   -2.9107944   -2.9107944   -2.2756406   0.03465264   -2.9107944   0.63515379   418189 
 2984000   0.60878694   -2.9103451   -2.9103451   -2.2757663  0.040548349   -2.9103451   0.63457882   418189 
 2985000   0.60980655   -2.9114018   -2.9114018   -2.2757601  0.032555261   -2.9114018   0.63564163   418189 
 2986000   0.61016277   -2.9113305   -2.9113305   -2.2753176  0.030037194   -2.9113305   0.63601293   418189 
 2987000   0.60894666   -2.9099335   -2.9099335   -2.2751882  0.032563264   -2.9099335   0.63474531   418189 
 2988000   0.60929787   -2.9105424   -2.9105424    -2.275431  0.037421325   -2.9105424   0.63511139   418189 
 2989000   0.61020326   -2.9115146   -2.9115146   -2.2754594  0.046113024   -2.9115146   0.63605514   418189 
 2990000   0.60894903   -2.9101959   -2.9101959   -2.2754482  0.033721672   -2.9101959   0.63474777   418189 
 2991000   0.60842842    -2.909924    -2.909924   -2.2757189  0.023901974    -2.909924    0.6342051   418189 
 2992000   0.60842553   -2.9092332   -2.9092332   -2.2750311  0.032384469   -2.9092332    0.6342021   418189 
 2993000   0.60852168   -2.9099761   -2.9099761   -2.2756738  0.039576706   -2.9099761   0.63430232   418189 
 2994000   0.60921388   -2.9109476   -2.9109476   -2.2759237  0.036264259   -2.9109476   0.63502384   418189 
 2995000   0.60963846   -2.9110526   -2.9110526   -2.2755862  0.028638455   -2.9110526   0.63546641   418189 
 2996000   0.60849515   -2.9104025   -2.9104025   -2.2761278  0.027315417   -2.9104025   0.63427466   418189 
 2997000   0.60852002   -2.9103516   -2.9103516    -2.276051  0.039248186   -2.9103516   0.63430059   418189 
 2998000   0.60763231   -2.9109511   -2.9109511   -2.2775758  0.030670486   -2.9109511   0.63337527   418189 
 2999000   0.60847618   -2.9112685   -2.9112685   -2.2770136  0.040884272   -2.9112685   0.63425489   418189 
 3000000    0.6075629    -2.910487    -2.910487    -2.277184   0.03142305    -2.910487   0.63330292   418189 
 3001000   0.60865859   -2.9108152   -2.9108152   -2.2763702  0.034613883   -2.9108152   0.63444503   418189 
 3002000     0.609167   -2.9117392   -2.9117392   -2.2767642  0.044168015   -2.9117392   0.63497498   418189 
 3003000   0.60993667   -2.9123421   -2.9123421   -2.2765648  0.031626585   -2.9123421   0.63577725   418189 
 3004000   0.60921585   -2.9110926   -2.9110926   -2.2760667  0.040454112   -2.9110926   0.63502589   418189 
 3005000   0.60901289   -2.9105793   -2.9105793    -2.275765  0.038335494   -2.9105793   0.63481434   418189 
 3006000   0.60879391   -2.9108819   -2.9108819   -2.2762958  0.036671561   -2.9108819   0.63458608   418189 
 3007000   0.60974905   -2.9118668   -2.9118668   -2.2762852  0.030815438   -2.9118668   0.63558168   418189 
 3008000   0.60909298   -2.9104745   -2.9104745   -2.2755767  0.040741263   -2.9104745   0.63489782   418189 
 3009000   0.60969169   -2.9113084   -2.9113084   -2.2757865  0.037038534   -2.9113084   0.63552189   418189 
 3010000   0.60919774   -2.9107403   -2.9107403   -2.2757333  0.019788849   -2.9107403   0.63500702   418189 
 3011000   0.60869171   -2.9104338   -2.9104338   -2.2759543  0.037760403   -2.9104338   0.63447955   418189 
 3012000   0.61007624   -2.9121821   -2.9121821   -2.2762594  0.026338401   -2.9121821   0.63592274   418189 
 3013000   0.60876785   -2.9104157   -2.9104157   -2.2758568  0.037678271   -2.9104157   0.63455892   418189 
 3014000   0.60873219   -2.9104866   -2.9104866   -2.2759649   0.02943046   -2.9104866   0.63452174   418189 
 3015000   0.61021387   -2.9122379   -2.9122379   -2.2761717   0.03422656   -2.9122379    0.6360662   418189 
 3016000   0.60990318   -2.9116808   -2.9116808   -2.2759385  0.029314802   -2.9116808   0.63574235   418189 
 3017000   0.60993556   -2.9109264   -2.9109264   -2.2751503  0.042976146   -2.9109264   0.63577609   418189 
 3018000   0.60897578   -2.9109377   -2.9109377   -2.2761621   0.01671725   -2.9109377   0.63477566   418189 
 3019000   0.60956382   -2.9121895   -2.9121895   -2.2768009  0.028908741   -2.9121895    0.6353886   418189 
 3020000   0.60782126   -2.9108198   -2.9108198   -2.2772476  0.033554678   -2.9108198   0.63357222   418189 
 3021000   0.60929263   -2.9125861   -2.9125861   -2.2774801  0.034285872   -2.9125861   0.63510593   418189 
 3022000   0.60864603   -2.9117379   -2.9117379    -2.277306  0.040750704   -2.9117379   0.63443194   418189 
 3023000   0.60902744   -2.9133198   -2.9133198   -2.2784903  0.036562072   -2.9133198    0.6348295   418189 
 3024000   0.60929436   -2.9126324   -2.9126324   -2.2775247  0.036586541   -2.9126324   0.63510773   418189 
 3025000   0.60853738   -2.9114001   -2.9114001   -2.2770815  0.034642624   -2.9114001   0.63431868   418189 
 3026000   0.60853157   -2.9124889   -2.9124889   -2.2781762   0.04580831   -2.9124889   0.63431263   418189 
 3027000   0.60926689   -2.9139127   -2.9139127   -2.2788336  0.029499182   -2.9139127    0.6350791   418189 
 3028000   0.60997082   -2.9149915   -2.9149915   -2.2791787  0.025861427   -2.9149915   0.63581285   418189 
 3029000   0.60813699   -2.9128099   -2.9128099   -2.2789086   0.03842833   -2.9128099   0.63390133   418189 
 3030000   0.60909166   -2.9134393   -2.9134393   -2.2785429  0.020509431   -2.9134393   0.63489644   418189 
 3031000   0.61011136   -2.9141354   -2.9141354    -2.278176  0.028408979   -2.9141354   0.63595935   418189 
 3032000   0.60990434   -2.9139936   -2.9139936     -2.27825   0.02509445   -2.9139936   0.63574356   418189 
 3033000   0.60822023   -2.9127804   -2.9127804   -2.2787923  0.030406804   -2.9127804   0.63398809   418189 
 3034000   0.60947023   -2.9145154   -2.9145154   -2.2792244  0.035867843   -2.9145154   0.63529105   418189 
 3035000   0.60682355   -2.9113314   -2.9113314   -2.2787991  0.029034833   -2.9113314   0.63253224   418189 
 3036000   0.60839383   -2.9133627   -2.9133627   -2.2791936  0.032049819   -2.9133627   0.63416906   418189 
 3037000   0.60743469   -2.9119841   -2.9119841   -2.2788149  0.033342829   -2.9119841   0.63316927   418189 
 3038000   0.60807821   -2.9119285   -2.9119285   -2.2780885  0.043228554   -2.9119285   0.63384006   418189 
 3039000   0.60743256   -2.9107506   -2.9107506   -2.2775835  0.037294005   -2.9107506   0.63316706   418189 
 3040000   0.60957452   -2.9132616   -2.9132616   -2.2778618  0.041680664   -2.9132616   0.63539976   418189 
 3041000   0.61056043   -2.9144029   -2.9144029   -2.2779754   0.03089308   -2.9144029   0.63642744   418189 
 3042000   0.60825885    -2.912693    -2.912693   -2.2786646  0.026978685    -2.912693   0.63402835   418189 
 3043000   0.60925216   -2.9132414   -2.9132414   -2.2781776  0.026987066   -2.9132414   0.63506374   418189 
 3044000   0.60888288    -2.912007    -2.912007   -2.2773282  0.031828853    -2.912007   0.63467882   418189 
 3045000   0.60860635   -2.9119318   -2.9119318   -2.2775412  0.024066297   -2.9119318   0.63439057   418189 
 3046000   0.60942788   -2.9130112   -2.9130112   -2.2777643   0.02284079   -2.9130112   0.63524691   418189 
 3047000   0.60917641   -2.9121945   -2.9121945   -2.2772098  0.053183693   -2.9121945   0.63498479   418189 
 3048000   0.60931557   -2.9130967   -2.9130967   -2.2779669  0.038745156   -2.9130967   0.63512984   418189 
 3049000    0.6092958   -2.9137526   -2.9137526   -2.2786434  0.024503639   -2.9137526   0.63510923   418189 
 3050000   0.60783731   -2.9127353   -2.9127353   -2.2791464  0.047602842   -2.9127353   0.63358895   418189 
 3051000   0.60796977   -2.9122793   -2.9122793   -2.2785522  0.030570419   -2.9122793   0.63372702   418189 
 3052000    0.6084229   -2.9128079   -2.9128079   -2.2786086  0.029438382   -2.9128079   0.63419935   418189 
 3053000   0.60831961   -2.9122069   -2.9122069   -2.2781152  0.032382824   -2.9122069   0.63409169   418189 
 3054000   0.60892511   -2.9125572   -2.9125572   -2.2778343  0.033354954   -2.9125572   0.63472283   418189 
 3055000   0.60863971   -2.9128255   -2.9128255   -2.2784002  0.024977329   -2.9128255   0.63442535   418189 
 3056000   0.61157998   -2.9158445   -2.9158445   -2.2783543  0.029391063   -2.9158445   0.63749018   418189 
 3057000   0.60821747   -2.9130964   -2.9130964   -2.2791111  0.035713664   -2.9130964   0.63398522   418189 
 3058000   0.60922014   -2.9141049   -2.9141049   -2.2790745  0.038607082   -2.9141049   0.63503037   418189 
 3059000   0.60820876   -2.9122038   -2.9122038   -2.2782277  0.035027575   -2.9122038   0.63397614   418189 
 3060000   0.60865626   -2.9123901   -2.9123901   -2.2779475  0.022791568   -2.9123901    0.6344426   418189 
 3061000   0.60833233   -2.9123778   -2.9123778   -2.2782728  0.033359003   -2.9123778   0.63410495   418189 
 3062000   0.60875494   -2.9129701   -2.9129701   -2.2784247  0.026854965   -2.9129701   0.63454546   418189 
 3063000   0.60889905   -2.9131807   -2.9131807    -2.278485  0.019673954   -2.9131807   0.63469567   418189 
 3064000   0.60869865   -2.9126691   -2.9126691   -2.2781824  0.028507007   -2.9126691   0.63448678   418189 
 3065000   0.60788786   -2.9122117   -2.9122117   -2.2785701  0.039001741   -2.9122117   0.63364165   418189 
 3066000   0.60844344   -2.9128463   -2.9128463   -2.2786255   0.04253621   -2.9128463   0.63422076   418189 
 3067000   0.60833104   -2.9129257   -2.9129257   -2.2788221  0.032814629   -2.9129257    0.6341036   418189 
 3068000   0.60887298   -2.9134597   -2.9134597   -2.2787912  0.033172305   -2.9134597    0.6346685   418189 
 3069000   0.60847519   -2.9136224   -2.9136224   -2.2793685  0.033808171   -2.9136224   0.63425386   418189 
 3070000    0.6085855   -2.9141326   -2.9141326   -2.2797638  0.038135877   -2.9141326   0.63436884   418189 
 3071000   0.60847487   -2.9135543   -2.9135543   -2.2793008  0.031817083   -2.9135543   0.63425352   418189 
 3072000   0.60910286   -2.9140572   -2.9140572   -2.2791491  0.051737368   -2.9140572   0.63490812   418189 
 3073000   0.60807715    -2.913182    -2.913182    -2.279343  0.036771081    -2.913182   0.63383895   418189 
 3074000   0.60789498   -2.9138035   -2.9138035   -2.2801544  0.028317069   -2.9138035   0.63364907   418189 
 3075000   0.60834892   -2.9142945   -2.9142945   -2.2801722  0.022621078   -2.9142945   0.63412223   418189 
 3076000   0.60828181   -2.9139589   -2.9139589   -2.2799066   0.04172841   -2.9139589   0.63405228   418189 
 3077000   0.60803767   -2.9145486   -2.9145486   -2.2807508   0.03385067   -2.9145486    0.6337978   418189 
 3078000   0.60730596   -2.9139332   -2.9139332   -2.2808981  0.028192978   -2.9139332   0.63303509   418189 
 3079000   0.60873069   -2.9154089   -2.9154089   -2.2808888  0.038975811   -2.9154089   0.63452018   418189 
 3080000   0.60752514   -2.9133331   -2.9133331   -2.2800696  0.041221617   -2.9133331   0.63326356   418189 
 3081000   0.60819576   -2.9126125   -2.9126125   -2.2786499  0.033534093   -2.9126125   0.63396259   418189 
 3082000   0.60739569   -2.9125876   -2.9125876    -2.279459  0.016462113   -2.9125876   0.63312862   418189 
 3083000   0.60867516   -2.9138427   -2.9138427   -2.2793804  0.036819915   -2.9138427    0.6344623   418189 
 3084000   0.60752268    -2.912484    -2.912484    -2.279223  0.029245809    -2.912484     0.633261   418189 
 3085000   0.60738751   -2.9119112   -2.9119112   -2.2787911  0.031932196   -2.9119112    0.6331201   418189 
 3086000   0.60767937   -2.9125464   -2.9125464    -2.279122  0.026053214   -2.9125464   0.63342432   418189 
 3087000   0.60683261   -2.9114729   -2.9114729   -2.2789312  0.029656605   -2.9114729   0.63254169   418189 
 3088000   0.60769603   -2.9119888   -2.9119888   -2.2785471  0.041655359   -2.9119888   0.63344168   418189 
 3089000   0.60834088   -2.9123499   -2.9123499   -2.2782361  0.042880585   -2.9123499   0.63411385   418189 
 3090000   0.60766644   -2.9109639   -2.9109639   -2.2775531  0.034463862   -2.9109639   0.63341084   418189 
 3091000   0.60764342   -2.9107952   -2.9107952   -2.2774084  0.017690321   -2.9107952   0.63338685   418189 
 3092000   0.60867374   -2.9125001   -2.9125001   -2.2780393  0.039581469   -2.9125001   0.63446082   418189 
 3093000   0.60891474   -2.9125405   -2.9125405   -2.2778285  0.042415056   -2.9125405   0.63471203   418189 
 3094000   0.60800357   -2.9113574   -2.9113574   -2.2775951  0.038714018   -2.9113574   0.63376226   418189 
 3095000   0.60824006   -2.9119761   -2.9119761   -2.2779673  0.038090054   -2.9119761   0.63400877   418189 
 3096000     0.607441    -2.911417    -2.911417   -2.2782411  0.029065643    -2.911417   0.63317585   418189 
 3097000   0.60784985   -2.9125286   -2.9125286   -2.2789266  0.031727474   -2.9125286   0.63360202   418189 
 3098000   0.60810207   -2.9117112   -2.9117112   -2.2778462  0.043496008   -2.9117112   0.63386493   418189 
 3099000   0.60871086   -2.9127158   -2.9127158   -2.2782163  0.026772623   -2.9127158   0.63449951   418189 
 3100000   0.60983656   -2.9137698   -2.9137698   -2.2780969   0.03024546   -2.9137698   0.63567291   418189 
 3101000   0.60870145   -2.9126197   -2.9126197     -2.27813   0.04134041   -2.9126197   0.63448971   418189 
 3102000   0.60713233   -2.9108345   -2.9108345   -2.2779804   0.03281859   -2.9108345    0.6328541   418189 
 3103000    0.6083539   -2.9118408   -2.9118408   -2.2777133  0.025463128   -2.9118408   0.63412743   418189 
 3104000   0.60878262   -2.9117213   -2.9117213    -2.277147  0.037448343   -2.9117213   0.63457431   418189 
 3105000   0.61025344   -2.9125657   -2.9125657   -2.2764583  0.035480556   -2.9125657   0.63610745   418189 
 3106000   0.61084355   -2.9133381   -2.9133381   -2.2766156  0.031123939   -2.9133381   0.63672255   418189 
 3107000   0.60922885    -2.911908    -2.911908   -2.2768685  0.039292375    -2.911908   0.63503944   418189 
 3108000   0.60932533   -2.9117372   -2.9117372   -2.2765972  0.034301683   -2.9117372   0.63514002   418189 
 3109000   0.60959318   -2.9119078   -2.9119078   -2.2764885  0.027064693   -2.9119078   0.63541921   418189 
 3110000   0.60826998   -2.9110155   -2.9110155   -2.2769756  0.029567727   -2.9110155   0.63403995   418189 
 3111000   0.60852032   -2.9113463   -2.9113463   -2.2770454  0.035345054   -2.9113463    0.6343009   418189 
 3112000   0.60724904   -2.9108889   -2.9108889   -2.2779132  0.022034764   -2.9108889   0.63297576   418189 
 3113000   0.60770033   -2.9110521   -2.9110521    -2.277606  0.032681489   -2.9110521   0.63344617   418189 
 3114000   0.60855714   -2.9118695   -2.9118695   -2.2775302   0.02878716   -2.9118695   0.63433928   418189 
 3115000   0.60769436   -2.9111705   -2.9111705   -2.2777306  0.038258841   -2.9111705   0.63343995   418189 
 3116000   0.60900256   -2.9119725   -2.9119725    -2.277169  0.035050317   -2.9119725   0.63480357   418189 
 3117000   0.60693166    -2.909313    -2.909313   -2.2766681   0.04474126    -2.909313   0.63264494   418189 
 3118000   0.60881794   -2.9117841   -2.9117841    -2.277173  0.033060975   -2.9117841   0.63461113   418189 
 3119000   0.60746451   -2.9107474   -2.9107474    -2.277547  0.020841899   -2.9107474   0.63320036   418189 
 3120000   0.60791559   -2.9114777   -2.9114777   -2.2778071  0.036477108   -2.9114777   0.63367055   418189 
 3121000   0.60735597   -2.9110474   -2.9110474   -2.2779602   0.03676433   -2.9110474   0.63308722   418189 
 3122000   0.60853971   -2.9124401   -2.9124401    -2.278119  0.030707406   -2.9124401   0.63432111   418189 
 3123000   0.60845523   -2.9123183   -2.9123183   -2.2780852  0.044266151   -2.9123183   0.63423305   418189 
 3124000   0.61102215   -2.9155285   -2.9155285   -2.2786198   0.03097921   -2.9155285   0.63690872   418189 
 3125000   0.60965458   -2.9138972   -2.9138972    -2.278414  0.032811575   -2.9138972   0.63548321   418189 
 3126000   0.60713419   -2.9125445   -2.9125445   -2.2796885  0.031671763   -2.9125445   0.63285604   418189 
 3127000   0.60667498   -2.9121496   -2.9121496   -2.2797722  0.032397763   -2.9121496   0.63237738   418189 
 3128000   0.60746308   -2.9125215   -2.9125215   -2.2793226  0.049277088   -2.9125215   0.63319887   418189 
 3129000   0.60716977    -2.912671    -2.912671   -2.2797779  0.038854095    -2.912671   0.63289313   418189 
 3130000   0.60699927   -2.9121642   -2.9121642   -2.2794488  0.043128417   -2.9121642   0.63271541   418189 
 3131000   0.60675282   -2.9128167   -2.9128167   -2.2803582  0.037834867   -2.9128167   0.63245852   418189 
 3132000   0.60658678   -2.9122743   -2.9122743   -2.2799889  0.031469588   -2.9122743   0.63228545   418189 
 3133000   0.60694111   -2.9132888   -2.9132888    -2.280634  0.044260466   -2.9132888   0.63265479   418189 
 3134000   0.60766193   -2.9148035   -2.9148035   -2.2813974   0.03060644   -2.9148035   0.63340614   418189 
 3135000      0.60732   -2.9147817   -2.9147817    -2.281732  0.042455144   -2.9147817   0.63304973   418189 
 3136000   0.60895548   -2.9163102   -2.9163102   -2.2815558   0.02384193   -2.9163102    0.6347545   418189 
 3137000   0.60805013   -2.9159943   -2.9159943   -2.2821836  0.024179991   -2.9159943   0.63381078   418189 
 3138000   0.60746581    -2.914617    -2.914617   -2.2814153  0.039786724    -2.914617   0.63320172   418189 
 3139000   0.60778138   -2.9149811   -2.9149811   -2.2814504  0.036687177   -2.9149811   0.63353065   418189 
 3140000   0.61017357   -2.9169429   -2.9169429   -2.2809187  0.034704023   -2.9169429    0.6360242   418189 
 3141000   0.60923024   -2.9158788   -2.9158788   -2.2808379  0.037851937   -2.9158788    0.6350409   418189 
 3142000   0.60831947   -2.9152803   -2.9152803   -2.2811888  0.027360597   -2.9152803   0.63409154   418189 
 3143000   0.60567738   -2.9127682   -2.9127682   -2.2814307    0.0378926   -2.9127682   0.63133752   418189 
 3144000   0.60786371   -2.9145859   -2.9145859   -2.2809695  0.037612373   -2.9145859   0.63361647   418189 
 3145000   0.60797046   -2.9140376   -2.9140376   -2.2803099  0.018496706   -2.9140376   0.63372775   418189 
 3146000    0.6084833   -2.9142726   -2.9142726   -2.2800103  0.024267236   -2.9142726   0.63426231   418189 
 3147000     0.607752   -2.9138427   -2.9138427   -2.2803427  0.033154144   -2.9138427   0.63350003   418189 
 3148000   0.60806554   -2.9145957   -2.9145957   -2.2807688  0.035717846   -2.9145957   0.63382685   418189 
 3149000    0.6078655   -2.9135701   -2.9135701   -2.2799518  0.025722787   -2.9135701   0.63361834   418189 
 3150000   0.60756904   -2.9135379   -2.9135379   -2.2802286   0.02972058   -2.9135379   0.63330932   418189 
 3151000   0.60707996   -2.9139913   -2.9139913   -2.2811918  0.045795908   -2.9139913   0.63279951   418189 
 3152000   0.60608745   -2.9127308   -2.9127308   -2.2809658  0.037312175   -2.9127308   0.63176496   418189 
 3153000   0.60853512   -2.9157999   -2.9157999   -2.2814836  0.035637747   -2.9157999   0.63431632   418189 
 3154000   0.60791076   -2.9153343   -2.9153343   -2.2816688  0.039036384   -2.9153343   0.63366552   418189 
 3155000   0.60804992    -2.916155    -2.916155   -2.2823445  0.025725726    -2.916155   0.63381057   418189 
 3156000   0.60739822   -2.9150308   -2.9150308   -2.2818995  0.025385519   -2.9150308   0.63313126   418189 
 3157000   0.60810991   -2.9159412   -2.9159412   -2.2820681  0.030578129   -2.9159412    0.6338731   418189 
 3158000   0.60819077   -2.9160058   -2.9160058   -2.2820484  0.032226896   -2.9160058   0.63395739   418189 
 3159000   0.60829699   -2.9164157   -2.9164157   -2.2823476  0.033998496   -2.9164157    0.6340681   418189 
 3160000   0.60676453   -2.9143166   -2.9143166   -2.2818459  0.035853911   -2.9143166   0.63247072   418189 
 3161000   0.60784962   -2.9151945   -2.9151945   -2.2815927  0.032266786   -2.9151945   0.63360179   418189 
 3162000   0.60728967   -2.9150487   -2.9150487   -2.2820305  0.029317001   -2.9150487   0.63301812   418189 
 3163000   0.60875047   -2.9153889   -2.9153889   -2.2808481  0.035312089   -2.9153889    0.6345408   418189 
 3164000    0.6089354   -2.9154278   -2.9154278   -2.2806942  0.020897192   -2.9154278   0.63473356   418189 
 3165000   0.60845903   -2.9153158   -2.9153158   -2.2810787  0.042499624   -2.9153158   0.63423701   418189 
 3166000   0.60734744   -2.9139608   -2.9139608   -2.2808825  0.024597444   -2.9139608   0.63307833   418189 
 3167000    0.6074859   -2.9146888   -2.9146888   -2.2814661  0.027990832   -2.9146888   0.63322265   418189 
 3168000   0.60757924   -2.9143623   -2.9143623   -2.2810423  0.039048559   -2.9143623   0.63331995   418189 
 3169000   0.60776531   -2.9141348   -2.9141348   -2.2806209  0.038307394   -2.9141348    0.6335139   418189 
 3170000   0.60906543    -2.915247    -2.915247   -2.2803779  0.048848557    -2.915247    0.6348691   418189 
 3171000   0.60790538   -2.9148383   -2.9148383   -2.2811783  0.054398317   -2.9148383   0.63365991   418189 
 3172000   0.60724189    -2.914789    -2.914789   -2.2818207  0.031996343    -2.914789   0.63296831   418189 
 3173000   0.60771027   -2.9147786   -2.9147786   -2.2813221  0.033627955   -2.9147786   0.63345654   418189 
 3174000   0.60829906   -2.9153057   -2.9153057   -2.2812354  0.041516022   -2.9153057   0.63407027   418189 
 3175000   0.60865896   -2.9166752   -2.9166752   -2.2822298  0.049909525   -2.9166752   0.63444541   418189 
 3176000   0.60799898   -2.9149116   -2.9149116   -2.2811541  0.041223704   -2.9149116   0.63375747   418189 
 3177000   0.60765648   -2.9145584   -2.9145584   -2.2811579  0.043002704   -2.9145584   0.63340046   418189 
 3178000   0.60867342   -2.9149195   -2.9149195    -2.280459  0.046213215   -2.9149195   0.63446049   418189 
 3179000   0.60858297   -2.9152314   -2.9152314   -2.2808652  0.041163081   -2.9152314    0.6343662   418189 
 3180000   0.60760018    -2.914342    -2.914342   -2.2810003  0.037358441    -2.914342   0.63334178   418189 
 3181000   0.60915402   -2.9163504   -2.9163504   -2.2813889  0.036971157   -2.9163504   0.63496145   418189 
 3182000   0.60859505   -2.9159708   -2.9159708    -2.281592  0.036883246   -2.9159708   0.63437879   418189 
 3183000   0.60956616   -2.9180379   -2.9180379   -2.2826468   0.03426015   -2.9180379   0.63539104   418189 
 3184000    0.6088026   -2.9175334   -2.9175334   -2.2829383  0.028410491   -2.9175334   0.63459514   418189 
 3185000   0.60910284   -2.9168107   -2.9168107   -2.2819026   0.03331588   -2.9168107    0.6349081   418189 
 3186000   0.60936283   -2.9170477   -2.9170477   -2.2818686  0.033782459   -2.9170477    0.6351791   418189 
 3187000   0.60778095   -2.9158586   -2.9158586   -2.2823284  0.033784484   -2.9158586   0.63353021   418189 
 3188000   0.60799541   -2.9170672   -2.9170672   -2.2833134  0.024159499   -2.9170672   0.63375375   418189 
 3189000   0.60747374   -2.9166702   -2.9166702   -2.2834602  0.026763441   -2.9166702   0.63320997   418189 
 3190000   0.60837558    -2.917311    -2.917311    -2.283161    0.0243679    -2.917311   0.63415003   418189 
 3191000   0.60783534    -2.916604    -2.916604   -2.2830171  0.029788858    -2.916604    0.6335869   418189 
 3192000   0.60733572   -2.9166138   -2.9166138   -2.2835477  0.032365435   -2.9166138   0.63306611   418189 
 3193000   0.60765713   -2.9169263   -2.9169263   -2.2835252  0.025450956   -2.9169263   0.63340113   418189 
 3194000   0.60788341   -2.9166463   -2.9166463   -2.2830093    0.0293207   -2.9166463     0.633637   418189 
 3195000    0.6083088   -2.9170352   -2.9170352   -2.2829548  0.045460445   -2.9170352   0.63408042   418189 
 3196000   0.60847495   -2.9167665   -2.9167665   -2.2825129   0.03175871   -2.9167665    0.6342536   418189 
 3197000   0.60829773   -2.9174335   -2.9174335   -2.2833647  0.029405238   -2.9174335   0.63406887   418189 
 3198000   0.60787783    -2.916738    -2.916738   -2.2831068  0.037647296    -2.916738   0.63363119   418189 
 3199000   0.60842806    -2.916815    -2.916815   -2.2826103   0.03323977    -2.916815   0.63420473   418189 
 3200000   0.60673892   -2.9149956   -2.9149956   -2.2825516  0.040189594   -2.9149956   0.63244403   418189 
 3201000   0.60769843   -2.9157897   -2.9157897   -2.2823455  0.025770017   -2.9157897   0.63344419   418189 
 3202000   0.60791546   -2.9160731   -2.9160731   -2.2824027  0.036336223   -2.9160731   0.63367041   418189 
 3203000     0.607378   -2.9152323   -2.9152323   -2.2821221  0.039167926   -2.9152323   0.63311018   418189 
 3204000   0.60684518   -2.9150753   -2.9150753   -2.2825205  0.039382883   -2.9150753   0.63255479   418189 
 3205000   0.60785889   -2.9156452   -2.9156452   -2.2820338  0.037597499   -2.9156452   0.63361145   418189 
 3206000    0.6087501   -2.9163937   -2.9163937   -2.2818533  0.037477953   -2.9163937   0.63454041   418189 
 3207000   0.60784548   -2.9158617   -2.9158617   -2.2822643  0.044408187   -2.9158617   0.63359747   418189 
 3208000   0.60787724   -2.9163136   -2.9163136   -2.2826831  0.034790526   -2.9163136   0.63363057   418189 
 3209000   0.60818927   -2.9164167   -2.9164167   -2.2824608  0.046303548   -2.9164167   0.63395582   418189 
 3210000   0.60883166   -2.9171075   -2.9171075    -2.282482  0.042243844   -2.9171075   0.63462543   418189 
 3211000   0.60776966   -2.9169235   -2.9169235    -2.283405  0.021700851   -2.9169235   0.63351844   418189 
 3212000   0.60809446   -2.9170595   -2.9170595   -2.2832025  0.023013013   -2.9170595   0.63385699   418189 
 3213000   0.60783801   -2.9170264   -2.9170264   -2.2834367  0.040242874   -2.9170264   0.63358968   418189 
 3214000   0.60654577   -2.9161342   -2.9161342   -2.2838915  0.031089818   -2.9161342    0.6322427   418189 
 3215000   0.60760477   -2.9172392   -2.9172392   -2.2838926     0.038942   -2.9172392   0.63334656   418189 
 3216000   0.60761272   -2.9169437   -2.9169437   -2.2835889  0.040311794   -2.9169437   0.63335485   418189 
 3217000   0.60780987    -2.916884    -2.916884   -2.2833236  0.023350355    -2.916884   0.63356035   418189 
 3218000   0.60887339   -2.9175153   -2.9175153   -2.2828464  0.040829559   -2.9175153   0.63466893   418189 
 3219000   0.60776646   -2.9166088   -2.9166088   -2.2830937  0.044106337   -2.9166088    0.6335151   418189 
 3220000   0.60609775   -2.9148725   -2.9148725   -2.2830968  0.041165478   -2.9148725    0.6317757   418189 
 3221000   0.60749475   -2.9164066   -2.9164066   -2.2831748  0.041413997   -2.9164066   0.63323188   418189 
 3222000   0.60759443   -2.9161884   -2.9161884   -2.2828526  0.047593259   -2.9161884   0.63333578   418189 
 3223000   0.60773497   -2.9160778   -2.9160778   -2.2825955  0.037417693   -2.9160778   0.63348228   418189 
 3224000   0.60779354   -2.9169985   -2.9169985   -2.2834552   0.04710737   -2.9169985   0.63354333   418189 
 3225000   0.60737241   -2.9168499   -2.9168499   -2.2837455  0.038330407   -2.9168499   0.63310435   418189 
 3226000   0.60785815   -2.9169237   -2.9169237    -2.283313  0.039814572   -2.9169237   0.63361067   418189 
 3227000   0.60924383   -2.9176366   -2.9176366   -2.2825815  0.034901024   -2.9176366   0.63505506   418189 
 3228000   0.60755672   -2.9158582   -2.9158582   -2.2825618   0.03958574   -2.9158582   0.63329647   418189 
 3229000    0.6075714   -2.9159042   -2.9159042   -2.2825924  0.032147281   -2.9159042   0.63331178   418189 
 3230000   0.60764333   -2.9159865   -2.9159865   -2.2825997  0.036798492   -2.9159865   0.63338675   418189 
 3231000   0.60844495   -2.9173259   -2.9173259   -2.2831036    0.0335431   -2.9173259   0.63422233   418189 
 3232000    0.6079093   -2.9166406   -2.9166406   -2.2829766  0.025788694   -2.9166406   0.63366399   418189 
 3233000    0.6078722   -2.9169837   -2.9169837   -2.2833584  0.045495778   -2.9169837   0.63362532   418189 
 3234000   0.60847152   -2.9174791   -2.9174791    -2.283229  0.037052835   -2.9174791   0.63425003   418189 
 3235000    0.6084462    -2.917567    -2.917567   -2.2833434  0.042739809    -2.917567   0.63422364   418189 
 3236000   0.60819626   -2.9174395   -2.9174395   -2.2834763  0.053411655   -2.9174395   0.63396311   418189 
 3237000   0.60798907   -2.9176784   -2.9176784   -2.2839313  0.042140083   -2.9176784   0.63374714   418189 
 3238000    0.6081776   -2.9175607   -2.9175607    -2.283617  0.043887091   -2.9175607   0.63394366   418189 
 3239000    0.6083051   -2.9178206   -2.9178206    -2.283744  0.033419235   -2.9178206   0.63407656   418189 
 3240000   0.60822604   -2.9166899   -2.9166899   -2.2826957  0.024469574   -2.9166899   0.63399416   418189 
 3241000   0.60846185   -2.9173374   -2.9173374   -2.2830975  0.035345289   -2.9173374   0.63423995   418189 
 3242000   0.60657863   -2.9160265   -2.9160265   -2.2837495  0.047585382   -2.9160265   0.63227694   418189 
 3243000   0.60581523   -2.9153787   -2.9153787   -2.2838975  0.043378528   -2.9153787    0.6314812   418189 
 3244000   0.60755566   -2.9171556   -2.9171556   -2.2838603  0.037514075   -2.9171556   0.63329537   418189 
 3245000   0.60836334   -2.9179208   -2.9179208   -2.2837835  0.037346925   -2.9179208   0.63413727   418189 
 3246000   0.60789582   -2.9180024   -2.9180024   -2.2843525  0.032739262   -2.9180024   0.63364994   418189 
 3247000   0.60860618   -2.9177341   -2.9177341   -2.2833437  0.049443206   -2.9177341    0.6343904   418189 
 3248000    0.6071597   -2.9163583   -2.9163583   -2.2834756  0.037726642   -2.9163583   0.63288263   418189 
 3249000   0.60787587   -2.9174392   -2.9174392   -2.2838101  0.024076654   -2.9174392   0.63362914   418189 
 3250000    0.6087109   -2.9173089   -2.9173089   -2.2828093  0.021770214   -2.9173089   0.63449955   418189 
 3251000   0.60866294   -2.9178724   -2.9178724   -2.2834228  0.042740309   -2.9178724   0.63444956   418189 
 3252000   0.60881551    -2.918529    -2.918529   -2.2839204  0.016152368    -2.918529    0.6346086   418189 
 3253000    0.6077825   -2.9180154   -2.9180154   -2.2844836  0.029433743   -2.9180154   0.63353182   418189 
 3254000   0.60707497   -2.9173347   -2.9173347   -2.2845404  0.039538242   -2.9173347   0.63279431   418189 
 3255000   0.60674003   -2.9163957   -2.9163957   -2.2839505   0.04732617   -2.9163957   0.63244519   418189 
 3256000   0.60745237   -2.9178965   -2.9178965   -2.2847088  0.033561307   -2.9178965   0.63318771   418189 
 3257000   0.60703281   -2.9173479   -2.9173479   -2.2845976  0.034165963   -2.9173479   0.63275037   418189 
 3258000   0.60639276   -2.9169336   -2.9169336   -2.2848504  0.039396555   -2.9169336    0.6320832   418189 
 3259000    0.6071505   -2.9179525   -2.9179525   -2.2850794   0.03297533   -2.9179525   0.63287305   418189 
 3260000   0.60735019   -2.9171805   -2.9171805   -2.2840993  0.037321645   -2.9171805    0.6330812   418189 
 3261000   0.60721328    -2.917826    -2.917826   -2.2848875   0.03757514    -2.917826   0.63293848   418189 
 3262000   0.60717015   -2.9174785   -2.9174785   -2.2845849  0.027232512   -2.9174785   0.63289353   418189 
 3263000   0.60754655   -2.9173718   -2.9173718   -2.2840859  0.040557957   -2.9173718   0.63328587   418189 
 3264000   0.60793353    -2.917944    -2.917944   -2.2842548  0.028478496    -2.917944   0.63368925   418189 
 3265000   0.60703315   -2.9174557   -2.9174557    -2.284705  0.047128379   -2.9174557   0.63275072   418189 
 3266000   0.60761951   -2.9177521   -2.9177521   -2.2843902  0.012058534   -2.9177521   0.63336193   418189 
 3267000   0.60779764   -2.9181423   -2.9181423   -2.2845947  0.031131644   -2.9181423   0.63354761   418189 
 3268000   0.60866091    -2.919908    -2.919908   -2.2854605  0.032689951    -2.919908   0.63444745   418189 
 3269000   0.60764372   -2.9187629   -2.9187629   -2.2853758  0.029267895   -2.9187629   0.63338717   418189 
 3270000   0.60887475   -2.9192603   -2.9192603     -2.28459  0.024466822   -2.9192603   0.63467035   418189 
 3271000   0.60749584   -2.9171039   -2.9171039   -2.2838708   0.03173663   -2.9171039   0.63323302   418189 
 3272000   0.60749881   -2.9172631   -2.9172631    -2.284027  0.034343458   -2.9172631   0.63323611   418189 
 3273000   0.60683698    -2.916573    -2.916573   -2.2840268   0.03213259    -2.916573   0.63254625   418189 
 3274000    0.6062968    -2.916031    -2.916031   -2.2840478  0.037909146    -2.916031   0.63198318   418189 
 3275000   0.60668085   -2.9170397   -2.9170397   -2.2846562  0.028794161   -2.9170397    0.6323835   418189 
 3276000   0.60741867   -2.9176827   -2.9176827   -2.2845302  0.035884763   -2.9176827   0.63315258   418189 
 3277000   0.60809721    -2.917186    -2.917186   -2.2833261  0.037720802    -2.917186   0.63385986   418189 
 3278000   0.60885494   -2.9178177   -2.9178177    -2.283168  0.036622828   -2.9178177   0.63464969   418189 
 3279000   0.60858493   -2.9181789   -2.9181789   -2.2838107  0.027859884   -2.9181789   0.63436824   418189 
 3280000   0.60764624   -2.9177312   -2.9177312   -2.2843414  0.029268302   -2.9177312   0.63338978   418189 
 3281000   0.60697408   -2.9171498   -2.9171498   -2.2844606  0.033243719   -2.9171498   0.63268915   418189 
 3282000   0.60929115   -2.9190213   -2.9190213   -2.2839169  0.037486099   -2.9190213   0.63510439   418189 
 3283000   0.60821643   -2.9179806   -2.9179806   -2.2839964  0.037014314   -2.9179806   0.63398414   418189 
 3284000   0.60899829   -2.9183629   -2.9183629   -2.2835638  0.041332736   -2.9183629   0.63479912   418189 
 3285000   0.60852858   -2.9174795   -2.9174795     -2.28317  0.041904652   -2.9174795    0.6343095   418189 
 3286000   0.60749334   -2.9165775   -2.9165775   -2.2833471  0.037418255   -2.9165775   0.63323041   418189 
 3287000   0.60793732   -2.9170131   -2.9170131   -2.2833199  0.034872591   -2.9170131    0.6336932   418189 
 3288000   0.60713151   -2.9165038   -2.9165038   -2.2836505  0.032351606   -2.9165038   0.63285325   418189 
 3289000   0.60755357   -2.9174833   -2.9174833   -2.2841901  0.023949829   -2.9174833   0.63329319   418189 
 3290000   0.60713377   -2.9170472   -2.9170472   -2.2841916  0.034733499   -2.9170472   0.63285561   418189 
 3291000   0.60735892   -2.9170989   -2.9170989   -2.2840086  0.032401381   -2.9170989   0.63309029   418189 
 3292000   0.60777269   -2.9177849   -2.9177849   -2.2842633  0.023560688   -2.9177849   0.63352159   418189 
 3293000   0.60948575   -2.9195837   -2.9195837   -2.2842765  0.011304283   -2.9195837   0.63530723   418189 
 3294000   0.60853055    -2.918882    -2.918882   -2.2845705  0.028800246    -2.918882   0.63431156   418189 
 3295000   0.60628593   -2.9165227   -2.9165227   -2.2845509  0.032392807   -2.9165227   0.63197184   418189 
 3296000   0.60713189   -2.9181542   -2.9181542   -2.2853006  0.032502533   -2.9181542   0.63285365   418189 
 3297000   0.60784547   -2.9181777   -2.9181777   -2.2845802  0.039390659   -2.9181777   0.63359746   418189 
 3298000   0.60747994   -2.9173839   -2.9173839   -2.2841675  0.037317216   -2.9173839   0.63321644   418189 
 3299000   0.60774657   -2.9178114   -2.9178114   -2.2843171  0.039572715   -2.9178114   0.63349437   418189 
 3300000   0.60808668   -2.9181359   -2.9181359    -2.284287  0.032140384   -2.9181359   0.63384889   418189 
 3301000   0.60647154   -2.9168342   -2.9168342   -2.2846689  0.034642827   -2.9168342   0.63216532   418189 
 3302000   0.60747896   -2.9177067   -2.9177067   -2.2844913  0.037257498   -2.9177067   0.63321543   418189 
 3303000   0.60870256    -2.918649    -2.918649   -2.2841581  0.046847353    -2.918649   0.63449086   418189 
 3304000   0.60877347    -2.918812    -2.918812   -2.2842473  0.029705107    -2.918812   0.63456477   418189 
 3305000   0.60930757   -2.9192703   -2.9192703   -2.2841488  0.055005332   -2.9192703   0.63512151   418189 
 3306000    0.6088084   -2.9196338   -2.9196338   -2.2850327  0.029222343   -2.9196338   0.63460118   418189 
 3307000   0.60736706   -2.9185111   -2.9185111   -2.2854123  0.039759635   -2.9185111   0.63309878   418189 
 3308000   0.60698707   -2.9175273   -2.9175273   -2.2848246  0.042066177   -2.9175273   0.63270269   418189 
 3309000       0.6059   -2.9169275   -2.9169275   -2.2853579  0.025224792   -2.9169275   0.63156956   418189 
 3310000   0.60543342   -2.9161234   -2.9161234   -2.2850402   0.03040079   -2.9161234   0.63108322   418189 
 3311000   0.60688405    -2.918668    -2.918668   -2.2860727  0.025112278    -2.918668    0.6325953   418189 
 3312000   0.60657631   -2.9184583   -2.9184583   -2.2861837  0.040249206   -2.9184583   0.63227453   418189 
 3313000   0.60605691   -2.9178748   -2.9178748   -2.2861417  0.022903892   -2.9178748   0.63173312   418189 
 3314000    0.6076396   -2.9192027   -2.9192027   -2.2858199  0.026104827   -2.9192027   0.63338287   418189 
 3315000   0.60653983    -2.918045    -2.918045   -2.2858085  0.038568434    -2.918045    0.6322365   418189 
 3316000   0.60707577   -2.9191912   -2.9191912    -2.286396   0.02422913   -2.9191912   0.63279515   418189 
 3317000   0.60734993    -2.919311    -2.919311   -2.2862301   0.03303837    -2.919311   0.63308092   418189 
 3318000   0.60699884   -2.9193976   -2.9193976   -2.2866827  0.040211435   -2.9193976   0.63271496   418189 
 3319000   0.60818338   -2.9201688   -2.9201688   -2.2862191  0.036126995   -2.9201688   0.63394969   418189 
 3320000   0.60719521   -2.9184327   -2.9184327    -2.285513   0.03513534   -2.9184327   0.63291965   418189 
 3321000   0.60773238   -2.9187697   -2.9187697   -2.2852901  0.027012273   -2.9187697   0.63347958   418189 
 3322000    0.6069766   -2.9184821   -2.9184821   -2.2857903  0.033223092   -2.9184821   0.63269178   418189 
 3323000   0.60813389   -2.9200737   -2.9200737   -2.2861756  0.021809709   -2.9200737    0.6338981   418189 
 3324000    0.6072422   -2.9197952   -2.9197952   -2.2868266   0.03422801   -2.9197952   0.63296863   418189 
 3325000   0.60672714   -2.9197079   -2.9197079   -2.2872762  0.032980053   -2.9197079   0.63243175   418189 
 3326000   0.60689715   -2.9190892   -2.9190892   -2.2864803  0.022549663   -2.9190892   0.63260897   418189 
 3327000   0.60706072   -2.9184646   -2.9184646   -2.2856851  0.024744344   -2.9184646   0.63277947   418189 
 3328000   0.60704417   -2.9186084   -2.9186084   -2.2858462  0.033979605   -2.9186084   0.63276221   418189 
 3329000   0.60673125   -2.9182186   -2.9182186   -2.2857826  0.019003118   -2.9182186   0.63243603   418189 
 3330000   0.60676458   -2.9178272   -2.9178272   -2.2853565  0.031776582   -2.9178272   0.63247077   418189 
 3331000   0.60717022   -2.9183138   -2.9183138   -2.2854202  0.037968433   -2.9183138    0.6328936   418189 
 3332000   0.60774578   -2.9188075   -2.9188075   -2.2853139  0.049443046   -2.9188075   0.63349354   418189 
 3333000   0.60586513   -2.9175827   -2.9175827   -2.2860495  0.038788804   -2.9175827   0.63153322   418189 
 3334000   0.60668297   -2.9182384   -2.9182384   -2.2858527  0.033102542   -2.9182384   0.63238571   418189 
 3335000    0.6076014   -2.9194275   -2.9194275   -2.2860844  0.043234767   -2.9194275   0.63334305   418189 
 3336000   0.60602263   -2.9182942   -2.9182942   -2.2865968  0.049814356   -2.9182942   0.63169739   418189 
 3337000   0.60830967   -2.9196716   -2.9196716   -2.2855902  0.036447124   -2.9196716   0.63408132   418189 
 3338000   0.60668946    -2.917323    -2.917323   -2.2849306  0.042811571    -2.917323   0.63239247   418189 
 3339000   0.60711182   -2.9179668   -2.9179668   -2.2851341  0.023438568   -2.9179668   0.63283272   418189 
 3340000   0.60775446   -2.9196062   -2.9196062   -2.2861036  0.030998956   -2.9196062   0.63350259   418189 
 3341000   0.60750725   -2.9199464   -2.9199464   -2.2867015   0.03716914   -2.9199464   0.63324491   418189 
 3342000   0.60740604   -2.9188724   -2.9188724    -2.285733  0.041537511   -2.9188724   0.63313941   418189 
 3343000   0.60612804   -2.9178678   -2.9178678   -2.2860605  0.033600321   -2.9178678   0.63180727   418189 
 3344000   0.60652684   -2.9182665   -2.9182665   -2.2860436  0.029286066   -2.9182665   0.63222296   418189 
 3345000     0.606886   -2.9191251   -2.9191251   -2.2865277  0.025586387   -2.9191251   0.63259734   418189 
 3346000   0.60837021   -2.9198108   -2.9198108   -2.2856664  0.033047966   -2.9198108   0.63414443   418189 
 3347000   0.60718676   -2.9196783   -2.9196783   -2.2867674  0.039354387   -2.9196783   0.63291084   418189 
 3348000   0.60608741    -2.919033    -2.919033   -2.2872681  0.034095619    -2.919033   0.63176491   418189 
 3349000   0.60766911   -2.9200576   -2.9200576   -2.2866439  0.022484206   -2.9200576   0.63341362   418189 
 3350000     0.608434   -2.9203216   -2.9203216   -2.2861107   0.02850493   -2.9203216   0.63421092   418189 
 3351000   0.60779551     -2.92033     -2.92033   -2.2867846  0.034626553     -2.92033   0.63354538   418189 
 3352000   0.60672374   -2.9192809   -2.9192809   -2.2868527  0.044543341   -2.9192809   0.63242821   418189 
 3353000   0.60770463   -2.9195794   -2.9195794   -2.2861288  0.034417068   -2.9195794   0.63345065   418189 
 3354000   0.60580526   -2.9180411   -2.9180411   -2.2865703   0.03793889   -2.9180411   0.63147081   418189 
 3355000   0.60555465   -2.9181717   -2.9181717   -2.2869621  0.038501262   -2.9181717   0.63120958   418189 
 3356000   0.60697162   -2.9196272   -2.9196272   -2.2869407  0.029329967   -2.9196272   0.63268659   418189 
 3357000   0.60770478   -2.9210564   -2.9210564   -2.2876056  0.040053063   -2.9210564    0.6334508   418189 
 3358000   0.60733903   -2.9206411   -2.9206411   -2.2875716  0.046143914   -2.9206411   0.63306957   418189 
 3359000   0.60682003   -2.9199768   -2.9199768   -2.2874482  0.021782026   -2.9199768   0.63252857   418189 
 3360000   0.60751953   -2.9208027   -2.9208027    -2.287545  0.035514641   -2.9208027   0.63325771   418189 
 3361000   0.60572428   -2.9190385   -2.9190385   -2.2876521  0.035407069   -2.9190385    0.6313864   418189 
 3362000   0.60822806    -2.921429    -2.921429   -2.2874328  0.032276699    -2.921429   0.63399626   418189 
 3363000   0.60525955   -2.9181147   -2.9181147   -2.2872127  0.030831948   -2.9181147   0.63090198   418189 
 3364000   0.60706407    -2.919821    -2.919821    -2.287038  0.035675071    -2.919821   0.63278295   418189 
 3365000   0.60587618    -2.918934    -2.918934   -2.2873892  0.039702072    -2.918934   0.63154474   418189 
 3366000   0.60780485   -2.9204588   -2.9204588   -2.2869037  0.039954739   -2.9204588   0.63355512   418189 
 3367000   0.60676347   -2.9192169   -2.9192169   -2.2867473  0.030241194   -2.9192169   0.63246962   418189 
 3368000   0.60687491   -2.9189948   -2.9189948    -2.286409  0.042050814   -2.9189948   0.63258578   418189 
 3369000   0.60802605   -2.9201577   -2.9201577   -2.2863721  0.034955232   -2.9201577   0.63378569   418189 
 3370000   0.60762702   -2.9199327   -2.9199327   -2.2865629  0.025073739   -2.9199327   0.63336975   418189 
 3371000   0.60637165   -2.9190542   -2.9190542    -2.286993  0.036434577   -2.9190542    0.6320612   418189 
 3372000   0.60724222    -2.919673    -2.919673   -2.2867043  0.026213564    -2.919673   0.63296865   418189 
 3373000   0.60834803   -2.9211382   -2.9211382   -2.2870169  0.031969033   -2.9211382   0.63412131   418189 
 3374000   0.60879374   -2.9216418   -2.9216418   -2.2870559  0.051384487   -2.9216418    0.6345859   418189 
 3375000   0.60834902   -2.9211623   -2.9211623   -2.2870399  0.045710072   -2.9211623   0.63412234   418189 
 3376000   0.60728597   -2.9204082   -2.9204082   -2.2873939  0.043494941   -2.9204082   0.63301425   418189 
 3377000   0.60627869   -2.9198206   -2.9198206   -2.2878563  0.027728488   -2.9198206    0.6319643   418189 
 3378000   0.60709629   -2.9205407   -2.9205407   -2.2877241  0.040542447   -2.9205407   0.63281654   418189 
 3379000   0.60709005   -2.9210521   -2.9210521    -2.288242  0.028919799   -2.9210521   0.63281004   418189 
 3380000   0.60661908   -2.9202254   -2.9202254   -2.2879063   0.03835005   -2.9202254   0.63231912   418189 
 3381000   0.60579891   -2.9194907   -2.9194907   -2.2880265    0.0351181   -2.9194907   0.63146419   418189 
 3382000   0.60623156   -2.9203877   -2.9203877   -2.2884725  0.034921825   -2.9203877   0.63191518   418189 
 3383000   0.60800182   -2.9214934   -2.9214934    -2.287733  0.033020572   -2.9214934   0.63376043   418189 
 3384000   0.60608426   -2.9192247   -2.9192247    -2.287463  0.029210151   -2.9192247   0.63176163   418189 
 3385000   0.60671845   -2.9200443   -2.9200443   -2.2876216  0.029525184   -2.9200443   0.63242269   418189 
 3386000   0.60767796   -2.9210982   -2.9210982   -2.2876753  0.028951121   -2.9210982   0.63342285   418189 
 3387000   0.60776601   -2.9210251   -2.9210251   -2.2875105  0.036835303   -2.9210251   0.63351464   418189 
 3388000   0.60695803   -2.9200388   -2.9200388   -2.2873663  0.026813622   -2.9200388   0.63267242   418189 
 3389000   0.60652457   -2.9192633   -2.9192633   -2.2870427  0.031560843   -2.9192633    0.6322206   418189 
 3390000   0.60719725   -2.9204183   -2.9204183   -2.2874965  0.036788965   -2.9204183   0.63292178   418189 
 3391000   0.60738976   -2.9203698   -2.9203698   -2.2872474  0.030272733   -2.9203698   0.63312244   418189 
 3392000   0.60696357   -2.9188911   -2.9188911   -2.2862129  0.029143858   -2.9188911    0.6326782   418189 
 3393000   0.60700987   -2.9190957   -2.9190957   -2.2863693   0.02771786   -2.9190957   0.63272646   418189 
 3394000   0.60782136   -2.9200272   -2.9200272   -2.2864548  0.032194805   -2.9200272   0.63357233   418189 
 3395000     0.607749    -2.919744    -2.919744   -2.2862471  0.022084791    -2.919744    0.6334969   418189 
 3396000   0.60730795   -2.9191801   -2.9191801   -2.2861429  0.024602912   -2.9191801   0.63303717   418189 
 3397000    0.6067861   -2.9184282   -2.9184282   -2.2859349  0.024970417   -2.9184282   0.63249321   418189 
 3398000   0.60702987   -2.9183908   -2.9183908   -2.2856435  0.033298152   -2.9183908    0.6327473   418189 
 3399000    0.6070769   -2.9186471   -2.9186471   -2.2858508   0.03170408   -2.9186471   0.63279632   418189 
 3400000   0.60731217   -2.9191613   -2.9191613   -2.2861198  0.031077722   -2.9191613   0.63304156   418189 
 3401000   0.60748559   -2.9195488   -2.9195488   -2.2863265  0.039485212   -2.9195488   0.63322233   418189 
 3402000     0.606573    -2.918992    -2.918992    -2.286721   0.02313467    -2.918992   0.63227108   418189 
 3403000   0.60715705   -2.9194356   -2.9194356   -2.2865558  0.036950737   -2.9194356   0.63287987   418189 
 3404000   0.60684512   -2.9202148   -2.9202148   -2.2876601  0.038696955   -2.9202148   0.63255473   418189 
 3405000   0.60799491   -2.9217897   -2.9217897   -2.2880365  0.026828126   -2.9217897   0.63375323   418189 
 3406000   0.60712845   -2.9211385   -2.9211385   -2.2882885  0.016276066   -2.9211385   0.63285006   418189 
 3407000    0.6082939   -2.9221629   -2.9221629   -2.2880981  0.022018655   -2.9221629   0.63406488   418189 
 3408000   0.60853154   -2.9224483   -2.9224483   -2.2881357  0.035121224   -2.9224483   0.63431259   418189 
 3409000    0.6086598   -2.9220624   -2.9220624   -2.2876161  0.026954178   -2.9220624   0.63444629   418189 
 3410000   0.60792809   -2.9217604   -2.9217604   -2.2880769  0.040006471   -2.9217604   0.63368358   418189 
 3411000   0.60704776   -2.9212796   -2.9212796   -2.2885137   0.03584318   -2.9212796   0.63276595   418189 
 3412000   0.60537549   -2.9195331   -2.9195331   -2.2885103  0.039476668   -2.9195331   0.63102283   418189 
 3413000    0.6057235   -2.9207343   -2.9207343   -2.2893487  0.030268532   -2.9207343   0.63138559   418189 
 3414000   0.60548206   -2.9200952   -2.9200952   -2.2889613  0.026056599   -2.9200952   0.63113392   418189 
 3415000   0.60610984   -2.9204092   -2.9204092   -2.2886209  0.036335731   -2.9204092    0.6317883   418189 
 3416000   0.60429529   -2.9187636   -2.9187636   -2.2888667  0.033629306   -2.9187636   0.62989687   418189 
 3417000   0.60647925    -2.919881    -2.919881   -2.2877077   0.02759798    -2.919881   0.63217335   418189 
 3418000   0.60720707   -2.9207956   -2.9207956   -2.2878636  0.031838608   -2.9207956   0.63293201   418189 
 3419000   0.60680471   -2.9202903   -2.9202903   -2.2877777  0.034703963   -2.9202903    0.6325126   418189 
 3420000   0.60647862   -2.9214793   -2.9214793   -2.2893066  0.011040926   -2.9214793    0.6321727   418189 
 3421000   0.60636694   -2.9216552   -2.9216552   -2.2895989  0.039154845   -2.9216552   0.63205629   418189 
 3422000   0.60638995   -2.9208592   -2.9208592    -2.288779  0.031777121   -2.9208592   0.63208027   418189 
 3423000   0.60565551   -2.9202985   -2.9202985   -2.2889838  0.036820414   -2.9202985   0.63131472   418189 
 3424000   0.60627152   -2.9203682   -2.9203682   -2.2884113  0.034242256   -2.9203682   0.63195683   418189 
 3425000   0.60652725   -2.9207192   -2.9207192   -2.2884958  0.033919522   -2.9207192   0.63222339   418189 
 3426000   0.60627266   -2.9210323   -2.9210323   -2.2890743  0.036269379   -2.9210323   0.63195802   418189 
 3427000   0.60684482   -2.9217505   -2.9217505   -2.2891961  0.026957746   -2.9217505   0.63255442   418189 
 3428000   0.60580382   -2.9214754   -2.9214754   -2.2900061  0.033957733   -2.9214754   0.63146931   418189 
 3429000    0.6084998   -2.9241661   -2.9241661   -2.2898866  0.036838614   -2.9241661   0.63427951   418189 
 3430000   0.60644498   -2.9214339   -2.9214339   -2.2892963  0.034128035   -2.9214339   0.63213764   418189 
 3431000   0.60626197   -2.9214875   -2.9214875   -2.2895407  0.036297678   -2.9214875   0.63194687   418189 
 3432000    0.6061369   -2.9218205   -2.9218205    -2.290004  0.038342314   -2.9218205    0.6318165   418189 
 3433000   0.60608652   -2.9213227   -2.9213227   -2.2895587  0.045830449   -2.9213227   0.63176399   418189 
 3434000   0.60706454   -2.9223808   -2.9223808   -2.2895974  0.028966634   -2.9223808   0.63278345   418189 
 3435000   0.60739281   -2.9219941   -2.9219941   -2.2888685  0.027057829   -2.9219941   0.63312562   418189 
 3436000   0.60585333   -2.9203544   -2.9203544   -2.2888335  0.038414383   -2.9203544   0.63152092   418189 
 3437000   0.60628454   -2.9207605   -2.9207605   -2.2887901  0.032824069   -2.9207605    0.6319704   418189 
 3438000   0.60701483   -2.9220106   -2.9220106    -2.289279  0.030279105   -2.9220106   0.63273163   418189 
 3439000    0.6071629   -2.9220233   -2.9220233   -2.2891373  0.032048724   -2.9220233   0.63288597   418189 
 3440000   0.60734067   -2.9224655   -2.9224655   -2.2893943  0.031760976   -2.9224655   0.63307127   418189 
 3441000   0.60793856   -2.9229179   -2.9229179   -2.2892234  0.031195369   -2.9229179   0.63369449   418189 
 3442000   0.60832999    -2.922803    -2.922803   -2.2887005  0.026135693    -2.922803   0.63410251   418189 
 3443000   0.60820343   -2.9228242   -2.9228242   -2.2888536  0.023938118   -2.9228242   0.63397059   418189 
 3444000   0.60742507   -2.9219893   -2.9219893   -2.2888301   0.03795004   -2.9219893   0.63315925   418189 
 3445000   0.60820783   -2.9226237   -2.9226237   -2.2886485  0.044950698   -2.9226237   0.63397517   418189 
 3446000   0.60759893   -2.9223254   -2.9223254   -2.2889849  0.042537592   -2.9223254   0.63334047   418189 
 3447000   0.60745866   -2.9222815   -2.9222815   -2.2890873  0.040285811   -2.9222815   0.63319426   418189 
 3448000   0.60729264   -2.9218214   -2.9218214   -2.2888001  0.029244655   -2.9218214   0.63302121   418189 
 3449000    0.6062793   -2.9210356   -2.9210356   -2.2890707  0.029465586   -2.9210356   0.63196493   418189 
 3450000   0.60753964   -2.9215311   -2.9215311   -2.2882524  0.017688885   -2.9215311   0.63327867   418189 
 3451000   0.60668635   -2.9214022   -2.9214022    -2.289013  0.028392511   -2.9214022   0.63238923   418189 
 3452000   0.60791563   -2.9221931   -2.9221931   -2.2885225    0.0403059   -2.9221931   0.63367059   418189 
 3453000   0.60721246   -2.9219543   -2.9219543   -2.2890167  0.039747007   -2.9219543   0.63293763   418189 
 3454000   0.60719028   -2.9220799   -2.9220799   -2.2891654  0.046687958   -2.9220799   0.63291451   418189 
 3455000    0.6056571   -2.9205196   -2.9205196   -2.2892033   0.03956612   -2.9205196   0.63131638   418189 
 3456000   0.60739107   -2.9223767   -2.9223767   -2.2892529  0.042364905   -2.9223767    0.6331238   418189 
 3457000   0.60782925   -2.9231474   -2.9231474   -2.2895669  0.034098784   -2.9231474   0.63358055   418189 
 3458000   0.60649592   -2.9220083   -2.9220083   -2.2898176  0.036023827   -2.9220083   0.63219073   418189 
 3459000   0.60693865   -2.9216685   -2.9216685   -2.2890162  0.030376468   -2.9216685   0.63265222   418189 
 3460000   0.60622853   -2.9218719   -2.9218719   -2.2899599  0.045094827   -2.9218719   0.63191201   418189 
 3461000    0.6070238   -2.9233091   -2.9233091   -2.2905681  0.038460206   -2.9233091   0.63274098   418189 
 3462000   0.60643323   -2.9231518   -2.9231518   -2.2910264  0.032916211   -2.9231518   0.63212539   418189 
 3463000   0.60684622   -2.9228383   -2.9228383   -2.2902825  0.029873894   -2.9228383   0.63255588   418189 
 3464000   0.60777343   -2.9231044   -2.9231044   -2.2895821  0.051543622   -2.9231044   0.63352236   418189 
 3465000   0.60837254   -2.9234535   -2.9234535   -2.2893067  0.023801209   -2.9234535   0.63414685   418189 
 3466000   0.60779351    -2.922853    -2.922853   -2.2893097  0.033199479    -2.922853    0.6335433   418189 
 3467000   0.60775013   -2.9221604   -2.9221604   -2.2886623  0.042296578   -2.9221604   0.63349807   418189 
 3468000   0.60589986   -2.9213323   -2.9213323   -2.2897628  0.026185413   -2.9213323   0.63156942   418189 
 3469000   0.60623196   -2.9216269   -2.9216269   -2.2897113   0.03741039   -2.9216269   0.63191559   418189 
 3470000     0.607271   -2.9229398   -2.9229398   -2.2899412  0.035657556   -2.9229398   0.63299865   418189 
 3471000   0.60718593   -2.9230753   -2.9230753   -2.2901654  0.021529057   -2.9230753   0.63290998   418189 
 3472000   0.60666166    -2.921811    -2.921811   -2.2894475  0.028818927    -2.921811   0.63236349   418189 
 3473000    0.6073068   -2.9229266   -2.9229266   -2.2898906  0.028544582   -2.9229266   0.63303597   418189 
 3474000   0.60672985   -2.9222005   -2.9222005    -2.289766  0.037348749   -2.9222005   0.63243457   418189 
 3475000   0.60614011   -2.9222536   -2.9222536   -2.2904337  0.032812631   -2.9222536   0.63181985   418189 
 3476000   0.60626208   -2.9230024   -2.9230024   -2.2910554  0.027206464   -2.9230024   0.63194699   418189 
 3477000   0.60623515   -2.9221429   -2.9221429   -2.2902239  0.033499263   -2.9221429   0.63191892   418189 
 3478000   0.60731124   -2.9230837   -2.9230837   -2.2900431  0.042759704   -2.9230837   0.63304059   418189 
 3479000   0.60719258   -2.9226894   -2.9226894   -2.2897725  0.032385554   -2.9226894   0.63291691   418189 
 3480000   0.60774018   -2.9229169   -2.9229169   -2.2894291   0.03592605   -2.9229169   0.63348771   418189 
 3481000   0.60689489   -2.9222307   -2.9222307   -2.2896241  0.029579453   -2.9222307   0.63260661   418189 
 3482000   0.60795057   -2.9231205   -2.9231205   -2.2894135  0.039422142   -2.9231205   0.63370701   418189 
 3483000   0.60668657   -2.9220093   -2.9220093   -2.2896198  0.033710061   -2.9220093   0.63238946   418189 
 3484000    0.6065733   -2.9216887   -2.9216887   -2.2894173  0.037244964   -2.9216887   0.63227139   418189 
 3485000   0.60653024   -2.9220272   -2.9220272   -2.2898007  0.018808996   -2.9220272    0.6322265   418189 
 3486000   0.60618529    -2.921078    -2.921078   -2.2892111   0.04177752    -2.921078   0.63186695   418189 
 3487000   0.60637453   -2.9208669   -2.9208669   -2.2888027  0.038342225   -2.9208669    0.6320642   418189 
 3488000   0.60616817   -2.9220779   -2.9220779   -2.2902288  0.032683436   -2.9220779    0.6318491   418189 
 3489000   0.60653356   -2.9216754   -2.9216754   -2.2894454  0.043881339   -2.9216754   0.63222996   418189 
 3490000   0.60752777   -2.9232003   -2.9232003    -2.289934  0.032410366   -2.9232003    0.6332663   418189 
 3491000   0.60644941   -2.9222403   -2.9222403    -2.290098  0.038934594   -2.9222403   0.63214226   418189 
 3492000   0.60632483   -2.9227107   -2.9227107   -2.2906983  0.034481229   -2.9227107    0.6320124   418189 
 3493000   0.60697219   -2.9236898   -2.9236898   -2.2910026  0.036390593   -2.9236898   0.63268718   418189 
 3494000   0.60576234   -2.9230678   -2.9230678   -2.2916417  0.038303731   -2.9230678   0.63142608   418189 
 3495000   0.60765787   -2.9235977   -2.9235977   -2.2901958   0.03388153   -2.9235977   0.63340191   418189 
 3496000   0.60699184   -2.9231456   -2.9231456   -2.2904379  0.041562695   -2.9231456   0.63270767   418189 
 3497000   0.60681696   -2.9219299   -2.9219299   -2.2894045  0.046204523   -2.9219299   0.63252537   418189 
 3498000   0.60535867    -2.921375    -2.921375   -2.2903697  0.040539521    -2.921375   0.63100531   418189 
 3499000   0.60666228   -2.9221462   -2.9221462    -2.289782  0.038674394   -2.9221462   0.63236414   418189 
 3500000   0.60693394   -2.9230937   -2.9230937   -2.2904464  0.037445796   -2.9230937   0.63264731   418189 
 3501000   0.60618854   -2.9222545   -2.9222545   -2.2903841  0.045980052   -2.9222545   0.63187033   418189 
 3502000   0.60810379   -2.9230575   -2.9230575   -2.2891908  0.029710684   -2.9230575   0.63386672   418189 
 3503000    0.6071414    -2.922522    -2.922522   -2.2896584  0.040125519    -2.922522   0.63286356   418189 
 3504000   0.60742218   -2.9234122   -2.9234122   -2.2902559   0.02241389   -2.9234122   0.63315624   418189 
 3505000   0.60773835   -2.9242037   -2.9242037   -2.2907179  0.040988581   -2.9242037    0.6334858   418189 
 3506000   0.60487752   -2.9220374   -2.9220374   -2.2915337  0.033448919   -2.9220374   0.63050377   418189 
 3507000   0.60629006   -2.9224638   -2.9224638   -2.2904877  0.039779904   -2.9224638   0.63197616   418189 
 3508000   0.60725541   -2.9228669   -2.9228669   -2.2898845  0.028724197   -2.9228669    0.6329824   418189 
 3509000   0.60599204   -2.9219351   -2.9219351   -2.2902696  0.035374297   -2.9219351   0.63166551   418189 
 3510000   0.60785005   -2.9238474   -2.9238474   -2.2902451  0.029599575   -2.9238474   0.63360223   418189 
 3511000   0.60514674   -2.9216206   -2.9216206   -2.2908362  0.037822601   -2.9216206    0.6307844   418189 
 3512000   0.60551184   -2.9228849   -2.9228849     -2.29172  0.029288431   -2.9228849   0.63116496   418189 
 3513000   0.60623888   -2.9238881   -2.9238881   -2.2919653  0.051334393   -2.9238881    0.6319228   418189 
 3514000   0.60595498   -2.9228142   -2.9228142   -2.2911873  0.038262039   -2.9228142   0.63162687   418189 
 3515000   0.60646478   -2.9242061   -2.9242061   -2.2920478  0.032381658   -2.9242061   0.63215828   418189 
 3516000   0.60755457   -2.9247444   -2.9247444   -2.2914502  0.026631739   -2.9247444   0.63329424   418189 
 3517000   0.60801789   -2.9251166   -2.9251166   -2.2913394  0.035392955   -2.9251166   0.63377719   418189 
 3518000   0.60653116   -2.9231307   -2.9231307   -2.2909032  0.031253384   -2.9231307   0.63222747   418189 
 3519000    0.6068328   -2.9233795   -2.9233795   -2.2908376  0.034741848   -2.9233795   0.63254189   418189 
 3520000   0.60586764   -2.9239983   -2.9239983   -2.2924624   0.03883642   -2.9239983   0.63153584   418189 
 3521000   0.60730244   -2.9254148   -2.9254148   -2.2923833  0.028329025   -2.9254148   0.63303142   418189 
 3522000    0.6060818   -2.9237761   -2.9237761    -2.292017  0.027064938   -2.9237761   0.63175907   418189 
 3523000   0.60611684   -2.9236329   -2.9236329   -2.2918373  0.027608626   -2.9236329   0.63179559   418189 
 3524000   0.60684406   -2.9244938   -2.9244938   -2.2919402  0.040499299   -2.9244938   0.63255363   418189 
 3525000   0.60768496   -2.9251167   -2.9251167   -2.2916865  0.030834827   -2.9251167   0.63343014   418189 
 3526000   0.60774801   -2.9254257   -2.9254257   -2.2919298  0.037315215   -2.9254257   0.63349587   418189 
 3527000   0.60630214   -2.9243387   -2.9243387     -2.29235   0.04952272   -2.9243387   0.63198875   418189 
 3528000   0.60625301   -2.9243305   -2.9243305    -2.292393  0.020943249   -2.9243305   0.63193753   418189 
 3529000   0.60563347   -2.9237041   -2.9237041   -2.2924123  0.029066928   -2.9237041   0.63129174   418189 
 3530000    0.6055314    -2.923224    -2.923224   -2.2920387  0.030775738    -2.923224   0.63118535   418189 
 3531000   0.60752313   -2.9253451   -2.9253451   -2.2920837  0.037385451   -2.9253451   0.63326146   418189 
 3532000   0.60637698   -2.9240036   -2.9240036   -2.2919369  0.040441251   -2.9240036   0.63206675   418189 
 3533000   0.60684841   -2.9241974   -2.9241974   -2.2916393  0.027143056   -2.9241974   0.63255816   418189 
 3534000   0.60720211   -2.9254056   -2.9254056   -2.2924787  0.031401673   -2.9254056   0.63292684   418189 
 3535000   0.60713766   -2.9248296   -2.9248296     -2.29197  0.037351457   -2.9248296   0.63285966   418189 
 3536000   0.60696483   -2.9241526   -2.9241526   -2.2914731  0.036243262   -2.9241526   0.63267951   418189 
 3537000   0.60782789   -2.9249075   -2.9249075   -2.2913283  0.032348076   -2.9249075   0.63357914   418189 
 3538000   0.60753826   -2.9243431   -2.9243431   -2.2910658  0.028118699   -2.9243431   0.63327724   418189 
 3539000   0.60630383   -2.9244404   -2.9244404   -2.2924499  0.034012277   -2.9244404    0.6319905   418189 
 3540000   0.60659039   -2.9248759   -2.9248759   -2.2925867  0.035254057   -2.9248759   0.63228921   418189 
 3541000   0.60729366   -2.9246441   -2.9246441   -2.2916218  0.036532668   -2.9246441   0.63302227   418189 
 3542000    0.6066593   -2.9238584   -2.9238584   -2.2914973  0.035343212   -2.9238584   0.63236104   418189 
 3543000   0.60751561   -2.9239653   -2.9239653   -2.2907116  0.018904137   -2.9239653   0.63325362   418189 
 3544000   0.60648164   -2.9234063   -2.9234063   -2.2912305  0.043956562   -2.9234063   0.63217585   418189 
 3545000   0.60747774    -2.924756    -2.924756   -2.2915419  0.040928675    -2.924756   0.63321415   418189 
 3546000   0.60703636    -2.923895    -2.923895   -2.2911409  0.019696751    -2.923895   0.63275407   418189 
 3547000   0.60541492   -2.9222162   -2.9222162   -2.2911523  0.023758718   -2.9222162   0.63106394   418189 
 3548000   0.60692095   -2.9232901   -2.9232901   -2.2906563  0.040147717   -2.9232901   0.63263377   418189 
 3549000   0.60640997   -2.9233834   -2.9233834   -2.2912822  0.038956246   -2.9233834   0.63210115   418189 
 3550000    0.6069867   -2.9240922   -2.9240922   -2.2913899  0.021573788   -2.9240922    0.6327023   418189 
 3551000   0.60746455   -2.9244897   -2.9244897   -2.2912893  0.027585109   -2.9244897    0.6332004   418189 
 3552000   0.60693017   -2.9251308   -2.9251308   -2.2924874  0.035290583   -2.9251308   0.63264338   418189 
 3553000   0.60641946   -2.9240434   -2.9240434   -2.2919324  0.035755806   -2.9240434   0.63211104   418189 
 3554000   0.60705121   -2.9251887   -2.9251887   -2.2924192  0.030029386   -2.9251887   0.63276955   418189 
 3555000   0.60708412   -2.9252139   -2.9252139     -2.29241  0.028204645   -2.9252139   0.63280385   418189 
 3556000   0.60873788   -2.9274462   -2.9274462   -2.2929186  0.033192059   -2.9274462   0.63452768   418189 
 3557000    0.6076512   -2.9260482   -2.9260482   -2.2926533  0.041794926   -2.9260482   0.63339496   418189 
 3558000   0.60740648   -2.9262021   -2.9262021   -2.2930622  0.049527317   -2.9262021   0.63313987   418189 
 3559000   0.60722933    -2.925868    -2.925868   -2.2929128  0.032148884    -2.925868   0.63295522   418189 
 3560000   0.60705164   -2.9258313   -2.9258313   -2.2930613  0.034026205   -2.9258313      0.63277   418189 
 3561000   0.60768566   -2.9261295   -2.9261295   -2.2926986    0.0351922   -2.9261295   0.63343088   418189 
 3562000    0.6079027   -2.9264289   -2.9264289   -2.2927717  0.033684807   -2.9264289   0.63365712   418189 
 3563000   0.60649696   -2.9251077   -2.9251077   -2.2929159  0.029789746   -2.9251077   0.63219182   418189 
 3564000   0.60697227   -2.9250899   -2.9250899   -2.2924026  0.028460403   -2.9250899   0.63268726   418189 
 3565000   0.60775078   -2.9265338   -2.9265338   -2.2930351  0.035661974   -2.9265338   0.63349875   418189 
 3566000   0.60537598   -2.9241148   -2.9241148   -2.2930914  0.025982351   -2.9241148   0.63102334   418189 
 3567000   0.60751814    -2.925619    -2.925619   -2.2923627   0.03246151    -2.925619   0.63325626   418189 
 3568000    0.6056554   -2.9242304   -2.9242304   -2.2929158  0.028901958   -2.9242304    0.6313146   418189 
 3569000   0.60802681   -2.9260882   -2.9260882   -2.2923017   0.03506415   -2.9260882   0.63378648   418189 
 3570000   0.60690113   -2.9251445   -2.9251445   -2.2925314  0.040568715   -2.9251445   0.63261311   418189 
 3571000   0.60641915   -2.9243495   -2.9243495   -2.2922388  0.041132107   -2.9243495   0.63211071   418189 
 3572000   0.60823459   -2.9264122   -2.9264122   -2.2924091  0.039338689   -2.9264122   0.63400307   418189 
 3573000   0.60723461   -2.9252715   -2.9252715   -2.2923108  0.026558424   -2.9252715   0.63296072   418189 
 3574000   0.60681999   -2.9258531   -2.9258531   -2.2933246  0.034522389   -2.9258531   0.63252853   418189 
 3575000   0.60688967   -2.9259781   -2.9259781    -2.293377  0.028929611   -2.9259781   0.63260117   418189 
 3576000   0.60634874    -2.925189    -2.925189   -2.2931517  0.026413136    -2.925189   0.63203731   418189 
 3577000   0.60552887   -2.9238702   -2.9238702   -2.2926875  0.041842785   -2.9238702   0.63118271   418189 
 3578000   0.60584873   -2.9241167   -2.9241167   -2.2926006  0.024614576   -2.9241167   0.63151612   418189 
 3579000   0.60778946   -2.9259931   -2.9259931    -2.292454  0.032467633   -2.9259931   0.63353907   418189 
 3580000    0.6068025   -2.9249275   -2.9249275   -2.2924172  0.047255615   -2.9249275   0.63251031   418189 
 3581000   0.60656535   -2.9238471   -2.9238471    -2.291584  0.018705905   -2.9238471    0.6322631   418189 
 3582000   0.60748356   -2.9238411   -2.9238411   -2.2906209  0.037288231   -2.9238411   0.63322022   418189 
 3583000   0.60623881   -2.9234543   -2.9234543   -2.2915316  0.033211509   -2.9234543   0.63192273   418189 
 3584000   0.60586787   -2.9235418   -2.9235418   -2.2920057  0.042308531   -2.9235418   0.63153608   418189 
 3585000    0.6058907   -2.9246054   -2.9246054   -2.2930455  0.037683177   -2.9246054   0.63155987   418189 
 3586000   0.60713465   -2.9258693   -2.9258693   -2.2930128  0.023359774   -2.9258693   0.63285652   418189 
 3587000   0.60687527    -2.926125    -2.926125   -2.2935389   0.03573281    -2.926125   0.63258616   418189 
 3588000   0.60630732   -2.9260306   -2.9260306   -2.2940365  0.030782831   -2.9260306   0.63199414   418189 
 3589000   0.60599476   -2.9254209   -2.9254209   -2.2937526  0.046491312   -2.9254209   0.63166834   418189 
 3590000   0.60674252   -2.9260753   -2.9260753   -2.2936275  0.043100155   -2.9260753   0.63244778   418189 
 3591000   0.60600009   -2.9250561   -2.9250561   -2.2933822  0.028653752   -2.9250561    0.6316739   418189 
 3592000   0.60655974   -2.9256348   -2.9256348   -2.2933775   0.02772136   -2.9256348   0.63225726   418189 
 3593000   0.60859224   -2.9272106   -2.9272106   -2.2928348  0.037992169   -2.9272106   0.63437587   418189 
 3594000   0.60726422   -2.9257631   -2.9257631   -2.2927715  0.042629637   -2.9257631   0.63299158   418189 
 3595000     0.606255   -2.9251292   -2.9251292   -2.2931896  0.048725691   -2.9251292   0.63193961   418189 
 3596000   0.60635713   -2.9264792   -2.9264792   -2.2944331  0.036510823   -2.9264792   0.63204606   418189 
 3597000   0.60621953   -2.9253913   -2.9253913   -2.2934887   0.02723234   -2.9253913   0.63190263   418189 
 3598000   0.60727255   -2.9266357   -2.9266357   -2.2936355  0.026784022   -2.9266357   0.63300026   418189 
 3599000    0.6061482     -2.92597     -2.92597   -2.2941418  0.035288527     -2.92597   0.63182828   418189 
 3600000   0.60586139   -2.9252587   -2.9252587   -2.2937293  0.036296198   -2.9252587   0.63152932   418189 
 3601000   0.60881817    -2.927805    -2.927805   -2.2931937  0.036294056    -2.927805   0.63461137   418189 
 3602000   0.60602842   -2.9252265   -2.9252265    -2.293523  0.027629744   -2.9252265   0.63170343   418189 
 3603000   0.60696433   -2.9260209   -2.9260209   -2.2933419  0.044103132   -2.9260209   0.63267899   418189 
 3604000   0.60500729   -2.9249219   -2.9249219   -2.2942829   0.03228115   -2.9249219   0.63063904   418189 
 3605000   0.60626839   -2.9263192   -2.9263192   -2.2943657  0.031461446   -2.9263192   0.63195356   418189 
 3606000   0.60640399   -2.9266423   -2.9266423   -2.2945474  0.034230499   -2.9266423   0.63209491   418189 
 3607000   0.60663161   -2.9272328   -2.9272328   -2.2949006  0.028877849   -2.9272328   0.63233217   418189 
 3608000   0.60678554    -2.927306    -2.927306   -2.2948133  0.036977655    -2.927306   0.63249262   418189 
 3609000   0.60640234   -2.9266395   -2.9266395   -2.2945463  0.036095359   -2.9266395   0.63209318   418189 
 3610000   0.60776447   -2.9277889   -2.9277889   -2.2942758  0.039999936   -2.9277889   0.63351303   418189 
 3611000   0.60539234    -2.925393    -2.925393   -2.2943526   0.04109226    -2.925393   0.63104039   418189 
 3612000   0.60659618   -2.9269252   -2.9269252     -2.29463  0.043270177   -2.9269252   0.63229524   418189 
 3613000   0.60750794   -2.9277267   -2.9277267   -2.2944811  0.026924945   -2.9277267   0.63324563   418189 
 3614000    0.6066158   -2.9271715   -2.9271715   -2.2948558  0.046728276   -2.9271715   0.63231569   418189 
 3615000   0.60614804   -2.9257363   -2.9257363   -2.2939082   0.02550157   -2.9257363   0.63182812   418189 
 3616000   0.60712241   -2.9270329   -2.9270329   -2.2941891  0.042421217   -2.9270329   0.63284377   418189 
 3617000   0.60723917   -2.9267735   -2.9267735    -2.293808  0.029111651   -2.9267735   0.63296547   418189 
 3618000   0.60657594   -2.9260116   -2.9260116   -2.2937374  0.041967196   -2.9260116   0.63227414   418189 
 3619000    0.6073363   -2.9275258   -2.9275258   -2.2944591  0.031953768   -2.9275258   0.63306671   418189 
 3620000   0.60680477    -2.927298    -2.927298   -2.2947853   0.01924767    -2.927298   0.63251267   418189 
 3621000   0.60607832   -2.9267981   -2.9267981   -2.2950427  0.040385127   -2.9267981   0.63175544   418189 
 3622000   0.60622518   -2.9268878   -2.9268878   -2.2949792  0.029008657   -2.9268878   0.63190853   418189 
 3623000   0.60616916   -2.9266372   -2.9266372   -2.2947871  0.036902454   -2.9266372   0.63185013   418189 
 3624000    0.6073878   -2.9273469   -2.9273469   -2.2942265  0.036512679   -2.9273469    0.6331204   418189 
 3625000   0.60665017   -2.9264039   -2.9264039   -2.2940523  0.043442004   -2.9264039   0.63235151   418189 
 3626000   0.60756859   -2.9275135   -2.9275135   -2.2942046  0.038314207   -2.9275135   0.63330884   418189 
 3627000   0.60660151   -2.9267672   -2.9267672   -2.2944664  0.037849497   -2.9267672    0.6323008   418189 
 3628000   0.60779584    -2.927309    -2.927309   -2.2937632  0.038991605    -2.927309   0.63354572   418189 
 3629000   0.60796471   -2.9271962   -2.9271962   -2.2934744  0.011039824   -2.9271962   0.63372175   418189 
 3630000    0.6068328   -2.9251853   -2.9251853   -2.2926434  0.041904097   -2.9251853   0.63254188   418189 
 3631000    0.6074432   -2.9257998   -2.9257998   -2.2926217  0.034548697   -2.9257998   0.63317815   418189 
 3632000   0.60698749   -2.9250591   -2.9250591    -2.292356  0.029184632   -2.9250591   0.63270313   418189 
 3633000   0.60660166   -2.9248575   -2.9248575   -2.2925565  0.034035792   -2.9248575   0.63230095   418189 
 3634000   0.60641746   -2.9255816   -2.9255816   -2.2934726  0.034176086   -2.9255816   0.63210894   418189 
 3635000   0.60608344   -2.9253808   -2.9253808   -2.2936201  0.027186235   -2.9253808   0.63176078   418189 
 3636000   0.60622265   -2.9254088   -2.9254088   -2.2935029  0.050458778   -2.9254088   0.63190589   418189 
 3637000   0.60627845   -2.9246927   -2.9246927   -2.2927286  0.041646613   -2.9246927   0.63196405   418189 
 3638000   0.60773742   -2.9266639   -2.9266639    -2.293179  0.022613743   -2.9266639   0.63348484   418189 
 3639000   0.60682835   -2.9248853   -2.9248853    -2.292348  0.025957854   -2.9248853   0.63253725   418189 
 3640000   0.60629617   -2.9258059   -2.9258059   -2.2938234  0.033190828   -2.9258059   0.63198252   418189 
 3641000   0.60563677   -2.9248009   -2.9248009   -2.2935058   0.04337862   -2.9248009   0.63129519   418189 
 3642000   0.60569136   -2.9244961   -2.9244961    -2.293144  0.029968068   -2.9244961   0.63135209   418189 
 3643000   0.60627294   -2.9258871   -2.9258871   -2.2939288  0.032733587   -2.9258871   0.63195831   418189 
 3644000   0.60601458   -2.9251623   -2.9251623   -2.2934733  0.026426229   -2.9251623     0.631689   418189 
 3645000   0.60582197    -2.926218    -2.926218   -2.2947298  0.045463596    -2.926218   0.63148823   418189 
 3646000   0.60534966   -2.9256193   -2.9256193   -2.2946234   0.03743398   -2.9256193   0.63099591   418189 
 3647000   0.60649225   -2.9260953   -2.9260953   -2.2939084  0.038842262   -2.9260953   0.63218691   418189 
 3648000   0.60796915   -2.9278122   -2.9278122   -2.2940858  0.033175108   -2.9278122   0.63372638   418189 
 3649000   0.60733379   -2.9271548   -2.9271548   -2.2940907  0.029619215   -2.9271548    0.6330641   418189 
 3650000   0.60697271   -2.9262411   -2.9262411   -2.2935534  0.044211585   -2.9262411   0.63268772   418189 
 3651000   0.60766768   -2.9279787   -2.9279787   -2.2945665  0.026109681   -2.9279787   0.63341213   418189 
 3652000   0.60634885   -2.9267095   -2.9267095   -2.2946721  0.038418349   -2.9267095   0.63203744   418189 
 3653000   0.60650564    -2.927086    -2.927086   -2.2948851  0.032898705    -2.927086   0.63220087   418189 
 3654000    0.6058757   -2.9276177   -2.9276177   -2.2960734  0.037034834   -2.9276177   0.63154423   418189 
 3655000   0.60806978   -2.9292836   -2.9292836   -2.2954524  0.047631762   -2.9292836   0.63383127   418189 
 3656000    0.6077401   -2.9286474   -2.9286474   -2.2951598  0.030374871   -2.9286474   0.63348762   418189 
 3657000   0.60682307   -2.9284837   -2.9284837    -2.295952  0.031869257   -2.9284837   0.63253174   418189 
 3658000   0.60647777   -2.9279808   -2.9279808    -2.295809   0.03037697   -2.9279808   0.63217181   418189 
 3659000   0.60745498   -2.9291991   -2.9291991   -2.2960087  0.034091898   -2.9291991   0.63319042   418189 
 3660000   0.60632694   -2.9281249   -2.9281249   -2.2961103  0.036498615   -2.9281249   0.63201459   418189 
 3661000   0.60579689   -2.9284764   -2.9284764   -2.2970143  0.038729549   -2.9284764   0.63146208   418189 
 3662000   0.60444431   -2.9270411   -2.9270411   -2.2969889  0.028410901   -2.9270411   0.63005221   418189 
 3663000   0.60516873   -2.9277667   -2.9277667   -2.2969594  0.022547941   -2.9277667   0.63080732   418189 
 3664000   0.60534585   -2.9273197   -2.9273197   -2.2963277  0.035666406   -2.9273197   0.63099194   418189 
 3665000   0.60560916   -2.9280012   -2.9280012   -2.2967348  0.030755248   -2.9280012    0.6312664   418189 
 3666000   0.60611985   -2.9279755   -2.9279755   -2.2961768  0.027463027   -2.9279755   0.63179873   418189 
 3667000   0.60597806   -2.9283286   -2.9283286   -2.2966776   0.03829431   -2.9283286   0.63165094   418189 
 3668000   0.60571503   -2.9279513   -2.9279513   -2.2965746  0.018777491   -2.9279513   0.63137676   418189 
 3669000   0.60560384    -2.926629    -2.926629   -2.2953681  0.045021839    -2.926629   0.63126086   418189 
 3670000   0.60517993   -2.9267008   -2.9267008   -2.2958818  0.024269113   -2.9267008   0.63081899   418189 
 3671000   0.60635298   -2.9281814   -2.9281814   -2.2961396  0.035637239   -2.9281814   0.63204174   418189 
 3672000   0.60635358   -2.9270703   -2.9270703   -2.2950279   0.03886374   -2.9270703   0.63204236   418189 
 3673000   0.60752091   -2.9286277   -2.9286277   -2.2953686  0.023984281   -2.9286277   0.63325915   418189 
 3674000   0.60585992   -2.9276202   -2.9276202   -2.2960924  0.026845828   -2.9276202   0.63152779   418189 
 3675000   0.60601541   -2.9284585   -2.9284585   -2.2967686  0.036921711   -2.9284585   0.63168986   418189 
 3676000   0.60550922   -2.9276582   -2.9276582    -2.296496   0.03322028   -2.9276582   0.63116223   418189 
 3677000    0.6059844   -2.9286409   -2.9286409   -2.2969833  0.037858278   -2.9286409   0.63165754   418189 
 3678000   0.60597154   -2.9286737   -2.9286737   -2.2970296  0.025400033   -2.9286737   0.63164413   418189 
 3679000   0.60465495    -2.927948    -2.927948   -2.2976762  0.040284579    -2.927948   0.63027177   418189 
 3680000   0.60535825   -2.9290615   -2.9290615   -2.2980567  0.034219795   -2.9290615   0.63100487   418189 
 3681000   0.60665154   -2.9299498   -2.9299498   -2.2975968  0.038304077   -2.9299498   0.63235294   418189 
 3682000   0.60580804   -2.9291824   -2.9291824   -2.2977086  0.025028352   -2.9291824   0.63147371   418189 
 3683000   0.60645229    -2.929848    -2.929848   -2.2977027  0.035580472    -2.929848   0.63214526   418189 
 3684000   0.60604818    -2.929717    -2.929717    -2.297993  0.040111031    -2.929717   0.63172402   418189 
 3685000   0.60777959   -2.9304171   -2.9304171   -2.2968884  0.036282762   -2.9304171   0.63352879   418189 
 3686000   0.60567328   -2.9283212   -2.9283212    -2.296988  0.044336366   -2.9283212   0.63133324   418189 
 3687000   0.60681086   -2.9294305   -2.9294305   -2.2969114   0.02746587   -2.9294305   0.63251901   418189 
 3688000   0.60588103    -2.927882    -2.927882   -2.2963322  0.036011681    -2.927882   0.63154979   418189 
 3689000   0.60619691   -2.9279589   -2.9279589   -2.2960798  0.030415733   -2.9279589   0.63187905   418189 
 3690000   0.60572667   -2.9282301   -2.9282301   -2.2968412  0.025948104   -2.9282301   0.63138889   418189 
 3691000   0.60576578   -2.9283181   -2.9283181   -2.2968885  0.031913913   -2.9283181   0.63142966   418189 
 3692000   0.60586961   -2.9283023   -2.9283023   -2.2967644  0.039339913   -2.9283023   0.63153789   418189 
 3693000   0.60578423   -2.9283853   -2.9283853   -2.2969365  0.014864163   -2.9283853   0.63144889   418189 
 3694000   0.60543577    -2.927992    -2.927992   -2.2969064  0.035400834    -2.927992   0.63108566   418189 
 3695000   0.60604172   -2.9284739   -2.9284739   -2.2967566  0.028075666   -2.9284739   0.63171729   418189 
 3696000   0.60475141    -2.927279    -2.927279   -2.2969067   0.03613736    -2.927279   0.63037232   418189 
 3697000   0.60554874   -2.9277887   -2.9277887   -2.2965853  0.033042162   -2.9277887   0.63120342   418189 
 3698000   0.60625297   -2.9284718   -2.9284718   -2.2965343  0.033444837   -2.9284718   0.63193749   418189 
 3699000    0.6053229   -2.9276248   -2.9276248   -2.2966568  0.032781672   -2.9276248   0.63096802   418189 
 3700000   0.60548944   -2.9275234   -2.9275234   -2.2963818  0.021918591   -2.9275234   0.63114161   418189 
 3701000   0.60663736   -2.9286557   -2.9286557   -2.2963175  0.036056762   -2.9286557   0.63233817   418189 
 3702000   0.60650174   -2.9288562   -2.9288562   -2.2966594  0.030651987   -2.9288562   0.63219679   418189 
 3703000   0.60646313   -2.9289009   -2.9289009   -2.2967443    0.0341582   -2.9289009   0.63215655   418189 
 3704000   0.60629642   -2.9288532   -2.9288532   -2.2968704  0.038506746   -2.9288532   0.63198278   418189 
 3705000   0.60609037   -2.9283024   -2.9283024   -2.2965344   0.04114174   -2.9283024     0.631768   418189 
 3706000    0.6070656   -2.9288302   -2.9288302   -2.2960456  0.032261267   -2.9288302   0.63278455   418189 
 3707000   0.60741637   -2.9291613   -2.9291613   -2.2960111  0.027718625   -2.9291613   0.63315018   418189 
 3708000   0.60610256   -2.9279777   -2.9279777    -2.296197  0.030985763   -2.9279777   0.63178071   418189 
 3709000   0.60664404   -2.9282478   -2.9282478   -2.2959027  0.014994924   -2.9282478   0.63234513   418189 
 3710000   0.60737888   -2.9293028   -2.9293028   -2.2961917   0.03510572   -2.9293028    0.6331111   418189 
 3711000   0.60642163    -2.928695    -2.928695   -2.2965817  0.029168791    -2.928695    0.6321133   418189 
 3712000   0.60598635   -2.9285778   -2.9285778   -2.2969182   0.03389873   -2.9285778   0.63165958   418189 
 3713000    0.6044539   -2.9277806   -2.9277806   -2.2977184  0.038548999   -2.9277806    0.6300622   418189 
 3714000   0.60507193   -2.9294324   -2.9294324    -2.298726  0.018148921   -2.9294324   0.63070641   418189 
 3715000   0.60593093   -2.9298198   -2.9298198    -2.298218  0.038601597   -2.9298198   0.63160181   418189 
 3716000    0.6054306    -2.929732    -2.929732   -2.2986517  0.034806611    -2.929732   0.63108028   418189 
 3717000   0.60521221   -2.9294875   -2.9294875   -2.2986348  0.026715245   -2.9294875   0.63085264   418189 
 3718000   0.60476263   -2.9286607   -2.9286607   -2.2982767  0.036306711   -2.9286607   0.63038401   418189 
 3719000   0.60569351   -2.9297391   -2.9297391   -2.2983848  0.026693866   -2.9297391   0.63135433   418189 
 3720000   0.60608937   -2.9298949   -2.9298949    -2.298128  0.035428955   -2.9298949   0.63176696   418189 
 3721000   0.60396524   -2.9281584   -2.9281584   -2.2986056  0.024239172   -2.9281584   0.62955283   418189 
 3722000   0.60563871   -2.9296305   -2.9296305   -2.2983333  0.041527002   -2.9296305    0.6312972   418189 
 3723000   0.60495862   -2.9287346   -2.9287346   -2.2981463  0.042927231   -2.9287346    0.6305883   418189 
 3724000   0.60408293   -2.9288163   -2.9288163   -2.2991408  0.031143072   -2.9288163   0.62967552   418189 
 3725000   0.60492697   -2.9296456   -2.9296456   -2.2990903  0.021599997   -2.9296456   0.63055532   418189 
 3726000   0.60563095   -2.9299663   -2.9299663   -2.2986772   0.04273761   -2.9299663   0.63128912   418189 
 3727000   0.60530525   -2.9297762   -2.9297762   -2.2988266  0.019486314   -2.9297762   0.63094962   418189 
 3728000   0.60548506    -2.929884    -2.929884   -2.2987469  0.044352325    -2.929884   0.63113705   418189 
 3729000   0.60511673   -2.9298893   -2.9298893   -2.2991362  0.035215912   -2.9298893   0.63075311   418189 
 3730000   0.60562207   -2.9299197   -2.9299197   -2.2986398  0.037798139   -2.9299197   0.63127987   418189 
 3731000    0.6060521   -2.9303807   -2.9303807   -2.2986526  0.035946569   -2.9303807   0.63172811   418189 
 3732000   0.60529758   -2.9290553   -2.9290553   -2.2981137  0.039956339   -2.9290553   0.63094162   418189 
 3733000   0.60526381   -2.9288934   -2.9288934    -2.297987  0.027576796   -2.9288934   0.63090643   418189 
 3734000   0.60484705   -2.9282674   -2.9282674   -2.2977954  0.038249302   -2.9282674   0.63047201   418189 
 3735000   0.60655059   -2.9298919   -2.9298919   -2.2976442  0.040647166   -2.9298919   0.63224772   418189 
 3736000   0.60517853   -2.9295707   -2.9295707   -2.2987532  0.034511485   -2.9295707   0.63081753   418189 
 3737000   0.60639918   -2.9307983   -2.9307983   -2.2987084  0.037867939   -2.9307983   0.63208989   418189 
 3738000   0.60566539   -2.9301422   -2.9301422   -2.2988172  0.028398106   -2.9301422   0.63132502   418189 
 3739000   0.60651859   -2.9301965   -2.9301965   -2.2979821  0.029443629   -2.9301965   0.63221436   418189 
 3740000   0.60750662   -2.9312972   -2.9312972   -2.2980529  0.036946553   -2.9312972   0.63324425   418189 
 3741000   0.60682893   -2.9311013   -2.9311013   -2.2985635  0.028787127   -2.9311013   0.63253785   418189 
 3742000   0.60580881   -2.9301986   -2.9301986   -2.2987241   0.01579963   -2.9301986   0.63147451   418189 
 3743000   0.60479832   -2.9300648   -2.9300648   -2.2996436  0.014984733   -2.9300648   0.63042122   418189 
 3744000   0.60635634   -2.9314171   -2.9314171   -2.2993719  0.023131597   -2.9314171   0.63204523   418189 
 3745000   0.60579817   -2.9307374   -2.9307374   -2.2992739   0.03019055   -2.9307374   0.63146342   418189 
 3746000   0.60545392   -2.9307278   -2.9307278   -2.2996232   0.03839886   -2.9307278   0.63110458   418189 
 3747000   0.60597197   -2.9313504   -2.9313504   -2.2997058  0.026659491   -2.9313504   0.63164458   418189 
 3748000   0.60463426   -2.9302497   -2.9302497   -2.2999995  0.022014261   -2.9302497    0.6302502   418189 
 3749000   0.60604073   -2.9309915   -2.9309915   -2.2992753  0.038184272   -2.9309915   0.63171625   418189 
 3750000    0.6053941   -2.9311864   -2.9311864   -2.3001442  0.032661269   -2.9311864   0.63104224   418189 
 3751000   0.60542496   -2.9309358   -2.9309358   -2.2998614  0.033107552   -2.9309358    0.6310744   418189 
 3752000   0.60645197   -2.9320593   -2.9320593   -2.2999144  0.037468854   -2.9320593   0.63214492   418189 
 3753000   0.60488953   -2.9302663   -2.9302663   -2.2997501  0.038388269   -2.9302663   0.63051628   418189 
 3754000   0.60580196   -2.9312137   -2.9312137   -2.2997464  0.027698242   -2.9312137   0.63146737   418189 
 3755000   0.60605484   -2.9308035   -2.9308035   -2.2990725  0.048573078   -2.9308035   0.63173097   418189 
 3756000   0.60449957   -2.9299257   -2.9299257   -2.2998159  0.025043166   -2.9299257   0.63010981   418189 
 3757000   0.60640408   -2.9315882   -2.9315882   -2.2994932  0.027640381   -2.9315882     0.632095   418189 
 3758000   0.60525295   -2.9301764   -2.9301764   -2.2992813  0.034069426   -2.9301764    0.6308951   418189 
 3759000   0.60506854   -2.9296652   -2.9296652   -2.2989623  0.036164242   -2.9296652   0.63070289   418189 
 3760000   0.60512107   -2.9295327   -2.9295327   -2.2987751  0.032182742   -2.9295327   0.63075764   418189 
 3761000   0.60620995   -2.9305675   -2.9305675   -2.2986749  0.031984809   -2.9305675   0.63189265   418189 
 3762000   0.60528533   -2.9294215   -2.9294215   -2.2984927  0.038381798   -2.9294215   0.63092885   418189 
 3763000   0.60639968   -2.9298394   -2.9298394    -2.297749  0.030922902   -2.9298394   0.63209042   418189 
 3764000   0.60639641    -2.929628    -2.929628    -2.297541  0.023467294    -2.929628   0.63208701   418189 
 3765000   0.60689198   -2.9309443   -2.9309443   -2.2983407  0.041676551   -2.9309443   0.63260358   418189 
 3766000   0.60542896   -2.9294822   -2.9294822   -2.2984036  0.038811816   -2.9294822   0.63107857   418189 
 3767000   0.60389132   -2.9287973   -2.9287973   -2.2993216   0.04101761   -2.9287973   0.62947578   418189 
 3768000   0.60469441   -2.9291971   -2.9291971   -2.2988842  0.033446755   -2.9291971   0.63031291   418189 
 3769000   0.60514634   -2.9298113   -2.9298113   -2.2990274  0.036452665   -2.9298113   0.63078397   418189 
 3770000   0.60369125   -2.9297601   -2.9297601   -2.3004929  0.026759517   -2.9297601   0.62926724   418189 
 3771000   0.60388736    -2.930854    -2.930854   -2.3013823  0.031143768    -2.930854   0.62947166   418189 
 3772000   0.60514286   -2.9312982   -2.9312982   -2.3005178  0.040397238   -2.9312982   0.63078035   418189 
 3773000   0.60491996   -2.9298805   -2.9298805   -2.2993325  0.042509753   -2.9298805   0.63054801   418189 
 3774000   0.60617382   -2.9315749   -2.9315749   -2.2997199  0.048446787   -2.9315749   0.63185498   418189 
 3775000    0.6058297   -2.9303379   -2.9303379   -2.2988416  0.036360637   -2.9303379   0.63149629   418189 
 3776000   0.60563942   -2.9305634   -2.9305634   -2.2992655  0.032962157   -2.9305634   0.63129795   418189 
 3777000   0.60511417   -2.9302385   -2.9302385   -2.2994881   0.03308811   -2.9302385   0.63075044   418189 
 3778000   0.60516797   -2.9306288   -2.9306288   -2.2998223  0.031311684   -2.9306288   0.63080652   418189 
 3779000   0.60550051   -2.9312133   -2.9312133   -2.3000601  0.020152877   -2.9312133   0.63115315   418189 
 3780000   0.60499452   -2.9302647   -2.9302647   -2.2996389  0.032851771   -2.9302647   0.63062573   418189 
 3781000   0.60423889   -2.9302526   -2.9302526   -2.3004145  0.037565555   -2.9302526   0.62983808   418189 
 3782000   0.60582343   -2.9318566   -2.9318566   -2.3003668   0.03914671   -2.9318566   0.63148975   418189 
 3783000   0.60593511   -2.9323497   -2.9323497   -2.3007435  0.024883298   -2.9323497   0.63160617   418189 
 3784000   0.60602887   -2.9322215   -2.9322215   -2.3005176  0.020899222   -2.9322215   0.63170389   418189 
 3785000    0.6057816   -2.9318951   -2.9318951    -2.300449  0.035313758   -2.9318951   0.63144615   418189 
 3786000   0.60612632   -2.9319095   -2.9319095    -2.300104  0.022146721   -2.9319095   0.63180548   418189 
 3787000   0.60551781    -2.931185    -2.931185   -2.3000138  0.028858653    -2.931185   0.63117119   418189 
 3788000   0.60717022     -2.93233     -2.93233   -2.2994364  0.030501871     -2.93233    0.6328936   418189 
 3789000   0.60646625   -2.9319976   -2.9319976   -2.2998378  0.030780784   -2.9319976   0.63215981   418189 
 3790000   0.60600023    -2.930696    -2.930696    -2.299022  0.030616467    -2.930696   0.63167404   418189 
 3791000   0.60673787   -2.9320598   -2.9320598   -2.2996169  0.033915139   -2.9320598   0.63244293   418189 
 3792000   0.60542611   -2.9309343   -2.9309343   -2.2998587  0.021805748   -2.9309343    0.6310756   418189 
 3793000   0.60595327   -2.9316621   -2.9316621    -2.300037  0.040778604   -2.9316621    0.6316251   418189 
 3794000   0.60449623   -2.9305242   -2.9305242   -2.3004179  0.037269178   -2.9305242   0.63010632   418189 
 3795000   0.60544874   -2.9310159   -2.9310159   -2.2999168  0.030263231   -2.9310159   0.63109918   418189 
 3796000    0.6058319   -2.9316452   -2.9316452   -2.3001466  0.033453375   -2.9316452   0.63149858   418189 
 3797000   0.60616864   -2.9325856   -2.9325856    -2.300736  0.028214239   -2.9325856   0.63184959   418189 
 3798000   0.60377364     -2.93117     -2.93117   -2.3018169  0.034067178     -2.93117   0.62935312   418189 
 3799000   0.60470173   -2.9311624   -2.9311624   -2.3008419  0.027676556   -2.9311624   0.63032053   418189 
 3800000   0.60491984   -2.9314488   -2.9314488    -2.300901  0.031945285   -2.9314488   0.63054788   418189 
 3801000   0.60482666   -2.9308321   -2.9308321   -2.3003813  0.025085008   -2.9308321   0.63045075   418189 
 3802000   0.60491525   -2.9310935   -2.9310935   -2.3005504  0.033048499   -2.9310935    0.6305431   418189 
 3803000   0.60628822   -2.9321815   -2.9321815   -2.3002072      0.03269   -2.9321815   0.63197423   418189 
 3804000   0.60507026   -2.9310698   -2.9310698   -2.3003651  0.022510321   -2.9310698   0.63070467   418189 
 3805000   0.60525649   -2.9316194   -2.9316194   -2.3007207  0.021563529   -2.9316194   0.63089879   418189 
 3806000    0.6056645   -2.9321559   -2.9321559   -2.3008318  0.030702853   -2.9321559   0.63132409   418189 
 3807000   0.60617709   -2.9324595   -2.9324595   -2.3006011  0.035224583   -2.9324595    0.6318584   418189 
 3808000    0.6059829   -2.9322468   -2.9322468   -2.3005908  0.021831796   -2.9322468   0.63165598   418189 
 3809000   0.60669753   -2.9331744   -2.9331744   -2.3007735  0.025417072   -2.9331744   0.63240089   418189 
 3810000    0.6061804   -2.9323783   -2.9323783   -2.3005164  0.025640727   -2.9323783   0.63186184   418189 
 3811000   0.60630496    -2.933066    -2.933066   -2.3010743  0.025837255    -2.933066   0.63199169   418189 
 3812000   0.60526527   -2.9328915   -2.9328915   -2.3019835  0.033128337   -2.9328915   0.63090795   418189 
 3813000   0.60538425   -2.9326518   -2.9326518   -2.3016198   0.04093961   -2.9326518   0.63103197   418189 
 3814000   0.60601039   -2.9333989   -2.9333989   -2.3017142  0.029513926   -2.9333989   0.63168463   418189 
 3815000    0.6058141   -2.9331717   -2.9331717   -2.3016917  0.042443961   -2.9331717   0.63148003   418189 
 3816000   0.60401538   -2.9316868   -2.9316868   -2.3020817  0.025947787   -2.9316868    0.6296051   418189 
 3817000   0.60562732   -2.9333949   -2.9333949   -2.3021096  0.041136925   -2.9333949   0.63128534   418189 
 3818000   0.60450298   -2.9321263   -2.9321263    -2.302013  0.042063681   -2.9321263   0.63011336   418189 
 3819000   0.60503041   -2.9323786   -2.9323786   -2.3017154  0.029798067   -2.9323786   0.63066314   418189 
 3820000   0.60530347   -2.9327496   -2.9327496   -2.3018018  0.034494687   -2.9327496   0.63094777   418189 
 3821000   0.60507027   -2.9315527   -2.9315527    -2.300848  0.017828713   -2.9315527   0.63070468   418189 
 3822000    0.6036692   -2.9309236   -2.9309236   -2.3016793  0.032513943   -2.9309236   0.62924426   418189 
 3823000    0.6051502   -2.9326024   -2.9326024   -2.3018144  0.028382985   -2.9326024     0.630788   418189 
 3824000   0.60451058   -2.9310336   -2.9310336   -2.3009123  0.034861339   -2.9310336   0.63012128   418189 
 3825000   0.60642026   -2.9323122   -2.9323122   -2.3002004  0.033535854   -2.9323122   0.63211187   418189 
 3826000   0.60503066   -2.9314714   -2.9314714    -2.300808  0.037156631   -2.9314714    0.6306634   418189 
 3827000   0.60482143   -2.9313397   -2.9313397   -2.3008944  0.034713326   -2.9313397    0.6304453   418189 
 3828000   0.60552098   -2.9318639   -2.9318639   -2.3006894  0.041235246   -2.9318639   0.63117449   418189 
 3829000   0.60466378   -2.9321957   -2.9321957   -2.3019147   0.02754265   -2.9321957   0.63028098   418189 
 3830000   0.60465995   -2.9319499   -2.9319499   -2.3016729  0.048900425   -2.9319499   0.63027698   418189 
 3831000   0.60603169   -2.9331999   -2.9331999   -2.3014931  0.035863181   -2.9331999   0.63170683   418189 
 3832000   0.60540956   -2.9325056   -2.9325056   -2.3014473  0.037042244   -2.9325056   0.63105834   418189 
 3833000   0.60450813   -2.9322437   -2.9322437    -2.302125  0.043781869   -2.9322437   0.63011873   418189 
 3834000   0.60382184   -2.9314424   -2.9314424    -2.302039   0.03203908   -2.9314424   0.62940336   418189 
 3835000   0.60466112   -2.9324234   -2.9324234   -2.3021452  0.024586833   -2.9324234    0.6302782   418189 
 3836000   0.60537123   -2.9334171   -2.9334171   -2.3023987  0.025323006   -2.9334171   0.63101839   418189 
 3837000   0.60548171   -2.9332172   -2.9332172   -2.3020837  0.027626427   -2.9332172   0.63113355   418189 
 3838000   0.60572755   -2.9336838   -2.9336838    -2.302294  0.040528501   -2.9336838   0.63138981   418189 
 3839000   0.60389686   -2.9326006   -2.9326006    -2.303119  0.029008633   -2.9326006   0.62948156   418189 
 3840000   0.60375662   -2.9313157   -2.9313157   -2.3019803  0.027550869   -2.9313157   0.62933538   418189 
 3841000   0.60480357    -2.931956    -2.931956   -2.3015293  0.045989773    -2.931956   0.63042669   418189 
 3842000   0.60473283   -2.9323853   -2.9323853   -2.3020323  0.026246268   -2.9323853   0.63035295   418189 
 3843000   0.60284391   -2.9310497   -2.9310497   -2.3026657  0.030376531   -2.9310497     0.628384   418189 
 3844000   0.60522836   -2.9322438   -2.9322438   -2.3013743  0.035868138   -2.9322438   0.63086947   418189 
 3845000   0.60518645   -2.9323494   -2.9323494   -2.3015237  0.041648349   -2.9323494   0.63082578   418189 
 3846000    0.6043221   -2.9314037   -2.9314037   -2.3014788  0.044233141   -2.9314037   0.62992482   418189 
 3847000   0.60534329    -2.932312    -2.932312   -2.3013228  0.029572686    -2.932312   0.63098927   418189 
 3848000   0.60490758   -2.9315119   -2.9315119   -2.3009768  0.041154424   -2.9315119   0.63053511   418189 
 3849000   0.60436413   -2.9312097   -2.9312097   -2.3012411  0.033189025   -2.9312097   0.62996862   418189 
 3850000   0.60562851   -2.9329164   -2.9329164   -2.3016298  0.024752145   -2.9329164   0.63128658   418189 
 3851000   0.60505783    -2.932761    -2.932761   -2.3020692  0.041308903    -2.932761   0.63069172   418189 
 3852000   0.60445678   -2.9327241   -2.9327241   -2.3026589  0.024327729   -2.9327241   0.63006521   418189 
 3853000   0.60434475   -2.9321786   -2.9321786   -2.3022302  0.032468284   -2.9321786   0.62994842   418189 
 3854000   0.60436327   -2.9319455   -2.9319455   -2.3019778  0.044750474   -2.9319455   0.62996773   418189 
 3855000   0.60444853     -2.93201     -2.93201   -2.3019534  0.046031173     -2.93201    0.6300566   418189 
 3856000   0.60392293   -2.9308165   -2.9308165   -2.3013078  0.024887406   -2.9308165   0.62950873   418189 
 3857000   0.60491327   -2.9313795   -2.9313795   -2.3008384  0.029930887   -2.9313795   0.63054103   418189 
 3858000   0.60612781   -2.9325481   -2.9325481   -2.3007411  0.033280332   -2.9325481   0.63180703   418189 
 3859000   0.60544578   -2.9314747   -2.9314747   -2.3003786  0.033438922   -2.9314747   0.63109611   418189 
 3860000   0.60516754    -2.932147    -2.932147   -2.3013409  0.038513039    -2.932147   0.63080608   418189 
 3861000   0.60613391   -2.9335594   -2.9335594    -2.301746  0.031226806   -2.9335594   0.63181338   418189 
 3862000   0.60528151   -2.9326004   -2.9326004   -2.3016755  0.032391594   -2.9326004   0.63092487   418189 
 3863000   0.60545924   -2.9332389   -2.9332389   -2.3021287  0.036924044   -2.9332389   0.63111013   418189 
 3864000   0.60477052   -2.9325633   -2.9325633    -2.302171  0.035371644   -2.9325633   0.63039223   418189 
 3865000    0.6033276   -2.9317499   -2.9317499   -2.3028617  0.035516906   -2.9317499   0.62888818   418189 
 3866000    0.6045499    -2.932416    -2.932416   -2.3022538  0.037936351    -2.932416   0.63016227   418189 
 3867000   0.60358572   -2.9316339   -2.9316339   -2.3024766  0.031527247   -2.9316339   0.62915724   418189 
 3868000   0.60414925   -2.9316211   -2.9316211   -2.3018764  0.026551647   -2.9316211   0.62974464   418189 
 3869000   0.60523903    -2.933594    -2.933594   -2.3027134  0.025731389    -2.933594    0.6308806   418189 
 3870000   0.60509144   -2.9332232   -2.9332232   -2.3024964  0.030922995   -2.9332232   0.63072675   418189 
 3871000   0.60488873   -2.9335083   -2.9335083   -2.3029928  0.028711233   -2.9335083   0.63051545   418189 
 3872000   0.60304875   -2.9321561   -2.9321561   -2.3035585  0.037269058   -2.9321561   0.62859752   418189 
 3873000   0.60612655   -2.9337529   -2.9337529   -2.3019472  0.028169587   -2.9337529   0.63180571   418189 
 3874000   0.60571207   -2.9331656   -2.9331656   -2.3017919  0.032763553   -2.9331656   0.63137367   418189 
 3875000   0.60526497   -2.9323482   -2.9323482   -2.3014406  0.030901528   -2.9323482   0.63090764   418189 
 3876000   0.60609167   -2.9339987   -2.9339987   -2.3022294  0.038563973   -2.9339987   0.63176936   418189 
 3877000   0.60600016   -2.9338612   -2.9338612   -2.3021873  0.032127497   -2.9338612   0.63167397   418189 
 3878000   0.60663679    -2.934635    -2.934635   -2.3022974  0.027814229    -2.934635   0.63233757   418189 
 3879000   0.60404671   -2.9324039   -2.9324039   -2.3027662  0.041676925   -2.9324039   0.62963776   418189 
 3880000   0.60488429   -2.9341657   -2.9341657   -2.3036549  0.033649149   -2.9341657   0.63051082   418189 
 3881000   0.60410387   -2.9335361   -2.9335361   -2.3038388   0.02296083   -2.9335361   0.62969735   418189 
 3882000   0.60258687   -2.9313265   -2.9313265   -2.3032105  0.029776718   -2.9313265   0.62811607   418189 
 3883000   0.60429874   -2.9328992   -2.9328992   -2.3029987  0.036054471   -2.9328992   0.62990046   418189 
 3884000   0.60501783   -2.9335311   -2.9335311    -2.302881  0.039965341   -2.9335311   0.63065002   418189 
 3885000   0.60422996   -2.9325994   -2.9325994   -2.3027707  0.034006982   -2.9325994   0.62982877   418189 
 3886000   0.60402481    -2.932323    -2.932323    -2.302708  0.024310572    -2.932323   0.62961493   418189 
 3887000   0.60489226   -2.9335825   -2.9335825   -2.3030634  0.039237696   -2.9335825   0.63051914   418189 
 3888000   0.60583391   -2.9341926   -2.9341926   -2.3026919  0.031634097   -2.9341926   0.63150067   418189 
 3889000   0.60510067   -2.9329694   -2.9329694   -2.3022331   0.03199082   -2.9329694   0.63073637   418189 
 3890000   0.60482837    -2.933043    -2.933043   -2.3025904  0.040809309    -2.933043   0.63045254   418189 
 3891000   0.60449294   -2.9321542   -2.9321542   -2.3020513  0.026661053   -2.9321542    0.6301029   418189 
 3892000   0.60537318   -2.9322857   -2.9322857   -2.3012653  0.039383505   -2.9322857   0.63102043   418189 
 3893000   0.60563172   -2.9333665   -2.9333665   -2.3020766  0.035748949   -2.9333665   0.63128992   418189 
 3894000   0.60364561   -2.9314595   -2.9314595   -2.3022398  0.037659938   -2.9314595   0.62921966   418189 
 3895000   0.60522908    -2.933051    -2.933051   -2.3021808   0.02736487    -2.933051   0.63087022   418189 
 3896000   0.60467088   -2.9323614   -2.9323614    -2.302073  0.027207271   -2.9323614   0.63028837   418189 
 3897000   0.60484567   -2.9334078   -2.9334078   -2.3029373  0.031821289   -2.9334078   0.63047056   418189 
 3898000   0.60467828    -2.933283    -2.933283    -2.302987  0.039416515    -2.933283   0.63029609   418189 
 3899000   0.60435999   -2.9328216   -2.9328216   -2.3028573   0.03867457   -2.9328216   0.62996431   418189 
 3900000   0.60434202   -2.9327124   -2.9327124   -2.3027669  0.045275064   -2.9327124   0.62994558   418189 
 3901000   0.60366087   -2.9324579   -2.9324579   -2.3032223  0.030430369   -2.9324579   0.62923557   418189 
 3902000   0.60342173   -2.9323685   -2.9323685   -2.3033822  0.031566623   -2.9323685    0.6289863   418189 
 3903000   0.60576242   -2.9348998   -2.9348998   -2.3034737  0.031172379   -2.9348998   0.63142616   418189 
 3904000   0.60438402   -2.9336872   -2.9336872   -2.3036979  0.035282739   -2.9336872   0.62998936   418189 
 3905000   0.60443704   -2.9333573   -2.9333573   -2.3033127  0.032670627   -2.9333573   0.63004462   418189 
 3906000   0.60550604   -2.9342057   -2.9342057   -2.3030468  0.040236405   -2.9342057   0.63115891   418189 
 3907000    0.6048195    -2.933347    -2.933347   -2.3029037  0.033117883    -2.933347   0.63044329   418189 
 3908000   0.60573794   -2.9343881   -2.9343881   -2.3029874  0.030220255   -2.9343881   0.63140064   418189 
 3909000   0.60578674   -2.9346748   -2.9346748   -2.3032233  0.034799139   -2.9346748   0.63145151   418189 
 3910000   0.60536857   -2.9336438   -2.9336438   -2.3026282  0.032148546   -2.9336438   0.63101562   418189 
 3911000   0.60443312   -2.9337035   -2.9337035   -2.3036629  0.027446853   -2.9337035   0.63004054   418189 
 3912000   0.60487703   -2.9336057   -2.9336057   -2.3031024  0.029599423   -2.9336057   0.63050326   418189 
 3913000   0.60441126   -2.9336099   -2.9336099   -2.3035922   0.03274521   -2.9336099   0.63001775   418189 
 3914000   0.60454181   -2.9342875   -2.9342875   -2.3041336  0.033405675   -2.9342875   0.63015384   418189 
 3915000   0.60478544    -2.934243    -2.934243   -2.3038352   0.04073895    -2.934243   0.63040779   418189 
 3916000   0.60556987    -2.934845    -2.934845   -2.3036195  0.029703779    -2.934845   0.63122545   418189 
 3917000   0.60351286   -2.9328581   -2.9328581   -2.3037768  0.040897226   -2.9328581    0.6290813   418189 
 3918000    0.6035251    -2.933364    -2.933364   -2.3042699  0.035661164    -2.933364   0.62909405   418189 
 3919000   0.60491421   -2.9358419   -2.9358419   -2.3052999  0.037635881   -2.9358419   0.63054201   418189 
 3920000   0.60496611   -2.9357411   -2.9357411    -2.305145  0.030434814   -2.9357411   0.63059611   418189 
 3921000    0.6044449   -2.9346096   -2.9346096   -2.3045568  0.034608262   -2.9346096   0.63005282   418189 
 3922000   0.60385439   -2.9347113   -2.9347113    -2.305274  0.035877468   -2.9347113   0.62943729   418189 
 3923000   0.60252378   -2.9336876   -2.9336876   -2.3056373  0.030491225   -2.9336876   0.62805031   418189 
 3924000   0.60341676   -2.9338614   -2.9338614   -2.3048802  0.020442922   -2.9338614   0.62898112   418189 
 3925000    0.6054804   -2.9357715   -2.9357715   -2.3046393  0.028024022   -2.9357715   0.63113219   418189 
 3926000   0.60550418   -2.9363065   -2.9363065   -2.3051495  0.028736589   -2.9363065   0.63115697   418189 
 3927000   0.60573013   -2.9363913   -2.9363913   -2.3049988  0.029668779   -2.9363913    0.6313925   418189 
 3928000   0.60616752   -2.9362373   -2.9362373   -2.3043889  0.042282713   -2.9362373   0.63184842   418189 
 3929000   0.60647003   -2.9358892   -2.9358892   -2.3037254  0.035010262   -2.9358892   0.63216375   418189 
 3930000   0.60560769   -2.9353053   -2.9353053   -2.3040405  0.024467964   -2.9353053   0.63126487   418189 
 3931000   0.60481208   -2.9354945   -2.9354945   -2.3050589  0.033717495   -2.9354945   0.63043556   418189 
 3932000   0.60499467   -2.9359809   -2.9359809    -2.305355  0.041055467   -2.9359809   0.63062588   418189 
 3933000   0.60429876   -2.9350941   -2.9350941   -2.3051936   0.02318229   -2.9350941   0.62990048   418189 
 3934000   0.60464849   -2.9353071   -2.9353071   -2.3050421   0.03120721   -2.9353071   0.63026503   418189 
 3935000   0.60435592   -2.9347741   -2.9347741    -2.304814   0.02600103   -2.9347741   0.62996007   418189 
 3936000    0.6038814   -2.9347986   -2.9347986   -2.3053332   0.02711315   -2.9347986   0.62946545   418189 
 3937000   0.60491745   -2.9362202   -2.9362202   -2.3056748  0.033996685   -2.9362202   0.63054539   418189 
 3938000   0.60457176   -2.9354154   -2.9354154   -2.3052303  0.024942373   -2.9354154   0.63018506   418189 
 3939000   0.60410827   -2.9352769   -2.9352769    -2.305575  0.034960541   -2.9352769   0.62970193   418189 
 3940000   0.60462634   -2.9355718   -2.9355718   -2.3053298  0.033444139   -2.9355718   0.63024195   418189 
 3941000   0.60429119   -2.9348979   -2.9348979   -2.3050053  0.043155794   -2.9348979    0.6298926   418189 
 3942000   0.60337735   -2.9342783   -2.9342783   -2.3053383  0.036051535   -2.9342783   0.62894004   418189 
 3943000   0.60423401   -2.9341338   -2.9341338   -2.3043008  0.032628351   -2.9341338     0.629833   418189 
 3944000   0.60624003   -2.9361929   -2.9361929   -2.3042689  0.037227579   -2.9361929   0.63192401   418189 
 3945000   0.60281031   -2.9330964   -2.9330964   -2.3047474  0.044143745   -2.9330964   0.62834898   418189 
 3946000   0.60530094   -2.9359183   -2.9359183   -2.3049731   0.02320719   -2.9359183   0.63094513   418189 
 3947000   0.60459006   -2.9350068   -2.9350068   -2.3048026  0.040159453   -2.9350068   0.63020413   418189 
 3948000   0.60430869   -2.9352159   -2.9352159    -2.305305  0.033718204   -2.9352159   0.62991084   418189 
 3949000    0.6050331   -2.9353381   -2.9353381   -2.3046722  0.034865538   -2.9353381   0.63066594   418189 
 3950000   0.60543662   -2.9359084   -2.9359084   -2.3048219  0.021180478   -2.9359084   0.63108655   418189 
 3951000   0.60553962   -2.9362379   -2.9362379   -2.3050439  0.032521387   -2.9362379   0.63119392   418189 
 3952000    0.6038662   -2.9342349   -2.9342349   -2.3047853  0.038272566   -2.9342349    0.6294496   418189 
 3953000   0.60394959     -2.93418     -2.93418   -2.3046434  0.026417825     -2.93418   0.62953652   418189 
 3954000   0.60418398     -2.93503     -2.93503   -2.3052492  0.023751755     -2.93503   0.62978084   418189 
 3955000   0.60308591   -2.9339518   -2.9339518   -2.3053156  0.029438647   -2.9339518   0.62863625   418189 
 3956000   0.60417523   -2.9349766   -2.9349766   -2.3052049   0.03510402   -2.9349766   0.62977172   418189 
 3957000     0.603359   -2.9338935   -2.9338935   -2.3049726   0.03024559   -2.9338935   0.62892091   418189 
 3958000   0.60498802   -2.9351856   -2.9351856   -2.3045667  0.034022348   -2.9351856   0.63061895   418189 
 3959000   0.60435535   -2.9348816   -2.9348816   -2.3049221  0.034704015   -2.9348816   0.62995947   418189 
 3960000   0.60448125   -2.9359582   -2.9359582   -2.3058675  0.026546271   -2.9359582   0.63009071   418189 
 3961000   0.60408319   -2.9344882   -2.9344882   -2.3048124  0.031948434   -2.9344882   0.62967579   418189 
 3962000   0.60405603   -2.9344452   -2.9344452   -2.3047977  0.033161817   -2.9344452   0.62964747   418189 
 3963000   0.60565506   -2.9360047   -2.9360047   -2.3046904  0.022929448   -2.9360047   0.63131425   418189 
 3964000   0.60581883   -2.9365678   -2.9365678   -2.3050828  0.035147964   -2.9365678   0.63148496   418189 
 3965000   0.60498606   -2.9355726   -2.9355726   -2.3049557  0.032049872   -2.9355726   0.63061691   418189 
 3966000   0.60461067   -2.9353086   -2.9353086    -2.305083   0.03041304   -2.9353086   0.63022562   418189 
 3967000   0.60464784   -2.9349411   -2.9349411   -2.3046767  0.034180862   -2.9349411   0.63026436   418189 
 3968000   0.60454296   -2.9353192   -2.9353192   -2.3051642  0.031392553   -2.9353192   0.63015503   418189 
 3969000   0.60521172   -2.9365656   -2.9365656   -2.3057135  0.035188169   -2.9365656   0.63085212   418189 
 3970000   0.60433349   -2.9354642   -2.9354642   -2.3055275   0.04423473   -2.9354642   0.62993669   418189 
 3971000   0.60495643   -2.9356635   -2.9356635   -2.3050775  0.027588668   -2.9356635   0.63058602   418189 
 3972000   0.60431518    -2.934328    -2.934328   -2.3044104  0.041815967    -2.934328    0.6299176   418189 
 3973000   0.60371421    -2.934724    -2.934724   -2.3054329  0.025201953    -2.934724   0.62929118   418189 
 3974000   0.60403713   -2.9349548   -2.9349548    -2.305327  0.039940751   -2.9349548   0.62962777   418189 
 3975000   0.60361216   -2.9343461   -2.9343461   -2.3051613  0.041913162   -2.9343461    0.6291848   418189 
 3976000   0.60401233   -2.9345335   -2.9345335   -2.3049316  0.036590164   -2.9345335   0.62960193   418189 
 3977000   0.60528835   -2.9364728   -2.9364728   -2.3055408  0.030672938   -2.9364728   0.63093201   418189 
 3978000    0.6055977   -2.9357754   -2.9357754   -2.3045209  0.041707734   -2.9357754   0.63125445   418189 
 3979000   0.60475484   -2.9351159   -2.9351159     -2.30474  0.030596859   -2.9351159   0.63037589   418189 
 3980000   0.60488381   -2.9355038   -2.9355038   -2.3049935 0.0095480975   -2.9355038   0.63051032   418189 
 3981000   0.60462489   -2.9355556   -2.9355556   -2.3053151  0.033538015   -2.9355556   0.63024044   418189 
 3982000   0.60402618    -2.933933    -2.933933   -2.3043166  0.034222072    -2.933933   0.62961636   418189 
 3983000    0.6046419   -2.9347471   -2.9347471   -2.3044889  0.034909232   -2.9347471   0.63025817   418189 
 3984000   0.60479807   -2.9351253   -2.9351253   -2.3047043  0.039183571   -2.9351253   0.63042095   418189 
 3985000   0.60549021   -2.9363459   -2.9363459   -2.3052035  0.038340586   -2.9363459   0.63114241   418189 
 3986000   0.60498236   -2.9355373   -2.9355373   -2.3049243  0.028060015   -2.9355373   0.63061305   418189 
 3987000   0.60519088   -2.9354097   -2.9354097   -2.3045793  0.025983887   -2.9354097   0.63083041   418189 
 3988000    0.6052313   -2.9358744   -2.9358744   -2.3050019  0.029608911   -2.9358744   0.63087254   418189 
 3989000   0.60431886   -2.9350252   -2.9350252   -2.3051038  0.042988055   -2.9350252   0.62992144   418189 
 3990000   0.60403151   -2.9345454   -2.9345454   -2.3049235  0.040772136   -2.9345454   0.62962191   418189 
 3991000   0.60606316   -2.9370232   -2.9370232   -2.3052836  0.043409529   -2.9370232   0.63173964   418189 
 3992000   0.60349442   -2.9350126   -2.9350126   -2.3059505  0.021792283   -2.9350126   0.62906207   418189 
 3993000   0.60427215   -2.9349932   -2.9349932   -2.3051205  0.048489076   -2.9349932   0.62987275   418189 
 3994000   0.60385779   -2.9355913   -2.9355913   -2.3061505  0.033298046   -2.9355913   0.62944083   418189 
 3995000   0.60405345   -2.9357315   -2.9357315   -2.3060867  0.030322558   -2.9357315   0.62964478   418189 
 3996000   0.60351124   -2.9354837   -2.9354837   -2.3064041  0.020762094   -2.9354837    0.6290796   418189 
 3997000   0.60480061    -2.936061    -2.936061   -2.3056374  0.037210918    -2.936061    0.6304236   418189 
 3998000   0.60517978   -2.9365223   -2.9365223   -2.3057035  0.034544955   -2.9365223   0.63081884   418189 
 3999000   0.60483748   -2.9353906   -2.9353906   -2.3049285  0.038448119   -2.9353906   0.63046203   418189 
 4000000   0.60548074   -2.9367995   -2.9367995    -2.305667  0.038779622   -2.9367995   0.63113254   418189 
 4001000    0.6045186   -2.9369673   -2.9369673   -2.3068376   0.04160563   -2.9369673   0.63012964   418189 
 4002000   0.60564279    -2.937455    -2.937455   -2.3061535  0.046022037    -2.937455   0.63130146   418189 
 4003000    0.6045347   -2.9366857   -2.9366857   -2.3065392  0.030489966   -2.9366857   0.63014642   418189 
 4004000   0.60453086   -2.9370637   -2.9370637   -2.3069213  0.030078883   -2.9370637   0.63014242   418189 
 4005000   0.60378384   -2.9358176   -2.9358176   -2.3064539  0.030341716   -2.9358176   0.62936375   418189 
 4006000   0.60429374   -2.9364763   -2.9364763   -2.3065811  0.038954692   -2.9364763   0.62989525   418189 
 4007000   0.60382196   -2.9362854   -2.9362854   -2.3068819  0.034806677   -2.9362854   0.62940349   418189 
 4008000    0.6036342   -2.9356637   -2.9356637   -2.3064559  0.032863558   -2.9356637   0.62920777   418189 
 4009000   0.60529058   -2.9366276   -2.9366276   -2.3056932  0.026628215   -2.9366276   0.63093433   418189 
 4010000   0.60428959   -2.9359723   -2.9359723   -2.3060814  0.044029058   -2.9359723   0.62989093   418189 
 4011000   0.60412232   -2.9363033   -2.9363033   -2.3065867  0.026924018   -2.9363033   0.62971658   418189 
 4012000   0.60527949   -2.9366645   -2.9366645   -2.3057417  0.029072417   -2.9366645   0.63092277   418189 
 4013000   0.60542816   -2.9371925   -2.9371925   -2.3061148  0.025716413   -2.9371925   0.63107774   418189 
 4014000   0.60495906   -2.9370086   -2.9370086   -2.3064199  0.031482354   -2.9370086   0.63058876   418189 
 4015000   0.60431343   -2.9366794   -2.9366794   -2.3067637  0.029620756   -2.9366794   0.62991578   418189 
 4016000   0.60482837   -2.9372858   -2.9372858   -2.3068333  0.025257294   -2.9372858   0.63045253   418189 
 4017000   0.60394761   -2.9361333   -2.9361333   -2.3065989  0.036566408   -2.9361333   0.62953446   418189 
 4018000   0.60247569   -2.9341127   -2.9341127   -2.3061126  0.038829495   -2.9341127   0.62800018   418189 
 4019000   0.60508167   -2.9370289   -2.9370289   -2.3063124  0.031337621   -2.9370289   0.63071657   418189 
 4020000   0.60413607   -2.9361501   -2.9361501   -2.3064192  0.045351125   -2.9361501   0.62973091   418189 
 4021000   0.60497883   -2.9368378   -2.9368378   -2.3062284  0.032284179   -2.9368378   0.63060937   418189 
 4022000   0.60544469   -2.9371679   -2.9371679   -2.3060729  0.046214672   -2.9371679   0.63109497   418189 
 4023000   0.60460531   -2.9369405   -2.9369405   -2.3067204  0.041370467   -2.9369405   0.63022002   418189 
 4024000   0.60564861   -2.9376462   -2.9376462   -2.3063387  0.026167732   -2.9376462   0.63130752   418189 
 4025000   0.60307966   -2.9351449   -2.9351449   -2.3065152  0.030360105   -2.9351449   0.62862974   418189 
 4026000   0.60438588   -2.9360203   -2.9360203   -2.3060289  0.034276782   -2.9360203    0.6299913   418189 
 4027000   0.60592814   -2.9380091   -2.9380091   -2.3064102  0.027633962   -2.9380091    0.6315989   418189 
 4028000   0.60522166   -2.9376342   -2.9376342   -2.3067717  0.023566285   -2.9376342   0.63086249   418189 
 4029000   0.60500865   -2.9375002   -2.9375002   -2.3068598  0.039653503   -2.9375002   0.63064045   418189 
 4030000   0.60446529   -2.9375884   -2.9375884   -2.3075144  0.029170148   -2.9375884   0.63007407   418189 
 4031000   0.60522324   -2.9375168   -2.9375168   -2.3066527  0.025828331   -2.9375168   0.63086414   418189 
 4032000   0.60383991   -2.9361841   -2.9361841   -2.3067619  0.020437617   -2.9361841   0.62942219   418189 
 4033000   0.60300126   -2.9356977   -2.9356977   -2.3071497  0.034928238   -2.9356977   0.62854802   418189 
 4034000   0.60434647   -2.9370922   -2.9370922    -2.307142  0.032138665   -2.9370922   0.62995022   418189 
 4035000   0.60382192   -2.9373327   -2.9373327   -2.3079292  0.026730168   -2.9373327   0.62940345   418189 
 4036000    0.6048354   -2.9381064   -2.9381064   -2.3076465  0.035105893   -2.9381064   0.63045986   418189 
 4037000   0.60503934   -2.9382614   -2.9382614    -2.307589   0.01899923   -2.9382614   0.63067245   418189 
 4038000   0.60384705   -2.9375612   -2.9375612   -2.3081315  0.028457502   -2.9375612   0.62942964   418189 
 4039000   0.60566279     -2.93942     -2.93942   -2.3080977  0.036259849     -2.93942   0.63132231   418189 
 4040000   0.60550123   -2.9391577   -2.9391577   -2.3080038  0.033192827   -2.9391577   0.63115391   418189 
 4041000   0.60428722   -2.9377108   -2.9377108   -2.3078224  0.024078883   -2.9377108   0.62988846   418189 
 4042000   0.60513473   -2.9385323   -2.9385323   -2.3077605  0.036447958   -2.9385323   0.63077187   418189 
 4043000   0.60457708   -2.9375979   -2.9375979   -2.3074073  0.033872209   -2.9375979    0.6301906   418189 
 4044000   0.60309997   -2.9360299   -2.9360299    -2.307379  0.033233321   -2.9360299   0.62865091   418189 
 4045000   0.60335508   -2.9359179   -2.9359179   -2.3070011  0.027049891   -2.9359179   0.62891683   418189 
 4046000   0.60401037    -2.935915    -2.935915   -2.3063151  0.028276194    -2.935915   0.62959988   418189 
 4047000   0.60233544   -2.9332781   -2.9332781   -2.3054241  0.030175383   -2.9332781   0.62785399   418189 
 4048000   0.60462474   -2.9348235   -2.9348235   -2.3045832  0.029111704   -2.9348235   0.63024028   418189 
 4049000   0.60434701   -2.9348578   -2.9348578   -2.3049071  0.037586802   -2.9348578   0.62995079   418189 
 4050000   0.60412242    -2.934516    -2.934516   -2.3047993  0.034739023    -2.934516   0.62971668   418189 
 4051000    0.6032231   -2.9335847   -2.9335847   -2.3048054  0.031668684   -2.9335847   0.62877925   418189 
 4052000   0.60566273   -2.9357114   -2.9357114   -2.3043891  0.026313254   -2.9357114   0.63132225   418189 
 4053000   0.60393818   -2.9343474   -2.9343474   -2.3048228  0.035391784   -2.9343474   0.62952464   418189 
 4054000   0.60421748   -2.9342544   -2.9342544   -2.3044386    0.0146429   -2.9342544   0.62981576   418189 
 4055000   0.60409787   -2.9344172   -2.9344172   -2.3047261   0.02582434   -2.9344172   0.62969108   418189 
 4056000    0.6042837   -2.9350608   -2.9350608    -2.305176  0.040674423   -2.9350608   0.62988479   418189 
 4057000   0.60345433   -2.9343803   -2.9343803     -2.30536  0.032183519   -2.9343803   0.62902028   418189 
 4058000   0.60398679   -2.9359355   -2.9359355   -2.3063602  0.033733445   -2.9359355    0.6295753   418189 
 4059000   0.60370121   -2.9362257   -2.9362257   -2.3069481  0.016688715   -2.9362257   0.62927763   418189 
 4060000   0.60416429   -2.9366421   -2.9366421   -2.3068818  0.042793109   -2.9366421   0.62976032   418189 
 4061000   0.60373056   -2.9361152   -2.9361152   -2.3068069   0.03263049   -2.9361152   0.62930821   418189 
 4062000   0.60500315   -2.9368984   -2.9368984   -2.3062637  0.040023388   -2.9368984   0.63063472   418189 
 4063000   0.60487975   -2.9367982   -2.9367982   -2.3062921  0.032165091   -2.9367982    0.6305061   418189 
 4064000   0.60404156   -2.9358443   -2.9358443   -2.3062119   0.03886663   -2.9358443   0.62963239   418189 
 4065000   0.60451498   -2.9367228   -2.9367228    -2.306597   0.03617264   -2.9367228   0.63012587   418189 
 4066000   0.60518942   -2.9371609   -2.9371609    -2.306332  0.022603522   -2.9371609   0.63082888   418189 
 4067000   0.60484506   -2.9354341   -2.9354341   -2.3049642  0.029666516   -2.9354341   0.63046993   418189 
 4068000   0.60356445   -2.9350456   -2.9350456   -2.3059105   0.02325058   -2.9350456   0.62913506   418189 
 4069000   0.60437213   -2.9357218   -2.9357218   -2.3057449   0.03695493   -2.9357218   0.62997696   418189 
 4070000   0.60245529   -2.9342301   -2.9342301   -2.3062512  0.039565771   -2.9342301   0.62797892   418189 
 4071000   0.60336674   -2.9352209   -2.9352209   -2.3062919  0.022097899   -2.9352209   0.62892898   418189 
 4072000   0.60349449   -2.9350448   -2.9350448   -2.3059826  0.031440525   -2.9350448   0.62906215   418189 
 4073000   0.60479747   -2.9360769   -2.9360769   -2.3056566  0.028811009   -2.9360769   0.63042033   418189 
 4074000   0.60523861   -2.9360801   -2.9360801      -2.3052  0.048698148   -2.9360801   0.63088015   418189 
 4075000   0.60439635   -2.9351788   -2.9351788   -2.3051765  0.040410116   -2.9351788   0.63000221   418189 
 4076000   0.60448882   -2.9351613   -2.9351613   -2.3050627  0.026561227   -2.9351613    0.6300986   418189 
 4077000   0.60452793   -2.9355291   -2.9355291   -2.3053898  0.030343951   -2.9355291   0.63013937   418189 
 4078000   0.60298059   -2.9346972   -2.9346972   -2.3061707  0.037854814   -2.9346972   0.62852647   418189 
 4079000   0.60381116   -2.9359951   -2.9359951   -2.3066028  0.029175641   -2.9359951   0.62939223   418189 
 4080000   0.60376712   -2.9364203   -2.9364203    -2.307074  0.043485422   -2.9364203   0.62934633   418189 
 4081000   0.60417061   -2.9369778   -2.9369778   -2.3072109  0.033828873   -2.9369778   0.62976691   418189 
 4082000    0.6040098   -2.9367788   -2.9367788   -2.3071795   0.04146476   -2.9367788   0.62959928   418189 
 4083000   0.60353872   -2.9365668   -2.9365668   -2.3074586  0.029163879   -2.9365668   0.62910825   418189 
 4084000   0.60273318   -2.9354098   -2.9354098   -2.3071412  0.022567988   -2.9354098   0.62826858   418189 
 4085000   0.60362486   -2.9357674   -2.9357674   -2.3065693  0.031653691   -2.9357674   0.62919804   418189 
 4086000   0.60290579   -2.9353315   -2.9353315    -2.306883  0.018715625   -2.9353315    0.6284485   418189 
 4087000   0.60492494   -2.9370186   -2.9370186   -2.3064654  0.035175569   -2.9370186   0.63055319   418189 
 4088000   0.60375199   -2.9358842   -2.9358842   -2.3065536  0.037242447   -2.9358842   0.62933056   418189 
 4089000   0.60514344   -2.9375156   -2.9375156   -2.3067347  0.023971822   -2.9375156   0.63078095   418189 
 4090000   0.60405447    -2.936403    -2.936403   -2.3067572  0.035863062    -2.936403   0.62964585   418189 
 4091000   0.60441871   -2.9377345   -2.9377345    -2.307709  0.031081479   -2.9377345   0.63002552   418189 
 4092000   0.60476149   -2.9380258   -2.9380258   -2.3076429  0.026455405   -2.9380258   0.63038283   418189 
 4093000   0.60454516   -2.9375171   -2.9375171   -2.3073598  0.035224897   -2.9375171   0.63015733   418189 
 4094000   0.60397148    -2.936879    -2.936879   -2.3073197  0.030923455    -2.936879   0.62955934   418189 
 4095000   0.60375494   -2.9371298   -2.9371298   -2.3077961  0.043825497   -2.9371298   0.62933363   418189 
 4096000   0.60339487   -2.9375694   -2.9375694   -2.3086111  0.029204307   -2.9375694   0.62895831   418189 
 4097000   0.60273143   -2.9373761   -2.9373761   -2.3091093  0.031970035   -2.9373761   0.62826676   418189 
 4098000   0.60371317   -2.9375718   -2.9375718   -2.3082817  0.022568985   -2.9375718   0.62929009   418189 
 4099000   0.60324129   -2.9378187   -2.9378187   -2.3090205  0.042209936   -2.9378187   0.62879821   418189 
 4100000   0.60509045    -2.939501    -2.939501   -2.3087753  0.039656544    -2.939501   0.63072572   418189 
 4101000   0.60363434   -2.9381373   -2.9381373   -2.3089294  0.029693208   -2.9381373   0.62920792   418189 
 4102000   0.60443246   -2.9385372   -2.9385372   -2.3084974  0.033461895   -2.9385372   0.63003986   418189 
 4103000   0.60339139   -2.9374677   -2.9374677    -2.308513  0.036709827   -2.9374677   0.62895468   418189 
 4104000   0.60399971   -2.9381552   -2.9381552   -2.3085665  0.030232805   -2.9381552   0.62958877   418189 
 4105000   0.60362902   -2.9381244   -2.9381244    -2.308922  0.034837638   -2.9381244   0.62920238   418189 
 4106000   0.60359666   -2.9381005   -2.9381005   -2.3089319   0.03544643   -2.9381005   0.62916864   418189 
 4107000   0.60452947   -2.9386721   -2.9386721   -2.3085311  0.034270018   -2.9386721   0.63014097   418189 
 4108000   0.60400252   -2.9382664   -2.9382664   -2.3086747   0.04044968   -2.9382664   0.62959169   418189 
 4109000   0.60409623   -2.9384475   -2.9384475   -2.3087581  0.032371558   -2.9384475   0.62968938   418189 
 4110000   0.60530717   -2.9384196   -2.9384196    -2.307468  0.038304516   -2.9384196   0.63095162   418189 
 4111000   0.60527053   -2.9391745   -2.9391745   -2.3082611  0.026409419   -2.9391745   0.63091343   418189 
 4112000   0.60498975   -2.9386484   -2.9386484   -2.3080276  0.021650195   -2.9386484   0.63062076   418189 
 4113000   0.60371679   -2.9377527   -2.9377527   -2.3084589  0.037081837   -2.9377527   0.62929386   418189 
 4114000   0.60397763   -2.9379448   -2.9379448    -2.308379  0.037801187   -2.9379448   0.62956576   418189 
 4115000   0.60508664   -2.9393498   -2.9393498    -2.308628  0.033455363   -2.9393498   0.63072174   418189 
 4116000   0.60363883   -2.9378689   -2.9378689   -2.3086563   0.03973064   -2.9378689    0.6292126   418189 
 4117000   0.60533533   -2.9398862   -2.9398862   -2.3089052  0.027000658   -2.9398862   0.63098097   418189 
 4118000   0.60505095   -2.9389331   -2.9389331   -2.3082486  0.028927618   -2.9389331   0.63068455   418189 
 4119000    0.6033206   -2.9378413   -2.9378413   -2.3089604  0.038662272   -2.9378413   0.62888088   418189 
 4120000   0.60331621   -2.9387405   -2.9387405   -2.3098641  0.038506059   -2.9387405   0.62887631   418189 
 4121000   0.60340266   -2.9384397   -2.9384397   -2.3094732  0.026214448   -2.9384397   0.62896642   418189 
 4122000   0.60413859   -2.9386117   -2.9386117   -2.3088782  0.036491867   -2.9386117   0.62973353   418189 
 4123000   0.60375048   -2.9387057   -2.9387057   -2.3093767  0.034701666   -2.9387057   0.62932898   418189 
 4124000    0.6030411   -2.9376693   -2.9376693   -2.3090798  0.028964561   -2.9376693   0.62858955   418189 
 4125000   0.60322374   -2.9377861   -2.9377861   -2.3090062  0.045111612   -2.9377861   0.62877992   418189 
 4126000   0.60298746   -2.9371633   -2.9371633   -2.3086297  0.036602912   -2.9371633   0.62853363   418189 
 4127000   0.60234046   -2.9373136   -2.9373136   -2.3094544  0.038173579   -2.9373136   0.62785922   418189 
 4128000   0.60162806    -2.936821    -2.936821   -2.3097044  0.019869729    -2.936821   0.62711664   418189 
 4129000   0.60369208   -2.9382569   -2.9382569   -2.3089888   0.02505536   -2.9382569   0.62926811   418189 
 4130000   0.60397089   -2.9377894   -2.9377894   -2.3082306  0.030055488   -2.9377894   0.62955873   418189 
 4131000   0.60436177   -2.9380363   -2.9380363   -2.3080701  0.047797218   -2.9380363   0.62996617   418189 
 4132000   0.60323795    -2.936948    -2.936948   -2.3081533  0.033866175    -2.936948   0.62879474   418189 
 4133000   0.60424844   -2.9382536   -2.9382536   -2.3084056  0.023586108   -2.9382536   0.62984804   418189 
 4134000    0.6037359   -2.9384828   -2.9384828    -2.309169  0.032694639   -2.9384828   0.62931379   418189 
 4135000    0.6032891   -2.9378164   -2.9378164   -2.3089683  0.032534414   -2.9378164   0.62884805   418189 
 4136000   0.60446882   -2.9395337   -2.9395337    -2.309456  0.032638377   -2.9395337   0.63007775   418189 
 4137000    0.6052144   -2.9402925   -2.9402925   -2.3094376  0.028603287   -2.9402925   0.63085492   418189 
 4138000   0.60432222   -2.9393473   -2.9393473   -2.3094223  0.037360516   -2.9393473   0.62992494   418189 
 4139000   0.60397539   -2.9387829   -2.9387829   -2.3092195  0.026189942   -2.9387829   0.62956341   418189 
 4140000   0.60338517   -2.9384297   -2.9384297   -2.3094816   0.04613856   -2.9384297   0.62894819   418189 
 4141000    0.6032555   -2.9379675   -2.9379675   -2.3091544  0.036614091   -2.9379675   0.62881303   418189 
 4142000   0.60261235   -2.9373376   -2.9373376    -2.309195  0.030988631   -2.9373376   0.62814264   418189 
 4143000   0.60373901   -2.9388316   -2.9388316   -2.3095146  0.033506755   -2.9388316   0.62931702   418189 
 4144000   0.60164301   -2.9366688   -2.9366688   -2.3095365  0.029064976   -2.9366688   0.62713223   418189 
 4145000   0.60348954   -2.9392272   -2.9392272   -2.3101702  0.034343984   -2.9392272   0.62905699   418189 
 4146000   0.60300294   -2.9381402   -2.9381402   -2.3095904  0.028537187   -2.9381402   0.62854977   418189 
 4147000   0.60409498   -2.9392646   -2.9392646   -2.3095765   0.02349825   -2.9392646   0.62968808   418189 
 4148000   0.60368612   -2.9384554   -2.9384554   -2.3091935  0.046530633   -2.9384554    0.6292619   418189 
 4149000   0.60315457   -2.9376612   -2.9376612   -2.3089534   0.03510592   -2.9376612   0.62870782   418189 
 4150000   0.60387765    -2.939154    -2.939154   -2.3096925  0.034458511    -2.939154   0.62946154   418189 
 4151000   0.60214243   -2.9380978   -2.9380978    -2.310445  0.039867283   -2.9380978    0.6276528   418189 
 4152000   0.60314364   -2.9393815   -2.9393815   -2.3106851  0.024285963   -2.9393815   0.62869643   418189 
 4153000   0.60369786   -2.9394367   -2.9394367   -2.3101625  0.022335766   -2.9394367   0.62927413   418189 
 4154000   0.60402472   -2.9401081   -2.9401081   -2.3104932  0.025325083   -2.9401081   0.62961484   418189 
 4155000   0.60352977   -2.9390782   -2.9390782   -2.3099792  0.029750057   -2.9390782   0.62909892   418189 
 4156000   0.60401546   -2.9394231   -2.9394231   -2.3098179  0.021884225   -2.9394231   0.62960519   418189 
 4157000   0.60294553   -2.9389743   -2.9389743   -2.3104843   0.03206877   -2.9389743   0.62848993   418189 
 4158000   0.60272151   -2.9382482   -2.9382482   -2.3099918  0.041239937   -2.9382482   0.62825642   418189 
 4159000   0.60181887   -2.9375095   -2.9375095   -2.3101939  0.028327015   -2.9375095   0.62731554   418189 
 4160000   0.60377317   -2.9387927   -2.9387927   -2.3094401  0.023215457   -2.9387927   0.62935263   418189 
 4161000   0.60338326   -2.9383354   -2.9383354   -2.3093892  0.030764625   -2.9383354    0.6289462   418189 
 4162000   0.60409693   -2.9392905   -2.9392905   -2.3096004  0.033090972   -2.9392905    0.6296901   418189 
 4163000   0.60445921   -2.9388962   -2.9388962   -2.3088285  0.028697804   -2.9388962   0.63006773   418189 
 4164000   0.60469601   -2.9396702   -2.9396702   -2.3093556  0.039179916   -2.9396702   0.63031457   418189 
 4165000   0.60544082   -2.9402029   -2.9402029   -2.3091119  0.040607923   -2.9402029   0.63109094   418189 
 4166000   0.60481538   -2.9400986   -2.9400986   -2.3096596  0.031050108   -2.9400986   0.63043899   418189 
 4167000   0.60363209   -2.9390705   -2.9390705   -2.3098649  0.027576571   -2.9390705   0.62920558   418189 
 4168000   0.60344885   -2.9386269   -2.9386269   -2.3096123  0.046629066   -2.9386269   0.62901457   418189 
 4169000   0.60261941    -2.937918    -2.937918    -2.309768  0.039017502    -2.937918   0.62814999   418189 
 4170000   0.60401297    -2.938428    -2.938428   -2.3088254  0.026606133    -2.938428   0.62960259   418189 
 4171000   0.60475295    -2.938421    -2.938421   -2.3080471  0.023604624    -2.938421   0.63037392   418189 
 4172000    0.6038939   -2.9373545   -2.9373545    -2.307876  0.030513375   -2.9373545   0.62947847   418189 
 4173000   0.60328434   -2.9368959   -2.9368959   -2.3080528  0.033280366   -2.9368959   0.62884309   418189 
 4174000   0.60370423    -2.937622    -2.937622   -2.3083412  0.034066868    -2.937622   0.62928077   418189 
 4175000   0.60286081   -2.9355807   -2.9355807   -2.3071791  0.019949573   -2.9355807   0.62840162   418189 
 4176000   0.60312632   -2.9362214   -2.9362214    -2.307543   0.01697824   -2.9362214   0.62867838   418189 
 4177000   0.60247348   -2.9360769   -2.9360769    -2.308079  0.027329395   -2.9360769   0.62799788   418189 
 4178000   0.60326134    -2.936549    -2.936549   -2.3077299   0.02431443    -2.936549   0.62881912   418189 
 4179000   0.60432269   -2.9373207   -2.9373207   -2.3073953  0.029027205   -2.9373207   0.62992544   418189 
 4180000   0.60385171   -2.9367656   -2.9367656   -2.3073311  0.033594976   -2.9367656    0.6294345   418189 
 4181000   0.60484635    -2.937791    -2.937791   -2.3073197  0.030292261    -2.937791   0.63047128   418189 
 4182000   0.60352466   -2.9371752   -2.9371752   -2.3080816  0.032119794   -2.9371752   0.62909359   418189 
 4183000   0.60418227   -2.9379547   -2.9379547   -2.3081756  0.032975348   -2.9379547   0.62977906   418189 
 4184000   0.60417794   -2.9372234   -2.9372234   -2.3074488  0.040480927   -2.9372234   0.62977455   418189 
 4185000   0.60416136   -2.9377742   -2.9377742   -2.3080169  0.042895782   -2.9377742   0.62975727   418189 
 4186000   0.60281152   -2.9362165   -2.9362165   -2.3078662  0.034404171   -2.9362165   0.62835024   418189 
 4187000   0.60380469   -2.9373947   -2.9373947   -2.3080092  0.034918029   -2.9373947   0.62938549   418189 
 4188000   0.60246241   -2.9361772   -2.9361772   -2.3081909  0.036902733   -2.9361772   0.62798633   418189 
 4189000   0.60365555   -2.9370547   -2.9370547   -2.3078247  0.034007463   -2.9370547   0.62923003   418189 
 4190000   0.60375038   -2.9375062   -2.9375062   -2.3081773  0.031689802   -2.9375062   0.62932887   418189 
 4191000    0.6044136   -2.9374608   -2.9374608   -2.3074406  0.043075906   -2.9374608    0.6300202   418189 
 4192000   0.60432797   -2.9374252   -2.9374252   -2.3074942   0.04210092   -2.9374252   0.62993094   418189 
 4193000   0.60601662   -2.9386993   -2.9386993   -2.3070081  0.041477911   -2.9386993   0.63169113   418189 
 4194000   0.60522028    -2.938239    -2.938239    -2.307378  0.037115654    -2.938239   0.63086105   418189 
 4195000   0.60468174   -2.9378213   -2.9378213   -2.3075216  0.035388971   -2.9378213   0.63029969   418189 
 4196000   0.60359499   -2.9369586   -2.9369586   -2.3077917  0.043755885   -2.9369586    0.6291669   418189 
 4197000   0.60415936   -2.9376505   -2.9376505   -2.3078953  0.023598732   -2.9376505   0.62975518   418189 
 4198000   0.60350134   -2.9368883   -2.9368883    -2.307819  0.043216353   -2.9368883   0.62906929   418189 
 4199000   0.60298716   -2.9360984   -2.9360984   -2.3075651  0.029459204   -2.9360984   0.62853333   418189 
 4200000    0.6037208   -2.9368457   -2.9368457   -2.3075476  0.034069326   -2.9368457   0.62929805   418189 
 4201000   0.60423151    -2.937401    -2.937401   -2.3075707   0.03435968    -2.937401   0.62983039   418189 
 4202000   0.60514744   -2.9384676   -2.9384676   -2.3076825  0.031996462   -2.9384676   0.63078512   418189 
 4203000    0.6044426   -2.9389746   -2.9389746   -2.3089242   0.03573428   -2.9389746   0.63005042   418189 
 4204000   0.60459222    -2.939338    -2.939338   -2.3091316  0.034302596    -2.939338   0.63020638   418189 
 4205000   0.60397434   -2.9392203   -2.9392203    -2.309658  0.028364109   -2.9392203   0.62956233   418189 
 4206000   0.60400496   -2.9389757   -2.9389757   -2.3093815  0.036856574   -2.9389757   0.62959424   418189 
 4207000   0.60341089   -2.9384304   -2.9384304   -2.3094554  0.029098068   -2.9384304     0.628975   418189 
 4208000   0.60294219   -2.9372151   -2.9372151   -2.3087287  0.046138161   -2.9372151   0.62848645   418189 
 4209000   0.60292045   -2.9367417   -2.9367417   -2.3082779   0.02987913   -2.9367417   0.62846379   418189 
 4210000   0.60435418   -2.9379395   -2.9379395   -2.3079812  0.041442593   -2.9379395   0.62995825   418189 
 4211000   0.60588393    -2.939487    -2.939487   -2.3079342  0.027103202    -2.939487   0.63155282   418189 
 4212000    0.6052086    -2.938513    -2.938513   -2.3076641  0.021845164    -2.938513   0.63084887   418189 
 4213000   0.60348093    -2.937864    -2.937864    -2.308816  0.027246507    -2.937864   0.62904801   418189 
 4214000   0.60424159   -2.9389227   -2.9389227   -2.3090818  0.023460177   -2.9389227   0.62984089   418189 
 4215000   0.60488031   -2.9389095   -2.9389095   -2.3084029  0.038093766   -2.9389095   0.63050668   418189 
 4216000   0.60373466    -2.936902    -2.936902   -2.3075895  0.037711072    -2.936902   0.62931249   418189 
 4217000    0.6032258   -2.9374689   -2.9374689   -2.3086868  0.028806861   -2.9374689   0.62878207   418189 
 4218000   0.60427928   -2.9381176   -2.9381176   -2.3082374  0.030258555   -2.9381176   0.62988018   418189 
 4219000    0.6040111    -2.937882    -2.937882   -2.3082814  0.024565806    -2.937882   0.62960064   418189 
 4220000   0.60419449   -2.9375684   -2.9375684   -2.3077766  0.033011071   -2.9375684    0.6297918   418189 
 4221000   0.60302889   -2.9363141   -2.9363141   -2.3077372  0.042784807   -2.9363141   0.62857682   418189 
 4222000   0.60454824   -2.9372063   -2.9372063   -2.3070458  0.031768986   -2.9372063   0.63016054   418189 
 4223000   0.60418524   -2.9373507   -2.9373507   -2.3075685  0.044409814   -2.9373507   0.62978216   418189 
 4224000   0.60474154   -2.9379894   -2.9379894   -2.3076274  0.022781751   -2.9379894   0.63036203   418189 
 4225000   0.60500674   -2.9372942   -2.9372942   -2.3066557  0.030745323   -2.9372942   0.63063846   418189 
 4226000   0.60417874   -2.9369769   -2.9369769   -2.3072016  0.044447318   -2.9369769   0.62977538   418189 
 4227000    0.6043341   -2.9377787   -2.9377787   -2.3078414   0.02647099   -2.9377787   0.62993733   418189 
 4228000   0.60513163   -2.9381812   -2.9381812   -2.3074126  0.036604837   -2.9381812   0.63076865   418189 
 4229000   0.60580683   -2.9389942   -2.9389942   -2.3075218  0.031913627   -2.9389942   0.63147245   418189 
 4230000   0.60396291   -2.9379157   -2.9379157   -2.3083653  0.030483783   -2.9379157   0.62955041   418189 
 4231000   0.60361653   -2.9375713   -2.9375713   -2.3083819  0.034591008   -2.9375713   0.62918935   418189 
 4232000    0.6034669   -2.9380464   -2.9380464    -2.309013  0.038200625   -2.9380464   0.62903339   418189 
 4233000   0.60346707   -2.9377583   -2.9377583   -2.3087247   0.02998453   -2.9377583   0.62903356   418189 
 4234000   0.60431643   -2.9381725   -2.9381725   -2.3082536  0.033606261   -2.9381725    0.6299189   418189 
 4235000   0.60382615   -2.9366448   -2.9366448   -2.3072369  0.033604899   -2.9366448   0.62940786   418189 
 4236000   0.60492502   -2.9378176   -2.9378176   -2.3072643  0.021486322   -2.9378176   0.63055328   418189 
 4237000   0.60668397   -2.9391654   -2.9391654   -2.3067786  0.032422052   -2.9391654   0.63238675   418189 
 4238000   0.60446808   -2.9379066   -2.9379066   -2.3078296  0.025874224   -2.9379066   0.63007699   418189 
 4239000   0.60454937   -2.9375016   -2.9375016   -2.3073399  0.024526367   -2.9375016   0.63016171   418189 
 4240000   0.60400428   -2.9367799   -2.9367799   -2.3071864  0.034407468   -2.9367799   0.62959353   418189 
 4241000   0.60453225   -2.9376004   -2.9376004   -2.3074565   0.03045859   -2.9376004   0.63014387   418189 
 4242000   0.60417959   -2.9379765   -2.9379765   -2.3082002  0.039448996   -2.9379765   0.62977627   418189 
 4243000   0.60297548   -2.9371417   -2.9371417   -2.3086205  0.034311893   -2.9371417   0.62852115   418189 
 4244000   0.60356882   -2.9368907   -2.9368907   -2.3077511  0.030622833   -2.9368907   0.62913962   418189 
 4245000   0.60315678   -2.9359126   -2.9359126   -2.3072025  0.037205585   -2.9359126   0.62871012   418189 
 4246000   0.60379332   -2.9361089   -2.9361089   -2.3067353  0.035482012   -2.9361089   0.62937363   418189 
 4247000   0.60290104   -2.9361093   -2.9361093   -2.3076657  0.025865211   -2.9361093   0.62844355   418189 
 4248000   0.60356902   -2.9361646   -2.9361646   -2.3070248  0.021717559   -2.9361646   0.62913984   418189 
 4249000   0.60300181    -2.935747    -2.935747   -2.3071984   0.03625102    -2.935747   0.62854859   418189 
 4250000   0.60331541    -2.936107    -2.936107   -2.3072316  0.044514797    -2.936107   0.62887548   418189 
 4251000   0.60462165    -2.937906    -2.937906   -2.3076689  0.037397498    -2.937906   0.63023706   418189 
 4252000   0.60401105   -2.9373753   -2.9373753   -2.3077747  0.024490298   -2.9373753   0.62960059   418189 
 4253000    0.6033057   -2.9367338   -2.9367338   -2.3078684  0.028759448   -2.9367338   0.62886536   418189 
 4254000   0.60444581   -2.9367104   -2.9367104   -2.3066566  0.032947089   -2.9367104   0.63005377   418189 
 4255000   0.60388921   -2.9360378   -2.9360378   -2.3065642  0.030686692   -2.9360378   0.62947359   418189 
 4256000   0.60399391   -2.9355856   -2.9355856   -2.3060029  0.043803825   -2.9355856   0.62958272   418189 
 4257000    0.6042749   -2.9364042   -2.9364042   -2.3065286  0.029049823   -2.9364042   0.62987561   418189 
 4258000   0.60321044    -2.935818    -2.935818    -2.307052  0.031571296    -2.935818   0.62876606   418189 
 4259000   0.60204034    -2.934969    -2.934969   -2.3074226  0.034486011    -2.934969   0.62754639   418189 
 4260000   0.60411354   -2.9368601   -2.9368601   -2.3071527  0.025030375   -2.9368601   0.62970742   418189 
 4261000   0.60397442   -2.9369417   -2.9369417   -2.3073793  0.044482894   -2.9369417    0.6295624   418189 
 4262000   0.60286699    -2.935358    -2.935358   -2.3069499  0.029357161    -2.935358   0.62840806   418189 
 4263000   0.60408005   -2.9371123   -2.9371123   -2.3074398  0.032233076   -2.9371123   0.62967251   418189 
 4264000   0.60528075    -2.937769    -2.937769   -2.3068449  0.040767922    -2.937769   0.63092408   418189 
 4265000   0.60384717   -2.9363975   -2.9363975   -2.3069677  0.042862402   -2.9363975   0.62942976   418189 
 4266000   0.60377211   -2.9367566   -2.9367566   -2.3074051  0.029151863   -2.9367566   0.62935153   418189 
 4267000   0.60481891   -2.9373674   -2.9373674   -2.3069248  0.032832729   -2.9373674   0.63044267   418189 
 4268000   0.60300275   -2.9355964   -2.9355964   -2.3070469  0.026355709   -2.9355964   0.62854957   418189 
 4269000   0.60386448   -2.9354642   -2.9354642   -2.3060164  0.030849736   -2.9354642   0.62944781   418189 
 4270000    0.6037845   -2.9358993   -2.9358993   -2.3065349  0.038081159   -2.9358993   0.62936444   418189 
 4271000   0.60249611   -2.9354517   -2.9354517   -2.3074303  0.031359636   -2.9354517   0.62802147   418189 
 4272000   0.60267053   -2.9349078   -2.9349078   -2.3067045  0.037486431   -2.9349078   0.62820327   418189 
 4273000    0.6036997   -2.9364019   -2.9364019   -2.3071258  0.026151971   -2.9364019   0.62927605   418189 
 4274000   0.60462764   -2.9372231   -2.9372231   -2.3069798  0.035826103   -2.9372231    0.6302433   418189 
 4275000   0.60379927   -2.9360525   -2.9360525   -2.3066727  0.039037092   -2.9360525   0.62937984   418189 
 4276000   0.60376032   -2.9361939   -2.9361939   -2.3068547  0.028589266   -2.9361939   0.62933923   418189 
 4277000   0.60473542   -2.9365438   -2.9365438   -2.3061881  0.024500084   -2.9365438   0.63035565   418189 
 4278000   0.60366042   -2.9352031   -2.9352031    -2.305968  0.029563022   -2.9352031   0.62923511   418189 
 4279000   0.60386717   -2.9350427   -2.9350427   -2.3055921  0.037120562   -2.9350427   0.62945061   418189 
 4280000   0.60223474   -2.9342832   -2.9342832   -2.3065342  0.038782188   -2.9342832   0.62774902   418189 
 4281000   0.60432298   -2.9364299   -2.9364299   -2.3065042   0.03609158   -2.9364299   0.62992574   418189 
 4282000   0.60348637   -2.9357178   -2.9357178   -2.3066641  0.044861326   -2.9357178   0.62905368   418189 
 4283000   0.60328616   -2.9352338   -2.9352338   -2.3063888  0.037675311   -2.9352338   0.62884499   418189 
 4284000   0.60299451   -2.9353343   -2.9353343   -2.3067933   0.04901009   -2.9353343   0.62854098   418189 
 4285000   0.60499043   -2.9371447   -2.9371447   -2.3065232  0.035370628   -2.9371447   0.63062146   418189 
 4286000   0.60345577   -2.9354815   -2.9354815   -2.3064597   0.02063294   -2.9354815   0.62902178   418189 
 4287000   0.60456996   -2.9368075   -2.9368075   -2.3066244  0.033111756   -2.9368075   0.63018318   418189 
 4288000   0.60327533   -2.9351589   -2.9351589   -2.3063252  0.041083751   -2.9351589    0.6288337   418189 
 4289000   0.60335175   -2.9359687   -2.9359687   -2.3070554  0.034947838   -2.9359687   0.62891335   418189 
 4290000   0.60350632   -2.9364204   -2.9364204    -2.307346  0.044208028   -2.9364204   0.62907448   418189 
 4291000   0.60306347   -2.9366973   -2.9366973   -2.3080844  0.041246964   -2.9366973   0.62861287   418189 
 4292000   0.60398242   -2.9368592   -2.9368592   -2.3072884  0.038400936   -2.9368592   0.62957074   418189 
 4293000   0.60377814   -2.9366126   -2.9366126   -2.3072548  0.041122641   -2.9366126   0.62935782   418189 
 4294000   0.60498134   -2.9374431   -2.9374431   -2.3068312  0.033848685   -2.9374431   0.63061199   418189 
 4295000   0.60293232   -2.9352418   -2.9352418   -2.3067656  0.024516603   -2.9352418   0.62847616   418189 
 4296000   0.60434387   -2.9372893   -2.9372893   -2.3073418  0.041571039   -2.9372893   0.62994751   418189 
 4297000   0.60304177   -2.9359842   -2.9359842    -2.307394  0.034699762   -2.9359842   0.62859024   418189 
 4298000   0.60219352   -2.9351784   -2.9351784   -2.3074724   0.03205386   -2.9351784   0.62770606   418189 
 4299000   0.60259563   -2.9359103   -2.9359103   -2.3077851  0.033510585   -2.9359103    0.6281252   418189 
 4300000   0.60352935   -2.9366389   -2.9366389   -2.3075404   0.02889063   -2.9366389   0.62909848   418189 
 4301000   0.60322524   -2.9364824   -2.9364824   -2.3077009  0.029793762   -2.9364824   0.62878148   418189 
 4302000    0.6023322    -2.935135    -2.935135   -2.3072844  0.029030694    -2.935135   0.62785062   418189 
 4303000   0.60233656   -2.9356742   -2.9356742    -2.307819  0.031016074   -2.9356742   0.62785516   418189 
 4304000   0.60212874   -2.9349056   -2.9349056   -2.3072671  0.039403488   -2.9349056   0.62763853   418189 
 4305000   0.60429808   -2.9370929   -2.9370929   -2.3071931   0.02210261   -2.9370929   0.62989978   418189 
 4306000   0.60374505   -2.9367714   -2.9367714    -2.307448  0.030538379   -2.9367714   0.62932332   418189 
 4307000   0.60402298   -2.9377262   -2.9377262   -2.3081132  0.029092837   -2.9377262   0.62961302   418189 
 4308000    0.6033265   -2.9365326   -2.9365326   -2.3076456  0.020222769   -2.9365326   0.62888704   418189 
 4309000   0.60399463   -2.9374351   -2.9374351   -2.3078516  0.031985108   -2.9374351   0.62958347   418189 
 4310000   0.60276143   -2.9369698   -2.9369698   -2.3086718  0.036827414   -2.9369698   0.62829803   418189 
 4311000   0.60245751   -2.9360365   -2.9360365   -2.3080552  0.012626295   -2.9360365   0.62798124   418189 
 4312000   0.60429265   -2.9385102   -2.9385102   -2.3086161  0.025563471   -2.9385102   0.62989412   418189 
 4313000   0.60330912   -2.9366411   -2.9366411   -2.3077722   0.03014002   -2.9366411   0.62886892   418189 
 4314000   0.60287257   -2.9373785   -2.9373785   -2.3089646  0.042697198   -2.9373785   0.62841387   418189 
 4315000   0.60219422   -2.9364338   -2.9364338    -2.308727  0.031814013   -2.9364338   0.62770678   418189 
 4316000   0.60195862   -2.9362157   -2.9362157   -2.3087544  0.042263066   -2.9362157   0.62746121   418189 
 4317000   0.60235547   -2.9362092   -2.9362092   -2.3083344  0.037855524   -2.9362092   0.62787487   418189 
 4318000   0.60351871   -2.9371823   -2.9371823    -2.308095  0.043343183   -2.9371823   0.62908739   418189 
 4319000   0.60419625   -2.9384887   -2.9384887   -2.3086951  0.025932022   -2.9384887   0.62979363   418189 
 4320000   0.60209783    -2.936765    -2.936765   -2.3091587  0.036343411    -2.936765   0.62760632   418189 
 4321000   0.60383474   -2.9377152   -2.9377152   -2.3082984  0.029057755   -2.9377152   0.62941681   418189 
 4322000   0.60332092   -2.9379071   -2.9379071   -2.3090259  0.032488582   -2.9379071   0.62888122   418189 
 4323000    0.6041036   -2.9383882   -2.9383882   -2.3086911  0.029365834   -2.9383882   0.62969706   418189 
 4324000   0.60382795   -2.9383859   -2.9383859   -2.3089762  0.029250094   -2.9383859   0.62940973   418189 
 4325000   0.60270752   -2.9372599   -2.9372599    -2.309018  0.028296199   -2.9372599   0.62824183   418189 
 4326000    0.6042272   -2.9379537   -2.9379537   -2.3081278  0.028283793   -2.9379537    0.6298259   418189 
 4327000   0.60436339    -2.938523    -2.938523   -2.3085551  0.043500461    -2.938523   0.62996786   418189 
 4328000   0.60301639    -2.936255    -2.936255   -2.3076913  0.031651303    -2.936255   0.62856379   418189 
 4329000   0.60260265   -2.9353665   -2.9353665    -2.307234  0.028243055   -2.9353665   0.62813252   418189 
 4330000   0.60331455   -2.9363579   -2.9363579   -2.3074833  0.027654217   -2.9363579   0.62887458   418189 
 4331000   0.60136278   -2.9346521   -2.9346521    -2.307812  0.026563827   -2.9346521   0.62684013   418189 
 4332000    0.6027337   -2.9360998   -2.9360998   -2.3078307  0.028614911   -2.9360998   0.62826912   418189 
 4333000   0.60418416   -2.9358277   -2.9358277   -2.3060467    0.0372091   -2.9358277   0.62978104   418189 
 4334000   0.60322416   -2.9352564   -2.9352564    -2.306476  0.033591831   -2.9352564   0.62878037   418189 
 4335000   0.60403827   -2.9366122   -2.9366122   -2.3069832  0.019329511   -2.9366122   0.62962896   418189 
 4336000   0.60443064   -2.9376506   -2.9376506   -2.3076127  0.024380041   -2.9376506   0.63003796   418189 
 4337000   0.60531929   -2.9383215   -2.9383215   -2.3073572  0.024367565   -2.9383215   0.63096425   418189 
 4338000   0.60551527   -2.9379862   -2.9379862   -2.3068177  0.032752897   -2.9379862   0.63116854   418189 
 4339000   0.60367171   -2.9361413   -2.9361413   -2.3068945  0.029909217   -2.9361413   0.62924687   418189 
 4340000   0.60374032   -2.9363263   -2.9363263   -2.3070079  0.023629269   -2.9363263   0.62931839   418189 
 4341000   0.60416797   -2.9370943   -2.9370943   -2.3073301  0.021624171   -2.9370943   0.62976416   418189 
 4342000   0.60283475   -2.9357799   -2.9357799   -2.3074055   0.04189992   -2.9357799   0.62837445   418189 
 4343000   0.60386573   -2.9358397   -2.9358397   -2.3063906  0.026235712   -2.9358397   0.62944911   418189 
 4344000   0.60385918   -2.9358376   -2.9358376   -2.3063953    0.0302624   -2.9358376   0.62944228   418189 
 4345000   0.60383631   -2.9357107   -2.9357107   -2.3062922  0.013171816   -2.9357107   0.62941845   418189 
 4346000    0.6035716   -2.9351553   -2.9351553   -2.3060128  0.028870189   -2.9351553   0.62914252   418189 
 4347000   0.60330709   -2.9355032   -2.9355032   -2.3066364  0.037998889   -2.9355032    0.6288668   418189 
 4348000   0.60577063   -2.9366896   -2.9366896   -2.3052549   0.04429392   -2.9366896   0.63143472   418189 
 4349000   0.60405737   -2.9353854   -2.9353854   -2.3057365  0.035051497   -2.9353854   0.62964887   418189 
 4350000   0.60489879   -2.9359612   -2.9359612   -2.3054353  0.032449803   -2.9359612   0.63052594   418189 
 4351000   0.60430126   -2.9357084   -2.9357084   -2.3058053  0.040470998   -2.9357084   0.62990309   418189 
 4352000    0.6036008   -2.9356309   -2.9356309   -2.3064579  0.023365851   -2.9356309   0.62917296   418189 
 4353000   0.60307155   -2.9348225   -2.9348225   -2.3062012  0.035333904   -2.9348225   0.62862128   418189 
 4354000   0.60427784   -2.9361477   -2.9361477    -2.306269   0.03936563   -2.9361477   0.62987868   418189 
 4355000   0.60423697   -2.9357398   -2.9357398   -2.3059037  0.029472904   -2.9357398   0.62983609   418189 
 4356000   0.60404889   -2.9353051   -2.9353051    -2.305665  0.028643925   -2.9353051   0.62964003   418189 
 4357000   0.60453561   -2.9361734   -2.9361734    -2.306026  0.019243496   -2.9361734   0.63014738   418189 
 4358000   0.60313039   -2.9343513   -2.9343513   -2.3056686  0.028248521   -2.9343513   0.62868262   418189 
 4359000   0.60607149    -2.937393    -2.937393   -2.3056447  0.032027683    -2.937393   0.63174832   418189 
 4360000   0.60375202   -2.9350846   -2.9350846    -2.305754  0.048289882   -2.9350846   0.62933059   418189 
 4361000   0.60542581   -2.9367835   -2.9367835   -2.3057082  0.028734421   -2.9367835   0.63107529   418189 
 4362000   0.60366081   -2.9355582   -2.9355582   -2.3063227  0.038177684   -2.9355582   0.62923551   418189 
 4363000   0.60465701   -2.9364144   -2.9364144   -2.3061405  0.033841441   -2.9364144   0.63027391   418189 
 4364000   0.60480885    -2.936427    -2.936427   -2.3059948  0.036366909    -2.936427   0.63043219   418189 
 4365000   0.60424591   -2.9359151   -2.9359151   -2.3060697  0.035408884   -2.9359151    0.6298454   418189 
 4366000   0.60323874   -2.9351241   -2.9351241   -2.3063285  0.032863139   -2.9351241   0.62879555   418189 
 4367000   0.60389577   -2.9352986   -2.9352986   -2.3058181   0.03806605   -2.9352986   0.62948043   418189 
 4368000   0.60384136   -2.9355057   -2.9355057    -2.306082  0.033632523   -2.9355057   0.62942371   418189 
 4369000   0.60412454   -2.9363205   -2.9363205   -2.3066017  0.030017192   -2.9363205   0.62971889   418189 
 4370000   0.60262737   -2.9354365   -2.9354365   -2.3072782  0.024418579   -2.9354365   0.62815829   418189 
 4371000   0.60299414   -2.9354266   -2.9354266    -2.306886  0.033265054   -2.9354266   0.62854059   418189 
 4372000   0.60369884   -2.9361249   -2.9361249   -2.3068498  0.030342654   -2.9361249   0.62927516   418189 
 4373000   0.60219582   -2.9337274   -2.9337274    -2.306019  0.036556279   -2.9337274   0.62770846   418189 
 4374000   0.60459358    -2.936508    -2.936508   -2.3063002  0.030688913    -2.936508    0.6302078   418189 
 4375000   0.60407206   -2.9353457   -2.9353457   -2.3056815  0.021242069   -2.9353457   0.62966419   418189 
 4376000   0.60399577   -2.9356168   -2.9356168   -2.3060322  0.045755554   -2.9356168   0.62958466   418189 
 4377000     0.605403   -2.9357271   -2.9357271   -2.3046756  0.029980993   -2.9357271   0.63105151   418189 
 4378000   0.60457158   -2.9349328   -2.9349328   -2.3047479  0.019447327   -2.9349328   0.63018487   418189 
 4379000   0.60446692   -2.9348835   -2.9348835   -2.3048077  0.029035367   -2.9348835   0.63007578   418189 
 4380000    0.6047675   -2.9358054   -2.9358054   -2.3054164  0.021354623   -2.9358054   0.63038908   418189 
 4381000   0.60453329   -2.9359113   -2.9359113   -2.3057664  0.031905543   -2.9359113   0.63014495   418189 
 4382000   0.60337226   -2.9350848   -2.9350848     -2.30615  0.014545017   -2.9350848   0.62893474   418189 
 4383000   0.60396758   -2.9358364   -2.9358364   -2.3062811  0.030149628   -2.9358364   0.62955528   418189 
 4384000   0.60429794   -2.9352475   -2.9352475   -2.3053479  0.041264793   -2.9352475   0.62989964   418189 
 4385000   0.60497662   -2.9363861   -2.9363861   -2.3057791  0.035441605   -2.9363861   0.63060706   418189 
 4386000   0.60347135   -2.9344636   -2.9344636   -2.3054256  0.038484834   -2.9344636   0.62903803   418189 
 4387000   0.60474117   -2.9357069   -2.9357069   -2.3053453  0.015927911   -2.9357069   0.63036164   418189 
 4388000   0.60429426   -2.9355302   -2.9355302   -2.3056344  0.029947568   -2.9355302   0.62989579   418189 
 4389000   0.60457085   -2.9357593   -2.9357593   -2.3055752  0.036643202   -2.9357593    0.6301841   418189 
 4390000   0.60577392   -2.9369141   -2.9369141   -2.3054759  0.029853684   -2.9369141   0.63143814   418189 
 4391000   0.60499468   -2.9365362   -2.9365362   -2.3059103  0.043214704   -2.9365362   0.63062589   418189 
 4392000   0.60460704   -2.9355974   -2.9355974   -2.3053756  0.032949019   -2.9355974   0.63022183   418189 
 4393000   0.60420917   -2.9363284   -2.9363284   -2.3065213  0.032513391   -2.9363284   0.62980711   418189 
 4394000   0.60394565   -2.9354408   -2.9354408   -2.3059084   0.03549289   -2.9354408   0.62953242   418189 
 4395000   0.60322507   -2.9351099   -2.9351099   -2.3063286   0.03443702   -2.9351099   0.62878131   418189 
 4396000   0.60508656   -2.9371332   -2.9371332   -2.3064115  0.031281467   -2.9371332   0.63072166   418189 
 4397000   0.60430505   -2.9366098   -2.9366098   -2.3067028  0.032571694   -2.9366098   0.62990705   418189 
 4398000   0.60445171   -2.9370329   -2.9370329    -2.306973   0.03824335   -2.9370329   0.63005991   418189 
 4399000   0.60316255   -2.9358554   -2.9358554   -2.3071393  0.041527824   -2.9358554   0.62871614   418189 
 4400000   0.60388227   -2.9362789   -2.9362789   -2.3068125  0.028942466   -2.9362789   0.62946635   418189 
 4401000   0.60380295   -2.9365589   -2.9365589   -2.3071752  0.034856307   -2.9365589   0.62938368   418189 
 4402000    0.6026353   -2.9357867   -2.9357867   -2.3076201   0.03806643   -2.9357867   0.62816655   418189 
 4403000   0.60199713   -2.9348227   -2.9348227   -2.3073214  0.051168532   -2.9348227   0.62750135   418189 
 4404000     0.602381   -2.9350759   -2.9350759   -2.3071745  0.024842703   -2.9350759   0.62790148   418189 
 4405000   0.60309592   -2.9362021   -2.9362021   -2.3075554  0.029191086   -2.9362021   0.62864669   418189 
 4406000   0.60468855   -2.9379172   -2.9379172   -2.3076104  0.036582434   -2.9379172   0.63030679   418189 
 4407000   0.60506417   -2.9387967   -2.9387967   -2.3080983  0.038482707   -2.9387967   0.63069833   418189 
 4408000   0.60579978   -2.9397134   -2.9397134   -2.3082483    0.0234119   -2.9397134   0.63146511   418189 
 4409000   0.60294046   -2.9373229   -2.9373229   -2.3088383  0.042436353   -2.9373229   0.62848464   418189 
 4410000    0.6027981   -2.9373393   -2.9373393    -2.309003  0.030727096   -2.9373393   0.62833625   418189 
 4411000   0.60194539   -2.9358325   -2.9358325   -2.3083851   0.03333494   -2.9358325   0.62744742   418189 
 4412000   0.60430375   -2.9377759   -2.9377759   -2.3078702  0.039562578   -2.9377759   0.62990569   418189 
 4413000   0.60515541   -2.9378616   -2.9378616   -2.3070682  0.035102068   -2.9378616   0.63079343   418189 
 4414000   0.60378053   -2.9363471   -2.9363471   -2.3069868  0.028767314   -2.9363471    0.6293603   418189 
 4415000   0.60272635   -2.9356437   -2.9356437   -2.3073822  0.034724006   -2.9356437   0.62826146   418189 
 4416000   0.60324741   -2.9354645   -2.9354645   -2.3066599  0.034167703   -2.9354645    0.6288046   418189 
 4417000   0.60347253   -2.9357958   -2.9357958   -2.3067565  0.047144367   -2.9357958   0.62903926   418189 
 4418000    0.6038455   -2.9357618   -2.9357618   -2.3063337  0.029214649   -2.9357618   0.62942802   418189 
 4419000   0.60183404   -2.9337588   -2.9337588   -2.3064275  0.026143747   -2.9337588   0.62733135   418189 
 4420000   0.60383967   -2.9359122   -2.9359122   -2.3064903  0.029812947   -2.9359122   0.62942195   418189 
 4421000   0.60555029   -2.9373205   -2.9373205   -2.3061155  0.028643702   -2.9373205   0.63120504   418189 
 4422000   0.60513218   -2.9363573   -2.9363573   -2.3055881  0.037962261   -2.9363573   0.63076922   418189 
 4423000   0.60505797   -2.9365678   -2.9365678    -2.305876  0.029454382   -2.9365678   0.63069187   418189 
 4424000   0.60352778   -2.9355056   -2.9355056   -2.3064087  0.024964441   -2.9355056   0.62909684   418189 
 4425000   0.60642323   -2.9381489   -2.9381489    -2.306034  0.039603053   -2.9381489   0.63211496   418189 
 4426000   0.60435032   -2.9368119   -2.9368119   -2.3068576  0.035632963   -2.9368119   0.62995423   418189 
 4427000   0.60477303   -2.9365946   -2.9365946   -2.3061997  0.028928061   -2.9365946   0.63039485   418189 
 4428000   0.60440574   -2.9368195   -2.9368195   -2.3068075  0.025136341   -2.9368195     0.630012   418189 
 4429000   0.60518012   -2.9370124   -2.9370124   -2.3061932   0.01846034   -2.9370124   0.63081919   418189 
 4430000   0.60477905   -2.9362218   -2.9362218   -2.3058206  0.028111554   -2.9362218   0.63040112   418189 
 4431000   0.60357718   -2.9350601   -2.9350601   -2.3059118  0.031596219   -2.9350601   0.62914834   418189 
 4432000   0.60391851   -2.9354382   -2.9354382   -2.3059341  0.026789757   -2.9354382   0.62950413   418189 
 4433000   0.60244276   -2.9337478   -2.9337478   -2.3057819   0.03154246   -2.9337478   0.62796586   418189 
 4434000   0.60402431    -2.935071    -2.935071   -2.3054566  0.019854125    -2.935071   0.62961442   418189 
 4435000   0.60519865   -2.9364954   -2.9364954   -2.3056569  0.030046844   -2.9364954    0.6308385   418189 
 4436000   0.60388222   -2.9362507   -2.9362507   -2.3067844  0.028343865   -2.9362507    0.6294663   418189 
 4437000   0.60467199   -2.9362023   -2.9362023   -2.3059128  0.028749405   -2.9362023   0.63028953   418189 
 4438000    0.6044587   -2.9364888   -2.9364888   -2.3064216  0.027594887   -2.9364888   0.63006721   418189 
 4439000   0.60346355   -2.9357953   -2.9357953   -2.3067654  0.031435855   -2.9357953   0.62902989   418189 
 4440000   0.60392312   -2.9360644   -2.9360644   -2.3065555  0.025090528   -2.9360644   0.62950893   418189 
 4441000   0.60282444    -2.934855    -2.934855   -2.3064913  0.033837704    -2.934855    0.6283637   418189 
 4442000   0.60327767   -2.9357048   -2.9357048   -2.3068687  0.034198414   -2.9357048   0.62883613   418189 
 4443000   0.60310305   -2.9357312   -2.9357312   -2.3070771  0.033799464   -2.9357312   0.62865412   418189 
 4444000   0.60311952   -2.9361188   -2.9361188   -2.3074475  0.030354664   -2.9361188   0.62867129   418189 
 4445000   0.60318572   -2.9358797   -2.9358797   -2.3071394  0.038687739   -2.9358797    0.6287403   418189 
 4446000   0.60427291   -2.9363282   -2.9363282   -2.3064546  0.028918616   -2.9363282   0.62987354   418189 
 4447000   0.60374103   -2.9362456   -2.9362456   -2.3069265  0.034580269   -2.9362456   0.62931913   418189 
 4448000   0.60499441   -2.9377655   -2.9377655   -2.3071399  0.036282911   -2.9377655   0.63062561   418189 
 4449000   0.60346625   -2.9364927   -2.9364927     -2.30746  0.039957368   -2.9364927   0.62903271   418189 
 4450000   0.60320647   -2.9364062   -2.9364062   -2.3076443  0.040619901   -2.9364062   0.62876193   418189 
 4451000    0.6048254   -2.9372536   -2.9372536   -2.3068042  0.049324723   -2.9372536   0.63044944   418189 
 4452000    0.6037236   -2.9365408   -2.9365408   -2.3072398  0.036679055   -2.9365408   0.62930096   418189 
 4453000   0.60587855   -2.9382976   -2.9382976   -2.3067504  0.022795998   -2.9382976   0.63154721   418189 
 4454000   0.60346537   -2.9354926   -2.9354926   -2.3064608  0.049454041   -2.9354926   0.62903179   418189 
 4455000   0.60348813   -2.9350589   -2.9350589   -2.3060034  0.033483373   -2.9350589   0.62905551   418189 
 4456000   0.60465851   -2.9363447   -2.9363447   -2.3060692  0.029910895   -2.9363447   0.63027548   418189 
 4457000   0.60431184   -2.9359097   -2.9359097   -2.3059956  0.043342862   -2.9359097   0.62991412   418189 
 4458000   0.60451924   -2.9358461   -2.9358461   -2.3057158   0.03094369   -2.9358461   0.63013031   418189 
 4459000   0.60412398   -2.9354664   -2.9354664   -2.3057481  0.031286806   -2.9354664    0.6297183   418189 
 4460000   0.60384033   -2.9351315   -2.9351315   -2.3057089  0.032004774   -2.9351315   0.62942263   418189 
 4461000    0.6038363   -2.9351271   -2.9351271   -2.3057087  0.029637673   -2.9351271   0.62941844   418189 
 4462000   0.60304752   -2.9343782   -2.9343782    -2.305782  0.027756559   -2.9343782   0.62859624   418189 
 4463000   0.60470011   -2.9361413   -2.9361413   -2.3058224  0.030389958   -2.9361413   0.63031885   418189 
 4464000   0.60451677   -2.9359833   -2.9359833   -2.3058556  0.032233457   -2.9359833   0.63012774   418189 
 4465000   0.60416275   -2.9357123   -2.9357123   -2.3059536  0.034551032   -2.9357123   0.62975872   418189 
 4466000   0.60566919   -2.9375251   -2.9375251   -2.3061962  0.033585577   -2.9375251   0.63132898   418189 
 4467000   0.60541119   -2.9372179   -2.9372179   -2.3061578  0.017088197   -2.9372179   0.63106005   418189 
 4468000   0.60389706   -2.9351989   -2.9351989   -2.3057172   0.03454565   -2.9351989   0.62948177   418189 
 4469000   0.60449426   -2.9364057   -2.9364057   -2.3063014  0.026442754   -2.9364057   0.63010427   418189 
 4470000   0.60342961   -2.9350878   -2.9350878   -2.3060933  0.038363172   -2.9350878   0.62899452   418189 
 4471000   0.60379889   -2.9369011   -2.9369011   -2.3075216  0.032610886   -2.9369011   0.62937944   418189 
 4472000   0.60310975   -2.9365204   -2.9365204   -2.3078593  0.020230167   -2.9365204    0.6286611   418189 
 4473000   0.60174127   -2.9350786   -2.9350786    -2.307844  0.034051678   -2.9350786   0.62723465   418189 
 4474000   0.60423627   -2.9365395   -2.9365395   -2.3067042  0.033691521   -2.9365395   0.62983535   418189 
 4475000   0.60453289   -2.9374178   -2.9374178   -2.3072732  0.035844585   -2.9374178   0.63014454   418189 
 4476000   0.60434938   -2.9371936   -2.9371936   -2.3072404  0.038999702   -2.9371936   0.62995325   418189 
 4477000    0.6048351    -2.938059    -2.938059   -2.3075994  0.031156103    -2.938059   0.63045955   418189 
 4478000   0.60525466   -2.9379663   -2.9379663   -2.3070694   0.03442238   -2.9379663   0.63089689   418189 
 4479000    0.6038928    -2.936885    -2.936885   -2.3074077  0.029226111    -2.936885   0.62947733   418189 
 4480000   0.60478448   -2.9378994   -2.9378994   -2.3074926  0.038910428   -2.9378994   0.63040678   418189 
 4481000    0.6036461   -2.9373316   -2.9373316   -2.3081114  0.028145121   -2.9373316   0.62922018   418189 
 4482000   0.60327287   -2.9364431   -2.9364431   -2.3076119  0.030318313   -2.9364431   0.62883114   418189 
 4483000   0.60313568   -2.9357585   -2.9357585   -2.3070703  0.035549155   -2.9357585   0.62868813   418189 
 4484000   0.60464514   -2.9374503   -2.9374503   -2.3071887  0.032793411   -2.9374503   0.63026154   418189 
 4485000   0.60307547   -2.9367323   -2.9367323    -2.308107  0.025916833   -2.9367323   0.62862537   418189 
 4486000   0.60348666   -2.9369576   -2.9369576   -2.3079036  0.027060792   -2.9369576   0.62905399   418189 
 4487000   0.60256963   -2.9357832   -2.9357832    -2.307685  0.037306315   -2.9357832    0.6280981   418189 
 4488000   0.60340148   -2.9366579   -2.9366579   -2.3076927  0.038097263   -2.9366579    0.6289652   418189 
 4489000   0.60460345   -2.9376238   -2.9376238   -2.3074058  0.032349918   -2.9376238   0.63021809   418189 
 4490000   0.60430135   -2.9376092   -2.9376092   -2.3077061  0.026670653   -2.9376092   0.62990319   418189 
 4491000   0.60196633   -2.9356991   -2.9356991   -2.3082299  0.033686142   -2.9356991   0.62746924   418189 
 4492000   0.60420087   -2.9385619   -2.9385619   -2.3087634  0.024146694   -2.9385619   0.62979845   418189 
 4493000   0.60305578   -2.9381714   -2.9381714   -2.3095666  0.027844193   -2.9381714   0.62860485   418189 
 4494000   0.60299236   -2.9366989   -2.9366989   -2.3081602  0.029519326   -2.9366989   0.62853874   418189 
 4495000   0.60276013   -2.9365879   -2.9365879   -2.3082912  0.029392489   -2.9365879   0.62829667   418189 
 4496000   0.60390347   -2.9377856   -2.9377856   -2.3082971  0.039587646   -2.9377856   0.62948845   418189 
 4497000   0.60262973   -2.9361905   -2.9361905   -2.3080297  0.031925022   -2.9361905   0.62816075   418189 
 4498000   0.60376297   -2.9369589   -2.9369589   -2.3076169  0.025773558   -2.9369589     0.629342   418189 
 4499000   0.60545505     -2.93867     -2.93867   -2.3075643  0.037052384     -2.93867   0.63110576   418189 
 4500000   0.60403882   -2.9371412   -2.9371412   -2.3075117  0.028492203   -2.9371412   0.62962953   418189 
 4501000   0.60467356   -2.9376565   -2.9376565   -2.3073654  0.021120436   -2.9376565   0.63029117   418189 
 4502000   0.60381821   -2.9368533   -2.9368533   -2.3074537   0.03790911   -2.9368533   0.62939958   418189 
 4503000   0.60448747   -2.9378788   -2.9378788   -2.3077816  0.030924811   -2.9378788   0.63009719   418189 
 4504000   0.60495529   -2.9382356   -2.9382356   -2.3076507  0.031932514   -2.9382356   0.63058484   418189 
 4505000   0.60357115   -2.9374264   -2.9374264   -2.3082843  0.038776716   -2.9374264   0.62914205   418189 
 4506000   0.60497738   -2.9386907   -2.9386907   -2.3080829  0.037817783   -2.9386907   0.63060786   418189 
 4507000   0.60504813   -2.9387754   -2.9387754   -2.3080938   0.03344432   -2.9387754   0.63068161   418189 
 4508000   0.60264228   -2.9371687   -2.9371687   -2.3089949  0.046586015   -2.9371687   0.62817383   418189 
 4509000    0.6022269   -2.9364048   -2.9364048   -2.3086639  0.027679294   -2.9364048   0.62774085   418189 
 4510000   0.60399796     -2.93911     -2.93911   -2.3095231  0.035640889     -2.93911   0.62958695   418189 
 4511000   0.60291467   -2.9380631   -2.9380631   -2.3096054  0.022956401   -2.9380631   0.62845776   418189 
 4512000   0.60210706   -2.9374554   -2.9374554   -2.3098395  0.037201046   -2.9374554   0.62761594   418189 
 4513000   0.60452524   -2.9389023   -2.9389023   -2.3087657  0.026992672   -2.9389023   0.63013656   418189 
 4514000   0.60460666   -2.9388655   -2.9388655   -2.3086441  0.027580391   -2.9388655   0.63022143   418189 
 4515000   0.60429889   -2.9391097   -2.9391097   -2.3092091  0.027968316   -2.9391097   0.62990062   418189 
 4516000   0.60448793   -2.9390577   -2.9390577     -2.30896  0.037592997   -2.9390577   0.63009768   418189 
 4517000   0.60323095   -2.9374578   -2.9374578   -2.3086704  0.041644335   -2.9374578   0.62878744   418189 
 4518000   0.60297271   -2.9375424   -2.9375424   -2.3090241  0.026013315   -2.9375424   0.62851826   418189 
 4519000   0.60384332   -2.9385954   -2.9385954   -2.3091696   0.01982035   -2.9385954   0.62942575   418189 
 4520000   0.60170726   -2.9354733   -2.9354733   -2.3082741  0.038655212   -2.9354733   0.62719919   418189 
 4521000   0.60310885   -2.9374638   -2.9374638   -2.3088036  0.037041999   -2.9374638   0.62866016   418189 
 4522000   0.60208083   -2.9370807   -2.9370807   -2.3094921  0.038145564   -2.9370807   0.62758859   418189 
 4523000   0.60231386   -2.9365163   -2.9365163   -2.3086848  0.034999892   -2.9365163    0.6278315   418189 
 4524000   0.60317487   -2.9377273   -2.9377273   -2.3089983  0.015731267   -2.9377273   0.62872899   418189 
 4525000   0.60350179   -2.9383751   -2.9383751   -2.3093053  0.034716094   -2.9383751   0.62906975   418189 
 4526000   0.60386789   -2.9386683   -2.9386683    -2.309217  0.026292594   -2.9386683   0.62945136   418189 
 4527000   0.60476292   -2.9390016   -2.9390016   -2.3086173  0.035951264   -2.9390016   0.63038432   418189 
 4528000    0.6044033   -2.9383651   -2.9383651   -2.3083557  0.035248934   -2.9383651   0.63000945   418189 
 4529000   0.60282639   -2.9375457   -2.9375457     -2.30918  0.034675894   -2.9375457   0.62836574   418189 
 4530000   0.60364263   -2.9393461   -2.9393461   -2.3101296  0.025617709   -2.9393461   0.62921656   418189 
 4531000    0.6043097   -2.9407647   -2.9407647   -2.3108529  0.026158976   -2.9407647   0.62991189   418189 
 4532000   0.60332611   -2.9398784   -2.9398784   -2.3109917  0.027517963   -2.9398784   0.62888663   418189 
 4533000    0.6035389   -2.9400014   -2.9400014    -2.310893   0.03635909   -2.9400014   0.62910844   418189 
 4534000   0.60379614   -2.9400075   -2.9400075   -2.3106309  0.031482698   -2.9400075   0.62937657   418189 
 4535000   0.60311117   -2.9400966   -2.9400966   -2.3114341  0.024526097   -2.9400966   0.62866258   418189 
 4536000   0.60299443   -2.9401555   -2.9401555   -2.3116146  0.042361112   -2.9401555   0.62854089   418189 
 4537000   0.60408076   -2.9405134   -2.9405134   -2.3108401  0.033952647   -2.9405134   0.62967325   418189 
 4538000   0.60411798   -2.9409653   -2.9409653   -2.3112532  0.019740415   -2.9409653   0.62971205   418189 
 4539000   0.60314925   -2.9394137   -2.9394137   -2.3107114  0.031016936   -2.9394137   0.62870228   418189 
 4540000   0.60315792   -2.9401401   -2.9401401   -2.3114288  0.034627374   -2.9401401   0.62871131   418189 
 4541000   0.60256132   -2.9396541   -2.9396541   -2.3115646  0.035899719   -2.9396541   0.62808944   418189 
 4542000   0.60260403   -2.9393508   -2.9393508   -2.3112168  0.026378558   -2.9393508   0.62813396   418189 
 4543000   0.60308327   -2.9393207   -2.9393207   -2.3106872  0.029111312   -2.9393207   0.62863351   418189 
 4544000   0.60280361   -2.9385766   -2.9385766   -2.3102346  0.035662557   -2.9385766   0.62834199   418189 
 4545000   0.60238038   -2.9380716   -2.9380716   -2.3101708  0.036438123   -2.9380716   0.62790084   418189 
 4546000    0.6033515   -2.9396124   -2.9396124   -2.3106993  0.023313627   -2.9396124    0.6289131   418189 
 4547000   0.60320893   -2.9383516   -2.9383516   -2.3095871  0.042104366   -2.9383516   0.62876448   418189 
 4548000   0.60336964   -2.9381887   -2.9381887   -2.3092567    0.0375365   -2.9381887     0.628932   418189 
 4549000   0.60310157   -2.9379004   -2.9379004   -2.3092478  0.035175409   -2.9379004   0.62865258   418189 
 4550000   0.60146354   -2.9366136   -2.9366136   -2.3096684  0.033557996   -2.9366136   0.62694515   418189 
 4551000   0.60259779   -2.9379149   -2.9379149   -2.3097875  0.020850217   -2.9379149   0.62812746   418189 
 4552000   0.60257905    -2.938071    -2.938071   -2.3099631  0.032051186    -2.938071   0.62810792   418189 
 4553000   0.60288735   -2.9374603   -2.9374603    -2.309031  0.016188877   -2.9374603   0.62842929   418189 
 4554000   0.60402566   -2.9390823   -2.9390823   -2.3094664  0.037325489   -2.9390823   0.62961582   418189 
 4555000   0.60349109   -2.9382724   -2.9382724   -2.3092138  0.035321063   -2.9382724    0.6290586   418189 
 4556000   0.60396952   -2.9386168   -2.9386168   -2.3090595   0.02202924   -2.9386168    0.6295573   418189 
 4557000   0.60343903   -2.9385806   -2.9385806   -2.3095762  0.037920214   -2.9385806   0.62900434   418189 
 4558000   0.60342765     -2.93868     -2.93868   -2.3096876  0.034452455     -2.93868   0.62899247   418189 
 4559000   0.60361082   -2.9389307   -2.9389307   -2.3097473  0.042033815   -2.9389307   0.62918341   418189 
 4560000   0.60349994   -2.9392041   -2.9392041   -2.3101363  0.027334077   -2.9392041   0.62906783   418189 
 4561000   0.60295902   -2.9402443   -2.9402443   -2.3117403  0.027953994   -2.9402443   0.62850399   418189 
 4562000   0.60265036   -2.9391865   -2.9391865   -2.3110043  0.030508307   -2.9391865   0.62818226   418189 
 4563000   0.60382385   -2.9404135   -2.9404135    -2.311008  0.042224814   -2.9404135   0.62940546   418189 
 4564000    0.6038172   -2.9405312   -2.9405312   -2.3111327  0.024312731   -2.9405312   0.62939852   418189 
 4565000   0.60330567   -2.9400345   -2.9400345   -2.3111691  0.048126418   -2.9400345   0.62886532   418189 
 4566000   0.60402735   -2.9409285   -2.9409285   -2.3113109  0.024304346   -2.9409285   0.62961758   418189 
 4567000   0.60371349   -2.9408171   -2.9408171   -2.3115267  0.039502534   -2.9408171   0.62929042   418189 
 4568000    0.6043916   -2.9410115   -2.9410115   -2.3110142  0.036111635   -2.9410115   0.62999726   418189 
 4569000   0.60333845   -2.9400556   -2.9400556   -2.3111561  0.035790381   -2.9400556   0.62889949   418189 
 4570000   0.60330181   -2.9397796   -2.9397796   -2.3109183  0.037188255   -2.9397796    0.6288613   418189 
 4571000   0.60281388   -2.9390568   -2.9390568   -2.3107041  0.042836217   -2.9390568    0.6283527   418189 
 4572000   0.60186082   -2.9375337   -2.9375337   -2.3101744  0.036829525   -2.9375337   0.62735927   418189 
 4573000   0.60203414    -2.938029    -2.938029   -2.3104891  0.026899319    -2.938029   0.62753992   418189 
 4574000   0.60377365   -2.9400289   -2.9400289   -2.3106758  0.031797049   -2.9400289   0.62935313   418189 
 4575000   0.60292777   -2.9386509   -2.9386509   -2.3101795  0.026277763   -2.9386509   0.62847141   418189 
 4576000   0.60287536   -2.9381687   -2.9381687   -2.3097519  0.012085907   -2.9381687   0.62841679   418189 
 4577000   0.60238295   -2.9374267   -2.9374267   -2.3095231  0.033739635   -2.9374267   0.62790352   418189 
 4578000   0.60271775   -2.9386278   -2.9386278   -2.3103753  0.032175437   -2.9386278    0.6282525   418189 
 4579000   0.60106163   -2.9373652   -2.9373652    -2.310839   0.03305197   -2.9373652   0.62652621   418189 
 4580000   0.60168494   -2.9373955   -2.9373955   -2.3102195  0.032823172   -2.9373955   0.62717593   418189 
 4581000   0.60229491    -2.937443    -2.937443   -2.3096313  0.031058788    -2.937443   0.62781174   418189 
 4582000   0.60223642   -2.9377253   -2.9377253   -2.3099745  0.041072305   -2.9377253   0.62775078   418189 
 4583000    0.6030882   -2.9388919   -2.9388919   -2.3102532  0.024259677   -2.9388919   0.62863864   418189 
 4584000   0.60361099   -2.9395907   -2.9395907   -2.3104071  0.021948555   -2.9395907   0.62918358   418189 
 4585000   0.60261646   -2.9388782   -2.9388782   -2.3107313  0.025851336   -2.9388782   0.62814692   418189 
 4586000     0.602474   -2.9378502   -2.9378502   -2.3098518   0.03438631   -2.9378502   0.62799842   418189 
 4587000   0.60208008   -2.9383845   -2.9383845   -2.3107967  0.040963546   -2.9383845   0.62758782   418189 
 4588000   0.60284166   -2.9380339   -2.9380339   -2.3096522  0.036273274   -2.9380339   0.62838166   418189 
 4589000   0.60271154   -2.9377434   -2.9377434   -2.3094974  0.031870113   -2.9377434   0.62824602   418189 
 4590000   0.60289286   -2.9375087   -2.9375087   -2.3090736  0.024528338   -2.9375087   0.62843502   418189 
 4591000   0.60308614   -2.9375995   -2.9375995    -2.308963  0.042071611   -2.9375995   0.62863649   418189 
 4592000   0.60270809   -2.9371471   -2.9371471   -2.3089047   0.04843532   -2.9371471   0.62824243   418189 
 4593000   0.60380381   -2.9382424   -2.9382424   -2.3088578   0.02846035   -2.9382424   0.62938457   418189 
 4594000   0.60390267   -2.9382984   -2.9382984   -2.3088107  0.037342472   -2.9382984   0.62948761   418189 
 4595000   0.60368717   -2.9386342   -2.9386342   -2.3093712  0.039614287   -2.9386342   0.62926299   418189 
 4596000   0.60218681   -2.9372205   -2.9372205   -2.3095214  0.028216159   -2.9372205   0.62769906   418189 
 4597000   0.60365894   -2.9379334   -2.9379334   -2.3086998  0.030561816   -2.9379334   0.62923356   418189 
 4598000   0.60365562   -2.9385085   -2.9385085   -2.3092784   0.02256571   -2.9385085    0.6292301   418189 
 4599000   0.60281875   -2.9372584   -2.9372584   -2.3089006  0.026884067   -2.9372584   0.62835777   418189 
 4600000   0.60286692   -2.9366614   -2.9366614   -2.3082534  0.027197515   -2.9366614   0.62840799   418189 
 4601000    0.6031636   -2.9373993   -2.9373993   -2.3086821  0.034281469   -2.9373993   0.62871723   418189 
 4602000   0.60414556   -2.9387867   -2.9387867   -2.3090459  0.036626714   -2.9387867   0.62974079   418189 
 4603000   0.60398848   -2.9387561   -2.9387561   -2.3091791  0.037780132   -2.9387561   0.62957706   418189 
 4604000   0.60444468   -2.9385934   -2.9385934   -2.3085409  0.036738139   -2.9385934   0.63005259   418189 
 4605000   0.60329144   -2.9369261   -2.9369261   -2.3080756  0.033839328   -2.9369261   0.62885049   418189 
 4606000   0.60305958   -2.9375188   -2.9375188     -2.30891  0.035989961   -2.9375188    0.6286088   418189 
 4607000   0.60296904   -2.9374084   -2.9374084    -2.308894  0.035622182   -2.9374084   0.62851443   418189 
 4608000   0.60312021   -2.9378745   -2.9378745   -2.3092025  0.022547451   -2.9378745   0.62867201   418189 
 4609000   0.60234979   -2.9370798   -2.9370798   -2.3092109   0.03973352   -2.9370798   0.62786895   418189 
 4610000   0.60344532   -2.9383817   -2.9383817   -2.3093708  0.035806136   -2.9383817   0.62901089   418189 
 4611000   0.60294059    -2.937366    -2.937366   -2.3088812  0.019154006    -2.937366   0.62848478   418189 
 4612000   0.60343377   -2.9377188   -2.9377188   -2.3087199  0.028775634   -2.9377188   0.62899885   418189 
 4613000   0.60221023   -2.9363216   -2.9363216   -2.3085981   0.04216891   -2.9363216   0.62772348   418189 
 4614000    0.6028739   -2.9376324   -2.9376324   -2.3092172  0.045655941   -2.9376324   0.62841526   418189 
 4615000   0.60224294   -2.9373886   -2.9373886    -2.309631  0.020783751   -2.9373886   0.62775757   418189 
 4616000   0.60212402    -2.937513    -2.937513   -2.3098794  0.031011298    -2.937513   0.62763361   418189 
 4617000    0.6021523   -2.9377719   -2.9377719   -2.3101088   0.03563952   -2.9377719   0.62766309   418189 
 4618000   0.60324658    -2.938828    -2.938828   -2.3100243  0.045535648    -2.938828   0.62880373   418189 
 4619000   0.60506554   -2.9410972   -2.9410972   -2.3103975  0.028327648   -2.9410972   0.63069976   418189 
 4620000   0.60447843   -2.9399034   -2.9399034   -2.3098156  0.049087802   -2.9399034   0.63008778   418189 
 4621000    0.6027898   -2.9385278   -2.9385278   -2.3102002  0.037070575   -2.9385278    0.6283276   418189 
 4622000   0.60368529   -2.9390243   -2.9390243   -2.3097633  0.026808247   -2.9390243   0.62926103   418189 
 4623000   0.60369519    -2.939788    -2.939788   -2.3105166  0.039156248    -2.939788   0.62927135   418189 
 4624000   0.60315339   -2.9399007   -2.9399007   -2.3111941  0.031559517   -2.9399007   0.62870659   418189 
 4625000   0.60423359   -2.9401987   -2.9401987   -2.3103661  0.031573044   -2.9401987   0.62983256   418189 
 4626000   0.60418705   -2.9388286   -2.9388286   -2.3090446  0.048719765   -2.9388286   0.62978404   418189 
 4627000    0.6045585   -2.9391359   -2.9391359   -2.3089647  0.028842706   -2.9391359   0.63017123   418189 
 4628000   0.60307685   -2.9369759   -2.9369759   -2.3083491  0.027528625   -2.9369759   0.62862681   418189 
 4629000   0.60523802    -2.938948    -2.938948   -2.3080685  0.025412213    -2.938948   0.63087954   418189 
 4630000   0.60342229   -2.9378254   -2.9378254   -2.3088386  0.028471532   -2.9378254   0.62898689   418189 
 4631000   0.60302555   -2.9374704   -2.9374704    -2.308897  0.040633473   -2.9374704   0.62857333   418189 
 4632000   0.60345063   -2.9375586   -2.9375586   -2.3085421   0.03915577   -2.9375586   0.62901643   418189 
 4633000   0.60197836   -2.9362122   -2.9362122   -2.3087304  0.032446437   -2.9362122   0.62748179   418189 
 4634000   0.60418877   -2.9382878   -2.9382878    -2.308502  0.038066132   -2.9382878   0.62978584   418189 
 4635000   0.60354154   -2.9380971   -2.9380971   -2.3089859  0.034858345   -2.9380971   0.62911118   418189 
 4636000   0.60260867   -2.9380412   -2.9380412   -2.3099024  0.034635537   -2.9380412   0.62813879   418189 
 4637000   0.60253466   -2.9374465   -2.9374465   -2.3093849  0.028485125   -2.9374465   0.62806165   418189 
 4638000   0.60347568   -2.9388676   -2.9388676   -2.3098251  0.031566589   -2.9388676   0.62904254   418189 
 4639000   0.60350129   -2.9384533   -2.9384533   -2.3093841  0.026643852   -2.9384533   0.62906923   418189 
 4640000   0.60457267   -2.9399519   -2.9399519   -2.3097658   0.02687397   -2.9399519   0.63018601   418189 
 4641000    0.6040854   -2.9392133   -2.9392133   -2.3095352  0.031790392   -2.9392133   0.62967809   418189 
 4642000   0.60248828   -2.9380331   -2.9380331   -2.3100198  0.036084401   -2.9380331   0.62801331   418189 
 4643000   0.60248083   -2.9374079   -2.9374079   -2.3094024  0.034780458   -2.9374079   0.62800554   418189 
 4644000   0.60249817   -2.9365167   -2.9365167   -2.3084931  0.028811146   -2.9365167   0.62802361   418189 
 4645000   0.60279587   -2.9369899   -2.9369899    -2.308656  0.029812585   -2.9369899   0.62833393   418189 
 4646000    0.6038343   -2.9376859   -2.9376859   -2.3082695  0.031700282   -2.9376859   0.62941635   418189 
 4647000   0.60324212   -2.9367077   -2.9367077   -2.3079086  0.023473802   -2.9367077   0.62879908   418189 
 4648000    0.6032066   -2.9374579   -2.9374579   -2.3086959  0.042137103   -2.9374579   0.62876206   418189 
 4649000   0.60279833   -2.9363394   -2.9363394   -2.3080029  0.013944683   -2.9363394   0.62833649   418189 
 4650000   0.60396789   -2.9381078   -2.9381078   -2.3085522  0.044510436   -2.9381078    0.6295556   418189 
 4651000   0.60325589   -2.9376557   -2.9376557   -2.3088423  0.031149095   -2.9376557   0.62881343   418189 
 4652000   0.60191063   -2.9367145   -2.9367145   -2.3093033  0.045850275   -2.9367145   0.62741118   418189 
 4653000   0.60418411   -2.9393577   -2.9393577   -2.3095767  0.036044199   -2.9393577   0.62978098   418189 
 4654000   0.60301977   -2.9376833   -2.9376833    -2.309116  0.017280396   -2.9376833   0.62856731   418189 
 4655000   0.60252102   -2.9363469   -2.9363469   -2.3082994  0.045299562   -2.9363469   0.62804743   418189 
 4656000   0.60260926    -2.936659    -2.936659   -2.3085196  0.034650836    -2.936659   0.62813941   418189 
 4657000   0.60210224    -2.936547    -2.936547   -2.3089361  0.021013867    -2.936547   0.62761091   418189 
 4658000   0.60285564   -2.9370227   -2.9370227   -2.3086265  0.031580279   -2.9370227   0.62839623   418189 
 4659000   0.60147933   -2.9354534   -2.9354534   -2.3084918  0.033324751   -2.9354534   0.62696161   418189 
 4660000   0.60274357   -2.9368403   -2.9368403   -2.3085609  0.037721702   -2.9368403   0.62827941   418189 
 4661000   0.60259117   -2.9361719   -2.9361719   -2.3080513  0.045423681   -2.9361719   0.62812056   418189 
 4662000   0.60387602   -2.9378329   -2.9378329   -2.3083731  0.028858718   -2.9378329   0.62945983   418189 
 4663000   0.60362343   -2.9369133   -2.9369133   -2.3077168  0.048856707   -2.9369133   0.62919654   418189 
 4664000   0.60421503    -2.937711    -2.937711   -2.3078978  0.018744137    -2.937711   0.62981321   418189 
 4665000   0.60336613   -2.9365465   -2.9365465   -2.3076181  0.044326785   -2.9365465   0.62892834   418189 
 4666000   0.60250361    -2.936502    -2.936502   -2.3084727  0.037936745    -2.936502   0.62802929   418189 
 4667000    0.6027242   -2.9375392   -2.9375392     -2.30928  0.026654944   -2.9375392   0.62825922   418189 
 4668000   0.60237436   -2.9369127   -2.9369127   -2.3090182  0.023926906   -2.9369127   0.62789456   418189 
 4669000   0.60208028   -2.9361249   -2.9361249   -2.3085369  0.028860368   -2.9361249   0.62758802   418189 
 4670000   0.60268523   -2.9371684   -2.9371684   -2.3089498  0.025099818   -2.9371684    0.6282186   418189 
 4671000   0.60243623   -2.9363967   -2.9363967   -2.3084376  0.037653021   -2.9363967   0.62795905   418189 
 4672000   0.60358872    -2.938295    -2.938295   -2.3091346  0.036536382    -2.938295   0.62916037   418189 
 4673000   0.60445393   -2.9391131   -2.9391131   -2.3090508  0.029445594   -2.9391131   0.63006223   418189 
 4674000   0.60172026   -2.9365068   -2.9365068    -2.309294  0.032999432   -2.9365068   0.62721275   418189 
 4675000   0.60306619   -2.9379831   -2.9379831   -2.3093674  0.041278691   -2.9379831    0.6286157   418189 
 4676000   0.60294016    -2.937646    -2.937646   -2.3091616  0.032802409    -2.937646   0.62848433   418189 
 4677000    0.6037099   -2.9389887   -2.9389887    -2.309702  0.028669688   -2.9389887   0.62928668   418189 
 4678000   0.60440067   -2.9393413   -2.9393413   -2.3093346  0.040162434   -2.9393413   0.63000672   418189 
 4679000   0.60271099   -2.9375055   -2.9375055     -2.30926  0.041173914   -2.9375055   0.62824545   418189 
 4680000   0.60409587   -2.9383922   -2.9383922   -2.3087032  0.050025407   -2.9383922     0.629689   418189 
 4681000    0.6029686   -2.9376148   -2.9376148   -2.3091008  0.034212824   -2.9376148   0.62851397   418189 
 4682000   0.60290826   -2.9384019   -2.9384019   -2.3099509   0.03245517   -2.9384019   0.62845108   418189 
 4683000    0.6011103   -2.9367771   -2.9367771   -2.3102002  0.023015962   -2.9367771   0.62657694   418189 
 4684000    0.6029791   -2.9389392   -2.9389392   -2.3104143  0.038018675   -2.9389392   0.62852492   418189 
 4685000   0.60432559   -2.9404183   -2.9404183   -2.3104898   0.03294307   -2.9404183   0.62992846   418189 
 4686000   0.60296085   -2.9383852   -2.9383852   -2.3098793  0.046340004   -2.9383852    0.6285059   418189 
 4687000    0.6027785   -2.9377173   -2.9377173   -2.3094015  0.025020152   -2.9377173   0.62831582   418189 
 4688000   0.60322078   -2.9378866   -2.9378866   -2.3091098  0.030705742   -2.9378866   0.62877683   418189 
 4689000   0.60378775   -2.9378985   -2.9378985   -2.3085307  0.037685786   -2.9378985   0.62936783   418189 
 4690000   0.60387998   -2.9384316   -2.9384316   -2.3089676  0.036601326   -2.9384316   0.62946397   418189 
 4691000    0.6028747   -2.9374808   -2.9374808   -2.3090647  0.019964483   -2.9374808   0.62841609   418189 
 4692000   0.60330992   -2.9382154   -2.9382154   -2.3093456  0.025326462   -2.9382154   0.62886976   418189 
 4693000   0.60335424   -2.9390406   -2.9390406   -2.3101246  0.021971472   -2.9390406   0.62891596   418189 
 4694000    0.6028245   -2.9381449   -2.9381449   -2.3097811  0.025776291   -2.9381449   0.62836377   418189 
 4695000   0.60305587   -2.9384298   -2.9384298   -2.3098249  0.029845261   -2.9384298   0.62860494   418189 
 4696000   0.60278449   -2.9376606   -2.9376606   -2.3093386  0.015014699   -2.9376606   0.62832207   418189 
 4697000    0.6038112   -2.9387805   -2.9387805   -2.3093883  0.033407025   -2.9387805   0.62939227   418189 
 4698000   0.60223314   -2.9372272   -2.9372272   -2.3094798  0.031027727   -2.9372272   0.62774735   418189 
 4699000   0.60368222   -2.9387433   -2.9387433   -2.3094855  0.038739876   -2.9387433   0.62925783   418189 
 4700000   0.60520179   -2.9401957   -2.9401957    -2.309354  0.034102412   -2.9401957   0.63084178   418189 
 4701000    0.6047875   -2.9399283   -2.9399283   -2.3095183  0.035984434   -2.9399283   0.63040993   418189 
 4702000   0.60352399   -2.9389669   -2.9389669    -2.309874  0.031811835   -2.9389669    0.6290929   418189 
 4703000   0.60326188   -2.9387827   -2.9387827    -2.309963  0.031927429   -2.9387827   0.62881968   418189 
 4704000   0.60463923   -2.9404715   -2.9404715   -2.3102161  0.026435508   -2.9404715   0.63025538   418189 
 4705000   0.60404893   -2.9399682   -2.9399682   -2.3103282  0.041636537   -2.9399682   0.62964007   418189 
 4706000   0.60341176   -2.9387412   -2.9387412   -2.3097653  0.044323225   -2.9387412   0.62897591   418189 
 4707000   0.60362531    -2.939446    -2.939446   -2.3102475  0.026104971    -2.939446   0.62919851   418189 
 4708000   0.60459234   -2.9402038   -2.9402038   -2.3099973  0.033201763   -2.9402038    0.6302065   418189 
 4709000   0.60475326   -2.9395025   -2.9395025   -2.3091283  0.044955317   -2.9395025   0.63037424   418189 
 4710000   0.60385955   -2.9395553   -2.9395553   -2.3101126  0.025863732   -2.9395553   0.62944267   418189 
 4711000   0.60328605   -2.9383473   -2.9383473   -2.3095024  0.029408541   -2.9383473   0.62884487   418189 
 4712000   0.60312147    -2.938215    -2.938215   -2.3095417  0.030773712    -2.938215   0.62867332   418189 
 4713000   0.60353456   -2.9386902   -2.9386902   -2.3095863  0.023248842   -2.9386902   0.62910391   418189 
 4714000   0.60232095   -2.9377432   -2.9377432   -2.3099043  0.030399629   -2.9377432   0.62783888   418189 
 4715000   0.60271697    -2.938487    -2.938487   -2.3102353   0.02861006    -2.938487   0.62825168   418189 
 4716000   0.60284274   -2.9388313   -2.9388313   -2.3104485  0.033202737   -2.9388313   0.62838278   418189 
 4717000   0.60349738   -2.9388106   -2.9388106   -2.3097454  0.029622219   -2.9388106   0.62906516   418189 
 4718000   0.60420528   -2.9402866   -2.9402866   -2.3104836  0.028131156   -2.9402866   0.62980305   418189 
 4719000     0.602802   -2.9391252   -2.9391252   -2.3107849  0.027814254   -2.9391252   0.62834032   418189 
 4720000   0.60302799   -2.9400342   -2.9400342   -2.3114583  0.042030631   -2.9400342   0.62857588   418189 
 4721000   0.60422403   -2.9402846   -2.9402846    -2.310462   0.03396237   -2.9402846   0.62982259   418189 
 4722000   0.60309129   -2.9394696   -2.9394696   -2.3108277  0.039538571   -2.9394696   0.62864186   418189 
 4723000   0.60429761   -2.9410682   -2.9410682   -2.3111689  0.022366702   -2.9410682   0.62989929   418189 
 4724000   0.60282322    -2.940024    -2.940024   -2.3116616  0.026137005    -2.940024   0.62836244   418189 
 4725000   0.60327485   -2.9403951   -2.9403951   -2.3115619  0.017992128   -2.9403951    0.6288332   418189 
 4726000   0.60378788   -2.9413928   -2.9413928   -2.3120249  0.036217688   -2.9413928   0.62936797   418189 
 4727000   0.60255281   -2.9401046   -2.9401046   -2.3120241  0.020232134   -2.9401046   0.62808057   418189 
 4728000   0.60308255   -2.9410002   -2.9410002   -2.3123675  0.019464031   -2.9410002   0.62863275   418189 
 4729000   0.60393125   -2.9409558   -2.9409558   -2.3114384  0.045335776   -2.9409558    0.6295174   418189 
 4730000   0.60316321   -2.9396993   -2.9396993   -2.3109825   0.03157738   -2.9396993   0.62871683   418189 
 4731000   0.60434579   -2.9402273   -2.9402273   -2.3102778  0.053595945   -2.9402273   0.62994951   418189 
 4732000   0.60220352   -2.9383456   -2.9383456   -2.3106291   0.03200202   -2.9383456   0.62771648   418189 
 4733000   0.60271526   -2.9396658   -2.9396658   -2.3114159   0.03896075   -2.9396658   0.62824991   418189 
 4734000   0.60360114    -2.940997    -2.940997   -2.3118237   0.02857993    -2.940997   0.62917331   418189 
 4735000   0.60236258   -2.9398772   -2.9398772   -2.3119949  0.029220144   -2.9398772   0.62788228   418189 
 4736000   0.60404214   -2.9408169   -2.9408169   -2.3111839  0.030284028   -2.9408169   0.62963299   418189 
 4737000   0.60229935   -2.9386887   -2.9386887   -2.3108723  0.039049755   -2.9386887   0.62781637   418189 
 4738000   0.60373041   -2.9396411   -2.9396411    -2.310333  0.047396003   -2.9396411   0.62930806   418189 
 4739000   0.60362977   -2.9395853   -2.9395853   -2.3103822  0.046660778   -2.9395853   0.62920316   418189 
 4740000   0.60431519   -2.9403673   -2.9403673   -2.3104497  0.038161025   -2.9403673   0.62991761   418189 
 4741000   0.60376084   -2.9396448   -2.9396448    -2.310305  0.031430865   -2.9396448   0.62933978   418189 
 4742000   0.60299531   -2.9391852   -2.9391852   -2.3106433  0.036398297   -2.9391852   0.62854182   418189 
 4743000   0.60354807   -2.9399907   -2.9399907   -2.3108727  0.033162792   -2.9399907     0.629118   418189 
 4744000    0.6028132   -2.9395922   -2.9395922   -2.3112402  0.033652122   -2.9395922     0.628352   418189 
 4745000   0.60331428   -2.9400929   -2.9400929   -2.3112186  0.030458338   -2.9400929    0.6288743   418189 
 4746000    0.6037167   -2.9406191   -2.9406191   -2.3113253  0.034624137   -2.9406191   0.62929377   418189 
 4747000   0.60179626   -2.9379971   -2.9379971   -2.3107052   0.03529044   -2.9379971   0.62729196   418189 
 4748000   0.60170601   -2.9381813   -2.9381813   -2.3109834  0.037306814   -2.9381813   0.62719789   418189 
 4749000   0.60450232    -2.940512    -2.940512   -2.3103994  0.039795816    -2.940512   0.63011267   418189 
 4750000   0.60304111   -2.9392083   -2.9392083   -2.3106188  0.021829632   -2.9392083   0.62858955   418189 
 4751000   0.60263344   -2.9389947   -2.9389947   -2.3108301  0.037946363   -2.9389947   0.62816462   418189 
 4752000    0.6030655    -2.938485    -2.938485     -2.30987  0.036996081    -2.938485   0.62861498   418189 
 4753000   0.60455394    -2.939968    -2.939968   -2.3098015  0.034042987    -2.939968   0.63016648   418189 
 4754000   0.60381054   -2.9389517   -2.9389517   -2.3095601  0.029678537   -2.9389517   0.62939158   418189 
 4755000   0.60421609   -2.9402155   -2.9402155   -2.3104012  0.027474105   -2.9402155   0.62981431   418189 
 4756000   0.60344184   -2.9394339   -2.9394339   -2.3104266  0.023201136   -2.9394339   0.62900726   418189 
 4757000   0.60332057   -2.9384156   -2.9384156   -2.3095347  0.027683152   -2.9384156   0.62888086   418189 
 4758000    0.6019302    -2.937811    -2.937811   -2.3103795  0.031524921    -2.937811   0.62743158   418189 
 4759000   0.60291365   -2.9378764   -2.9378764   -2.3094197  0.033938214   -2.9378764    0.6284567   418189 
 4760000   0.60377547   -2.9385626   -2.9385626   -2.3092075  0.027650754   -2.9385626   0.62935503   418189 
 4761000   0.60379736   -2.9391486   -2.9391486   -2.3097707  0.036003547   -2.9391486   0.62937784   418189 
 4762000   0.60364167   -2.9385202   -2.9385202   -2.3093046  0.027119248   -2.9385202   0.62921556   418189 
 4763000   0.60337916   -2.9385753   -2.9385753   -2.3096334  0.031351641   -2.9385753   0.62894193   418189 
 4764000   0.60359356   -2.9387002   -2.9387002   -2.3095348  0.045769083   -2.9387002   0.62916542   418189 
 4765000    0.6032105   -2.9387532   -2.9387532    -2.309987  0.021311653   -2.9387532   0.62876612   418189 
 4766000    0.6036384   -2.9381162   -2.9381162   -2.3089041  0.034941141   -2.9381162   0.62921215   418189 
 4767000   0.60356053   -2.9397994   -2.9397994   -2.3106684   0.04796588   -2.9397994   0.62913098   418189 
 4768000   0.60505605   -2.9402936   -2.9402936   -2.3096037  0.022795231   -2.9402936   0.63068986   418189 
 4769000   0.60462058   -2.9402844   -2.9402844   -2.3100485  0.040538436   -2.9402844   0.63023594   418189 
 4770000   0.60361152    -2.939235    -2.939235   -2.3100509  0.046400518    -2.939235   0.62918413   418189 
 4771000   0.60341611   -2.9398695   -2.9398695   -2.3108891   0.02409149   -2.9398695   0.62898044   418189 
 4772000   0.60406146   -2.9398908   -2.9398908   -2.3102376  0.034542125   -2.9398908   0.62965314   418189 
 4773000   0.60371993   -2.9391224   -2.9391224   -2.3098253   0.03986151   -2.9391224   0.62929714   418189 
 4774000   0.60300014   -2.9381796   -2.9381796   -2.3096327  0.024774861   -2.9381796   0.62854685   418189 
 4775000    0.6039369   -2.9384376   -2.9384376   -2.3089143  0.027089554   -2.9384376   0.62952329   418189 
 4776000   0.60307899   -2.9375489   -2.9375489   -2.3089199  0.038492591   -2.9375489   0.62862904   418189 
 4777000   0.60395093   -2.9388251   -2.9388251   -2.3092872  0.038426244   -2.9388251   0.62953792   418189 
 4778000   0.60380186   -2.9385474   -2.9385474   -2.3091648  0.034298067   -2.9385474   0.62938254   418189 
 4779000   0.60487919   -2.9390555   -2.9390555     -2.30855  0.035411818   -2.9390555   0.63050551   418189 
 4780000   0.60399557   -2.9379444   -2.9379444   -2.3083599   0.03135723   -2.9379444   0.62958445   418189 
 4781000   0.60356489   -2.9384617   -2.9384617   -2.3093262  0.023891748   -2.9384617   0.62913552   418189 
 4782000   0.60405598   -2.9390021   -2.9390021   -2.3093547  0.031658003   -2.9390021   0.62964742   418189 
 4783000   0.60375623   -2.9384092   -2.9384092   -2.3090742   0.03315814   -2.9384092   0.62933497   418189 
 4784000   0.60319637   -2.9385505   -2.9385505   -2.3097991  0.034999236   -2.9385505   0.62875139   418189 
 4785000   0.60238512   -2.9375696   -2.9375696   -2.3096639  0.037369904   -2.9375696   0.62790578   418189 
 4786000   0.60382504   -2.9389748   -2.9389748   -2.3095681  0.017677212   -2.9389748    0.6294067   418189 
 4787000   0.60463684    -2.938428    -2.938428   -2.3081751  0.031500208    -2.938428   0.63025289   418189 
 4788000   0.60314468   -2.9368602   -2.9368602   -2.3081626  0.024450377   -2.9368602   0.62869752   418189 
 4789000    0.6033716   -2.9370781   -2.9370781    -2.308144  0.030537189   -2.9370781   0.62893405   418189 
 4790000   0.60405653   -2.9378367   -2.9378367   -2.3081887  0.029230233   -2.9378367   0.62964799   418189 
 4791000   0.60322547   -2.9377772   -2.9377772   -2.3089955  0.020193348   -2.9377772   0.62878172   418189 
 4792000   0.60315702   -2.9378737   -2.9378737   -2.3091633  0.029280337   -2.9378737   0.62871038   418189 
 4793000   0.60382838   -2.9394969   -2.9394969   -2.3100867  0.040776709   -2.9394969   0.62941018   418189 
 4794000    0.6033659   -2.9388636   -2.9388636   -2.3099355   0.03454085   -2.9388636    0.6289281   418189 
 4795000   0.60348726   -2.9398043   -2.9398043   -2.3107497   0.03112524   -2.9398043    0.6290546   418189 
 4796000   0.60456343   -2.9399911   -2.9399911   -2.3098147  0.032304466   -2.9399911   0.63017638   418189 
 4797000    0.6046869   -2.9404587   -2.9404587   -2.3101536  0.018807959   -2.9404587   0.63030507   418189 
 4798000   0.60522813   -2.9417996   -2.9417996   -2.3109304  0.037435551   -2.9417996   0.63086923   418189 
 4799000   0.60430902   -2.9414844   -2.9414844   -2.3115732  0.035995562   -2.9414844   0.62991118   418189 
 4800000   0.60304942    -2.941258    -2.941258   -2.3126598  0.037275273    -2.941258   0.62859822   418189 
 4801000    0.6053848   -2.9437072   -2.9437072   -2.3126746   0.02529246   -2.9437072   0.63103254   418189 
 4802000   0.60230643   -2.9401071   -2.9401071   -2.3122834  0.049156138   -2.9401071   0.62782375   418189 
 4803000   0.60310193   -2.9409101   -2.9409101   -2.3122571  0.024969815   -2.9409101   0.62865295   418189 
 4804000   0.60375186   -2.9411184   -2.9411184    -2.311788  0.030449665   -2.9411184   0.62933042   418189 
 4805000   0.60351321   -2.9418338   -2.9418338   -2.3127522  0.028679413   -2.9418338   0.62908166   418189 
 4806000   0.60427616   -2.9412199   -2.9412199   -2.3113429  0.040327421   -2.9412199   0.62987693   418189 
 4807000   0.60408114    -2.941226    -2.941226   -2.3115523  0.039943555    -2.941226   0.62967365   418189 
 4808000   0.60523282   -2.9424742   -2.9424742   -2.3116001   0.04529598   -2.9424742   0.63087412   418189 
 4809000   0.60488487   -2.9418229   -2.9418229   -2.3113115  0.018111243   -2.9418229   0.63051143   418189 
 4810000   0.60270973   -2.9395915   -2.9395915   -2.3113474  0.029265204   -2.9395915   0.62824414   418189 
 4811000   0.60378471   -2.9403331   -2.9403331   -2.3109684  0.033097676   -2.9403331   0.62936466   418189 
 4812000   0.60377622    -2.940526    -2.940526   -2.3111702  0.027490866    -2.940526   0.62935581   418189 
 4813000   0.60385074   -2.9395951   -2.9395951   -2.3101616  0.044140836   -2.9395951   0.62943349   418189 
 4814000   0.60295121   -2.9389343   -2.9389343   -2.3104385  0.026925666   -2.9389343   0.62849585   418189 
 4815000   0.60261966   -2.9391483   -2.9391483   -2.3109981  0.033574594   -2.9391483   0.62815025   418189 
 4816000   0.60377969   -2.9404141   -2.9404141   -2.3110547  0.023914838   -2.9404141   0.62935943   418189 
 4817000   0.60273106   -2.9396594   -2.9396594    -2.311393  0.026373555   -2.9396594   0.62826637   418189 
 4818000   0.60305713   -2.9397065   -2.9397065   -2.3111003  0.041855345   -2.9397065   0.62860625   418189 
 4819000   0.60232233   -2.9399859   -2.9399859   -2.3121456  0.026642127   -2.9399859   0.62784033   418189 
 4820000    0.6035672   -2.9405484   -2.9405484   -2.3114105  0.033522057   -2.9405484   0.62913793   418189 
 4821000   0.60350881   -2.9397722   -2.9397722   -2.3106951  0.037607098   -2.9397722   0.62907707   418189 
 4822000   0.60387264   -2.9406957   -2.9406957   -2.3112394  0.028458961   -2.9406957   0.62945631   418189 
 4823000   0.60232471   -2.9388586   -2.9388586   -2.3110157  0.036807504   -2.9388586   0.62784281   418189 
 4824000   0.60358987   -2.9400408   -2.9400408   -2.3108792   0.03247688   -2.9400408   0.62916157   418189 
 4825000    0.6038601   -2.9399729   -2.9399729   -2.3105297  0.028954579   -2.9399729   0.62944324   418189 
 4826000    0.6035672   -2.9398261   -2.9398261   -2.3106881  0.036704107   -2.9398261   0.62913793   418189 
 4827000   0.60295449   -2.9396438   -2.9396438   -2.3111446  0.031796661   -2.9396438   0.62849926   418189 
 4828000   0.60352695   -2.9403257   -2.9403257   -2.3112297  0.034645408   -2.9403257   0.62909598   418189 
 4829000   0.60257514    -2.939252    -2.939252   -2.3111482  0.025501755    -2.939252   0.62810385   418189 
 4830000   0.60323102   -2.9394275   -2.9394275   -2.3106399  0.023561713   -2.9394275   0.62878751   418189 
 4831000   0.60311215   -2.9391606   -2.9391606    -2.310497  0.022842733   -2.9391606    0.6286636   418189 
 4832000   0.60146967   -2.9375953   -2.9375953   -2.3106437  0.019429689   -2.9375953   0.62695154   418189 
 4833000   0.60241746   -2.9389545   -2.9389545   -2.3110151  0.040274075   -2.9389545   0.62793949   418189 
 4834000   0.60326332   -2.9391348   -2.9391348   -2.3103136  0.035282259   -2.9391348   0.62882118   418189 
 4835000   0.60405217   -2.9406135   -2.9406135     -2.31097  0.036749099   -2.9406135   0.62964345   418189 
 4836000    0.6033504   -2.9398847   -2.9398847   -2.3109728  0.037967615   -2.9398847   0.62891195   418189 
 4837000    0.6052013   -2.9413429   -2.9413429   -2.3105016  0.028220095   -2.9413429   0.63084127   418189 
 4838000   0.60438623   -2.9401618   -2.9401618   -2.3101702  0.027793223   -2.9401618   0.62999166   418189 
 4839000   0.60353342   -2.9399464   -2.9399464   -2.3108437  0.020427648   -2.9399464   0.62910273   418189 
 4840000   0.60350399   -2.9399575   -2.9399575   -2.3108855  0.038203507   -2.9399575   0.62907205   418189 
 4841000   0.60448076   -2.9405256   -2.9405256   -2.3104354  0.033395437   -2.9405256    0.6300902   418189 
 4842000   0.60422586   -2.9400755   -2.9400755    -2.310251  0.028418564   -2.9400755   0.62982449   418189 
 4843000   0.60324706    -2.939756    -2.939756   -2.3109517  0.018016103    -2.939756   0.62880423   418189 
 4844000   0.60287238   -2.9397807   -2.9397807    -2.311367  0.034356508   -2.9397807   0.62841368   418189 
 4845000   0.60294276   -2.9398635   -2.9398635   -2.3113765  0.037710789   -2.9398635   0.62848704   418189 
 4846000   0.60338859   -2.9399412   -2.9399412   -2.3109894  0.029434874   -2.9399412   0.62895176   418189 
 4847000   0.60345019   -2.9393969   -2.9393969   -2.3103809  0.042908545   -2.9393969   0.62901596   418189 
 4848000    0.6042918   -2.9402913   -2.9402913   -2.3103981  0.032779178   -2.9402913   0.62989324   418189 
 4849000   0.60345439   -2.9400836   -2.9400836   -2.3110633  0.026968189   -2.9400836   0.62902035   418189 
 4850000    0.6033727   -2.9396093   -2.9396093   -2.3106741  0.036334265   -2.9396093    0.6289352   418189 
 4851000   0.60458319   -2.9411639   -2.9411639    -2.310967  0.020491696   -2.9411639   0.63019697   418189 
 4852000   0.60262975   -2.9400127   -2.9400127   -2.3118519  0.030719155   -2.9400127   0.62816077   418189 
 4853000   0.60342208   -2.9400574   -2.9400574   -2.3110707  0.035442665   -2.9400574   0.62898667   418189 
 4854000   0.60517528   -2.9421989   -2.9421989   -2.3113847  0.031405322   -2.9421989   0.63081415   418189 
 4855000      0.60407   -2.9417882   -2.9417882   -2.3121262  0.034139871   -2.9417882   0.62966204   418189 
 4856000   0.60313537   -2.9415878   -2.9415878      -2.3129   0.03502347   -2.9415878   0.62868781   418189 
 4857000   0.60345383   -2.9420757   -2.9420757   -2.3130559  0.044193697   -2.9420757   0.62901977   418189 
 4858000    0.6034038   -2.9417765   -2.9417765   -2.3128089  0.031876359   -2.9417765   0.62896761   418189 
 4859000   0.60481072   -2.9436896   -2.9436896   -2.3132555  0.029304695   -2.9436896   0.63043414   418189 
 4860000   0.60318198   -2.9418863   -2.9418863   -2.3131499  0.032046608   -2.9418863    0.6287364   418189 
 4861000   0.60269012   -2.9420575   -2.9420575   -2.3138338  0.037480821   -2.9420575   0.62822369   418189 
 4862000   0.60256054   -2.9415697   -2.9415697    -2.313481  0.033466942   -2.9415697   0.62808862   418189 
 4863000   0.60191419   -2.9414473   -2.9414473   -2.3140324  0.038293632   -2.9414473    0.6274149   418189 
 4864000   0.60199448   -2.9406155   -2.9406155   -2.3131169  0.041235797   -2.9406155   0.62749859   418189 
 4865000   0.60295374   -2.9406942   -2.9406942   -2.3121957  0.033428069   -2.9406942   0.62849848   418189 
 4866000   0.60331917   -2.9417491   -2.9417491   -2.3128697  0.045330308   -2.9417491   0.62887939   418189 
 4867000   0.60379233   -2.9416974   -2.9416974   -2.3123248   0.03136169   -2.9416974    0.6293726   418189 
 4868000   0.60297233   -2.9408144   -2.9408144   -2.3122965  0.030203764   -2.9408144   0.62851787   418189 
 4869000   0.60255084   -2.9408948   -2.9408948   -2.3128162   0.03547989   -2.9408948   0.62807851   418189 
 4870000   0.60321186   -2.9415277   -2.9415277   -2.3127602  0.044882547   -2.9415277   0.62876754   418189 
 4871000   0.60251487   -2.9410005   -2.9410005   -2.3129595  0.036265462   -2.9410005   0.62804103   418189 
 4872000   0.60208471   -2.9406689   -2.9406689   -2.3130763  0.025734672   -2.9406689   0.62759263   418189 
 4873000   0.60333405   -2.9420824   -2.9420824   -2.3131875  0.033824982   -2.9420824   0.62889491   418189 
 4874000   0.60291835    -2.941495    -2.941495   -2.3130334  0.024256385    -2.941495    0.6284616   418189 
 4875000   0.60364478   -2.9417309   -2.9417309   -2.3125121  0.021858866   -2.9417309    0.6292188   418189 
 4876000   0.60295523   -2.9414628   -2.9414628   -2.3129627  0.039058777   -2.9414628   0.62850003   418189 
 4877000   0.60345204    -2.943095    -2.943095   -2.3140771   0.02690442    -2.943095    0.6290179   418189 
 4878000   0.60350045   -2.9423587   -2.9423587   -2.3132903  0.038074067   -2.9423587   0.62906836   418189 
 4879000   0.60406323   -2.9431341   -2.9431341   -2.3134791  0.030679977   -2.9431341   0.62965498   418189 
 4880000   0.60229288   -2.9402804   -2.9402804   -2.3124707  0.030468859   -2.9402804   0.62780963   418189 
 4881000      0.60394   -2.9414825   -2.9414825    -2.311956  0.031605107   -2.9414825   0.62952653   418189 
 4882000   0.60408182   -2.9424925   -2.9424925   -2.3128182  0.028482809   -2.9424925   0.62967436   418189 
 4883000    0.6019893   -2.9400423   -2.9400423   -2.3125491  0.036163258   -2.9400423   0.62749318   418189 
 4884000   0.60385982   -2.9417112   -2.9417112   -2.3122683  0.033412412   -2.9417112   0.62944296   418189 
 4885000   0.60350792   -2.9411794   -2.9411794   -2.3121032  0.054834561   -2.9411794   0.62907614   418189 
 4886000   0.60266525   -2.9401207   -2.9401207    -2.311923  0.023946725   -2.9401207   0.62819777   418189 
 4887000   0.60431845   -2.9422468   -2.9422468   -2.3123258  0.021739183   -2.9422468   0.62992101   418189 
 4888000   0.60228306   -2.9398666   -2.9398666   -2.3120672  0.040761872   -2.9398666   0.62779939   418189 
 4889000   0.60199633   -2.9397832   -2.9397832   -2.3122827  0.022978676   -2.9397832   0.62750052   418189 
 4890000   0.60304604   -2.9407917   -2.9407917   -2.3121971  0.028086304   -2.9407917   0.62859469   418189 
 4891000   0.60330455   -2.9410236   -2.9410236   -2.3121595  0.040648045   -2.9410236   0.62886416   418189 
 4892000   0.60294657   -2.9412927   -2.9412927   -2.3128016  0.026801609   -2.9412927   0.62849101   418189 
 4893000   0.60288971   -2.9404167   -2.9404167    -2.311985  0.037174924   -2.9404167   0.62843175   418189 
 4894000   0.60533486   -2.9425546   -2.9425546   -2.3115742  0.043971247   -2.9425546   0.63098049   418189 
 4895000   0.60293483   -2.9397996   -2.9397996   -2.3113209  0.035577837   -2.9397996   0.62847878   418189 
 4896000   0.60380194   -2.9406905   -2.9406905   -2.3113079  0.034255058   -2.9406905   0.62938262   418189 
 4897000    0.6038464   -2.9408987   -2.9408987   -2.3114698  0.015499355   -2.9408987   0.62942896   418189 
 4898000   0.60373146   -2.9409629   -2.9409629   -2.3116537  0.028376492   -2.9409629   0.62930916   418189 
 4899000   0.60475402   -2.9414324   -2.9414324   -2.3110573  0.034337927   -2.9414324   0.63037504   418189 
 4900000   0.60544708   -2.9417075   -2.9417075   -2.3106101  0.034252922   -2.9417075   0.63109746   418189 
 4901000   0.60415868   -2.9406096   -2.9406096   -2.3108551  0.026438287   -2.9406096   0.62975447   418189 
 4902000   0.60384482   -2.9403749   -2.9403749   -2.3109476  0.024079744   -2.9403749   0.62942732   418189 
 4903000   0.60412587   -2.9411833   -2.9411833   -2.3114631  0.030472337   -2.9411833   0.62972028   418189 
 4904000   0.60456766    -2.941375    -2.941375   -2.3111942  0.041654162    -2.941375   0.63018078   418189 
 4905000   0.60327838   -2.9404115   -2.9404115   -2.3115746  0.025455061   -2.9404115   0.62883687   418189 
 4906000   0.60290144   -2.9396751   -2.9396751   -2.3112312  0.030347518   -2.9396751   0.62844397   418189 
 4907000   0.60224553   -2.9394026   -2.9394026   -2.3116423  0.037150673   -2.9394026   0.62776027   418189 
 4908000    0.6016998   -2.9389512   -2.9389512   -2.3117598  0.030516148   -2.9389512   0.62719142   418189 
 4909000   0.60304642   -2.9405376   -2.9405376   -2.3119425  0.031790364   -2.9405376   0.62859509   418189 
 4910000   0.60322046   -2.9401489   -2.9401489   -2.3113724   0.04345525   -2.9401489    0.6287765   418189 
 4911000   0.60445182   -2.9417509   -2.9417509   -2.3116908  0.054812285   -2.9417509   0.63006003   418189 
 4912000   0.60368796   -2.9414321   -2.9414321   -2.3121683  0.030863467   -2.9414321   0.62926381   418189 
 4913000   0.60344424   -2.9415972   -2.9415972   -2.3125874  0.032700424   -2.9415972   0.62900976   418189 
 4914000   0.60388174   -2.9407626   -2.9407626   -2.3112968  0.030318625   -2.9407626    0.6294658   418189 
 4915000   0.60429226   -2.9420695   -2.9420695   -2.3121758  0.036057039   -2.9420695   0.62989371   418189 
 4916000   0.60429444   -2.9414889   -2.9414889   -2.3115929  0.038750005   -2.9414889   0.62989599   418189 
 4917000    0.6041862   -2.9413639   -2.9413639   -2.3115807  0.032430559   -2.9413639   0.62978316   418189 
 4918000   0.60348877   -2.9411896   -2.9411896   -2.3121334   0.04224979   -2.9411896   0.62905619   418189 
 4919000     0.602468    -2.939709    -2.939709   -2.3117169   0.02639032    -2.939709   0.62799216   418189 
 4920000   0.60255694   -2.9407436   -2.9407436   -2.3126587  0.022217769   -2.9407436   0.62808488   418189 
 4921000   0.60199238   -2.9402598   -2.9402598   -2.3127634  0.029778168   -2.9402598   0.62749639   418189 
 4922000    0.6019057   -2.9398502   -2.9398502   -2.3124442  0.024085824   -2.9398502   0.62740604   418189 
 4923000   0.60316648   -2.9407407   -2.9407407   -2.3120205  0.033707063   -2.9407407   0.62872024   418189 
 4924000   0.60311121   -2.9402519   -2.9402519   -2.3115893  0.038602853   -2.9402519   0.62866262   418189 
 4925000   0.60271726   -2.9399671   -2.9399671   -2.3117151  0.025113492   -2.9399671   0.62825199   418189 
 4926000   0.60527943   -2.9419482   -2.9419482   -2.3110255  0.022656007   -2.9419482    0.6309227   418189 
 4927000   0.60481865   -2.9420008   -2.9420008   -2.3115584  0.031923205   -2.9420008    0.6304424   418189 
 4928000   0.60584866   -2.9426428   -2.9426428   -2.3111268  0.024675272   -2.9426428   0.63151605   418189 
 4929000   0.60240936   -2.9397038   -2.9397038   -2.3117728  0.034710956   -2.9397038   0.62793104   418189 
 4930000    0.6026984   -2.9401405   -2.9401405   -2.3119082  0.039514753   -2.9401405   0.62823232   418189 
 4931000   0.60221115   -2.9394182   -2.9394182   -2.3116938  0.031662308   -2.9394182   0.62772443   418189 
 4932000   0.60280796   -2.9404808   -2.9404808   -2.3121343  0.020094251   -2.9404808   0.62834653   418189 
 4933000   0.60166479   -2.9395786   -2.9395786   -2.3124237  0.028846886   -2.9395786   0.62715492   418189 
 4934000   0.60320684   -2.9416717   -2.9416717   -2.3129094  0.038045985   -2.9416717    0.6287623   418189 
 4935000   0.60106021   -2.9404137   -2.9404137    -2.313889  0.044205773   -2.9404137   0.62652474   418189 
 4936000   0.60220772     -2.94111     -2.94111   -2.3133891  0.038292402     -2.94111   0.62772086   418189 
 4937000   0.60279357   -2.9418832   -2.9418832   -2.3135516  0.025915657   -2.9418832   0.62833153   418189 
 4938000    0.6022383   -2.9415279   -2.9415279   -2.3137752   0.02457563   -2.9415279   0.62775273   418189 
 4939000   0.60223314   -2.9418602   -2.9418602   -2.3141128  0.034012094   -2.9418602   0.62774735   418189 
 4940000   0.60306258   -2.9418574   -2.9418574   -2.3132455  0.044965721   -2.9418574   0.62861194   418189 
 4941000   0.60259279   -2.9422988   -2.9422988   -2.3141765  0.029000779   -2.9422988   0.62812224   418189 
 4942000   0.60263391   -2.9422096   -2.9422096   -2.3140445  0.032986235   -2.9422096   0.62816511   418189 
 4943000   0.60316298   -2.9425081   -2.9425081   -2.3137915  0.030547591   -2.9425081   0.62871659   418189 
 4944000   0.60233399   -2.9418054   -2.9418054    -2.313953  0.039121151   -2.9418054   0.62785247   418189 
 4945000   0.60298392   -2.9420666   -2.9420666   -2.3135366  0.041308209   -2.9420666   0.62852995   418189 
 4946000   0.60263735   -2.9417052   -2.9417052   -2.3135365  0.035975309   -2.9417052   0.62816869   418189 
 4947000   0.60431958   -2.9426349   -2.9426349   -2.3127127  0.021150111   -2.9426349   0.62992219   418189 
 4948000   0.60324414   -2.9419802   -2.9419802   -2.3131791  0.030016489   -2.9419802   0.62880119   418189 
 4949000   0.60270005    -2.941938    -2.941938   -2.3137039  0.040150342    -2.941938   0.62823405   418189 
 4950000   0.60252893   -2.9416465   -2.9416465   -2.3135908  0.040358976   -2.9416465   0.62805568   418189 
 4951000    0.6033044   -2.9428223   -2.9428223   -2.3139583  0.020605518   -2.9428223     0.628864   418189 
 4952000   0.60284363   -2.9417501   -2.9417501   -2.3133664  0.036533916   -2.9417501   0.62838371   418189 
 4953000   0.60276194   -2.9418317   -2.9418317   -2.3135332  0.038944325   -2.9418317   0.62829856   418189 
 4954000   0.60204898   -2.9410574   -2.9410574    -2.313502  0.037986656   -2.9410574   0.62755539   418189 
 4955000   0.60251955   -2.9416191   -2.9416191   -2.3135732  0.025055078   -2.9416191    0.6280459   418189 
 4956000   0.60164836    -2.941866    -2.941866   -2.3147282   0.03472773    -2.941866    0.6271378   418189 
 4957000   0.60431161   -2.9438777   -2.9438777   -2.3139638  0.035718387   -2.9438777   0.62991388   418189 
 4958000   0.60320014   -2.9428526   -2.9428526   -2.3140973  0.032095486   -2.9428526   0.62875532   418189 
 4959000   0.60197662   -2.9419492   -2.9419492   -2.3144692  0.026623081   -2.9419492   0.62747996   418189 
 4960000   0.60350256   -2.9425843   -2.9425843   -2.3135138  0.042332178   -2.9425843   0.62907055   418189 
 4961000   0.60390957   -2.9419363   -2.9419363   -2.3124415  0.032054445   -2.9419363   0.62949481   418189 
 4962000   0.60298051   -2.9410506   -2.9410506   -2.3125243  0.040407514   -2.9410506   0.62852639   418189 
 4963000   0.60323699   -2.9413304   -2.9413304   -2.3125367   0.02233594   -2.9413304   0.62879373   418189 
 4964000    0.6047655   -2.9427364   -2.9427364   -2.3123494  0.037364055   -2.9427364     0.630387   418189 
 4965000   0.60352592   -2.9415028   -2.9415028   -2.3124079  0.028597166   -2.9415028   0.62909491   418189 
 4966000   0.60370661   -2.9425428   -2.9425428   -2.3132595  0.032248088   -2.9425428   0.62928325   418189 
 4967000    0.6029405   -2.9418248   -2.9418248   -2.3133402  0.032449903   -2.9418248   0.62848468   418189 
 4968000   0.60242891   -2.9402169   -2.9402169   -2.3122654  0.037285333   -2.9402169   0.62795142   418189 
 4969000   0.60270217   -2.9405858   -2.9405858   -2.3123496    0.0318371   -2.9405858   0.62823625   418189 
 4970000   0.60290431   -2.9405506   -2.9405506   -2.3121036  0.035212523   -2.9405506   0.62844696   418189 
 4971000   0.60235092   -2.9407529   -2.9407529   -2.3128828  0.032267404   -2.9407529   0.62787013   418189 
 4972000   0.60197797   -2.9406503   -2.9406503   -2.3131689  0.026386141   -2.9406503   0.62748137   418189 
 4973000   0.60167059   -2.9406051   -2.9406051   -2.3134441  0.026580566   -2.9406051   0.62716097   418189 
 4974000   0.60248746   -2.9413197   -2.9413197   -2.3133072  0.031643104   -2.9413197   0.62801245   418189 
 4975000   0.60245124    -2.941807    -2.941807   -2.3138323  0.022323258    -2.941807    0.6279747   418189 
 4976000   0.60300425   -2.9408653   -2.9408653   -2.3123142  0.037151342   -2.9408653   0.62855113   418189 
 4977000   0.60285809   -2.9410207   -2.9410207   -2.3126219  0.043618851   -2.9410207   0.62839879   418189 
 4978000   0.60353539   -2.9420632   -2.9420632   -2.3129584  0.030520251   -2.9420632   0.62910478   418189 
 4979000   0.60363073   -2.9425574   -2.9425574   -2.3133532  0.039751971   -2.9425574   0.62920416   418189 
 4980000   0.60256018   -2.9416747   -2.9416747   -2.3135865  0.033890726   -2.9416747   0.62808826   418189 
 4981000    0.6034682   -2.9431998   -2.9431998   -2.3141651  0.035272795   -2.9431998   0.62903474   418189 
 4982000   0.60361108   -2.9427849   -2.9427849   -2.3136013  0.029656483   -2.9427849   0.62918367   418189 
 4983000   0.60372752   -2.9432851   -2.9432851     -2.31398  0.039971831   -2.9432851   0.62930505   418189 
 4984000   0.60312737   -2.9434445   -2.9434445   -2.3147651  0.033852742   -2.9434445   0.62867947   418189 
 4985000   0.60231748    -2.941828    -2.941828   -2.3139927    0.0447506    -2.941828   0.62783527   418189 
 4986000   0.60296021   -2.9424701   -2.9424701   -2.3139649  0.039248971   -2.9424701   0.62850523   418189 
 4987000   0.60388636    -2.943134    -2.943134   -2.3136634  0.040735723    -2.943134   0.62947062   418189 
 4988000    0.6025655   -2.9420361   -2.9420361   -2.3139423   0.03612622   -2.9420361    0.6280938   418189 
 4989000   0.60210998   -2.9412159   -2.9412159    -2.313597  0.034675334   -2.9412159   0.62761898   418189 
 4990000   0.60330719    -2.942299    -2.942299   -2.3134321  0.035885035    -2.942299   0.62886691   418189 
 4991000   0.60208613   -2.9402309   -2.9402309   -2.3126368  0.033805345   -2.9402309   0.62759412   418189 
 4992000   0.60282918   -2.9406848   -2.9406848   -2.3123162  0.021848882   -2.9406848   0.62836865   418189 
 4993000   0.60268835   -2.9404483   -2.9404483   -2.3122265  0.024457459   -2.9404483   0.62822186   418189 
 4994000    0.6042358   -2.9420278   -2.9420278   -2.3121929  0.034446193   -2.9420278   0.62983486   418189 
 4995000   0.60213203   -2.9402899   -2.9402899   -2.3126479  0.043570095   -2.9402899   0.62764196   418189 
 4996000   0.60158395   -2.9400074   -2.9400074   -2.3129367  0.035886338   -2.9400074   0.62707066   418189 
 4997000   0.60351868   -2.9407747   -2.9407747   -2.3116874  0.027570741   -2.9407747   0.62908736   418189 
 4998000   0.60414962   -2.9406563   -2.9406563   -2.3109113  0.028233872   -2.9406563   0.62974502   418189 
 4999000   0.60301251   -2.9392595   -2.9392595   -2.3106997  0.040986546   -2.9392595   0.62855975   418189 
 5000000   0.60222209   -2.9394197   -2.9394197   -2.3116839  0.042520245   -2.9394197   0.62773584   418189 
Loop time of 26291.9 on 288 procs for 5000000 steps with 418189 atoms

Performance: 82154.426 tau/day, 190.172 timesteps/s
90.9% CPU use with 288 MPI tasks x 1 OpenMP threads

MPI task timing breakdown:
Section |  min time  |  avg time  |  max time  |%varavg|  %CPU | %total
-----------------------------------------------------------------------
Pair    | 159.38     | 2884.7     | 7447.3     |2826.0 |  95.2 | 10.97
Bond    | 3.2297     | 3.4654     | 3.6877     |   4.6 | 100.0 |  0.01
Neigh   | 337.35     | 3671       | 9900.8     |3033.3 |  98.7 | 13.96
Comm    | 3254.4     | 11169      | 23290      |4307.1 |  89.2 | 42.48
Output  | 814.49     | 831.7      | 868.6      |  69.9 |  88.1 |  3.16
Modify  | 1214.3     | 7526.9     | 12347      |3339.3 |  90.1 | 28.63
Other   |            | 204.9      |            |       |       |  0.78

Nlocal:        1452.05 ave        4858 max         211 min
Histogram: 31 30 146 50 16 11 1 1 1 1
Nghost:        7258.11 ave       12235 max        1165 min
Histogram: 20 14 18 17 39 19 65 75 18 3
Neighs:        45567.3 ave      174668 max         558 min
Histogram: 55 35 80 82 19 12 4 0 0 1

Total # of neighbors = 13123388
Ave neighs/atom = 31.381476
Ave special neighs/atom = 0.0000000
Neighbor list builds = 495670
Dangerous builds = 431820

Total wall time: 7:18:17
