LAMMPS (24 Dec 2020)
OMP_NUM_THREADS environment is not set. Defaulting to 1 thread. (src/comm.cpp:94)
  using 1 OpenMP thread(s) per MPI task
#Read the equilibrated lj fluid and add nanocubes

units           lj
atom_style      full
atom_modify     map array first cubes
dimension       3
boundary        p p f
pair_style      lj/cut/opt 2.0

variable        sigma           equal 1.0
variable        epsilon         equal 1.0
read_restart	restart.dat.5000000
Reading restart file ...
  restart file = 24 Dec 2020, LAMMPS = 24 Dec 2020
WARNING: Restart file used different # of processors: 192 vs. 288 (src/read_restart.cpp:697)
  restoring atom style full from restart
  orthogonal box = (0.0000000 0.0000000 0.0000000) to (80.000000 80.000000 160.00000)
  6 by 4 by 12 MPI processor grid
  restoring pair style lj/smooth/linear from restart
  439061 atoms
Finding 1-2 1-3 1-4 neighbors ...
  special bond factors lj:    0        0        0       
  special bond factors coul:  0        0        0       
     0 = max # of 1-2 neighbors
     0 = max # of 1-3 neighbors
     0 = max # of 1-4 neighbors
     1 = max # of special neighbors
  special bonds CPU = 2.334 seconds
  read_restart CPU = 2.733 seconds

group		solvent type 1
439061 atoms in group solvent

read_data	data_96.cubes group cubes add append
Reading data file ...
  orthogonal box = (0.0000000 0.0000000 0.0000000) to (80.000000 80.000000 160.00000)
  6 by 4 by 12 MPI processor grid
WARNING: Pair style in data file differs from currently defined pair style (src/read_data.cpp:588)
  reading atoms ...
  127776 atoms
  reading velocities ...
  127776 velocities
Finding 1-2 1-3 1-4 neighbors ...
  special bond factors lj:    0        0        0       
  special bond factors coul:  0        0        0       
     0 = max # of 1-2 neighbors
     0 = max # of 1-3 neighbors
     0 = max # of 1-4 neighbors
     1 = max # of special neighbors
  special bonds CPU = 0.032 seconds
  read_data CPU = 0.325 seconds

group 		hull  type 2
57792 atoms in group hull
group 		dummy type 3
69984 atoms in group dummy

neighbor      0.4 bin
neigh_modify  exclude molecule/intra cubes


pair_modify   shift yes

pair_coeff    1 1 1.0 1.0 #solvent
pair_coeff    2 2 1.0 1.0 1.12 #np
pair_coeff    3 3 0.0 0.0 0.0 #dummy
pair_coeff    2 3 0.0 0.0 0.0 #np dummy
pair_coeff    1 2 ${eps} ${sig} ${nscut} #np solvent
pair_coeff    1 2 2.0 ${sig} ${nscut} 
pair_coeff    1 2 2.0 2.0 ${nscut} 
pair_coeff    1 2 2.0 2.0 4.0 
pair_coeff    1 3 0.0 0.0 2.5 #dummy solvent

# delete solvent where the cubes are
delete_atoms  overlap 2.0 solvent cubes
System init for delete_atoms ...
Neighbor list info ...
  update every 1 steps, delay 10 steps, check yes
  max neighbors/atom: 2000, page size: 100000
  master list distance cutoff = 4.4
  ghost atom cutoff = 4.4
  binsize = 2.2, bins = 37 37 73
  2 neighbor lists, perpetual/occasional/extra = 1 1 0
  (1) command delete_atoms, occasional
      attributes: full, newton on
      pair build: full/bin
      stencil: full/bin/3d
      bin: standard
  (2) pair lj/smooth/linear, perpetual
      attributes: half, newton on
      pair build: half/bin/newton
      stencil: half/bin/3d/newton
      bin: standard
WARNING: Delete_atoms cutoff > minimum neighbor cutoff (src/delete_atoms.cpp:307)
WARNING: Ignoring 'compress yes' for molecular system (src/delete_atoms.cpp:125)
Deleted 148648 atoms, new total = 418189



pair_coeff    1 1 1.0 1.0 #solvent
pair_coeff    2 2 1.0 1.0 1.12 #np
pair_coeff    3 3 0.0 0.0 0.0 #dummy
pair_coeff    2 3 0.0 0.0 0.0 #np dummy
pair_coeff    1 2 ${eps} ${sig} ${nscut} #np solvent
pair_coeff    1 2 2.0 ${sig} ${nscut} 
pair_coeff    1 2 2.0 2.0 ${nscut} 
pair_coeff    1 2 2.0 2.0 4.0 
pair_coeff    1 3 0.0 0.0 0.0 #dummy solvent


comm_modify   mode multi cutoff/multi 1 2.0 cutoff/multi 2 2.0 cutoff/multi 3 8.67

reset_timestep 	0

balance 	1.05 shift z 10 1.05
Balancing ...
Neighbor list info ...
  update every 1 steps, delay 10 steps, check yes
  max neighbors/atom: 2000, page size: 100000
  master list distance cutoff = 4.4
  ghost atom cutoff = 8.67
  binsize = 2.2, bins = 37 37 73
  1 neighbor lists, perpetual/occasional/extra = 1 0 0
  (1) pair lj/smooth/linear, perpetual
      attributes: half, newton on
      pair build: half/bin/newton
      stencil: half/bin/3d/newton
      bin: standard
 rebalancing time: 0.005 seconds
  iteration count = 4
  initial/final maximal load/proc = 2244.0000 2124.0000
  initial/final imbalance factor  = 1.5454065 1.4627644
  x cuts: 0.0000000 0.16666667 0.33333333 0.50000000 0.66666667 0.83333333 1.0000000
  y cuts: 0.0000000 0.25000000 0.50000000 0.75000000 1.0000000
  z cuts: 0.0000000 0.057291667 0.11979167 0.17187500 0.23958333 0.30208333 0.34375000 0.41145833 0.46354167 0.51562500 0.59895833 0.64583333 1.0000000

####################### WALLS ###########################

variable       epsilonWall equal 2*${epsilon}
variable       epsilonWall equal 2*1
variable       repulsive   equal   0.7147*${sigma}
variable       repulsive   equal   0.7147*1
variable       full	   equal   3*${sigma}
variable       full	   equal   3*1
region         lowWall block EDGE EDGE EDGE EDGE EDGE 2

fix            topWall all wall/lj93 zhi EDGE 	       ${epsilonWall} ${sigma} ${repulsive} units box
fix            topWall all wall/lj93 zhi EDGE 	       2 ${sigma} ${repulsive} units box
fix            topWall all wall/lj93 zhi EDGE 	       2 1 ${repulsive} units box
fix            topWall all wall/lj93 zhi EDGE 	       2 1 0.7147 units box
fix            lowSol solvent wall/lj93 zlo EDGE                ${epsilonWall} ${sigma} ${full} units box
fix            lowSol solvent wall/lj93 zlo EDGE                2 ${sigma} ${full} units box
fix            lowSol solvent wall/lj93 zlo EDGE                2 1 ${full} units box
fix            lowSol solvent wall/lj93 zlo EDGE                2 1 3 units box
fix 	       lowCub cubes wall/lj93 zlo EDGE                ${epsilonWall} ${sigma} ${repulsive} units box
fix 	       lowCub cubes wall/lj93 zlo EDGE                2 ${sigma} ${repulsive} units box
fix 	       lowCub cubes wall/lj93 zlo EDGE                2 1 ${repulsive} units box
fix 	       lowCub cubes wall/lj93 zlo EDGE                2 1 0.7147 units box


###################### COMPUTES ##########################

compute        bin1 solvent chunk/atom bin/1d z lower 1.0 units box


######################  FIXES ############################


fix             peclet solvent ave/chunk 10 10 10000 bin1 density/number norm                  none ave one file density.profile

fix              temp solvent ave/chunk 10 10 10000 bin1 temp norm                  none ave one file temp.profile

fix             1 cubes rigid/nve/small molecule
  create bodies CPU = 0.048 seconds
  96 rigid bodies with 127776 atoms
  8.6602540 = max distance from body owner to body atom

fix             2 solvent nve# temp ${temp} ${temp} 10


## Thermostat
region          regthermo block EDGE EDGE EDGE EDGE 0 15
group           thermo dynamic solvent region regthermo every 1000
dynamic group thermo defined
fix             3 thermo langevin ${temp} ${temp} 10 156453
fix             3 thermo langevin 0.6 ${temp} 10 156453
fix             3 thermo langevin 0.6 0.6 10 156453


#### Load balancing

fix             bal all balance 1000 1.05 shift z 10 1.05

############### Diagnostics and computes ###################

compute        	com cubes          rigid/local   1 mol x y z
compute        	quat cubes         rigid/local   1 mol quatw quati quatj quatk

compute 	cc2 cubes 	   chunk/atom 	 molecule
compute 	msd cubes 	   msd/chunk 	 cc2

fix 		msd all ave/time  1 1 10000 c_msd[*] file dump.msd ave one mode vector

dump            1 all custom 500000 dump.lammpstrj id mol type x y z
dump		cubetrj hull custom 500000 cubes.lammpstrj id mol type x y z
dump            com cubes local 10000 dump.*.xyz c_com[*]
dump	        xyz hull xyz 100000 cubes.xyz
dump            quat cubes      local 10000 dump.*.quat c_quat[*]
#dump		mol cubes molfile 10000 mol.xyz xyz


dump            2 all image 10000 image.*.png type type zoom 1.5 size 1280 720
dump_modify     2 pad 8
dump		image cubes image 10000 image_cubes.*.png type type zoom 1.5 size 1280 720
dump_modify	image pad 8
dump            3 all movie 5000 movie.avi type type zoom 1.5 size 1280 720
dump		4 cubes movie 5000 movie_cubes.avi type type size 1280 720


thermo          1000
thermo_style    custom step temp epair evdwl etotal press pe ke atoms

restart         1000000 restart.dat
timestep        0.005
timer           full
New timer settings: style=full  mode=nosync  timeout=off

run 		5000000
Per MPI rank memory allocation (min/avg/max) = 14.12 | 20.75 | 23.70 Mbytes
Step Temp E_pair E_vdwl TotEng Press PotEng KinEng Atoms 
       0   0.60857357   -2.4417602   -2.4417602   -1.8074038   -1.6952413   -2.4417602   0.63435641   418189 
    1000    1.3414949   -3.2624059   -3.2624059   -1.8640772   0.53331837   -3.2624059    1.3983287   418189 
    2000    1.3712728   -3.3529265   -3.3529265   -1.9235584   0.53478473   -3.3529265    1.4293681   418189 
    3000    1.3566295   -3.3932954   -3.3932954   -1.9791909    0.4903564   -3.3932954    1.4141045   418189 
    4000    1.3354692   -3.4229423   -3.4229423   -2.0308946   0.45371562   -3.4229423    1.3920477   418189 
    5000    1.3138627   -3.4464899   -3.4464899    -2.076964   0.40889128   -3.4464899    1.3695259   418189 
    6000    1.2939434   -3.4620456   -3.4620456    -2.113283   0.37116413   -3.4620456    1.3487626   418189 
    7000     1.275912   -3.4722299   -3.4722299   -2.1422626   0.32210288   -3.4722299    1.3299673   418189 
    8000    1.2663943   -3.4837881   -3.4837881   -2.1637417   0.29252568   -3.4837881    1.3200464   418189 
    9000     1.263033   -3.4985526   -3.4985526   -2.1820099   0.30781725   -3.4985526    1.3165427   418189 
   10000    1.2658239   -3.5168855   -3.5168855   -2.1974336   0.27832802   -3.5168855    1.3194518   418189 
   11000    1.2682734   -3.5329881   -3.5329881    -2.210983   0.30570544   -3.5329881     1.322005   418189 
   12000    1.2669024   -3.5421272   -3.5421272   -2.2215511   0.32312776   -3.5421272     1.320576   418189 
   13000    1.2672253    -3.552709    -3.552709   -2.2317965   0.33586853    -3.552709    1.3209126   418189 
   14000    1.2637136   -3.5580779   -3.5580779   -2.2408258   0.33477096   -3.5580779    1.3172521   418189 
   15000    1.2577811   -3.5603351   -3.5603351   -2.2492669   0.33258875   -3.5603351    1.3110682   418189 
   16000    1.2543639   -3.5641656   -3.5641656   -2.2566593    0.3600663   -3.5641656    1.3075063   418189 
   17000    1.2473706   -3.5640146   -3.5640146   -2.2637979   0.33463401   -3.5640146    1.3002167   418189 
   18000    1.2439577   -3.5673908   -3.5673908   -2.2707316   0.33955928   -3.5673908    1.2966592   418189 
   19000    1.2395101   -3.5687458   -3.5687458   -2.2767227   0.33265554   -3.5687458    1.2920232   418189 
   20000     1.234116   -3.5683212   -3.5683212   -2.2819207   0.31877244   -3.5683212    1.2864005   418189 
   21000     1.229521   -3.5685475   -3.5685475   -2.2869366   0.32135247   -3.5685475     1.281611   418189 
   22000    1.2234271    -3.567138    -3.567138   -2.2918791   0.32469487    -3.567138    1.2752589   418189 
   23000    1.2201252   -3.5689351   -3.5689351   -2.2971181   0.31277786   -3.5689351     1.271817   418189 
   24000    1.2172569   -3.5693806   -3.5693806   -2.3005534   0.29275952   -3.5693806    1.2688272   418189 
   25000    1.2129467   -3.5698954   -3.5698954   -2.3055609   0.30673178   -3.5698954    1.2643344   418189 
   26000    1.2088097   -3.5714314   -3.5714314   -2.3114093   0.30707492   -3.5714314    1.2600221   418189 
   27000    1.2043304   -3.5743642   -3.5743642   -2.3190111   0.30852801   -3.5743642     1.255353   418189 
   28000    1.2052562   -3.5848531   -3.5848531    -2.328535   0.31756525   -3.5848531    1.2563181   418189 
   29000    1.2009143   -3.5908882   -3.5908882    -2.339096   0.34898744   -3.5908882    1.2517923   418189 
   30000    1.1953793    -3.595818    -3.595818   -2.3497953   0.33948541    -3.595818    1.2460227   418189 
   31000    1.1902084   -3.6030211   -3.6030211   -2.3623884   0.34555823   -3.6030211    1.2406328   418189 
   32000    1.1872582    -3.612099    -3.612099   -2.3745414   0.34821529    -3.612099    1.2375576   418189 
   33000    1.1803161   -3.6144457   -3.6144457   -2.3841244   0.35605351   -3.6144457    1.2303213   418189 
   34000    1.1745955   -3.6187631   -3.6187631   -2.3944046   0.33816946   -3.6187631    1.2243585   418189 
   35000    1.1699873    -3.624315    -3.624315     -2.40476   0.33456556    -3.624315     1.219555   418189 
   36000    1.1635549   -3.6270667   -3.6270667   -2.4142167   0.32479395   -3.6270667      1.21285   418189 
   37000    1.1592152   -3.6304715   -3.6304715    -2.422145   0.29975975   -3.6304715    1.2083265   418189 
   38000    1.1560593   -3.6349067   -3.6349067   -2.4298697     0.299958   -3.6349067    1.2050369   418189 
   39000    1.1521454   -3.6385491   -3.6385491   -2.4375919   0.32052825   -3.6385491    1.2009572   418189 
   40000    1.1486117   -3.6410616   -3.6410616   -2.4437879   0.29160184   -3.6410616    1.1972738   418189 
   41000    1.1421843   -3.6411461   -3.6411461    -2.450572   0.29749211   -3.6411461    1.1905741   418189 
   42000    1.1423032   -3.6478689   -3.6478689   -2.4571709   0.28051471   -3.6478689     1.190698   418189 
   43000    1.1349551   -3.6468612   -3.6468612   -2.4638225    0.2908977   -3.6468612    1.1830386   418189 
   44000    1.1340826   -3.6521277   -3.6521277   -2.4699985   0.28479819   -3.6521277    1.1821291   418189 
   45000    1.1352196   -3.6586942   -3.6586942   -2.4753799   0.29855351   -3.6586942    1.1833143   418189 
   46000    1.1329459   -3.6618334   -3.6618334   -2.4808891   0.27504584   -3.6618334    1.1809443   418189 
   47000    1.1337309   -3.6670479   -3.6670479   -2.4852853    0.2519425   -3.6670479    1.1817626   418189 
   48000    1.1314051    -3.671215    -3.671215   -2.4918768   0.26958279    -3.671215    1.1793382   418189 
   49000    1.1323848   -3.6766012   -3.6766012   -2.4962417   0.26830513   -3.6766012    1.1803595   418189 
   50000    1.1294045   -3.6778192   -3.6778192   -2.5005664   0.27287421   -3.6778192    1.1772529   418189 
   51000    1.1268987   -3.6791475   -3.6791475   -2.5045066   0.27895365   -3.6791475    1.1746409   418189 
   52000    1.1268914   -3.6832503   -3.6832503   -2.5086171    0.2686098   -3.6832503    1.1746333   418189 
   53000    1.1242254   -3.6857274   -3.6857274   -2.5138731   0.26568914   -3.6857274    1.1718543   418189 
   54000    1.1216496   -3.6868501   -3.6868501   -2.5176807   0.27414429   -3.6868501    1.1691694   418189 
   55000    1.1214883   -3.6911189   -3.6911189   -2.5221177    0.2537812   -3.6911189    1.1690013   418189 
   56000     1.115335   -3.6887762   -3.6887762    -2.526189   0.25654405   -3.6887762    1.1625872   418189 
   57000    1.1154692   -3.6919992   -3.6919992   -2.5292721   0.25940322   -3.6919992    1.1627271   418189 
   58000    1.1167927   -3.6971202   -3.6971202   -2.5330134   0.26433232   -3.6971202    1.1641067   418189 
   59000    1.1127676   -3.6968544   -3.6968544   -2.5369433   0.26562834   -3.6968544    1.1599112   418189 
   60000    1.1138806   -3.7012461   -3.7012461   -2.5401749    0.2487739   -3.7012461    1.1610713   418189 
   61000    1.1108535   -3.7022446   -3.7022446   -2.5443287   0.26864584   -3.7022446    1.1579159   418189 
   62000    1.1114451   -3.7066783   -3.7066783   -2.5481458    0.2835627   -3.7066783    1.1585326   418189 
   63000    1.1086192   -3.7085139   -3.7085139    -2.552927   0.29433369   -3.7085139    1.1555869   418189 
   64000    1.1072189   -3.7117057   -3.7117057   -2.5575783   0.28301223   -3.7117057    1.1541274   418189 
   65000    1.1068451   -3.7158654   -3.7158654   -2.5621276   0.27503817   -3.7158654    1.1537378   418189 
   66000    1.1034798   -3.7181548   -3.7181548   -2.5679249   0.28538183   -3.7181548    1.1502299   418189 
   67000    1.1032252    -3.722956    -3.722956   -2.5729915   0.29287256    -3.722956    1.1499645   418189 
   68000    1.1000528    -3.724427    -3.724427   -2.5777693   0.31275465    -3.724427    1.1466577   418189 
   69000    1.0980988   -3.7289662   -3.7289662   -2.5843454   0.26805118   -3.7289662    1.1446209   418189 
   70000    1.0950806   -3.7309859   -3.7309859   -2.5895111   0.28595712   -3.7309859    1.1414748   418189 
   71000    1.0932452    -3.735046    -3.735046   -2.5954844   0.29745294    -3.735046    1.1395617   418189 
   72000    1.0926942   -3.7392503   -3.7392503    -2.600263   0.27041722   -3.7392503    1.1389873   418189 
   73000     1.090997   -3.7415975   -3.7415975   -2.6043793   0.29689055   -3.7415975    1.1372182   418189 
   74000    1.0892321   -3.7445507   -3.7445507   -2.6091721    0.2673114   -3.7445507    1.1353785   418189 
   75000    1.0861712   -3.7457315   -3.7457315   -2.6135436     0.266901   -3.7457315    1.1321879   418189 
   76000    1.0852458   -3.7488947   -3.7488947   -2.6176713   0.24666663   -3.7488947    1.1312234   418189 
   77000    1.0836262   -3.7514612   -3.7514612   -2.6219261   0.25430644   -3.7514612    1.1295351   418189 
   78000    1.0814651   -3.7538029   -3.7538029   -2.6265205   0.25470616   -3.7538029    1.1272825   418189 
   79000     1.079469   -3.7552502   -3.7552502   -2.6300483   0.26124831   -3.7552502    1.1252018   418189 
   80000    1.0787516   -3.7587508   -3.7587508   -2.6342968   0.27094391   -3.7587508     1.124454   418189 
   81000    1.0758517   -3.7590707   -3.7590707   -2.6376395   0.25270466   -3.7590707    1.1214312   418189 
   82000    1.0734934   -3.7614258   -3.7614258   -2.6424528   0.24569007   -3.7614258     1.118973   418189 
   83000    1.0709435   -3.7623815   -3.7623815   -2.6460664   0.24648923   -3.7623815    1.1163151   418189 
   84000    1.0704868   -3.7647722   -3.7647722   -2.6489331   0.24410566   -3.7647722    1.1158391   418189 
   85000    1.0713753   -3.7690187   -3.7690187   -2.6522535   0.25478616   -3.7690187    1.1167652   418189 
   86000    1.0715489   -3.7735009   -3.7735009   -2.6565548   0.25668823   -3.7735009    1.1169461   418189 
   87000    1.0675035   -3.7728514   -3.7728514   -2.6601221   0.27142881   -3.7728514    1.1127293   418189 
   88000    1.0679605   -3.7766611   -3.7766611   -2.6634554   0.26626435   -3.7766611    1.1132057   418189 
   89000    1.0671523   -3.7785871   -3.7785871   -2.6662238   0.24592969   -3.7785871    1.1123633   418189 
   90000    1.0650048   -3.7804479   -3.7804479   -2.6703231   0.26751316   -3.7804479    1.1101248   418189 
   91000    1.0636896   -3.7824453   -3.7824453   -2.6736914    0.2541322   -3.7824453    1.1087539   418189 
   92000    1.0631532    -3.785649    -3.785649   -2.6774542   0.24671461    -3.785649    1.1081948   418189 
   93000    1.0610641   -3.7867906   -3.7867906   -2.6807734   0.23970404   -3.7867906    1.1060172   418189 
   94000    1.0627273   -3.7918131   -3.7918131   -2.6840623   0.26833857   -3.7918131    1.1077509   418189 
   95000    1.0600507   -3.7920662   -3.7920662   -2.6871054    0.2579237   -3.7920662    1.1049608   418189 
   96000     1.058039   -3.7944352   -3.7944352   -2.6915713   0.23263156   -3.7944352    1.1028639   418189 
   97000    1.0554502   -3.7956622   -3.7956622   -2.6954968    0.2560913   -3.7956622    1.1001654   418189 
   98000    1.0563774   -3.8002248   -3.8002248   -2.6990929   0.26193281   -3.8002248    1.1011319   418189 
   99000    1.0555141   -3.8028702   -3.8028702   -2.7026381   0.25274913   -3.8028702     1.100232   418189 
  100000     1.052939   -3.8041915   -3.8041915   -2.7066437   0.24915143   -3.8041915    1.0975478   418189 
  101000    1.0522331   -3.8067034   -3.8067034   -2.7098913      0.25286   -3.8067034     1.096812   418189 
  102000    1.0486541   -3.8060122   -3.8060122   -2.7129308   0.27932239   -3.8060122    1.0930814   418189 
  103000    1.0481314   -3.8084741   -3.8084741   -2.7159376   0.23068014   -3.8084741    1.0925365   418189 
  104000    1.0459328   -3.8099861   -3.8099861   -2.7197412   0.22950955   -3.8099861    1.0902448   418189 
  105000     1.046054   -3.8144176   -3.8144176   -2.7240464   0.25470601   -3.8144176    1.0903712   418189 
  106000    1.0449472   -3.8167108   -3.8167108   -2.7274934   0.24611748   -3.8167108    1.0892174   418189 
  107000    1.0433997   -3.8179198   -3.8179198   -2.7303154   0.24599823   -3.8179198    1.0876044   418189 
  108000    1.0416468   -3.8193335   -3.8193335   -2.7335562   0.23409667   -3.8193335    1.0857773   418189 
  109000    1.0405406   -3.8220801   -3.8220801   -2.7374559   0.24232034   -3.8220801    1.0846241   418189 
  110000    1.0400724   -3.8254562   -3.8254562   -2.7413201   0.24965069   -3.8254562    1.0841361   418189 
  111000    1.0372852   -3.8261146   -3.8261146   -2.7448837   0.25275469   -3.8261146    1.0812308   418189 
  112000    1.0367692   -3.8282904   -3.8282904   -2.7475974   0.25841204   -3.8282904     1.080693   418189 
  113000    1.0336217   -3.8286189   -3.8286189   -2.7512067   0.25772206   -3.8286189    1.0774122   418189 
  114000    1.0338297   -3.8321597   -3.8321597   -2.7545308   0.24364007   -3.8321597    1.0776289   418189 
  115000    1.0332336   -3.8337836   -3.8337836   -2.7567761   0.24542982   -3.8337836    1.0770076   418189 
  116000    1.0317176   -3.8352683   -3.8352683   -2.7598409   0.22224138   -3.8352683    1.0754273   418189 
  117000    1.0300468   -3.8369024   -3.8369024   -2.7632167   0.23138531   -3.8369024    1.0736858   418189 
  118000    1.0315126   -3.8406888   -3.8406888   -2.7654751   0.24128278   -3.8406888    1.0752136   418189 
  119000    1.0294614   -3.8412794   -3.8412794   -2.7682038   0.23093746   -3.8412794    1.0730756   418189 
  120000    1.0267226   -3.8415553   -3.8415553   -2.7713345   0.24464735   -3.8415553    1.0702208   418189 
  121000    1.0254064   -3.8429963   -3.8429963   -2.7741475   0.24573302   -3.8429963    1.0688487   418189 
  122000    1.0247934   -3.8458083   -3.8458083   -2.7775985   0.21986549   -3.8458083    1.0682098   418189 
  123000    1.0249776   -3.8493213   -3.8493213   -2.7809195   0.24719354   -3.8493213    1.0684018   418189 
  124000    1.0218523   -3.8498293   -3.8498293   -2.7846852   0.24718847   -3.8498293    1.0651441   418189 
  125000    1.0208595   -3.8518949   -3.8518949   -2.7877856   0.21035988   -3.8518949    1.0641093   418189 
  126000    1.0205602   -3.8544659   -3.8544659   -2.7906686   0.20885485   -3.8544659    1.0637973   418189 
  127000    1.0216577   -3.8586848   -3.8586848   -2.7937436   0.22840038   -3.8586848    1.0649412   418189 
  128000    1.0168265   -3.8574792   -3.8574792   -2.7975738   0.22518325   -3.8574792    1.0599054   418189 
  129000    1.0159712   -3.8591982   -3.8591982   -2.8001844    0.2189878   -3.8591982    1.0590138   418189 
  130000    1.0168373   -3.8629838   -3.8629838   -2.8030672   0.23417303   -3.8629838    1.0599167   418189 
  131000    1.0145063   -3.8628774   -3.8628774   -2.8053905   0.23640046   -3.8628774    1.0574868   418189 
  132000    1.0153561   -3.8661044   -3.8661044   -2.8077317   0.24571262   -3.8661044    1.0583727   418189 
  133000    1.0151224   -3.8692857   -3.8692857   -2.8111567   0.25368855   -3.8692857     1.058129   418189 
  134000    1.0129282   -3.8689026   -3.8689026   -2.8130607   0.24277319   -3.8689026    1.0558419   418189 
  135000      1.00967   -3.8687873   -3.8687873   -2.8163416   0.21803403   -3.8687873    1.0524456   418189 
  136000    1.0111186   -3.8725579   -3.8725579   -2.8186023   0.22178089   -3.8725579    1.0539556   418189 
  137000    1.0076819   -3.8727735   -3.8727735   -2.8224001   0.23089265   -3.8727735    1.0503733   418189 
  138000    1.0092118   -3.8764395   -3.8764395   -2.8244714   0.23814749   -3.8764395    1.0519681   418189 
  139000    1.0060349   -3.8756324   -3.8756324   -2.8269758   0.24305927   -3.8756324    1.0486566   418189 
  140000    1.0055804   -3.8776248   -3.8776248   -2.8294419   0.24422345   -3.8776248    1.0481829   418189 
  141000    1.0050314   -3.8797737   -3.8797737   -2.8321632   0.21436009   -3.8797737    1.0476105   418189 
  142000     1.004012   -3.8816006   -3.8816006   -2.8350527   0.22793811   -3.8816006     1.046548   418189 
  143000    1.0042456   -3.8843288   -3.8843288   -2.8375373   0.22535019   -3.8843288    1.0467915   418189 
  144000    1.0021144   -3.8848847   -3.8848847   -2.8403147   0.23533941   -3.8848847      1.04457   418189 
  145000     1.003388   -3.8884639   -3.8884639   -2.8425664   0.22092801   -3.8884639    1.0458975   418189 
  146000    1.0019547   -3.8892036   -3.8892036   -2.8448001   0.21235559   -3.8892036    1.0444035   418189 
  147000   0.99999127   -3.8898265   -3.8898265   -2.8474695   0.22402305   -3.8898265    1.0423569   418189 
  148000    1.0004726    -3.893692    -3.893692   -2.8508334   0.23822176    -3.893692    1.0428586   418189 
  149000   0.99740317   -3.8932906   -3.8932906   -2.8536314   0.23343253   -3.8932906    1.0396592   418189 
  150000    0.9961413   -3.8947681   -3.8947681   -2.8564243   0.23167492   -3.8947681    1.0383438   418189 
  151000   0.99315251   -3.8943452   -3.8943452   -2.8591168   0.22418042   -3.8943452    1.0352284   418189 
  152000    0.9942969   -3.8989498   -3.8989498   -2.8625285   0.20153196   -3.8989498    1.0364213   418189 
  153000   0.99292705   -3.8998385   -3.8998385   -2.8648451   0.20451758   -3.8998385    1.0349934   418189 
  154000   0.99289175   -3.9028125   -3.9028125   -2.8678559   0.20380583   -3.9028125    1.0349566   418189 
  155000   0.99067675   -3.9022208   -3.9022208    -2.869573   0.23674669   -3.9022208    1.0326478   418189 
  156000   0.99011738   -3.9041154   -3.9041154   -2.8720507   0.22142704   -3.9041154    1.0320647   418189 
  157000   0.98942733   -3.9063961   -3.9063961   -2.8750507    0.2233179   -3.9063961    1.0313454   418189 
  158000   0.98831653   -3.9076814   -3.9076814   -2.8774939   0.22165015   -3.9076814    1.0301876   418189 
  159000   0.98658233   -3.9090055   -3.9090055   -2.8806256     0.218966   -3.9090055    1.0283799   418189 
  160000   0.98850669   -3.9126536   -3.9126536   -2.8822679   0.21732597   -3.9126536    1.0303858   418189 
  161000   0.98568384   -3.9122819   -3.9122819   -2.8848386   0.21169764   -3.9122819    1.0274433   418189 
  162000   0.98473895   -3.9137504   -3.9137504    -2.887292   0.23196819   -3.9137504    1.0264584   418189 
  163000   0.98440302   -3.9149375   -3.9149375   -2.8888293   0.22402048   -3.9149375    1.0261083   418189 
  164000   0.98435104   -3.9173126   -3.9173126   -2.8912585   0.21438185   -3.9173126    1.0260541   418189 
  165000   0.98190407   -3.9173169   -3.9173169   -2.8938135   0.21201169   -3.9173169    1.0235034   418189 
  166000   0.98066537   -3.9192946   -3.9192946   -2.8970823   0.22601444   -3.9192946    1.0222122   418189 
  167000   0.98148538   -3.9221517   -3.9221517   -2.8990847   0.21796671   -3.9221517     1.023067   418189 
  168000   0.98080564   -3.9244342   -3.9244342   -2.9020758   0.20392326   -3.9244342    1.0223585   418189 
  169000   0.98024096   -3.9266255   -3.9266255   -2.9048556   0.20650554   -3.9266255    1.0217699   418189 
  170000   0.97958979   -3.9274554   -3.9274554   -2.9063643   0.20310926   -3.9274554    1.0210911   418189 
  171000   0.97679888   -3.9271332   -3.9271332   -2.9089512   0.22625012   -3.9271332     1.018182   418189 
  172000   0.97674304   -3.9283778   -3.9283778   -2.9102541   0.20239291   -3.9283778    1.0181237   418189 
  173000   0.97681675   -3.9307942   -3.9307942   -2.9125936   0.22873359   -3.9307942    1.0182006   418189 
  174000   0.97612518   -3.9328899   -3.9328899   -2.9154102   0.20876448   -3.9328899    1.0174797   418189 
  175000     0.973472    -3.932539    -3.932539   -2.9178249    0.2048897    -3.932539    1.0147141   418189 
  176000   0.97312679   -3.9345965   -3.9345965   -2.9202422   0.20640053   -3.9345965    1.0143543   418189 
  177000   0.97224101   -3.9361344   -3.9361344   -2.9227034   0.20582012   -3.9361344     1.013431   418189 
  178000    0.9728623   -3.9390424   -3.9390424   -2.9249638   0.19709097   -3.9390424    1.0140786   418189 
  179000   0.97224829   -3.9404306   -3.9404306   -2.9269921   0.21873487   -3.9404306    1.0134386   418189 
  180000   0.97134882   -3.9404449   -3.9404449   -2.9279439   0.21489816   -3.9404449     1.012501   418189 
  181000   0.96989146   -3.9423226   -3.9423226   -2.9313407   0.21618259   -3.9423226    1.0109819   418189 
  182000   0.96933885   -3.9438027   -3.9438027   -2.9333968   0.18534049   -3.9438027    1.0104059   418189 
  183000   0.96853111   -3.9457681   -3.9457681   -2.9362042   0.21332367   -3.9457681    1.0095639   418189 
  184000   0.96648855   -3.9462799   -3.9462799   -2.9388451   0.21126735   -3.9462799    1.0074348   418189 
  185000   0.96755043   -3.9489522   -3.9489522   -2.9404105   0.21290099   -3.9489522    1.0085417   418189 
  186000   0.96694005   -3.9508546   -3.9508546   -2.9429492   0.20250307   -3.9508546    1.0079054   418189 
  187000    0.9638737   -3.9493865   -3.9493865   -2.9446773   0.21477478   -3.9493865    1.0047092   418189 
  188000   0.96485161   -3.9530912   -3.9530912   -2.9473627   0.19888167   -3.9530912    1.0057285   418189 
  189000   0.96405177   -3.9539957   -3.9539957   -2.9491009     0.208355   -3.9539957    1.0048948   418189 
  190000   0.96425782   -3.9563049   -3.9563049   -2.9511954    0.1832475   -3.9563049    1.0051096   418189 
  191000   0.96276568   -3.9571687   -3.9571687   -2.9536145   0.22267498   -3.9571687    1.0035542   418189 
  192000   0.95863608   -3.9545191   -3.9545191   -2.9552695   0.20796509   -3.9545191   0.99924967   418189 
  193000   0.96073642   -3.9586292   -3.9586292   -2.9571902   0.20342308   -3.9586292     1.001439   418189 
  194000   0.96077938   -3.9611388   -3.9611388   -2.9596551   0.21777185   -3.9611388    1.0014838   418189 
  195000   0.95961754   -3.9613796   -3.9613796   -2.9611069   0.22461901   -3.9613796    1.0002727   418189 
  196000   0.95880332   -3.9633313   -3.9633313   -2.9639074   0.21477739   -3.9633313   0.99942399   418189 
  197000    0.9587911   -3.9650487   -3.9650487   -2.9656374   0.18771982   -3.9650487   0.99941126   418189 
  198000   0.95564579   -3.9636103   -3.9636103   -2.9674776   0.20675773   -3.9636103   0.99613269   418189 
  199000   0.95651288   -3.9671748   -3.9671748   -2.9701383   0.19501308   -3.9671748   0.99703652   418189 
  200000   0.95454591   -3.9673191   -3.9673191   -2.9723329   0.19639213   -3.9673191   0.99498621   418189 
  201000   0.95594867    -3.970584    -3.970584   -2.9741356    0.1899388    -3.970584    0.9964484   418189 
  202000   0.95287575   -3.9700911   -3.9700911   -2.9768458    0.2059008   -3.9700911    0.9932453   418189 
  203000   0.95282904   -3.9715573   -3.9715573   -2.9783607   0.20517406   -3.9715573   0.99319661   418189 
  204000    0.9529553   -3.9738516   -3.9738516   -2.9805234   0.22479414   -3.9738516   0.99332821   418189 
  205000   0.95174517   -3.9743409   -3.9743409   -2.9822741   0.18797699   -3.9743409   0.99206682   418189 
  206000   0.95257031   -3.9776197   -3.9776197   -2.9846927   0.19630816   -3.9776197   0.99292691   418189 
  207000   0.95217743   -3.9786659   -3.9786659   -2.9861485   0.20319383   -3.9786659   0.99251739   418189 
  208000    0.9509986   -3.9801238   -3.9801238   -2.9888351   0.20777258   -3.9801238   0.99128861   418189 
  209000   0.94891732   -3.9796839   -3.9796839   -2.9905648   0.19893328   -3.9796839   0.98911916   418189 
  210000   0.94668144   -3.9787778   -3.9787778   -2.9919893   0.19041293   -3.9787778   0.98678856   418189 
  211000   0.94671341   -3.9802134   -3.9802134   -2.9933915   0.18512056   -3.9802134   0.98682189   418189 
  212000   0.94586764   -3.9809525   -3.9809525   -2.9950122   0.20484869   -3.9809525   0.98594028   418189 
  213000   0.94770663   -3.9848291   -3.9848291   -2.9969719   0.19754723   -3.9848291   0.98785718   418189 
  214000   0.94439141   -3.9837599   -3.9837599   -2.9993584   0.20314675   -3.9837599   0.98440151   418189 
  215000   0.94424539   -3.9851663   -3.9851663    -3.000917   0.18929534   -3.9851663    0.9842493   418189 
  216000   0.94345026   -3.9866291   -3.9866291   -3.0032086   0.19723282   -3.9866291   0.98342048   418189 
  217000    0.9415209   -3.9869536   -3.9869536   -3.0055442   0.19278631   -3.9869536   0.98140939   418189 
  218000   0.94174531   -3.9899054   -3.9899054   -3.0082621   0.19553767   -3.9899054    0.9816433   418189 
  219000   0.93904041   -3.9885732   -3.9885732   -3.0097494   0.21296436   -3.9885732    0.9788238   418189 
  220000   0.94108743   -3.9923332   -3.9923332   -3.0113756    0.1838844   -3.9923332   0.98095755   418189 
  221000   0.93868263   -3.9926463   -3.9926463   -3.0141954   0.19536669   -3.9926463   0.97845087   418189 
  222000   0.93965081   -3.9953653   -3.9953653   -3.0159052   0.18640034   -3.9953653   0.97946007   418189 
  223000   0.93643305   -3.9939572   -3.9939572   -3.0178513   0.19227133   -3.9939572   0.97610598   418189 
  224000   0.93579247    -3.995189    -3.995189   -3.0197507   0.20354054    -3.995189   0.97543826   418189 
  225000   0.93664948   -3.9979423   -3.9979423   -3.0216107   0.17757053   -3.9979423   0.97633159   418189 
  226000   0.93519613   -3.9985604   -3.9985604   -3.0237437   0.19026614   -3.9985604   0.97481666   418189 
  227000   0.93464102   -3.9995975   -3.9995975   -3.0253594    0.1960548   -3.9995975   0.97423804   418189 
  228000   0.93385548   -4.0004105   -4.0004105   -3.0269913   0.20814249   -4.0004105   0.97341921   418189 
  229000   0.93283487   -4.0008245   -4.0008245   -3.0284691   0.19301515   -4.0008245   0.97235537   418189 
  230000     0.934239   -4.0037657   -4.0037657   -3.0299468   0.18462659   -4.0037657   0.97381898   418189 
  231000   0.93068841   -4.0025693   -4.0025693   -3.0324513   0.17535608   -4.0025693   0.97011797   418189 
  232000   0.93082891   -4.0051633   -4.0051633   -3.0348989   0.19281755   -4.0051633   0.97026442   418189 
  233000   0.93124185   -4.0073448   -4.0073448     -3.03665   0.19064764   -4.0073448   0.97069486   418189 
  234000   0.92965314   -4.0070555   -4.0070555   -3.0380167   0.18154395   -4.0070555   0.96903883   418189 
  235000   0.92799823   -4.0066189   -4.0066189   -3.0393051   0.17650555   -4.0066189   0.96731381   418189 
  236000    0.9301043   -4.0107106   -4.0107106   -3.0412014   0.19852329   -4.0107106   0.96950911   418189 
  237000   0.92799083   -4.0101583   -4.0101583   -3.0428522   0.16720095   -4.0101583    0.9673061   418189 
  238000   0.92688967   -4.0111858   -4.0111858   -3.0450275   0.19419989   -4.0111858   0.96615829   418189 
  239000   0.92779863   -4.0146728   -4.0146728   -3.0475671   0.18899429   -4.0146728   0.96710576   418189 
  240000   0.92507909   -4.0140482   -4.0140482   -3.0497772   0.16994616   -4.0140482     0.964271   418189 
  241000   0.92438604   -4.0147985   -4.0147985   -3.0512499   0.18962368   -4.0147985   0.96354859   418189 
  242000   0.92437845   -4.0163043   -4.0163043   -3.0527636   0.18560289   -4.0163043   0.96354068   418189 
  243000   0.92366638   -4.0180408   -4.0180408   -3.0552423   0.20399486   -4.0180408   0.96279844   418189 
  244000   0.92399079   -4.0197516   -4.0197516    -3.056615   0.18700022   -4.0197516   0.96313659   418189 
  245000   0.92343311   -4.0210685   -4.0210685   -3.0585132   0.20705375   -4.0210685   0.96255529   418189 
  246000   0.92283601   -4.0226591   -4.0226591   -3.0607262   0.18129457   -4.0226591   0.96193289   418189 
  247000   0.92198207   -4.0238757   -4.0238757    -3.062833   0.18302725   -4.0238757   0.96104277   418189 
  248000   0.91959579   -4.0232578   -4.0232578   -3.0647024   0.20644143   -4.0232578   0.95855539   418189 
  249000   0.91886504   -4.0239766   -4.0239766   -3.0661829   0.20205202   -4.0239766   0.95779369   418189 
  250000   0.91955169   -4.0259921   -4.0259921   -3.0674827   0.19213379   -4.0259921   0.95850943   418189 
  251000   0.91839333   -4.0264977   -4.0264977   -3.0691957   0.17873243   -4.0264977   0.95730199   418189 
  252000   0.91727897   -4.0268157   -4.0268157   -3.0706753   0.17717068   -4.0268157   0.95614043   418189 
  253000   0.91917113   -4.0303831   -4.0303831   -3.0722703    0.1772474   -4.0303831   0.95811275   418189 
  254000   0.91688576   -4.0301822   -4.0301822   -3.0744516   0.18265822   -4.0301822   0.95573056   418189 
  255000   0.91706229   -4.0319285   -4.0319285   -3.0760139   0.18986921   -4.0319285   0.95591456   418189 
  256000   0.91523754   -4.0323273   -4.0323273   -3.0783148   0.18153371   -4.0323273   0.95401251   418189 
  257000   0.91519605   -4.0338503   -4.0338503    -3.079881   0.18331804   -4.0338503   0.95396925   418189 
  258000   0.91496447   -4.0352162   -4.0352162   -3.0814883   0.17109389   -4.0352162   0.95372787   418189 
  259000   0.91262799   -4.0347756   -4.0347756   -3.0834832   0.18063287   -4.0347756   0.95129239   418189 
  260000   0.91354319   -4.0374519   -4.0374519   -3.0852055   0.18528495   -4.0374519   0.95224637   418189 
  261000    0.9116232   -4.0372899   -4.0372899   -3.0870449   0.17158755   -4.0372899   0.95024504   418189 
  262000   0.91154845   -4.0383903   -4.0383903   -3.0882232   0.17942671   -4.0383903   0.95016712   418189 
  263000   0.90959427    -4.038237    -4.038237   -3.0901069   0.17169117    -4.038237   0.94813015   418189 
  264000   0.91098518   -4.0418149   -4.0418149    -3.092235   0.17148894   -4.0418149   0.94957999   418189 
  265000   0.91031784   -4.0427154   -4.0427154    -3.093831   0.17436265   -4.0427154   0.94888437   418189 
  266000   0.90989383   -4.0449038   -4.0449038   -3.0964614   0.18163364   -4.0449038    0.9484424   418189 
  267000   0.90851795   -4.0449953   -4.0449953   -3.0979871   0.19629857   -4.0449953   0.94700824   418189 
  268000   0.90786302   -4.0458702   -4.0458702   -3.0995447     0.170159   -4.0458702   0.94632555   418189 
  269000   0.90813286   -4.0471596   -4.0471596   -3.1005528   0.17976917   -4.0471596   0.94660683   418189 
  270000   0.90882376   -4.0504006   -4.0504006   -3.1030736   0.18593424   -4.0504006     0.947327   418189 
  271000   0.90771365   -4.0516032   -4.0516032   -3.1054334   0.17356628   -4.0516032   0.94616986   418189 
  272000   0.90753819   -4.0525935   -4.0525935   -3.1066066   0.16406991   -4.0525935   0.94598697   418189 
  273000   0.90603652   -4.0527557   -4.0527557    -3.108334   0.16731221   -4.0527557   0.94442167   418189 
  274000   0.90603571   -4.0536948   -4.0536948    -3.109274    0.1954779   -4.0536948   0.94442082   418189 
  275000   0.90364942   -4.0530659   -4.0530659   -3.1111325   0.16911613   -4.0530659   0.94193344   418189 
  276000   0.90424596   -4.0559331   -4.0559331   -3.1133779   0.19297243   -4.0559331   0.94255525   418189 
  277000   0.90312683   -4.0568194   -4.0568194   -3.1154307   0.16570459   -4.0568194   0.94138871   418189 
  278000   0.90379298   -4.0585657   -4.0585657   -3.1164826   0.18049482   -4.0585657   0.94208308   418189 
  279000   0.90290454   -4.0588908   -4.0588908   -3.1177338   0.19120059   -4.0588908     0.941157   418189 
  280000   0.90364107   -4.0613691   -4.0613691   -3.1194443   0.19001802   -4.0613691   0.94192474   418189 
  281000   0.89980674   -4.0596238   -4.0596238   -3.1216959   0.18403329   -4.0596238   0.93792796   418189 
  282000   0.89831527   -4.0609881   -4.0609881   -3.1246148   0.16974313   -4.0609881   0.93637331   418189 
  283000   0.90001171   -4.0638431   -4.0638431   -3.1257015   0.16712595   -4.0638431   0.93814162   418189 
  284000   0.89719773   -4.0630404   -4.0630404    -3.127832   0.18948746   -4.0630404   0.93520842   418189 
  285000   0.89722876   -4.0638769   -4.0638769   -3.1286362   0.17928856   -4.0638769   0.93524076   418189 
  286000   0.89617671   -4.0654233   -4.0654233   -3.1312792   0.18264319   -4.0654233   0.93414414   418189 
  287000   0.89676076   -4.0685433   -4.0685433   -3.1337904   0.16841935   -4.0685433   0.93475294   418189 
  288000    0.8944866   -4.0665195   -4.0665195    -3.134137   0.17997689   -4.0665195   0.93238243   418189 
  289000   0.89743638   -4.0705208   -4.0705208   -3.1350636   0.16655804   -4.0705208   0.93545718   418189 
  290000   0.89495119   -4.0698738   -4.0698738   -3.1370071   0.17844097   -4.0698738    0.9328667   418189 
  291000   0.89410568   -4.0709154   -4.0709154   -3.1389301   0.15982599   -4.0709154   0.93198537   418189 
  292000   0.89490706   -4.0739811   -4.0739811   -3.1411604   0.18145132   -4.0739811    0.9328207   418189 
  293000    0.8909321   -4.0710616   -4.0710616   -3.1423842   0.16896791   -4.0710616   0.92867734   418189 
  294000   0.89133306   -4.0735208   -4.0735208   -3.1444255   0.17412043   -4.0735208   0.92909529   418189 
  295000   0.89176324   -4.0754822   -4.0754822   -3.1459385   0.17745051   -4.0754822   0.92954369   418189 
  296000   0.89283436   -4.0772551   -4.0772551   -3.1465949   0.16876778   -4.0772551   0.93066019   418189 
  297000   0.88860192   -4.0751013   -4.0751013   -3.1488529   0.15236522   -4.0751013   0.92624844   418189 
  298000   0.88982186   -4.0777707   -4.0777707   -3.1502506   0.15331269   -4.0777707   0.92752006   418189 
  299000   0.88915363   -4.0784967   -4.0784967   -3.1516732   0.16137989   -4.0784967   0.92682352   418189 
  300000   0.88831841   -4.0796504   -4.0796504   -3.1536975   0.17113362   -4.0796504   0.92595292   418189 
  301000   0.88724623   -4.0802378   -4.0802378   -3.1554025   0.16234409   -4.0802378   0.92483532   418189 
  302000   0.88678425    -4.081086    -4.081086   -3.1567322    0.1679651    -4.081086   0.92435376   418189 
  303000    0.8870898   -4.0814477   -4.0814477   -3.1567754    0.1699722   -4.0814477   0.92467226   418189 
  304000   0.88822667   -4.0841963   -4.0841963    -3.158339   0.17405932   -4.0841963   0.92585729   418189 
  305000    0.8862161   -4.0835367   -4.0835367   -3.1597752   0.16897586   -4.0835367   0.92376154   418189 
  306000   0.88693144     -4.08627     -4.08627   -3.1617628   0.15707068     -4.08627   0.92450718   418189 
  307000   0.88578583   -4.0860259   -4.0860259   -3.1627129   0.16273619   -4.0860259   0.92331304   418189 
  308000   0.88679447   -4.0878335   -4.0878335   -3.1634691   0.18049647   -4.0878335   0.92436441   418189 
  309000   0.88466246   -4.0876776   -4.0876776   -3.1655355   0.16302507   -4.0876776   0.92214208   418189 
  310000   0.88379363   -4.0884188   -4.0884188   -3.1671823   0.16909453   -4.0884188   0.92123644   418189 
  311000   0.88469907   -4.0903533   -4.0903533   -3.1681731   0.17341984   -4.0903533   0.92218024   418189 
  312000   0.88480898   -4.0923857   -4.0923857   -3.1700909   0.16285252   -4.0923857   0.92229481   418189 
  313000   0.88324512   -4.0928134   -4.0928134   -3.1721487   0.16410696   -4.0928134    0.9206647   418189 
  314000   0.87965308   -4.0903796   -4.0903796   -3.1734591   0.15191354   -4.0903796   0.91692048   418189 
  315000   0.88181073   -4.0940075   -4.0940075    -3.174838   0.14993446   -4.0940075   0.91916954   418189 
  316000   0.88181795   -4.0954479   -4.0954479   -3.1762708   0.17282886   -4.0954479   0.91917706   418189 
  317000   0.88076427   -4.0948025   -4.0948025   -3.1767237   0.16661961   -4.0948025   0.91807874   418189 
  318000   0.88137228   -4.0969508   -4.0969508   -3.1782383   0.18466594   -4.0969508   0.91871251   418189 
  319000   0.88046338   -4.0975134   -4.0975134   -3.1797483   0.16848781   -4.0975134    0.9177651   418189 
  320000   0.87969613   -4.0977874   -4.0977874    -3.180822   0.17153168   -4.0977874   0.91696535   418189 
  321000   0.87804294   -4.0970532   -4.0970532    -3.181811   0.16494446   -4.0970532   0.91524212   418189 
  322000   0.87836047   -4.0996882   -4.0996882    -3.184115   0.17216165   -4.0996882    0.9155731   418189 
  323000   0.87732349   -4.1001554   -4.1001554   -3.1856632   0.17814692   -4.1001554   0.91449219   418189 
  324000   0.87641673   -4.1003062   -4.1003062   -3.1867592   0.15208453   -4.1003062   0.91354701   418189 
  325000   0.87477664   -4.1002828   -4.1002828   -3.1884454   0.16280325   -4.1002828   0.91183743   418189 
  326000   0.87496349    -4.101868    -4.101868   -3.1898358   0.17040056    -4.101868   0.91203221   418189 
  327000   0.87445146   -4.1026478   -4.1026478   -3.1911493   0.17145079   -4.1026478   0.91149848   418189 
  328000   0.87405956   -4.1037047   -4.1037047   -3.1926147   0.17616168   -4.1037047   0.91108998   418189 
  329000   0.87461245   -4.1064308   -4.1064308   -3.1947645   0.16351601   -4.1064308   0.91166629   418189 
  330000   0.87353078    -4.106386    -4.106386   -3.1958472   0.18910236    -4.106386   0.91053879   418189 
  331000     0.872125   -4.1067737   -4.1067737   -3.1977002   0.17072297   -4.1067737   0.90907346   418189 
  332000   0.87208477   -4.1090837   -4.1090837   -3.2000522   0.15865481   -4.1090837   0.90903153   418189 
  333000   0.87222451   -4.1097042   -4.1097042    -3.200527   0.14980978   -4.1097042   0.90917719   418189 
  334000   0.87105696   -4.1090501   -4.1090501     -3.20109   0.17241173   -4.1090501   0.90796017   418189 
  335000   0.87107778   -4.1106238   -4.1106238    -3.202642   0.15763353   -4.1106238   0.90798187   418189 
  336000   0.86868737   -4.1099717   -4.1099717   -3.2044815   0.15597547   -4.1099717   0.90549019   418189 
  337000   0.87096365   -4.1137031   -4.1137031   -3.2058401   0.16318298   -4.1137031   0.90786291   418189 
  338000   0.87064849    -4.114789    -4.114789   -3.2072546   0.16249632    -4.114789    0.9075344   418189 
  339000   0.86970886   -4.1152204   -4.1152204   -3.2086654   0.17944965   -4.1152204   0.90655496   418189 
  340000   0.86729392   -4.1149817   -4.1149817    -3.210944   0.18290117   -4.1149817   0.90403771   418189 
  341000   0.86725234   -4.1162508   -4.1162508   -3.2122565   0.16467756   -4.1162508   0.90399436   418189 
  342000    0.8664715   -4.1166449   -4.1166449   -3.2134645   0.17683423   -4.1166449   0.90318044   418189 
  343000   0.86629287   -4.1181961   -4.1181961   -3.2152018   0.16480792   -4.1181961   0.90299425   418189 
  344000   0.86468338   -4.1177788   -4.1177788   -3.2164622    0.1531989   -4.1177788   0.90131657   418189 
  345000   0.86473172   -4.1184446   -4.1184446   -3.2170776   0.15848044   -4.1184446   0.90136696   418189 
  346000   0.86598732   -4.1210724   -4.1210724   -3.2183966   0.13808759   -4.1210724   0.90267575   418189 
  347000   0.86371318   -4.1196955   -4.1196955   -3.2193902   0.14997271   -4.1196955   0.90030526   418189 
  348000   0.86242505   -4.1200891   -4.1200891   -3.2211266   0.15613645   -4.1200891   0.89896256   418189 
  349000   0.86276358   -4.1217605   -4.1217605   -3.2224451   0.16229145   -4.1217605   0.89931543   418189 
  350000   0.86279437   -4.1228289   -4.1228289   -3.2234814    0.1582108   -4.1228289   0.89934752   418189 
  351000   0.86254498   -4.1239946   -4.1239946    -3.224907    0.1622798   -4.1239946   0.89908757   418189 
  352000   0.86119673   -4.1241123   -4.1241123   -3.2264301   0.16080781   -4.1241123    0.8976822   418189 
  353000   0.86087529   -4.1260333   -4.1260333   -3.2286862   0.16724351   -4.1260333   0.89734714   418189 
  354000   0.86183752     -4.12864     -4.12864   -3.2302898   0.16128985     -4.12864   0.89835013   418189 
  355000   0.86060436   -4.1285632   -4.1285632   -3.2314985   0.17781099   -4.1285632   0.89706474   418189 
  356000   0.85938754   -4.1292954   -4.1292954    -3.233499    0.1574156   -4.1292954   0.89579636   418189 
  357000   0.85908739   -4.1305071   -4.1305071   -3.2350236   0.14779748   -4.1305071    0.8954835   418189 
  358000   0.85754683   -4.1300394   -4.1300394   -3.2361618   0.15926565   -4.1300394   0.89387767   418189 
  359000   0.85693175   -4.1315859   -4.1315859   -3.2383494   0.14567457   -4.1315859   0.89323653   418189 
  360000   0.85783977   -4.1328653   -4.1328653   -3.2386823   0.16440978   -4.1328653   0.89418302   418189 
  361000   0.85663274   -4.1324684   -4.1324684   -3.2395435   0.15924137   -4.1324684   0.89292486   418189 
  362000   0.85568169   -4.1331163   -4.1331163   -3.2411828   0.13681999   -4.1331163   0.89193351   418189 
  363000   0.85474396   -4.1330136   -4.1330136   -3.2420575   0.15990998   -4.1330136   0.89095605   418189 
  364000   0.85471909   -4.1343755   -4.1343755   -3.2434453   0.15684102   -4.1343755   0.89093013   418189 
  365000   0.85442253   -4.1358173   -4.1358173   -3.2451963   0.16200022   -4.1358173   0.89062101   418189 
  366000   0.85546198   -4.1380291   -4.1380291   -3.2463246   0.15166283   -4.1380291   0.89170449   418189 
  367000   0.85427208   -4.1374992   -4.1374992    -3.247035   0.17140177   -4.1374992   0.89046418   418189 
  368000   0.85174429   -4.1361127   -4.1361127   -3.2482834   0.16703927   -4.1361127    0.8878293   418189 
  369000   0.85322365     -4.13944     -4.13944   -3.2500686   0.16032605     -4.13944   0.88937133   418189 
  370000   0.85354925   -4.1412166   -4.1412166   -3.2515059    0.1621581   -4.1412166   0.88971072   418189 
  371000   0.85262312   -4.1416692   -4.1416692   -3.2529239   0.15323105   -4.1416692   0.88874536   418189 
  372000   0.84904855   -4.1400374   -4.1400374   -3.2550181   0.17781385   -4.1400374   0.88501935   418189 
  373000   0.84999629   -4.1429396   -4.1429396   -3.2569324   0.14659798   -4.1429396   0.88600724   418189 
  374000   0.84996894    -4.143785    -4.143785   -3.2578063   0.15034932    -4.143785   0.88597874   418189 
  375000   0.84852208   -4.1430178   -4.1430178   -3.2585473   0.15141657   -4.1430178   0.88447058   418189 
  376000   0.84866719   -4.1442144   -4.1442144   -3.2595926   0.16719878   -4.1442144   0.88462184   418189 
  377000   0.84741559   -4.1436727   -4.1436727   -3.2603555   0.17048128   -4.1436727    0.8833172   418189 
  378000   0.84818583   -4.1452261   -4.1452261    -3.261106   0.13760484   -4.1452261   0.88412008   418189 
  379000   0.84773495    -4.146087    -4.146087   -3.2624369   0.15718504    -4.146087    0.8836501   418189 
  380000   0.84775459    -4.147757    -4.147757   -3.2640864   0.16198974    -4.147757   0.88367057   418189 
  381000   0.84460884   -4.1467678   -4.1467678   -3.2663763   0.16526596   -4.1467678   0.88039155   418189 
  382000   0.84599704    -4.148863    -4.148863   -3.2670244   0.14642065    -4.148863   0.88183856   418189 
  383000   0.84432874   -4.1480589   -4.1480589   -3.2679594    0.1448354   -4.1480589   0.88009958   418189 
  384000    0.8454055   -4.1509003   -4.1509003   -3.2696784   0.16065069   -4.1509003   0.88122196   418189 
  385000   0.84603004   -4.1523789   -4.1523789    -3.270506   0.14599778   -4.1523789   0.88187296   418189 
  386000   0.84382034   -4.1518583   -4.1518583   -3.2722887   0.15322347   -4.1518583   0.87956964   418189 
  387000   0.84350458    -4.153419    -4.153419   -3.2741785   0.13893628    -4.153419   0.87924051   418189 
  388000    0.8418896   -4.1528653   -4.1528653   -3.2753082   0.17190358   -4.1528653    0.8775571   418189 
  389000   0.84220791   -4.1546743   -4.1546743   -3.2767854   0.14750665   -4.1546743    0.8778889   418189 
  390000   0.84039083   -4.1542846   -4.1542846   -3.2782897   0.14205917   -4.1542846   0.87599484   418189 
  391000   0.84031656   -4.1543819   -4.1543819   -3.2784645   0.15105391   -4.1543819   0.87591742   418189 
  392000   0.84011275   -4.1555648   -4.1555648   -3.2798598   0.15001918   -4.1555648   0.87570498   418189 
  393000   0.83925777   -4.1561642   -4.1561642   -3.2813504   0.14438822   -4.1561642   0.87481377   418189 
  394000   0.83886556   -4.1573093   -4.1573093   -3.2829043   0.14710209   -4.1573093   0.87440495   418189 
  395000   0.83929593    -4.157508    -4.157508   -3.2826545   0.14646894    -4.157508   0.87485355   418189 
  396000   0.83854012   -4.1583324   -4.1583324   -3.2842667   0.15600994   -4.1583324   0.87406572   418189 
  397000   0.83923653   -4.1607458   -4.1607458   -3.2859542    0.1666699   -4.1607458   0.87479163   418189 
  398000   0.83764979   -4.1599328   -4.1599328   -3.2867951    0.1561432   -4.1599328   0.87313767   418189 
  399000   0.83740525   -4.1615084   -4.1615084   -3.2886257   0.14485087   -4.1615084   0.87288277   418189 
  400000   0.83921907   -4.1644128   -4.1644128   -3.2896394   0.13794244   -4.1644128   0.87477344   418189 
  401000   0.83678245   -4.1627205   -4.1627205   -3.2904869   0.13462308   -4.1627205   0.87223358   418189 
  402000   0.83688781    -4.163786    -4.163786   -3.2914426   0.14749445    -4.163786    0.8723434   418189 
  403000    0.8353374   -4.1633598   -4.1633598   -3.2926325    0.1462362   -4.1633598   0.87072732   418189 
  404000   0.83669709    -4.166761    -4.166761   -3.2946164   0.14455341    -4.166761   0.87214461   418189 
  405000   0.83532011   -4.1662326   -4.1662326   -3.2955233   0.13599684   -4.1662326    0.8707093   418189 
  406000   0.83554541   -4.1673855   -4.1673855   -3.2964413   0.15008249   -4.1673855   0.87094414   418189 
  407000   0.83359295   -4.1669448   -4.1669448   -3.2980359   0.15521441   -4.1669448   0.86890896   418189 
  408000   0.83488922   -4.1697832   -4.1697832    -3.299523   0.13706676   -4.1697832   0.87026015   418189 
  409000    0.8339147   -4.1692386   -4.1692386   -3.2999942   0.15842055   -4.1692386   0.86924434   418189 
  410000   0.83369878   -4.1708295   -4.1708295   -3.3018102   0.15658094   -4.1708295   0.86901928   418189 
  411000   0.83445864   -4.1723828   -4.1723828   -3.3025715   0.16628175   -4.1723828   0.86981132   418189 
  412000   0.83306627   -4.1726965   -4.1726965   -3.3043366   0.13576778   -4.1726965   0.86835997   418189 
  413000   0.83013113   -4.1711367   -4.1711367   -3.3058362   0.15564743   -4.1711367   0.86530047   418189 
  414000   0.83251901   -4.1742214   -4.1742214   -3.3064319   0.13938473   -4.1742214   0.86778952   418189 
  415000   0.83088033   -4.1733472   -4.1733472   -3.3072658   0.14180031   -4.1733472   0.86608142   418189 
  416000   0.83117558    -4.174632    -4.174632   -3.3082428   0.13327014    -4.174632   0.86638918   418189 
  417000   0.82917648   -4.1738605   -4.1738605   -3.3095551   0.14876359   -4.1738605   0.86430538   418189 
  418000   0.83011857   -4.1770802   -4.1770802   -3.3117928   0.14510819   -4.1770802   0.86528738   418189 
  419000   0.82970899    -4.178057    -4.178057   -3.3131966   0.15768372    -4.178057   0.86486045   418189 
  420000   0.82779288   -4.1770941   -4.1770941   -3.3142309   0.14458186   -4.1770941   0.86286317   418189 
  421000   0.82837753   -4.1786366   -4.1786366    -3.315164   0.13381872   -4.1786366   0.86347258   418189 
  422000   0.82716354   -4.1783765   -4.1783765   -3.3161693   0.13311424   -4.1783765   0.86220716   418189 
  423000   0.82732425   -4.1790235   -4.1790235   -3.3166488    0.1495477   -4.1790235   0.86237468   418189 
  424000   0.82706737   -4.1804424   -4.1804424   -3.3183355   0.12689499   -4.1804424   0.86210692   418189 
  425000   0.82532888   -4.1801067   -4.1801067   -3.3198119   0.15372962   -4.1801067   0.86029477   418189 
  426000   0.82548439   -4.1819203   -4.1819203   -3.3214634   0.13289811   -4.1819203   0.86045687   418189 
  427000   0.82444867   -4.1818578   -4.1818578   -3.3224806   0.15577469   -4.1818578   0.85937727   418189 
  428000   0.82255412   -4.1818687   -4.1818687   -3.3244662   0.14507703   -4.1818687   0.85740246   418189 
  429000   0.82535754   -4.1857629   -4.1857629   -3.3254383   0.13165148   -4.1857629   0.86032465   418189 
  430000   0.82474574   -4.1867162   -4.1867162   -3.3270292   0.13554553   -4.1867162   0.85968693   418189 
  431000   0.82276529   -4.1855433   -4.1855433   -3.3279208   0.13499861   -4.1855433   0.85762257   418189 
  432000   0.82376776   -4.1883776   -4.1883776   -3.3297101   0.15410405   -4.1883776   0.85866752   418189 
  433000   0.82393705   -4.1888762   -4.1888762   -3.3300323   0.14106914   -4.1888762   0.85884397   418189 
  434000   0.82336831   -4.1891226   -4.1891226   -3.3308714   0.12961317   -4.1891226   0.85825114   418189 
  435000   0.82072579   -4.1873241   -4.1873241   -3.3318275   0.14027795   -4.1873241   0.85549667   418189 
  436000   0.81986432   -4.1877426   -4.1877426   -3.3331439   0.13305553   -4.1877426    0.8545987   418189 
  437000   0.81996178   -4.1900552   -4.1900552   -3.3353549    0.1463877   -4.1900552   0.85470029   418189 
  438000   0.82053064   -4.1917621   -4.1917621   -3.3364688   0.13726289   -4.1917621   0.85529325   418189 
  439000   0.81831907   -4.1904966   -4.1904966   -3.3375087   0.11909997   -4.1904966   0.85298798   418189 
  440000   0.81862177   -4.1912663   -4.1912663   -3.3379628   0.13413289   -4.1912663   0.85330351   418189 
  441000   0.81815703   -4.1925679   -4.1925679   -3.3397488   0.12679858   -4.1925679   0.85281908   418189 
  442000   0.81614034   -4.1919468   -4.1919468   -3.3412299   0.14901105   -4.1919468   0.85071695   418189 
  443000    0.8175331   -4.1942479   -4.1942479   -3.3420791   0.14838102   -4.1942479   0.85216871   418189 
  444000   0.81799977   -4.1957263   -4.1957263   -3.3430711   0.12776614   -4.1957263   0.85265516   418189 
  445000   0.81641108   -4.1947795   -4.1947795   -3.3437803   0.13086197   -4.1947795   0.85099916   418189 
  446000   0.81529765   -4.1948082   -4.1948082   -3.3449697    0.1313618   -4.1948082   0.84983856   418189 
  447000   0.81509121    -4.196082    -4.196082   -3.3464587   0.14479324    -4.196082   0.84962337   418189 
  448000   0.81483657   -4.1969289   -4.1969289    -3.347571   0.13862896   -4.1969289   0.84935795   418189 
  449000   0.81405497   -4.1967626   -4.1967626   -3.3482193   0.13698385   -4.1967626   0.84854323   418189 
  450000   0.81446534   -4.1982192   -4.1982192   -3.3492482    0.1603536   -4.1982192   0.84897099   418189 
  451000   0.81570048   -4.2004838   -4.2004838   -3.3502253   0.13193589   -4.2004838   0.85025846   418189 
  452000   0.81402857   -4.2002045   -4.2002045   -3.3516887   0.14334196   -4.2002045   0.84851571   418189 
  453000   0.81191885   -4.1996245   -4.1996245   -3.3533079   0.13924521   -4.1996245   0.84631661   418189 
  454000   0.81103953   -4.2003055   -4.2003055   -3.3549055   0.12533834   -4.2003055   0.84540004   418189 
  455000    0.8110442   -4.2012517   -4.2012517   -3.3558468   0.12633847   -4.2012517   0.84540491   418189 
  456000   0.81110245   -4.2026829   -4.2026829   -3.3572173   0.12520988   -4.2026829   0.84546563   418189 
  457000    0.8097194   -4.2022885   -4.2022885   -3.3582645    0.1279213   -4.2022885   0.84402398   418189 
  458000   0.81220795   -4.2053712   -4.2053712   -3.3587532   0.12359978   -4.2053712   0.84661796   418189 
  459000   0.81122298   -4.2049756   -4.2049756   -3.3593843   0.12794211   -4.2049756   0.84559126   418189 
  460000   0.81035325   -4.2061778   -4.2061778   -3.3614931   0.14026349   -4.2061778   0.84468468   418189 
  461000   0.81004445   -4.2070686   -4.2070686   -3.3627058   0.13569592   -4.2070686    0.8443628   418189 
  462000   0.80763913   -4.2064255   -4.2064255   -3.3645699   0.12273687   -4.2064255   0.84185558   418189 
  463000   0.80654533   -4.2064584   -4.2064584    -3.365743   0.14734751   -4.2064584   0.84071544   418189 
  464000   0.80799432   -4.2091568   -4.2091568   -3.3669309   0.12389679   -4.2091568   0.84222582   418189 
  465000    0.8088257   -4.2105808   -4.2105808   -3.3674883   0.13292681   -4.2105808   0.84309242   418189 
  466000   0.80794714   -4.2110179   -4.2110179   -3.3688412   0.15062817   -4.2110179   0.84217664   418189 
  467000   0.80762752    -4.210684    -4.210684   -3.3688405   0.13712157    -4.210684   0.84184348   418189 
  468000   0.80687669   -4.2108602   -4.2108602   -3.3697993   0.12899898   -4.2108602   0.84106084   418189 
  469000    0.8060981   -4.2110685   -4.2110685   -3.3708193   0.12288767   -4.2110685   0.84024926   418189 
  470000    0.8061715   -4.2119898   -4.2119898    -3.371664   0.13726011   -4.2119898   0.84032577   418189 
  471000   0.80593171   -4.2132599   -4.2132599   -3.3731841   0.13088461   -4.2132599   0.84007582   418189 
  472000   0.80568653   -4.2147125   -4.2147125   -3.3748922   0.11582768   -4.2147125   0.83982026   418189 
  473000   0.80354511   -4.2130933   -4.2130933   -3.3755052   0.12833222   -4.2130933   0.83758811   418189 
  474000   0.80391999   -4.2147614   -4.2147614   -3.3767826   0.13994141   -4.2147614   0.83797887   418189 
  475000   0.80556795   -4.2172795   -4.2172795   -3.3775829   0.12659941   -4.2172795   0.83969665   418189 
  476000   0.80475071   -4.2186525   -4.2186525   -3.3798077   0.14290378   -4.2186525   0.83884478   418189 
  477000   0.80466698   -4.2197603   -4.2197603   -3.3810028   0.12965005   -4.2197603   0.83875751   418189 
  478000   0.80249096   -4.2186603   -4.2186603    -3.382171   0.13605982   -4.2186603    0.8364893   418189 
  479000   0.80255758   -4.2203657   -4.2203657   -3.3838069   0.12357302   -4.2203657   0.83655874   418189 
  480000   0.80130949   -4.2193397   -4.2193397   -3.3840819   0.12700368   -4.2193397   0.83525777   418189 
  481000   0.80032394   -4.2195589   -4.2195589   -3.3853285    0.1448813   -4.2195589   0.83423047   418189 
  482000   0.80095167   -4.2211702   -4.2211702   -3.3862854   0.12755196   -4.2211702    0.8348848   418189 
  483000   0.80030998   -4.2212401   -4.2212401   -3.3870242   0.11278446   -4.2212401   0.83421592   418189 
  484000   0.79983599   -4.2212031   -4.2212031   -3.3874812   0.12378035   -4.2212031   0.83372185   418189 
  485000   0.79921067   -4.2209381   -4.2209381   -3.3878681   0.13576586   -4.2209381   0.83307004   418189 
  486000   0.79966605   -4.2221396   -4.2221396   -3.3885949   0.12968712   -4.2221396   0.83354471   418189 
  487000   0.79913111   -4.2229456   -4.2229456   -3.3899585   0.12002656   -4.2229456   0.83298711   418189 
  488000   0.79963155   -4.2244264   -4.2244264   -3.3909176   0.13350006   -4.2244264   0.83350875   418189 
  489000   0.79722163   -4.2223643   -4.2223643   -3.3913675   0.13165835   -4.2223643   0.83099673   418189 
  490000   0.79787841   -4.2241413   -4.2241413     -3.39246   0.11840124   -4.2241413   0.83168133   418189 
  491000   0.79672267   -4.2249264   -4.2249264   -3.3944498   0.12769336   -4.2249264   0.83047663   418189 
  492000   0.79798419   -4.2270541   -4.2270541   -3.3952625   0.12488574   -4.2270541    0.8317916   418189 
  493000   0.79704058   -4.2270313   -4.2270313   -3.3962233   0.12901912   -4.2270313   0.83080801   418189 
  494000   0.79755642   -4.2288263   -4.2288263   -3.3974806   0.12917841   -4.2288263    0.8313457   418189 
  495000   0.79458348   -4.2259167   -4.2259167   -3.3976699   0.11967951   -4.2259167   0.82824681   418189 
  496000   0.79603116   -4.2281747   -4.2281747   -3.3984188   0.12677785   -4.2281747   0.82975583   418189 
  497000   0.79614841   -4.2287822   -4.2287822   -3.3989041   0.12929319   -4.2287822   0.82987804   418189 
  498000   0.79557121   -4.2297721   -4.2297721   -3.4004957    0.1102278   -4.2297721   0.82927639   418189 
  499000   0.79596884   -4.2308358   -4.2308358   -3.4011449   0.12080249   -4.2308358   0.82969086   418189 
  500000   0.79289912   -4.2290958   -4.2290958   -3.4026047    0.1438775   -4.2290958   0.82649109   418189 
  501000   0.79419457   -4.2307125   -4.2307125   -3.4028711   0.11537683   -4.2307125   0.82784143   418189 
  502000   0.79441261    -4.231405    -4.231405   -3.4033363   0.13114716    -4.231405   0.82806871   418189 
  503000   0.79468358   -4.2330033   -4.2330033   -3.4046521    0.1410195   -4.2330033   0.82835115   418189 
  504000   0.79388635   -4.2331633   -4.2331633   -3.4056431   0.12349435   -4.2331633   0.82752015   418189 
  505000   0.79410885   -4.2342685   -4.2342685   -3.4065164   0.11519623   -4.2342685   0.82775208   418189 
  506000   0.79433369    -4.235511    -4.235511   -3.4075246   0.11268354    -4.235511   0.82798644   418189 
  507000   0.79201503   -4.2347316   -4.2347316   -3.4091621   0.12523811   -4.2347316   0.82556955   418189 
  508000   0.79207828   -4.2359286   -4.2359286   -3.4102931   0.12541694   -4.2359286   0.82563548   418189 
  509000   0.79250746   -4.2365541   -4.2365541   -3.4104713   0.12132673   -4.2365541   0.82608284   418189 
  510000    0.7920762   -4.2375671   -4.2375671   -3.4119338   0.13152185   -4.2375671    0.8256333   418189 
  511000   0.79355365   -4.2406045   -4.2406045   -3.4134312   0.12482767   -4.2406045   0.82717335   418189 
  512000   0.79168413   -4.2393932   -4.2393932   -3.4141685   0.12570882   -4.2393932   0.82522463   418189 
  513000   0.79189643   -4.2402048   -4.2402048   -3.4147589   0.13262739   -4.2402048   0.82544593   418189 
  514000   0.79158597   -4.2408801   -4.2408801   -3.4157578   0.13415719   -4.2408801   0.82512232   418189 
  515000   0.79058136   -4.2410328   -4.2410328   -3.4169577   0.13074364   -4.2410328   0.82407514   418189 
  516000   0.79034762   -4.2424351   -4.2424351   -3.4186036   0.12774679   -4.2424351    0.8238315   418189 
  517000   0.78865095   -4.2418201   -4.2418201   -3.4197571   0.14107194   -4.2418201   0.82206295   418189 
  518000   0.78953508   -4.2437715   -4.2437715    -3.420787   0.11652477   -4.2437715   0.82298453   418189 
  519000   0.78945871   -4.2445448   -4.2445448   -3.4216399   0.12942876   -4.2445448   0.82290493   418189 
  520000   0.78958194   -4.2453096   -4.2453096   -3.4222762   0.10412366   -4.2453096   0.82303338   418189 
  521000   0.78727595    -4.244297    -4.244297   -3.4236673   0.13288974    -4.244297    0.8206297   418189 
  522000    0.7877335   -4.2448818   -4.2448818   -3.4237751   0.11840831   -4.2448818   0.82110663   418189 
  523000   0.78705208   -4.2443703   -4.2443703   -3.4239739    0.1090021   -4.2443703   0.82039634   418189 
  524000   0.78789293    -4.246192    -4.246192   -3.4249192   0.10517972    -4.246192   0.82127281   418189 
  525000   0.78746696   -4.2469949   -4.2469949   -3.4261661   0.12341906   -4.2469949    0.8208288   418189 
  526000   0.78648117   -4.2465548   -4.2465548   -3.4267536   0.12618459   -4.2465548   0.81980124   418189 
  527000   0.78820882   -4.2494711   -4.2494711    -3.427869   0.11597964   -4.2494711   0.82160208   418189 
  528000    0.7872993   -4.2495371   -4.2495371   -3.4288831   0.11638669   -4.2495371   0.82065403   418189 
  529000   0.78564982   -4.2492317   -4.2492317    -3.430297    0.1168833   -4.2492317   0.81893467   418189 
  530000   0.78508892    -4.248886    -4.248886    -3.430536   0.12704629    -4.248886   0.81835001   418189 
  531000   0.78576539   -4.2498574   -4.2498574   -3.4308022   0.11176942   -4.2498574   0.81905513   418189 
  532000   0.78486947   -4.2496691   -4.2496691   -3.4315478    0.1105106   -4.2496691   0.81812126   418189 
  533000   0.78554399   -4.2515994   -4.2515994   -3.4327751   0.12069046   -4.2515994   0.81882435   418189 
  534000   0.78185019   -4.2493204   -4.2493204   -3.4343463   0.12006543   -4.2493204   0.81497406   418189 
  535000    0.7841715   -4.2528879   -4.2528879   -3.4354941   0.11010126   -4.2528879   0.81739372   418189 
  536000   0.78217159   -4.2518615   -4.2518615   -3.4365524   0.12622757   -4.2518615   0.81530908   418189 
  537000   0.78375167   -4.2537886   -4.2537886   -3.4368325   0.11935144   -4.2537886    0.8169561   418189 
  538000   0.78206776   -4.2531575   -4.2531575   -3.4379567   0.10438738   -4.2531575   0.81520085   418189 
  539000   0.78218521   -4.2537394   -4.2537394   -3.4384162   0.10708965   -4.2537394   0.81532327   418189 
  540000   0.78206333    -4.254981    -4.254981   -3.4397848   0.10849219    -4.254981   0.81519624   418189 
  541000    0.7798644   -4.2537576   -4.2537576   -3.4408534   0.12648777   -4.2537576   0.81290414   418189 
  542000   0.78120959   -4.2551951   -4.2551951   -3.4408888   0.11300523   -4.2551951   0.81430632   418189 
  543000    0.7817266   -4.2570237   -4.2570237   -3.4421785   0.13050472   -4.2570237   0.81484524   418189 
  544000   0.77981843   -4.2567745   -4.2567745   -3.4439182   0.12921442   -4.2567745   0.81285622   418189 
  545000    0.7801351   -4.2578027   -4.2578027   -3.4446164    0.1119544   -4.2578027   0.81318631   418189 
  546000   0.77954317   -4.2585312   -4.2585312   -3.4459619   0.10559848   -4.2585312    0.8125693   418189 
  547000   0.77954771   -4.2592085   -4.2592085   -3.4466344   0.11056496   -4.2592085   0.81257404   418189 
  548000   0.78045142   -4.2601367   -4.2601367   -3.4466207    0.1110784   -4.2601367   0.81351604   418189 
  549000   0.78086664   -4.2612529   -4.2612529    -3.447304   0.11855041   -4.2612529   0.81394884   418189 
  550000   0.77899188   -4.2609011   -4.2609011   -3.4489064   0.11918354   -4.2609011   0.81199465   418189 
  551000   0.77840394   -4.2613755   -4.2613755   -3.4499937   0.11172911   -4.2613755   0.81138181   418189 
  552000   0.77810965   -4.2621893   -4.2621893   -3.4511142   0.11285347   -4.2621893   0.81107506   418189 
  553000   0.77965601   -4.2646538   -4.2646538   -3.4519668   0.12193165   -4.2646538   0.81268693   418189 
  554000   0.77692901    -4.262651    -4.262651   -3.4528066   0.13382351    -4.262651   0.80984439   418189 
  555000   0.77712823   -4.2639359   -4.2639359   -3.4538839   0.11312166   -4.2639359   0.81005205   418189 
  556000   0.77647145   -4.2646369   -4.2646369   -3.4552694   0.10358876   -4.2646369   0.80936745   418189 
  557000   0.77677527    -4.265468    -4.265468   -3.4557838  0.099496191    -4.265468   0.80968414   418189 
  558000   0.77490727   -4.2649397   -4.2649397   -3.4572027   0.12325153   -4.2649397     0.807737   418189 
  559000   0.77476307   -4.2650667   -4.2650667     -3.45748   0.13031962   -4.2650667   0.80758669   418189 
  560000    0.7746626   -4.2665181   -4.2665181   -3.4590361   0.11053216   -4.2665181   0.80748197   418189 
  561000    0.7742269   -4.2668574   -4.2668574   -3.4598296   0.12299659   -4.2668574    0.8070278   418189 
  562000   0.77451988    -4.268171    -4.268171   -3.4608378   0.11704916    -4.268171   0.80733319   418189 
  563000   0.77484059   -4.2681402   -4.2681402   -3.4604727   0.11560628   -4.2681402    0.8076675   418189 
  564000   0.77435628   -4.2689891   -4.2689891   -3.4618264   0.11132463   -4.2689891   0.80716266   418189 
  565000   0.77356199   -4.2692047   -4.2692047   -3.4628699  0.099152826   -4.2692047   0.80633473   418189 
  566000   0.77258441   -4.2692506   -4.2692506   -3.4639349   0.12486971   -4.2692506   0.80531573   418189 
  567000   0.77221628   -4.2700855   -4.2700855   -3.4651535   0.11915329   -4.2700855   0.80493201   418189 
  568000   0.77091718   -4.2695347   -4.2695347   -3.4659568   0.10094405   -4.2695347   0.80357786   418189 
  569000   0.77164724   -4.2713135   -4.2713135   -3.4669747   0.10852985   -4.2713135   0.80433886   418189 
  570000   0.77207955   -4.2723349   -4.2723349   -3.4675454   0.10698966   -4.2723349   0.80478949   418189 
  571000   0.77189388   -4.2728035   -4.2728035   -3.4682075   0.10946589   -4.2728035   0.80459594   418189 
  572000   0.77142706   -4.2737782   -4.2737782   -3.4696689   0.10723221   -4.2737782   0.80410935   418189 
  573000   0.76934927   -4.2725265   -4.2725265    -3.470583  0.096108487   -4.2725265   0.80194353   418189 
  574000   0.77107475   -4.2752956   -4.2752956   -3.4715535   0.10993001   -4.2752956   0.80374211   418189 
  575000   0.77041933   -4.2756047   -4.2756047   -3.4725458   0.11923431   -4.2756047   0.80305893   418189 
  576000   0.77143917   -4.2767614   -4.2767614   -3.4726394   0.12181727   -4.2767614   0.80412198   418189 
  577000   0.76723944   -4.2733775   -4.2733775   -3.4736332     0.109809   -4.2733775   0.79974431   418189 
  578000   0.76853175   -4.2758017   -4.2758017   -3.4747103   0.11679974   -4.2758017   0.80109137   418189 
  579000   0.76762742   -4.2758997   -4.2758997    -3.475751    0.1109916   -4.2758997   0.80014874   418189 
  580000   0.76806103   -4.2768013   -4.2768013   -3.4762006    0.1288167   -4.2768013   0.80060071   418189 
  581000    0.7664001   -4.2758821   -4.2758821   -3.4770127   0.11276805   -4.2758821   0.79886942   418189 
  582000   0.76684521   -4.2769265   -4.2769265   -3.4775932   0.12490753   -4.2769265   0.79933338   418189 
  583000   0.76882056    -4.279849    -4.279849   -3.4784565   0.11529762    -4.279849   0.80139242   418189 
  584000   0.76806611   -4.2799069   -4.2799069   -3.4793009  0.086594849   -4.2799069     0.800606   418189 
  585000   0.76703253   -4.2799934   -4.2799934   -3.4804647    0.1181372   -4.2799934   0.79952863   418189 
  586000   0.76871275   -4.2823957   -4.2823957   -3.4811156   0.11038114   -4.2823957   0.80128004   418189 
  587000   0.76747702   -4.2817847   -4.2817847   -3.4817928   0.12063974   -4.2817847   0.79999196   418189 
  588000   0.76591399   -4.2815906   -4.2815906   -3.4832279   0.10629036   -4.2815906   0.79836271   418189 
  589000   0.76643374   -4.2828606   -4.2828606   -3.4839561  0.088447195   -4.2828606   0.79890448   418189 
  590000   0.76587068   -4.2834259   -4.2834259   -3.4851083   0.12518642   -4.2834259   0.79831757   418189 
  591000   0.76378832   -4.2823906   -4.2823906   -3.4862437   0.10566013   -4.2823906   0.79614698   418189 
  592000   0.76344038   -4.2815407   -4.2815407   -3.4857564   0.11781314   -4.2815407    0.7957843   418189 
  593000   0.76421041   -4.2831982   -4.2831982   -3.4866113   0.11978677   -4.2831982   0.79658696   418189 
  594000   0.76336769   -4.2830705   -4.2830705    -3.487362  0.099568127   -4.2830705   0.79570854   418189 
  595000   0.76290909   -4.2834364   -4.2834364   -3.4882059   0.11035505   -4.2834364    0.7952305   418189 
  596000   0.76320603   -4.2845081   -4.2845081   -3.4889681    0.1100539   -4.2845081   0.79554003   418189 
  597000   0.76310199   -4.2852926   -4.2852926    -3.489861   0.10318987   -4.2852926   0.79543158   418189 
  598000   0.76254185   -4.2855663   -4.2855663   -3.4907185    0.1032892   -4.2855663   0.79484771   418189 
  599000   0.76286285   -4.2867587   -4.2867587   -3.4915764  0.089282202   -4.2867587   0.79518231   418189 
  600000   0.76256361   -4.2871033   -4.2871033   -3.4922329   0.10729113   -4.2871033   0.79487039   418189 
  601000    0.7623668    -4.287972    -4.287972   -3.4933067   0.11131873    -4.287972   0.79466524   418189 
  602000   0.76098362   -4.2873837   -4.2873837   -3.4941602   0.10066894   -4.2873837   0.79322346   418189 
  603000   0.76231439   -4.2905664   -4.2905664   -3.4959557   0.10469622   -4.2905664   0.79461061   418189 
  604000   0.76169529    -4.290384    -4.290384   -3.4964187   0.10373633    -4.290384   0.79396528   418189 
  605000   0.76200671   -4.2908277   -4.2908277   -3.4965379   0.12688304   -4.2908277   0.79428989   418189 
  606000   0.76163629   -4.2919291   -4.2919291   -3.4980253   0.11328466   -4.2919291   0.79390378   418189 
  607000   0.76145494   -4.2919756   -4.2919756   -3.4982608   0.10007622   -4.2919756   0.79371475   418189 
  608000   0.76111965   -4.2926122   -4.2926122   -3.4992469   0.11597658   -4.2926122   0.79336525   418189 
  609000   0.76033143   -4.2922106   -4.2922106    -3.499667   0.11250115   -4.2922106   0.79254364   418189 
  610000   0.75999451   -4.2936313   -4.2936313   -3.5014389  0.076228983   -4.2936313   0.79219244   418189 
  611000   0.76152506   -4.2964077   -4.2964077   -3.5026198    0.0900189   -4.2964077   0.79378784   418189 
  612000    0.7587851   -4.2949795   -4.2949795   -3.5040477  0.085543311   -4.2949795    0.7909318   418189 
  613000   0.76025607   -4.2969799   -4.2969799   -3.5045148   0.10404028   -4.2969799   0.79246509   418189 
  614000   0.75896197    -4.295842    -4.295842   -3.5047259  0.099383158    -4.295842   0.79111616   418189 
  615000   0.75755137   -4.2955605   -4.2955605   -3.5059147   0.10681002   -4.2955605    0.7896458   418189 
  616000   0.75850224   -4.2965439   -4.2965439    -3.505907   0.11604055   -4.2965439   0.79063695   418189 
  617000   0.75855528   -4.2976479   -4.2976479   -3.5069557   0.10820979   -4.2976479   0.79069224   418189 
  618000   0.75754921   -4.2974146   -4.2974146   -3.5077711    0.1177557   -4.2974146   0.78964355   418189 
  619000   0.75666274   -4.2983717   -4.2983717   -3.5096522   0.09147055   -4.2983717   0.78871952   418189 
  620000   0.75675448   -4.2987588   -4.2987588   -3.5099436  0.099155207   -4.2987588   0.78881515   418189 
  621000   0.75539061    -4.298261    -4.298261   -3.5108676   0.10011481    -4.298261   0.78739349   418189 
  622000   0.75503795   -4.2988266   -4.2988266   -3.5118007   0.10203905   -4.2988266   0.78702589   418189 
  623000   0.75539828   -4.2999589   -4.2999589   -3.5125574   0.09706327   -4.2999589   0.78740149   418189 
  624000   0.75671858   -4.3010927   -4.3010927    -3.512315   0.12256533   -4.3010927   0.78877772   418189 
  625000    0.7547542   -4.3004063   -4.3004063   -3.5136762    0.1127589   -4.3004063   0.78673013   418189 
  626000   0.75413513   -4.3006809   -4.3006809    -3.514596   0.10539693   -4.3006809   0.78608483   418189 
  627000   0.75407009   -4.3015137   -4.3015137   -3.5154967    0.1179494   -4.3015137   0.78601703   418189 
  628000   0.75486172   -4.3028629   -4.3028629   -3.5160207  0.096663723   -4.3028629    0.7868422   418189 
  629000   0.75379082   -4.3021142   -4.3021142   -3.5163883   0.12013302   -4.3021142   0.78572593   418189 
  630000   0.75283472   -4.3015189   -4.3015189   -3.5167896   0.10764587   -4.3015189   0.78472933   418189 
  631000   0.75330512   -4.3030454   -4.3030454   -3.5178257  0.094710492   -4.3030454   0.78521965   418189 
  632000   0.75265435   -4.3023864   -4.3023864   -3.5178451  0.096507889   -4.3023864   0.78454132   418189 
  633000    0.7524184   -4.3026564   -4.3026564    -3.518361   0.10125101   -4.3026564   0.78429536   418189 
  634000   0.75257229   -4.3045204   -4.3045204   -3.5200646  0.093120911   -4.3045204   0.78445577   418189 
  635000   0.75259634   -4.3046874   -4.3046874   -3.5202066  0.097894417   -4.3046874   0.78448084   418189 
  636000   0.75273206   -4.3053413   -4.3053413    -3.520719   0.09936459   -4.3053413   0.78462232   418189 
  637000   0.75136773   -4.3046974   -4.3046974   -3.5214972   0.08866956   -4.3046974   0.78320019   418189 
  638000   0.75157894   -4.3060098   -4.3060098   -3.5225895  0.099154704   -4.3060098   0.78342035   418189 
  639000   0.75110659   -4.3064433   -4.3064433   -3.5235154   0.10795205   -4.3064433   0.78292798   418189 
  640000   0.75292367   -4.3084951   -4.3084951   -3.5236731   0.09283567   -4.3084951   0.78482204   418189 
  641000   0.75164175   -4.3077067   -4.3077067   -3.5242209   0.10627351   -4.3077067   0.78348582   418189 
  642000   0.75157408    -4.308343    -4.308343   -3.5249277  0.092493224    -4.308343   0.78341527   418189 
  643000   0.74965226   -4.3074976   -4.3074976   -3.5260856   0.10304843   -4.3074976   0.78141204   418189 
  644000   0.75047784   -4.3092375   -4.3092375   -3.5269649   0.09644516   -4.3092375   0.78227259   418189 
  645000   0.74909809   -4.3090448   -4.3090448   -3.5282104  0.094704645   -4.3090448   0.78083439   418189 
  646000   0.74956022   -4.3098587   -4.3098587   -3.5285426   0.11294635   -4.3098587   0.78131609   418189 
  647000   0.74915914   -4.3099621   -4.3099621   -3.5290641   0.10048528   -4.3099621   0.78089803   418189 
  648000   0.74925345   -4.3109032   -4.3109032   -3.5299069   0.10505418   -4.3109032   0.78099633   418189 
  649000   0.74794221   -4.3111975   -4.3111975   -3.5315679   0.10962008   -4.3111975   0.77962954   418189 
  650000   0.74877078   -4.3117442   -4.3117442    -3.531251   0.12546594   -4.3117442   0.78049321   418189 
  651000   0.74761308   -4.3118291   -4.3118291   -3.5325427  0.094407603   -4.3118291   0.77928646   418189 
  652000   0.74911401   -4.3134301   -4.3134301   -3.5325791   0.10302586   -4.3134301   0.78085098   418189 
  653000   0.74774939   -4.3128192   -4.3128192   -3.5333907   0.10133581   -4.3128192   0.77942855   418189 
  654000    0.7469829   -4.3125735   -4.3125735   -3.5339439  0.098853786   -4.3125735   0.77862959   418189 
  655000   0.74646021   -4.3130646   -4.3130646   -3.5349799  0.069118691   -4.3130646   0.77808475   418189 
  656000    0.7470598   -4.3138615   -4.3138615   -3.5351518   0.10260316   -4.3138615   0.77870974   418189 
  657000   0.74633301   -4.3135401   -4.3135401   -3.5355879  0.090692461   -4.3135401   0.77795216   418189 
  658000    0.7465602   -4.3144607   -4.3144607   -3.5362717   0.10155872   -4.3144607   0.77818898   418189 
  659000   0.74723163   -4.3156917   -4.3156917   -3.5368029  0.099418724   -4.3156917   0.77888886   418189 
  660000   0.74686746   -4.3158406   -4.3158406   -3.5373313   0.10036262   -4.3158406   0.77850926   418189 
  661000   0.74471695   -4.3130358   -4.3130358   -3.5367681    0.1072568   -4.3130358   0.77626763   418189 
  662000   0.74501636   -4.3136171   -4.3136171   -3.5370374  0.095292466   -4.3136171   0.77657973   418189 
  663000   0.74547577   -4.3143314   -4.3143314   -3.5372728   0.11472438   -4.3143314    0.7770586   418189 
  664000   0.74452338   -4.3145021   -4.3145021   -3.5384363   0.10629361   -4.3145021   0.77606586   418189 
  665000   0.74449281   -4.3154707   -4.3154707   -3.5394367  0.095369354   -4.3154707     0.776034   418189 
  666000   0.74433534   -4.3155887   -4.3155887   -3.5397189   0.10209715   -4.3155887   0.77586986   418189 
  667000   0.74562384    -4.317929    -4.317929    -3.540716   0.10337178    -4.317929   0.77721294   418189 
  668000   0.74328269   -4.3170438   -4.3170438   -3.5422712  0.089862447   -4.3170438   0.77477261   418189 
  669000   0.74643884   -4.3208552   -4.3208552   -3.5427927  0.090713868   -4.3208552   0.77806247   418189 
  670000   0.74409619   -4.3193886   -4.3193886   -3.5437681   0.10067304   -4.3193886   0.77562057   418189 
  671000   0.74440476   -4.3207428   -4.3207428   -3.5448006  0.095574377   -4.3207428   0.77594222   418189 
  672000   0.74422853   -4.3214074   -4.3214074   -3.5456488  0.097616708   -4.3214074   0.77575852   418189 
  673000   0.74263841   -4.3208531   -4.3208531    -3.546752  0.087256776   -4.3208531   0.77410103   418189 
  674000   0.74265176   -4.3221539   -4.3221539   -3.5480389  0.095985085   -4.3221539   0.77411496   418189 
  675000   0.74161721    -4.321845    -4.321845   -3.5488085  0.081314851    -4.321845   0.77303657   418189 
  676000   0.74210048   -4.3229494   -4.3229494   -3.5494091   0.10140027   -4.3229494   0.77354032   418189 
  677000   0.74310157   -4.3243907   -4.3243907   -3.5498069  0.093669969   -4.3243907   0.77458382   418189 
  678000   0.74053736   -4.3229994   -4.3229994   -3.5510885  0.092939595   -4.3229994   0.77191097   418189 
  679000    0.7413357   -4.3239465   -4.3239465   -3.5512033   0.10741831   -4.3239465   0.77274314   418189 
  680000   0.73941227   -4.3234532   -4.3234532    -3.552715  0.091455689   -4.3234532   0.77073821   418189 
  681000   0.74032302   -4.3249868   -4.3249868   -3.5532993   0.10150705   -4.3249868   0.77168755   418189 
  682000   0.73926337   -4.3251605   -4.3251605   -3.5545775  0.092483469   -4.3251605   0.77058301   418189 
  683000   0.73982328   -4.3254482   -4.3254482   -3.5542816   0.10217379   -4.3254482   0.77116665   418189 
  684000   0.73948365   -4.3262296   -4.3262296   -3.5554169  0.099787406   -4.3262296   0.77081262   418189 
  685000   0.73932703   -4.3264282   -4.3264282   -3.5557789  0.093834424   -4.3264282   0.77064937   418189 
  686000   0.74155729   -4.3303226   -4.3303226   -3.5573485  0.088769673   -4.3303226   0.77297412   418189 
  687000   0.73806363   -4.3276027   -4.3276027   -3.5582702   0.10773254   -4.3276027   0.76933244   418189 
  688000   0.73999966   -4.3296599   -4.3296599   -3.5583094   0.10315552   -4.3296599   0.77135049   418189 
  689000   0.73889297   -4.3296107   -4.3296107   -3.5594138   0.10509289   -4.3296107   0.77019691   418189 
  690000   0.73867918   -4.3307883   -4.3307883   -3.5608142  0.089157279   -4.3307883   0.76997407   418189 
  691000   0.73748572   -4.3296231   -4.3296231    -3.560893   0.11370196   -4.3296231   0.76873005   418189 
  692000    0.7370892   -4.3285797   -4.3285797   -3.5602629  0.088214575   -4.3285797   0.76831673   418189 
  693000   0.73801699   -4.3306143   -4.3306143   -3.5613304  0.097673555   -4.3306143   0.76928383   418189 
  694000   0.73821303    -4.331207    -4.331207   -3.5617188  0.090843244    -4.331207   0.76948817   418189 
  695000   0.73868161   -4.3328899   -4.3328899   -3.5629133  0.090926001   -4.3328899   0.76997661   418189 
  696000   0.73764729   -4.3326993   -4.3326993   -3.5638009  0.097915248   -4.3326993   0.76889847   418189 
  697000    0.7363253   -4.3322986   -4.3322986   -3.5647782   0.09466944   -4.3322986   0.76752046   418189 
  698000   0.73639455   -4.3328544   -4.3328544   -3.5652617  0.085052116   -4.3328544   0.76759265   418189 
  699000   0.73626427   -4.3329093   -4.3329093   -3.5654524  0.093228629   -4.3329093   0.76745685   418189 
  700000   0.73638013    -4.333969    -4.333969   -3.5663914   0.09167303    -4.333969   0.76757762   418189 
  701000    0.7360274   -4.3340578   -4.3340578   -3.5668479  0.090066521   -4.3340578   0.76720994   418189 
  702000   0.73589483   -4.3349055   -4.3349055   -3.5678337    0.1013557   -4.3349055   0.76707176   418189 
  703000   0.73710478   -4.3365039   -4.3365039   -3.5681709  0.091382492   -4.3365039   0.76833297   418189 
  704000   0.73577529   -4.3353583   -4.3353583   -3.5684112   0.10233278   -4.3353583   0.76694715   418189 
  705000   0.73727864   -4.3374721   -4.3374721   -3.5689579   0.09662465   -4.3374721   0.76851419   418189 
  706000   0.73427143   -4.3348551   -4.3348551   -3.5694755  0.079293963   -4.3348551   0.76537958   418189 
  707000   0.73472235   -4.3359301   -4.3359301   -3.5700805  0.078111001   -4.3359301    0.7658496   418189 
  708000   0.73563177   -4.3376383   -4.3376383   -3.5708407  0.091586023   -4.3376383   0.76679755   418189 
  709000   0.73563497   -4.3389242   -4.3389242   -3.5721233   0.10746853   -4.3389242   0.76680089   418189 
  710000   0.73531453   -4.3384642   -4.3384642   -3.5719973  0.095676588   -4.3384642   0.76646687   418189 
  711000   0.73488774   -4.3387332   -4.3387332   -3.5727112  0.086862204   -4.3387332   0.76602201   418189 
  712000   0.73574295   -4.3398201   -4.3398201   -3.5729067   0.11216423   -4.3398201   0.76691344   418189 
  713000   0.73427476   -4.3396547   -4.3396547   -3.5742717  0.084568345   -4.3396547   0.76538305   418189 
  714000   0.73307869    -4.339076    -4.339076   -3.5749397  0.075009292    -4.339076   0.76413631   418189 
  715000    0.7338092   -4.3407887   -4.3407887   -3.5758909  0.088369414   -4.3407887   0.76489777   418189 
  716000   0.73269689   -4.3415352   -4.3415352   -3.5777969  0.093626013   -4.3415352   0.76373833   418189 
  717000   0.73325462   -4.3429197   -4.3429197      -3.5786  0.088381471   -4.3429197    0.7643197   418189 
  718000   0.73322248   -4.3429038   -4.3429038   -3.5786176   0.10138345   -4.3429038   0.76428619   418189 
  719000   0.73302397   -4.3421059   -4.3421059   -3.5780267  0.083826997   -4.3421059   0.76407927   418189 
  720000   0.73219655   -4.3422039   -4.3422039   -3.5789871  0.096652821   -4.3422039    0.7632168   418189 
  721000   0.73040068   -4.3417336   -4.3417336   -3.5803888   0.10671776   -4.3417336   0.76134485   418189 
  722000   0.72954253   -4.3414405   -4.3414405   -3.5809901  0.090619247   -4.3414405   0.76045034   418189 
  723000   0.73150382   -4.3440058   -4.3440058   -3.5815111  0.084334821   -4.3440058   0.76249472   418189 
  724000   0.73098637   -4.3438079   -4.3438079   -3.5818526   0.09088872   -4.3438079   0.76195535   418189 
  725000   0.73019615    -4.344283    -4.344283   -3.5831513  0.090880326    -4.344283   0.76113165   418189 
  726000   0.73146564   -4.3450323   -4.3450323   -3.5825774   0.08887649   -4.3450323   0.76245492   418189 
  727000    0.7290721   -4.3437615   -4.3437615   -3.5838015  0.097231617   -4.3437615   0.75995997   418189 
  728000   0.73092083   -4.3458806   -4.3458806   -3.5839936  0.090006526   -4.3458806   0.76188703   418189 
  729000   0.72987973   -4.3463176   -4.3463176   -3.5855158  0.088583144   -4.3463176   0.76080182   418189 
  730000   0.73038639   -4.3467266   -4.3467266   -3.5853966  0.089484242   -4.3467266   0.76132995   418189 
  731000   0.72946012   -4.3468876   -4.3468876   -3.5865232   0.08974201   -4.3468876   0.76036444   418189 
  732000   0.72998879   -4.3470598   -4.3470598   -3.5861443  0.099749403   -4.3470598    0.7609155   418189 
  733000   0.72825997   -4.3459057   -4.3459057   -3.5867923  0.085959382   -4.3459057   0.75911344   418189 
  734000   0.72880224   -4.3468319   -4.3468319   -3.5871533  0.078956992   -4.3468319   0.75967869   418189 
  735000   0.72892654   -4.3478592   -4.3478592   -3.5880509  0.093002274   -4.3478592   0.75980825   418189 
  736000   0.72876258   -4.3488451   -4.3488451   -3.5892078  0.081219297   -4.3488451   0.75963734   418189 
  737000   0.72736108   -4.3483403   -4.3483403   -3.5901638  0.096142472   -4.3483403   0.75817647   418189 
  738000   0.72758667   -4.3486447   -4.3486447   -3.5902331  0.079191345   -4.3486447   0.75841162   418189 
  739000   0.72833764   -4.3497702   -4.3497702   -3.5905758    0.0816215   -4.3497702    0.7591944   418189 
  740000   0.72718537   -4.3497102   -4.3497102   -3.5917169  0.096200363   -4.3497102   0.75799332   418189 
  741000   0.72707021   -4.3498546   -4.3498546   -3.5919813   0.09911008   -4.3498546   0.75787327   418189 
  742000   0.72663845   -4.3496246   -4.3496246   -3.5922014  0.069783156   -4.3496246   0.75742323   418189 
  743000   0.72497582   -4.3492232   -4.3492232    -3.593533  0.080992359   -4.3492232   0.75569015   418189 
  744000   0.72728305   -4.3512979   -4.3512979   -3.5932028  0.083425505   -4.3512979   0.75809514   418189 
  745000   0.72650006   -4.3510353   -4.3510353   -3.5937563   0.10742234   -4.3510353   0.75727897   418189 
  746000   0.72620319   -4.3502977   -4.3502977   -3.5933282  0.096943177   -4.3502977   0.75696952   418189 
  747000   0.72714534   -4.3528249   -4.3528249   -3.5948733   0.10086738   -4.3528249   0.75795159   418189 
  748000   0.72641907   -4.3517533   -4.3517533   -3.5945587  0.075568349   -4.3517533   0.75719455   418189 
  749000   0.72455018    -4.351378    -4.351378   -3.5961315  0.078486623    -4.351378   0.75524648   418189 
  750000   0.72577065   -4.3536677   -4.3536677    -3.597149  0.080491728   -4.3536677   0.75651866   418189 
  751000   0.72458703   -4.3532016   -4.3532016   -3.5979167   0.10259904   -4.3532016   0.75528489   418189 
  752000   0.72468043   -4.3541814   -4.3541814   -3.5987992  0.093671675   -4.3541814   0.75538225   418189 
  753000   0.72336507   -4.3540906   -4.3540906   -3.6000794  0.091360386   -4.3540906   0.75401116   418189 
  754000   0.72438603   -4.3562617   -4.3562617   -3.6011863  0.081217843   -4.3562617   0.75507538   418189 
  755000   0.72389892   -4.3563359   -4.3563359   -3.6017682  0.088500115   -4.3563359   0.75456763   418189 
  756000   0.72473133    -4.357532    -4.357532   -3.6020967  0.090685083    -4.357532   0.75543531   418189 
  757000   0.72414262   -4.3565213   -4.3565213   -3.6016997  0.070903077   -4.3565213   0.75482165   418189 
  758000   0.72147731   -4.3550486   -4.3550486   -3.6030052  0.079044926   -4.3550486   0.75204343   418189 
  759000   0.72394536   -4.3582032   -4.3582032   -3.6035871  0.072881714   -4.3582032   0.75461603   418189 
  760000   0.72305849   -4.3576968   -4.3576968   -3.6040052  0.080141515   -4.3576968    0.7536916   418189 
  761000    0.7223983   -4.3579883   -4.3579883   -3.6049849  0.067847996   -4.3579883   0.75300343   418189 
  762000   0.72342361   -4.3593284   -4.3593284   -3.6052562  0.081856756   -4.3593284   0.75407218   418189 
  763000   0.72240722   -4.3588725   -4.3588725   -3.6058597   0.08613052   -4.3588725   0.75301273   418189 
  764000   0.72265342   -4.3606513   -4.3606513   -3.6073819  0.075069675   -4.3606513   0.75326936   418189 
  765000   0.72223024     -4.36032     -4.36032   -3.6074917  0.096626804     -4.36032   0.75282826   418189 
  766000   0.72359081    -4.362158    -4.362158   -3.6079115  0.098954235    -4.362158   0.75424647   418189 
  767000    0.7228459   -4.3615463   -4.3615463   -3.6080763   0.07714969   -4.3615463      0.75347   418189 
  768000   0.72237761   -4.3615052   -4.3615052   -3.6085233  0.088772205   -4.3615052   0.75298187   418189 
  769000   0.72208933   -4.3623758   -4.3623758   -3.6096944  0.075828773   -4.3623758   0.75268137   418189 
  770000   0.71990428   -4.3615099   -4.3615099   -3.6111061  0.077352529   -4.3615099   0.75040375   418189 
  771000   0.72159397   -4.3626167   -4.3626167   -3.6104516  0.088660901   -4.3626167   0.75216503   418189 
  772000   0.72135471   -4.3636887   -4.3636887    -3.611773  0.091872875   -4.3636887   0.75191564   418189 
  773000    0.7205948   -4.3630863   -4.3630863   -3.6119627  0.092996977   -4.3630863   0.75112353   418189 
  774000   0.72069478   -4.3635265   -4.3635265   -3.6122987  0.090832913   -4.3635265   0.75122775   418189 
  775000   0.72103481   -4.3642787   -4.3642787   -3.6126965  0.082015209   -4.3642787   0.75158218   418189 
  776000   0.72168096   -4.3653966   -4.3653966   -3.6131409  0.084227051   -4.3653966    0.7522557   418189 
  777000   0.72030707   -4.3648745   -4.3648745   -3.6140509   0.09658999   -4.3648745    0.7508236   418189 
  778000   0.71967479   -4.3659531   -4.3659531   -3.6157885  0.085086726   -4.3659531   0.75016454   418189 
  779000   0.72125626   -4.3679109   -4.3679109   -3.6160979  0.077479086   -4.3679109   0.75181301   418189 
  780000   0.71871949   -4.3665236   -4.3665236   -3.6173549  0.090274598   -4.3665236   0.74916877   418189 
  781000   0.71686678   -4.3649845   -4.3649845   -3.6177469  0.093782164   -4.3649845   0.74723757   418189 
  782000   0.71973739   -4.3683762   -4.3683762   -3.6181464  0.078689828   -4.3683762    0.7502298   418189 
  783000   0.71890447    -4.369325    -4.369325   -3.6199634  0.087675433    -4.369325   0.74936158   418189 
  784000   0.71853243   -4.3686887   -4.3686887   -3.6197149   0.10857694   -4.3686887   0.74897378   418189 
  785000    0.7171081   -4.3679144   -4.3679144   -3.6204253  0.084138071   -4.3679144   0.74748911   418189 
  786000   0.71813268   -4.3692889   -4.3692889   -3.6207318  0.087266934   -4.3692889    0.7485571   418189 
  787000    0.7173876    -4.369389    -4.369389   -3.6216085  0.087976674    -4.369389   0.74778046   418189 
  788000   0.71797263   -4.3702885   -4.3702885   -3.6218983  0.086988567   -4.3702885   0.74839027   418189 
  789000   0.71840876   -4.3723235   -4.3723235   -3.6234787  0.091241395   -4.3723235   0.74884488   418189 
  790000   0.71607702   -4.3708106   -4.3708106   -3.6243963  0.077607966   -4.3708106   0.74641434   418189 
  791000   0.71570488    -4.370431    -4.370431   -3.6244046   0.10167032    -4.370431   0.74602644   418189 
  792000   0.71738026    -4.371574    -4.371574   -3.6238012  0.062573908    -4.371574    0.7477728   418189 
  793000   0.71607644    -4.370861    -4.370861   -3.6244472  0.092810247    -4.370861   0.74641374   418189 
  794000   0.71612526   -4.3717453   -4.3717453   -3.6252807  0.097116301   -4.3717453   0.74646463   418189 
  795000   0.71556264   -4.3726845   -4.3726845   -3.6268063  0.084022995   -4.3726845   0.74587818   418189 
  796000   0.71795378     -4.37523     -4.37523   -3.6268594  0.072695008     -4.37523   0.74837062   418189 
  797000   0.71587838   -4.3742806   -4.3742806   -3.6280733  0.083769994   -4.3742806   0.74620729   418189 
  798000   0.71616962   -4.3744603   -4.3744603   -3.6279494  0.087980965   -4.3744603   0.74651087   418189 
  799000   0.71433718   -4.3734825   -4.3734825   -3.6288817  0.083547589   -4.3734825    0.7446008   418189 
  800000   0.71582564   -4.3751894   -4.3751894   -3.6290371  0.081450194   -4.3751894   0.74615232   418189 
  801000   0.71503125   -4.3757997   -4.3757997   -3.6304754  0.082438608   -4.3757997   0.74532427   418189 
  802000   0.71408928    -4.375245    -4.375245   -3.6309026  0.097531419    -4.375245    0.7443424   418189 
  803000   0.71443547   -4.3761297   -4.3761297   -3.6314265   0.08106917   -4.3761297   0.74470325   418189 
  804000   0.71486737    -4.377164    -4.377164   -3.6320105  0.075597418    -4.377164   0.74515345   418189 
  805000   0.71309968   -4.3762409   -4.3762409     -3.63293  0.075976663   -4.3762409   0.74331087   418189 
  806000   0.71338434   -4.3777479   -4.3777479   -3.6341403  0.091280143   -4.3777479   0.74360758   418189 
  807000   0.71343142   -4.3783919   -4.3783919   -3.6347353  0.091589023   -4.3783919   0.74365666   418189 
  808000    0.7135659   -4.3787812   -4.3787812   -3.6349844   0.07624544   -4.3787812   0.74379684   418189 
  809000   0.71316522   -4.3793978   -4.3793978   -3.6360186  0.087077361   -4.3793978   0.74337919   418189 
  810000   0.71246746   -4.3789304   -4.3789304   -3.6362785  0.079648034   -4.3789304   0.74265186   418189 
  811000   0.71199585   -4.3794052   -4.3794052   -3.6372449  0.086906476   -4.3794052   0.74216028   418189 
  812000   0.71158257   -4.3789961   -4.3789961   -3.6372666  0.076487677   -4.3789961   0.74172949   418189 
  813000   0.71135971   -4.3789053   -4.3789053   -3.6374081  0.085106441   -4.3789053   0.74149719   418189 
  814000   0.71251069    -4.380706    -4.380706   -3.6380091  0.092238314    -4.380706   0.74269693   418189 
  815000   0.71359422   -4.3823919   -4.3823919   -3.6385655  0.084600799   -4.3823919   0.74382636   418189 
  816000   0.71283813   -4.3817402   -4.3817402    -3.638702  0.088740661   -4.3817402   0.74303824   418189 
  817000   0.71130974   -4.3807845   -4.3807845   -3.6393394  0.073418754   -4.3807845    0.7414451   418189 
  818000   0.71247143   -4.3820762   -4.3820762   -3.6394202  0.084543963   -4.3820762     0.742656   418189 
  819000   0.71098796   -4.3812529   -4.3812529   -3.6401432  0.090651532   -4.3812529   0.74110968   418189 
  820000   0.71170889   -4.3828391   -4.3828391    -3.640978  0.086079302   -4.3828391   0.74186115   418189 
  821000   0.71020484   -4.3819895   -4.3819895   -3.6416961  0.091855645   -4.3819895   0.74029339   418189 
  822000    0.7098596   -4.3821917   -4.3821917   -3.6422582    0.0873711   -4.3821917   0.73993352   418189 
  823000   0.70936746   -4.3818975   -4.3818975    -3.642477  0.085225082   -4.3818975   0.73942053   418189 
  824000   0.71016616   -4.3839116   -4.3839116   -3.6436586  0.063151601   -4.3839116   0.74025307   418189 
  825000   0.70971317   -4.3838701   -4.3838701   -3.6440893  0.083129807   -4.3838701   0.73978089   418189 
  826000   0.70964188   -4.3844857   -4.3844857   -3.6447791  0.083920902   -4.3844857   0.73970657   418189 
  827000   0.71026559   -4.3857636   -4.3857636   -3.6454069  0.077265963   -4.3857636   0.74035671   418189 
  828000   0.71091343   -4.3868664   -4.3868664   -3.6458344  0.098845537   -4.3868664     0.741032   418189 
  829000    0.7099604   -4.3863268   -4.3863268   -3.6462882  0.076261651   -4.3863268   0.74003859   418189 
  830000   0.71021171   -4.3870632   -4.3870632   -3.6467626  0.076284307   -4.3870632   0.74030055   418189 
  831000   0.70835048   -4.3859979   -4.3859979   -3.6476374  0.072119954   -4.3859979   0.73836046   418189 
  832000   0.70932381   -4.3876241   -4.3876241   -3.6482491  0.080400337   -4.3876241   0.73937503   418189 
  833000   0.70969263   -4.3887408   -4.3887408   -3.6489813  0.078948584   -4.3887408   0.73975948   418189 
  834000   0.70905738   -4.3880722   -4.3880722   -3.6489749  0.091122921   -4.3880722   0.73909731   418189 
  835000   0.70881039   -4.3879603   -4.3879603   -3.6491205  0.083204849   -4.3879603   0.73883986   418189 
  836000   0.70765888   -4.3874267   -4.3874267   -3.6497871  0.081926868   -4.3874267   0.73763957   418189 
  837000   0.70756661   -4.3875233   -4.3875233   -3.6499799  0.075554922   -4.3875233   0.73754339   418189 
  838000    0.7076847   -4.3889795   -4.3889795    -3.651313  0.083400854   -4.3889795   0.73766648   418189 
  839000   0.70721236   -4.3884631   -4.3884631   -3.6512889  0.084258058   -4.3884631   0.73717413   418189 
  840000   0.70920453   -4.3904101   -4.3904101   -3.6511594   0.07987537   -4.3904101   0.73925069   418189 
  841000   0.70933351   -4.3907357   -4.3907357   -3.6513506  0.085566018   -4.3907357   0.73938514   418189 
  842000   0.70814309   -4.3906918   -4.3906918   -3.6525475  0.067856686   -4.3906918   0.73814428   418189 
  843000   0.70652879    -4.390046    -4.390046   -3.6535844  0.065341137    -4.390046    0.7364616   418189 
  844000   0.70667968   -4.3898927   -4.3898927   -3.6532738  0.071695169   -4.3898927   0.73661888   418189 
  845000    0.7051392   -4.3891976   -4.3891976   -3.6541845  0.089853299   -4.3891976   0.73501314   418189 
  846000   0.70724714   -4.3918355   -4.3918355   -3.6546251  0.073452579   -4.3918355   0.73721038   418189 
  847000   0.70693027   -4.3919067   -4.3919067   -3.6550266  0.076623785   -4.3919067   0.73688008   418189 
  848000    0.7069869   -4.3917573   -4.3917573   -3.6548181  0.086818491   -4.3917573   0.73693911   418189 
  849000    0.7043754   -4.3889145   -4.3889145   -3.6546976  0.086924787   -4.3889145   0.73421697   418189 
  850000   0.70562564   -4.3918588   -4.3918588   -3.6563386  0.087300734   -4.3918588   0.73552018   418189 
  851000   0.70696312   -4.3945322   -4.3945322   -3.6576178  0.076047831   -4.3945322   0.73691433   418189 
  852000   0.70516432   -4.3931766   -4.3931766   -3.6581373  0.083597188   -4.3931766   0.73503931   418189 
  853000   0.70571401   -4.3939377   -4.3939377   -3.6583254  0.070221465   -4.3939377    0.7356123   418189 
  854000   0.70706069   -4.3959351   -4.3959351    -3.658919  0.073914492   -4.3959351   0.73701603   418189 
  855000   0.70465347   -4.3939337   -4.3939337   -3.6594269  0.087448623   -4.3939337   0.73450683   418189 
  856000   0.70466342   -4.3952114   -4.3952114   -3.6606942  0.080855726   -4.3952114    0.7345172   418189 
  857000   0.70394521   -4.3949454   -4.3949454   -3.6611768    0.0732449   -4.3949454   0.73376856   418189 
  858000   0.70486756   -4.3967197   -4.3967197   -3.6619897  0.065183343   -4.3967197   0.73472999   418189 
  859000   0.70465852   -4.3965746   -4.3965746   -3.6620625  0.092836485   -4.3965746   0.73451209   418189 
  860000   0.70376102   -4.3956906   -4.3956906    -3.662114  0.086021001   -4.3956906   0.73357657   418189 
  861000   0.70417705   -4.3967159   -4.3967159   -3.6627057   0.08584265   -4.3967159   0.73401022   418189 
  862000   0.70368366   -4.3967662   -4.3967662   -3.6632703  0.083726652   -4.3967662   0.73349593   418189 
  863000   0.70266432   -4.3958278   -4.3958278   -3.6633944   0.07450254   -4.3958278   0.73243341   418189 
  864000   0.70316222   -4.3964179   -4.3964179   -3.6634655    0.0832338   -4.3964179    0.7329524   418189 
  865000   0.70380413   -4.3981644   -4.3981644   -3.6645429  0.080664838   -4.3981644    0.7336215   418189 
  866000   0.70311414   -4.3987317   -4.3987317   -3.6658294  0.079962994   -4.3987317   0.73290228   418189 
  867000   0.70105578   -4.3965672   -4.3965672   -3.6658104  0.073146839   -4.3965672   0.73075671   418189 
  868000   0.70360062   -4.3990073   -4.3990073   -3.6655979  0.067652758   -4.3990073   0.73340937   418189 
  869000   0.70255029   -4.3986186   -4.3986186   -3.6663041  0.064848726   -4.3986186   0.73231455   418189 
  870000   0.70338956   -4.4001997   -4.4001997   -3.6670103  0.071154594   -4.4001997   0.73318937   418189 
  871000   0.70317106   -4.4001282   -4.4001282   -3.6671666  0.079166414   -4.4001282   0.73296161   418189 
  872000   0.70341012   -4.4011595   -4.4011595   -3.6679487  0.086844621   -4.4011595    0.7332108   418189 
  873000   0.70280213   -4.4010561   -4.4010561   -3.6684791  0.084416293   -4.4010561   0.73257705   418189 
  874000   0.70243275   -4.4019659   -4.4019659   -3.6697738  0.089284281   -4.4019659   0.73219202   418189 
  875000   0.70285548   -4.4022959   -4.4022959   -3.6696633  0.074192622   -4.4022959   0.73263266   418189 
  876000   0.70285969   -4.4026572   -4.4026572   -3.6700202   0.07588637   -4.4026572   0.73263706   418189 
  877000   0.70202197   -4.4012969   -4.4012969   -3.6695331  0.066464634   -4.4012969   0.73176384   418189 
  878000   0.70228088   -4.4023515   -4.4023515   -3.6703178  0.081255306   -4.4023515   0.73203372   418189 
  879000   0.70190015   -4.4029354   -4.4029354   -3.6712985  0.065789777   -4.4029354   0.73163686   418189 
  880000   0.70068386   -4.4027877   -4.4027877   -3.6724187   0.07787646   -4.4027877   0.73036904   418189 
  881000   0.70147094   -4.4035375   -4.4035375    -3.672348  0.096045161   -4.4035375   0.73118947   418189 
  882000   0.70192406   -4.4057766   -4.4057766   -3.6741148  0.079771071   -4.4057766   0.73166178   418189 
  883000   0.70244991   -4.4066707   -4.4066707   -3.6744608  0.069720103   -4.4066707   0.73220991   418189 
  884000   0.69985371   -4.4040882   -4.4040882   -3.6745845  0.087859537   -4.4040882   0.72950372   418189 
  885000   0.70187743   -4.4062241   -4.4062241   -3.6746109  0.082708923   -4.4062241   0.73161318   418189 
  886000   0.70061895   -4.4052276   -4.4052276   -3.6749262  0.080043258   -4.4052276   0.73030138   418189 
  887000   0.70065199   -4.4064924   -4.4064924   -3.6761566  0.067526763   -4.4064924   0.73033582   418189 
  888000   0.70144379   -4.4078054   -4.4078054   -3.6766442  0.068681227   -4.4078054   0.73116117   418189 
  889000   0.70102593   -4.4075419   -4.4075419   -3.6768163  0.066313402   -4.4075419    0.7307256   418189 
  890000   0.70095755   -4.4073646   -4.4073646   -3.6767102  0.060797027   -4.4073646   0.73065433   418189 
  891000   0.69914795   -4.4059613   -4.4059613   -3.6771932  0.072159115   -4.4059613   0.72876806   418189 
  892000   0.69921741   -4.4069862   -4.4069862   -3.6781458  0.061564949   -4.4069862   0.72884046   418189 
  893000   0.69870331   -4.4064016   -4.4064016   -3.6780971  0.069386917   -4.4064016   0.72830458   418189 
  894000   0.69905123   -4.4070689   -4.4070689   -3.6784017  0.070408679   -4.4070689   0.72866724   418189 
  895000   0.69890424   -4.4077278   -4.4077278   -3.6792138  0.068853644   -4.4077278   0.72851402   418189 
  896000   0.69859455   -4.4081862   -4.4081862   -3.6799949   0.05948068   -4.4081862   0.72819122   418189 
  897000   0.69944608   -4.4087289   -4.4087289   -3.6796501  0.076503085   -4.4087289   0.72907882   418189 
  898000   0.69999209     -4.40927     -4.40927    -3.679622  0.075019895     -4.40927   0.72964796   418189 
  899000   0.69988509   -4.4101646   -4.4101646   -3.6806282  0.072174935   -4.4101646   0.72953643   418189 
  900000   0.69795136    -4.408671    -4.408671   -3.6811502  0.054786023    -4.408671   0.72752078   418189 
  901000    0.7000227   -4.4107257   -4.4107257   -3.6810458  0.073838616   -4.4107257   0.72967987   418189 
  902000   0.69976272   -4.4112082   -4.4112082   -3.6817993  0.066155169   -4.4112082   0.72940887   418189 
  903000   0.69839567   -4.4104402   -4.4104402   -3.6824563  0.082797924   -4.4104402    0.7279839   418189 
  904000   0.69851071   -4.4109681   -4.4109681   -3.6828643  0.096149473   -4.4109681   0.72810382   418189 
  905000   0.69915953   -4.4110704   -4.4110704   -3.6822903  0.088603861   -4.4110704   0.72878013   418189 
  906000   0.69824796   -4.4109638   -4.4109638   -3.6831338  0.065088119   -4.4109638   0.72782994   418189 
  907000   0.69939607   -4.4116002   -4.4116002   -3.6825735  0.063407494   -4.4116002   0.72902669   418189 
  908000   0.69700701   -4.4096399   -4.4096399   -3.6831035   0.07210258   -4.4096399   0.72653642   418189 
  909000   0.69733326   -4.4108952   -4.4108952   -3.6840187  0.077525011   -4.4108952   0.72687649   418189 
  910000     0.698426   -4.4130607   -4.4130607   -3.6850451  0.073830845   -4.4130607   0.72801553   418189 
  911000   0.69888599   -4.4135948   -4.4135948   -3.6850998  0.079488888   -4.4135948     0.728495   418189 
  912000   0.69905082   -4.4147854   -4.4147854   -3.6861186  0.059771178   -4.4147854   0.72866681   418189 
  913000   0.69726184   -4.4144277   -4.4144277   -3.6876257  0.096453419   -4.4144277   0.72680204   418189 
  914000   0.69738205   -4.4149675   -4.4149675   -3.6880402  0.080280423   -4.4149675   0.72692735   418189 
  915000    0.6966453   -4.4142893   -4.4142893   -3.6881299  0.077025021   -4.4142893   0.72615938   418189 
  916000   0.69604421   -4.4136755   -4.4136755   -3.6881427  0.081794364   -4.4136755   0.72553283   418189 
  917000   0.69633402   -4.4143953   -4.4143953   -3.6885603  0.077793623   -4.4143953   0.72583491   418189 
  918000   0.69707292   -4.4157568   -4.4157568   -3.6891517  0.085907412   -4.4157568   0.72660512   418189 
  919000   0.69448735    -4.413253    -4.413253    -3.689343  0.051525477    -4.413253   0.72391001   418189 
  920000   0.69611695   -4.4157603   -4.4157603   -3.6901516  0.078607342   -4.4157603   0.72560864   418189 
  921000   0.69692847   -4.4169446   -4.4169446     -3.69049   0.06999985   -4.4169446   0.72645455   418189 
  922000   0.69572839   -4.4164833   -4.4164833   -3.6912797  0.086798786   -4.4164833   0.72520362   418189 
  923000   0.69714287   -4.4185787   -4.4185787   -3.6919007  0.077066897   -4.4185787   0.72667803   418189 
  924000   0.69501703   -4.4178463   -4.4178463   -3.6933841  0.054372859   -4.4178463   0.72446213   418189 
  925000   0.69443712    -4.417741    -4.417741   -3.6938834  0.067312514    -4.417741   0.72385765   418189 
  926000   0.69507426   -4.4188402   -4.4188402   -3.6943184  0.080580174   -4.4188402   0.72452179   418189 
  927000   0.69498631   -4.4194497   -4.4194497   -3.6950196  0.064556592   -4.4194497   0.72443011   418189 
  928000   0.69503975   -4.4204249   -4.4204249    -3.695939  0.072482404   -4.4204249   0.72448581   418189 
  929000    0.6940112   -4.4199368   -4.4199368   -3.6965232  0.079255327   -4.4199368   0.72341368   418189 
  930000   0.69464215   -4.4208921   -4.4208921   -3.6968208  0.060886951   -4.4208921   0.72407136   418189 
  931000   0.69437234   -4.4210562   -4.4210562   -3.6972661  0.054304669   -4.4210562   0.72379013   418189 
  932000   0.69270985   -4.4196868   -4.4196868   -3.6976296  0.071620053   -4.4196868   0.72205721   418189 
  933000   0.69375068   -4.4211973   -4.4211973   -3.6980551  0.082305245   -4.4211973   0.72314213   418189 
  934000   0.69356557    -4.421858    -4.421858   -3.6989088  0.084233849    -4.421858   0.72294917   418189 
  935000   0.69339485   -4.4214901   -4.4214901   -3.6987189  0.070590727   -4.4214901   0.72277123   418189 
  936000   0.69382548   -4.4212604   -4.4212604   -3.6980403  0.077639886   -4.4212604    0.7232201   418189 
  937000    0.6950889    -4.422873    -4.422873    -3.698336  0.083072277    -4.422873   0.72453704   418189 
  938000    0.6939085   -4.4223441   -4.4223441   -3.6990374  0.069951877   -4.4223441   0.72330664   418189 
  939000   0.69485296   -4.4235595   -4.4235595   -3.6992684  0.063152469   -4.4235595   0.72429111   418189 
  940000   0.69464269   -4.4236045   -4.4236045   -3.6995326  0.064844107   -4.4236045   0.72407193   418189 
  941000   0.69540316   -4.4251057   -4.4251057   -3.7002411  0.080702131   -4.4251057   0.72486462   418189 
  942000    0.6924136   -4.4224105   -4.4224105   -3.7006621  0.074784891   -4.4224105   0.72174841   418189 
  943000   0.69397125   -4.4243018   -4.4243018   -3.7009297  0.075167335   -4.4243018   0.72337205   418189 
  944000   0.69260634   -4.4233935   -4.4233935   -3.7014442  0.058139885   -4.4233935   0.72194931   418189 
  945000   0.69191246   -4.4222393   -4.4222393   -3.7010133  0.078204853   -4.4222393   0.72122604   418189 
  946000   0.69210788   -4.4232506   -4.4232506   -3.7018208  0.077977971   -4.4232506   0.72142973   418189 
  947000   0.69209783    -4.423596    -4.423596   -3.7021767   0.07624641    -4.423596   0.72141926   418189 
  948000   0.69339405   -4.4254441   -4.4254441   -3.7026737  0.085931427   -4.4254441   0.72277039   418189 
  949000   0.69210021   -4.4245706   -4.4245706   -3.7031489  0.071128582   -4.4245706   0.72142174   418189 
  950000   0.69143033   -4.4255296   -4.4255296   -3.7048061  0.068931286   -4.4255296   0.72072347   418189 
  951000   0.69087692    -4.424958    -4.424958   -3.7048114  0.059206912    -4.424958   0.72014662   418189 
  952000   0.69280239   -4.4272206   -4.4272206    -3.705067  0.055411252   -4.4272206   0.72215366   418189 
  953000   0.69115695   -4.4257996   -4.4257996   -3.7053611  0.069420937   -4.4257996   0.72043851   418189 
  954000   0.69247161   -4.4270612   -4.4270612   -3.7052524  0.098182544   -4.4270612   0.72180887   418189 
  955000   0.69227323   -4.4275216   -4.4275216   -3.7059195  0.074528768   -4.4275216   0.72160208   418189 
  956000   0.69162962   -4.4274301   -4.4274301   -3.7064989  0.067188516   -4.4274301   0.72093121   418189 
  957000   0.69146851   -4.4277934   -4.4277934   -3.7070301  0.082277303   -4.4277934   0.72076328   418189 
  958000   0.69038969   -4.4282926   -4.4282926   -3.7086538  0.065949646   -4.4282926   0.71963874   418189 
  959000   0.69215637   -4.4306263   -4.4306263    -3.709146  0.065476012   -4.4306263   0.72148027   418189 
  960000   0.68961111   -4.4282878   -4.4282878   -3.7094606  0.067172496   -4.4282878   0.71882718   418189 
  961000    0.6897895   -4.4298816   -4.4298816   -3.7108684    0.0791858   -4.4298816   0.71901313   418189 
  962000   0.69015837   -4.4295515   -4.4295515   -3.7101538  0.066168471   -4.4295515   0.71939763   418189 
  963000   0.68952974   -4.4292014   -4.4292014    -3.710459  0.073876343   -4.4292014   0.71874237   418189 
  964000   0.68859186   -4.4286188   -4.4286188    -3.710854  0.070527571   -4.4286188   0.71776475   418189 
  965000   0.68924902   -4.4293881   -4.4293881   -3.7109383  0.075107545   -4.4293881   0.71844975   418189 
  966000   0.69017069   -4.4309527   -4.4309527   -3.7115422  0.077673577   -4.4309527   0.71941047   418189 
  967000   0.68962259   -4.4309503   -4.4309503   -3.7121112  0.084757519   -4.4309503   0.71883915   418189 
  968000   0.68909948   -4.4310882   -4.4310882   -3.7127943  0.064105333   -4.4310882   0.71829388   418189 
  969000   0.68909778   -4.4311846   -4.4311846   -3.7128925  0.082033463   -4.4311846    0.7182921   418189 
  970000   0.68788783   -4.4312083   -4.4312083   -3.7141774  0.079275274   -4.4312083   0.71703089   418189 
  971000   0.68784654   -4.4316679   -4.4316679   -3.7146801  0.078123903   -4.4316679   0.71698786   418189 
  972000   0.68862859   -4.4324463   -4.4324463   -3.7146432  0.074805559   -4.4324463   0.71780304   418189 
  973000   0.68687872   -4.4309522   -4.4309522   -3.7149732  0.071762438   -4.4309522   0.71597903   418189 
  974000   0.68846998   -4.4325857   -4.4325857    -3.714948  0.082137059   -4.4325857   0.71763771   418189 
  975000   0.68924062   -4.4338426   -4.4338426   -3.7154016  0.072130562   -4.4338426     0.718441   418189 
  976000   0.68699097   -4.4315558   -4.4315558   -3.7154598  0.068573084   -4.4315558   0.71609603   418189 
  977000    0.6885126   -4.4337097   -4.4337097   -3.7160276  0.061435299   -4.4337097   0.71768214   418189 
  978000   0.68878208   -4.4341615   -4.4341615   -3.7161985  0.081951011   -4.4341615   0.71796303   418189 
  979000   0.68882145   -4.4343018   -4.4343018   -3.7162977  0.070071936   -4.4343018   0.71800406   418189 
  980000    0.6860312   -4.4324708   -4.4324708   -3.7173752   0.06778499   -4.4324708   0.71509561   418189 
  981000   0.68640111   -4.4335372   -4.4335372   -3.7180561  0.073314791   -4.4335372   0.71548119   418189 
  982000   0.68716545   -4.4342516   -4.4342516   -3.7179737  0.075638961   -4.4342516    0.7162779   418189 
  983000   0.68578171   -4.4332635   -4.4332635   -3.7184279   0.06414503   -4.4332635   0.71483555   418189 
  984000   0.68793905   -4.4354798   -4.4354798   -3.7183955  0.090201277   -4.4354798   0.71708428   418189 
  985000   0.68729543   -4.4362581   -4.4362581   -3.7198447  0.065060675   -4.4362581    0.7164134   418189 
  986000   0.68709023   -4.4365022   -4.4365022   -3.7203027   0.06666933   -4.4365022    0.7161995   418189 
  987000   0.68672585   -4.4369081   -4.4369081   -3.7210884  0.074485173   -4.4369081   0.71581968   418189 
  988000   0.68775863   -4.4379747   -4.4379747   -3.7210785  0.067692135   -4.4379747   0.71689622   418189 
  989000   0.68744569   -4.4386694   -4.4386694   -3.7220993  0.085436535   -4.4386694   0.71657003   418189 
  990000   0.68716845   -4.4389941   -4.4389941   -3.7227131  0.066388164   -4.4389941   0.71628103   418189 
  991000   0.68630633   -4.4385318   -4.4385318   -3.7231494  0.084986487   -4.4385318   0.71538239   418189 
  992000   0.68599597    -4.438168    -4.438168   -3.7231091  0.062223073    -4.438168   0.71505888   418189 
  993000   0.68582345   -4.4374197   -4.4374197   -3.7225407  0.075798133   -4.4374197   0.71487906   418189 
  994000   0.68598563   -4.4379495   -4.4379495   -3.7229014  0.068707805   -4.4379495    0.7150481   418189 
  995000   0.68756969   -4.4399163   -4.4399163    -3.723217  0.049936981   -4.4399163   0.71669928   418189 
  996000   0.68553605   -4.4387649   -4.4387649   -3.7241854  0.077591053   -4.4387649   0.71457947   418189 
  997000   0.68446333   -4.4381961   -4.4381961   -3.7247348  0.056354453   -4.4381961   0.71346131   418189 
  998000   0.68356004   -4.4381335   -4.4381335   -3.7256138  0.071034419   -4.4381335   0.71251975   418189 
  999000   0.68365384   -4.4382072   -4.4382072   -3.7255897  0.055948766   -4.4382072   0.71261753   418189 
 1000000   0.68435578   -4.4399332   -4.4399332    -3.726584  0.060020119   -4.4399332    0.7133492   418189 
 1001000   0.68324863   -4.4399863   -4.4399863   -3.7277912  0.068887647   -4.4399863   0.71219515   418189 
 1002000    0.6839084   -4.4413251   -4.4413251   -3.7284422  0.054920733   -4.4413251   0.71288287   418189 
 1003000   0.68286963    -4.440125    -4.440125   -3.7283249  0.068568803    -4.440125   0.71180009   418189 
 1004000    0.6833218   -4.4407821   -4.4407821   -3.7285106  0.073141582   -4.4407821   0.71227141   418189 
 1005000   0.68409247   -4.4416034   -4.4416034   -3.7285286  0.065709046   -4.4416034   0.71307474   418189 
 1006000   0.68244895   -4.4404304   -4.4404304   -3.7290688  0.050134796   -4.4404304   0.71136159   418189 
 1007000   0.68279341    -4.442237    -4.442237   -3.7305163  0.075744152    -4.442237   0.71172064   418189 
 1008000    0.6839485   -4.4433609   -4.4433609   -3.7304362  0.064662118   -4.4433609   0.71292467   418189 
 1009000   0.68226336   -4.4421541   -4.4421541   -3.7309859  0.069097543   -4.4421541   0.71116814   418189 
 1010000   0.68433632   -4.4445123   -4.4445123   -3.7311834  0.074551223   -4.4445123   0.71332892   418189 
 1011000   0.68346016   -4.4439099   -4.4439099   -3.7314942  0.071040452   -4.4439099   0.71241564   418189 
 1012000   0.68354549   -4.4442495   -4.4442495   -3.7317449  0.070540004   -4.4442495   0.71250459   418189 
 1013000   0.68312022   -4.4445265   -4.4445265   -3.7324652  0.063568199   -4.4445265    0.7120613   418189 
 1014000   0.68328378   -4.4452397   -4.4452397   -3.7330079   0.06626517   -4.4452397   0.71223179   418189 
 1015000   0.68336686   -4.4454969   -4.4454969   -3.7331785  0.062441845   -4.4454969   0.71231839   418189 
 1016000   0.68176674   -4.4443384   -4.4443384   -3.7336879  0.054918948   -4.4443384   0.71065048   418189 
 1017000   0.68268476   -4.4451771   -4.4451771   -3.7335697  0.078823711   -4.4451771   0.71160739   418189 
 1018000    0.6820328   -4.4455524   -4.4455524   -3.7346246  0.062783639   -4.4455524   0.71092781   418189 
 1019000   0.68119066   -4.4450223   -4.4450223   -3.7349723  0.078472905   -4.4450223   0.71004999   418189 
 1020000   0.68216991   -4.4469107   -4.4469107     -3.73584  0.076030762   -4.4469107   0.71107073   418189 
 1021000   0.68167788   -4.4472005   -4.4472005   -3.7366427  0.066564787   -4.4472005   0.71055785   418189 
 1022000    0.6819615   -4.4478725   -4.4478725    -3.737019  0.068854988   -4.4478725   0.71085349   418189 
 1023000   0.68134196   -4.4477737   -4.4477737    -3.737566  0.082944956   -4.4477737    0.7102077   418189 
 1024000   0.67957611   -4.4466182   -4.4466182   -3.7382511  0.067028659   -4.4466182   0.70836704   418189 
 1025000   0.67950625   -4.4470418   -4.4470418   -3.7387476  0.078441127   -4.4470418   0.70829422   418189 
 1026000   0.68054969   -4.4479453   -4.4479453   -3.7385634  0.071165356   -4.4479453   0.70938187   418189 
 1027000   0.68010398   -4.4482233   -4.4482233   -3.7393061  0.065918167   -4.4482233   0.70891727   418189 
 1028000   0.68022635   -4.4491615   -4.4491615   -3.7401167  0.071087534   -4.4491615   0.70904482   418189 
 1029000   0.67890689   -4.4481523   -4.4481523   -3.7404829  0.066070815   -4.4481523   0.70766947   418189 
 1030000   0.67985508   -4.4493712   -4.4493712   -3.7407134  0.083522154   -4.4493712   0.70865782   418189 
 1031000   0.67953046   -4.4499143   -4.4499143   -3.7415949   0.07316203   -4.4499143   0.70831946   418189 
 1032000    0.6808237   -4.4512093   -4.4512093   -3.7415418  0.072290606   -4.4512093   0.70966749   418189 
 1033000    0.6819541   -4.4521067   -4.4521067    -3.741261  0.071613873   -4.4521067   0.71084578   418189 
 1034000   0.68092138   -4.4512945   -4.4512945   -3.7415252  0.070879147   -4.4512945   0.70976931   418189 
 1035000   0.68031581    -4.450755    -4.450755   -3.7416169  0.065280996    -4.450755   0.70913808   418189 
 1036000   0.67912391   -4.4498767   -4.4498767    -3.741981  0.068565368   -4.4498767   0.70789568   418189 
 1037000   0.68096632   -4.4523817   -4.4523817   -3.7425655   0.08086811   -4.4523817   0.70981614   418189 
 1038000   0.67971878   -4.4521843   -4.4521843   -3.7436686  0.058664823   -4.4521843   0.70851575   418189 
 1039000   0.67893502   -4.4513251   -4.4513251   -3.7436263   0.08168065   -4.4513251   0.70769879   418189 
 1040000   0.67866064   -4.4513406   -4.4513406   -3.7439278  0.054049716   -4.4513406   0.70741278   418189 
 1041000   0.67774098   -4.4512154   -4.4512154   -3.7447613  0.068558071   -4.4512154   0.70645416   418189 
 1042000   0.67843602   -4.4527084   -4.4527084   -3.7455297  0.074829806   -4.4527084   0.70717865   418189 
 1043000   0.67918922   -4.4539448   -4.4539448   -3.7459811  0.066554351   -4.4539448   0.70796376   418189 
 1044000   0.67930349   -4.4538373   -4.4538373   -3.7457544  0.071526451   -4.4538373   0.70808287   418189 
 1045000   0.67838626   -4.4537617   -4.4537617   -3.7466349   0.06389826   -4.4537617   0.70712678   418189 
 1046000   0.67815277   -4.4536896   -4.4536896   -3.7468062  0.047834201   -4.4536896    0.7068834   418189 
 1047000   0.67985623   -4.4558098   -4.4558098   -3.7471507  0.079218893   -4.4558098   0.70865903   418189 
 1048000   0.67924532   -4.4549386   -4.4549386   -3.7469164  0.075043502   -4.4549386   0.70802223   418189 
 1049000   0.67585309   -4.4528368   -4.4528368   -3.7483505  0.050979985   -4.4528368   0.70448629   418189 
 1050000   0.67787456   -4.4547175   -4.4547175   -3.7481241  0.065554008   -4.4547175    0.7065934   418189 
 1051000   0.67760312   -4.4550647   -4.4550647   -3.7487542  0.083777964   -4.4550647   0.70631047   418189 
 1052000   0.67759188   -4.4554932   -4.4554932   -3.7491945  0.067956167   -4.4554932   0.70629875   418189 
 1053000    0.6771526   -4.4558321   -4.4558321   -3.7499913  0.074767485   -4.4558321   0.70584086   418189 
 1054000   0.67676633   -4.4558103   -4.4558103   -3.7503721  0.072499858   -4.4558103   0.70543822   418189 
 1055000   0.67659402   -4.4559704   -4.4559704   -3.7507118  0.066532337   -4.4559704   0.70525861   418189 
 1056000   0.67609261   -4.4562383   -4.4562383   -3.7515023  0.061325827   -4.4562383   0.70473596   418189 
 1057000    0.6768136   -4.4568276   -4.4568276   -3.7513401  0.064465556   -4.4568276    0.7054875   418189 
 1058000   0.67570558   -4.4559173   -4.4559173   -3.7515848  0.050390533   -4.4559173   0.70433253   418189 
 1059000   0.67772418    -4.458312    -4.458312   -3.7518754  0.068994991    -4.458312   0.70643665   418189 
 1060000   0.67588519   -4.4566594   -4.4566594   -3.7521397  0.051408287   -4.4566594   0.70451975   418189 
 1061000   0.67585372   -4.4575162   -4.4575162   -3.7530292  0.077359334   -4.4575162   0.70448695   418189 
 1062000   0.67586897   -4.4571819   -4.4571819   -3.7526791  0.045200777   -4.4571819   0.70450284   418189 
 1063000   0.67726795   -4.4583212   -4.4583212   -3.7523601  0.080930115   -4.4583212   0.70596109   418189 
 1064000   0.67723289   -4.4587585   -4.4587585    -3.752834  0.074355936   -4.4587585   0.70592454   418189 
 1065000   0.67601778   -4.4583782   -4.4583782   -3.7537202  0.059010813   -4.4583782   0.70465796   418189 
 1066000   0.67605341   -4.4591103   -4.4591103   -3.7544152  0.067837172   -4.4591103    0.7046951   418189 
 1067000   0.67562544   -4.4591243   -4.4591243   -3.7548753  0.055940483   -4.4591243   0.70424899   418189 
 1068000   0.67670653   -4.4608392   -4.4608392   -3.7554633  0.058084073   -4.4608392   0.70537588   418189 
 1069000   0.67644181   -4.4605062   -4.4605062   -3.7554063  0.061512156   -4.4605062   0.70509995   418189 
 1070000   0.67627864   -4.4607213   -4.4607213   -3.7557914  0.060178034   -4.4607213   0.70492987   418189 
 1071000    0.6750122   -4.4596643   -4.4596643   -3.7560545  0.068381254   -4.4596643   0.70360977   418189 
 1072000   0.67565013   -4.4611259   -4.4611259   -3.7568512  0.069071608   -4.4611259   0.70427473   418189 
 1073000   0.67540344   -4.4608097   -4.4608097   -3.7567921  0.071553804   -4.4608097   0.70401759   418189 
 1074000   0.67614359   -4.4618204   -4.4618204   -3.7570313  0.067971777   -4.4618204    0.7047891   418189 
 1075000   0.67549633   -4.4625995   -4.4625995   -3.7584851  0.065879297   -4.4625995   0.70411442   418189 
 1076000   0.67463219   -4.4626113   -4.4626113   -3.7593976  0.059906766   -4.4626113   0.70321367   418189 
 1077000   0.67538435   -4.4636173   -4.4636173   -3.7596196  0.061550167   -4.4636173   0.70399769   418189 
 1078000   0.67697676   -4.4648074   -4.4648074   -3.7591499  0.077146051   -4.4648074   0.70565757   418189 
 1079000   0.67489689   -4.4636964   -4.4636964   -3.7602068  0.079369114   -4.4636964   0.70348958   418189 
 1080000   0.67452842   -4.4636526   -4.4636526   -3.7605471  0.065577797   -4.4636526   0.70310549   418189 
 1081000   0.67417145   -4.4637105   -4.4637105   -3.7609771   0.06263924   -4.4637105   0.70273341   418189 
 1082000    0.6733069   -4.4636708   -4.4636708   -3.7618386  0.064370729   -4.4636708   0.70183223   418189 
 1083000   0.67387268   -4.4644967   -4.4644967   -3.7620747  0.074758391   -4.4644967   0.70242197   418189 
 1084000   0.67251924   -4.4632153   -4.4632153   -3.7622041  0.055856957   -4.4632153   0.70101119   418189 
 1085000   0.67329419   -4.4635715   -4.4635715   -3.7617525  0.062250742   -4.4635715   0.70181898   418189 
 1086000   0.67279797      -4.4632      -4.4632   -3.7618982  0.064254579      -4.4632   0.70130173   418189 
 1087000   0.67323453   -4.4648262   -4.4648262   -3.7630695  0.073775955   -4.4648262   0.70175679   418189 
 1088000   0.67365939   -4.4652152   -4.4652152   -3.7630156  0.047036092   -4.4652152   0.70219965   418189 
 1089000   0.67339845   -4.4651945   -4.4651945   -3.7632669  0.068386697   -4.4651945   0.70192766   418189 
 1090000    0.6723284   -4.4645036   -4.4645036   -3.7636913  0.056711438   -4.4645036   0.70081227   418189 
 1091000   0.67366671   -4.4665571   -4.4665571   -3.7643498  0.084376346   -4.4665571   0.70220728   418189 
 1092000   0.67409979   -4.4669817   -4.4669817    -3.764323  0.069193627   -4.4669817   0.70265871   418189 
 1093000   0.67165685   -4.4644558   -4.4644558   -3.7643435  0.066286757   -4.4644558   0.70011227   418189 
 1094000   0.67307115   -4.4665577   -4.4665577   -3.7649712  0.063244139   -4.4665577   0.70158649   418189 
 1095000   0.67376767    -4.467923    -4.467923   -3.7656105  0.083516683    -4.467923   0.70231252   418189 
 1096000   0.67058181   -4.4656966   -4.4656966   -3.7667049  0.056518351   -4.4656966   0.69899169   418189 
 1097000   0.67247143   -4.4666495   -4.4666495   -3.7656882  0.050974104   -4.4666495   0.70096136   418189 
 1098000    0.6713968   -4.4664209   -4.4664209   -3.7665797  0.068174771   -4.4664209    0.6998412   418189 
 1099000    0.6711684   -4.4667295   -4.4667295   -3.7671264  0.057654637   -4.4667295   0.69960312   418189 
 1100000   0.67145594   -4.4676948   -4.4676948    -3.767792  0.064608944   -4.4676948   0.69990285   418189 
 1101000   0.67246249   -4.4691778   -4.4691778   -3.7682257  0.061095069   -4.4691778   0.70095204   418189 
 1102000   0.67278646   -4.4691262   -4.4691262   -3.7678365  0.063017354   -4.4691262   0.70128974   418189 
 1103000   0.67254113   -4.4692148   -4.4692148   -3.7681808  0.059180909   -4.4692148   0.70103402   418189 
 1104000   0.66999141   -4.4673133   -4.4673133    -3.768937  0.065712747   -4.4673133   0.69837627   418189 
 1105000   0.67179322   -4.4690063   -4.4690063   -3.7687519   0.06089479   -4.4690063   0.70025442   418189 
 1106000   0.67083768   -4.4686483   -4.4686483   -3.7693899  0.078451611   -4.4686483    0.6992584   418189 
 1107000   0.67158399   -4.4698199   -4.4698199   -3.7697836  0.081120199   -4.4698199   0.70003632   418189 
 1108000    0.6734471   -4.4711287   -4.4711287   -3.7691504   0.06191121   -4.4711287   0.70197836   418189 
 1109000   0.67358476   -4.4715286   -4.4715286   -3.7694067  0.056347069   -4.4715286   0.70212186   418189 
 1110000   0.67292613   -4.4715988   -4.4715988   -3.7701635  0.062792782   -4.4715988   0.70143533   418189 
 1111000   0.67082575   -4.4698075   -4.4698075   -3.7705616   0.07042973   -4.4698075   0.69924596   418189 
 1112000    0.6709613   -4.4707228   -4.4707228   -3.7713355  0.050629366   -4.4707228   0.69938726   418189 
 1113000   0.67100098   -4.4713655   -4.4713655   -3.7719369   0.06473926   -4.4713655   0.69942862   418189 
 1114000   0.67160912   -4.4718022   -4.4718022   -3.7717397  0.072597984   -4.4718022   0.70006252   418189 
 1115000   0.67133806   -4.4727614   -4.4727614   -3.7729815  0.075173779   -4.4727614   0.69977998   418189 
 1116000   0.67181938   -4.4729244   -4.4729244   -3.7726427  0.049695168   -4.4729244   0.70028169   418189 
 1117000   0.67151016   -4.4729713   -4.4729713    -3.773012  0.070082911   -4.4729713   0.69995936   418189 
 1118000   0.67107825   -4.4732569   -4.4732569   -3.7737477  0.056745236   -4.4732569   0.69950916   418189 
 1119000   0.67041423   -4.4733037   -4.4733037   -3.7744867   0.08048942   -4.4733037   0.69881701   418189 
 1120000   0.67098916   -4.4741419   -4.4741419   -3.7747257  0.067357874   -4.4741419   0.69941629   418189 
 1121000    0.6697299   -4.4729261   -4.4729261   -3.7748224  0.062712765   -4.4729261   0.69810369   418189 
 1122000   0.67056285   -4.4736473   -4.4736473   -3.7746754  0.070847965   -4.4736473   0.69897193   418189 
 1123000   0.66897322   -4.4721875   -4.4721875   -3.7748726  0.069571524   -4.4721875   0.69731495   418189 
 1124000   0.66832038   -4.4720245   -4.4720245     -3.77539  0.054804098   -4.4720245   0.69663445   418189 
 1125000   0.67046763   -4.4747157   -4.4747157   -3.7758431  0.066234757   -4.4747157   0.69887267   418189 
 1126000   0.66893169   -4.4732546   -4.4732546    -3.775983  0.058429959   -4.4732546   0.69727165   418189 
 1127000    0.6684502   -4.4737393   -4.4737393   -3.7769695   0.05091602   -4.4737393   0.69676977   418189 
 1128000    0.6690382   -4.4748175   -4.4748175   -3.7774348   0.06213103   -4.4748175   0.69738267   418189 
 1129000   0.67005448   -4.4767697   -4.4767697   -3.7783276  0.065061713   -4.4767697   0.69844202   418189 
 1130000   0.66950285   -4.4756108   -4.4756108   -3.7777438  0.058904826   -4.4756108   0.69786702   418189 
 1131000   0.66846156   -4.4747465   -4.4747465   -3.7779649  0.060285324   -4.4747465   0.69678161   418189 
 1132000   0.66895736     -4.47506     -4.47506   -3.7777615  0.052232611     -4.47506   0.69729842   418189 
 1133000   0.66971458   -4.4762875   -4.4762875   -3.7781998   0.08877136   -4.4762875   0.69808772   418189 
 1134000   0.67022079   -4.4778348   -4.4778348   -3.7792194  0.072298807   -4.4778348   0.69861537   418189 
 1135000   0.66869708    -4.476998    -4.476998   -3.7799709  0.065701463    -4.476998   0.69702711   418189 
 1136000   0.66960753   -4.4787138   -4.4787138   -3.7807376  0.052486107   -4.4787138   0.69797613   418189 
 1137000   0.66953576   -4.4787051   -4.4787051   -3.7808038  0.052709258   -4.4787051   0.69790132   418189 
 1138000   0.66807639    -4.477655    -4.477655   -3.7812748   0.05909115    -4.477655   0.69638012   418189 
 1139000   0.66952972   -4.4786973   -4.4786973   -3.7808023  0.085433345   -4.4786973   0.69789503   418189 
 1140000     0.668452   -4.4787796   -4.4787796   -3.7820079  0.070474206   -4.4787796   0.69677164   418189 
 1141000   0.66597238   -4.4764787   -4.4764787   -3.7822917  0.053217388   -4.4764787   0.69418698   418189 
 1142000   0.67001215   -4.4796426   -4.4796426   -3.7812448  0.066479124   -4.4796426   0.69839789   418189 
 1143000   0.66714017   -4.4773234   -4.4773234   -3.7819191   0.06471046   -4.4773234   0.69540424   418189 
 1144000   0.66696956   -4.4777111   -4.4777111   -3.7824847   0.07837422   -4.4777111    0.6952264   418189 
 1145000   0.66835708   -4.4786247   -4.4786247    -3.781952  0.055639142   -4.4786247   0.69667271   418189 
 1146000   0.66677215   -4.4779238   -4.4779238   -3.7829032  0.071805508   -4.4779238   0.69502063   418189 
 1147000   0.66763358   -4.4792851   -4.4792851   -3.7833665  0.060774681   -4.4792851   0.69591856   418189 
 1148000   0.66802687    -4.480108    -4.480108   -3.7837795  0.060850874    -4.480108   0.69632851   418189 
 1149000   0.66799772   -4.4809012   -4.4809012   -3.7846031  0.060125537   -4.4809012   0.69629812   418189 
 1150000   0.66799612   -4.4817685   -4.4817685    -3.785472  0.069990426   -4.4817685   0.69629645   418189 
 1151000    0.6690026   -4.4832263   -4.4832263   -3.7858807  0.054722057   -4.4832263   0.69734557   418189 
 1152000   0.66747281   -4.4817897   -4.4817897   -3.7860388  0.053968503   -4.4817897   0.69575097   418189 
 1153000   0.66706408   -4.4815703   -4.4815703   -3.7862453  0.055192096   -4.4815703   0.69532493   418189 
 1154000   0.66724081   -4.4818474   -4.4818474   -3.7863383  0.088041586   -4.4818474   0.69550914   418189 
 1155000   0.66696755   -4.4822695   -4.4822695   -3.7870452  0.068525462   -4.4822695   0.69522431   418189 
 1156000   0.66723263   -4.4826441   -4.4826441   -3.7871435  0.047043569   -4.4826441   0.69550061   418189 
 1157000    0.6659883   -4.4819871   -4.4819871   -3.7877835  0.059577788   -4.4819871   0.69420357   418189 
 1158000    0.6651856   -4.4811935   -4.4811935   -3.7878266  0.049718733   -4.4811935   0.69336686   418189 
 1159000   0.66651469   -4.4835667   -4.4835667   -3.7888145   0.05603638   -4.4835667   0.69475226   418189 
 1160000   0.66485945    -4.482407    -4.482407   -3.7893801   0.06480388    -4.482407   0.69302689   418189 
 1161000    0.6663782   -4.4844703   -4.4844703   -3.7898603  0.052429546   -4.4844703   0.69460998   418189 
 1162000    0.6652616   -4.4834954   -4.4834954   -3.7900493  0.060092542   -4.4834954   0.69344609   418189 
 1163000   0.66603637   -4.4846998   -4.4846998   -3.7904461  0.045360511   -4.4846998   0.69425368   418189 
 1164000   0.66543621   -4.4853422   -4.4853422   -3.7917142  0.058845082   -4.4853422   0.69362808   418189 
 1165000   0.66476153   -4.4848043   -4.4848043   -3.7918795  0.044780762   -4.4848043   0.69292483   418189 
 1166000   0.66390398   -4.4834704   -4.4834704   -3.7914395  0.050117462   -4.4834704   0.69203095   418189 
 1167000   0.66613578   -4.4862707   -4.4862707   -3.7919134  0.054171112   -4.4862707   0.69435729   418189 
 1168000   0.66613371   -4.4869739   -4.4869739   -3.7926187   0.06970624   -4.4869739   0.69435514   418189 
 1169000   0.66473744   -4.4864029   -4.4864029   -3.7935032  0.065384298   -4.4864029   0.69289971   418189 
 1170000   0.66599145   -4.4872147   -4.4872147   -3.7930079  0.041977928   -4.4872147   0.69420685   418189 
 1171000   0.66417154   -4.4854804   -4.4854804   -3.7931706  0.064394246   -4.4854804   0.69230984   418189 
 1172000   0.66422848   -4.4867118   -4.4867118   -3.7943426  0.051394091   -4.4867118   0.69236919   418189 
 1173000   0.66474547   -4.4875917   -4.4875917   -3.7946836   0.05891629   -4.4875917   0.69290808   418189 
 1174000   0.66473247   -4.4873432   -4.4873432   -3.7944487  0.060825143   -4.4873432   0.69289454   418189 
 1175000   0.66347065   -4.4868924   -4.4868924   -3.7953131     0.055039   -4.4868924   0.69157925   418189 
 1176000   0.66155765   -4.4855249   -4.4855249   -3.7959397  0.057008642   -4.4855249   0.68958521   418189 
 1177000   0.66341314   -4.4891188   -4.4891188   -3.7975994  0.070685513   -4.4891188   0.69151931   418189 
 1178000   0.66508359   -4.4898643   -4.4898643   -3.7966037  0.073567346   -4.4898643   0.69326053   418189 
 1179000   0.66414746   -4.4883961   -4.4883961   -3.7961113   0.06988348   -4.4883961   0.69228473   418189 
 1180000    0.6642138   -4.4886454   -4.4886454   -3.7962915   0.05972296   -4.4886454   0.69235389   418189 
 1181000   0.66270748   -4.4872568   -4.4872568    -3.796473  0.051462896   -4.4872568   0.69078375   418189 
 1182000   0.66154453   -4.4866221   -4.4866221   -3.7970506  0.060276887   -4.4866221   0.68957153   418189 
 1183000   0.66210627   -4.4881583   -4.4881583   -3.7980012  0.056103246   -4.4881583   0.69015707   418189 
 1184000   0.66238728   -4.4885762   -4.4885762   -3.7981262  0.063918534   -4.4885762   0.69044998   418189 
 1185000   0.66151005   -4.4882161   -4.4882161   -3.7986805  0.058762198   -4.4882161   0.68953559   418189 
 1186000   0.66228183   -4.4882503   -4.4882503   -3.7979102  0.063490311   -4.4882503   0.69034007   418189 
 1187000   0.66360567   -4.4894963   -4.4894963   -3.7977763  0.060308604   -4.4894963   0.69171999   418189 
 1188000   0.66394059   -4.4893913   -4.4893913   -3.7973222   0.05047503   -4.4893913    0.6920691   418189 
 1189000   0.66371453   -4.4898016   -4.4898016   -3.7979682  0.059302991   -4.4898016   0.69183346   418189 
 1190000   0.66419036   -4.4907688   -4.4907688   -3.7984393  0.076147219   -4.4907688   0.69232946   418189 
 1191000   0.66129441   -4.4883624   -4.4883624   -3.7990516  0.052471888   -4.4883624   0.68931081   418189 
 1192000   0.66121708   -4.4891022   -4.4891022    -3.799872  0.053471225   -4.4891022   0.68923021   418189 
 1193000   0.66377745   -4.4922557   -4.4922557   -3.8003567  0.060207414   -4.4922557   0.69189905   418189 
 1194000    0.6624514   -4.4907599   -4.4907599   -3.8002431  0.075774466   -4.4907599   0.69051682   418189 
 1195000   0.66233182   -4.4911622   -4.4911622     -3.80077  0.071468625   -4.4911622   0.69039218   418189 
 1196000   0.66219551   -4.4912745   -4.4912745   -3.8010245    0.0571561   -4.4912745   0.69025009   418189 
 1197000   0.66222046   -4.4911766   -4.4911766   -3.8009005  0.074025849   -4.4911766    0.6902761   418189 
 1198000   0.66267309   -4.4926613   -4.4926613   -3.8019134  0.053243177   -4.4926613    0.6907479   418189 
 1199000   0.66147548   -4.4917332   -4.4917332   -3.8022337  0.065322001   -4.4917332   0.68949956   418189 
 1200000   0.66221829   -4.4927203   -4.4927203   -3.8024465  0.060842317   -4.4927203   0.69027383   418189 
 1201000   0.66273532   -4.4939879   -4.4939879   -3.8031752  0.058071481   -4.4939879   0.69081277   418189 
 1202000   0.66139681   -4.4927993   -4.4927993   -3.8033818  0.051109481   -4.4927993   0.68941755   418189 
 1203000   0.66059037   -4.4929448   -4.4929448   -3.8043679   0.06032875   -4.4929448   0.68857695   418189 
 1204000   0.66195549   -4.4948552   -4.4948552   -3.8048553  0.045262495   -4.4948552    0.6899999   418189 
 1205000   0.66140574   -4.4957539   -4.4957539   -3.8063271  0.066373512   -4.4957539   0.68942687   418189 
 1206000   0.66126153   -4.4950079   -4.4950079   -3.8057313  0.063307207   -4.4950079   0.68927654   418189 
 1207000   0.66029666   -4.4943315   -4.4943315   -3.8060607  0.066641117   -4.4943315    0.6882708   418189 
 1208000   0.65994343   -4.4936181   -4.4936181   -3.8057155  0.052514582   -4.4936181    0.6879026   418189 
 1209000   0.66135818   -4.4948343   -4.4948343    -3.805457  0.055620611   -4.4948343   0.68937729   418189 
 1210000   0.66092798   -4.4951761   -4.4951761   -3.8062472   0.05641728   -4.4951761   0.68892886   418189 
 1211000   0.66241967     -4.49706     -4.49706   -3.8065763  0.046847126     -4.49706   0.69048375   418189 
 1212000   0.66149796   -4.4950055   -4.4950055   -3.8054825  0.056822924   -4.4950055   0.68952299   418189 
 1213000   0.66114243   -4.4947549   -4.4947549   -3.8056024  0.057872175   -4.4947549    0.6891524   418189 
 1214000   0.66212177   -4.4961915   -4.4961915   -3.8060183  0.066520824   -4.4961915   0.69017323   418189 
 1215000    0.6611525   -4.4954143   -4.4954143   -3.8062514  0.054036453   -4.4954143    0.6891629   418189 
 1216000   0.66167902   -4.4968188   -4.4968188   -3.8071071  0.066252866   -4.4968188   0.68971172   418189 
 1217000   0.66072191   -4.4967803   -4.4967803   -3.8080662  0.059889578   -4.4967803   0.68871406   418189 
 1218000   0.66123935   -4.4978308   -4.4978308   -3.8085773  0.077375449   -4.4978308   0.68925343   418189 
 1219000   0.66048476   -4.4972475   -4.4972475   -3.8087806  0.059357412   -4.4972475   0.68846686   418189 
 1220000   0.65992948   -4.4975249   -4.4975249   -3.8096369  0.065736876   -4.4975249   0.68788806   418189 
 1221000   0.66021598   -4.4980237   -4.4980237   -3.8098371  0.070586766   -4.4980237    0.6881867   418189 
 1222000   0.66088296    -4.498989    -4.498989   -3.8101071   0.07578052    -4.498989   0.68888193   418189 
 1223000    0.6598551   -4.4989305   -4.4989305     -3.81112  0.059133455   -4.4989305   0.68781052   418189 
 1224000   0.65922512   -4.4982285   -4.4982285   -3.8110747   0.04864271   -4.4982285   0.68715386   418189 
 1225000   0.65958413   -4.4995916   -4.4995916   -3.8120635  0.068774402   -4.4995916   0.68752808   418189 
 1226000    0.6594216   -4.5002383   -4.5002383   -3.8128797  0.058741244   -4.5002383   0.68735867   418189 
 1227000   0.65858615   -4.4990173   -4.4990173   -3.8125295  0.060829935   -4.4990173   0.68648782   418189 
 1228000   0.65915839    -4.499573    -4.499573   -3.8124887  0.068770318    -4.499573   0.68708431   418189 
 1229000   0.65891621   -4.4995501   -4.4995501   -3.8127182  0.053281187   -4.4995501   0.68683186   418189 
 1230000   0.65887321   -4.4999724   -4.4999724   -3.8131853  0.071997668   -4.4999724   0.68678703   418189 
 1231000   0.65872911   -4.4994937   -4.4994937   -3.8128569  0.052314596   -4.4994937   0.68663683   418189 
 1232000   0.65819386   -4.4988806   -4.4988806   -3.8128017  0.036666181   -4.4988806   0.68607891   418189 
 1233000   0.65900196   -4.4998505   -4.4998505   -3.8129293  0.056695165   -4.4998505   0.68692124   418189 
 1234000   0.65853841   -4.5002278   -4.5002278   -3.8137897  0.051094184   -4.5002278   0.68643805   418189 
 1235000   0.65825913   -4.5003479   -4.5003479   -3.8142009  0.059515795   -4.5003479   0.68614695   418189 
 1236000   0.65685403   -4.4995471   -4.4995471   -3.8148648  0.053813156   -4.4995471   0.68468232   418189 
 1237000   0.65855584   -4.5016422   -4.5016422    -3.815186    0.0537468   -4.5016422   0.68645623   418189 
 1238000   0.65814771   -4.5020923   -4.5020923   -3.8160615  0.064038313   -4.5020923   0.68603081   418189 
 1239000    0.6585975   -4.5026802   -4.5026802   -3.8161805  0.038455943   -4.5026802   0.68649965   418189 
 1240000   0.65845907   -4.5034489   -4.5034489   -3.8170935  0.073257172   -4.5034489   0.68635536   418189 
 1241000   0.65671276   -4.5024951   -4.5024951     -3.81796  0.040272018   -4.5024951   0.68453507   418189 
 1242000   0.65648922    -4.502277    -4.502277   -3.8179749  0.054404708    -4.502277   0.68430205   418189 
 1243000   0.65658637   -4.5030132   -4.5030132   -3.8186098  0.053545174   -4.5030132   0.68440332   418189 
 1244000   0.65732589   -4.5031368   -4.5031368   -3.8179627  0.056362709   -4.5031368   0.68517416   418189 
 1245000   0.65667441   -4.5031245   -4.5031245   -3.8186294  0.047522524   -4.5031245   0.68449508   418189 
 1246000   0.65693965   -4.5041105   -4.5041105   -3.8193389  0.073387942   -4.5041105   0.68477156   418189 
 1247000   0.65781103   -4.5051963   -4.5051963   -3.8195165  0.057142777   -4.5051963   0.68567986   418189 
 1248000   0.65860619   -4.5063767   -4.5063767    -3.819868  0.056499947   -4.5063767    0.6865087   418189 
 1249000   0.65696405   -4.5048994   -4.5048994   -3.8201024  0.044635115   -4.5048994   0.68479699   418189 
 1250000   0.65579086   -4.5037974   -4.5037974   -3.8202233  0.077658917   -4.5037974    0.6835741   418189 
 1251000   0.65609121   -4.5043593   -4.5043593   -3.8204721   0.04408533   -4.5043593   0.68388717   418189 
 1252000   0.65602729   -4.5044499   -4.5044499   -3.8206293  0.063593397   -4.5044499   0.68382055   418189 
 1253000   0.65731714   -4.5054657   -4.5054657   -3.8203006  0.082631275   -4.5054657   0.68516504   418189 
 1254000   0.65687999    -4.506571    -4.506571   -3.8218616  0.060163126    -4.506571   0.68470937   418189 
 1255000   0.65639748   -4.5058809   -4.5058809   -3.8216745  0.072299156   -4.5058809   0.68420642   418189 
 1256000   0.65657438   -4.5068458   -4.5068458   -3.8224549  0.059256891   -4.5068458   0.68439082   418189 
 1257000   0.65697091   -4.5074607   -4.5074607   -3.8226566   0.06416026   -4.5074607   0.68480415   418189 
 1258000   0.65712118   -4.5072663   -4.5072663   -3.8223055  0.066294632   -4.5072663   0.68496078   418189 
 1259000   0.65573005   -4.5069713   -4.5069713   -3.8234606    0.0630934   -4.5069713   0.68351072   418189 
 1260000   0.65573335   -4.5079755   -4.5079755   -3.8244614  0.047424737   -4.5079755   0.68351415   418189 
 1261000   0.65582988   -4.5078596   -4.5078596   -3.8242449  0.063376137   -4.5078596   0.68361478   418189 
 1262000   0.65617979   -4.5080441   -4.5080441   -3.8240646  0.057868959   -4.5080441   0.68397951   418189 
 1263000   0.65599169    -4.507377    -4.507377   -3.8235935  0.054087756    -4.507377   0.68378344   418189 
 1264000   0.65628419   -4.5080326   -4.5080326   -3.8239442  0.052742064   -4.5080326   0.68408834   418189 
 1265000   0.65462907   -4.5071798   -4.5071798   -3.8248167  0.075893689   -4.5071798    0.6823631   418189 
 1266000   0.65453595   -4.5078419   -4.5078419   -3.8255759  0.044700012   -4.5078419   0.68226603   418189 
 1267000   0.65573629   -4.5089541   -4.5089541   -3.8254369  0.058201108   -4.5089541   0.68351722   418189 
 1268000   0.65636367   -4.5099582   -4.5099582    -3.825787  0.042624417   -4.5099582   0.68417118   418189 
 1269000    0.6554722   -4.5098785   -4.5098785   -3.8266366  0.044272555   -4.5098785   0.68324194   418189 
 1270000   0.65458488   -4.5090388   -4.5090388   -3.8267218  0.055889579   -4.5090388   0.68231703   418189 
 1271000   0.65408255   -4.5082245   -4.5082245   -3.8264311  0.043643532   -4.5082245   0.68179342   418189 
 1272000   0.65521326   -4.5094324   -4.5094324   -3.8264604  0.045875247   -4.5094324   0.68297204   418189 
 1273000   0.65417679   -4.5087623   -4.5087623   -3.8268706  0.049938752   -4.5087623   0.68189165   418189 
 1274000   0.65474349   -4.5105612   -4.5105612   -3.8280788  0.068770937   -4.5105612   0.68248236   418189 
 1275000   0.65513949    -4.511165    -4.511165   -3.8282699  0.058229003    -4.511165   0.68289513   418189 
 1276000   0.65541834   -4.5116363   -4.5116363   -3.8284505  0.043205365   -4.5116363    0.6831858   418189 
 1277000   0.65464207   -4.5113826   -4.5113826    -3.829006  0.071684516   -4.5113826   0.68237665   418189 
 1278000   0.65444171   -4.5115112   -4.5115112   -3.8293434  0.072746068   -4.5115112   0.68216779   418189 
 1279000   0.65253667   -4.5097249   -4.5097249   -3.8295429  0.061408156   -4.5097249   0.68018205   418189 
 1280000   0.65448749   -4.5125629   -4.5125629   -3.8303473  0.042627282   -4.5125629   0.68221552   418189 
 1281000   0.65385915   -4.5128809   -4.5128809   -3.8313203  0.047546208   -4.5128809   0.68156055   418189 
 1282000   0.65435867   -4.5132296   -4.5132296   -3.8311484  0.057557693   -4.5132296   0.68208124   418189 
 1283000   0.65359019   -4.5125203   -4.5125203   -3.8312401  0.054309929   -4.5125203    0.6812802   418189 
 1284000   0.65501078   -4.5135234   -4.5135234   -3.8307624  0.082956748   -4.5135234   0.68276098   418189 
 1285000     0.653802   -4.5127277   -4.5127277   -3.8312268  0.039585598   -4.5127277   0.68150099   418189 
 1286000   0.65351901   -4.5120651   -4.5120651   -3.8308591  0.053445011   -4.5120651     0.681206   418189 
 1287000   0.65427219   -4.5131573   -4.5131573   -3.8311662  0.067961197   -4.5131573    0.6819911   418189 
 1288000   0.65442802   -4.5129737   -4.5129737   -3.8308202  0.058620014   -4.5129737   0.68215352   418189 
 1289000   0.65339345   -4.5116783   -4.5116783   -3.8306031  0.073740554   -4.5116783   0.68107512   418189 
 1290000   0.65518546   -4.5136819   -4.5136819   -3.8307388  0.056294791   -4.5136819   0.68294306   418189 
 1291000   0.65373179   -4.5126026   -4.5126026   -3.8311749  0.044924121   -4.5126026    0.6814278   418189 
 1292000   0.65436461   -4.5141198   -4.5141198   -3.8320324  0.047104577   -4.5141198   0.68208743   418189 
 1293000   0.65438079   -4.5142063   -4.5142063    -3.832102  0.061421722   -4.5142063    0.6821043   418189 
 1294000    0.6535435   -4.5131084   -4.5131084   -3.8318769  0.062814167   -4.5131084   0.68123153   418189 
 1295000   0.65256846   -4.5120064   -4.5120064   -3.8317912  0.061453314   -4.5120064   0.68021519   418189 
 1296000   0.65377337   -4.5137805   -4.5137805   -3.8323094  0.059072766   -4.5137805   0.68147114   418189 
 1297000   0.65368193   -4.5128867   -4.5128867   -3.8315109   0.04419131   -4.5128867   0.68137583   418189 
 1298000   0.65184491   -4.5120455   -4.5120455   -3.8325845  0.055250259   -4.5120455   0.67946098   418189 
 1299000   0.65264288   -4.5124482   -4.5124482   -3.8321555  0.060759977   -4.5124482   0.68029275   418189 
 1300000   0.65392797   -4.5142867   -4.5142867   -3.8326545  0.057138033   -4.5142867   0.68163229   418189 
 1301000   0.65301916   -4.5139744   -4.5139744   -3.8332894  0.066252276   -4.5139744   0.68068497   418189 
 1302000   0.65454481    -4.516102    -4.516102   -3.8338268  0.053233213    -4.516102   0.68227526   418189 
 1303000   0.65206333   -4.5142582   -4.5142582   -3.8345695  0.055456656   -4.5142582   0.67968866   418189 
 1304000   0.65347265   -4.5160778   -4.5160778   -3.8349201  0.059550863   -4.5160778   0.68115768   418189 
 1305000   0.65395643   -4.5171988   -4.5171988   -3.8355369  0.044860851   -4.5171988   0.68166196   418189 
 1306000   0.65214561   -4.5154631   -4.5154631   -3.8356887  0.050418959   -4.5154631   0.67977442   418189 
 1307000   0.65329192   -4.5171836   -4.5171836   -3.8362143  0.046791605   -4.5171836    0.6809693   418189 
 1308000   0.65243023   -4.5161606   -4.5161606   -3.8360895   0.07108568   -4.5161606    0.6800711   418189 
 1309000   0.65221904    -4.516641    -4.516641   -3.8367901  0.046741986    -4.516641   0.67985095   418189 
 1310000   0.65077697   -4.5150382   -4.5150382   -3.8366904  0.062359863   -4.5150382   0.67834779   418189 
 1311000   0.65087537   -4.5155153   -4.5155153   -3.8370649  0.069802418   -4.5155153   0.67845036   418189 
 1312000    0.6520972   -4.5165453   -4.5165453   -3.8368213   0.05358496   -4.5165453   0.67972396   418189 
 1313000   0.65110458   -4.5153325   -4.5153325   -3.8366432  0.067359081   -4.5153325   0.67868928   418189 
 1314000   0.65135541   -4.5159982   -4.5159982   -3.8370474  0.042606458   -4.5159982   0.67895074   418189 
 1315000    0.6523795     -4.51677     -4.51677   -3.8367518  0.044276435     -4.51677   0.68001822   418189 
 1316000   0.65188595   -4.5172433   -4.5172433   -3.8377395  0.068713132   -4.5172433   0.67950376   418189 
 1317000   0.65358969   -4.5190201   -4.5190201   -3.8377404  0.055769846   -4.5190201   0.68127968   418189 
 1318000   0.65281411   -4.5192702   -4.5192702   -3.8387989  0.062683073   -4.5192702   0.68047124   418189 
 1319000   0.65233653    -4.519067    -4.519067   -3.8390936  0.054876033    -4.519067   0.67997343   418189 
 1320000   0.65175639   -4.5189648   -4.5189648   -3.8395961  0.056048678   -4.5189648   0.67936871   418189 
 1321000   0.65130219   -4.5188897   -4.5188897   -3.8399944  0.069443758   -4.5188897   0.67889527   418189 
 1322000   0.64994099    -4.517928    -4.517928   -3.8404516    0.0504386    -4.517928   0.67747639   418189 
 1323000   0.65072544    -4.519016    -4.519016   -3.8407219  0.065812625    -4.519016   0.67829408   418189 
 1324000   0.65032129   -4.5188344   -4.5188344   -3.8409615  0.058696013   -4.5188344   0.67787281   418189 
 1325000   0.65094527   -4.5196388   -4.5196388   -3.8411156  0.055644902   -4.5196388   0.67852322   418189 
 1326000   0.65068571   -4.5198472   -4.5198472   -3.8415946  0.053268296   -4.5198472   0.67825267   418189 
 1327000   0.65079896    -4.519724    -4.519724   -3.8413533  0.055545452    -4.519724   0.67837072   418189 
 1328000   0.65213022   -4.5214055   -4.5214055   -3.8416471  0.055024379   -4.5214055   0.67975837   418189 
 1329000   0.65085729    -4.520373    -4.520373   -3.8419414  0.052628546    -4.520373   0.67843151   418189 
 1330000   0.65076774   -4.5206871   -4.5206871   -3.8423489  0.052429307   -4.5206871   0.67833818   418189 
 1331000   0.65076192   -4.5207265   -4.5207265   -3.8423943  0.060189541   -4.5207265   0.67833211   418189 
 1332000   0.64883056   -4.5194919   -4.5194919    -3.843173  0.044890008   -4.5194919   0.67631893   418189 
 1333000   0.64925294    -4.520972    -4.520972   -3.8442128  0.044493123    -4.520972    0.6767592   418189 
 1334000   0.65034278   -4.5218393   -4.5218393   -3.8439441  0.060664238   -4.5218393   0.67789521   418189 
 1335000   0.65034147   -4.5223028   -4.5223028    -3.844409  0.053325162   -4.5223028   0.67789385   418189 
 1336000   0.65031292   -4.5224036   -4.5224036   -3.8445395  0.038219992   -4.5224036   0.67786408   418189 
 1337000   0.65022652   -4.5236689   -4.5236689   -3.8458949   0.04961481   -4.5236689   0.67777402   418189 
 1338000   0.64990871   -4.5237527   -4.5237527   -3.8463099  0.063961744   -4.5237527   0.67744275   418189 
 1339000   0.64956531   -4.5231756   -4.5231756   -3.8460907  0.053944525   -4.5231756   0.67708481   418189 
 1340000    0.6506365   -4.5240041   -4.5240041   -3.8458027  0.054554644   -4.5240041   0.67820138   418189 
 1341000   0.65149098   -4.5246747   -4.5246747   -3.8455826  0.049069913   -4.5246747   0.67909205   418189 
 1342000   0.65121521   -4.5247281   -4.5247281   -3.8459235  0.054543872   -4.5247281    0.6788046   418189 
 1343000   0.65097999   -4.5251212   -4.5251212   -3.8465618  0.060971181   -4.5251212   0.67855942   418189 
 1344000   0.64874558   -4.5237694   -4.5237694   -3.8475391  0.048491347   -4.5237694   0.67623034   418189 
 1345000   0.64900689   -4.5244015   -4.5244015   -3.8478988  0.054388668   -4.5244015   0.67650272   418189 
 1346000   0.64933617   -4.5252047   -4.5252047   -3.8483587  0.051904089   -4.5252047   0.67684595   418189 
 1347000   0.64785894   -4.5248321   -4.5248321    -3.849526  0.067604525   -4.5248321   0.67530614   418189 
 1348000   0.64871557   -4.5256882   -4.5256882   -3.8494892  0.049103089   -4.5256882   0.67619906   418189 
 1349000   0.64835075   -4.5250749   -4.5250749   -3.8492561  0.060809361   -4.5250749   0.67581879   418189 
 1350000   0.64887587   -4.5258169   -4.5258169   -3.8494508  0.047416709   -4.5258169   0.67636615   418189 
 1351000   0.64850566   -4.5254712   -4.5254712   -3.8494909  0.048837615   -4.5254712   0.67598026   418189 
 1352000   0.64858593   -4.5259167   -4.5259167   -3.8498528  0.031179141   -4.5259167   0.67606393   418189 
 1353000   0.64918027   -4.5266016   -4.5266016   -3.8499181  0.055562691   -4.5266016   0.67668345   418189 
 1354000   0.64967136   -4.5273041   -4.5273041   -3.8501088  0.060267332   -4.5273041   0.67719535   418189 
 1355000   0.65076294   -4.5273165   -4.5273165   -3.8489833   0.04617946   -4.5273165   0.67833317   418189 
 1356000    0.6506873   -4.5275014   -4.5275014   -3.8492471   0.04889647   -4.5275014   0.67825433   418189 
 1357000    0.6496232   -4.5271735   -4.5271735   -3.8500283  0.052071959   -4.5271735   0.67714515   418189 
 1358000   0.64946721   -4.5271083   -4.5271083   -3.8501258  0.062991017   -4.5271083   0.67698254   418189 
 1359000   0.64872333    -4.526575    -4.526575   -3.8503678  0.046576222    -4.526575   0.67620715   418189 
 1360000   0.64914144   -4.5270559   -4.5270559    -3.850413  0.064578725   -4.5270559   0.67664298   418189 
 1361000   0.64955441   -4.5278491   -4.5278491   -3.8507756  0.053101284   -4.5278491   0.67707344   418189 
 1362000   0.64905042   -4.5280785   -4.5280785   -3.8515304  0.054874567   -4.5280785    0.6765481   418189 
 1363000   0.64942007   -4.5287654   -4.5287654    -3.851832  0.048795435   -4.5287654   0.67693341   418189 
 1364000   0.64827653   -4.5280594   -4.5280594    -3.852318  0.050094194   -4.5280594   0.67574142   418189 
 1365000   0.65014785   -4.5296758   -4.5296758   -3.8519838  0.034276976   -4.5296758   0.67769203   418189 
 1366000   0.64881082   -4.5288834   -4.5288834   -3.8525851  0.042466217   -4.5288834   0.67629834   418189 
 1367000   0.64913747   -4.5290633   -4.5290633   -3.8524244  0.068895571   -4.5290633   0.67663883   418189 
 1368000    0.6496029   -4.5288344   -4.5288344   -3.8517104  0.077159562   -4.5288344   0.67712399   418189 
 1369000   0.64836503   -4.5289597   -4.5289597    -3.853126  0.053943823   -4.5289597   0.67583367   418189 
 1370000   0.64757122   -4.5291092   -4.5291092   -3.8541029  0.048841687   -4.5291092   0.67500623   418189 
 1371000   0.64702049   -4.5290434   -4.5290434   -3.8546112  0.053195968   -4.5290434   0.67443217   418189 
 1372000   0.64782951   -4.5292443   -4.5292443   -3.8539689  0.061901871   -4.5292443   0.67527546   418189 
 1373000   0.64729161   -4.5290316   -4.5290316   -3.8543169  0.067025207   -4.5290316   0.67471477   418189 
 1374000   0.64848134   -4.5305418   -4.5305418   -3.8545869  0.050284489   -4.5305418   0.67595491   418189 
 1375000   0.64890413   -4.5309042   -4.5309042   -3.8545086  0.050474562   -4.5309042   0.67639561   418189 
 1376000    0.6486686   -4.5309063   -4.5309063   -3.8547562  0.056991441   -4.5309063   0.67615011   418189 
 1377000   0.64766341   -4.5307787   -4.5307787   -3.8556764   0.04829963   -4.5307787   0.67510233   418189 
 1378000   0.64689752   -4.5309164   -4.5309164   -3.8566124  0.066837275   -4.5309164   0.67430399   418189 
 1379000   0.64665179   -4.5309574   -4.5309574   -3.8569096  0.068364552   -4.5309574   0.67404785   418189 
 1380000   0.64761126   -4.5323017   -4.5323017   -3.8572537   0.04791511   -4.5323017   0.67504797   418189 
 1381000   0.64718144   -4.5312337   -4.5312337   -3.8566338   0.05026567   -4.5312337   0.67459994   418189 
 1382000   0.64631456   -4.5308878   -4.5308878   -3.8571915  0.055212558   -4.5308878   0.67369633   418189 
 1383000   0.64551069   -4.5292799   -4.5292799   -3.8564215  0.048552114   -4.5292799    0.6728584   418189 
 1384000   0.64845179   -4.5328293   -4.5328293   -3.8569052  0.051335242   -4.5328293    0.6759241   418189 
 1385000   0.64627437   -4.5311713   -4.5311713   -3.8575169  0.065490266   -4.5311713   0.67365443   418189 
 1386000   0.64790602   -4.5326104   -4.5326104   -3.8572552  0.051630349   -4.5326104   0.67535521   418189 
 1387000   0.64672089   -4.5329321   -4.5329321   -3.8588122  0.062860738   -4.5329321   0.67411987   418189 
 1388000   0.64712764   -4.5332606   -4.5332606   -3.8587167  0.054386372   -4.5332606   0.67454386   418189 
 1389000    0.6468164   -4.5331587   -4.5331587   -3.8589393  0.052542867   -4.5331587   0.67421943   418189 
 1390000   0.64782452    -4.534203    -4.534203   -3.8589327  0.048375056    -4.534203   0.67527027   418189 
 1391000   0.64691141   -4.5336015   -4.5336015    -3.859283  0.057665199   -4.5336015   0.67431847   418189 
 1392000   0.64580141   -4.5328171   -4.5328171   -3.8596557  0.052116114   -4.5328171   0.67316144   418189 
 1393000   0.64693378   -4.5332519   -4.5332519   -3.8589101  0.053002959   -4.5332519   0.67434179   418189 
 1394000   0.64690628   -4.5338123   -4.5338123   -3.8594992  0.045925936   -4.5338123   0.67431312   418189 
 1395000   0.64747758   -4.5342744   -4.5342744   -3.8593657  0.046741721   -4.5342744   0.67490862   418189 
 1396000    0.6480085   -4.5353551   -4.5353551    -3.859893  0.052769824   -4.5353551   0.67546203   418189 
 1397000   0.64920612   -4.5368748   -4.5368748   -3.8601644  0.065095598   -4.5368748    0.6767104   418189 
 1398000    0.6471843   -4.5347883   -4.5347883   -3.8601854  0.077303573   -4.5347883   0.67460292   418189 
 1399000   0.64643922   -4.5348855   -4.5348855   -3.8610593  0.052425624   -4.5348855   0.67382627   418189 
 1400000   0.64815877   -4.5363832   -4.5363832   -3.8607645  0.043702552   -4.5363832   0.67561868   418189 
 1401000   0.64675825   -4.5356668   -4.5356668    -3.861508  0.068113347   -4.5356668   0.67415882   418189 
 1402000   0.64631855   -4.5353959   -4.5353959   -3.8616954  0.049651851   -4.5353959   0.67370049   418189 
 1403000   0.64555754    -4.535511    -4.535511   -3.8626037  0.065565855    -4.535511   0.67290724   418189 
 1404000   0.64702417   -4.5366556   -4.5366556   -3.8622196  0.056428072   -4.5366556     0.674436   418189 
 1405000   0.64558228   -4.5350238   -4.5350238   -3.8620907  0.050038277   -4.5350238   0.67293303   418189 
 1406000   0.64593343   -4.5363509   -4.5363509   -3.8630519  0.040117726   -4.5363509   0.67329905   418189 
 1407000   0.64600967   -4.5366164   -4.5366164   -3.8632379  0.072417854   -4.5366164   0.67337853   418189 
 1408000   0.64605437   -4.5363707   -4.5363707   -3.8629456   0.05138357   -4.5363707   0.67342512   418189 
 1409000   0.64549331   -4.5357461   -4.5357461   -3.8629058  0.066329488   -4.5357461   0.67284029   418189 
 1410000    0.6453515   -4.5368123   -4.5368123   -3.8641198  0.061268702   -4.5368123   0.67269247   418189 
 1411000   0.64601865   -4.5373674   -4.5373674   -3.8639796  0.068147901   -4.5373674   0.67338788   418189 
 1412000   0.64440317   -4.5362762   -4.5362762   -3.8645722  0.056912695   -4.5362762   0.67170396   418189 
 1413000   0.64525195   -4.5373664   -4.5373664   -3.8647777  0.059143145   -4.5373664    0.6725887   418189 
 1414000   0.64422511   -4.5360044   -4.5360044   -3.8644861  0.052712292   -4.5360044   0.67151836   418189 
 1415000   0.64570895   -4.5373363   -4.5373363   -3.8642712  0.052367834   -4.5373363   0.67306506   418189 
 1416000   0.64497187   -4.5371902   -4.5371902   -3.8648934  0.051767328   -4.5371902   0.67229675   418189 
 1417000    0.6458477   -4.5383287   -4.5383287    -3.865119  0.058784185   -4.5383287   0.67320969   418189 
 1418000   0.64466251     -4.53744     -4.53744   -3.8654657   0.05920509     -4.53744   0.67197429   418189 
 1419000   0.64518343   -4.5392467   -4.5392467   -3.8667294  0.051363701   -4.5392467   0.67251728   418189 
 1420000   0.64586874   -4.5398172   -4.5398172   -3.8665856  0.048009675   -4.5398172   0.67323162   418189 
 1421000   0.64482602   -4.5391812   -4.5391812   -3.8670364  0.067934081   -4.5391812   0.67214473   418189 
 1422000   0.64655845   -4.5408332   -4.5408332   -3.8668826  0.047067119   -4.5408332   0.67395055   418189 
 1423000   0.64457631   -4.5390519   -4.5390519   -3.8671675  0.050523101   -4.5390519   0.67188444   418189 
 1424000   0.64368141   -4.5387351   -4.5387351   -3.8677834   0.05299695   -4.5387351   0.67095162   418189 
 1425000   0.64457803   -4.5402572   -4.5402572    -3.868371  0.051533393   -4.5402572   0.67188623   418189 
 1426000    0.6447604    -4.540076    -4.540076   -3.8679997  0.048677476    -4.540076   0.67207633   418189 
 1427000   0.64483741   -4.5403883   -4.5403883   -3.8682317   0.04137033   -4.5403883    0.6721566   418189 
 1428000   0.64488773   -4.5406537   -4.5406537   -3.8684447  0.051669371   -4.5406537   0.67220905   418189 
 1429000   0.64400784   -4.5399489   -4.5399489   -3.8686571  0.046740871   -4.5399489   0.67129188   418189 
 1430000   0.64607429   -4.5426725   -4.5426725   -3.8692266  0.064884765   -4.5426725   0.67344588   418189 
 1431000   0.64479785   -4.5410425   -4.5410425   -3.8689271   0.05689004   -4.5410425   0.67211537   418189 
 1432000   0.64569557   -4.5426885   -4.5426885   -3.8696374  0.066213722   -4.5426885   0.67305112   418189 
 1433000   0.64501793   -4.5424993   -4.5424993   -3.8701545  0.042152242   -4.5424993   0.67234476   418189 
 1434000    0.6449557   -4.5416225   -4.5416225   -3.8693427  0.049520617   -4.5416225    0.6722799   418189 
 1435000   0.64449692   -4.5412339   -4.5412339   -3.8694322  0.038678926   -4.5412339   0.67180168   418189 
 1436000   0.64282595   -4.5393335   -4.5393335   -3.8692736  0.052702791   -4.5393335   0.67005992   418189 
 1437000   0.64332642   -4.5405733   -4.5405733   -3.8699917  0.062594736   -4.5405733    0.6705816   418189 
 1438000   0.64484189   -4.5414843   -4.5414843   -3.8693231  0.054524284   -4.5414843   0.67216127   418189 
 1439000   0.64357474   -4.5413853   -4.5413853   -3.8705449  0.048592961   -4.5413853   0.67084044   418189 
 1440000   0.64256839    -4.540674    -4.540674   -3.8708825  0.062429719    -4.540674   0.66979144   418189 
 1441000   0.64337455   -4.5413581   -4.5413581   -3.8707264  0.047017958   -4.5413581   0.67063176   418189 
 1442000   0.64226086    -4.540295    -4.540295   -3.8708241  0.032416222    -4.540295   0.66947089   418189 
 1443000   0.64339082   -4.5414266   -4.5414266   -3.8707779  0.043235977   -4.5414266   0.67064872   418189 
 1444000   0.64261744   -4.5415963   -4.5415963   -3.8717537  0.050283756   -4.5415963   0.66984258   418189 
 1445000     0.644094   -4.5438575   -4.5438575   -3.8724758   0.04139914   -4.5438575   0.67138169   418189 
 1446000    0.6446804   -4.5442707   -4.5442707   -3.8722778  0.040835248   -4.5442707   0.67199293   418189 
 1447000   0.64391788   -4.5437229   -4.5437229   -3.8725248  0.045788371   -4.5437229   0.67119811   418189 
 1448000     0.644249   -4.5428292   -4.5428292    -3.871286  0.048001726   -4.5428292   0.67154326   418189 
 1449000   0.64281935   -4.5423116   -4.5423116   -3.8722586  0.046949079   -4.5423116   0.67005304   418189 
 1450000   0.64237758   -4.5414864   -4.5414864   -3.8718938  0.046269298   -4.5414864   0.66959255   418189 
 1451000   0.64389949     -4.54353     -4.54353   -3.8723511  0.050236118     -4.54353   0.67117894   418189 
 1452000   0.64482059   -4.5446028   -4.5446028   -3.8724637  0.061408651   -4.5446028   0.67213907   418189 
 1453000   0.64423582   -4.5447138   -4.5447138   -3.8731843  0.060060201   -4.5447138   0.67152953   418189 
 1454000   0.64404287   -4.5458041   -4.5458041   -3.8744757  0.057725992   -4.5458041    0.6713284   418189 
 1455000   0.64325493   -4.5449813   -4.5449813   -3.8744743  0.050090296   -4.5449813   0.67050707   418189 
 1456000   0.64338465   -4.5450782   -4.5450782   -3.8744359   0.06736561   -4.5450782    0.6706423   418189 
 1457000   0.64369979   -4.5459818   -4.5459818    -3.875011  0.037071653   -4.5459818   0.67097079   418189 
 1458000   0.64397781   -4.5456615   -4.5456615   -3.8744009  0.045074269   -4.5456615   0.67126058   418189 
 1459000   0.64449112   -4.5465312   -4.5465312   -3.8747356  0.057116198   -4.5465312   0.67179563   418189 
 1460000   0.64285208   -4.5447982   -4.5447982    -3.874711  0.045867677   -4.5447982   0.67008716   418189 
 1461000    0.6412404    -4.543825    -4.543825   -3.8754178  0.050258757    -4.543825    0.6684072   418189 
 1462000   0.64315625   -4.5456166   -4.5456166   -3.8752124  0.051632424   -4.5456166   0.67040421   418189 
 1463000   0.64277515   -4.5464523   -4.5464523   -3.8764453  0.038188015   -4.5464523   0.67000697   418189 
 1464000   0.64223323   -4.5457459   -4.5457459   -3.8763039  0.058382036   -4.5457459   0.66944209   418189 
 1465000   0.64301498   -4.5456412   -4.5456412   -3.8753843  0.047007245   -4.5456412   0.67025696   418189 
 1466000   0.64108584   -4.5454649   -4.5454649   -3.8772188   0.03369109   -4.5454649   0.66824609   418189 
 1467000   0.64129578   -4.5454187   -4.5454187   -3.8769538   0.04394509   -4.5454187   0.66846493   418189 
 1468000   0.64222159   -4.5466926   -4.5466926   -3.8772626  0.041793463   -4.5466926   0.66942996   418189 
 1469000   0.64134823   -4.5456515   -4.5456515   -3.8771319  0.044651625   -4.5456515   0.66851959   418189 
 1470000     0.639829   -4.5450882   -4.5450882   -3.8781522  0.042389598   -4.5450882   0.66693601   418189 
 1471000   0.64219658   -4.5464978   -4.5464978   -3.8770939  0.048626625   -4.5464978   0.66940389   418189 
 1472000   0.64227024   -4.5475573   -4.5475573   -3.8780767  0.045297389   -4.5475573   0.66948066   418189 
 1473000   0.64085644   -4.5463638   -4.5463638   -3.8783569  0.056938941   -4.5463638   0.66800697   418189 
 1474000   0.64161738   -4.5473914   -4.5473914   -3.8785913  0.046192061   -4.5473914   0.66880015   418189 
 1475000   0.64051757   -4.5464846   -4.5464846   -3.8788309  0.049591693   -4.5464846   0.66765375   418189 
 1476000   0.64075895   -4.5466738   -4.5466738   -3.8787684  0.043126173   -4.5466738   0.66790535   418189 
 1477000   0.64190379   -4.5483486   -4.5483486     -3.87925  0.044745891   -4.5483486   0.66909869   418189 
 1478000    0.6432103    -4.549242    -4.549242   -3.8787815  0.054908623    -4.549242   0.67046056   418189 
 1479000   0.64256276    -4.548722    -4.548722   -3.8789364  0.070109743    -4.548722   0.66978558   418189 
 1480000   0.64334201   -4.5494132   -4.5494132   -3.8788153  0.063255966   -4.5494132   0.67059784   418189 
 1481000   0.64170174   -4.5480652   -4.5480652   -3.8791771  0.038366105   -4.5480652   0.66888808   418189 
 1482000    0.6420704   -4.5490684   -4.5490684    -3.879796  0.055560638   -4.5490684   0.66927236   418189 
 1483000   0.64116262   -4.5485661   -4.5485661   -3.8802399  0.048522427   -4.5485661   0.66832612   418189 
 1484000   0.64181398   -4.5491325   -4.5491325   -3.8801274  0.040093439   -4.5491325   0.66900508   418189 
 1485000   0.64385411   -4.5512485   -4.5512485   -3.8801169  0.042800346   -4.5512485   0.67113164   418189 
 1486000    0.6425343   -4.5501956   -4.5501956   -3.8804397  0.053467596   -4.5501956   0.66975592   418189 
 1487000   0.64139761   -4.5493193   -4.5493193   -3.8807483  0.046184372   -4.5493193   0.66857107   418189 
 1488000   0.64188417   -4.5506012   -4.5506012   -3.8815229  0.045958316   -4.5506012   0.66907824   418189 
 1489000   0.64098844   -4.5499729   -4.5499729   -3.8818283  0.035785204   -4.5499729   0.66814457   418189 
 1490000   0.64173459   -4.5511304   -4.5511304   -3.8822081  0.032515607   -4.5511304   0.66892233   418189 
 1491000   0.63996315   -4.5497569   -4.5497569    -3.882681  0.041899094   -4.5497569   0.66707584   418189 
 1492000   0.64090081   -4.5502106   -4.5502106   -3.8821574  0.045753026   -4.5502106   0.66805322   418189 
 1493000   0.64167695   -4.5512308   -4.5512308   -3.8823686  0.048750629   -4.5512308   0.66886224   418189 
 1494000   0.64184888   -4.5523076   -4.5523076   -3.8832661  0.041106762   -4.5523076   0.66904145   418189 
 1495000   0.64098203   -4.5519155   -4.5519155   -3.8837776  0.036553116   -4.5519155   0.66813788   418189 
 1496000   0.64079474   -4.5513024   -4.5513024   -3.8833597  0.050615408   -4.5513024   0.66794265   418189 
 1497000   0.64087306   -4.5517962   -4.5517962   -3.8837719  0.062080429   -4.5517962    0.6680243   418189 
 1498000   0.63990649   -4.5514447   -4.5514447    -3.884428  0.048138738   -4.5514447   0.66701677   418189 
 1499000   0.64114233   -4.5533978   -4.5533978   -3.8850928  0.037829347   -4.5533978   0.66830497   418189 
 1500000   0.64043282   -4.5531489   -4.5531489   -3.8855835  0.057065169   -4.5531489   0.66756541   418189 
 1501000   0.64129169   -4.5536952   -4.5536952   -3.8852345  0.030671676   -4.5536952   0.66846066   418189 
 1502000   0.63973223   -4.5525633   -4.5525633   -3.8857282  0.051520892   -4.5525633   0.66683513   418189 
 1503000   0.64235601   -4.5556783   -4.5556783   -3.8861082  0.038124324   -4.5556783   0.66957007   418189 
 1504000   0.64133011   -4.5539005   -4.5539005   -3.8853998  0.049489841   -4.5539005   0.66850071   418189 
 1505000   0.64112986   -4.5543871   -4.5543871   -3.8860952  0.043627121   -4.5543871   0.66829197   418189 
 1506000   0.64119428   -4.5546453   -4.5546453   -3.8862862   0.04556123   -4.5546453   0.66835912   418189 
 1507000   0.64021109   -4.5537639   -4.5537639   -3.8864297  0.054453408   -4.5537639   0.66733428   418189 
 1508000   0.64040536    -4.554245    -4.554245   -3.8867083  0.051291076    -4.554245   0.66753678   418189 
 1509000   0.63997491   -4.5552752   -4.5552752   -3.8881871   0.04267869   -4.5552752   0.66708809   418189 
 1510000   0.63990879   -4.5550381   -4.5550381   -3.8880189  0.054819513   -4.5550381   0.66701918   418189 
 1511000   0.64022662   -4.5551579   -4.5551579   -3.8878074  0.049522427   -4.5551579   0.66735047   418189 
 1512000   0.64048203   -4.5558735   -4.5558735   -3.8882568    0.0520722   -4.5558735    0.6676167   418189 
 1513000   0.63834653   -4.5537325   -4.5537325   -3.8883418  0.031093212   -4.5537325   0.66539073   418189 
 1514000   0.64024989   -4.5566872   -4.5566872   -3.8893125  0.053863052   -4.5566872   0.66737473   418189 
 1515000   0.63997109   -4.5561711   -4.5561711    -3.889087  0.056865634   -4.5561711   0.66708412   418189 
 1516000   0.63913123   -4.5561451   -4.5561451   -3.8899364  0.048640811   -4.5561451   0.66620867   418189 
 1517000   0.63994075   -4.5565397   -4.5565397   -3.8894872  0.043814093   -4.5565397   0.66705249   418189 
 1518000   0.64080306   -4.5569648   -4.5569648   -3.8890134  0.056337784   -4.5569648   0.66795133   418189 
 1519000   0.64149703   -4.5587932   -4.5587932   -3.8901185  0.037117401   -4.5587932    0.6686747   418189 
 1520000   0.63930994    -4.556694    -4.556694    -3.890299  0.038932647    -4.556694   0.66639495   418189 
 1521000   0.64000798   -4.5572701   -4.5572701   -3.8901475  0.056145127   -4.5572701   0.66712257   418189 
 1522000   0.64006697   -4.5582267   -4.5582267   -3.8910427  0.062373659   -4.5582267   0.66718405   418189 
 1523000   0.64092928   -4.5589737   -4.5589737   -3.8908908  0.048280326   -4.5589737    0.6680829   418189 
 1524000    0.6408724   -4.5588931   -4.5588931   -3.8908695  0.040407773   -4.5588931   0.66802361   418189 
 1525000   0.63896486   -4.5570478   -4.5570478   -3.8910126  0.068543916   -4.5570478   0.66603525   418189 
 1526000   0.63941312   -4.5579636   -4.5579636   -3.8914611  0.043732935   -4.5579636   0.66650251   418189 
 1527000   0.63988702    -4.557882    -4.557882   -3.8908855  0.037452674    -4.557882   0.66699648   418189 
 1528000   0.63780082   -4.5568952   -4.5568952   -3.8920734  0.040114608   -4.5568952   0.66482189   418189 
 1529000   0.64003239   -4.5589223   -4.5589223   -3.8917743  0.038037657   -4.5589223   0.66714801   418189 
 1530000   0.63872962   -4.5581139   -4.5581139   -3.8923238  0.053379214   -4.5581139   0.66579005   418189 
 1531000   0.63885809   -4.5586092   -4.5586092   -3.8926852  0.043376857   -4.5586092   0.66592395   418189 
 1532000   0.64018292   -4.5591027   -4.5591027   -3.8917978  0.037067158   -4.5591027   0.66730491   418189 
 1533000   0.63877597   -4.5585166   -4.5585166   -3.8926783  0.071383583   -4.5585166   0.66583836   418189 
 1534000   0.63889775   -4.5588729   -4.5588729   -3.8929076  0.054233241   -4.5588729    0.6659653   418189 
 1535000   0.63956352   -4.5600139   -4.5600139   -3.8933546  0.064442622   -4.5600139   0.66665928   418189 
 1536000   0.63943788   -4.5595938   -4.5595938   -3.8930655  0.061501896   -4.5595938   0.66652831   418189 
 1537000   0.64039068   -4.5611645   -4.5611645    -3.893643  0.056769846   -4.5611645   0.66752147   418189 
 1538000   0.63870541   -4.5590299   -4.5590299   -3.8932651  0.041755607   -4.5590299   0.66576481   418189 
 1539000   0.63819647   -4.5585385   -4.5585385   -3.8933042  0.041846775   -4.5585385   0.66523431   418189 
 1540000   0.63964846   -4.5605216   -4.5605216   -3.8937738  0.054464716   -4.5605216   0.66674782   418189 
 1541000   0.63897371   -4.5606868   -4.5606868   -3.8946423  0.042337603   -4.5606868   0.66604448   418189 
 1542000   0.63761346   -4.5592149   -4.5592149   -3.8945883   0.05014878   -4.5592149    0.6646266   418189 
 1543000   0.63842613   -4.5601594   -4.5601594   -3.8946857   0.05783973   -4.5601594    0.6654737   418189 
 1544000   0.63825017   -4.5607522   -4.5607522   -3.8954619  0.047750566   -4.5607522   0.66529028   418189 
 1545000   0.63797218   -4.5605042   -4.5605042   -3.8955036  0.027207291   -4.5605042   0.66500051   418189 
 1546000   0.63781572   -4.5601335   -4.5601335   -3.8952961     0.043728   -4.5601335   0.66483743   418189 
 1547000   0.63811714   -4.5605968   -4.5605968   -3.8954452  0.038625427   -4.5605968   0.66515161   418189 
 1548000   0.63759215   -4.5602171   -4.5602171   -3.8956127  0.029589114   -4.5602171   0.66460439   418189 
 1549000   0.63547762   -4.5579965   -4.5579965   -3.8955963   0.05013128   -4.5579965   0.66240027   418189 
 1550000   0.63713859   -4.5604531   -4.5604531   -3.8963215  0.040247876   -4.5604531   0.66413161   418189 
 1551000   0.63794798   -4.5609503   -4.5609503    -3.895975  0.038825705   -4.5609503   0.66497529   418189 
 1552000   0.63851497   -4.5623634   -4.5623634   -3.8967971  0.048535601   -4.5623634   0.66556631   418189 
 1553000   0.63750095   -4.5604074   -4.5604074   -3.8958981  0.033447564   -4.5604074   0.66450933   418189 
 1554000   0.63814108   -4.5614241   -4.5614241   -3.8962475  0.036339139   -4.5614241   0.66517657   418189 
 1555000    0.6375524   -4.5614507   -4.5614507   -3.8968878  0.062034243   -4.5614507   0.66456295   418189 
 1556000   0.63889911   -4.5626076   -4.5626076   -3.8966408  0.047232693   -4.5626076   0.66596672   418189 
 1557000   0.63793698   -4.5617249   -4.5617249   -3.8967611   0.03405789   -4.5617249   0.66496383   418189 
 1558000   0.63752478   -4.5617532   -4.5617532    -3.897219  0.044622631   -4.5617532   0.66453416   418189 
 1559000   0.63681107   -4.5620504   -4.5620504   -3.8982602  0.047140857   -4.5620504   0.66379021   418189 
 1560000   0.63718701   -4.5620307   -4.5620307   -3.8978486  0.052915098   -4.5620307   0.66418209   418189 
 1561000   0.63696444   -4.5620238   -4.5620238   -3.8980737  0.035290205   -4.5620238   0.66395008   418189 
 1562000   0.63789433    -4.563041    -4.563041   -3.8981216  0.052788451    -4.563041   0.66491937   418189 
 1563000   0.63682754   -4.5614564   -4.5614564   -3.8976491  0.045386537   -4.5614564   0.66380739   418189 
 1564000   0.63741385   -4.5622596   -4.5622596   -3.8978411  0.049878371   -4.5622596   0.66441853   418189 
 1565000   0.63815604   -4.5634013   -4.5634013   -3.8982091  0.028120258   -4.5634013   0.66519217   418189 
 1566000   0.63940031   -4.5656708   -4.5656708   -3.8991816  0.036623106   -4.5656708   0.66648916   418189 
 1567000   0.63782173   -4.5648261   -4.5648261   -3.8999824  0.044470637   -4.5648261   0.66484369   418189 
 1568000    0.6360762   -4.5633324   -4.5633324   -3.9003081  0.046367727   -4.5633324   0.66302421   418189 
 1569000   0.63787658   -4.5653723   -4.5653723   -3.9004715  0.052431166   -4.5653723   0.66490087   418189 
 1570000   0.63511019   -4.5630135   -4.5630135   -3.9009962  0.056458249   -4.5630135   0.66201727   418189 
 1571000   0.63768992   -4.5653682   -4.5653682   -3.9006619  0.053274323   -4.5653682    0.6647063   418189 
 1572000   0.63721702   -4.5652349   -4.5652349   -3.9010215  0.055909707   -4.5652349   0.66421337   418189 
 1573000   0.63909505   -4.5671708   -4.5671708   -3.9009998  0.054495717   -4.5671708   0.66617096   418189 
 1574000   0.63776587   -4.5661361   -4.5661361   -3.9013507  0.051083757   -4.5661361   0.66478547   418189 
 1575000   0.63708969   -4.5655028   -4.5655028   -3.9014221  0.045750629   -4.5655028   0.66408064   418189 
 1576000   0.63830414    -4.566717    -4.566717   -3.9013704  0.041884243    -4.566717   0.66534654   418189 
 1577000   0.63780507   -4.5666145   -4.5666145   -3.9017882  0.047986826   -4.5666145   0.66482633   418189 
 1578000   0.63831133   -4.5677119   -4.5677119   -3.9023579  0.047694647   -4.5677119   0.66535404   418189 
 1579000   0.63685911   -4.5661752   -4.5661752   -3.9023349  0.050953502   -4.5661752    0.6638403   418189 
 1580000   0.63821179   -4.5675124   -4.5675124   -3.9022622  0.058907403   -4.5675124   0.66525028   418189 
 1581000   0.63730816   -4.5667521   -4.5667521   -3.9024438  0.058349175   -4.5667521   0.66430836   418189 
 1582000    0.6365032   -4.5665658   -4.5665658   -3.9030965  0.043913189   -4.5665658    0.6634693   418189 
 1583000   0.63718762   -4.5672266   -4.5672266   -3.9030439  0.051938986   -4.5672266   0.66418272   418189 
 1584000   0.63638508   -4.5659099   -4.5659099   -3.9025637  0.054552489   -4.5659099   0.66334617   418189 
 1585000   0.63817084   -4.5686652   -4.5686652   -3.9034577  0.048300095   -4.5686652   0.66520759   418189 
 1586000   0.63854036   -4.5684779   -4.5684779   -3.9028851  0.036858843   -4.5684779   0.66559277   418189 
 1587000   0.63709802   -4.5681607   -4.5681607   -3.9040714    0.0417889   -4.5681607   0.66408932   418189 
 1588000   0.63477669   -4.5657559   -4.5657559   -3.9040863  0.050635036   -4.5657559   0.66166965   418189 
 1589000   0.63774614   -4.5693916   -4.5693916   -3.9046267  0.034166027   -4.5693916    0.6647649   418189 
 1590000    0.6361142   -4.5678213   -4.5678213   -3.9047575  0.042935208   -4.5678213   0.66306382   418189 
 1591000   0.63609172   -4.5681351   -4.5681351   -3.9050947  0.036118668   -4.5681351   0.66304039   418189 
 1592000   0.63732791   -4.5701642   -4.5701642   -3.9058352  0.038194142   -4.5701642   0.66432895   418189 
 1593000   0.63658309   -4.5698334   -4.5698334   -3.9062808  0.040877088   -4.5698334   0.66355257   418189 
 1594000   0.63753293   -4.5701394   -4.5701394   -3.9055967  0.039029397   -4.5701394   0.66454266   418189 
 1595000   0.63652411   -4.5699903   -4.5699903   -3.9064992  0.038306756   -4.5699903    0.6634911   418189 
 1596000   0.63740109   -4.5707822   -4.5707822    -3.906377  0.055175548   -4.5707822   0.66440523   418189 
 1597000   0.63775808   -4.5717096   -4.5717096   -3.9069322  0.055797535   -4.5717096   0.66477735   418189 
 1598000   0.63628822   -4.5699168   -4.5699168   -3.9066715  0.049282924   -4.5699168   0.66324522   418189 
 1599000   0.63667887   -4.5699376   -4.5699376   -3.9062852  0.049061959   -4.5699376   0.66365241   418189 
 1600000   0.63737348   -4.5711615   -4.5711615    -3.906785   0.04712972   -4.5711615   0.66437645   418189 
 1601000   0.63784485   -4.5712315   -4.5712315   -3.9063637  0.033576432   -4.5712315   0.66486779   418189 
 1602000   0.63661459   -4.5703312   -4.5703312   -3.9067458  0.044942904   -4.5703312   0.66358541   418189 
 1603000   0.63566179   -4.5692635   -4.5692635   -3.9066712  0.046258001   -4.5692635   0.66259224   418189 
 1604000   0.63700122   -4.5704921   -4.5704921   -3.9065037  0.048378541   -4.5704921   0.66398842   418189 
 1605000   0.63616324   -4.5699815   -4.5699815   -3.9068666   0.03847374   -4.5699815   0.66311494   418189 
 1606000   0.63583251   -4.5700121   -4.5700121   -3.9072419  0.053429018   -4.5700121    0.6627702   418189 
 1607000   0.63655044   -4.5707965   -4.5707965    -3.907278   0.03681103   -4.5707965   0.66351854   418189 
 1608000   0.63517417   -4.5704039   -4.5704039     -3.90832  0.040855383   -4.5704039   0.66208397   418189 
 1609000   0.63540484   -4.5703956   -4.5703956   -3.9080712  0.039305449   -4.5703956   0.66232441   418189 
 1610000   0.63529619    -4.571352    -4.571352   -3.9091408  0.041420856    -4.571352   0.66221115   418189 
 1611000   0.63440718    -4.570631    -4.570631   -3.9093465  0.050209007    -4.570631   0.66128448   418189 
 1612000   0.63463306   -4.5712446   -4.5712446   -3.9097247  0.038426488   -4.5712446   0.66151993   418189 
 1613000   0.63454913   -4.5710906   -4.5710906   -3.9096582  0.032784294   -4.5710906   0.66143245   418189 
 1614000   0.63603537   -4.5717554   -4.5717554   -3.9087738  0.048066293   -4.5717554   0.66298165   418189 
 1615000   0.63481109    -4.570783    -4.570783   -3.9090775   0.05076634    -4.570783    0.6617055   418189 
 1616000   0.63470067   -4.5710158   -4.5710158   -3.9094254  0.045526563   -4.5710158    0.6615904   418189 
 1617000   0.63626031   -4.5725596   -4.5725596   -3.9093434  0.063909047   -4.5725596   0.66321612   418189 
 1618000   0.63518955   -4.5713135   -4.5713135   -3.9092135  0.045543822   -4.5713135       0.6621   418189 
 1619000   0.63474216   -4.5716214   -4.5716214   -3.9099878  0.037365616   -4.5716214   0.66163365   418189 
 1620000   0.63564495   -4.5731978   -4.5731978   -3.9106231  0.064408322   -4.5731978   0.66257469   418189 
 1621000   0.63544509   -4.5735132   -4.5735132   -3.9111469  0.043660072   -4.5735132   0.66236636   418189 
 1622000   0.63472506   -4.5732333   -4.5732333   -3.9116175  0.041813776   -4.5732333   0.66161583   418189 
 1623000    0.6335095   -4.5717078   -4.5717078   -3.9113591  0.051290114   -4.5717078   0.66034877   418189 
 1624000     0.633875   -4.5718627   -4.5718627   -3.9111329  0.038083557   -4.5718627   0.66072975   418189 
 1625000   0.63550846   -4.5736477   -4.5736477   -3.9112153  0.052767814   -4.5736477   0.66243242   418189 
 1626000   0.63605288    -4.574307    -4.574307   -3.9113071  0.056021269    -4.574307   0.66299991   418189 
 1627000   0.63483222   -4.5735489   -4.5735489   -3.9118213   0.06008674   -4.5735489   0.66172753   418189 
 1628000   0.63514651   -4.5738124   -4.5738124   -3.9117573  0.038738948   -4.5738124   0.66205513   418189 
 1629000   0.63519372   -4.5751607   -4.5751607   -3.9130563  0.050830931   -4.5751607   0.66210435   418189 
 1630000    0.6330772   -4.5742922   -4.5742922    -3.914394  0.047661139   -4.5742922   0.65989816   418189 
 1631000   0.63390743   -4.5743221   -4.5743221   -3.9135585  0.040097656   -4.5743221   0.66076356   418189 
 1632000   0.63419651   -4.5746095   -4.5746095   -3.9135446  0.047283169   -4.5746095   0.66106489   418189 
 1633000   0.63478839   -4.5747825   -4.5747825   -3.9131007  0.054805025   -4.5747825   0.66168184   418189 
 1634000   0.63462362   -4.5750286   -4.5750286   -3.9135185  0.040464511   -4.5750286   0.66151009   418189 
 1635000   0.63342134     -4.57505     -4.57505   -3.9147931  0.049887275     -4.57505   0.66025687   418189 
 1636000   0.63459708    -4.576678    -4.576678   -3.9151956  0.048444309    -4.576678   0.66148242   418189 
 1637000   0.63361536   -4.5755663   -4.5755663   -3.9151072  0.036942346   -4.5755663   0.66045912   418189 
 1638000   0.63224859    -4.574971    -4.574971   -3.9159366  0.041151536    -4.574971   0.65903444   418189 
 1639000   0.63388926   -4.5755157   -4.5755157    -3.914771  0.036610309   -4.5755157   0.66074462   418189 
 1640000    0.6345028   -4.5763931   -4.5763931   -3.9150089  0.043259575   -4.5763931   0.66138415   418189 
 1641000   0.63306903   -4.5751981   -4.5751981   -3.9153084  0.045847721   -4.5751981   0.65988964   418189 
 1642000   0.63276256   -4.5752055   -4.5752055   -3.9156353  0.046565588   -4.5752055   0.65957019   418189 
 1643000   0.63217057   -4.5752484   -4.5752484   -3.9162952  0.045781521   -4.5752484   0.65895312   418189 
 1644000    0.6335074   -4.5758281   -4.5758281   -3.9154815   0.05121596   -4.5758281   0.66034658   418189 
 1645000   0.63389222   -4.5768732   -4.5768732   -3.9161255  0.040356085   -4.5768732   0.66074771   418189 
 1646000   0.63237445   -4.5751012   -4.5751012   -3.9159356   0.03863628   -4.5751012   0.65916563   418189 
 1647000   0.63229651   -4.5756212   -4.5756212   -3.9165368  0.043414478   -4.5756212   0.65908439   418189 
 1648000   0.63201011   -4.5756345   -4.5756345   -3.9168487  0.040508484   -4.5756345   0.65878586   418189 
 1649000   0.63252621   -4.5763509   -4.5763509   -3.9170271    0.0467155   -4.5763509   0.65932382   418189 
 1650000   0.63343899   -4.5777331   -4.5777331   -3.9174578  0.053875942   -4.5777331   0.66027527   418189 
 1651000   0.63263806   -4.5770048   -4.5770048   -3.9175644  0.060484444   -4.5770048   0.65944041   418189 
 1652000   0.63182805   -4.5760319   -4.5760319   -3.9174358  0.020978118   -4.5760319   0.65859609   418189 
 1653000   0.63342974   -4.5781371   -4.5781371   -3.9178715  0.029577642   -4.5781371   0.66026563   418189 
 1654000   0.63360285   -4.5780316   -4.5780316   -3.9175855  0.046315939   -4.5780316   0.66044608   418189 
 1655000   0.63186634   -4.5768061   -4.5768061   -3.9181701  0.036263933   -4.5768061     0.658636   418189 
 1656000   0.63404913   -4.5792542   -4.5792542   -3.9183429  0.037716843   -4.5792542   0.66091126   418189 
 1657000   0.63220555   -4.5772212   -4.5772212   -3.9182317  0.056492136   -4.5772212   0.65898957   418189 
 1658000    0.6340578   -4.5788371   -4.5788371   -3.9179168  0.047912149   -4.5788371    0.6609203   418189 
 1659000   0.63323271   -4.5776379   -4.5776379   -3.9175777  0.048878033   -4.5776379   0.66006025   418189 
 1660000   0.63275804   -4.5781475   -4.5781475    -3.918582  0.051043032   -4.5781475   0.65956547   418189 
 1661000   0.63114191   -4.5774015   -4.5774015   -3.9195207  0.043497392   -4.5774015   0.65788088   418189 
 1662000   0.63229458   -4.5786382   -4.5786382   -3.9195558  0.049672404   -4.5786382   0.65908238   418189 
 1663000   0.63388679   -4.5800312   -4.5800312   -3.9192892  0.041794694   -4.5800312   0.66074205   418189 
 1664000    0.6321963   -4.5782024   -4.5782024   -3.9192224  0.039254386   -4.5782024   0.65897994   418189 
 1665000    0.6331733   -4.5799386   -4.5799386   -3.9199403  0.043940758   -4.5799386   0.65999832   418189 
 1666000   0.63304335   -4.5798663   -4.5798663   -3.9200034  0.043207037   -4.5798663   0.65986287   418189 
 1667000   0.63152231   -4.5785354   -4.5785354    -3.920258  0.031387034   -4.5785354   0.65827739   418189 
 1668000   0.63159521   -4.5780874   -4.5780874   -3.9197341  0.041672906   -4.5780874   0.65835337   418189 
 1669000   0.63281126   -4.5790309   -4.5790309     -3.91941  0.041334017   -4.5790309   0.65962095   418189 
 1670000   0.63372648   -4.5807436   -4.5807436   -3.9201687  0.044334829   -4.5807436   0.66057495   418189 
 1671000   0.63326524   -4.5802903   -4.5802903   -3.9201961  0.051819637   -4.5802903   0.66009416   418189 
 1672000   0.63312726   -4.5807469   -4.5807469   -3.9207966  0.050477846   -4.5807469   0.65995034   418189 
 1673000    0.6342154   -4.5816743   -4.5816743   -3.9205897  0.046445398   -4.5816743   0.66108458   418189 
 1674000   0.63224928   -4.5804809   -4.5804809   -3.9214457  0.050354417   -4.5804809   0.65903516   418189 
 1675000   0.63404779   -4.5827888   -4.5827888   -3.9218789   0.04900131   -4.5827888   0.66090987   418189 
 1676000    0.6326916   -4.5821264   -4.5821264   -3.9226302  0.045944287   -4.5821264   0.65949622   418189 
 1677000   0.63304109   -4.5829164   -4.5829164   -3.9230558  0.050542735   -4.5829164   0.65986052   418189 
 1678000   0.63271197    -4.582473    -4.582473   -3.9229555  0.040768259    -4.582473   0.65951745   418189 
 1679000   0.63082116   -4.5809805   -4.5809805    -3.923434  0.051502197   -4.5809805   0.65754653   418189 
 1680000   0.63340079   -4.5830409   -4.5830409   -3.9228055  0.047545389   -4.5830409   0.66023546   418189 
 1681000   0.63234709   -4.5819956   -4.5819956   -3.9228585  0.047157112   -4.5819956   0.65913712   418189 
 1682000   0.63196866   -4.5817291   -4.5817291   -3.9229865  0.043106573   -4.5817291   0.65874265   418189 
 1683000   0.63090548   -4.5804342   -4.5804342   -3.9227998  0.050470927   -4.5804342   0.65763443   418189 
 1684000   0.63133312   -4.5818642   -4.5818642    -3.923784  0.040741877   -4.5818642   0.65808019   418189 
 1685000   0.63296115   -4.5841071   -4.5841071   -3.9243299  0.057219194   -4.5841071   0.65977719   418189 
 1686000   0.63217559   -4.5833612   -4.5833612   -3.9244029  0.044140204   -4.5833612   0.65895835   418189 
 1687000    0.6310518   -4.5829839   -4.5829839    -3.925197  0.032862501   -4.5829839   0.65778695   418189 
 1688000   0.63094285    -4.582886    -4.582886   -3.9252126  0.055682759    -4.582886   0.65767339   418189 
 1689000   0.63098198   -4.5829175   -4.5829175   -3.9252033  0.044999551   -4.5829175   0.65771417   418189 
 1690000   0.63180514   -4.5827488   -4.5827488   -3.9241766  0.055079601   -4.5827488    0.6585722   418189 
 1691000   0.63147417   -4.5832578   -4.5832578   -3.9250306  0.038257141   -4.5832578   0.65822721   418189 
 1692000    0.6330746   -4.5849367   -4.5849367   -3.9250413   0.04625156   -4.5849367   0.65989545   418189 
 1693000   0.63224183    -4.584316    -4.584316   -3.9252886  0.034913733    -4.584316    0.6590274   418189 
 1694000   0.63199522   -4.5840895   -4.5840895   -3.9253192  0.035906409   -4.5840895   0.65877033   418189 
 1695000   0.63273518   -4.5845667   -4.5845667   -3.9250251  0.047805433   -4.5845667   0.65954164   418189 
 1696000   0.63162125   -4.5836861   -4.5836861   -3.9253056  0.037548843   -4.5836861   0.65838053   418189 
 1697000   0.63230656   -4.5846162   -4.5846162   -3.9255214  0.044062241   -4.5846162   0.65909486   418189 
 1698000   0.63239304   -4.5846463   -4.5846463   -3.9254612  0.050985299   -4.5846463   0.65918501   418189 
 1699000   0.63147487   -4.5841762   -4.5841762   -3.9259483  0.021312927   -4.5841762   0.65822794   418189 
 1700000   0.62987589   -4.5831598   -4.5831598   -3.9265985  0.049008551   -4.5831598   0.65656121   418189 
 1701000   0.63134398   -4.5844589   -4.5844589   -3.9263674  0.057771087   -4.5844589   0.65809151   418189 
 1702000    0.6315579   -4.5846053   -4.5846053   -3.9262908  0.056913564   -4.5846053   0.65831449   418189 
 1703000    0.6315743   -4.5846001   -4.5846001   -3.9262685  0.049776895   -4.5846001   0.65833159   418189 
 1704000   0.63158697   -4.5847553   -4.5847553   -3.9264105  0.040252932   -4.5847553   0.65834479   418189 
 1705000   0.63065635   -4.5832468   -4.5832468    -3.925872  0.040615233   -4.5832468   0.65737475   418189 
 1706000   0.63147172   -4.5840832   -4.5840832   -3.9258585  0.030972529   -4.5840832   0.65822466   418189 
 1707000   0.62982073   -4.5827829   -4.5827829   -3.9262792  0.044630783   -4.5827829   0.65650372   418189 
 1708000   0.63120367   -4.5846609   -4.5846609   -3.9267156  0.038409828   -4.5846609   0.65794526   418189 
 1709000   0.63091956   -4.5843929   -4.5843929   -3.9267438  0.046447264   -4.5843929    0.6576491   418189 
 1710000   0.63138074   -4.5853591   -4.5853591   -3.9272293  0.049004475   -4.5853591   0.65812983   418189 
 1711000   0.63114035   -4.5851866   -4.5851866   -3.9273074  0.052152539   -4.5851866   0.65787925   418189 
 1712000   0.63057785   -4.5855359   -4.5855359    -3.928243  0.041711689   -4.5855359   0.65729292   418189 
 1713000   0.63233844   -4.5872531   -4.5872531    -3.928125   0.03891521   -4.5872531   0.65912809   418189 
 1714000   0.63112508   -4.5856534   -4.5856534   -3.9277901  0.044185169   -4.5856534   0.65786333   418189 
 1715000   0.63080474   -4.5861988   -4.5861988   -3.9286694  0.038114864   -4.5861988   0.65752942   418189 
 1716000    0.6313183    -4.586339    -4.586339   -3.9282743  0.047515774    -4.586339   0.65806474   418189 
 1717000   0.62958283   -4.5855063   -4.5855063   -3.9292506  0.042008646   -4.5855063   0.65625574   418189 
 1718000   0.63162366   -4.5869971   -4.5869971   -3.9286141  0.047088736   -4.5869971   0.65838304   418189 
 1719000   0.63073939   -4.5867717   -4.5867717   -3.9293104  0.042232302   -4.5867717    0.6574613   418189 
 1720000     0.631168   -4.5874106   -4.5874106   -3.9295026  0.044373249   -4.5874106   0.65790807   418189 
 1721000   0.63017823   -4.5861651   -4.5861651   -3.9292887  0.042223185   -4.5861651   0.65687636   418189 
 1722000   0.63122155   -4.5865673   -4.5865673   -3.9286034  0.037400407   -4.5865673   0.65796389   418189 
 1723000   0.63140185   -4.5868996   -4.5868996   -3.9287478  0.041289883   -4.5868996   0.65815183   418189 
 1724000   0.63163743   -4.5878401   -4.5878401   -3.9294427  0.050168497   -4.5878401   0.65839739   418189 
 1725000   0.63106134    -4.587143    -4.587143   -3.9293461  0.045947247    -4.587143   0.65779689   418189 
 1726000   0.63082716   -4.5866297   -4.5866297   -3.9290769  0.058265628   -4.5866297   0.65755279   418189 
 1727000   0.63140034   -4.5880741   -4.5880741   -3.9299238  0.042055404   -4.5880741   0.65815025   418189 
 1728000   0.63065423   -4.5878657   -4.5878657   -3.9304931  0.062975813   -4.5878657   0.65737254   418189 
 1729000   0.63067249   -4.5884817   -4.5884817   -3.9310901  0.042728242   -4.5884817   0.65739157   418189 
 1730000   0.63069738   -4.5886646   -4.5886646   -3.9312471  0.040859506   -4.5886646   0.65741752   418189 
 1731000   0.63090183   -4.5888936   -4.5888936   -3.9312629  0.029484984   -4.5888936   0.65763062   418189 
 1732000   0.63064474   -4.5886638   -4.5886638   -3.9313012  0.045968193   -4.5886638   0.65736264   418189 
 1733000   0.63087075    -4.589135    -4.589135   -3.9315368  0.050177507    -4.589135   0.65759822   418189 
 1734000    0.6301645   -4.5884155   -4.5884155   -3.9315534   0.05464525   -4.5884155   0.65686206   418189 
 1735000   0.63184097   -4.5901483   -4.5901483   -3.9315388  0.019139094   -4.5901483   0.65860955   418189 
 1736000   0.63018893   -4.5886783   -4.5886783   -3.9317907  0.038167358   -4.5886783   0.65688752   418189 
 1737000   0.63068129   -4.5898199   -4.5898199   -3.9324191  0.039931377   -4.5898199   0.65740074   418189 
 1738000   0.63036444   -4.5890358   -4.5890358   -3.9319653  0.052934033   -4.5890358   0.65707046   418189 
 1739000   0.63056991   -4.5895636   -4.5895636   -3.9322789  0.042557855   -4.5895636   0.65728465   418189 
 1740000   0.63060812   -4.5896088   -4.5896088   -3.9322844  0.053520046   -4.5896088   0.65732447   418189 
 1741000   0.63125124   -4.5900223   -4.5900223   -3.9320275   0.03943233   -4.5900223   0.65799484   418189 
 1742000     0.630804   -4.5899561   -4.5899561   -3.9324275  0.021541916   -4.5899561   0.65752865   418189 
 1743000   0.63087168   -4.5906121   -4.5906121   -3.9330129  0.054241886   -4.5906121    0.6575992   418189 
 1744000   0.63068415   -4.5901448   -4.5901448   -3.9327411  0.051455951   -4.5901448   0.65740372   418189 
 1745000    0.6298255   -4.5893226   -4.5893226   -3.9328139  0.038230389   -4.5893226    0.6565087   418189 
 1746000   0.63100805   -4.5906198   -4.5906198   -3.9328785  0.038157154   -4.5906198   0.65774134   418189 
 1747000      0.63092   -4.5911144   -4.5911144   -3.9334649  0.032348473   -4.5911144   0.65764956   418189 
 1748000   0.63075106    -4.590355    -4.590355   -3.9328815  0.034812901    -4.590355   0.65747347   418189 
 1749000   0.62973255   -4.5894761   -4.5894761   -3.9330643  0.051277081   -4.5894761    0.6564118   418189 
 1750000   0.63005789   -4.5903484   -4.5903484   -3.9335975  0.049261242   -4.5903484   0.65675093   418189 
 1751000   0.62961528   -4.5905272   -4.5905272   -3.9342376  0.042076496   -4.5905272   0.65628957   418189 
 1752000   0.62834051   -4.5886862   -4.5886862   -3.9337254   0.04168439   -4.5886862   0.65496079   418189 
 1753000   0.62983453   -4.5904414   -4.5904414   -3.9339233  0.053150678   -4.5904414   0.65651811   418189 
 1754000   0.62920599    -4.590241    -4.590241    -3.934378  0.041439273    -4.590241   0.65586294   418189 
 1755000   0.63025325   -4.5913051   -4.5913051   -3.9343505  0.042816366   -4.5913051   0.65695457   418189 
 1756000   0.62870345   -4.5908608   -4.5908608   -3.9355217  0.045855722   -4.5908608   0.65533911   418189 
 1757000   0.62915576   -4.5914386   -4.5914386   -3.9356281  0.051175576   -4.5914386   0.65581058   418189 
 1758000   0.62880157     -4.59135     -4.59135   -3.9359086  0.047105033     -4.59135   0.65544139   418189 
 1759000   0.63056344   -4.5935195   -4.5935195   -3.9362416  0.043407811   -4.5935195   0.65727789   418189 
 1760000   0.62901454   -4.5920871   -4.5920871   -3.9364238  0.047555999   -4.5920871   0.65566338   418189 
 1761000   0.63019549   -4.5935219   -4.5935219   -3.9366276   0.04395558   -4.5935219   0.65689436   418189 
 1762000   0.62979309   -4.5924753   -4.5924753   -3.9360004  0.033756979   -4.5924753   0.65647491   418189 
 1763000   0.62926814   -4.5916485   -4.5916485   -3.9357207  0.039430192   -4.5916485   0.65592772   418189 
 1764000   0.63020406   -4.5920543   -4.5920543   -3.9351511  0.035620552   -4.5920543    0.6569033   418189 
 1765000   0.63005827   -4.5935691   -4.5935691   -3.9368178  0.041565059   -4.5935691   0.65675132   418189 
 1766000   0.62935799   -4.5929471   -4.5929471   -3.9369257  0.060689004   -4.5929471   0.65602138   418189 
 1767000   0.63018551   -4.5942106   -4.5942106   -3.9373266  0.042560502   -4.5942106   0.65688396   418189 
 1768000   0.62921913   -4.5924863   -4.5924863   -3.9366097  0.056383039   -4.5924863   0.65587664   418189 
 1769000   0.62965443   -4.5934429   -4.5934429   -3.9371125  0.049815967   -4.5934429   0.65633037   418189 
 1770000   0.62943703    -4.593006    -4.593006   -3.9369022  0.040745453    -4.593006   0.65610377   418189 
 1771000   0.62833185   -4.5923152   -4.5923152   -3.9373635  0.054898356   -4.5923152   0.65495177   418189 
 1772000   0.62997816   -4.5946231   -4.5946231   -3.9379553  0.050128321   -4.5946231   0.65666782   418189 
 1773000   0.62920301   -4.5933652   -4.5933652   -3.9375054   0.04057783   -4.5933652   0.65585983   418189 
 1774000   0.63037658   -4.5950985   -4.5950985   -3.9380153  0.035256865   -4.5950985   0.65708312   418189 
 1775000   0.62988645   -4.5942421   -4.5942421   -3.9376699  0.052683872   -4.5942421   0.65657223   418189 
 1776000   0.62928792   -4.5940792   -4.5940792   -3.9381308  0.037298156   -4.5940792   0.65594834   418189 
 1777000   0.62894347   -4.5931395   -4.5931395   -3.9375502  0.042135899   -4.5931395    0.6555893   418189 
 1778000   0.62878249    -4.592836    -4.592836   -3.9374146  0.055686262    -4.592836   0.65542149   418189 
 1779000   0.62861818   -4.5927067   -4.5927067   -3.9374565   0.03769634   -4.5927067   0.65525023   418189 
 1780000   0.62947379    -4.593852    -4.593852     -3.93771   0.03378454    -4.593852   0.65614209   418189 
 1781000   0.62901538   -4.5936687   -4.5936687   -3.9380044  0.048921696   -4.5936687   0.65566426   418189 
 1782000   0.62979882   -4.5941391   -4.5941391   -3.9376582  0.044753606   -4.5941391   0.65648089   418189 
 1783000   0.63056646   -4.5962533   -4.5962533   -3.9389722  0.043334663   -4.5962533   0.65728105   418189 
 1784000   0.62846881   -4.5945417   -4.5945417   -3.9394472  0.036938084   -4.5945417   0.65509452   418189 
 1785000   0.62943438   -4.5954153   -4.5954153   -3.9393143  0.030465786   -4.5954153   0.65610101   418189 
 1786000   0.62909333   -4.5946937   -4.5946937   -3.9389482   0.04610991   -4.5946937   0.65574551   418189 
 1787000   0.63004003   -4.5965883   -4.5965883    -3.939856   0.02811587   -4.5965883   0.65673232   418189 
 1788000   0.62864566   -4.5942767   -4.5942767   -3.9389978  0.040885687   -4.5942767   0.65527887   418189 
 1789000   0.62862902   -4.5943067   -4.5943067   -3.9390452  0.044207583   -4.5943067   0.65526152   418189 
 1790000   0.62940548   -4.5957724   -4.5957724   -3.9397015  0.055724726   -4.5957724   0.65607088   418189 
 1791000   0.62837418   -4.5949701   -4.5949701   -3.9399742  0.048068761   -4.5949701   0.65499589   418189 
 1792000   0.62797888   -4.5952845   -4.5952845   -3.9407006  0.041888388   -4.5952845   0.65458384   418189 
 1793000   0.62747864   -4.5950606   -4.5950606   -3.9409982  0.034940727   -4.5950606   0.65406241   418189 
 1794000   0.62873635   -4.5961601   -4.5961601   -3.9407867  0.042681811   -4.5961601    0.6553734   418189 
 1795000   0.62744158   -4.5947562   -4.5947562   -3.9407324  0.053004199   -4.5947562   0.65402378   418189 
 1796000   0.62873212   -4.5960004   -4.5960004   -3.9406314  0.047624232   -4.5960004     0.655369   418189 
 1797000   0.62883545   -4.5974819   -4.5974819   -3.9420052  0.042505726   -4.5974819    0.6554767   418189 
 1798000   0.62758254    -4.595807    -4.595807   -3.9416363  0.045812815    -4.595807   0.65417071   418189 
 1799000   0.62887737   -4.5976572   -4.5976572   -3.9421368  0.043061973   -4.5976572    0.6555204   418189 
 1800000   0.62710096   -4.5963595   -4.5963595   -3.9426908  0.048660343   -4.5963595   0.65366873   418189 
 1801000     0.628355   -4.5976097   -4.5976097   -3.9426338  0.037216725   -4.5976097    0.6549759   418189 
 1802000   0.62758964    -4.596838    -4.596838   -3.9426598  0.054105637    -4.596838   0.65417811   418189 
 1803000   0.62708266   -4.5966329   -4.5966329   -3.9429832  0.037112636   -4.5966329   0.65364965   418189 
 1804000   0.62824732   -4.5982788   -4.5982788   -3.9434152  0.043569507   -4.5982788   0.65486365   418189 
 1805000   0.62779761   -4.5968485   -4.5968485   -3.9424536   0.04708319   -4.5968485   0.65439489   418189 
 1806000   0.62800221   -4.5971057   -4.5971057   -3.9424975  0.040728717   -4.5971057   0.65460815   418189 
 1807000   0.62729031   -4.5964423   -4.5964423   -3.9425762  0.034048872   -4.5964423    0.6538661   418189 
 1808000   0.62768323   -4.5972257   -4.5972257   -3.9429501  0.048312252   -4.5972257   0.65427567   418189 
 1809000   0.62788202   -4.5972257   -4.5972257   -3.9427428  0.037733786   -4.5972257   0.65448288   418189 
 1810000    0.6276079   -4.5975888   -4.5975888   -3.9433917   0.04649199   -4.5975888   0.65419714   418189 
 1811000   0.62897008    -4.598009    -4.598009   -3.9423919  0.042904066    -4.598009   0.65561703   418189 
 1812000   0.62778523   -4.5969031   -4.5969031   -3.9425211  0.015529951   -4.5969031   0.65438198   418189 
 1813000   0.62816381   -4.5970784   -4.5970784   -3.9423018   0.05142908   -4.5970784   0.65477661   418189 
 1814000   0.62819264   -4.5978114   -4.5978114   -3.9430047  0.045306168   -4.5978114   0.65480666   418189 
 1815000   0.62718135   -4.5969584   -4.5969584   -3.9432059  0.055350107   -4.5969584   0.65375252   418189 
 1816000   0.62766815   -4.5966505   -4.5966505   -3.9423906   0.04316676   -4.5966505   0.65425994   418189 
 1817000   0.62825534    -4.598095    -4.598095    -3.943223  0.034653321    -4.598095   0.65487201   418189 
 1818000   0.62858351   -4.5990036   -4.5990036   -3.9437895  0.034700538   -4.5990036   0.65521409   418189 
 1819000   0.62596259   -4.5967099   -4.5967099   -3.9442278   0.04032376   -4.5967099   0.65248212   418189 
 1820000   0.62736281    -4.598149    -4.598149   -3.9442074  0.042430718    -4.598149   0.65394167   418189 
 1821000    0.6271898   -4.5979726   -4.5979726   -3.9442113  0.026622592   -4.5979726   0.65376133   418189 
 1822000   0.62679373    -4.597612    -4.597612   -3.9442635  0.057740299    -4.597612   0.65334848   418189 
 1823000   0.62732844   -4.5977906   -4.5977906   -3.9438848  0.036957891   -4.5977906   0.65390584   418189 
 1824000   0.62762404   -4.5982816   -4.5982816   -3.9440677  0.040462967   -4.5982816   0.65421397   418189 
 1825000   0.62563565   -4.5968117   -4.5968117   -3.9446704  0.029191021   -4.5968117   0.65214134   418189 
 1826000   0.62646725   -4.5982604   -4.5982604   -3.9452522  0.046508118   -4.5982604   0.65300817   418189 
 1827000   0.62737041   -4.5997241   -4.5997241   -3.9457745  0.044929048   -4.5997241   0.65394959   418189 
 1828000   0.62735728   -4.6002056   -4.6002056   -3.9462697  0.038413411   -4.6002056   0.65393591   418189 
 1829000    0.6261445   -4.5989888   -4.5989888    -3.946317  0.047067476   -4.5989888   0.65267175   418189 
 1830000   0.62704509   -4.5997953   -4.5997953   -3.9461848  0.035734351   -4.5997953   0.65361048   418189 
 1831000   0.62691101   -4.5997988   -4.5997988    -3.946328  0.050200477   -4.5997988   0.65347073   418189 
 1832000   0.62590767   -4.5993984   -4.5993984   -3.9469735  0.028210442   -4.5993984   0.65242488   418189 
 1833000   0.62674541   -4.6003513   -4.6003513   -3.9470532  0.029891545   -4.6003513   0.65329811   418189 
 1834000   0.62671054   -4.6000151   -4.6000151   -3.9467533  0.050245267   -4.6000151   0.65326176   418189 
 1835000   0.62702591   -4.5999031   -4.5999031   -3.9463126  0.038484892   -4.5999031    0.6535905   418189 
 1836000   0.62781801   -4.6011577   -4.6011577   -3.9467416   0.04352106   -4.6011577   0.65441615   418189 
 1837000   0.62715298   -4.6005522   -4.6005522   -3.9468292  0.051126157   -4.6005522   0.65372296   418189 
 1838000   0.62668039    -4.600343    -4.600343   -3.9471127  0.041534283    -4.600343   0.65323034   418189 
 1839000   0.62804372   -4.6016937   -4.6016937   -3.9470423   0.02218516   -4.6016937   0.65465142   418189 
 1840000   0.62715214   -4.6011843   -4.6011843   -3.9474622  0.034062821   -4.6011843   0.65372207   418189 
 1841000   0.62642768   -4.5992592   -4.5992592   -3.9462923  0.040776513   -4.5992592   0.65296692   418189 
 1842000   0.62699717   -4.6001312   -4.6001312   -3.9465706  0.041852765   -4.6001312   0.65356054   418189 
 1843000   0.62842403   -4.6023821   -4.6023821   -3.9473343  0.029903183   -4.6023821   0.65504785   418189 
 1844000   0.62656255   -4.6011376   -4.6011376   -3.9480301  0.038392667   -4.6011376    0.6531075   418189 
 1845000   0.62690481   -4.6012362   -4.6012362    -3.947772  0.047521497   -4.6012362   0.65346427   418189 
 1846000   0.62779797   -4.6019818   -4.6019818   -3.9475865  0.049841106   -4.6019818   0.65439527   418189 
 1847000   0.62784038    -4.601919    -4.601919   -3.9474795  0.032144123    -4.601919   0.65443947   418189 
 1848000   0.62664684   -4.6013496   -4.6013496   -3.9481543   0.03876738   -4.6013496   0.65319537   418189 
 1849000   0.62668425   -4.6012261   -4.6012261   -3.9479918  0.045945202   -4.6012261   0.65323436   418189 
 1850000   0.62720071   -4.6021757   -4.6021757    -3.948403  0.044168323   -4.6021757   0.65377271   418189 
 1851000   0.62565456   -4.6008674   -4.6008674   -3.9487063  0.041807482   -4.6008674   0.65216104   418189 
 1852000    0.6264349   -4.6021049   -4.6021049   -3.9491305  0.049025899   -4.6021049   0.65297445   418189 
 1853000   0.62762299   -4.6036924   -4.6036924   -3.9494795  0.049264139   -4.6036924   0.65421287   418189 
 1854000   0.62719168   -4.6033138   -4.6033138   -3.9495505  0.040028567   -4.6033138   0.65376329   418189 
 1855000   0.62748828   -4.6033249   -4.6033249   -3.9492524  0.034407313   -4.6033249   0.65407246   418189 
 1856000   0.62741638   -4.6027332   -4.6027332   -3.9487357  0.042159256   -4.6027332   0.65399751   418189 
 1857000   0.62830345   -4.6035483   -4.6035483   -3.9486261  0.046687065   -4.6035483   0.65492216   418189 
 1858000   0.62779908   -4.6029469   -4.6029469   -3.9485505  0.043670728   -4.6029469   0.65439642   418189 
 1859000   0.62688125   -4.6018344   -4.6018344   -3.9483947  0.037114249   -4.6018344   0.65343971   418189 
 1860000   0.62637287   -4.6023467   -4.6023467    -3.949437  0.038771079   -4.6023467   0.65290979   418189 
 1861000   0.62593298    -4.601878    -4.601878   -3.9494267  0.037372412    -4.601878   0.65245126   418189 
 1862000   0.62658809   -4.6027383   -4.6027383   -3.9496042   0.03634382   -4.6027383   0.65313413   418189 
 1863000   0.62650714   -4.6032904   -4.6032904   -3.9502407  0.033240277   -4.6032904   0.65304975   418189 
 1864000   0.62595647   -4.6031083   -4.6031083   -3.9506325  0.046192988   -4.6031083   0.65247575   418189 
 1865000   0.62647348   -4.6043323   -4.6043323   -3.9513177  0.035822525   -4.6043323   0.65301466   418189 
 1866000   0.62553483   -4.6029965   -4.6029965   -3.9509603   0.04781821   -4.6029965   0.65203624   418189 
 1867000   0.62668327   -4.6045789   -4.6045789   -3.9513456  0.049096453   -4.6045789   0.65323334   418189 
 1868000   0.62676357   -4.6048426   -4.6048426   -3.9515256  0.057501619   -4.6048426   0.65331704   418189 
 1869000    0.6264957   -4.6046959   -4.6046959   -3.9516581  0.017331449   -4.6046959   0.65303782   418189 
 1870000   0.62587305   -4.6037809   -4.6037809   -3.9513921  0.037465401   -4.6037809    0.6523888   418189 
 1871000   0.62696964   -4.6049872   -4.6049872   -3.9514554  0.024489491   -4.6049872   0.65353184   418189 
 1872000   0.62568691   -4.6043766   -4.6043766   -3.9521818  0.037225167   -4.6043766   0.65219477   418189 
 1873000   0.62551852   -4.6046066   -4.6046066   -3.9525874   0.03278864   -4.6046066   0.65201925   418189 
 1874000   0.62581963   -4.6048243   -4.6048243   -3.9524912  0.050796139   -4.6048243   0.65233311   418189 
 1875000   0.62615311    -4.604972    -4.604972   -3.9522913  0.038395225    -4.604972   0.65268072   418189 
 1876000   0.62572855   -4.6047233   -4.6047233   -3.9524851  0.038134692   -4.6047233   0.65223817   418189 
 1877000    0.6250086   -4.6037589   -4.6037589   -3.9522712  0.037297287   -4.6037589   0.65148772   418189 
 1878000    0.6250441   -4.6036994   -4.6036994   -3.9521747  0.034819965   -4.6036994   0.65152472   418189 
 1879000   0.62549478   -4.6044309   -4.6044309   -3.9524364   0.04732216   -4.6044309    0.6519945   418189 
 1880000   0.62630902   -4.6053877   -4.6053877   -3.9525444  0.050918634   -4.6053877   0.65284323   418189 
 1881000   0.62675325   -4.6065768   -4.6065768   -3.9532705  0.040736917   -4.6065768   0.65330628   418189 
 1882000   0.62659088   -4.6063772   -4.6063772   -3.9532401  0.048381339   -4.6063772   0.65313704   418189 
 1883000     0.626321   -4.6060386   -4.6060386   -3.9531829  0.053128279   -4.6060386   0.65285572   418189 
 1884000   0.62610784   -4.6059576   -4.6059576   -3.9533241  0.037843016   -4.6059576   0.65263353   418189 
 1885000   0.62653378   -4.6059961   -4.6059961   -3.9529186  0.038864095   -4.6059961   0.65307752   418189 
 1886000   0.62604361   -4.6061257   -4.6061257   -3.9535591   0.03169925   -4.6061257   0.65256658   418189 
 1887000   0.62584211   -4.6055806   -4.6055806   -3.9532241  0.038849041   -4.6055806   0.65235655   418189 
 1888000   0.62598542   -4.6057146   -4.6057146   -3.9532087  0.033858665   -4.6057146   0.65250593   418189 
 1889000   0.62563818   -4.6051889   -4.6051889    -3.953045  0.038741579   -4.6051889   0.65214397   418189 
 1890000   0.62575971   -4.6056781   -4.6056781   -3.9534075  0.042009534   -4.6056781   0.65227066   418189 
 1891000   0.62568548   -4.6053388   -4.6053388   -3.9531455  0.034011961   -4.6053388   0.65219327   418189 
 1892000   0.62472826   -4.6053547   -4.6053547   -3.9541592  0.026593266   -4.6053547    0.6511955   418189 
 1893000   0.62701808   -4.6075938   -4.6075938   -3.9540114  0.052757105   -4.6075938   0.65358234   418189 
 1894000   0.62571032   -4.6067297   -4.6067297   -3.9545105  0.028675661   -4.6067297   0.65221917   418189 
 1895000   0.62633491   -4.6081105   -4.6081105   -3.9552403   0.03588852   -4.6081105   0.65287022   418189 
 1896000   0.62540419   -4.6071987   -4.6071987   -3.9552986  0.035966857   -4.6071987   0.65190007   418189 
 1897000   0.62570269   -4.6075521   -4.6075521   -3.9553409  0.045117922   -4.6075521   0.65221121   418189 
 1898000   0.62518086   -4.6077487   -4.6077487   -3.9560815  0.040987741   -4.6077487   0.65166728   418189 
 1899000   0.62514445   -4.6079286   -4.6079286   -3.9562993      0.02725   -4.6079286   0.65162933   418189 
 1900000    0.6256221   -4.6088607   -4.6088607   -3.9567335   0.02836182   -4.6088607   0.65212721   418189 
 1901000   0.62481032   -4.6087478   -4.6087478   -3.9574667   0.03568733   -4.6087478   0.65128104   418189 
 1902000   0.62493444   -4.6085254   -4.6085254   -3.9571149  0.033961618   -4.6085254   0.65141042   418189 
 1903000   0.62533446    -4.609094    -4.609094   -3.9572666  0.035100145    -4.609094   0.65182738   418189 
 1904000   0.62594764   -4.6100609   -4.6100609   -3.9575943  0.047465345   -4.6100609   0.65246655   418189 
 1905000   0.62466126   -4.6090665   -4.6090665   -3.9579408  0.037591803   -4.6090665   0.65112566   418189 
 1906000   0.62518784   -4.6100874   -4.6100874   -3.9584128  0.040228816   -4.6100874   0.65167456   418189 
 1907000   0.62378691   -4.6085812   -4.6085812   -3.9583669  0.039776487   -4.6085812   0.65021427   418189 
 1908000   0.62484083   -4.6097645   -4.6097645   -3.9584516  0.040271133   -4.6097645   0.65131284   418189 
 1909000    0.6239121   -4.6080024   -4.6080024   -3.9576576   0.02931038   -4.6080024   0.65034477   418189 
 1910000   0.62408062   -4.6086426   -4.6086426   -3.9581221  0.043228277   -4.6086426   0.65052043   418189 
 1911000   0.62378709   -4.6082588   -4.6082588   -3.9580443  0.025157027   -4.6082588   0.65021446   418189 
 1912000   0.62394127    -4.608922    -4.608922   -3.9585469  0.026090734    -4.608922   0.65037517   418189 
 1913000   0.62352282   -4.6078627   -4.6078627   -3.9579237  0.030547355   -4.6078627   0.64993899   418189 
 1914000   0.62632568   -4.6109591   -4.6109591   -3.9580985   0.02758502   -4.6109591    0.6528606   418189 
 1915000   0.62389978   -4.6086575   -4.6086575   -3.9583255  0.022722504   -4.6086575   0.65033192   418189 
 1916000   0.62501895   -4.6103557   -4.6103557   -3.9588572  0.030442769   -4.6103557   0.65149851   418189 
 1917000   0.62501741   -4.6097863   -4.6097863   -3.9582894   0.04193979   -4.6097863    0.6514969   418189 
 1918000   0.62616871   -4.6116059   -4.6116059   -3.9589089  0.049836111   -4.6116059   0.65269698   418189 
 1919000   0.62394977   -4.6093036   -4.6093036   -3.9589196  0.037144194   -4.6093036   0.65038403   418189 
 1920000   0.62601866   -4.6112999   -4.6112999   -3.9587593  0.045657673   -4.6112999   0.65254057   418189 
 1921000   0.62608409    -4.611524    -4.611524   -3.9589152  0.024746999    -4.611524   0.65260878   418189 
 1922000   0.62659337    -4.611428    -4.611428   -3.9582884  0.039787941    -4.611428   0.65313964   418189 
 1923000   0.62598531   -4.6112471   -4.6112471   -3.9587413  0.033813982   -4.6112471   0.65250581   418189 
 1924000   0.62523516   -4.6102804   -4.6102804   -3.9585565  0.039003016   -4.6102804   0.65172388   418189 
 1925000   0.62504255   -4.6107716   -4.6107716   -3.9592485   0.03752847   -4.6107716   0.65152311   418189 
 1926000   0.62486364   -4.6107309   -4.6107309   -3.9593942  0.054670671   -4.6107309   0.65133663   418189 
 1927000    0.6261212   -4.6115786   -4.6115786   -3.9589312  0.035420661   -4.6115786   0.65264746   418189 
 1928000    0.6245154   -4.6097808   -4.6097808   -3.9588072  0.043367089   -4.6097808   0.65097362   418189 
 1929000   0.62557243   -4.6102554   -4.6102554     -3.95818  0.038761282   -4.6102554   0.65207544   418189 
 1930000   0.62448089   -4.6092342   -4.6092342   -3.9582965  0.032454032   -4.6092342   0.65093765   418189 
 1931000   0.62329342   -4.6077078   -4.6077078   -3.9580079  0.050270755   -4.6077078   0.64969987   418189 
 1932000   0.62322248   -4.6081529   -4.6081529    -3.958527   0.04437855   -4.6081529   0.64962593   418189 
 1933000     0.622611   -4.6081817   -4.6081817   -3.9591931  0.050172018   -4.6081817   0.64898854   418189 
 1934000   0.62452725   -4.6104407   -4.6104407   -3.9594547  0.037430336   -4.6104407   0.65098598   418189 
 1935000   0.62446465   -4.6112619   -4.6112619   -3.9603412  0.042003324   -4.6112619   0.65092073   418189 
 1936000   0.62498915   -4.6121218   -4.6121218   -3.9606544  0.051139319   -4.6121218   0.65146745   418189 
 1937000   0.62540226   -4.6123946   -4.6123946   -3.9604966  0.041482307   -4.6123946   0.65189806   418189 
 1938000   0.62455941   -4.6127292   -4.6127292   -3.9617096  0.050769258   -4.6127292    0.6510195   418189 
 1939000   0.62372108    -4.611314    -4.611314   -3.9611683  0.026190778    -4.611314   0.65014566   418189 
 1940000   0.62341552   -4.6110741   -4.6110741    -3.961247  0.035280897   -4.6110741   0.64982715   418189 
 1941000    0.6235561   -4.6109529   -4.6109529   -3.9609792  0.035602295   -4.6109529   0.64997369   418189 
 1942000   0.62388059   -4.6116083   -4.6116083   -3.9612964  0.046611393   -4.6116083   0.65031192   418189 
 1943000   0.62418259   -4.6113473   -4.6113473   -3.9607206  0.029104947   -4.6113473   0.65062671   418189 
 1944000   0.62294036   -4.6105628   -4.6105628   -3.9612309  0.047404967   -4.6105628   0.64933186   418189 
 1945000   0.62422361   -4.6120801   -4.6120801   -3.9614106  0.046415503   -4.6120801   0.65066947   418189 
 1946000    0.6247475   -4.6132638   -4.6132638   -3.9620482  0.043799538   -4.6132638   0.65121556   418189 
 1947000   0.62440457   -4.6129463   -4.6129463   -3.9620882  0.051718757   -4.6129463    0.6508581   418189 
 1948000   0.62481949   -4.6134451   -4.6134451   -3.9621545  0.022466428   -4.6134451    0.6512906   418189 
 1949000   0.62497565   -4.6137028   -4.6137028   -3.9622495  0.049994025   -4.6137028   0.65145338   418189 
 1950000   0.62471487   -4.6133627   -4.6133627   -3.9621811  0.044039896   -4.6133627   0.65118155   418189 
 1951000   0.62624559   -4.6145827   -4.6145827   -3.9618055  0.027381794   -4.6145827   0.65277712   418189 
 1952000   0.62592522   -4.6145463   -4.6145463   -3.9621032  0.049263027   -4.6145463   0.65244318   418189 
 1953000   0.62452099   -4.6129227   -4.6129227   -3.9619433  0.042843948   -4.6129227   0.65097946   418189 
 1954000   0.62464573   -4.6131314   -4.6131314   -3.9620219  0.039022903   -4.6131314   0.65110948   418189 
 1955000   0.62489331   -4.6130656   -4.6130656   -3.9616981  0.052971425   -4.6130656   0.65136755   418189 
 1956000   0.62285021   -4.6117038   -4.6117038   -3.9624659  0.050909943   -4.6117038   0.64923789   418189 
 1957000   0.62407647   -4.6135776   -4.6135776   -3.9630615  0.023760154   -4.6135776    0.6505161   418189 
 1958000   0.62443902   -4.6141081   -4.6141081   -3.9632141  0.046342753   -4.6141081   0.65089401   418189 
 1959000   0.62283791   -4.6131962   -4.6131962   -3.9639711  0.046185393   -4.6131962   0.64922507   418189 
 1960000   0.62474363   -4.6150555   -4.6150555    -3.963844  0.033575828   -4.6150555   0.65121152   418189 
 1961000   0.62522211   -4.6151744   -4.6151744   -3.9634642  0.028620292   -4.6151744   0.65171028   418189 
 1962000   0.62355222   -4.6130928   -4.6130928   -3.9631231  0.036563662   -4.6130928   0.64996964   418189 
 1963000   0.62450896    -4.613768    -4.613768    -3.962801  0.043891234    -4.613768   0.65096691   418189 
 1964000   0.62509429   -4.6144006   -4.6144006   -3.9628235  0.051470461   -4.6144006   0.65157704   418189 
 1965000   0.62484607   -4.6148304   -4.6148304   -3.9635121  0.038416213   -4.6148304   0.65131831   418189 
 1966000   0.62480134     -4.61539     -4.61539   -3.9641183  0.029835776     -4.61539   0.65127168   418189 
 1967000   0.62424856   -4.6149663   -4.6149663   -3.9642709  0.044880302   -4.6149663   0.65069548   418189 
 1968000   0.62310736    -4.613504    -4.613504   -3.9639981  0.027841511    -4.613504   0.64950593   418189 
 1969000   0.62587307   -4.6159655   -4.6159655   -3.9635766  0.039586123   -4.6159655   0.65238882   418189 
 1970000   0.62357026   -4.6137866   -4.6137866   -3.9637982  0.045028137   -4.6137866   0.64998845   418189 
 1971000   0.62547002   -4.6159549   -4.6159549   -3.9639862  0.042331683   -4.6159549   0.65196869   418189 
 1972000    0.6244689   -4.6152942   -4.6152942    -3.964369  0.026467588   -4.6152942   0.65092516   418189 
 1973000   0.62319466   -4.6146674   -4.6146674   -3.9650704  0.029734513   -4.6146674   0.64959693   418189 
 1974000   0.62427228   -4.6153172   -4.6153172    -3.964597  0.032317846   -4.6153172    0.6507202   418189 
 1975000   0.62376675   -4.6154929   -4.6154929   -3.9652996  0.049634934   -4.6154929   0.65019326   418189 
 1976000   0.62508334   -4.6172348   -4.6172348   -3.9656692  0.054057497   -4.6172348   0.65156563   418189 
 1977000   0.62525555   -4.6170507   -4.6170507   -3.9653056  0.020111413   -4.6170507   0.65174514   418189 
 1978000   0.62475756   -4.6169823   -4.6169823   -3.9657562  0.041248251   -4.6169823   0.65122604   418189 
 1979000   0.62360889   -4.6159434   -4.6159434   -3.9659146  0.044357728   -4.6159434   0.65002872   418189 
 1980000   0.62550306   -4.6186956   -4.6186956   -3.9666925  0.038370218   -4.6186956   0.65200313   418189 
 1981000    0.6245757   -4.6175673   -4.6175673   -3.9665309  0.039669006   -4.6175673   0.65103648   418189 
 1982000    0.6231027   -4.6161903   -4.6161903   -3.9666892  0.043871377   -4.6161903   0.64950108   418189 
 1983000   0.62314884   -4.6160998   -4.6160998   -3.9665506  0.042519836   -4.6160998   0.64954917   418189 
 1984000   0.62316037   -4.6163583   -4.6163583   -3.9667971  0.043098169   -4.6163583   0.64956119   418189 
 1985000   0.62320881    -4.616163    -4.616163   -3.9665514   0.03404558    -4.616163   0.64961168   418189 
 1986000   0.62323638   -4.6151895   -4.6151895   -3.9655491  0.044164672   -4.6151895   0.64964042   418189 
 1987000   0.62264504    -4.614404    -4.614404   -3.9653799  0.046419945    -4.614404   0.64902403   418189 
 1988000    0.6245712   -4.6166984   -4.6166984   -3.9656666  0.039714911   -4.6166984   0.65103179   418189 
 1989000   0.62463638   -4.6172952   -4.6172952   -3.9661954   0.04809199   -4.6172952   0.65109973   418189 
 1990000    0.6235963   -4.6170214   -4.6170214   -3.9670058  0.051143551   -4.6170214   0.65001558   418189 
 1991000   0.62385805   -4.6170572   -4.6170572   -3.9667688  0.041179005   -4.6170572   0.65028843   418189 
 1992000   0.62449379   -4.6173205   -4.6173205   -3.9663694  0.044396229   -4.6173205    0.6509511   418189 
 1993000   0.62354627   -4.6170409   -4.6170409   -3.9670774  0.032237404   -4.6170409   0.64996344   418189 
 1994000   0.62231918   -4.6157374   -4.6157374   -3.9670531  0.025498759   -4.6157374   0.64868436   418189 
 1995000   0.62315453    -4.615903    -4.615903   -3.9663479  0.034721685    -4.615903    0.6495551   418189 
 1996000   0.62380214    -4.617003    -4.617003   -3.9667728  0.053428269    -4.617003   0.65023015   418189 
 1997000   0.62308224    -4.616377    -4.616377   -3.9668972  0.022724342    -4.616377   0.64947975   418189 
 1998000    0.6238538   -4.6168827   -4.6168827   -3.9665987  0.036974417   -4.6168827   0.65028399   418189 
 1999000   0.62350857    -4.616651    -4.616651   -3.9667269  0.033045574    -4.616651   0.64992414   418189 
 2000000   0.62316615   -4.6158963   -4.6158963    -3.966329  0.036272642   -4.6158963   0.64956721   418189 
 2001000     0.622873   -4.6157975   -4.6157975   -3.9665358  0.040919014   -4.6157975   0.64926165   418189 
 2002000   0.62339158   -4.6170354   -4.6170354   -3.9672332  0.038186287   -4.6170354    0.6498022   418189 
 2003000   0.62355195   -4.6169246   -4.6169246   -3.9669553  0.031761356   -4.6169246   0.64996936   418189 
 2004000   0.62379082   -4.6173634   -4.6173634    -3.967145  0.028721184   -4.6173634   0.65021834   418189 
 2005000   0.62436557   -4.6182701   -4.6182701   -3.9674527  0.058641359   -4.6182701   0.65081745   418189 
 2006000   0.62437218   -4.6189368   -4.6189368   -3.9681125  0.028554266   -4.6189368   0.65082434   418189 
 2007000   0.62349414   -4.6186565   -4.6186565   -3.9687474  0.034012869   -4.6186565    0.6499091   418189 
 2008000   0.62214685   -4.6174898   -4.6174898   -3.9689851  0.034602715   -4.6174898   0.64850473   418189 
 2009000   0.62424524   -4.6203094   -4.6203094   -3.9696174  0.039874718   -4.6203094   0.65069202   418189 
 2010000    0.6235454   -4.6197458   -4.6197458   -3.9697833  0.043758624   -4.6197458   0.64996253   418189 
 2011000   0.62368453   -4.6194974   -4.6194974   -3.9693899  0.025564655   -4.6194974   0.65010755   418189 
 2012000   0.62330283   -4.6190993   -4.6190993   -3.9693896    0.0314593   -4.6190993   0.64970968   418189 
 2013000   0.62238553   -4.6189417   -4.6189417   -3.9701882  0.045454492   -4.6189417   0.64875352   418189 
 2014000   0.62325594   -4.6190936   -4.6190936   -3.9694328   0.03698147   -4.6190936   0.64966081   418189 
 2015000   0.62251947    -4.618752    -4.618752   -3.9698588  0.039829963    -4.618752   0.64889313   418189 
 2016000   0.62241893   -4.6190227   -4.6190227   -3.9702344  0.051953265   -4.6190227   0.64878834   418189 
 2017000   0.62467751   -4.6210784   -4.6210784   -3.9699358  0.044909112   -4.6210784    0.6511426   418189 
 2018000   0.62391759   -4.6206203   -4.6206203   -3.9702698  0.034077671   -4.6206203   0.65035049   418189 
 2019000   0.62349136   -4.6205417   -4.6205417   -3.9706355  0.039050014   -4.6205417   0.64990621   418189 
 2020000    0.6225128   -4.6199181   -4.6199181    -3.971032  0.027458223   -4.6199181   0.64888618   418189 
 2021000    0.6216963   -4.6194255   -4.6194255   -3.9713904  0.026383934   -4.6194255   0.64803509   418189 
 2022000   0.62151192   -4.6193803   -4.6193803   -3.9715373  0.047724003   -4.6193803   0.64784291   418189 
 2023000   0.62269739   -4.6207791   -4.6207791   -3.9717005  0.041979346   -4.6207791   0.64907859   418189 
 2024000   0.62167515   -4.6202462   -4.6202462   -3.9722331  0.035767983   -4.6202462   0.64801305   418189 
 2025000   0.62172521   -4.6203871   -4.6203871   -3.9723218  0.031796412   -4.6203871   0.64806523   418189 
 2026000   0.62188997    -4.620322    -4.620322    -3.972085  0.030162694    -4.620322   0.64823697   418189 
 2027000   0.62279086   -4.6206875   -4.6206875   -3.9715115  0.039684204   -4.6206875   0.64917602   418189 
 2028000   0.62254662   -4.6204971   -4.6204971   -3.9715757  0.040824929   -4.6204971   0.64892144   418189 
 2029000   0.62375993    -4.621249    -4.621249   -3.9710628  0.038899128    -4.621249   0.65018615   418189 
 2030000   0.62420668   -4.6220572   -4.6220572   -3.9714053   0.04870014   -4.6220572   0.65065183   418189 
 2031000   0.62378973   -4.6218691   -4.6218691   -3.9716518  0.031207536   -4.6218691   0.65021721   418189 
 2032000   0.62267772   -4.6208403   -4.6208403   -3.9717822  0.034366091   -4.6208403   0.64905809   418189 
 2033000   0.62144803   -4.6196258   -4.6196258   -3.9718495  0.043697104   -4.6196258    0.6477763   418189 
 2034000   0.62243764   -4.6210476   -4.6210476   -3.9722398  0.020967671   -4.6210476   0.64880784   418189 
 2035000   0.62225849   -4.6201713   -4.6201713   -3.9715502  0.023012609   -4.6201713    0.6486211   418189 
 2036000   0.62223799   -4.6198915   -4.6198915   -3.9712918  0.050126072   -4.6198915   0.64859973   418189 
 2037000   0.62309037   -4.6212167   -4.6212167   -3.9717285  0.035656967   -4.6212167   0.64948823   418189 
 2038000   0.62191756   -4.6212838   -4.6212838    -3.973018   0.04532475   -4.6212838   0.64826573   418189 
 2039000   0.62119105   -4.6199898   -4.6199898   -3.9724814   0.02963937   -4.6199898   0.64750844   418189 
 2040000   0.62249094   -4.6216884   -4.6216884    -3.972825  0.044332493   -4.6216884    0.6488634   418189 
 2041000    0.6216477   -4.6207471   -4.6207471   -3.9727627  0.033312815   -4.6207471   0.64798444   418189 
 2042000   0.62164867   -4.6207801   -4.6207801   -3.9727947  0.033145011   -4.6207801   0.64798544   418189 
 2043000   0.62257208   -4.6211983   -4.6211983   -3.9722503  0.041647887   -4.6211983   0.64894797   418189 
 2044000   0.62144578   -4.6213722   -4.6213722   -3.9735983   0.02967778   -4.6213722   0.64777396   418189 
 2045000   0.62250195   -4.6222328   -4.6222328   -3.9733579  0.039933479   -4.6222328   0.64887488   418189 
 2046000   0.62238425   -4.6220213   -4.6220213   -3.9732691  0.039261283   -4.6220213   0.64875219   418189 
 2047000   0.62214555   -4.6215577   -4.6215577   -3.9730544  0.051691578   -4.6215577   0.64850337   418189 
 2048000   0.62235506   -4.6230508   -4.6230508    -3.974329  0.035009833   -4.6230508   0.64872176   418189 
 2049000   0.62364763   -4.6245146   -4.6245146   -3.9744455   0.02472735   -4.6245146    0.6500691   418189 
 2050000   0.62340097   -4.6242247   -4.6242247   -3.9744127  0.034547057   -4.6242247   0.64981198   418189 
 2051000   0.62103323   -4.6224816   -4.6224816   -3.9751377  0.025112501   -4.6224816   0.64734393   418189 
 2052000   0.62084233   -4.6218104   -4.6218104   -3.9746654  0.033202826   -4.6218104   0.64714494   418189 
 2053000   0.62155494   -4.6230093   -4.6230093   -3.9751215  0.021375375   -4.6230093   0.64788775   418189 
 2054000   0.62165434   -4.6230234   -4.6230234    -3.975032  0.026658328   -4.6230234   0.64799135   418189 
 2055000    0.6220511   -4.6237987   -4.6237987   -3.9753938  0.029993136   -4.6237987   0.64840493   418189 
 2056000   0.62053936   -4.6214966   -4.6214966   -3.9746674  0.027315889   -4.6214966   0.64682913   418189 
 2057000   0.62262074   -4.6238599   -4.6238599   -3.9748612  0.036001239   -4.6238599    0.6489987   418189 
 2058000   0.62343186   -4.6258469   -4.6258469   -3.9760028    0.0415363   -4.6258469   0.64984418   418189 
 2059000   0.62248354   -4.6250271   -4.6250271   -3.9761714  0.041738644   -4.6250271   0.64885568   418189 
 2060000   0.62211225   -4.6248408   -4.6248408   -3.9763722   0.03380882   -4.6248408   0.64846866   418189 
 2061000   0.62088527   -4.6241605   -4.6241605   -3.9769708  0.038376544   -4.6241605   0.64718971   418189 
 2062000     0.621997   -4.6252933   -4.6252933   -3.9769448  0.039930451   -4.6252933   0.64834853   418189 
 2063000   0.62140661   -4.6244076   -4.6244076   -3.9766745  0.045482859   -4.6244076   0.64773313   418189 
 2064000   0.62109857    -4.624058    -4.624058    -3.976646  0.060363559    -4.624058   0.64741204   418189 
 2065000   0.62172784   -4.6250344   -4.6250344   -3.9769665  0.049951961   -4.6250344   0.64806797   418189 
 2066000    0.6207032    -4.623932    -4.623932   -3.9769321  0.039914858    -4.623932   0.64699992   418189 
 2067000    0.6218106   -4.6260385   -4.6260385   -3.9778843  0.042567018   -4.6260385   0.64815424   418189 
 2068000   0.62180368   -4.6255485   -4.6255485   -3.9774015  0.035955499   -4.6255485   0.64814702   418189 
 2069000   0.62073013   -4.6252015   -4.6252015   -3.9781735  0.052692248   -4.6252015   0.64702799   418189 
 2070000    0.6211099    -4.625496    -4.625496   -3.9780722  0.049571178    -4.625496   0.64742385   418189 
 2071000   0.62074626    -4.625072    -4.625072   -3.9780272  0.058725285    -4.625072    0.6470448   418189 
 2072000   0.62162422   -4.6261872   -4.6261872   -3.9782273  0.035557617   -4.6261872   0.64795996   418189 
 2073000   0.62143073   -4.6258032   -4.6258032   -3.9780449  0.041735787   -4.6258032   0.64775827   418189 
 2074000    0.6200256   -4.6249351   -4.6249351   -3.9786414  0.049857161   -4.6249351   0.64629361   418189 
 2075000   0.62079994   -4.6256724   -4.6256724   -3.9785716  0.041509632   -4.6256724   0.64710076   418189 
 2076000   0.62039282   -4.6263404   -4.6263404    -3.979664  0.031781856   -4.6263404   0.64667639   418189 
 2077000   0.62044517   -4.6268322   -4.6268322   -3.9801012  0.031915604   -4.6268322   0.64673096   418189 
 2078000   0.62055516   -4.6271005   -4.6271005   -3.9802548  0.045379224   -4.6271005    0.6468456   418189 
 2079000   0.62054888   -4.6267373   -4.6267373   -3.9798982  0.029261914   -4.6267373   0.64683906   418189 
 2080000   0.62060474   -4.6264328   -4.6264328   -3.9795355  0.036500758   -4.6264328   0.64689728   418189 
 2081000   0.62057831    -4.627366    -4.627366   -3.9804962  0.034230436    -4.627366   0.64686974   418189 
 2082000   0.62155069   -4.6280116   -4.6280116   -3.9801283  0.029151562   -4.6280116   0.64788332   418189 
 2083000   0.61997263   -4.6269775   -4.6269775   -3.9807391  0.022118487   -4.6269775    0.6462384   418189 
 2084000   0.62090459   -4.6271454   -4.6271454   -3.9799356  0.065259412   -4.6271454   0.64720984   418189 
 2085000   0.61926479   -4.6254875   -4.6254875    -3.979987  0.037074155   -4.6254875   0.64550057   418189 
 2086000   0.62051227   -4.6264455   -4.6264455   -3.9796446  0.043709061   -4.6264455    0.6468009   418189 
 2087000   0.62179392    -4.626969    -4.626969   -3.9788322  0.026183541    -4.626969   0.64813685   418189 
 2088000   0.62063957   -4.6260243   -4.6260243   -3.9790907  0.035426121   -4.6260243   0.64693359   418189 
 2089000   0.62179835   -4.6276485   -4.6276485    -3.979507  0.029035541   -4.6276485   0.64814146   418189 
 2090000     0.620343   -4.6255211   -4.6255211   -3.9788966  0.058572151   -4.6255211   0.64662446   418189 
 2091000   0.62042362   -4.6260267   -4.6260267   -3.9793182  0.036030419   -4.6260267    0.6467085   418189 
 2092000    0.6217356   -4.6273856   -4.6273856   -3.9793095  0.034707289   -4.6273856   0.64807606   418189 
 2093000   0.62127883   -4.6271274   -4.6271274   -3.9795275  0.036631357   -4.6271274   0.64759993   418189 
 2094000    0.6219516   -4.6281069   -4.6281069   -3.9798057  0.031001827   -4.6281069   0.64830121   418189 
 2095000   0.62235886   -4.6289038   -4.6289038   -3.9801781  0.033337172   -4.6289038   0.64872572   418189 
 2096000   0.62054887   -4.6267852   -4.6267852   -3.9799462  0.042087345   -4.6267852   0.64683905   418189 
 2097000   0.62073458   -4.6272261   -4.6272261   -3.9801935  0.025542129   -4.6272261   0.64703263   418189 
 2098000   0.62216367   -4.6280635   -4.6280635   -3.9795413  0.013849116   -4.6280635   0.64852226   418189 
 2099000   0.62112839   -4.6267225   -4.6267225   -3.9792794  0.029009453   -4.6267225   0.64744312   418189 
 2100000    0.6210403    -4.626216    -4.626216   -3.9788647  0.038945706    -4.626216    0.6473513   418189 
 2101000   0.62388359   -4.6293448   -4.6293448   -3.9790298  0.036660604   -4.6293448   0.65031505   418189 
 2102000   0.62265592   -4.6287931   -4.6287931   -3.9797578  0.025802334   -4.6287931   0.64903537   418189 
 2103000   0.62252337   -4.6292778   -4.6292778   -3.9803806  0.039401688   -4.6292778    0.6488972   418189 
 2104000   0.62110574   -4.6276039   -4.6276039   -3.9801844  0.038401279   -4.6276039   0.64741951   418189 
 2105000   0.62009666    -4.627121    -4.627121   -3.9807533  0.037299271    -4.627121   0.64636768   418189 
 2106000   0.62079937   -4.6285681   -4.6285681   -3.9814679  0.041537181   -4.6285681   0.64710016   418189 
 2107000   0.62083981   -4.6292131   -4.6292131   -3.9820708  0.038536486   -4.6292131   0.64714232   418189 
 2108000   0.62209273   -4.6302255   -4.6302255   -3.9817771  0.035902105   -4.6302255   0.64844832   418189 
 2109000    0.6226684   -4.6305313   -4.6305313   -3.9814829  0.035754598   -4.6305313   0.64904837   418189 
 2110000    0.6205907   -4.6287033   -4.6287033   -3.9818206   0.03528207   -4.6287033   0.64688265   418189 
 2111000   0.62105005   -4.6295536   -4.6295536   -3.9821922  0.038784282   -4.6295536   0.64736147   418189 
 2112000   0.62012966   -4.6296683   -4.6296683   -3.9832662  0.036280098   -4.6296683   0.64640208   418189 
 2113000    0.6199612   -4.6288794   -4.6288794   -3.9826529    0.0300978   -4.6288794   0.64622648   418189 
 2114000   0.61971516   -4.6289674   -4.6289674   -3.9829974   0.05667521   -4.6289674   0.64597002   418189 
 2115000    0.6200279   -4.6287211   -4.6287211   -3.9824251  0.036881649   -4.6287211   0.64629601   418189 
 2116000   0.62089519   -4.6290843   -4.6290843   -3.9818843   0.02999828   -4.6290843   0.64720004   418189 
 2117000   0.62152594   -4.6293335   -4.6293335   -3.9814759  0.019268799   -4.6293335   0.64785752   418189 
 2118000   0.62174588   -4.6298669   -4.6298669   -3.9817802   0.02044584   -4.6298669   0.64808678   418189 
 2119000    0.6204657   -4.6291717   -4.6291717   -3.9824193  0.036314148   -4.6291717   0.64675236   418189 
 2120000   0.62150272    -4.630485    -4.630485   -3.9826517  0.050334878    -4.630485   0.64783331   418189 
 2121000   0.62045672   -4.6293662   -4.6293662   -3.9826232  0.045850989   -4.6293662   0.64674299   418189 
 2122000   0.62099037   -4.6303424   -4.6303424   -3.9830431  0.043480999   -4.6303424   0.64729926   418189 
 2123000   0.62078246   -4.6300331   -4.6300331   -3.9829505  0.038827121   -4.6300331   0.64708254   418189 
 2124000   0.62087641    -4.630135    -4.630135   -3.9829545  0.037327185    -4.630135   0.64718047   418189 
 2125000   0.61983524   -4.6297253   -4.6297253   -3.9836301  0.030584788   -4.6297253   0.64609519   418189 
 2126000   0.61998131   -4.6298205   -4.6298205    -3.983573  0.031777988   -4.6298205   0.64624745   418189 
 2127000   0.62011927   -4.6299462   -4.6299462   -3.9835549  0.049391518   -4.6299462   0.64639125   418189 
 2128000   0.61992682   -4.6296218   -4.6296218   -3.9834311  0.040895331   -4.6296218   0.64619065   418189 
 2129000   0.61827712   -4.6278573   -4.6278573   -3.9833862  0.036970126   -4.6278573   0.64447106   418189 
 2130000   0.61983971   -4.6293471   -4.6293471   -3.9832473  0.024861925   -4.6293471   0.64609984   418189 
 2131000   0.61944206   -4.6289427   -4.6289427   -3.9832574  0.042699587   -4.6289427   0.64568535   418189 
 2132000   0.61970893   -4.6290743   -4.6290743   -3.9831108   0.03351051   -4.6290743   0.64596352   418189 
 2133000    0.6215548   -4.6308693   -4.6308693   -3.9829817  0.023025904   -4.6308693    0.6478876   418189 
 2134000    0.6192107   -4.6283102   -4.6283102    -3.982866  0.029701016   -4.6283102   0.64544419   418189 
 2135000   0.61966631   -4.6293593   -4.6293593   -3.9834402  0.057231254   -4.6293593    0.6459191   418189 
 2136000   0.62083653   -4.6304531   -4.6304531   -3.9833142   0.03329762   -4.6304531    0.6471389   418189 
 2137000   0.61969528   -4.6290274   -4.6290274   -3.9830781  0.040228172   -4.6290274    0.6459493   418189 
 2138000   0.62007799   -4.6297634   -4.6297634   -3.9834152  0.043743663   -4.6297634   0.64634822   418189 
 2139000   0.61990356   -4.6300636   -4.6300636   -3.9838972  0.045126646   -4.6300636    0.6461664   418189 
 2140000   0.62093174   -4.6309424   -4.6309424   -3.9837042  0.048758433   -4.6309424   0.64723815   418189 
 2141000   0.62011656   -4.6298108   -4.6298108   -3.9834223  0.018888073   -4.6298108   0.64638842   418189 
 2142000   0.62088822   -4.6311634   -4.6311634   -3.9839706  0.038481937   -4.6311634   0.64719277   418189 
 2143000   0.62070232   -4.6313723   -4.6313723   -3.9843733  0.041325379   -4.6313723     0.646999   418189 
 2144000   0.61979529   -4.6302605   -4.6302605    -3.984207  0.036343254   -4.6302605   0.64605355   418189 
 2145000   0.62012626   -4.6310158   -4.6310158   -3.9846173   0.02878314   -4.6310158   0.64639853   418189 
 2146000   0.62013953   -4.6306978   -4.6306978   -3.9842854  0.025439434   -4.6306978   0.64641237   418189 
 2147000   0.61914966   -4.6301269   -4.6301269   -3.9847463  0.030444544   -4.6301269   0.64538056   418189 
 2148000   0.61919351   -4.6305237   -4.6305237   -3.9850974  0.051612656   -4.6305237   0.64542627   418189 
 2149000   0.62064071   -4.6317269   -4.6317269   -3.9847921  0.051472318   -4.6317269   0.64693478   418189 
 2150000   0.62030128   -4.6312296   -4.6312296   -3.9846487  0.031978634   -4.6312296   0.64658097   418189 
 2151000    0.6196119   -4.6307709   -4.6307709   -3.9849085  0.032670728   -4.6307709   0.64586238   418189 
 2152000   0.61963628   -4.6311441   -4.6311441   -3.9852563  0.036400115   -4.6311441    0.6458878   418189 
 2153000   0.62128916   -4.6329879   -4.6329879   -3.9853772   0.03412838   -4.6329879   0.64761071   418189 
 2154000   0.62108972   -4.6316784   -4.6316784   -3.9842756  0.042679405   -4.6316784   0.64740281   418189 
 2155000   0.61876122    -4.629852    -4.629852   -3.9848763  0.037933105    -4.629852   0.64497566   418189 
 2156000   0.62044598   -4.6318089   -4.6318089   -3.9850771   0.04665792   -4.6318089    0.6467318   418189 
 2157000   0.61963858   -4.6307697   -4.6307697   -3.9848795  0.038986054   -4.6307697   0.64589019   418189 
 2158000   0.62048135   -4.6314385   -4.6314385   -3.9846698  0.032862129   -4.6314385   0.64676867   418189 
 2159000   0.62076534   -4.6325816   -4.6325816   -3.9855169   0.03859052   -4.6325816   0.64706469   418189 
 2160000   0.61990115   -4.6314303   -4.6314303   -3.9852664  0.040062554   -4.6314303   0.64616389   418189 
 2161000   0.62030793   -4.6319142   -4.6319142   -3.9853263   0.05258704   -4.6319142   0.64658791   418189 
 2162000   0.62007045   -4.6319742   -4.6319742   -3.9856339  0.045461465   -4.6319742   0.64634036   418189 
 2163000   0.62090509   -4.6323528   -4.6323528   -3.9851424  0.033071818   -4.6323528   0.64721036   418189 
 2164000   0.62062113   -4.6331635   -4.6331635   -3.9862492  0.043366917   -4.6331635   0.64691437   418189 
 2165000   0.62113195    -4.633304    -4.633304   -3.9858572  0.048181986    -4.633304   0.64744683   418189 
 2166000   0.62062617   -4.6328724   -4.6328724   -3.9859528  0.034871985   -4.6328724   0.64691963   418189 
 2167000   0.61955541   -4.6322559   -4.6322559   -3.9864524  0.028822389   -4.6322559   0.64580351   418189 
 2168000   0.62077348   -4.6337304   -4.6337304   -3.9866572  0.038562561   -4.6337304   0.64707318   418189 
 2169000    0.6199235   -4.6329361   -4.6329361   -3.9867489  0.038193828   -4.6329361   0.64618719   418189 
 2170000   0.61930166   -4.6326392   -4.6326392   -3.9871002  0.032250492   -4.6326392     0.645539   418189 
 2171000    0.6174139   -4.6312628   -4.6312628   -3.9876916  0.032977506   -4.6312628   0.64357126   418189 
 2172000   0.61985137   -4.6333165   -4.6333165   -3.9872045  0.029573526   -4.6333165     0.646112   418189 
 2173000   0.62036332   -4.6348409   -4.6348409   -3.9881953  0.045486451   -4.6348409   0.64664564   418189 
 2174000    0.6200954   -4.6343597   -4.6343597   -3.9879933  0.033220302   -4.6343597   0.64636637   418189 
 2175000   0.61945971   -4.6336206   -4.6336206   -3.9879168  0.029178838   -4.6336206   0.64570375   418189 
 2176000   0.61983751   -4.6342955   -4.6342955   -3.9881979  0.035066104   -4.6342955   0.64609755   418189 
 2177000   0.61992149   -4.6348411   -4.6348411    -3.988656   0.04188173   -4.6348411   0.64618509   418189 
 2178000   0.62096882   -4.6358693   -4.6358693   -3.9885925  0.043948221   -4.6358693   0.64727679   418189 
 2179000   0.62047799   -4.6362609   -4.6362609   -3.9894958  0.028874176   -4.6362609   0.64676516   418189 
 2180000   0.62014582   -4.6357948   -4.6357948   -3.9893759  0.043398348   -4.6357948   0.64641893   418189 
 2181000   0.61885997   -4.6351208   -4.6351208   -3.9900422  0.049026265   -4.6351208    0.6450786   418189 
 2182000   0.61977518   -4.6350056   -4.6350056   -3.9889731  0.035394642   -4.6350056   0.64603258   418189 
 2183000   0.62022982   -4.6352814   -4.6352814   -3.9887749   0.02641516   -4.6352814   0.64650648   418189 
 2184000   0.61898935   -4.6345508   -4.6345508   -3.9893373  0.051287383   -4.6345508   0.64521346   418189 
 2185000   0.61936752   -4.6352674   -4.6352674   -3.9896597  0.041497955   -4.6352674   0.64560765   418189 
 2186000   0.61980595   -4.6357759   -4.6357759   -3.9897113  0.032673948   -4.6357759   0.64606466   418189 
 2187000   0.62051575   -4.6365517   -4.6365517   -3.9897472  0.035764302   -4.6365517   0.64680453   418189 
 2188000   0.61875022    -4.634916    -4.634916   -3.9899518  0.012257367    -4.634916    0.6449642   418189 
 2189000   0.61846347   -4.6343663   -4.6343663    -3.989701  0.046838582   -4.6343663    0.6446653   418189 
 2190000   0.61938843   -4.6354593   -4.6354593   -3.9898298   0.04821886   -4.6354593   0.64562945   418189 
 2191000   0.61810866   -4.6336323   -4.6336323   -3.9893369  0.048593085   -4.6336323   0.64429546   418189 
 2192000    0.6197388   -4.6362322   -4.6362322   -3.9902375  0.050230371   -4.6362322   0.64599466   418189 
 2193000   0.61856568   -4.6348925   -4.6348925   -3.9901207  0.018678136   -4.6348925   0.64477184   418189 
 2194000    0.6184813   -4.6352048   -4.6352048   -3.9905209  0.038143577   -4.6352048   0.64468388   418189 
 2195000   0.61836258   -4.6346644   -4.6346644   -3.9901043  0.028581301   -4.6346644   0.64456013   418189 
 2196000   0.61830143   -4.6357375   -4.6357375   -3.9912411  0.030906874   -4.6357375   0.64449639   418189 
 2197000   0.61881798   -4.6360001   -4.6360001   -3.9909653  0.044373849   -4.6360001   0.64503483   418189 
 2198000   0.61789135   -4.6348869   -4.6348869    -3.990818  0.043428165   -4.6348869   0.64406894   418189 
 2199000   0.61880685    -4.635696    -4.635696   -3.9906728  0.038637011    -4.635696   0.64502323   418189 
 2200000   0.61888219   -4.6367211   -4.6367211   -3.9916194  0.031306644   -4.6367211   0.64510176   418189 
 2201000   0.61821798   -4.6355318   -4.6355318   -3.9911223  0.046940523   -4.6355318   0.64440942   418189 
 2202000   0.61953807   -4.6362732   -4.6362732   -3.9904878  0.032373078   -4.6362732   0.64578542   418189 
 2203000    0.6188181   -4.6353629   -4.6353629   -3.9903279  0.028164808   -4.6353629   0.64503496   418189 
 2204000   0.61945764   -4.6359553   -4.6359553   -3.9902537  0.043727071   -4.6359553   0.64570159   418189 
 2205000    0.6194979   -4.6353502   -4.6353502   -3.9896067  0.028721161   -4.6353502   0.64574356   418189 
 2206000    0.6183796   -4.6335319   -4.6335319    -3.988954  0.036191471   -4.6335319   0.64457788   418189 
 2207000   0.62105292   -4.6367465   -4.6367465    -3.989382  0.044340348   -4.6367465   0.64736445   418189 
 2208000   0.61920604   -4.6354351   -4.6354351   -3.9899958  0.041731674   -4.6354351   0.64543933   418189 
 2209000   0.61920009   -4.6363344   -4.6363344   -3.9909013  0.043575205   -4.6363344   0.64543313   418189 
 2210000   0.61964595   -4.6368335   -4.6368335   -3.9909356  0.040621407   -4.6368335   0.64589788   418189 
 2211000   0.62030733   -4.6366922   -4.6366922   -3.9901049  0.044305201   -4.6366922   0.64658728   418189 
 2212000   0.61950024   -4.6363839   -4.6363839   -3.9906379  0.033079573   -4.6363839     0.645746   418189 
 2213000   0.61972023   -4.6364443   -4.6364443    -3.990469  0.050947417   -4.6364443    0.6459753   418189 
 2214000   0.62070946   -4.6379719   -4.6379719   -3.9909655   0.03803578   -4.6379719   0.64700644   418189 
 2215000    0.6183786   -4.6361579   -4.6361579    -3.991581  0.039067666   -4.6361579   0.64457683   418189 
 2216000   0.61799145   -4.6358971   -4.6358971   -3.9917238  0.035149333   -4.6358971   0.64417328   418189 
 2217000   0.61845966   -4.6366173   -4.6366173    -3.991956  0.022691072   -4.6366173   0.64466133   418189 
 2218000   0.61805487   -4.6353188   -4.6353188   -3.9910794  0.046447994   -4.6353188   0.64423939   418189 
 2219000   0.61863428   -4.6367343   -4.6367343    -3.991891  0.039716928   -4.6367343   0.64484335   418189 
 2220000    0.6188762   -4.6373186   -4.6373186    -3.992223    0.0309157   -4.6373186   0.64509551   418189 
 2221000   0.61818878   -4.6365911   -4.6365911   -3.9922121  0.036385645   -4.6365911   0.64437897   418189 
 2222000   0.61805837   -4.6365317   -4.6365317   -3.9922887  0.036752227   -4.6365317   0.64424304   418189 
 2223000   0.61950053   -4.6374581   -4.6374581   -3.9917118  0.035274517   -4.6374581   0.64574629   418189 
 2224000    0.6194195   -4.6372015   -4.6372015   -3.9915397  0.042269836   -4.6372015   0.64566183   418189 
 2225000   0.61946865   -4.6373211   -4.6373211    -3.991608  0.036185776   -4.6373211   0.64571307   418189 
 2226000   0.61788412   -4.6366453   -4.6366453   -3.9925839  0.032582579   -4.6366453    0.6440614   418189 
 2227000   0.61818951   -4.6368152   -4.6368152   -3.9924354  0.039306511   -4.6368152   0.64437973   418189 
 2228000   0.61823927   -4.6360494   -4.6360494   -3.9916178  0.047033411   -4.6360494    0.6444316   418189 
 2229000   0.61900222   -4.6365638   -4.6365638   -3.9913369   0.05323629   -4.6365638   0.64522687   418189 
 2230000   0.61889307   -4.6368497   -4.6368497   -3.9917366  0.037021307   -4.6368497    0.6451131   418189 
 2231000   0.61916066   -4.6374594   -4.6374594   -3.9920674  0.031223104   -4.6374594   0.64539203   418189 
 2232000    0.6189945   -4.6373034   -4.6373034   -3.9920846  0.036437706   -4.6373034   0.64521882   418189 
 2233000    0.6165545   -4.6361464   -4.6361464   -3.9934709  0.029900565   -4.6361464   0.64267545   418189 
 2234000   0.61831452   -4.6376528   -4.6376528   -3.9931428  0.033995614   -4.6376528   0.64451004   418189 
 2235000   0.61944881   -4.6389509   -4.6389509   -3.9932585  0.047700866   -4.6389509   0.64569239   418189 
 2236000   0.61879081   -4.6386971   -4.6386971   -3.9936906  0.024378818   -4.6386971   0.64500651   418189 
 2237000   0.61880627   -4.6386962   -4.6386962   -3.9936736  0.041793812   -4.6386962   0.64502262   418189 
 2238000   0.61901791   -4.6393648   -4.6393648   -3.9941215  0.035070486   -4.6393648   0.64524323   418189 
 2239000   0.61859578   -4.6391214   -4.6391214   -3.9943182  0.026862966   -4.6391214   0.64480321   418189 
 2240000   0.61885096   -4.6391321   -4.6391321   -3.9940628  0.024539934   -4.6391321   0.64506921   418189 
 2241000   0.61913914   -4.6391748   -4.6391748   -3.9938052  0.043667076   -4.6391748   0.64536959   418189 
 2242000   0.61936905   -4.6398697   -4.6398697   -3.9942605  0.053693714   -4.6398697   0.64560925   418189 
 2243000   0.61772923    -4.638467    -4.638467    -3.994567  0.032109255    -4.638467   0.64389996   418189 
 2244000   0.61617771   -4.6371647   -4.6371647    -3.994882  0.046111787   -4.6371647    0.6422827   418189 
 2245000   0.61904531   -4.6393915   -4.6393915   -3.9941198  0.045682473   -4.6393915   0.64527179   418189 
 2246000    0.6187938   -4.6392206   -4.6392206    -3.994211  0.036090441   -4.6392206   0.64500962   418189 
 2247000   0.61973374   -4.6393364   -4.6393364    -3.993347  0.026318354   -4.6393364   0.64598939   418189 
 2248000   0.61932781   -4.6393135   -4.6393135   -3.9937472  0.036945174   -4.6393135   0.64556626   418189 
 2249000   0.61906102   -4.6397851   -4.6397851    -3.994497  0.030911233   -4.6397851   0.64528816   418189 
 2250000   0.61967141   -4.6400032   -4.6400032   -3.9940788  0.045791461   -4.6400032   0.64592442   418189 
 2251000   0.61966259   -4.6399494   -4.6399494   -3.9940342   0.03993275   -4.6399494   0.64591523   418189 
 2252000   0.61779229   -4.6385441   -4.6385441   -3.9945784  0.046462887   -4.6385441   0.64396568   418189 
 2253000   0.61812648   -4.6390124   -4.6390124   -3.9946984  0.049637507   -4.6390124   0.64431403   418189 
 2254000   0.61762746   -4.6392839   -4.6392839     -3.99549  0.040339283   -4.6392839   0.64379387   418189 
 2255000    0.6189498   -4.6410445   -4.6410445   -3.9958723  0.049660473   -4.6410445   0.64517224   418189 
 2256000   0.61794264   -4.6392371   -4.6392371   -3.9951147   0.03532645   -4.6392371   0.64412241   418189 
 2257000    0.6184979    -4.639718    -4.639718   -3.9950168  0.044790487    -4.639718   0.64470119   418189 
 2258000   0.61891156   -4.6402801   -4.6402801   -3.9951477  0.023429287   -4.6402801   0.64513238   418189 
 2259000   0.61860195   -4.6403156   -4.6403156   -3.9955059  0.048107185   -4.6403156   0.64480965   418189 
 2260000   0.61910745   -4.6411242   -4.6411242   -3.9957877  0.042531377   -4.6411242   0.64533656   418189 
 2261000   0.61853996   -4.6412482   -4.6412482   -3.9965031  0.040872579   -4.6412482   0.64474503   418189 
 2262000   0.61693633    -4.640094    -4.640094   -3.9970206   0.03951121    -4.640094   0.64307347   418189 
 2263000   0.61891522   -4.6417001   -4.6417001   -3.9965639   0.03319866   -4.6417001   0.64513619   418189 
 2264000   0.62036953   -4.6429761   -4.6429761    -3.996324  0.036421851   -4.6429761   0.64665211   418189 
 2265000   0.61791947   -4.6409645   -4.6409645   -3.9968663  0.040545386   -4.6409645   0.64409825   418189 
 2266000   0.61775581   -4.6409689   -4.6409689   -3.9970413  0.034492163   -4.6409689   0.64392766   418189 
 2267000   0.61754739   -4.6406724   -4.6406724    -3.996962  0.014713505   -4.6406724   0.64371041   418189 
 2268000   0.61660628   -4.6394869   -4.6394869   -3.9967575  0.030215857   -4.6394869   0.64272943   418189 
 2269000   0.61732292   -4.6402769   -4.6402769   -3.9968005  0.032583015   -4.6402769   0.64347643   418189 
 2270000   0.61801845   -4.6415756   -4.6415756   -3.9973742  0.030947152   -4.6415756   0.64420143   418189 
 2271000    0.6174715   -4.6400266   -4.6400266   -3.9963953  0.040350144   -4.6400266   0.64363131   418189 
 2272000    0.6177754   -4.6407982   -4.6407982   -3.9968501  0.030535322   -4.6407982   0.64394808   418189 
 2273000   0.61900787    -4.643364    -4.643364   -3.9981312  0.040609209    -4.643364   0.64523277   418189 
 2274000   0.61903505   -4.6429661   -4.6429661    -3.997705  0.056079334   -4.6429661    0.6452611   418189 
 2275000   0.61822133   -4.6423376   -4.6423376   -3.9979247  0.028792009   -4.6423376    0.6444129   418189 
 2276000   0.61870727   -4.6426282   -4.6426282   -3.9977088  0.038263365   -4.6426282   0.64491943   418189 
 2277000   0.61869629   -4.6430995   -4.6430995   -3.9981915  0.032503107   -4.6430995   0.64490799   418189 
 2278000    0.6186189   -4.6434436   -4.6434436   -3.9986163  0.050916675   -4.6434436   0.64482731   418189 
 2279000    0.6170607   -4.6420419   -4.6420419   -3.9988388  0.029760524   -4.6420419    0.6432031   418189 
 2280000   0.61817256   -4.6433055   -4.6433055   -3.9989435  0.028420816   -4.6433055   0.64436207   418189 
 2281000   0.61693061     -4.64215     -4.64215   -3.9990825   0.04364147     -4.64215    0.6430675   418189 
 2282000   0.61827428   -4.6431738   -4.6431738   -3.9987057  0.040438169   -4.6431738   0.64446809   418189 
 2283000   0.61720092   -4.6420997   -4.6420997   -3.9987504  0.043130238   -4.6420997   0.64334926   418189 
 2284000   0.61780574   -4.6433575   -4.6433575   -3.9993778  0.029625178   -4.6433575   0.64397971   418189 
 2285000   0.61686223   -4.6424744   -4.6424744   -3.9994782  0.046133898   -4.6424744   0.64299623   418189 
 2286000    0.6172685   -4.6430017   -4.6430017    -3.999582  0.025997033   -4.6430017    0.6434197   418189 
 2287000   0.61787289   -4.6431388   -4.6431388   -3.9990891  0.042172923   -4.6431388    0.6440497   418189 
 2288000   0.61695129   -4.6424747   -4.6424747   -3.9993856  0.047240458   -4.6424747   0.64308905   418189 
 2289000   0.61736805   -4.6429743   -4.6429743   -3.9994508  0.043665132   -4.6429743   0.64352348   418189 
 2290000    0.6168831   -4.6424591   -4.6424591   -3.9994411  0.030228365   -4.6424591   0.64301797   418189 
 2291000   0.61657984   -4.6419807   -4.6419807   -3.9992788  0.028043733   -4.6419807   0.64270186   418189 
 2292000   0.61666798   -4.6427649   -4.6427649   -3.9999711  0.020323168   -4.6427649   0.64279374   418189 
 2293000   0.61784059   -4.6435481   -4.6435481   -3.9995321  0.039183109   -4.6435481   0.64401603   418189 
 2294000   0.61837838   -4.6439033   -4.6439033   -3.9993267  0.028978029   -4.6439033    0.6445766   418189 
 2295000   0.61694009   -4.6423922   -4.6423922   -3.9993148  0.040481841   -4.6423922   0.64307738   418189 
 2296000    0.6167056   -4.6435966   -4.6435966   -4.0007637  0.038692203   -4.6435966   0.64283296   418189 
 2297000   0.61725269   -4.6435098   -4.6435098   -4.0001066  0.044342727   -4.6435098   0.64340322   418189 
 2298000   0.61847067   -4.6451158   -4.6451158    -4.000443  0.044553444   -4.6451158   0.64467281   418189 
 2299000   0.61799523   -4.6443449   -4.6443449   -4.0001677  0.038841138   -4.6443449   0.64417722   418189 
 2300000   0.61754399   -4.6441596   -4.6441596   -4.0004527   0.02434305   -4.6441596   0.64370686   418189 
 2301000   0.61648139   -4.6439638   -4.6439638   -4.0013646  0.036733439   -4.6439638   0.64259925   418189 
 2302000   0.61602864   -4.6430744   -4.6430744   -4.0009471  0.034701297   -4.6430744   0.64212732   418189 
 2303000   0.61652369   -4.6441249   -4.6441249   -4.0014815  0.027527166   -4.6441249   0.64264334   418189 
 2304000    0.6175623   -4.6444887   -4.6444887   -4.0007627  0.035396562   -4.6444887   0.64372595   418189 
 2305000   0.61651595   -4.6433354   -4.6433354   -4.0007001  0.028001593   -4.6433354   0.64263527   418189 
 2306000   0.61865916   -4.6460504   -4.6460504   -4.0011811  0.024513436   -4.6460504   0.64486928   418189 
 2307000   0.61733591   -4.6454212   -4.6454212   -4.0019312  0.033907845   -4.6454212   0.64348997   418189 
 2308000    0.6169773   -4.6448528   -4.6448528   -4.0017366  0.047378342   -4.6448528   0.64311617   418189 
 2309000   0.61770406     -4.64595     -4.64595   -4.0020763  0.040266141     -4.64595   0.64387372   418189 
 2310000   0.61781179   -4.6456437   -4.6456437   -4.0016577  0.048024123   -4.6456437   0.64398601   418189 
 2311000   0.61690233   -4.6449841   -4.6449841    -4.001946  0.044723484   -4.6449841   0.64303802   418189 
 2312000   0.61674809   -4.6446585   -4.6446585   -4.0017813  0.042215759   -4.6446585   0.64287725   418189 
 2313000   0.61676244   -4.6447851   -4.6447851   -4.0018929  0.038184805   -4.6447851   0.64289221   418189 
 2314000    0.6176561    -4.646791    -4.646791   -4.0029672  0.027290279    -4.646791   0.64382373   418189 
 2315000   0.61669292      -4.6454      -4.6454   -4.0025802  0.035436087      -4.6454   0.64281973   418189 
 2316000   0.61670672   -4.6459089   -4.6459089   -4.0030748  0.027278611   -4.6459089   0.64283412   418189 
 2317000   0.61584549   -4.6444377   -4.6444377   -4.0025013  0.035131813   -4.6444377   0.64193641   418189 
 2318000   0.61629005   -4.6453659   -4.6453659   -4.0029661  0.039542803   -4.6453659    0.6423998   418189 
 2319000   0.61772721   -4.6475231   -4.6475231   -4.0036253  0.035786953   -4.6475231   0.64389784   418189 
 2320000   0.61658287   -4.6465303   -4.6465303   -4.0038253  0.029599489   -4.6465303   0.64270502   418189 
 2321000   0.61976818   -4.6485586   -4.6485586   -4.0025333  0.038476019   -4.6485586   0.64602528   418189 
 2322000   0.61735271   -4.6453151   -4.6453151   -4.0018076  0.039553207   -4.6453151   0.64350748   418189 
 2323000   0.61644988   -4.6452619   -4.6452619   -4.0026955  0.025568968   -4.6452619    0.6425664   418189 
 2324000   0.61712667   -4.6464162   -4.6464162   -4.0031444  0.041452274   -4.6464162   0.64327186   418189 
 2325000   0.61745609   -4.6464559   -4.6464559   -4.0028406  0.032327606   -4.6464559   0.64361524   418189 
 2326000   0.61797336   -4.6469138   -4.6469138   -4.0027593  0.031102229   -4.6469138   0.64415442   418189 
 2327000    0.6176985   -4.6468825   -4.6468825   -4.0030146  0.024495584   -4.6468825   0.64386792   418189 
 2328000   0.61739649   -4.6467567   -4.6467567   -4.0032035  0.029973974   -4.6467567   0.64355312   418189 
 2329000   0.61557369   -4.6452719   -4.6452719   -4.0036188    0.0229136   -4.6452719   0.64165309   418189 
 2330000   0.61683347   -4.6459861   -4.6459861   -4.0030199   0.03136495   -4.6459861   0.64296624   418189 
 2331000   0.61719761   -4.6464566   -4.6464566   -4.0031107  0.026146978   -4.6464566   0.64334581   418189 
 2332000   0.61657397   -4.6461538   -4.6461538    -4.003458  0.040270592   -4.6461538   0.64269575   418189 
 2333000   0.61605642   -4.6456757   -4.6456757   -4.0035194  0.037779941   -4.6456757   0.64215627   418189 
 2334000   0.61643006   -4.6457197   -4.6457197   -4.0031739  0.036364389   -4.6457197   0.64254575   418189 
 2335000   0.61723412   -4.6465124   -4.6465124   -4.0031286  0.039374894   -4.6465124   0.64338387   418189 
 2336000   0.61772289   -4.6474584   -4.6474584   -4.0035651  0.042975302   -4.6474584   0.64389334   418189 
 2337000   0.61670876   -4.6463041   -4.6463041   -4.0034679    0.0478428   -4.6463041   0.64283625   418189 
 2338000   0.61736318   -4.6464802   -4.6464802   -4.0029618  0.036528878   -4.6464802   0.64351839   418189 
 2339000   0.61720766   -4.6462996   -4.6462996   -4.0029433  0.023477324   -4.6462996   0.64335628   418189 
 2340000   0.61752978   -4.6472473   -4.6472473   -4.0035553  0.032116597   -4.6472473   0.64369205   418189 
 2341000   0.61708054   -4.6471637   -4.6471637   -4.0039399  0.029741723   -4.6471637   0.64322378   418189 
 2342000   0.61779169   -4.6474645   -4.6474645   -4.0034994  0.035704698   -4.6474645   0.64396506   418189 
 2343000   0.61748608   -4.6473272   -4.6473272   -4.0036807  0.045677075   -4.6473272   0.64364651   418189 
 2344000   0.61630478   -4.6468182   -4.6468182    -4.004403  0.040691702   -4.6468182   0.64241516   418189 
 2345000   0.61763658   -4.6483804   -4.6483804    -4.004577  0.023825705   -4.6483804   0.64380338   418189 
 2346000   0.61822997   -4.6488725   -4.6488725   -4.0044506  0.026527662   -4.6488725   0.64442191   418189 
 2347000   0.61595062   -4.6467253   -4.6467253   -4.0046793  0.040420942   -4.6467253   0.64204599   418189 
 2348000   0.61686488   -4.6467393   -4.6467393   -4.0037403  0.027138907   -4.6467393   0.64299899   418189 
 2349000   0.61751272    -4.648676    -4.648676   -4.0050018  0.025053787    -4.648676   0.64367427   418189 
 2350000   0.61759056   -4.6489872   -4.6489872   -4.0052318  0.042670047   -4.6489872   0.64375541   418189 
 2351000   0.61785745   -4.6488889   -4.6488889   -4.0048553  0.022149176   -4.6488889    0.6440336   418189 
 2352000   0.61672088   -4.6479019   -4.6479019    -4.005053  0.036494873   -4.6479019   0.64284888   418189 
 2353000   0.61661295   -4.6480625   -4.6480625   -4.0053261  0.038146362   -4.6480625   0.64273638   418189 
 2354000   0.61680669   -4.6477085   -4.6477085   -4.0047702  0.029856386   -4.6477085   0.64293833   418189 
 2355000   0.61696708   -4.6477647   -4.6477647   -4.0046592  0.029619684   -4.6477647   0.64310552   418189 
 2356000   0.61661808    -4.647718    -4.647718   -4.0049763  0.026470163    -4.647718   0.64274173   418189 
 2357000   0.61668568   -4.6482795   -4.6482795   -4.0054673   0.02894118   -4.6482795    0.6428122   418189 
 2358000   0.61650721   -4.6488391   -4.6488391    -4.006213  0.030759187   -4.6488391   0.64262616   418189 
 2359000   0.61580215   -4.6483133   -4.6483133    -4.006422  0.035795873   -4.6483133   0.64189123   418189 
 2360000   0.61614592    -4.648775    -4.648775   -4.0065254  0.035353087    -4.648775   0.64224956   418189 
 2361000   0.61732028   -4.6494027   -4.6494027   -4.0059291   0.03588606   -4.6494027   0.64347368   418189 
 2362000    0.6159112   -4.6479187   -4.6479187   -4.0059138    0.0197534   -4.6479187    0.6420049   418189 
 2363000    0.6150718   -4.6470931   -4.6470931   -4.0059631  0.017379798   -4.6470931   0.64112994   418189 
 2364000   0.61637563   -4.6490779   -4.6490779   -4.0065888  0.027508056   -4.6490779     0.642489   418189 
 2365000   0.61684873   -4.6490548   -4.6490548   -4.0060726  0.039552525   -4.6490548   0.64298215   418189 
 2366000   0.61633942   -4.6484781   -4.6484781   -4.0060269  0.047531078   -4.6484781   0.64245127   418189 
 2367000   0.61806375    -4.650501    -4.650501   -4.0062523  0.042311216    -4.650501   0.64424864   418189 
 2368000   0.61675374   -4.6503825   -4.6503825   -4.0074994 0.0085825586   -4.6503825   0.64288314   418189 
 2369000   0.61821796   -4.6512615   -4.6512615   -4.0068521  0.032102769   -4.6512615   0.64440939   418189 
 2370000   0.61557035   -4.6494406   -4.6494406   -4.0077909  0.021633078   -4.6494406   0.64164961   418189 
 2371000   0.61546548   -4.6493988   -4.6493988   -4.0078585  0.033397253   -4.6493988    0.6415403   418189 
 2372000   0.61612035   -4.6500115   -4.6500115   -4.0077886  0.034849053   -4.6500115   0.64222291   418189 
 2373000   0.61653014   -4.6501714   -4.6501714   -4.0075214  0.025709076   -4.6501714   0.64265006   418189 
 2374000   0.61697034   -4.6507876   -4.6507876   -4.0076786  0.049494918   -4.6507876   0.64310892   418189 
 2375000   0.61506518   -4.6491766   -4.6491766   -4.0080536  0.035129413   -4.6491766   0.64112304   418189 
 2376000   0.61574394    -4.650013    -4.650013   -4.0081825  0.030762628    -4.650013   0.64183055   418189 
 2377000   0.61578229   -4.6496253   -4.6496253   -4.0077547   0.03688024   -4.6496253   0.64187053   418189 
 2378000   0.61574951   -4.6499659   -4.6499659   -4.0081295  0.026140768   -4.6499659   0.64183636   418189 
 2379000   0.61620901   -4.6507581   -4.6507581   -4.0084428  0.043239817   -4.6507581   0.64231533   418189 
 2380000   0.61497873   -4.6487689   -4.6487689   -4.0077359  0.017150292   -4.6487689   0.64103292   418189 
 2381000   0.61643273   -4.6500768   -4.6500768   -4.0075283  0.032668566   -4.6500768   0.64254853   418189 
 2382000   0.61760258   -4.6514883   -4.6514883   -4.0077204  0.058031121   -4.6514883   0.64376793   418189 
 2383000   0.61541971   -4.6500223   -4.6500223   -4.0085297  0.030096478   -4.6500223   0.64149259   418189 
 2384000   0.61593825   -4.6512815   -4.6512815   -4.0092484  0.040498603   -4.6512815    0.6420331   418189 
 2385000    0.6153031   -4.6508947   -4.6508947   -4.0095237   0.02689218   -4.6508947   0.64137104   418189 
 2386000   0.61696104   -4.6519004   -4.6519004   -4.0088012  0.029772659   -4.6519004   0.64309922   418189 
 2387000   0.61687541   -4.6525084   -4.6525084   -4.0094984  0.041612775   -4.6525084   0.64300996   418189 
 2388000   0.61577854   -4.6507007   -4.6507007   -4.0088341  0.030812889   -4.6507007   0.64186662   418189 
 2389000    0.6163712   -4.6513246   -4.6513246   -4.0088402  0.020223355   -4.6513246   0.64248439   418189 
 2390000   0.61557235   -4.6509437   -4.6509437    -4.009292  0.037286852   -4.6509437   0.64165169   418189 
 2391000    0.6151441   -4.6507337   -4.6507337   -4.0095284  0.048268725   -4.6507337    0.6412053   418189 
 2392000   0.61499518   -4.6507788   -4.6507788   -4.0097287   0.03540393   -4.6507788   0.64105008   418189 
 2393000   0.61498193   -4.6522258   -4.6522258   -4.0111895  0.031131564   -4.6522258   0.64103626   418189 
 2394000   0.61623911   -4.6533639   -4.6533639   -4.0110172   0.03675516   -4.6533639   0.64234671   418189 
 2395000   0.61497651    -4.652175    -4.652175   -4.0111444  0.049031941    -4.652175   0.64103062   418189 
 2396000   0.61439826   -4.6503924   -4.6503924   -4.0099646  0.030579538   -4.6503924   0.64042787   418189 
 2397000   0.61576321   -4.6517275   -4.6517275   -4.0098768  0.033715784   -4.6517275   0.64185065   418189 
 2398000   0.61527894   -4.6512838   -4.6512838    -4.009938  0.026700224   -4.6512838   0.64134585   418189 
 2399000   0.61600328   -4.6516646   -4.6516646   -4.0095637  0.030957705   -4.6516646   0.64210088   418189 
 2400000   0.61639634   -4.6519058   -4.6519058   -4.0093952  0.030658106   -4.6519058   0.64251059   418189 
 2401000   0.61562789   -4.6517369   -4.6517369   -4.0100273  0.028388897   -4.6517369   0.64170959   418189 
 2402000   0.61586874   -4.6525346   -4.6525346    -4.010574  0.041030306   -4.6525346   0.64196064   418189 
 2403000   0.61597913   -4.6517145   -4.6517145   -4.0096388  0.038031089   -4.6517145   0.64207571   418189 
 2404000   0.61658144   -4.6531257   -4.6531257   -4.0104222  0.034652194   -4.6531257   0.64270353   418189 
 2405000   0.61614439   -4.6527233   -4.6527233   -4.0104753  0.027481044   -4.6527233   0.64224797   418189 
 2406000    0.6164499   -4.6522162   -4.6522162   -4.0096497  0.049443754   -4.6522162   0.64256642   418189 
 2407000   0.61572605   -4.6519495   -4.6519495   -4.0101376  0.036983642   -4.6519495    0.6418119   418189 
 2408000   0.61755071    -4.653807    -4.653807   -4.0100931  0.030581348    -4.653807   0.64371387   418189 
 2409000    0.6145814    -4.650691    -4.650691   -4.0100723  0.053546412    -4.650691   0.64061876   418189 
 2410000   0.61602376   -4.6519352   -4.6519352    -4.009813  0.023168304   -4.6519352   0.64212223   418189 
 2411000   0.61618247   -4.6524984   -4.6524984   -4.0102108  0.026109268   -4.6524984   0.64228767   418189 
 2412000   0.61522364   -4.6518778   -4.6518778   -4.0105896  0.043898047   -4.6518778   0.64128822   418189 
 2413000    0.6159647   -4.6536447   -4.6536447   -4.0115841   0.03301871   -4.6536447   0.64206067   418189 
 2414000   0.61700085   -4.6535633   -4.6535633   -4.0104226  0.041676064   -4.6535633   0.64314071   418189 
 2415000   0.61510472   -4.6517782   -4.6517782    -4.010614  0.046530119   -4.6517782   0.64116425   418189 
 2416000   0.61685963   -4.6532515   -4.6532515    -4.010258  0.033298974   -4.6532515   0.64299351   418189 
 2417000   0.61600122   -4.6529033   -4.6529033   -4.0108046  0.039668746   -4.6529033   0.64209874   418189 
 2418000    0.6155439   -4.6529514   -4.6529514   -4.0113294  0.027220025   -4.6529514   0.64162204   418189 
 2419000   0.61449946   -4.6521725   -4.6521725   -4.0116391  0.033478411   -4.6521725   0.64053335   418189 
 2420000   0.61504757   -4.6524239   -4.6524239   -4.0113192  0.032985841   -4.6524239   0.64110468   418189 
 2421000   0.61581283   -4.6536945   -4.6536945   -4.0117921   0.03582818   -4.6536945   0.64190237   418189 
 2422000   0.61561778   -4.6531402   -4.6531402   -4.0114411  0.037537378   -4.6531402   0.64169905   418189 
 2423000   0.61622368   -4.6538292   -4.6538292   -4.0114986  0.042303611   -4.6538292   0.64233062   418189 
 2424000    0.6157093   -4.6534345   -4.6534345     -4.01164  0.039632953   -4.6534345   0.64179444   418189 
 2425000   0.61530306   -4.6535056   -4.6535056   -4.0121346  0.041956115   -4.6535056     0.641371   418189 
 2426000   0.61490652   -4.6524717   -4.6524717   -4.0115141  0.041703516   -4.6524717   0.64095765   418189 
 2427000   0.61499902   -4.6535703   -4.6535703   -4.0125163  0.026283867   -4.6535703   0.64105407   418189 
 2428000   0.61331165   -4.6523359   -4.6523359   -4.0130407  0.028936059   -4.6523359   0.63929522   418189 
 2429000   0.61555824   -4.6549419   -4.6549419   -4.0133049  0.034448186   -4.6549419   0.64163699   418189 
 2430000   0.61509283   -4.6541741   -4.6541741   -4.0130223  0.030190116   -4.6541741   0.64115186   418189 
 2431000   0.61570153   -4.6547404   -4.6547404    -4.012954  0.030752611   -4.6547404   0.64178635   418189 
 2432000   0.61541464   -4.6549675   -4.6549675   -4.0134802  0.027641845   -4.6549675   0.64148731   418189 
 2433000   0.61362701   -4.6535992   -4.6535992   -4.0139753  0.040874068   -4.6535992   0.63962394   418189 
 2434000   0.61393075   -4.6535604   -4.6535604   -4.0136198  0.027694213   -4.6535604   0.63994055   418189 
 2435000   0.61376693   -4.6538218   -4.6538218    -4.014052  0.031040163   -4.6538218   0.63976979   418189 
 2436000   0.61589603   -4.6553422   -4.6553422   -4.0133531  0.046697144   -4.6553422   0.64198909   418189 
 2437000    0.6141033   -4.6540696   -4.6540696   -4.0139492   0.02826665   -4.6540696   0.64012041   418189 
 2438000   0.61501372   -4.6545192   -4.6545192   -4.0134498   0.04004924   -4.6545192    0.6410694   418189 
 2439000   0.61387507   -4.6527296   -4.6527296   -4.0128471  0.020207324   -4.6527296   0.63988251   418189 
 2440000   0.61536768      -4.6546      -4.6546   -4.0131616  0.022488572      -4.6546   0.64143835   418189 
 2441000   0.61328082   -4.6532239   -4.6532239   -4.0139608  0.031444057   -4.6532239   0.63926309   418189 
 2442000    0.6156796   -4.6549226   -4.6549226   -4.0131591  0.049123216   -4.6549226   0.64176349   418189 
 2443000   0.61491103   -4.6542759   -4.6542759   -4.0133136  0.035271306   -4.6542759   0.64096236   418189 
 2444000   0.61574911   -4.6552401   -4.6552401   -4.0134041  0.036991049   -4.6552401   0.64183595   418189 
 2445000   0.61414545   -4.6541049   -4.6541049   -4.0139406  0.041379364   -4.6541049   0.64016434   418189 
 2446000   0.61489294    -4.654509    -4.654509   -4.0135654  0.038258715    -4.654509   0.64094351   418189 
 2447000   0.61318767   -4.6523273   -4.6523273   -4.0131614  0.037704539   -4.6523273   0.63916599   418189 
 2448000   0.61545291   -4.6547769   -4.6547769   -4.0132497  0.027449438   -4.6547769   0.64152719   418189 
 2449000   0.61553764   -4.6546407   -4.6546407   -4.0130251   0.04050903   -4.6546407   0.64161551   418189 
 2450000    0.6143063   -4.6544998   -4.6544998   -4.0141678  0.032501172   -4.6544998   0.64033201   418189 
 2451000   0.61502084   -4.6551137   -4.6551137   -4.0140369  0.044614399   -4.6551137   0.64107682   418189 
 2452000   0.61358613   -4.6537824   -4.6537824   -4.0142011  0.036825941   -4.6537824   0.63958133   418189 
 2453000   0.61481686   -4.6551493   -4.6551493   -4.0142851  0.040463218   -4.6551493    0.6408642   418189 
 2454000   0.61585726   -4.6562716   -4.6562716   -4.0143229   0.02953804   -4.6562716   0.64194868   418189 
 2455000   0.61552703   -4.6562584   -4.6562584    -4.014654  0.035442165   -4.6562584   0.64160445   418189 
 2456000   0.61577676   -4.6557127   -4.6557127    -4.013848  0.036407801   -4.6557127   0.64186476   418189 
 2457000   0.61438735   -4.6542043   -4.6542043   -4.0137878  0.043535359   -4.6542043   0.64041649   418189 
 2458000   0.61551293   -4.6556591   -4.6556591   -4.0140693  0.046542804   -4.6556591   0.64158976   418189 
 2459000   0.61582675   -4.6570643   -4.6570643   -4.0151474  0.035994302   -4.6570643   0.64191688   418189 
 2460000   0.61496061    -4.656254    -4.656254     -4.01524  0.024292066    -4.656254   0.64101404   418189 
 2461000   0.61546783   -4.6560785   -4.6560785   -4.0145358  0.028576911   -4.6560785   0.64154275   418189 
 2462000   0.61583072    -4.656145    -4.656145    -4.014224  0.015907015    -4.656145   0.64192101   418189 
 2463000   0.61584252   -4.6559967   -4.6559967   -4.0140633  0.043556029   -4.6559967   0.64193331   418189 
 2464000   0.61594051   -4.6559586   -4.6559586   -4.0139232  0.046554008   -4.6559586   0.64203546   418189 
 2465000   0.61583222   -4.6560589   -4.6560589   -4.0141363  0.043466635   -4.6560589   0.64192257   418189 
 2466000   0.61652823   -4.6568642   -4.6568642   -4.0142161  0.034159905   -4.6568642   0.64264808   418189 
 2467000   0.61626979   -4.6574088   -4.6574088   -4.0150301  0.043273918   -4.6574088   0.64237868   418189 
 2468000   0.61703027   -4.6583755   -4.6583755   -4.0152041  0.028840488   -4.6583755   0.64317138   418189 
 2469000   0.61562361    -4.657334    -4.657334   -4.0156288   0.03575499    -4.657334   0.64170513   418189 
 2470000    0.6158832   -4.6582597   -4.6582597    -4.016284  0.046532283   -4.6582597   0.64197571   418189 
 2471000   0.61439327   -4.6562772   -4.6562772   -4.0158545  0.029257339   -4.6562772   0.64042266   418189 
 2472000   0.61498629   -4.6568031   -4.6568031   -4.0157623  0.032408429   -4.6568031    0.6410408   418189 
 2473000   0.61542061   -4.6566989   -4.6566989   -4.0152054  0.038176267   -4.6566989   0.64149353   418189 
 2474000   0.61449911   -4.6562653   -4.6562653   -4.0157323  0.041775754   -4.6562653   0.64053299   418189 
 2475000   0.61491704   -4.6569126   -4.6569126    -4.015944   0.03746082   -4.6569126   0.64096863   418189 
 2476000   0.61479209   -4.6568899   -4.6568899   -4.0160516  0.030078958   -4.6568899   0.64083838   418189 
 2477000   0.61564956   -4.6570874   -4.6570874   -4.0153552  0.038924929   -4.6570874   0.64173218   418189 
 2478000   0.61572276   -4.6571672   -4.6571672   -4.0153587  0.043551099   -4.6571672   0.64180847   418189 
 2479000   0.61596198   -4.6576516   -4.6576516   -4.0155937  0.021851144   -4.6576516   0.64205783   418189 
 2480000   0.61661162   -4.6582081   -4.6582081   -4.0154731  0.043106387   -4.6582081   0.64273499   418189 
 2481000   0.61632893   -4.6579265   -4.6579265   -4.0154862   0.03555034   -4.6579265   0.64244032   418189 
 2482000   0.61434375   -4.6557579   -4.6557579   -4.0153869  0.015149574   -4.6557579   0.64037105   418189 
 2483000   0.61508047   -4.6572098   -4.6572098   -4.0160708  0.037469452   -4.6572098   0.64113898   418189 
 2484000   0.61487746   -4.6581135   -4.6581135   -4.0171862  0.032498539   -4.6581135   0.64092737   418189 
 2485000   0.61484913   -4.6573975   -4.6573975   -4.0164996  0.034473135   -4.6573975   0.64089784   418189 
 2486000    0.6145036   -4.6577144   -4.6577144   -4.0171767  0.028047919   -4.6577144   0.64053766   418189 
 2487000   0.61479971   -4.6582639   -4.6582639   -4.0174176  0.046659318   -4.6582639   0.64084632   418189 
 2488000     0.614116   -4.6575556   -4.6575556   -4.0174219  0.039561761   -4.6575556   0.64013365   418189 
 2489000   0.61443609   -4.6575793   -4.6575793    -4.017112  0.038436061   -4.6575793    0.6404673   418189 
 2490000   0.61541591    -4.659576    -4.659576   -4.0180874  0.036654584    -4.659576   0.64148863   418189 
 2491000   0.61498686   -4.6584254   -4.6584254    -4.017384  0.028116012   -4.6584254    0.6410414   418189 
 2492000   0.61468024   -4.6585708   -4.6585708    -4.017849  0.034120013   -4.6585708   0.64072179   418189 
 2493000   0.61549939   -4.6589528   -4.6589528   -4.0173771  0.048811526   -4.6589528   0.64157565   418189 
 2494000   0.61577597   -4.6597792   -4.6597792   -4.0179153  0.040619499   -4.6597792   0.64186395   418189 
 2495000   0.61471985   -4.6584859   -4.6584859   -4.0177228  0.031275097   -4.6584859   0.64076308   418189 
 2496000   0.61537659   -4.6596571   -4.6596571   -4.0182095  0.054429217   -4.6596571   0.64144764   418189 
 2497000   0.61384829   -4.6589546   -4.6589546      -4.0191  0.031754184   -4.6589546   0.63985459   418189 
 2498000   0.61510584   -4.6596931   -4.6596931   -4.0185277  0.019003023   -4.6596931   0.64116542   418189 
 2499000    0.6153165    -4.660273    -4.660273    -4.018888  0.025885271    -4.660273   0.64138501   418189 
 2500000   0.61480518    -4.659787    -4.659787    -4.018935  0.019378229    -4.659787   0.64085202   418189 
 2501000   0.61555546   -4.6604454   -4.6604454   -4.0188113  0.034576403   -4.6604454   0.64163409   418189 
 2502000   0.61464042   -4.6599786   -4.6599786   -4.0192983  0.018191846   -4.6599786   0.64068028   418189 
 2503000   0.61516646    -4.660518    -4.660518   -4.0192894  0.033465658    -4.660518    0.6412286   418189 
 2504000   0.61562817   -4.6610189   -4.6610189   -4.0193091  0.031944769   -4.6610189   0.64170988   418189 
 2505000   0.61524721   -4.6608137   -4.6608137   -4.0195009  0.037957284   -4.6608137   0.64131278   418189 
 2506000   0.61514386    -4.660339    -4.660339   -4.0191339  0.018536886    -4.660339   0.64120506   418189 
 2507000   0.61524992   -4.6598467   -4.6598467   -4.0185311  0.033936754   -4.6598467    0.6413156   418189 
 2508000   0.61472144    -4.658976    -4.658976   -4.0182112  0.029185839    -4.658976   0.64076474   418189 
 2509000    0.6144503   -4.6594395   -4.6594395   -4.0189574  0.033193762   -4.6594395   0.64048211   418189 
 2510000   0.61493514   -4.6594768   -4.6594768   -4.0184894  0.034737443   -4.6594768   0.64098749   418189 
 2511000   0.61477247   -4.6592003   -4.6592003   -4.0183823  0.022803258   -4.6592003   0.64081793   418189 
 2512000   0.61460183   -4.6597236   -4.6597236   -4.0190835  0.038665333   -4.6597236   0.64064005   418189 
 2513000    0.6141775   -4.6593804   -4.6593804   -4.0191827  0.036605029   -4.6593804   0.64019775   418189 
 2514000   0.61431268   -4.6596672   -4.6596672   -4.0193285  0.034818658   -4.6596672   0.64033865   418189 
 2515000   0.61415942   -4.6595617   -4.6595617   -4.0193828  0.046296029   -4.6595617   0.64017891   418189 
 2516000   0.61399837        -4.66        -4.66    -4.019989  0.030952685        -4.66   0.64001103   418189 
 2517000   0.61398348   -4.6599944   -4.6599944   -4.0199989  0.033820922   -4.6599944   0.63999551   418189 
 2518000   0.61460501    -4.660367    -4.660367   -4.0197236  0.033165948    -4.660367   0.64064338   418189 
 2519000    0.6150984   -4.6603301   -4.6603301   -4.0191725  0.034121354   -4.6603301   0.64115767   418189 
 2520000   0.61381943   -4.6583358   -4.6583358   -4.0185113  0.037495048   -4.6583358   0.63982451   418189 
 2521000   0.61423306   -4.6601394   -4.6601394   -4.0198837  0.049268833   -4.6601394   0.64025567   418189 
 2522000   0.61333876   -4.6596834   -4.6596834   -4.0203599  0.037541087   -4.6596834   0.63932347   418189 
 2523000   0.61375168   -4.6594925   -4.6594925   -4.0197386  0.043940757   -4.6594925   0.63975389   418189 
 2524000   0.61412153   -4.6601384   -4.6601384    -4.019999  0.043594842   -4.6601384   0.64013941   418189 
 2525000    0.6150836   -4.6611474   -4.6611474   -4.0200051  0.025328585   -4.6611474   0.64114224   418189 
 2526000   0.61599939   -4.6611789   -4.6611789   -4.0190821  0.038398283   -4.6611789   0.64209682   418189 
 2527000   0.61540891    -4.661222    -4.661222   -4.0197406  0.023434681    -4.661222   0.64148133   418189 
 2528000   0.61435977    -4.660615    -4.660615   -4.0202273  0.034979194    -4.660615   0.64038774   418189 
 2529000   0.61421505    -4.659863    -4.659863   -4.0196261  0.035210794    -4.659863    0.6402369   418189 
 2530000   0.61431925   -4.6598743   -4.6598743   -4.0195288  0.029734339   -4.6598743   0.64034551   418189 
 2531000   0.61422995   -4.6608297   -4.6608297   -4.0205773  0.029552513   -4.6608297   0.64025242   418189 
 2532000   0.61474109   -4.6612587   -4.6612587   -4.0204735  0.025095631   -4.6612587   0.64078521   418189 
 2533000   0.61438857   -4.6604378   -4.6604378   -4.0200201  0.018205345   -4.6604378   0.64041777   418189 
 2534000   0.61442206    -4.660074    -4.660074   -4.0196213  0.025468194    -4.660074   0.64045267   418189 
 2535000   0.61523686   -4.6611736   -4.6611736   -4.0198716  0.028045605   -4.6611736     0.641302   418189 
 2536000   0.61349336   -4.6599847   -4.6599847   -4.0205001  0.037302969   -4.6599847   0.63948462   418189 
 2537000   0.61500743   -4.6610018   -4.6610018    -4.019939  0.041547577   -4.6610018   0.64106284   418189 
 2538000   0.61417818   -4.6603616   -4.6603616   -4.0201631  0.041521096   -4.6603616   0.64019846   418189 
 2539000    0.6137272   -4.6598612   -4.6598612   -4.0201328  0.019000389   -4.6598612   0.63972838   418189 
 2540000   0.61287831   -4.6582599   -4.6582599   -4.0194163  0.026284288   -4.6582599   0.63884352   418189 
 2541000   0.61424597   -4.6602216   -4.6602216   -4.0199525  0.029503419   -4.6602216   0.64026912   418189 
 2542000   0.61453793   -4.6605299   -4.6605299   -4.0199564  0.026122276   -4.6605299   0.64057345   418189 
 2543000   0.61379054    -4.660044    -4.660044   -4.0202496  0.039566238    -4.660044    0.6397944   418189 
 2544000   0.61533308   -4.6609069   -4.6609069   -4.0195046  0.030989878   -4.6609069   0.64140228   418189 
 2545000   0.61473387   -4.6612734   -4.6612734   -4.0204957  0.044552741   -4.6612734    0.6407777   418189 
 2546000   0.61367072   -4.6604823   -4.6604823   -4.0208128  0.052032664   -4.6604823    0.6396695   418189 
 2547000   0.61397305   -4.6602111   -4.6602111   -4.0202264  0.045945729   -4.6602111   0.63998464   418189 
 2548000   0.61466792   -4.6611048   -4.6611048   -4.0203958   0.04091397   -4.6611048   0.64070895   418189 
 2549000   0.61507754   -4.6621502   -4.6621502   -4.0210143  0.044415483   -4.6621502   0.64113592   418189 
 2550000    0.6143968    -4.661485    -4.661485   -4.0210587  0.040587233    -4.661485   0.64042635   418189 
 2551000   0.61488793   -4.6617868   -4.6617868   -4.0208485  0.032434662   -4.6617868   0.64093828   418189 
 2552000   0.61367605   -4.6606943   -4.6606943   -4.0210193  0.038958824   -4.6606943   0.63967505   418189 
 2553000   0.61515788   -4.6629564   -4.6629564   -4.0217368  0.047966065   -4.6629564   0.64121967   418189 
 2554000   0.61457726   -4.6612184   -4.6612184   -4.0206039  0.031561327   -4.6612184   0.64061445   418189 
 2555000   0.61689695   -4.6630625   -4.6630625   -4.0200301  0.023685244   -4.6630625   0.64303241   418189 
 2556000   0.61326395   -4.6589866   -4.6589866   -4.0197411  0.036976744   -4.6589866   0.63924549   418189 
 2557000   0.61426601    -4.660581    -4.660581    -4.020291  0.037741462    -4.660581   0.64029001   418189 
 2558000   0.61477214   -4.6609576   -4.6609576     -4.02014  0.031588096   -4.6609576   0.64081758   418189 
 2559000   0.61585805   -4.6623928   -4.6623928   -4.0204433  0.033448665   -4.6623928    0.6419495   418189 
 2560000   0.61423136   -4.6611198   -4.6611198   -4.0208659  0.026341902   -4.6611198   0.64025389   418189 
 2561000   0.61368452    -4.660769    -4.660769   -4.0210851   0.02236104    -4.660769   0.63968389   418189 
 2562000   0.61461656   -4.6622569   -4.6622569   -4.0216015  0.026703185   -4.6622569   0.64065541   418189 
 2563000    0.6144713   -4.6615821   -4.6615821   -4.0210781  0.040921463   -4.6615821   0.64050399   418189 
 2564000    0.6139511   -4.6615714   -4.6615714   -4.0216096  0.042163529   -4.6615714   0.63996176   418189 
 2565000   0.61345409    -4.661786    -4.661786   -4.0223423  0.022709493    -4.661786   0.63944369   418189 
 2566000    0.6137712    -4.662841    -4.662841   -4.0230668    0.0283134    -4.662841   0.63977424   418189 
 2567000   0.61373002   -4.6622641   -4.6622641   -4.0225328  0.037867056   -4.6622641   0.63973131   418189 
 2568000   0.61411852   -4.6628602   -4.6628602   -4.0227239  0.029991196   -4.6628602   0.64013627   418189 
 2569000   0.61473041   -4.6627289   -4.6627289   -4.0219548  0.043240109   -4.6627289   0.64077409   418189 
 2570000   0.61549243   -4.6641373   -4.6641373   -4.0225689  0.017119196   -4.6641373   0.64156839   418189 
 2571000   0.61536869   -4.6631984   -4.6631984    -4.021759  0.028726802   -4.6631984   0.64143941   418189 
 2572000   0.61370671    -4.662168    -4.662168    -4.022461   0.02686923    -4.662168   0.63970701   418189 
 2573000   0.61497224   -4.6636007   -4.6636007   -4.0225745  0.040836794   -4.6636007   0.64102616   418189 
 2574000   0.61534127   -4.6640269   -4.6640269    -4.022616  0.040821405   -4.6640269   0.64141082   418189 
 2575000   0.61504789   -4.6639766   -4.6639766   -4.0228716  0.039009575   -4.6639766   0.64110502   418189 
 2576000   0.61342919   -4.6628941   -4.6628941   -4.0234764  0.028246547   -4.6628941   0.63941774   418189 
 2577000   0.61382315   -4.6637196   -4.6637196   -4.0238912  0.032851385   -4.6637196   0.63982839   418189 
 2578000   0.61361684    -4.663554    -4.663554   -4.0239406  0.028709465    -4.663554   0.63961334   418189 
 2579000   0.61449663   -4.6637558   -4.6637558   -4.0232254  0.020251323   -4.6637558    0.6405304   418189 
 2580000    0.6145773   -4.6640843   -4.6640843   -4.0234698  0.037066037   -4.6640843   0.64061449   418189 
 2581000   0.61519385   -4.6646603   -4.6646603   -4.0234031  0.040488492   -4.6646603   0.64125716   418189 
 2582000   0.61529114   -4.6644448   -4.6644448   -4.0230862  0.045131056   -4.6644448   0.64135858   418189 
 2583000     0.614538   -4.6637529   -4.6637529   -4.0231794  0.031121138   -4.6637529   0.64057353   418189 
 2584000   0.61453771   -4.6634908   -4.6634908   -4.0229176  0.052528797   -4.6634908   0.64057322   418189 
 2585000    0.6131753   -4.6629846   -4.6629846   -4.0238315  0.030637331   -4.6629846   0.63915309   418189 
 2586000   0.61442434   -4.6641592   -4.6641592   -4.0237041  0.032910355   -4.6641592   0.64045505   418189 
 2587000   0.61523246   -4.6653435   -4.6653435   -4.0240461  0.040446073   -4.6653435    0.6412974   418189 
 2588000   0.61494831   -4.6644868   -4.6644868   -4.0234856  0.048879308   -4.6644868   0.64100122   418189 
 2589000   0.61479543   -4.6651413   -4.6651413   -4.0242994  0.036519852   -4.6651413   0.64084186   418189 
 2590000      0.61413   -4.6648793   -4.6648793    -4.024731  0.036001054   -4.6648793   0.64014823   418189 
 2591000    0.6137442   -4.6645863   -4.6645863   -4.0248402  0.035329315   -4.6645863    0.6397461   418189 
 2592000   0.61343855   -4.6635605   -4.6635605    -4.024133  0.040836541   -4.6635605    0.6394275   418189 
 2593000    0.6127887   -4.6626076   -4.6626076   -4.0238575  0.022477081   -4.6626076   0.63875011   418189 
 2594000   0.61464157   -4.6640013   -4.6640013   -4.0233199  0.027575028   -4.6640013   0.64068149   418189 
 2595000   0.61331711   -4.6632831   -4.6632831   -4.0239822  0.030290729   -4.6632831   0.63930091   418189 
 2596000   0.61396781   -4.6648769   -4.6648769   -4.0248977  0.037615739   -4.6648769   0.63997918   418189 
 2597000   0.61361023   -4.6642297   -4.6642297   -4.0246233   0.04280563   -4.6642297   0.63960645   418189 
 2598000   0.61426697    -4.665406    -4.665406    -4.025115  0.029563677    -4.665406   0.64029101   418189 
 2599000   0.61238462   -4.6634384   -4.6634384   -4.0251095  0.042454017   -4.6634384   0.63832892   418189 
 2600000    0.6124635   -4.6631306   -4.6631306   -4.0247195  0.039505947   -4.6631306   0.63841114   418189 
 2601000   0.61449426   -4.6648394   -4.6648394   -4.0243115  0.039691672   -4.6648394   0.64052793   418189 
 2602000   0.61492073   -4.6648271   -4.6648271   -4.0238547  0.032947971   -4.6648271   0.64097247   418189 
 2603000    0.6141663   -4.6642575   -4.6642575   -4.0240714  0.035491487   -4.6642575   0.64018607   418189 
 2604000   0.61416834   -4.6645206   -4.6645206   -4.0243324  0.026957638   -4.6645206   0.64018821   418189 
 2605000   0.61368647   -4.6644292   -4.6644292   -4.0247433  0.023923438   -4.6644292   0.63968592   418189 
 2606000   0.61422018    -4.665226    -4.665226   -4.0249838  0.027804072    -4.665226   0.64024224   418189 
 2607000   0.61344102   -4.6651673   -4.6651673   -4.0257372  0.036402867   -4.6651673   0.63943007   418189 
 2608000   0.61357951   -4.6651111   -4.6651111   -4.0255367  0.029849321   -4.6651111   0.63957442   418189 
 2609000    0.6136844   -4.6647457   -4.6647457    -4.025062  0.010014241   -4.6647457   0.63968376   418189 
 2610000   0.61226295   -4.6626181   -4.6626181    -4.024416  0.018525776   -4.6626181   0.63820209   418189 
 2611000   0.61356089   -4.6645304   -4.6645304   -4.0249754  0.028677902   -4.6645304   0.63955502   418189 
 2612000   0.61336097   -4.6644415   -4.6644415   -4.0250949  0.014822188   -4.6644415   0.63934663   418189 
 2613000   0.61295819   -4.6646035   -4.6646035   -4.0256767  0.033403782   -4.6646035   0.63892678   418189 
 2614000   0.61277403   -4.6638102   -4.6638102   -4.0250753  0.042887441   -4.6638102   0.63873482   418189 
 2615000   0.61374933   -4.6654407   -4.6654407   -4.0256893  0.034115795   -4.6654407   0.63975144   418189 
 2616000   0.61356484   -4.6650955   -4.6650955   -4.0255364  0.022339904   -4.6650955   0.63955914   418189 
 2617000   0.61243137   -4.6640119   -4.6640119   -4.0256342  0.031822705   -4.6640119   0.63837764   418189 
 2618000   0.61377917   -4.6663608   -4.6663608   -4.0265782  0.038160934   -4.6663608   0.63978254   418189 
 2619000   0.61388295   -4.6661866   -4.6661866   -4.0262959  0.018568025   -4.6661866   0.63989073   418189 
 2620000    0.6135692   -4.6668323   -4.6668323   -4.0272686  0.033526319   -4.6668323   0.63956368   418189 
 2621000   0.61324418   -4.6663625   -4.6663625   -4.0271376  0.036047987   -4.6663625   0.63922489   418189 
 2622000   0.61412404   -4.6667321   -4.6667321   -4.0265901  0.051292645   -4.6667321   0.64014203   418189 
 2623000   0.61331642   -4.6651011   -4.6651011   -4.0258009  0.023479585   -4.6651011   0.63930019   418189 
 2624000   0.61342945   -4.6661659   -4.6661659   -4.0267479  0.040573201   -4.6661659   0.63941801   418189 
 2625000   0.61329536   -4.6666314   -4.6666314   -4.0273532  0.026365867   -4.6666314   0.63927824   418189 
 2626000   0.61280929   -4.6658608   -4.6658608   -4.0270892  0.032089667   -4.6658608   0.63877158   418189 
 2627000   0.61347814   -4.6668394   -4.6668394   -4.0273706  0.029707065   -4.6668394   0.63946876   418189 
 2628000   0.61275862   -4.6657101   -4.6657101   -4.0269913  0.037469543   -4.6657101   0.63871876   418189 
 2629000   0.61443447   -4.6675833   -4.6675833   -4.0271177  0.033361617   -4.6675833   0.64046561   418189 
 2630000   0.61472434    -4.667112    -4.667112   -4.0263443  0.030559729    -4.667112   0.64076776   418189 
 2631000   0.61277038   -4.6658411   -4.6658411   -4.0271101  0.031481359   -4.6658411   0.63873102   418189 
 2632000   0.61584295   -4.6681728   -4.6681728    -4.026239  0.049361703   -4.6681728   0.64193376   418189 
 2633000   0.61502004   -4.6678717   -4.6678717   -4.0267957  0.033784196   -4.6678717   0.64107598   418189 
 2634000   0.61280004   -4.6659988   -4.6659988   -4.0272369  0.025701339   -4.6659988   0.63876194   418189 
 2635000   0.61339424   -4.6667542   -4.6667542   -4.0273729  0.031509432   -4.6667542   0.63938131   418189 
 2636000    0.6133144   -4.6660832   -4.6660832   -4.0267851   0.03901579   -4.6660832   0.63929808   418189 
 2637000   0.61343877   -4.6660162   -4.6660162   -4.0265885   0.02608504   -4.6660162   0.63942772   418189 
 2638000   0.61217955   -4.6650929   -4.6650929   -4.0269778  0.037182002   -4.6650929   0.63811516   418189 
 2639000    0.6157459   -4.6686793   -4.6686793   -4.0268467   0.02852476   -4.6686793    0.6418326   418189 
 2640000   0.61471757   -4.6683381   -4.6683381   -4.0275774  0.032493636   -4.6683381   0.64076071   418189 
 2641000   0.61381167   -4.6674514   -4.6674514    -4.027635  0.020204857   -4.6674514   0.63981642   418189 
 2642000   0.61537179   -4.6687063   -4.6687063   -4.0272637  0.034396508   -4.6687063   0.64144264   418189 
 2643000   0.61428602   -4.6681957   -4.6681957   -4.0278848   0.03982803   -4.6681957   0.64031086   418189 
 2644000   0.61534689   -4.6694916   -4.6694916   -4.0280749  0.021394469   -4.6694916   0.64141668   418189 
 2645000   0.61362898   -4.6678588   -4.6678588   -4.0282328  0.036537569   -4.6678588   0.63962599   418189 
 2646000   0.61269668   -4.6674041   -4.6674041   -4.0287499  0.041623797   -4.6674041   0.63865419   418189 
 2647000   0.61346666   -4.6685824   -4.6685824   -4.0291256  0.032591293   -4.6685824    0.6394568   418189 
 2648000   0.61309899   -4.6678218   -4.6678218   -4.0287482  0.038927269   -4.6678218   0.63907355   418189 
 2649000   0.61334267   -4.6680008   -4.6680008   -4.0286732  0.039902574   -4.6680008   0.63932755   418189 
 2650000   0.61287938   -4.6673261   -4.6673261   -4.0284815  0.039596486   -4.6673261   0.63884464   418189 
 2651000   0.61405554   -4.6683231   -4.6683231   -4.0282524  0.036724734   -4.6683231   0.64007062   418189 
 2652000   0.61338366   -4.6676693   -4.6676693    -4.028299  0.010144113   -4.6676693   0.63937028   418189 
 2653000   0.61173675   -4.6667569   -4.6667569   -4.0291033  0.035386934   -4.6667569    0.6376536   418189 
 2654000   0.61368616   -4.6692329   -4.6692329   -4.0295473  0.038999822   -4.6692329    0.6396856   418189 
 2655000   0.61330151   -4.6686127   -4.6686127    -4.029328  0.032421619   -4.6686127   0.63928464   418189 
 2656000   0.61320242   -4.6686251   -4.6686251   -4.0294437  0.036442187   -4.6686251   0.63918136   418189 
 2657000   0.61302565   -4.6686579   -4.6686579   -4.0296608  0.049450473   -4.6686579    0.6389971   418189 
 2658000   0.61397387   -4.6698033   -4.6698033   -4.0298178  0.028634919   -4.6698033   0.63998549   418189 
 2659000   0.61295371   -4.6696258   -4.6696258   -4.0307037  0.035848281   -4.6696258   0.63892211   418189 
 2660000   0.61346273   -4.6697384   -4.6697384   -4.0302857  0.040734139   -4.6697384    0.6394527   418189 
 2661000   0.61419262   -4.6709214   -4.6709214   -4.0307079  0.027230157   -4.6709214   0.64021351   418189 
 2662000   0.61348938   -4.6702367   -4.6702367   -4.0307562  0.046558503   -4.6702367   0.63948047   418189 
 2663000   0.61460357   -4.6714426   -4.6714426   -4.0308007  0.055376887   -4.6714426   0.64064187   418189 
 2664000   0.61183318    -4.668892    -4.668892   -4.0311379  0.053312557    -4.668892   0.63775411   418189 
 2665000   0.61310555   -4.6696732   -4.6696732   -4.0305928  0.035416383   -4.6696732   0.63908039   418189 
 2666000   0.61350847   -4.6698881   -4.6698881   -4.0303877  0.041701487   -4.6698881   0.63950038   418189 
 2667000   0.61217365   -4.6686654   -4.6686654   -4.0305564  0.031507401   -4.6686654     0.638109   418189 
 2668000   0.61154823   -4.6685027   -4.6685027   -4.0310456  0.027566168   -4.6685027   0.63745709   418189 
 2669000   0.61240083   -4.6688237   -4.6688237   -4.0304779  0.034679579   -4.6688237   0.63834581   418189 
 2670000   0.61137466   -4.6673613   -4.6673613   -4.0300851  0.025179469   -4.6673613   0.63727616   418189 
 2671000   0.61227519   -4.6685558   -4.6685558   -4.0303409   0.05776876   -4.6685558   0.63821485   418189 
 2672000   0.61339843    -4.669101    -4.669101   -4.0297154  0.021184423    -4.669101   0.63938567   418189 
 2673000   0.61449637   -4.6699999   -4.6699999   -4.0294698  0.034676293   -4.6699999   0.64053013   418189 
 2674000   0.61279598   -4.6678892   -4.6678892   -4.0291314  0.041411236   -4.6678892    0.6387577   418189 
 2675000   0.61452722   -4.6707791   -4.6707791   -4.0302169  0.025109558   -4.6707791   0.64056229   418189 
 2676000   0.61247196   -4.6682137   -4.6682137   -4.0297937   0.04718291   -4.6682137   0.63841996   418189 
 2677000   0.61369868    -4.669763    -4.669763   -4.0300643  0.049551367    -4.669763   0.63969864   418189 
 2678000   0.61362041   -4.6706945   -4.6706945   -4.0310775  0.017102149   -4.6706945   0.63961706   418189 
 2679000   0.61331603    -4.670034    -4.670034   -4.0307342  0.034628756    -4.670034   0.63929979   418189 
 2680000   0.61296314   -4.6707118   -4.6707118   -4.0317799  0.037100984   -4.6707118   0.63893195   418189 
 2681000   0.61347202   -4.6703274   -4.6703274    -4.030865  0.048219434   -4.6703274   0.63946238   418189 
 2682000   0.61367232     -4.67105     -4.67105   -4.0313789  0.023953828     -4.67105   0.63967117   418189 
 2683000   0.61299671    -4.670172    -4.670172    -4.031205  0.030683736    -4.670172   0.63896694   418189 
 2684000   0.61301079   -4.6706216   -4.6706216     -4.03164  0.031680348   -4.6706216   0.63898161   418189 
 2685000   0.61266454   -4.6699674   -4.6699674   -4.0313467  0.024412572   -4.6699674    0.6386207   418189 
 2686000   0.61378274   -4.6702763   -4.6702763   -4.0304901  0.040633144   -4.6702763   0.63978627   418189 
 2687000   0.61376912   -4.6703942   -4.6703942   -4.0306221  0.034864039   -4.6703942   0.63977207   418189 
 2688000   0.61408427   -4.6705299   -4.6705299   -4.0304293  0.019772053   -4.6705299   0.64010057   418189 
 2689000    0.6130233   -4.6696894   -4.6696894   -4.0306948  0.027770649   -4.6696894   0.63899465   418189 
 2690000   0.61318126   -4.6695183   -4.6695183    -4.030359  0.025849561   -4.6695183    0.6391593   418189 
 2691000   0.61320462   -4.6694238   -4.6694238   -4.0302402  0.020165535   -4.6694238   0.63918365   418189 
 2692000   0.61442634   -4.6714088   -4.6714088   -4.0309517  0.024979289   -4.6714088   0.64045714   418189 
 2693000   0.61353205   -4.6698655   -4.6698655   -4.0303406  0.033940116   -4.6698655   0.63952495   418189 
 2694000    0.6131508   -4.6698078   -4.6698078   -4.0306803  0.042254169   -4.6698078   0.63912755   418189 
 2695000   0.61220448   -4.6699742   -4.6699742    -4.031833  0.031088907   -4.6699742   0.63814115   418189 
 2696000   0.61329181   -4.6704823   -4.6704823   -4.0312078  0.048088732   -4.6704823   0.63927454   418189 
 2697000   0.61279719   -4.6704502   -4.6704502   -4.0316913  0.037176725   -4.6704502   0.63875896   418189 
 2698000   0.61302522   -4.6712116   -4.6712116   -4.0322149   0.03671089   -4.6712116   0.63899665   418189 
 2699000   0.61343732   -4.6709918   -4.6709918   -4.0315656  0.032453341   -4.6709918   0.63942621   418189 
 2700000   0.61428792   -4.6718679   -4.6718679   -4.0315551  0.035057374   -4.6718679   0.64031284   418189 
 2701000   0.61317903   -4.6704015   -4.6704015   -4.0312445  0.028942624   -4.6704015   0.63915698   418189 
 2702000   0.61349943   -4.6710826   -4.6710826   -4.0315916  0.033622206   -4.6710826   0.63949095   418189 
 2703000    0.6115023   -4.6696184   -4.6696184   -4.0322092  0.035894327   -4.6696184   0.63740922   418189 
 2704000   0.61292577   -4.6710446   -4.6710446   -4.0321516   0.04578099   -4.6710446   0.63889299   418189 
 2705000   0.61276802   -4.6712715   -4.6712715    -4.032543  0.017169602   -4.6712715   0.63872855   418189 
 2706000   0.61308395   -4.6707875   -4.6707875   -4.0317297  0.037154179   -4.6707875   0.63905787   418189 
 2707000   0.61161408   -4.6694407   -4.6694407   -4.0319149  0.051565463   -4.6694407   0.63752573   418189 
 2708000    0.6123754   -4.6711172   -4.6711172   -4.0327979  0.033111919   -4.6711172    0.6383193   418189 
 2709000   0.61235966   -4.6709159   -4.6709159    -4.032613  0.030160372   -4.6709159    0.6383029   418189 
 2710000   0.61168568   -4.6698653   -4.6698653    -4.032265    0.0389121   -4.6698653   0.63760036   418189 
 2711000    0.6117515   -4.6702331   -4.6702331   -4.0325642  0.033228794   -4.6702331   0.63766897   418189 
 2712000   0.61333354   -4.6717797   -4.6717797   -4.0324616  0.038983384   -4.6717797   0.63931804   418189 
 2713000   0.61444275   -4.6724135   -4.6724135   -4.0319393  0.031290649   -4.6724135   0.64047424   418189 
 2714000   0.61255737   -4.6698009   -4.6698009   -4.0312919  0.038218465   -4.6698009   0.63850898   418189 
 2715000   0.61266974   -4.6702826   -4.6702826   -4.0316565  0.050040717   -4.6702826   0.63862611   418189 
 2716000   0.61363047   -4.6711636   -4.6711636    -4.031536  0.043131928   -4.6711636   0.63962755   418189 
 2717000    0.6130089   -4.6708404   -4.6708404   -4.0318607  0.034230156   -4.6708404   0.63897964   418189 
 2718000   0.61259693   -4.6705695   -4.6705695   -4.0320193  0.024826103   -4.6705695   0.63855022   418189 
 2719000   0.61348771   -4.6718713   -4.6718713   -4.0323925  0.031337961   -4.6718713   0.63947873   418189 
 2720000   0.61327925   -4.6719696   -4.6719696   -4.0327082  0.029074265   -4.6719696   0.63926144   418189 
 2721000   0.61231217   -4.6715108   -4.6715108   -4.0332574  0.040932106   -4.6715108   0.63825339   418189 
 2722000   0.61476308   -4.6735631   -4.6735631    -4.032755  0.027075326   -4.6735631   0.64080814   418189 
 2723000   0.61263791   -4.6713622   -4.6713622   -4.0327692  0.043789656   -4.6713622   0.63859293   418189 
 2724000   0.61292444   -4.6717104   -4.6717104   -4.0328188  0.034880562   -4.6717104    0.6388916   418189 
 2725000   0.61278303   -4.6714317   -4.6714317   -4.0326875  0.035538775   -4.6714317    0.6387442   418189 
 2726000   0.61374261    -4.673154    -4.673154   -4.0334096  0.036443464    -4.673154   0.63974444   418189 
 2727000   0.61322431   -4.6728113   -4.6728113   -4.0336071  0.023141697   -4.6728113   0.63920418   418189 
 2728000   0.61233118   -4.6716575   -4.6716575   -4.0333843  0.050682832   -4.6716575   0.63827321   418189 
 2729000   0.61225203   -4.6725233   -4.6725233   -4.0343325  0.028555376   -4.6725233   0.63819071   418189 
 2730000   0.61346342   -4.6740934   -4.6740934     -4.03464   0.04474739   -4.6740934   0.63945342   418189 
 2731000   0.61218693   -4.6725444   -4.6725444   -4.0344215  0.045584631   -4.6725444   0.63812285   418189 
 2732000   0.61292125   -4.6726804   -4.6726804   -4.0337921  0.041058031   -4.6726804   0.63888828   418189 
 2733000   0.61316917   -4.6736332   -4.6736332   -4.0344865  0.040101225   -4.6736332   0.63914671   418189 
 2734000   0.61209837   -4.6723215   -4.6723215    -4.034291   0.03857209   -4.6723215   0.63803054   418189 
 2735000   0.61267884   -4.6729109   -4.6729109   -4.0342753  0.057693691   -4.6729109    0.6386356   418189 
 2736000   0.61389797   -4.6742512   -4.6742512   -4.0343449  0.043800234   -4.6742512   0.63990638   418189 
 2737000   0.61176083   -4.6725156   -4.6725156   -4.0348369  0.044422771   -4.6725156   0.63767869   418189 
 2738000   0.61240297   -4.6732529   -4.6732529   -4.0349049  0.040130204   -4.6732529   0.63834804   418189 
 2739000    0.6128561   -4.6739271   -4.6739271   -4.0351068  0.021020024   -4.6739271   0.63882037   418189 
 2740000   0.61327974   -4.6750257   -4.6750257   -4.0357637  0.038778489   -4.6750257   0.63926195   418189 
 2741000   0.61309681   -4.6749769   -4.6749769   -4.0359057  0.046445607   -4.6749769   0.63907127   418189 
 2742000   0.61204436   -4.6739013   -4.6739013    -4.035927  0.029594323   -4.6739013   0.63797424   418189 
 2743000   0.61202228   -4.6739464   -4.6739464   -4.0359952  0.018874128   -4.6739464   0.63795122   418189 
 2744000   0.61111583   -4.6731051   -4.6731051   -4.0360987  0.034817395   -4.6731051   0.63700637   418189 
 2745000   0.61067124   -4.6727488   -4.6727488   -4.0362059  0.026872446   -4.6727488   0.63654294   418189 
 2746000   0.61245406   -4.6743351   -4.6743351   -4.0359338  0.031949439   -4.6743351    0.6384013   418189 
 2747000   0.61190559   -4.6738823   -4.6738823   -4.0360528  0.038648892   -4.6738823   0.63782959   418189 
 2748000   0.61286922   -4.6746997   -4.6746997   -4.0358657  0.023785783   -4.6746997   0.63883404   418189 
 2749000   0.61137406   -4.6720918   -4.6720918   -4.0348163   0.03041571   -4.6720918   0.63727554   418189 
 2750000   0.61319189   -4.6740863   -4.6740863   -4.0349159  0.044823331   -4.6740863   0.63917038   418189 
 2751000   0.61322008   -4.6753172   -4.6753172   -4.0361174   0.02907897   -4.6753172   0.63919977   418189 
 2752000    0.6116455   -4.6743792   -4.6743792   -4.0368207   0.03957748   -4.6743792   0.63755848   418189 
 2753000   0.61162655   -4.6742564   -4.6742564   -4.0367177  0.034139563   -4.6742564   0.63753873   418189 
 2754000   0.61071011   -4.6729016   -4.6729016   -4.0363182  0.041526376   -4.6729016   0.63658346   418189 
 2755000   0.61240886   -4.6743792   -4.6743792   -4.0360251  0.031379693   -4.6743792   0.63835419   418189 
 2756000    0.6109245   -4.6727073   -4.6727073   -4.0359003  0.035918005   -4.6727073   0.63680694   418189 
 2757000   0.61202951   -4.6736078   -4.6736078    -4.035649   0.03511239   -4.6736078   0.63795876   418189 
 2758000    0.6123512   -4.6740416   -4.6740416   -4.0357475  0.028592525   -4.6740416   0.63829408   418189 
 2759000    0.6121006    -4.674698    -4.674698   -4.0366651  0.023942483    -4.674698   0.63803286   418189 
 2760000   0.61194894   -4.6739451   -4.6739451   -4.0360703  0.029775825   -4.6739451   0.63787478   418189 
 2761000   0.61240362   -4.6744075   -4.6744075   -4.0360588  0.036600201   -4.6744075   0.63834872   418189 
 2762000   0.61358379   -4.6749467   -4.6749467   -4.0353679  0.033898541   -4.6749467   0.63957889   418189 
 2763000   0.61227783   -4.6734026   -4.6734026    -4.035185  0.042082218   -4.6734026    0.6382176   418189 
 2764000   0.61203509   -4.6727702   -4.6727702   -4.0348057  0.037160262   -4.6727702   0.63796458   418189 
 2765000   0.61181456   -4.6725568   -4.6725568   -4.0348221  0.033357714   -4.6725568    0.6377347   418189 
 2766000   0.61169365   -4.6723069   -4.6723069   -4.0346983  0.022314715   -4.6723069   0.63760867   418189 
 2767000   0.61288303   -4.6739127   -4.6739127   -4.0350643   0.03676231   -4.6739127   0.63884844   418189 
 2768000   0.61264091   -4.6743881   -4.6743881   -4.0357921  0.025772321   -4.6743881   0.63859606   418189 
 2769000   0.61316507   -4.6752028   -4.6752028   -4.0360604   0.03514267   -4.6752028   0.63914243   418189 
 2770000   0.61266435   -4.6745901   -4.6745901   -4.0359696  0.036623473   -4.6745901   0.63862049   418189 
 2771000   0.61214569   -4.6743635   -4.6743635   -4.0362837  0.031356327   -4.6743635   0.63807986   418189 
 2772000   0.61252239   -4.6752012   -4.6752012   -4.0367287  0.024234368   -4.6752012   0.63847252   418189 
 2773000   0.61246271   -4.6753712   -4.6753712   -4.0369609  0.027547478   -4.6753712   0.63841031   418189 
 2774000   0.61076343   -4.6742834   -4.6742834   -4.0376444  0.027598047   -4.6742834   0.63663904   418189 
 2775000   0.61068073   -4.6744253   -4.6744253   -4.0378725  0.030846696   -4.6744253   0.63655284   418189 
 2776000   0.61211663   -4.6752153   -4.6752153   -4.0371657  0.044066164   -4.6752153   0.63804957   418189 
 2777000   0.61295713   -4.6753506   -4.6753506    -4.036425  0.036216519   -4.6753506   0.63892567   418189 
 2778000   0.61191904   -4.6742608   -4.6742608   -4.0364172  0.031209803   -4.6742608   0.63784361   418189 
 2779000   0.61243653   -4.6742319   -4.6742319   -4.0358488  0.040960545   -4.6742319   0.63838302   418189 
 2780000   0.61185022   -4.6743066   -4.6743066   -4.0365347  0.031451575   -4.6743066   0.63777188   418189 
 2781000   0.61268759   -4.6750915   -4.6750915   -4.0364468  0.046100102   -4.6750915   0.63864472   418189 
 2782000   0.61220667   -4.6748744   -4.6748744    -4.036731  0.043305044   -4.6748744   0.63814342   418189 
 2783000   0.61263956   -4.6758591   -4.6758591   -4.0372644  0.028758785   -4.6758591   0.63859466   418189 
 2784000   0.61315235   -4.6758697   -4.6758697   -4.0367405  0.035108268   -4.6758697   0.63912917   418189 
 2785000   0.61148943   -4.6746762   -4.6746762   -4.0372804  0.027259333   -4.6746762   0.63739579   418189 
 2786000   0.61238907    -4.675392    -4.675392   -4.0370585  0.034219643    -4.675392   0.63833355   418189 
 2787000   0.61038208   -4.6740268   -4.6740268   -4.0377853  0.039870272   -4.6740268   0.63624153   418189 
 2788000   0.61086883   -4.6744086   -4.6744086   -4.0376597   0.02381489   -4.6744086    0.6367489   418189 
 2789000   0.61076626   -4.6744477   -4.6744477   -4.0378057  0.050695909   -4.6744477   0.63664199   418189 
 2790000   0.61151104   -4.6753144   -4.6753144   -4.0378961  0.036394469   -4.6753144   0.63741832   418189 
 2791000   0.61345221   -4.6774517   -4.6774517     -4.03801  0.052172968   -4.6774517   0.63944174   418189 
 2792000    0.6120732   -4.6769978   -4.6769978   -4.0389935  0.036377801   -4.6769978    0.6380043   418189 
 2793000    0.6124039   -4.6770331   -4.6770331   -4.0386841  0.023228309   -4.6770331   0.63834901   418189 
 2794000   0.61153744   -4.6761262   -4.6761262   -4.0386804  0.012468329   -4.6761262   0.63744584   418189 
 2795000    0.6110839   -4.6761373   -4.6761373   -4.0391642  0.032733319   -4.6761373   0.63697308   418189 
 2796000   0.61243052   -4.6765352   -4.6765352   -4.0381584   0.03310367   -4.6765352   0.63837676   418189 
 2797000   0.61150215   -4.6757903   -4.6757903   -4.0383812   0.02215752   -4.6757903   0.63740905   418189 
 2798000   0.61188858   -4.6757909   -4.6757909    -4.037979   0.01905664   -4.6757909   0.63781186   418189 
 2799000   0.61186521   -4.6758299   -4.6758299   -4.0380424  0.016211445   -4.6758299    0.6377875   418189 
 2800000   0.61215216   -4.6759856   -4.6759856    -4.037899  0.026137083   -4.6759856    0.6380866   418189 
 2801000   0.61286171   -4.6764527   -4.6764527   -4.0376265  0.025347735   -4.6764527   0.63882621   418189 
 2802000   0.61312018    -4.677265    -4.677265   -4.0381694  0.042496233    -4.677265   0.63909564   418189 
 2803000   0.61246458   -4.6776784   -4.6776784   -4.0392661  0.041489159   -4.6776784   0.63841226   418189 
 2804000   0.61134438   -4.6760827   -4.6760827   -4.0388381  0.036080082   -4.6760827    0.6372446   418189 
 2805000   0.61254566   -4.6776052   -4.6776052   -4.0391084  0.015298385   -4.6776052   0.63849677   418189 
 2806000   0.61252576   -4.6783619   -4.6783619   -4.0398859  0.028055883   -4.6783619   0.63847603   418189 
 2807000   0.61236576   -4.6784989   -4.6784989   -4.0401897  0.015211762   -4.6784989   0.63830926   418189 
 2808000   0.61143323   -4.6780938   -4.6780938   -4.0407566  0.043457137   -4.6780938   0.63733722   418189 
 2809000   0.61049017   -4.6773424   -4.6773424   -4.0409882  0.024100884   -4.6773424   0.63635421   418189 
 2810000   0.61118447   -4.6766877   -4.6766877   -4.0396097  0.016672861   -4.6766877   0.63707792   418189 
 2811000   0.61117115   -4.6774213   -4.6774213   -4.0403573  0.028140221   -4.6774213   0.63706403   418189 
 2812000   0.61001054   -4.6769075   -4.6769075   -4.0410533  0.028427381   -4.6769075   0.63585426   418189 
 2813000   0.61014087   -4.6770197   -4.6770197   -4.0410296  0.038942899   -4.6770197   0.63599011   418189 
 2814000    0.6101376   -4.6772615   -4.6772615   -4.0412748   0.04549306   -4.6772615    0.6359867   418189 
 2815000   0.61111596   -4.6780315   -4.6780315    -4.041025  0.028802505   -4.6780315   0.63700651   418189 
 2816000   0.61042389   -4.6768514   -4.6768514   -4.0405663  0.028500988   -4.6768514   0.63628511   418189 
 2817000   0.61069665   -4.6766842   -4.6766842   -4.0401148  0.033154548   -4.6766842   0.63656943   418189 
 2818000   0.61025677   -4.6766142   -4.6766142   -4.0405033  0.033148507   -4.6766142   0.63611092   418189 
 2819000   0.61216301   -4.6783269   -4.6783269    -4.040229  0.027614753   -4.6783269   0.63809792   418189 
 2820000   0.61021653   -4.6764792   -4.6764792   -4.0404102  0.025529385   -4.6764792   0.63606897   418189 
 2821000   0.61049663   -4.6777593   -4.6777593   -4.0413984  0.028160102   -4.6777593   0.63636094   418189 
 2822000   0.61199121   -4.6786404   -4.6786404   -4.0407215  0.024456304   -4.6786404   0.63791884   418189 
 2823000   0.61163647   -4.6792561   -4.6792561    -4.041707  0.037710273   -4.6792561   0.63754907   418189 
 2824000   0.61098781   -4.6784729   -4.6784729      -4.0416  0.034883868   -4.6784729   0.63687293   418189 
 2825000   0.60917563   -4.6760833   -4.6760833   -4.0410993  0.036019932   -4.6760833   0.63498397   418189 
 2826000   0.61166313   -4.6784454   -4.6784454   -4.0408686   0.04571708   -4.6784454   0.63757686   418189 
 2827000   0.61017864   -4.6767421   -4.6767421   -4.0407126  0.047676067   -4.6767421   0.63602948   418189 
 2828000   0.61025869    -4.676679    -4.676679   -4.0405661  0.031799136    -4.676679   0.63611292   418189 
 2829000    0.6110915   -4.6772666   -4.6772666   -4.0402856  0.041420057   -4.6772666   0.63698101   418189 
 2830000   0.61109244   -4.6778678   -4.6778678   -4.0408858  0.014340396   -4.6778678   0.63698199   418189 
 2831000   0.61052399   -4.6770733   -4.6770733   -4.0406838  0.031838277   -4.6770733   0.63638945   418189 
 2832000   0.61077466   -4.6771859   -4.6771859   -4.0405352  0.038536473   -4.6771859   0.63665074   418189 
 2833000   0.61011246   -4.6774011   -4.6774011   -4.0414406  0.039966952   -4.6774011   0.63596049   418189 
 2834000   0.61148789   -4.6783917   -4.6783917   -4.0409975  0.026172409   -4.6783917    0.6373942   418189 
 2835000   0.61109935    -4.677958    -4.677958   -4.0409688  0.027900707    -4.677958   0.63698919   418189 
 2836000   0.61187971   -4.6784932   -4.6784932   -4.0406906  0.019877273   -4.6784932   0.63780261   418189 
 2837000   0.61217023   -4.6794156   -4.6794156   -4.0413101  0.053355707   -4.6794156   0.63810544   418189 
 2838000   0.61032208   -4.6774217   -4.6774217   -4.0412427  0.036937039   -4.6774217   0.63617899   418189 
 2839000   0.61178785    -4.679442    -4.679442   -4.0417352  0.024426751    -4.679442   0.63770686   418189 
 2840000   0.61171696   -4.6803338   -4.6803338   -4.0427009  0.026744186   -4.6803338   0.63763297   418189 
 2841000   0.61056332   -4.6784073   -4.6784073   -4.0419769  0.025093531   -4.6784073   0.63643045   418189 
 2842000   0.61108376   -4.6784486   -4.6784486   -4.0414757  0.034910518   -4.6784486   0.63697294   418189 
 2843000   0.61028751   -4.6778562   -4.6778562   -4.0417132  0.027511109   -4.6778562   0.63614296   418189 
 2844000    0.6116807   -4.6799494   -4.6799494   -4.0423542  0.038613566   -4.6799494   0.63759517   418189 
 2845000   0.61060496   -4.6785256   -4.6785256   -4.0420517  0.024080581   -4.6785256   0.63647386   418189 
 2846000   0.61144221   -4.6792152   -4.6792152   -4.0418686  0.031566728   -4.6792152   0.63734658   418189 
 2847000   0.61020347   -4.6783369   -4.6783369   -4.0422816  0.048960112   -4.6783369   0.63605535   418189 
 2848000   0.61125967   -4.6796112   -4.6796112   -4.0424549  0.043277375   -4.6796112    0.6371563   418189 
 2849000   0.61069694   -4.6790987   -4.6790987    -4.042529  0.033830833   -4.6790987   0.63656974   418189 
 2850000   0.60991524   -4.6778634   -4.6778634   -4.0421085  0.038143187   -4.6778634   0.63575491   418189 
 2851000   0.61046667   -4.6784728   -4.6784728   -4.0421431  0.033633273   -4.6784728   0.63632971   418189 
 2852000   0.61255111   -4.6809225   -4.6809225   -4.0424201  0.017955351   -4.6809225   0.63850246   418189 
 2853000   0.61147569   -4.6790803   -4.6790803   -4.0416988  0.035657909   -4.6790803   0.63738147   418189 
 2854000   0.61213128   -4.6792978   -4.6792978   -4.0412329  0.020386844   -4.6792978   0.63806484   418189 
 2855000    0.6120811   -4.6794842   -4.6794842   -4.0414717  0.036844757   -4.6794842   0.63801253   418189 
 2856000   0.61008583   -4.6784752   -4.6784752   -4.0425424  0.032157198   -4.6784752   0.63593273   418189 
 2857000   0.61214678    -4.679945    -4.679945    -4.041864  0.049530098    -4.679945     0.638081   418189 
 2858000   0.61094937    -4.679004    -4.679004   -4.0421711  0.029756609    -4.679004   0.63683286   418189 
 2859000   0.61069384    -4.678801    -4.678801   -4.0422345  0.027322585    -4.678801   0.63656651   418189 
 2860000   0.61144372   -4.6798915   -4.6798915   -4.0425434  0.035520925   -4.6798915   0.63734815   418189 
 2861000   0.61064746   -4.6790793   -4.6790793   -4.0425611  0.030021654   -4.6790793   0.63651815   418189 
 2862000   0.61165803   -4.6800453   -4.6800453   -4.0424737  0.037689584   -4.6800453   0.63757154   418189 
 2863000   0.61193716    -4.680885    -4.680885   -4.0430225   0.02399006    -4.680885    0.6378625   418189 
 2864000   0.61149668   -4.6803485   -4.6803485   -4.0429451  0.024185888   -4.6803485   0.63740335   418189 
 2865000   0.61082722   -4.6801517   -4.6801517   -4.0434462    0.0299265   -4.6801517   0.63670553   418189 
 2866000   0.61001567    -4.679653    -4.679653   -4.0437934  0.039336129    -4.679653    0.6358596   418189 
 2867000   0.60993426   -4.6793417   -4.6793417    -4.043567  0.032338363   -4.6793417   0.63577474   418189 
 2868000   0.61115892   -4.6807726   -4.6807726   -4.0437213  0.029251711   -4.6807726   0.63705129   418189 
 2869000   0.61152832   -4.6809295   -4.6809295   -4.0434932  0.027054522   -4.6809295   0.63743633   418189 
 2870000    0.6118721   -4.6813571   -4.6813571   -4.0435625    0.0402966   -4.6813571   0.63779468   418189 
 2871000   0.61141289   -4.6811403   -4.6811403   -4.0438243   0.04386759   -4.6811403   0.63731602   418189 
 2872000   0.60905581   -4.6789115   -4.6789115   -4.0440525  0.042585097   -4.6789115   0.63485908   418189 
 2873000   0.61087743   -4.6804196   -4.6804196   -4.0436617  0.043622734   -4.6804196   0.63675787   418189 
 2874000   0.61067501   -4.6807441   -4.6807441   -4.0441972   0.01824196   -4.6807441   0.63654687   418189 
 2875000   0.60872179   -4.6788451   -4.6788451   -4.0443342  0.028107072   -4.6788451   0.63451091   418189 
 2876000    0.6107463   -4.6818756   -4.6818756   -4.0452544  0.021426434   -4.6818756   0.63662119   418189 
 2877000   0.61151018   -4.6824302   -4.6824302   -4.0450128  0.040951549   -4.6824302   0.63741743   418189 
 2878000   0.61120415   -4.6818687   -4.6818687   -4.0447703  0.035269434   -4.6818687   0.63709843   418189 
 2879000   0.61008577   -4.6800469   -4.6800469   -4.0441142  0.036682154   -4.6800469   0.63593267   418189 
 2880000   0.60955672   -4.6791008   -4.6791008   -4.0437196  0.020441838   -4.6791008    0.6353812   418189 
 2881000   0.61118142   -4.6814887   -4.6814887    -4.044414  0.033011624   -4.6814887   0.63707474   418189 
 2882000   0.60923838   -4.6790602   -4.6790602   -4.0440108  0.042980191   -4.6790602   0.63504938   418189 
 2883000   0.61102236   -4.6807602   -4.6807602   -4.0438513  0.027547268   -4.6807602   0.63690894   418189 
 2884000    0.6091558   -4.6791674   -4.6791674   -4.0442041  0.025909014   -4.6791674    0.6349633   418189 
 2885000   0.61031771   -4.6816065   -4.6816065   -4.0454321  0.032646512   -4.6816065   0.63617444   418189 
 2886000    0.6120153    -4.682604    -4.682604     -4.04466  0.029027946    -4.682604   0.63794395   418189 
 2887000   0.61153348   -4.6812299   -4.6812299   -4.0437882  0.043764387   -4.6812299   0.63744171   418189 
 2888000   0.61108677   -4.6808652   -4.6808652   -4.0438891  0.037564774   -4.6808652   0.63697608   418189 
 2889000   0.61104216   -4.6807639   -4.6807639   -4.0438343  0.034037198   -4.6807639   0.63692957   418189 
 2890000   0.61097856   -4.6805064   -4.6805064   -4.0436431  0.038903782   -4.6805064   0.63686328   418189 
 2891000   0.61137688   -4.6807084   -4.6807084   -4.0434299  0.027875021   -4.6807084   0.63727848   418189 
 2892000   0.61091508   -4.6805381   -4.6805381    -4.043741  0.048332833   -4.6805381   0.63679711   418189 
 2893000   0.61191066   -4.6813958   -4.6813958   -4.0435609  0.045971463   -4.6813958   0.63783487   418189 
 2894000   0.61082732   -4.6803771   -4.6803771   -4.0436714  0.025265526   -4.6803771   0.63670564   418189 
 2895000   0.60984212    -4.679981    -4.679981   -4.0443023  0.031650835    -4.679981    0.6356787   418189 
 2896000   0.61071572   -4.6807068   -4.6807068   -4.0441175  0.034320593   -4.6807068   0.63658931   418189 
 2897000   0.60967658   -4.6800111   -4.6800111   -4.0445049  0.046594047   -4.6800111   0.63550614   418189 
 2898000   0.61108626   -4.6813679   -4.6813679   -4.0443924  0.012223824   -4.6813679   0.63697554   418189 
 2899000   0.61045295    -4.680605    -4.680605   -4.0442896  0.022141099    -4.680605   0.63631541   418189 
 2900000   0.61083172   -4.6810184   -4.6810184   -4.0443082  0.041736848   -4.6810184   0.63671023   418189 
 2901000   0.60912398   -4.6794567   -4.6794567   -4.0445265  0.042925455   -4.6794567   0.63493014   418189 
 2902000   0.61187348   -4.6816331   -4.6816331    -4.043837  0.029251781   -4.6816331   0.63779612   418189 
 2903000   0.61153453   -4.6816059   -4.6816059   -4.0441631  0.017752926   -4.6816059    0.6374428   418189 
 2904000   0.61143566   -4.6825113   -4.6825113   -4.0451715  0.042935032   -4.6825113   0.63733975   418189 
 2905000   0.60973861   -4.6808796   -4.6808796   -4.0453088   0.04388743   -4.6808796   0.63557081   418189 
 2906000   0.61033825   -4.6820498   -4.6820498    -4.045854  0.019782762   -4.6820498   0.63619584   418189 
 2907000   0.60953941   -4.6808424   -4.6808424   -4.0454792  0.035118718   -4.6808424   0.63536317   418189 
 2908000    0.6095927   -4.6811943   -4.6811943   -4.0457756  0.028066339   -4.6811943   0.63541872   418189 
 2909000   0.60879345   -4.6809967   -4.6809967   -4.0464111  0.022441227   -4.6809967   0.63458561   418189 
 2910000   0.61069904   -4.6828176   -4.6828176   -4.0462457  0.035818707   -4.6828176   0.63657193   418189 
 2911000   0.61026825   -4.6818416   -4.6818416   -4.0457187  0.031029129   -4.6818416   0.63612289   418189 
 2912000   0.61045736   -4.6822676   -4.6822676   -4.0459476  0.017075114   -4.6822676   0.63632001   418189 
 2913000   0.60966594   -4.6823308   -4.6823308   -4.0468357  0.033740759   -4.6823308   0.63549506   418189 
 2914000   0.60997609   -4.6817518   -4.6817518   -4.0459334  0.039962812   -4.6817518   0.63581835   418189 
 2915000   0.61026981   -4.6819931   -4.6819931   -4.0458686  0.039993566   -4.6819931   0.63612451   418189 
 2916000   0.60917506   -4.6810807   -4.6810807   -4.0460973  0.030046494   -4.6810807   0.63498338   418189 
 2917000   0.60965012    -4.681313    -4.681313   -4.0458344  0.022450349    -4.681313   0.63547856   418189 
 2918000   0.60918171   -4.6813509   -4.6813509   -4.0463606   0.02834195   -4.6813509   0.63499031   418189 
 2919000   0.60915149   -4.6813782   -4.6813782   -4.0464194  0.027742287   -4.6813782   0.63495881   418189 
 2920000   0.61029661   -4.6821688   -4.6821688   -4.0460164  0.028988122   -4.6821688   0.63615244   418189 
 2921000   0.61197571   -4.6839839   -4.6839839   -4.0460812  0.028726352   -4.6839839   0.63790268   418189 
 2922000   0.60990046   -4.6822785   -4.6822785    -4.046539  0.049109487   -4.6822785   0.63573951   418189 
 2923000   0.61139965      -4.6834      -4.6834   -4.0460978  0.034602915      -4.6834   0.63730221   418189 
 2924000   0.60936317   -4.6814273   -4.6814273   -4.0462478  0.029338984   -4.6814273   0.63517946   418189 
 2925000   0.61143268   -4.6829536   -4.6829536    -4.045617  0.047141331   -4.6829536   0.63733665   418189 
 2926000   0.61139578   -4.6823009   -4.6823009   -4.0450028  0.033743768   -4.6823009   0.63729818   418189 
 2927000   0.61020541   -4.6819767   -4.6819767   -4.0459193  0.037770587   -4.6819767   0.63605738   418189 
 2928000   0.61165447   -4.6832703   -4.6832703   -4.0457025  0.039824312   -4.6832703   0.63756783   418189 
 2929000   0.61043135   -4.6820021   -4.6820021   -4.0457093  0.028763163   -4.6820021   0.63629289   418189 
 2930000   0.61204379    -4.683942    -4.683942   -4.0459683   0.03888239    -4.683942   0.63797365   418189 
 2931000   0.61055189   -4.6830489   -4.6830489   -4.0466304   0.03673472   -4.6830489   0.63641854   418189 
 2932000   0.60935509   -4.6814757   -4.6814757   -4.0463047  0.039216693   -4.6814757   0.63517103   418189 
 2933000   0.60979693   -4.6820066   -4.6820066   -4.0463751  0.036208979   -4.6820066   0.63563159   418189 
 2934000   0.61073499   -4.6832243   -4.6832243   -4.0466149  0.043309177   -4.6832243   0.63660939   418189 
 2935000   0.61056689   -4.6826522   -4.6826522   -4.0462181  0.044369075   -4.6826522   0.63643417   418189 
 2936000   0.61073297   -4.6818603   -4.6818603    -4.045253  0.032348587   -4.6818603   0.63660729   418189 
 2937000   0.60931755    -4.680764    -4.680764   -4.0456321  0.032049797    -4.680764   0.63513191   418189 
 2938000   0.61073726   -4.6816814   -4.6816814   -4.0450696  0.037049106   -4.6816814   0.63661176   418189 
 2939000   0.61134819   -4.6828335   -4.6828335   -4.0455849  0.018061596   -4.6828335   0.63724857   418189 
 2940000   0.60968034   -4.6826658   -4.6826658   -4.0471558  0.037087426   -4.6826658   0.63551007   418189 
 2941000    0.6103375   -4.6832667   -4.6832667   -4.0470717  0.030363502   -4.6832667   0.63619506   418189 
 2942000   0.61067274   -4.6842939   -4.6842939   -4.0477494  0.039228138   -4.6842939    0.6365445   418189 
 2943000   0.61100009    -4.684084    -4.684084   -4.0471982  0.033253934    -4.684084   0.63688572   418189 
 2944000   0.61177085   -4.6848244   -4.6848244   -4.0471353  0.041698477   -4.6848244   0.63768914   418189 
 2945000   0.61051426   -4.6838588   -4.6838588   -4.0474795  0.039038603   -4.6838588   0.63637932   418189 
 2946000   0.61117765   -4.6842826   -4.6842826   -4.0472118   0.03543296   -4.6842826   0.63707081   418189 
 2947000   0.61085899   -4.6828565   -4.6828565   -4.0461178  0.025087519   -4.6828565   0.63673865   418189 
 2948000   0.60948092   -4.6815216   -4.6815216   -4.0462194   0.04391311   -4.6815216    0.6353022   418189 
 2949000   0.61036367   -4.6834463   -4.6834463   -4.0472239  0.051092618   -4.6834463   0.63622235   418189 
 2950000   0.61015776   -4.6839125   -4.6839125   -4.0479048  0.031232701   -4.6839125   0.63600771   418189 
 2951000   0.60992371   -4.6831483   -4.6831483   -4.0473845  0.018957017   -4.6831483   0.63576374   418189 
 2952000   0.61082256   -4.6841395   -4.6841395   -4.0474388   0.01831514   -4.6841395   0.63670067   418189 
 2953000   0.61033647   -4.6836703   -4.6836703   -4.0474763  0.016271012   -4.6836703     0.636194   418189 
 2954000   0.61003932   -4.6835704   -4.6835704   -4.0476862  0.026575431   -4.6835704   0.63588426   418189 
 2955000   0.60861472   -4.6825815   -4.6825815   -4.0481822  0.033074037   -4.6825815    0.6343993   418189 
 2956000   0.61028554   -4.6845346   -4.6845346   -4.0483937  0.021940168   -4.6845346    0.6361409   418189 
 2957000   0.61109353   -4.6856972   -4.6856972   -4.0487141  0.015652675   -4.6856972   0.63698313   418189 
 2958000    0.6111854   -4.6851057   -4.6851057   -4.0480269  0.022678582   -4.6851057   0.63707888   418189 
 2959000   0.61058405   -4.6849257   -4.6849257   -4.0484737  0.034026551   -4.6849257   0.63645206   418189 
 2960000   0.61122045   -4.6853304   -4.6853304    -4.048215  0.036098165   -4.6853304   0.63711542   418189 
 2961000   0.61027775   -4.6845718   -4.6845718   -4.0484391  0.027218526   -4.6845718   0.63613278   418189 
 2962000   0.60968041   -4.6836155   -4.6836155   -4.0481053  0.040404154   -4.6836155   0.63551014   418189 
 2963000   0.60926061   -4.6832697   -4.6832697   -4.0481972  0.029412881   -4.6832697   0.63507256   418189 
 2964000   0.61012402   -4.6828905   -4.6828905    -4.046918  0.027863994   -4.6828905   0.63597254   418189 
 2965000   0.60925923   -4.6827042   -4.6827042   -4.0476331  0.022090476   -4.6827042   0.63507111   418189 
 2966000   0.60988577    -4.683062    -4.683062   -4.0473378  0.016143979    -4.683062   0.63572419   418189 
 2967000   0.60947418   -4.6835311   -4.6835311   -4.0482359  0.029041507   -4.6835311   0.63529517   418189 
 2968000   0.61044084   -4.6843789   -4.6843789   -4.0480761  0.032570972   -4.6843789   0.63630279   418189 
 2969000   0.61037428   -4.6839858   -4.6839858   -4.0477524  0.036337436   -4.6839858   0.63623341   418189 
 2970000   0.61056107   -4.6848433   -4.6848433   -4.0484152  0.035809513   -4.6848433   0.63642811   418189 
 2971000    0.6105174   -4.6843668   -4.6843668   -4.0479842  0.052950043   -4.6843668   0.63638259   418189 
 2972000   0.61024815   -4.6847269   -4.6847269    -4.048625  0.019131238   -4.6847269   0.63610193   418189 
 2973000   0.60981454   -4.6843133   -4.6843133   -4.0486634  0.027807138   -4.6843133   0.63564995   418189 
 2974000   0.61117535   -4.6856753   -4.6856753   -4.0486069  0.038317653   -4.6856753   0.63706842   418189 
 2975000   0.61050375   -4.6844446   -4.6844446   -4.0480762  0.044615536   -4.6844446   0.63636836   418189 
 2976000     0.610317   -4.6849069   -4.6849069   -4.0487332  0.025916832   -4.6849069    0.6361737   418189 
 2977000   0.61111534   -4.6851788   -4.6851788   -4.0481729  0.031242193   -4.6851788   0.63700586   418189 
 2978000   0.60982811   -4.6835816   -4.6835816   -4.0479175   0.04636571   -4.6835816   0.63566409   418189 
 2979000   0.61121033   -4.6858828   -4.6858828   -4.0487779   0.04492331   -4.6858828   0.63710487   418189 
 2980000   0.60997544   -4.6849336   -4.6849336   -4.0491159  0.015291853   -4.6849336   0.63581767   418189 
 2981000   0.61167683   -4.6864313   -4.6864313   -4.0488402  0.027878726   -4.6864313   0.63759114   418189 
 2982000    0.6108566   -4.6855066   -4.6855066   -4.0487704  0.030030064   -4.6855066   0.63673616   418189 
 2983000   0.61211364    -4.686558    -4.686558   -4.0485115  0.043607228    -4.686558   0.63804646   418189 
 2984000   0.60985934   -4.6853253   -4.6853253   -4.0496287  0.043060973   -4.6853253   0.63569665   418189 
 2985000   0.61093816   -4.6859761   -4.6859761    -4.049155  0.026649072   -4.6859761   0.63682117   418189 
 2986000   0.61111359   -4.6858131   -4.6858131   -4.0488091  0.041664114   -4.6858131   0.63700404   418189 
 2987000   0.61086768   -4.6861019   -4.6861019   -4.0493542  0.032037463   -4.6861019   0.63674771   418189 
 2988000    0.6110971    -4.686673    -4.686673   -4.0496862  0.036936347    -4.686673   0.63698685   418189 
 2989000   0.61127599   -4.6864971   -4.6864971   -4.0493238  0.027168478   -4.6864971   0.63717332   418189 
 2990000    0.6104648   -4.6862644   -4.6862644   -4.0499366  0.031078623   -4.6862644   0.63632776   418189 
 2991000   0.60942471   -4.6854045   -4.6854045   -4.0501609  0.021425337   -4.6854045   0.63524361   418189 
 2992000   0.60912836    -4.685195    -4.685195   -4.0502603  0.044273392    -4.685195    0.6349347   418189 
 2993000   0.60989872   -4.6861026   -4.6861026   -4.0503649   0.04350623   -4.6861026    0.6357377   418189 
 2994000   0.61004801   -4.6859636   -4.6859636   -4.0500702  0.021901078   -4.6859636   0.63589332   418189 
 2995000   0.60993487   -4.6865245   -4.6865245   -4.0507491  0.032185467   -4.6865245   0.63577538   418189 
 2996000   0.60992768   -4.6872832   -4.6872832   -4.0515154  0.030475807   -4.6872832   0.63576788   418189 
 2997000   0.61044708   -4.6880628   -4.6880628   -4.0517536  0.031931227   -4.6880628   0.63630929   418189 
 2998000    0.6090175   -4.6859523   -4.6859523   -4.0511331  0.027802258   -4.6859523   0.63481914   418189 
 2999000   0.60987021   -4.6872205   -4.6872205   -4.0515125  0.034158123   -4.6872205   0.63570798   418189 
 3000000   0.60927736   -4.6864303   -4.6864303   -4.0513403  0.020236753   -4.6864303   0.63509001   418189 
 3001000   0.61037509   -4.6884477   -4.6884477   -4.0522135  0.040379951   -4.6884477   0.63623425   418189 
 3002000    0.6104674   -4.6871773   -4.6871773   -4.0508468  0.035833866   -4.6871773   0.63633047   418189 
 3003000   0.61018277   -4.6873391   -4.6873391   -4.0513053  0.016582978   -4.6873391   0.63603378   418189 
 3004000   0.61041207   -4.6876528   -4.6876528     -4.05138  0.021853055   -4.6876528   0.63627279   418189 
 3005000   0.61028406   -4.6869726   -4.6869726   -4.0508332  0.039207747   -4.6869726   0.63613936   418189 
 3006000   0.61048726   -4.6871028   -4.6871028   -4.0507517  0.041745246   -4.6871028   0.63635117   418189 
 3007000   0.61120839   -4.6868538   -4.6868538    -4.049751  0.039902983   -4.6868538   0.63710285   418189 
 3008000    0.6113012   -4.6879814   -4.6879814   -4.0507818  0.030435501   -4.6879814   0.63719959   418189 
 3009000   0.61147858   -4.6886281   -4.6886281   -4.0512436  0.032543915   -4.6886281   0.63738449   418189 
 3010000   0.61027463   -4.6879797   -4.6879797   -4.0518501  0.033296327   -4.6879797   0.63612953   418189 
 3011000    0.6093721   -4.6873756   -4.6873756   -4.0521869   0.03496287   -4.6873756   0.63518877   418189 
 3012000   0.60952684   -4.6873608   -4.6873608   -4.0520108  0.031969037   -4.6873608   0.63535006   418189 
 3013000   0.61012681   -4.6880643   -4.6880643   -4.0520889  0.030315036   -4.6880643   0.63597545   418189 
 3014000   0.60788819   -4.6854286   -4.6854286   -4.0517866  0.026149726   -4.6854286   0.63364198   418189 
 3015000   0.61051082   -4.6881178   -4.6881178   -4.0517421   0.03564629   -4.6881178   0.63637573   418189 
 3016000   0.61037274   -4.6882932   -4.6882932   -4.0520614  0.030807276   -4.6882932    0.6362318   418189 
 3017000   0.61028976   -4.6878297   -4.6878297   -4.0516844  0.037824895   -4.6878297   0.63614531   418189 
 3018000   0.60970372   -4.6879179   -4.6879179   -4.0523835   0.02917115   -4.6879179   0.63553444   418189 
 3019000   0.60983103   -4.6876872   -4.6876872   -4.0520201  0.031443676   -4.6876872   0.63566714   418189 
 3020000   0.61100851   -4.6882686   -4.6882686   -4.0513741  0.041314056   -4.6882686   0.63689451   418189 
 3021000   0.61087159   -4.6893238   -4.6893238    -4.052572  0.027493542   -4.6893238   0.63675178   418189 
 3022000   0.60944384   -4.6881487   -4.6881487   -4.0528852  0.033286355   -4.6881487   0.63526355   418189 
 3023000   0.60804437   -4.6859728   -4.6859728    -4.052168  0.044262034   -4.6859728   0.63380479   418189 
 3024000   0.60949332   -4.6881379   -4.6881379   -4.0528228  0.036321397   -4.6881379   0.63531512   418189 
 3025000   0.61002616   -4.6884997   -4.6884997   -4.0526292  0.022365537   -4.6884997   0.63587053   418189 
 3026000   0.60964304   -4.6884076   -4.6884076   -4.0529364  0.030657575   -4.6884076   0.63547119   418189 
 3027000    0.6099612   -4.6886316   -4.6886316   -4.0528287  0.018999221   -4.6886316   0.63580282   418189 
 3028000   0.60822864   -4.6877257   -4.6877257   -4.0537289   0.04202038   -4.6877257   0.63399686   418189 
 3029000   0.60807393   -4.6864166   -4.6864166    -4.052581    0.0237847   -4.6864166   0.63383559   418189 
 3030000   0.60863192   -4.6883682   -4.6883682    -4.053951  0.037234599   -4.6883682   0.63441722   418189 
 3031000   0.61042536   -4.6898341   -4.6898341   -4.0535475  0.031880715   -4.6898341   0.63628665   418189 
 3032000   0.60858196   -4.6878012   -4.6878012    -4.053436  0.060340845   -4.6878012   0.63436515   418189 
 3033000   0.60856572   -4.6878892   -4.6878892   -4.0535409  0.045143718   -4.6878892   0.63434823   418189 
 3034000   0.61052573   -4.6896952   -4.6896952    -4.053304  0.026908597   -4.6896952   0.63639127   418189 
 3035000   0.60985024   -4.6895508   -4.6895508   -4.0538637  0.036057814   -4.6895508   0.63568716   418189 
 3036000    0.6098414   -4.6895899   -4.6895899    -4.053912   0.02580386   -4.6895899   0.63567794   418189 
 3037000   0.60878177   -4.6889154   -4.6889154    -4.054342    0.0380399   -4.6889154   0.63457343   418189 
 3038000   0.60946798   -4.6900481   -4.6900481   -4.0547593  0.023235187   -4.6900481   0.63528871   418189 
 3039000   0.60985353   -4.6902397   -4.6902397   -4.0545491  0.044167586   -4.6902397    0.6356906   418189 
 3040000   0.61040774    -4.689974    -4.689974   -4.0537058  0.030063906    -4.689974   0.63626829   418189 
 3041000   0.60907635   -4.6888509   -4.6888509   -4.0539705  0.029267409   -4.6888509   0.63488049   418189 
 3042000   0.61129669   -4.6915275   -4.6915275   -4.0543326  0.031958663   -4.6915275   0.63719489   418189 
 3043000   0.60973824    -4.689872    -4.689872   -4.0543016  0.026327073    -4.689872   0.63557042   418189 
 3044000   0.60887778   -4.6891868   -4.6891868   -4.0545133  0.036485345   -4.6891868   0.63467351   418189 
 3045000   0.61039613   -4.6900961   -4.6900961   -4.0538399  0.034895798   -4.6900961   0.63625618   418189 
 3046000    0.6108091   -4.6903723   -4.6903723   -4.0536857  0.022586201   -4.6903723   0.63668665   418189 
 3047000   0.61105352   -4.6913347   -4.6913347   -4.0543933  0.023510537   -4.6913347   0.63694142   418189 
 3048000   0.61002433   -4.6898442   -4.6898442   -4.0539756  0.033246613   -4.6898442   0.63586862   418189 
 3049000   0.60991489   -4.6902266   -4.6902266   -4.0544721  0.022544977   -4.6902266   0.63575455   418189 
 3050000   0.61048683   -4.6902847   -4.6902847    -4.053934  0.031200126   -4.6902847   0.63635072   418189 
 3051000   0.61010968   -4.6901121   -4.6901121   -4.0541545   0.04023066   -4.6901121   0.63595759   418189 
 3052000   0.61080783    -4.690659    -4.690659   -4.0539736  0.032217937    -4.690659   0.63668532   418189 
 3053000   0.60920704   -4.6892778   -4.6892778   -4.0542611  0.038047576   -4.6892778   0.63501671   418189 
 3054000   0.60894236   -4.6895175   -4.6895175   -4.0547767  0.029263013   -4.6895175   0.63474082   418189 
 3055000   0.60943489   -4.6901458   -4.6901458   -4.0548916  0.024957905   -4.6901458   0.63525421   418189 
 3056000   0.60892718   -4.6900799   -4.6900799   -4.0553549  0.040789172   -4.6900799     0.634725   418189 
 3057000   0.60876884   -4.6900538   -4.6900538   -4.0554939  0.029496382   -4.6900538   0.63455995   418189 
 3058000   0.60934074   -4.6901132   -4.6901132   -4.0549571  0.031070433   -4.6901132   0.63515608   418189 
 3059000   0.60923677   -4.6898048   -4.6898048   -4.0547571  0.039319061   -4.6898048    0.6350477   418189 
 3060000   0.60917634   -4.6900703   -4.6900703   -4.0550856  0.044599974   -4.6900703   0.63498471   418189 
 3061000   0.60901416   -4.6900195   -4.6900195   -4.0552038  0.025100079   -4.6900195   0.63481566   418189 
 3062000   0.60852786   -4.6895034   -4.6895034   -4.0551947   0.03340432   -4.6895034   0.63430876   418189 
 3063000   0.60829943   -4.6890896   -4.6890896    -4.055019  0.014543357   -4.6890896   0.63407065   418189 
 3064000     0.607538   -4.6887938   -4.6887938   -4.0555168  0.041059623   -4.6887938   0.63327696   418189 
 3065000   0.60832645   -4.6895981   -4.6895981   -4.0554993  0.028221069   -4.6895981   0.63409882   418189 
 3066000   0.60849838   -4.6900643   -4.6900643   -4.0557862  0.041849146   -4.6900643   0.63427803   418189 
 3067000   0.60769912   -4.6892118   -4.6892118   -4.0557669  0.018390632   -4.6892118   0.63344491   418189 
 3068000   0.60883511   -4.6901439   -4.6901439   -4.0555148   0.01915705   -4.6901439   0.63462903   418189 
 3069000   0.61023136   -4.6924399   -4.6924399   -4.0563555  0.041461673   -4.6924399   0.63608443   418189 
 3070000   0.60843925   -4.6905075   -4.6905075   -4.0562911  0.030035362   -4.6905075    0.6342164   418189 
 3071000   0.60854076   -4.6906677   -4.6906677   -4.0563455  0.037985067   -4.6906677   0.63432221   418189 
 3072000   0.60776587   -4.6900958   -4.6900958   -4.0565813  0.027012902   -4.6900958   0.63351449   418189 
 3073000   0.60887805    -4.690932    -4.690932   -4.0562583  0.034722831    -4.690932   0.63467378   418189 
 3074000   0.60933899   -4.6907363   -4.6907363   -4.0555821  0.028865049   -4.6907363   0.63515425   418189 
 3075000   0.60830683   -4.6903962   -4.6903962   -4.0563178  0.025345661   -4.6903962   0.63407837   418189 
 3076000   0.60786052   -4.6899031   -4.6899031   -4.0562899   0.04291045   -4.6899031   0.63361314   418189 
 3077000   0.60796474   -4.6901464   -4.6901464   -4.0564247  0.021000415   -4.6901464   0.63372178   418189 
 3078000   0.60886301    -4.691286    -4.691286   -4.0566279  0.038801807    -4.691286    0.6346581   418189 
 3079000   0.60854963   -4.6909396   -4.6909396   -4.0566082  0.053444989   -4.6909396   0.63433145   418189 
 3080000   0.61016869   -4.6922668   -4.6922668   -4.0562477  0.028066504   -4.6922668    0.6360191   418189 
 3081000    0.6094165   -4.6917343   -4.6917343   -4.0564993  0.030353751   -4.6917343   0.63523504   418189 
 3082000   0.60974739   -4.6915126   -4.6915126   -4.0559326   0.04741327   -4.6915126   0.63557996   418189 
 3083000   0.60935357   -4.6919374   -4.6919374    -4.056768  0.025324809   -4.6919374   0.63516945   418189 
 3084000   0.61072505   -4.6929863   -4.6929863   -4.0563872  0.032345184   -4.6929863   0.63659903   418189 
 3085000   0.60959169   -4.6926184   -4.6926184   -4.0572008   0.02770834   -4.6926184   0.63541766   418189 
 3086000     0.609544   -4.6924756   -4.6924756   -4.0571077   0.02574776   -4.6924756   0.63536794   418189 
 3087000   0.61045577   -4.6940609   -4.6940609   -4.0577426  0.018362248   -4.6940609   0.63631834   418189 
 3088000   0.60812018    -4.691909    -4.691909   -4.0580252  0.031291383    -4.691909    0.6338838   418189 
 3089000   0.60801231   -4.6912252   -4.6912252   -4.0574539  0.035648783   -4.6912252   0.63377137   418189 
 3090000   0.60933907   -4.6923585   -4.6923585   -4.0572041  0.027870659   -4.6923585   0.63515433   418189 
 3091000   0.60997041   -4.6930811   -4.6930811   -4.0572686  0.044978784   -4.6930811   0.63581242   418189 
 3092000   0.60901879   -4.6926828   -4.6926828   -4.0578623  0.045916746   -4.6926828   0.63482049   418189 
 3093000   0.61032099   -4.6945578   -4.6945578   -4.0583799   0.02997643   -4.6945578   0.63617785   418189 
 3094000   0.60820962   -4.6924186   -4.6924186   -4.0584416  0.028752627   -4.6924186   0.63397704   418189 
 3095000   0.60902672   -4.6944209   -4.6944209   -4.0595922  0.034964383   -4.6944209   0.63482876   418189 
 3096000    0.6089751    -4.693211    -4.693211    -4.058436   0.04346633    -4.693211   0.63477495   418189 
 3097000   0.60886416   -4.6931957   -4.6931957   -4.0585363  0.046031146   -4.6931957   0.63465931   418189 
 3098000   0.60817969   -4.6922028   -4.6922028    -4.058257   0.02734236   -4.6922028   0.63394584   418189 
 3099000   0.60850548   -4.6927648   -4.6927648   -4.0584793  0.021292494   -4.6927648   0.63428543   418189 
 3100000   0.60925969    -4.693873    -4.693873   -4.0588014  0.031041576    -4.693873   0.63507159   418189 
 3101000   0.60831175   -4.6928261   -4.6928261   -4.0587426  0.035831525   -4.6928261    0.6340835   418189 
 3102000    0.6085999   -4.6927232   -4.6927232   -4.0583394  0.037423365   -4.6927232   0.63438386   418189 
 3103000   0.60835479   -4.6917755   -4.6917755   -4.0576471  0.043974071   -4.6917755   0.63412835   418189 
 3104000     0.609146   -4.6928495   -4.6928495   -4.0578965  0.033966375   -4.6928495   0.63495309   418189 
 3105000   0.60763445   -4.6917407   -4.6917407   -4.0583632  0.017738289   -4.6917407    0.6333775   418189 
 3106000   0.60898113   -4.6937311   -4.6937311   -4.0589498  0.027113114   -4.6937311   0.63478123   418189 
 3107000   0.60762536   -4.6918008   -4.6918008   -4.0584328  0.030213203   -4.6918008   0.63336802   418189 
 3108000   0.60908594   -4.6936959   -4.6936959   -4.0588054   0.03637648   -4.6936959   0.63489048   418189 
 3109000   0.60816911   -4.6929104   -4.6929104   -4.0589756   0.03630906   -4.6929104   0.63393481   418189 
 3110000   0.60983991   -4.6939717   -4.6939717   -4.0582953  0.039686681   -4.6939717    0.6356764   418189 
 3111000   0.60943796   -4.6938146   -4.6938146   -4.0585572  0.049497433   -4.6938146   0.63525741   418189 
 3112000   0.60946412   -4.6942075   -4.6942075   -4.0589228  0.036073858   -4.6942075   0.63528468   418189 
 3113000   0.60890125   -4.6940138   -4.6940138   -4.0593158  0.032175863   -4.6940138   0.63469797   418189 
 3114000   0.60816167   -4.6932964   -4.6932964   -4.0593694  0.034955201   -4.6932964   0.63392705   418189 
 3115000   0.60761911   -4.6924355   -4.6924355    -4.059074  0.032549548   -4.6924355   0.63336151   418189 
 3116000   0.60888986   -4.6932467   -4.6932467   -4.0585606  0.040632437   -4.6932467   0.63468609   418189 
 3117000   0.60811927   -4.6917921   -4.6917921   -4.0579093  0.035142214   -4.6917921   0.63388285   418189 
 3118000   0.60886149   -4.6929656   -4.6929656    -4.058309  0.027223076   -4.6929656   0.63465652   418189 
 3119000   0.60909648   -4.6945697   -4.6945697   -4.0596682  0.028590724   -4.6945697   0.63490147   418189 
 3120000   0.60855398   -4.6942802   -4.6942802   -4.0599442  0.042120928   -4.6942802   0.63433598   418189 
 3121000   0.61021116   -4.6954958   -4.6954958   -4.0594324  0.025129904   -4.6954958   0.63606337   418189 
 3122000   0.60910762   -4.6945311   -4.6945311    -4.059618  0.036747493   -4.6945311   0.63491308   418189 
 3123000   0.60669422   -4.6918775   -4.6918775     -4.05948  0.020084265   -4.6918775   0.63239744   418189 
 3124000    0.6104077   -4.6957512   -4.6957512   -4.0594829  0.031565204   -4.6957512   0.63626824   418189 
 3125000   0.60880735   -4.6930685   -4.6930685   -4.0584684  0.029126331   -4.6930685   0.63460009   418189 
 3126000   0.60853044   -4.6931089   -4.6931089   -4.0587974  0.039987528   -4.6931089   0.63431145   418189 
 3127000   0.60872452   -4.6942265   -4.6942265   -4.0597128   0.05624186   -4.6942265   0.63451376   418189 
 3128000   0.60771043   -4.6932686   -4.6932686    -4.059812  0.034582081   -4.6932686   0.63345669   418189 
 3129000   0.60941159   -4.6943619   -4.6943619   -4.0591319   0.03333025   -4.6943619   0.63522992   418189 
 3130000   0.61002926   -4.6943936   -4.6943936   -4.0585198  0.023181077   -4.6943936   0.63587376   418189 
 3131000    0.6104832   -4.6953094   -4.6953094   -4.0589625  0.036554914   -4.6953094   0.63634694   418189 
 3132000   0.60814723   -4.6939879   -4.6939879   -4.0600759  0.016235976   -4.6939879     0.633912   418189 
 3133000   0.60868217   -4.6936531   -4.6936531   -4.0591835  0.016385117   -4.6936531   0.63446961   418189 
 3134000   0.60907412   -4.6940832   -4.6940832    -4.059205  0.019821027   -4.6940832   0.63487816   418189 
 3135000   0.60921501   -4.6943623   -4.6943623   -4.0593373  0.030495016   -4.6943623   0.63502502   418189 
 3136000    0.6087158   -4.6934185   -4.6934185   -4.0589138  0.048557476   -4.6934185   0.63450466   418189 
 3137000   0.60781262   -4.6929373   -4.6929373   -4.0593741  0.030828285   -4.6929373   0.63356322   418189 
 3138000   0.60717297      -4.6928      -4.6928   -4.0599035  0.017727255      -4.6928   0.63289646   418189 
 3139000   0.60804638   -4.6941322   -4.6941322   -4.0603253  0.036719919   -4.6941322   0.63380688   418189 
 3140000   0.60921793   -4.6954297   -4.6954297   -4.0604016  0.039183727   -4.6954297   0.63502806   418189 
 3141000   0.60822415   -4.6943725   -4.6943725   -4.0603803  0.035380604   -4.6943725   0.63399218   418189 
 3142000    0.6087259    -4.695929    -4.695929   -4.0614138  0.041380382    -4.695929   0.63451519   418189 
 3143000   0.60889808   -4.6951112   -4.6951112   -4.0604166  0.039814747   -4.6951112   0.63469466   418189 
 3144000   0.60797942   -4.6943374   -4.6943374   -4.0606003   0.03392294   -4.6943374   0.63373709   418189 
 3145000   0.60975919   -4.6948094   -4.6948094   -4.0592171  0.034167476   -4.6948094   0.63559225   418189 
 3146000   0.60975793   -4.6950272   -4.6950272   -4.0594363  0.036867565   -4.6950272   0.63559095   418189 
 3147000   0.60924128   -4.6946625   -4.6946625   -4.0596101  0.039722001   -4.6946625   0.63505241   418189 
 3148000   0.60799321    -4.694359    -4.694359   -4.0606075  0.040339228    -4.694359   0.63375145   418189 
 3149000   0.60853562   -4.6959065   -4.6959065   -4.0615896  0.024716113   -4.6959065   0.63431685   418189 
 3150000   0.60792983   -4.6951762   -4.6951762   -4.0614908  0.031627727   -4.6951762    0.6336854   418189 
 3151000   0.60848839   -4.6956353   -4.6956353   -4.0613677  0.030568591   -4.6956353   0.63426761   418189 
 3152000    0.6085285   -4.6957087   -4.6957087   -4.0613992  0.017377543   -4.6957087   0.63430943   418189 
 3153000   0.60902798   -4.6958476   -4.6958476   -4.0610175  0.038833937   -4.6958476   0.63483006   418189 
 3154000   0.60790376   -4.6957785   -4.6957785   -4.0621203  0.025921734   -4.6957785   0.63365822   418189 
 3155000   0.60817508   -4.6956414   -4.6956414   -4.0617003  0.036387845   -4.6956414   0.63394103   418189 
 3156000   0.60846845   -4.6960866   -4.6960866   -4.0618398  0.033643299   -4.6960866   0.63424683   418189 
 3157000    0.6088315   -4.6966963   -4.6966963    -4.062071  0.043494181   -4.6966963   0.63462527   418189 
 3158000   0.60834269   -4.6960978   -4.6960978   -4.0619821    0.0358791   -4.6960978   0.63411574   418189 
 3159000   0.60771879   -4.6958864   -4.6958864   -4.0624209  0.031337016   -4.6958864   0.63346542   418189 
 3160000   0.60716442   -4.6951483   -4.6951483   -4.0622607  0.014240269   -4.6951483   0.63288755   418189 
 3161000   0.60850583   -4.6965391   -4.6965391   -4.0622533  0.034076481   -4.6965391   0.63428579   418189 
 3162000   0.60866703   -4.6976161   -4.6976161   -4.0631623  0.026032994   -4.6976161   0.63445382   418189 
 3163000   0.60870816   -4.6970729   -4.6970729   -4.0625762  0.043458125   -4.6970729    0.6344967   418189 
 3164000   0.60931477   -4.6976423   -4.6976423   -4.0625133  0.039164933   -4.6976423   0.63512901   418189 
 3165000   0.60771956   -4.6963839   -4.6963839   -4.0629177  0.019187836   -4.6963839   0.63346622   418189 
 3166000   0.60796827   -4.6957003   -4.6957003   -4.0619748  0.018606014   -4.6957003   0.63372546   418189 
 3167000   0.60759937   -4.6950695   -4.6950695   -4.0617285  0.032603307   -4.6950695   0.63334094   418189 
 3168000   0.60904189   -4.6969082   -4.6969082   -4.0620636  0.022224738   -4.6969082   0.63484457   418189 
 3169000   0.60810167   -4.6957873   -4.6957873   -4.0619228  0.015786591   -4.6957873   0.63386451   418189 
 3170000   0.60780863   -4.6954667   -4.6954667   -4.0619077  0.023066968   -4.6954667   0.63355906   418189 
 3171000   0.60924264   -4.6967775   -4.6967775   -4.0617237  0.030798499   -4.6967775   0.63505382   418189 
 3172000   0.60914905   -4.6967501   -4.6967501   -4.0617939  0.046423099   -4.6967501   0.63495627   418189 
 3173000   0.60995592   -4.6981276   -4.6981276   -4.0623303  0.019789327   -4.6981276   0.63579731   418189 
 3174000   0.60917016   -4.6980427   -4.6980427   -4.0630644   0.02556267   -4.6980427   0.63497827   418189 
 3175000   0.60753625   -4.6958736   -4.6958736   -4.0625984  0.024030592   -4.6958736   0.63327513   418189 
 3176000    0.6092114   -4.6970481   -4.6970481   -4.0620269  0.025818942   -4.6970481   0.63502125   418189 
 3177000   0.60905398   -4.6968756   -4.6968756   -4.0620185  0.032481734   -4.6968756   0.63485717   418189 
 3178000   0.60907515   -4.6971667   -4.6971667   -4.0622875  0.016303577   -4.6971667   0.63487923   418189 
 3179000   0.60814602   -4.6967451   -4.6967451   -4.0628344  0.035720289   -4.6967451   0.63391074   418189 
 3180000   0.60850336   -4.6973684   -4.6973684   -4.0630852  0.034703554   -4.6973684   0.63428322   418189 
 3181000   0.60793118     -4.69689     -4.69689   -4.0632032  0.030543077     -4.69689    0.6336868   418189 
 3182000   0.60758214   -4.6962147   -4.6962147   -4.0628917  0.027852947   -4.6962147   0.63332297   418189 
 3183000   0.60934153   -4.6975317   -4.6975317   -4.0623748  0.039522962   -4.6975317    0.6351569   418189 
 3184000   0.60822461   -4.6963521   -4.6963521   -4.0623594  0.017713976   -4.6963521   0.63399266   418189 
 3185000   0.60848674   -4.6965312   -4.6965312   -4.0622653  0.029521388   -4.6965312   0.63426589   418189 
 3186000   0.60883672   -4.6971774   -4.6971774   -4.0625467  0.030016083   -4.6971774    0.6346307   418189 
 3187000   0.60785114   -4.6961433   -4.6961433     -4.06254  0.026604122   -4.6961433   0.63360337   418189 
 3188000   0.60876549   -4.6968926   -4.6968926   -4.0623362  0.035222288   -4.6968926   0.63455645   418189 
 3189000   0.60835754   -4.6961072   -4.6961072    -4.061976    0.0279222   -4.6961072   0.63413122   418189 
 3190000   0.60726564   -4.6959157   -4.6959157   -4.0629226  0.026009299   -4.6959157   0.63299306   418189 
 3191000   0.60821047   -4.6970378   -4.6970378   -4.0630599  0.031168914   -4.6970378   0.63397792   418189 
 3192000   0.60714724   -4.6952688   -4.6952688   -4.0623992  0.023094201   -4.6952688   0.63286965   418189 
 3193000   0.60831499   -4.6968155   -4.6968155   -4.0627287  0.038004703   -4.6968155   0.63408687   418189 
 3194000   0.60894119   -4.6970824   -4.6970824   -4.0623428  0.038527228   -4.6970824    0.6347396   418189 
 3195000    0.6094778   -4.6970049   -4.6970049    -4.061706  0.028977781   -4.6970049   0.63529894   418189 
 3196000   0.60976223   -4.6981578   -4.6981578   -4.0625623  0.022793102   -4.6981578   0.63559542   418189 
 3197000   0.61029799   -4.6983463   -4.6983463   -4.0621924  0.035480978   -4.6983463   0.63615388   418189 
 3198000   0.60940518   -4.6980466   -4.6980466   -4.0628234  0.021968477   -4.6980466   0.63522324   418189 
 3199000    0.6076988   -4.6971918   -4.6971918   -4.0637472  0.033155603   -4.6971918   0.63344457   418189 
 3200000   0.60857094   -4.6983813   -4.6983813   -4.0640277  0.031029717   -4.6983813   0.63435367   418189 
 3201000   0.60690794    -4.697359    -4.697359   -4.0647388  0.046730749    -4.697359   0.63262021   418189 
 3202000   0.60843926   -4.6986472   -4.6986472   -4.0644308  0.031532702   -4.6986472   0.63421641   418189 
 3203000   0.60839087   -4.6982282   -4.6982282   -4.0640622  0.029223997   -4.6982282   0.63416596   418189 
 3204000   0.60694731   -4.6964715   -4.6964715   -4.0638103  0.037020737   -4.6964715   0.63266125   418189 
 3205000    0.6087689   -4.6978903   -4.6978903   -4.0633303  0.029685608   -4.6978903   0.63456001   418189 
 3206000     0.608439   -4.6979532   -4.6979532   -4.0637371    0.0380828   -4.6979532   0.63421614   418189 
 3207000   0.60831425   -4.6970506   -4.6970506   -4.0629645  0.020820866   -4.6970506   0.63408609   418189 
 3208000   0.60944946   -4.6982297   -4.6982297   -4.0629603  0.026299297   -4.6982297   0.63526941   418189 
 3209000   0.60793261   -4.6963716   -4.6963716   -4.0626833  0.025570551   -4.6963716   0.63368829   418189 
 3210000   0.60784011   -4.6959877   -4.6959877   -4.0623959  0.039815834   -4.6959877   0.63359188   418189 
 3211000   0.60886264   -4.6970173   -4.6970173   -4.0623596  0.026697526   -4.6970173   0.63465772   418189 
 3212000   0.60818168   -4.6962937   -4.6962937   -4.0623458  0.049117085   -4.6962937   0.63394791   418189 
 3213000   0.60940214   -4.6974809   -4.6974809   -4.0622609  0.028450583   -4.6974809   0.63522008   418189 
 3214000   0.61012225   -4.6985599   -4.6985599   -4.0625892  0.033540926   -4.6985599    0.6359707   418189 
 3215000   0.61016007   -4.6980262   -4.6980262   -4.0620161  0.029247641   -4.6980262   0.63601012   418189 
 3216000   0.60848311   -4.6966236   -4.6966236   -4.0623615  0.024415008   -4.6966236   0.63426211   418189 
 3217000   0.60920673   -4.6973941   -4.6973941   -4.0623777  0.037044124   -4.6973941   0.63501639   418189 
 3218000   0.60921615   -4.6978693   -4.6978693   -4.0628431  0.023880666   -4.6978693   0.63502621   418189 
 3219000   0.60965854   -4.6989649   -4.6989649   -4.0634776  0.018568218   -4.6989649   0.63548734   418189 
 3220000   0.60989999   -4.6993253   -4.6993253   -4.0635863   0.03911142   -4.6993253   0.63573902   418189 
 3221000   0.60867185   -4.6979384   -4.6979384   -4.0634795  0.031450112   -4.6979384   0.63445885   418189 
 3222000   0.60787759   -4.6968647   -4.6968647   -4.0632338  0.028299517   -4.6968647   0.63363094   418189 
 3223000   0.60922958   -4.6984475   -4.6984475   -4.0634073  0.030468324   -4.6984475    0.6350402   418189 
 3224000   0.61040908    -4.699138    -4.699138   -4.0628683  0.040054057    -4.699138   0.63626968   418189 
 3225000     0.609493   -4.6984659   -4.6984659   -4.0631511    0.0404459   -4.6984659   0.63531479   418189 
 3226000   0.60932047   -4.6986185   -4.6986185   -4.0634836  0.029747336   -4.6986185   0.63513495   418189 
 3227000   0.60944554   -4.6986207   -4.6986207   -4.0633554  0.044481709   -4.6986207   0.63526531   418189 
 3228000    0.6090558    -4.698426    -4.698426   -4.0635669  0.032713113    -4.698426   0.63485907   418189 
 3229000   0.60845115   -4.6972328   -4.6972328    -4.063004  0.040520089   -4.6972328   0.63422879   418189 
 3230000   0.60899424   -4.6973102   -4.6973102   -4.0625153  0.036087212   -4.6973102    0.6347949   418189 
 3231000   0.60950207   -4.6977745   -4.6977745   -4.0624503  0.032273845   -4.6977745   0.63532424   418189 
 3232000   0.60775495   -4.6957282   -4.6957282   -4.0622251  0.034169073   -4.6957282    0.6335031   418189 
 3233000   0.60986058   -4.6980293   -4.6980293   -4.0623313  0.031556097   -4.6980293   0.63569794   418189 
 3234000     0.608341   -4.6965651   -4.6965651   -4.0624511  0.033547453   -4.6965651   0.63411398   418189 
 3235000   0.60881149   -4.6969795   -4.6969795   -4.0623751  0.022845518   -4.6969795    0.6346044   418189 
 3236000   0.60845893   -4.6969129   -4.6969129    -4.062676  0.027718134   -4.6969129    0.6342369   418189 
 3237000   0.60870543   -4.6967981   -4.6967981   -4.0623042  0.042958661   -4.6967981   0.63449385   418189 
 3238000   0.60968613    -4.697752    -4.697752   -4.0622359  0.030191917    -4.697752    0.6355161   418189 
 3239000   0.60769132   -4.6965072   -4.6965072   -4.0630704  0.016765292   -4.6965072   0.63343677   418189 
 3240000   0.60805406   -4.6968646   -4.6968646   -4.0630498 0.0087185214   -4.6968646   0.63381488   418189 
 3241000   0.60792357   -4.6962043   -4.6962043   -4.0625254    0.0279754   -4.6962043   0.63367887   418189 
 3242000   0.60814517   -4.6969507   -4.6969507   -4.0630409   0.03351223   -4.6969507   0.63390985   418189 
 3243000   0.60818883   -4.6971804   -4.6971804    -4.063225   0.01885038   -4.6971804   0.63395537   418189 
 3244000   0.60962584   -4.6980042   -4.6980042   -4.0625509  0.040320939   -4.6980042   0.63545325   418189 
 3245000   0.60891414   -4.6978636   -4.6978636   -4.0631522  0.042074699   -4.6978636    0.6347114   418189 
 3246000    0.6097942   -4.6986856   -4.6986856   -4.0630568  0.032764196   -4.6986856   0.63562874   418189 
 3247000    0.6094121   -4.6982821   -4.6982821   -4.0630516  0.034163971   -4.6982821   0.63523046   418189 
 3248000   0.60865034    -4.697646    -4.697646   -4.0632096  0.026336714    -4.697646   0.63443643   418189 
 3249000   0.60777593   -4.6972863   -4.6972863   -4.0637613  0.024724891   -4.6972863   0.63352498   418189 
 3250000   0.60922781    -4.698688    -4.698688   -4.0636496  0.026535332    -4.698688   0.63503837   418189 
 3251000   0.60772846   -4.6967059   -4.6967059   -4.0632304  0.019465947   -4.6967059   0.63347549   418189 
 3252000   0.60876212   -4.6976693   -4.6976693   -4.0631164  0.033667913   -4.6976693   0.63455294   418189 
 3253000   0.60779614   -4.6974955   -4.6974955   -4.0639495  0.026645489   -4.6974955   0.63354604   418189 
 3254000   0.60839203    -4.698746    -4.698746   -4.0645788  0.036962364    -4.698746   0.63416718   418189 
 3255000   0.60884756   -4.6992302   -4.6992302   -4.0645882  0.033502317   -4.6992302     0.634642   418189 
 3256000   0.60820071   -4.6982493   -4.6982493   -4.0642815    0.0314958   -4.6982493   0.63396775   418189 
 3257000   0.61002721   -4.7003937   -4.7003937   -4.0645221  0.028341451   -4.7003937   0.63587163   418189 
 3258000   0.60752963   -4.6982627   -4.6982627   -4.0649944  0.027525124   -4.6982627   0.63326824   418189 
 3259000   0.60768217   -4.6988115   -4.6988115   -4.0653843  0.028150802   -4.6988115   0.63342723   418189 
 3260000   0.60960183   -4.7003406   -4.7003406   -4.0649124  0.023304582   -4.7003406   0.63542823   418189 
 3261000   0.60930419   -4.7003415   -4.7003415   -4.0652235  0.032732575   -4.7003415   0.63511797   418189 
 3262000   0.60982171   -4.7004793   -4.7004793   -4.0648219   0.04460146   -4.7004793   0.63565743   418189 
 3263000   0.60877953   -4.6998406   -4.6998406   -4.0652695  0.038052074   -4.6998406    0.6345711   418189 
 3264000    0.6071772   -4.6979946   -4.6979946   -4.0650938  0.036923176   -4.6979946   0.63290087   418189 
 3265000   0.60878865   -4.7000331   -4.7000331   -4.0654525  0.025022367   -4.7000331    0.6345806   418189 
 3266000   0.60811427   -4.6992365   -4.6992365   -4.0653588  0.034419134   -4.6992365   0.63387765   418189 
 3267000   0.60880707   -4.6995115   -4.6995115   -4.0649117  0.037912158   -4.6995115    0.6345998   418189 
 3268000   0.60810524   -4.6994122   -4.6994122   -4.0655439  0.029265966   -4.6994122   0.63386824   418189 
 3269000   0.60634248   -4.6974982   -4.6974982   -4.0654674  0.034147091   -4.6974982    0.6320308   418189 
 3270000   0.60745087    -4.698237    -4.698237   -4.0650508  0.038810173    -4.698237   0.63318614   418189 
 3271000   0.60622732   -4.6973076   -4.6973076   -4.0653968  0.033677304   -4.6973076   0.63191075   418189 
 3272000   0.60746742   -4.6987422   -4.6987422   -4.0655388  0.038965318   -4.6987422   0.63320339   418189 
 3273000   0.60724112   -4.7000001   -4.7000001   -4.0670326  0.031683956   -4.7000001    0.6329675   418189 
 3274000   0.60844489   -4.7003779   -4.7003779   -4.0661557  0.032672462   -4.7003779   0.63422227   418189 
 3275000   0.60766471   -4.6991685   -4.6991685   -4.0657594  0.042646572   -4.6991685   0.63340904   418189 
 3276000   0.60913768   -4.7009116   -4.7009116   -4.0659671  0.031826506   -4.7009116   0.63494441   418189 
 3277000   0.60786511   -4.7003622   -4.7003622   -4.0667443  0.032290731   -4.7003622   0.63361793   418189 
 3278000   0.60933803   -4.7016174   -4.7016174   -4.0664642   0.03431961   -4.7016174   0.63515326   418189 
 3279000    0.6089227   -4.7019205   -4.7019205   -4.0672002  0.031273927   -4.7019205   0.63472032   418189 
 3280000   0.60900924    -4.701428    -4.701428   -4.0666175  0.020175148    -4.701428   0.63481053   418189 
 3281000   0.60930225   -4.7016585   -4.7016585   -4.0665425  0.037435534   -4.7016585   0.63511596   418189 
 3282000   0.60988899   -4.7019228   -4.7019228   -4.0661952   0.01530669   -4.7019228   0.63572755   418189 
 3283000   0.60767682    -4.699647    -4.699647   -4.0662254  0.028767979    -4.699647   0.63342166   418189 
 3284000   0.60917971    -4.701067    -4.701067   -4.0660787  0.042269473    -4.701067   0.63498823   418189 
 3285000   0.60738057   -4.6985202   -4.6985202   -4.0654074  0.037580699   -4.6985202   0.63311286   418189 
 3286000    0.6075156    -4.698454    -4.698454   -4.0652004  0.026285683    -4.698454   0.63325361   418189 
 3287000   0.60764318   -4.6989688   -4.6989688   -4.0655822  0.033206894   -4.6989688   0.63338659   418189 
 3288000   0.60686372   -4.6989737   -4.6989737   -4.0663996  0.029333674   -4.6989737   0.63257412   418189 
 3289000   0.60737299   -4.6996501   -4.6996501   -4.0665451  0.032139217   -4.6996501   0.63310496   418189 
 3290000   0.60627487     -4.69887     -4.69887   -4.0669097  0.012400067     -4.69887   0.63196032   418189 
 3291000   0.60710597   -4.6997488   -4.6997488   -4.0669222  0.024964085   -4.6997488   0.63282663   418189 
 3292000   0.60773859   -4.7006729   -4.7006729   -4.0671868  0.035206071   -4.7006729   0.63348605   418189 
 3293000   0.60883448   -4.7006635   -4.7006635   -4.0660351  0.030915431   -4.7006635   0.63462837   418189 
 3294000   0.60760151   -4.6994806   -4.6994806   -4.0661374  0.027008623   -4.6994806   0.63334316   418189 
 3295000   0.60821075   -4.7006602   -4.7006602    -4.066682  0.033574999   -4.7006602   0.63397822   418189 
 3296000   0.60758732    -4.700712    -4.700712   -4.0673836  0.040053854    -4.700712   0.63332837   418189 
 3297000   0.60591733   -4.6985282   -4.6985282   -4.0669405  0.041064375   -4.6985282   0.63158763   418189 
 3298000   0.60893014   -4.7011041   -4.7011041   -4.0663761  0.032621366   -4.7011041   0.63472808   418189 
 3299000   0.60882788   -4.7005352   -4.7005352   -4.0659137  0.025671101   -4.7005352   0.63462149   418189 
 3300000   0.60730303   -4.6993311   -4.6993311   -4.0662991  0.041545619   -4.6993311   0.63303204   418189 
 3301000   0.60762327   -4.6995877   -4.6995877   -4.0662219  0.033736313   -4.6995877   0.63336584   418189 
 3302000   0.60806414   -4.7009638   -4.7009638   -4.0671384  0.023057671   -4.7009638   0.63382539   418189 
 3303000   0.60786846   -4.7001468   -4.7001468   -4.0665253  0.025321142   -4.7001468   0.63362142   418189 
 3304000    0.6081021   -4.6994864   -4.6994864   -4.0656214  0.039400212   -4.6994864   0.63386496   418189 
 3305000   0.60918701   -4.7002987   -4.7002987   -4.0653029  0.031150846   -4.7002987   0.63499584   418189 
 3306000    0.6078328   -4.6998046   -4.6998046   -4.0662203  0.033970126   -4.6998046   0.63358425   418189 
 3307000   0.60836682   -4.7000877   -4.7000877   -4.0659468  0.013369497   -4.7000877    0.6341409   418189 
 3308000    0.6064152   -4.6987248   -4.6987248   -4.0666182  0.030229777   -4.6987248   0.63210659   418189 
 3309000   0.60802303   -4.6994112   -4.6994112   -4.0656287  0.007489549   -4.6994112   0.63378254   418189 
 3310000   0.60869859   -4.7006146   -4.7006146   -4.0661279  0.035659687   -4.7006146   0.63448673   418189 
 3311000   0.60912621   -4.7016137   -4.7016137   -4.0666812  0.028546383   -4.7016137   0.63493246   418189 
 3312000   0.60902782   -4.7007477   -4.7007477   -4.0659178  0.032480006   -4.7007477    0.6348299   418189 
 3313000   0.60628104   -4.6979902   -4.6979902   -4.0660234  0.038170155   -4.6979902   0.63196675   418189 
 3314000   0.60858429   -4.7005787   -4.7005787   -4.0662111  0.027899699   -4.7005787   0.63436758   418189 
 3315000    0.6077539   -4.7000084   -4.7000084   -4.0665064   0.04626094   -4.7000084   0.63350201   418189 
 3316000   0.60886148    -4.700842    -4.700842   -4.0661855  0.045473969    -4.700842   0.63465651   418189 
 3317000   0.60792976   -4.6995463   -4.6995463    -4.065861  0.021304788   -4.6995463   0.63368532   418189 
 3318000   0.60828009   -4.7001723   -4.7001723   -4.0661218  0.037608168   -4.7001723   0.63405049   418189 
 3319000   0.60620883   -4.6976886   -4.6976886   -4.0657971  0.026476512   -4.6976886   0.63189148   418189 
 3320000   0.60856474   -4.7007628   -4.7007628   -4.0664156  0.040761167   -4.7007628    0.6343472   418189 
 3321000     0.607265   -4.6999469   -4.6999469   -4.0669545  0.026887797   -4.6999469    0.6329924   418189 
 3322000   0.60543853    -4.697886    -4.697886   -4.0667974  0.033667545    -4.697886   0.63108855   418189 
 3323000   0.60823457   -4.6999662   -4.6999662   -4.0659632  0.035939668   -4.6999662   0.63400304   418189 
 3324000   0.60890479   -4.7006364   -4.7006364   -4.0659347  0.032154542   -4.7006364   0.63470165   418189 
 3325000   0.60725821    -4.699509    -4.699509   -4.0665236  0.030938452    -4.699509   0.63298532   418189 
 3326000   0.60778334   -4.6996958   -4.6996958   -4.0661631  0.014247803   -4.6996958   0.63353269   418189 
 3327000   0.60869052   -4.7000729   -4.7000729   -4.0655946  0.037783888   -4.7000729   0.63447831   418189 
 3328000   0.60810518   -4.6995676   -4.6995676   -4.0656994  0.040790038   -4.6995676   0.63386817   418189 
 3329000   0.60876649   -4.7004816   -4.7004816   -4.0659241  0.043830614   -4.7004816    0.6345575   418189 
 3330000   0.60924732   -4.7007885   -4.7007885   -4.0657298  0.026057463   -4.7007885    0.6350587   418189 
 3331000   0.60803964   -4.6995418   -4.6995418    -4.065742  0.033635782   -4.6995418   0.63379986   418189 
 3332000   0.60749117   -4.6995598   -4.6995598   -4.0663316  0.021137776   -4.6995598   0.63322815   418189 
 3333000   0.60786716   -4.6998424   -4.6998424   -4.0662223  0.029639444   -4.6998424   0.63362007   418189 
 3334000    0.6080023   -4.7005493   -4.7005493   -4.0667883  0.040216888   -4.7005493   0.63376093   418189 
 3335000   0.60748809   -4.6999093   -4.6999093   -4.0666844  0.046194625   -4.6999093   0.63322494   418189 
 3336000   0.60781699   -4.7001585   -4.7001585   -4.0665908  0.036257123   -4.7001585   0.63356777   418189 
 3337000   0.60784654   -4.7000535   -4.7000535    -4.066455  0.026859533   -4.7000535   0.63359857   418189 
 3338000   0.60732822   -4.6995306   -4.6995306   -4.0664723  0.043634302   -4.6995306    0.6330583   418189 
 3339000   0.60728228   -4.6995352   -4.6995352   -4.0665248  0.034774657   -4.6995352   0.63301041   418189 
 3340000   0.60883371   -4.7009373   -4.7009373   -4.0663098  0.021161778   -4.7009373   0.63462756   418189 
 3341000    0.6072107   -4.6992631   -4.6992631   -4.0663273  0.025210624   -4.6992631   0.63293579   418189 
 3342000   0.60823861    -4.699993    -4.699993   -4.0659858  0.033160797    -4.699993   0.63400726   418189 
 3343000   0.60855538    -4.700603    -4.700603   -4.0662656   0.05073461    -4.700603   0.63433744   418189 
 3344000   0.60842739   -4.7011865   -4.7011865   -4.0669825  0.026743034   -4.7011865   0.63420403   418189 
 3345000   0.60648029   -4.6990796   -4.6990796   -4.0669052  0.036954008   -4.6990796   0.63217445   418189 
 3346000   0.60837284   -4.7015907   -4.7015907   -4.0674435  0.022122563   -4.7015907   0.63414717   418189 
 3347000   0.60711731   -4.7005962   -4.7005962   -4.0677577   0.03803112   -4.7005962   0.63283845   418189 
 3348000   0.60678061   -4.6996919   -4.6996919   -4.0672044  0.034533211   -4.6996919   0.63248748   418189 
 3349000   0.60684574   -4.6992687   -4.6992687   -4.0667133  0.022847631   -4.6992687   0.63255538   418189 
 3350000   0.60736375   -4.7000337   -4.7000337   -4.0669383  0.030266762   -4.7000337   0.63309533   418189 
 3351000   0.60746722    -4.700079    -4.700079   -4.0668758  0.029618116    -4.700079   0.63320319   418189 
 3352000   0.60780384   -4.7013494   -4.7013494   -4.0677953  0.033274734   -4.7013494   0.63355406   418189 
 3353000   0.60820248   -4.7014805   -4.7014805   -4.0675109   0.03217994   -4.7014805   0.63396959   418189 
 3354000   0.60709935   -4.7007028   -4.7007028    -4.067883  0.027475472   -4.7007028   0.63281973   418189 
 3355000   0.60850254   -4.7029907   -4.7029907   -4.0687084  0.040833932   -4.7029907   0.63428236   418189 
 3356000   0.60680355   -4.7008387   -4.7008387   -4.0683273 0.0066692845   -4.7008387   0.63251139   418189 
 3357000   0.60562265   -4.6997126   -4.6997126   -4.0684321  0.046863819   -4.6997126   0.63128046   418189 
 3358000   0.60729575   -4.7017935   -4.7017935   -4.0687691  0.039769628   -4.7017935   0.63302445   418189 
 3359000   0.60818065   -4.7026195   -4.7026195   -4.0686727  0.027237697   -4.7026195   0.63394684   418189 
 3360000   0.60781871   -4.7025707   -4.7025707   -4.0690011  0.037419841   -4.7025707   0.63356957   418189 
 3361000   0.60743291   -4.7025167   -4.7025167   -4.0693493  0.025746396   -4.7025167   0.63316742   418189 
 3362000   0.60715304   -4.7017135   -4.7017135   -4.0688378  0.030610123   -4.7017135   0.63287569   418189 
 3363000   0.60610905   -4.7009889   -4.7009889   -4.0692014  0.030818738   -4.7009889   0.63178748   418189 
 3364000   0.60767021   -4.7027332   -4.7027332   -4.0693185  0.034991905   -4.7027332   0.63341477   418189 
 3365000    0.6076522   -4.7030846   -4.7030846   -4.0696886  0.022169327   -4.7030846     0.633396   418189 
 3366000   0.60772732   -4.7026594   -4.7026594   -4.0691851  0.047380719   -4.7026594    0.6334743   418189 
 3367000   0.60716428   -4.7026387   -4.7026387   -4.0697513  0.032651032   -4.7026387   0.63288741   418189 
 3368000   0.60857851   -4.7038004   -4.7038004   -4.0694388  0.015406181   -4.7038004   0.63436155   418189 
 3369000   0.60893097   -4.7043256   -4.7043256   -4.0695967  0.033344788   -4.7043256   0.63472895   418189 
 3370000   0.60867838    -4.703514    -4.703514   -4.0690484  0.036612894    -4.703514   0.63446566   418189 
 3371000   0.60762084   -4.7027672   -4.7027672   -4.0694039  0.038593506   -4.7027672   0.63336332   418189 
 3372000   0.60884912   -4.7032669   -4.7032669   -4.0686232  0.032532483   -4.7032669   0.63464363   418189 
 3373000   0.60789502   -4.7026003   -4.7026003   -4.0689512  0.031443924   -4.7026003   0.63364911   418189 
 3374000   0.60656771   -4.7019573   -4.7019573   -4.0696918  0.034295759   -4.7019573   0.63226557   418189 
 3375000   0.60813845   -4.7037359   -4.7037359    -4.069833  0.029678233   -4.7037359   0.63390285   418189 
 3376000   0.60714389    -4.702887    -4.702887   -4.0700209  0.031462159    -4.702887   0.63286616   418189 
 3377000   0.60663594   -4.7028733   -4.7028733   -4.0705366  0.026644423   -4.7028733   0.63233668   418189 
 3378000   0.60684406   -4.7033039   -4.7033039   -4.0707502  0.037376329   -4.7033039   0.63255363   418189 
 3379000   0.60828433   -4.7042775   -4.7042775   -4.0702226  0.039600117   -4.7042775   0.63405491   418189 
 3380000   0.60882945   -4.7046446   -4.7046446   -4.0700215  0.038275273   -4.7046446   0.63462313   418189 
 3381000   0.60826633   -4.7040126   -4.7040126   -4.0699764  0.036446696   -4.7040126   0.63403614   418189 
 3382000   0.60782383   -4.7042247   -4.7042247   -4.0706498  0.037480328   -4.7042247    0.6335749   418189 
 3383000   0.60656433   -4.7030655   -4.7030655   -4.0708035   0.04510437   -4.7030655   0.63226204   418189 
 3384000   0.60775184   -4.7035187   -4.7035187   -4.0700188  0.021924259   -4.7035187   0.63349986   418189 
 3385000   0.60787338   -4.7034986   -4.7034986   -4.0698721  0.027534728   -4.7034986   0.63362656   418189 
 3386000   0.60798573   -4.7036631   -4.7036631   -4.0699194  0.030807097   -4.7036631   0.63374366   418189 
 3387000   0.60833011   -4.7041978   -4.7041978   -4.0700952  0.024874052   -4.7041978   0.63410263   418189 
 3388000   0.60783373   -4.7027608   -4.7027608   -4.0691756  0.038550363   -4.7027608   0.63358522   418189 
 3389000   0.60872783   -4.7036045   -4.7036045   -4.0690873  0.048708074   -4.7036045    0.6345172   418189 
 3390000   0.60852886   -4.7037118   -4.7037118    -4.069402  0.035408516   -4.7037118    0.6343098   418189 
 3391000   0.60774578   -4.7026198   -4.7026198   -4.0691263  0.013550081   -4.7026198   0.63349355   418189 
 3392000   0.60794455   -4.7028742   -4.7028742   -4.0691734  0.021995587   -4.7028742   0.63370073   418189 
 3393000     0.608929   -4.7039759   -4.7039759    -4.069249  0.017916018   -4.7039759    0.6347269   418189 
 3394000    0.6081623     -4.70295     -4.70295   -4.0690223  0.026820548     -4.70295   0.63392771   418189 
 3395000   0.60835729   -4.7034948   -4.7034948   -4.0693638  0.033119857   -4.7034948   0.63413096   418189 
 3396000   0.60896348     -4.70382     -4.70382   -4.0690571  0.032987277     -4.70382   0.63476283   418189 
 3397000   0.60763184   -4.7025758   -4.7025758    -4.069201  0.030690206   -4.7025758   0.63337478   418189 
 3398000   0.60743971   -4.7034534   -4.7034534   -4.0702789  0.026786351   -4.7034534   0.63317451   418189 
 3399000   0.60828167   -4.7044261   -4.7044261    -4.070374  0.033955341   -4.7044261   0.63405214   418189 
 3400000   0.60799159   -4.7047213   -4.7047213   -4.0709715  0.028378743   -4.7047213   0.63374977   418189 
 3401000   0.60694879    -4.703437    -4.703437   -4.0707742  0.015578397    -4.703437   0.63266279   418189 
 3402000   0.60772705   -4.7044852   -4.7044852   -4.0710112  0.023192738   -4.7044852   0.63347403   418189 
 3403000   0.60613824   -4.7032224   -4.7032224   -4.0714045  0.029564543   -4.7032224    0.6318179   418189 
 3404000   0.60656792   -4.7041627   -4.7041627   -4.0718969  0.029618246   -4.7041627   0.63226578   418189 
 3405000   0.60806353   -4.7048673   -4.7048673   -4.0710425   0.03505358   -4.7048673   0.63382476   418189 
 3406000   0.60754176   -4.7046017   -4.7046017   -4.0713208  0.043031241   -4.7046017   0.63328088   418189 
 3407000   0.60766551    -4.704399    -4.704399   -4.0709891  0.032846528    -4.704399   0.63340987   418189 
 3408000   0.60797361   -4.7056705   -4.7056705   -4.0719395  0.037051644   -4.7056705   0.63373103   418189 
 3409000   0.60589645   -4.7035216   -4.7035216   -4.0719558   0.02381872   -4.7035216   0.63156587   418189 
 3410000   0.60767385   -4.7056454   -4.7056454   -4.0722269   0.04542124   -4.7056454   0.63341857   418189 
 3411000   0.60754129   -4.7050682   -4.7050682   -4.0717878  0.030464846   -4.7050682   0.63328039   418189 
 3412000   0.60694304   -4.7038596   -4.7038596   -4.0712029  0.032439913   -4.7038596   0.63265679   418189 
 3413000    0.6071542   -4.7044875   -4.7044875   -4.0716106  0.034787272   -4.7044875    0.6328769   418189 
 3414000   0.60636679   -4.7030938   -4.7030938   -4.0710377  0.029352474   -4.7030938   0.63205613   418189 
 3415000    0.6056108   -4.7026455   -4.7026455   -4.0713774   0.03545875   -4.7026455   0.63126811   418189 
 3416000   0.60680245   -4.7039316   -4.7039316   -4.0714213  0.036203705   -4.7039316   0.63251025   418189 
 3417000   0.60649396   -4.7041981   -4.7041981   -4.0720095  0.037593406   -4.7041981   0.63218869   418189 
 3418000   0.60598622   -4.7034873   -4.7034873   -4.0718278  0.031202061   -4.7034873   0.63165944   418189 
 3419000   0.60521852    -4.702528    -4.702528   -4.0716688  0.022321105    -4.702528   0.63085922   418189 
 3420000   0.60763597   -4.7043727   -4.7043727   -4.0709936  0.030262798   -4.7043727   0.63337908   418189 
 3421000   0.60632941   -4.7034544   -4.7034544   -4.0714372  0.028849325   -4.7034544   0.63201717   418189 
 3422000   0.60809012   -4.7041754   -4.7041754   -4.0703229  0.030192309   -4.7041754   0.63385248   418189 
 3423000   0.60708638    -4.703872    -4.703872   -4.0710658  0.018325002    -4.703872   0.63280621   418189 
 3424000   0.60851104   -4.7048783   -4.7048783   -4.0705871  0.040753626   -4.7048783   0.63429122   418189 
 3425000   0.60767262   -4.7039493   -4.7039493    -4.070532  0.027562799   -4.7039493   0.63341728   418189 
 3426000   0.60716893   -4.7036231   -4.7036231   -4.0707308  0.021478029   -4.7036231   0.63289226   418189 
 3427000   0.60826735   -4.7049016   -4.7049016   -4.0708644  0.042524568   -4.7049016   0.63403721   418189 
 3428000   0.60731769   -4.7039653   -4.7039653    -4.070918   0.03382447   -4.7039653   0.63304732   418189 
 3429000    0.6073684   -4.7041248   -4.7041248   -4.0710246  0.042135136   -4.7041248   0.63310018   418189 
 3430000   0.60810857   -4.7044413   -4.7044413   -4.0705696  0.025268104   -4.7044413   0.63387171   418189 
 3431000   0.60535849   -4.7016831   -4.7016831    -4.070678  0.026085266   -4.7016831   0.63100512   418189 
 3432000   0.60736086   -4.7035533   -4.7035533    -4.070461   0.01538751   -4.7035533   0.63309231   418189 
 3433000   0.60698066   -4.7040848   -4.7040848   -4.0713887   0.02575575   -4.7040848   0.63269601   418189 
 3434000   0.60623062   -4.7034819   -4.7034819   -4.0715677  0.044025977   -4.7034819   0.63191419   418189 
 3435000    0.6063548   -4.7035986   -4.7035986    -4.071555  0.031848931   -4.7035986   0.63204364   418189 
 3436000   0.60720763   -4.7036172   -4.7036172   -4.0706846  0.035412728   -4.7036172   0.63293259   418189 
 3437000   0.60755245   -4.7038211   -4.7038211   -4.0705291  0.028941413   -4.7038211   0.63329202   418189 
 3438000   0.60676364   -4.7043852   -4.7043852   -4.0719154   0.02468194   -4.7043852    0.6324698   418189 
 3439000   0.60737022   -4.7045082   -4.7045082   -4.0714061    0.0395232   -4.7045082   0.63310207   418189 
 3440000   0.60801572    -4.704829    -4.704829    -4.071054  0.028829199    -4.704829   0.63377493   418189 
 3441000   0.60822312   -4.7048091   -4.7048091    -4.070818  0.031424217   -4.7048091   0.63399111   418189 
 3442000   0.60759206   -4.7039573   -4.7039573    -4.070624  0.041320008   -4.7039573   0.63333331   418189 
 3443000   0.60882625   -4.7056681   -4.7056681   -4.0710483  0.030145794   -4.7056681   0.63461979   418189 
 3444000   0.60610516   -4.7034465   -4.7034465   -4.0716631  0.033895167   -4.7034465   0.63178342   418189 
 3445000   0.60671146   -4.7039668   -4.7039668   -4.0715514  0.025744308   -4.7039668   0.63241541   418189 
 3446000    0.6076924   -4.7051096   -4.7051096   -4.0716717  0.028296461   -4.7051096   0.63343791   418189 
 3447000     0.607381   -4.7053257   -4.7053257   -4.0722124  0.037062627   -4.7053257   0.63311331   418189 
 3448000   0.60755813   -4.7051821   -4.7051821   -4.0718841   0.02247297   -4.7051821   0.63329794   418189 
 3449000   0.60840859   -4.7058987   -4.7058987   -4.0717142  0.022480105   -4.7058987   0.63418444   418189 
 3450000   0.60812014   -4.7057564   -4.7057564   -4.0718726   0.03776563   -4.7057564   0.63388377   418189 
 3451000    0.6071979   -4.7046638   -4.7046638   -4.0717414  0.040521526   -4.7046638   0.63292245   418189 
 3452000   0.60652606   -4.7044509   -4.7044509   -4.0722288  0.033089842   -4.7044509   0.63222215   418189 
 3453000   0.60754742   -4.7063959   -4.7063959   -4.0731091  0.021382769   -4.7063959   0.63328678   418189 
 3454000    0.6062997   -4.7055915   -4.7055915   -4.0736053  0.028420868   -4.7055915    0.6319862   418189 
 3455000   0.60588848    -4.705351    -4.705351   -4.0737934  0.038527127    -4.705351   0.63155756   418189 
 3456000   0.60642057   -4.7055942   -4.7055942    -4.073482  0.031683206   -4.7055942   0.63211219   418189 
 3457000   0.60546054   -4.7042822   -4.7042822   -4.0731707  0.030036039   -4.7042822   0.63111149   418189 
 3458000   0.60627555   -4.7054202   -4.7054202   -4.0734591  0.033716641   -4.7054202   0.63196103   418189 
 3459000   0.60544246   -4.7049467   -4.7049467   -4.0738541  0.022099605   -4.7049467   0.63109265   418189 
 3460000   0.60710733   -4.7069559   -4.7069559   -4.0741279  0.032393612   -4.7069559   0.63282805   418189 
 3461000   0.60651549   -4.7060958   -4.7060958   -4.0738846  0.029399306   -4.7060958   0.63221113   418189 
 3462000   0.60596535   -4.7044405   -4.7044405   -4.0728028  0.036543544   -4.7044405   0.63163768   418189 
 3463000   0.60723137   -4.7056333   -4.7056333    -4.072676  0.010179563   -4.7056333   0.63295735   418189 
 3464000   0.60673482    -4.705933    -4.705933   -4.0734932  0.016849905    -4.705933   0.63243976   418189 
 3465000   0.60649056   -4.7057264   -4.7057264   -4.0735412  0.022576291   -4.7057264   0.63218515   418189 
 3466000   0.60660257   -4.7056982   -4.7056982   -4.0733963  0.030039868   -4.7056982    0.6323019   418189 
 3467000   0.60852299    -4.708112    -4.708112   -4.0738083  0.035591785    -4.708112   0.63430368   418189 
 3468000   0.60665137   -4.7060012   -4.7060012   -4.0736484  0.035548836   -4.7060012   0.63235277   418189 
 3469000   0.60702263    -4.707245    -4.707245   -4.0745053  0.031416623    -4.707245   0.63273976   418189 
 3470000   0.60600992   -4.7069456   -4.7069456   -4.0752615  0.034976865   -4.7069456   0.63168414   418189 
 3471000   0.60777133   -4.7083489   -4.7083489   -4.0748287   0.02303877   -4.7083489   0.63352018   418189 
 3472000   0.60711802   -4.7072758   -4.7072758   -4.0744366   0.03096133   -4.7072758   0.63283919   418189 
 3473000   0.60718211   -4.7070421   -4.7070421   -4.0741361  0.050237665   -4.7070421   0.63290599   418189 
 3474000   0.60749061   -4.7072541   -4.7072541   -4.0740265  0.020646867   -4.7072541   0.63322756   418189 
 3475000   0.60779617   -4.7074438   -4.7074438   -4.0738977  0.018855803   -4.7074438   0.63354607   418189 
 3476000   0.60699414   -4.7067053   -4.7067053   -4.0739952  0.034125443   -4.7067053   0.63271006   418189 
 3477000   0.60736979   -4.7069879   -4.7069879   -4.0738863  0.050440246   -4.7069879   0.63310162   418189 
 3478000   0.60765256    -4.706382    -4.706382   -4.0729856  0.025464377    -4.706382   0.63339637   418189 
 3479000   0.60695476   -4.7058824   -4.7058824   -4.0732133  0.035156673   -4.7058824   0.63266901   418189 
 3480000   0.60747456   -4.7070048   -4.7070048    -4.073794  0.042605141   -4.7070048   0.63321083   418189 
 3481000   0.60614662   -4.7054711   -4.7054711   -4.0736445  0.047397981   -4.7054711   0.63182663   418189 
 3482000   0.60503285   -4.7052762   -4.7052762   -4.0746106  0.039822771   -4.7052762   0.63066568   418189 
 3483000   0.60597241   -4.7059505   -4.7059505   -4.0743054  0.031150039   -4.7059505   0.63164504   418189 
 3484000   0.60614929    -4.705704    -4.705704   -4.0738746  0.035953248    -4.705704   0.63182942   418189 
 3485000   0.60742656   -4.7066312   -4.7066312   -4.0734704  0.037287474   -4.7066312    0.6331608   418189 
 3486000   0.60680658   -4.7062141   -4.7062141   -4.0736995  0.018781727   -4.7062141   0.63251455   418189 
 3487000   0.60711377   -4.7060377   -4.7060377   -4.0732029  0.025268172   -4.7060377   0.63283476   418189 
 3488000    0.6057212   -4.7051589   -4.7051589   -4.0737757  0.043006533   -4.7051589   0.63138319   418189 
 3489000   0.60605453   -4.7063572   -4.7063572   -4.0746266  0.017011459   -4.7063572   0.63173064   418189 
 3490000   0.60600047   -4.7056518   -4.7056518   -4.0739775  0.034004899   -4.7056518    0.6316743   418189 
 3491000   0.60566846   -4.7046545   -4.7046545   -4.0733263  0.034320547   -4.7046545   0.63132822   418189 
 3492000   0.60733659   -4.7060486   -4.7060486   -4.0729815  0.038510524   -4.7060486   0.63306701   418189 
 3493000   0.60615885   -4.7055886   -4.7055886   -4.0737492  0.026451321   -4.7055886   0.63183938   418189 
 3494000   0.60790514   -4.7076672   -4.7076672   -4.0740075  0.028311055   -4.7076672   0.63365966   418189 
 3495000   0.60660789   -4.7060032   -4.7060032   -4.0736957  0.013000673   -4.7060032   0.63230744   418189 
 3496000   0.60606639   -4.7058803   -4.7058803   -4.0741373  0.020222389   -4.7058803     0.631743   418189 
 3497000   0.60745194   -4.7072378   -4.7072378   -4.0740505   0.03725767   -4.7072378   0.63318726   418189 
 3498000   0.60650093   -4.7063271   -4.7063271   -4.0741312  0.046108791   -4.7063271   0.63219596   418189 
 3499000   0.60754447   -4.7075004   -4.7075004   -4.0742167  0.041876625   -4.7075004   0.63328371   418189 
 3500000   0.60677703   -4.7073026   -4.7073026   -4.0748188  0.022939005   -4.7073026   0.63248376   418189 
 3501000    0.6074158   -4.7078139   -4.7078139   -4.0746643  0.018498822   -4.7078139   0.63314958   418189 
 3502000   0.60700936   -4.7071846   -4.7071846   -4.0744586  0.035572066   -4.7071846   0.63272593   418189 
 3503000     0.606742   -4.7074386   -4.7074386   -4.0749914  0.030043201   -4.7074386   0.63244724   418189 
 3504000   0.60580725   -4.7065389   -4.7065389    -4.075066  0.029023166   -4.7065389   0.63147289   418189 
 3505000   0.60683987   -4.7074848   -4.7074848   -4.0749356  0.016702331   -4.7074848   0.63254925   418189 
 3506000   0.60678913   -4.7074698   -4.7074698   -4.0749734  0.024301228   -4.7074698   0.63249636   418189 
 3507000   0.60611165    -4.707302    -4.707302   -4.0755119  0.026978827    -4.707302   0.63179018   418189 
 3508000   0.60498259   -4.7067521   -4.7067521   -4.0761389  0.020285539   -4.7067521   0.63061329   418189 
 3509000   0.60577743   -4.7076617   -4.7076617   -4.0762199  0.035364025   -4.7076617    0.6314418   418189 
 3510000   0.60690213    -4.708801    -4.708801   -4.0761868  0.023583041    -4.708801   0.63261416   418189 
 3511000   0.60603511   -4.7080451   -4.7080451   -4.0763347  0.055267803   -4.7080451    0.6317104   418189 
 3512000   0.60682054   -4.7087745   -4.7087745   -4.0762454  0.025604608   -4.7087745    0.6325291   418189 
 3513000   0.60561095   -4.7080283   -4.7080283     -4.07676  0.040914625   -4.7080283   0.63126827   418189 
 3514000   0.60657173   -4.7086008   -4.7086008    -4.076331  0.041629404   -4.7086008   0.63226976   418189 
 3515000   0.60696648   -4.7087686   -4.7087686   -4.0760873  0.030662458   -4.7087686   0.63268123   418189 
 3516000   0.60744678   -4.7091402   -4.7091402   -4.0759584    0.0342454   -4.7091402   0.63318188   418189 
 3517000   0.60627879   -4.7080432   -4.7080432   -4.0760788  0.041409511   -4.7080432    0.6319644   418189 
 3518000    0.6069089   -4.7090071   -4.7090071   -4.0763859  0.024192677   -4.7090071   0.63262121   418189 
 3519000   0.60598945    -4.707609    -4.707609   -4.0759462  0.030257889    -4.707609   0.63166281   418189 
 3520000   0.60698404   -4.7093181   -4.7093181   -4.0766185  0.017256964   -4.7093181   0.63269953   418189 
 3521000   0.60640482    -4.708624    -4.708624   -4.0765282  0.044690952    -4.708624   0.63209578   418189 
 3522000    0.6061088   -4.7080666   -4.7080666   -4.0762793  0.029191909   -4.7080666   0.63178721   418189 
 3523000   0.60789226   -4.7094347   -4.7094347   -4.0757885  0.026534932   -4.7094347   0.63364623   418189 
 3524000   0.60715405   -4.7084869   -4.7084869   -4.0756102  0.028983793   -4.7084869   0.63287674   418189 
 3525000   0.60649472    -4.707329    -4.707329   -4.0751395  0.042974474    -4.707329   0.63218948   418189 
 3526000   0.60722453   -4.7092666   -4.7092666   -4.0763164  0.032722203   -4.7092666   0.63295021   418189 
 3527000   0.60627287   -4.7091603   -4.7091603    -4.077202  0.030220073   -4.7091603   0.63195824   418189 
 3528000   0.60647869   -4.7087552   -4.7087552   -4.0765824  0.030225368   -4.7087552   0.63217277   418189 
 3529000   0.60704379   -4.7100981   -4.7100981   -4.0773362   0.04442614   -4.7100981   0.63276181   418189 
 3530000    0.6063642   -4.7083986   -4.7083986   -4.0763452  0.022268828   -4.7083986   0.63205343   418189 
 3531000    0.6071713   -4.7091602   -4.7091602   -4.0762655  0.046659075   -4.7091602   0.63289473   418189 
 3532000   0.60685353   -4.7094875   -4.7094875    -4.076924  0.025777178   -4.7094875   0.63256349   418189 
 3533000   0.60673903   -4.7098623   -4.7098623   -4.0774182  0.040776983   -4.7098623   0.63244414   418189 
 3534000   0.60706225   -4.7095608   -4.7095608   -4.0767798  0.027291026   -4.7095608   0.63278106   418189 
 3535000   0.60720931   -4.7101702   -4.7101702   -4.0772358  0.034675407   -4.7101702   0.63293435   418189 
 3536000   0.60688853    -4.710129    -4.710129    -4.077529   0.02928013    -4.710129   0.63259998   418189 
 3537000   0.60589013   -4.7089522   -4.7089522    -4.077393  0.024930946   -4.7089522   0.63155927   418189 
 3538000    0.6064512   -4.7094288   -4.7094288   -4.0772847  0.045052429   -4.7094288   0.63214412   418189 
 3539000   0.60610642   -4.7078514   -4.7078514   -4.0760667  0.018128344   -4.7078514   0.63178473   418189 
 3540000   0.60815374   -4.7095861   -4.7095861   -4.0756673  0.039924581   -4.7095861   0.63391879   418189 
 3541000   0.60808454   -4.7098854   -4.7098854   -4.0760388  0.049783172   -4.7098854   0.63384665   418189 
 3542000    0.6075162   -4.7099956   -4.7099956   -4.0767413  0.032784634   -4.7099956   0.63325424   418189 
 3543000    0.6059671   -4.7083307   -4.7083307   -4.0766912  0.032259243   -4.7083307   0.63163951   418189 
 3544000   0.60590587   -4.7083623   -4.7083623   -4.0767866  0.035438818   -4.7083623   0.63157568   418189 
 3545000   0.60558548   -4.7079171   -4.7079171   -4.0766753  0.026101381   -4.7079171   0.63124172   418189 
 3546000   0.60567891   -4.7089622   -4.7089622   -4.0776231  0.037038006   -4.7089622   0.63133911   418189 
 3547000   0.60691179   -4.7100569   -4.7100569   -4.0774326    0.0318008   -4.7100569   0.63262422   418189 
 3548000   0.60798686   -4.7106789   -4.7106789   -4.0769341  0.026134658   -4.7106789   0.63374484   418189 
 3549000   0.60699245   -4.7103374   -4.7103374   -4.0776291  0.037844185   -4.7103374    0.6327083   418189 
 3550000   0.60619453   -4.7091975   -4.7091975    -4.077321  0.046773176   -4.7091975   0.63187657   418189 
 3551000   0.60666243   -4.7095965   -4.7095965   -4.0772322   0.04283502   -4.7095965    0.6323643   418189 
 3552000   0.60549503   -4.7093473   -4.7093473   -4.0781998  0.031794656   -4.7093473   0.63114744   418189 
 3553000   0.60753129   -4.7108547   -4.7108547   -4.0775847  0.025970002   -4.7108547   0.63326996   418189 
 3554000   0.60672472   -4.7099409   -4.7099409   -4.0775116  0.038878571   -4.7099409   0.63242923   418189 
 3555000   0.60746773   -4.7110128   -4.7110128    -4.077809  0.025661863   -4.7110128   0.63320372   418189 
 3556000   0.60769064   -4.7108983   -4.7108983   -4.0774622  0.034740078   -4.7108983   0.63343606   418189 
 3557000     0.606444    -4.709954    -4.709954   -4.0778174  0.025264524    -4.709954   0.63213661   418189 
 3558000   0.60679061   -4.7102715   -4.7102715   -4.0777736  0.029601393   -4.7102715   0.63249791   418189 
 3559000   0.60626112   -4.7101102   -4.7101102   -4.0781642  0.038792707   -4.7101102   0.63194599   418189 
 3560000   0.60603249   -4.7100098   -4.7100098   -4.0783021   0.02279544   -4.7100098   0.63170767   418189 
 3561000   0.60598514    -4.709561    -4.709561   -4.0779026  0.035586395    -4.709561   0.63165832   418189 
 3562000   0.60617468   -4.7095378   -4.7095378   -4.0776819  0.040864645   -4.7095378   0.63185589   418189 
 3563000   0.60651065   -4.7098819   -4.7098819   -4.0776758  0.031299612   -4.7098819   0.63220609   418189 
 3564000   0.60629682   -4.7094789   -4.7094789   -4.0774957  0.039543104   -4.7094789   0.63198319   418189 
 3565000   0.60670794   -4.7099217   -4.7099217     -4.07751  0.040327155   -4.7099217   0.63241174   418189 
 3566000   0.60645929   -4.7097687   -4.7097687   -4.0776162  0.013374715   -4.7097687   0.63215255   418189 
 3567000   0.60644925   -4.7098809   -4.7098809   -4.0777388   0.03075492   -4.7098809   0.63214209   418189 
 3568000   0.60568783   -4.7084967   -4.7084967   -4.0771483  0.037451566   -4.7084967   0.63134841   418189 
 3569000   0.60670364   -4.7104747   -4.7104747   -4.0780674  0.014960478   -4.7104747   0.63240725   418189 
 3570000   0.60679293   -4.7102335   -4.7102335   -4.0777332  0.049539464   -4.7102335   0.63250032   418189 
 3571000   0.60546923   -4.7084135   -4.7084135    -4.077293   0.03991252   -4.7084135   0.63112055   418189 
 3572000   0.60606458   -4.7095737   -4.7095737   -4.0778326  0.028110157   -4.7095737   0.63174112   418189 
 3573000   0.60681791   -4.7103583   -4.7103583   -4.0778319   0.04033198   -4.7103583   0.63252636   418189 
 3574000   0.60562878   -4.7090367   -4.7090367   -4.0777498  0.027161061   -4.7090367   0.63128686   418189 
 3575000   0.60514619   -4.7089591   -4.7089591   -4.0781752  0.027347446   -4.7089591   0.63078382   418189 
 3576000   0.60565966   -4.7096329   -4.7096329   -4.0783139  0.028305761   -4.7096329   0.63131905   418189 
 3577000   0.60548699   -4.7098649   -4.7098649   -4.0787258  0.028153297   -4.7098649   0.63113906   418189 
 3578000   0.60675701    -4.711418    -4.711418   -4.0789551  0.014523255    -4.711418   0.63246288   418189 
 3579000   0.60484341   -4.7096053   -4.7096053   -4.0791371  0.035606914   -4.7096053   0.63046821   418189 
 3580000   0.60643284   -4.7104987   -4.7104987   -4.0783737  0.024768129   -4.7104987   0.63212498   418189 
 3581000   0.60489337   -4.7086243   -4.7086243   -4.0781041  0.038519332   -4.7086243   0.63052029   418189 
 3582000   0.60706723   -4.7103386   -4.7103386   -4.0775523  0.036607538   -4.7103386   0.63278625   418189 
 3583000   0.60532869   -4.7090479   -4.7090479   -4.0780739  0.035399383   -4.7090479   0.63097405   418189 
 3584000   0.60783059   -4.7113675   -4.7113675   -4.0777856  0.038892408   -4.7113675   0.63358194   418189 
 3585000   0.60577166   -4.7094305   -4.7094305   -4.0779947  0.043358178   -4.7094305   0.63143579   418189 
 3586000   0.60720746   -4.7105793   -4.7105793   -4.0776469  0.027714354   -4.7105793   0.63293242   418189 
 3587000   0.60575713   -4.7097854   -4.7097854   -4.0783648  0.040416691   -4.7097854   0.63142064   418189 
 3588000   0.60723048   -4.7117543   -4.7117543   -4.0787979  0.028614965   -4.7117543   0.63295642   418189 
 3589000   0.60643274   -4.7114097   -4.7114097   -4.0792848  0.017877061   -4.7114097   0.63212487   418189 
 3590000   0.60578905   -4.7104346   -4.7104346   -4.0789807   0.03204073   -4.7104346   0.63145391   418189 
 3591000   0.60643047   -4.7111217   -4.7111217   -4.0789992  0.019564829   -4.7111217   0.63212251   418189 
 3592000   0.60603162   -4.7107276   -4.7107276   -4.0790208  0.033771257   -4.7107276   0.63170676   418189 
 3593000    0.6046891   -4.7095319   -4.7095319   -4.0792246  0.035885877   -4.7095319   0.63030736   418189 
 3594000   0.60562005   -4.7104394   -4.7104394   -4.0791616  0.033123973   -4.7104394   0.63127776   418189 
 3595000    0.6051901    -4.710287    -4.710287   -4.0794574  0.039964206    -4.710287   0.63082959   418189 
 3596000   0.60614917   -4.7103889   -4.7103889   -4.0785596  0.044440097   -4.7103889   0.63182929   418189 
 3597000   0.60563472   -4.7100598   -4.7100598   -4.0787667  0.013546759   -4.7100598   0.63129305   418189 
 3598000   0.60607889   -4.7106289   -4.7106289   -4.0788729  0.041438791   -4.7106289   0.63175603   418189 
 3599000   0.60597588   -4.7102789   -4.7102789   -4.0786302   0.02882702   -4.7102789   0.63164866   418189 
 3600000   0.60658148   -4.7109279   -4.7109279    -4.078648  0.040702172   -4.7109279   0.63227992   418189 
 3601000   0.60753974   -4.7113693   -4.7113693   -4.0780905  0.038768111   -4.7113693   0.63327877   418189 
 3602000   0.60721646   -4.7117319   -4.7117319   -4.0787901  0.034146629   -4.7117319    0.6329418   418189 
 3603000   0.60673423   -4.7100208   -4.7100208   -4.0775816  0.030525143   -4.7100208   0.63243914   418189 
 3604000   0.60565468   -4.7082003   -4.7082003   -4.0768864  0.021327263   -4.7082003   0.63131385   418189 
 3605000   0.60580572   -4.7087001   -4.7087001   -4.0772288   0.02974927   -4.7087001   0.63147129   418189 
 3606000    0.6055426   -4.7097421   -4.7097421   -4.0785451  0.026561421   -4.7097421   0.63119703   418189 
 3607000   0.60699386   -4.7121151   -4.7121151   -4.0794053  0.029602828   -4.7121151   0.63270977   418189 
 3608000   0.60634492   -4.7118906   -4.7118906   -4.0798572     0.028414   -4.7118906   0.63203333   418189 
 3609000   0.60576581   -4.7114428   -4.7114428   -4.0800131  0.025622769   -4.7114428   0.63142969   418189 
 3610000   0.60577141   -4.7114319   -4.7114319   -4.0799964  0.025455483   -4.7114319   0.63143553   418189 
 3611000   0.60766929   -4.7124983   -4.7124983   -4.0790845  0.036026671   -4.7124983   0.63341381   418189 
 3612000   0.60547276   -4.7107771   -4.7107771   -4.0796529  0.027036746   -4.7107771   0.63112422   418189 
 3613000   0.60614351   -4.7108492   -4.7108492   -4.0790258  0.027060444   -4.7108492    0.6318234   418189 
 3614000   0.60722236   -4.7118267   -4.7118267   -4.0788788  0.041209961   -4.7118267   0.63294795   418189 
 3615000   0.60790587   -4.7121563   -4.7121563   -4.0784959  0.023929348   -4.7121563   0.63366042   418189 
 3616000   0.60724573   -4.7121568   -4.7121568   -4.0791845  0.047162396   -4.7121568   0.63297231   418189 
 3617000   0.60526052   -4.7105484   -4.7105484   -4.0796454  0.025774663   -4.7105484   0.63090299   418189 
 3618000   0.60685717   -4.7122187   -4.7122187   -4.0796514  0.017456174   -4.7122187   0.63256729   418189 
 3619000   0.60378056   -4.7091154   -4.7091154   -4.0797551  0.020617922   -4.7091154   0.62936033   418189 
 3620000   0.60536158   -4.7103358   -4.7103358   -4.0793274  0.028060764   -4.7103358   0.63100834   418189 
 3621000   0.60697822    -4.711969    -4.711969   -4.0792755  0.044605087    -4.711969   0.63269346   418189 
 3622000   0.60703826   -4.7118561   -4.7118561      -4.0791  0.038716149   -4.7118561   0.63275605   418189 
 3623000   0.60558622   -4.7099934   -4.7099934   -4.0787509  0.019915286   -4.7099934   0.63124249   418189 
 3624000   0.60544654   -4.7100267   -4.7100267   -4.0789298  0.034024343   -4.7100267    0.6310969   418189 
 3625000   0.60640591   -4.7107499   -4.7107499    -4.078653  0.037308725   -4.7107499   0.63209691   418189 
 3626000   0.60588867   -4.7102032   -4.7102032   -4.0786454  0.032699353   -4.7102032   0.63155776   418189 
 3627000   0.60674744   -4.7119544   -4.7119544   -4.0795015  0.020449792   -4.7119544   0.63245291   418189 
 3628000   0.60634786   -4.7112898   -4.7112898   -4.0792534  0.046247848   -4.7112898    0.6320364   418189 
 3629000   0.60585488   -4.7102559   -4.7102559   -4.0787334  0.024169524   -4.7102559   0.63152254   418189 
 3630000   0.60692932   -4.7119323   -4.7119323   -4.0792898  0.029898523   -4.7119323   0.63264249   418189 
 3631000   0.60699738   -4.7118108   -4.7118108   -4.0790973  0.025403346   -4.7118108   0.63271344   418189 
 3632000   0.60751323   -4.7129497   -4.7129497   -4.0796986  0.015726021   -4.7129497   0.63325114   418189 
 3633000   0.60651333   -4.7123543   -4.7123543   -4.0801454  0.039670679   -4.7123543   0.63220888   418189 
 3634000   0.60563451   -4.7107799   -4.7107799   -4.0794871  0.038719319   -4.7107799   0.63129282   418189 
 3635000   0.60585709   -4.7111616   -4.7111616   -4.0796367  0.048501237   -4.7111616   0.63152484   418189 
 3636000   0.60522042    -4.710764    -4.710764   -4.0799028  0.029151699    -4.710764    0.6308612   418189 
 3637000   0.60536657   -4.7108841   -4.7108841   -4.0798706   0.02903563   -4.7108841   0.63101353   418189 
 3638000   0.60576637   -4.7115272   -4.7115272   -4.0800969  0.030466602   -4.7115272   0.63143028   418189 
 3639000   0.60592297   -4.7118072   -4.7118072   -4.0802137 0.0049932047   -4.7118072   0.63159351   418189 
 3640000   0.60685609   -4.7122215   -4.7122215   -4.0796553  0.027068385   -4.7122215   0.63256616   418189 
 3641000   0.60655114   -4.7116616   -4.7116616   -4.0794133  0.020594198   -4.7116616   0.63224829   418189 
 3642000   0.60532992   -4.7109226   -4.7109226   -4.0799473  0.033189974   -4.7109226   0.63097533   418189 
 3643000   0.60501084   -4.7095529   -4.7095529   -4.0789101  0.020480347   -4.7095529   0.63064273   418189 
 3644000   0.60555171   -4.7100974   -4.7100974   -4.0788909  0.029265614   -4.7100974   0.63120652   418189 
 3645000   0.60719472    -4.711316    -4.711316   -4.0783968  0.023032023    -4.711316   0.63291914   418189 
 3646000   0.60568841   -4.7097702   -4.7097702   -4.0784211  0.036618808   -4.7097702   0.63134901   418189 
 3647000   0.60761911   -4.7115408   -4.7115408   -4.0781793  0.036168548   -4.7115408   0.63336151   418189 
 3648000   0.60586833   -4.7102899   -4.7102899   -4.0787533  0.039947204   -4.7102899   0.63153655   418189 
 3649000    0.6068291   -4.7112734   -4.7112734   -4.0787353  0.018332359   -4.7112734   0.63253803   418189 
 3650000   0.60678802   -4.7106146   -4.7106146   -4.0781194 0.0094175998   -4.7106146   0.63249521   418189 
 3651000   0.60583181   -4.7089819   -4.7089819   -4.0774835  0.016588927   -4.7089819   0.63149849   418189 
 3652000   0.60706261   -4.7107399   -4.7107399   -4.0779585  0.034964215   -4.7107399   0.63278143   418189 
 3653000   0.60685474   -4.7105077   -4.7105077    -4.077943  0.041989012   -4.7105077   0.63256475   418189 
 3654000   0.60619202   -4.7101634   -4.7101634   -4.0782894  0.035274951   -4.7101634   0.63187396   418189 
 3655000   0.60534009   -4.7095888   -4.7095888   -4.0786028  0.040855533   -4.7095888   0.63098594   418189 
 3656000   0.60725214   -4.7116592   -4.7116592   -4.0786802  0.042827219   -4.7116592   0.63297899   418189 
 3657000   0.60559666   -4.7102469   -4.7102469   -4.0789935   0.03404687   -4.7102469   0.63125338   418189 
 3658000   0.60670874   -4.7121427   -4.7121427   -4.0797301  0.022410112   -4.7121427   0.63241257   418189 
 3659000   0.60702879   -4.7120993   -4.7120993   -4.0793531  0.034927454   -4.7120993   0.63274618   418189 
 3660000   0.60620449   -4.7115413   -4.7115413   -4.0796544  0.045588822   -4.7115413   0.63188696   418189 
 3661000   0.60600789    -4.711231    -4.711231   -4.0795489  0.031598808    -4.711231   0.63168202   418189 
 3662000   0.60807985   -4.7132654   -4.7132654   -4.0794237  0.026448171   -4.7132654   0.63384177   418189 
 3663000   0.60660206   -4.7109214   -4.7109214     -4.07862  0.033102666   -4.7109214   0.63230137   418189 
 3664000   0.60607284   -4.7099686   -4.7099686   -4.0782189  0.044318511   -4.7099686   0.63174972   418189 
 3665000   0.60846452   -4.7118279   -4.7118279   -4.0775851  0.038917915   -4.7118279   0.63424274   418189 
 3666000   0.60549967   -4.7095401   -4.7095401   -4.0783879  0.030379455   -4.7095401   0.63115227   418189 
 3667000   0.60750461   -4.7114609   -4.7114609   -4.0782187  0.033439082   -4.7114609   0.63324216   418189 
 3668000   0.60644984   -4.7111162   -4.7111162   -4.0789735  0.028661679   -4.7111162    0.6321427   418189 
 3669000   0.60533945   -4.7100389   -4.7100389   -4.0790536   0.03297471   -4.7100389   0.63098526   418189 
 3670000   0.60569868   -4.7106127   -4.7106127    -4.079253  0.028448723   -4.7106127   0.63135972   418189 
 3671000    0.6067275   -4.7110134   -4.7110134   -4.0785813  0.026931847   -4.7110134   0.63243212   418189 
 3672000   0.60695262   -4.7109088   -4.7109088    -4.078242  0.037100066   -4.7109088   0.63266678   418189 
 3673000   0.60635697   -4.7103059   -4.7103059     -4.07826  0.024266913   -4.7103059   0.63204589   418189 
 3674000   0.60586505   -4.7102293   -4.7102293   -4.0786961  0.035657395   -4.7102293   0.63153314   418189 
 3675000   0.60576953   -4.7108315   -4.7108315   -4.0793979  0.037177886   -4.7108315   0.63143357   418189 
 3676000   0.60600143   -4.7114578   -4.7114578   -4.0797825  0.027407076   -4.7114578    0.6316753   418189 
 3677000   0.60528659   -4.7115749   -4.7115749   -4.0806447  0.013963205   -4.7115749   0.63093017   418189 
 3678000   0.60656041   -4.7119523   -4.7119523   -4.0796943  0.011293271   -4.7119523   0.63225796   418189 
 3679000   0.60714196   -4.7126987   -4.7126987   -4.0798346  0.016529516   -4.7126987   0.63286414   418189 
 3680000   0.60480045   -4.7095667   -4.7095667   -4.0791433   0.04683103   -4.7095667   0.63042343   418189 
 3681000   0.60608812   -4.7104544   -4.7104544   -4.0786888  0.016940822   -4.7104544   0.63176566   418189 
 3682000    0.6067633   -4.7115334   -4.7115334    -4.079064  0.023402774   -4.7115334   0.63246944   418189 
 3683000   0.60649053   -4.7120075   -4.7120075   -4.0798224  0.014341659   -4.7120075   0.63218511   418189 
 3684000   0.60561374   -4.7108937   -4.7108937   -4.0796225  0.026148503   -4.7108937   0.63127118   418189 
 3685000   0.60655298   -4.7122712   -4.7122712    -4.080021  0.036299429   -4.7122712   0.63225022   418189 
 3686000   0.60616541   -4.7122259   -4.7122259   -4.0803796  0.042503362   -4.7122259   0.63184622   418189 
 3687000   0.60553735   -4.7114775   -4.7114775    -4.080286  0.046725824   -4.7114775   0.63119155   418189 
 3688000   0.60777792   -4.7135301   -4.7135301   -4.0800031   0.05144376   -4.7135301   0.63352705   418189 
 3689000   0.60646611   -4.7129889   -4.7129889   -4.0808292  0.039168579   -4.7129889   0.63215966   418189 
 3690000   0.60649297   -4.7127301   -4.7127301   -4.0805425  0.038892662   -4.7127301   0.63218766   418189 
 3691000   0.60751138    -4.713659    -4.713659   -4.0804098  0.027239697    -4.713659   0.63324921   418189 
 3692000   0.60651268   -4.7120511   -4.7120511   -4.0798429  0.019240656   -4.7120511    0.6322082   418189 
 3693000   0.60658397   -4.7129201   -4.7129201   -4.0806376  0.055054914   -4.7129201   0.63228252   418189 
 3694000   0.60670637   -4.7124491   -4.7124491    -4.080039  0.053485977   -4.7124491    0.6324101   418189 
 3695000   0.60577265   -4.7118854   -4.7118854   -4.0804486  0.034749365   -4.7118854   0.63143683   418189 
 3696000   0.60574174    -4.711814    -4.711814   -4.0804094  0.038724534    -4.711814    0.6314046   418189 
 3697000   0.60615108   -4.7118907   -4.7118907   -4.0800594  0.035083571   -4.7118907   0.63183128   418189 
 3698000   0.60821817   -4.7137139   -4.7137139    -4.079728   0.02654008   -4.7137139   0.63398595   418189 
 3699000   0.60816622   -4.7135648   -4.7135648    -4.079633  0.019134858   -4.7135648    0.6339318   418189 
 3700000   0.60682028   -4.7125283   -4.7125283   -4.0799995   0.04380727   -4.7125283   0.63252883   418189 
 3701000   0.60748734   -4.7133955   -4.7133955   -4.0801714   0.04933549   -4.7133955   0.63322416   418189 
 3702000    0.6063295   -4.7125458   -4.7125458   -4.0805285  0.026633777   -4.7125458   0.63201726   418189 
 3703000   0.60761438   -4.7137963   -4.7137963   -4.0804397  0.047283244   -4.7137963   0.63335658   418189 
 3704000    0.6063572   -4.7121724   -4.7121724   -4.0801263  0.043797957   -4.7121724   0.63204614   418189 
 3705000    0.6058469   -4.7116861   -4.7116861   -4.0801719  0.025594677   -4.7116861   0.63151422   418189 
 3706000   0.60594255   -4.7120996   -4.7120996   -4.0804857  0.032871996   -4.7120996   0.63161391   418189 
 3707000   0.60578449    -4.712047    -4.712047   -4.0805978  0.027278389    -4.712047   0.63144916   418189 
 3708000    0.6061829   -4.7128832   -4.7128832   -4.0810188  0.038800766   -4.7128832   0.63186446   418189 
 3709000   0.60520878   -4.7114406   -4.7114406   -4.0805915  0.026583449   -4.7114406   0.63084906   418189 
 3710000   0.60588337   -4.7116201   -4.7116201   -4.0800679  0.026061917   -4.7116201   0.63155223   418189 
 3711000   0.60504554   -4.7108798   -4.7108798   -4.0802009  0.032275071   -4.7108798    0.6306789   418189 
 3712000   0.60686389   -4.7127273   -4.7127273    -4.080153  0.018461789   -4.7127273    0.6325743   418189 
 3713000   0.60475372   -4.7108574   -4.7108574   -4.0804827  0.017781602   -4.7108574   0.63037473   418189 
 3714000   0.60630104   -4.7120411   -4.7120411   -4.0800535  0.036982574   -4.7120411   0.63198759   418189 
 3715000   0.60641086   -4.7127634   -4.7127634   -4.0806613  0.028960475   -4.7127634   0.63210207   418189 
 3716000    0.6055098   -4.7115822   -4.7115822   -4.0804194  0.022633607   -4.7115822   0.63116284   418189 
 3717000   0.60601564   -4.7117289   -4.7117289   -4.0800388  0.021329487   -4.7117289   0.63169011   418189 
 3718000   0.60549909   -4.7117564   -4.7117564   -4.0806047  0.034167406   -4.7117564   0.63115167   418189 
 3719000    0.6062058   -4.7131511   -4.7131511   -4.0812628  0.030599153   -4.7131511   0.63188832   418189 
 3720000   0.60582425   -4.7126142   -4.7126142   -4.0811236    0.0390919   -4.7126142   0.63149061   418189 
 3721000   0.60600069   -4.7129624   -4.7129624   -4.0812879  0.026581457   -4.7129624   0.63167452   418189 
 3722000    0.6067516   -4.7140544   -4.7140544   -4.0815972  0.039118958   -4.7140544   0.63245724   418189 
 3723000   0.60673918   -4.7139199   -4.7139199   -4.0814756  0.034252315   -4.7139199   0.63244429   418189 
 3724000   0.60492522   -4.7116153   -4.7116153   -4.0810618  0.030826458   -4.7116153   0.63055348   418189 
 3725000   0.60701454   -4.7140983   -4.7140983    -4.081367   0.01809899   -4.7140983   0.63273133   418189 
 3726000   0.60543092   -4.7129871   -4.7129871   -4.0819064  0.020943572   -4.7129871   0.63108062   418189 
 3727000   0.60604176    -4.712938    -4.712938   -4.0812207  0.022541473    -4.712938   0.63171734   418189 
 3728000   0.60584868   -4.7120655   -4.7120655   -4.0805494  0.035632379   -4.7120655   0.63151607   418189 
 3729000   0.60614985   -4.7130765   -4.7130765   -4.0812465  0.040677671   -4.7130765      0.63183   418189 
 3730000   0.60648377   -4.7135776   -4.7135776   -4.0813996  0.036435187   -4.7135776   0.63217807   418189 
 3731000   0.60591458   -4.7132725   -4.7132725   -4.0816877   0.03398431   -4.7132725   0.63158477   418189 
 3732000   0.60496627   -4.7119893   -4.7119893    -4.081393  0.016965809   -4.7119893   0.63059628   418189 
 3733000   0.60699101   -4.7143999   -4.7143999   -4.0816931   0.03314367   -4.7143999    0.6327068   418189 
 3734000   0.60471948   -4.7125728   -4.7125728   -4.0822338  0.045770553   -4.7125728   0.63033904   418189 
 3735000   0.60618394   -4.7136394   -4.7136394   -4.0817739  0.037875814   -4.7136394   0.63186554   418189 
 3736000   0.60617595   -4.7137034   -4.7137034   -4.0818462  0.041183312   -4.7137034   0.63185721   418189 
 3737000   0.60629094   -4.7138422   -4.7138422   -4.0818651  0.032856542   -4.7138422   0.63197707   418189 
 3738000   0.60567579   -4.7134482   -4.7134482   -4.0821123  0.022283163   -4.7134482   0.63133586   418189 
 3739000   0.60474372   -4.7128632   -4.7128632   -4.0824988   0.01726795   -4.7128632    0.6303643   418189 
 3740000   0.60533439   -4.7132827   -4.7132827   -4.0823027  0.011152206   -4.7132827   0.63097999   418189 
 3741000   0.60557732   -4.7126429   -4.7126429   -4.0814097  0.027898229   -4.7126429   0.63123321   418189 
 3742000   0.60500216   -4.7127333   -4.7127333   -4.0820996  0.026172993   -4.7127333   0.63063368   418189 
 3743000   0.60536742   -4.7122127   -4.7122127   -4.0811983  0.019139242   -4.7122127   0.63101442   418189 
 3744000   0.60462542   -4.7106371   -4.7106371   -4.0803961  0.019849659   -4.7106371   0.63024099   418189 
 3745000   0.60384476    -4.710361    -4.710361   -4.0809337  0.022199856    -4.710361   0.62942725   418189 
 3746000   0.60547572   -4.7130262   -4.7130262   -4.0818989  0.043152975   -4.7130262   0.63112731   418189 
 3747000   0.60482394   -4.7127045   -4.7127045   -4.0822566   0.02370745   -4.7127045   0.63044791   418189 
 3748000   0.60666716   -4.7143502   -4.7143502   -4.0819809  0.027895383   -4.7143502   0.63236923   418189 
 3749000   0.60680019   -4.7143873   -4.7143873   -4.0818794  0.036637365   -4.7143873   0.63250789   418189 
 3750000   0.60588842   -4.7129704   -4.7129704   -4.0814129  0.019564373   -4.7129704    0.6315575   418189 
 3751000   0.60719919    -4.714451    -4.714451   -4.0815272  0.038506351    -4.714451   0.63292379   418189 
 3752000   0.60555923   -4.7126505   -4.7126505   -4.0814361  0.026635449   -4.7126505   0.63121436   418189 
 3753000   0.60553779   -4.7127573   -4.7127573   -4.0815653   0.02537822   -4.7127573   0.63119201   418189 
 3754000   0.60527897   -4.7128055   -4.7128055   -4.0818833  0.025055854   -4.7128055   0.63092222   418189 
 3755000   0.60611273   -4.7130719   -4.7130719   -4.0812806  0.016377541   -4.7130719   0.63179131   418189 
 3756000   0.60540895   -4.7131292   -4.7131292   -4.0820715  0.030509926   -4.7131292   0.63105771   418189 
 3757000   0.60656803   -4.7146618   -4.7146618   -4.0823959  0.032612723   -4.7146618    0.6322659   418189 
 3758000   0.60488547   -4.7130367   -4.7130367   -4.0825247  0.020826278   -4.7130367   0.63051205   418189 
 3759000   0.60451623   -4.7135912   -4.7135912    -4.083464  0.044267597   -4.7135912   0.63012717   418189 
 3760000   0.60585672   -4.7141442   -4.7141442   -4.0826198  0.035689387   -4.7141442   0.63152445   418189 
 3761000   0.60519614   -4.7135857   -4.7135857   -4.0827498  0.038510959   -4.7135857   0.63083589   418189 
 3762000   0.60573025   -4.7139532   -4.7139532   -4.0825606  0.021699363   -4.7139532   0.63139263   418189 
 3763000   0.60451359   -4.7130059   -4.7130059   -4.0828815  0.033252664   -4.7130059   0.63012442   418189 
 3764000   0.60629657   -4.7155245   -4.7155245   -4.0835416  0.018641822   -4.7155245   0.63198294   418189 
 3765000   0.60607329   -4.7152206   -4.7152206   -4.0834704   0.01798514   -4.7152206    0.6317502   418189 
 3766000   0.60642686   -4.7159752   -4.7159752   -4.0838564  0.034336973   -4.7159752   0.63211874   418189 
 3767000   0.60487011   -4.7140939   -4.7140939   -4.0835978  0.024657267   -4.7140939   0.63049604   418189 
 3768000   0.60691742   -4.7149774   -4.7149774   -4.0823473  0.021787517   -4.7149774    0.6326301   418189 
 3769000   0.60718352   -4.7155983   -4.7155983   -4.0826908 0.0040949613   -4.7155983   0.63290746   418189 
 3770000   0.60618926   -4.7150776   -4.7150776   -4.0832065   0.02927871   -4.7150776   0.63187108   418189 
 3771000    0.6064593   -4.7148663   -4.7148663   -4.0827137  0.019000187   -4.7148663   0.63215256   418189 
 3772000   0.60588429   -4.7147924   -4.7147924   -4.0832392  0.024488552   -4.7147924    0.6315532   418189 
 3773000     0.606248   -4.7148515   -4.7148515   -4.0829192  0.028003294   -4.7148515   0.63193231   418189 
 3774000   0.60749101    -4.715705    -4.715705    -4.082477   0.02396113    -4.715705   0.63322798   418189 
 3775000   0.60691044   -4.7155627   -4.7155627   -4.0829399  0.027455851   -4.7155627   0.63262281   418189 
 3776000   0.60757866   -4.7163153   -4.7163153    -4.082996  0.032171087   -4.7163153   0.63331934   418189 
 3777000   0.60721372   -4.7157442   -4.7157442   -4.0828052  0.020504351   -4.7157442   0.63293895   418189 
 3778000   0.60494952   -4.7137258   -4.7137258    -4.083147  0.041842127   -4.7137258   0.63057882   418189 
 3779000   0.60621867   -4.7148458   -4.7148458   -4.0829441  0.033763568   -4.7148458   0.63190174   418189 
 3780000   0.60627876   -4.7143433   -4.7143433   -4.0823789  0.023221906   -4.7143433   0.63196437   418189 
 3781000   0.60676558   -4.7153423   -4.7153423   -4.0828704  0.021552499   -4.7153423   0.63247182   418189 
 3782000   0.60603713   -4.7149333   -4.7149333   -4.0832208  0.030462686   -4.7149333   0.63171251   418189 
 3783000   0.60586693   -4.7145278   -4.7145278   -4.0829927  0.032640417   -4.7145278   0.63153509   418189 
 3784000    0.6054124   -4.7149978   -4.7149978   -4.0839365  0.036678016   -4.7149978   0.63106131   418189 
 3785000   0.60582555   -4.7150895   -4.7150895   -4.0835975  0.026249341   -4.7150895   0.63149196   418189 
 3786000   0.60554297   -4.7157195   -4.7157195   -4.0845221  0.046320562   -4.7157195   0.63119741   418189 
 3787000   0.60523269   -4.7154887   -4.7154887   -4.0846147  0.040082562   -4.7154887   0.63087398   418189 
 3788000   0.60522554   -4.7160795   -4.7160795    -4.085213  0.025702175   -4.7160795   0.63086653   418189 
 3789000   0.60618559   -4.7168728   -4.7168728   -4.0850055  0.022827106   -4.7168728   0.63186726   418189 
 3790000   0.60548684   -4.7160538   -4.7160538   -4.0849149  0.038971551   -4.7160538   0.63113891   418189 
 3791000   0.60616385   -4.7168823   -4.7168823   -4.0850377  0.031267028   -4.7168823    0.6318446   418189 
 3792000   0.60552201   -4.7161169   -4.7161169   -4.0849413  0.026650059   -4.7161169   0.63117556   418189 
 3793000   0.60571187   -4.7163822   -4.7163822   -4.0850087  0.014118219   -4.7163822   0.63137346   418189 
 3794000   0.60546305   -4.7161106   -4.7161106   -4.0849965  0.018943218   -4.7161106    0.6311141   418189 
 3795000   0.60637695   -4.7176924   -4.7176924   -4.0856256  0.025861459   -4.7176924   0.63206672   418189 
 3796000   0.60577875   -4.7175827   -4.7175827   -4.0861395  0.033123156   -4.7175827   0.63144318   418189 
 3797000   0.60454775   -4.7157991   -4.7157991    -4.085639  0.027995576   -4.7157991   0.63016003   418189 
 3798000   0.60530642   -4.7165836   -4.7165836   -4.0856328  0.033636434   -4.7165836   0.63095084   418189 
 3799000   0.60431499   -4.7158623   -4.7158623   -4.0859448  0.036308218   -4.7158623   0.62991741   418189 
 3800000   0.60395247    -4.716053    -4.716053   -4.0865135  0.042002556    -4.716053   0.62953953   418189 
 3801000   0.60497573   -4.7164617   -4.7164617   -4.0858556  0.028048123   -4.7164617   0.63060613   418189 
 3802000   0.60534745   -4.7172543   -4.7172543   -4.0862607  0.022790959   -4.7172543   0.63099361   418189 
 3803000   0.60483771   -4.7162646   -4.7162646   -4.0858024  0.039716422   -4.7162646   0.63046227   418189 
 3804000   0.60471569   -4.7161791   -4.7161791    -4.085844  0.033800893   -4.7161791   0.63033508   418189 
 3805000   0.60471192   -4.7165884   -4.7165884   -4.0862572  0.028217464   -4.7165884   0.63033115   418189 
 3806000   0.60580731    -4.717478    -4.717478   -4.0860051  0.039543679    -4.717478   0.63147295   418189 
 3807000   0.60453726   -4.7156472   -4.7156472   -4.0854981  0.027729859   -4.7156472   0.63014909   418189 
 3808000   0.60657735   -4.7180236   -4.7180236    -4.085748  0.013751331   -4.7180236   0.63227561   418189 
 3809000   0.60555084   -4.7175123   -4.7175123   -4.0863067  0.032075535   -4.7175123   0.63120561   418189 
 3810000   0.60700927   -4.7186525   -4.7186525   -4.0859267  0.022059856   -4.7186525   0.63272583   418189 
 3811000   0.60555619   -4.7172656   -4.7172656   -4.0860544  0.043323498   -4.7172656   0.63121119   418189 
 3812000   0.60658265   -4.7187344   -4.7187344   -4.0864533  0.030598236   -4.7187344   0.63228114   418189 
 3813000   0.60654896   -4.7184806   -4.7184806   -4.0862345  0.020140705   -4.7184806   0.63224602   418189 
 3814000   0.60421724   -4.7160978   -4.7160978   -4.0862823   0.02294469   -4.7160978   0.62981552   418189 
 3815000   0.60599616   -4.7176674   -4.7176674   -4.0859976  0.021098408   -4.7176674    0.6316698   418189 
 3816000   0.60474507   -4.7164372   -4.7164372   -4.0860715  0.032550596   -4.7164372   0.63036571   418189 
 3817000   0.60450955   -4.7164512   -4.7164512    -4.086331  0.046820335   -4.7164512   0.63012021   418189 
 3818000    0.6054611   -4.7168993   -4.7168993   -4.0857873   0.01955177   -4.7168993   0.63111207   418189 
 3819000   0.60550175   -4.7162325   -4.7162325    -4.085078  0.021082846   -4.7162325   0.63115444   418189 
 3820000   0.60508676   -4.7162811   -4.7162811   -4.0855592  0.029778955   -4.7162811   0.63072187   418189 
 3821000   0.60592897   -4.7154898   -4.7154898     -4.08389   0.02214907   -4.7154898   0.63159976   418189 
 3822000   0.60617498   -4.7161571   -4.7161571   -4.0843009  0.017661625   -4.7161571   0.63185619   418189 
 3823000   0.60563438   -4.7158657   -4.7158657    -4.084573  0.021941199   -4.7158657   0.63129269   418189 
 3824000   0.60481278    -4.715281    -4.715281   -4.0848447  0.018737491    -4.715281   0.63043629   418189 
 3825000     0.605383   -4.7163781   -4.7163781   -4.0853474  0.033867501   -4.7163781   0.63103067   418189 
 3826000   0.60469699   -4.7162457   -4.7162457   -4.0859301  0.014388708   -4.7162457   0.63031559   418189 
 3827000   0.60511632   -4.7169329   -4.7169329   -4.0861802  0.018475992   -4.7169329   0.63075269   418189 
 3828000   0.60453767   -4.7158326   -4.7158326   -4.0856831  0.029997972   -4.7158326   0.63014952   418189 
 3829000   0.60523739    -4.716231    -4.716231   -4.0853521  0.031536471    -4.716231   0.63087888   418189 
 3830000   0.60624727   -4.7175628   -4.7175628   -4.0856312  0.039406278   -4.7175628   0.63193154   418189 
 3831000   0.60472293   -4.7160481   -4.7160481   -4.0857055  0.018141679   -4.7160481   0.63034263   418189 
 3832000   0.60501253   -4.7162687   -4.7162687   -4.0856242  0.017359818   -4.7162687    0.6306445   418189 
 3833000   0.60657638   -4.7178117   -4.7178117   -4.0855371  0.012935878   -4.7178117    0.6322746   418189 
 3834000   0.60582707   -4.7166131   -4.7166131   -4.0851196  0.017105532   -4.7166131   0.63149355   418189 
 3835000   0.60535391   -4.7169233   -4.7169233    -4.085923  0.020443726   -4.7169233   0.63100034   418189 
 3836000   0.60462609   -4.7166146   -4.7166146    -4.086373  0.035532871   -4.7166146   0.63024168   418189 
 3837000   0.60440536   -4.7171836   -4.7171836    -4.087172  0.025370029   -4.7171836   0.63001161   418189 
 3838000   0.60576768   -4.7187944   -4.7187944   -4.0873628  0.035442701   -4.7187944   0.63143164   418189 
 3839000   0.60586975   -4.7180298   -4.7180298   -4.0864918  0.028876206   -4.7180298   0.63153803   418189 
 3840000   0.60472919   -4.7174755   -4.7174755   -4.0871263  0.024214688   -4.7174755   0.63034915   418189 
 3841000   0.60569256   -4.7186746   -4.7186746   -4.0873212  0.030115791   -4.7186746   0.63135334   418189 
 3842000   0.60397451   -4.7168816   -4.7168816   -4.0873191  0.037189985   -4.7168816    0.6295625   418189 
 3843000   0.60585716   -4.7186577   -4.7186577   -4.0871328  0.042438312   -4.7186577   0.63152491   418189 
 3844000    0.6045598   -4.7176682   -4.7176682   -4.0874956  0.037557374   -4.7176682   0.63017259   418189 
 3845000   0.60541803   -4.7184346   -4.7184346   -4.0873674  0.023484411   -4.7184346   0.63106718   418189 
 3846000   0.60641223   -4.7194059   -4.7194059   -4.0873024  0.031466075   -4.7194059    0.6321035   418189 
 3847000   0.60390171   -4.7173981   -4.7173981   -4.0879115  0.036910521   -4.7173981   0.62948661   418189 
 3848000   0.60486565    -4.718241    -4.718241   -4.0877496   0.02238368    -4.718241    0.6304914   418189 
 3849000   0.60539624   -4.7188311   -4.7188311   -4.0877867  0.041164217   -4.7188311   0.63104447   418189 
 3850000   0.60514511    -4.718102    -4.718102   -4.0873193   0.03611442    -4.718102   0.63078269   418189 
 3851000   0.60514749   -4.7175153   -4.7175153   -4.0867302  0.045137408   -4.7175153   0.63078517   418189 
 3852000    0.6039166   -4.7165132   -4.7165132   -4.0870111  0.023691925   -4.7165132   0.62950214   418189 
 3853000   0.60482655   -4.7177158   -4.7177158   -4.0872652  0.036719558   -4.7177158   0.63045064   418189 
 3854000   0.60304824   -4.7164868   -4.7164868   -4.0878898  0.017360587   -4.7164868   0.62859699   418189 
 3855000   0.60346629   -4.7169288   -4.7169288    -4.087896  0.022053683   -4.7169288   0.62903275   418189 
 3856000   0.60554701   -4.7179523   -4.7179523   -4.0867507  0.006704002   -4.7179523   0.63120162   418189 
 3857000   0.60529804   -4.7179755   -4.7179755   -4.0870334  0.032078489   -4.7179755    0.6309421   418189 
 3858000   0.60652407   -4.7191615   -4.7191615   -4.0869415  0.039473867   -4.7191615   0.63222008   418189 
 3859000   0.60655939   -4.7191722   -4.7191722   -4.0869153  0.033394458   -4.7191722    0.6322569   418189 
 3860000   0.60691886    -4.719545    -4.719545   -4.0869134  0.027309418    -4.719545    0.6326316   418189 
 3861000   0.60695549   -4.7195487   -4.7195487   -4.0868789  0.032314649   -4.7195487   0.63266977   418189 
 3862000   0.60461963   -4.7174235   -4.7174235   -4.0871885  0.041706069   -4.7174235   0.63023495   418189 
 3863000   0.60462066   -4.7183646   -4.7183646   -4.0881286  0.026763417   -4.7183646   0.63023603   418189 
 3864000   0.60546237   -4.7191394   -4.7191394    -4.088026  0.012134803   -4.7191394    0.6311134   418189 
 3865000   0.60483884   -4.7182105   -4.7182105   -4.0877471  0.019806417   -4.7182105   0.63046345   418189 
 3866000   0.60427474   -4.7176266   -4.7176266   -4.0877512  0.025911188   -4.7176266   0.62987545   418189 
 3867000   0.60437038   -4.7178552   -4.7178552   -4.0878801   0.04041483   -4.7178552   0.62997514   418189 
 3868000   0.60564199   -4.7184575   -4.7184575   -4.0871569  0.030126233   -4.7184575   0.63130062   418189 
 3869000   0.60398375   -4.7168261   -4.7168261    -4.087254  0.017902438   -4.7168261   0.62957213   418189 
 3870000     0.604908    -4.717932    -4.717932   -4.0873965  0.024582044    -4.717932   0.63053554   418189 
 3871000   0.60615022   -4.7190777   -4.7190777   -4.0872473   0.01987909   -4.7190777   0.63183038   418189 
 3872000   0.60542213   -4.7178919   -4.7178919   -4.0868205  0.020222349   -4.7178919   0.63107145   418189 
 3873000   0.60616038   -4.7186992   -4.7186992   -4.0868582  0.023613839   -4.7186992   0.63184098   418189 
 3874000   0.60646608   -4.7191406   -4.7191406    -4.086981   0.04307234   -4.7191406   0.63215963   418189 
 3875000   0.60638194   -4.7187352   -4.7187352   -4.0866633  0.024468191   -4.7187352   0.63207193   418189 
 3876000   0.60582908   -4.7177817   -4.7177817   -4.0862861  0.025459803   -4.7177817   0.63149565   418189 
 3877000   0.60438145   -4.7167425   -4.7167425   -4.0867558  0.022450602   -4.7167425   0.62998668   418189 
 3878000   0.60465547   -4.7169472   -4.7169472   -4.0866749  0.041108242   -4.7169472   0.63027231   418189 
 3879000   0.60572332   -4.7182139   -4.7182139   -4.0868285  0.024344112   -4.7182139    0.6313854   418189 
 3880000   0.60601486   -4.7185437   -4.7185437   -4.0868544  0.023963675   -4.7185437   0.63168929   418189 
 3881000   0.60580247    -4.718583    -4.718583   -4.0871151  0.022921625    -4.718583    0.6314679   418189 
 3882000   0.60550078   -4.7178643   -4.7178643   -4.0867108  0.041101976   -4.7178643   0.63115343   418189 
 3883000   0.60578475     -4.71852     -4.71852   -4.0870705  0.035298383     -4.71852   0.63144943   418189 
 3884000   0.60497479   -4.7170731   -4.7170731    -4.086468   0.01562907   -4.7170731   0.63060516   418189 
 3885000   0.60531251   -4.7175847   -4.7175847   -4.0866275  0.025243009   -4.7175847   0.63095719   418189 
 3886000   0.60473303   -4.7165791   -4.7165791    -4.086226  0.027894618   -4.7165791   0.63035316   418189 
 3887000   0.60569597   -4.7176464   -4.7176464   -4.0862895  0.024027672   -4.7176464   0.63135689   418189 
 3888000   0.60604411   -4.7172624   -4.7172624   -4.0855426  0.040365963   -4.7172624   0.63171978   418189 
 3889000    0.6056289   -4.7169505   -4.7169505   -4.0856635  0.024153733   -4.7169505   0.63128698   418189 
 3890000   0.60499358   -4.7177599   -4.7177599   -4.0871352  0.020143333   -4.7177599   0.63062475   418189 
 3891000   0.60560713   -4.7179295   -4.7179295   -4.0866652  0.016394675   -4.7179295   0.63126429   418189 
 3892000   0.60508062   -4.7175432   -4.7175432   -4.0868277  0.027727519   -4.7175432   0.63071547   418189 
 3893000   0.60474909   -4.7168773   -4.7168773   -4.0865074  0.032620893   -4.7168773    0.6303699   418189 
 3894000   0.60633278   -4.7179481   -4.7179481   -4.0859274  0.015924183   -4.7179481   0.63202068   418189 
 3895000   0.60608536   -4.7183469   -4.7183469   -4.0865842  0.026922557   -4.7183469   0.63176278   418189 
 3896000   0.60521339    -4.717246    -4.717246   -4.0863921  0.034268631    -4.717246   0.63085387   418189 
 3897000   0.60663445   -4.7186053   -4.7186053   -4.0862702  0.023610411   -4.7186053   0.63233513   418189 
 3898000   0.60579513   -4.7186728   -4.7186728   -4.0872125  0.031572958   -4.7186728   0.63146025   418189 
 3899000   0.60567784   -4.7185485   -4.7185485   -4.0872105  0.048101195   -4.7185485     0.631338   418189 
 3900000   0.60597994   -4.7186135   -4.7186135   -4.0869606  0.028744051   -4.7186135   0.63165289   418189 
 3901000   0.60574685   -4.7181411   -4.7181411   -4.0867312  0.019461111   -4.7181411   0.63140993   418189 
 3902000   0.60564912   -4.7182064   -4.7182064   -4.0868983 0.0068830867   -4.7182064   0.63130805   418189 
 3903000   0.60507702   -4.7174552   -4.7174552   -4.0867435   0.01717272   -4.7174552   0.63071172   418189 
 3904000   0.60626925   -4.7184177   -4.7184177   -4.0864632  0.014854488   -4.7184177   0.63195446   418189 
 3905000   0.60685551   -4.7191228   -4.7191228   -4.0865572  0.023677774   -4.7191228   0.63256556   418189 
 3906000    0.6054495   -4.7176783   -4.7176783   -4.0865783   0.02070197   -4.7176783   0.63109998   418189 
 3907000   0.60517767   -4.7174988   -4.7174988   -4.0866822  0.035062163   -4.7174988   0.63081664   418189 
 3908000   0.60605701   -4.7186779   -4.7186779   -4.0869447    0.0179655   -4.7186779   0.63173323   418189 
 3909000    0.6055742    -4.718762    -4.718762   -4.0875321   0.01701783    -4.718762   0.63122997   418189 
 3910000   0.60454452   -4.7169448   -4.7169448   -4.0867882  0.025015155   -4.7169448   0.63015666   418189 
 3911000   0.60488672   -4.7180368   -4.7180368   -4.0875235   0.02810331   -4.7180368   0.63051336   418189 
 3912000   0.60596623   -4.7186372   -4.7186372   -4.0869986  0.032909537   -4.7186372    0.6316386   418189 
 3913000   0.60532523   -4.7184394   -4.7184394   -4.0874689  0.026285439   -4.7184394   0.63097044   418189 
 3914000   0.60477027    -4.718721    -4.718721    -4.088329  0.040076163    -4.718721   0.63039198   418189 
 3915000   0.60648901   -4.7194359   -4.7194359   -4.0872524  0.022067834   -4.7194359   0.63218353   418189 
 3916000   0.60503272   -4.7171472   -4.7171472   -4.0864817   0.02644654   -4.7171472   0.63066554   418189 
 3917000   0.60512836   -4.7170828   -4.7170828   -4.0863175   0.03394098   -4.7170828   0.63076524   418189 
 3918000   0.60581049   -4.7169835   -4.7169835   -4.0855073  0.026402248   -4.7169835   0.63147626   418189 
 3919000   0.60601516   -4.7178055   -4.7178055   -4.0861159  0.038260705   -4.7178055   0.63168961   418189 
 3920000   0.60499713   -4.7171296   -4.7171296   -4.0865011  0.023792965   -4.7171296   0.63062844   418189 
 3921000   0.60487388   -4.7166583   -4.7166583   -4.0861583  0.033563602   -4.7166583   0.63049997   418189 
 3922000   0.60624625   -4.7181976   -4.7181976   -4.0862671  0.041640778   -4.7181976   0.63193049   418189 
 3923000   0.60508228   -4.7173179   -4.7173179   -4.0866007  0.024516327   -4.7173179    0.6307172   418189 
 3924000     0.605576   -4.7175235   -4.7175235   -4.0862917  0.018239068   -4.7175235   0.63123184   418189 
 3925000   0.60480655   -4.7181598   -4.7181598     -4.08773  0.035524224   -4.7181598   0.63042979   418189 
 3926000   0.60401648   -4.7173244   -4.7173244   -4.0877181  0.046811211   -4.7173244   0.62960624   418189 
 3927000   0.60440906   -4.7181817   -4.7181817   -4.0881662  0.035793306   -4.7181817   0.63001547   418189 
 3928000   0.60493211   -4.7187291   -4.7187291   -4.0881684  0.024178213   -4.7187291   0.63056067   418189 
 3929000   0.60589819   -4.7199056   -4.7199056   -4.0883379  0.022487644   -4.7199056   0.63156768   418189 
 3930000   0.60415045    -4.717889    -4.717889   -4.0881431  0.019750327    -4.717889    0.6297459   418189 
 3931000   0.60572515   -4.7196399   -4.7196399   -4.0882526  0.042320243   -4.7196399   0.63138731   418189 
 3932000   0.60559258   -4.7197827   -4.7197827   -4.0885336  0.045822419   -4.7197827   0.63124912   418189 
 3933000   0.60303925   -4.7180559   -4.7180559   -4.0894683  0.018749038   -4.7180559   0.62858761   418189 
 3934000   0.60561957   -4.7199316   -4.7199316   -4.0886543  0.024433512   -4.7199316   0.63127725   418189 
 3935000   0.60419299   -4.7190438   -4.7190438   -4.0892535  0.032611059   -4.7190438   0.62979024   418189 
 3936000   0.60435231   -4.7197499   -4.7197499   -4.0897936  0.018036528   -4.7197499   0.62995631   418189 
 3937000   0.60515802    -4.719706    -4.719706   -4.0889099   0.02956748    -4.719706   0.63079615   418189 
 3938000    0.6054251   -4.7192993   -4.7192993   -4.0882248  0.029004285   -4.7192993   0.63107454   418189 
 3939000   0.60466328   -4.7194344   -4.7194344   -4.0891539  0.032173018   -4.7194344   0.63028045   418189 
 3940000    0.6040424   -4.7182298   -4.7182298   -4.0885965  0.032235301   -4.7182298   0.62963327   418189 
 3941000   0.60459551   -4.7182866   -4.7182866   -4.0880768  0.033288175   -4.7182866   0.63020981   418189 
 3942000   0.60493323   -4.7178777   -4.7178777   -4.0873159  0.022702991   -4.7178777   0.63056184   418189 
 3943000   0.60614635     -4.71864     -4.71864   -4.0868136  0.020846178     -4.71864   0.63182636   418189 
 3944000   0.60502028   -4.7176916   -4.7176916   -4.0870391  0.017333371   -4.7176916   0.63065257   418189 
 3945000   0.60595831   -4.7186475   -4.7186475   -4.0870172  0.028434075   -4.7186475   0.63163034   418189 
 3946000   0.60540063   -4.7186071   -4.7186071   -4.0875581  0.019057203   -4.7186071   0.63104904   418189 
 3947000   0.60376234    -4.716858    -4.716858   -4.0875167  0.024414615    -4.716858   0.62934134   418189 
 3948000   0.60443909   -4.7181409   -4.7181409   -4.0880941  0.026500524   -4.7181409   0.63004676   418189 
 3949000   0.60426086   -4.7179496   -4.7179496   -4.0880886   0.02852119   -4.7179496   0.62986098   418189 
 3950000   0.60398001   -4.7178013   -4.7178013    -4.088233  0.022883058   -4.7178013   0.62956823   418189 
 3951000   0.60592014   -4.7198754   -4.7198754   -4.0882849  0.045395911   -4.7198754   0.63159056   418189 
 3952000   0.60426636   -4.7191291   -4.7191291   -4.0892624  0.032696728   -4.7191291   0.62986672   418189 
 3953000   0.60546964   -4.7207367   -4.7207367   -4.0896157  0.034457984   -4.7207367   0.63112098   418189 
 3954000   0.60600399   -4.7202014   -4.7202014   -4.0885234  0.017595532   -4.7202014   0.63167796   418189 
 3955000   0.60655915   -4.7208384   -4.7208384   -4.0885818  0.031489526   -4.7208384   0.63225664   418189 
 3956000   0.60565097   -4.7196309   -4.7196309    -4.088321  0.034176369   -4.7196309   0.63130999   418189 
 3957000   0.60535428   -4.7188874   -4.7188874   -4.0878867  0.037398512   -4.7188874   0.63100072   418189 
 3958000   0.60636946   -4.7199113   -4.7199113   -4.0878524  0.021608811   -4.7199113   0.63205892   418189 
 3959000    0.6052962   -4.7187833   -4.7187833   -4.0878431  0.042630324   -4.7187833   0.63094018   418189 
 3960000   0.60510772   -4.7187966   -4.7187966   -4.0880529  0.041861844   -4.7187966   0.63074372   418189 
 3961000   0.60492423   -4.7176113   -4.7176113   -4.0870588   0.02134371   -4.7176113   0.63055246   418189 
 3962000   0.60474819   -4.7179331   -4.7179331   -4.0875641  0.024681252   -4.7179331   0.63036896   418189 
 3963000   0.60395915   -4.7170239   -4.7170239   -4.0874774  0.015254757   -4.7170239   0.62954649   418189 
 3964000   0.60502561   -4.7183727   -4.7183727   -4.0877146   0.01751591   -4.7183727   0.63065813   418189 
 3965000    0.6043231   -4.7176316   -4.7176316   -4.0877057  0.023704797   -4.7176316   0.62992586   418189 
 3966000   0.60496893     -4.71839     -4.71839    -4.087791  0.020569659     -4.71839   0.63059905   418189 
 3967000   0.60442717   -4.7181737   -4.7181737   -4.0881394  0.027682469   -4.7181737   0.63003433   418189 
 3968000   0.60426476    -4.718323    -4.718323   -4.0884579  0.023256859    -4.718323   0.62986505   418189 
 3969000   0.60455871   -4.7185135   -4.7185135   -4.0883421  0.027334129   -4.7185135   0.63017145   418189 
 3970000   0.60407826    -4.718275    -4.718275   -4.0886044  0.019350618    -4.718275   0.62967064   418189 
 3971000   0.60479703   -4.7191701   -4.7191701   -4.0887502  0.034031638   -4.7191701   0.63041987   418189 
 3972000   0.60608808   -4.7197423   -4.7197423   -4.0879767  0.039434488   -4.7197423   0.63176562   418189 
 3973000   0.60590091   -4.7194672   -4.7194672   -4.0878967  0.041511397   -4.7194672   0.63157051   418189 
 3974000   0.60536134   -4.7187144   -4.7187144   -4.0877063  0.028651608   -4.7187144   0.63100809   418189 
 3975000   0.60543311   -4.7192399   -4.7192399    -4.088157  0.028784282   -4.7192399    0.6310829   418189 
 3976000   0.60496094    -4.718322    -4.718322   -4.0877312  0.016467478    -4.718322   0.63059072   418189 
 3977000   0.60500648   -4.7179748   -4.7179748   -4.0873366  0.028619447   -4.7179748    0.6306382   418189 
 3978000   0.60612195   -4.7197118   -4.7197118   -4.0879109  0.032866466   -4.7197118   0.63180092   418189 
 3979000   0.60513267   -4.7187208   -4.7187208   -4.0879511  0.032899861   -4.7187208   0.63076973   418189 
 3980000   0.60697702   -4.7199004   -4.7199004   -4.0872081  0.028026416   -4.7199004   0.63269222   418189 
 3981000   0.60765709   -4.7212655   -4.7212655   -4.0878644  0.034416327   -4.7212655    0.6334011   418189 
 3982000   0.60640313   -4.7200557   -4.7200557   -4.0879617  0.035391685   -4.7200557   0.63209402   418189 
 3983000   0.60469533   -4.7185016   -4.7185016   -4.0881878  0.032546205   -4.7185016   0.63031386   418189 
 3984000   0.60470089   -4.7183184   -4.7183184   -4.0879988  0.021186886   -4.7183184   0.63031965   418189 
 3985000    0.6053281   -4.7186027   -4.7186027   -4.0876292  0.038318022   -4.7186027   0.63097344   418189 
 3986000    0.6058093   -4.7191789   -4.7191789   -4.0877039  0.025699332   -4.7191789   0.63147503   418189 
 3987000   0.60459645   -4.7175437   -4.7175437   -4.0873329  0.021112486   -4.7175437   0.63021079   418189 
 3988000   0.60480229   -4.7185813   -4.7185813   -4.0881559  0.023086997   -4.7185813   0.63042535   418189 
 3989000   0.60686038   -4.7198187   -4.7198187    -4.087248  0.031726304   -4.7198187   0.63257063   418189 
 3990000   0.60643932   -4.7189331   -4.7189331   -4.0868014  0.023542862   -4.7189331   0.63213174   418189 
 3991000   0.60657069   -4.7195667   -4.7195667   -4.0872981  0.036297424   -4.7195667   0.63226867   418189 
 3992000   0.60461914   -4.7180873   -4.7180873   -4.0878529  0.039566827   -4.7180873   0.63023444   418189 
 3993000   0.60450744   -4.7181025   -4.7181025   -4.0879845  0.039880533   -4.7181025   0.63011801   418189 
 3994000   0.60479163   -4.7189697   -4.7189697   -4.0885555  0.031966171   -4.7189697   0.63041424   418189 
 3995000   0.60332103   -4.7186231   -4.7186231   -4.0897418  0.030872016   -4.7186231   0.62888133   418189 
 3996000   0.60337482   -4.7181271   -4.7181271   -4.0891897  0.031220519   -4.7181271    0.6289374   418189 
 3997000   0.60521403   -4.7201117   -4.7201117   -4.0892572   0.03124619   -4.7201117   0.63085454   418189 
 3998000   0.60423322   -4.7190533   -4.7190533   -4.0892211  0.045561324   -4.7190533   0.62983217   418189 
 3999000   0.60428513   -4.7190744   -4.7190744   -4.0891881   0.03270583   -4.7190744   0.62988628   418189 
 4000000   0.60421983   -4.7186852   -4.7186852    -4.088867  0.040060863   -4.7186852   0.62981821   418189 
 4001000   0.60393907   -4.7185648   -4.7185648   -4.0890393  0.021053434   -4.7185648   0.62952556   418189 
 4002000   0.60447428   -4.7193266   -4.7193266   -4.0892432  0.023552491   -4.7193266   0.63008345   418189 
 4003000   0.60467462   -4.7193827   -4.7193827   -4.0890904   0.01868306   -4.7193827   0.63029227   418189 
 4004000   0.60373267     -4.71893     -4.71893   -4.0896196  0.016935912     -4.71893   0.62931042   418189 
 4005000    0.6046989    -4.720052    -4.720052   -4.0897344  0.024840693    -4.720052   0.63031758   418189 
 4006000   0.60508485   -4.7207967   -4.7207967   -4.0900768   0.04225356   -4.7207967   0.63071988   418189 
 4007000   0.60414761   -4.7195544   -4.7195544   -4.0898115  0.014592164   -4.7195544   0.62974294   418189 
 4008000   0.60640003   -4.7211734   -4.7211734   -4.0890826  0.023417962   -4.7211734   0.63209078   418189 
 4009000   0.60574754   -4.7198081   -4.7198081   -4.0883974  0.033422393   -4.7198081   0.63141064   418189 
 4010000   0.60666747   -4.7215133   -4.7215133   -4.0891437  0.014021505   -4.7215133   0.63236955   418189 
 4011000   0.60545986   -4.7193629   -4.7193629   -4.0882521  0.027380165   -4.7193629   0.63111078   418189 
 4012000   0.60555506   -4.7195891   -4.7195891   -4.0883791  0.017096398   -4.7195891   0.63121001   418189 
 4013000   0.60423672   -4.7190209   -4.7190209   -4.0891851  0.036846192   -4.7190209   0.62983582   418189 
 4014000   0.60475967   -4.7195982   -4.7195982   -4.0892173  0.027522511   -4.7195982   0.63038093   418189 
 4015000   0.60503208   -4.7194003   -4.7194003   -4.0887354  0.016600801   -4.7194003   0.63066488   418189 
 4016000    0.6050862   -4.7204467   -4.7204467   -4.0897254  0.039192271   -4.7204467   0.63072128   418189 
 4017000   0.60347738   -4.7192724   -4.7192724   -4.0902281  0.014451146   -4.7192724   0.62904431   418189 
 4018000    0.6038949   -4.7192629   -4.7192629   -4.0897833  0.036873406   -4.7192629   0.62947951   418189 
 4019000   0.60468571   -4.7196717   -4.7196717   -4.0893678  0.022060298   -4.7196717   0.63030383   418189 
 4020000   0.60447752   -4.7192809   -4.7192809   -4.0891941   0.01386138   -4.7192809   0.63008682   418189 
 4021000   0.60512925   -4.7190222   -4.7190222    -4.088256 0.0056984162   -4.7190222   0.63076616   418189 
 4022000   0.60490859   -4.7193133   -4.7193133   -4.0887771  0.026324792   -4.7193133   0.63053615   418189 
 4023000   0.60482696    -4.718999    -4.718999   -4.0885479  0.042996777    -4.718999   0.63045106   418189 
 4024000   0.60477545   -4.7196735   -4.7196735   -4.0892761   0.03876294   -4.7196735   0.63039737   418189 
 4025000   0.60496156   -4.7198784   -4.7198784    -4.089287   0.01488251   -4.7198784   0.63059137   418189 
 4026000   0.60510372   -4.7197573   -4.7197573   -4.0890178  0.028706585   -4.7197573   0.63073956   418189 
 4027000   0.60472219   -4.7193811   -4.7193811   -4.0890393  0.034157147   -4.7193811   0.63034186   418189 
 4028000   0.60492281   -4.7191585   -4.7191585   -4.0886076  0.036686018   -4.7191585   0.63055097   418189 
 4029000   0.60432797   -4.7188068   -4.7188068   -4.0888759   0.03445762   -4.7188068   0.62993094   418189 
 4030000   0.60501861   -4.7191744   -4.7191744   -4.0885236  0.034563276   -4.7191744   0.63065084   418189 
 4031000   0.60317147   -4.7180762   -4.7180762   -4.0893507   0.01947351   -4.7180762   0.62872544   418189 
 4032000   0.60579591   -4.7214444   -4.7214444   -4.0899834  0.031726636   -4.7214444   0.63146107   418189 
 4033000    0.6048109   -4.7207911   -4.7207911   -4.0903568  0.024486797   -4.7207911   0.63043432   418189 
 4034000   0.60461814   -4.7203749   -4.7203749   -4.0901415  0.028041304   -4.7203749    0.6302334   418189 
 4035000   0.60516814    -4.721284    -4.721284   -4.0904773  0.041631969    -4.721284    0.6308067   418189 
 4036000   0.60486095   -4.7202987   -4.7202987   -4.0898122  0.021216751   -4.7202987    0.6304865   418189 
 4037000   0.60556049   -4.7206851   -4.7206851   -4.0894694  0.032229297   -4.7206851   0.63121567   418189 
 4038000   0.60528799   -4.7207595   -4.7207595   -4.0898279  0.013126701   -4.7207595   0.63093163   418189 
 4039000   0.60627141   -4.7216138   -4.7216138   -4.0896571  0.036348778   -4.7216138   0.63195671   418189 
 4040000   0.60573422   -4.7216323   -4.7216323   -4.0902355   0.02979339   -4.7216323   0.63139676   418189 
 4041000    0.6045294   -4.7211755   -4.7211755   -4.0910347  0.040103279   -4.7211755    0.6301409   418189 
 4042000    0.6052394   -4.7212764   -4.7212764   -4.0903954  0.020845974   -4.7212764   0.63088098   418189 
 4043000   0.60583168   -4.7209755   -4.7209755   -4.0894772  0.042828811   -4.7209755   0.63149836   418189 
 4044000   0.60372023   -4.7193053   -4.7193053   -4.0900079  0.025058175   -4.7193053   0.62929744   418189 
 4045000   0.60328667   -4.7188611   -4.7188611   -4.0900156  0.031011421   -4.7188611   0.62884552   418189 
 4046000   0.60505826   -4.7203249   -4.7203249   -4.0896327  0.023866685   -4.7203249   0.63069216   418189 
 4047000   0.60487431   -4.7196729   -4.7196729   -4.0891724  0.029340369   -4.7196729   0.63050042   418189 
 4048000   0.60490363   -4.7203624   -4.7203624   -4.0898314  0.031238858   -4.7203624   0.63053098   418189 
 4049000   0.60325277   -4.7186283   -4.7186283   -4.0898182  0.028008259   -4.7186283   0.62881018   418189 
 4050000   0.60502075    -4.720336    -4.720336    -4.089683  0.028517231    -4.720336   0.63065306   418189 
 4051000   0.60536663   -4.7206533   -4.7206533   -4.0896397  0.035873596   -4.7206533    0.6310136   418189 
 4052000   0.60626294   -4.7224717   -4.7224717   -4.0905238  0.026994896   -4.7224717   0.63194788   418189 
 4053000    0.6041808   -4.7195697   -4.7195697   -4.0897922  0.022245054   -4.7195697   0.62977753   418189 
 4054000   0.60603836   -4.7209426   -4.7209426   -4.0892288   0.03384071   -4.7209426   0.63171379   418189 
 4055000   0.60506157    -4.719633    -4.719633   -4.0889374    0.0402419    -4.719633   0.63069561   418189 
 4056000   0.60531635   -4.7196063   -4.7196063   -4.0886451  0.015331005   -4.7196063   0.63096119   418189 
 4057000   0.60591185    -4.720102    -4.720102   -4.0885201  0.019711874    -4.720102   0.63158192   418189 
 4058000   0.60647705   -4.7210412   -4.7210412   -4.0888702  0.039262588   -4.7210412   0.63217107   418189 
 4059000   0.60560823    -4.720249    -4.720249   -4.0889835  0.040157158    -4.720249   0.63126544   418189 
 4060000   0.60471176   -4.7189863   -4.7189863   -4.0886553  0.025907634   -4.7189863   0.63033099   418189 
 4061000   0.60550561   -4.7192991   -4.7192991   -4.0881406  0.040710789   -4.7192991   0.63115846   418189 
 4062000   0.60449001   -4.7183914   -4.7183914   -4.0882915  0.018879228   -4.7183914   0.63009984   418189 
 4063000   0.60513576   -4.7191444   -4.7191444   -4.0883714 0.0081867229   -4.7191444   0.63077295   418189 
 4064000   0.60541267   -4.7193485   -4.7193485    -4.088287  0.022476524   -4.7193485   0.63106159   418189 
 4065000   0.60500766   -4.7187181   -4.7187181   -4.0880787  0.031251218   -4.7187181   0.63063943   418189 
 4066000    0.6051586    -4.718959    -4.718959   -4.0881622  0.030558341    -4.718959   0.63079676   418189 
 4067000   0.60563888   -4.7191473   -4.7191473   -4.0878499  0.027161671   -4.7191473   0.63129739   418189 
 4068000   0.60609157   -4.7200098   -4.7200098   -4.0882405  0.035277075   -4.7200098   0.63176926   418189 
 4069000    0.6059736   -4.7198732   -4.7198732   -4.0882269  0.024436439   -4.7198732   0.63164628   418189 
 4070000   0.60618212   -4.7209061   -4.7209061   -4.0890425  0.037951614   -4.7209061   0.63186364   418189 
 4071000   0.60502587   -4.7197827   -4.7197827   -4.0891243   0.01236893   -4.7197827    0.6306584   418189 
 4072000   0.60455844   -4.7197103   -4.7197103   -4.0895391  0.025504832   -4.7197103   0.63017117   418189 
 4073000   0.60576514   -4.7206698   -4.7206698   -4.0892408   0.02986911   -4.7206698   0.63142899   418189 
 4074000   0.60526112   -4.7202006   -4.7202006    -4.089297  0.018057789   -4.7202006   0.63090361   418189 
 4075000   0.60444313   -4.7194482   -4.7194482   -4.0893972   0.02333358   -4.7194482   0.63005097   418189 
 4076000   0.60452896   -4.7189498   -4.7189498   -4.0888093  0.016340502   -4.7189498   0.63014044   418189 
 4077000   0.60604362   -4.7211233   -4.7211233    -4.089404  0.029113472   -4.7211233   0.63171927   418189 
 4078000   0.60512809   -4.7202807   -4.7202807   -4.0895158  0.016462706   -4.7202807   0.63076495   418189 
 4079000   0.60563983   -4.7201159   -4.7201159   -4.0888175  0.013584854   -4.7201159   0.63129837   418189 
 4080000   0.60575679   -4.7207755   -4.7207755   -4.0893552  0.020619917   -4.7207755   0.63142029   418189 
 4081000   0.60528978   -4.7204076   -4.7204076   -4.0894741  0.021479875   -4.7204076   0.63093349   418189 
 4082000   0.60506673   -4.7207291   -4.7207291   -4.0900281  0.038532236   -4.7207291     0.630701   418189 
 4083000   0.60502271   -4.7206388   -4.7206388   -4.0899837  0.033394653   -4.7206388   0.63065511   418189 
 4084000   0.60397884   -4.7199026   -4.7199026   -4.0903356  0.032971123   -4.7199026   0.62956702   418189 
 4085000   0.60431072   -4.7202709   -4.7202709    -4.090358  0.035043876   -4.7202709   0.62991296   418189 
 4086000    0.6046239   -4.7206484   -4.7206484    -4.090409  0.033648099   -4.7206484    0.6302394   418189 
 4087000   0.60427805   -4.7208763   -4.7208763   -4.0909974  0.011019517   -4.7208763    0.6298789   418189 
 4088000   0.60404191   -4.7207861   -4.7207861   -4.0911534  0.021020774   -4.7207861   0.62963276   418189 
 4089000   0.60498829   -4.7209665   -4.7209665   -4.0903472    0.0300147   -4.7209665   0.63061923   418189 
 4090000   0.60451863   -4.7204795   -4.7204795   -4.0903499  0.016751447   -4.7204795   0.63012968   418189 
 4091000   0.60467863   -4.7208733   -4.7208733   -4.0905768  0.028490233   -4.7208733   0.63029645   418189 
 4092000   0.60486364      -4.7203      -4.7203   -4.0898107  0.032911845      -4.7203    0.6304893   418189 
 4093000   0.60584625   -4.7207209   -4.7207209   -4.0892074  0.027011505   -4.7207209   0.63151354   418189 
 4094000   0.60506331    -4.720909    -4.720909   -4.0902115  0.026844637    -4.720909   0.63069743   418189 
 4095000   0.60567132   -4.7212536   -4.7212536   -4.0899224  0.028400106   -4.7212536    0.6313312   418189 
 4096000   0.60532912   -4.7212398   -4.7212398   -4.0902653  0.045234552   -4.7212398    0.6309745   418189 
 4097000   0.60708472   -4.7229488   -4.7229488   -4.0901443   0.02171951   -4.7229488   0.63280447   418189 
 4098000   0.60475171   -4.7200852   -4.7200852   -4.0897126  0.032356643   -4.7200852   0.63037262   418189 
 4099000   0.60385156   -4.7200644   -4.7200644   -4.0906301  0.025010821   -4.7200644   0.62943434   418189 
 4100000   0.60555404    -4.721162    -4.721162   -4.0899531  0.034146428    -4.721162   0.63120895   418189 
 4101000   0.60500486   -4.7205535   -4.7205535    -4.089917  0.036552866   -4.7205535    0.6306365   418189 
 4102000   0.60633739   -4.7212717   -4.7212717   -4.0892462  0.017577332   -4.7212717   0.63202549   418189 
 4103000   0.60574192   -4.7213412   -4.7213412   -4.0899364  0.025327013   -4.7213412   0.63140479   418189 
 4104000   0.60638742   -4.7219087   -4.7219087   -4.0898311  0.025302224   -4.7219087   0.63207764   418189 
 4105000   0.60590458   -4.7217683   -4.7217683    -4.090194  0.029100548   -4.7217683   0.63157434   418189 
 4106000   0.60448857   -4.7205434   -4.7205434    -4.090445  0.044177323   -4.7205434   0.63009834   418189 
 4107000   0.60499526   -4.7212104   -4.7212104   -4.0905839  0.030524968   -4.7212104    0.6306265   418189 
 4108000   0.60539181   -4.7212213   -4.7212213   -4.0901814  0.024505203   -4.7212213   0.63103984   418189 
 4109000   0.60544816   -4.7211285   -4.7211285   -4.0900299  0.029606421   -4.7211285   0.63109859   418189 
 4110000   0.60500473   -4.7208669   -4.7208669   -4.0902306  0.026259164   -4.7208669   0.63063636   418189 
 4111000   0.60222386   -4.7180097   -4.7180097    -4.090272  0.035114006   -4.7180097   0.62773768   418189 
 4112000   0.60400003   -4.7190241   -4.7190241    -4.089435  0.012290938   -4.7190241    0.6295891   418189 
 4113000      0.60385   -4.7186798   -4.7186798   -4.0892471  0.029637035   -4.7186798   0.62943272   418189 
 4114000   0.60472633    -4.719697    -4.719697   -4.0893508  0.020701548    -4.719697   0.63034617   418189 
 4115000    0.6050551   -4.7206759   -4.7206759    -4.089987  0.038889831   -4.7206759   0.63068888   418189 
 4116000   0.60531634   -4.7212012   -4.7212012     -4.09024  0.023756712   -4.7212012   0.63096118   418189 
 4117000   0.60473439     -4.72043     -4.72043   -4.0900754  0.015183008     -4.72043   0.63035457   418189 
 4118000    0.6048038   -4.7193141   -4.7193141   -4.0888872  0.030267917   -4.7193141   0.63042692   418189 
 4119000   0.60465066   -4.7199566   -4.7199566   -4.0896893  0.023484555   -4.7199566   0.63026729   418189 
 4120000   0.60629112   -4.7214255   -4.7214255   -4.0894482  0.029369773   -4.7214255   0.63197726   418189 
 4121000   0.60587814   -4.7211839   -4.7211839   -4.0896372  0.037627019   -4.7211839   0.63154678   418189 
 4122000   0.60543853   -4.7198541   -4.7198541   -4.0887656  0.025867355   -4.7198541   0.63108854   418189 
 4123000   0.60448235   -4.7203077   -4.7203077   -4.0902159  0.039997549   -4.7203077   0.63009186   418189 
 4124000   0.60353972   -4.7197237   -4.7197237   -4.0906144  0.038676168   -4.7197237   0.62910929   418189 
 4125000    0.6039167   -4.7198061   -4.7198061   -4.0903039  0.028050717   -4.7198061   0.62950224   418189 
 4126000   0.60456843   -4.7205965   -4.7205965   -4.0904149  0.011062496   -4.7205965   0.63018158   418189 
 4127000   0.60474125   -4.7208206   -4.7208206   -4.0904589  0.038809858   -4.7208206   0.63036173   418189 
 4128000   0.60509223   -4.7209103   -4.7209103   -4.0901827  0.031452671   -4.7209103   0.63072758   418189 
 4129000   0.60519614   -4.7208986   -4.7208986   -4.0900627   0.04598493   -4.7208986   0.63083589   418189 
 4130000   0.60522852    -4.720796    -4.720796   -4.0899264  0.036552401    -4.720796   0.63086964   418189 
 4131000   0.60419972    -4.719947    -4.719947   -4.0901498  0.032361288    -4.719947   0.62979725   418189 
 4132000   0.60503753    -4.721069    -4.721069   -4.0903984  0.037091278    -4.721069   0.63067056   418189 
 4133000   0.60409722   -4.7198481   -4.7198481   -4.0901577  0.045599372   -4.7198481   0.62969041   418189 
 4134000    0.6056863   -4.7220303   -4.7220303   -4.0906834  0.016903567   -4.7220303   0.63134681   418189 
 4135000    0.6056255    -4.722002    -4.722002   -4.0907185  0.019819744    -4.722002   0.63128344   418189 
 4136000   0.60523405   -4.7206667   -4.7206667   -4.0897913  0.023710176   -4.7206667   0.63087541   418189 
 4137000   0.60482733    -4.720546    -4.720546   -4.0900946  0.025408537    -4.720546   0.63045145   418189 
 4138000   0.60485806   -4.7209421   -4.7209421   -4.0904586  0.027706435   -4.7209421   0.63048348   418189 
 4139000   0.60424496   -4.7203967   -4.7203967   -4.0905523  0.045005181   -4.7203967   0.62984441   418189 
 4140000   0.60518123    -4.721643    -4.721643   -4.0908227  0.030154596    -4.721643   0.63082034   418189 
 4141000   0.60560641   -4.7217865   -4.7217865   -4.0905229  0.029033478   -4.7217865   0.63126354   418189 
 4142000    0.6056422    -4.721705    -4.721705   -4.0904042  0.031612604    -4.721705   0.63130085   418189 
 4143000   0.60667015   -4.7231847   -4.7231847   -4.0908123  0.035498063   -4.7231847   0.63237235   418189 
 4144000   0.60562864   -4.7215094   -4.7215094   -4.0902227  0.017561318   -4.7215094   0.63128671   418189 
 4145000   0.60496565   -4.7207252   -4.7207252   -4.0901296  0.018587353   -4.7207252   0.63059563   418189 
 4146000   0.60530477   -4.7211508   -4.7211508   -4.0902017  0.030219392   -4.7211508   0.63094912   418189 
 4147000   0.60468426   -4.7204134   -4.7204134   -4.0901111   0.02472016   -4.7204134   0.63030232   418189 
 4148000   0.60519015   -4.7212716   -4.7212716   -4.0904419  0.026263166   -4.7212716   0.63082964   418189 
 4149000   0.60532344   -4.7218278   -4.7218278   -4.0908592  0.027328174   -4.7218278   0.63096858   418189 
 4150000   0.60430208   -4.7217094   -4.7217094   -4.0918054  0.027071244   -4.7217094   0.62990395   418189 
 4151000   0.60478231   -4.7227234   -4.7227234   -4.0923189  0.023217385   -4.7227234   0.63040452   418189 
 4152000   0.60396143   -4.7215185   -4.7215185   -4.0919696  0.028707959   -4.7215185   0.62954887   418189 
 4153000   0.60453378   -4.7211346   -4.7211346   -4.0909891   0.02143413   -4.7211346   0.63014546   418189 
 4154000   0.60377761   -4.7202485   -4.7202485   -4.0908913  0.026428751   -4.7202485   0.62935725   418189 
 4155000   0.60397676    -4.720714    -4.720714   -4.0911492  0.034806737    -4.720714   0.62956485   418189 
 4156000   0.60517184   -4.7216981   -4.7216981   -4.0908875  0.028183133   -4.7216981   0.63081055   418189 
 4157000   0.60403977   -4.7208251   -4.7208251   -4.0911945  0.028739563   -4.7208251   0.62963053   418189 
 4158000   0.60450144   -4.7212403   -4.7212403   -4.0911285  0.013712022   -4.7212403   0.63011176   418189 
 4159000   0.60584564   -4.7227564   -4.7227564   -4.0912435  0.036901987   -4.7227564    0.6315129   418189 
 4160000   0.60422842    -4.720797    -4.720797   -4.0909699   0.03117354    -4.720797   0.62982717   418189 
 4161000   0.60509419   -4.7208342   -4.7208342   -4.0901046  0.026183298   -4.7208342   0.63072962   418189 
 4162000   0.60507543   -4.7212651   -4.7212651   -4.0905551  0.020080068   -4.7212651   0.63071006   418189 
 4163000   0.60392939   -4.7190199   -4.7190199   -4.0895044  0.014436665   -4.7190199   0.62951547   418189 
 4164000   0.60433141   -4.7199956   -4.7199956   -4.0900611  0.033319535   -4.7199956   0.62993452   418189 
 4165000   0.60439518    -4.719631    -4.719631     -4.08963  0.026367101    -4.719631     0.630001   418189 
 4166000   0.60411836   -4.7190709   -4.7190709   -4.0893584  0.019692068   -4.7190709   0.62971244   418189 
 4167000   0.60428247    -4.719664    -4.719664   -4.0897805  0.027679731    -4.719664   0.62988351   418189 
 4168000    0.6039505   -4.7198111   -4.7198111   -4.0902736  0.021594425   -4.7198111   0.62953747   418189 
 4169000   0.60558421   -4.7211151   -4.7211151   -4.0898747  0.024696905   -4.7211151    0.6312404   418189 
 4170000   0.60445225   -4.7194972   -4.7194972   -4.0894367  0.028905943   -4.7194972   0.63006048   418189 
 4171000   0.60512437   -4.7202194   -4.7202194   -4.0894583   0.01778578   -4.7202194   0.63076107   418189 
 4172000   0.60482441   -4.7196355   -4.7196355   -4.0891871  0.032694585   -4.7196355   0.63044841   418189 
 4173000   0.60401646   -4.7187823   -4.7187823   -4.0891761   0.03217418   -4.7187823   0.62960623   418189 
 4174000   0.60526797   -4.7203866   -4.7203866   -4.0894758  0.029218865   -4.7203866   0.63091076   418189 
 4175000   0.60443624   -4.7193748   -4.7193748    -4.089331  0.029009902   -4.7193748    0.6300438   418189 
 4176000   0.60522945   -4.7201113   -4.7201113   -4.0892407  0.020189069   -4.7201113   0.63087061   418189 
 4177000     0.605019   -4.7205016   -4.7205016   -4.0898504  0.028837157   -4.7205016   0.63065124   418189 
 4178000   0.60444391    -4.719568    -4.719568   -4.0895162   0.02885825    -4.719568   0.63005179   418189 
 4179000    0.6040913   -4.7198927   -4.7198927   -4.0902084   0.03167426   -4.7198927   0.62968424   418189 
 4180000   0.60487644   -4.7202211   -4.7202211   -4.0897185  0.037523207   -4.7202211   0.63050264   418189 
 4181000   0.60334367   -4.7188821   -4.7188821   -4.0899772  0.024775677   -4.7188821   0.62890494   418189 
 4182000   0.60479453   -4.7199088   -4.7199088   -4.0894915  0.030708163   -4.7199088   0.63041726   418189 
 4183000   0.60525852   -4.7206859   -4.7206859   -4.0897849  0.035496303   -4.7206859   0.63090091   418189 
 4184000   0.60476002   -4.7197845   -4.7197845   -4.0894032 0.0079740637   -4.7197845   0.63038129   418189 
 4185000   0.60491939   -4.7207908   -4.7207908   -4.0902434  0.018807169   -4.7207908   0.63054741   418189 
 4186000   0.60566724   -4.7215837   -4.7215837   -4.0902567  0.028383794   -4.7215837   0.63132695   418189 
 4187000    0.6046265   -4.7209711   -4.7209711    -4.090729  0.020168127   -4.7209711   0.63024211   418189 
 4188000   0.60445648   -4.7203504   -4.7203504   -4.0902855  0.034557167   -4.7203504   0.63006489   418189 
 4189000   0.60489146   -4.7203744   -4.7203744   -4.0898561  0.019982286   -4.7203744    0.6305183   418189 
 4190000   0.60503769   -4.7207413   -4.7207413   -4.0900705  0.026235272   -4.7207413   0.63067073   418189 
 4191000   0.60450992   -4.7197698   -4.7197698   -4.0896492  0.026661425   -4.7197698    0.6301206   418189 
 4192000   0.60380455   -4.7191555   -4.7191555   -4.0897702  0.027613783   -4.7191555   0.62938534   418189 
 4193000   0.60483327     -4.72079     -4.72079   -4.0903324  0.039197633     -4.72079   0.63045764   418189 
 4194000   0.60506784   -4.7215834   -4.7215834   -4.0908812  0.018871655   -4.7215834   0.63070216   418189 
 4195000   0.60429131    -4.720435    -4.720435   -4.0905423  0.021430362    -4.720435   0.62989273   418189 
 4196000   0.60437405   -4.7206643   -4.7206643   -4.0906853  0.054056993   -4.7206643   0.62997897   418189 
 4197000   0.60552298    -4.721317    -4.721317   -4.0901404 0.0081104282    -4.721317   0.63117657   418189 
 4198000   0.60473228   -4.7207747   -4.7207747   -4.0904223  0.034244271   -4.7207747   0.63035237   418189 
 4199000   0.60587535   -4.7226349   -4.7226349    -4.091091  0.050585577   -4.7226349   0.63154387   418189 
 4200000   0.60470273   -4.7213415   -4.7213415   -4.0910199  0.032478134   -4.7213415   0.63032157   418189 
 4201000   0.60485576   -4.7211157   -4.7211157   -4.0906346  0.019342163   -4.7211157   0.63048108   418189 
 4202000   0.60462122   -4.7210458   -4.7210458   -4.0908092  0.021118653   -4.7210458   0.63023661   418189 
 4203000   0.60375978   -4.7208089   -4.7208089   -4.0914702   0.02626244   -4.7208089   0.62933867   418189 
 4204000   0.60488501   -4.7215756   -4.7215756   -4.0910641  0.022944686   -4.7215756   0.63051157   418189 
 4205000    0.6051675   -4.7218116   -4.7218116   -4.0910055  0.023244579   -4.7218116   0.63080603   418189 
 4206000   0.60532347   -4.7214128   -4.7214128   -4.0904442  0.032067824   -4.7214128   0.63096861   418189 
 4207000   0.60550189   -4.7218008   -4.7218008   -4.0906462   0.03032213   -4.7218008   0.63115459   418189 
 4208000   0.60515102   -4.7214073   -4.7214073   -4.0906184  0.039565047   -4.7214073   0.63078886   418189 
 4209000   0.60647545    -4.722488    -4.722488   -4.0903186  0.031515734    -4.722488    0.6321694   418189 
 4210000   0.60527782   -4.7222527   -4.7222527   -4.0913316  0.016270928   -4.7222527   0.63092103   418189 
 4211000   0.60579654   -4.7231889   -4.7231889   -4.0917272  0.027737799   -4.7231889   0.63146172   418189 
 4212000   0.60418141   -4.7217048   -4.7217048   -4.0919267  0.035844948   -4.7217048   0.62977816   418189 
 4213000   0.60381839   -4.7212733   -4.7212733   -4.0918735  0.045547199   -4.7212733   0.62939977   418189 
 4214000   0.60502064   -4.7222424   -4.7222424   -4.0915895  0.022146949   -4.7222424   0.63065295   418189 
 4215000   0.60308149   -4.7205628   -4.7205628   -4.0919312  0.025472985   -4.7205628   0.62863165   418189 
 4216000   0.60283399   -4.7208548   -4.7208548   -4.0924811  0.012827917   -4.7208548   0.62837366   418189 
 4217000   0.60372782   -4.7221913   -4.7221913    -4.092886  0.019481049   -4.7221913   0.62930536   418189 
 4218000   0.60368611   -4.7222938   -4.7222938    -4.093032  0.024432099   -4.7222938   0.62926188   418189 
 4219000   0.60362633   -4.7220789   -4.7220789   -4.0928794   0.03260602   -4.7220789   0.62919957   418189 
 4220000   0.60396373   -4.7217171   -4.7217171   -4.0921658  0.037463929   -4.7217171   0.62955126   418189 
 4221000   0.60503651   -4.7235147   -4.7235147   -4.0928452  0.019397558   -4.7235147   0.63066949   418189 
 4222000   0.60438953   -4.7227737   -4.7227737   -4.0927786  0.017399985   -4.7227737   0.62999511   418189 
 4223000    0.6037976   -4.7220975   -4.7220975   -4.0927194  0.033890798   -4.7220975   0.62937809   418189 
 4224000   0.60437695   -4.7227158   -4.7227158   -4.0927338  0.025355625   -4.7227158   0.62998199   418189 
 4225000   0.60483606   -4.7223473   -4.7223473   -4.0918868  0.033662628   -4.7223473   0.63046055   418189 
 4226000   0.60509635   -4.7229666   -4.7229666   -4.0922347  0.040784354   -4.7229666   0.63073187   418189 
 4227000   0.60510377   -4.7230123   -4.7230123   -4.0922727  0.046859716   -4.7230123   0.63073961   418189 
 4228000   0.60394174   -4.7219139   -4.7219139   -4.0923856  0.026552063   -4.7219139   0.62952834   418189 
 4229000   0.60462723   -4.7226057   -4.7226057   -4.0923628  0.029638004   -4.7226057   0.63024287   418189 
 4230000   0.60353838   -4.7216752   -4.7216752   -4.0925673 0.0063030617   -4.7216752    0.6291079   418189 
 4231000   0.60297821   -4.7218202   -4.7218202   -4.0932962  0.024985626   -4.7218202   0.62852399   418189 
 4232000   0.60346933   -4.7219868   -4.7219868   -4.0929509  0.021694867   -4.7219868   0.62903592   418189 
 4233000   0.60274899   -4.7208778   -4.7208778   -4.0925928  0.032627716   -4.7208778   0.62828506   418189 
 4234000   0.60508673   -4.7241639   -4.7241639   -4.0934421   0.03016437   -4.7241639   0.63072184   418189 
 4235000   0.60576349   -4.7249913   -4.7249913    -4.093564  0.010050016   -4.7249913   0.63142728   418189 
 4236000    0.6056243   -4.7245601   -4.7245601   -4.0932779  0.033700149   -4.7245601   0.63128219   418189 
 4237000   0.60409746   -4.7230769   -4.7230769   -4.0933862  0.021481347   -4.7230769   0.62969066   418189 
 4238000   0.60484719   -4.7230241   -4.7230241   -4.0925519  0.029863201   -4.7230241   0.63047215   418189 
 4239000   0.60451473    -4.722748    -4.722748   -4.0926224  0.028932886    -4.722748    0.6301256   418189 
 4240000   0.60342675   -4.7221186   -4.7221186   -4.0931271  0.029914484   -4.7221186   0.62899154   418189 
 4241000   0.60377352   -4.7214726   -4.7214726   -4.0921196  0.018217682   -4.7214726     0.629353   418189 
 4242000   0.60355683   -4.7215448   -4.7215448   -4.0924177  0.023056724   -4.7215448   0.62912713   418189 
 4243000   0.60463406   -4.7225052   -4.7225052   -4.0922552  0.022061706   -4.7225052   0.63024999   418189 
 4244000   0.60387295   -4.7225891   -4.7225891   -4.0931325  0.037464564   -4.7225891   0.62945664   418189 
 4245000   0.60334162   -4.7228225   -4.7228225   -4.0939197  0.045627583   -4.7228225   0.62890279   418189 
 4246000    0.6028712   -4.7221148   -4.7221148   -4.0937023  0.018319103   -4.7221148   0.62841245   418189 
 4247000   0.60338988   -4.7223924   -4.7223924   -4.0934393  0.029922624   -4.7223924    0.6289531   418189 
 4248000   0.60443954   -4.7230323   -4.7230323   -4.0929851  0.024002087   -4.7230323   0.63004724   418189 
 4249000   0.60468719   -4.7237982   -4.7237982   -4.0934928  0.034062852   -4.7237982   0.63030537   418189 
 4250000   0.60417528   -4.7241036   -4.7241036   -4.0943318  0.013793114   -4.7241036   0.62977178   418189 
 4251000   0.60349373    -4.723183    -4.723183   -4.0941217  0.035779283    -4.723183   0.62906135   418189 
 4252000   0.60328325   -4.7224315   -4.7224315   -4.0935895  0.027733608   -4.7224315   0.62884196   418189 
 4253000    0.6057464   -4.7252633   -4.7252633   -4.0938539  0.021730091   -4.7252633   0.63140946   418189 
 4254000   0.60554944   -4.7246514   -4.7246514   -4.0934472   0.01134715   -4.7246514   0.63120415   418189 
 4255000    0.6034603   -4.7226663   -4.7226663   -4.0936398  0.020993553   -4.7226663   0.62902651   418189 
 4256000   0.60502743   -4.7241546   -4.7241546   -4.0934946  0.014588918   -4.7241546   0.63066003   418189 
 4257000   0.60436265   -4.7239355   -4.7239355   -4.0939684  0.020258772   -4.7239355   0.62996708   418189 
 4258000   0.60392892   -4.7232277   -4.7232277   -4.0937127  0.015895386   -4.7232277   0.62951498   418189 
 4259000   0.60437019    -4.723293    -4.723293    -4.093318  0.033675284    -4.723293   0.62997495   418189 
 4260000   0.60469365   -4.7231696   -4.7231696   -4.0928575  0.018991587   -4.7231696   0.63031211   418189 
 4261000   0.60473468   -4.7230498   -4.7230498    -4.092695  0.038635058   -4.7230498   0.63035488   418189 
 4262000   0.60485408   -4.7231902   -4.7231902   -4.0927109  0.035956379   -4.7231902   0.63047933   418189 
 4263000   0.60429147   -4.7221175   -4.7221175   -4.0922246  0.030896626   -4.7221175   0.62989288   418189 
 4264000   0.60418907   -4.7225414   -4.7225414   -4.0927553  0.041619822   -4.7225414   0.62978615   418189 
 4265000   0.60380442   -4.7232162   -4.7232162    -4.093831  0.025002198   -4.7232162    0.6293852   418189 
 4266000   0.60532923   -4.7246151   -4.7246151   -4.0936405  0.021704266   -4.7246151   0.63097462   418189 
 4267000   0.60404535   -4.7236715   -4.7236715   -4.0940352  0.031735108   -4.7236715   0.62963634   418189 
 4268000   0.60345529   -4.7222774   -4.7222774   -4.0932561  0.024061405   -4.7222774   0.62902129   418189 
 4269000   0.60337036   -4.7232417   -4.7232417    -4.094309  0.030025109   -4.7232417   0.62893275   418189 
 4270000   0.60276474    -4.722859    -4.722859   -4.0945575  0.025624873    -4.722859   0.62830148   418189 
 4271000   0.60356883   -4.7227184   -4.7227184   -4.0935787   0.03667373   -4.7227184   0.62913964   418189 
 4272000   0.60453202   -4.7236587   -4.7236587   -4.0935151  0.029976134   -4.7236587   0.63014363   418189 
 4273000   0.60425251   -4.7237105   -4.7237105   -4.0938582   0.03494172   -4.7237105   0.62985228   418189 
 4274000   0.60565035   -4.7256002   -4.7256002   -4.0942909  0.019098334   -4.7256002   0.63130934   418189 
 4275000   0.60526859   -4.7248502   -4.7248502   -4.0939388  0.013430091   -4.7248502    0.6309114   418189 
 4276000   0.60416852   -4.7231673   -4.7231673   -4.0934025   0.04622481   -4.7231673   0.62976473   418189 
 4277000   0.60525154   -4.7254394   -4.7254394   -4.0945458  0.016905693   -4.7254394   0.63089363   418189 
 4278000   0.60391085   -4.7230809   -4.7230809   -4.0935848  0.027457276   -4.7230809   0.62949614   418189 
 4279000   0.60412785    -4.723244    -4.723244   -4.0935217  0.036964129    -4.723244   0.62972233   418189 
 4280000   0.60296996   -4.7217997   -4.7217997   -4.0932843  0.027454432   -4.7217997   0.62851539   418189 
 4281000    0.6049136    -4.724003    -4.724003   -4.0934616   0.01872571    -4.724003   0.63054138   418189 
 4282000   0.60458995   -4.7239674   -4.7239674   -4.0937633  0.029041425   -4.7239674   0.63020401   418189 
 4283000   0.60432267   -4.7237445   -4.7237445   -4.0938191  0.043567056   -4.7237445   0.62992541   418189 
 4284000   0.60310309   -4.7224125   -4.7224125   -4.0937583  0.024183892   -4.7224125   0.62865416   418189 
 4285000     0.604465   -4.7230793   -4.7230793   -4.0930055  0.027788549   -4.7230793   0.63007377   418189 
 4286000   0.60460533   -4.7233607   -4.7233607   -4.0931407  0.040777305   -4.7233607   0.63022004   418189 
 4287000   0.60435248   -4.7236778   -4.7236778   -4.0937213  0.042050595   -4.7236778   0.62995649   418189 
 4288000   0.60356979   -4.7222574   -4.7222574   -4.0931167  0.027277311   -4.7222574   0.62914063   418189 
 4289000   0.60433346   -4.7230906   -4.7230906    -4.093154  0.014902749   -4.7230906   0.62993666   418189 
 4290000   0.60416846    -4.722286    -4.722286   -4.0925213  0.010880606    -4.722286   0.62976466   418189 
 4291000   0.60496408   -4.7230433   -4.7230433   -4.0924493  0.024670142   -4.7230433   0.63059399   418189 
 4292000   0.60307714    -4.722017    -4.722017   -4.0933899 0.0091294577    -4.722017   0.62862711   418189 
 4293000   0.60382608   -4.7229009   -4.7229009   -4.0934931   0.01911785   -4.7229009   0.62940778   418189 
 4294000   0.60399827   -4.7236638   -4.7236638   -4.0940765  0.032823092   -4.7236638   0.62958727   418189 
 4295000   0.60403595   -4.7245945   -4.7245945   -4.0949679  0.031352442   -4.7245945   0.62962655   418189 
 4296000   0.60404837   -4.7237249   -4.7237249   -4.0940854   0.02252137   -4.7237249   0.62963949   418189 
 4297000   0.60442274   -4.7240267   -4.7240267    -4.093997  0.028613757   -4.7240267   0.63002972   418189 
 4298000    0.6043958   -4.7239061   -4.7239061   -4.0939044  0.037566778   -4.7239061   0.63000164   418189 
 4299000   0.60434247   -4.7237119   -4.7237119   -4.0937658  0.029730617   -4.7237119   0.62994605   418189 
 4300000    0.6045812   -4.7244087   -4.7244087   -4.0942139  0.020138768   -4.7244087   0.63019489   418189 
 4301000     0.604354   -4.7237328   -4.7237328   -4.0937748  0.025457101   -4.7237328   0.62995807   418189 
 4302000   0.60609509   -4.7248655   -4.7248655   -4.0930925  0.031801568   -4.7248655   0.63177292   418189 
 4303000    0.6052862   -4.7241608   -4.7241608   -4.0932311  0.038059853   -4.7241608   0.63092976   418189 
 4304000   0.60272332    -4.721663    -4.721663   -4.0934047  0.034145526    -4.721663    0.6282583   418189 
 4305000   0.60570852   -4.7249205   -4.7249205   -4.0935505  0.015377643   -4.7249205   0.63136998   418189 
 4306000    0.6041567   -4.7233988   -4.7233988   -4.0936464  0.020944843   -4.7233988    0.6297524   418189 
 4307000   0.60471007   -4.7245097   -4.7245097   -4.0941805  0.019605188   -4.7245097   0.63032922   418189 
 4308000   0.60521909    -4.724288    -4.724288   -4.0934281  0.054781372    -4.724288   0.63085981   418189 
 4309000   0.60478885   -4.7240391   -4.7240391   -4.0936277  0.033543469   -4.7240391   0.63041134   418189 
 4310000   0.60424708   -4.7228479   -4.7228479   -4.0930013  0.022018869   -4.7228479   0.62984662   418189 
 4311000    0.6045997   -4.7240008   -4.7240008   -4.0937866  0.017196205   -4.7240008   0.63021417   418189 
 4312000   0.60403027   -4.7234886   -4.7234886    -4.093868  0.025954532   -4.7234886   0.62962062   418189 
 4313000   0.60527534   -4.7246444   -4.7246444   -4.0937259  0.019975314   -4.7246444   0.63091845   418189 
 4314000   0.60553103    -4.724017    -4.724017   -4.0928321  0.028268754    -4.724017   0.63118497   418189 
 4315000   0.60611091   -4.7244648   -4.7244648   -4.0926754  0.027991685   -4.7244648   0.63178941   418189 
 4316000   0.60362028   -4.7218922   -4.7218922   -4.0926989  0.036643628   -4.7218922   0.62919327   418189 
 4317000   0.60432705   -4.7231706   -4.7231706   -4.0932406  0.032149034   -4.7231706   0.62992997   418189 
 4318000   0.60389178   -4.7225119   -4.7225119   -4.0930356  0.024339794   -4.7225119   0.62947626   418189 
 4319000   0.60416046   -4.7225784   -4.7225784    -4.092822  0.022670391   -4.7225784   0.62975633   418189 
 4320000   0.60352886   -4.7222126   -4.7222126   -4.0931147  0.020150977   -4.7222126   0.62909797   418189 
 4321000   0.60571228   -4.7241331   -4.7241331   -4.0927592  0.020875323   -4.7241331   0.63137389   418189 
 4322000   0.60417937   -4.7230484   -4.7230484   -4.0932724  0.037172725   -4.7230484   0.62977604   418189 
 4323000    0.6042481   -4.7234149   -4.7234149   -4.0935672  0.019122821   -4.7234149   0.62984769   418189 
 4324000    0.6043425   -4.7236271   -4.7236271    -4.093681  0.027899463   -4.7236271   0.62994608   418189 
 4325000   0.60530251   -4.7243861   -4.7243861   -4.0934393  0.020744989   -4.7243861   0.63094677   418189 
 4326000    0.6054541   -4.7242251   -4.7242251   -4.0931203  0.036600828   -4.7242251   0.63110477   418189 
 4327000   0.60388707   -4.7231334   -4.7231334   -4.0936621  0.035315257   -4.7231334   0.62947135   418189 
 4328000   0.60291895   -4.7228459   -4.7228459   -4.0943836  0.022600296   -4.7228459   0.62846222   418189 
 4329000   0.60449799   -4.7234353   -4.7234353   -4.0933271   0.01768484   -4.7234353   0.63010816   418189 
 4330000   0.60358794   -4.7226576   -4.7226576   -4.0934981  0.021848794   -4.7226576   0.62915956   418189 
 4331000   0.60262117   -4.7220908   -4.7220908   -4.0939389  0.039081623   -4.7220908   0.62815183   418189 
 4332000   0.60369339   -4.7225808   -4.7225808   -4.0933113  0.019205115   -4.7225808   0.62926947   418189 
 4333000   0.60364668   -4.7236748   -4.7236748    -4.094454  0.028074255   -4.7236748   0.62922079   418189 
 4334000   0.60419757   -4.7240861   -4.7240861   -4.0942911  0.015123147   -4.7240861   0.62979501   418189 
 4335000   0.60404848   -4.7240182   -4.7240182   -4.0943786   0.03516625   -4.7240182   0.62963961   418189 
 4336000   0.60388354   -4.7242572   -4.7242572   -4.0947895  0.022899096   -4.7242572   0.62946768   418189 
 4337000   0.60476945   -4.7249745   -4.7249745   -4.0945834  0.030451953   -4.7249745   0.63039112   418189 
 4338000   0.60374714   -4.7239573   -4.7239573   -4.0946318  0.018490483   -4.7239573   0.62932549   418189 
 4339000   0.60311038   -4.7238754   -4.7238754   -4.0952137  0.033595818   -4.7238754   0.62866176   418189 
 4340000   0.60388016    -4.724955    -4.724955   -4.0954908  0.010322495    -4.724955   0.62946416   418189 
 4341000   0.60368413   -4.7243156   -4.7243156   -4.0950558  0.025129189   -4.7243156   0.62925981   418189 
 4342000   0.60342659   -4.7242302   -4.7242302   -4.0952389  0.024984023   -4.7242302   0.62899136   418189 
 4343000   0.60278981   -4.7238412   -4.7238412   -4.0955136 0.0065108482   -4.7238412   0.62832761   418189 
 4344000   0.60322167   -4.7240205   -4.7240205   -4.0952427  0.037845101   -4.7240205   0.62877776   418189 
 4345000    0.6046348    -4.725302    -4.725302   -4.0950513  0.031474867    -4.725302   0.63025076   418189 
 4346000    0.6052046   -4.7252457   -4.7252457   -4.0944009  0.020885051   -4.7252457    0.6308447   418189 
 4347000   0.60464535   -4.7250795   -4.7250795   -4.0948177  0.019422542   -4.7250795   0.63026177   418189 
 4348000   0.60375533    -4.724081    -4.724081    -4.094747  0.035537628    -4.724081   0.62933404   418189 
 4349000   0.60480004   -4.7248098   -4.7248098   -4.0943868  0.012721487   -4.7248098   0.63042301   418189 
 4350000   0.60318046   -4.7238134   -4.7238134   -4.0950786   0.03465812   -4.7238134   0.62873481   418189 
 4351000   0.60464744   -4.7243737   -4.7243737   -4.0941098  0.018849182   -4.7243737   0.63026395   418189 
 4352000   0.60461314    -4.725567    -4.725567   -4.0953388  0.016036255    -4.725567   0.63022819   418189 
 4353000   0.60426722    -4.724912    -4.724912   -4.0950444  0.033403699    -4.724912   0.62986761   418189 
 4354000   0.60497849   -4.7252892   -4.7252892   -4.0946802  0.017591957   -4.7252892   0.63060902   418189 
 4355000   0.60512603   -4.7252956   -4.7252956   -4.0945328  0.038325472   -4.7252956    0.6307628   418189 
 4356000   0.60552323   -4.7257879   -4.7257879   -4.0946111  0.051817602   -4.7257879   0.63117684   418189 
 4357000   0.60538943   -4.7253995   -4.7253995   -4.0943621 0.0041463601   -4.7253995   0.63103737   418189 
 4358000   0.60378236   -4.7241156   -4.7241156   -4.0947533  0.012334784   -4.7241156   0.62936221   418189 
 4359000   0.60418576   -4.7246938   -4.7246938   -4.0949111  0.028570663   -4.7246938    0.6297827   418189 
 4360000   0.60381151   -4.7241679   -4.7241679   -4.0947753  0.043708953   -4.7241679    0.6293926   418189 
 4361000   0.60516673   -4.7250146   -4.7250146   -4.0942094  0.020535598   -4.7250146   0.63080523   418189 
 4362000   0.60447828   -4.7243847   -4.7243847   -4.0942971  0.021925557   -4.7243847   0.63008761   418189 
 4363000    0.6040972   -4.7244377   -4.7244377   -4.0947473  0.012548608   -4.7244377   0.62969039   418189 
 4364000   0.60450916   -4.7244949   -4.7244949   -4.0943751  0.025920562   -4.7244949    0.6301198   418189 
 4365000   0.60354139   -4.7242247   -4.7242247   -4.0951136  0.034653479   -4.7242247   0.62911103   418189 
 4366000   0.60491405   -4.7255672   -4.7255672   -4.0950254  0.027792462   -4.7255672   0.63054185   418189 
 4367000   0.60432776    -4.724622    -4.724622   -4.0946913  0.038431797    -4.724622   0.62993072   418189 
 4368000   0.60410881   -4.7246115   -4.7246115    -4.094909  0.021008697   -4.7246115   0.62970249   418189 
 4369000   0.60292781   -4.7239433   -4.7239433   -4.0954719  0.023284106   -4.7239433   0.62847146   418189 
 4370000   0.60514295    -4.725047    -4.725047   -4.0942665  0.016130222    -4.725047   0.63078044   418189 
 4371000   0.60489512   -4.7252108   -4.7252108   -4.0946887  0.012658007   -4.7252108   0.63052211   418189 
 4372000   0.60529856   -4.7259275   -4.7259275   -4.0949849  0.014444166   -4.7259275   0.63094265   418189 
 4373000   0.60462283   -4.7251186   -4.7251186   -4.0948804  0.030594375   -4.7251186   0.63023829   418189 
 4374000   0.60507948   -4.7247744   -4.7247744   -4.0940601  0.044473162   -4.7247744   0.63071428   418189 
 4375000   0.60512101    -4.725747    -4.725747   -4.0949894  0.040670023    -4.725747   0.63075757   418189 
 4376000   0.60642805   -4.7264292   -4.7264292   -4.0943092  0.026365183   -4.7264292   0.63211998   418189 
 4377000   0.60442169   -4.7243904   -4.7243904   -4.0943618   0.02927911   -4.7243904   0.63002862   418189 
 4378000   0.60476395   -4.7244697   -4.7244697   -4.0940843  0.036908401   -4.7244697   0.63038539   418189 
 4379000   0.60512392   -4.7259288   -4.7259288   -4.0951682  0.024860815   -4.7259288    0.6307606   418189 
 4380000   0.60418515   -4.7243116   -4.7243116   -4.0945295  0.024841673   -4.7243116   0.62978206   418189 
 4381000   0.60465782   -4.7244996   -4.7244996   -4.0942248  0.027667017   -4.7244996   0.63027476   418189 
 4382000   0.60388331   -4.7244082   -4.7244082   -4.0949408  0.028790814   -4.7244082   0.62946743   418189 
 4383000   0.60476005   -4.7252931   -4.7252931   -4.0949117  0.027947135   -4.7252931   0.63038132   418189 
 4384000   0.60562092   -4.7266626   -4.7266626   -4.0953839  0.029081824   -4.7266626   0.63127867   418189 
 4385000   0.60426978   -4.7262852   -4.7262852    -4.096415  0.028685438   -4.7262852   0.62987028   418189 
 4386000   0.60427935    -4.725971    -4.725971   -4.0960907  0.024415588    -4.725971   0.62988026   418189 
 4387000   0.60480801   -4.7262528   -4.7262528   -4.0958215  0.020893224   -4.7262528   0.63043131   418189 
 4388000    0.6058258   -4.7269587   -4.7269587   -4.0954665  0.020944002   -4.7269587   0.63149223   418189 
 4389000   0.60406276   -4.7255608   -4.7255608   -4.0959063  0.019060105   -4.7255608   0.62965449   418189 
 4390000   0.60429515   -4.7255416   -4.7255416   -4.0956448  0.014650651   -4.7255416   0.62989672   418189 
 4391000   0.60425494   -4.7252862   -4.7252862   -4.0954314   0.03521318   -4.7252862   0.62985481   418189 
 4392000   0.60560087   -4.7269259   -4.7269259   -4.0956681  0.033751656   -4.7269259   0.63125777   418189 
 4393000   0.60485138   -4.7265024   -4.7265024   -4.0960259   0.01990341   -4.7265024   0.63047652   418189 
 4394000   0.60412132   -4.7260168   -4.7260168   -4.0963012  0.027653259   -4.7260168   0.62971553   418189 
 4395000   0.60369021   -4.7255195   -4.7255195   -4.0962534   0.02573714   -4.7255195   0.62926616   418189 
 4396000    0.6039229   -4.7248355   -4.7248355   -4.0953268   0.02634802   -4.7248355   0.62950871   418189 
 4397000   0.60253201   -4.7248982   -4.7248982   -4.0968393  0.038710283   -4.7248982   0.62805888   418189 
 4398000   0.60439213   -4.7262474   -4.7262474   -4.0962495  0.040672674   -4.7262474   0.62999782   418189 
 4399000    0.6047117   -4.7262319   -4.7262319   -4.0959009  0.027827937   -4.7262319   0.63033092   418189 
 4400000   0.60338806   -4.7254518   -4.7254518   -4.0965006   0.01804359   -4.7254518    0.6289512   418189 
 4401000   0.60336242   -4.7247868   -4.7247868   -4.0958623  0.035389885   -4.7247868   0.62892448   418189 
 4402000   0.60497569   -4.7271729   -4.7271729   -4.0965668  0.025387131   -4.7271729   0.63060609   418189 
 4403000    0.6038016   -4.7257343   -4.7257343   -4.0963521  0.017019193   -4.7257343   0.62938227   418189 
 4404000    0.6050018   -4.7266792   -4.7266792   -4.0960458  0.023125191   -4.7266792   0.63063331   418189 
 4405000   0.60448621   -4.7255702   -4.7255702   -4.0954743  0.013874104   -4.7255702   0.63009588   418189 
 4406000   0.60484225   -4.7262682   -4.7262682   -4.0958012  0.025970654   -4.7262682     0.630467   418189 
 4407000   0.60504256   -4.7263789   -4.7263789   -4.0957031  0.026370668   -4.7263789    0.6306758   418189 
 4408000    0.6047511   -4.7270728   -4.7270728   -4.0967008  0.022886119   -4.7270728   0.63037199   418189 
 4409000   0.60480822   -4.7264484   -4.7264484   -4.0960169  0.040510526   -4.7264484   0.63043154   418189 
 4410000   0.60453849   -4.7256933   -4.7256933   -4.0955429  0.043203166   -4.7256933   0.63015038   418189 
 4411000   0.60438141   -4.7260859   -4.7260859   -4.0960993  0.034086982   -4.7260859   0.62998664   418189 
 4412000   0.60477472   -4.7259728   -4.7259728   -4.0955762  0.046286134   -4.7259728   0.63039662   418189 
 4413000   0.60576771    -4.726924    -4.726924   -4.0954923  0.034260536    -4.726924   0.63143167   418189 
 4414000   0.60608159   -4.7262792   -4.7262792   -4.0945203  0.028982907   -4.7262792   0.63175885   418189 
 4415000   0.60537283   -4.7257072   -4.7257072   -4.0946872  0.019368283   -4.7257072   0.63102006   418189 
 4416000   0.60457195   -4.7251297   -4.7251297   -4.0949444  0.036983459   -4.7251297   0.63018526   418189 
 4417000   0.60509358   -4.7259878   -4.7259878   -4.0952589  0.034707677   -4.7259878   0.63072899   418189 
 4418000   0.60405837   -4.7247114   -4.7247114   -4.0950615   0.02271999   -4.7247114   0.62964992   418189 
 4419000   0.60344777   -4.7244691   -4.7244691   -4.0954556  0.019705112   -4.7244691   0.62901345   418189 
 4420000   0.60428561   -4.7259011   -4.7259011   -4.0960143  0.018626582   -4.7259011   0.62988678   418189 
 4421000   0.60391806   -4.7261328   -4.7261328   -4.0966292  0.024064529   -4.7261328   0.62950366   418189 
 4422000   0.60238699   -4.7249471   -4.7249471   -4.0970394   0.02154719   -4.7249471   0.62790773   418189 
 4423000    0.6042361   -4.7267974   -4.7267974   -4.0969623   0.02814964   -4.7267974   0.62983517   418189 
 4424000   0.60438362   -4.7269026   -4.7269026   -4.0969137  0.015039932   -4.7269026   0.62998894   418189 
 4425000   0.60441522   -4.7268394   -4.7268394   -4.0968175  0.016445108   -4.7268394   0.63002188   418189 
 4426000   0.60422154   -4.7268199   -4.7268199   -4.0969999  0.015823373   -4.7268199   0.62981999   418189 
 4427000    0.6056772   -4.7275817   -4.7275817   -4.0962444   0.02321009   -4.7275817   0.63133732   418189 
 4428000   0.60508901   -4.7273719   -4.7273719   -4.0966477  0.027179782   -4.7273719   0.63072421   418189 
 4429000   0.60578996   -4.7279394   -4.7279394   -4.0964846  0.022405956   -4.7279394   0.63145486   418189 
 4430000   0.60495305   -4.7271691   -4.7271691   -4.0965866  0.029727782   -4.7271691    0.6305825   418189 
 4431000   0.60349537   -4.7257442   -4.7257442   -4.0966812  0.022413892   -4.7257442   0.62906306   418189 
 4432000   0.60345513   -4.7254366   -4.7254366   -4.0964155   0.02720372   -4.7254366   0.62902111   418189 
 4433000   0.60386892   -4.7263989   -4.7263989   -4.0969464 0.0039500322   -4.7263989   0.62945243   418189 
 4434000   0.60514928   -4.7269669   -4.7269669   -4.0961799  0.027086483   -4.7269669   0.63078704   418189 
 4435000   0.60389461    -4.726555    -4.726555   -4.0970758  0.028948466    -4.726555   0.62947922   418189 
 4436000   0.60371708   -4.7269236   -4.7269236   -4.0976295  0.036409574   -4.7269236   0.62929416   418189 
 4437000   0.60368657    -4.726744    -4.726744   -4.0974817  0.017064517    -4.726744   0.62926236   418189 
 4438000    0.6040696   -4.7273188   -4.7273188   -4.0976572  0.024500647   -4.7273188   0.62966162   418189 
 4439000   0.60354068   -4.7270667   -4.7270667   -4.0979564  0.022434136   -4.7270667   0.62911029   418189 
 4440000   0.60495168   -4.7279413   -4.7279413   -4.0973602  0.022769465   -4.7279413   0.63058107   418189 
 4441000   0.60355457   -4.7267963   -4.7267963   -4.0976715  0.034943918   -4.7267963   0.62912477   418189 
 4442000   0.60352371   -4.7268011   -4.7268011   -4.0977085  0.024753672   -4.7268011    0.6290926   418189 
 4443000   0.60389898    -4.726917    -4.726917   -4.0974332   0.02865264    -4.726917   0.62948377   418189 
 4444000   0.60495928   -4.7285171   -4.7285171   -4.0979281  0.030102506   -4.7285171   0.63058899   418189 
 4445000   0.60361092     -4.72756     -4.72756   -4.0983765  0.024817685     -4.72756    0.6291835   418189 
 4446000   0.60362197   -4.7268401   -4.7268401    -4.097645  0.027845212   -4.7268401   0.62919503   418189 
 4447000   0.60372237   -4.7281053   -4.7281053   -4.0988056  0.032968202   -4.7281053   0.62929968   418189 
 4448000   0.60322998   -4.7269971   -4.7269971   -4.0982107  0.025043021   -4.7269971   0.62878643   418189 
 4449000   0.60179791   -4.7261218   -4.7261218   -4.0988282   0.02133057   -4.7261218   0.62729369   418189 
 4450000   0.60389628   -4.7277644   -4.7277644   -4.0982835   0.02925523   -4.7277644   0.62948096   418189 
 4451000   0.60538933   -4.7290989   -4.7290989   -4.0980616   0.03570387   -4.7290989   0.63103726   418189 
 4452000   0.60429764   -4.7282407   -4.7282407   -4.0983414  0.026225923   -4.7282407   0.62989932   418189 
 4453000   0.60376818   -4.7279456   -4.7279456   -4.0985982  0.022194145   -4.7279456   0.62934743   418189 
 4454000   0.60446819   -4.7286851   -4.7286851    -4.098608  0.040433821   -4.7286851   0.63007709   418189 
 4455000    0.6056624   -4.7296407   -4.7296407   -4.0983188  0.013291578   -4.7296407    0.6313219   418189 
 4456000   0.60416706   -4.7272305   -4.7272305   -4.0974673  0.028776986   -4.7272305   0.62976321   418189 
 4457000   0.60419437   -4.7274197   -4.7274197    -4.097628  0.041996589   -4.7274197   0.62979168   418189 
 4458000    0.6038109   -4.7270761   -4.7270761   -4.0976841  0.035012671   -4.7270761   0.62939196   418189 
 4459000   0.60330003   -4.7271183   -4.7271183   -4.0982588  0.031179214   -4.7271183   0.62885944   418189 
 4460000   0.60423143   -4.7285152   -4.7285152   -4.0986849  0.032308716   -4.7285152    0.6298303   418189 
 4461000   0.60493756   -4.7291525   -4.7291525   -4.0985861  0.030261064   -4.7291525   0.63056635   418189 
 4462000   0.60522075   -4.7292876   -4.7292876    -4.098426  0.021984685   -4.7292876   0.63086154   418189 
 4463000   0.60426134   -4.7280626   -4.7280626   -4.0982011  0.036402407   -4.7280626   0.62986148   418189 
 4464000    0.6039994   -4.7274961   -4.7274961   -4.0979076  0.034075981   -4.7274961   0.62958844   418189 
 4465000   0.60500207   -4.7289828   -4.7289828   -4.0983492  0.037613865   -4.7289828   0.63063359   418189 
 4466000   0.60424423   -4.7286653   -4.7286653   -4.0988217  0.037351222   -4.7286653   0.62984365   418189 
 4467000   0.60361691   -4.7280391   -4.7280391   -4.0988493  0.021881029   -4.7280391   0.62918975   418189 
 4468000   0.60388589   -4.7287692   -4.7287692    -4.099299   0.02807697   -4.7287692   0.62947012   418189 
 4469000   0.60327045   -4.7282271   -4.7282271   -4.0993985  0.021382581   -4.7282271   0.62882862   418189 
 4470000   0.60411811   -4.7292149   -4.7292149   -4.0995027  0.045834375   -4.7292149   0.62971218   418189 
 4471000    0.6042103   -4.7286292   -4.7286292   -4.0988209   0.04367477   -4.7286292   0.62980828   418189 
 4472000   0.60371545   -4.7280802   -4.7280802   -4.0987877  0.042530405   -4.7280802   0.62929246   418189 
 4473000   0.60426285   -4.7290533   -4.7290533   -4.0991903  0.049708984   -4.7290533   0.62986306   418189 
 4474000   0.60399132   -4.7289126   -4.7289126   -4.0993326  0.013186456   -4.7289126   0.62958002   418189 
 4475000   0.60443156   -4.7284702   -4.7284702   -4.0984313  0.036071768   -4.7284702   0.63003891   418189 
 4476000   0.60392948   -4.7276392   -4.7276392   -4.0981237  0.022489448   -4.7276392   0.62951557   418189 
 4477000   0.60369565   -4.7279944   -4.7279944   -4.0987226  0.023609934   -4.7279944   0.62927183   418189 
 4478000   0.60470792   -4.7285796   -4.7285796   -4.0982526  0.023459292   -4.7285796   0.63032698   418189 
 4479000    0.6055211   -4.7292992   -4.7292992   -4.0981245  0.021091957   -4.7292992   0.63117462   418189 
 4480000   0.60356119   -4.7280048   -4.7280048   -4.0988731  0.030599969   -4.7280048   0.62913167   418189 
 4481000    0.6045312   -4.7289803   -4.7289803   -4.0988376  0.035092021   -4.7289803   0.63014278   418189 
 4482000   0.60422937   -4.7285359   -4.7285359   -4.0987077  0.013359917   -4.7285359   0.62982816   418189 
 4483000   0.60400767   -4.7291046   -4.7291046   -4.0995075  0.026116612   -4.7291046   0.62959706   418189 
 4484000   0.60408767   -4.7296629   -4.7296629   -4.0999825  0.026671577   -4.7296629   0.62968046   418189 
 4485000   0.60305982   -4.7281034   -4.7281034   -4.0994943  0.010971518   -4.7281034   0.62860906   418189 
 4486000    0.6046657   -4.7293276   -4.7293276   -4.0990447  0.024851113   -4.7293276   0.63028297   418189 
 4487000   0.60336467   -4.7270929   -4.7270929   -4.0981661  0.033443118   -4.7270929   0.62892683   418189 
 4488000   0.60444431   -4.7286392   -4.7286392    -4.098587  0.034572755   -4.7286392   0.63005221   418189 
 4489000   0.60324084   -4.7271715   -4.7271715   -4.0983737  0.017784805   -4.7271715   0.62879774   418189 
 4490000   0.60358554   -4.7276656   -4.7276656   -4.0985085  0.037858566   -4.7276656   0.62915705   418189 
 4491000   0.60446248   -4.7283888   -4.7283888   -4.0983176  0.023129434   -4.7283888   0.63007114   418189 
 4492000   0.60519324   -4.7293993   -4.7293993   -4.0985664  0.020146129   -4.7293993   0.63083286   418189 
 4493000    0.6038148   -4.7282085   -4.7282085   -4.0988125  0.012773917   -4.7282085   0.62939602   418189 
 4494000   0.60431389    -4.728363    -4.728363   -4.0984468  0.034980514    -4.728363   0.62991626   418189 
 4495000   0.60443156   -4.7280568   -4.7280568   -4.0980179  0.027769462   -4.7280568   0.63003891   418189 
 4496000   0.60393533   -4.7287631   -4.7287631   -4.0992414  0.029339547   -4.7287631   0.62952166   418189 
 4497000   0.60203244   -4.7269727   -4.7269727   -4.0994346  0.031961894   -4.7269727   0.62753815   418189 
 4498000   0.60250005   -4.7279314   -4.7279314   -4.0999058  0.026258816   -4.7279314   0.62802557   418189 
 4499000   0.60286768   -4.7280653   -4.7280653   -4.0996565  0.038793115   -4.7280653   0.62840878   418189 
 4500000   0.60266712   -4.7274893   -4.7274893   -4.0992895  0.025106688   -4.7274893   0.62819973   418189 
 4501000   0.60336646   -4.7286146   -4.7286146   -4.0996859  0.035041595   -4.7286146   0.62892869   418189 
 4502000   0.60288833   -4.7280281   -4.7280281   -4.0995978  0.032650773   -4.7280281    0.6284303   418189 
 4503000   0.60342013   -4.7288876   -4.7288876    -4.099903  0.034445958   -4.7288876   0.62898464   418189 
 4504000   0.60442827   -4.7293436   -4.7293436   -4.0993081  0.037290599   -4.7293436   0.63003549   418189 
 4505000   0.60459461   -4.7298948   -4.7298948   -4.0996859  0.036920324   -4.7298948   0.63020888   418189 
 4506000   0.60374798   -4.7285127   -4.7285127   -4.0991863  0.031556135   -4.7285127   0.62932637   418189 
 4507000   0.60424717   -4.7290823   -4.7290823   -4.0992356  0.036298847   -4.7290823   0.62984671   418189 
 4508000   0.60420341   -4.7287301   -4.7287301    -4.098929  0.015615369   -4.7287301   0.62980109   418189 
 4509000   0.60432898   -4.7295905   -4.7295905   -4.0996585  0.021617902   -4.7295905   0.62993199   418189 
 4510000   0.60434229    -4.729556    -4.729556   -4.0996102  0.019124551    -4.729556   0.62994586   418189 
 4511000   0.60395561   -4.7298723   -4.7298723   -4.1003295  0.041292503   -4.7298723    0.6295428   418189 
 4512000   0.60433255   -4.7296959   -4.7296959   -4.0997602  0.022961904   -4.7296959   0.62993571   418189 
 4513000   0.60392101   -4.7295338   -4.7295338    -4.100027  0.016473622   -4.7295338   0.62950674   418189 
 4514000    0.6045417   -4.7302654   -4.7302654   -4.1001117  0.027549134   -4.7302654   0.63015372   418189 
 4515000    0.6044762   -4.7300521   -4.7300521   -4.0999666  0.027333764   -4.7300521   0.63008544   418189 
 4516000   0.60322885   -4.7289352   -4.7289352     -4.10015  0.028573477   -4.7289352   0.62878525   418189 
 4517000   0.60419301   -4.7297215   -4.7297215   -4.0999313  0.030072508   -4.7297215   0.62979026   418189 
 4518000    0.6035131   -4.7292895   -4.7292895    -4.100208  0.035115405   -4.7292895   0.62908155   418189 
 4519000   0.60322438   -4.7286993   -4.7286993   -4.0999187   0.03826061   -4.7286993    0.6287806   418189 
 4520000   0.60412728   -4.7293413   -4.7293413   -4.0996195  0.039856886   -4.7293413   0.62972175   418189 
 4521000   0.60372228   -4.7288119   -4.7288119   -4.0995123  0.014263973   -4.7288119   0.62929959   418189 
 4522000   0.60536248   -4.7308667   -4.7308667   -4.0998575   0.02094731   -4.7308667   0.63100928   418189 
 4523000   0.60350722   -4.7289675   -4.7289675   -4.0998921  0.028254674   -4.7289675   0.62907542   418189 
 4524000   0.60379087   -4.7295432   -4.7295432   -4.1001721  0.016873412   -4.7295432   0.62937108   418189 
 4525000   0.60348675   -4.7290864   -4.7290864   -4.1000324  0.031559281   -4.7290864   0.62905408   418189 
 4526000   0.60355063   -4.7286155   -4.7286155   -4.0994948  0.044931621   -4.7286155   0.62912067   418189 
 4527000    0.6053646   -4.7306366   -4.7306366   -4.0996251   0.02713653   -4.7306366   0.63101149   418189 
 4528000   0.60417263   -4.7295323   -4.7295323   -4.0997633  0.040913391   -4.7295323   0.62976901   418189 
 4529000   0.60358425   -4.7291261   -4.7291261   -4.0999703  0.025652661   -4.7291261    0.6291557   418189 
 4530000   0.60278188   -4.7286829   -4.7286829   -4.1003635  0.016007938   -4.7286829   0.62831934   418189 
 4531000     0.603283   -4.7290234   -4.7290234   -4.1001817   0.02038142   -4.7290234    0.6288417   418189 
 4532000   0.60412338   -4.7298543   -4.7298543   -4.1001366  0.030082057   -4.7298543   0.62971768   418189 
 4533000    0.6035092   -4.7292246   -4.7292246   -4.1001471  0.028310376   -4.7292246   0.62907748   418189 
 4534000   0.60390408   -4.7300223   -4.7300223   -4.1005332  0.025251864   -4.7300223   0.62948909   418189 
 4535000   0.60374646   -4.7295679   -4.7295679   -4.1002432  0.033042805   -4.7295679   0.62932479   418189 
 4536000   0.60447179   -4.7299104   -4.7299104   -4.0998295    0.0199919   -4.7299104   0.63008085   418189 
 4537000   0.60380975   -4.7290308   -4.7290308     -4.09964   0.02775972   -4.7290308   0.62939076   418189 
 4538000   0.60381938   -4.7295727   -4.7295727   -4.1001719   0.01656399   -4.7295727    0.6294008   418189 
 4539000   0.60408797   -4.7294151   -4.7294151   -4.0997344  0.023990689   -4.7294151   0.62968077   418189 
 4540000   0.60289779   -4.7282031   -4.7282031   -4.0997629  0.021949165   -4.7282031   0.62844017   418189 
 4541000   0.60415183   -4.7296186   -4.7296186   -4.0998713  0.031017434   -4.7296186   0.62974733   418189 
 4542000   0.60328242   -4.7282961   -4.7282961    -4.099455  0.026516532   -4.7282961   0.62884109   418189 
 4543000   0.60358596   -4.7295667   -4.7295667   -4.1004092  0.015240122   -4.7295667   0.62915749   418189 
 4544000   0.60353133   -4.7300803   -4.7300803   -4.1009797  0.034234743   -4.7300803   0.62910055   418189 
 4545000   0.60290795   -4.7289097   -4.7289097   -4.1004589  0.035078535   -4.7289097   0.62845075   418189 
 4546000   0.60192476   -4.7284833   -4.7284833   -4.1010574   0.01989288   -4.7284833   0.62742591   418189 
 4547000   0.60447357   -4.7305011   -4.7305011   -4.1004184  0.026042863   -4.7305011    0.6300827   418189 
 4548000   0.60242946   -4.7280088   -4.7280088   -4.1000568  0.025684326   -4.7280088     0.627952   418189 
 4549000   0.60255134   -4.7284879   -4.7284879   -4.1004089   0.02596229   -4.7284879   0.62807904   418189 
 4550000   0.60259769   -4.7285248   -4.7285248   -4.1003974  0.023884356   -4.7285248   0.62812735   418189 
 4551000   0.60298829   -4.7277319   -4.7277319   -4.0991974 0.0006945025   -4.7277319    0.6285345   418189 
 4552000    0.6030125   -4.7282282   -4.7282282   -4.0996685  0.034769649   -4.7282282   0.62855973   418189 
 4553000   0.60500171   -4.7308859   -4.7308859   -4.1002527 0.0073612448   -4.7308859   0.63063322   418189 
 4554000   0.60450062   -4.7296877   -4.7296877   -4.0995768    0.0448816   -4.7296877    0.6301109   418189 
 4555000    0.6042562    -4.729393    -4.729393   -4.0995369  0.018481659    -4.729393   0.62985613   418189 
 4556000   0.60319674    -4.728141    -4.728141   -4.0993892  0.024456637    -4.728141   0.62875178   418189 
 4557000   0.60206639   -4.7272768   -4.7272768   -4.0997033  0.020005543   -4.7272768   0.62757354   418189 
 4558000   0.60420829   -4.7297409   -4.7297409   -4.0999347  0.031927069   -4.7297409   0.62980618   418189 
 4559000   0.60375983    -4.728896    -4.728896   -4.0995573  0.039338251    -4.728896   0.62933873   418189 
 4560000   0.60407114   -4.7286152   -4.7286152    -4.098952  0.024166279   -4.7286152   0.62966322   418189 
 4561000   0.60271855   -4.7283586   -4.7283586   -4.1001052   0.04392268   -4.7283586   0.62825333   418189 
 4562000   0.60294383   -4.7284405   -4.7284405   -4.0999523  0.024431631   -4.7284405   0.62848816   418189 
 4563000   0.60275911   -4.7282607   -4.7282607   -4.0999651  0.019207137   -4.7282607   0.62829561   418189 
 4564000   0.60351403   -4.7286802   -4.7286802   -4.0995977  0.033669122   -4.7286802   0.62908251   418189 
 4565000   0.60391892   -4.7284191   -4.7284191   -4.0989146   0.03570628   -4.7284191   0.62950455   418189 
 4566000    0.6017472    -4.726667    -4.726667   -4.0994262  0.038844351    -4.726667   0.62724083   418189 
 4567000   0.60395095   -4.7283097   -4.7283097   -4.0987718  0.026616307   -4.7283097   0.62953795   418189 
 4568000   0.60463979   -4.7297383   -4.7297383   -4.0994823  0.029484326   -4.7297383   0.63025597   418189 
 4569000   0.60313047   -4.7287891   -4.7287891   -4.1001064  0.023165837   -4.7287891    0.6286827   418189 
 4570000   0.60291973   -4.7278674   -4.7278674   -4.0994044  0.034847691   -4.7278674   0.62846303   418189 
 4571000   0.60364004    -4.728535    -4.728535   -4.0993211  0.025451656    -4.728535   0.62921386   418189 
 4572000   0.60414781   -4.7283215   -4.7283215   -4.0985784  0.034029502   -4.7283215   0.62974315   418189 
 4573000   0.60402085   -4.7289307   -4.7289307   -4.0993199  0.023500974   -4.7289307    0.6296108   418189 
 4574000   0.60385377   -4.7282701   -4.7282701   -4.0988334  0.043461242   -4.7282701   0.62943665   418189 
 4575000   0.60334342   -4.7277446   -4.7277446     -4.09884  0.030252629   -4.7277446   0.62890467   418189 
 4576000   0.60491411   -4.7295851   -4.7295851   -4.0990432  0.028820499   -4.7295851   0.63054191   418189 
 4577000   0.60320046   -4.7267937   -4.7267937    -4.098038  0.029291192   -4.7267937   0.62875566   418189 
 4578000   0.60479237   -4.7288557   -4.7288557   -4.0984407  0.041782145   -4.7288557   0.63041501   418189 
 4579000   0.60288072   -4.7263478   -4.7263478   -4.0979254  0.035020756   -4.7263478   0.62842238   418189 
 4580000   0.60356686   -4.7275036   -4.7275036   -4.0983661   0.03143812   -4.7275036   0.62913758   418189 
 4581000    0.6030163   -4.7275669   -4.7275669   -4.0990032  0.025435423   -4.7275669    0.6285637   418189 
 4582000   0.60338337   -4.7275796   -4.7275796   -4.0986333   0.03307206   -4.7275796   0.62894632   418189 
 4583000   0.60422845   -4.7286797   -4.7286797   -4.0988525   0.03146229   -4.7286797    0.6298272   418189 
 4584000   0.60412575   -4.7287545   -4.7287545   -4.0990344  0.029100492   -4.7287545   0.62972015   418189 
 4585000   0.60318418   -4.7281063   -4.7281063   -4.0993676  0.039971224   -4.7281063   0.62873868   418189 
 4586000   0.60426681   -4.7296067   -4.7296067   -4.0997395  0.038885844   -4.7296067   0.62986718   418189 
 4587000   0.60290278   -4.7273844   -4.7273844   -4.0989391  0.018472405   -4.7273844   0.62844536   418189 
 4588000     0.603388   -4.7282004   -4.7282004   -4.0992493  0.019252091   -4.7282004   0.62895114   418189 
 4589000   0.60238696   -4.7271485   -4.7271485   -4.0992408  0.016524301   -4.7271485    0.6279077   418189 
 4590000   0.60345069   -4.7287122   -4.7287122   -4.0996958  0.016415618   -4.7287122   0.62901649   418189 
 4591000   0.60379982   -4.7291759   -4.7291759   -4.0997955  0.036681067   -4.7291759   0.62938041   418189 
 4592000   0.60300202   -4.7277327   -4.7277327   -4.0991839  0.045587226   -4.7277327   0.62854881   418189 
 4593000    0.6032574   -4.7287369   -4.7287369   -4.0999219  0.027638376   -4.7287369   0.62881501   418189 
 4594000   0.60352006   -4.7285738   -4.7285738    -4.099485   0.02086184   -4.7285738    0.6290888   418189 
 4595000   0.60392032   -4.7295672   -4.7295672   -4.1000611  0.027860902   -4.7295672   0.62950601   418189 
 4596000   0.60273977   -4.7284302   -4.7284302   -4.1001548  0.036156207   -4.7284302   0.62827545   418189 
 4597000   0.60411535   -4.7301639   -4.7301639   -4.1004546   0.01221431   -4.7301639    0.6297093   418189 
 4598000    0.6044275   -4.7303544   -4.7303544   -4.1003197  0.025094714   -4.7303544   0.63003468   418189 
 4599000   0.60438478   -4.7310708   -4.7310708   -4.1010807  0.022388119   -4.7310708   0.62999015   418189 
 4600000   0.60298453   -4.7282747   -4.7282747   -4.0997441  0.016336708   -4.7282747   0.62853058   418189 
 4601000   0.60179744   -4.7276972   -4.7276972    -4.100404  0.016801945   -4.7276972    0.6272932   418189 
 4602000   0.60396886   -4.7297932   -4.7297932   -4.1002365  0.017683255   -4.7297932   0.62955661   418189 
 4603000   0.60313736   -4.7289558   -4.7289558   -4.1002659  0.019858876   -4.7289558   0.62868988   418189 
 4604000   0.60339351   -4.7293545   -4.7293545   -4.1003976  0.014893542   -4.7293545   0.62895689   418189 
 4605000   0.60331108   -4.7290726   -4.7290726   -4.1002017  0.035335705   -4.7290726   0.62887096   418189 
 4606000   0.60294247   -4.7288517   -4.7288517   -4.1003649  0.028395066   -4.7288517   0.62848674   418189 
 4607000   0.60265144   -4.7284779   -4.7284779   -4.1002945  0.020782306   -4.7284779   0.62818338   418189 
 4608000   0.60383071   -4.7295141   -4.7295141   -4.1001015  0.034403865   -4.7295141   0.62941261   418189 
 4609000   0.60272075   -4.7289297   -4.7289297    -4.100674  0.036307828   -4.7289297   0.62825563   418189 
 4610000   0.60169315   -4.7278661   -4.7278661   -4.1006816  0.012734339   -4.7278661   0.62718449   418189 
 4611000   0.60420886    -4.729901    -4.729901   -4.1000942  0.035462113    -4.729901   0.62980678   418189 
 4612000   0.60376022   -4.7296559   -4.7296559   -4.1003168  0.035215854   -4.7296559   0.62933913   418189 
 4613000   0.60320006   -4.7291643   -4.7291643   -4.1004091  0.027944852   -4.7291643   0.62875524   418189 
 4614000   0.60576884   -4.7319011   -4.7319011   -4.1004682  0.014623611   -4.7319011   0.63143285   418189 
 4615000   0.60322431   -4.7291828   -4.7291828   -4.1004023  0.022872595   -4.7291828   0.62878051   418189 
 4616000     0.603291   -4.7301584   -4.7301584   -4.1013083  0.017326008   -4.7301584   0.62885003   418189 
 4617000   0.60232401    -4.729749    -4.729749   -4.1019069  0.015049481    -4.729749   0.62784208   418189 
 4618000   0.60293467   -4.7301926   -4.7301926    -4.101714  0.035175205   -4.7301926   0.62847861   418189 
 4619000   0.60170069   -4.7287232   -4.7287232   -4.1015309  0.024460163   -4.7287232   0.62719235   418189 
 4620000   0.60262284   -4.7292064   -4.7292064   -4.1010528  0.014109807   -4.7292064   0.62815356   418189 
 4621000   0.60172866   -4.7284419   -4.7284419   -4.1012204  0.033908429   -4.7284419   0.62722151   418189 
 4622000   0.60236883   -4.7288427   -4.7288427   -4.1009539   0.01795788   -4.7288427   0.62788879   418189 
 4623000   0.60283534   -4.7293008   -4.7293008   -4.1009257  0.026285787   -4.7293008   0.62837507   418189 
 4624000   0.60272451   -4.7298398   -4.7298398   -4.1015803   0.03092251   -4.7298398   0.62825954   418189 
 4625000   0.60257299   -4.7289884   -4.7289884   -4.1008868  0.014334612   -4.7289884    0.6281016   418189 
 4626000   0.60330777   -4.7280116   -4.7280116   -4.0991441  0.016075437   -4.7280116   0.62886752   418189 
 4627000    0.6031144   -4.7279863   -4.7279863   -4.0993204  0.047859869   -4.7279863   0.62866595   418189 
 4628000   0.60416336   -4.7289985   -4.7289985   -4.0992391  0.024657435   -4.7289985   0.62975935   418189 
 4629000   0.60424333   -4.7285905   -4.7285905   -4.0987478  0.031190714   -4.7285905   0.62984271   418189 
 4630000   0.60426539   -4.7275104   -4.7275104   -4.0976447  0.036404667   -4.7275104    0.6298657   418189 
 4631000   0.60501352   -4.7288846   -4.7288846    -4.098239  0.021031069   -4.7288846   0.63064553   418189 
 4632000   0.60419367   -4.7282604   -4.7282604   -4.0984695  0.035867212   -4.7282604   0.62979095   418189 
 4633000   0.60331396   -4.7269763   -4.7269763   -4.0981023  0.018737126   -4.7269763   0.62887397   418189 
 4634000    0.6031103   -4.7264096   -4.7264096   -4.0977479  0.022228621   -4.7264096   0.62866167   418189 
 4635000   0.60315167    -4.726456    -4.726456   -4.0977512  0.016599072    -4.726456    0.6287048   418189 
 4636000   0.60397404   -4.7276623   -4.7276623   -4.0981003  0.019815781   -4.7276623   0.62956201   418189 
 4637000   0.60394791   -4.7276097   -4.7276097   -4.0980749   0.01101421   -4.7276097   0.62953477   418189 
 4638000   0.60511813   -4.7289202   -4.7289202   -4.0981657  0.044395317   -4.7289202   0.63075457   418189 
 4639000   0.60379852   -4.7275663   -4.7275663   -4.0981873  0.012728162   -4.7275663   0.62937905   418189 
 4640000   0.60451257   -4.7284318   -4.7284318   -4.0983085  0.023648483   -4.7284318   0.63012335   418189 
 4641000   0.60334473   -4.7278818   -4.7278818   -4.0989757  0.036487683   -4.7278818   0.62890604   418189 
 4642000   0.60451594   -4.7294928   -4.7294928    -4.099366  0.029747774   -4.7294928   0.63012687   418189 
 4643000   0.60352194   -4.7283132   -4.7283132   -4.0992224  0.031535297   -4.7283132   0.62909076   418189 
 4644000   0.60419078   -4.7290875   -4.7290875   -4.0992996  0.026889461   -4.7290875   0.62978794   418189 
 4645000   0.60456872   -4.7294901   -4.7294901   -4.0993083  0.029002691   -4.7294901   0.63018188   418189 
 4646000   0.60445144   -4.7294921   -4.7294921   -4.0994325  0.016723591   -4.7294921   0.63005964   418189 
 4647000   0.60389295   -4.7297945   -4.7297945    -4.100317  0.026155658   -4.7297945   0.62947749   418189 
 4648000   0.60220442   -4.7279819   -4.7279819   -4.1002644  0.020896995   -4.7279819   0.62771742   418189 
 4649000   0.60421288   -4.7298676   -4.7298676   -4.1000566   0.02019316   -4.7298676   0.62981097   418189 
 4650000   0.60470089   -4.7303289   -4.7303289   -4.1000093  0.014020301   -4.7303289   0.63031966   418189 
 4651000   0.60420399   -4.7297501   -4.7297501   -4.0999484  0.027979465   -4.7297501    0.6298017   418189 
 4652000   0.60286739   -4.7282844   -4.7282844   -4.0998759  0.021733179   -4.7282844   0.62840848   418189 
 4653000   0.60253416   -4.7282075   -4.7282075   -4.1001464  0.021978386   -4.7282075   0.62806113   418189 
 4654000   0.60258672   -4.7281541   -4.7281541   -4.1000382  0.016210273   -4.7281541   0.62811592   418189 
 4655000   0.60353133   -4.7288472   -4.7288472   -4.0997466  0.036774044   -4.7288472   0.62910054   418189 
 4656000   0.60375163   -4.7293957   -4.7293957   -4.1000655  0.034639222   -4.7293957   0.62933018   418189 
 4657000   0.60359202   -4.7290342   -4.7290342   -4.0998704  0.017675081   -4.7290342   0.62916381   418189 
 4658000   0.60403034   -4.7296828   -4.7296828   -4.1000622  0.017607166   -4.7296828   0.62962069   418189 
 4659000   0.60370165   -4.7297744   -4.7297744   -4.1004963  0.038807616   -4.7297744   0.62927808   418189 
 4660000   0.60318241   -4.7292513   -4.7292513   -4.1005144  0.029301896   -4.7292513   0.62873685   418189 
 4661000    0.6022124   -4.7281523   -4.7281523   -4.1004266  0.042173057   -4.7281523   0.62772574   418189 
 4662000   0.60374535   -4.7303362   -4.7303362   -4.1010126  0.021243436   -4.7303362   0.62932363   418189 
 4663000   0.60267477   -4.7295586   -4.7295586   -4.1013509   0.04219239   -4.7295586   0.62820769   418189 
 4664000   0.60330834     -4.73004     -4.73004   -4.1011719   0.02974358     -4.73004   0.62886811   418189 
 4665000   0.60342247   -4.7300777   -4.7300777   -4.1010906  0.030978061   -4.7300777   0.62898707   418189 
 4666000   0.60330111   -4.7303786   -4.7303786    -4.101518  0.023798874   -4.7303786   0.62886057   418189 
 4667000   0.60465297   -4.7314971   -4.7314971   -4.1012274  0.022928931   -4.7314971   0.63026971   418189 
 4668000   0.60248811   -4.7291551   -4.7291551   -4.1011419  0.033681903   -4.7291551   0.62801313   418189 
 4669000   0.60243668   -4.7292643   -4.7292643   -4.1013048  0.025761261   -4.7292643   0.62795952   418189 
 4670000   0.60364076   -4.7304331   -4.7304331   -4.1012184  0.024250211   -4.7304331   0.62921461   418189 
 4671000    0.6022094    -4.729767    -4.729767   -4.1020444  0.021879381    -4.729767   0.62772261   418189 
 4672000   0.60321643   -4.7308384   -4.7308384   -4.1020661  0.022265962   -4.7308384   0.62877231   418189 
 4673000   0.60336065   -4.7309458   -4.7309458   -4.1020232  0.026702848   -4.7309458   0.62892264   418189 
 4674000   0.60216929   -4.7292105   -4.7292105   -4.1015297   0.03808853   -4.7292105    0.6276808   418189 
 4675000   0.60253814   -4.7298827   -4.7298827   -4.1018174  0.034842547   -4.7298827   0.62806528   418189 
 4676000   0.60331848   -4.7303003   -4.7303003   -4.1014216  0.027018793   -4.7303003   0.62887868   418189 
 4677000   0.60159194   -4.7292484   -4.7292484   -4.1021694    0.0185749   -4.7292484   0.62707899   418189 
 4678000   0.60217289   -4.7304954   -4.7304954   -4.1028108  0.017676121   -4.7304954   0.62768455   418189 
 4679000   0.60335425    -4.732071    -4.732071   -4.1031551   0.01821646    -4.732071   0.62891596   418189 
 4680000    0.6028294    -4.731163    -4.731163   -4.1027941  0.043042908    -4.731163   0.62836888   418189 
 4681000   0.60185277   -4.7295048   -4.7295048   -4.1021539  0.036270402   -4.7295048   0.62735087   418189 
 4682000   0.60221467   -4.7293003   -4.7293003   -4.1015722  0.028299588   -4.7293003    0.6277281   418189 
 4683000   0.60199839   -4.7297341   -4.7297341   -4.1022315  0.035566622   -4.7297341   0.62750266   418189 
 4684000   0.60186973   -4.7285075   -4.7285075    -4.101139  0.025941888   -4.7285075   0.62736855   418189 
 4685000   0.60242053   -4.7297435   -4.7297435   -4.1018008  0.015587375   -4.7297435   0.62794269   418189 
 4686000   0.60276154   -4.7303182   -4.7303182   -4.1020201 -0.0010523253   -4.7303182   0.62829814   418189 
 4687000   0.60241749   -4.7303117   -4.7303117   -4.1023722  0.028276334   -4.7303117   0.62793951   418189 
 4688000   0.60380686   -4.7320166   -4.7320166   -4.1026288  0.030751503   -4.7320166   0.62938774   418189 
 4689000   0.60291799   -4.7296761   -4.7296761   -4.1012148  0.023947697   -4.7296761   0.62846123   418189 
 4690000   0.60238091   -4.7292883   -4.7292883   -4.1013869  0.032008511   -4.7292883   0.62790139   418189 
 4691000   0.60290849   -4.7302239   -4.7302239   -4.1017726  0.029553136   -4.7302239   0.62845132   418189 
 4692000   0.60285546   -4.7300002   -4.7300002   -4.1016042  0.028929413   -4.7300002   0.62839604   418189 
 4693000   0.60326758   -4.7302912   -4.7302912   -4.1014656  0.014181062   -4.7302912   0.62882562   418189 
 4694000   0.60281927   -4.7295264   -4.7295264   -4.1011681  0.027706647   -4.7295264   0.62835832   418189 
 4695000   0.60184138   -4.7283626   -4.7283626   -4.1010236  0.026872368   -4.7283626     0.627339   418189 
 4696000   0.60307239   -4.7299032   -4.7299032    -4.101281  0.022043542   -4.7299032   0.62862217   418189 
 4697000   0.60353821   -4.7300475   -4.7300475   -4.1009398  0.035544632   -4.7300475   0.62910771   418189 
 4698000    0.6031442   -4.7293982   -4.7293982   -4.1007012  0.040994143   -4.7293982   0.62869702   418189 
 4699000   0.60373732   -4.7302739   -4.7302739   -4.1009586  0.024503317   -4.7302739   0.62931526   418189 
 4700000   0.60388154   -4.7301411   -4.7301411   -4.1006755  0.023460498   -4.7301411   0.62946559   418189 
 4701000   0.60323572    -4.729132    -4.729132   -4.1003396  0.020587444    -4.729132   0.62879241   418189 
 4702000   0.60314832   -4.7292855   -4.7292855   -4.1005842  0.016294645   -4.7292855   0.62870131   418189 
 4703000   0.60163348   -4.7277064   -4.7277064   -4.1005841  0.013720597   -4.7277064   0.62712229   418189 
 4704000   0.60289886   -4.7290777   -4.7290777   -4.1006364  0.035882738   -4.7290777   0.62844128   418189 
 4705000   0.60382196   -4.7298922   -4.7298922   -4.1004887   0.01793868   -4.7298922   0.62940349   418189 
 4706000   0.60389615   -4.7304175   -4.7304175   -4.1009366  0.019393447   -4.7304175   0.62948083   418189 
 4707000   0.60331078    -4.730362    -4.730362   -4.1014914  0.035181665    -4.730362   0.62887065   418189 
 4708000   0.60414719   -4.7314137   -4.7314137   -4.1016712  0.030129372   -4.7314137   0.62974249   418189 
 4709000   0.60229373    -4.730985    -4.730985   -4.1031745  0.039548538    -4.730985   0.62781051   418189 
 4710000   0.60236728   -4.7308834   -4.7308834   -4.1029962 0.0074066986   -4.7308834   0.62788718   418189 
 4711000   0.60194118    -4.729316    -4.729316    -4.101873  0.026884128    -4.729316   0.62744303   418189 
 4712000   0.60344239   -4.7306114   -4.7306114   -4.1016036  0.018581493   -4.7306114   0.62900784   418189 
 4713000    0.6033761   -4.7303994   -4.7303994   -4.1014607  0.022313321   -4.7303994   0.62893874   418189 
 4714000   0.60302305   -4.7296444   -4.7296444   -4.1010737  0.024766782   -4.7296444   0.62857073   418189 
 4715000   0.60268008   -4.7295851   -4.7295851   -4.1013718   0.02953362   -4.7295851   0.62821323   418189 
 4716000   0.60248485    -4.729553    -4.729553   -4.1015432  0.033282796    -4.729553   0.62800973   418189 
 4717000   0.60198117   -4.7291897   -4.7291897    -4.101705  0.034655252   -4.7291897   0.62748471   418189 
 4718000    0.6036382   -4.7306748   -4.7306748   -4.1014628  0.044425535   -4.7306748   0.62921194   418189 
 4719000   0.60243442   -4.7298897   -4.7298897   -4.1019325  0.043588666   -4.7298897   0.62795716   418189 
 4720000   0.60283771    -4.731298    -4.731298   -4.1029204   0.03782525    -4.731298   0.62837754   418189 
 4721000   0.60278356   -4.7304333   -4.7304333   -4.1021122   0.01737005   -4.7304333    0.6283211   418189 
 4722000   0.60354914   -4.7313501   -4.7313501    -4.102231  0.013495464   -4.7313501   0.62911911   418189 
 4723000   0.60371411   -4.7311187   -4.7311187   -4.1018277  0.038846437   -4.7311187   0.62929107   418189 
 4724000   0.60280921   -4.7305364   -4.7305364   -4.1021886   0.03745557   -4.7305364   0.62834783   418189 
 4725000    0.6017922    -4.729545    -4.729545   -4.1022573   0.02418416    -4.729545   0.62728773   418189 
 4726000   0.60367745   -4.7314182   -4.7314182   -4.1021654  0.033959711   -4.7314182   0.62925285   418189 
 4727000   0.60259474   -4.7304515   -4.7304515   -4.1023272  0.031674385   -4.7304515   0.62812428   418189 
 4728000    0.6024577   -4.7299518   -4.7299518   -4.1019704  0.033522147   -4.7299518   0.62798143   418189 
 4729000   0.60229029   -4.7304255   -4.7304255   -4.1026186  0.028114041   -4.7304255   0.62780693   418189 
 4730000   0.60152627   -4.7300488   -4.7300488   -4.1030383  0.027815065   -4.7300488   0.62701054   418189 
 4731000   0.60256404   -4.7309635   -4.7309635   -4.1028712  0.020648693   -4.7309635   0.62809228   418189 
 4732000   0.60208104   -4.7298578   -4.7298578    -4.102269  0.036281504   -4.7298578   0.62758881   418189 
 4733000   0.60386046   -4.7317957   -4.7317957   -4.1023521  0.034261932   -4.7317957   0.62944362   418189 
 4734000   0.60262936   -4.7296626   -4.7296626   -4.1015022  0.016022911   -4.7296626   0.62816036   418189 
 4735000    0.6032466   -4.7305379   -4.7305379   -4.1017342  0.036260922   -4.7305379   0.62880375   418189 
 4736000   0.60340931   -4.7306245   -4.7306245   -4.1016512  0.036134153   -4.7306245   0.62897335   418189 
 4737000    0.6032043   -4.7307371   -4.7307371   -4.1019775  0.022075422   -4.7307371   0.62875967   418189 
 4738000   0.60368206   -4.7315574   -4.7315574   -4.1022997  0.032871578   -4.7315574   0.62925766   418189 
 4739000   0.60283583   -4.7303279   -4.7303279   -4.1019523  0.032686952   -4.7303279   0.62837558   418189 
 4740000   0.60303833   -4.7301398   -4.7301398   -4.1015532  0.015873389   -4.7301398   0.62858666   418189 
 4741000   0.60351605   -4.7311003   -4.7311003   -4.1020157  0.029475271   -4.7311003   0.62908462   418189 
 4742000   0.60253208   -4.7305128   -4.7305128   -4.1024538  0.037775017   -4.7305128   0.62805896   418189 
 4743000   0.60397715   -4.7311197   -4.7311197   -4.1015544  0.013184972   -4.7311197   0.62956525   418189 
 4744000   0.60315612   -4.7305347   -4.7305347   -4.1018253  0.020725257   -4.7305347   0.62870944   418189 
 4745000   0.60260311   -4.7300447   -4.7300447   -4.1019117  0.039156727   -4.7300447     0.628133   418189 
 4746000   0.60407378   -4.7311737   -4.7311737   -4.1015078  0.039994152   -4.7311737   0.62966598   418189 
 4747000   0.60359409    -4.731685    -4.731685    -4.102519  0.027811473    -4.731685   0.62916596   418189 
 4748000   0.60404773   -4.7325826   -4.7325826   -4.1029438  0.024291263   -4.7325826   0.62963883   418189 
 4749000   0.60346118   -4.7321106   -4.7321106   -4.1030832  0.024414104   -4.7321106   0.62902742   418189 
 4750000   0.60263811   -4.7305582   -4.7305582   -4.1023887  0.033254605   -4.7305582   0.62816948   418189 
 4751000   0.60283835   -4.7306204   -4.7306204   -4.1022422  0.014150374   -4.7306204   0.62837821   418189 
 4752000    0.6022344   -4.7296925   -4.7296925   -4.1019439  0.035013141   -4.7296925   0.62774867   418189 
 4753000   0.60250214   -4.7296012   -4.7296012   -4.1015734  0.027655427   -4.7296012   0.62802775   418189 
 4754000   0.60504654   -4.7325308   -4.7325308   -4.1018509  0.037918941   -4.7325308   0.63067995   418189 
 4755000   0.60181901   -4.7296474   -4.7296474   -4.1023317  0.022384176   -4.7296474   0.62731568   418189 
 4756000   0.60216535   -4.7301963   -4.7301963   -4.1025196  0.025734233   -4.7301963   0.62767669   418189 
 4757000   0.60276806   -4.7304349   -4.7304349     -4.10213  0.032212044   -4.7304349   0.62830494   418189 
 4758000   0.60268178   -4.7304811   -4.7304811   -4.1022661  0.014745415   -4.7304811   0.62821501   418189 
 4759000   0.60017276   -4.7289638   -4.7289638   -4.1033641  0.028669576   -4.7289638   0.62559969   418189 
 4760000   0.60218322   -4.7304823   -4.7304823    -4.102787  0.043932602   -4.7304823   0.62769532   418189 
 4761000   0.60323146   -4.7314068   -4.7314068   -4.1026188  0.028804927   -4.7314068   0.62878797   418189 
 4762000   0.60335145   -4.7307999   -4.7307999   -4.1018869  0.022955945   -4.7307999   0.62891305   418189 
 4763000   0.60192062   -4.7296171   -4.7296171   -4.1021955  0.018456566   -4.7296171   0.62742159   418189 
 4764000   0.60257723   -4.7299322   -4.7299322   -4.1018262  0.038943459   -4.7299322   0.62810603   418189 
 4765000   0.60309612   -4.7299847   -4.7299847   -4.1013378  0.020589215   -4.7299847    0.6286469   418189 
 4766000   0.60202069   -4.7282734   -4.7282734   -4.1007475   0.03273196   -4.7282734    0.6275259   418189 
 4767000   0.60155814   -4.7273524   -4.7273524   -4.1003087  0.025645421   -4.7273524   0.62704376   418189 
 4768000   0.60392897   -4.7294422   -4.7294422   -4.0999271  0.029037373   -4.7294422   0.62951503   418189 
 4769000   0.60506232   -4.7302973   -4.7302973   -4.0996009  0.035860337   -4.7302973    0.6306964   418189 
 4770000   0.60248433    -4.728431    -4.728431   -4.1004218  0.040627169    -4.728431   0.62800918   418189 
 4771000   0.60309702   -4.7292351   -4.7292351   -4.1005872  0.037126739   -4.7292351   0.62864784   418189 
 4772000   0.60408989   -4.7302141   -4.7302141   -4.1005313  0.024483479   -4.7302141   0.62968277   418189 
 4773000   0.60267243   -4.7284829   -4.7284829   -4.1002776  0.031816378   -4.7284829   0.62820525   418189 
 4774000     0.603671   -4.7292904   -4.7292904   -4.1000443  0.018899485   -4.7292904   0.62924613   418189 
 4775000   0.60305367   -4.7285403   -4.7285403   -4.0999376  0.021307753   -4.7285403   0.62860265   418189 
 4776000   0.60449306   -4.7297716   -4.7297716   -4.0996686  0.036243699   -4.7297716   0.63010302   418189 
 4777000   0.60328287   -4.7290172   -4.7290172   -4.1001757   0.03229349   -4.7290172   0.62884156   418189 
 4778000   0.60398426    -4.730882    -4.730882   -4.1013093  0.032080686    -4.730882   0.62957266   418189 
 4779000   0.60431255   -4.7303668   -4.7303668   -4.1004519  0.024125091   -4.7303668   0.62991487   418189 
 4780000   0.60315374   -4.7296606   -4.7296606   -4.1009537   0.02921094   -4.7296606   0.62870696   418189 
 4781000   0.60258272   -4.7296506   -4.7296506   -4.1015389  0.017210715   -4.7296506   0.62811174   418189 
 4782000   0.60277206   -4.7302727   -4.7302727   -4.1019636  0.028254324   -4.7302727   0.62830911   418189 
 4783000   0.60344599   -4.7305245   -4.7305245   -4.1015129  0.024590254   -4.7305245   0.62901159   418189 
 4784000   0.60345405   -4.7308712   -4.7308712   -4.1018512  0.028831472   -4.7308712   0.62901999   418189 
 4785000   0.60260862   -4.7297833   -4.7297833   -4.1016445  0.023418243   -4.7297833   0.62813875   418189 
 4786000   0.60349425   -4.7304303   -4.7304303   -4.1013684  0.032814868   -4.7304303    0.6290619   418189 
 4787000   0.60243989   -4.7289489   -4.7289489    -4.100986  0.033238128   -4.7289489   0.62796286   418189 
 4788000   0.60385595   -4.7300958   -4.7300958   -4.1006569  0.045474934   -4.7300958   0.62943892   418189 
 4789000    0.6029088    -4.729333    -4.729333   -4.1008814  0.023715409    -4.729333   0.62845165   418189 
 4790000   0.60295031   -4.7297724   -4.7297724   -4.1012775   0.02526764   -4.7297724   0.62849491   418189 
 4791000   0.60344622   -4.7302096   -4.7302096   -4.1011978  0.041598389   -4.7302096   0.62901183   418189 
 4792000   0.60186946   -4.7291554   -4.7291554   -4.1017871  0.016903686   -4.7291554   0.62736827   418189 
 4793000   0.60230331   -4.7293702   -4.7293702   -4.1015497  0.029142362   -4.7293702    0.6278205   418189 
 4794000   0.60292545   -4.7295798   -4.7295798   -4.1011108   0.01169872   -4.7295798     0.628469   418189 
 4795000   0.60454744   -4.7313825   -4.7313825   -4.1012228  0.024178775   -4.7313825   0.63015971   418189 
 4796000   0.60373693    -4.730414    -4.730414   -4.1010991  0.024661588    -4.730414   0.62931486   418189 
 4797000   0.60475665   -4.7305015   -4.7305015   -4.1001237  0.035244659   -4.7305015   0.63037778   418189 
 4798000   0.60382927   -4.7301279   -4.7301279   -4.1007168  0.039479461   -4.7301279   0.62941111   418189 
 4799000   0.60271577   -4.7288301   -4.7288301   -4.1005797  0.014215105   -4.7288301   0.62825043   418189 
 4800000   0.60306403   -4.7289944   -4.7289944    -4.100381  0.013684624   -4.7289944   0.62861345   418189 
 4801000   0.60326975   -4.7288011   -4.7288011   -4.0999733  0.032221676   -4.7288011   0.62882788   418189 
 4802000   0.60326382   -4.7290026   -4.7290026   -4.1001809  0.031097438   -4.7290026   0.62882171   418189 
 4803000   0.60330724   -4.7292784   -4.7292784   -4.1004114  0.017821825   -4.7292784   0.62886696   418189 
 4804000   0.60371427   -4.7299061   -4.7299061   -4.1006148  0.029322148   -4.7299061   0.62929124   418189 
 4805000   0.60383907    -4.730631    -4.730631   -4.1012097  0.023331079    -4.730631   0.62942132   418189 
 4806000    0.6032082   -4.7294707   -4.7294707    -4.100707  0.028053572   -4.7294707   0.62876373   418189 
 4807000   0.60491077   -4.7306802   -4.7306802   -4.1001418  0.019723839   -4.7306802   0.63053842   418189 
 4808000    0.6044265   -4.7303079   -4.7303079   -4.1002743   0.02294366   -4.7303079   0.63003364   418189 
 4809000   0.60327226   -4.7283003   -4.7283003   -4.0994698  0.034258579   -4.7283003    0.6288305   418189 
 4810000   0.60293315   -4.7282813   -4.7282813   -4.0998042   0.03536718   -4.7282813   0.62847702   418189 
 4811000   0.60328593   -4.7282213   -4.7282213   -4.0993765  0.031365292   -4.7282213   0.62884475   418189 
 4812000   0.60409107   -4.7289319   -4.7289319   -4.0992479  0.020039938   -4.7289319     0.629684   418189 
 4813000   0.60445596   -4.7287706   -4.7287706   -4.0987063  0.037491585   -4.7287706   0.63006435   418189 
 4814000   0.60408863   -4.7297428   -4.7297428   -4.1000614  0.038390792   -4.7297428   0.62968145   418189 
 4815000   0.60394569   -4.7293444   -4.7293444   -4.0998119  0.031874576   -4.7293444   0.62953246   418189 
 4816000   0.60387266   -4.7290387   -4.7290387   -4.0995823  0.022099959   -4.7290387   0.62945634   418189 
 4817000   0.60388397   -4.7297088   -4.7297088   -4.1002406  0.042481934   -4.7297088   0.62946813   418189 
 4818000   0.60347642   -4.7294009   -4.7294009   -4.1003576  0.025363842   -4.7294009    0.6290433   418189 
 4819000   0.60230427    -4.728737    -4.728737   -4.1009155  0.028551862    -4.728737   0.62782149   418189 
 4820000   0.60348345   -4.7297401   -4.7297401   -4.1006894   0.02380087   -4.7297401   0.62905063   418189 
 4821000    0.6038887   -4.7304008   -4.7304008   -4.1009277 0.0089455592   -4.7304008   0.62947305   418189 
 4822000    0.6038771   -4.7306539   -4.7306539   -4.1011929  0.038503903   -4.7306539   0.62946096   418189 
 4823000   0.60194602   -4.7283759   -4.7283759   -4.1009279  0.017898055   -4.7283759   0.62744807   418189 
 4824000   0.60325167   -4.7296532   -4.7296532   -4.1008442  0.017843371   -4.7296532   0.62880904   418189 
 4825000   0.60406356   -4.7306324   -4.7306324   -4.1009771  0.017745396   -4.7306324   0.62965532   418189 
 4826000   0.60452946   -4.7320455   -4.7320455   -4.1019045    0.0187337   -4.7320455   0.63014097   418189 
 4827000   0.60339824    -4.731385    -4.731385   -4.1024232   0.02080084    -4.731385   0.62896182   418189 
 4828000   0.60390912   -4.7315324   -4.7315324    -4.102038  0.029149036   -4.7315324   0.62949434   418189 
 4829000   0.60355647   -4.7307211   -4.7307211   -4.1015943   0.03840549   -4.7307211   0.62912675   418189 
 4830000   0.60465056   -4.7306648   -4.7306648   -4.1003976  0.029334734   -4.7306648   0.63026719   418189 
 4831000   0.60291803   -4.7293631   -4.7293631   -4.1009019  0.025012839   -4.7293631   0.62846126   418189 
 4832000   0.60281332    -4.729697    -4.729697   -4.1013449  0.038674706    -4.729697   0.62835211   418189 
 4833000   0.60306397   -4.7301875   -4.7301875   -4.1015741  0.032481526   -4.7301875   0.62861339   418189 
 4834000   0.60277072   -4.7296068   -4.7296068   -4.1012991  0.013796668   -4.7296068   0.62830771   418189 
 4835000   0.60196633   -4.7286168   -4.7286168   -4.1011476  0.022194012   -4.7286168   0.62746924   418189 
 4836000   0.60271484   -4.7297785   -4.7297785    -4.101529  0.026594014   -4.7297785   0.62824947   418189 
 4837000   0.60305879   -4.7297662   -4.7297662   -4.1011583  0.031277997   -4.7297662   0.62860798   418189 
 4838000   0.60420894   -4.7312928   -4.7312928   -4.1014859  0.027292205   -4.7312928   0.62980687   418189 
 4839000   0.60397445   -4.7306935   -4.7306935   -4.1011311  0.028489518   -4.7306935   0.62956244   418189 
 4840000   0.60350585   -4.7300353   -4.7300353   -4.1009613  0.039577577   -4.7300353   0.62907398   418189 
 4841000   0.60289588   -4.7297327   -4.7297327   -4.1012946  0.017264085   -4.7297327   0.62843818   418189 
 4842000   0.60214425   -4.7288272   -4.7288272   -4.1011725  0.020103556   -4.7288272    0.6276547   418189 
 4843000   0.60152483   -4.7280692   -4.7280692   -4.1010602 0.0096745655   -4.7280692   0.62700903   418189 
 4844000   0.60117856   -4.7278667   -4.7278667   -4.1012186  0.031013605   -4.7278667    0.6266481   418189 
 4845000   0.60259441   -4.7285476   -4.7285476   -4.1004237  0.017645733   -4.7285476   0.62812393   418189 
 4846000   0.60388913   -4.7299463   -4.7299463   -4.1004728  0.031865656   -4.7299463    0.6294735   418189 
 4847000   0.60331838   -4.7290509   -4.7290509   -4.1001723  0.038037023   -4.7290509   0.62887858   418189 
 4848000   0.60377532   -4.7300285   -4.7300285   -4.1006737  0.039977649   -4.7300285   0.62935487   418189 
 4849000   0.60292212   -4.7288625   -4.7288625    -4.100397   0.02506991   -4.7288625   0.62846553   418189 
 4850000   0.60478495   -4.7305558   -4.7305558   -4.1001485  0.032744188   -4.7305558   0.63040728   418189 
 4851000   0.60450639   -4.7301285   -4.7301285   -4.1000116   0.02312431   -4.7301285   0.63011691   418189 
 4852000   0.60392765   -4.7299813   -4.7299813   -4.1004677  0.025180476   -4.7299813   0.62951365   418189 
 4853000   0.60516769   -4.7307212   -4.7307212    -4.099915  0.017078208   -4.7307212   0.63080623   418189 
 4854000   0.60381614   -4.7288415   -4.7288415   -4.0994441  0.033155055   -4.7288415   0.62939743   418189 
 4855000   0.60285131   -4.7286896   -4.7286896   -4.1002979  0.023133263   -4.7286896   0.62839171   418189 
 4856000    0.6035422   -4.7289243   -4.7289243   -4.0998124  0.019751511   -4.7289243   0.62911188   418189 
 4857000   0.60351294   -4.7288382   -4.7288382   -4.0997568  0.031889111   -4.7288382   0.62908137   418189 
 4858000   0.60409144   -4.7290559   -4.7290559   -4.0993715  0.042445603   -4.7290559   0.62968438   418189 
 4859000   0.60238401   -4.7269153   -4.7269153   -4.0990107  0.045462532   -4.7269153   0.62790462   418189 
 4860000   0.60363057   -4.7286599   -4.7286599   -4.0994559  0.027304348   -4.7286599   0.62920399   418189 
 4861000   0.60418582    -4.728702    -4.728702   -4.0989193  0.028718385    -4.728702   0.62978276   418189 
 4862000     0.603483   -4.7284349   -4.7284349   -4.0993847  0.037098023   -4.7284349   0.62905016   418189 
 4863000   0.60394655   -4.7291878   -4.7291878   -4.0996544  0.042451167   -4.7291878   0.62953336   418189 
 4864000   0.60422425   -4.7291942   -4.7291942   -4.0993714  0.003627355   -4.7291942   0.62982282   418189 
 4865000   0.60381079   -4.7297033   -4.7297033   -4.1003115  0.030681361   -4.7297033   0.62939185   418189 
 4866000   0.60280352   -4.7286516   -4.7286516   -4.1003097  0.030597403   -4.7286516    0.6283419   418189 
 4867000   0.60157741   -4.7276832   -4.7276832   -4.1006193  0.035800725   -4.7276832   0.62706385   418189 
 4868000   0.60370278   -4.7300521   -4.7300521   -4.1007729  0.030141666   -4.7300521   0.62927926   418189 
 4869000   0.60409572   -4.7303708   -4.7303708   -4.1006819  0.015296971   -4.7303708   0.62968885   418189 
 4870000   0.60315578   -4.7296011   -4.7296011    -4.100892   0.03740198   -4.7296011   0.62870909   418189 
 4871000   0.60337347   -4.7298973   -4.7298973   -4.1009613  0.022770732   -4.7298973     0.628936   418189 
 4872000   0.60383423   -4.7298476   -4.7298476   -4.1004314  0.039206563   -4.7298476   0.62941628   418189 
 4873000   0.60304822   -4.7291678   -4.7291678   -4.1005708  0.030302629   -4.7291678   0.62859697   418189 
 4874000   0.60402798   -4.7300782   -4.7300782     -4.10046   0.01948761   -4.7300782   0.62961823   418189 
 4875000    0.6025223   -4.7287008   -4.7287008    -4.100652  0.010869683   -4.7287008   0.62804877   418189 
 4876000   0.60225753   -4.7285818   -4.7285818   -4.1008091  0.025168454   -4.7285818   0.62777278   418189 
 4877000   0.60283075   -4.7286914   -4.7286914   -4.1003211  0.025377592   -4.7286914   0.62837029   418189 
 4878000   0.60274507   -4.7283795   -4.7283795   -4.1000985  0.022625951   -4.7283795   0.62828097   418189 
 4879000   0.60226926   -4.7284975   -4.7284975   -4.1007124  0.033564662   -4.7284975     0.627785   418189 
 4880000   0.60296576   -4.7294466   -4.7294466   -4.1009356  0.046474963   -4.7294466   0.62851102   418189 
 4881000   0.60247475   -4.7287366   -4.7287366   -4.1007374  0.016844138   -4.7287366    0.6279992   418189 
 4882000   0.60343236   -4.7297203   -4.7297203   -4.1007229  0.024651734   -4.7297203   0.62899738   418189 
 4883000   0.60216912   -4.7285488   -4.7285488   -4.1008682  0.042512332   -4.7285488   0.62768063   418189 
 4884000   0.60295009   -4.7288987   -4.7288987    -4.100404  0.025407215   -4.7288987   0.62849468   418189 
 4885000   0.60436962   -4.7306896   -4.7306896   -4.1007152  0.022878666   -4.7306896   0.62997435   418189 
 4886000   0.60305285    -4.729704    -4.729704   -4.1011022  0.031794372    -4.729704   0.62860179   418189 
 4887000   0.60423578   -4.7306105   -4.7306105   -4.1007757  0.023650342   -4.7306105   0.62983484   418189 
 4888000   0.60410513   -4.7300734   -4.7300734   -4.1003747  0.025302146   -4.7300734   0.62969865   418189 
 4889000   0.60362597    -4.729627    -4.729627   -4.1004278   0.02221654    -4.729627    0.6291992   418189 
 4890000   0.60232082    -4.728324    -4.728324   -4.1004852  0.023816695    -4.728324   0.62783875   418189 
 4891000   0.60320721   -4.7286812   -4.7286812   -4.0999185  0.027201092   -4.7286812   0.62876269   418189 
 4892000   0.60343476   -4.7287275   -4.7287275   -4.0997276  0.034889407   -4.7287275   0.62899989   418189 
 4893000   0.60384895   -4.7299884   -4.7299884   -4.1005568  0.025013648   -4.7299884   0.62943162   418189 
 4894000   0.60321517   -4.7302641   -4.7302641   -4.1014931  0.030121075   -4.7302641   0.62877099   418189 
 4895000   0.60315539   -4.7295056   -4.7295056   -4.1007969  0.023317602   -4.7295056   0.62870868   418189 
 4896000    0.6031414   -4.7298804   -4.7298804   -4.1011863  0.030576467   -4.7298804   0.62869409   418189 
 4897000   0.60341522   -4.7300611   -4.7300611   -4.1010816  0.030992015   -4.7300611   0.62897951   418189 
 4898000    0.6035829   -4.7300387   -4.7300387   -4.1008844  0.037693458   -4.7300387    0.6291543   418189 
 4899000   0.60351202   -4.7296844   -4.7296844    -4.100604 0.0077364215   -4.7296844   0.62908041   418189 
 4900000   0.60309203   -4.7295024   -4.7295024   -4.1008598  0.027197509   -4.7295024   0.62864264   418189 
 4901000   0.60369868   -4.7298607   -4.7298607   -4.1005857  0.034916983   -4.7298607   0.62927498   418189 
 4902000   0.60294212   -4.7295784   -4.7295784    -4.101092  0.037005264   -4.7295784   0.62848637   418189 
 4903000   0.60249984   -4.7290495   -4.7290495   -4.1010241  0.035760361   -4.7290495   0.62802535   418189 
 4904000   0.60306147   -4.7301613   -4.7301613   -4.1015505  0.035271586   -4.7301613   0.62861078   418189 
 4905000   0.60270195   -4.7298783   -4.7298783   -4.1016423  0.033534525   -4.7298783   0.62823603   418189 
 4906000     0.601832   -4.7290396   -4.7290396   -4.1017103  0.025021556   -4.7290396   0.62732922   418189 
 4907000   0.60429087   -4.7317186   -4.7317186   -4.1018264   0.02574581   -4.7317186   0.62989227   418189 
 4908000   0.60366774   -4.7307417   -4.7307417    -4.101499  0.030371105   -4.7307417   0.62924274   418189 
 4909000   0.60288501   -4.7303925   -4.7303925   -4.1019657  0.040322102   -4.7303925   0.62842684   418189 
 4910000   0.60390062    -4.731718    -4.731718   -4.1022326  0.023689088    -4.731718   0.62948548   418189 
 4911000   0.60217838   -4.7291228   -4.7291228   -4.1014325  0.030678537   -4.7291228   0.62769028   418189 
 4912000   0.60378555   -4.7303979   -4.7303979   -4.1010324  0.021412369   -4.7303979   0.62936554   418189 
 4913000    0.6030574   -4.7295479   -4.7295479   -4.1009414  0.025293274   -4.7295479   0.62860653   418189 
 4914000   0.60359178   -4.7302002   -4.7302002   -4.1010366  0.022268104   -4.7302002   0.62916355   418189 
 4915000   0.60318524   -4.7301179   -4.7301179   -4.1013781  0.020314112   -4.7301179   0.62873979   418189 
 4916000   0.60326091   -4.7298201   -4.7298201   -4.1010014  0.019548358   -4.7298201   0.62881867   418189 
 4917000   0.60348502    -4.730155    -4.730155   -4.1011027  0.049364471    -4.730155   0.62905227   418189 
 4918000    0.6041289   -4.7305645   -4.7305645   -4.1008411  0.034161374   -4.7305645   0.62972343   418189 
 4919000   0.60301289   -4.7294454   -4.7294454   -4.1008853  0.023006062   -4.7294454   0.62856014   418189 
 4920000   0.60393883   -4.7295365   -4.7295365   -4.1000112  0.027536223   -4.7295365   0.62952531   418189 
 4921000   0.60376171   -4.7293893   -4.7293893   -4.1000486  0.011951066   -4.7293893   0.62934068   418189 
 4922000   0.60375165   -4.7294926   -4.7294926   -4.1001624  0.035340173   -4.7294926   0.62933019   418189 
 4923000   0.60352902   -4.7297642   -4.7297642   -4.1006661  0.024571102   -4.7297642   0.62909813   418189 
 4924000   0.60343019    -4.729825    -4.729825   -4.1008299  0.021142233    -4.729825   0.62899513   418189 
 4925000   0.60466387   -4.7303113   -4.7303113   -4.1000302  0.022634728   -4.7303113   0.63028106   418189 
 4926000   0.60392795    -4.729498    -4.729498    -4.099984   0.02067594    -4.729498   0.62951396   418189 
 4927000   0.60379907   -4.7284711   -4.7284711   -4.0990915  0.029984233   -4.7284711   0.62937963   418189 
 4928000   0.60328588   -4.7282665   -4.7282665   -4.0994218  0.031225338   -4.7282665   0.62884469   418189 
 4929000   0.60396036   -4.7296645   -4.7296645   -4.1001167  0.022949448   -4.7296645   0.62954775   418189 
 4930000   0.60211223   -4.7284787   -4.7284787   -4.1008574  0.028495313   -4.7284787   0.62762132   418189 
 4931000   0.60210047   -4.7289531   -4.7289531    -4.101344  0.017726909   -4.7289531   0.62760907   418189 
 4932000   0.60395053   -4.7308111   -4.7308111   -4.1012736  0.025280608   -4.7308111   0.62953751   418189 
 4933000   0.60321427   -4.7300125   -4.7300125   -4.1012425  0.037727352   -4.7300125   0.62877005   418189 
 4934000   0.60333152   -4.7297663   -4.7297663    -4.100874  0.025120352   -4.7297663   0.62889227   418189 
 4935000    0.6025054     -4.72899     -4.72899   -4.1009588  0.029903431     -4.72899   0.62803116   418189 
 4936000   0.60456578   -4.7307961   -4.7307961   -4.1006173  0.032983985   -4.7307961   0.63017882   418189 
 4937000   0.60420891   -4.7296461   -4.7296461   -4.0998393  0.040796376   -4.7296461   0.62980683   418189 
 4938000   0.60368049   -4.7294286   -4.7294286   -4.1001726  0.026090577   -4.7294286   0.62925602   418189 
 4939000   0.60218046   -4.7285294   -4.7285294   -4.1008369   0.03103984   -4.7285294   0.62769244   418189 
 4940000   0.60268893   -4.7299847   -4.7299847   -4.1017622  0.017309132   -4.7299847   0.62822246   418189 
 4941000   0.60283234    -4.729883    -4.729883   -4.1015111  0.020505125    -4.729883   0.62837195   418189 
 4942000   0.60484749   -4.7318639   -4.7318639   -4.1013915  0.040135122   -4.7318639   0.63047247   418189 
 4943000   0.60324182   -4.7305412   -4.7305412   -4.1017425  0.025699436   -4.7305412   0.62879877   418189 
 4944000   0.60418849   -4.7316257   -4.7316257   -4.1018402  0.024940907   -4.7316257   0.62978554   418189 
 4945000   0.60376748   -4.7313141   -4.7313141   -4.1019674  0.026748372   -4.7313141    0.6293467   418189 
 4946000   0.60433482   -4.7314554   -4.7314554   -4.1015173  0.026930619   -4.7314554   0.62993808   418189 
 4947000   0.60412867   -4.7309342   -4.7309342    -4.101211  0.038478272   -4.7309342    0.6297232   418189 
 4948000   0.60512324   -4.7314945   -4.7314945   -4.1007346  0.034407224   -4.7314945    0.6307599   418189 
 4949000    0.6052603   -4.7312396   -4.7312396   -4.1003368  0.024567523   -4.7312396   0.63090276   418189 
 4950000    0.6043574   -4.7306579   -4.7306579   -4.1006963  0.013291669   -4.7306579   0.62996162   418189 
 4951000   0.60340276   -4.7297413   -4.7297413   -4.1007748  0.023557964   -4.7297413   0.62896653   418189 
 4952000   0.60281258   -4.7291742   -4.7291742   -4.1008228  0.015282499   -4.7291742   0.62835134   418189 
 4953000   0.60267728   -4.7284614   -4.7284614   -4.1002511   0.02449201   -4.7284614   0.62821031   418189 
 4954000   0.60407017   -4.7300653   -4.7300653   -4.1004031  0.034029344   -4.7300653   0.62966221   418189 
 4955000   0.60441958    -4.730166    -4.730166   -4.1001396   0.04041313    -4.730166   0.63002642   418189 
 4956000   0.60328178   -4.7294179   -4.7294179   -4.1005775   0.01862971   -4.7294179   0.62884043   418189 
 4957000   0.60400806   -4.7306042   -4.7306042   -4.1010067  0.027606426   -4.7306042   0.62959748   418189 
 4958000   0.60397764   -4.7299813   -4.7299813   -4.1004156  0.030214908   -4.7299813   0.62956577   418189 
 4959000   0.60397766   -4.7300294   -4.7300294   -4.1004637  0.040988013   -4.7300294   0.62956579   418189 
 4960000   0.60352533   -4.7295625   -4.7295625   -4.1004682  0.033392164   -4.7295625   0.62909429   418189 
 4961000   0.60421097   -4.7307456   -4.7307456   -4.1009366  0.026295622   -4.7307456   0.62980897   418189 
 4962000   0.60520185   -4.7314101   -4.7314101   -4.1005683  0.034720499   -4.7314101   0.63084184   418189 
 4963000   0.60458874   -4.7305618   -4.7305618    -4.100359  0.024755058   -4.7305618   0.63020276   418189 
 4964000   0.60384645   -4.7298623   -4.7298623   -4.1004333  0.039835894   -4.7298623   0.62942901   418189 
 4965000    0.6034253   -4.7290538   -4.7290538   -4.1000638  0.013426963   -4.7290538   0.62899002   418189 
 4966000   0.60400341   -4.7298393   -4.7298393   -4.1002467   0.03419687   -4.7298393   0.62959262   418189 
 4967000   0.60431318   -4.7298234   -4.7298234   -4.0999079   0.02241297   -4.7298234   0.62991552   418189 
 4968000   0.60458973   -4.7304716   -4.7304716   -4.1002678  0.037503545   -4.7304716   0.63020379   418189 
 4969000   0.60423773   -4.7310992   -4.7310992   -4.1012623   0.02417453   -4.7310992   0.62983688   418189 
 4970000   0.60330979   -4.7294005   -4.7294005   -4.1005309  0.015731508   -4.7294005   0.62886962   418189 
 4971000   0.60374066   -4.7300639   -4.7300639   -4.1007451  0.036203202   -4.7300639   0.62931875   418189 
 4972000   0.60481388    -4.730781    -4.730781   -4.1003435 0.0092253409    -4.730781   0.63043744   418189 
 4973000   0.60423441   -4.7302163   -4.7302163   -4.1003829  0.030251544   -4.7302163   0.62983342   418189 
 4974000   0.60398563     -4.73053     -4.73053   -4.1009559  0.012796271     -4.73053   0.62957409   418189 
 4975000   0.60415118   -4.7310084   -4.7310084   -4.1012618  0.033257518   -4.7310084   0.62974665   418189 
 4976000   0.60485747   -4.7319747   -4.7319747   -4.1014918  0.016280961   -4.7319747   0.63048287   418189 
 4977000   0.60334718   -4.7313827   -4.7313827   -4.1024741  0.040088218   -4.7313827   0.62890859   418189 
 4978000   0.60227892   -4.7297953   -4.7297953   -4.1020002  0.034339771   -4.7297953   0.62779508   418189 
 4979000   0.60361578   -4.7315876   -4.7315876    -4.102399  0.012223223   -4.7315876   0.62918857   418189 
 4980000   0.60365152   -4.7306632   -4.7306632   -4.1014373  0.026974428   -4.7306632   0.62922583   418189 
 4981000   0.60407793   -4.7308719   -4.7308719   -4.1012016   0.02631904   -4.7308719    0.6296703   418189 
 4982000   0.60462109   -4.7317517   -4.7317517   -4.1015153  0.026178401   -4.7317517   0.63023647   418189 
 4983000   0.60349448   -4.7307467   -4.7307467   -4.1016845  0.027487333   -4.7307467   0.62906213   418189 
 4984000   0.60314476   -4.7306208   -4.7306208   -4.1019232  0.022791165   -4.7306208   0.62869759   418189 
 4985000    0.6044535   -4.7313146   -4.7313146   -4.1012529  0.025272775   -4.7313146   0.63006178   418189 
 4986000   0.60517953   -4.7322983   -4.7322983   -4.1014798  0.011832426   -4.7322983   0.63081857   418189 
 4987000   0.60426114   -4.7317541   -4.7317541   -4.1018928  0.020984957   -4.7317541   0.62986128   418189 
 4988000   0.60370626   -4.7311235   -4.7311235   -4.1018406  0.027152844   -4.7311235   0.62928289   418189 
 4989000   0.60300143   -4.7307792   -4.7307792    -4.102231  0.016429852   -4.7307792   0.62854819   418189 
 4990000   0.60324633   -4.7309932   -4.7309932   -4.1021897  0.032056558   -4.7309932   0.62880347   418189 
 4991000   0.60391769   -4.7321129   -4.7321129   -4.1026096  0.035046177   -4.7321129   0.62950327   418189 
 4992000    0.6041496    -4.732459    -4.732459   -4.1027139  0.027915592    -4.732459   0.62974501   418189 
 4993000   0.60383843   -4.7317234   -4.7317234   -4.1023028   0.00612197   -4.7317234   0.62942066   418189 
 4994000   0.60353022   -4.7318178   -4.7318178   -4.1027185  0.027059009   -4.7318178   0.62909939   418189 
 4995000   0.60220809   -4.7294575   -4.7294575   -4.1017362  0.019427495   -4.7294575   0.62772125   418189 
 4996000   0.60464439   -4.7322829   -4.7322829   -4.1020221  0.029643984   -4.7322829   0.63026076   418189 
 4997000    0.6030904   -4.7312845   -4.7312845   -4.1026436  0.037811459   -4.7312845   0.62864093   418189 
 4998000   0.60430283   -4.7325982   -4.7325982   -4.1026934  0.037634121   -4.7325982   0.62990473   418189 
 4999000   0.60462437   -4.7330453   -4.7330453   -4.1028054   0.02222078   -4.7330453   0.63023989   418189 
 5000000   0.60243506   -4.7304623   -4.7304623   -4.1025044  0.027734434   -4.7304623   0.62795783   418189 
Loop time of 14901.2 on 288 procs for 5000000 steps with 418189 atoms

Performance: 144955.075 tau/day, 335.544 timesteps/s
92.5% CPU use with 288 MPI tasks x 1 OpenMP threads

MPI task timing breakdown:
Section |  min time  |  avg time  |  max time  |%varavg|  %CPU | %total
-----------------------------------------------------------------------
Pair    | 332.18     | 2397.5     | 4034.5     |1841.2 |  95.4 | 16.09
Bond    | 3.2337     | 3.4527     | 3.9352     |   5.1 | 100.0 |  0.02
Neigh   | 683.71     | 3225.4     | 5415.6     |1909.8 |  99.1 | 21.65
Comm    | 3229.7     | 6067.5     | 11484      |2559.4 |  90.7 | 40.72
Output  | 778.08     | 783.01     | 792.25     |  18.2 |  88.0 |  5.25
Modify  | 1068.3     | 2311.5     | 3521.4     |1020.1 |  91.1 | 15.51
Other   |            | 112.8      |            |       |       |  0.76

Nlocal:        1452.05 ave        3112 max         276 min
Histogram: 6 10 18 62 156 28 5 1 0 2
Nghost:        7087.13 ave        9855 max        2144 min
Histogram: 6 11 11 18 34 19 37 71 62 19
Neighs:        37992.4 ave       64127 max        1941 min
Histogram: 19 11 9 15 24 48 60 64 31 7

Total # of neighbors = 10941814
Ave neighs/atom = 26.164758
Ave special neighs/atom = 0.0000000
Neighbor list builds = 494936
Dangerous builds = 423620

Total wall time: 4:08:26
