LAMMPS (24 Dec 2020)
OMP_NUM_THREADS environment is not set. Defaulting to 1 thread. (src/comm.cpp:94)
  using 1 OpenMP thread(s) per MPI task
# Simple rigid body system
# needed variables: startTemp, temp

units		lj
atom_style	full
dimension 	3
boundary	p p f
pair_style	lj/cut/opt 2.5


variable 	sigma		equal 1.0
variable 	epsilon 	equal 1.0


region		box block 0 160 0 160 0 160
create_box 	3 box
Created orthogonal box = (0.0000000 0.0000000 0.0000000) to (160.00000 160.00000 160.00000)
  6 by 4 by 6 MPI processor grid
lattice 	sc 1.0
Lattice spacing in x,y,z = 1.0000000 1.0000000 1.0000000

create_atoms 	1 region box
Created 4096000 atoms
  create_atoms CPU = 0.086 seconds

mass		1 1.0
mass		2 1.0
mass		3 1.0


group		solvent type 1
4096000 atoms in group solvent


velocity 	solvent create ${startTemp} 563435 loop geom
velocity 	solvent create 0.5 563435 loop geom

read_data	data.vac add append
Reading data file ...
  orthogonal box = (0.0000000 0.0000000 0.0000000) to (160.00000 160.00000 320.00000)
  4 by 4 by 9 MPI processor grid
Finding 1-2 1-3 1-4 neighbors ...
  special bond factors lj:    0        0        0       
  special bond factors coul:  0        0        0       
     0 = max # of 1-2 neighbors
     0 = max # of 1-3 neighbors
     0 = max # of 1-4 neighbors
     1 = max # of special neighbors
  special bonds CPU = 0.917 seconds
  read_data CPU = 0.954 seconds

neighbor 	0.4 bin

pair_coeff	1 1 1.0 1.0
pair_coeff	2 2 0.0 0.0
pair_coeff	3 3 0.0 0.0
pair_coeff	2 3 0.0 0.0
pair_coeff	1 2*3 0.0 0.0

pair_modify 	shift yes


balance 	1.05 shift z 10 1.05
Balancing ...
Neighbor list info ...
  update every 1 steps, delay 10 steps, check yes
  max neighbors/atom: 2000, page size: 100000
  master list distance cutoff = 2.9
  ghost atom cutoff = 2.9
  binsize = 1.45, bins = 111 111 221
  1 neighbor lists, perpetual/occasional/extra = 1 0 0
  (1) pair lj/cut/opt, perpetual
      attributes: half, newton on
      pair build: half/bin/newton
      stencil: half/bin/3d/newton
      bin: standard
 rebalancing time: 0.059 seconds
  iteration count = 5
  initial/final maximal load/proc = 57600.000 41600.000
  initial/final imbalance factor  = 2.0250000 1.4625000
  x cuts: 0.0000000 0.25000000 0.50000000 0.75000000 1.0000000
  y cuts: 0.0000000 0.25000000 0.50000000 0.75000000 1.0000000
  z cuts: 0.0000000 0.052083333 0.10416667 0.15972222 0.22569444 0.27430556 0.31944444 0.37500000 0.45486111 1.0000000


####################### WALLS ###########################


region	       low block  EDGE EDGE EDGE EDGE 0 2

region 	       top block  EDGE EDGE EDGE EDGE 159 160


delete_atoms   region low
WARNING: Ignoring 'compress yes' for molecular system (src/delete_atoms.cpp:125)
Deleted 76800 atoms, new total = 4019200

delete_atoms   region top
WARNING: Ignoring 'compress yes' for molecular system (src/delete_atoms.cpp:125)
Deleted 25600 atoms, new total = 3993600


variable       epsilonWall equal 2*${epsilon}
variable       epsilonWall equal 2*1

variable       cutoffTop   equal   0.7147*${sigma}
variable       cutoffTop   equal   0.7147*1

variable       cutoffLow   equal   3*${sigma}
variable       cutoffLow   equal   3*1


fix            topWall all wall/lj93 zhi EDGE                ${epsilonWall} ${sigma} ${cutoffTop} units box
fix            topWall all wall/lj93 zhi EDGE                2 ${sigma} ${cutoffTop} units box
fix            topWall all wall/lj93 zhi EDGE                2 1 ${cutoffTop} units box
fix            topWall all wall/lj93 zhi EDGE                2 1 0.7147 units box

fix            lowWall all wall/lj93 zlo EDGE                ${epsilonWall} ${sigma} ${cutoffLow} units box
fix            lowWall all wall/lj93 zlo EDGE                2 ${sigma} ${cutoffLow} units box
fix            lowWall all wall/lj93 zlo EDGE                2 1 ${cutoffLow} units box
fix            lowWall all wall/lj93 zlo EDGE                2 1 3 units box


###################### COMPUTES ##########################

compute        bin1 solvent chunk/atom bin/1d z upper 1.0



######################	FIXES ############################


fix 		peclet solvent ave/chunk 1000 1 1000 bin1 density/number norm 		 none ave one file density.profile

fix 		2 solvent nve

## Thermostat


region		regthermo block EDGE EDGE EDGE EDGE 0 20

group 		thermo dynamic solvent region regthermo every 1000
dynamic group thermo defined

fix 		3 thermo langevin ${startTemp} ${temp} 10 156453
fix 		3 thermo langevin 0.5 ${temp} 10 156453
fix 		3 thermo langevin 0.5 .9 10 156453



#### Load balancing


fix 		bal all balance 1000 1.05 shift z 10 1.05


############### Diagnostics and computes ###################
#compute 	com cube	  rigid/local	1 mol x y z
#compute 	quat cube	  rigid/local	1 mol quatw quati quatj quatk

thermo 		1000
thermo_style 	custom step temp epair evdwl etotal press pe ke vol

dump		1 all custom 100000 dump.lammpstrj id mol type x y z
dump 		2 all image 10000 image.*.png type type
dump 		3 all movie 1000 movie.avi type type
#dump 		com cube local 1000 dump.*.xyz c_com[*]
#dump		quat cube      local 1000 dump.*.quat c_quat[*]


#restart 	500000 restart.dat
timestep 	0.005
timer 		full
New timer settings: style=full  mode=nosync  timeout=off


run		1000000
Per MPI rank memory allocation (min/avg/max) = 30.97 | 35.01 | 39.70 Mbytes
Step Temp E_pair E_vdwl TotEng Press PotEng KinEng Volume 
       0   0.49997217   -3.3137429   -3.3137429   -2.5637849    8.4475947   -3.3137429   0.74995807      8192000 
    1000    1.4162765   -4.8186974   -4.8186974   -2.6942832    4.0919341   -4.8186974    2.1244142      8192000 
    2000    1.3815404    -4.890863    -4.890863    -2.818553    2.8269915    -4.890863    2.0723101      8192000 
    3000    1.3247723   -4.9020493   -4.9020493   -2.9148914    1.8458671   -4.9020493    1.9871579      8192000 
    4000    1.3039028   -4.9254324   -4.9254324   -2.9695788   0.81395189   -4.9254324    1.9558536      8192000 
    5000    1.2400016   -4.8433058   -4.8433058    -2.983304   0.13429445   -4.8433058    1.8600019      8192000 
    6000    1.1634064   -4.7240509   -4.7240509   -2.9789417  -0.18510011   -4.7240509    1.7451092      8192000 
    7000    1.1356823   -4.6724105   -4.6724105   -2.9688874  -0.16140059   -4.6724105    1.7035231      8192000 
    8000    1.1512252   -4.6883762   -4.6883762   -2.9615388 0.0082721326   -4.6883762    1.7268374      8192000 
    9000    1.1621713   -4.7057775   -4.7057775    -2.962521    0.1019046   -4.7057775    1.7432565      8192000 
   10000    1.1627223   -4.7138416   -4.7138416   -2.9697586   0.13918208   -4.7138416     1.744083      8192000 
   11000    1.1596197   -4.7167817   -4.7167817   -2.9773527   0.14153055   -4.7167817    1.7394291      8192000 
   12000    1.1588324   -4.7202139   -4.7202139   -2.9819656   0.13862334   -4.7202139    1.7382482      8192000 
   13000    1.1638631   -4.7309395   -4.7309395   -2.9851453    0.1812664   -4.7309395    1.7457943      8192000 
   14000     1.168105   -4.7407194   -4.7407194   -2.9885623   0.21151415   -4.7407194    1.7521571      8192000 
   15000    1.1664573   -4.7420779   -4.7420779   -2.9923924    0.2111989   -4.7420779    1.7496854      8192000 
   16000    1.1627865   -4.7397942   -4.7397942   -2.9956149   0.19593392   -4.7397942    1.7441793      8192000 
   17000    1.1611092    -4.739831    -4.739831   -2.9981676   0.19293563    -4.739831    1.7416634      8192000 
   18000    1.1617414   -4.7432218   -4.7432218   -3.0006101   0.20279748   -4.7432218    1.7426117      8192000 
   19000    1.1629871    -4.747584    -4.747584   -3.0031038   0.21892223    -4.747584    1.7444802      8192000 
   20000     1.163812   -4.7516025   -4.7516025   -3.0058849   0.22716141   -4.7516025    1.7457176      8192000 
   21000    1.1643401   -4.7550146   -4.7550146   -3.0085049   0.23775034   -4.7550146    1.7465097      8192000 
   22000    1.1671748   -4.7626684   -4.7626684   -3.0119066   0.41965992   -4.7626684    1.7507618      8192000 
   23000    1.1651918   -4.7619548   -4.7619548   -3.0141676     1.136023   -4.7619548    1.7477872      8192000 
   24000    1.1634867   -4.7615371   -4.7615371   -3.0163076    1.8490338   -4.7615371    1.7452296      8192000 
   25000    1.1679779   -4.7706482   -4.7706482   -3.0186818    2.4691243   -4.7706482    1.7519664      8192000 
   26000    1.1722483   -4.7784831   -4.7784831   -3.0201111    2.1029337   -4.7784831    1.7583721      8192000 
   27000    1.1694578   -4.7758761   -4.7758761   -3.0216898    1.5300247   -4.7758761    1.7541863      8192000 
   28000    1.1523636   -4.7517623   -4.7517623   -3.0232173    1.0262373   -4.7517623     1.728545      8192000 
   29000    1.1105541   -4.6912459   -4.6912459   -3.0254152   0.69246065   -4.6912459    1.6658307      8192000 
   30000    1.0595052   -4.6172317   -4.6172317   -3.0279742   0.47437627   -4.6172317    1.5892575      8192000 
   31000    1.0098677   -4.5452951   -4.5452951   -3.0304939   0.26080181   -4.5452951    1.5148012      8192000 
   32000   0.96733394   -4.4844102   -4.4844102   -3.0334096   0.10070159   -4.4844102    1.4510006      8192000 
   33000   0.93268731    -4.435039    -4.435039   -3.0360084 0.0070224574    -4.435039    1.3990306      8192000 
   34000   0.90781573   -4.4008124   -4.4008124   -3.0390891 -0.025949231   -4.4008124    1.3617233      8192000 
   35000   0.89329523   -4.3818636   -4.3818636   -3.0419211 -0.035373578   -4.3818636    1.3399425      8192000 
   36000   0.88667481   -4.3750168   -4.3750168    -3.045005 -0.032541872   -4.3750168    1.3300119      8192000 
   37000   0.88623984   -4.3778727   -4.3778727   -3.0485133  -0.01207627   -4.3778727    1.3293594      8192000 
   38000     0.889118   -4.3863738   -4.3863738   -3.0526972  0.020460071   -4.3863738    1.3336767      8192000 
   39000   0.89427995   -4.3983066   -4.3983066    -3.056887  0.057636756   -4.3983066    1.3414196      8192000 
   40000   0.89956223   -4.4108823   -4.4108823   -3.0615393   0.09883211   -4.4108823     1.349343      8192000 
   41000    0.9041065    -4.422414    -4.422414   -3.0662546    0.1325802    -4.422414    1.3561594      8192000 
   42000   0.90585797   -4.4296255   -4.4296255   -3.0708389   0.15534049   -4.4296255    1.3587866      8192000 
   43000   0.90577939   -4.4341892   -4.4341892   -3.0755204   0.16640426   -4.4341892    1.3586687      8192000 
   44000   0.90324132   -4.4354953   -4.4354953   -3.0806337   0.15742925   -4.4354953    1.3548616      8192000 
   45000   0.89651823   -4.4309608   -4.4309608   -3.0861838   0.12954321   -4.4309608     1.344777      8192000 
   46000   0.88586356   -4.4206351   -4.4206351   -3.0918401  0.090720872   -4.4206351     1.328795      8192000 
   47000   0.87498366   -4.4096783   -4.4096783   -3.0972031   0.05330938   -4.4096783    1.3124752      8192000 
   48000   0.86773974   -4.4040941   -4.4040941   -3.1024848  0.024902885   -4.4040941    1.3016093      8192000 
   49000   0.86266242   -4.4019219   -4.4019219   -3.1079286  0.011722604   -4.4019219    1.2939933      8192000 
   50000   0.86079151   -4.4047845   -4.4047845   -3.1135975  0.011033707   -4.4047845    1.2911869      8192000 
   51000   0.86258137    -4.413064    -4.413064   -3.1191922  0.022350429    -4.413064    1.2938717      8192000 
   52000   0.86649069    -4.424225    -4.424225   -3.1244893  0.039443173    -4.424225    1.2997357      8192000 
   53000   0.87143193   -4.4369008   -4.4369008   -3.1297532  0.063660328   -4.4369008    1.3071476      8192000 
   54000    0.8766714   -4.4498441   -4.4498441   -3.1348374  0.092576439   -4.4498441    1.3150068      8192000 
   55000   0.88053379   -4.4607568   -4.4607568   -3.1399565    0.1168015   -4.4607568    1.3208004      8192000 
   56000   0.88229387   -4.4687256   -4.4687256   -3.1452851   0.12593534   -4.4687256    1.3234405      8192000 
   57000    0.8804922   -4.4708391   -4.4708391   -3.1501011   0.12373745   -4.4708391     1.320738      8192000 
   58000   0.87687628   -4.4702047   -4.4702047   -3.1548906   0.10560101   -4.4702047    1.3153141      8192000 
   59000   0.87165968   -4.4671927   -4.4671927   -3.1597035    0.0845095   -4.4671927    1.3074892      8192000 
   60000   0.86653344   -4.4640591   -4.4640591   -3.1642593  0.062950503   -4.4640591    1.2997998      8192000 
   61000   0.86261265   -4.4625258   -4.4625258   -3.1686071  0.048037243   -4.4625258    1.2939187      8192000 
   62000   0.86052885   -4.4641193   -4.4641193   -3.1733264   0.04182721   -4.4641193     1.290793      8192000 
   63000   0.86105672    -4.469485    -4.469485   -3.1779002  0.047991486    -4.469485    1.2915848      8192000 
   64000   0.86525103   -4.4799865   -4.4799865   -3.1821103  0.062846379   -4.4799865    1.2978762      8192000 
   65000   0.87022543   -4.4922077   -4.4922077   -3.1868699   0.09094352   -4.4922077    1.3053378      8192000 
   66000   0.87841708   -4.5092386   -4.5092386   -3.1916133   0.12662593   -4.5092386    1.3176253      8192000 
   67000     0.887113   -4.5272917   -4.5272917   -3.1966225   0.17032792   -4.5272917    1.3306692      8192000 
   68000    0.8966354   -4.5467045   -4.5467045   -3.2017517   0.21457309   -4.5467045    1.3449528      8192000 
   69000   0.90577105   -4.5658769   -4.5658769   -3.2072207   0.26707414   -4.5658769    1.3586562      8192000 
   70000    0.9163918   -4.5879083   -4.5879083   -3.2133209   0.32554544   -4.5879083    1.3745874      8192000 
   71000    0.9264415    -4.609884    -4.609884   -3.2202221   0.40306477    -4.609884    1.3896619      8192000 
   72000   0.93506114   -4.6305906   -4.6305906   -3.2279993   0.49118595   -4.6305906    1.4025914      8192000 
   73000   0.94266246   -4.6512766   -4.6512766   -3.2372832   0.57154645   -4.6512766    1.4139933      8192000 
   74000   0.94773652   -4.6690674   -4.6690674    -3.247463   0.63658752   -4.6690674    1.4216044      8192000 
   75000   0.95032423   -4.6828668   -4.6828668   -3.2573808   0.68307167   -4.6828668     1.425486      8192000 
   76000   0.94994961   -4.6918757   -4.6918757   -3.2669516   0.70184767   -4.6918757    1.4249241      8192000 
   77000   0.94572984   -4.6945286   -4.6945286   -3.2759342   0.69227052   -4.6945286    1.4185944      8192000 
   78000   0.93890686   -4.6922772   -4.6922772   -3.2839173   0.65415643   -4.6922772    1.4083599      8192000 
   79000   0.92906381   -4.6850815   -4.6850815   -3.2914861   0.58547979   -4.6850815    1.3935954      8192000 
   80000   0.91461535   -4.6703339   -4.6703339   -3.2984112   0.49409156   -4.6703339    1.3719227      8192000 
   81000   0.89781718   -4.6508118   -4.6508118   -3.3040864    0.3928145   -4.6508118    1.3467254      8192000 
   82000   0.87988841   -4.6290707   -4.6290707   -3.3092384   0.29337569   -4.6290707    1.3198323      8192000 
   83000     0.861621   -4.6058552   -4.6058552    -3.313424   0.20084348   -4.6058552    1.2924312      8192000 
   84000     0.844048    -4.582555    -4.582555   -3.3164833   0.12135225    -4.582555    1.2660717      8192000 
   85000   0.82689261   -4.5593254   -4.5593254   -3.3189868  0.053989607   -4.5593254    1.2403386      8192000 
   86000   0.81133541    -4.537923    -4.537923   -3.3209202 -0.00041660989    -4.537923    1.2170028      8192000 
   87000   0.79768411   -4.5189464   -4.5189464   -3.3224205  -0.04089511   -4.5189464    1.1965259      8192000 
   88000   0.78680423   -4.5041587   -4.5041587   -3.3239526 -0.069633275   -4.5041587     1.180206      8192000 
   89000   0.78117174   -4.4967129   -4.4967129   -3.3249556  -0.08531291   -4.4967129    1.1717573      8192000 
   90000   0.77966308   -4.4955894   -4.4955894   -3.3260951 -0.079013355   -4.4955894    1.1694943      8192000 
   91000   0.78316939   -4.5026578   -4.5026578    -3.327904 -0.064988335   -4.5026578    1.1747538      8192000 
   92000   0.78849099   -4.5129126   -4.5129126   -3.3301764 -0.036880891   -4.5129126    1.1827362      8192000 
   93000   0.79509085   -4.5255716   -4.5255716   -3.3329356 -0.005733622   -4.5255716     1.192636      8192000 
   94000   0.80118157   -4.5375326   -4.5375326   -3.3357606  0.018681516   -4.5375326    1.2017721      8192000 
   95000   0.80560795   -4.5464904   -4.5464904   -3.3380788  0.038514888   -4.5464904    1.2084116      8192000 
   96000   0.80892214   -4.5537328   -4.5537328   -3.3403499  0.053425255   -4.5537328    1.2133829      8192000 
   97000   0.81077553    -4.558366    -4.558366    -3.342203  0.064075031    -4.558366     1.216163      8192000 
   98000   0.81045003   -4.5599221   -4.5599221   -3.3442473  0.061925248   -4.5599221    1.2156747      8192000 
   99000   0.80728102    -4.557375    -4.557375   -3.3464537  0.053782165    -4.557375    1.2109212      8192000 
  100000   0.80341389   -4.5538528   -4.5538528   -3.3487323  0.033929247   -4.5538528    1.2051205      8192000 
  101000   0.79769748   -4.5479364   -4.5479364   -3.3513904  0.012337182   -4.5479364    1.1965459      8192000 
  102000   0.79312578   -4.5433114   -4.5433114   -3.3536231 -0.0057181354   -4.5433114    1.1896884      8192000 
  103000   0.78960311   -4.5400769   -4.5400769   -3.3556725 -0.015890215   -4.5400769    1.1844044      8192000 
  104000   0.78835412   -4.5404174   -4.5404174   -3.3578866 -0.017828436   -4.5404174    1.1825309      8192000 
  105000   0.79007999   -4.5448991   -4.5448991   -3.3597794 -0.0096869577   -4.5448991    1.1851197      8192000 
  106000   0.79342715   -4.5519485   -4.5519485    -3.361808 0.0060630785   -4.5519485    1.1901404      8192000 
  107000   0.79751336   -4.5603362   -4.5603362   -3.3640665  0.024808128   -4.5603362    1.1962697      8192000 
  108000   0.80096576   -4.5678228   -4.5678228   -3.3663745  0.043051657   -4.5678228    1.2014483      8192000 
  109000   0.80386444   -4.5743836   -4.5743836   -3.3685873  0.056427404   -4.5743836    1.2057964      8192000 
  110000    0.8043824   -4.5772199   -4.5772199   -3.3706466  0.064028943   -4.5772199    1.2065733      8192000 
  111000   0.80294289   -4.5770846   -4.5770846   -3.3726706  0.057701632   -4.5770846     1.204414      8192000 
  112000   0.80031734   -4.5749995   -4.5749995   -3.3745238  0.043701154   -4.5749995    1.2004757      8192000 
  113000   0.79608447   -4.5704548   -4.5704548   -3.3763284  0.027907253   -4.5704548    1.1941264      8192000 
  114000   0.79149629   -4.5656478   -4.5656478   -3.3784037  0.012365357   -4.5656478    1.1872441      8192000 
  115000   0.78867738   -4.5632608   -4.5632608    -3.380245 -0.0012654077   -4.5632608    1.1830158      8192000 
  116000   0.78689726   -4.5626307   -4.5626307   -3.3822851 -0.0055063074   -4.5626307    1.1803456      8192000 
  117000   0.78675196   -4.5643125   -4.5643125   -3.3841848 -0.0008460742   -4.5643125    1.1801276      8192000 
  118000   0.78858026    -4.569188    -4.569188   -3.3863179 0.0062896341    -4.569188    1.1828701      8192000 
  119000   0.79147429   -4.5753451   -4.5753451   -3.3881339  0.018986538   -4.5753451    1.1872111      8192000 
  120000   0.79413365   -4.5812851   -4.5812851   -3.3900849   0.03401785   -4.5812851    1.1912002      8192000 
  121000    0.7967485   -4.5869169   -4.5869169   -3.3917945  0.048606259   -4.5869169    1.1951225      8192000 
  122000   0.79794624   -4.5906075   -4.5906075   -3.3936885  0.054271988   -4.5906075    1.1969191      8192000 
  123000   0.79762564   -4.5921953   -4.5921953   -3.3957572  0.055573995   -4.5921953    1.1964382      8192000 
  124000   0.79558754   -4.5911103   -4.5911103   -3.3977293   0.04833843   -4.5911103     1.193381      8192000 
  125000    0.7921384    -4.587747    -4.587747   -3.3995397  0.034438766    -4.587747    1.1882073      8192000 
  126000   0.78831844   -4.5837662   -4.5837662   -3.4012889  0.021914224   -4.5837662    1.1824774      8192000 
  127000    0.7856454   -4.5811849   -4.5811849   -3.4027171 0.0089102768   -4.5811849    1.1784678      8192000 
  128000   0.78355956   -4.5797619   -4.5797619   -3.4044229 0.0033673979   -4.5797619    1.1753391      8192000 
  129000   0.78328837   -4.5812287   -4.5812287   -3.4062964 0.0034343466   -4.5812287    1.1749323      8192000 
  130000   0.78418796   -4.5843503   -4.5843503   -3.4080686 0.0068495827   -4.5843503    1.1762816      8192000 
  131000   0.78602374   -4.5888645   -4.5888645   -3.4098292  0.020017006   -4.5888645    1.1790353      8192000 
  132000   0.78856229   -4.5941984   -4.5941984   -3.4113552  0.031105148   -4.5941984    1.1828431      8192000 
  133000   0.79084137   -4.5990967   -4.5990967   -3.4128349  0.042067312   -4.5990967    1.1862618      8192000 
  134000    0.7923129   -4.6027301   -4.6027301   -3.4142611  0.049405431   -4.6027301    1.1884691      8192000 
  135000   0.79289831   -4.6050321   -4.6050321   -3.4156849  0.050255752   -4.6050321    1.1893472      8192000 
  136000    0.7913023   -4.6044764   -4.6044764   -3.4175232  0.046529713   -4.6044764    1.1869531      8192000 
  137000   0.78910521   -4.6026951   -4.6026951   -3.4190376  0.039977939   -4.6026951    1.1836575      8192000 
  138000   0.78669309   -4.6002257   -4.6002257   -3.4201864  0.030696614   -4.6002257    1.1800393      8192000 
  139000   0.78401874   -4.5979924   -4.5979924   -3.4219645  0.020857037   -4.5979924    1.1760278      8192000 
  140000   0.78181145   -4.5963727   -4.5963727   -3.4236558   0.01224288   -4.5963727    1.1727169      8192000 
  141000   0.78091115   -4.5963128   -4.5963128   -3.4249464  0.011202387   -4.5963128    1.1713664      8192000 
  142000   0.78160315   -4.5988345   -4.5988345   -3.4264301  0.011571915   -4.5988345    1.1724044      8192000 
  143000   0.78306975   -4.6026321   -4.6026321   -3.4280278  0.023280407   -4.6026321    1.1746043      8192000 
  144000   0.78680975   -4.6096816   -4.6096816   -3.4294673  0.037187365   -4.6096816    1.1802143      8192000 
  145000   0.79380514   -4.6216216   -4.6216216   -3.4309142  0.074887441   -4.6216216    1.1907074      8192000 
  146000    0.8049526   -4.6397171   -4.6397171   -3.4322885   0.14442183   -4.6397171    1.2074286      8192000 
  147000   0.81677102   -4.6587162   -4.6587162     -3.43356    0.2303162   -4.6587162    1.2251562      8192000 
  148000   0.82817125   -4.6771666   -4.6771666     -3.43491   0.31170129   -4.6771666    1.2422566      8192000 
  149000   0.83931422   -4.6950733   -4.6950733   -3.4361022   0.37962826   -4.6950733     1.258971      8192000 
  150000   0.84611109   -4.7061295   -4.7061295   -3.4369632   0.41512108   -4.7061295    1.2691663      8192000 
  151000   0.84404442     -4.70425     -4.70425   -3.4381837   0.39212034     -4.70425    1.2660663      8192000 
  152000   0.83342719   -4.6897759   -4.6897759   -3.4396354   0.32084158   -4.6897759    1.2501405      8192000 
  153000   0.81852277   -4.6683956   -4.6683956   -3.4406118   0.23233869   -4.6683956    1.2277839      8192000 
  154000   0.80445936   -4.6484239   -4.6484239   -3.4417351   0.15333308   -4.6484239    1.2066887      8192000 
  155000    0.7921582   -4.6311733   -4.6311733   -3.4429363  0.085951179   -4.6311733     1.188237      8192000 
  156000    0.7811817   -4.6158479   -4.6158479   -3.4440756  0.031566517   -4.6158479    1.1717723      8192000 
  157000   0.77166839   -4.6027214   -4.6027214   -3.4452191 -0.0023346312   -4.6027214    1.1575023      8192000 
  158000    0.7665596   -4.5962229   -4.5962229   -3.4463838 -0.023296129   -4.5962229    1.1498391      8192000 
  159000   0.76489688   -4.5950778   -4.5950778   -3.4477328 -0.027901894   -4.5950778     1.147345      8192000 
  160000   0.76636359   -4.5985169   -4.5985169   -3.4489718 -0.016006797   -4.5985169    1.1495451      8192000 
  161000   0.77028214   -4.6054635   -4.6054635   -3.4500406 0.0016260466   -4.6054635    1.1554229      8192000 
  162000   0.77485113   -4.6136252   -4.6136252   -3.4513488  0.020787292   -4.6136252    1.1622764      8192000 
  163000   0.77920619   -4.6211509   -4.6211509   -3.4523419  0.040857387   -4.6211509     1.168809      8192000 
  164000   0.78400136   -4.6294189   -4.6294189   -3.4534171  0.062238888   -4.6294189    1.1760017      8192000 
  165000   0.78736442     -4.63563     -4.63563   -3.4545837  0.077555679     -4.63563    1.1810463      8192000 
  166000   0.78782675   -4.6374837   -4.6374837   -3.4557439  0.078858455   -4.6374837    1.1817398      8192000 
  167000   0.78449689   -4.6335901   -4.6335901   -3.4568451  0.068395458   -4.6335901     1.176745      8192000 
  168000   0.78055011   -4.6284584   -4.6284584   -3.4576335  0.052890923   -4.6284584    1.1708249      8192000 
  169000    0.7756975    -4.622414    -4.622414    -3.458868  0.030508347    -4.622414     1.163546      8192000 
  170000   0.76995143   -4.6149183   -4.6149183   -3.4599914 0.0098222334   -4.6149183    1.1549269      8192000 
  171000   0.76523653   -4.6089964   -4.6089964   -3.4611419 -0.0071696959   -4.6089964    1.1478545      8192000 
  172000   0.76220905      -4.6056      -4.6056   -3.4622868 -0.023164939      -4.6056    1.1433133      8192000 
  173000   0.76153548   -4.6056029   -4.6056029      -3.4633  -0.02314063   -4.6056029    1.1423029      8192000 
  174000   0.76303737   -4.6088415   -4.6088415   -3.4642858 -0.014477031   -4.6088415    1.1445558      8192000 
  175000   0.76659604   -4.6151412   -4.6151412   -3.4652475 0.0013856569   -4.6151412    1.1498938      8192000 
  176000   0.77107447   -4.6226317   -4.6226317   -3.4660203  0.022975858   -4.6226317    1.1566114      8192000 
  177000   0.77495796   -4.6296217   -4.6296217    -3.467185  0.040188068   -4.6296217    1.1624367      8192000 
  178000   0.77892997   -4.6366827   -4.6366827    -3.468288  0.054945275   -4.6366827    1.1683947      8192000 
  179000   0.78111695   -4.6406095   -4.6406095   -3.4689344  0.063526771   -4.6406095    1.1716751      8192000 
  180000   0.78082457   -4.6407959   -4.6407959   -3.4695593  0.065721795   -4.6407959    1.1712366      8192000 
  181000   0.77820173   -4.6376299   -4.6376299   -3.4703276  0.056413675   -4.6376299    1.1673023      8192000 
  182000   0.77430792   -4.6327286   -4.6327286    -3.471267  0.039354568   -4.6327286    1.1614616      8192000 
  183000   0.76967727   -4.6267914   -4.6267914   -3.4722758  0.020337265   -4.6267914    1.1545156      8192000 
  184000   0.76549282   -4.6212848   -4.6212848   -3.4730459 0.0024698148   -4.6212848    1.1482389      8192000 
  185000   0.76171417   -4.6167256   -4.6167256   -3.4741546 -0.011933281   -4.6167256     1.142571      8192000 
  186000   0.76047093    -4.615708    -4.615708   -3.4750019 -0.017862857    -4.615708    1.1407061      8192000 
  187000    0.7605944   -4.6167149   -4.6167149   -3.4758236 -0.013495584   -4.6167149    1.1408913      8192000 
  188000   0.76241848   -4.6204252   -4.6204252   -3.4767978 -0.0054519631   -4.6204252    1.1436274      8192000 
  189000   0.76581192   -4.6261422   -4.6261422   -3.4774246 0.0090887507   -4.6261422    1.1487176      8192000 
  190000   0.76974376   -4.6328843   -4.6328843    -3.478269  0.024085594   -4.6328843    1.1546154      8192000 
  191000   0.77313112   -4.6386545   -4.6386545   -3.4789581  0.041523013   -4.6386545    1.1596964      8192000 
  192000   0.77603354   -4.6436646   -4.6436646   -3.4796146  0.052847241   -4.6436646      1.16405      8192000 
  193000   0.77673084   -4.6453697   -4.6453697   -3.4802738  0.058195242   -4.6453697     1.165096      8192000 
  194000    0.7759657   -4.6451575   -4.6451575   -3.4812092  0.055788294   -4.6451575    1.1639483      8192000 
  195000   0.77338291   -4.6420282   -4.6420282   -3.4819542  0.043719535   -4.6420282    1.1600741      8192000 
  196000    0.7696992   -4.6371757   -4.6371757   -3.4826271  0.027291754   -4.6371757    1.1545485      8192000 
  197000   0.76574585   -4.6320528   -4.6320528   -3.4834343  0.012009492   -4.6320528    1.1486185      8192000 
  198000    0.7633578   -4.6292991   -4.6292991   -3.4842627 -0.0025111761   -4.6292991    1.1450364      8192000 
  199000   0.76070078   -4.6262592   -4.6262592   -3.4852083 -0.0092849157   -4.6262592    1.1410509      8192000 
  200000   0.76006276   -4.6261687   -4.6261687   -3.4860749 -0.011285081   -4.6261687    1.1400938      8192000 
  201000   0.76139948   -4.6288947   -4.6288947   -3.4867958 -0.0064589614   -4.6288947    1.1420989      8192000 
  202000   0.76354336   -4.6329875   -4.6329875   -3.4876728 0.0055509772   -4.6329875    1.1453147      8192000 
  203000   0.76703722    -4.638535    -4.638535   -3.4879794  0.017094371    -4.638535    1.1505555      8192000 
  204000   0.77024811   -4.6438539   -4.6438539    -3.488482  0.034341697   -4.6438539    1.1553719      8192000 
  205000   0.77248291   -4.6479925   -4.6479925   -3.4892684  0.047457465   -4.6479925    1.1587241      8192000 
  206000   0.77405349   -4.6508811   -4.6508811   -3.4898011  0.050295605   -4.6508811    1.1610799      8192000 
  207000   0.77349595   -4.6507119   -4.6507119   -3.4904683  0.050165182   -4.6507119    1.1602436      8192000 
  208000   0.77181562   -4.6486226   -4.6486226   -3.4908995  0.041049236   -4.6486226    1.1577231      8192000 
  209000   0.76929674   -4.6453057   -4.6453057   -3.4913608  0.028679657   -4.6453057    1.1539448      8192000 
  210000   0.76586812   -4.6406193   -4.6406193   -3.4918174  0.017412294   -4.6406193    1.1488019      8192000 
  211000    0.7630184   -4.6369137   -4.6369137   -3.4923864 0.0055334116   -4.6369137    1.1445273      8192000 
  212000    0.7613794   -4.6353767   -4.6353767   -3.4933079 -0.0038079693   -4.6353767    1.1420688      8192000 
  213000   0.76030589   -4.6345686   -4.6345686   -3.4941101 -0.0040780289   -4.6345686    1.1404585      8192000 
  214000   0.76081961   -4.6361743   -4.6361743   -3.4949452 -0.0014584114   -4.6361743    1.1412291      8192000 
  215000   0.76254292   -4.6392673   -4.6392673   -3.4954532 0.0058025374   -4.6392673    1.1438141      8192000 
  216000   0.76600775   -4.6451033   -4.6451033   -3.4960919   0.01525286   -4.6451033    1.1490113      8192000 
  217000   0.76857517   -4.6493995   -4.6493995   -3.4965371  0.028849801   -4.6493995    1.1528625      8192000 
  218000   0.77077183   -4.6534553   -4.6534553   -3.4972979  0.039209342   -4.6534553    1.1561575      8192000 
  219000   0.77227616   -4.6564073   -4.6564073   -3.4979934  0.045505355   -4.6564073    1.1584139      8192000 
  220000   0.77213818   -4.6567047   -4.6567047   -3.4984978  0.046988964   -4.6567047     1.158207      8192000 
  221000   0.77096405   -4.6554319   -4.6554319   -3.4989861  0.039469993   -4.6554319    1.1564458      8192000 
  222000   0.76879863   -4.6526256   -4.6526256   -3.4994279  0.030134743   -4.6526256    1.1531977      8192000 
  223000   0.76624655   -4.6491638   -4.6491638   -3.4997943  0.019396743   -4.6491638    1.1493695      8192000 
  224000   0.76349139   -4.6453785   -4.6453785   -3.5001417 0.0082397112   -4.6453785    1.1452368      8192000 
  225000   0.76170604   -4.6433543   -4.6433543   -3.5007956 0.00053104609   -4.6433543    1.1425588      8192000 
  226000   0.76061995   -4.6422859   -4.6422859   -3.5013562 -0.00052963467   -4.6422859    1.1409296      8192000 
  227000   0.76060555   -4.6427406   -4.6427406   -3.5018325 0.00037688967   -4.6427406     1.140908      8192000 
  228000   0.76234353   -4.6458638   -4.6458638   -3.5023488 0.0067600947   -4.6458638     1.143515      8192000 
  229000    0.7646012   -4.6496951   -4.6496951   -3.5027935  0.018034032   -4.6496951    1.1469015      8192000 
  230000   0.76735349    -4.653922    -4.653922    -3.502892  0.025289987    -4.653922      1.15103      8192000 
  231000   0.76923773   -4.6571818   -4.6571818   -3.5033255  0.036339354   -4.6571818    1.1538563      8192000 
  232000   0.77049454   -4.6596649   -4.6596649   -3.5039234  0.040900925   -4.6596649    1.1557415      8192000 
  233000   0.77044813   -4.6601018   -4.6601018   -3.5044299  0.043614786   -4.6601018    1.1556719      8192000 
  234000   0.77018396   -4.6600354   -4.6600354   -3.5047598  0.038687495   -4.6600354    1.1552757      8192000 
  235000   0.76789923   -4.6570843   -4.6570843   -3.5052358  0.029894939   -4.6570843    1.1518485      8192000 
  236000   0.76582083   -4.6546127   -4.6546127   -3.5058817  0.019226094   -4.6546127     1.148731      8192000 
  237000   0.76370518    -4.651526    -4.651526   -3.5059685  0.011952429    -4.651526    1.1455575      8192000 
  238000   0.76223592   -4.6499166   -4.6499166    -3.506563 0.0045069421   -4.6499166    1.1433536      8192000 
  239000   0.76127539   -4.6488967   -4.6488967   -3.5069839 0.0025555577   -4.6488967    1.1419128      8192000 
  240000   0.76143261   -4.6491854   -4.6491854   -3.5070368 0.0042201683   -4.6491854    1.1421486      8192000 
  241000   0.76265284   -4.6514019   -4.6514019    -3.507423 0.0090398666   -4.6514019     1.143979      8192000 
  242000   0.76458657   -4.6545749   -4.6545749   -3.5076953   0.01523827   -4.6545749    1.1468796      8192000 
  243000   0.76658519   -4.6582078   -4.6582078   -3.5083303  0.025039392   -4.6582078    1.1498775      8192000 
  244000   0.76852392   -4.6613056   -4.6613056     -3.50852   0.03265281   -4.6613056    1.1527856      8192000 
  245000   0.76962424   -4.6632428   -4.6632428   -3.5088068  0.038481608   -4.6632428    1.1544361      8192000 
  246000   0.77018062   -4.6645613   -4.6645613   -3.5092906  0.039737109   -4.6645613    1.1552706      8192000 
  247000   0.76909226   -4.6632656   -4.6632656   -3.5096275  0.037869231   -4.6632656    1.1536381      8192000 
  248000   0.76791054    -4.661752    -4.661752   -3.5098864  0.031484558    -4.661752    1.1518655      8192000 
  249000   0.76612919   -4.6594839   -4.6594839   -3.5102904  0.022185996   -4.6594839    1.1491935      8192000 
  250000   0.76427217   -4.6571343   -4.6571343   -3.5107263  0.015585292   -4.6571343     1.146408      8192000 
  251000   0.76257161   -4.6546296   -4.6546296   -3.5107725  0.010302548   -4.6546296    1.1438571      8192000 
  252000   0.76206575    -4.654296    -4.654296   -3.5111977 0.0092136345    -4.654296    1.1430983      8192000 
  253000   0.76217441   -4.6545817   -4.6545817   -3.5113204 0.0091550971   -4.6545817    1.1432613      8192000 
  254000   0.76303185   -4.6561196   -4.6561196   -3.5115721  0.011577849   -4.6561196    1.1445475      8192000 
  255000   0.76436023   -4.6587076   -4.6587076   -3.5121675  0.018281999   -4.6587076    1.1465401      8192000 
  256000   0.76604966   -4.6615831   -4.6615831   -3.5125089  0.024138833   -4.6615831    1.1490742      8192000 
  257000   0.76760198   -4.6643426   -4.6643426   -3.5129399  0.029110689   -4.6643426    1.1514027      8192000 
  258000   0.76894526   -4.6663859   -4.6663859   -3.5129683   0.03555146   -4.6663859    1.1534176      8192000 
  259000   0.76972689   -4.6679224   -4.6679224   -3.5133323  0.038309662   -4.6679224      1.15459      8192000 
  260000   0.77004703   -4.6687206   -4.6687206   -3.5136504  0.038449349   -4.6687206    1.1550702      8192000 
  261000   0.76901349   -4.6672608   -4.6672608   -3.5137408  0.038908056   -4.6672608    1.1535199      8192000 
  262000   0.76808038   -4.6662627   -4.6662627   -3.5141424  0.034602903   -4.6662627    1.1521203      8192000 
  263000   0.76682652   -4.6648839   -4.6648839   -3.5146445  0.031180704   -4.6648839    1.1502395      8192000 
  264000   0.76625188   -4.6641467   -4.6641467   -3.5147691  0.027010818   -4.6641467    1.1493775      8192000 
  265000   0.76618778   -4.6641342   -4.6641342   -3.5148528  0.022949802   -4.6641342    1.1492814      8192000 
  266000   0.76589704   -4.6640316   -4.6640316   -3.5151863  0.024249252   -4.6640316    1.1488453      8192000 
  267000   0.76648782   -4.6649696   -4.6649696   -3.5152382  0.027108144   -4.6649696    1.1497314      8192000 
  268000   0.76764968   -4.6665835   -4.6665835   -3.5151093   0.03259536   -4.6665835    1.1514742      8192000 
  269000   0.76887871   -4.6687331   -4.6687331   -3.5154153  0.037299576   -4.6687331    1.1533178      8192000 
  270000   0.77069049   -4.6717763   -4.6717763   -3.5157408  0.043278407   -4.6717763    1.1560355      8192000 
  271000   0.77205912   -4.6737647   -4.6737647   -3.5156763   0.05054425   -4.6737647    1.1580884      8192000 
  272000   0.77394208   -4.6769182   -4.6769182   -3.5160053  0.058643867   -4.6769182    1.1609128      8192000 
  273000   0.77562992   -4.6797972   -4.6797972   -3.5163526  0.068909025   -4.6797972    1.1634446      8192000 
  274000   0.77866705    -4.685082    -4.685082   -3.5170817   0.08269826    -4.685082    1.1680003      8192000 
  275000   0.78180229    -4.690511    -4.690511   -3.5178079   0.10448788    -4.690511    1.1727031      8192000 
  276000   0.78553376   -4.6972918   -4.6972918   -3.5189914     0.127937   -4.6972918    1.1783003      8192000 
  277000   0.78912756   -4.7044133   -4.7044133   -3.5207223   0.15138515   -4.7044133     1.183691      8192000 
  278000   0.79198863   -4.7106327   -4.7106327   -3.5226501   0.17018869   -4.7106327    1.1879826      8192000 
  279000   0.79415272   -4.7157271   -4.7157271   -3.5244983   0.18338639   -4.7157271    1.1912288      8192000 
  280000   0.79510946   -4.7186736   -4.7186736   -3.5260097   0.18938124   -4.7186736    1.1926639      8192000 
  281000   0.79453966   -4.7193372   -4.7193372    -3.527528      0.18437   -4.7193372    1.1918092      8192000 
  282000   0.79254119   -4.7175055   -4.7175055    -3.528694   0.17468786   -4.7175055    1.1888115      8192000 
  283000   0.78990989   -4.7144927   -4.7144927   -3.5296282   0.16216016   -4.7144927    1.1848645      8192000 
  284000   0.78660077   -4.7104435   -4.7104435   -3.5305426   0.14433432   -4.7104435    1.1799009      8192000 
  285000   0.78268211   -4.7057094   -4.7057094   -3.5316865   0.12308244   -4.7057094    1.1740229      8192000 
  286000   0.77759637   -4.6985574   -4.6985574   -3.5321631  0.098780911   -4.6985574    1.1663943      8192000 
  287000   0.77203336   -4.6906705   -4.6906705   -3.5326208  0.073026087   -4.6906705    1.1580497      8192000 
  288000    0.7663763   -4.6821666   -4.6821666   -3.5326025  0.044692966   -4.6821666    1.1495642      8192000 
  289000   0.76119408   -4.6740442   -4.6740442   -3.5322534  0.015935544   -4.6740442    1.1417908      8192000 
  290000   0.75578199   -4.6652278   -4.6652278   -3.5315551 -0.0094000396   -4.6652278    1.1336727      8192000 
  291000   0.75155983    -4.657817    -4.657817   -3.5304775 -0.030563367    -4.657817    1.1273395      8192000 
  292000   0.74703901   -4.6494897   -4.6494897   -3.5289315 -0.050463658   -4.6494897    1.1205582      8192000 
  293000   0.74319041   -4.6420212   -4.6420212   -3.5272359 -0.068473036   -4.6420212    1.1147853      8192000 
  294000    0.7393341    -4.634412    -4.634412   -3.5254112 -0.083353409    -4.634412    1.1090009      8192000 
  295000   0.73611432   -4.6277452   -4.6277452    -3.523574 -0.096577585   -4.6277452    1.1041712      8192000 
  296000   0.73363832   -4.6218236   -4.6218236   -3.5213664  -0.10719518   -4.6218236    1.1004572      8192000 
  297000   0.73162018   -4.6169881   -4.6169881   -3.5195581  -0.11433202   -4.6169881      1.09743      8192000 
  298000   0.73067173   -4.6132543   -4.6132543    -3.517247  -0.11802102   -4.6132543    1.0960073      8192000 
  299000   0.73061608   -4.6110757   -4.6110757   -3.5151519  -0.11824056   -4.6110757    1.0959239      8192000 
  300000   0.73136251   -4.6100658   -4.6100658   -3.5130223  -0.11463945   -4.6100658    1.0970435      8192000 
  301000   0.73300893   -4.6106742   -4.6106742   -3.5111611  -0.10811565   -4.6106742    1.0995131      8192000 
  302000   0.73566319   -4.6126153   -4.6126153   -3.5091208  -0.10042996   -4.6126153    1.1034945      8192000 
  303000    0.7381492   -4.6145433   -4.6145433   -3.5073198 -0.087642265   -4.6145433    1.1072235      8192000 
  304000   0.74185294    -4.618768    -4.618768   -3.5059888 -0.075584961    -4.618768    1.1127791      8192000 
  305000    0.7455291   -4.6228071   -4.6228071   -3.5045137 -0.058924076   -4.6228071    1.1182934      8192000 
  306000   0.74983962   -4.6280755   -4.6280755   -3.5033163 -0.040521346   -4.6280755    1.1247592      8192000 
  307000   0.75381894   -4.6333194   -4.6333194   -3.5025913 -0.020713141   -4.6333194    1.1307281      8192000 
  308000   0.75826172   -4.6392343   -4.6392343   -3.5018421 -0.00090592552   -4.6392343    1.1373923      8192000 
  309000     0.761991   -4.6441683   -4.6441683   -3.5011821  0.021214824   -4.6441683    1.1429862      8192000 
  310000   0.76584626   -4.6499347   -4.6499347   -3.5011656  0.042298703   -4.6499347    1.1487691      8192000 
  311000   0.76975811   -4.6560021   -4.6560021   -3.5013652  0.061179667   -4.6560021    1.1546369      8192000 
  312000   0.77299199   -4.6613909   -4.6613909   -3.5019033  0.081339012   -4.6613909    1.1594877      8192000 
  313000   0.77551504   -4.6659076   -4.6659076   -3.5026354  0.098099706   -4.6659076    1.1632723      8192000 
  314000   0.77805935   -4.6707775   -4.6707775   -3.5036888    0.1094248   -4.6707775    1.1670887      8192000 
  315000   0.78021106   -4.6753187   -4.6753187   -3.5050024   0.12033716   -4.6753187    1.1703163      8192000 
  316000   0.78093975    -4.677535    -4.677535   -3.5061257   0.12946423    -4.677535    1.1714093      8192000 
  317000   0.78150362   -4.6794188   -4.6794188   -3.5071637   0.13133917   -4.6794188    1.1722551      8192000 
  318000   0.78071412    -4.679052    -4.679052   -3.5079811   0.13144212    -4.679052    1.1710709      8192000 
  319000   0.77998644   -4.6786506   -4.6786506   -3.5086712   0.12410297   -4.6786506    1.1699794      8192000 
  320000   0.77780811   -4.6760747   -4.6760747   -3.5093628   0.11489987   -4.6760747    1.1667119      8192000 
  321000   0.77522326   -4.6726061   -4.6726061   -3.5097715   0.10311671   -4.6726061    1.1628346      8192000 
  322000   0.77256987   -4.6686826   -4.6686826   -3.5098281  0.088961631   -4.6686826    1.1588545      8192000 
  323000    0.7690329   -4.6634545   -4.6634545   -3.5099055  0.073024628   -4.6634545    1.1535491      8192000 
  324000   0.76526817   -4.6571945   -4.6571945   -3.5092926  0.056290205   -4.6571945     1.147902      8192000 
  325000   0.76208033   -4.6516699   -4.6516699   -3.5085497  0.036635248   -4.6516699    1.1431202      8192000 
  326000   0.75859684   -4.6456892   -4.6456892   -3.5077942  0.016229459   -4.6456892     1.137895      8192000 
  327000   0.75546659    -4.639372    -4.639372   -3.5061724 -0.0023566683    -4.639372    1.1331996      8192000 
  328000    0.7516793   -4.6320598   -4.6320598   -3.5045411 -0.017404732   -4.6320598    1.1275187      8192000 
  329000   0.74887232   -4.6261606   -4.6261606   -3.5028524 -0.033586186   -4.6261606    1.1233082      8192000 
  330000   0.74624749    -4.620333    -4.620333   -3.5009621 -0.046767368    -4.620333    1.1193709      8192000 
  331000   0.74325776   -4.6136794   -4.6136794    -3.498793 -0.055784822   -4.6136794    1.1148864      8192000 
  332000   0.74192942   -4.6092805   -4.6092805   -3.4963867 -0.065756945   -4.6092805    1.1128939      8192000 
  333000   0.73994334   -4.6040335   -4.6040335   -3.4941187  -0.07314817   -4.6040335    1.1099147      8192000 
  334000    0.7385816   -4.5995138   -4.5995138   -3.4916417 -0.076450154   -4.5995138    1.1078721      8192000 
  335000   0.73832009   -4.5967106   -4.5967106   -3.4892307 -0.080560567   -4.5967106    1.1074799      8192000 
  336000   0.73845803   -4.5946853   -4.5946853   -3.4869985 -0.079315245   -4.5946853    1.1076868      8192000 
  337000   0.73943005   -4.5939965   -4.5939965   -3.4848517 -0.077619753   -4.5939965    1.1091448      8192000 
  338000    0.7406142   -4.5934382   -4.5934382   -3.4825172 -0.072704544   -4.5934382     1.110921      8192000 
  339000   0.74198074   -4.5934711   -4.5934711   -3.4805002 -0.063451192   -4.5934711    1.1129708      8192000 
  340000   0.74392938   -4.5947175   -4.5947175   -3.4788237 -0.057490391   -4.5947175    1.1158938      8192000 
  341000   0.74643699   -4.5967088   -4.5967088   -3.4770536 -0.047362684   -4.5967088    1.1196552      8192000 
  342000   0.74857983   -4.5984828   -4.5984828   -3.4756134 -0.034955701   -4.5984828    1.1228695      8192000 
  343000   0.75146832   -4.6015264   -4.6015264   -3.4743242 -0.021288295   -4.6015264    1.1272022      8192000 
  344000   0.75414007   -4.6046177   -4.6046177   -3.4734079 -0.0085812539   -4.6046177    1.1312098      8192000 
  345000   0.75718873   -4.6086606   -4.6086606   -3.4728778 0.0039458697   -4.6086606    1.1357828      8192000 
  346000   0.75937333   -4.6117681   -4.6117681   -3.4727084  0.019218878   -4.6117681    1.1390597      8192000 
  347000   0.76167844   -4.6151229   -4.6151229   -3.4726056  0.033371366   -4.6151229    1.1425174      8192000 
  348000   0.76415911   -4.6188852   -4.6188852   -3.4726469  0.044269328   -4.6188852    1.1462384      8192000 
  349000   0.76584336   -4.6214672   -4.6214672   -3.4727025  0.055638555   -4.6214672    1.1487648      8192000 
  350000   0.76749847   -4.6243302   -4.6243302   -3.4730827   0.06733527   -4.6243302    1.1512474      8192000 
  351000   0.76899013   -4.6264939   -4.6264939    -3.473009  0.075333524   -4.6264939    1.1534849      8192000 
  352000   0.77010266   -4.6284643   -4.6284643   -3.4733106  0.082463659   -4.6284643    1.1551537      8192000 
  353000   0.77052444   -4.6294731   -4.6294731   -3.4736867  0.086870938   -4.6294731    1.1557864      8192000 
  354000   0.77089005   -4.6302511   -4.6302511   -3.4739163  0.089579998   -4.6302511    1.1563348      8192000 
  355000   0.77094586   -4.6304629   -4.6304629   -3.4740444  0.087387314   -4.6304629    1.1564185      8192000 
  356000   0.77029873   -4.6292204   -4.6292204   -3.4737726  0.083027074   -4.6292204    1.1554478      8192000 
  357000   0.76893296   -4.6271324   -4.6271324   -3.4737333  0.077908955   -4.6271324    1.1533991      8192000 
  358000   0.76747829   -4.6246902   -4.6246902   -3.4734731  0.070746478   -4.6246902    1.1512171      8192000 
  359000   0.76586144   -4.6218841   -4.6218841   -3.4730922  0.060528394   -4.6218841    1.1487919      8192000 
  360000   0.76354683   -4.6178974   -4.6178974   -3.4725774  0.051072982   -4.6178974      1.14532      8192000 
  361000   0.76123391   -4.6139298   -4.6139298   -3.4720792  0.039940746   -4.6139298    1.1418506      8192000 
  362000   0.75940327   -4.6103269   -4.6103269   -3.4712223  0.028282278   -4.6103269    1.1391046      8192000 
  363000   0.75707383   -4.6054765   -4.6054765   -3.4698661  0.016230539   -4.6054765    1.1356105      8192000 
  364000   0.75501272   -4.6012235   -4.6012235   -3.4687047 0.0045719572   -4.6012235    1.1325188      8192000 
  365000   0.75298621   -4.5968135   -4.5968135   -3.4673344 -0.0067212937   -4.5968135     1.129479      8192000 
  366000   0.75101073   -4.5921389   -4.5921389   -3.4656231 -0.017703364   -4.5921389    1.1265158      8192000 
  367000   0.74945784   -4.5879295   -4.5879295    -3.463743  -0.02462637   -4.5879295    1.1241865      8192000 
  368000   0.74783574   -4.5839735   -4.5839735   -3.4622202 -0.031986397   -4.5839735    1.1217533      8192000 
  369000   0.74667903   -4.5807398   -4.5807398   -3.4607215 -0.039405565   -4.5807398    1.1200183      8192000 
  370000    0.7457856   -4.5778788   -4.5778788   -3.4592007 -0.044006555   -4.5778788    1.1186781      8192000 
  371000   0.74493738   -4.5750312   -4.5750312   -3.4576254 -0.047155395   -4.5750312    1.1174058      8192000 
  372000   0.74441848   -4.5729388   -4.5729388   -3.4563114 -0.050658963   -4.5729388    1.1166274      8192000 
  373000   0.74440003   -4.5716301   -4.5716301   -3.4550303 -0.051906129   -4.5716301    1.1165998      8192000 
  374000   0.74505414   -4.5714079   -4.5714079    -3.453827 -0.050472437   -4.5714079    1.1175809      8192000 
  375000   0.74555767   -4.5709036   -4.5709036   -3.4525674 -0.048723967   -4.5709036    1.1183362      8192000 
  376000   0.74663598   -4.5719101   -4.5719101   -3.4519564   -0.0454618   -4.5719101    1.1199537      8192000 
  377000   0.74716487   -4.5723819   -4.5723819   -3.4516349 -0.038316221   -4.5723819     1.120747      8192000 
  378000   0.74886107   -4.5745319   -4.5745319   -3.4512406 -0.035564728   -4.5745319    1.1232913      8192000 
  379000   0.75023926     -4.57648     -4.57648   -3.4511214 -0.027792365     -4.57648    1.1253586      8192000 
  380000   0.75183168   -4.5787232   -4.5787232    -3.450976 -0.019713156   -4.5787232    1.1277472      8192000 
  381000   0.75375472   -4.5818858   -4.5818858    -3.451254 -0.011928659   -4.5818858    1.1306318      8192000 
  382000   0.75582233   -4.5851377   -4.5851377   -3.4514044 -0.0036121912   -4.5851377    1.1337332      8192000 
  383000    0.7570407   -4.5876341   -4.5876341   -3.4520734 0.0072837408   -4.5876341    1.1355608      8192000 
  384000   0.75910765   -4.5913811   -4.5913811   -3.4527199  0.015787075   -4.5913811    1.1386612      8192000 
  385000   0.76034522   -4.5939506   -4.5939506    -3.453433  0.026215298   -4.5939506    1.1405176      8192000 
  386000   0.76156265   -4.5966047   -4.5966047    -3.454261  0.034858862   -4.5966047    1.1423437      8192000 
  387000   0.76273237   -4.5994734   -4.5994734   -3.4553751   0.04116169   -4.5994734    1.1440983      8192000 
  388000   0.76414139   -4.6022454   -4.6022454   -3.4560336  0.046578972   -4.6022454    1.1462118      8192000 
  389000   0.76525213    -4.604625    -4.604625   -3.4567471  0.052098833    -4.604625    1.1478779      8192000 
  390000   0.76567071   -4.6063483   -4.6063483   -3.4578425  0.057067214   -4.6063483    1.1485058      8192000 
  391000   0.76594004   -4.6078637   -4.6078637   -3.4589539  0.058824067   -4.6078637    1.1489098      8192000 
  392000   0.76594673   -4.6085078   -4.6085078   -3.4595879  0.062533386   -4.6085078    1.1489198      8192000 
  393000    0.7661183   -4.6094764   -4.6094764   -3.4602993  0.061381012   -4.6094764    1.1491772      8192000 
  394000   0.76541724   -4.6090835   -4.6090835   -3.4609579  0.060265413   -4.6090835    1.1481256      8192000 
  395000    0.7650714   -4.6088955   -4.6088955   -3.4612887  0.056145963   -4.6088955    1.1476068      8192000 
  396000   0.76408447   -4.6077356   -4.6077356   -3.4616091  0.051144946   -4.6077356    1.1461264      8192000 
  397000   0.76312079   -4.6063932   -4.6063932   -3.4617124  0.045867457   -4.6063932    1.1446809      8192000 
  398000    0.7616096   -4.6041108   -4.6041108   -3.4616967  0.041704738   -4.6041108    1.1424141      8192000 
  399000   0.76061722   -4.6024557   -4.6024557   -3.4615302  0.032121094   -4.6024557    1.1409255      8192000 
  400000   0.75906674   -4.5998871   -4.5998871   -3.4612873  0.025846174   -4.5998871    1.1385998      8192000 
  401000   0.75765711   -4.5972925   -4.5972925   -3.4608071   0.01846647   -4.5972925    1.1364854      8192000 
  402000   0.75644215   -4.5951235   -4.5951235   -3.4604606  0.009039455   -4.5951235    1.1346629      8192000 
  403000   0.75539422   -4.5928223   -4.5928223   -3.4597312 0.0027895415   -4.5928223     1.133091      8192000 
  404000   0.75376873   -4.5898657   -4.5898657   -3.4592129 -0.0051402585   -4.5898657    1.1306528      8192000 
  405000   0.75240485   -4.5871114   -4.5871114   -3.4585044 -0.011167617   -4.5871114     1.128607      8192000 
  406000   0.75111371   -4.5842571   -4.5842571   -3.4575868 -0.014895565   -4.5842571    1.1266703      8192000 
  407000   0.75056039    -4.582521    -4.582521   -3.4566807  -0.02064437    -4.582521    1.1258403      8192000 
  408000   0.75000632   -4.5808654   -4.5808654   -3.4558562 -0.024858687   -4.5808654    1.1250092      8192000 
  409000   0.74963144   -4.5795899   -4.5795899    -3.455143 -0.029751734   -4.5795899    1.1244469      8192000 
  410000   0.74919507   -4.5783004   -4.5783004   -3.4545081 -0.030695343   -4.5783004    1.1237923      8192000 
  411000   0.74899168   -4.5774677   -4.5774677   -3.4539805 -0.030231619   -4.5774677    1.1234872      8192000 
  412000   0.74918038    -4.577279    -4.577279   -3.4535087 -0.031486962    -4.577279    1.1237703      8192000 
  413000   0.74940886   -4.5773251   -4.5773251   -3.4532121 -0.029053057   -4.5773251     1.124113      8192000 
  414000   0.74975279   -4.5776041   -4.5776041   -3.4529752 -0.027472664   -4.5776041    1.1246289      8192000 
  415000   0.74998568   -4.5780713   -4.5780713   -3.4530931 -0.025254488   -4.5780713    1.1249782      8192000 
  416000    0.7512691   -4.5797321   -4.5797321   -3.4528287 -0.021408232   -4.5797321    1.1269034      8192000 
  417000   0.75214781   -4.5809436   -4.5809436   -3.4527222 -0.016032379   -4.5809436    1.1282214      8192000 
  418000   0.75319477   -4.5825137   -4.5825137   -3.4527218 -0.010312182   -4.5825137    1.1297919      8192000 
  419000   0.75445508   -4.5844656   -4.5844656   -3.4527832 -0.004359587   -4.5844656    1.1316823      8192000 
  420000   0.75559342    -4.586616    -4.586616   -3.4532261 0.0015350822    -4.586616    1.1333898      8192000 
  421000   0.75673262   -4.5890274   -4.5890274   -3.4539287 0.0083088785   -4.5890274    1.1350987      8192000 
  422000   0.75785902   -4.5912497   -4.5912497   -3.4544615  0.012398009   -4.5912497    1.1367882      8192000 
  423000   0.75887593   -4.5930553   -4.5930553   -3.4547417  0.020944573   -4.5930553    1.1383136      8192000 
  424000    0.7601794   -4.5956757   -4.5956757   -3.4554069  0.025450285   -4.5956757    1.1402688      8192000 
  425000   0.76125816   -4.5976786   -4.5976786   -3.4557917  0.030676821   -4.5976786     1.141887      8192000 
  426000   0.76210764   -4.5995507   -4.5995507   -3.4563896  0.035254966   -4.5995507    1.1431612      8192000 
  427000    0.7625214   -4.6010749   -4.6010749   -3.4572931  0.038716687   -4.6010749    1.1437818      8192000 
  428000   0.76270381   -4.6021982   -4.6021982   -3.4581427  0.042193208   -4.6021982    1.1440554      8192000 
  429000   0.76257183   -4.6024481   -4.6024481   -3.4585906  0.043798458   -4.6024481    1.1438575      8192000 
  430000   0.76319463   -4.6040113   -4.6040113   -3.4592196  0.044537447   -4.6040113    1.1447917      8192000 
  431000   0.76314583   -4.6045067   -4.6045067   -3.4597882  0.044739373   -4.6045067    1.1447185      8192000 
  432000   0.76269628   -4.6040674   -4.6040674   -3.4600232  0.045064911   -4.6040674    1.1440441      8192000 
  433000   0.76252287   -4.6040616   -4.6040616   -3.4602775  0.041750323   -4.6040616     1.143784      8192000 
  434000   0.76182566   -4.6030232   -4.6030232    -3.460285  0.039142433   -4.6030232    1.1427382      8192000 
  435000   0.76107333   -4.6018631   -4.6018631   -3.4602534  0.036910556   -4.6018631    1.1416097      8192000 
  436000   0.76054067   -4.6012554   -4.6012554   -3.4604447  0.031713774   -4.6012554    1.1408107      8192000 
  437000   0.75974822   -4.5998832   -4.5998832   -3.4602612  0.026145488   -4.5998832     1.139622      8192000 
  438000   0.75835176   -4.5976808   -4.5976808   -3.4601534  0.023619014   -4.5976808    1.1375274      8192000 
  439000   0.75755611   -4.5960688   -4.5960688   -3.4597349   0.01724471   -4.5960688    1.1363339      8192000 
  440000   0.75668221   -4.5941187   -4.5941187   -3.4590957  0.011993794   -4.5941187     1.135023      8192000 
  441000   0.75580273   -4.5924322   -4.5924322   -3.4587284 0.0072864486   -4.5924322    1.1337038      8192000 
  442000   0.75512399   -4.5905405   -4.5905405   -3.4578548 0.0017480519   -4.5905405    1.1326857      8192000 
  443000    0.7539639   -4.5884132   -4.5884132   -3.4574676 -0.0021443363   -4.5884132    1.1309456      8192000 
  444000   0.75340671   -4.5870707   -4.5870707   -3.4569609 -0.0056983636   -4.5870707    1.1301098      8192000 
  445000   0.75281739   -4.5856208   -4.5856208    -3.456395 -0.0091816435   -4.5856208    1.1292258      8192000 
  446000   0.75176462   -4.5835029   -4.5835029   -3.4558563 -0.011556617   -4.5835029    1.1276466      8192000 
  447000   0.75189776   -4.5832123   -4.5832123    -3.455366 -0.015172134   -4.5832123    1.1278464      8192000 
  448000   0.75136888   -4.5819108   -4.5819108   -3.4548577 -0.016227125   -4.5819108     1.127053      8192000 
  449000   0.75182165   -4.5817539   -4.5817539   -3.4540217 -0.020144583   -4.5817539    1.1277322      8192000 
  450000   0.75172961   -4.5807811   -4.5807811    -3.453187 -0.016625575   -4.5807811    1.1275941      8192000 
  451000   0.75195666     -4.58074     -4.58074   -3.4528053 -0.015993261     -4.58074    1.1279347      8192000 
  452000   0.75209637   -4.5805491   -4.5805491   -3.4524048 -0.013887005   -4.5805491    1.1281443      8192000 
  453000   0.75254609   -4.5808968   -4.5808968   -3.4520779 -0.010900037   -4.5808968    1.1288189      8192000 
  454000   0.75348056   -4.5821629   -4.5821629   -3.4519424 -0.011160643   -4.5821629    1.1302206      8192000 
  455000   0.75400871   -4.5829927   -4.5829927   -3.4519799 -0.0085995753   -4.5829927    1.1310128      8192000 
  456000   0.75456913   -4.5838024   -4.5838024    -3.451949 -0.0043731982   -4.5838024    1.1318534      8192000 
  457000   0.75559451   -4.5853065   -4.5853065   -3.4519151 -0.00074186035   -4.5853065    1.1333915      8192000 
  458000   0.75613296   -4.5863214   -4.5863214   -3.4521223 0.0042718154   -4.5863214    1.1341992      8192000 
  459000   0.75677423   -4.5874591   -4.5874591    -3.452298 0.0075022813   -4.5874591    1.1351611      8192000 
  460000   0.75760449   -4.5890558   -4.5890558   -3.4526494   0.01204696   -4.5890558    1.1364065      8192000 
  461000   0.75810969   -4.5901254   -4.5901254   -3.4529612  0.016291121   -4.5901254    1.1371642      8192000 
  462000   0.75884471   -4.5917157   -4.5917157   -3.4534489  0.018778982   -4.5917157    1.1382668      8192000 
  463000   0.75922376   -4.5926909   -4.5926909   -3.4538556   0.02197906   -4.5926909    1.1388354      8192000 
  464000   0.76004364   -4.5939615   -4.5939615   -3.4538964  0.024082101   -4.5939615    1.1400652      8192000 
  465000   0.76058972   -4.5950988   -4.5950988   -3.4542145  0.028119638   -4.5950988    1.1408843      8192000 
  466000   0.76117529   -4.5962997   -4.5962997   -3.4545371  0.030653037   -4.5962997    1.1417626      8192000 
  467000   0.76143029   -4.5970421   -4.5970421    -3.454897  0.032502041   -4.5970421    1.1421451      8192000 
  468000   0.76122995   -4.5970391   -4.5970391   -3.4551945  0.034985788   -4.5970391    1.1418446      8192000 
  469000   0.76115572   -4.5972421   -4.5972421   -3.4555088  0.035893772   -4.5972421    1.1417333      8192000 
  470000   0.76160601   -4.5978977   -4.5978977   -3.4554889  0.034110222   -4.5978977    1.1424087      8192000 
  471000   0.76141091   -4.5974519   -4.5974519   -3.4553358  0.032902723   -4.5974519    1.1421161      8192000 
  472000   0.76080745   -4.5963294   -4.5963294   -3.4551185  0.032418959   -4.5963294    1.1412109      8192000 
  473000   0.76067772   -4.5965922   -4.5965922   -3.4555759  0.026903178   -4.5965922    1.1410163      8192000 
  474000   0.76000686   -4.5957991   -4.5957991   -3.4557891  0.025456364   -4.5957991      1.14001      8192000 
  475000   0.75911521   -4.5943752   -4.5943752   -3.4557027  0.023516433   -4.5943752    1.1386725      8192000 
  476000   0.75878058   -4.5934903   -4.5934903   -3.4553197   0.02124238   -4.5934903    1.1381706      8192000 
  477000   0.75780958   -4.5920137   -4.5920137   -3.4552996  0.017637167   -4.5920137    1.1367141      8192000 
  478000   0.75724699   -4.5908992   -4.5908992    -3.455029  0.013269303   -4.5908992    1.1358702      8192000 
  479000   0.75699938   -4.5900594   -4.5900594   -3.4545606 0.0099832907   -4.5900594    1.1354988      8192000 
  480000   0.75642868   -4.5887653   -4.5887653   -3.4541226 0.0073262412   -4.5887653    1.1346427      8192000 
  481000   0.75600329   -4.5876162   -4.5876162   -3.4536116 0.0039044246   -4.5876162    1.1340046      8192000 
  482000   0.75540303   -4.5860415   -4.5860415   -3.4529373  0.002900739   -4.5860415    1.1331043      8192000 
  483000   0.75513618   -4.5853509   -4.5853509   -3.4526469 -0.0017732407   -4.5853509     1.132704      8192000 
  484000    0.7549837   -4.5843047   -4.5843047   -3.4518295 -0.0038730946   -4.5843047    1.1324753      8192000 
  485000   0.75454555    -4.582899    -4.582899    -3.451081 -0.0053662499    -4.582899     1.131818      8192000 
  486000   0.75470779    -4.582774    -4.582774   -3.4507126 -0.0066739624    -4.582774    1.1320614      8192000 
  487000   0.75452289   -4.5819142   -4.5819142   -3.4501301 -0.0067167314   -4.5819142    1.1317841      8192000 
  488000   0.75451273   -4.5813246   -4.5813246   -3.4495558 -0.0063131044   -4.5813246    1.1317688      8192000 
  489000   0.75457156   -4.5811655   -4.5811655   -3.4493084 -0.0067794599   -4.5811655    1.1318571      8192000 
  490000   0.75456397   -4.5811159   -4.5811159   -3.4492702 -0.0066977319   -4.5811159    1.1318457      8192000 
  491000    0.7549506   -4.5812667   -4.5812667    -3.448841 -0.0058328695   -4.5812667    1.1324256      8192000 
  492000    0.7554069   -4.5814622   -4.5814622   -3.4483521 -0.0032037057   -4.5814622    1.1331101      8192000 
  493000   0.75559037   -4.5817869   -4.5817869   -3.4484016 -0.0027933349   -4.5817869    1.1333853      8192000 
  494000    0.7562683   -4.5825054   -4.5825054   -3.4481032 -0.00062538962   -4.5825054    1.1344022      8192000 
  495000   0.75653368   -4.5826829   -4.5826829   -3.4478826 0.0035998882   -4.5826829    1.1348002      8192000 
  496000   0.75691835   -4.5833417   -4.5833417   -3.4479645  0.005970888   -4.5833417    1.1353772      8192000 
  497000   0.75731219   -4.5842386   -4.5842386   -3.4482706 0.0076473356   -4.5842386     1.135968      8192000 
  498000   0.75825108   -4.5854706   -4.5854706   -3.4480942 0.0094662508   -4.5854706    1.1373763      8192000 
  499000   0.75819041   -4.5855301   -4.5855301   -3.4482447  0.014557223   -4.5855301    1.1372853      8192000 
  500000   0.75881676   -4.5867914   -4.5867914   -3.4485665  0.014150549   -4.5867914    1.1382248      8192000 
  501000   0.75918445   -4.5875078   -4.5875078   -3.4487314  0.016055015   -4.5875078    1.1387764      8192000 
  502000   0.75959672    -4.588155    -4.588155   -3.4487602  0.019218624    -4.588155    1.1393948      8192000 
  503000   0.76018138   -4.5892728   -4.5892728    -3.449001   0.01997272   -4.5892728    1.1402718      8192000 
  504000   0.76057413   -4.5896788   -4.5896788   -3.4488179  0.022355421   -4.5896788    1.1408609      8192000 
  505000   0.76081222    -4.589983    -4.589983    -3.448765  0.022948643    -4.589983     1.141218      8192000 
  506000   0.76104436   -4.5906568   -4.5906568   -3.4490906  0.023766069   -4.5906568    1.1415663      8192000 
  507000   0.76085546   -4.5902618   -4.5902618   -3.4489788  0.026008184   -4.5902618    1.1412829      8192000 
  508000    0.7611499   -4.5908296   -4.5908296    -3.449105  0.025144827   -4.5908296    1.1417246      8192000 
  509000     0.760884   -4.5903898   -4.5903898   -3.4490641  0.024801624   -4.5903898    1.1413257      8192000 
  510000   0.76067112   -4.5899546   -4.5899546   -3.4489482    0.0246664   -4.5899546    1.1410064      8192000 
  511000   0.76082117   -4.5901921   -4.5901921   -3.4489606  0.022620575   -4.5901921    1.1412315      8192000 
  512000   0.76001321   -4.5890248   -4.5890248   -3.4490053  0.021882981   -4.5890248    1.1400195      8192000 
  513000   0.76070796   -4.5896911   -4.5896911   -3.4486295  0.018951748   -4.5896911    1.1410617      8192000 
  514000   0.75962252   -4.5878133   -4.5878133   -3.4483798  0.019098275   -4.5878133    1.1394335      8192000 
  515000   0.75921705     -4.58714     -4.58714   -3.4483147  0.016211354     -4.58714    1.1388253      8192000 
  516000   0.75893189   -4.5861587   -4.5861587   -3.4477611  0.013586821   -4.5861587    1.1383975      8192000 
  517000   0.75828047   -4.5849099   -4.5849099   -3.4474895  0.013358002   -4.5849099    1.1374204      8192000 
  518000    0.7579487   -4.5838317   -4.5838317    -3.446909  0.010880123   -4.5838317    1.1369228      8192000 
  519000   0.75783688   -4.5833361   -4.5833361   -3.4465811 0.0089253864   -4.5833361     1.136755      8192000 
  520000   0.75765134   -4.5825526   -4.5825526   -3.4460759 0.0075052906   -4.5825526    1.1364767      8192000 
  521000      0.75779   -4.5821993   -4.5821993   -3.4455146 0.0043538078   -4.5821993    1.1366847      8192000 
  522000   0.75731623   -4.5812027   -4.5812027   -3.4452286 0.0035395762   -4.5812027    1.1359741      8192000 
  523000   0.75701885   -4.5802379   -4.5802379   -3.4447099 0.0011014949   -4.5802379     1.135528      8192000 
  524000   0.75666841   -4.5792667   -4.5792667   -3.4442644 0.0029407242   -4.5792667    1.1350023      8192000 
  525000   0.75675978   -4.5790292   -4.5790292   -3.4438898 0.00046499847   -4.5790292    1.1351394      8192000 
  526000   0.75676867   -4.5787013   -4.5787013   -3.4435486 -3.9846146e-05   -4.5787013    1.1351527      8192000 
  527000   0.75710069   -4.5788442   -4.5788442   -3.4431934 -0.0016816564   -4.5788442    1.1356508      8192000 
  528000   0.75689458   -4.5782204   -4.5782204   -3.4428788  0.001223964   -4.5782204    1.1353416      8192000 
  529000   0.75722554   -4.5784318   -4.5784318   -3.4425938 -0.00085993914   -4.5784318     1.135838      8192000 
  530000    0.7574519   -4.5785532   -4.5785532   -3.4423757 -0.00022525103   -4.5785532    1.1361776      8192000 
  531000   0.75711448   -4.5778179   -4.5778179   -3.4421465 0.0033207182   -4.5778179    1.1356714      8192000 
  532000   0.75748038   -4.5778479   -4.5778479   -3.4416276 0.0032633297   -4.5778479    1.1362203      8192000 
  533000   0.75817871   -4.5788102   -4.5788102   -3.4415424 0.0051892081   -4.5788102    1.1372678      8192000 
  534000   0.75829997   -4.5786076   -4.5786076   -3.4411579 0.0080262802   -4.5786076    1.1374497      8192000 
  535000   0.75897753   -4.5794382   -4.5794382   -3.4409722 0.0076814727   -4.5794382     1.138466      8192000 
  536000   0.75881683   -4.5793318   -4.5793318   -3.4411068  0.011657912   -4.5793318     1.138225      8192000 
  537000   0.75954965   -4.5801219   -4.5801219   -3.4407977  0.010755325   -4.5801219    1.1393242      8192000 
  538000   0.75980581    -4.580633    -4.580633   -3.4409246  0.012368635    -4.580633    1.1397084      8192000 
  539000   0.75985647   -4.5807142   -4.5807142   -3.4409298  0.015133777   -4.5807142    1.1397844      8192000 
  540000   0.76023888   -4.5814128   -4.5814128   -3.4410548  0.014939406   -4.5814128     1.140358      8192000 
  541000   0.76031403   -4.5812638   -4.5812638    -3.440793  0.017680784   -4.5812638    1.1404708      8192000 
  542000   0.76103793    -4.582431    -4.582431   -3.4408744   0.01705305    -4.582431    1.1415566      8192000 
  543000   0.76075023   -4.5819785   -4.5819785   -3.4408535  0.019423773   -4.5819785    1.1411251      8192000 
  544000   0.76091852   -4.5821667   -4.5821667   -3.4407892  0.019241688   -4.5821667    1.1413775      8192000 
  545000   0.76126864   -4.5825489   -4.5825489   -3.4406462   0.01992859   -4.5825489    1.1419027      8192000 
  546000   0.76147444    -4.582556    -4.582556   -3.4403446  0.020991375    -4.582556    1.1422114      8192000 
  547000   0.76171333   -4.5829264   -4.5829264   -3.4403567  0.019827277   -4.5829264    1.1425697      8192000 
  548000   0.76133159    -4.582204    -4.582204   -3.4402069  0.020411999    -4.582204    1.1419971      8192000 
  549000   0.76129823    -4.582031    -4.582031   -3.4400839  0.020560487    -4.582031    1.1419471      8192000 
  550000   0.76176367   -4.5823386   -4.5823386   -3.4396934  0.018596666   -4.5823386    1.1426452      8192000 
  551000   0.76122616   -4.5812187   -4.5812187   -3.4393797  0.019197296   -4.5812187     1.141839      8192000 
  552000    0.7611389   -4.5808535   -4.5808535   -3.4391454  0.017450493   -4.5808535    1.1417081      8192000 
  553000   0.76081429   -4.5801906   -4.5801906   -3.4389694  0.016233507   -4.5801906    1.1412211      8192000 
  554000    0.7608966   -4.5798514   -4.5798514   -3.4385068  0.013737618   -4.5798514    1.1413446      8192000 
  555000   0.76026879    -4.578705    -4.578705   -3.4383021  0.013762241    -4.578705    1.1404029      8192000 
  556000   0.76009198   -4.5780603   -4.5780603   -3.4379226  0.010998466   -4.5780603    1.1401377      8192000 
  557000   0.75984959   -4.5774754   -4.5774754   -3.4377013    0.0102907   -4.5774754    1.1397741      8192000 
  558000   0.75994374   -4.5770856   -4.5770856   -3.4371702 0.0082002114   -4.5770856    1.1399153      8192000 
  559000   0.75971155   -4.5763718   -4.5763718   -3.4368047 0.0083993825   -4.5763718     1.139567      8192000 
  560000   0.75963169   -4.5759023   -4.5759023   -3.4364551 0.0068587267   -4.5759023    1.1394473      8192000 
  561000   0.75930826   -4.5748027   -4.5748027   -3.4358406 0.0062791918   -4.5748027    1.1389621      8192000 
  562000   0.75955201   -4.5746679   -4.5746679   -3.4353402 0.0057903531   -4.5746679    1.1393277      8192000 
  563000   0.75910793   -4.5735466   -4.5735466    -3.434885 0.0055852318   -4.5735466    1.1386616      8192000 
  564000   0.75900019   -4.5728834   -4.5728834   -3.4343834 0.0059739592   -4.5728834       1.1385      8192000 
  565000   0.75910115     -4.57279     -4.57279   -3.4341386 0.0050643835     -4.57279    1.1386514      8192000 
  566000   0.75943098   -4.5728799   -4.5728799   -3.4337337 0.0045913345   -4.5728799    1.1391462      8192000 
  567000   0.75946168   -4.5722624   -4.5722624   -3.4330702  0.004845339   -4.5722624    1.1391922      8192000 
  568000   0.75929552    -4.571746    -4.571746    -3.432803 0.0049879427    -4.571746     1.138943      8192000 
  569000   0.75964169   -4.5719518   -4.5719518   -3.4324895  0.003603221   -4.5719518    1.1394623      8192000 
  570000   0.75999372   -4.5720087   -4.5720087   -3.4320184 0.0041804547   -4.5720087    1.1399903      8192000 
  571000   0.76019346   -4.5719054   -4.5719054   -3.4316155 0.0051718495   -4.5719054    1.1402899      8192000 
  572000   0.76025845    -4.571807    -4.571807   -3.4314196 0.0071420651    -4.571807    1.1403874      8192000 
  573000   0.76047538   -4.5715161   -4.5715161   -3.4308033 0.0094417354   -4.5715161    1.1407128      8192000 
  574000   0.76097698   -4.5718925   -4.5718925   -3.4304274  0.010470837   -4.5718925    1.1414652      8192000 
  575000   0.76100257   -4.5718851   -4.5718851   -3.4303815  0.010083947   -4.5718851    1.1415036      8192000 
  576000   0.76114519   -4.5717092   -4.5717092   -3.4299917  0.012859471   -4.5717092    1.1417175      8192000 
  577000   0.76187213   -4.5724225   -4.5724225   -3.4296145  0.011382843   -4.5724225    1.1428079      8192000 
  578000   0.76195151    -4.572243    -4.572243    -3.429316  0.012714383    -4.572243     1.142927      8192000 
  579000   0.76199632   -4.5722161   -4.5722161   -3.4292219  0.015741985   -4.5722161    1.1429942      8192000 
  580000   0.76199112   -4.5720248   -4.5720248   -3.4290384  0.015175589   -4.5720248    1.1429864      8192000 
  581000   0.76229402    -4.572509    -4.572509   -3.4290682   0.01435157    -4.572509    1.1434407      8192000 
  582000   0.76224693   -4.5723992   -4.5723992   -3.4290291  0.015609283   -4.5723992    1.1433701      8192000 
  583000   0.76242249   -4.5727223   -4.5727223   -3.4290889  0.014213166   -4.5727223    1.1436335      8192000 
  584000   0.76247503    -4.572548    -4.572548   -3.4288357  0.014852269    -4.572548    1.1437123      8192000 
  585000   0.76248234   -4.5723316   -4.5723316   -3.4286083  0.015712565   -4.5723316    1.1437232      8192000 
  586000   0.76270605    -4.572119    -4.572119   -3.4280602  0.016091199    -4.572119    1.1440588      8192000 
  587000   0.76272772   -4.5721273   -4.5721273    -3.428036  0.017746712   -4.5721273    1.1440913      8192000 
  588000   0.76295021   -4.5720321   -4.5720321   -3.4276071  0.015369878   -4.5720321     1.144425      8192000 
  589000   0.76265791   -4.5712221   -4.5712221   -3.4272356  0.016464165   -4.5712221    1.1439866      8192000 
  590000   0.76262882   -4.5708202   -4.5708202   -3.4268773  0.016198572   -4.5708202    1.1439429      8192000 
  591000   0.76278765   -4.5706598   -4.5706598   -3.4264786  0.015370072   -4.5706598    1.1441812      8192000 
  592000   0.76293733   -4.5707497   -4.5707497    -3.426344  0.013991229   -4.5707497    1.1444057      8192000 
  593000   0.76238303   -4.5695674   -4.5695674   -3.4259931  0.014545507   -4.5695674    1.1435743      8192000 
  594000   0.76239506   -4.5692342   -4.5692342   -3.4256419  0.013638857   -4.5692342    1.1435923      8192000 
  595000   0.76217901   -4.5687953   -4.5687953   -3.4255271   0.01120222   -4.5687953    1.1432682      8192000 
  596000   0.76194584   -4.5677542   -4.5677542   -3.4248358  0.012013747   -4.5677542    1.1429185      8192000 
  597000   0.76211757   -4.5681341   -4.5681341    -3.424958  0.010704969   -4.5681341    1.1431761      8192000 
  598000   0.76231543   -4.5676653   -4.5676653   -3.4241924 0.0090450734   -4.5676653    1.1434729      8192000 
  599000   0.76188025    -4.566634    -4.566634   -3.4238139   0.01070604    -4.566634    1.1428201      8192000 
  600000   0.76201559   -4.5663221   -4.5663221    -3.423299  0.009054412   -4.5663221    1.1430231      8192000 
  601000   0.76179716   -4.5655972   -4.5655972   -3.4229018 0.0095610643   -4.5655972    1.1426954      8192000 
  602000   0.76222916   -4.5659162   -4.5659162   -3.4225727  0.007720052   -4.5659162    1.1433434      8192000 
  603000    0.7623704   -4.5657782   -4.5657782   -3.4222229 0.0065091741   -4.5657782    1.1435553      8192000 
  604000   0.76201409   -4.5645442   -4.5645442   -3.4215234 0.0076428212   -4.5645442    1.1430208      8192000 
  605000   0.76233983   -4.5646984   -4.5646984   -3.4211889 0.0072544467   -4.5646984    1.1435095      8192000 
  606000   0.76240613   -4.5641187   -4.5641187   -3.4205098 0.0086983096   -4.5641187    1.1436089      8192000 
  607000   0.76232312   -4.5635856   -4.5635856   -3.4201012 0.0092858431   -4.5635856    1.1434844      8192000 
  608000    0.7628484   -4.5640049   -4.5640049   -3.4197326  0.006691078   -4.5640049    1.1442723      8192000 
  609000   0.76257688   -4.5632671   -4.5632671   -3.4194021 0.0076982061   -4.5632671     1.143865      8192000 
  610000   0.76264678   -4.5633779   -4.5633779    -3.419408 0.0081238455   -4.5633779    1.1439699      8192000 
  611000   0.76257179   -4.5625852   -4.5625852   -3.4187278 0.0098578119   -4.5625852    1.1438574      8192000 
  612000   0.76261271   -4.5625067   -4.5625067   -3.4185879 0.0088339868   -4.5625067    1.1439188      8192000 
  613000   0.76292732   -4.5627836   -4.5627836   -3.4183929 0.0092709814   -4.5627836    1.1443907      8192000 
  614000   0.76311497   -4.5626335   -4.5626335   -3.4179613 0.0098604751   -4.5626335    1.1446722      8192000 
  615000   0.76341208   -4.5630007   -4.5630007   -3.4178829   0.01122918   -4.5630007    1.1451178      8192000 
  616000   0.76341602   -4.5628619   -4.5628619   -3.4177382  0.010637621   -4.5628619    1.1451237      8192000 
  617000   0.76308816   -4.5618793   -4.5618793   -3.4172474  0.012911052   -4.5618793     1.144632      8192000 
  618000   0.76372506   -4.5627065   -4.5627065   -3.4171192  0.010847328   -4.5627065    1.1455873      8192000 
  619000   0.76393331   -4.5626529   -4.5626529   -3.4167532  0.010772846   -4.5626529    1.1458997      8192000 
  620000   0.76354108   -4.5618982   -4.5618982   -3.4165869  0.013307695   -4.5618982    1.1453113      8192000 
  621000   0.76419226   -4.5624979   -4.5624979   -3.4162098  0.011446606   -4.5624979    1.1462881      8192000 
  622000   0.76386267    -4.561739    -4.561739   -3.4159453  0.014760153    -4.561739    1.1457937      8192000 
  623000   0.76435862   -4.5622745   -4.5622745   -3.4157369  0.013875289   -4.5622745    1.1465376      8192000 
  624000   0.76431174   -4.5618371   -4.5618371   -3.4153698  0.014165258   -4.5618371    1.1464673      8192000 
  625000   0.76428998   -4.5613027   -4.5613027    -3.414868  0.014865937   -4.5613027    1.1464347      8192000 
  626000   0.76492443   -4.5619756   -4.5619756   -3.4145893  0.014070803   -4.5619756    1.1473864      8192000 
  627000   0.76472553   -4.5613973   -4.5613973   -3.4143093  0.015132199   -4.5613973     1.147088      8192000 
  628000   0.76453907   -4.5606895   -4.5606895   -3.4138812  0.015300131   -4.5606895    1.1468083      8192000 
  629000   0.76494431   -4.5609995   -4.5609995   -3.4135833  0.014528841   -4.5609995    1.1474162      8192000 
  630000   0.76478321    -4.560251    -4.560251   -3.4130765  0.014725387    -4.560251    1.1471745      8192000 
  631000   0.76461075   -4.5598101   -4.5598101   -3.4128942  0.015320745   -4.5598101    1.1469158      8192000 
  632000   0.76467903   -4.5594955   -4.5594955   -3.4124772  0.014500347   -4.5594955    1.1470183      8192000 
  633000   0.76486967   -4.5594409   -4.5594409   -3.4121366  0.013218497   -4.5594409    1.1473042      8192000 
  634000   0.76491368   -4.5592398   -4.5592398   -3.4118695  0.012462215   -4.5592398    1.1473702      8192000 
  635000   0.76480799   -4.5588865   -4.5588865   -3.4116748  0.013063298   -4.5588865    1.1472117      8192000 
  636000   0.76482112   -4.5582908   -4.5582908   -3.4110594  0.013250713   -4.5582908    1.1472314      8192000 
  637000   0.76504269   -4.5579775   -4.5579775   -3.4104138  0.010660812   -4.5579775    1.1475637      8192000 
  638000   0.76487383   -4.5573758   -4.5573758   -3.4100653  0.010514224   -4.5573758    1.1473105      8192000 
  639000   0.76472713   -4.5568805   -4.5568805   -3.4097901  0.010773117   -4.5568805    1.1470904      8192000 
  640000   0.76452414   -4.5558987   -4.5558987   -3.4091128  0.010513226   -4.5558987    1.1467859      8192000 
  641000   0.76487672    -4.556069    -4.556069   -3.4087542   0.01056856    -4.556069    1.1473148      8192000 
  642000   0.76511886   -4.5559511   -4.5559511   -3.4082731 0.0093884945   -4.5559511     1.147678      8192000 
  643000   0.76486688   -4.5551366   -4.5551366   -3.4078366  0.011524443   -4.5551366       1.1473      8192000 
  644000   0.76511168   -4.5550949   -4.5550949   -3.4074277 0.0089610284   -4.5550949    1.1476672      8192000 
  645000   0.76480926   -4.5546168   -4.5546168   -3.4074032  0.010700693   -4.5546168    1.1472136      8192000 
  646000   0.76470279   -4.5537468   -4.5537468   -3.4066929 0.0097928738   -4.5537468    1.1470539      8192000 
  647000   0.76472363   -4.5532162   -4.5532162   -3.4061311 0.0097732662   -4.5532162    1.1470852      8192000 
  648000   0.76527268    -4.553541    -4.553541   -3.4056322 0.0082201942    -4.553541    1.1479087      8192000 
  649000   0.76488571   -4.5528695   -4.5528695   -3.4055412 0.0095281647   -4.5528695    1.1473283      8192000 
  650000   0.76524672    -4.552912    -4.552912   -3.4050423 0.0080084447    -4.552912    1.1478698      8192000 
  651000   0.76554836   -4.5528794   -4.5528794   -3.4045572 0.0088549982   -4.5528794    1.1483223      8192000 
  652000    0.7655495   -4.5523152   -4.5523152   -3.4039912  0.010019445   -4.5523152     1.148324      8192000 
  653000   0.76541065   -4.5515304   -4.5515304   -3.4034147  0.011409543   -4.5515304    1.1481157      8192000 
  654000   0.76575225    -4.551959    -4.551959   -3.4033309 0.0099554877    -4.551959    1.1486281      8192000 
  655000   0.76601609   -4.5518662   -4.5518662   -3.4028423  0.010625508   -4.5518662    1.1490238      8192000 
  656000   0.76630586   -4.5516646   -4.5516646   -3.4022061  0.010676842   -4.5516646    1.1494585      8192000 
  657000   0.76644353   -4.5514963   -4.5514963   -3.4018313  0.013310776   -4.5514963     1.149665      8192000 
  658000    0.7665504   -4.5511673   -4.5511673    -3.401342  0.014111922   -4.5511673    1.1498253      8192000 
  659000   0.76614445   -4.5504355   -4.5504355   -3.4012191  0.013686468   -4.5504355    1.1492164      8192000 
  660000   0.76658901   -4.5504986   -4.5504986   -3.4006154  0.011567426   -4.5504986    1.1498832      8192000 
  661000   0.76670322   -4.5500003   -4.5500003   -3.3999458  0.014273938   -4.5500003    1.1500545      8192000 
  662000   0.76696434   -4.5501385   -4.5501385   -3.3996922   0.01152435   -4.5501385    1.1504462      8192000 
  663000   0.76687699   -4.5497237   -4.5497237   -3.3994085  0.014512032   -4.5497237    1.1503152      8192000 
  664000   0.76711807   -4.5498134   -4.5498134   -3.3991366  0.013014727   -4.5498134    1.1506768      8192000 
  665000   0.76696394   -4.5492438   -4.5492438   -3.3987982  0.012141625   -4.5492438    1.1504456      8192000 
  666000   0.76715306   -4.5490258   -4.5490258   -3.3982965   0.01328545   -4.5490258    1.1507293      8192000 
  667000   0.76731775   -4.5488947   -4.5488947   -3.3979183  0.012429077   -4.5488947    1.1509763      8192000 
  668000   0.76763441    -4.548428    -4.548428   -3.3969767  0.012962932    -4.548428    1.1514513      8192000 
  669000   0.76722756   -4.5476984   -4.5476984   -3.3968574  0.013920356   -4.5476984    1.1508411      8192000 
  670000   0.76702966   -4.5470147   -4.5470147   -3.3964705    0.0144911   -4.5470147    1.1505442      8192000 
  671000    0.7671385   -4.5470493   -4.5470493   -3.3963418  0.013929289   -4.5470493    1.1507075      8192000 
  672000   0.76764707   -4.5469348   -4.5469348   -3.3954645   0.01266133   -4.5469348    1.1514703      8192000 
  673000   0.76736491   -4.5462955   -4.5462955   -3.3952484  0.013346916   -4.5462955    1.1510471      8192000 
  674000   0.76754808   -4.5458986   -4.5458986   -3.3945768  0.013701383   -4.5458986    1.1513218      8192000 
  675000   0.76731101   -4.5450164   -4.5450164   -3.3940502  0.014434018   -4.5450164    1.1509662      8192000 
  676000   0.76769376    -4.545174    -4.545174   -3.3936337  0.011610463    -4.545174    1.1515404      8192000 
  677000   0.76754854   -4.5448495   -4.5448495    -3.393527  0.011329016   -4.5448495    1.1513225      8192000 
  678000   0.76755487   -4.5445303   -4.5445303   -3.3931983  0.010675428   -4.5445303     1.151332      8192000 
  679000   0.76724392   -4.5435677   -4.5435677   -3.3927021  0.010120524   -4.5435677    1.1508656      8192000 
  680000   0.76775605   -4.5438481   -4.5438481   -3.3922143 0.0099975022   -4.5438481    1.1516338      8192000 
  681000   0.76761213   -4.5432714   -4.5432714   -3.3918535  0.010464121   -4.5432714    1.1514179      8192000 
  682000   0.76736178   -4.5422576   -4.5422576   -3.3912152   0.01062005   -4.5422576    1.1510424      8192000 
  683000   0.76767282   -4.5423693   -4.5423693   -3.3908603 0.0077590609   -4.5423693    1.1515089      8192000 
  684000   0.76800915   -4.5421794   -4.5421794    -3.390166 0.0094513746   -4.5421794    1.1520134      8192000 
  685000   0.76826056   -4.5420557   -4.5420557   -3.3896652 0.0083857821   -4.5420557    1.1523906      8192000 
  686000   0.76797031   -4.5410109   -4.5410109   -3.3890557  0.010608904   -4.5410109    1.1519552      8192000 
  687000   0.76795007   -4.5408571   -4.5408571   -3.3889323  0.010374059   -4.5408571    1.1519248      8192000 
  688000    0.7679277   -4.5404888   -4.5404888   -3.3885976  0.011095051   -4.5404888    1.1518913      8192000 
  689000   0.76809302    -4.540318    -4.540318   -3.3881787  0.011763385    -4.540318    1.1521392      8192000 
  690000   0.76842465   -4.5403694   -4.5403694   -3.3877327 0.0099012794   -4.5403694    1.1526367      8192000 
  691000   0.76844713   -4.5398692   -4.5398692   -3.3871988  0.011169393   -4.5398692    1.1526704      8192000 
  692000   0.76854488   -4.5392752   -4.5392752   -3.3864582  0.012304925   -4.5392752     1.152817      8192000 
  693000   0.76881538   -4.5393404   -4.5393404   -3.3861176  0.010943827   -4.5393404    1.1532228      8192000 
  694000   0.76894903   -4.5393447   -4.5393447   -3.3859214  0.010490544   -4.5393447    1.1534233      8192000 
  695000   0.76850711   -4.5380908   -4.5380908   -3.3853305  0.011435091   -4.5380908    1.1527604      8192000 
  696000   0.76892701   -4.5386206   -4.5386206   -3.3852304  0.010551399   -4.5386206    1.1533902      8192000 
  697000    0.7689402   -4.5382944   -4.5382944   -3.3848844  0.012421497   -4.5382944      1.15341      8192000 
  698000   0.76936775   -4.5384894   -4.5384894    -3.384438  0.011291689   -4.5384894    1.1540513      8192000 
  699000   0.76938187   -4.5381838   -4.5381838   -3.3841113  0.010459422   -4.5381838    1.1540725      8192000 
  700000    0.7694107   -4.5378179   -4.5378179   -3.3837021  0.011213011   -4.5378179    1.1541158      8192000 
  701000   0.76976222   -4.5377538   -4.5377538   -3.3831108  0.011365763   -4.5377538     1.154643      8192000 
  702000   0.76968216   -4.5369119   -4.5369119   -3.3823889  0.012457102   -4.5369119    1.1545229      8192000 
  703000   0.77026165   -4.5374437   -4.5374437   -3.3820515  0.011624224   -4.5374437    1.1553922      8192000 
  704000   0.76999402   -4.5368259   -4.5368259   -3.3818352  0.012941701   -4.5368259    1.1549907      8192000 
  705000   0.76987071   -4.5360285   -4.5360285   -3.3812227  0.014309353   -4.5360285    1.1548058      8192000 
  706000   0.77022216   -4.5363399   -4.5363399    -3.381007  0.013176376   -4.5363399    1.1553329      8192000 
  707000   0.77049023   -4.5358152   -4.5358152   -3.3800801  0.015053272   -4.5358152    1.1557351      8192000 
  708000   0.77047128   -4.5354073   -4.5354073   -3.3797007  0.014305007   -4.5354073    1.1557066      8192000 
  709000   0.77074832   -4.5351571   -4.5351571   -3.3790349  0.014035609   -4.5351571    1.1561222      8192000 
  710000   0.77042599   -4.5346377   -4.5346377    -3.378999  0.012953039   -4.5346377    1.1556387      8192000 
  711000   0.77086994   -4.5344936   -4.5344936   -3.3781889  0.011947424   -4.5344936    1.1563046      8192000 
  712000   0.77051983   -4.5337372   -4.5337372   -3.3779577  0.012979548   -4.5337372    1.1557795      8192000 
  713000   0.77015145   -4.5328156   -4.5328156   -3.3775887  0.014064072   -4.5328156    1.1552269      8192000 
  714000   0.77070972   -4.5331438   -4.5331438   -3.3770795  0.012243352   -4.5331438    1.1560643      8192000 
  715000   0.77084766   -4.5328868   -4.5328868   -3.3766156  0.012068322   -4.5328868    1.1562712      8192000 
  716000   0.77059538   -4.5323198   -4.5323198    -3.376427  0.012121265   -4.5323198    1.1558928      8192000 
  717000   0.77044465   -4.5319395   -4.5319395   -3.3762728  0.011271122   -4.5319395    1.1556667      8192000 
  718000   0.77094565   -4.5319697   -4.5319697   -3.3755515  0.011273217   -4.5319697    1.1564182      8192000 
  719000   0.77030345   -4.5305982   -4.5305982   -3.3751434  0.011411718   -4.5305982    1.1554549      8192000 
  720000   0.77062919   -4.5305046   -4.5305046   -3.3745611  0.010927943   -4.5305046    1.1559435      8192000 
  721000   0.77075738   -4.5300899   -4.5300899   -3.3739541 0.0093430843   -4.5300899    1.1561358      8192000 
  722000   0.77085518   -4.5297937   -4.5297937   -3.3735112  0.010131272   -4.5297937    1.1562825      8192000 
  723000   0.77064852   -4.5288934   -4.5288934   -3.3729209  0.011661638   -4.5288934    1.1559725      8192000 
  724000   0.77076812   -4.5285984   -4.5285984   -3.3724465  0.009448425   -4.5285984    1.1561519      8192000 
  725000    0.7709244   -4.5284628   -4.5284628   -3.3720765 0.0089612053   -4.5284628    1.1563863      8192000 
  726000    0.7711723    -4.528275    -4.528275   -3.3715169 0.0085956861    -4.528275    1.1567582      8192000 
  727000   0.77100624   -4.5277782   -4.5277782   -3.3712691  0.010339346   -4.5277782    1.1565091      8192000 
  728000    0.7712656   -4.5274203   -4.5274203   -3.3705221  0.011071882   -4.5274203    1.1568981      8192000 
  729000   0.77116449   -4.5269106   -4.5269106   -3.3701642  0.011615931   -4.5269106    1.1567464      8192000 
  730000   0.77160365   -4.5271776   -4.5271776   -3.3697724 0.0094249974   -4.5271776    1.1574052      8192000 
  731000   0.77181272   -4.5268684   -4.5268684   -3.3691496  0.010542713   -4.5268684    1.1577188      8192000 
  732000   0.77191635    -4.526393    -4.526393   -3.3685187  0.013052845    -4.526393    1.1578742      8192000 
  733000   0.77173576   -4.5257905   -4.5257905   -3.3681872  0.011454432   -4.5257905    1.1576034      8192000 
  734000   0.77175237   -4.5251314   -4.5251314   -3.3675031  0.012625547   -4.5251314    1.1576283      8192000 
  735000   0.77201016   -4.5249755   -4.5249755   -3.3669605  0.013196064   -4.5249755     1.158015      8192000 
  736000   0.77227128   -4.5249625   -4.5249625   -3.3665559   0.01204408   -4.5249625    1.1584066      8192000 
  737000    0.7723471   -4.5247379   -4.5247379   -3.3662175  0.011186628   -4.5247379    1.1585204      8192000 
  738000   0.77228396   -4.5243864   -4.5243864   -3.3659608  0.012443901   -4.5243864    1.1584256      8192000 
  739000   0.77259272   -4.5245101   -4.5245101   -3.3656213  0.012631335   -4.5245101    1.1588888      8192000 
  740000   0.77272058   -4.5239594   -4.5239594   -3.3648788  0.013386348   -4.5239594    1.1590806      8192000 
  741000   0.77277299   -4.5237546   -4.5237546   -3.3645954  0.014003709   -4.5237546    1.1591592      8192000 
  742000   0.77327588   -4.5237439   -4.5237439   -3.3638304  0.012574958   -4.5237439    1.1599135      8192000 
  743000   0.77313796   -4.5231005   -4.5231005   -3.3633939  0.012013165   -4.5231005    1.1597066      8192000 
  744000   0.77324048    -4.522659    -4.522659   -3.3627986   0.01250192    -4.522659    1.1598604      8192000 
  745000   0.77317497   -4.5222277   -4.5222277   -3.3624655  0.012763917   -4.5222277    1.1597622      8192000 
  746000   0.77342371   -4.5220387   -4.5220387   -3.3619034  0.011239317   -4.5220387    1.1601353      8192000 
  747000    0.7733733   -4.5217177   -4.5217177    -3.361658  0.010766331   -4.5217177    1.1600597      8192000 
  748000   0.77339622   -4.5213052   -4.5213052   -3.3612112   0.01255246   -4.5213052     1.160094      8192000 
  749000   0.77361761   -4.5211375   -4.5211375   -3.3607113  0.013061893   -4.5211375    1.1604261      8192000 
  750000   0.77356651   -4.5203967   -4.5203967   -3.3600473  0.013231523   -4.5203967    1.1603495      8192000 
  751000   0.77364182   -4.5199718   -4.5199718   -3.3595093  0.012142655   -4.5199718    1.1604624      8192000 
  752000   0.77404301   -4.5204364   -4.5204364   -3.3593722  0.011570823   -4.5204364    1.1610642      8192000 
  753000   0.77383367   -4.5195797   -4.5195797   -3.3588295  0.013267465   -4.5195797    1.1607502      8192000 
  754000   0.77377365   -4.5193629   -4.5193629   -3.3587027  0.011840879   -4.5193629    1.1606602      8192000 
  755000   0.77379854    -4.518459    -4.518459   -3.3577615  0.012181232    -4.518459    1.1606975      8192000 
  756000   0.77364436   -4.5176726   -4.5176726   -3.3572064  0.013729665   -4.5176726    1.1604662      8192000 
  757000   0.77373748   -4.5172071   -4.5172071   -3.3566012  0.013674385   -4.5172071    1.1606059      8192000 
  758000   0.77411922   -4.5173684   -4.5173684   -3.3561899  0.010726779   -4.5173684    1.1611785      8192000 
  759000   0.77439625   -4.5173171   -4.5173171    -3.355723   0.00943767   -4.5173171    1.1615941      8192000 
  760000   0.77370589   -4.5160964   -4.5160964   -3.3555378  0.012138607   -4.5160964    1.1605585      8192000 
  761000   0.77386471   -4.5155184   -4.5155184   -3.3547217  0.012573297   -4.5155184    1.1607968      8192000 
  762000   0.77401002   -4.5154092   -4.5154092   -3.3543944  0.010086566   -4.5154092    1.1610147      8192000 
  763000   0.77390393   -4.5147899   -4.5147899   -3.3539343  0.010793437   -4.5147899    1.1608556      8192000 
  764000   0.77434857   -4.5147039   -4.5147039   -3.3531813  0.011387994   -4.5147039    1.1615226      8192000 
  765000   0.77453346   -4.5143286   -4.5143286   -3.3525287  0.010895713   -4.5143286    1.1617999      8192000 
  766000   0.77490916   -4.5144611   -4.5144611   -3.3520976  0.010997265   -4.5144611    1.1623634      8192000 
  767000   0.77476519   -4.5136364   -4.5136364   -3.3514889   0.01119017   -4.5136364    1.1621475      8192000 
  768000   0.77475327   -4.5132004   -4.5132004   -3.3510708  0.011690846   -4.5132004    1.1621296      8192000 
  769000    0.7751042   -4.5132345   -4.5132345   -3.3505785  0.010782344   -4.5132345     1.162656      8192000 
  770000   0.77514757   -4.5126832   -4.5126832   -3.3499621  0.010867413   -4.5126832    1.1627211      8192000 
  771000   0.77492641   -4.5118067   -4.5118067   -3.3494174  0.011673891   -4.5118067    1.1623893      8192000 
  772000   0.77500644   -4.5114014   -4.5114014   -3.3488921  0.010941249   -4.5114014    1.1625094      8192000 
  773000   0.77510811   -4.5109266   -4.5109266   -3.3482648  0.012322038   -4.5109266    1.1626619      8192000 
  774000   0.77572313   -4.5112087   -4.5112087   -3.3476243  0.011017822   -4.5112087    1.1635844      8192000 
  775000    0.7755818    -4.510565    -4.510565   -3.3471926  0.010940771    -4.510565    1.1633724      8192000 
  776000   0.77566054   -4.5099704   -4.5099704   -3.3464799  0.013242329   -4.5099704    1.1634905      8192000 
  777000   0.77641986   -4.5103238   -4.5103238   -3.3456943  0.013588847   -4.5103238    1.1646295      8192000 
  778000   0.77585292   -4.5089751   -4.5089751   -3.3451961  0.013783092   -4.5089751    1.1637791      8192000 
  779000   0.77663892   -4.5095622   -4.5095622   -3.3446041  0.012024352   -4.5095622    1.1649581      8192000 
  780000   0.77607684   -4.5083905   -4.5083905   -3.3442755  0.011837847   -4.5083905     1.164115      8192000 
  781000   0.77597442   -4.5077812   -4.5077812   -3.3438199  0.015327787   -4.5077812    1.1639613      8192000 
  782000   0.77630284   -4.5078976   -4.5078976   -3.3434436  0.013401662   -4.5078976     1.164454      8192000 
  783000   0.77630517   -4.5071763   -4.5071763   -3.3427188  0.012892735   -4.5071763    1.1644575      8192000 
  784000   0.77601865   -4.5064076   -4.5064076   -3.3423799  0.011777556   -4.5064076    1.1640277      8192000 
  785000   0.77586321   -4.5059841   -4.5059841   -3.3421896  0.012687162   -4.5059841    1.1637945      8192000 
  786000    0.7765261   -4.5063319   -4.5063319    -3.341543  0.010796187   -4.5063319    1.1647889      8192000 
  787000   0.77651904   -4.5057977   -4.5057977   -3.3410194  0.011569117   -4.5057977    1.1647783      8192000 
  788000   0.77659168   -4.5051466   -4.5051466   -3.3402594  0.012654585   -4.5051466    1.1648872      8192000 
  789000   0.77687278   -4.5049751   -4.5049751   -3.3396662  0.012788577   -4.5049751    1.1653089      8192000 
  790000   0.77699402   -4.5048946   -4.5048946   -3.3394039  0.011032425   -4.5048946    1.1654907      8192000 
  791000   0.77676463   -4.5038653   -4.5038653   -3.3387187  0.012502467   -4.5038653    1.1651467      8192000 
  792000   0.77740011   -4.5039875   -4.5039875   -3.3378877  0.013042674   -4.5039875    1.1660999      8192000 
  793000   0.77763219   -4.5038575   -4.5038575   -3.3374095  0.012219371   -4.5038575     1.166448      8192000 
  794000   0.77779726   -4.5033858   -4.5033858   -3.3366902  0.012100409   -4.5033858    1.1666956      8192000 
  795000   0.77742709   -4.5024764   -4.5024764   -3.3363361  0.013144139   -4.5024764    1.1661403      8192000 
  796000   0.77739397    -4.502273    -4.502273   -3.3361824  0.011359585    -4.502273    1.1660907      8192000 
  797000    0.7773543   -4.5015991   -4.5015991   -3.3355679  0.011171309   -4.5015991    1.1660312      8192000 
  798000   0.77717682   -4.5008958   -4.5008958   -3.3351309  0.012175666   -4.5008958    1.1657649      8192000 
  799000   0.77725336   -4.5006051   -4.5006051   -3.3347254  0.010884664   -4.5006051    1.1658797      8192000 
  800000   0.77739106   -4.5004593   -4.5004593    -3.334373  0.010279975   -4.5004593    1.1660863      8192000 
  801000   0.77755658   -4.5000641   -4.5000641   -3.3337295 0.0093174319   -4.5000641    1.1663346      8192000 
  802000   0.77763489    -4.499666    -4.499666   -3.3332139  0.010633272    -4.499666     1.166452      8192000 
  803000   0.77765642    -4.499192    -4.499192   -3.3327077  0.010713249    -4.499192    1.1664843      8192000 
  804000   0.77757516   -4.4987025   -4.4987025     -3.33234  0.013063574   -4.4987025    1.1663624      8192000 
  805000   0.77820997   -4.4990345   -4.4990345   -3.3317198  0.011610033   -4.4990345    1.1673147      8192000 
  806000   0.77809197   -4.4981679   -4.4981679   -3.3310302  0.012927354   -4.4981679    1.1671377      8192000 
  807000   0.77865503   -4.4983485   -4.4983485   -3.3303662 0.0098184392   -4.4983485    1.1679823      8192000 
  808000   0.77882266   -4.4980116   -4.4980116   -3.3297779  0.011011347   -4.4980116    1.1682337      8192000 
  809000   0.77816358   -4.4966743   -4.4966743   -3.3294293  0.012677688   -4.4966743    1.1672451      8192000 
  810000   0.77870136   -4.4967331   -4.4967331   -3.3286814  0.012804053   -4.4967331    1.1680517      8192000 
  811000   0.77891545    -4.496664    -4.496664   -3.3282911  0.011704436    -4.496664    1.1683729      8192000 
  812000   0.77892676   -4.4959667   -4.4959667   -3.3275769  0.013431193   -4.4959667    1.1683898      8192000 
  813000   0.77904654   -4.4959184   -4.4959184   -3.3273489  0.010951534   -4.4959184    1.1685695      8192000 
  814000   0.77908856   -4.4953948   -4.4953948   -3.3267623  0.011635494   -4.4953948    1.1686325      8192000 
  815000   0.77910457   -4.4948526   -4.4948526   -3.3261961  0.011256141   -4.4948526    1.1686566      8192000 
  816000   0.77937968   -4.4947312   -4.4947312   -3.3256619  0.010901523   -4.4947312    1.1690692      8192000 
  817000    0.7794633   -4.4938607   -4.4938607   -3.3246661  0.013785148   -4.4938607    1.1691947      8192000 
  818000   0.78032306   -4.4945022   -4.4945022   -3.3240179  0.011975505   -4.4945022    1.1704843      8192000 
  819000   0.77981495   -4.4936229   -4.4936229   -3.3239008  0.013202526   -4.4936229    1.1697221      8192000 
  820000   0.77939642    -4.492485    -4.492485   -3.3233906  0.016603682    -4.492485    1.1690943      8192000 
  821000   0.78050461   -4.4934107   -4.4934107   -3.3226541  0.012034707   -4.4934107    1.1707566      8192000 
  822000   0.78026026   -4.4926959   -4.4926959   -3.3223058    0.0140578   -4.4926959    1.1703901      8192000 
  823000   0.78019669   -4.4918714   -4.4918714   -3.3215767  0.014346503   -4.4918714    1.1702947      8192000 
  824000   0.78001564   -4.4915252   -4.4915252    -3.321502  0.014471341   -4.4915252    1.1700232      8192000 
  825000   0.78030872   -4.4910069   -4.4910069   -3.3205441  0.012624364   -4.4910069    1.1704628      8192000 
  826000   0.78038724   -4.4906353   -4.4906353   -3.3200548  0.011315667   -4.4906353    1.1705806      8192000 
  827000   0.78031987    -4.490019    -4.490019   -3.3195395  0.010777723    -4.490019    1.1704795      8192000 
  828000   0.78009138   -4.4891087   -4.4891087    -3.318972  0.011834131   -4.4891087    1.1701368      8192000 
  829000   0.78030295   -4.4885787   -4.4885787   -3.3181246  0.011807231   -4.4885787    1.1704541      8192000 
  830000   0.78056121   -4.4883285   -4.4883285    -3.317487  0.013813118   -4.4883285    1.1708415      8192000 
  831000   0.78064409    -4.487984    -4.487984   -3.3170182  0.012900271    -4.487984    1.1709658      8192000 
  832000    0.7809784   -4.4878461   -4.4878461   -3.3163788  0.012066287   -4.4878461    1.1714673      8192000 
  833000    0.7810316   -4.4871934   -4.4871934   -3.3156463  0.013955047   -4.4871934    1.1715471      8192000 
  834000   0.78097056   -4.4865569   -4.4865569   -3.3151014  0.011492393   -4.4865569    1.1714555      8192000 
  835000   0.78084073   -4.4858938   -4.4858938    -3.314633  0.011561957   -4.4858938    1.1712608      8192000 
  836000   0.78128907   -4.4856576   -4.4856576   -3.3137243  0.012187695   -4.4856576    1.1719333      8192000 
  837000   0.78171539   -4.4855947   -4.4855947   -3.3130219  0.010969583   -4.4855947    1.1725728      8192000 
  838000   0.78152816   -4.4846212   -4.4846212   -3.3123292  0.011673147   -4.4846212    1.1722919      8192000 
  839000   0.78116462   -4.4837672   -4.4837672   -3.3120206   0.01186917   -4.4837672    1.1717466      8192000 
  840000   0.78093569   -4.4830058   -4.4830058   -3.3116026  0.012670978   -4.4830058    1.1714032      8192000 
  841000   0.78127846   -4.4827291   -4.4827291   -3.3108117  0.011167811   -4.4827291    1.1719174      8192000 
  842000   0.78159438   -4.4827282   -4.4827282   -3.3103369 0.0087011251   -4.4827282    1.1723913      8192000 
  843000   0.78154628   -4.4820312   -4.4820312   -3.3097121  0.011003481   -4.4820312    1.1723191      8192000 
  844000   0.78176284   -4.4817533   -4.4817533   -3.3091094   0.01065586   -4.4817533     1.172644      8192000 
  845000   0.78173859   -4.4809455   -4.4809455   -3.3083379  0.012696336   -4.4809455    1.1726076      8192000 
  846000   0.78216698   -4.4810561   -4.4810561    -3.307806   0.01124877   -4.4810561    1.1732502      8192000 
  847000   0.78232311   -4.4806529   -4.4806529   -3.3071685  0.010407457   -4.4806529    1.1734844      8192000 
  848000   0.78201679   -4.4796767   -4.4796767   -3.3066518  0.011316402   -4.4796767    1.1730249      8192000 
  849000   0.78230234   -4.4797761   -4.4797761   -3.3063229  0.010998703   -4.4797761    1.1734532      8192000 
  850000    0.7821591   -4.4788907   -4.4788907   -3.3056524  0.012946675   -4.4788907    1.1732384      8192000 
  851000   0.78260827   -4.4791022   -4.4791022   -3.3051901 0.0092051889   -4.4791022    1.1739121      8192000 
  852000   0.78234566    -4.478125    -4.478125   -3.3046068  0.011014337    -4.478125    1.1735182      8192000 
  853000   0.78282348    -4.478199    -4.478199   -3.3039641   0.01149067    -4.478199    1.1742349      8192000 
  854000   0.78285817    -4.477756    -4.477756    -3.303469  0.011173474    -4.477756     1.174287      8192000 
  855000   0.78273839   -4.4771041   -4.4771041   -3.3029968  0.010929703   -4.4771041    1.1741073      8192000 
  856000   0.78315374   -4.4771299   -4.4771299   -3.3023996 0.0095704729   -4.4771299    1.1747303      8192000 
  857000   0.78300686   -4.4762368   -4.4762368   -3.3017268  0.011431136   -4.4762368      1.17451      8192000 
  858000   0.78311304   -4.4761717   -4.4761717   -3.3015025  0.011400111   -4.4761717    1.1746693      8192000 
  859000    0.7834359   -4.4761125   -4.4761125    -3.300959   0.01105018   -4.4761125    1.1751536      8192000 
  860000   0.78380176   -4.4756594   -4.4756594   -3.2999571   0.01197761   -4.4756594    1.1757023      8192000 
  861000   0.78375631   -4.4750889   -4.4750889   -3.2994548  0.013488968   -4.4750889    1.1756342      8192000 
  862000   0.78378379   -4.4749633   -4.4749633   -3.2992879  0.012249814   -4.4749633    1.1756754      8192000 
  863000   0.78353161   -4.4742583   -4.4742583   -3.2989612  0.013272672   -4.4742583    1.1752971      8192000 
  864000    0.7835782     -4.47359     -4.47359    -3.298223  0.012045573     -4.47359     1.175367      8192000 
  865000   0.78409653   -4.4736171   -4.4736171   -3.2974726  0.012829474   -4.4736171    1.1761445      8192000 
  866000   0.78404787   -4.4729887   -4.4729887   -3.2969172  0.013438568   -4.4729887    1.1760715      8192000 
  867000   0.78400373   -4.4727017   -4.4727017   -3.2966964   0.01359891   -4.4727017    1.1760053      8192000 
  868000   0.78400004   -4.4721262   -4.4721262   -3.2961265  0.012483414   -4.4721262    1.1759998      8192000 
  869000   0.78416948   -4.4717724   -4.4717724   -3.2955185  0.012775451   -4.4717724    1.1762539      8192000 
  870000   0.78439844   -4.4715167   -4.4715167   -3.2949194  0.012419399   -4.4715167    1.1765974      8192000 
  871000   0.78437669   -4.4710504   -4.4710504   -3.2944857  0.013184419   -4.4710504    1.1765647      8192000 
  872000   0.78443106   -4.4706953   -4.4706953    -3.294049  0.011837671   -4.4706953    1.1766463      8192000 
  873000   0.78462684   -4.4701877   -4.4701877   -3.2932478  0.013589778   -4.4701877      1.17694      8192000 
  874000   0.78467329   -4.4697121   -4.4697121   -3.2927025  0.013987816   -4.4697121    1.1770096      8192000 
  875000    0.7849729   -4.4693522   -4.4693522   -3.2918932  0.015150592   -4.4693522    1.1774591      8192000 
  876000   0.78528064   -4.4692308   -4.4692308   -3.2913102  0.015213747   -4.4692308    1.1779207      8192000 
  877000   0.78537922   -4.4687011   -4.4687011   -3.2906326  0.013437371   -4.4687011    1.1780685      8192000 
  878000   0.78526756   -4.4680587   -4.4680587   -3.2901577  0.014825942   -4.4680587    1.1779011      8192000 
  879000   0.78537201    -4.467787    -4.467787   -3.2897293  0.012325206    -4.467787    1.1780577      8192000 
  880000   0.78541459   -4.4675569   -4.4675569   -3.2894353  0.011671969   -4.4675569    1.1781216      8192000 
  881000    0.7854215   -4.4671102   -4.4671102   -3.2889783  0.011596323   -4.4671102     1.178132      8192000 
  882000    0.7855018   -4.4663685   -4.4663685   -3.2881161   0.01170368   -4.4663685    1.1782524      8192000 
  883000   0.78559673   -4.4657377   -4.4657377   -3.2873429  0.010645603   -4.4657377    1.1783948      8192000 
  884000   0.78531349   -4.4645927   -4.4645927   -3.2866228  0.011869459   -4.4645927    1.1779699      8192000 
  885000   0.78572651   -4.4644559   -4.4644559   -3.2858664  0.012467919   -4.4644559    1.1785895      8192000 
  886000   0.78541528    -4.463541    -4.463541   -3.2854184  0.013283505    -4.463541    1.1781226      8192000 
  887000   0.78624681   -4.4640622   -4.4640622   -3.2846923  0.012277722   -4.4640622    1.1793699      8192000 
  888000   0.78598559   -4.4635617   -4.4635617   -3.2845836  0.011135065   -4.4635617    1.1789781      8192000 
  889000   0.78640673   -4.4634059   -4.4634059   -3.2837961  0.010878322   -4.4634059    1.1796098      8192000 
  890000   0.78639447   -4.4625907   -4.4625907   -3.2829993  0.014543049   -4.4625907    1.1795914      8192000 
  891000   0.78655836   -4.4621022   -4.4621022    -3.282265    0.0122818   -4.4621022    1.1798372      8192000 
  892000   0.78669794   -4.4615589   -4.4615589   -3.2815122  0.014154317   -4.4615589    1.1800466      8192000 
  893000   0.78656231   -4.4607747   -4.4607747   -3.2809315   0.01276583   -4.4607747    1.1798432      8192000 
  894000   0.78664698   -4.4601699   -4.4601699   -3.2801998  0.012717681   -4.4601699    1.1799702      8192000 
  895000   0.78688937   -4.4597535   -4.4597535   -3.2794198  0.010050587   -4.4597535    1.1803338      8192000 
  896000   0.78687592   -4.4591885   -4.4591885   -3.2788749  0.011258945   -4.4591885    1.1803136      8192000 
  897000   0.78715597   -4.4590882   -4.4590882   -3.2783545  0.011406235   -4.4590882    1.1807337      8192000 
  898000   0.78700414    -4.458292    -4.458292   -3.2777861  0.011084996    -4.458292    1.1805059      8192000 
  899000   0.78730276   -4.4582295   -4.4582295   -3.2772756  0.010970865   -4.4582295    1.1809539      8192000 
  900000   0.78715125   -4.4572603   -4.4572603   -3.2765337  0.011800315   -4.4572603    1.1807266      8192000 
  901000   0.78751119   -4.4573403   -4.4573403   -3.2760738  0.011291413   -4.4573403    1.1812665      8192000 
  902000   0.78771847   -4.4572196   -4.4572196   -3.2756421  0.012238838   -4.4572196    1.1815774      8192000 
  903000   0.78744455   -4.4560087   -4.4560087   -3.2748422   0.01384938   -4.4560087    1.1811665      8192000 
  904000   0.78735829     -4.45496     -4.45496   -3.2739228  0.013697547     -4.45496    1.1810371      8192000 
  905000   0.78767101   -4.4548488   -4.4548488   -3.2733426  0.012142995   -4.4548488    1.1815062      8192000 
  906000   0.78758895   -4.4542392   -4.4542392    -3.272856  0.012641042   -4.4542392    1.1813831      8192000 
  907000    0.7876975   -4.4538775   -4.4538775   -3.2723316  0.010735336   -4.4538775     1.181546      8192000 
  908000   0.78773882   -4.4527501   -4.4527501   -3.2711421  0.011161121   -4.4527501    1.1816079      8192000 
  909000   0.78767005    -4.452458    -4.452458   -3.2709533  0.011250564    -4.452458    1.1815048      8192000 
  910000   0.78782055   -4.4521033   -4.4521033   -3.2703728  0.011913671   -4.4521033    1.1817305      8192000 
  911000   0.78826844   -4.4523429   -4.4523429   -3.2699405  0.010656257   -4.4523429    1.1824024      8192000 
  912000   0.78863588   -4.4517846   -4.4517846   -3.2688311  0.011503755   -4.4517846    1.1829535      8192000 
  913000    0.7885546   -4.4513613   -4.4513613   -3.2685297  0.010303432   -4.4513613    1.1828316      8192000 
  914000    0.7889364   -4.4511432   -4.4511432   -3.2677389  0.011714019   -4.4511432    1.1834043      8192000 
  915000   0.78877373   -4.4501452   -4.4501452   -3.2669849  0.012748171   -4.4501452    1.1831603      8192000 
  916000   0.78887141   -4.4497258   -4.4497258    -3.266419  0.014422984   -4.4497258    1.1833068      8192000 
  917000   0.78929533   -4.4496937   -4.4496937    -3.265751  0.013055338   -4.4496937    1.1839427      8192000 
  918000   0.78934794    -4.449138    -4.449138   -3.2651164  0.012810473    -4.449138    1.1840216      8192000 
  919000   0.78956485   -4.4487118   -4.4487118   -3.2643649  0.012249022   -4.4487118     1.184347      8192000 
  920000   0.78985168   -4.4483589   -4.4483589   -3.2635816  0.013585109   -4.4483589    1.1847772      8192000 
  921000   0.78969435   -4.4474933   -4.4474933   -3.2629521  0.011810901   -4.4474933    1.1845412      8192000 
  922000   0.78965087   -4.4468004   -4.4468004   -3.2623243  0.014059852   -4.4468004     1.184476      8192000 
  923000   0.78991738   -4.4464647   -4.4464647    -3.261589  0.013499618   -4.4464647    1.1848758      8192000 
  924000   0.78978839   -4.4458107   -4.4458107   -3.2611284  0.015046627   -4.4458107    1.1846823      8192000 
  925000    0.7902677   -4.4459489   -4.4459489   -3.2605477  0.012893478   -4.4459489    1.1854012      8192000 
  926000   0.79007361   -4.4455728   -4.4455728   -3.2604627  0.012053758   -4.4455728    1.1851101      8192000 
  927000   0.79027764   -4.4450236   -4.4450236   -3.2596074  0.011698193   -4.4450236    1.1854162      8192000 
  928000    0.7902592    -4.444539    -4.444539   -3.2591505  0.011925096    -4.444539    1.1853885      8192000 
  929000   0.79047136   -4.4441789   -4.4441789   -3.2584721  0.011764301   -4.4441789    1.1857067      8192000 
  930000   0.79095686   -4.4441499   -4.4441499   -3.2577149  0.010710488   -4.4441499     1.186435      8192000 
  931000    0.7904883   -4.4427995   -4.4427995   -3.2570673  0.012583492   -4.4427995    1.1857321      8192000 
  932000   0.79031544   -4.4419912   -4.4419912   -3.2565183   0.01182727   -4.4419912    1.1854729      8192000 
  933000   0.79045514   -4.4415736   -4.4415736   -3.2558912  0.011137974   -4.4415736    1.1856824      8192000 
  934000   0.79086517   -4.4416926   -4.4416926   -3.2553952 0.0095830406   -4.4416926    1.1862975      8192000 
  935000   0.79077717   -4.4407859   -4.4407859   -3.2546204  0.011076546   -4.4407859    1.1861655      8192000 
  936000   0.79063448   -4.4398333   -4.4398333   -3.2538818  0.011420473   -4.4398333    1.1859514      8192000 
  937000   0.79112734   -4.4400387   -4.4400387   -3.2533479  0.012615551   -4.4400387    1.1866907      8192000 
  938000   0.79122435   -4.4398158   -4.4398158   -3.2529795   0.01231699   -4.4398158    1.1868362      8192000 
  939000   0.79154505   -4.4394906   -4.4394906   -3.2521733  0.011801435   -4.4394906    1.1873173      8192000 
  940000   0.79161351    -4.439018    -4.439018    -3.251598  0.013040088    -4.439018      1.18742      8192000 
  941000   0.79174197   -4.4388762   -4.4388762   -3.2512636  0.011186124   -4.4388762    1.1876127      8192000 
  942000   0.79143293   -4.4375852   -4.4375852   -3.2504361  0.011783062   -4.4375852    1.1871491      8192000 
  943000   0.79151634    -4.436658    -4.436658   -3.2493837  0.013756328    -4.436658    1.1872742      8192000 
  944000   0.79163098   -4.4364345   -4.4364345   -3.2489883  0.012145555   -4.4364345    1.1874462      8192000 
  945000   0.79192879   -4.4362157   -4.4362157   -3.2483228   0.01102061   -4.4362157    1.1878929      8192000 
  946000   0.79175684   -4.4353613   -4.4353613   -3.2477263  0.011403181   -4.4353613     1.187635      8192000 
  947000   0.79170802   -4.4346849   -4.4346849   -3.2471232  0.012507562   -4.4346849    1.1875617      8192000 
  948000   0.79204989   -4.4346464   -4.4346464   -3.2465718  0.011632642   -4.4346464    1.1880745      8192000 
  949000   0.79210341   -4.4341482   -4.4341482   -3.2459934  0.012126141   -4.4341482    1.1881548      8192000 
  950000   0.79294869   -4.4344696   -4.4344696   -3.2450468  0.010543965   -4.4344696    1.1894227      8192000 
  951000   0.79266633   -4.4334319   -4.4334319   -3.2444327  0.012929381   -4.4334319    1.1889992      8192000 
  952000   0.79245785   -4.4328285   -4.4328285    -3.244142  0.014651888   -4.4328285    1.1886865      8192000 
  953000   0.79304376   -4.4328218   -4.4328218   -3.2432565  0.012991955   -4.4328218    1.1895653      8192000 
  954000   0.79343393   -4.4326264   -4.4326264   -3.2424758  0.014081194   -4.4326264    1.1901506      8192000 
  955000   0.79334605   -4.4319854   -4.4319854   -3.2419666  0.014430404   -4.4319854    1.1900188      8192000 
  956000    0.7932909    -4.431348    -4.431348    -3.241412  0.012950783    -4.431348    1.1899361      8192000 
  957000   0.79327537   -4.4306184   -4.4306184   -3.2407056  0.012387937   -4.4306184    1.1899128      8192000 
  958000   0.79354173   -4.4302837   -4.4302837   -3.2399714  0.012725614   -4.4302837    1.1903123      8192000 
  959000    0.7937412   -4.4299613   -4.4299613   -3.2393498  0.011902478   -4.4299613    1.1906115      8192000 
  960000   0.79364913    -4.429513    -4.429513   -3.2390396  0.011220153    -4.429513    1.1904734      8192000 
  961000   0.79335797   -4.4287036   -4.4287036    -3.238667  0.011449437   -4.4287036    1.1900367      8192000 
  962000   0.79353626   -4.4283242   -4.4283242   -3.2380201  0.012252327   -4.4283242    1.1903041      8192000 
  963000   0.79379556   -4.4280709   -4.4280709   -3.2373779  0.012957274   -4.4280709     1.190693      8192000 
  964000   0.79406643   -4.4281978   -4.4281978   -3.2370985  0.011372982   -4.4281978    1.1910994      8192000 
  965000   0.79354081   -4.4266746   -4.4266746   -3.2363637  0.011037419   -4.4266746    1.1903109      8192000 
  966000   0.79427444   -4.4266321   -4.4266321   -3.2352207  0.012332819   -4.4266321    1.1914114      8192000 
  967000   0.79390387   -4.4255568   -4.4255568   -3.2347013  0.014614605   -4.4255568    1.1908555      8192000 
  968000   0.79424214   -4.4253861   -4.4253861   -3.2340232  0.012450162   -4.4253861    1.1913629      8192000 
  969000   0.79452163   -4.4253065   -4.4253065   -3.2335243  0.011055541   -4.4253065    1.1917821      8192000 
  970000    0.7947923   -4.4249572   -4.4249572    -3.232769  0.011456264   -4.4249572    1.1921882      8192000 
  971000   0.79519014   -4.4245879   -4.4245879    -3.231803  0.013662026   -4.4245879    1.1927849      8192000 
  972000    0.7953004   -4.4242998   -4.4242998   -3.2313495  0.011925006   -4.4242998    1.1929503      8192000 
  973000   0.79464884   -4.4226791   -4.4226791   -3.2307062  0.014077319   -4.4226791     1.191973      8192000 
  974000   0.79470735   -4.4223582   -4.4223582   -3.2302975  0.011951381   -4.4223582    1.1920607      8192000 
  975000   0.79512276   -4.4220671   -4.4220671   -3.2293833  0.012056555   -4.4220671    1.1926838      8192000 
  976000    0.7952101   -4.4213978   -4.4213978    -3.228583  0.012660468   -4.4213978    1.1928148      8192000 
  977000   0.79537798   -4.4207608   -4.4207608   -3.2276942  0.014461991   -4.4207608    1.1930667      8192000 
  978000   0.79515166   -4.4197465   -4.4197465   -3.2270193  0.013582605   -4.4197465    1.1927272      8192000 
  979000   0.79578199     -4.42008     -4.42008   -3.2264074  0.012724851     -4.42008    1.1936727      8192000 
  980000   0.79628451   -4.4199732   -4.4199732   -3.2255467  0.011329468   -4.4199732    1.1944265      8192000 
  981000   0.79569803   -4.4187675   -4.4187675   -3.2252207  0.013135517   -4.4187675    1.1935467      8192000 
  982000   0.79583714   -4.4182848   -4.4182848   -3.2245293  0.013393019   -4.4182848    1.1937554      8192000 
  983000   0.79586294    -4.418037    -4.418037   -3.2242429  0.012061579    -4.418037    1.1937941      8192000 
  984000    0.7961182   -4.4174915   -4.4174915   -3.2233145  0.010257585   -4.4174915     1.194177      8192000 
  985000   0.79582635   -4.4163059   -4.4163059   -3.2225667   0.01201614   -4.4163059    1.1937392      8192000 
  986000   0.79617675   -4.4160767   -4.4160767   -3.2218119  0.013233691   -4.4160767    1.1942648      8192000 
  987000   0.79606626   -4.4154263   -4.4154263   -3.2213272  0.011636834   -4.4154263    1.1940991      8192000 
  988000   0.79615666    -4.414866    -4.414866   -3.2206313  0.013117486    -4.414866    1.1942347      8192000 
  989000   0.79632563   -4.4143004   -4.4143004   -3.2198122  0.012097926   -4.4143004    1.1944881      8192000 
  990000   0.79666843   -4.4140112   -4.4140112   -3.2190088  0.013314873   -4.4140112    1.1950024      8192000 
  991000    0.7966598   -4.4136825   -4.4136825    -3.218693  0.010781881   -4.4136825    1.1949894      8192000 
  992000   0.79635256    -4.412375    -4.412375   -3.2178464  0.012428312    -4.412375    1.1945285      8192000 
  993000   0.79674083   -4.4122891   -4.4122891   -3.2171781  0.012794826   -4.4122891    1.1951109      8192000 
  994000   0.79692132   -4.4118579   -4.4118579   -3.2164762  0.011175362   -4.4118579    1.1953817      8192000 
  995000   0.79688536   -4.4113619   -4.4113619   -3.2160341  0.012526938   -4.4113619    1.1953277      8192000 
  996000   0.79688192   -4.4108166   -4.4108166   -3.2154941  0.012557112   -4.4108166    1.1953226      8192000 
  997000   0.79696491   -4.4101948   -4.4101948   -3.2147477  0.011763913   -4.4101948    1.1954471      8192000 
  998000   0.79736804    -4.410023    -4.410023   -3.2139713  0.011784308    -4.410023    1.1960518      8192000 
  999000   0.79760391   -4.4093697   -4.4093697   -3.2129642  0.012586653   -4.4093697    1.1964056      8192000 
 1000000    0.7977786   -4.4089885   -4.4089885   -3.2123209  0.012352716   -4.4089885    1.1966676      8192000 
Loop time of 22507.5 on 144 procs for 1000000 steps with 3993600 atoms

Performance: 19193.578 tau/day, 44.430 timesteps/s
99.5% CPU use with 144 MPI tasks x 1 OpenMP threads

MPI task timing breakdown:
Section |  min time  |  avg time  |  max time  |%varavg|  %CPU | %total
-----------------------------------------------------------------------
Pair    | 9086.9     | 10844      | 12296      | 581.5 |  99.5 | 48.18
Bond    | 0.82657    | 0.92322    | 1.027      |   4.0 | 100.0 |  0.00
Neigh   | 3839.5     | 4505       | 5139.8     | 330.9 |  99.6 | 20.02
Comm    | 3874.1     | 5854.5     | 8313.1     |1195.3 |  99.3 | 26.01
Output  | 51.065     | 51.445     | 51.45      |   0.4 |  98.2 |  0.23
Modify  | 650.47     | 840.88     | 1684       | 996.1 |  98.9 |  3.74
Other   |            | 410.6      |            |       |       |  1.82

Nlocal:        27733.3 ave       28833 max       27015 min
Histogram: 8 9 23 54 21 2 7 14 1 5
Nghost:        16560.3 ave       17945 max       12559 min
Histogram: 16 16 0 0 0 0 0 0 21 91
Neighs:        994551.0 ave 1.06059e+06 max      873448 min
Histogram: 10 14 8 0 3 13 1 27 51 17

Total # of neighbors = 1.4321534e+08
Ave neighs/atom = 35.861212
Ave special neighs/atom = 0.0000000
Neighbor list builds = 100000
Dangerous builds = 98998

write_restart	restart.005
System init for write_restart ...
write_data 	data.lj
System init for write_data ...
WARNING: Not all mixed pair coeffs generated from mixing. Use write_data with 'pair ij' option to store all pair coeffs. (src/write_data.cpp:312)
Total wall time: 6:15:16
