LAMMPS (24 Dec 2020)
OMP_NUM_THREADS environment is not set. Defaulting to 1 thread. (src/comm.cpp:94)
  using 1 OpenMP thread(s) per MPI task
# Simple rigid body system
# needed variables: startTemp, temp

units		lj
atom_style	full
dimension 	3
boundary	p p f
pair_style	lj/cut/opt 2.5

variable 	gcmcdisplace	equal 0
variable 	sigma		equal 1.0
variable 	epsilon 	equal 1.0


read_restart	restart.dat.3000000
Reading restart file ...
  restart file = 24 Dec 2020, LAMMPS = 24 Dec 2020
WARNING: Restart file used different # of processors: 48 vs. 192 (src/read_restart.cpp:697)
  restoring atom style full from restart
  orthogonal box = (0.0000000 0.0000000 0.0000000) to (80.000000 80.000000 160.00000)
  6 by 4 by 8 MPI processor grid
  restoring pair style lj/cut/opt from restart
  439061 atoms
Finding 1-2 1-3 1-4 neighbors ...
  special bond factors lj:    0        0        0       
  special bond factors coul:  0        0        0       
     0 = max # of 1-2 neighbors
     0 = max # of 1-3 neighbors
     0 = max # of 1-4 neighbors
     1 = max # of special neighbors
  special bonds CPU = 1.390 seconds
  read_restart CPU = 1.687 seconds

mass		1 1.0
mass		2 1.0
mass		3 1.0


group		solvent type 1
439061 atoms in group solvent


neighbor 	0.4 bin

pair_coeff	1 1 1.0 1.0
pair_coeff	2 2 0.0 0.0
pair_coeff	3 3 0.0 0.0
pair_coeff	2 3 0.0 0.0
pair_coeff	1 2*3 0.0 0.0

pair_modify 	shift yes


balance 	1.05 shift z 10 1.05
Balancing ...
Neighbor list info ...
  update every 1 steps, delay 10 steps, check yes
  max neighbors/atom: 2000, page size: 100000
  master list distance cutoff = 2.9
  ghost atom cutoff = 2.9
  binsize = 1.45, bins = 56 56 111
  1 neighbor lists, perpetual/occasional/extra = 1 0 0
  (1) pair lj/cut/opt, perpetual
      attributes: half, newton on
      pair build: half/bin/newton
      stencil: half/bin/3d/newton
      bin: standard
 rebalancing time: 0.025 seconds
  iteration count = 5
  initial/final maximal load/proc = 3162.0000 2575.0000
  initial/final imbalance factor  = 1.3827327 1.1260394
  x cuts: 0.0000000 0.16666667 0.33333333 0.50000000 0.66666667 0.83333333 1.0000000
  y cuts: 0.0000000 0.25000000 0.50000000 0.75000000 1.0000000
  z cuts: 0.0000000 0.097656250 0.18359375 0.27734375 0.37890625 0.47656250 0.57031250 0.67968750 1.0000000


####################### WALLS ###########################


variable       epsilonWall equal 2*${epsilon}
variable       epsilonWall equal 2*1

variable       cutoffTop   equal   0.7147*${sigma}
variable       cutoffTop   equal   0.7147*1

variable       cutoffLow   equal   3*${sigma}
variable       cutoffLow   equal   3*1


fix            topWall all wall/lj93 zhi EDGE                ${epsilonWall} ${sigma} ${cutoffTop} units box
fix            topWall all wall/lj93 zhi EDGE                2 ${sigma} ${cutoffTop} units box
fix            topWall all wall/lj93 zhi EDGE                2 1 ${cutoffTop} units box
fix            topWall all wall/lj93 zhi EDGE                2 1 0.7147 units box

fix            lowWall all wall/lj93 zlo EDGE                ${epsilonWall} ${sigma} ${cutoffLow} units box
fix            lowWall all wall/lj93 zlo EDGE                2 ${sigma} ${cutoffLow} units box
fix            lowWall all wall/lj93 zlo EDGE                2 1 ${cutoffLow} units box
fix            lowWall all wall/lj93 zlo EDGE                2 1 3 units box


###################### COMPUTES ##########################

compute        bin1 solvent chunk/atom bin/1d z upper 1.0



######################	FIXES ############################


fix 		peclet solvent ave/chunk 1000 1 1000 bin1 density/number norm 		 none ave one file density.profile

fix 		 temp solvent ave/chunk 1000 1 1000 bin1 temp norm none ave one file temp.profile

fix 		2 solvent nve

## Thermostat


region		regthermo block EDGE EDGE EDGE EDGE 0 20

group 		thermo dynamic solvent region regthermo every 1000
dynamic group thermo defined

fix 		3 thermo langevin ${startTemp} ${temp} 10 156453
fix 		3 thermo langevin 1.0 ${temp} 10 156453
fix 		3 thermo langevin 1.0 1.0 10 156453


## Evaporation

region		regevap block EDGE EDGE EDGE EDGE 140 158
fix 		gcmc solvent gcmc 100 100 0 1 780493 ${temp} ${mu} ${gcmcdisplace} region regevap
fix 		gcmc solvent gcmc 100 100 0 1 780493 1.0 ${mu} ${gcmcdisplace} region regevap
fix 		gcmc solvent gcmc 100 100 0 1 780493 1.0 -3.5 ${gcmcdisplace} region regevap
fix 		gcmc solvent gcmc 100 100 0 1 780493 1.0 -3.5 0 region regevap


#### Load balancing

fix 		bal all balance 1000 1.05 shift z 10 1.05

############### Diagnostics and computes ###################
#compute 	com cube	  rigid/local	1 mol x y z
#compute 	quat cube	  rigid/local	1 mol quatw quati quatj quatk

thermo 		1000
thermo_style 	custom step temp epair etotal press pe ke atoms

dump		1 all custom 100000 dump.lammpstrj id mol type x y z
dump 		2 all image 10000 image.*.png type type
dump 		3 all movie 1000 movie.avi type type
#dump 		com cube local 1000 dump.*.xyz c_com[*]
#dump		quat cube      local 1000 dump.*.quat c_quat[*]


restart 	1000000 restart.dat
timestep 	0.005
timer 		full
New timer settings: style=full  mode=nosync  timeout=off


run		5000000
Per MPI rank memory allocation (min/avg/max) = 9.923 | 9.986 | 10.01 Mbytes
Step Temp E_pair TotEng Press PotEng KinEng Atoms 
 3000000     1.016004   -3.1352716   -1.6112691  0.079025997   -3.1352716    1.5240025   439061 
 3001000    1.0150696   -3.1352491   -1.6123152  0.074069041   -3.1352491    1.5229339   438965 
 3002000    1.0160611   -3.1382852   -1.6135581  0.068731293   -3.1382852    1.5247271   438877 
 3003000    1.0137762    -3.136977   -1.6152937  0.079407109    -3.136977    1.5216833   438766 
 3004000    1.0149303   -3.1389609   -1.6152362  0.072999865   -3.1389609    1.5237247   438677 
 3005000    1.0118978   -3.1358608   -1.6163357  0.071085744   -3.1358608    1.5195252   438575 
 3006000    1.0138437   -3.1398873   -1.6170337  0.071756732   -3.1398873    1.5228536   438458 
 3007000    1.0120108   -3.1372942   -1.6167152  0.074542036   -3.1372942     1.520579   438320 
 3008000    1.0109903   -3.1374859   -1.6179931  0.071955458   -3.1374859    1.5194928   438191 
 3009000    1.0098531   -3.1367016   -1.6184364  0.080092654   -3.1367016    1.5182652   438052 
 3010000    1.0120114   -3.1372745    -1.615403  0.077932517   -3.1372745    1.5218715   437948 
 3011000    1.0112818   -3.1381252   -1.6169444  0.076692573   -3.1381252    1.5211808   437831 
 3012000    1.0102438   -3.1398143   -1.6197019  0.073335247   -3.1398143    1.5201124   437689 
 3013000     1.010371   -3.1410436   -1.6203438   0.07120678   -3.1410436    1.5206998   437575 
 3014000    1.0093416   -3.1404577    -1.620953  0.081483686   -3.1404577    1.5195047   437473 
 3015000    1.0099628   -3.1415947   -1.6209254  0.072002237   -3.1415947    1.5206694   437407 
 3016000    1.0105761   -3.1420366    -1.619988   0.07290174   -3.1420366    1.5220486   437276 
 3017000    1.0102796   -3.1424654   -1.6205954  0.077342625   -3.1424654    1.5218701   437199 
 3018000    1.0085757      -3.1415   -1.6217935  0.074520031      -3.1415    1.5197065   437083 
 3019000    1.0061795   -3.1386905   -1.6223656  0.075159928   -3.1386905    1.5163249   437017 
 3020000    1.0070379   -3.1393074   -1.6213415  0.072094532   -3.1393074    1.5179658   436917 
 3021000    1.0063391   -3.1397158   -1.6224039  0.071134132   -3.1397158    1.5173119   436802 
 3022000    1.0063206   -3.1416784   -1.6239635  0.069043608   -3.1416784    1.5177149   436678 
 3023000    1.0057104   -3.1412392   -1.6239304  0.063992113   -3.1412392    1.5173088   436530 
 3024000    1.0066099    -3.143568   -1.6243627  0.067067239    -3.143568    1.5192053   436375 
 3025000    1.0044603   -3.1412169   -1.6249571   0.07345006   -3.1412169    1.5162598   436289 
 3026000    1.0064322   -3.1444452   -1.6246895   0.07149909   -3.1444452    1.5197556   436140 
 3027000    1.0050459   -3.1425103   -1.6243677  0.070185873   -3.1425103    1.5181426   436002 
 3028000    1.0037002   -3.1417074   -1.6251976  0.068257585   -3.1417074    1.5165098   435887 
 3029000     1.004569   -3.1426767   -1.6243631   0.07590329   -3.1426767    1.5183136   435746 
 3030000    1.0037625   -3.1427799    -1.625316   0.06604475   -3.1427799    1.5174639   435640 
 3031000     1.000235   -3.1382529   -1.6257295    0.0701719   -3.1382529    1.5125233   435527 
 3032000    1.0038206   -3.1442864   -1.6259784  0.068248133   -3.1442864    1.5183079   435423 
 3033000    1.0021118   -3.1431862   -1.6270102  0.066086714   -3.1431862     1.516176   435293 
 3034000    1.0015496   -3.1438106   -1.6279907  0.071082975   -3.1438106    1.5158199   435151 
 3035000    1.0004635   -3.1429294   -1.6283111  0.067282772   -3.1429294    1.5146182   435024 
 3036000    1.0018273   -3.1463439   -1.6293298  0.066781015   -3.1463439    1.5170142   434929 
 3037000    1.0019709   -3.1453656   -1.6275652  0.069230112   -3.1453656    1.5178003   434766 
 3038000    1.0009196   -3.1452659   -1.6285416  0.072252439   -3.1452659    1.5167243   434618 
 3039000    1.0023475    -3.146506   -1.6271705  0.068431728    -3.146506    1.5193355   434490 
 3040000    1.0008331   -3.1455672   -1.6282339  0.070729374   -3.1455672    1.5173333   434406 
 3041000   0.99947261     -3.14439   -1.6288053  0.066419489     -3.14439    1.5155847   434316 
 3042000   0.99964433   -3.1460118   -1.6299015  0.066564322   -3.1460118    1.5161103   434240 
 3043000   0.99806774   -3.1440091   -1.6299586  0.066731399   -3.1440091    1.5140505   434145 
 3044000     1.000178   -3.1476896   -1.6301129  0.067946631   -3.1476896    1.5175767   434052 
 3045000   0.99685204   -3.1434649   -1.6305547  0.070916302   -3.1434649    1.5129102   433943 
 3046000   0.99686373   -3.1451852   -1.6318388  0.062487778   -3.1451852    1.5133464   433823 
 3047000   0.99680327   -3.1446256   -1.6309767   0.06652505   -3.1446256    1.5136489   433710 
 3048000   0.99648254   -3.1457515   -1.6322721  0.066814305   -3.1457515    1.5134794   433619 
 3049000   0.99710355   -3.1468493   -1.6320948  0.066922335   -3.1468493    1.5147545   433524 
 3050000    0.9965914   -3.1480435   -1.6335815  0.063489416   -3.1480435     1.514462   433385 
 3051000   0.99523396   -3.1463926   -1.6335954   0.06792457   -3.1463926    1.5127971   433271 
 3052000    0.9954255   -3.1483238   -1.6348163  0.066618949   -3.1483238    1.5135075   433151 
 3053000   0.99609821   -3.1510614   -1.6359889  0.067372475   -3.1510614    1.5150725   432996 
 3054000   0.99457615   -3.1501793   -1.6369781  0.068681002   -3.1501793    1.5132012   432869 
 3055000   0.99551561   -3.1537829   -1.6386763  0.063536267   -3.1537829    1.5151066   432733 
 3056000   0.99487725   -3.1541939   -1.6396388  0.061895002   -3.1541939    1.5145551   432613 
 3057000   0.99413213   -3.1523793   -1.6385772   0.06220199   -3.1523793    1.5138021   432504 
 3058000   0.99199046   -3.1502316   -1.6394531  0.068715371   -3.1502316    1.5107785   432436 
 3059000   0.99147876    -3.152059   -1.6416582  0.068135537    -3.152059    1.5104008   432321 
 3060000    0.9929773   -3.1540864   -1.6411473  0.064316855   -3.1540864    1.5129392   432248 
 3061000   0.99061521   -3.1515912   -1.6418284  0.061408582   -3.1515912    1.5097628   432127 
 3062000   0.99220557   -3.1550519   -1.6425047  0.066936074   -3.1550519    1.5125471   432024 
 3063000   0.99289436   -3.1563801   -1.6425902  0.063393985   -3.1563801    1.5137899   431969 
 3064000   0.99121684   -3.1553735   -1.6436898  0.061223517   -3.1553735    1.5116837   431840 
 3065000     0.991148   -3.1571731   -1.6450411  0.065267097   -3.1571731     1.512132   431682 
 3066000   0.99255461   -3.1574481   -1.6428193  0.066696715   -3.1574481    1.5146288   431582 
 3067000   0.99151247   -3.1579684   -1.6446073  0.065167805   -3.1579684    1.5133611   431490 
 3068000   0.99087777   -3.1574298   -1.6446763  0.066524952   -3.1574298    1.5127535   431387 
 3069000    0.9890809   -3.1563353   -1.6459469  0.065986628   -3.1563353    1.5103884   431279 
 3070000   0.98795394   -3.1570928   -1.6480055  0.065219005   -3.1570928    1.5090873   431159 
 3071000   0.98750775     -3.15781   -1.6490297  0.066285823     -3.15781    1.5087802   431052 
 3072000     0.986542   -3.1568529   -1.6490935  0.064723155   -3.1568529    1.5077594   430922 
 3073000   0.98621436   -3.1585749   -1.6508228  0.064900731   -3.1585749     1.507752   430781 
 3074000   0.98798577   -3.1614224   -1.6505484  0.062610866   -3.1614224     1.510874   430663 
 3075000   0.98791669   -3.1613162   -1.6502706  0.061279039   -3.1613162    1.5110456   430584 
 3076000   0.98758855   -3.1619207   -1.6510085  0.066262625   -3.1619207    1.5109121   430479 
 3077000   0.98611581   -3.1606384   -1.6516499  0.060111561   -3.1606384    1.5089885   430385 
 3078000   0.98601164   -3.1619227   -1.6527956  0.062906003   -3.1619227    1.5091271   430300 
 3079000   0.98500481   -3.1611161    -1.653204  0.064654753   -3.1611161     1.507912   430207 
 3080000   0.98660223   -3.1615512   -1.6508285  0.067473444   -3.1615512    1.5107227   430103 
 3081000   0.98541402   -3.1617227   -1.6523632  0.067705028   -3.1617227    1.5093595   429973 
 3082000   0.98639473   -3.1638502   -1.6525175  0.061368974   -3.1638502    1.5113326   429839 
 3083000   0.98554818   -3.1634339   -1.6529802  0.065371229   -3.1634339    1.5104537   429720 
 3084000   0.98542065   -3.1630299   -1.6524201  0.062913418   -3.1630299    1.5106098   429620 
 3085000   0.98552708   -3.1639324   -1.6528182  0.066979864   -3.1639324    1.5111141   429523 
 3086000   0.98620812   -3.1657608   -1.6531552  0.060561077   -3.1657608    1.5126056   429396 
 3087000    0.9860939   -3.1660548   -1.6531382  0.059083152   -3.1660548    1.5129167   429258 
 3088000   0.98389732    -3.163402   -1.6534896  0.064732579    -3.163402    1.5099124   429154 
 3089000   0.98288255   -3.1647276   -1.6561053  0.057830099   -3.1647276    1.5086223   429078 
 3090000   0.98315414   -3.1648884   -1.6555046  0.062077762   -3.1648884    1.5093839   428980 
 3091000   0.98300862   -3.1647701   -1.6552436  0.064877979   -3.1647701    1.5095264   428876 
 3092000   0.98206626   -3.1649702   -1.6565357  0.061120372   -3.1649702    1.5084345   428775 
 3093000   0.98090382   -3.1618379   -1.6548831  0.065556268   -3.1618379    1.5069548   428688 
 3094000   0.98075592   -3.1623128   -1.6553532  0.062515649   -3.1623128    1.5069596   428622 
 3095000   0.98103305   -3.1643605   -1.6564368  0.058914952   -3.1643605    1.5079237   428469 
 3096000   0.98081594   -3.1640183   -1.6559637  0.062558214   -3.1640183    1.5080546   428337 
 3097000   0.98052075   -3.1646099   -1.6565444  0.059518331   -3.1646099    1.5080654   428205 
 3098000   0.97940402    -3.164133   -1.6573699  0.061222498    -3.164133    1.5067631   428087 
 3099000   0.97776275   -3.1625625   -1.6581311  0.061569379   -3.1625625    1.5044314   428032 
 3100000   0.98010785   -3.1666279    -1.658338  0.062947332   -3.1666279    1.5082898   427961 
 3101000   0.97829589   -3.1653861    -1.659392    0.0595954   -3.1653861    1.5059941   427821 
 3102000   0.97777337   -3.1658851   -1.6602977  0.064766103   -3.1658851    1.5055874   427708 
 3103000   0.97805909    -3.166589   -1.6601989  0.055872151    -3.166589    1.5063901   427605 
 3104000   0.97831667   -3.1678415   -1.6605224   0.06341119   -3.1678415    1.5073191   427454 
 3105000   0.97807235    -3.168499   -1.6610521  0.063528263    -3.168499     1.507447   427311 
 3106000   0.97757902   -3.1687347    -1.661706  0.054630385   -3.1687347    1.5070287   427214 
 3107000   0.97830104   -3.1709953   -1.6625145  0.056369367   -3.1709953    1.5084808   427118 
 3108000   0.97776701   -3.1720646   -1.6639412  0.060514784   -3.1720646    1.5081234   426986 
 3109000   0.97752531   -3.1729816   -1.6648566  0.061567058   -3.1729816     1.508125   426880 
 3110000   0.97770035   -3.1735937   -1.6647462  0.061988607   -3.1735937    1.5088475   426752 
 3111000   0.97601495   -3.1737365   -1.6671405  0.063192066   -3.1737365     1.506596   426653 
 3112000   0.97762898   -3.1755058   -1.6660611  0.066808648   -3.1755058    1.5094447   426552 
 3113000   0.97658071   -3.1747294   -1.6665178  0.066422416   -3.1747294    1.5082116   426443 
 3114000   0.97517058    -3.173671   -1.6672026  0.063612221    -3.173671    1.5064684   426320 
 3115000   0.97650516   -3.1756673    -1.666808  0.064967993   -3.1756673    1.5088592   426227 
 3116000   0.97634745   -3.1764263   -1.6673612  0.068987512   -3.1764263    1.5090652   426100 
 3117000   0.97535954    -3.177354   -1.6694406   0.06526006    -3.177354    1.5079134   425994 
 3118000   0.97473348   -3.1778401    -1.670424  0.060379909   -3.1778401    1.5074161   425861 
 3119000   0.97510485     -3.18093   -1.6725783   0.06043866     -3.18093    1.5083517   425759 
 3120000   0.97328791   -3.1797359   -1.6738906  0.062357238   -3.1797359    1.5058453   425673 
 3121000   0.97158478   -3.1778974   -1.6744469  0.059492337   -3.1778974    1.5034504   425605 
 3122000   0.97321158   -3.1818561   -1.6754671  0.057933455   -3.1818561     1.506389   425486 
 3123000    0.9707812   -3.1785766    -1.675614  0.056964851   -3.1785766    1.5029627   425391 
 3124000   0.97118052   -3.1799386   -1.6758627  0.060920928   -3.1799386    1.5040759   425251 
 3125000   0.97132731   -3.1818469    -1.677119  0.057155689   -3.1818469    1.5047278   425131 
 3126000   0.97086465   -3.1829377   -1.6786081  0.059527331   -3.1829377    1.5043296   425041 
 3127000   0.97155256   -3.1846261   -1.6787098  0.057990329   -3.1846261    1.5059163   424894 
 3128000   0.97129091   -3.1837026   -1.6777417  0.060696533   -3.1837026    1.5059609   424767 
 3129000   0.97114299   -3.1836793   -1.6776039  0.062380386   -3.1836793    1.5060755   424670 
 3130000   0.97027984   -3.1835168   -1.6784007   0.05759986   -3.1835168    1.5051161   424563 
 3131000   0.96959533   -3.1835096   -1.6791152  0.058185347   -3.1835096    1.5043944   424467 
 3132000   0.97115923   -3.1860247   -1.6787066  0.061670079   -3.1860247    1.5073181   424327 
 3133000   0.97028589   -3.1856281   -1.6793177  0.058477835   -3.1856281    1.5063105   424229 
 3134000    0.9691348   -3.1858284   -1.6809218  0.055832571   -3.1858284    1.5049066   424121 
 3135000   0.96815548   -3.1832617    -1.679539  0.057864883   -3.1832617    1.5037227   424026 
 3136000   0.97005887   -3.1876184    -1.680648  0.060624764   -3.1876184    1.5069704   423944 
 3137000   0.96915536    -3.186263   -1.6804618  0.057535416    -3.186263    1.5058013   423878 
 3138000   0.96695055   -3.1831183   -1.6805371  0.062314263   -3.1831183    1.5025812   423820 
 3139000   0.96690528   -3.1849205   -1.6820231  0.055609801   -3.1849205    1.5028974   423711 
 3140000   0.96739878   -3.1864447   -1.6821981  0.057925693   -3.1864447    1.5042467   423547 
 3141000   0.96635561   -3.1868872   -1.6838119  0.062326543   -3.1868872    1.5030753   423420 
 3142000   0.96625232   -3.1865688   -1.6833169  0.060005089   -3.1865688    1.5032519   423325 
 3143000   0.96728243   -3.1888242   -1.6836034  0.064180673   -3.1888242    1.5052208   423222 
 3144000    0.9647938   -3.1879584   -1.6862768  0.059324515   -3.1879584    1.5016816   423128 
 3145000   0.96431934   -3.1873848   -1.6862253  0.056319649   -3.1873848    1.5011596   423067 
 3146000   0.96399103   -3.1866116   -1.6856261  0.055471582   -3.1866116    1.5009855   422972 
 3147000   0.96455155   -3.1891415   -1.6869955  0.056717835   -3.1891415     1.502146   422891 
 3148000   0.96277336   -3.1879733   -1.6881249  0.054575947   -3.1879733    1.4998484   422758 
 3149000   0.96263961   -3.1897715   -1.6897305  0.058065051   -3.1897715     1.500041   422645 
 3150000   0.96273016   -3.1903046   -1.6897888  0.057801975   -3.1903046    1.5005158   422551 
 3151000   0.96250132   -3.1904244   -1.6900025   0.05319246   -3.1904244    1.5004219   422477 
 3152000   0.96160503   -3.1893489    -1.689948  0.058327704   -3.1893489    1.4994009   422371 
 3153000   0.96164539   -3.1898533   -1.6899385   0.05808288   -3.1898533    1.4999148   422244 
 3154000   0.96329683   -3.1937539   -1.6908255    0.0577373   -3.1937539    1.5029285   422121 
 3155000    0.9630376   -3.1938178   -1.6909627  0.055463398   -3.1938178    1.5028551   422028 
 3156000   0.96166107   -3.1932999   -1.6923191  0.057660851   -3.1932999    1.5009808   421951 
 3157000   0.96164165   -3.1927788   -1.6915258  0.062083762   -3.1927788    1.5012529   421866 
 3158000   0.96255597   -3.1934538   -1.6904065  0.058160695   -3.1934538    1.5030473   421763 
 3159000   0.96270824   -3.1963414   -1.6925928  0.050251165   -3.1963414    1.5037486   421633 
 3160000   0.95974017   -3.1928404   -1.6932336  0.056203386   -3.1928404    1.4996068   421494 
 3161000   0.95956708   -3.1936931   -1.6940827  0.055795141   -3.1936931    1.4996103   421417 
 3162000   0.96099072   -3.1974531   -1.6952008  0.055928459   -3.1974531    1.5022523   421300 
 3163000   0.95897702   -3.1942163   -1.6946777  0.057771042   -3.1942163    1.4995386   421178 
 3164000   0.95893674   -3.1967764   -1.6968877  0.051872965   -3.1967764    1.4998887   421062 
 3165000   0.95904483   -3.1960441   -1.6954232  0.056721935   -3.1960441    1.5006209   420904 
 3166000    0.9589718   -3.1988539   -1.6978516  0.052081334   -3.1988539    1.5010023   420765 
 3167000   0.95884052   -3.1995251    -1.698343  0.056800981   -3.1995251    1.5011822   420657 
 3168000   0.95904547   -3.1994095   -1.6975959  0.058252911   -3.1994095    1.5018136   420570 
 3169000   0.95834741   -3.1987333   -1.6976987  0.056049848   -3.1987333    1.5010346   420482 
 3170000   0.95798143   -3.1995887    -1.698649  0.058389612   -3.1995887    1.5009397   420348 
 3171000   0.95812068   -3.1996459   -1.6980986  0.051175265   -3.1996459    1.5015472   420239 
 3172000   0.95856246     -3.20164    -1.699236  0.049819825     -3.20164     1.502404   420193 
 3173000   0.95587052   -3.1977298   -1.6992811  0.058593689   -3.1977298    1.4984487   420119 
 3174000   0.95648568   -3.2000073   -1.7003265  0.056801126   -3.2000073    1.4996808   420044 
 3175000   0.95562938   -3.2000877   -1.7013606   0.05615468   -3.2000877    1.4987271   419935 
 3176000   0.95465663   -3.2001508   -1.7026212  0.057817669   -3.2001508    1.4975296   419843 
 3177000   0.95514865   -3.2027204   -1.7042798  0.051100444   -3.2027204    1.4984406   419804 
 3178000   0.95496919   -3.2033281   -1.7047264  0.050076689   -3.2033281    1.4986017   419680 
 3179000    0.9523939   -3.2005884   -1.7056896   0.05249456   -3.2005884    1.4948988   419585 
 3180000    0.9544582   -3.2047098   -1.7062137  0.052339406   -3.2047098    1.4984961   419485 
 3181000   0.95580215   -3.2075522   -1.7064881  0.048500048   -3.2075522    1.5010641   419357 
 3182000   0.95405777    -3.205614   -1.7070571    0.0511479    -3.205614    1.4985569   419292 
 3183000   0.95379023   -3.2057088    -1.707297   0.05081597   -3.2057088    1.4984118   419215 
 3184000    0.9530317   -3.2050205   -1.7075253   0.05196111   -3.2050205    1.4974952   419138 
 3185000   0.95321523   -3.2044091   -1.7062717  0.053567447   -3.2044091    1.4981375   419039 
 3186000   0.95286751   -3.2045956   -1.7067258  0.051850115   -3.2045956    1.4978698   418961 
 3187000   0.95270325   -3.2033284   -1.7055488  0.057789508   -3.2033284    1.4977796   418914 
 3188000   0.95364669   -3.2057377   -1.7061706  0.056070599   -3.2057377    1.4995671   418829 
 3189000   0.95308599   -3.2059286    -1.706853  0.054184952   -3.2059286    1.4990755   418720 
 3190000   0.95402092   -3.2074352   -1.7065593   0.05704428   -3.2074352    1.5008758   418628 
 3191000   0.95209691   -3.2044395   -1.7062613  0.057887395   -3.2044395    1.4981782   418536 
 3192000   0.95148853   -3.2059908   -1.7083871  0.054190449   -3.2059908    1.4976037   418429 
 3193000   0.95135507   -3.2063813   -1.7085831  0.055851823   -3.2063813    1.4977982   418316 
 3194000   0.95156928   -3.2084471   -1.7100108  0.057280012   -3.2084471    1.4984363   418232 
 3195000   0.95075937   -3.2074155   -1.7099646   0.05253781   -3.2074155     1.497451   418151 
 3196000   0.95020676   -3.2073753   -1.7104869  0.053150257   -3.2073753    1.4968885   418065 
 3197000   0.95103014     -3.20888   -1.7104148  0.055298092     -3.20888    1.4984651   417987 
 3198000   0.95043718   -3.2091308   -1.7112093  0.052505169   -3.2091308    1.4979215   417878 
 3199000   0.95062731   -3.2098041   -1.7112531   0.05327542   -3.2098041     1.498551   417786 
 3200000   0.94981196   -3.2102592   -1.7126745  0.053213766   -3.2102592    1.4975848   417697 
 3201000   0.94953888   -3.2102735   -1.7127608  0.055861848   -3.2102735    1.4975127   417597 
 3202000   0.94825103   -3.2101862   -1.7143679  0.058564216   -3.2101862    1.4958183   417503 
 3203000   0.94921084    -3.212134   -1.7144931   0.05011593    -3.212134    1.4976409   417417 
 3204000   0.94837079   -3.2130988   -1.7165503   0.05363207   -3.2130988    1.4965485   417352 
 3205000   0.94816569   -3.2129705     -1.71643  0.048766461   -3.2129705    1.4965404   417264 
 3206000   0.94751102   -3.2131817   -1.7172337  0.053804912   -3.2131817    1.4959481   417141 
 3207000   0.94663977   -3.2127817   -1.7180443  0.057525862   -3.2127817    1.4947374   417095 
 3208000   0.94590195   -3.2113214   -1.7173944  0.053186316   -3.2113214     1.493927   416996 
 3209000   0.94695077   -3.2152167   -1.7192745  0.050333197   -3.2152167    1.4959422   416896 
 3210000   0.94760171   -3.2165158   -1.7191323  0.054461535   -3.2165158    1.4973835   416781 
 3211000   0.94625352   -3.2151882   -1.7196229  0.051866751   -3.2151882    1.4955653   416694 
 3212000   0.94540638   -3.2153231   -1.7207452   0.04961062   -3.2153231    1.4945779   416596 
 3213000   0.94513208   -3.2169871   -1.7225846  0.054034721   -3.2169871    1.4944026   416524 
 3214000   0.94560753   -3.2171353   -1.7217225   0.04956824   -3.2171353    1.4954128   416452 
 3215000     0.945883   -3.2173187    -1.721226  0.053944711   -3.2173187    1.4960928   416384 
 3216000   0.94627224   -3.2187784   -1.7219118  0.053437943   -3.2187784    1.4968666   416340 
 3217000   0.94632652   -3.2209135   -1.7235042  0.055151886   -3.2209135    1.4974092   416213 
 3218000   0.94538209   -3.2201803   -1.7240102  0.047279327   -3.2201803      1.49617   416142 
 3219000   0.94417739   -3.2196942   -1.7251254  0.055533825   -3.2196942    1.4945687   416057 
 3220000   0.94380334   -3.2203605   -1.7259708  0.054768485   -3.2203605    1.4943897   415942 
 3221000   0.94412135   -3.2210156     -1.72586  0.054741714   -3.2210156    1.4951556   415869 
 3222000   0.94492089   -3.2217833   -1.7250843  0.048886406   -3.2217833    1.4966989   415792 
 3223000   0.94545905   -3.2238974    -1.726011  0.050870749   -3.2238974    1.4978864   415699 
 3224000   0.94405877   -3.2226934   -1.7267448    0.0550265   -3.2226934    1.4959486   415621 
 3225000   0.94317398   -3.2223941   -1.7274554  0.052945475   -3.2223941    1.4949387   415512 
 3226000   0.94406324   -3.2226881   -1.7260914  0.055066247   -3.2226881    1.4965967   415443 
 3227000   0.94297703   -3.2213751    -1.726378  0.049992235   -3.2213751    1.4949971   415409 
 3228000   0.94087353   -3.2207905   -1.7289703  0.048670037   -3.2207905    1.4918202   415365 
 3229000   0.94365703   -3.2249996   -1.7285498  0.052376122   -3.2249996    1.4964498   415305 
 3230000   0.94378927   -3.2242044   -1.7272493   0.05396822   -3.2242044    1.4969551   415223 
 3231000   0.94139247   -3.2231051    -1.729725  0.050812388   -3.2231051    1.4933801   415160 
 3232000   0.94305727   -3.2248784   -1.7284934   0.05533192   -3.2248784    1.4963851   415059 
 3233000   0.94281407   -3.2253893   -1.7290585  0.049131033   -3.2253893    1.4963308   414967 
 3234000   0.94128049   -3.2232473   -1.7291236  0.049351569   -3.2232473    1.4941238   414904 
 3235000   0.94116839   -3.2241167   -1.7297459  0.054515756   -3.2241167    1.4943708   414786 
 3236000   0.94058262    -3.225511   -1.7317101  0.048688809    -3.225511    1.4938009   414686 
 3237000   0.93957343    -3.224636   -1.7322976  0.050461043    -3.224636    1.4923385   414647 
 3238000   0.94085512   -3.2262975   -1.7317035  0.049920018   -3.2262975    1.4945941   414586 
 3239000      0.94078   -3.2248167   -1.7301256   0.05082087   -3.2248167    1.4946911   414526 
 3240000   0.93966382   -3.2254738   -1.7323796  0.045237633   -3.2254738    1.4930942   414477 
 3241000   0.93905692    -3.225122   -1.7326429  0.051757311    -3.225122    1.4924791   414380 
 3242000   0.93852167   -3.2248483   -1.7330507  0.048002075   -3.2248483    1.4917976   414333 
 3243000   0.93995014   -3.2274676   -1.7331108  0.048344145   -3.2274676    1.4943567   414253 
 3244000    0.9396031    -3.226632   -1.7326069  0.048664825    -3.226632     1.494025   414192 
 3245000   0.93947301   -3.2272184   -1.7333678  0.048792252   -3.2272184    1.4938506   414183 
 3246000   0.93915368   -3.2276979   -1.7339692  0.044424034   -3.2276979    1.4937287   414076 
 3247000   0.93814496   -3.2254975   -1.7331569  0.051761792   -3.2254975    1.4923406   414016 
 3248000   0.93893381   -3.2276284    -1.733654  0.049632246   -3.2276284    1.4939743   413911 
 3249000   0.93868836   -3.2277189   -1.7337923  0.053397559   -3.2277189    1.4939267   413816 
 3250000   0.93862363   -3.2285664   -1.7345802   0.05130167   -3.2285664    1.4939861   413771 
 3251000   0.93733857    -3.227376   -1.7351792  0.045948593    -3.227376    1.4921968   413700 
 3252000   0.93775746   -3.2293279   -1.7362982  0.050216016   -3.2293279    1.4930296   413654 
 3253000    0.9375041   -3.2296314   -1.7366515  0.054724458   -3.2296314      1.49298   413556 
 3254000   0.93751251   -3.2295847   -1.7363494  0.047930972   -3.2295847    1.4932353   413489 
 3255000   0.93674682   -3.2295821   -1.7373895  0.053962389   -3.2295821    1.4921926   413440 
 3256000   0.93581694   -3.2299425   -1.7389788  0.044784797   -3.2299425    1.4909637   413370 
 3257000   0.93483311   -3.2283041   -1.7386267   0.05191527   -3.2283041    1.4896774   413292 
 3258000   0.93535883   -3.2301217   -1.7392242  0.051854896   -3.2301217    1.4908975   413186 
 3259000   0.93533782   -3.2296613   -1.7384833   0.04969897   -3.2296613     1.491178   413099 
 3260000   0.93638603   -3.2303974   -1.7372917  0.049477221   -3.2303974    1.4931057   413028 
 3261000   0.93570757   -3.2307709   -1.7385591  0.047280142   -3.2307709    1.4922118   412976 
 3262000    0.9363595   -3.2320624   -1.7384529  0.054848477   -3.2320624    1.4936095   412877 
 3263000   0.93632757   -3.2334199   -1.7395864  0.051622288   -3.2334199    1.4938335   412801 
 3264000   0.93503836   -3.2326777   -1.7405504  0.054325574   -3.2326777    1.4921273   412704 
 3265000   0.93534373   -3.2348602   -1.7420901  0.049509373   -3.2348602    1.4927702   412661 
 3266000   0.93433713   -3.2333174   -1.7419007  0.052575744   -3.2333174    1.4914167   412591 
 3267000   0.93420283   -3.2340172   -1.7425365  0.048425974   -3.2340172    1.4914806   412514 
 3268000     0.932461    -3.231916   -1.7430503  0.048453383    -3.231916    1.4888658   412468 
 3269000   0.93104099   -3.2318884   -1.7450412   0.04677921   -3.2318884    1.4868472   412399 
 3270000   0.93141359   -3.2324754   -1.7448997  0.048497117   -3.2324754    1.4875757   412362 
 3271000   0.93138317   -3.2352585   -1.7475655  0.045422418   -3.2352585     1.487693   412316 
 3272000   0.93264799   -3.2375483   -1.7475278  0.041383361   -3.2375483    1.4900205   412231 
 3273000   0.93141456   -3.2375102   -1.7490089  0.046060098   -3.2375102    1.4885013   412106 
 3274000   0.93094188   -3.2353865   -1.7474601   0.04888303   -3.2353865    1.4879264   412056 
 3275000   0.93090174   -3.2362788   -1.7481132  0.043718391   -3.2362788    1.4881656   411972 
 3276000   0.93030383   -3.2358872   -1.7484499  0.049745839   -3.2358872    1.4874373   411909 
 3277000   0.93064946   -3.2368532   -1.7486176   0.04609318   -3.2368532    1.4882356   411841 
 3278000   0.93195089   -3.2403284   -1.7497366  0.041647249   -3.2403284    1.4905918   411765 
 3279000   0.93028884   -3.2380095   -1.7498375  0.049884652   -3.2380095     1.488172   411699 
 3280000   0.93031089   -3.2374678   -1.7489749  0.050708669   -3.2374678    1.4884929   411620 
 3281000   0.92990006   -3.2390902    -1.751016   0.04605605   -3.2390902    1.4880742   411554 
 3282000   0.92986612   -3.2399581   -1.7517068  0.049143195   -3.2399581    1.4882513   411490 
 3283000   0.93133333   -3.2415343   -1.7506992  0.043431675   -3.2415343    1.4908351   411425 
 3284000   0.92933071   -3.2389901   -1.7510207  0.050540915   -3.2389901    1.4879693   411331 
 3285000   0.92865604   -3.2386859   -1.7516016  0.050783054   -3.2386859    1.4870843   411277 
 3286000   0.92946942   -3.2404475   -1.7518182  0.044065541   -3.2404475    1.4886293   411210 
 3287000   0.92764348   -3.2407075   -1.7547713  0.045883204   -3.2407075    1.4859362   411146 
 3288000   0.92870796   -3.2418587   -1.7539604  0.045853598   -3.2418587    1.4878983   411075 
 3289000   0.92939562   -3.2433553   -1.7540221  0.049875795   -3.2433553    1.4893333   410983 
 3290000   0.92893763   -3.2428537   -1.7542109  0.047918713   -3.2428537    1.4886428   410971 
 3291000   0.92966183    -3.244115   -1.7541231  0.046876016    -3.244115    1.4899919   410919 
 3292000   0.92733507   -3.2419346   -1.7552884  0.044341075   -3.2419346    1.4866462   410813 
 3293000   0.92808055   -3.2439876   -1.7560594  0.046702111   -3.2439876    1.4879283   410789 
 3294000   0.92839084   -3.2449524   -1.7562911  0.045293309   -3.2449524    1.4886613   410724 
 3295000   0.92877965   -3.2448043   -1.7553418  0.045757235   -3.2448043    1.4894625   410675 
 3296000   0.92736241   -3.2431086   -1.7556907  0.045920745   -3.2431086    1.4874178   410612 
 3297000   0.92564863   -3.2425699    -1.757579  0.048224529   -3.2425699    1.4849909   410523 
 3298000   0.92714998   -3.2451844    -1.757611  0.050370396   -3.2451844    1.4875734   410475 
 3299000   0.92602023   -3.2430941   -1.7572646  0.048374619   -3.2430941    1.4858296   410456 
 3300000   0.92639243   -3.2439317   -1.7573782  0.046904962   -3.2439317    1.4865535   410421 
 3301000   0.92677312   -3.2442928    -1.757027  0.050786076   -3.2442928    1.4872659   410393 
 3302000   0.92748894    -3.246805   -1.7582163  0.049250721    -3.246805    1.4885887   410345 
 3303000   0.92692811   -3.2457861   -1.7577276  0.047997343   -3.2457861    1.4880585   410243 
 3304000   0.92750611   -3.2473602   -1.7583775  0.049205281   -3.2473602    1.4889828   410244 
 3305000   0.92750925   -3.2459271   -1.7567686  0.049923407   -3.2459271    1.4891584   410197 
 3306000   0.92712205   -3.2465786   -1.7577442  0.053794632   -3.2465786    1.4888344   410115 
 3307000   0.92685645   -3.2472222   -1.7585094   0.04944327   -3.2472222    1.4887128   410031 
 3308000   0.92695131   -3.2492509   -1.7601352  0.044801857   -3.2492509    1.4891157   409962 
 3309000   0.92596832   -3.2475945    -1.759793  0.054328518   -3.2475945    1.4878015   409889 
 3310000   0.92737357   -3.2496684   -1.7594563  0.048499585   -3.2496684    1.4902121   409847 
 3311000   0.92545358   -3.2484832   -1.7611132  0.050861877   -3.2484832      1.48737   409780 
 3312000   0.92422283   -3.2473828   -1.7617407  0.048277133   -3.2473828    1.4856421   409711 
 3313000   0.92312539   -3.2478628   -1.7637783  0.049634536   -3.2478628    1.4840845   409654 
 3314000   0.92399448   -3.2481433   -1.7625963   0.04898371   -3.2481433     1.485547   409636 
 3315000   0.92484003    -3.250288    -1.763182  0.050832449    -3.250288    1.4871061   409581 
 3316000   0.92466057   -3.2505145   -1.7634864  0.044499809   -3.2505145    1.4870281   409523 
 3317000   0.92330104   -3.2492723   -1.7641441  0.048723424   -3.2492723    1.4851282   409444 
 3318000   0.92337843   -3.2505882   -1.7650271  0.050633576   -3.2505882    1.4855611   409359 
 3319000   0.92156457    -3.248426   -1.7654716  0.049949714    -3.248426    1.4829544   409273 
 3320000   0.92327887   -3.2520742   -1.7661179  0.044345386   -3.2520742    1.4859563   409206 
 3321000    0.9212654    -3.247846   -1.7649346  0.047982315    -3.247846    1.4829114   409152 
 3322000   0.92227761    -3.250359   -1.7656332  0.050163531    -3.250359    1.4847258   409101 
 3323000   0.92458279   -3.2538393   -1.7650859  0.051447047   -3.2538393    1.4887534   409014 
 3324000   0.92520577   -3.2534611   -1.7636354  0.048218741   -3.2534611    1.4898257   408995 
 3325000   0.92505215   -3.2510107   -1.7613449  0.049433725   -3.2510107    1.4896658   408971 
 3326000    0.9241234   -3.2515024   -1.7632595  0.050908157   -3.2515024    1.4882429   408951 
 3327000   0.92353439   -3.2520748   -1.7645767   0.05200115   -3.2520748     1.487498   408895 
 3328000   0.92262227   -3.2507078   -1.7645262  0.046660935   -3.2507078    1.4861816   408853 
 3329000   0.92332385   -3.2533692   -1.7659047  0.044359068   -3.2533692    1.4874645   408811 
 3330000   0.92265206   -3.2516256   -1.7651343  0.049838918   -3.2516256    1.4864913   408781 
 3331000   0.92150815   -3.2505757   -1.7656476  0.051369489   -3.2505757    1.4849281   408704 
 3332000   0.92158893   -3.2528827   -1.7676063  0.046089911   -3.2528827    1.4852763   408644 
 3333000   0.92047127   -3.2509633   -1.7673539  0.048064996   -3.2509633    1.4836094   408607 
 3334000   0.92128195   -3.2510303   -1.7659616  0.049462035   -3.2510303    1.4850687   408565 
 3335000    0.9232953   -3.2539374   -1.7653391  0.050554533   -3.2539374    1.4885983   408487 
 3336000   0.92410698   -3.2538837    -1.763995  0.050193917   -3.2538837    1.4898887   408492 
 3337000   0.92085541   -3.2515361   -1.7665262  0.047750059   -3.2515361    1.4850099   408392 
 3338000   0.92221202   -3.2531925   -1.7657581  0.049977889   -3.2531925    1.4874344   408327 
 3339000   0.92311272   -3.2543284   -1.7652225  0.050564551   -3.2543284    1.4891059   408267 
 3340000   0.92336579   -3.2564991   -1.7666967   0.05427298   -3.2564991    1.4898024   408188 
 3341000   0.92209349   -3.2547896   -1.7669488  0.049110183   -3.2547896    1.4878408   408163 
 3342000   0.92198023   -3.2543176    -1.766408   0.05097341   -3.2543176    1.4879095   408094 
 3343000   0.92252213   -3.2555405   -1.7664244  0.052749226   -3.2555405    1.4891161   408003 
 3344000   0.92183808   -3.2558047   -1.7675958  0.052629616   -3.2558047    1.4882089   407949 
 3345000   0.92158612   -3.2575718   -1.7693903  0.042995119   -3.2575718    1.4881816   407845 
 3346000    0.9176698   -3.2522493   -1.7701084  0.046811298   -3.2522493    1.4821409   407767 
 3347000   0.91939457   -3.2567247   -1.7715795  0.048986384   -3.2567247    1.4851451   407707 
 3348000     0.917696   -3.2533005   -1.7708228  0.046391548   -3.2533005    1.4824777   407686 
 3349000   0.91978104   -3.2561238   -1.7702049  0.044869787   -3.2561238    1.4859189   407666 
 3350000   0.91859535   -3.2552792   -1.7711667  0.045426224   -3.2552792    1.4841126   407636 
 3351000   0.92086013   -3.2578818   -1.7700554  0.046021507   -3.2578818    1.4878264   407621 
 3352000   0.91797528   -3.2549883   -1.7714954  0.043236996   -3.2549883    1.4834929   407531 
 3353000   0.91794702   -3.2571281   -1.7733422  0.044926059   -3.2571281    1.4837858   407438 
 3354000   0.91798997   -3.2572287   -1.7729545  0.049117226   -3.2572287    1.4842742   407323 
 3355000    0.9176582   -3.2561826   -1.7721935  0.050736887   -3.2561826    1.4839891   407254 
 3356000    0.9180162   -3.2585715   -1.7737737  0.043824359   -3.2585715    1.4847978   407191 
 3357000   0.91876123   -3.2602247   -1.7738204  0.044461613   -3.2602247    1.4864043   407081 
 3358000   0.91723826   -3.2578114   -1.7736741  0.045889856   -3.2578114    1.4841373   407027 
 3359000   0.91756996    -3.257627   -1.7727159  0.044035407    -3.257627    1.4849111   406962 
 3360000   0.91685482   -3.2572312   -1.7734117  0.049877637   -3.2572312    1.4838194   406944 
 3361000   0.91856531    -3.260936   -1.7741474  0.044089927    -3.260936    1.4867886   406889 
 3362000    0.9179755   -3.2606194   -1.7746174  0.052138963   -3.2606194    1.4860019   406843 
 3363000   0.91796997   -3.2612289   -1.7749912  0.049536008   -3.2612289    1.4862377   406776 
 3364000   0.91867382   -3.2620167   -1.7744164  0.046629417   -3.2620167    1.4876004   406715 
 3365000   0.91758211   -3.2622308   -1.7761059   0.04435006   -3.2622308    1.4861249   406635 
 3366000   0.91799305   -3.2628248    -1.775771  0.045689995   -3.2628248    1.4870538   406563 
 3367000   0.91638179   -3.2596592   -1.7750877  0.048374039   -3.2596592    1.4845715   406528 
 3368000   0.91495845   -3.2596189   -1.7771272  0.053444893   -3.2596189    1.4824917   406466 
 3369000   0.91506715   -3.2605915   -1.7777595  0.041055867   -3.2605915     1.482832   406421 
 3370000   0.91575437   -3.2624039   -1.7782611  0.046289388   -3.2624039    1.4841428   406367 
 3371000   0.91499107   -3.2622084   -1.7791493  0.046870008   -3.2622084     1.483059   406325 
 3372000   0.91397084   -3.2612023      -1.7796  0.044746242   -3.2612023    1.4816023   406271 
 3373000   0.91614452    -3.265056   -1.7798533   0.04644081    -3.265056    1.4852028   406250 
 3374000   0.91395166   -3.2624832   -1.7807588  0.048922595   -3.2624832    1.4817244   406229 
 3375000   0.91486529   -3.2633303   -1.7799457  0.047720971   -3.2633303    1.4833845   406180 
 3376000    0.9148629    -3.263874   -1.7801426   0.04665601    -3.263874    1.4837313   406084 
 3377000   0.91277624   -3.2600548   -1.7795764   0.05078639   -3.2600548    1.4804784   406048 
 3378000   0.91431141   -3.2628784   -1.7796872  0.049248416   -3.2628784    1.4831912   405987 
 3379000   0.91495332   -3.2647014   -1.7803372  0.041860923   -3.2647014    1.4843641   405951 
 3380000   0.91473154   -3.2650913   -1.7811309  0.050806997   -3.2650913    1.4839605   405963 
 3381000   0.91521522   -3.2659156   -1.7809656  0.049101529   -3.2659156      1.48495   405907 
 3382000   0.91492639   -3.2654012    -1.780748  0.049010577   -3.2654012    1.4846533   405860 
 3383000    0.9144639    -3.264952   -1.7808884  0.052732731    -3.264952    1.4840637   405816 
 3384000   0.91524835   -3.2654472   -1.7799531  0.047505469   -3.2654472    1.4854941   405773 
 3385000    0.9150261   -3.2658806   -1.7805129  0.048984944   -3.2658806    1.4853677   405709 
 3386000   0.91503883    -3.267191   -1.7815464  0.044249272    -3.267191    1.4856447   405639 
 3387000   0.91353641   -3.2658439   -1.7824959  0.046404307   -3.2658439     1.483348   405600 
 3388000   0.91405664   -3.2669115   -1.7824882  0.043257525   -3.2669115    1.4844233   405537 
 3389000   0.91307741   -3.2658422   -1.7828702  0.047598198   -3.2658422     1.482972   405499 
 3390000   0.91201151   -3.2655976   -1.7841266  0.045739944   -3.2655976     1.481471   405436 
 3391000   0.91464505   -3.2682338   -1.7824117  0.048274572   -3.2682338    1.4858222   405416 
 3392000   0.91329893   -3.2673031   -1.7834627  0.048148249   -3.2673031    1.4838404   405360 
 3393000   0.91256704   -3.2651231   -1.7824498  0.051564408   -3.2651231    1.4826732   405354 
 3394000   0.91399491   -3.2675755   -1.7823882  0.048755888   -3.2675755    1.4851873   405301 
 3395000   0.91253754   -3.2661879   -1.7831089  0.049699665   -3.2661879     1.483079   405230 
 3396000   0.91278201   -3.2667653    -1.783029  0.048027921   -3.2667653    1.4837363   405159 
 3397000   0.91263812   -3.2675016   -1.7839773  0.045156242   -3.2675016    1.4835243   405153 
 3398000   0.91178704   -3.2671546   -1.7847173  0.048593987   -3.2671546    1.4824373   405072 
 3399000   0.91219581   -3.2676398   -1.7842926  0.046040325   -3.2676398    1.4833472   405005 
 3400000   0.91103269   -3.2676326   -1.7860378  0.050412508   -3.2676326    1.4815948   404967 
 3401000   0.91091511   -3.2686098   -1.7869574  0.038925579   -3.2686098    1.4816524   404899 
 3402000   0.91039941   -3.2672132   -1.7861545  0.045173067   -3.2672132    1.4810587   404832 
 3403000   0.91150761   -3.2682723   -1.7853009  0.051248436   -3.2682723    1.4829714   404802 
 3404000   0.91015703   -3.2669401   -1.7860269   0.04593635   -3.2669401    1.4809131   404764 
 3405000    0.9122988   -3.2702721   -1.7856284  0.046650649   -3.2702721    1.4846437   404697 
 3406000   0.91350314   -3.2720074   -1.7851098  0.044735626   -3.2720074    1.4868976   404617 
 3407000   0.91067401   -3.2687913   -1.7863119  0.044152726   -3.2687913    1.4824795   404566 
 3408000   0.90947173   -3.2680144   -1.7872615  0.045138145   -3.2680144    1.4807529   404503 
 3409000   0.90940318   -3.2677737   -1.7868139  0.047740222   -3.2677737    1.4809598   404416 
 3410000    0.9089769   -3.2676062   -1.7869525  0.051805882   -3.2676062    1.4806537   404310 
 3411000   0.90928802   -3.2689122   -1.7876528  0.046872546   -3.2689122    1.4812594   404283 
 3412000   0.90922373   -3.2701498   -1.7887569  0.046840263   -3.2701498    1.4813929   404218 
 3413000   0.90789865   -3.2690962   -1.7897379  0.045351915   -3.2690962    1.4793583   404184 
 3414000   0.90764999   -3.2692566   -1.7902632  0.040242569   -3.2692566    1.4789934   404173 
 3415000   0.90710573   -3.2677933   -1.7895148  0.043982998   -3.2677933    1.4782785   404126 
 3416000   0.90626268   -3.2707428   -1.7936409  0.040894478   -3.2707428    1.4771019   404072 
 3417000   0.90607488   -3.2712344   -1.7941681  0.039073956   -3.2712344    1.4770664   403998 
 3418000   0.90720026   -3.2726709   -1.7935686  0.041947473   -3.2726709    1.4791023   403943 
 3419000   0.90618692   -3.2709563   -1.7932172  0.041770393   -3.2709563    1.4777391   403864 
 3420000   0.90710468   -3.2732998   -1.7937307  0.043529808   -3.2732998    1.4795691   403773 
 3421000   0.90704437   -3.2738528   -1.7941915  0.043309764   -3.2738528    1.4796613   403721 
 3422000   0.90708397   -3.2742444   -1.7944232  0.052343512   -3.2742444    1.4798212   403695 
 3423000   0.90597536   -3.2733713   -1.7950804  0.045989236   -3.2733713    1.4782909   403619 
 3424000   0.90776468   -3.2755579   -1.7942446   0.04442213   -3.2755579    1.4813134   403591 
 3425000   0.90702865   -3.2775397   -1.7971082  0.045675842   -3.2775397    1.4804314   403504 
 3426000   0.90834662   -3.2774575   -1.7947059  0.048999487   -3.2774575    1.4827516   403458 
 3427000   0.90760811   -3.2773858    -1.795623  0.048918004   -3.2773858    1.4817628   403399 
 3428000    0.9090064   -3.2794352    -1.795305  0.048386714   -3.2794352    1.4841302   403376 
 3429000   0.90665696    -3.276672   -1.7961391  0.046940006    -3.276672    1.4805329   403311 
 3430000   0.90685215   -3.2782566   -1.7971772  0.047830801   -3.2782566    1.4810793   403249 
 3431000   0.90757972   -3.2794286    -1.796922  0.044258359   -3.2794286    1.4825066   403184 
 3432000   0.90665291   -3.2786545   -1.7974267   0.04847786   -3.2786545    1.4812278   403120 
 3433000   0.90594427   -3.2780905   -1.7978258  0.047497319   -3.2780905    1.4802647   403067 
 3434000   0.90469953   -3.2795471   -1.8010302  0.048586351   -3.2795471    1.4785169   402989 
 3435000   0.90563029   -3.2805904   -1.8003246  0.044636749   -3.2805904    1.4802658   402927 
 3436000   0.90527176   -3.2814232   -1.8014312  0.049105609   -3.2814232     1.479992   402842 
 3437000   0.90403602   -3.2803512   -1.8023098  0.041670221   -3.2803512    1.4780414   402823 
 3438000   0.90388944   -3.2803608   -1.8023536  0.040777518   -3.2803608    1.4780073   402767 
 3439000   0.90463273   -3.2824327   -1.8029456  0.040118904   -3.2824327    1.4794871   402695 
 3440000   0.90188243    -3.279145    -1.803958  0.045325899    -3.279145     1.475187   402641 
 3441000   0.90203949   -3.2780972   -1.8024518  0.051576818   -3.2780972    1.4756454   402586 
 3442000    0.9020911   -3.2772751   -1.8014279  0.043189629   -3.2772751    1.4758472   402554 
 3443000   0.90216208   -3.2772339    -1.801135  0.045750326   -3.2772339     1.476099   402517 
 3444000   0.90158967   -3.2772478   -1.8018362  0.043667881   -3.2772478    1.4754116   402449 
 3445000   0.90381898   -3.2809278   -1.8015114  0.044413228   -3.2809278    1.4794164   402352 
 3446000   0.90325051   -3.2804932     -1.80175  0.047228667   -3.2804932    1.4787432   402282 
 3447000    0.9022693   -3.2795111   -1.8021834  0.051205686   -3.2795111    1.4773277   402230 
 3448000   0.90197542    -3.278234   -1.8012516  0.045551397    -3.278234    1.4769824   402193 
 3449000   0.90158956   -3.2779999   -1.8014437  0.040918324   -3.2779999    1.4765562   402137 
 3450000   0.90173402   -3.2788343   -1.8020048   0.04088827   -3.2788343    1.4768295   402127 
 3451000   0.89897936   -3.2758032   -1.8032472  0.045173678   -3.2758032     1.472556   402062 
 3452000   0.90093391   -3.2788621   -1.8030237  0.046487444   -3.2788621    1.4758384   402040 
 3453000   0.90062755   -3.2798847   -1.8044234  0.045854567   -3.2798847    1.4754613   402006 
 3454000   0.89851523   -3.2756445   -1.8035155  0.041789768   -3.2756445    1.4721289   401971 
 3455000    0.9003303   -3.2788375   -1.8034154  0.043564697   -3.2788375    1.4754221   401884 
 3456000   0.90047671   -3.2792687   -1.8034378  0.041973423   -3.2792687    1.4758309   401838 
 3457000   0.89942263   -3.2779012   -1.8036731  0.043049238   -3.2779012    1.4742281   401804 
 3458000   0.89970843   -3.2778127   -1.8028849  0.048500356   -3.2778127    1.4749278   401741 
 3459000   0.90246958   -3.2820277   -1.8024114  0.043297441   -3.2820277    1.4796163   401697 
 3460000   0.90299139   -3.2819536   -1.8014449  0.042217129   -3.2819536    1.4805087   401687 
 3461000   0.90248722    -3.280811   -1.8008379  0.045449126    -3.280811    1.4799732   401608 
 3462000   0.90160397   -3.2800571   -1.8014108  0.044585937   -3.2800571    1.4786462   401575 
 3463000   0.90109057   -3.2806172   -1.8026805   0.04503352   -3.2806172    1.4779367   401539 
 3464000   0.90216832   -3.2828875   -1.8030872  0.049922458   -3.2828875    1.4798002   401513 
 3465000    0.8993171    -3.278009    -1.802812  0.050602981    -3.278009    1.4751969   401493 
 3466000   0.89930807   -3.2813526   -1.8059463  0.046015398   -3.2813526    1.4754063   401432 
 3467000   0.90002017   -3.2825166   -1.8057103   0.04441256   -3.2825166    1.4768063   401369 
 3468000   0.89863847   -3.2817419   -1.8070925  0.041586937   -3.2817419    1.4746494   401339 
 3469000   0.89747218   -3.2803862   -1.8074562  0.042003125   -3.2803862      1.47293   401286 
 3470000    0.8981547   -3.2830308   -1.8087823  0.039322532   -3.2830308    1.4742486   401232 
 3471000   0.89826758   -3.2834782   -1.8089047  0.043783556   -3.2834782    1.4745735   401194 
 3472000   0.89920084   -3.2854294   -1.8092024  0.044791409   -3.2854294     1.476227   401161 
 3473000   0.89815194   -3.2831056   -1.8084793  0.043421148   -3.2831056    1.4746263   401128 
 3474000   0.89778389   -3.2832048   -1.8090946  0.042637516   -3.2832048    1.4741102   401104 
 3475000   0.90020836   -3.2884178   -1.8102384  0.039878568   -3.2884178    1.4781795   401080 
 3476000   0.89896126   -3.2877179   -1.8113911  0.046004496   -3.2877179    1.4763268   401027 
 3477000   0.89760028   -3.2861103   -1.8118127  0.040983537   -3.2861103    1.4742976   400971 
 3478000   0.89821052   -3.2882137   -1.8127482  0.041932998   -3.2882137    1.4754655   400926 
 3479000   0.89803759   -3.2881961   -1.8128381  0.043253328   -3.2881961     1.475358   400878 
 3480000   0.89688713   -3.2880758   -1.8143578  0.043461182   -3.2880758     1.473718   400810 
 3481000   0.89809205   -3.2884116   -1.8125923  0.044916077   -3.2884116    1.4758193   400777 
 3482000   0.89960892   -3.2929272    -1.814464  0.041088244   -3.2929272    1.4784632   400736 
 3483000   0.89843921   -3.2924724   -1.8157325   0.04462928   -3.2924724    1.4767399   400682 
 3484000    0.8989753   -3.2941861   -1.8164839  0.044407955   -3.2941861    1.4777022   400660 
 3485000   0.89793971   -3.2916987   -1.8155515  0.047837351   -3.2916987    1.4761472   400620 
 3486000   0.89863679   -3.2944253   -1.8166636  0.051498321   -3.2944253    1.4777617   400493 
 3487000    0.8964358   -3.2912122    -1.816687  0.048732856   -3.2912122    1.4745252   400389 
 3488000   0.89621143   -3.2937105   -1.8192266  0.045667527   -3.2937105    1.4744838   400300 
 3489000   0.89505084   -3.2928097   -1.8201102  0.045716305   -3.2928097    1.4726995   400266 
 3490000   0.89591281   -3.2954001   -1.8210945  0.043323543   -3.2954001    1.4743056   400215 
 3491000   0.89477907   -3.2936366   -1.8209869  0.048804537   -3.2936366    1.4726497   400158 
 3492000   0.89692011   -3.2977891   -1.8214607  0.040519801   -3.2977891    1.4763284   400116 
 3493000   0.89679909   -3.2964929   -1.8202013  0.044699869   -3.2964929    1.4762916   400072 
 3494000   0.89651787    -3.296895   -1.8208745  0.041449614    -3.296895    1.4760205   400020 
 3495000   0.89415982   -3.2958081   -1.8234453  0.043311949   -3.2958081    1.4723627   399959 
 3496000   0.89403635    -3.296691   -1.8242702  0.046388573    -3.296691    1.4724208   399888 
 3497000   0.89408565   -3.2975889   -1.8249028  0.038298825   -3.2975889    1.4726861   399838 
 3498000   0.89347045   -3.2953297    -1.823425  0.042395993   -3.2953297    1.4719047   399775 
 3499000   0.89264956   -3.2954171   -1.8246219  0.039905559   -3.2954171    1.4707952   399709 
 3500000   0.89225453   -3.2947247    -1.824448  0.046078963   -3.2947247    1.4702767   399673 
 3501000   0.89217363   -3.2947594   -1.8244651  0.047804623   -3.2947594    1.4702943   399632 
 3502000   0.89475035   -3.2986785   -1.8240752  0.044018754   -3.2986785    1.4746034   399615 
 3503000   0.89408732   -3.2978201   -1.8241361  0.043703999   -3.2978201     1.473684   399568 
 3504000   0.89485537   -3.2990969   -1.8240547  0.047273988   -3.2990969    1.4750422   399543 
 3505000   0.89490152   -3.3000147   -1.8248226   0.04307891   -3.3000147    1.4751921   399523 
 3506000   0.89248379     -3.29722   -1.8258402   0.03877164     -3.29722    1.4713798   399476 
 3507000   0.89327319   -3.2980895   -1.8252461  0.043791972   -3.2980895    1.4728434   399432 
 3508000   0.89461707   -3.3000783   -1.8248049  0.040272635   -3.3000783    1.4752734   399374 
 3509000   0.89395629   -3.2986551   -1.8243385  0.044018856   -3.2986551    1.4743167   399338 
 3510000   0.89216652   -3.2967627   -1.8252503   0.04241507   -3.2967627    1.4715124   399298 
 3511000   0.89290196   -3.2982796    -1.825344  0.041275835   -3.2982796    1.4729357   399241 
 3512000   0.89306238   -3.2986728   -1.8253803  0.040987496   -3.2986728    1.4732925   399216 
 3513000   0.89301515   -3.2999917   -1.8265777  0.041947162   -3.2999917    1.4734139   399162 
 3514000   0.89199125   -3.2996007   -1.8276549  0.048432801   -3.2996007    1.4719458   399102 
 3515000   0.89199307   -3.2996676   -1.8275196  0.042792045   -3.2996676     1.472148   399048 
 3516000   0.89130017   -3.2987948   -1.8275839  0.043963702   -3.2987948    1.4712109   398992 
 3517000   0.89264116     -3.30038   -1.8268559  0.044133216     -3.30038    1.4735241   398965 
 3518000   0.89230834   -3.2993805   -1.8262507  0.042592877   -3.2993805    1.4731298   398923 
 3519000   0.89188665    -3.298648   -1.8260077   0.04041437    -3.298648    1.4726403   398867 
 3520000    0.8919758   -3.3001861   -1.8272176  0.042910666   -3.3001861    1.4729685   398818 
 3521000    0.8925837   -3.3008775    -1.826835  0.044784922   -3.3008775    1.4740426   398799 
 3522000   0.89254943   -3.3010222   -1.8269586  0.047077775   -3.3010222    1.4740636   398778 
 3523000   0.89278615   -3.3018056   -1.8272031  0.047423134   -3.3018056    1.4746025   398738 
 3524000   0.89156032   -3.3005157   -1.8278198  0.042638134   -3.3005157    1.4726959   398706 
 3525000     0.890707   -3.2997102   -1.8282061  0.042840522   -3.2997102    1.4715042   398647 
 3526000     0.890285   -3.3006112   -1.8296788  0.045325833   -3.3006112    1.4709324   398613 
 3527000   0.89235167   -3.3045151   -1.8299646  0.037980359   -3.3045151    1.4745505   398558 
 3528000   0.88829612    -3.298914   -1.8310982  0.045837755    -3.298914    1.4678158   398567 
 3529000   0.89091799   -3.3015121   -1.8292199  0.043092618   -3.3015121    1.4722922   398528 
 3530000   0.89049288   -3.3027715   -1.8309898  0.040575079   -3.3027715    1.4717818   398476 
 3531000   0.89060928   -3.3030742   -1.8308451  0.041523582   -3.3030742    1.4722291   398407 
 3532000   0.88959656   -3.3014585   -1.8305823  0.044918261   -3.3014585    1.4708762   398320 
 3533000   0.89107822   -3.3037127   -1.8302351  0.042458675   -3.3037127    1.4734777   398279 
 3534000   0.89007304   -3.3007331    -1.828718  0.045689237   -3.3007331    1.4720151   398225 
 3535000   0.89182866   -3.3054228   -1.8302968  0.047963992   -3.3054228     1.475126   398169 
 3536000   0.89045333   -3.3036945   -1.8305104   0.04501209   -3.3036945    1.4731841   398079 
 3537000   0.88995371   -3.3029862   -1.8304918  0.043267933   -3.3029862    1.4724944   398042 
 3538000   0.88816868   -3.2994225   -1.8298003  0.046121806   -3.2994225    1.4696222   398020 
 3539000   0.88903044   -3.3004999   -1.8292374  0.043440694   -3.3004999    1.4712625   397962 
 3540000   0.88942589   -3.3013107   -1.8293161  0.044198052   -3.3013107    1.4719946   397941 
 3541000   0.89035714   -3.3033792   -1.8298694  0.044987474   -3.3033792    1.4735099   397948 
 3542000   0.89047911   -3.3039869    -1.830153  0.045951198   -3.3039869     1.473834   397915 
 3543000   0.88913983   -3.3046269   -1.8327766  0.047353584   -3.3046269    1.4718503   397852 
 3544000   0.88899233   -3.3031773   -1.8314712  0.040801727   -3.3031773    1.4717061   397825 
 3545000    0.8884783   -3.3018001   -1.8307527  0.043581852   -3.3018001    1.4710474   397773 
 3546000   0.88811213   -3.3010215   -1.8304473   0.04312638   -3.3010215    1.4705742   397737 
 3547000   0.88680548   -3.2993889   -1.8308824  0.043929645   -3.2993889    1.4685066   397711 
 3548000   0.88983038   -3.3047364   -1.8310651  0.040701293   -3.3047364    1.4736713   397669 
 3549000   0.88835459   -3.3020427   -1.8306453  0.046553115   -3.3020427    1.4713974   397623 
 3550000   0.88837185   -3.3036816   -1.8320965  0.049380348   -3.3036816    1.4715851   397580 
 3551000   0.88862612   -3.3038063   -1.8317555  0.040388385   -3.3038063    1.4720508   397568 
 3552000   0.88885022   -3.3031751   -1.8308012  0.037225703   -3.3031751    1.4723738   397581 
 3553000   0.88825001   -3.3032809   -1.8319309  0.033827256   -3.3032809      1.47135   397589 
 3554000   0.88673808   -3.3000545   -1.8312717  0.040188167   -3.3000545    1.4687828   397606 
 3555000   0.88596378   -3.3006819   -1.8329897   0.04163837   -3.3006819    1.4676921   397554 
 3556000   0.88668268   -3.3008912   -1.8318456  0.039370808   -3.3008912    1.4690457   397510 
 3557000   0.88785486   -3.3034609   -1.8322178  0.042602909   -3.3034609    1.4712431   397441 
 3558000    0.8878792   -3.3037329   -1.8324272  0.044189057   -3.3037329    1.4713057   397435 
 3559000   0.88770573   -3.3038801   -1.8326583   0.04341735   -3.3038801    1.4712218   397380 
 3560000   0.88780223   -3.3034537   -1.8320127  0.046375517   -3.3034537     1.471441   397364 
 3561000    0.8897597   -3.3054493   -1.8305265  0.046648048   -3.3054493    1.4749228   397300 
 3562000   0.88927343   -3.3066568   -1.8322098  0.046613764   -3.3066568     1.474447   397211 
 3563000   0.89032867   -3.3076058   -1.8312679  0.052599975   -3.3076058    1.4763379   397173 
 3564000    0.8908679   -3.3064762     -1.82914  0.046704628   -3.3064762    1.4773362   397145 
 3565000   0.88952291   -3.3065502   -1.8312959  0.046777062   -3.3065502    1.4752544   397105 
 3566000   0.89001336   -3.3079209   -1.8317936   0.04796787   -3.3079209    1.4761273   397089 
 3567000   0.88861606   -3.3059019   -1.8319844  0.045895259   -3.3059019    1.4739174   397060 
 3568000   0.88995869   -3.3077401   -1.8313541  0.048501645   -3.3077401    1.4763861   396995 
 3569000   0.88855988   -3.3086217   -1.8343296  0.043874638   -3.3086217    1.4742921   396934 
 3570000    0.8873015   -3.3090248   -1.8367205  0.045384456   -3.3090248    1.4723043   396907 
 3571000   0.88663505   -3.3081348   -1.8367658  0.046708331   -3.3081348     1.471369   396861 
 3572000   0.88668226   -3.3090293   -1.8374188  0.047110074   -3.3090293    1.4716105   396817 
 3573000   0.88561842     -3.30873   -1.8387221  0.043321313     -3.30873    1.4700079   396773 
 3574000   0.88623321   -3.3099338    -1.838898   0.03985731   -3.3099338    1.4710358   396771 
 3575000   0.88508901   -3.3088235   -1.8395019  0.041021172   -3.3088235    1.4693217   396721 
 3576000    0.8862877   -3.3108661   -1.8394692  0.038534299   -3.3108661    1.4713969   396698 
 3577000   0.88309804   -3.3062133   -1.8399935  0.041748309   -3.3062133    1.4662198   396666 
 3578000   0.88580246   -3.3103129   -1.8393878   0.03642339   -3.3103129    1.4709251   396608 
 3579000   0.88539803    -3.309009   -1.8385183  0.041653845    -3.309009    1.4704908   396544 
 3580000   0.88592947    -3.310256   -1.8388233  0.042458755    -3.310256    1.4714328   396528 
 3581000   0.88717132   -3.3104504   -1.8368548  0.039526754   -3.3104504    1.4735957   396501 
 3582000    0.8856447   -3.3092376   -1.8381369  0.041036139   -3.3092376    1.4711008   396490 
 3583000   0.88775697   -3.3115701   -1.8368491  0.039559438   -3.3115701    1.4747209   396460 
 3584000   0.88620359   -3.3107909   -1.8384647  0.043539169   -3.3107909    1.4723262   396410 
 3585000   0.88508825   -3.3093526   -1.8387125  0.042804351   -3.3093526    1.4706401   396365 
 3586000   0.88615224   -3.3097888   -1.8370576  0.043987064   -3.3097888    1.4727313   396278 
 3587000      0.88457    -3.310081   -1.8398087  0.036028478    -3.310081    1.4702724   396232 
 3588000   0.88482959   -3.3093429   -1.8385351  0.042519174   -3.3093429    1.4708078   396204 
 3589000   0.88460421   -3.3095729   -1.8389468  0.042899671   -3.3095729    1.4706261   396152 
 3590000   0.88513424   -3.3126185   -1.8408808  0.041329868   -3.3126185    1.4717376   396090 
 3591000   0.88487768   -3.3106675   -1.8391373  0.043613779   -3.3106675    1.4715302   396031 
 3592000   0.88540975   -3.3095881   -1.8372251  0.042283695   -3.3095881     1.472363   396045 
 3593000    0.8852699   -3.3107658   -1.8385202   0.04482212   -3.3107658    1.4722457   396014 
 3594000   0.88454682   -3.3124262   -1.8410486  0.045013775   -3.3124262    1.4713776   395924 
 3595000    0.8854887   -3.3117783   -1.8389009  0.042893464   -3.3117783    1.4728773   395942 
 3596000   0.88501465   -3.3105293   -1.8382954  0.049666618   -3.3105293    1.4722338   395903 
 3597000   0.88496346   -3.3121685   -1.8398189   0.04064323   -3.3121685    1.4723495   395849 
 3598000   0.88484595   -3.3121811    -1.840068  0.042794826   -3.3121811    1.4721131   395860 
 3599000   0.88427852   -3.3126412   -1.8414424   0.04593718   -3.3126412    1.4711988   395852 
 3600000   0.88411254   -3.3128133    -1.841742  0.044523597   -3.3128133    1.4710713   395812 
 3601000   0.88394201   -3.3114287   -1.8406448  0.047806702   -3.3114287    1.4707839   395813 
 3602000   0.88333816    -3.310899   -1.8410939  0.046699011    -3.310899    1.4698051   395806 
 3603000   0.88514578   -3.3153619    -1.842296  0.044102991   -3.3153619    1.4730659   395738 
 3604000   0.88440523   -3.3140923   -1.8420282  0.040287017   -3.3140923    1.4720641   395676 
 3605000   0.88233721   -3.3129377   -1.8441041  0.044519383   -3.3129377    1.4688336   395619 
 3606000   0.88283063   -3.3134982   -1.8438098   0.04488127   -3.3134982    1.4696884   395610 
 3607000   0.88329556   -3.3154329   -1.8447065  0.042218976   -3.3154329    1.4707263   395539 
 3608000   0.88279239   -3.3139127   -1.8439758  0.040053308   -3.3139127    1.4699368   395526 
 3609000   0.88419338    -3.315753   -1.8433568  0.041927044    -3.315753    1.4723962   395492 
 3610000   0.88340509    -3.313948   -1.8427938  0.043371694    -3.313948    1.4711542   395473 
 3611000   0.88427939   -3.3148397   -1.8422444     0.046308   -3.3148397    1.4725953   395477 
 3612000   0.88369884   -3.3140879   -1.8423217  0.040052231   -3.3140879    1.4717662   395440 
 3613000   0.88186982   -3.3119738   -1.8429826  0.040475245   -3.3119738    1.4689912   395367 
 3614000   0.88214655   -3.3139228   -1.8443145  0.046734756   -3.3139228    1.4696083   395325 
 3615000   0.88237202   -3.3145713   -1.8446023  0.047905057   -3.3145713     1.469969   395329 
 3616000   0.88298242   -3.3178118   -1.8467366  0.042207189   -3.3178118    1.4710752   395305 
 3617000   0.88338164   -3.3188612   -1.8468751  0.042377084   -3.3188612    1.4719861   395239 
 3618000   0.88170629   -3.3172275   -1.8478843  0.040717989   -3.3172275    1.4693432   395199 
 3619000    0.8796678   -3.3152719     -1.84917  0.044286014   -3.3152719    1.4661019   395157 
 3620000   0.88064859   -3.3171176   -1.8492288  0.037287164   -3.3171176    1.4678888   395116 
 3621000   0.88000185   -3.3164561    -1.849352  0.040953243   -3.3164561    1.4671041   395037 
 3622000   0.87782158   -3.3137384   -1.8502469  0.045221103   -3.3137384    1.4634915   395031 
 3623000   0.87934041   -3.3154206   -1.8492373  0.043874036   -3.3154206    1.4661833   394988 
 3624000   0.87938565   -3.3157766   -1.8494548  0.043182449   -3.3157766    1.4663218   394971 
 3625000   0.87974937    -3.316913   -1.8501073  0.045367335    -3.316913    1.4668057   395004 
 3626000   0.87881582   -3.3157611   -1.8503783  0.046279918   -3.3157611    1.4653828   394968 
 3627000   0.88155096   -3.3192091    -1.849005   0.04289786   -3.3192091    1.4702041   394898 
 3628000   0.88210587   -3.3192224   -1.8479886  0.039141428   -3.3192224    1.4712338   394870 
 3629000   0.88088254   -3.3166189   -1.8474217   0.04512391   -3.3166189    1.4691972   394869 
 3630000   0.88089042   -3.3169433   -1.8476176   0.04351651   -3.3169433    1.4693257   394838 
 3631000   0.88226786   -3.3195233      -1.8479  0.043176314   -3.3195233    1.4716233   394838 
 3632000   0.88139108   -3.3179759   -1.8477704  0.048236249   -3.3179759    1.4702055   394826 
 3633000   0.88159909   -3.3174296   -1.8468213  0.041772577   -3.3174296    1.4706083   394811 
 3634000   0.88123905   -3.3166921   -1.8465205  0.044342682   -3.3166921    1.4701716   394767 
 3635000    0.8801744   -3.3154608   -1.8468794  0.053619345   -3.3154608    1.4685814   394717 
 3636000   0.88133926   -3.3190744   -1.8484413  0.041909148   -3.3190744    1.4706331   394688 
 3637000   0.88148618   -3.3205639   -1.8493986  0.043868796   -3.3205639    1.4711652   394611 
 3638000   0.87893088   -3.3186871   -1.8515188  0.041827829   -3.3186871    1.4671682   394539 
 3639000   0.87989738   -3.3195726   -1.8505825  0.041460688   -3.3195726    1.4689901   394483 
 3640000   0.87798736   -3.3179017   -1.8519071  0.046532912   -3.3179017    1.4659945   394431 
 3641000   0.87840552   -3.3185803   -1.8517165  0.038940577   -3.3185803    1.4668638   394385 
 3642000   0.87820776   -3.3176807   -1.8510281  0.040334165   -3.3176807    1.4666526   394353 
 3643000   0.87928697   -3.3184161   -1.8497228  0.038791126   -3.3184161    1.4686933   394289 
 3644000   0.87888343   -3.3179856   -1.8499291  0.040207395   -3.3179856    1.4680565   394279 
 3645000   0.87851022     -3.31865    -1.851068  0.043772243     -3.31865     1.467582   394239 
 3646000   0.87905848   -3.3192495    -1.850584   0.04441961   -3.3192495    1.4686655   394194 
 3647000   0.88028222   -3.3216441   -1.8507662  0.040850065   -3.3216441    1.4708779   394149 
 3648000   0.87836198   -3.3185774   -1.8507964  0.049068322   -3.3185774    1.4677811   394119 
 3649000    0.8791573   -3.3201658    -1.850873  0.041122636   -3.3201658    1.4692928   394070 
 3650000   0.87969593   -3.3219659   -1.8515939  0.044139381   -3.3219659    1.4703721   394022 
 3651000   0.87728481   -3.3178219   -1.8512938   0.04548216   -3.3178219    1.4665281   393972 
 3652000    0.8775571   -3.3198172   -1.8525807  0.045340605   -3.3198172    1.4672365   393904 
 3653000   0.87845177    -3.322307   -1.8535523  0.041209587    -3.322307    1.4687547   393898 
 3654000   0.87884632   -3.3234269   -1.8538708  0.038873207   -3.3234269    1.4695562   393860 
 3655000   0.87756678   -3.3201519   -1.8528135  0.038110176   -3.3201519    1.4673384   393881 
 3656000   0.87757897   -3.3213001   -1.8537774  0.043294908   -3.3213001    1.4675227   393837 
 3657000   0.87690702   -3.3200979    -1.853617  0.044962121   -3.3200979    1.4664809   393815 
 3658000    0.8770637   -3.3199636   -1.8531648  0.038578861   -3.3199636    1.4667988   393800 
 3659000   0.87569576   -3.3209387   -1.8563383  0.042466402   -3.3209387    1.4646004   393776 
 3660000   0.87470221   -3.3192729   -1.8561188   0.04118231   -3.3192729    1.4631542   393718 
 3661000   0.87616135   -3.3207963   -1.8550152  0.037530625   -3.3207963    1.4657811   393668 
 3662000   0.87430034   -3.3192199   -1.8562958  0.042036259   -3.3192199    1.4629241   393599 
 3663000   0.87617791   -3.3211536   -1.8550282  0.042964144   -3.3211536    1.4661253   393583 
 3664000   0.87686813   -3.3248266   -1.8573785  0.040888253   -3.3248266    1.4674481   393538 
 3665000   0.87678525   -3.3240276   -1.8565579  0.040793281   -3.3240276    1.4674697   393495 
 3666000   0.87678959   -3.3230996   -1.8555704  0.043661692   -3.3230996    1.4675292   393481 
 3667000   0.87671814   -3.3228248   -1.8552473  0.041697929   -3.3228248    1.4675774   393436 
 3668000   0.87469831   -3.3196689   -1.8553498  0.047946314   -3.3196689    1.4643192   393403 
 3669000   0.87638023   -3.3236288   -1.8563709  0.044240542   -3.3236288    1.4672579   393370 
 3670000   0.87676638   -3.3245297   -1.8564462  0.039921796   -3.3245297    1.4680836   393322 
 3671000   0.87509886   -3.3245256    -1.859249   0.04523156   -3.3245256    1.4652765   393326 
 3672000   0.87365453   -3.3236002   -1.8607979  0.040994236   -3.3236002    1.4628024   393341 
 3673000    0.8754955   -3.3261143   -1.8602147  0.039922553   -3.3261143    1.4658997   393337 
 3674000   0.87360249   -3.3233418   -1.8604295  0.038770424   -3.3233418    1.4629123   393288 
 3675000   0.87360601   -3.3240617   -1.8609239  0.042935762   -3.3240617    1.4631377   393229 
 3676000   0.87316363   -3.3241038   -1.8615954  0.036204779   -3.3241038    1.4625084   393199 
 3677000   0.87506535   -3.3253841   -1.8597687  0.041764713   -3.3253841    1.4656154   393220 
 3678000   0.87343469   -3.3245067   -1.8613173  0.044461966   -3.3245067    1.4631894   393138 
 3679000   0.87558623   -3.3265268   -1.8598413  0.043588055   -3.3265268    1.4666855   393167 
 3680000   0.87576297   -3.3269816    -1.859862  0.047737584   -3.3269816    1.4671196   393130 
 3681000   0.87653776   -3.3297721   -1.8611453  0.045774288   -3.3297721    1.4686268   393074 
 3682000   0.87577183   -3.3289538   -1.8616663  0.045401737   -3.3289538    1.4672875   393089 
 3683000    0.8751798   -3.3267768   -1.8604663  0.044554272   -3.3267768    1.4663105   393085 
 3684000   0.87650725   -3.3295131   -1.8609038   0.04763105   -3.3295131    1.4686093   393065 
 3685000   0.87635503   -3.3282918   -1.8598516  0.047536785   -3.3282918    1.4684402   393042 
 3686000   0.87488187   -3.3276922   -1.8615265  0.037835628   -3.3276922    1.4661657   392990 
 3687000   0.87340528   -3.3263868   -1.8625839  0.045177656   -3.3263868    1.4638029   392960 
 3688000   0.87508112   -3.3288985   -1.8622272  0.045092388   -3.3288985    1.4666713   392944 
 3689000    0.8748077   -3.3276712   -1.8613574  0.047452353   -3.3276712    1.4663138   392917 
 3690000   0.87620942   -3.3305006   -1.8617812  0.046375661   -3.3305006    1.4687193   392902 
 3691000   0.87540322   -3.3282544   -1.8608901   0.04392097   -3.3282544    1.4673642   392903 
 3692000   0.87469286   -3.3290675   -1.8627335  0.046769066   -3.3290675     1.466334   392860 
 3693000   0.87319583   -3.3278246   -1.8639369  0.042815395   -3.3278246    1.4638877   392843 
 3694000   0.87339323    -3.327186   -1.8628295  0.039804241    -3.327186    1.4643566   392806 
 3695000   0.87335612   -3.3276509   -1.8634199  0.046164906   -3.3276509     1.464231   392823 
 3696000   0.87411397   -3.3293934   -1.8636531  0.040211488   -3.3293934    1.4657404   392759 
 3697000    0.8735532    -3.328529   -1.8634603  0.044035895    -3.328529    1.4650686   392687 
 3698000   0.87278681   -3.3279967    -1.864042  0.043428069   -3.3279967    1.4639548   392641 
 3699000   0.87229855   -3.3268013   -1.8635538  0.044316843   -3.3268013    1.4632476   392611 
 3700000   0.87221704   -3.3262399   -1.8630284  0.040584045   -3.3262399    1.4632115   392584 
 3701000   0.87127374   -3.3247897   -1.8630601   0.03892774   -3.3247897    1.4617296   392557 
 3702000   0.87215378   -3.3267466   -1.8634101   0.04294427   -3.3267466    1.4633365   392522 
 3703000   0.87209852   -3.3274673   -1.8639476  0.039943452   -3.3274673    1.4635197   392448 
 3704000   0.87159113    -3.326611   -1.8637005  0.038717032    -3.326611    1.4629105   392383 
 3705000   0.87036018   -3.3246212   -1.8635236  0.041493393   -3.3246212    1.4610976   392315 
 3706000   0.87087036   -3.3255826   -1.8636621  0.042126322   -3.3255826    1.4619205   392324 
 3707000   0.87037951   -3.3258313   -1.8645112  0.041140622   -3.3258313      1.46132   392264 
 3708000   0.87107619   -3.3257077   -1.8630614  0.037736498   -3.3257077    1.4626463   392222 
 3709000   0.87098173   -3.3263874   -1.8637655  0.041397689   -3.3263874     1.462622   392186 
 3710000   0.87070575   -3.3274318   -1.8649824  0.038820724   -3.3274318    1.4624494   392108 
 3711000    0.8702309   -3.3273041   -1.8656039  0.040787337   -3.3273041    1.4617003   392095 
 3712000   0.86903034   -3.3255605   -1.8656608  0.032790959   -3.3255605    1.4598997   392037 
 3713000   0.87080929   -3.3267923   -1.8638295  0.040470962   -3.3267923    1.4629628   392017 
 3714000   0.87137344   -3.3274055   -1.8634389  0.037768866   -3.3274055    1.4639666   392002 
 3715000   0.87096952   -3.3265401   -1.8630431  0.041754389   -3.3265401     1.463497   391946 
 3716000   0.87221551   -3.3280522   -1.8624016  0.043753864   -3.3280522    1.4656505   391930 
 3717000   0.87298814   -3.3301742   -1.8632104  0.044460159   -3.3301742    1.4669638   391926 
 3718000    0.8734394   -3.3319046   -1.8640814  0.041442963   -3.3319046    1.4678232   391899 
 3719000   0.87373575   -3.3313629    -1.862903   0.04642689   -3.3313629    1.4684599   391862 
 3720000   0.87423079   -3.3312586   -1.8618843  0.048162093   -3.3312586    1.4693744   391840 
 3721000    0.8733192   -3.3306832   -1.8626162  0.050056044   -3.3306832     1.468067   391780 
 3722000   0.87425777   -3.3338772    -1.864026  0.048148319   -3.3338772    1.4698511   391725 
 3723000    0.8718634   -3.3316202   -1.8654577  0.045193185   -3.3316202    1.4661624   391635 
 3724000   0.87264914   -3.3315762   -1.8639876  0.048236464   -3.3315762    1.4675887   391607 
 3725000   0.87171998   -3.3311559   -1.8650662  0.043339419   -3.3311559    1.4660897   391590 
 3726000    0.8708266   -3.3305387   -1.8656111   0.04036889   -3.3305387    1.4649276   391499 
 3727000   0.87206329   -3.3319621   -1.8649391   0.04167698   -3.3319621     1.467023   391495 
 3728000   0.87056427   -3.3313307   -1.8666573   0.04755184   -3.3313307    1.4646734   391449 
 3729000   0.86877617   -3.3291176   -1.8673817  0.045442972   -3.3291176    1.4617359   391430 
 3730000   0.87080993   -3.3321995   -1.8669406  0.045162763   -3.3321995    1.4652589   391403 
 3731000   0.86984738   -3.3305967   -1.8670322  0.042994195   -3.3305967    1.4635644   391423 
 3732000   0.87128595   -3.3320513    -1.865999    0.0443651   -3.3320513    1.4660523   391405 
 3733000   0.87062245   -3.3310165    -1.865957  0.041153469   -3.3310165    1.4650594   391372 
 3734000   0.86896756   -3.3279119   -1.8654841  0.043714039   -3.3279119    1.4624278   391331 
 3735000   0.87000371   -3.3293546   -1.8651867  0.035983601   -3.3293546    1.4641679   391332 
 3736000   0.86998264   -3.3278004   -1.8635931  0.046445243   -3.3278004    1.4642072   391312 
 3737000   0.86856582   -3.3276828   -1.8654752   0.04553764   -3.3276828    1.4622076   391209 
 3738000   0.86947062   -3.3296841   -1.8656913  0.041948739   -3.3296841    1.4639927   391139 
 3739000   0.86905623   -3.3277284   -1.8640929  0.047526528   -3.3277284    1.4636355   391048 
 3740000   0.86851488   -3.3285119   -1.8654439  0.047056626   -3.3285119     1.463068   390956 
 3741000   0.86893421   -3.3291367   -1.8650103   0.04484037   -3.3291367    1.4641264   390862 
 3742000   0.86966947   -3.3300702   -1.8647574  0.040267663   -3.3300702    1.4653128   390876 
 3743000    0.8686544   -3.3290932    -1.865588  0.036014346   -3.3290932    1.4635052   390902 
 3744000   0.86831284    -3.328664    -1.865723   0.04349379    -3.328664     1.462941   390899 
 3745000   0.86860998   -3.3289625   -1.8652776  0.038730199   -3.3289625     1.463685   390834 
 3746000   0.86636795   -3.3292192    -1.869189  0.035723885   -3.3292192    1.4600302   390801 
 3747000   0.86722156   -3.3285796     -1.86698  0.036290064   -3.3285796    1.4615996   390766 
 3748000   0.86498527   -3.3254864   -1.8675887  0.034851286   -3.3254864    1.4578978   390748 
 3749000   0.86668865   -3.3283542   -1.8675106  0.036519603   -3.3283542    1.4608435   390728 
 3750000   0.86748188   -3.3290598   -1.8667707  0.041302437   -3.3290598    1.4622891   390699 
 3751000   0.86885323    -3.329676    -1.865004  0.041200294    -3.329676     1.464672   390680 
 3752000   0.86988918    -3.329908   -1.8634634  0.040860957    -3.329908    1.4664446   390673 
 3753000   0.86891349   -3.3293452   -1.8642716  0.042611672   -3.3293452    1.4650736   390600 
 3754000   0.86809047   -3.3290998   -1.8652377  0.044399576   -3.3290998     1.463862   390553 
 3755000   0.86945554   -3.3304768   -1.8643091  0.045297656   -3.3304768    1.4661677   390552 
 3756000   0.86917508   -3.3306297   -1.8647736  0.044377429   -3.3306297    1.4658561   390509 
 3757000   0.86927558   -3.3295079   -1.8633546  0.040259735   -3.3295079    1.4661533   390475 
 3758000   0.86826264   -3.3295739   -1.8649528  0.045164777   -3.3295739    1.4646211   390428 
 3759000   0.86668984   -3.3291344   -1.8670914  0.043622104   -3.3291344    1.4620429   390408 
 3760000   0.86609924   -3.3283301   -1.8671038  0.042132541   -3.3283301    1.4612263   390360 
 3761000   0.86677799    -3.329553   -1.8670579  0.045968645    -3.329553    1.4624951   390327 
 3762000   0.86606457   -3.3311254   -1.8695982   0.04291504   -3.3311254    1.4615272   390264 
 3763000   0.86676949   -3.3319801   -1.8691058  0.036274329   -3.3319801    1.4628743   390222 
 3764000   0.86619105   -3.3311618   -1.8691814  0.041329671   -3.3311618    1.4619804   390200 
 3765000   0.86813873    -3.333641   -1.8682193  0.044967516    -3.333641    1.4654217   390159 
 3766000   0.86648266   -3.3322148   -1.8694835  0.043395251   -3.3322148    1.4627313   390131 
 3767000   0.86736448   -3.3337576   -1.8694664  0.039894393   -3.3337576    1.4642912   390112 
 3768000   0.86596148   -3.3301609   -1.8681858  0.048276789   -3.3301609    1.4619751   390098 
 3769000   0.86593936   -3.3308635   -1.8687046  0.042865919   -3.3308635    1.4621589   390039 
 3770000   0.86656489   -3.3343158   -1.8708718  0.045651371   -3.3343158     1.463444   389978 
 3771000   0.86761569   -3.3347329   -1.8695594  0.045449732   -3.3347329    1.4651735   389990 
 3772000   0.86567655   -3.3324311   -1.8703786  0.042005711   -3.3324311    1.4620525   389949 
 3773000   0.86701357   -3.3343874   -1.8698777  0.045473681   -3.3343874    1.4645097   389896 
 3774000   0.86727767   -3.3361729    -1.870924  0.041543248   -3.3361729    1.4652489   389818 
 3775000   0.86726527   -3.3375089    -1.872172  0.043535225   -3.3375089     1.465337   389789 
 3776000    0.8669839   -3.3367351   -1.8718811  0.041146169   -3.3367351    1.4648541   389791 
 3777000    0.8684848   -3.3375246   -1.8701421   0.04265372   -3.3375246    1.4673824   389793 
 3778000   0.86721917   -3.3363269   -1.8708685  0.045253909   -3.3363269    1.4654583   389736 
 3779000   0.86766841   -3.3368293   -1.8704952  0.049563827   -3.3368293    1.4663341   389705 
 3780000   0.86778864   -3.3380206    -1.871472  0.042914501   -3.3380206    1.4665486   389702 
 3781000   0.86735264   -3.3380743   -1.8719616  0.040482772   -3.3380743    1.4661127   389622 
 3782000    0.8675792   -3.3382798   -1.8717201  0.042670426   -3.3382798    1.4665597   389605 
 3783000   0.86696131   -3.3385581   -1.8727532  0.044886161   -3.3385581    1.4658049   389528 
 3784000   0.86615849   -3.3380722   -1.8735533  0.041935992   -3.3380722     1.464519   389509 
 3785000   0.86522478   -3.3345893   -1.8716566  0.048955316   -3.3345893    1.4629327   389511 
 3786000   0.86506546   -3.3348749   -1.8720013  0.045596385   -3.3348749    1.4628737   389455 
 3787000   0.86536741   -3.3358128    -1.872297  0.043488168   -3.3358128    1.4635158   389420 
 3788000   0.86522163   -3.3358621   -1.8724613  0.042792944   -3.3358621    1.4634008   389385 
 3789000   0.86574636   -3.3378007   -1.8731664  0.044494429   -3.3378007    1.4646343   389293 
 3790000   0.86543555   -3.3367249   -1.8722064  0.042061469   -3.3367249    1.4645186   389184 
 3791000   0.86469938    -3.336058   -1.8727025  0.041420186    -3.336058    1.4633555   389162 
 3792000   0.86566945   -3.3388169   -1.8736239  0.041400299   -3.3388169     1.465193   389110 
 3793000   0.86486803   -3.3379126   -1.8739669  0.038296771   -3.3379126    1.4639457   389081 
 3794000   0.86464227   -3.3381254   -1.8744717  0.043731814   -3.3381254    1.4636538   389057 
 3795000   0.86569281   -3.3384678   -1.8729227  0.035893713   -3.3384678    1.4655451   389027 
 3796000   0.86506624   -3.3371903    -1.872608  0.043931988   -3.3371903    1.4645823   389001 
 3797000   0.86306103    -3.335346   -1.8739745   0.04379504    -3.335346    1.4613715   388952 
 3798000   0.86537413   -3.3385617   -1.8730513  0.039174642   -3.3385617    1.4655104   388893 
 3799000   0.86478902   -3.3371402   -1.8725302  0.047052319   -3.3371402    1.4646099   388869 
 3800000   0.86450803   -3.3370451    -1.872896  0.042855372   -3.3370451    1.4641491   388865 
 3801000   0.86377541   -3.3359457   -1.8728756   0.04594066   -3.3359457    1.4630701   388822 
 3802000   0.86493674   -3.3372719   -1.8722271  0.040379264   -3.3372719    1.4650447   388820 
 3803000   0.86356025   -3.3364426   -1.8735488   0.04001638   -3.3364426    1.4628938   388772 
 3804000   0.86419657   -3.3375113    -1.873453  0.039933168   -3.3375113    1.4640584   388749 
 3805000   0.86307129   -3.3368186   -1.8744823  0.037088793   -3.3368186    1.4623363   388700 
 3806000   0.86284353   -3.3376693   -1.8756361  0.040421681   -3.3376693    1.4620331   388678 
 3807000   0.86287652   -3.3377835   -1.8755928  0.041864467   -3.3377835    1.4621906   388651 
 3808000     0.863831   -3.3390097   -1.8750209  0.039711498   -3.3390097    1.4639888   388603 
 3809000   0.86347928   -3.3386131    -1.875194  0.043682877   -3.3386131    1.4634191   388596 
 3810000   0.86464039   -3.3380185   -1.8726278  0.044859295   -3.3380185    1.4653907   388595 
 3811000   0.86448077   -3.3364158   -1.8711297  0.042950888   -3.3364158    1.4652861   388551 
 3812000   0.86447732   -3.3371624   -1.8717048  0.042720792   -3.3371624    1.4654575   388504 
 3813000   0.86490551   -3.3378109   -1.8714576  0.042412578   -3.3378109    1.4663533   388459 
 3814000   0.86351916   -3.3368332   -1.8727361  0.044131925   -3.3368332    1.4640971   388434 
 3815000   0.86431574   -3.3367379   -1.8714147  0.046346125   -3.3367379    1.4653232   388467 
 3816000   0.86460473    -3.336667   -1.8706878  0.044583625    -3.336667    1.4659792   388423 
 3817000   0.86421102   -3.3370796   -1.8715605  0.041836612   -3.3370796    1.4655191   388368 
 3818000   0.86336854    -3.336025   -1.8718479  0.042677131    -3.336025    1.4641772   388345 
 3819000   0.86282241   -3.3354571   -1.8719951  0.043396345   -3.3354571     1.463462   388289 
 3820000   0.86241209   -3.3363198   -1.8732975  0.042518538   -3.3363198    1.4630223   388221 
 3821000   0.86222472   -3.3361015   -1.8732501  0.044498806   -3.3361015    1.4628514   388182 
 3822000   0.86219945   -3.3363609   -1.8734242  0.046711907   -3.3363609    1.4629367   388148 
 3823000   0.86191855   -3.3380372   -1.8752833  0.045125848   -3.3380372     1.462754   388070 
 3824000   0.86180301   -3.3390625     -1.87635  0.040402153   -3.3390625    1.4627124   388029 
 3825000   0.86136567   -3.3375156   -1.8754061  0.040424916   -3.3375156    1.4621096   387992 
 3826000   0.86093278   -3.3367449   -1.8753212  0.039640614   -3.3367449    1.4614237   387979 
 3827000   0.86245595   -3.3389641   -1.8747887  0.044890172   -3.3389641    1.4641753   387935 
 3828000   0.86189671   -3.3378539   -1.8744091  0.046196818   -3.3378539    1.4634447   387877 
 3829000   0.86166671     -3.33675   -1.8736505  0.045853387     -3.33675    1.4630995   387865 
 3830000   0.86132143   -3.3359556   -1.8732425  0.041194468   -3.3359556    1.4627131   387812 
 3831000    0.8624451   -3.3382678    -1.873503  0.043163666   -3.3382678    1.4647648   387774 
 3832000   0.86326437   -3.3389764   -1.8727445  0.042299027   -3.3389764    1.4662319   387754 
 3833000   0.86228467   -3.3381361   -1.8735116  0.043142338   -3.3381361    1.4646245   387739 
 3834000   0.86280656   -3.3389899   -1.8735091   0.04193768   -3.3389899    1.4654808   387747 
 3835000   0.86101971   -3.3369932   -1.8743927   0.03786336   -3.3369932    1.4626005   387706 
 3836000   0.85937041   -3.3366169   -1.8766298  0.036599102   -3.3366169    1.4599871   387656 
 3837000   0.85974184   -3.3364144   -1.8758189  0.038139318   -3.3364144    1.4605955   387662 
 3838000   0.85866119   -3.3350298   -1.8761987  0.042347615   -3.3350298    1.4588311   387643 
 3839000   0.85959279   -3.3364304   -1.8758017  0.038608318   -3.3364304    1.4606286   387586 
 3840000    0.8601441   -3.3387286   -1.8770425  0.039750933   -3.3387286    1.4616861   387554 
 3841000     0.860425   -3.3387422   -1.8763637  0.043298607   -3.3387422    1.4623786   387497 
 3842000    0.8614353   -3.3391743   -1.8749918  0.046469995   -3.3391743    1.4641826   387474 
 3843000   0.86088464   -3.3375104   -1.8740863  0.045467098   -3.3375104    1.4634241   387427 
 3844000   0.86131734   -3.3371849   -1.8728967  0.040924003   -3.3371849    1.4642882   387393 
 3845000   0.86055918   -3.3367206    -1.873506  0.046724448   -3.3367206    1.4632146   387336 
 3846000   0.86020127   -3.3366766   -1.8740026  0.039715989   -3.3366766     1.462674   387318 
 3847000   0.85956876    -3.336426   -1.8748993  0.039265401    -3.336426    1.4615268   387337 
 3848000   0.85989208   -3.3378751   -1.8756854  0.042619244   -3.3378751    1.4621898   387307 
 3849000    0.8604031    -3.338689   -1.8755963  0.046110646    -3.338689    1.4630927   387298 
 3850000   0.86080592   -3.3400116   -1.8762679  0.041550839   -3.3400116    1.4637437   387307 
 3851000   0.86030301   -3.3386116   -1.8755871  0.042790205   -3.3386116    1.4630245   387271 
 3852000   0.85970972   -3.3400872   -1.8778376  0.043435674   -3.3400872    1.4622496   387209 
 3853000   0.85851854   -3.3413699   -1.8810558  0.042605295   -3.3413699    1.4603141   387185 
 3854000    0.8602462   -3.3437799   -1.8802776  0.045048146   -3.3437799    1.4635023   387119 
 3855000   0.85856027   -3.3389542   -1.8783428  0.048899107   -3.3389542    1.4606115   387125 
 3856000   0.85922088   -3.3402439   -1.8784444  0.039665629   -3.3402439    1.4617995   387108 
 3857000   0.85931717    -3.340003   -1.8781152  0.042510861    -3.340003    1.4618878   387128 
 3858000   0.85837099   -3.3397885   -1.8794651  0.040882157   -3.3397885    1.4603234   387116 
 3859000   0.85913862   -3.3407203   -1.8790948  0.040176417   -3.3407203    1.4616256   387117 
 3860000   0.85941945   -3.3423757   -1.8800646   0.04167372   -3.3423757    1.4623111   387062 
 3861000   0.85972214   -3.3446896   -1.8817538  0.038856619   -3.3446896    1.4629357   387033 
 3862000   0.85956817   -3.3445991   -1.8818195  0.042353953   -3.3445991    1.4627796   387005 
 3863000   0.85865103   -3.3424747   -1.8811917  0.040972521   -3.3424747     1.461283   386988 
 3864000   0.85974545   -3.3451868   -1.8818144  0.039714156   -3.3451868    1.4633724   386928 
 3865000    0.8593131   -3.3443058   -1.8816352  0.043376021   -3.3443058    1.4626705   386919 
 3866000   0.85897374   -3.3424944   -1.8801747  0.052437337   -3.3424944    1.4623196   386859 
 3867000   0.86043178   -3.3456012   -1.8807805  0.046064369   -3.3456012    1.4648207   386854 
 3868000    0.8598114   -3.3456622   -1.8817613  0.047273576   -3.3456622    1.4639008   386818 
 3869000   0.85904139   -3.3451412   -1.8823245  0.050049464   -3.3451412    1.4628167   386758 
 3870000    0.8588942   -3.3462331   -1.8835952   0.04348876   -3.3462331    1.4626379   386739 
 3871000   0.85857013    -3.346623   -1.8843819  0.044884422    -3.346623    1.4622411   386698 
 3872000   0.85776788   -3.3450913   -1.8840994   0.04502933   -3.3450913    1.4609919   386667 
 3873000   0.85768438   -3.3436339   -1.8825273  0.045715807   -3.3436339    1.4611066   386599 
 3874000    0.8567498   -3.3452399   -1.8856196  0.041181028   -3.3452399    1.4596202   386571 
 3875000   0.85758824   -3.3461659   -1.8850605  0.042266905   -3.3461659    1.4611054   386556 
 3876000   0.85719762   -3.3451836   -1.8846417  0.049127285   -3.3451836    1.4605419   386529 
 3877000   0.85787381   -3.3466129   -1.8849152  0.046068267   -3.3466129    1.4616978   386528 
 3878000   0.85778061   -3.3466237   -1.8849297   0.03832745   -3.3466237     1.461694   386487 
 3879000   0.85559918   -3.3421889   -1.8841291  0.046030931   -3.3421889    1.4580598   386465 
 3880000   0.85705988   -3.3445933   -1.8838175  0.045465684   -3.3445933    1.4607758   386405 
 3881000   0.85874672   -3.3475077   -1.8837697  0.045309169   -3.3475077     1.463738   386382 
 3882000   0.85834319   -3.3487415   -1.8855323  0.044848156   -3.3487415    1.4632092   386340 
 3883000   0.85712509   -3.3452127   -1.8841405  0.046221196   -3.3452127    1.4610722   386356 
 3884000   0.85779762   -3.3458791   -1.8835128  0.040054501   -3.3458791    1.4623662   386317 
 3885000   0.85565203    -3.343349   -1.8843157   0.04113967    -3.343349    1.4590333   386231 
 3886000   0.85731266   -3.3457808    -1.883825   0.04483435   -3.3457808    1.4619557   386207 
 3887000   0.85769428   -3.3460342   -1.8832686  0.040804008   -3.3460342    1.4627656   386165 
 3888000   0.85713831   -3.3452964   -1.8834033  0.045287777   -3.3452964    1.4618931   386145 
 3889000   0.85635929    -3.345543   -1.8846796  0.046614128    -3.345543    1.4608633   386066 
 3890000   0.85526653   -3.3434854   -1.8843085  0.046476581   -3.3434854    1.4591768   386019 
 3891000   0.85600693   -3.3449123   -1.8842755  0.041691277   -3.3449123    1.4606368   385967 
 3892000   0.85660817   -3.3457823   -1.8840211  0.041997124   -3.3457823    1.4617612   385941 
 3893000   0.85561072   -3.3436672   -1.8835589  0.044075614   -3.3436672    1.4601083   385928 
 3894000   0.85668438   -3.3461561   -1.8839656  0.039892243   -3.3461561    1.4621905   385862 
 3895000   0.85553037   -3.3440915   -1.8836852  0.043430035   -3.3440915    1.4604063   385813 
 3896000   0.85538916   -3.3435194   -1.8831687  0.048730135   -3.3435194    1.4603508   385764 
 3897000   0.85529201   -3.3430189   -1.8826182  0.051755568   -3.3430189    1.4604007   385707 
 3898000   0.85563211   -3.3441837   -1.8830508  0.047356608   -3.3441837    1.4611329   385667 
 3899000    0.8547746    -3.344662    -1.884736   0.03536579    -3.344662     1.459926   385599 
 3900000   0.85395956   -3.3438324   -1.8851434  0.039955401   -3.3438324     1.458689   385558 
 3901000   0.85407813   -3.3437553   -1.8848334  0.044371355   -3.3437553    1.4589218   385550 
 3902000   0.85516447    -3.343863   -1.8829908  0.039289353    -3.343863    1.4608722   385525 
 3903000   0.85437786    -3.343158   -1.8836333  0.044193478    -3.343158    1.4595247   385526 
 3904000   0.85334313   -3.3420046    -1.884032  0.043900519   -3.3420046    1.4579726   385469 
 3905000   0.85273318   -3.3406787   -1.8835554  0.043403878   -3.3406787    1.4571233   385418 
 3906000   0.85317975   -3.3414064   -1.8833347  0.042344005   -3.3414064    1.4580717   385369 
 3907000   0.85252446   -3.3427361   -1.8855574  0.042400206   -3.3427361    1.4571787   385309 
 3908000   0.85294462   -3.3437502   -1.8857397  0.040288633   -3.3437502    1.4580104   385279 
 3909000   0.85269997   -3.3447591    -1.887095  0.041445751   -3.3447591    1.4576641   385260 
 3910000   0.85281999   -3.3440269   -1.8861727  0.044247802   -3.3440269    1.4578541   385264 
 3911000   0.85309204   -3.3460122   -1.8875378  0.038674367   -3.3460122    1.4584744   385223 
 3912000   0.85262402   -3.3443737   -1.8866162  0.040968984   -3.3443737    1.4577575   385201 
 3913000   0.85483618   -3.3476577    -1.886027  0.044400738   -3.3476577    1.4616308   385177 
 3914000   0.85569176    -3.348399   -1.8851723  0.040300361    -3.348399    1.4632266   385142 
 3915000   0.85509629   -3.3469551   -1.8846594   0.04058909   -3.3469551    1.4622957   385119 
 3916000   0.85487601   -3.3486846   -1.8867352  0.042376598   -3.3486846    1.4619494   385111 
 3917000   0.85420001   -3.3474562   -1.8864428  0.044089965   -3.3474562    1.4610134   385053 
 3918000   0.85453149   -3.3472328   -1.8855994  0.042564072   -3.3472328    1.4616335   385039 
 3919000   0.85453317   -3.3478806   -1.8862519   0.04655591   -3.3478806    1.4616288   385041 
 3920000   0.85482942   -3.3494496   -1.8872761  0.043495118   -3.3494496    1.4621735   385031 
 3921000   0.85328805   -3.3480426   -1.8884108  0.041976286   -3.3480426    1.4596317   385006 
 3922000   0.85423811   -3.3494028   -1.8880016  0.044474969   -3.3494028    1.4614012   384968 
 3923000   0.85450117   -3.3491731   -1.8872118  0.044192786   -3.3491731    1.4619613   384939 
 3924000   0.85297303   -3.3476745   -1.8881874  0.040383746   -3.3476745    1.4594871   384902 
 3925000   0.85214398   -3.3458418   -1.8875346  0.040400732   -3.3458418    1.4583073   384839 
 3926000    0.8529412   -3.3460572   -1.8863515  0.039712686   -3.3460572    1.4597057   384830 
 3927000   0.85364791   -3.3471937   -1.8860317  0.038015803   -3.3471937    1.4611619   384765 
 3928000   0.85341082   -3.3472066   -1.8863518  0.039201428   -3.3472066    1.4608548   384739 
 3929000   0.85443615   -3.3485143   -1.8856762  0.042218687   -3.3485143    1.4628381   384679 
 3930000   0.85495237   -3.3512005   -1.8872731  0.042244075   -3.3512005    1.4639274   384625 
 3931000   0.85266627   -3.3474264    -1.887235  0.041201343   -3.3474264    1.4601914   384578 
 3932000   0.85255224   -3.3462121   -1.8861059  0.041371483   -3.3462121    1.4601062   384549 
 3933000   0.85181504   -3.3462262   -1.8872422  0.037770192   -3.3462262     1.458984   384512 
 3934000   0.85149303   -3.3452337   -1.8866912  0.038344915   -3.3452337    1.4585425   384483 
 3935000   0.85165479   -3.3437817   -1.8849507  0.039684675   -3.3437817     1.458831   384480 
 3936000   0.85143423    -3.346153    -1.887495  0.042976946    -3.346153     1.458658   384426 
 3937000   0.85242334   -3.3453947   -1.8849281  0.045110291   -3.3453947    1.4604665   384396 
 3938000   0.85266114   -3.3473118   -1.8863314  0.032621814   -3.3473118    1.4609804   384368 
 3939000   0.85225591   -3.3473252   -1.8869062  0.040530215   -3.3473252     1.460419   384333 
 3940000   0.85036922   -3.3446473   -1.8871921  0.042191556   -3.3446473    1.4574552   384262 
 3941000    0.8493248   -3.3431537    -1.887371  0.037375939   -3.3431537    1.4557826   384231 
 3942000   0.84874212   -3.3432184   -1.8883664  0.040078754   -3.3432184    1.4548521   384213 
 3943000    0.8508629   -3.3448649   -1.8862523  0.038642237   -3.3448649    1.4586126   384180 
 3944000   0.85029785   -3.3450188   -1.8871282  0.040236561   -3.3450188    1.4578906   384115 
 3945000    0.8504144   -3.3460142   -1.8876656  0.038434223   -3.3460142    1.4583486   384047 
 3946000   0.85165667   -3.3477267   -1.8872287  0.035862156   -3.3477267     1.460498   384042 
 3947000    0.8506294   -3.3455586   -1.8867501  0.044529815   -3.3455586    1.4588085   384023 
 3948000   0.85061194   -3.3445885   -1.8856921  0.043665416   -3.3445885    1.4588963   383992 
 3949000   0.85153383   -3.3461787   -1.8857659  0.043101144   -3.3461787    1.4604128   384009 
 3950000   0.85050936   -3.3457374    -1.886865  0.038369157   -3.3457374    1.4588724   383952 
 3951000    0.8521193   -3.3485722   -1.8867861  0.036444585   -3.3485722    1.4617862   383912 
 3952000   0.85111845    -3.346858    -1.886804  0.047326063    -3.346858     1.460054   383916 
 3953000    0.8520906   -3.3492487   -1.8873062  0.043537223   -3.3492487    1.4619426   383858 
 3954000   0.85050413    -3.347172   -1.8879703  0.040687387    -3.347172    1.4592016   383863 
 3955000    0.8478713   -3.3446501   -1.8897609  0.045648387   -3.3446501    1.4548892   383809 
 3956000   0.84896457   -3.3464477   -1.8895079  0.045694726   -3.3464477    1.4569398   383763 
 3957000   0.84947309   -3.3460617   -1.8881923  0.042031296   -3.3460617    1.4578694   383748 
 3958000   0.84982834   -3.3466892   -1.8881454  0.044686437   -3.3466892    1.4585437   383731 
 3959000   0.85045481   -3.3491595   -1.8893884  0.043172566   -3.3491595    1.4597711   383691 
 3960000    0.8505303   -3.3509791    -1.890892  0.041960365   -3.3509791    1.4600871   383642 
 3961000   0.85067053   -3.3512105   -1.8906504  0.040688254   -3.3512105    1.4605601   383581 
 3962000   0.84929814   -3.3498203   -1.8914226  0.039419126   -3.3498203    1.4583977   383530 
 3963000   0.85003929   -3.3503347   -1.8905616  0.046578133   -3.3503347    1.4597731   383503 
 3964000   0.85025349   -3.3507342   -1.8905361  0.044140377   -3.3507342    1.4601981   383488 
 3965000   0.84973563   -3.3492469   -1.8899496  0.039160677   -3.3492469    1.4592973   383491 
 3966000   0.84934548   -3.3491274   -1.8903708   0.04627735   -3.3491274    1.4587566   383457 
 3967000    0.8506576   -3.3527709   -1.8915816  0.041466887   -3.3527709    1.4611893   383410 
 3968000   0.85186755   -3.3527187   -1.8894472  0.040776187   -3.3527187    1.4632715   383409 
 3969000   0.85026355   -3.3509615   -1.8900451  0.043614076   -3.3509615    1.4609163   383304 
 3970000   0.84928516   -3.3494862   -1.8900377   0.04537833   -3.3494862    1.4594485   383248 
 3971000   0.84719937    -3.349806   -1.8936645   0.03986992    -3.349806    1.4561415   383175 
 3972000   0.84682529   -3.3498312   -1.8941882   0.04032686   -3.3498312    1.4556429   383137 
 3973000   0.84790682   -3.3516426   -1.8941482  0.040275663   -3.3516426    1.4574944   383139 
 3974000   0.84777926    -3.351054   -1.8936838  0.041537258    -3.351054    1.4573702   383114 
 3975000   0.84838074   -3.3506262   -1.8919593  0.045002895   -3.3506262    1.4586669   383045 
 3976000   0.84825382   -3.3526327   -1.8940469   0.03862245   -3.3526327    1.4585858   383009 
 3977000   0.84744539    -3.351552   -1.8943412   0.03821739    -3.351552    1.4572109   383005 
 3978000   0.84572572   -3.3500748   -1.8957678  0.040976947   -3.3500748     1.454307   382991 
 3979000   0.84902596   -3.3560002   -1.8957893  0.032535342   -3.3560002    1.4602109   382931 
 3980000   0.84755369   -3.3511942   -1.8933403  0.039005431   -3.3511942    1.4578539   382885 
 3981000   0.84637722   -3.3500265   -1.8939377  0.040801985   -3.3500265    1.4560889   382817 
 3982000   0.84743181   -3.3520492   -1.8939137   0.03731311   -3.3520492    1.4581355   382756 
 3983000   0.84701232   -3.3516698   -1.8941151  0.041304968   -3.3516698    1.4575546   382719 
 3984000   0.84727759    -3.354353   -1.8961362  0.040064206    -3.354353    1.4582168   382665 
 3985000   0.84618134   -3.3515152    -1.895185   0.04331762   -3.3515152    1.4563301   382665 
 3986000   0.84714645   -3.3523747   -1.8942159  0.039757673   -3.3523747    1.4581588   382621 
 3987000   0.84613879   -3.3519836   -1.8953498  0.038273673   -3.3519836    1.4566338   382566 
 3988000   0.84646532   -3.3529353   -1.8956937  0.039885848   -3.3529353    1.4572416   382554 
 3989000   0.84726432   -3.3524614    -1.893543    0.0453589   -3.3524614    1.4589184   382475 
 3990000   0.84903225   -3.3545823    -1.892742  0.040803912   -3.3545823    1.4618403   382507 
 3991000   0.84814121   -3.3528958   -1.8926774   0.04292539   -3.3528958    1.4602183   382530 
 3992000   0.84805949   -3.3541873   -1.8939799  0.038840717   -3.3541873    1.4602074   382496 
 3993000   0.84797349   -3.3538029   -1.8937359  0.044312219   -3.3538029     1.460067   382494 
 3994000   0.84799826   -3.3542687   -1.8940025  0.046669783   -3.3542687    1.4602662   382453 
 3995000   0.84873604   -3.3548851   -1.8932644    0.0456662   -3.3548851    1.4616207   382431 
 3996000   0.84788136   -3.3531374   -1.8930726  0.039223784   -3.3531374    1.4600649   382453 
 3997000   0.84683986    -3.351418   -1.8931123  0.042864147    -3.351418    1.4583057   382444 
 3998000    0.8461131   -3.3504185   -1.8934786  0.039897104   -3.3504185    1.4569399   382474 
 3999000    0.8476195   -3.3522935   -1.8927521  0.044758608   -3.3522935    1.4595414   382472 
 4000000    0.8473512   -3.3533113   -1.8941327   0.04242995   -3.3533113    1.4591786   382446 
 4001000   0.84631947   -3.3506865    -1.893174  0.043126641   -3.3506865    1.4575125   382417 
 4002000   0.84745726   -3.3529015   -1.8931662  0.041890941   -3.3529015    1.4597353   382348 
 4003000   0.84746213    -3.352355   -1.8923937  0.047336471    -3.352355    1.4599613   382291 
 4004000   0.84759604   -3.3523694   -1.8922614  0.047383417   -3.3523694     1.460108   382313 
 4005000   0.84746124   -3.3521767   -1.8923123  0.038989362   -3.3521767    1.4598643   382316 
 4006000   0.84646274   -3.3520936   -1.8937891  0.042765816   -3.3520936    1.4583045   382274 
 4007000   0.84788343   -3.3552184    -1.894344  0.047571718   -3.3552184    1.4608744   382242 
 4008000   0.84613965   -3.3520352   -1.8939517  0.046227451   -3.3520352    1.4580835   382186 
 4009000   0.84690412   -3.3520239   -1.8926918  0.042731675   -3.3520239    1.4593322   382204 
 4010000   0.84486238   -3.3495343   -1.8936137  0.046813931   -3.3495343    1.4559206   382176 
 4011000   0.84587111   -3.3523477    -1.894521  0.039660608   -3.3523477    1.4578268   382132 
 4012000   0.84604229   -3.3502572   -1.8921087  0.041908813   -3.3502572    1.4581485   382125 
 4013000   0.84857737   -3.3539006   -1.8913178  0.039792693   -3.3539006    1.4625827   382108 
 4014000   0.84654591   -3.3508685   -1.8917871  0.045517184   -3.3508685    1.4590814   382108 
 4015000   0.84665999   -3.3531739   -1.8938653    0.0383642   -3.3531739    1.4593086   382100 
 4016000   0.84591976   -3.3521778   -1.8940382  0.041720963   -3.3521778    1.4581395   382072 
 4017000   0.84557612   -3.3508657   -1.8933261  0.039860218   -3.3508657    1.4575396   382074 
 4018000   0.84593249   -3.3502265   -1.8919772  0.041490341   -3.3502265    1.4582493   382049 
 4019000   0.84652481   -3.3487062   -1.8894205  0.045200281   -3.3487062    1.4592856   382045 
 4020000   0.84730068   -3.3495785   -1.8889975  0.043244252   -3.3495785    1.4605811   382056 
 4021000   0.84835575   -3.3517081    -1.889182  0.041383772   -3.3517081    1.4625261   382023 
 4022000   0.84734014   -3.3509516   -1.8899277  0.047764218   -3.3509516    1.4610238   381958 
 4023000   0.84812495   -3.3502675   -1.8877794  0.044872938   -3.3502675    1.4624881   381929 
 4024000   0.84574027   -3.3478924   -1.8893751  0.042431121   -3.3478924    1.4585173   381892 
 4025000   0.84559412   -3.3468417   -1.8885344   0.04340573   -3.3468417    1.4583073   381881 
 4026000   0.84484884   -3.3470882   -1.8899442  0.042479557   -3.3470882     1.457144   381849 
 4027000   0.84486767   -3.3477485   -1.8903125  0.046023785   -3.3477485    1.4574361   381781 
 4028000   0.84515022   -3.3491361   -1.8911095   0.03584792   -3.3491361    1.4580266   381754 
 4029000   0.84493582   -3.3485735   -1.8906952  0.040473348   -3.3485735    1.4578782   381696 
 4030000    0.8442979   -3.3465867   -1.8896489  0.044280719   -3.3465867    1.4569378   381654 
 4031000   0.84530802   -3.3498701   -1.8911357  0.038620099   -3.3498701    1.4587344   381640 
 4032000   0.84410361   -3.3469367   -1.8902387   0.04303768   -3.3469367     1.456698   381629 
 4033000   0.84494104    -3.347477   -1.8892651  0.043482672    -3.347477    1.4582119   381611 
 4034000   0.84425272   -3.3449329   -1.8877867  0.043672931   -3.3449329    1.4571462   381579 
 4035000   0.84514029   -3.3455498   -1.8867723  0.043596981   -3.3455498    1.4587775   381553 
 4036000    0.8442047   -3.3453888   -1.8881689  0.042703371   -3.3453888    1.4572199   381538 
 4037000    0.8453356   -3.3480631   -1.8887266  0.039908886   -3.3480631    1.4593365   381495 
 4038000   0.84464147   -3.3449849   -1.8867703  0.041220101   -3.3449849    1.4582146   381475 
 4039000   0.84338366   -3.3433591   -1.8871595  0.042321247   -3.3433591    1.4561996   381434 
 4040000   0.84462872   -3.3454268   -1.8868939  0.039192964   -3.3454268    1.4585329   381386 
 4041000   0.84321678    -3.343906   -1.8878647  0.037354156    -3.343906    1.4560413   381400 
 4042000   0.84262649    -3.342744   -1.8875809  0.042160718    -3.342744    1.4551631   381363 
 4043000   0.84226475   -3.3422931   -1.8875983  0.042631948   -3.3422931    1.4546948   381322 
 4044000   0.84326641   -3.3447402   -1.8881511  0.038793583   -3.3447402    1.4565891   381279 
 4045000   0.84292368   -3.3458934   -1.8898391  0.041675453   -3.3458934    1.4560544   381264 
 4046000   0.84358957   -3.3487957   -1.8911438  0.040455641   -3.3487957    1.4576519   381147 
 4047000   0.84218303   -3.3454204   -1.8901875  0.041241987   -3.3454204     1.455233   381144 
 4048000   0.84292257   -3.3471515   -1.8906063  0.035899853   -3.3471515    1.4565453   381135 
 4049000   0.84151659   -3.3435699   -1.8890572  0.039782618   -3.3435699    1.4545127   381031 
 4050000    0.8422651     -3.34766   -1.8915555  0.041318823     -3.34766    1.4561045   380953 
 4051000   0.84246962   -3.3492991   -1.8927952  0.041028187   -3.3492991    1.4565039   380941 
 4052000   0.84295003   -3.3473465   -1.8899317  0.046537489   -3.3473465    1.4574148   380920 
 4053000   0.84383547   -3.3506996   -1.8915585  0.038720808   -3.3506996    1.4591411   380869 
 4054000   0.84235317   -3.3479753   -1.8913362  0.046512215   -3.3479753    1.4566391   380853 
 4055000   0.84410561   -3.3503201   -1.8907119  0.045040703   -3.3503201    1.4596082   380869 
 4056000   0.84219589   -3.3490547   -1.8925116  0.039956609   -3.3490547     1.456543   380807 
 4057000   0.84363139   -3.3514421   -1.8921673  0.043987794   -3.3514421    1.4592748   380742 
 4058000   0.84200688   -3.3493821   -1.8930589  0.040144166   -3.3493821    1.4563232   380779 
 4059000   0.84370923   -3.3513778    -1.891976  0.040853759   -3.3513778    1.4594017   380744 
 4060000   0.84438294   -3.3529132    -1.892511  0.041614784   -3.3529132    1.4604022   380787 
 4061000   0.84186051   -3.3499691    -1.893857  0.041705842   -3.3499691    1.4561122   380768 
 4062000   0.84120431   -3.3504481   -1.8954633    0.0431129   -3.3504481    1.4549848   380766 
 4063000   0.84040429   -3.3512139   -1.8974258   0.04444652   -3.3512139    1.4537881   380717 
 4064000   0.84250835   -3.3533911   -1.8957412  0.038736458   -3.3533911      1.45765   380659 
 4065000   0.84198265   -3.3514622   -1.8946069  0.041842951   -3.3514622    1.4568552   380629 
 4066000   0.84310852   -3.3522626   -1.8934018  0.043987857   -3.3522626    1.4588608   380614 
 4067000   0.84258348   -3.3537343   -1.8956862  0.047282476   -3.3537343    1.4580481   380589 
 4068000   0.84430916   -3.3569778   -1.8958782  0.041417175   -3.3569778    1.4610995   380572 
 4069000   0.84335954   -3.3545425   -1.8950787  0.048529681   -3.3545425    1.4594639   380570 
 4070000   0.84173229   -3.3520338   -1.8953515  0.042109111   -3.3520338    1.4566823   380561 
 4071000   0.84239531   -3.3548486    -1.896858  0.044072584   -3.3548486    1.4579906   380519 
 4072000   0.84045527   -3.3520853   -1.8972421  0.041409493   -3.3520853    1.4548431   380464 
 4073000   0.84193313   -3.3542227   -1.8965838  0.046327866   -3.3542227    1.4576389   380402 
 4074000    0.8410838    -3.353273   -1.8969438  0.047636765    -3.353273    1.4563292   380360 
 4075000   0.84193803   -3.3544506   -1.8965541  0.041904879   -3.3544506    1.4578965   380337 
 4076000   0.84183119   -3.3546148   -1.8969455  0.044867704   -3.3546148    1.4576693   380348 
 4077000   0.84109648    -3.354048   -1.8974249  0.044447229    -3.354048    1.4566231   380289 
 4078000   0.84168652   -3.3549077   -1.8972282  0.044488083   -3.3549077    1.4576794   380280 
 4079000   0.84052453   -3.3522145   -1.8963331  0.039671768   -3.3522145    1.4558814   380224 
 4080000   0.84033586   -3.3536532   -1.8979761  0.042126869   -3.3536532    1.4556771   380192 
 4081000    0.8398559   -3.3526244   -1.8975682  0.036703792   -3.3526244    1.4550562   380137 
 4082000   0.83982768   -3.3520018   -1.8967189  0.041452644   -3.3520018    1.4552829   380065 
 4083000   0.83968187     -3.35253   -1.8973159  0.034008287     -3.35253    1.4552141   380017 
 4084000   0.84004026   -3.3522813   -1.8962661  0.043390562   -3.3522813    1.4560153   379970 
 4085000   0.83979046   -3.3538721   -1.8981021  0.038312625   -3.3538721      1.45577   379921 
 4086000   0.84009386   -3.3537528   -1.8972767  0.040916001   -3.3537528    1.4564761   379874 
 4087000   0.83951095   -3.3526565   -1.8970186  0.044376106   -3.3526565     1.455638   379829 
 4088000   0.84093208   -3.3536867    -1.895527   0.04131735   -3.3536867    1.4581597   379814 
 4089000    0.8407904   -3.3542853   -1.8961563  0.041662042   -3.3542853     1.458129   379758 
 4090000   0.83911364   -3.3515502   -1.8962218  0.045592178   -3.3515502    1.4553284   379730 
 4091000   0.84034722   -3.3534272   -1.8957674   0.03828672   -3.3534272    1.4576598   379680 
 4092000   0.84096088   -3.3535475   -1.8947733  0.039312876   -3.3535475    1.4587742   379667 
 4093000   0.83943271   -3.3511035   -1.8949418  0.039702144   -3.3511035    1.4561617   379657 
 4094000   0.83930096   -3.3508196   -1.8948749  0.044351502   -3.3508196    1.4559447   379654 
 4095000   0.83975916   -3.3504988   -1.8937478  0.041942572   -3.3504988     1.456751   379651 
 4096000   0.84002791   -3.3521648   -1.8948285  0.038289315   -3.3521648    1.4573362   379620 
 4097000   0.83988062    -3.351185   -1.8939584   0.04279985    -3.351185    1.4572266   379582 
 4098000   0.83908775   -3.3494195   -1.8935724   0.04538776   -3.3494195    1.4558471   379583 
 4099000     0.841019   -3.3519157    -1.892787  0.041131755   -3.3519157    1.4591287   379601 
 4100000   0.83945107   -3.3504335   -1.8939445  0.043561065   -3.3504335     1.456489   379580 
 4101000   0.83969971    -3.350693   -1.8937458  0.042851007    -3.350693    1.4569472   379573 
 4102000   0.83984501   -3.3509603    -1.893761  0.039586403   -3.3509603    1.4571993   379573 
 4103000   0.84044328   -3.3523658   -1.8940746  0.042536974   -3.3523658    1.4582912   379559 
 4104000   0.84095487   -3.3514792    -1.892381   0.04461097   -3.3514792    1.4590981   379580 
 4105000   0.83983013   -3.3493876   -1.8922141  0.046272757   -3.3493876    1.4571735   379573 
 4106000   0.84111068    -3.351807   -1.8923155  0.043768373    -3.351807    1.4594915   379548 
 4107000    0.8415083   -3.3519746   -1.8917623  0.040179772   -3.3519746    1.4602122   379540 
 4108000   0.84053475   -3.3495991   -1.8909302  0.045962469   -3.3495991    1.4586689   379502 
 4109000    0.8410411   -3.3510844   -1.8915021  0.044146933   -3.3510844    1.4595823   379493 
 4110000    0.8410331   -3.3515241   -1.8917018  0.044267478   -3.3515241    1.4598223   379427 
 4111000   0.84013434   -3.3522415   -1.8938216  0.044091398   -3.3522415    1.4584199   379386 
 4112000   0.83944285   -3.3525971   -1.8951587  0.038557598   -3.3525971    1.4574384   379329 
 4113000   0.83894216   -3.3525015   -1.8958517  0.039377001   -3.3525015    1.4566498   379308 
 4114000   0.83827266   -3.3513176   -1.8957343  0.042588994   -3.3513176    1.4555833   379283 
 4115000   0.83808118   -3.3502929   -1.8949883  0.041732711   -3.3502929    1.4553045   379269 
 4116000   0.83880129    -3.351849   -1.8950675  0.042164958    -3.351849    1.4567816   379210 
 4117000   0.84007657   -3.3549438   -1.8956664  0.042680641   -3.3549438    1.4592773   379137 
 4118000   0.84043566   -3.3532519   -1.8933046   0.04499752   -3.3532519    1.4599473   379125 
 4119000   0.83855717   -3.3530873   -1.8964109  0.039853239   -3.3530873    1.4566764   379127 
 4120000   0.83906095   -3.3526119   -1.8949719  0.041465793   -3.3526119      1.45764   379104 
 4121000   0.83975686   -3.3545812   -1.8955359  0.044659612   -3.3545812    1.4590452   379053 
 4122000   0.83942622   -3.3538834   -1.8952742  0.043672858   -3.3538834    1.4586093   379017 
 4123000   0.83929765   -3.3533152   -1.8948139  0.045294499   -3.3533152    1.4585013   378987 
 4124000   0.83907922   -3.3524903   -1.8943377  0.043707225   -3.3524903    1.4581525   378979 
 4125000    0.8378281   -3.3504094   -1.8943542   0.04506736   -3.3504094    1.4560552   378959 
 4126000   0.83876032   -3.3533778   -1.8956102  0.044977664   -3.3533778    1.4577676   378935 
 4127000   0.83965642   -3.3526697   -1.8932215  0.041078325   -3.3526697    1.4594483   378903 
 4128000   0.83898864   -3.3533375   -1.8949614  0.043068407   -3.3533375    1.4583761   378880 
 4129000   0.83871841   -3.3521685   -1.8944506  0.041132947   -3.3521685    1.4577178   378929 
 4130000    0.8368197   -3.3502239   -1.8956526  0.038117117   -3.3502239    1.4545714   378889 
 4131000    0.8368996   -3.3491994   -1.8943701  0.040833724   -3.3491994    1.4548293   378858 
 4132000   0.83841219   -3.3511537   -1.8934641  0.042474798   -3.3511537    1.4576895   378798 
 4133000   0.83882032   -3.3523918   -1.8939658  0.041874501   -3.3523918    1.4584261   378791 
 4134000   0.83705429   -3.3491514   -1.8936998  0.041379158   -3.3491514    1.4554516   378766 
 4135000   0.83623361   -3.3494566   -1.8953667  0.040460676   -3.3494566    1.4540899   378749 
 4136000   0.83868744   -3.3523015    -1.893964  0.040731593   -3.3523015    1.4583375   378754 
 4137000   0.83950625   -3.3515498   -1.8918309  0.040039937   -3.3515498    1.4597189   378765 
 4138000   0.84047264   -3.3534502   -1.8918388  0.041723348   -3.3534502    1.4616115   378710 
 4139000    0.8389339   -3.3531679   -1.8939241  0.038244978   -3.3531679    1.4592438   378630 
 4140000   0.83771284    -3.351788   -1.8944795  0.043288618    -3.351788    1.4573085   378581 
 4141000    0.8370727   -3.3501551   -1.8938603  0.043469539   -3.3501551    1.4562949   378555 
 4142000   0.83685709   -3.3501483   -1.8943054   0.04321311   -3.3501483    1.4558429   378575 
 4143000   0.83532325   -3.3490127   -1.8953966  0.036665748   -3.3490127    1.4536161   378460 
 4144000    0.8386493   -3.3519124   -1.8924004  0.037819087   -3.3519124     1.459512   378432 
 4145000   0.83739402    -3.348725   -1.8914014  0.041443395    -3.348725    1.4573236   378433 
 4146000    0.8377349   -3.3494278   -1.8913068  0.042313225   -3.3494278     1.458121   378380 
 4147000   0.83701797    -3.349493   -1.8926506  0.047094838    -3.349493    1.4568423   378388 
 4148000   0.83671699     -3.35015   -1.8938662   0.04231076     -3.35015    1.4562839   378397 
 4149000   0.83811906   -3.3526004    -1.893776  0.039818037   -3.3526004    1.4588244   378371 
 4150000   0.83717566   -3.3513344   -1.8939903  0.039142244   -3.3513344    1.4573441   378329 
 4151000   0.83660849   -3.3482386   -1.8917664   0.03951696   -3.3482386    1.4564722   378299 
 4152000   0.83599956   -3.3493499   -1.8936992  0.038470298   -3.3493499    1.4556507   378237 
 4153000   0.83571946   -3.3500249   -1.8948081  0.042988903   -3.3500249    1.4552168   378223 
 4154000   0.83604156   -3.3524011   -1.8965426  0.041486982   -3.3524011    1.4558585   378202 
 4155000   0.83657217   -3.3507883   -1.8940905   0.04264803   -3.3507883    1.4566978   378224 
 4156000   0.83779667   -3.3533623   -1.8942661  0.043847125   -3.3533623    1.4590962   378155 
 4157000   0.83741559   -3.3532558   -1.8946073  0.045279374   -3.3532558    1.4586485   378099 
 4158000   0.83627907   -3.3508742   -1.8941399  0.043841035   -3.3508742    1.4567343   378082 
 4159000   0.83631001   -3.3528189    -1.895811  0.040736625   -3.3528189    1.4570079   378025 
 4160000   0.83734628   -3.3537201    -1.894764  0.046750521   -3.3537201    1.4589561   377988 
 4161000   0.83763646   -3.3528421   -1.8932801  0.042300513   -3.3528421    1.4595621   377962 
 4162000   0.83690507   -3.3532577   -1.8948311   0.04289161   -3.3532577    1.4584265   377926 
 4163000   0.83646933   -3.3539697   -1.8960672  0.042546381   -3.3539697    1.4579025   377865 
 4164000   0.83451226   -3.3504154   -1.8958046  0.049051692   -3.3504154    1.4546108   377834 
 4165000   0.83336994   -3.3498312   -1.8969924  0.046820632   -3.3498312    1.4528389   377777 
 4166000   0.83561037   -3.3552481    -1.898353  0.040034246   -3.3552481    1.4568951   377738 
 4167000   0.83517027   -3.3542487   -1.8978395  0.038380428   -3.3542487    1.4564092   377665 
 4168000   0.83429145   -3.3559674   -1.9008673  0.038163179   -3.3559674    1.4551002   377607 
 4169000   0.83299644   -3.3526852   -1.8998706  0.039574771   -3.3526852    1.4528146   377614 
 4170000   0.83351091   -3.3531832   -1.8993713  0.037649584   -3.3531832     1.453812   377588 
 4171000    0.8337517   -3.3540499   -1.8997525  0.039009775   -3.3540499    1.4542974   377571 
 4172000   0.83295039   -3.3533358   -1.9002205  0.039144298   -3.3533358    1.4531152   377515 
 4173000   0.83356022   -3.3542802   -1.9000163  0.043971441   -3.3542802    1.4542639   377493 
 4174000   0.83486784   -3.3573885    -1.900716  0.039730005   -3.3573885    1.4566725   377460 
 4175000    0.8342387     -3.35521   -1.8995002  0.039783011     -3.35521    1.4557098   377425 
 4176000   0.83404992   -3.3545736    -1.898985  0.043220782   -3.3545736    1.4555886   377371 
 4177000   0.83561126   -3.3569563   -1.8984998  0.046101067   -3.3569563    1.4584565   377334 
 4178000   0.83480377   -3.3583028   -1.9010973  0.042813108   -3.3583028    1.4572054   377293 
 4179000   0.83413916   -3.3564423   -1.9005011  0.040954499   -3.3564423    1.4559411   377320 
 4180000   0.83320074   -3.3564203   -1.9019012  0.039903573   -3.3564203     1.454519   377264 
 4181000   0.83482706   -3.3592449   -1.9017748  0.042247307   -3.3592449    1.4574701   377235 
 4182000   0.83440256   -3.3580122   -1.9012716  0.040937709   -3.3580122    1.4567406   377232 
 4183000   0.83219127   -3.3547576   -1.9018583  0.045427317   -3.3547576    1.4528993   377227 
 4184000   0.83389136   -3.3568125   -1.9008601  0.044943619   -3.3568125    1.4559524   377205 
 4185000   0.83225656   -3.3571685   -1.9038432  0.038890239   -3.3571685    1.4533254   377146 
 4186000   0.83303017   -3.3574191   -1.9026117  0.038957068   -3.3574191    1.4548074   377112 
 4187000   0.83269526   -3.3586782   -1.9043014  0.042371823   -3.3586782    1.4543768   377072 
 4188000   0.83360403   -3.3588045   -1.9028057  0.045988457   -3.3588045    1.4559988   377063 
 4189000   0.83436484   -3.3580312    -1.900634  0.041998831   -3.3580312    1.4573972   377045 
 4190000   0.83445395   -3.3591288    -1.901572   0.04228674   -3.3591288    1.4575567   377044 
 4191000   0.83512189   -3.3593413   -1.9004128  0.044019513   -3.3593413    1.4589285   376991 
 4192000   0.83346303   -3.3570114    -1.900865  0.050045991   -3.3570114    1.4561464   376961 
 4193000   0.83401803   -3.3584109   -1.9010977   0.04306878   -3.3584109    1.4573132   376910 
 4194000   0.83390223   -3.3567721   -1.8995607  0.038199097   -3.3567721    1.4572114   376884 
 4195000    0.8331059   -3.3568809   -1.9008138  0.045544837   -3.3568809    1.4560671   376820 
 4196000   0.83307729   -3.3572095    -1.901003  0.041285722   -3.3572095    1.4562065   376771 
 4197000   0.83434246    -3.358046   -1.8995118  0.041041999    -3.358046    1.4585341   376741 
 4198000   0.83361657    -3.357077   -1.8997577  0.044360295    -3.357077    1.4573193   376727 
 4199000   0.83318597   -3.3560571   -1.8993706  0.039889243   -3.3560571    1.4566864   376696 
 4200000   0.83297223   -3.3551333   -1.8987085  0.042962847   -3.3551333    1.4564249   376667 
 4201000   0.83232011   -3.3551414   -1.8996635  0.048965226   -3.3551414    1.4554779   376617 
 4202000    0.8313273    -3.353167   -1.8994137  0.043151425    -3.353167    1.4537533   376614 
 4203000   0.83166038   -3.3545055   -1.9001621  0.040724498   -3.3545055    1.4543435   376612 
 4204000   0.83097142   -3.3530262    -1.899737  0.038359764   -3.3530262    1.4532892   376573 
 4205000    0.8319568   -3.3552007   -1.9000413  0.037286253   -3.3552007    1.4551594   376535 
 4206000   0.83022866   -3.3525846   -1.9001278  0.043483607   -3.3525846    1.4524569   376452 
 4207000   0.82989214   -3.3512641   -1.8993458   0.03923476   -3.3512641    1.4519183   376439 
 4208000   0.83122613   -3.3511892   -1.8970646  0.039712989   -3.3511892    1.4541247   376472 
 4209000   0.83095629   -3.3514169   -1.8976793  0.036252007   -3.3514169    1.4537376   376450 
 4210000   0.83221668    -3.353161   -1.8972996  0.040413451    -3.353161    1.4558614   376471 
 4211000   0.83186096   -3.3524981   -1.8970194  0.038597743   -3.3524981    1.4554788   376409 
 4212000   0.83040887   -3.3511778   -1.8978574  0.038302013   -3.3511778    1.4533203   376310 
 4213000    0.8319604   -3.3536175   -1.8975237   0.04031076   -3.3536175    1.4560938   376295 
 4214000   0.83096531   -3.3508105   -1.8964506  0.042069376   -3.3508105    1.4543599   376293 
 4215000   0.83151222    -3.352514   -1.8969184  0.042384778    -3.352514    1.4555956   376221 
 4216000   0.83169044   -3.3538144   -1.8976513  0.038450486   -3.3538144     1.456163   376155 
 4217000   0.83109998   -3.3516745   -1.8964563  0.045213666   -3.3516745    1.4552182   376132 
 4218000   0.83286099   -3.3539969   -1.8958852  0.038863658   -3.3539969    1.4581117   376181 
 4219000   0.83029333   -3.3511134    -1.897327  0.035468215   -3.3511134    1.4537865   376137 
 4220000   0.83032552   -3.3501351   -1.8961492  0.041346394   -3.3501351    1.4539859   376100 
 4221000   0.83165186   -3.3525593   -1.8962393  0.045797999   -3.3525593      1.45632   376097 
 4222000   0.83120016   -3.3521943   -1.8965995  0.038330332   -3.3521943    1.4555948   376080 
 4223000   0.83108295    -3.353248   -1.8978545  0.037402103    -3.353248    1.4553935   376079 
 4224000   0.83108255   -3.3525383   -1.8969907  0.044649823   -3.3525383    1.4555476   376039 
 4225000   0.83224919   -3.3559371   -1.8981059  0.037635985   -3.3559371    1.4578312   375977 
 4226000   0.83066012   -3.3540317   -1.8987905  0.044234562   -3.3540317    1.4552412   375927 
 4227000   0.83103408   -3.3546006   -1.8986617  0.039561769   -3.3546006    1.4559389   375916 
 4228000   0.83072211   -3.3549704   -1.8993225  0.038810907   -3.3549704    1.4556479   375850 
 4229000   0.83041403   -3.3542793   -1.8990241  0.042560145   -3.3542793    1.4552552   375812 
 4230000   0.83197869   -3.3581343   -1.8998888  0.044605516   -3.3581343    1.4582455   375748 
 4231000   0.83152256    -3.356273   -1.8986213   0.04323128    -3.356273    1.4576517   375695 
 4232000   0.83120945   -3.3560011   -1.8987819  0.047353271   -3.3560011    1.4572192   375665 
 4233000   0.83078898   -3.3556785   -1.8991267  0.044050622   -3.3556785    1.4565518   375647 
 4234000   0.83037349   -3.3545112   -1.8984979  0.044840039   -3.3545112    1.4560133   375598 
 4235000   0.83091098   -3.3540332    -1.897093  0.038224838   -3.3540332    1.4569402   375602 
 4236000   0.83070837   -3.3565879   -1.8995684  0.041476334   -3.3565879    1.4570194   375490 
 4237000   0.83053903   -3.3560686   -1.8992297  0.039670331   -3.3560686    1.4568388   375460 
 4238000   0.83163378   -3.3584476   -1.8995214  0.038736044   -3.3584476    1.4589262   375417 
 4239000   0.83086757   -3.3556993    -1.898129  0.042651383   -3.3556993    1.4575704   375420 
 4240000   0.82956217   -3.3528529   -1.8975416  0.042333904   -3.3528529    1.4553114   375412 
 4241000   0.83087619   -3.3534577   -1.8955304  0.041843345   -3.3534577    1.4579272   375332 
 4242000   0.82964957   -3.3524791   -1.8964986  0.043219283   -3.3524791    1.4559805   375279 
 4243000   0.83041747   -3.3532723   -1.8959248  0.043345378   -3.3532723    1.4573476   375274 
 4244000   0.83020417   -3.3542701   -1.8971648  0.038517489   -3.3542701    1.4571052   375240 
 4245000   0.82867694   -3.3492923   -1.8950109  0.044806513   -3.3492923    1.4542814   375277 
 4246000   0.82899149   -3.3523942   -1.8973553  0.038742889   -3.3523942    1.4550389   375224 
 4247000   0.82911637   -3.3544329   -1.8989072  0.045462005   -3.3544329    1.4555257   375155 
 4248000   0.83018042   -3.3546935   -1.8971677   0.03839459   -3.3546935    1.4575258   375121 
 4249000   0.82813805   -3.3510415   -1.8970007  0.040920991   -3.3510415    1.4540408   375095 
 4250000   0.82919517   -3.3524627   -1.8964183   0.03804192   -3.3524627    1.4560444   375057 
 4251000   0.82925766    -3.353375   -1.8970539  0.038776129    -3.353375    1.4563211   375014 
 4252000   0.82798347    -3.352175   -1.8979869  0.037355743    -3.352175    1.4541881   374987 
 4253000   0.82958408   -3.3568265   -1.8996252  0.040825229   -3.3568265    1.4572013   374935 
 4254000   0.82850298   -3.3552092   -1.8996934  0.038986477   -3.3552092    1.4555158   374880 
 4255000   0.82793919   -3.3546288   -1.8998667  0.035729749   -3.3546288    1.4547621   374819 
 4256000   0.82777463   -3.3535908   -1.8989898  0.038348302   -3.3535908     1.454601   374786 
 4257000   0.82744577   -3.3525761   -1.8985724  0.041770499   -3.3525761    1.4540037   374791 
 4258000   0.82661876   -3.3509072   -1.8982753  0.041015587   -3.3509072    1.4526319   374770 
 4259000   0.82746059    -3.353957   -1.8999582  0.039693826    -3.353957    1.4539987   374799 
 4260000   0.82767237   -3.3529025   -1.8984268  0.042635513   -3.3529025    1.4544756   374772 
 4261000   0.82815925   -3.3540874   -1.8985775  0.042187341   -3.3540874    1.4555099   374726 
 4262000     0.828144   -3.3550286   -1.8993785   0.04607715   -3.3550286    1.4556501   374683 
 4263000   0.82855443    -3.355443   -1.8989238  0.038308688    -3.355443    1.4565193   374645 
 4264000   0.82835973   -3.3545084   -1.8983081  0.042094527   -3.3545084    1.4562003   374639 
 4265000   0.82736011   -3.3542962   -1.8997677  0.033849496   -3.3542962    1.4545285   374617 
 4266000   0.82749815   -3.3546633   -1.8998844  0.042203368   -3.3546633    1.4547789   374615 
 4267000   0.82788516   -3.3543921   -1.8989367  0.041645626   -3.3543921    1.4554554   374616 
 4268000    0.8285054    -3.356504   -1.8997366  0.038993791    -3.356504    1.4567675   374559 
 4269000   0.82868808   -3.3550001   -1.8978958  0.039382806   -3.3550001    1.4571042   374555 
 4270000   0.82783181   -3.3551836    -1.899309  0.044704196   -3.3551836    1.4558746   374484 
 4271000   0.82730931   -3.3529646   -1.8981526  0.044433631   -3.3529646     1.454812   374521 
 4272000   0.82796245   -3.3542083   -1.8982323  0.043080476   -3.3542083    1.4559761   374517 
 4273000   0.82819152   -3.3554574   -1.8990979   0.04196148   -3.3554574    1.4563595   374522 
 4274000   0.82810017   -3.3552238   -1.8988538  0.040738822   -3.3552238    1.4563699   374478 
 4275000   0.82741175   -3.3545309   -1.8992007  0.041361106   -3.3545309    1.4553302   374434 
 4276000   0.82800822   -3.3555291   -1.8991381  0.041884123   -3.3555291     1.456391   374431 
 4277000   0.82717514   -3.3536643   -1.8987931  0.048846602   -3.3536643    1.4548713   374445 
 4278000   0.82756579   -3.3553461   -1.8995506  0.039873926   -3.3553461    1.4557955   374384 
 4279000   0.82599311   -3.3526209   -1.8994987  0.039005965   -3.3526209    1.4531221   374360 
 4280000   0.82615971   -3.3520208   -1.8986638  0.039786659   -3.3520208     1.453357   374375 
 4281000   0.82663182    -3.353558   -1.8993627  0.036988328    -3.353558    1.4541953   374373 
 4282000   0.82525635   -3.3526322   -1.9006588  0.040886991   -3.3526322    1.4519734   374322 
 4283000   0.82684604   -3.3540185   -1.8991199  0.041170446   -3.3540185    1.4548986   374289 
 4284000   0.82621456   -3.3548626   -1.9009508  0.041526177   -3.3548626    1.4539118   374257 
 4285000    0.8255152   -3.3528203   -1.8998753  0.042956902   -3.3528203     1.452945   374189 
 4286000    0.8250985   -3.3527033   -1.9003752  0.043207588   -3.3527033    1.4523281   374159 
 4287000   0.82697997    -3.355039   -1.8993525  0.038577779    -3.355039    1.4556865   374147 
 4288000   0.82686476   -3.3568726   -1.9012371   0.04163495   -3.3568726    1.4556354   374108 
 4289000   0.82625802   -3.3554603   -1.9006675  0.043048537   -3.3554603    1.4547929   374050 
 4290000   0.82555346   -3.3543059   -1.9006019  0.045160233   -3.3543059    1.4537039   374011 
 4291000   0.82688451    -3.356876   -1.9006725   0.04034691    -3.356876    1.4562035   373971 
 4292000   0.82595392   -3.3539155   -1.8994286  0.036781272   -3.3539155    1.4544868   373991 
 4293000   0.82549426     -3.35358   -1.8998754  0.043445517     -3.35358    1.4537046   373984 
 4294000   0.82715423   -3.3552575   -1.8985284  0.040420441   -3.3552575    1.4567291   373958 
 4295000   0.82715504   -3.3557578   -1.8990545  0.043564346   -3.3557578    1.4567033   373965 
 4296000    0.8281124   -3.3562785   -1.8977761  0.046418836   -3.3562785    1.4585024   373936 
 4297000   0.82646439   -3.3554751   -1.8997506  0.044899392   -3.3554751    1.4557244   373904 
 4298000   0.82579786   -3.3525355   -1.8979696  0.046962829   -3.3525355     1.454566   373900 
 4299000   0.82497588   -3.3516775    -1.898299  0.045558698   -3.3516775    1.4533786   373833 
 4300000   0.82340008   -3.3497667   -1.8991216  0.041645003   -3.3497667    1.4506451   373822 
 4301000   0.82467488   -3.3524996   -1.8993831  0.039736185   -3.3524996    1.4531165   373764 
 4302000   0.82540182   -3.3529894    -1.898662  0.044762772   -3.3529894    1.4543273   373782 
 4303000   0.82386322   -3.3503067    -1.898465  0.037426835   -3.3503067    1.4518417   373724 
 4304000   0.82627441   -3.3533591   -1.8972683  0.043401141   -3.3533591    1.4560908   373724 
 4305000   0.82554319   -3.3506469   -1.8958953  0.037632053   -3.3506469    1.4547516   373737 
 4306000   0.82525199   -3.3511316   -1.8967064  0.038424843   -3.3511316    1.4544252   373689 
 4307000   0.82679821   -3.3518302   -1.8945317  0.039486691   -3.3518302    1.4572985   373651 
 4308000   0.82603059   -3.3499985   -1.8939633  0.039685333   -3.3499985    1.4560351   373628 
 4309000   0.82565006   -3.3505838   -1.8950519  0.040645155   -3.3505838    1.4555319   373585 
 4310000   0.82517947   -3.3501417   -1.8952681   0.03709525   -3.3501417    1.4548736   373541 
 4311000   0.82472285   -3.3488703    -1.894646  0.037352133   -3.3488703    1.4542243   373501 
 4312000   0.82408501   -3.3492102   -1.8959394   0.04263728   -3.3492102    1.4532708   373457 
 4313000    0.8239904   -3.3479724   -1.8948295  0.039512455   -3.3479724    1.4531429   373447 
 4314000   0.82338006   -3.3463794   -1.8940873  0.037611761   -3.3463794    1.4522921   373389 
 4315000   0.82312922   -3.3465497   -1.8945756   0.03551056   -3.3465497     1.451974   373357 
 4316000   0.82350753   -3.3459495   -1.8931758  0.038406866   -3.3459495    1.4527737   373323 
 4317000   0.82434887    -3.347207   -1.8927894  0.042167406    -3.347207    1.4544176   373282 
 4318000   0.82310965   -3.3454438   -1.8931387  0.038726855   -3.3454438    1.4523052   373263 
 4319000   0.82342101   -3.3450184   -1.8919614  0.045014854   -3.3450184     1.453057   373211 
 4320000   0.82372071   -3.3457621   -1.8919737  0.042778521   -3.3457621    1.4537884   373159 
 4321000   0.82291184    -3.344034   -1.8916693  0.043170059    -3.344034    1.4523647   373158 
 4322000   0.82381264   -3.3459618   -1.8919099  0.038079219   -3.3459618     1.454052   373133 
 4323000   0.82393926   -3.3458358   -1.8914668  0.040202895   -3.3458358     1.454369   373109 
 4324000   0.82354056   -3.3472055   -1.8933844  0.035939382   -3.3472055    1.4538211   373069 
 4325000   0.82314553   -3.3453725   -1.8920345  0.043101529   -3.3453725     1.453338   373014 
 4326000   0.82205974   -3.3443822   -1.8928367   0.04163262   -3.3443822    1.4515455   372982 
 4327000   0.82277876   -3.3453852    -1.892465  0.036962252   -3.3453852    1.4529202   372955 
 4328000   0.82257388   -3.3472819   -1.8944937  0.038535416   -3.3472819    1.4527883   372896 
 4329000   0.82246552   -3.3467098   -1.8940934    0.0372811   -3.3467098    1.4526164   372891 
 4330000   0.82134255   -3.3469433    -1.896108  0.034769649   -3.3469433    1.4508353   372839 
 4331000   0.82290138   -3.3487717   -1.8951712  0.038866659   -3.3487717    1.4536006   372836 
 4332000   0.82256025   -3.3474598   -1.8943878  0.034978409   -3.3474598     1.453072   372817 
 4333000   0.82236345   -3.3469768   -1.8942213  0.043776474   -3.3469768    1.4527555   372809 
 4334000   0.82370803   -3.3493253   -1.8939133  0.039615737   -3.3493253    1.4554119   372737 
 4335000    0.8239288   -3.3505882   -1.8947667  0.043052766   -3.3505882    1.4558215   372732 
 4336000   0.82540852   -3.3518849    -1.893484  0.039010181   -3.3518849    1.4584009   372741 
 4337000   0.82461199    -3.350335   -1.8934744  0.039696844    -3.350335    1.4568606   372775 
 4338000   0.82463641   -3.3496878    -1.892702   0.04206779   -3.3496878    1.4569858   372754 
 4339000   0.82431662   -3.3503977   -1.8937854  0.045717903   -3.3503977    1.4566123   372705 
 4340000   0.82396815   -3.3512177   -1.8949125  0.042855114   -3.3512177    1.4563052   372626 
 4341000   0.82449522    -3.352647   -1.8952577  0.042656485    -3.352647    1.4573893   372587 
 4342000   0.82265855   -3.3514574   -1.8971078  0.041052938   -3.3514574    1.4543497   372534 
 4343000   0.82344763   -3.3529788   -1.8969488  0.043524666   -3.3529788      1.45603   372461 
 4344000   0.82172401   -3.3505371   -1.8975977  0.037581263   -3.3505371    1.4529393   372472 
 4345000   0.82218997    -3.350767   -1.8971794  0.040392404    -3.350767    1.4535876   372517 
 4346000   0.82225061   -3.3514025    -1.897696  0.044389982   -3.3514025    1.4537065   372514 
 4347000   0.82262414   -3.3511776   -1.8966624  0.034843424   -3.3511776    1.4545153   372476 
 4348000   0.82195801    -3.352012   -1.8984287  0.041504141    -3.352012    1.4535833   372413 
 4349000   0.82159883   -3.3506109   -1.8976043  0.036877503   -3.3506109    1.4530066   372398 
 4350000    0.8216268   -3.3506892   -1.8975628  0.042336288   -3.3506892    1.4531264   372380 
 4351000    0.8225456   -3.3530019   -1.8980473  0.038372969   -3.3530019    1.4549545   372328 
 4352000   0.82076396   -3.3524669   -1.9005781  0.034669178   -3.3524669    1.4518889   372306 
 4353000   0.82004879    -3.350553   -1.8998396  0.040329475    -3.350553    1.4507134   372283 
 4354000   0.82022595   -3.3497457   -1.8987033   0.04031225   -3.3497457    1.4510424   372279 
 4355000    0.8200804   -3.3501177   -1.8991886   0.04116041   -3.3501177    1.4509291   372242 
 4356000   0.82168086   -3.3524677   -1.8983984  0.036442453   -3.3524677    1.4540693   372163 
 4357000    0.8198438   -3.3491505   -1.8979929  0.046207875   -3.3491505    1.4511576   372076 
 4358000   0.82224713    -3.354232   -1.8986091  0.042188472    -3.354232    1.4556229   372022 
 4359000   0.82132653   -3.3527745   -1.8987657  0.043490995   -3.3527745    1.4540088   372018 
 4360000   0.82070444    -3.352636   -1.8993574  0.042559387    -3.352636    1.4532786   371923 
 4361000   0.82189668   -3.3542434   -1.8988536  0.040282627   -3.3542434    1.4553898   371923 
 4362000   0.82135049   -3.3554059   -1.9007486   0.04024583   -3.3554059    1.4546573   371863 
 4363000   0.82029126   -3.3534458   -1.9003792  0.037563343   -3.3534458    1.4530666   371790 
 4364000   0.82041586   -3.3523975   -1.8990124  0.042385745   -3.3523975     1.453385   371765 
 4365000    0.8205069   -3.3542244   -1.9004553  0.046295785   -3.3542244    1.4537692   371708 
 4366000    0.8214333   -3.3563809   -1.9006688   0.04163984   -3.3563809    1.4557121   371631 
 4367000   0.82077317   -3.3572309   -1.9024577  0.041938062   -3.3572309    1.4547732   371572 
 4368000   0.82028486   -3.3559429   -1.9020195  0.041280897   -3.3559429    1.4539234   371568 
 4369000   0.82020926   -3.3547967   -1.9009173  0.042003402   -3.3547967    1.4538794   371545 
 4370000   0.81916811   -3.3529906   -1.9007652  0.042685214   -3.3529906    1.4522254   371496 
 4371000   0.81931254   -3.3556694    -1.903098   0.03914915   -3.3556694    1.4525714   371473 
 4372000   0.82009926   -3.3565618   -1.9025487  0.045103532   -3.3565618    1.4540131   371461 
 4373000   0.81993143    -3.354495   -1.9008342  0.041726305    -3.354495    1.4536608   371475 
 4374000   0.82084126   -3.3541046   -1.8988739  0.042575222   -3.3541046    1.4552307   371486 
 4375000   0.81994247   -3.3529018   -1.8992528  0.041677581   -3.3529018    1.4536491   371483 
 4376000   0.82169854   -3.3551135   -1.8982139  0.042898254   -3.3551135    1.4568996   371448 
 4377000   0.82053173   -3.3555913   -1.9006625  0.044338268   -3.3555913    1.4549287   371423 
 4378000    0.8190214   -3.3535854   -1.9012799  0.037318934   -3.3535854    1.4523054   371409 
 4379000   0.81948042   -3.3534424   -1.9003269  0.031799375   -3.3534424    1.4531155   371410 
 4380000   0.81898109    -3.353522   -1.9012215  0.037188679    -3.353522    1.4523004   371392 
 4381000   0.81855187   -3.3525781   -1.9008864  0.035709176   -3.3525781    1.4516917   371353 
 4382000   0.81779848   -3.3531781   -1.9025256  0.036986164   -3.3531781    1.4506525   371277 
 4383000   0.81786837   -3.3541074   -1.9032098     0.038509   -3.3541074    1.4508976   371246 
 4384000   0.81968609   -3.3558759   -1.9017889   0.04060509   -3.3558759     1.454087   371255 
 4385000   0.81856994   -3.3540476   -1.9017372  0.041580363   -3.3540476    1.4523104   371203 
 4386000   0.81929344   -3.3533428   -1.8996117  0.049241407   -3.3533428    1.4537311   371168 
 4387000   0.81905904   -3.3536288    -1.900157  0.043727189   -3.3536288    1.4534718   371128 
 4388000   0.81867674   -3.3527105   -1.8998975  0.035901087   -3.3527105     1.452813   371123 
 4389000   0.81900338   -3.3535862   -1.8999546  0.045107802   -3.3535862    1.4536316   371062 
 4390000   0.81928556   -3.3547096   -1.9005223  0.036481386   -3.3547096    1.4541873   371048 
 4391000   0.81902148   -3.3532342   -1.8996528   0.03904722   -3.3532342    1.4535814   371083 
 4392000   0.82057842   -3.3565144   -1.8999538  0.048056289   -3.3565144    1.4565605   371028 
 4393000   0.82044226   -3.3569584   -1.9005571  0.041256053   -3.3569584    1.4564013   371007 
 4394000   0.81831779   -3.3520119   -1.8992369  0.044996324   -3.3520119    1.4527749   370970 
 4395000   0.81992989   -3.3550614   -1.8994087   0.04690054   -3.3550614    1.4556526   370966 
 4396000   0.82002177   -3.3551591   -1.8991549  0.043159062   -3.3551591    1.4560041   370918 
 4397000   0.82041946   -3.3566716   -1.8997217  0.048375827   -3.3566716    1.4569499   370857 
 4398000   0.82027502   -3.3568526   -1.9001003  0.049593106   -3.3568526    1.4567523   370842 
 4399000    0.8202247   -3.3555624   -1.8989742  0.043869695   -3.3555624    1.4565883   370861 
 4400000   0.81993307   -3.3552569   -1.8992219   0.03771503   -3.3552569    1.4560351   370870 
 4401000   0.81839247   -3.3527483   -1.8993981   0.04111196   -3.3527483    1.4533502   370857 
 4402000   0.81756552   -3.3526636   -1.9007897  0.039187717   -3.3526636    1.4518738   370859 
 4403000   0.81941706   -3.3552367   -1.9000983   0.03804189   -3.3552367    1.4551383   370865 
 4404000   0.81875767   -3.3537995   -1.8998635  0.034786195   -3.3537995     1.453936   370873 
 4405000   0.81766528   -3.3540317   -1.9019885  0.038222856   -3.3540317    1.4520432   370861 
 4406000   0.81919088   -3.3541089   -1.8994467  0.043033328   -3.3541089    1.4546622   370884 
 4407000   0.81878258   -3.3546448   -1.9007194  0.039955239   -3.3546448    1.4539254   370887 
 4408000   0.81816836   -3.3524551   -1.8996126  0.037838431   -3.3524551    1.4528425   370885 
 4409000   0.81813608   -3.3521958   -1.8992343  0.039383559   -3.3521958    1.4529615   370840 
 4410000   0.81829136   -3.3519813    -1.898748  0.040326814   -3.3519813    1.4532333   370841 
 4411000   0.81873103   -3.3511102   -1.8970411  0.039151775   -3.3511102    1.4540691   370827 
 4412000   0.81893092   -3.3520515   -1.8976431  0.040556927   -3.3520515    1.4544084   370831 
 4413000   0.81776716   -3.3508888   -1.8983396  0.043393836   -3.3508888    1.4525492   370778 
 4414000   0.81853329   -3.3518369   -1.8979504  0.040052741   -3.3518369    1.4538865   370784 
 4415000   0.81946334   -3.3511993   -1.8956138  0.042222533   -3.3511993    1.4555855   370772 
 4416000   0.81969317   -3.3507447    -1.894692    0.0435444   -3.3507447    1.4560527   370757 
 4417000   0.81874261   -3.3508462   -1.8961289  0.043595325   -3.3508462    1.4547173   370667 
 4418000   0.81941004   -3.3513376   -1.8952891  0.041965103   -3.3513376    1.4560485   370630 
 4419000   0.81987176   -3.3532497   -1.8961605  0.044751343   -3.3532497    1.4570891   370574 
 4420000   0.81786347   -3.3493476    -1.895659  0.044418327   -3.3493476    1.4536886   370531 
 4421000   0.81960698    -3.352435   -1.8954233  0.039862516    -3.352435    1.4570117   370474 
 4422000   0.81888045   -3.3496138   -1.8938779  0.039502265   -3.3496138    1.4557359   370470 
 4423000   0.81734094   -3.3485227   -1.8954217  0.039557705   -3.3485227    1.4531011   370444 
 4424000   0.81736258   -3.3499444   -1.8966009  0.037320684   -3.3499444    1.4533435   370392 
 4425000   0.81653479   -3.3477752   -1.8958173  0.043219934   -3.3477752    1.4519579   370370 
 4426000   0.81752601   -3.3488912    -1.894998  0.036090534   -3.3488912    1.4538932   370326 
 4427000   0.81783173    -3.348087   -1.8935244  0.038053579    -3.348087    1.4545626   370294 
 4428000   0.81620193   -3.3462469   -1.8944379  0.038536268   -3.3462469     1.451809   370257 
 4429000   0.81785442   -3.3485052   -1.8938629  0.038943979   -3.3485052    1.4546422   370284 
 4430000   0.81742307   -3.3485521   -1.8944729  0.045393524   -3.3485521    1.4540792   370232 
 4431000   0.81641221   -3.3476121   -1.8949701  0.039613461   -3.3476121     1.452642   370140 
 4432000   0.81606027   -3.3466831   -1.8945966  0.048588868   -3.3466831    1.4520864   370122 
 4433000   0.81633468   -3.3476766   -1.8950273   0.03933731   -3.3476766    1.4526493   370103 
 4434000    0.8164567   -3.3480849   -1.8952184  0.041168161   -3.3480849    1.4528664   370103 
 4435000   0.81524369   -3.3462114   -1.8952526  0.039802056   -3.3462114    1.4509588   370039 
 4436000   0.81523543   -3.3440671   -1.8930995  0.042186245   -3.3440671    1.4509676   370033 
 4437000    0.8149226   -3.3456367   -1.8950377  0.039202767   -3.3456367     1.450599   369985 
 4438000   0.81604586   -3.3469496   -1.8940213  0.039735216   -3.3469496    1.4529283   369901 
 4439000   0.81699645   -3.3465432   -1.8917572  0.041227742   -3.3465432     1.454786   369859 
 4440000   0.81742304   -3.3463422   -1.8908517  0.042417206   -3.3463422    1.4554905   369873 
 4441000   0.81684465   -3.3474917   -1.8929171  0.041406317   -3.3474917    1.4545747   369844 
 4442000   0.81658921   -3.3480933   -1.8938123  0.039935031   -3.3480933     1.454281   369803 
 4443000   0.81797983   -3.3494765   -1.8925455  0.042552322   -3.3494765     1.456931   369759 
 4444000    0.8143576   -3.3455569   -1.8948265  0.043415974   -3.3455569    1.4507304   369695 
 4445000   0.81492037   -3.3462425   -1.8944467   0.04231858   -3.3462425    1.4517958   369679 
 4446000   0.81499039   -3.3470462   -1.8949607  0.041359105   -3.3470462    1.4520855   369637 
 4447000   0.81531088   -3.3476419   -1.8948085  0.035756441   -3.3476419    1.4528334   369592 
 4448000   0.81548617   -3.3485334   -1.8952933  0.035112483   -3.3485334    1.4532401   369568 
 4449000   0.81505248   -3.3487718   -1.8959429  0.044063436   -3.3487718    1.4528289   369476 
 4450000   0.81523793   -3.3498202   -1.8964129  0.043337955   -3.3498202    1.4534073   369413 
 4451000   0.81549492   -3.3503231   -1.8962372  0.044110443   -3.3503231    1.4540859   369357 
 4452000   0.81549544   -3.3514004    -1.897101  0.044051524   -3.3514004    1.4542994   369303 
 4453000   0.81586952   -3.3492426   -1.8942918  0.043443861   -3.3492426    1.4549508   369307 
 4454000   0.81622948   -3.3510221   -1.8954019  0.043959856   -3.3510221    1.4556203   369300 
 4455000   0.81430544   -3.3504546   -1.8981987  0.041548418   -3.3504546    1.4522559   369283 
 4456000   0.81465395   -3.3514017   -1.8984613  0.038035658   -3.3514017    1.4529404   369267 
 4457000   0.81478993    -3.351971   -1.8987526   0.04165591    -3.351971    1.4532183   369258 
 4458000   0.81475922   -3.3516677   -1.8982286  0.040783451   -3.3516677    1.4534391   369188 
 4459000   0.81468298   -3.3520073   -1.8984444  0.037813202   -3.3520073    1.4535629   369122 
 4460000   0.81474499   -3.3510838   -1.8972172  0.042539297   -3.3510838    1.4538666   369073 
 4461000   0.81565705   -3.3545658   -1.8989179  0.047262591   -3.3545658    1.4556479   369034 
 4462000   0.81659634   -3.3557461   -1.8982481  0.041008882   -3.3557461     1.457498   368990 
 4463000   0.81492972   -3.3530812   -1.8984436  0.045681272   -3.3530812    1.4546377   368961 
 4464000   0.81335869   -3.3501701   -1.8982698  0.048872499   -3.3501701    1.4519003   368944 
 4465000   0.81303897   -3.3511205   -1.8997123  0.038240921   -3.3511205    1.4514082   368924 
 4466000   0.81189184   -3.3503964   -1.9009849   0.03668417   -3.3503964    1.4494115   368911 
 4467000   0.81206131   -3.3504893   -1.9007084  0.038339431   -3.3504893    1.4497808   368894 
 4468000   0.81383095    -3.353541   -1.9004354  0.041523901    -3.353541    1.4531056   368852 
 4469000   0.81421368   -3.3535871   -1.8996128   0.04218513   -3.3535871    1.4539743   368805 
 4470000   0.81525546   -3.3548727   -1.8988525  0.043155798   -3.3548727    1.4560202   368758 
 4471000   0.81391944   -3.3540439   -1.9001614  0.045304424   -3.3540439    1.4538825   368695 
 4472000   0.81406415   -3.3544556   -1.9001252  0.043125773   -3.3544556    1.4543303   368647 
 4473000   0.81344144   -3.3528699   -1.8994431  0.047139057   -3.3528699    1.4534268   368594 
 4474000   0.81426797   -3.3536069   -1.8985849  0.043020365   -3.3536069     1.455022   368564 
 4475000   0.81467251   -3.3535106   -1.8978803  0.045680829   -3.3535106    1.4556304   368593 
 4476000   0.81311488   -3.3522903   -1.8993248   0.04768335   -3.3522903    1.4529655   368563 
 4477000   0.81343672   -3.3520268   -1.8985138  0.044495555   -3.3520268     1.453513   368570 
 4478000    0.8149192   -3.3529329   -1.8967788  0.043985447   -3.3529329    1.4561541   368572 
 4479000   0.81520976   -3.3547178   -1.8980603  0.037049394   -3.3547178    1.4566575   368576 
 4480000   0.81338341   -3.3521859   -1.8984486  0.039864929   -3.3521859    1.4537372   368489 
 4481000   0.81251347   -3.3507739   -1.8984732  0.041917845   -3.3507739    1.4523007   368459 
 4482000    0.8126662   -3.3496019   -1.8969494  0.044013595   -3.3496019    1.4526525   368439 
 4483000   0.81371036    -3.350273   -1.8957817  0.043572613    -3.350273    1.4544913   368446 
 4484000   0.81360184   -3.3487691   -1.8944639  0.041100862   -3.3487691    1.4543052   368444 
 4485000   0.81443726    -3.350894   -1.8947793  0.039201034    -3.350894    1.4561147   368364 
 4486000   0.81421945   -3.3503505   -1.8945936   0.04366818   -3.3503505    1.4557569   368356 
 4487000   0.81303273   -3.3484281   -1.8947693  0.039747615   -3.3484281    1.4536588   368350 
 4488000   0.81348791   -3.3517353   -1.8971402  0.039461119   -3.3517353    1.4545951   368319 
 4489000   0.81277442   -3.3484606   -1.8951965  0.039312403   -3.3484606    1.4532641   368333 
 4490000   0.81163169   -3.3468403   -1.8954501  0.040545328   -3.3468403    1.4513902   368290 
 4491000   0.81116029   -3.3462637   -1.8955234  0.039880423   -3.3462637    1.4507403   368241 
 4492000   0.81069714   -3.3494464   -1.8992588  0.042542383   -3.3494464    1.4501876   368171 
 4493000    0.8123532   -3.3523729   -1.8990216  0.042455083   -3.3523729    1.4533513   368120 
 4494000   0.81089876   -3.3487187   -1.8978276  0.039629855   -3.3487187    1.4508911   368084 
 4495000   0.81090722   -3.3502516   -1.8991956  0.034458472   -3.3502516    1.4510561   368046 
 4496000   0.81145613   -3.3483694   -1.8962207  0.037114864   -3.3483694    1.4521488   368018 
 4497000    0.8124418   -3.3498766   -1.8959362  0.042381304   -3.3498766    1.4539404   368011 
 4498000   0.81260781    -3.352396   -1.8979807  0.041880287    -3.352396    1.4544153   367966 
 4499000   0.81256723    -3.352536    -1.898055  0.041684203    -3.352536     1.454481   367931 
 4500000   0.81282152   -3.3523548   -1.8972605  0.041826743   -3.3523548    1.4550944   367891 
 4501000   0.81284671   -3.3513413   -1.8961227  0.046516644   -3.3513413    1.4552186   367871 
 4502000   0.81024788   -3.3465908   -1.8958118  0.045199888   -3.3465908    1.4507789   367817 
 4503000   0.81281422   -3.3521861   -1.8967409  0.042769961   -3.3521861    1.4554453   367799 
 4504000   0.81284474   -3.3533418   -1.8978023  0.038317695   -3.3533418    1.4555395   367789 
 4505000   0.81100386   -3.3512457   -1.8989473  0.041372189   -3.3512457    1.4522984   367775 
 4506000   0.81108156   -3.3525535   -1.8999699  0.039991025   -3.3525535    1.4525836   367738 
 4507000   0.81005403   -3.3515743   -1.9008033  0.041800386   -3.3515743     1.450771   367731 
 4508000   0.80972121   -3.3511915   -1.9010165  0.037574776   -3.3511915     1.450175   367731 
 4509000   0.80863337   -3.3507298   -1.9022588  0.038439371   -3.3507298    1.4484709   367669 
 4510000   0.80881322   -3.3526569   -1.9036825  0.043373773   -3.3526569    1.4489743   367623 
 4511000   0.80939767   -3.3521339   -1.9021085  0.041822572   -3.3521339    1.4500253   367622 
 4512000   0.81039166   -3.3524058   -1.9005484  0.040679693   -3.3524058    1.4518574   367609 
 4513000   0.81034111    -3.352576   -1.9007183  0.040764753    -3.352576    1.4518577   367586 
 4514000   0.81135185   -3.3549564   -1.9011297  0.041896288   -3.3549564    1.4538268   367546 
 4515000   0.81034458   -3.3545689   -1.9023139   0.04018688   -3.3545689     1.452255   367487 
 4516000   0.81134012   -3.3543293   -1.9002585  0.047063972   -3.3543293    1.4540708   367479 
 4517000   0.81237099   -3.3565871   -1.9005856  0.046211596   -3.3565871    1.4560015   367458 
 4518000   0.81209885   -3.3543322   -1.8989096  0.042999175   -3.3543322    1.4554227   367481 
 4519000   0.81107685   -3.3539223   -1.9002521  0.042994122   -3.3539223    1.4536702   367461 
 4520000   0.81228515   -3.3535383   -1.8975043  0.045632459   -3.3535383    1.4560339   367411 
 4521000   0.80969263   -3.3499063   -1.8984286  0.042874482   -3.3499063    1.4514777   367388 
 4522000   0.80980835   -3.3504672   -1.8987071  0.043236234   -3.3504672    1.4517602   367369 
 4523000     0.808468   -3.3480945   -1.8987885  0.041733007   -3.3480945     1.449306   367382 
 4524000   0.80839775   -3.3462282   -1.8968982  0.039662299   -3.3462282      1.44933   367344 
 4525000   0.80802062   -3.3475767   -1.8986073  0.039007169   -3.3475767    1.4489694   367264 
 4526000   0.80985633   -3.3504402   -1.8979653  0.035297773   -3.3504402    1.4524748   367210 
 4527000    0.8084742   -3.3478158   -1.8978395  0.045572811   -3.3478158    1.4499762   367215 
 4528000   0.80853139    -3.346293   -1.8961787  0.037395703    -3.346293    1.4501143   367206 
 4529000   0.80951222    -3.347237   -1.8954663  0.037865477    -3.347237    1.4517707   367232 
 4530000   0.80797704    -3.346468   -1.8974347   0.03995239    -3.346468    1.4490333   367228 
 4531000   0.80720066   -3.3456876   -1.8979718  0.036689288   -3.3456876    1.4477158   367209 
 4532000   0.80758603   -3.3452913   -1.8966279  0.039565118   -3.3452913    1.4486634   367144 
 4533000   0.80844542   -3.3479724   -1.8975185  0.035605641   -3.3479724    1.4504539   367081 
 4534000   0.80722756   -3.3473393   -1.8989678  0.038073084   -3.3473393    1.4483715   367055 
 4535000   0.80800179   -3.3480122   -1.8980106  0.037691415   -3.3480122    1.4500016   366994 
 4536000   0.80948411   -3.3488367   -1.8961948  0.037325724   -3.3488367    1.4526419   366999 
 4537000   0.81081515   -3.3504653   -1.8953554  0.037828082   -3.3504653    1.4551098   366979 
 4538000   0.81129897   -3.3500997   -1.8941136  0.039530238   -3.3500997     1.455986   366977 
 4539000   0.80981165   -3.3481548   -1.8946716   0.04346723   -3.3481548    1.4534832   366935 
 4540000   0.81059865   -3.3501791   -1.8950058  0.046404589   -3.3501791    1.4551733   366865 
 4541000   0.81151136    -3.352197   -1.8951668   0.04528184    -3.352197    1.4570303   366810 
 4542000   0.81122192   -3.3503048   -1.8936632  0.043893211   -3.3503048    1.4566416   366777 
 4543000   0.81076304   -3.3526359   -1.8965602  0.045078071   -3.3526359    1.4560757   366712 
 4544000   0.80959528   -3.3507028   -1.8965895  0.044162752   -3.3507028    1.4541133   366678 
 4545000   0.80926234   -3.3511641   -1.8974268  0.043072184   -3.3511641    1.4537373   366622 
 4546000    0.8069168   -3.3483579   -1.8987431   0.03584643   -3.3483579    1.4496148   366599 
 4547000    0.8080776   -3.3498489   -1.8980893  0.037862646   -3.3498489    1.4517596   366584 
 4548000   0.80794548   -3.3489869   -1.8972588  0.041425361   -3.3489869    1.4517281   366532 
 4549000   0.80796787    -3.349485   -1.8977523   0.04119697    -3.349485    1.4517327   366541 
 4550000   0.80802664   -3.3480746   -1.8959946  0.039326471   -3.3480746      1.45208   366480 
 4551000   0.80886363   -3.3503113   -1.8968065  0.039606847   -3.3503113    1.4535048   366500 
 4552000   0.81045385    -3.351113   -1.8948142  0.041772749    -3.351113    1.4562988   366516 
 4553000   0.80953234   -3.3480798   -1.8932622  0.044762872   -3.3480798    1.4548176   366472 
 4554000   0.80986679   -3.3499944   -1.8945043  0.037089129   -3.3499944    1.4554901   366454 
 4555000   0.80696247   -3.3468358    -1.896411  0.044338153   -3.3468358    1.4504248   366415 
 4556000   0.80943071   -3.3500445   -1.8951396  0.041986951   -3.3500445    1.4549049   366404 
 4557000   0.80967536   -3.3480707    -1.892734  0.043239247   -3.3480707    1.4553367   366406 
 4558000   0.80981155   -3.3497811   -1.8940645   0.03951315   -3.3497811    1.4557166   366372 
 4559000   0.80862433   -3.3473577   -1.8934499  0.050052707   -3.3473577    1.4539078   366290 
 4560000    0.8111673    -3.351869   -1.8932933  0.037352325    -3.351869    1.4585757   366266 
 4561000   0.81109659   -3.3522711   -1.8936792  0.041247782   -3.3522711    1.4585919   366230 
 4562000    0.8091013   -3.3499788   -1.8949234    0.0467426   -3.3499788    1.4550554   366217 
 4563000   0.80787912   -3.3491817    -1.896229  0.042771709   -3.3491817    1.4529527   366193 
 4564000   0.80807925   -3.3483574   -1.8950805  0.041835912   -3.3483574    1.4532769   366202 
 4565000   0.80723061   -3.3471573   -1.8953551  0.039063653   -3.3471573    1.4518022   366189 
 4566000   0.80724885    -3.346851    -1.894786  0.039222988    -3.346851     1.452065   366131 
 4567000   0.80648312   -3.3450275   -1.8943557  0.038059157   -3.3450275    1.4506718   366135 
 4568000   0.80767931   -3.3481994   -1.8952569  0.042037443   -3.3481994    1.4529425   366105 
 4569000   0.80723696   -3.3475286   -1.8952549  0.037639618   -3.3475286    1.4522737   366073 
 4570000   0.80742191   -3.3488741   -1.8961763   0.03923546   -3.3488741    1.4526977   366050 
 4571000   0.80792385   -3.3486931     -1.89514  0.038477112   -3.3486931    1.4535531   366062 
 4572000   0.80747151   -3.3465724   -1.8939362  0.043436192   -3.3465724    1.4526362   366088 
 4573000   0.80934142   -3.3491236   -1.8931951  0.037786693   -3.3491236    1.4559285   366106 
 4574000   0.80840235   -3.3504531   -1.8960113  0.044092881   -3.3504531    1.4544418   366055 
 4575000   0.80806581   -3.3491598   -1.8952361  0.043791282   -3.3491598    1.4539237   366033 
 4576000   0.80862791   -3.3521195   -1.8969101  0.042268935   -3.3521195    1.4552094   365964 
 4577000   0.80801872   -3.3507451    -1.896632  0.041932005   -3.3507451    1.4541131   365964 
 4578000   0.80711777   -3.3475143   -1.8949193  0.047062545   -3.3475143     1.452595   365938 
 4579000   0.80708323   -3.3472038   -1.8944447  0.045192677   -3.3472038    1.4527591   365881 
 4580000   0.80832147   -3.3483241   -1.8933958  0.047899327   -3.3483241    1.4549283   365896 
 4581000   0.80801234     -3.34859   -1.8940353  0.042070881     -3.34859    1.4545547   365850 
 4582000   0.80852817   -3.3503366   -1.8947339  0.046129645   -3.3503366    1.4556027   365820 
 4583000   0.80903689   -3.3492825   -1.8928794  0.049318222   -3.3492825    1.4564031   365849 
 4584000   0.80876666   -3.3497738   -1.8937179  0.042788481   -3.3497738    1.4560559   365814 
 4585000   0.80821913   -3.3500812   -1.8947525  0.043103192   -3.3500812    1.4553288   365749 
 4586000   0.80934307   -3.3506394   -1.8932748  0.042132733   -3.3506394    1.4573646   365746 
 4587000   0.80904535   -3.3516205   -1.8946168   0.03859178   -3.3516205    1.4570037   365702 
 4588000   0.80798516   -3.3481539   -1.8930435  0.043131791   -3.3481539    1.4551104   365698 
 4589000   0.80917208   -3.3512867   -1.8938634  0.039373417   -3.3512867    1.4574232   365654 
 4590000   0.80709503   -3.3477543    -1.894088  0.040157164   -3.3477543    1.4536663   365658 
 4591000   0.80784315   -3.3510172   -1.8957448  0.042660137   -3.3510172    1.4552724   365593 
 4592000   0.80653466   -3.3469241   -1.8938657  0.040994491   -3.3469241    1.4530584   365557 
 4593000   0.80727975   -3.3487159   -1.8941361  0.038794144   -3.3487159    1.4545798   365512 
 4594000   0.80638364   -3.3473875   -1.8943985   0.04273485   -3.3473875     1.452989   365506 
 4595000    0.8059188   -3.3463995    -1.894252  0.045513751   -3.3463995    1.4521475   365507 
 4596000   0.80747451   -3.3497943   -1.8946606  0.041299395   -3.3497943    1.4551338   365461 
 4597000   0.80683369   -3.3480807   -1.8941893  0.044860085   -3.3480807    1.4538914   365483 
 4598000   0.80705794   -3.3477752   -1.8933921  0.043791218   -3.3477752    1.4543831   365461 
 4599000    0.8077281   -3.3501716   -1.8945967  0.043261865   -3.3501716    1.4555748   365465 
 4600000   0.80822139   -3.3509911   -1.8944556  0.045387362   -3.3509911    1.4565355   365447 
 4601000   0.80729913    -3.349657   -1.8947079  0.043808982    -3.349657    1.4549491   365428 
 4602000   0.80662854   -3.3483072   -1.8944394  0.040901251   -3.3483072    1.4538678   365396 
 4603000    0.8068433    -3.350424   -1.8960815  0.039515831    -3.350424    1.4543425   365374 
 4604000   0.80665805   -3.3496841   -1.8955362  0.040305588   -3.3496841    1.4541479   365339 
 4605000    0.8079065    -3.349854   -1.8934874  0.045955196    -3.349854    1.4563665   365347 
 4606000   0.80784414   -3.3512678     -1.89493  0.041225251   -3.3512678    1.4563378   365326 
 4607000   0.80732098   -3.3497923   -1.8942263  0.040631272   -3.3497923     1.455566   365283 
 4608000    0.8077337   -3.3507617   -1.8942003   0.04560036   -3.3507617    1.4565614   365220 
 4609000   0.80801032   -3.3508336   -1.8937853  0.037995594   -3.3508336    1.4570482   365223 
 4610000   0.80868492   -3.3518293   -1.8936085  0.040711372   -3.3518293    1.4582208   365234 
 4611000   0.80805495   -3.3512324   -1.8941635  0.043050725   -3.3512324    1.4570688   365238 
 4612000   0.80792001   -3.3515759   -1.8944592  0.041001211   -3.3515759    1.4571167   365165 
 4613000   0.80693274   -3.3516095   -1.8959624  0.043730847   -3.3516095    1.4556471   365087 
 4614000   0.80698731    -3.351865   -1.8959878  0.041707935    -3.351865    1.4558771   365054 
 4615000   0.80734319   -3.3527475   -1.8961446  0.037291393   -3.3527475     1.456603   365033 
 4616000   0.80646809   -3.3516258   -1.8964821  0.044477882   -3.3516258    1.4551437   365003 
 4617000   0.80527098   -3.3482196   -1.8950249  0.048668124   -3.3482196    1.4531947   364950 
 4618000   0.80533446   -3.3497312    -1.896402  0.042423283   -3.3497312    1.4533292   364945 
 4619000    0.8054101   -3.3500911   -1.8964064  0.042934987   -3.3500911    1.4536848   364890 
 4620000   0.80559599   -3.3504468   -1.8963826  0.039457026   -3.3504468    1.4540641   364879 
 4621000   0.80569453   -3.3505875   -1.8960665   0.03655764   -3.3505875     1.454521   364809 
 4622000   0.80599243   -3.3516831   -1.8963929  0.038616254   -3.3516831    1.4552902   364751 
 4623000   0.80555447   -3.3514088   -1.8967379  0.045567999   -3.3514088    1.4546709   364708 
 4624000   0.80548781   -3.3528563   -1.8981981  0.043013767   -3.3528563    1.4546582   364681 
 4625000   0.80620116   -3.3516849   -1.8957145  0.046720297   -3.3516849    1.4559704   364675 
 4626000   0.80469432   -3.3504615   -1.8972203  0.043241259   -3.3504615    1.4532412   364677 
 4627000   0.80498116   -3.3503314   -1.8964845  0.039792552   -3.3503314    1.4538469   364655 
 4628000   0.80700025   -3.3535224    -1.895845  0.043233178   -3.3535224    1.4576774   364609 
 4629000   0.80578544   -3.3506487   -1.8949101  0.043002521   -3.3506487    1.4557386   364545 
 4630000   0.80657773    -3.351057   -1.8938111  0.040925345    -3.351057    1.4572459   364526 
 4631000   0.80624142   -3.3516059   -1.8948517  0.047169272   -3.3516059    1.4567542   364497 
 4632000   0.80729819   -3.3533622   -1.8946105  0.040503611   -3.3533622    1.4587517   364475 
 4633000   0.80443208   -3.3482928   -1.8947519  0.043542012   -3.3482928    1.4535408   364483 
 4634000   0.80596298   -3.3514771   -1.8949822  0.042846226   -3.3514771    1.4564949   364436 
 4635000   0.80566383    -3.349063   -1.8929889  0.040309649    -3.349063    1.4560741   364406 
 4636000   0.80562826   -3.3487061   -1.8926083  0.041827112   -3.3487061    1.4560977   364384 
 4637000   0.80467607   -3.3475906   -1.8930143  0.044357441   -3.3475906    1.4545763   364334 
 4638000   0.80423757   -3.3483527   -1.8942538  0.040356167   -3.3483527     1.454099   364255 
 4639000   0.80385728    -3.348748   -1.8954004  0.039241319    -3.348748    1.4533476   364271 
 4640000    0.8049362   -3.3496461   -1.8941041  0.039129109   -3.3496461    1.4555419   364210 
 4641000   0.80358408   -3.3466143   -1.8933977  0.038628935   -3.3466143    1.4532166   364180 
 4642000   0.80421276   -3.3477326    -1.893383  0.040649282   -3.3477326    1.4543496   364181 
 4643000   0.80483242   -3.3497799   -1.8942498  0.036258808   -3.3497799    1.4555301   364166 
 4644000   0.80174139   -3.3433335   -1.8933536  0.040541064   -3.3433335    1.4499799   364156 
 4645000   0.80382204   -3.3464285   -1.8924941  0.038250827   -3.3464285    1.4539344   364108 
 4646000   0.80469199   -3.3459095   -1.8903016  0.039447063   -3.3459095    1.4556079   364083 
 4647000   0.80300208   -3.3440372   -1.8914103  0.044618138   -3.3440372    1.4526268   364064 
 4648000    0.8024278   -3.3440163   -1.8920814  0.038047825   -3.3440163    1.4519349   363977 
 4649000   0.80359817   -3.3458806   -1.8915842  0.040005808   -3.3458806    1.4542964   363916 
 4650000   0.80373782   -3.3461421    -1.891577  0.044332582   -3.3461421    1.4545651   363912 
 4651000   0.80366737   -3.3473491   -1.8927716  0.037229516   -3.3473491    1.4545775   363877 
 4652000   0.80321262   -3.3456513   -1.8916331  0.041275237   -3.3456513    1.4540181   363811 
 4653000   0.80179891   -3.3439394   -1.8924884  0.040187341   -3.3439394     1.451451   363813 
 4654000   0.80282187   -3.3438868   -1.8903723  0.039333935   -3.3438868    1.4535146   363760 
 4655000   0.80266397   -3.3440932   -1.8906847  0.042242408   -3.3440932    1.4534085   363715 
 4656000   0.80235638   -3.3443489   -1.8915334  0.041564626   -3.3443489    1.4528156   363724 
 4657000   0.80203623   -3.3449567   -1.8924972  0.037672937   -3.3449567    1.4524595   363668 
 4658000   0.80305802     -3.34693   -1.8924641  0.045416922     -3.34693    1.4544659   363629 
 4659000   0.80193555   -3.3451304   -1.8924778  0.039385121   -3.3451304    1.4526526   363574 
 4660000   0.80178672   -3.3444395   -1.8919606  0.041562724   -3.3444395    1.4524789   363550 
 4661000   0.80233762   -3.3460199   -1.8926029  0.038425417   -3.3460199    1.4534169   363565 
 4662000   0.80196528   -3.3471357   -1.8943533  0.040704465   -3.3471357    1.4527824   363555 
 4663000   0.80083351   -3.3443056   -1.8935654  0.045351178   -3.3443056    1.4507402   363553 
 4664000    0.8027149    -3.346618   -1.8924536  0.039264623    -3.346618    1.4541644   363549 
 4665000   0.80230467   -3.3446211   -1.8911639  0.044821185   -3.3446211    1.4534572   363540 
 4666000   0.80281209   -3.3456849   -1.8912124  0.047973028   -3.3456849    1.4544725   363516 
 4667000   0.80390532   -3.3472434    -1.890618  0.045104306   -3.3472434    1.4566254   363473 
 4668000   0.80308664   -3.3463283   -1.8910182  0.044863689   -3.3463283    1.4553102   363431 
 4669000    0.8037139   -3.3482433   -1.8918005  0.041030929   -3.3482433    1.4564429   363432 
 4670000   0.80369809   -3.3482063   -1.8917159  0.039068803   -3.3482063    1.4564903   363413 
 4671000   0.80358658    -3.349249   -1.8928966  0.040864203    -3.349249    1.4563524   363397 
 4672000    0.8025391   -3.3486072   -1.8941531  0.036919861   -3.3486072     1.454454   363397 
 4673000   0.80236287   -3.3464393   -1.8923327   0.04512934   -3.3464393    1.4541066   363404 
 4674000   0.80174086   -3.3442212   -1.8912578  0.041837806   -3.3442212    1.4529634   363408 
 4675000   0.80224509   -3.3474126   -1.8932313  0.042887635   -3.3474126    1.4541813   363332 
 4676000   0.80154565   -3.3477688   -1.8945593    0.0372927   -3.3477688    1.4532094   363258 
 4677000   0.80213924   -3.3482542   -1.8939125  0.041764937   -3.3482542    1.4543417   363244 
 4678000   0.80513897   -3.3530971   -1.8931961  0.037724849   -3.3530971     1.459901   363214 
 4679000   0.80279616   -3.3484303    -1.892625  0.046019383   -3.3484303    1.4558052   363176 
 4680000   0.80333967    -3.349802    -1.892931  0.038474063    -3.349802    1.4568711   363156 
 4681000   0.80267827   -3.3518288   -1.8958044  0.043045889   -3.3518288    1.4560244   363068 
 4682000   0.80223296   -3.3507905   -1.8955898  0.043743444   -3.3507905    1.4552006   363072 
 4683000   0.80346894   -3.3521093   -1.8945462  0.042782699   -3.3521093    1.4575631   363042 
 4684000   0.80364032   -3.3510738   -1.8931476  0.043825108   -3.3510738    1.4579262   363029 
 4685000   0.80275795   -3.3491893   -1.8927997  0.041765995   -3.3491893    1.4563896   363013 
 4686000   0.80238035   -3.3480994   -1.8923267  0.043362472   -3.3480994    1.4557727   362996 
 4687000   0.80188391   -3.3474655    -1.892373  0.038951536   -3.3474655    1.4550925   362941 
 4688000   0.80203162     -3.34762   -1.8922875  0.045075539     -3.34762    1.4553324   362948 
 4689000    0.8033454    -3.349764   -1.8919231  0.038662813    -3.349764    1.4578409   362917 
 4690000   0.80240556    -3.348583   -1.8921828  0.039652388    -3.348583    1.4564002   362851 
 4691000   0.80188587   -3.3467702   -1.8912972  0.042432157   -3.3467702     1.455473   362847 
 4692000   0.80124644   -3.3468918   -1.8922747  0.041400984   -3.3468918    1.4546171   362771 
 4693000   0.80087966   -3.3462596   -1.8922523   0.03612294   -3.3462596    1.4540073   362757 
 4694000    0.7999121   -3.3454471   -1.8932044  0.040243349   -3.3454471    1.4522427   362759 
 4695000   0.79887707   -3.3443113   -1.8938758  0.038264578   -3.3443113    1.4504356   362741 
 4696000   0.80111784    -3.346699    -1.892119  0.042058723    -3.346699    1.4545801   362722 
 4697000   0.80055411   -3.3448462   -1.8913016  0.045556851   -3.3448462    1.4535445   362725 
 4698000   0.80104725   -3.3440852   -1.8896453  0.039345758   -3.3440852    1.4544399   362725 
 4699000   0.80149189   -3.3436854   -1.8885184  0.042694709   -3.3436854     1.455167   362745 
 4700000   0.80046259   -3.3437526   -1.8903502  0.039676496   -3.3437526    1.4534024   362719 
 4701000   0.80046851   -3.3425747   -1.8892377     0.041143   -3.3425747     1.453337   362738 
 4702000   0.80116889    -3.344596   -1.8899674  0.043454839    -3.344596    1.4546287   362733 
 4703000   0.80150007   -3.3444629    -1.889261  0.045538788   -3.3444629    1.4552019   362740 
 4704000   0.80111284   -3.3438519   -1.8893771  0.045649218   -3.3438519    1.4544748   362746 
 4705000   0.80212279   -3.3450479   -1.8886029  0.041035116   -3.3450479    1.4564449   362712 
 4706000   0.80129207   -3.3453491   -1.8901759  0.042555043   -3.3453491    1.4551733   362653 
 4707000   0.80097134   -3.3448607   -1.8902218  0.042938301   -3.3448607    1.4546389   362641 
 4708000   0.80104274   -3.3442796   -1.8895431  0.040820568   -3.3442796    1.4547365   362649 
 4709000   0.80044563   -3.3440224   -1.8903783  0.043451283   -3.3440224    1.4536441   362651 
 4710000   0.80283593   -3.3485717    -1.890446  0.040283188   -3.3485717    1.4581257   362616 
 4711000   0.80131351   -3.3469621   -1.8916415  0.038939999   -3.3469621    1.4553205   362626 
 4712000   0.80164861   -3.3463263   -1.8902968  0.042296641   -3.3463263    1.4560295   362601 
 4713000   0.80238259   -3.3464544   -1.8890596  0.043796415   -3.3464544    1.4573948   362593 
 4714000   0.80166138   -3.3447945   -1.8886856  0.048010988   -3.3447945    1.4561089   362587 
 4715000    0.8028959   -3.3470497   -1.8885576  0.042817705   -3.3470497    1.4584921   362552 
 4716000   0.80268294   -3.3468152   -1.8887823  0.047200578   -3.3468152    1.4580328   362570 
 4717000   0.80176632   -3.3477874   -1.8913472   0.04519512   -3.3477874    1.4564401   362552 
 4718000   0.80175217   -3.3457719   -1.8893816   0.04621224   -3.3457719    1.4563903   362558 
 4719000       0.8015   -3.3449339   -1.8888089  0.041731283   -3.3449339     1.456125   362510 
 4720000   0.80175723   -3.3441137    -1.887248  0.038647519   -3.3441137    1.4568656   362442 
 4721000   0.80170364   -3.3466113   -1.8898832  0.038344042   -3.3466113    1.4567281   362452 
 4722000   0.80218392   -3.3471852   -1.8894799  0.044945456   -3.3471852    1.4577053   362426 
 4723000     0.802323   -3.3468502   -1.8887835  0.043190645   -3.3468502    1.4580667   362399 
 4724000   0.80274604   -3.3455315   -1.8867644  0.040487749   -3.3455315     1.458767   362416 
 4725000   0.80289295   -3.3453469   -1.8862243  0.046140412   -3.3453469    1.4591226   362394 
 4726000   0.80342931   -3.3462537   -1.8860919  0.041508153   -3.3462537    1.4601618   362378 
 4727000   0.80141297    -3.343528   -1.8867895  0.044628293    -3.343528    1.4567385   362318 
 4728000   0.80083883    -3.341499   -1.8857479  0.045999843    -3.341499    1.4557511   362304 
 4729000   0.80237824   -3.3435371   -1.8848427  0.044434695   -3.3435371    1.4586944   362268 
 4730000   0.80122487   -3.3425783   -1.8859204  0.042541377   -3.3425783    1.4566579   362253 
 4731000   0.79912109   -3.3412399   -1.8879856  0.039957258   -3.3412399    1.4532544   362148 
 4732000   0.79990815    -3.339329   -1.8846674  0.041474589    -3.339329    1.4546616   362154 
 4733000   0.79929098    -3.339855   -1.8860268  0.038103048    -3.339855    1.4538283   362082 
 4734000   0.79986988   -3.3407168   -1.8857833  0.040336693   -3.3407168    1.4549335   362069 
 4735000   0.79799077    -3.340266   -1.8884578   0.04030644    -3.340266    1.4518081   361996 
 4736000   0.79914139    -3.341979   -1.8880374  0.040880478    -3.341979    1.4539417   361986 
 4737000   0.79914736   -3.3408092   -1.8865956  0.038782083   -3.3408092    1.4542137   361921 
 4738000   0.79788685   -3.3393302   -1.8873301  0.046225303   -3.3393302    1.4520001   361901 
 4739000   0.80052135   -3.3431792   -1.8863928  0.041169095   -3.3431792    1.4567864   361903 
 4740000   0.79955576    -3.339314    -1.884337  0.046086743    -3.339314    1.4549769   361916 
 4741000   0.80002833   -3.3408021   -1.8848646  0.044814555   -3.3408021    1.4559374   361891 
 4742000   0.80214601   -3.3431615   -1.8831442  0.043339863   -3.3431615    1.4600173   361835 
 4743000   0.80046114   -3.3420053   -1.8847849  0.039918574   -3.3420053    1.4572204   361768 
 4744000   0.80003125   -3.3415478   -1.8850819  0.039222486   -3.3415478     1.456466   361761 
 4745000   0.80077454   -3.3429729    -1.884912  0.041385354   -3.3429729    1.4580609   361701 
 4746000   0.80137807   -3.3426816   -1.8834128  0.042195643   -3.3426816    1.4592688   361674 
 4747000   0.79920481   -3.3419352   -1.8865071  0.045124565   -3.3419352    1.4554281   361645 
 4748000   0.80030596   -3.3444023    -1.886977  0.041622368   -3.3444023    1.4574253   361647 
 4749000   0.79960031   -3.3421417   -1.8857517  0.042028591   -3.3421417      1.45639   361585 
 4750000   0.79910438   -3.3426483   -1.8870811  0.038278372   -3.3426483    1.4555672   361565 
 4751000   0.79880683   -3.3417648   -1.8865142  0.040873607   -3.3417648    1.4552506   361509 
 4752000   0.79771918   -3.3410355   -1.8876578  0.041506779   -3.3410355    1.4533777   361482 
 4753000   0.79913278   -3.3430431   -1.8870456  0.040537931   -3.3430431    1.4559975   361471 
 4754000   0.79806728   -3.3401589   -1.8859579  0.047184619   -3.3401589     1.454201   361435 
 4755000   0.79770378   -3.3420862   -1.8884028  0.041029769   -3.3420862    1.4536834   361399 
 4756000   0.79853507   -3.3420899    -1.886803  0.043314943   -3.3420899    1.4552869   361377 
 4757000   0.79812325   -3.3434385   -1.8886726  0.040278294   -3.3434385    1.4547658   361320 
 4758000   0.79860553   -3.3439609   -1.8881549  0.040852211   -3.3439609    1.4558061   361280 
 4759000   0.79910883    -3.343048   -1.8862034  0.043733981    -3.343048    1.4568445   361250 
 4760000   0.79921713   -3.3443605   -1.8872177  0.046713722   -3.3443605    1.4571428   361225 
 4761000   0.79880182   -3.3441837   -1.8877053  0.040064222   -3.3441837    1.4564783   361202 
 4762000   0.79752893    -3.341597   -1.8873751  0.042050939    -3.341597    1.4542219   361186 
 4763000   0.79882108   -3.3427292   -1.8860827  0.041150682   -3.3427292    1.4566465   361169 
 4764000   0.79748864   -3.3421644   -1.8878147  0.044058395   -3.3421644    1.4543497   361136 
 4765000   0.79763834   -3.3424573   -1.8878467  0.038416675   -3.3424573    1.4546106   361139 
 4766000   0.79773121   -3.3434758   -1.8883452  0.040643227   -3.3434758    1.4551306   361052 
 4767000   0.79735511   -3.3442171   -1.8896114  0.044026879   -3.3442171    1.4546057   361012 
 4768000   0.79874724   -3.3441964   -1.8872327  0.045782331   -3.3441964    1.4569637   361057 
 4769000   0.79850787   -3.3445779   -1.8880065  0.037817031   -3.3445779    1.4565715   361046 
 4770000   0.79765238    -3.342318   -1.8874521  0.040006639    -3.342318    1.4548659   361082 
 4771000   0.79753879   -3.3403589   -1.8855028  0.043661564   -3.3403589    1.4548561   361033 
 4772000   0.79737763   -3.3397063   -1.8850193  0.039708508   -3.3397063    1.4546871   361002 
 4773000   0.79771501   -3.3414523   -1.8860571  0.043850393   -3.3414523    1.4553953   360979 
 4774000   0.79637916   -3.3382399   -1.8852335  0.044749817   -3.3382399    1.4530064   360967 
 4775000    0.7966087   -3.3400379    -1.886347  0.041988234   -3.3400379     1.453691   360901 
 4776000   0.79694741   -3.3401032   -1.8855241  0.046984324   -3.3401032    1.4545791   360834 
 4777000   0.79485019   -3.3366269   -1.8857389  0.041344559   -3.3366269     1.450888   360800 
 4778000   0.79720387   -3.3400579   -1.8850147  0.040110634   -3.3400579    1.4550432   360835 
 4779000   0.79669373   -3.3387205   -1.8844513  0.043436921   -3.3387205    1.4542692   360796 
 4780000   0.79748495   -3.3415048   -1.8858074  0.039709734   -3.3415048    1.4556974   360800 
 4781000   0.79694033   -3.3395306    -1.884787  0.042370099   -3.3395306    1.4547436   360790 
 4782000   0.79724529   -3.3388292   -1.8835128  0.043757059   -3.3388292    1.4553164   360786 
 4783000   0.79787666   -3.3398871   -1.8832365  0.041281639   -3.3398871    1.4566506   360741 
 4784000   0.79767073   -3.3389031   -1.8826406  0.043446849   -3.3389031    1.4562625   360744 
 4785000   0.79795759   -3.3396198   -1.8828215  0.045101529   -3.3396198    1.4567983   360741 
 4786000   0.79841037   -3.3422583    -1.884407  0.041171773   -3.3422583    1.4578513   360685 
 4787000   0.79805459   -3.3410146   -1.8838493  0.039436577   -3.3410146    1.4571653   360694 
 4788000   0.79735622   -3.3405424   -1.8845312  0.045855389   -3.3405424    1.4560112   360664 
 4789000    0.7979755   -3.3411029   -1.8836457  0.042878506   -3.3411029    1.4574573   360586 
 4790000   0.79641657    -3.339088   -1.8845063  0.041686244    -3.339088    1.4545817   360593 
 4791000   0.79740248   -3.3406788   -1.8843489  0.043003875   -3.3406788    1.4563299   360606 
 4792000    0.7948837   -3.3357719    -1.883716  0.041831076   -3.3357719    1.4520559   360525 
 4793000   0.79587714   -3.3371144   -1.8830622  0.039692466   -3.3371144    1.4540522   360480 
 4794000   0.79627612   -3.3377283   -1.8830078  0.037812859   -3.3377283    1.4547206   360495 
 4795000   0.79472589    -3.335175   -1.8832342  0.041974805    -3.335175    1.4519408   360482 
 4796000   0.79512008   -3.3348653   -1.8820915  0.041636314   -3.3348653    1.4527738   360454 
 4797000   0.79613127   -3.3359468   -1.8812286  0.036463068   -3.3359468    1.4547182   360430 
 4798000   0.79599791   -3.3337039   -1.8791728  0.041541621   -3.3337039     1.454531   360416 
 4799000   0.79900402   -3.3374525   -1.8772825  0.037560312   -3.3374525      1.46017   360380 
 4800000   0.79557296   -3.3336936    -1.879697  0.046383352   -3.3336936    1.4539966   360356 
 4801000   0.79725524   -3.3349336   -1.8776683  0.042938441   -3.3349336    1.4572653   360308 
 4802000   0.79703498    -3.336262   -1.8793387  0.040185288    -3.336262    1.4569233   360293 
 4803000   0.79610245   -3.3331521   -1.8779576  0.037637534   -3.3331521    1.4551945   360299 
 4804000    0.7943462   -3.3316577   -1.8795083  0.040855115   -3.3316577    1.4521495   360258 
 4805000    0.7952702   -3.3330916    -1.878922   0.03689873   -3.3330916    1.4541696   360176 
 4806000   0.79484892   -3.3328986   -1.8796123  0.038510478   -3.3328986    1.4532863   360204 
 4807000   0.79501033   -3.3316512   -1.8779971   0.04221709   -3.3316512    1.4536541   360186 
 4808000   0.79380236   -3.3312891   -1.8796261  0.040485208   -3.3312891     1.451663   360132 
 4809000   0.79399654   -3.3318976   -1.8795649  0.041709111   -3.3318976    1.4523327   360054 
 4810000   0.79468721   -3.3333429   -1.8799124  0.040159995   -3.3333429    1.4534305   360095 
 4811000   0.79439929   -3.3341053   -1.8809553  0.039339391   -3.3341053    1.4531501   360034 
 4812000   0.79544375   -3.3354173   -1.8801101  0.039892994   -3.3354173    1.4553072   359973 
 4813000   0.79602319   -3.3363701   -1.8798449  0.040063656   -3.3363701    1.4565251   359934 
 4814000   0.79509272   -3.3352743   -1.8800919  0.039554508   -3.3352743    1.4551824   359845 
 4815000   0.79475926   -3.3371484   -1.8822285  0.041396119   -3.3371484    1.4549198   359759 
 4816000   0.79522529   -3.3351731    -1.879384  0.043709304   -3.3351731    1.4557891   359755 
 4817000   0.79525694   -3.3356666   -1.8796496  0.036012777   -3.3356666    1.4560171   359713 
 4818000   0.79308219   -3.3332549   -1.8810702  0.043040438   -3.3332549    1.4521847   359676 
 4819000   0.79398893   -3.3354302   -1.8816337  0.041377891   -3.3354302    1.4537965   359688 
 4820000   0.79515019   -3.3396056   -1.8835127  0.041238694   -3.3396056    1.4560928   359646 
 4821000    0.7947457   -3.3395294   -1.8840963  0.041182473   -3.3395294    1.4554331   359626 
 4822000   0.79361546   -3.3376688   -1.8842369  0.041904069   -3.3376688    1.4534319   359609 
 4823000   0.79475719   -3.3374923    -1.882103   0.04501316   -3.3374923    1.4553894   359642 
 4824000   0.79489966    -3.336609   -1.8808616  0.047578085    -3.336609    1.4557474   359618 
 4825000   0.79355876    -3.336207   -1.8825434  0.039520533    -3.336207    1.4536636   359526 
 4826000   0.79350791   -3.3375876   -1.8840697  0.041782648   -3.3375876    1.4535179   359539 
 4827000   0.79300552     -3.33665   -1.8839271  0.045349214     -3.33665    1.4527229   359508 
 4828000   0.79256617   -3.3360018   -1.8840312  0.046028626   -3.3360018    1.4519706   359495 
 4829000   0.79497545   -3.3379581    -1.881355  0.044796384   -3.3379581    1.4566031   359441 
 4830000    0.7944638   -3.3385098   -1.8828441  0.044169843   -3.3385098    1.4556656   359441 
 4831000   0.79302449   -3.3375666   -1.8844169   0.03664643   -3.3375666    1.4531497   359411 
 4832000    0.7926108   -3.3370825   -1.8845211  0.038433707   -3.3370825    1.4525614   359369 
 4833000    0.7931547   -3.3385062   -1.8847133  0.042145803   -3.3385062    1.4537928   359311 
 4834000   0.79334133   -3.3377036   -1.8834391  0.041701333   -3.3377036    1.4542644   359279 
 4835000   0.79240514   -3.3357862   -1.8832541  0.042501164   -3.3357862    1.4525321   359283 
 4836000   0.79422789   -3.3367706   -1.8808041  0.042804409   -3.3367706    1.4559666   359260 
 4837000   0.79277127   -3.3346808   -1.8813845  0.037184426   -3.3346808    1.4532963   359260 
 4838000   0.79286351   -3.3346362   -1.8809928   0.04248006   -3.3346362    1.4536434   359216 
 4839000   0.79396178   -3.3378502   -1.8819987  0.038584627   -3.3378502    1.4558515   359168 
 4840000   0.79349003   -3.3340759    -1.878903  0.041260579   -3.3340759    1.4551729   359122 
 4841000   0.79411701   -3.3339074   -1.8777712  0.038401006   -3.3339074    1.4561362   359168 
 4842000   0.79362104   -3.3350612   -1.8797413  0.036908443   -3.3350612    1.4553199   359145 
 4843000   0.79226767   -3.3343724   -1.8811215  0.037764302   -3.3343724    1.4532509   359043 
 4844000    0.7910798   -3.3337001   -1.8825877  0.037319371   -3.3337001    1.4511124   359033 
 4845000   0.79031326   -3.3321294   -1.8822817  0.040722576   -3.3321294    1.4498477   358998 
 4846000   0.79085159    -3.335508   -1.8845555  0.038445716    -3.335508    1.4509525   358969 
 4847000   0.78972031   -3.3325958   -1.8836825  0.043039976   -3.3325958    1.4489133   358960 
 4848000   0.79217486   -3.3362293   -1.8827276  0.037738747   -3.3362293    1.4535017   358939 
 4849000   0.79125827   -3.3344144   -1.8823923  0.041953162   -3.3344144    1.4520222   358889 
 4850000   0.79319679   -3.3375888   -1.8819688  0.037741721   -3.3375888    1.4556201   358879 
 4851000   0.79249217   -3.3365103   -1.8821144  0.041184479   -3.3365103    1.4543959   358862 
 4852000   0.79131988   -3.3338629   -1.8814565  0.039773265   -3.3338629    1.4524064   358822 
 4853000   0.79188763   -3.3330907   -1.8795329  0.044678679   -3.3330907    1.4535578   358795 
 4854000   0.79152292   -3.3344293   -1.8814113   0.04206776   -3.3344293     1.453018   358763 
 4855000   0.79375116   -3.3377625   -1.8804063  0.039994393   -3.3377625    1.4573562   358702 
 4856000   0.79344432   -3.3368715   -1.8799325  0.043859678   -3.3368715     1.456939   358666 
 4857000   0.79070575   -3.3339623   -1.8817766  0.044149798   -3.3339623    1.4521857   358598 
 4858000   0.79056453   -3.3344753   -1.8823019  0.038453294   -3.3344753    1.4521734   358537 
 4859000   0.79142167   -3.3365378   -1.8824979  0.036173352   -3.3365378    1.4540399   358465 
 4860000   0.79087317    -3.335697   -1.8826162  0.038482822    -3.335697    1.4530808   358453 
 4861000   0.79032736   -3.3348543   -1.8826143  0.042902207   -3.3348543      1.45224   358413 
 4862000   0.79103174   -3.3384112   -1.8845402    0.0361263   -3.3384112     1.453871   358330 
 4863000   0.78973109   -3.3357839   -1.8843034  0.039385353   -3.3357839    1.4514805   358330 
 4864000    0.7902272   -3.3367851   -1.8842266  0.035481513   -3.3367851    1.4525585   358289 
 4865000   0.79005757   -3.3346122   -1.8821101  0.041430301   -3.3346122    1.4525021   358226 
 4866000   0.79002926   -3.3357795   -1.8832159   0.04110708   -3.3357795    1.4525636   358198 
 4867000   0.78835154   -3.3321619   -1.8826304   0.03884818   -3.3321619    1.4495315   358185 
 4868000   0.78888862   -3.3349504   -1.8842532  0.042525634   -3.3349504    1.4506972   358141 
 4869000   0.79035774   -3.3377826   -1.8842133  0.037170065   -3.3377826    1.4535693   358099 
 4870000   0.78906663   -3.3360449   -1.8848015  0.041114823   -3.3360449    1.4512434   358087 
 4871000   0.78833134   -3.3356084   -1.8858105  0.038558371   -3.3356084    1.4497979   358110 
 4872000   0.78887956   -3.3356702   -1.8848681  0.043388211   -3.3356702    1.4508021   358111 
 4873000   0.78929183   -3.3350675   -1.8836653  0.039822452   -3.3350675    1.4514022   358150 
 4874000   0.79081394   -3.3371983   -1.8828428  0.042522085   -3.3371983    1.4543555   358112 
 4875000   0.79042553   -3.3364514   -1.8827534  0.042774301   -3.3364514     1.453698   358098 
 4876000   0.79066092   -3.3375986   -1.8833134  0.044273374   -3.3375986    1.4542853   358060 
 4877000   0.79198904   -3.3382902   -1.8815743  0.049529493   -3.3382902    1.4567159   358063 
 4878000   0.78958313   -3.3347536   -1.8824589  0.043125306   -3.3347536    1.4522947   358062 
 4879000   0.79057618   -3.3361019   -1.8821228  0.039582976   -3.3361019    1.4539791   358097 
 4880000   0.79075074   -3.3353435   -1.8810555  0.045502239   -3.3353435     1.454288   358100 
 4881000   0.79016301   -3.3348977   -1.8816176  0.041679405   -3.3348977    1.4532801   358082 
 4882000   0.78978085   -3.3352336   -1.8826483   0.03999388   -3.3352336    1.4525854   358080 
 4883000   0.78883556   -3.3331534   -1.8823391  0.041728805   -3.3331534    1.4508144   358088 
 4884000   0.78982302   -3.3337445   -1.8810653  0.038742157   -3.3337445    1.4526792   358076 
 4885000   0.79010455   -3.3343884   -1.8808585   0.04042485   -3.3343884    1.4535298   357994 
 4886000   0.79003812   -3.3320378   -1.8785774  0.042636369   -3.3320378    1.4534604   357981 
 4887000   0.78970023   -3.3328797   -1.8799151   0.03996134   -3.3328797    1.4529646   357950 
 4888000   0.78996761   -3.3342464   -1.8807086  0.038631715   -3.3342464    1.4535377   357930 
 4889000   0.78841236   -3.3322429   -1.8813439  0.047564062   -3.3322429    1.4508991   357875 
 4890000   0.78987276   -3.3341393   -1.8805039   0.04470929   -3.3341393    1.4536353   357863 
 4891000   0.79034782   -3.3336358   -1.8790042  0.040363098   -3.3336358    1.4546316   357833 
 4892000   0.79055305   -3.3325064   -1.8774239  0.039506384   -3.3325064    1.4550825   357815 
 4893000   0.78920126   -3.3300506   -1.8774481  0.044413988   -3.3300506    1.4526025   357813 
 4894000   0.78938486   -3.3306405   -1.8776148  0.037404123   -3.3306405    1.4530257   357792 
 4895000   0.78973909   -3.3315838   -1.8778532  0.043477415   -3.3315838    1.4537306   357779 
 4896000   0.78991801   -3.3320489   -1.8779931  0.044741581   -3.3320489    1.4540559   357780 
 4897000   0.79087806   -3.3327323   -1.8767953   0.04175485   -3.3327323     1.455937   357752 
 4898000   0.79163112   -3.3338025   -1.8762551  0.044230192   -3.3338025    1.4575474   357697 
 4899000   0.78986088   -3.3291347   -1.8748385  0.045798624   -3.3291347    1.4542962   357695 
 4900000    0.7905466   -3.3310814   -1.8752988  0.043994801   -3.3310814    1.4557826   357640 
 4901000   0.79091896   -3.3332113   -1.8765434  0.038715042   -3.3332113    1.4566679   357591 
 4902000   0.79031259   -3.3311283   -1.8754469  0.040005102   -3.3311283    1.4556813   357559 
 4903000   0.78901818   -3.3276453   -1.8742302  0.043092709   -3.3276453    1.4534151   357530 
 4904000    0.7896167   -3.3299315   -1.8753692  0.040883246   -3.3299315    1.4545623   357519 
 4905000   0.79039972   -3.3303856   -1.8743076  0.040347088   -3.3303856     1.456078   357501 
 4906000   0.78965125    -3.329281   -1.8746795  0.042004307    -3.329281    1.4546015   357525 
 4907000    0.7899157   -3.3289575   -1.8738403  0.047549094   -3.3289575    1.4551172   357518 
 4908000   0.79047036   -3.3303944   -1.8741007   0.04408027   -3.3303944    1.4562937   357480 
 4909000   0.78938008   -3.3278086   -1.8732916  0.043631288   -3.3278086     1.454517   357423 
 4910000   0.79021307   -3.3300709   -1.8737664  0.040813873   -3.3300709    1.4563045   357361 
 4911000   0.78955626   -3.3296832   -1.8743815   0.04035193   -3.3296832    1.4553017   357310 
 4912000   0.79003145   -3.3308803   -1.8745112  0.038547338   -3.3308803    1.4563691   357263 
 4913000   0.78836705   -3.3276236   -1.8742982  0.043623212   -3.3276236    1.4533253   357257 
 4914000   0.78830053   -3.3281219   -1.8746303  0.042620368   -3.3281219    1.4534916   357186 
 4915000   0.78909595   -3.3289863   -1.8742073  0.041192841   -3.3289863     1.454779   357230 
 4916000   0.78873483   -3.3272662   -1.8729372  0.043231416   -3.3272662     1.454329   357177 
 4917000   0.78943958     -3.33034   -1.8747726  0.040303792     -3.33034    1.4555674   357192 
 4918000   0.78944561   -3.3300582   -1.8745124  0.039037848   -3.3300582    1.4555459   357200 
 4919000   0.78946277   -3.3296794   -1.8740652  0.040746306   -3.3296794    1.4556142   357191 
 4920000   0.78929101   -3.3299818   -1.8745743  0.042946938   -3.3299818    1.4554075   357164 
 4921000    0.7891228   -3.3296262   -1.8743496  0.047647756   -3.3296262    1.4552766   357120 
 4922000   0.78900876   -3.3297238     -1.87458  0.041218444   -3.3297238    1.4551437   357101 
 4923000   0.78817348   -3.3286788   -1.8750186  0.047020206   -3.3286788    1.4536602   357087 
 4924000    0.7882873    -3.329094   -1.8751139  0.040303932    -3.329094    1.4539801   357060 
 4925000   0.78932822     -3.33042   -1.8743079  0.039648426     -3.33042    1.4561121   357008 
 4926000   0.78915317   -3.3316689   -1.8755983  0.038476385   -3.3316689    1.4560706   356939 
 4927000   0.78947248   -3.3322583   -1.8754434  0.039649109   -3.3322583    1.4568149   356901 
 4928000   0.79030252    -3.334173   -1.8756058  0.042358168    -3.334173    1.4585672   356847 
 4929000   0.78983788   -3.3329893   -1.8751203  0.041968557   -3.3329893     1.457869   356808 
 4930000   0.78937109   -3.3307472   -1.8735315  0.040352669   -3.3307472    1.4572157   356757 
 4931000   0.78851066   -3.3305907   -1.8748532  0.043185218   -3.3305907    1.4557375   356730 
 4932000   0.78956074   -3.3333232   -1.8754672  0.037725372   -3.3333232    1.4578559   356686 
 4933000    0.7874131   -3.3296286    -1.875575  0.044296338   -3.3296286    1.4540536   356646 
 4934000   0.78832695   -3.3309998   -1.8752464  0.041090056   -3.3309998    1.4557534   356643 
 4935000    0.7888616   -3.3328423   -1.8759872  0.037590506   -3.3328423     1.456855   356615 
 4936000   0.78845149   -3.3304095   -1.8742016   0.04273644   -3.3304095    1.4562079   356588 
 4937000   0.78795787   -3.3305981   -1.8751304   0.03842555   -3.3305981    1.4554677   356546 
 4938000   0.78668981    -3.328033   -1.8747731  0.039840293    -3.328033    1.4532599   356513 
 4939000   0.78643933   -3.3272435   -1.8743607  0.039829542   -3.3272435    1.4528828   356492 
 4940000   0.78688461   -3.3290236   -1.8751265  0.041359421   -3.3290236    1.4538971   356445 
 4941000   0.78546149   -3.3261662   -1.8748171  0.038015024   -3.3261662    1.4513491   356425 
 4942000   0.78655218   -3.3272759   -1.8737728  0.040190203   -3.3272759     1.453503   356391 
 4943000   0.78709235   -3.3285134   -1.8739795  0.040011313   -3.3285134    1.4545339   356383 
 4944000    0.7876272   -3.3271164   -1.8716308  0.046989331   -3.3271164    1.4554855   356392 
 4945000   0.78913585   -3.3291211   -1.8707986  0.042077626   -3.3291211    1.4583225   356380 
 4946000   0.78914244   -3.3312377   -1.8728498  0.040564689   -3.3312377    1.4583879   356367 
 4947000   0.78868521    -3.329743   -1.8720651  0.040985577    -3.329743    1.4576779   356334 
 4948000   0.78879704    -3.329892    -1.871856  0.043525809    -3.329892     1.458036   356297 
 4949000   0.78780129   -3.3283844   -1.8720459  0.040262485   -3.3283844    1.4563385   356262 
 4950000   0.78596636   -3.3265776   -1.8733905  0.037024765   -3.3265776    1.4531871   356203 
 4951000   0.78567222   -3.3272427   -1.8744241  0.040292085   -3.3272427    1.4528186   356160 
 4952000     0.787126   -3.3296311    -1.873924  0.036542543   -3.3296311    1.4557071   356111 
 4953000   0.78725549   -3.3304732   -1.8742649   0.03993716   -3.3304732    1.4562083   356047 
 4954000   0.78648371   -3.3305467   -1.8756679  0.039659959   -3.3305467    1.4548788   356023 
 4955000   0.78620759    -3.328173   -1.8738009  0.046195664    -3.328173    1.4543721   356022 
 4956000   0.78782425   -3.3298053   -1.8724509  0.047012235   -3.3298053    1.4573545   356024 
 4957000   0.78872842   -3.3320245   -1.8728868  0.042011518   -3.3320245    1.4591377   355997 
 4958000   0.78756908   -3.3310436    -1.874022   0.04597657   -3.3310436    1.4570216   355990 
 4959000   0.78763977    -3.332684   -1.8753105  0.042945737    -3.332684    1.4573734   355936 
 4960000   0.78662702   -3.3311316   -1.8753498  0.038004777   -3.3311316    1.4557818   355867 
 4961000   0.78691253   -3.3318278   -1.8754235  0.040805507   -3.3318278    1.4564043   355844 
 4962000   0.78580304   -3.3309268   -1.8764534  0.042303582   -3.3309268    1.4544735   355814 
 4963000   0.78657784    -3.332126   -1.8762103  0.038993276    -3.332126    1.4559158   355812 
 4964000    0.7861837   -3.3306517   -1.8752732  0.043222648   -3.3306517    1.4553785   355765 
 4965000   0.78717601   -3.3314138   -1.8740099  0.044425806   -3.3314138    1.4574039   355719 
 4966000   0.78757073   -3.3313594   -1.8730156  0.046139846   -3.3313594    1.4583438   355668 
 4967000   0.78546368   -3.3288795    -1.874421  0.044599278   -3.3288795    1.4544585   355664 
 4968000   0.78731614   -3.3318592   -1.8737819   0.04215359   -3.3318592    1.4580773   355618 
 4969000   0.78649213   -3.3289032   -1.8722822  0.044209089   -3.3289032    1.4566209   355601 
 4970000   0.78755175   -3.3300834   -1.8714549   0.04575959   -3.3300834    1.4586285   355590 
 4971000    0.7870254   -3.3281302   -1.8705421  0.043439661   -3.3281302    1.4575881   355606 
 4972000   0.78592214   -3.3255739     -1.86998  0.047388477   -3.3255739    1.4555939   355594 
 4973000   0.78784896   -3.3285627   -1.8691663  0.041785657   -3.3285627    1.4593965   355537 
 4974000   0.78558024   -3.3256184   -1.8701952  0.042598202   -3.3256184    1.4554232   355481 
 4975000   0.78585795   -3.3269708   -1.8710209  0.038936699   -3.3269708      1.45595   355478 
 4976000   0.78546291   -3.3272615   -1.8719738    0.0442744   -3.3272615    1.4552877   355461 
 4977000   0.78549472    -3.325396   -1.8700412  0.042821366    -3.325396    1.4553548   355459 
 4978000   0.78504258    -3.325014   -1.8703373   0.04319354    -3.325014    1.4546767   355420 
 4979000   0.78535005   -3.3262011   -1.8705942  0.047141179   -3.3262011    1.4556068   355332 
 4980000   0.78566862   -3.3263733    -1.870135   0.04016525   -3.3263733    1.4562383   355322 
 4981000   0.78594596   -3.3253319   -1.8685263  0.043138548   -3.3253319    1.4568056   355309 
 4982000   0.78328061   -3.3207039   -1.8687161  0.041619781   -3.3207039    1.4519878   355279 
 4983000   0.78404441   -3.3236495   -1.8702008  0.037028549   -3.3236495    1.4534487   355268 
 4984000   0.78422731   -3.3227792    -1.868795  0.037651565   -3.3227792    1.4539842   355220 
 4985000     0.784386   -3.3228993   -1.8685186  0.042254079   -3.3228993    1.4543808   355195 
 4986000   0.78446077   -3.3236361    -1.868916  0.039985366   -3.3236361    1.4547201   355146 
 4987000   0.78489196    -3.323787   -1.8680952  0.037751532    -3.323787    1.4556918   355104 
 4988000   0.78372512   -3.3225608   -1.8690371   0.04375203   -3.3225608    1.4535237   355105 
 4989000   0.78394232   -3.3230688   -1.8690604  0.041294877   -3.3230688    1.4540084   355085 
 4990000   0.78492531   -3.3254473   -1.8694804  0.041776527   -3.3254473    1.4559669   355052 
 4991000    0.7859036   -3.3264423   -1.8685252  0.043287931   -3.3264423     1.457917   355019 
 4992000   0.78524056   -3.3238459   -1.8671384  0.041737296   -3.3238459    1.4567076   355014 
 4993000    0.7836234   -3.3212812   -1.8675532  0.043420944   -3.3212812     1.453728   355009 
 4994000   0.78496645   -3.3252217   -1.8687765  0.045868254   -3.3252217    1.4564452   354954 
 4995000   0.78483848   -3.3242701   -1.8679926  0.044088186   -3.3242701    1.4562775   354937 
 4996000   0.78589113   -3.3290442   -1.8706779  0.042331132   -3.3290442    1.4583663   354904 
 4997000    0.7841666   -3.3255024   -1.8702091  0.041161626   -3.3255024    1.4552932   354873 
 4998000   0.78493316   -3.3270705   -1.8702233   0.04244194   -3.3270705    1.4568472   354841 
 4999000   0.78541035   -3.3259817   -1.8682118  0.040548821   -3.3259817    1.4577699   354832 
 5000000    0.7829654   -3.3220668   -1.8686998  0.039168549   -3.3220668    1.4533671   354799 
 5001000    0.7849603    -3.326656    -1.869471  0.040786895    -3.326656    1.4571851   354771 
 5002000    0.7842421   -3.3276043   -1.8714323  0.042123532   -3.3276043     1.456172   354693 
 5003000   0.78455718    -3.328654   -1.8717738  0.044239594    -3.328654    1.4568802   354663 
 5004000   0.78425381   -3.3284305   -1.8719042  0.044111352   -3.3284305    1.4565263   354612 
 5005000   0.78343576   -3.3259103   -1.8706529  0.040490851   -3.3259103    1.4552574   354551 
 5006000   0.78409167   -3.3280723   -1.8714816  0.045189902   -3.3280723    1.4565908   354523 
 5007000    0.7840455   -3.3289207   -1.8721034  0.040005543   -3.3289207    1.4568173   354447 
 5008000   0.78385807   -3.3280675    -1.871467  0.036944538   -3.3280675    1.4566006   354415 
 5009000   0.78283364   -3.3263853   -1.8714832  0.033398125   -3.3263853    1.4549022   354365 
 5010000   0.78310281   -3.3258573   -1.8703727  0.036289485   -3.3258573    1.4554846   354345 
 5011000   0.78265319   -3.3260733   -1.8711616  0.038082018   -3.3260733    1.4549117   354281 
 5012000   0.78376574   -3.3287698   -1.8716871  0.045320628   -3.3287698    1.4570827   354256 
 5013000   0.78466261    -3.326702   -1.8680178  0.045915253    -3.326702    1.4586841   354272 
 5014000   0.78314376   -3.3255163   -1.8696886  0.042263574   -3.3255163    1.4558277   354280 
 5015000   0.78341291   -3.3240176    -1.867706  0.042723188   -3.3240176    1.4563116   354284 
 5016000   0.78280742   -3.3242445    -1.868927  0.046541971   -3.3242445    1.4553175   354252 
 5017000   0.78248876   -3.3238838   -1.8690231  0.041203034   -3.3238838    1.4548606   354219 
 5018000   0.78242532   -3.3230697   -1.8682367  0.037938286   -3.3230697     1.454833   354197 
 5019000   0.78165607   -3.3216168   -1.8680417  0.041705946   -3.3216168     1.453575   354155 
 5020000    0.7818163   -3.3210163   -1.8671392  0.043618353   -3.3210163    1.4538771   354154 
 5021000   0.78252341   -3.3206296   -1.8651047  0.041516287   -3.3206296     1.455525   354073 
 5022000   0.78135545   -3.3208702   -1.8675217  0.041337303   -3.3208702    1.4533484   354074 
 5023000   0.78226992   -3.3215168   -1.8664715  0.041023694   -3.3215168    1.4550452   354075 
 5024000   0.78202981   -3.3221107   -1.8671998    0.0432929   -3.3221107    1.4549109   353999 
 5025000   0.78332077   -3.3245679   -1.8670411  0.043030463   -3.3245679    1.4575268   353947 
 5026000   0.78287071   -3.3213926   -1.8647115  0.042792802   -3.3213926    1.4566811   353949 
 5027000   0.78327277   -3.3212805   -1.8639501  0.041845572   -3.3212805    1.4573304   353973 
 5028000   0.78316845   -3.3230533   -1.8658799  0.045124296   -3.3230533    1.4571734   353964 
 5029000   0.78236309   -3.3206921   -1.8650213  0.043854294   -3.3206921    1.4556708   353965 
 5030000   0.78199923   -3.3206123     -1.86538  0.042125999   -3.3206123    1.4552322   353907 
 5031000   0.78287872   -3.3231073   -1.8661355  0.038200628   -3.3231073    1.4569718   353882 
 5032000   0.78346327   -3.3233841   -1.8651225  0.040891524   -3.3233841    1.4582616   353833 
 5033000   0.78270723   -3.3224013   -1.8653452  0.043179118   -3.3224013    1.4570561   353784 
 5034000   0.78119383   -3.3210963     -1.86673  0.039140342   -3.3210963    1.4543663   353753 
 5035000   0.78187852   -3.3208034   -1.8651171  0.043214441   -3.3208034    1.4556863   353742 
 5036000   0.78113725   -3.3184335   -1.8640163  0.041453274   -3.3184335    1.4544172   353715 
 5037000   0.78034293    -3.319332    -1.866402  0.038406285    -3.319332      1.45293   353717 
 5038000   0.78294019    -3.322216   -1.8644254  0.040220061    -3.322216    1.4577906   353711 
 5039000   0.78280299    -3.324323   -1.8666271  0.040110538    -3.324323    1.4576959   353672 
 5040000   0.78133937   -3.3218983   -1.8668168  0.040378787   -3.3218983    1.4550815   353645 
 5041000   0.78074592   -3.3205598    -1.866567  0.041348409   -3.3205598    1.4539928   353641 
 5042000   0.78162426   -3.3218474   -1.8660707  0.040483867   -3.3218474    1.4557767   353605 
 5043000   0.78181987   -3.3232217   -1.8669201  0.040615818   -3.3232217    1.4563016   353566 
 5044000   0.78192346   -3.3230327   -1.8665669  0.040785775   -3.3230327    1.4564658   353573 
 5045000   0.78206486   -3.3216673   -1.8647074  0.041755561   -3.3216673    1.4569599   353517 
 5046000   0.78271194   -3.3233532   -1.8651507    0.0418319   -3.3233532    1.4582025   353508 
 5047000   0.78084706   -3.3210874   -1.8660917  0.042366254   -3.3210874    1.4549958   353443 
 5048000   0.78127464    -3.321696   -1.8658211   0.03973907    -3.321696    1.4558749   353423 
 5049000   0.78211297   -3.3230429   -1.8655069  0.039195882   -3.3230429     1.457536   353399 
 5050000    0.7817012   -3.3238145   -1.8670005  0.042596842   -3.3238145     1.456814   353388 
 5051000   0.78191087   -3.3246185   -1.8673188  0.039274418   -3.3246185    1.4572996   353365 
 5052000   0.78240274   -3.3238941   -1.8656199  0.040385832   -3.3238941    1.4582741   353351 
 5053000   0.78211939   -3.3235027    -1.865604  0.041120684   -3.3235027    1.4578987   353314 
 5054000   0.78159926   -3.3220132   -1.8649521  0.041865011   -3.3220132    1.4570611   353282 
 5055000     0.780789   -3.3220054   -1.8660633  0.044916135   -3.3220054    1.4559421   353187 
 5056000   0.78153011    -3.321802   -1.8643335  0.044962049    -3.321802    1.4574685   353152 
 5057000   0.78017595   -3.3203652   -1.8655004  0.040608422   -3.3203652    1.4548649   353171 
 5058000   0.77920447    -3.318892   -1.8656865  0.041050681    -3.318892    1.4532055   353134 
 5059000   0.77927636   -3.3211909   -1.8676085  0.042152658   -3.3211909    1.4535824   353075 
 5060000    0.7797714   -3.3222642   -1.8675688  0.039897306   -3.3222642    1.4546954   353029 
 5061000   0.77898106   -3.3204612   -1.8671496  0.043174041   -3.3204612    1.4533115   353007 
 5062000   0.77875849   -3.3202622   -1.8674729  0.043075514   -3.3202622    1.4527893   353033 
 5063000   0.78042916   -3.3219921   -1.8660408  0.042241675   -3.3219921    1.4559513   353022 
 5064000   0.77965358   -3.3210215   -1.8664553  0.038077999   -3.3210215    1.4545662   353007 
 5065000   0.78188803   -3.3253244   -1.8663746  0.044348662   -3.3253244    1.4589498   352955 
 5066000   0.78035809   -3.3220546   -1.8659141  0.045315712   -3.3220546    1.4561405   352944 
 5067000   0.77922177   -3.3213662   -1.8673255  0.041633661   -3.3213662    1.4540407   352939 
 5068000   0.77968745   -3.3211776   -1.8661319  0.044002851   -3.3211776    1.4550457   352906 
 5069000   0.78063718   -3.3222123   -1.8652167  0.042497359   -3.3222123    1.4569956   352863 
 5070000   0.78077963   -3.3230298   -1.8656403  0.041140864   -3.3230298    1.4573895   352832 
 5071000   0.78041553   -3.3236736   -1.8667903   0.04477571   -3.3236736    1.4568833   352790 
 5072000   0.77986651   -3.3241652   -1.8682366  0.046655226   -3.3241652    1.4559286   352773 
 5073000    0.7792856   -3.3217935   -1.8669866  0.042377898   -3.3217935    1.4548069   352782 
 5074000   0.77907836   -3.3200456   -1.8656626  0.039881898   -3.3200456     1.454383   352791 
 5075000   0.77793969   -3.3181752   -1.8657286  0.041250917   -3.3181752    1.4524467   352745 
 5076000   0.77925069   -3.3202878   -1.8650757  0.034828903   -3.3202878     1.455212   352668 
 5077000   0.77921647    -3.319868   -1.8647281  0.043296449    -3.319868    1.4551399   352670 
 5078000   0.77907891   -3.3202697   -1.8653496  0.039500815   -3.3202697    1.4549201   352661 
 5079000   0.77892768   -3.3188971   -1.8641645  0.044892266   -3.3188971    1.4547326   352638 
 5080000   0.77827841   -3.3183292   -1.8645454  0.038354874   -3.3183292    1.4537838   352574 
 5081000   0.78031859   -3.3218059   -1.8640292  0.044489994   -3.3218059    1.4577767   352530 
 5082000   0.77831778   -3.3183224   -1.8640484  0.043745121   -3.3183224     1.454274   352473 
 5083000   0.77961592   -3.3204126   -1.8636056  0.043746328   -3.3204126     1.456807   352447 
 5084000   0.77893955   -3.3224219    -1.866569  0.038942389   -3.3224219    1.4558529   352372 
 5085000   0.77802858   -3.3185926   -1.8643845  0.039731358   -3.3185926    1.4542081   352358 
 5086000   0.77920277   -3.3200574   -1.8635182  0.040389437   -3.3200574    1.4565391   352325 
 5087000   0.77871361    -3.322396   -1.8666638  0.038789838    -3.322396    1.4557322   352299 
 5088000   0.77835333   -3.3192157   -1.8639422  0.035835791   -3.3192157    1.4552735   352247 
 5089000    0.7774603   -3.3193308   -1.8655949  0.042756513   -3.3193308    1.4537359   352215 
 5090000   0.77781838   -3.3201867   -1.8656904  0.041023684   -3.3201867    1.4544963   352193 
 5091000   0.77786428   -3.3195465   -1.8649107  0.045965288   -3.3195465    1.4546358   352180 
 5092000   0.77862117   -3.3207993   -1.8646365  0.042310918   -3.3207993    1.4561628   352153 
 5093000   0.77887742   -3.3204505   -1.8638208  0.041350928   -3.3204505    1.4566297   352156 
 5094000   0.77804811   -3.3199104   -1.8648027  0.042779079   -3.3199104    1.4551076   352149 
 5095000   0.77847845   -3.3191186   -1.8631441  0.045396859   -3.3191186    1.4559745   352134 
 5096000   0.77696674   -3.3169489   -1.8638141   0.03910244   -3.3169489    1.4531348   352137 
 5097000   0.77783908   -3.3194661   -1.8645346  0.037929467   -3.3194661    1.4549316   352097 
 5098000   0.77816329   -3.3196141   -1.8639852  0.040634415   -3.3196141    1.4556289   352075 
 5099000   0.77895447   -3.3223819   -1.8651033  0.038532008   -3.3223819    1.4572786   352034 
 5100000   0.77661184   -3.3187599   -1.8657814  0.044827424   -3.3187599    1.4529785   352014 
 5101000   0.77660691   -3.3191698   -1.8660601  0.038348101   -3.3191698    1.4531097   351980 
 5102000   0.77775952   -3.3201859   -1.8651552  0.039533451   -3.3201859    1.4550307   352037 
 5103000   0.77675202   -3.3189167    -1.865746  0.042455823   -3.3189167    1.4531706   352031 
 5104000    0.7778977   -3.3200769   -1.8646016  0.039325964   -3.3200769    1.4554753   351992 
 5105000   0.77797054   -3.3180682     -1.86256  0.039694147   -3.3180682    1.4555082   352017 
 5106000   0.77785635   -3.3207366   -1.8650865  0.042708225   -3.3207366    1.4556501   351931 
 5107000   0.77761151   -3.3206928   -1.8653147  0.037896431   -3.3206928    1.4553781   351886 
 5108000   0.77690711   -3.3192584     -1.86524  0.042664667   -3.3192584    1.4540184   351896 
 5109000   0.77689599   -3.3184466   -1.8644284  0.044504387   -3.3184466    1.4540182   351891 
 5110000   0.77641037   -3.3178735   -1.8646939  0.039507196   -3.3178735    1.4531796   351874 
 5111000   0.77674499   -3.3189715   -1.8650913  0.042396549   -3.3189715    1.4538802   351856 
 5112000   0.77780471   -3.3199802   -1.8640213  0.041340456   -3.3199802    1.4559589   351833 
 5113000   0.77866087   -3.3215597   -1.8635962  0.043754911   -3.3215597    1.4579635   351736 
 5114000   0.77788506   -3.3202415   -1.8635069  0.043731697   -3.3202415    1.4567346   351682 
 5115000   0.77857975   -3.3218394   -1.8635261   0.04091391   -3.3218394    1.4583133   351615 
 5116000   0.77718783   -3.3196522   -1.8639791  0.045307386   -3.3196522    1.4556731   351623 
 5117000   0.77738107   -3.3217211   -1.8655328  0.042933651   -3.3217211    1.4561882   351586 
 5118000   0.77770946   -3.3206421   -1.8635942  0.043799103   -3.3206421    1.4570479   351527 
 5119000   0.77689262    -3.319616   -1.8642972  0.041395584    -3.319616    1.4553188   351575 
 5120000   0.77669887   -3.3197481   -1.8648791  0.035804789   -3.3197481     1.454869   351596 
 5121000   0.77527755   -3.3177411   -1.8653279  0.036862326   -3.3177411    1.4524132   351546 
 5122000   0.77537397   -3.3189239    -1.866202  0.039810732   -3.3189239    1.4527219   351515 
 5123000   0.77647536   -3.3207099   -1.8658789  0.041133132   -3.3207099     1.454831   351504 
 5124000   0.77590608   -3.3176362   -1.8637312   0.04207957   -3.3176362     1.453905   351470 
 5125000   0.77433329   -3.3153322   -1.8643166  0.042088468   -3.3153322    1.4510157   351456 
 5126000   0.77632323    -3.318907   -1.8641625  0.042211636    -3.318907    1.4547446   351456 
 5127000   0.77535351   -3.3158482   -1.8628753  0.042948795   -3.3158482    1.4529729   351445 
 5128000   0.77609493   -3.3176805   -1.8631858  0.041122878   -3.3176805    1.4544947   351413 
 5129000   0.77562997   -3.3168442   -1.8631091  0.040437858   -3.3168442     1.453735   351386 
 5130000   0.77504699   -3.3165361   -1.8637035  0.038483901   -3.3165361    1.4528326   351340 
 5131000   0.77560768   -3.3155432   -1.8616431  0.047340482   -3.3155432    1.4539002   351336 
 5132000   0.77547916   -3.3158081   -1.8621199  0.043149299   -3.3158081    1.4536882   351329 
 5133000   0.77607771   -3.3167295     -1.86194  0.044787569   -3.3167295    1.4547895   351334 
 5134000   0.77702953   -3.3178587   -1.8608744   0.04105349   -3.3178587    1.4569843   351235 
 5135000   0.77619608   -3.3181886   -1.8627008  0.043727104   -3.3181886    1.4554878   351219 
 5136000   0.77565552   -3.3170355   -1.8624743  0.039665775   -3.3170355    1.4545612   351198 
 5137000   0.77475249   -3.3158059   -1.8629754  0.039602309   -3.3158059    1.4528305   351207 
 5138000   0.77463898   -3.3159261   -1.8631141  0.040543122   -3.3159261    1.4528121   351160 
 5139000   0.77517632   -3.3184075   -1.8645421  0.039730444   -3.3184075    1.4538654   351149 
 5140000    0.7755418   -3.3191424   -1.8645833  0.042906939   -3.3191424    1.4545591   351147 
 5141000   0.77599816   -3.3213358   -1.8657549  0.043219132   -3.3213358    1.4555809   351107 
 5142000   0.77635462   -3.3208128   -1.8646421  0.044578268   -3.3208128    1.4561707   351126 
 5143000   0.77529522    -3.317539   -1.8632892  0.047964868    -3.317539    1.4542499   351110 
 5144000   0.77509078   -3.3179316     -1.86397  0.039150987   -3.3179316    1.4539617   351087 
 5145000   0.77560499   -3.3180769   -1.8629103  0.044400881   -3.3180769    1.4551666   351029 
 5146000   0.77631738   -3.3196142   -1.8630156  0.037943264   -3.3196142    1.4565986   351006 
 5147000   0.77679297    -3.320515   -1.8628911   0.04495405    -3.320515    1.4576239   350974 
 5148000   0.77561686   -3.3205528   -1.8651151  0.040159527   -3.3205528    1.4554377   350969 
 5149000    0.7762964    -3.320823   -1.8641184  0.043813957    -3.320823    1.4567045   350971 
 5150000   0.77532344   -3.3175077    -1.862546  0.044474885   -3.3175077    1.4549617   350951 
 5151000   0.77505088   -3.3167175   -1.8621678  0.042507962   -3.3167175    1.4545497   350927 
 5152000   0.77557138   -3.3182838   -1.8625747  0.040191953   -3.3182838     1.455709   350883 
 5153000   0.77539511   -3.3177752   -1.8622435  0.046029953   -3.3177752    1.4555317   350846 
 5154000   0.77716012   -3.3195484   -1.8604748   0.04134333   -3.3195484    1.4590736   350791 
 5155000   0.77512503   -3.3175954   -1.8623136  0.042632306   -3.3175954    1.4552819   350784 
 5156000    0.7748293   -3.3174242   -1.8626229  0.042392479   -3.3174242    1.4548013   350766 
 5157000   0.77613396   -3.3184015   -1.8610717  0.041703051   -3.3184015    1.4573298   350747 
 5158000    0.7750933   -3.3158838   -1.8605412  0.042012887   -3.3158838    1.4553426   350755 
 5159000   0.77478783   -3.3175952   -1.8628137  0.043876651   -3.3175952    1.4547815   350752 
 5160000   0.77527061   -3.3160775   -1.8604103  0.040788211   -3.3160775    1.4556672   350757 
 5161000   0.77276328   -3.3124417   -1.8613582   0.04665252   -3.3124417    1.4510835   350727 
 5162000   0.77388386   -3.3132593   -1.8601047  0.040407055   -3.3132593    1.4531546   350735 
 5163000   0.77464978   -3.3146388   -1.8599548  0.037986816   -3.3146388     1.454684   350713 
 5164000   0.77423807   -3.3134794   -1.8594565  0.040185339   -3.3134794    1.4540228   350686 
 5165000   0.77456007   -3.3137091   -1.8589363  0.040195622   -3.3137091    1.4547727   350651 
 5166000   0.77445615   -3.3133948   -1.8588173  0.045271292   -3.3133948    1.4545776   350651 
 5167000   0.77557209   -3.3158726   -1.8590288  0.043924243   -3.3158726    1.4568439   350610 
 5168000   0.77630262    -3.315782   -1.8574953  0.041324404    -3.315782    1.4582868   350593 
 5169000   0.77399567   -3.3114105   -1.8572706  0.040995271   -3.3114105    1.4541398   350548 
 5170000   0.77701144   -3.3167936   -1.8567463  0.038960315   -3.3167936    1.4600473   350490 
 5171000   0.77575205   -3.3151846   -1.8571668  0.042276935   -3.3151846    1.4580178   350409 
 5172000   0.77547948   -3.3126354   -1.8547888  0.042278978   -3.3126354    1.4578466   350327 
 5173000   0.77513453   -3.3141065   -1.8568044  0.041924604   -3.3141065    1.4573021   350302 
 5174000   0.77470872   -3.3128671   -1.8562366  0.044689661   -3.3128671    1.4566305   350271 
 5175000   0.77410265   -3.3130655   -1.8573543  0.040039231   -3.3130655    1.4557112   350218 
 5176000   0.77291998   -3.3119693   -1.8581791  0.041787602   -3.3119693    1.4537902   350145 
 5177000   0.77352592   -3.3129219   -1.8579338  0.042896302   -3.3129219    1.4549881   350131 
 5178000   0.77341822    -3.311729    -1.856877  0.037442367    -3.311729     1.454852   350115 
 5179000   0.77287113   -3.3097144    -1.855796   0.03421242   -3.3097144    1.4539184   350092 
 5180000   0.77281585   -3.3099956   -1.8560607   0.04204215   -3.3099956    1.4539348   350063 
 5181000   0.77462146    -3.313585   -1.8561991  0.043083167    -3.313585    1.4573859   350050 
 5182000   0.77432338   -3.3119718   -1.8551134  0.039308828   -3.3119718    1.4568584   350042 
 5183000   0.77336754   -3.3107211   -1.8555779  0.040083169   -3.3107211    1.4551432   350022 
 5184000   0.77297198   -3.3074715   -1.8530643  0.043394943   -3.3074715    1.4544072   350020 
 5185000   0.77460373   -3.3108551    -1.853311   0.04113826   -3.3108551    1.4575441   350004 
 5186000   0.77303266   -3.3078262   -1.8532009  0.046697549   -3.3078262    1.4546253   349995 
 5187000   0.77284931   -3.3098875   -1.8553537  0.045247266   -3.3098875    1.4545338   349934 
 5188000   0.77380636   -3.3108838   -1.8544448  0.041874137   -3.3108838    1.4564391   349909 
 5189000   0.77361362   -3.3114823   -1.8552812   0.03845467   -3.3114823    1.4562011   349879 
 5190000    0.7740807   -3.3131393   -1.8560881  0.040942441   -3.3131393    1.4570512   349886 
 5191000   0.77323839   -3.3106119   -1.8550755  0.042491475   -3.3106119    1.4555364   349869 
 5192000   0.77342688   -3.3115634   -1.8557388  0.039792856   -3.3115634    1.4558246   349885 
 5193000   0.77321675    -3.312086   -1.8566236  0.036007299    -3.312086    1.4554624   349877 
 5194000   0.77266986   -3.3102044    -1.855759  0.041811449   -3.3102044    1.4544454   349874 
 5195000   0.77375276   -3.3114688   -1.8548518  0.041376267   -3.3114688    1.4566171   349842 
 5196000    0.7738039   -3.3119472    -1.854809  0.040040611   -3.3119472    1.4571382   349740 
 5197000   0.77430357   -3.3126082   -1.8546124  0.043591311   -3.3126082    1.4579957   349760 
 5198000   0.77371845   -3.3108123   -1.8539183  0.044550103   -3.3108123     1.456894   349760 
 5199000   0.77345616   -3.3115781   -1.8548824  0.045598771   -3.3115781    1.4566958   349689 
 5200000    0.7733125   -3.3113398   -1.8547938  0.038439764   -3.3113398     1.456546   349660 
 5201000   0.77367437    -3.312043   -1.8545819  0.038496348    -3.312043     1.457461   349604 
 5202000   0.77236005   -3.3101473   -1.8552205  0.044224301   -3.3101473    1.4549268   349618 
 5203000   0.77304158   -3.3120963    -1.855744  0.035267094   -3.3120963    1.4563523   349584 
 5204000   0.77406755   -3.3136495    -1.855185  0.039428405   -3.3136495    1.4584645   349541 
 5205000   0.77317235   -3.3134533   -1.8566505  0.041960207   -3.3134533    1.4568028   349535 
 5206000   0.77362996   -3.3137898   -1.8558995  0.044144913   -3.3137898    1.4578903   349481 
 5207000    0.7739561   -3.3166373   -1.8579571  0.045489299   -3.3166373    1.4586802   349439 
 5208000   0.77390874   -3.3167653    -1.857928  0.044194497   -3.3167653    1.4588373   349380 
 5209000   0.77219292   -3.3146537   -1.8587758  0.046323237   -3.3146537    1.4558779   349314 
 5210000   0.77273388    -3.316797   -1.8598783  0.041264144    -3.316797    1.4569187   349309 
 5211000   0.77173715   -3.3146895   -1.8594542  0.042416735   -3.3146895    1.4552352   349262 
 5212000   0.77199511   -3.3173919   -1.8614368  0.039745222   -3.3173919    1.4559551   349206 
 5213000    0.7729376   -3.3193472   -1.8614183  0.038808596   -3.3193472    1.4579288   349159 
 5214000   0.77416519     -3.32151   -1.8612656  0.041339791     -3.32151    1.4602443   349159 
 5215000   0.77224608   -3.3165212   -1.8598717  0.045779325   -3.3165212    1.4566495   349153 
 5216000   0.77209802    -3.317212   -1.8606374   0.04302931    -3.317212    1.4565746   349104 
 5217000   0.77281735   -3.3184889   -1.8603692  0.045656698   -3.3184889    1.4581196   349059 
 5218000   0.77256727   -3.3186365   -1.8608634  0.041949397   -3.3186365    1.4577731   349029 
 5219000   0.77243126   -3.3175126   -1.8600421  0.042232009   -3.3175126    1.4574705   349040 
 5220000   0.77151842   -3.3167286   -1.8607552  0.039794325   -3.3167286    1.4559734   348986 
 5221000     0.771493    -3.318104    -1.862116  0.040905428    -3.318104     1.455988   348971 
 5222000   0.77159025   -3.3190197   -1.8625936  0.042408428   -3.3190197    1.4564261   348910 
 5223000   0.77021587   -3.3161434   -1.8621115  0.040326247   -3.3161434    1.4540319   348862 
 5224000   0.77016056   -3.3163461    -1.862402  0.039531121   -3.3163461    1.4539441   348858 
 5225000   0.77149176   -3.3172556   -1.8607107  0.042588033   -3.3172556    1.4565449   348837 
 5226000   0.77105128   -3.3142799   -1.8586376  0.038851166   -3.3142799    1.4556424   348854 
 5227000   0.77052467   -3.3136724   -1.8587906  0.040759099   -3.3136724    1.4548817   348798 
 5228000    0.7711384   -3.3161009    -1.859956   0.04079281   -3.3161009    1.4561449   348773 
 5229000   0.77029695    -3.314407   -1.8597592  0.046913445    -3.314407    1.4546478   348751 
 5230000    0.7705829   -3.3159357   -1.8605602  0.041617409   -3.3159357    1.4553756   348706 
 5231000   0.76914853   -3.3119846   -1.8592056  0.042452688   -3.3119846     1.452779   348679 
 5232000   0.76902776   -3.3117509   -1.8591459  0.036195028   -3.3117509    1.4526051   348666 
 5233000   0.77126339   -3.3138203   -1.8569381  0.038976487   -3.3138203    1.4568822   348653 
 5234000   0.77050225   -3.3120032   -1.8564084   0.04272143   -3.3120032    1.4555948   348617 
 5235000   0.77143259   -3.3123465   -1.8548771  0.041423894   -3.3123465    1.4574694   348589 
 5236000    0.7711329   -3.3123899   -1.8553571   0.04801996   -3.3123899    1.4570327   348558 
 5237000   0.77090683    -3.312588   -1.8560368  0.040439944    -3.312588    1.4565513   348571 
 5238000   0.77167887   -3.3134794   -1.8552561  0.041125766   -3.3134794    1.4582233   348520 
 5239000   0.77303943   -3.3153791   -1.8544297   0.04336629   -3.3153791    1.4609494   348483 
 5240000     0.772022   -3.3146714   -1.8554396  0.039659683   -3.3146714    1.4592318   348434 
 5241000   0.77089723   -3.3134452    -1.856193     0.044359   -3.3134452    1.4572522   348399 
 5242000   0.77019066   -3.3116245   -1.8556704  0.043662152   -3.3116245    1.4559542   348390 
 5243000   0.76838424   -3.3088826   -1.8561556  0.039157566   -3.3088826     1.452727   348345 
 5244000   0.76912273   -3.3089521   -1.8547997  0.038139303   -3.3089521    1.4541524   348338 
 5245000   0.76857396   -3.3091855   -1.8557786  0.040636661   -3.3091855    1.4534069   348268 
 5246000   0.76981631   -3.3114775   -1.8554118  0.041833226   -3.3114775    1.4560656   348194 
 5247000   0.76875409   -3.3094294   -1.8554313  0.041271493   -3.3094294    1.4539981   348208 
 5248000   0.77051898   -3.3126385   -1.8551894  0.046286289   -3.3126385    1.4574491   348181 
 5249000   0.77052155   -3.3134832   -1.8559036  0.040188475   -3.3134832    1.4575796   348151 
 5250000   0.76807641   -3.3109793   -1.8577873  0.037115947   -3.3109793    1.4531921   348094 
 5251000   0.76704247   -3.3106421   -1.8593354  0.039934642   -3.3106421    1.4513068   348077 
 5252000   0.76842188   -3.3115217   -1.8575005  0.038963682   -3.3115217    1.4540211   348052 
 5253000   0.76842423   -3.3101684   -1.8561386  0.039742487   -3.3101684    1.4540298   348051 
 5254000   0.76876542   -3.3106903   -1.8558143  0.039712378   -3.3106903     1.454876   348003 
 5255000   0.76883451     -3.31202   -1.8569547  0.041421704     -3.31202    1.4550653   347989 
 5256000   0.76961418   -3.3139955     -1.85735  0.042833439   -3.3139955    1.4566455   347964 
 5257000   0.76961836    -3.314159   -1.8574135  0.040536476    -3.314159    1.4567455   347942 
 5258000   0.76979143    -3.313618   -1.8564528   0.04033057    -3.313618    1.4571653   347920 
 5259000   0.77038311    -3.314572   -1.8561903  0.040646411    -3.314572    1.4583817   347897 
 5260000   0.77056303   -3.3156823   -1.8569894   0.04257306   -3.3156823    1.4586929   347904 
 5261000   0.77211461   -3.3182971   -1.8566502  0.039361888   -3.3182971    1.4616469   347900 
 5262000   0.76978634   -3.3138329   -1.8564427  0.049630169   -3.3138329    1.4573902   347864 
 5263000   0.76868837   -3.3142079   -1.8587081  0.045784964   -3.3142079    1.4554998   347819 
 5264000   0.77067323   -3.3171232    -1.857756  0.046837731   -3.3171232    1.4593672   347793 
 5265000   0.77044942   -3.3177283   -1.8586759  0.041088795   -3.3177283    1.4590524   347767 
 5266000   0.76990528   -3.3176296     -1.85944  0.041140119   -3.3176296    1.4581897   347727 
 5267000   0.76958399   -3.3184059   -1.8604894  0.042435588   -3.3184059    1.4579166   347647 
 5268000   0.76816776   -3.3164818     -1.86111   0.04513043   -3.3164818    1.4553718   347614 
 5269000   0.76683251   -3.3151827   -1.8622069  0.045358351   -3.3151827    1.4529758   347582 
 5270000   0.76901928   -3.3194691   -1.8622577  0.042714159   -3.3194691    1.4572114   347560 
 5271000   0.76733349   -3.3158306    -1.861893  0.038453514   -3.3158306    1.4539376   347579 
 5272000   0.76587308   -3.3139521   -1.8627692  0.038896439   -3.3139521    1.4511829   347576 
 5273000   0.76695888   -3.3160217   -1.8628065  0.045591337   -3.3160217    1.4532152   347582 
 5274000   0.76696456   -3.3178668   -1.8645279  0.036022764   -3.3178668    1.4533389   347555 
 5275000   0.76741956     -3.31824   -1.8640347   0.03748479     -3.31824    1.4542052   347554 
 5276000   0.76729614   -3.3171209   -1.8628608  0.039068676   -3.3171209    1.4542601   347485 
 5277000   0.76697481   -3.3178951   -1.8640348  0.040193609   -3.3178951    1.4538603   347435 
 5278000   0.76713162   -3.3175697   -1.8635294   0.04186274   -3.3175697    1.4540403   347463 
 5279000     0.766899   -3.3173815   -1.8636189  0.038204297   -3.3173815    1.4537626   347424 
 5280000   0.76677963   -3.3172889   -1.8635727   0.04022256   -3.3172889    1.4537162   347381 
 5281000   0.76769976   -3.3193207   -1.8637637  0.041490885   -3.3193207     1.455557   347358 
 5282000   0.76820012   -3.3178227   -1.8612624  0.042511857   -3.3178227    1.4565602   347345 
 5283000   0.76972086   -3.3214527   -1.8618493  0.043072191   -3.3214527    1.4596033   347307 
 5284000    0.7679969   -3.3168707   -1.8605281  0.040172038   -3.3168707    1.4563426   347305 
 5285000   0.76815027   -3.3170515   -1.8602964   0.04208489   -3.3170515    1.4567551   347276 
 5286000   0.76854696   -3.3183828   -1.8606529  0.043134643   -3.3183828    1.4577299   347223 
 5287000    0.7679476   -3.3168577   -1.8601388  0.042193843   -3.3168577    1.4567189   347193 
 5288000   0.76780162   -3.3183262   -1.8617626  0.042831097   -3.3183262    1.4565637   347164 
 5289000   0.76793317    -3.317059   -1.8600149   0.04706134    -3.317059    1.4570441   347109 
 5290000   0.76831722   -3.3185605   -1.8606323    0.0429537   -3.3185605    1.4579281   347072 
 5291000   0.76674409   -3.3165476   -1.8614243  0.038755351   -3.3165476    1.4551233   347029 
 5292000   0.76639804   -3.3163915   -1.8617949  0.040829847   -3.3163915    1.4545965   346998 
 5293000   0.76648612   -3.3149844   -1.8601494  0.042574249   -3.3149844     1.454835   346981 
 5294000   0.76639055   -3.3146322   -1.8598402  0.042505517   -3.3146322    1.4547919   346948 
 5295000   0.76584052   -3.3135605   -1.8596953  0.044024477   -3.3135605    1.4538652   346920 
 5296000    0.7667883   -3.3155784   -1.8596664  0.045339412   -3.3155784     1.455912   346861 
 5297000   0.76602991   -3.3133111   -1.8587804  0.040292778   -3.3133111    1.4545308   346847 
 5298000   0.76779607   -3.3154096   -1.8573907  0.044431622   -3.3154096    1.4580189   346815 
 5299000    0.7678051   -3.3161144   -1.8580322  0.043715919   -3.3161144    1.4580823   346804 
 5300000   0.76600348   -3.3128953   -1.8581757  0.044805909   -3.3128953    1.4547197   346790 
 5301000   0.76699698   -3.3142806   -1.8576447  0.041669182   -3.3142806    1.4566358   346783 
 5302000   0.76598545   -3.3112345   -1.8565156  0.046185424   -3.3112345     1.454719   346782 
 5303000   0.76432036   -3.3095491   -1.8578919  0.038985533   -3.3095491    1.4516572   346758 
 5304000   0.76623335   -3.3131875    -1.857578   0.03673764   -3.3131875    1.4556095   346682 
 5305000   0.76644608   -3.3138642   -1.8579304  0.039238308   -3.3138642    1.4559339   346701 
 5306000   0.76670567   -3.3122985   -1.8557329  0.044615245   -3.3122985    1.4565656   346668 
 5307000   0.76668923   -3.3125812   -1.8559081  0.040061231   -3.3125812     1.456673   346635 
 5308000   0.76565063   -3.3112084   -1.8563282   0.04179212   -3.3112084    1.4548802   346592 
 5309000   0.76555708   -3.3100451   -1.8552671  0.046601602   -3.3100451     1.454778   346574 
 5310000   0.76638472   -3.3119234   -1.8554255  0.041881867   -3.3119234    1.4564979   346539 
 5311000   0.76488538   -3.3109856   -1.8571275  0.041673675   -3.3109856    1.4538582   346489 
 5312000    0.7651688    -3.310213   -1.8558077  0.044867265    -3.310213    1.4544053   346487 
 5313000   0.76479177   -3.3113099   -1.8573359  0.039889056   -3.3113099     1.453974   346419 
 5314000   0.76588241   -3.3124142   -1.8564004  0.042181697   -3.3124142    1.4560138   346427 
 5315000   0.76415164   -3.3103571   -1.8574911  0.041408413   -3.3103571     1.452866   346393 
 5316000   0.76582476   -3.3127314   -1.8567936  0.040157124   -3.3127314    1.4559378   346419 
 5317000   0.76454843   -3.3093997   -1.8556113  0.040355321   -3.3093997    1.4537883   346353 
 5318000   0.76564619   -3.3113935   -1.8555346  0.044542116   -3.3113935    1.4558589   346357 
 5319000   0.76604162    -3.313297   -1.8566483  0.039640983    -3.313297    1.4566487   346348 
 5320000   0.76544007   -3.3098702   -1.8543317   0.04034187   -3.3098702    1.4555384   346340 
 5321000   0.76698859   -3.3129418   -1.8542903  0.043410191   -3.3129418    1.4586515   346300 
 5322000   0.76576522   -3.3122065   -1.8557933  0.042584628   -3.3122065    1.4564132   346279 
 5323000    0.7673684   -3.3147353   -1.8549736  0.041168969   -3.3147353    1.4597616   346208 
 5324000   0.76693914   -3.3147878   -1.8555773  0.040426167   -3.3147878    1.4592106   346145 
 5325000    0.7660531   -3.3131347   -1.8554626  0.039897082   -3.3131347    1.4576722   346110 
 5326000   0.76612283    -3.313242   -1.8553782    0.0416573    -3.313242    1.4578638   346096 
 5327000   0.76488106   -3.3128569   -1.8571121  0.043674601   -3.3128569    1.4557448   346038 
 5328000   0.76644081   -3.3157828    -1.857002   0.04077166   -3.3157828    1.4587808   346022 
 5329000   0.76516767   -3.3141683   -1.8576802   0.04401958   -3.3141683    1.4564881   345991 
 5330000   0.76563222   -3.3127437   -1.8552702  0.046274094   -3.3127437    1.4574735   345967 
 5331000   0.76552159   -3.3123822   -1.8550267  0.045657943   -3.3123822    1.4573556   345945 
 5332000   0.76732089   -3.3153121   -1.8543284  0.047387638   -3.3153121    1.4609837   345897 
 5333000   0.76536556   -3.3127947   -1.8554371  0.041397789   -3.3127947    1.4573576   345874 
 5334000   0.76556559   -3.3135909   -1.8558608  0.042393173   -3.3135909    1.4577301   345876 
 5335000   0.76470281   -3.3131704   -1.8569147  0.048034248   -3.3131704    1.4562556   345836 
 5336000   0.76485745   -3.3141266   -1.8572858  0.042484192   -3.3141266    1.4568408   345767 
 5337000   0.76269564   -3.3098007   -1.8570229  0.037282521   -3.3098007    1.4527778   345754 
 5338000   0.76269273   -3.3090178   -1.8562498   0.03704462   -3.3090178     1.452768   345755 
 5339000   0.76348136   -3.3113979   -1.8569594  0.040309994   -3.3113979    1.4544384   345715 
 5340000   0.76539324   -3.3147424   -1.8566492  0.036986866   -3.3147424    1.4580933   345712 
 5341000   0.76461622   -3.3120206   -1.8553697  0.043912181   -3.3120206    1.4566509   345703 
 5342000    0.7641058   -3.3106992   -1.8550164  0.047409088   -3.3106992    1.4556828   345702 
 5343000   0.76420008   -3.3095072   -1.8535185   0.04262156   -3.3095072    1.4559887   345672 
 5344000   0.76474473   -3.3098948   -1.8528094  0.040972271   -3.3098948    1.4570854   345658 
 5345000   0.76556597   -3.3105448   -1.8517891  0.040251991   -3.3105448    1.4587557   345633 
 5346000   0.76573928   -3.3098641   -1.8505924  0.044918189   -3.3098641    1.4592717   345589 
 5347000   0.76508556   -3.3096533    -1.851446  0.047159017   -3.3096533    1.4582073   345546 
 5348000   0.76604493   -3.3090153     -1.84895  0.047572579   -3.3090153    1.4600654   345539 
 5349000   0.76627474   -3.3094263   -1.8488891  0.044957245   -3.3094263    1.4605372   345531 
 5350000   0.76508588    -3.307426   -1.8489184  0.046338392    -3.307426    1.4585076   345475 
 5351000   0.76437007   -3.3071004   -1.8497971  0.045478941   -3.3071004    1.4573033   345437 
 5352000   0.76470273   -3.3062683   -1.8481915  0.042523623   -3.3062683    1.4580768   345404 
 5353000   0.76487712   -3.3048627   -1.8465801  0.041678995   -3.3048627    1.4582827   345434 
 5354000   0.76540443   -3.3046271   -1.8451616  0.044437766   -3.3046271    1.4594655   345392 
 5355000   0.76443967   -3.3033273   -1.8453764  0.042470157   -3.3033273    1.4579509   345315 
 5356000   0.76286896   -3.3023418   -1.8472771  0.039953053   -3.3023418    1.4550648   345289 
 5357000   0.76357296   -3.3034427   -1.8469634  0.041742991   -3.3034427    1.4564793   345272 
 5358000   0.76384649   -3.3022096   -1.8449807  0.040232248   -3.3022096    1.4572289   345218 
 5359000   0.76363382   -3.3039022   -1.8469609  0.041416382   -3.3039022    1.4569414   345190 
 5360000    0.7642001   -3.3029812   -1.8448833  0.041103453   -3.3029812    1.4580978   345172 
 5361000   0.76360004   -3.3016562    -1.844564  0.044194449   -3.3016562    1.4570922   345139 
 5362000   0.76325847   -3.3014536   -1.8446839  0.038868866   -3.3014536    1.4567697   345061 
 5363000   0.76151126   -3.2977614   -1.8442718  0.045028144   -3.2977614    1.4534897   345048 
 5364000   0.76306502   -3.3026308   -1.8461502  0.040591963   -3.3026308    1.4564806   345042 
 5365000   0.76283898   -3.3006371   -1.8445119   0.04154471   -3.3006371    1.4561252   345024 
 5366000    0.7635453   -3.3027927   -1.8450912   0.04336262   -3.3027927    1.4577015   344970 
 5367000    0.7637534   -3.3021526   -1.8438212  0.040965578   -3.3021526    1.4583313   344915 
 5368000   0.76249602   -3.3019061   -1.8457856  0.035845442   -3.3019061    1.4561204   344870 
 5369000    0.7628695   -3.3021257   -1.8451484  0.043327361   -3.3021257    1.4569773   344836 
 5370000   0.76308558   -3.3013147   -1.8438909   0.04231689   -3.3013147    1.4574238   344828 
 5371000   0.76320593   -3.3029347    -1.845167  0.045772314   -3.3029347    1.4577678   344801 
 5372000   0.76246775   -3.3031531   -1.8467319  0.040725228   -3.3031531    1.4564212   344786 
 5373000   0.76281642   -3.3057325   -1.8484425   0.03931602   -3.3057325    1.4572901   344738 
 5374000    0.7611557   -3.3041867   -1.8500229  0.041589664   -3.3041867    1.4541638   344727 
 5375000   0.76210177   -3.3064342   -1.8502221  0.037702644   -3.3064342     1.456212   344670 
 5376000   0.76011614   -3.3022136   -1.8495849  0.041232319   -3.3022136    1.4526287   344620 
 5377000   0.76045181   -3.3030005    -1.849743  0.042715103   -3.3030005    1.4532575   344623 
 5378000    0.7605465    -3.303736   -1.8502596  0.043042334    -3.303736    1.4534764   344614 
 5379000   0.76307168   -3.3075476    -1.849203  0.041543251   -3.3075476    1.4583446   344604 
 5380000   0.76231072   -3.3070626   -1.8499989  0.041281855   -3.3070626    1.4570636   344563 
 5381000   0.76338245   -3.3090407   -1.8499794  0.039407933   -3.3090407    1.4590613   344575 
 5382000   0.76322763   -3.3097801   -1.8508623  0.045317212   -3.3097801    1.4589178   344539 
 5383000   0.76181344   -3.3067615   -1.8506568  0.040235986   -3.3067615    1.4561047   344565 
 5384000    0.7612397   -3.3078344   -1.8528475  0.041549841   -3.3078344    1.4549869   344570 
 5385000   0.76119173   -3.3077032   -1.8527615  0.041860565   -3.3077032    1.4549417   344559 
 5386000    0.7629621   -3.3087148   -1.8503469  0.036228736   -3.3087148    1.4583679   344549 
 5387000   0.76233891   -3.3087522   -1.8515205  0.043863762   -3.3087522    1.4572317   344536 
 5388000   0.76143619   -3.3083636   -1.8526631  0.046010248   -3.3083636    1.4557005   344490 
 5389000   0.76314371   -3.3109026    -1.851908  0.043147411   -3.3109026    1.4589945   344483 
 5390000   0.76445437   -3.3128491   -1.8510857  0.044521188   -3.3128491    1.4617634   344421 
 5391000   0.76428389    -3.312144     -1.85066  0.044115802    -3.312144    1.4614841   344410 
 5392000    0.7623728   -3.3116818   -1.8539242  0.045700481   -3.3116818    1.4577577   344427 
 5393000    0.7626855   -3.3119189   -1.8534828  0.047024679   -3.3119189    1.4584361   344408 
 5394000   0.76265272   -3.3097553   -1.8514454  0.043280273   -3.3097553    1.4583098   344423 
 5395000   0.76185458   -3.3115533   -1.8544058  0.045264018   -3.3115533    1.4571475   344337 
 5396000   0.76111462   -3.3111463     -1.85519  0.040976276   -3.3111463    1.4559564   344284 
 5397000    0.7612346   -3.3101158   -1.8538538  0.044884723   -3.3101158     1.456262   344266 
 5398000   0.76219958   -3.3120044   -1.8537312  0.046866623   -3.3120044    1.4582732   344227 
 5399000   0.76157376   -3.3100526   -1.8529471  0.045168414   -3.3100526    1.4571055   344220 
 5400000   0.76199554   -3.3113313   -1.8531689  0.042211186   -3.3113313    1.4581624   344161 
 5401000   0.76204327   -3.3106696   -1.8523099   0.04508121   -3.3106696    1.4583597   344136 
 5402000   0.76268197   -3.3117355    -1.852056  0.042693367   -3.3117355    1.4596796   344113 
 5403000   0.75866759   -3.3045588   -1.8524314  0.043743973   -3.3045588    1.4521274   344082 
 5404000   0.76053605   -3.3087826   -1.8529647  0.043334495   -3.3087826    1.4558179   344055 
 5405000   0.76063622   -3.3080506   -1.8520155  0.040934562   -3.3080506    1.4560351   344049 
 5406000   0.76008264   -3.3074301   -1.8521967  0.038575369   -3.3074301    1.4552334   343988 
 5407000   0.75997331   -3.3076203   -1.8524228  0.041147458   -3.3076203    1.4551975   343947 
 5408000   0.75991506   -3.3062254   -1.8510082  0.039202923   -3.3062254    1.4552171   343916 
 5409000   0.76057346   -3.3062061   -1.8497069  0.044725506   -3.3062061    1.4564991   343911 
 5410000   0.76043545    -3.305164   -1.8488529  0.041345911    -3.305164    1.4563111   343893 
 5411000   0.75953119   -3.3022996   -1.8476653  0.039021383   -3.3022996    1.4546343   343880 
 5412000   0.75916913   -3.3009562   -1.8470111  0.036615781   -3.3009562    1.4539451   343879 
 5413000   0.76050794   -3.3045763   -1.8477112  0.040416733   -3.3045763    1.4568651   343795 
 5414000    0.7603729   -3.3042991   -1.8476758  0.044521877   -3.3042991    1.4566233   343791 
 5415000   0.76084357   -3.3031262   -1.8454443  0.047086712   -3.3031262    1.4576818   343754 
 5416000   0.76061049   -3.3023544   -1.8448732  0.042146528   -3.3023544    1.4574812   343696 
 5417000   0.76060554   -3.3035783   -1.8460642  0.042011266   -3.3035783    1.4575141   343686 
 5418000   0.75998133   -3.3017487    -1.845346  0.044814865   -3.3017487    1.4564027   343666 
 5419000   0.75943476   -3.3021205   -1.8466932     0.045175   -3.3021205    1.4554273   343649 
 5420000   0.75919558   -3.3018696   -1.8467524  0.037773263   -3.3018696    1.4551171   343614 
 5421000   0.75877758   -3.3011365   -1.8466386  0.037895015   -3.3011365     1.454498   343571 
 5422000   0.75892171   -3.3006591   -1.8458425  0.042449178   -3.3006591    1.4548166   343561 
 5423000   0.76078074    -3.302143   -1.8438349  0.038760606    -3.302143    1.4583081   343578 
 5424000   0.76111525   -3.3034676   -1.8444418  0.040396868   -3.3034676    1.4590258   343560 
 5425000   0.76032812   -3.3022024   -1.8445753  0.040951308   -3.3022024    1.4576272   343534 
 5426000   0.76156205   -3.3019492    -1.841965  0.043226131   -3.3019492    1.4599842   343536 
 5427000   0.76089484   -3.3014909   -1.8425861  0.044444658   -3.3014909    1.4589048   343489 
 5428000   0.76244905   -3.3028727   -1.8409284  0.042823336   -3.3028727    1.4619443   343475 
 5429000   0.76240179   -3.3047415   -1.8428665  0.040992711   -3.3047415     1.461875   343470 
 5430000   0.76134923   -3.3022807   -1.8423772  0.043318222   -3.3022807    1.4599035   343459 
 5431000   0.76026987   -3.3013877   -1.8433926  0.040645642   -3.3013877    1.4579951   343421 
 5432000   0.76129694   -3.3023233   -1.8422948  0.043321681   -3.3023233    1.4600285   343406 
 5433000   0.76203284   -3.3037726   -1.8422689  0.042752809   -3.3037726    1.4615037   343391 
 5434000    0.7606596   -3.3021386   -1.8430265  0.042001973   -3.3021386    1.4591121   343334 
 5435000   0.76174598   -3.3020674   -1.8407522  0.044359848   -3.3020674    1.4613152   343306 
 5436000   0.76088228   -3.3004797   -1.8407959  0.043759462   -3.3004797    1.4596838   343300 
 5437000   0.76118869   -3.3018313   -1.8413469  0.036749456   -3.3018313    1.4604844   343250 
 5438000   0.76089362    -3.302257    -1.842292  0.041336306    -3.302257     1.459965   343239 
 5439000   0.76048659    -3.301069   -1.8418127  0.042774758    -3.301069    1.4592563   343222 
 5440000    0.7604417   -3.3013132   -1.8421558  0.042915238   -3.3013132    1.4591574   343225 
 5441000   0.76074581   -3.3014227   -1.8416988   0.04107285   -3.3014227    1.4597239   343229 
 5442000   0.75829644    -3.297649   -1.8424299  0.039455404    -3.297649    1.4552191   343183 
 5443000   0.75899492   -3.2975547   -1.8410419  0.044384667   -3.2975547    1.4565128   343194 
 5444000   0.75847667   -3.2988666   -1.8432508  0.036110703   -3.2988666    1.4556159   343171 
 5445000   0.75916173   -3.2984867    -1.841467   0.04249637   -3.2984867    1.4570197   343150 
 5446000   0.76018984   -3.2989777    -1.839921  0.039862216   -3.2989777    1.4590567   343135 
 5447000   0.75875115    -3.295047    -1.838637  0.043795376    -3.295047      1.45641   343108 
 5448000   0.76067274   -3.2985718    -1.838286  0.046611325   -3.2985718    1.4602857   343064 
 5449000   0.76151622   -3.3008326   -1.8388296  0.044694014   -3.3008326     1.462003   343041 
 5450000   0.76106902   -3.2996098   -1.8381927  0.042314521   -3.2996098    1.4614171   342977 
 5451000   0.76126849   -3.2997728   -1.8378065  0.043859574   -3.2997728    1.4619663   342938 
 5452000   0.76043977   -3.2975553   -1.8368951  0.046186419   -3.2975553    1.4606602   342871 
 5453000   0.75982389   -3.2965424   -1.8367842  0.043207789   -3.2965424    1.4597582   342805 
 5454000   0.75951174   -3.2954361   -1.8362903  0.041733385   -3.2954361    1.4591457   342808 
 5455000   0.75729243   -3.2927546    -1.837847  0.038462508   -3.2927546    1.4549076   342802 
 5456000   0.75826544   -3.2935214   -1.8367233  0.042855994   -3.2935214    1.4567982   342797 
 5457000   0.75970718   -3.2970963   -1.8372174  0.040621087   -3.2970963    1.4598789   342724 
 5458000   0.75823316   -3.2959328   -1.8386014  0.044376996   -3.2959328    1.4573313   342657 
 5459000   0.75843203   -3.2954493   -1.8376123  0.044510989   -3.2954493    1.4578369   342628 
 5460000    0.7595878   -3.2975089   -1.8371989  0.040476601   -3.2975089      1.46031   342569 
 5461000   0.75716815   -3.2925053   -1.8367154  0.042526578   -3.2925053    1.4557899   342538 
 5462000   0.75915908   -3.2962746   -1.8365374  0.038024766   -3.2962746    1.4597372   342510 
 5463000   0.75873591   -3.2954859   -1.8365199  0.042437525   -3.2954859    1.4589661   342500 
 5464000   0.75949633   -3.2965191   -1.8359714  0.040312789   -3.2965191    1.4605477   342472 
 5465000   0.75803576   -3.2950322   -1.8370591  0.046331153   -3.2950322    1.4579731   342417 
 5466000   0.75769899   -3.2954821   -1.8380376  0.043274229   -3.2954821    1.4574445   342389 
 5467000   0.75860206   -3.2970743    -1.837637  0.045082151   -3.2970743    1.4594374   342329 
 5468000   0.75758459    -3.295642   -1.8377958  0.039055977    -3.295642    1.4578461   342243 
 5469000   0.75604863    -3.294648   -1.8396343   0.04125707    -3.294648    1.4550137   342214 
 5470000   0.75688186   -3.2976581   -1.8407172  0.040066972   -3.2976581    1.4569408   342138 
 5471000   0.75731027   -3.2976891   -1.8398895  0.038300033   -3.2976891    1.4577996   342130 
 5472000   0.75617732   -3.2946504   -1.8390445   0.03708741   -3.2946504    1.4556059   342133 
 5473000    0.7558355   -3.2943572   -1.8395411  0.043332369   -3.2943572    1.4548161   342164 
 5474000   0.75663877    -3.298042   -1.8415265  0.039534639    -3.298042    1.4565155   342128 
 5475000   0.75784053   -3.3000597   -1.8410091  0.035865201   -3.3000597    1.4590506   342076 
 5476000   0.75612604   -3.2955874   -1.8396844  0.042510234   -3.2955874     1.455903   342040 
 5477000   0.75703891   -3.2959594    -1.838222  0.040881685   -3.2959594    1.4577374   342022 
 5478000   0.75752635   -3.2989214   -1.8401899  0.039571425   -3.2989214    1.4587314   342009 
 5479000   0.75785779    -3.299426   -1.8399667  0.041660273    -3.299426    1.4594593   341988 
 5480000   0.75746595   -3.2980034   -1.8392561  0.044301459   -3.2980034    1.4587473   341978 
 5481000   0.75812179   -3.2967895   -1.8367833   0.04758749   -3.2967895    1.4600061   341979 
 5482000   0.75718824   -3.2941869   -1.8356887  0.047863008   -3.2941869    1.4584983   341911 
 5483000   0.75725044   -3.2985364   -1.8397049  0.040458828   -3.2985364    1.4588314   341861 
 5484000    0.7552091   -3.2957453   -1.8407571  0.039296041   -3.2957453    1.4549882   341840 
 5485000   0.75744726   -3.3002533   -1.8406157  0.039349305   -3.3002533    1.4596375   341761 
 5486000   0.75625266   -3.3001426   -1.8426792  0.036424106   -3.3001426    1.4574634   341731 
 5487000   0.75585133   -3.2982579   -1.8414699   0.04287447   -3.2982579     1.456788   341708 
 5488000   0.75861628   -3.3011046   -1.8389405  0.041143692   -3.3011046    1.4621641   341697 
 5489000   0.75744758    -3.297701    -1.837751  0.041759043    -3.297701      1.45995   341688 
 5490000   0.75631639   -3.2966894   -1.8388813  0.044132117   -3.2966894    1.4578081   341679 
 5491000   0.75621743   -3.2980095   -1.8402001  0.042728685   -3.2980095    1.4578093   341634 
 5492000   0.75676143   -3.2995943   -1.8406337  0.040787489   -3.2995943    1.4589605   341610 
 5493000   0.75505781   -3.2953321   -1.8397326   0.04096403   -3.2953321    1.4555994   341628 
 5494000   0.75455032   -3.2938493   -1.8391643  0.038257949   -3.2938493     1.454685   341613 
 5495000   0.75500798    -3.295751   -1.8400346  0.037254543    -3.295751    1.4557164   341578 
 5496000   0.75376168   -3.2935815   -1.8401106   0.04194086   -3.2935815    1.4534709   341541 
 5497000   0.75597048   -3.2950801   -1.8371323  0.043745002   -3.2950801    1.4579478   341490 
 5498000   0.75587026   -3.2960249   -1.8381038  0.042903913   -3.2960249     1.457921   341451 
 5499000     0.755814   -3.2952097   -1.8373544  0.040410034   -3.2952097    1.4578552   341441 
 5500000   0.75406806   -3.2945944   -1.8399535  0.037749123   -3.2945944    1.4546409   341405 
 5501000   0.75519372   -3.2960833   -1.8393349  0.038486887   -3.2960833    1.4567484   341420 
 5502000   0.75590851   -3.2949102   -1.8367617  0.039149783   -3.2949102    1.4581485   341415 
 5503000    0.7548718   -3.2933809   -1.8371255  0.034773529   -3.2933809    1.4562554   341390 
 5504000   0.75494158    -3.294757   -1.8382262  0.046022696    -3.294757    1.4565308   341357 
 5505000   0.75629415   -3.2964967   -1.8373179   0.04068098   -3.2964967    1.4591788   341348 
 5506000   0.75514876   -3.2954821   -1.8384918   0.04185262   -3.2954821    1.4569903   341343 
 5507000   0.75490172    -3.294084   -1.8373015  0.041161566    -3.294084    1.4567825   341280 
 5508000   0.75619342   -3.2971998   -1.8378605  0.040126281   -3.2971998    1.4593393   341265 
 5509000   0.75625813   -3.2963562   -1.8367809  0.039801201   -3.2963562    1.4595754   341239 
 5510000   0.75617748   -3.2959712   -1.8362777  0.036357576   -3.2959712    1.4596935   341175 
 5511000   0.75584942   -3.2942141   -1.8349314  0.045904064   -3.2942141    1.4592826   341123 
 5512000   0.75627308   -3.2963241   -1.8361593  0.048044224   -3.2963241    1.4601648   341108 
 5513000   0.75625156   -3.2976823   -1.8376062  0.036756646   -3.2976823    1.4600761   341119 
 5514000   0.75671889   -3.2978706    -1.836965  0.041883076   -3.2978706    1.4609056   341136 
 5515000    0.7558624   -3.2956323   -1.8361705  0.043603877   -3.2956323    1.4594617   341087 
 5516000   0.75570667   -3.2964866     -1.83721  0.045010717   -3.2964866    1.4592765   341060 
 5517000   0.75770754   -3.2974434   -1.8342903  0.044204931   -3.2974434    1.4631531   341057 
 5518000   0.75660348   -3.2980043    -1.836966  0.040571983   -3.2980043    1.4610383   341053 
 5519000    0.7551336   -3.2958127   -1.8373477    0.0403899   -3.2958127     1.458465   340991 
 5520000   0.75436531   -3.2947321   -1.8376441  0.042786238   -3.2947321     1.457088   340966 
 5521000   0.75372848   -3.2959198   -1.8398484  0.039286453   -3.2959198    1.4560714   340916 
 5522000   0.75425219   -3.2953557   -1.8379519  0.046213806   -3.2953557    1.4574037   340841 
 5523000   0.75398283   -3.2966998   -1.8396584  0.040170886   -3.2966998    1.4570414   340804 
 5524000   0.75374726   -3.2965771    -1.839837  0.041080703   -3.2965771    1.4567401   340768 
 5525000   0.75524925   -3.2995506   -1.8397663  0.037267349   -3.2995506    1.4597843   340735 
 5526000   0.75443775   -3.2982912    -1.840208  0.046386588   -3.2982912    1.4580831   340766 
 5527000   0.75362747   -3.2972872   -1.8405178  0.042578148   -3.2972872    1.4567693   340707 
 5528000   0.75349251   -3.2972447   -1.8404327  0.039465547   -3.2972447    1.4568121   340636 
 5529000   0.75244552   -3.2957679   -1.8407879  0.042764913   -3.2957679      1.45498   340591 
 5530000   0.75325567   -3.2971436   -1.8404003  0.040611731   -3.2971436    1.4567433   340545 
 5531000   0.75405798   -3.2986135   -1.8400016  0.043702126   -3.2986135    1.4586119   340471 
 5532000   0.75387799   -3.2991819   -1.8406954   0.04418407   -3.2991819    1.4584865   340419 
 5533000   0.75445453   -3.3012221   -1.8416717  0.040729921   -3.3012221    1.4595504   340431 
 5534000   0.75447635   -3.3002978    -1.840598  0.045286771   -3.3002978    1.4596998   340406 
 5535000   0.75441311   -3.3010418   -1.8412927  0.044921628   -3.3010418     1.459749   340366 
 5536000   0.75344794   -3.2996405   -1.8416563   0.04203235   -3.2996405    1.4579843   340342 
 5537000   0.75562315   -3.3028469   -1.8404687  0.045527736   -3.3028469    1.4623782   340299 
 5538000   0.75489829   -3.3027592   -1.8415176  0.046489593   -3.3027592    1.4612416   340237 
 5539000   0.75577808    -3.302705   -1.8397603  0.045948684    -3.302705    1.4629446   340237 
 5540000   0.75404651   -3.2999714   -1.8404129  0.049531622   -3.2999714    1.4595585   340245 
 5541000   0.75527428   -3.3033008   -1.8410478  0.042364915   -3.3033008    1.4622531   340171 
 5542000   0.75258737    -3.299783   -1.8425649  0.047575172    -3.299783    1.4572181   340132 
 5543000   0.75293389   -3.2988624   -1.8408404  0.043566569   -3.2988624     1.458022   340101 
 5544000   0.75135674   -3.2966827   -1.8416977   0.03453643   -3.2966827     1.454985   340097 
 5545000   0.75114434   -3.2966458   -1.8418668  0.036302799   -3.2966458     1.454779   340049 
 5546000   0.75165011   -3.2961196   -1.8401555  0.040525037   -3.2961196    1.4559641   340001 
 5547000   0.75055127   -3.2956312   -1.8417272  0.041843412   -3.2956312     1.453904   339985 
 5548000   0.75018098   -3.2941602   -1.8407426  0.038258801   -3.2941602    1.4534176   339931 
 5549000   0.75122334   -3.2941739   -1.8384885  0.040607018   -3.2941739    1.4556854   339873 
 5550000   0.75179679   -3.2943427   -1.8374432  0.042338567   -3.2943427    1.4568995   339849 
 5551000   0.75130727   -3.2934719   -1.8376667  0.038977261   -3.2934719    1.4558052   339883 
 5552000    0.7513621   -3.2926281   -1.8365924  0.040815936   -3.2926281    1.4560357   339854 
 5553000   0.75086029   -3.2919213   -1.8367552  0.040678259   -3.2919213    1.4551661   339830 
 5554000   0.75145254   -3.2905695   -1.8341743  0.040401691   -3.2905695    1.4563953   339811 
 5555000   0.75115287   -3.2925113   -1.8367354  0.040960432   -3.2925113    1.4557759   339820 
 5556000   0.75217672   -3.2937455    -1.835745  0.036568637   -3.2937455    1.4580005   339764 
 5557000   0.75213858   -3.2938575   -1.8358752  0.039831603   -3.2938575    1.4579823   339751 
 5558000   0.75109144   -3.2927668     -1.83669  0.041422997   -3.2927668    1.4560768   339722 
 5559000   0.75000171   -3.2909804   -1.8369948  0.035030891   -3.2909804    1.4539856   339717 
 5560000   0.75235557   -3.2939697   -1.8354294  0.037941778   -3.2939697    1.4585403   339719 
 5561000   0.75153912   -3.2933081   -1.8361705  0.042269421   -3.2933081    1.4571377   339677 
 5562000   0.75323201   -3.2951595   -1.8344686  0.045110763   -3.2951595    1.4606909   339614 
 5563000   0.75369939    -3.299088   -1.8372584     0.045191    -3.299088    1.4618297   339560 
 5564000   0.75159373   -3.2946865   -1.8369151  0.041826059   -3.2946865    1.4577714   339554 
 5565000   0.75049985   -3.2931905   -1.8375922  0.041829287   -3.2931905    1.4555983   339566 
 5566000   0.75029942   -3.2937829   -1.8384748  0.044093545   -3.2937829    1.4553082   339543 
 5567000   0.75046944   -3.2958063   -1.8400397  0.036543998   -3.2958063    1.4557666   339513 
 5568000    0.7494644   -3.2951964   -1.8414351  0.038602972   -3.2951964    1.4537613   339526 
 5569000    0.7514904   -3.2959195    -1.838078  0.039142087   -3.2959195    1.4578415   339491 
 5570000   0.75102136   -3.2943826   -1.8375841  0.038655108   -3.2943826    1.4567986   339522 
 5571000   0.74983874   -3.2910396   -1.8365693  0.041409728   -3.2910396    1.4544703   339530 
 5572000   0.75076279   -3.2923571     -1.83591  0.045099411   -3.2923571    1.4564471   339487 
 5573000   0.75037744   -3.2929509   -1.8370069  0.041530438   -3.2929509     1.455944   339430 
 5574000   0.75130779   -3.2958657   -1.8379662   0.04686273   -3.2958657    1.4578995   339395 
 5575000   0.75020993   -3.2931844   -1.8371793  0.042017302   -3.2931844    1.4560051   339340 
 5576000   0.74886659   -3.2916037   -1.8378931  0.042544877   -3.2916037    1.4537106   339267 
 5577000   0.74961556   -3.2929327    -1.837691  0.040591254   -3.2929327    1.4552418   339249 
 5578000   0.75026116   -3.2961103   -1.8393877  0.039629625   -3.2961103    1.4567227   339196 
 5579000   0.75089985   -3.2959736   -1.8378905   0.04361178   -3.2959736    1.4580831   339168 
 5580000   0.74888946   -3.2919144   -1.8376708  0.041333467   -3.2919144    1.4542437   339153 
 5581000   0.74921758   -3.2933239   -1.8383229  0.041347877   -3.2933239     1.455001   339125 
 5582000   0.74997008   -3.2943236   -1.8377625   0.04245873   -3.2943236    1.4565611   339102 
 5583000   0.74944433   -3.2959905   -1.8405148  0.039747769   -3.2959905    1.4554757   339117 
 5584000   0.74898455   -3.2939521   -1.8391377  0.045593386   -3.2939521    1.4548144   339063 
 5585000   0.74883378    -3.294944    -1.840401  0.039136141    -3.294944     1.454543   339058 
 5586000   0.74867717   -3.2944513   -1.8401224  0.036385791   -3.2944513    1.4543289   339037 
 5587000   0.74873415   -3.2956933   -1.8411078  0.041033169   -3.2956933    1.4545854   339003 
 5588000   0.74876555   -3.2955797   -1.8409118  0.041228487   -3.2955797    1.4546679   338998 
 5589000   0.74980181   -3.2983587   -1.8414026  0.037918014   -3.2983587    1.4569561   338934 
 5590000   0.74985559   -3.2961411   -1.8389859  0.045804187   -3.2961411    1.4571552   338912 
 5591000   0.74994947   -3.2972873   -1.8396271  0.038071073   -3.2972873    1.4576602   338837 
 5592000   0.74813704   -3.2933006   -1.8392361  0.040105643   -3.2933006    1.4540645   338854 
 5593000   0.74922961   -3.2947546   -1.8385236  0.040416649   -3.2947546     1.456231   338844 
 5594000   0.74870985   -3.2938391   -1.8384379    0.0466003   -3.2938391    1.4554011   338802 
 5595000   0.74808436   -3.2938375   -1.8397209  0.046248906   -3.2938375    1.4541166   338818 
 5596000   0.74970125   -3.2947338   -1.8372765  0.040986938   -3.2947338    1.4574574   338772 
 5597000   0.74792112   -3.2946309   -1.8405656  0.041083775   -3.2946309    1.4540654   338756 
 5598000   0.74810074   -3.2935318   -1.8389154  0.043276257   -3.2935318    1.4546164   338709 
 5599000    0.7474779   -3.2938741    -1.840267  0.041550011   -3.2938741     1.453607   338662 
 5600000   0.74760081   -3.2933625   -1.8394907  0.040591372   -3.2933625    1.4538718   338656 
 5601000   0.74879739   -3.2963904   -1.8400411  0.040066507   -3.2963904    1.4563493   338621 
 5602000   0.74843438   -3.2964756   -1.8407721  0.038812712   -3.2964756    1.4557035   338607 
 5603000   0.74670203   -3.2930548   -1.8405706  0.040275369   -3.2930548    1.4524842   338572 
 5604000    0.7466544   -3.2930912   -1.8407168  0.041768463   -3.2930912    1.4523744   338576 
 5605000   0.74613773   -3.2928458   -1.8413692  0.039635817   -3.2928458    1.4514766   338551 
 5606000    0.7458892   -3.2910977   -1.8398859  0.041674367   -3.2910977    1.4512117   338500 
 5607000    0.7470454   -3.2930969   -1.8396228  0.043071726   -3.2930969    1.4534741   338497 
 5608000   0.74789916   -3.2957966   -1.8404851  0.043833033   -3.2957966    1.4553115   338456 
 5609000   0.74846194   -3.2961491   -1.8396737  0.039538751   -3.2961491    1.4564754   338440 
 5610000   0.74836728   -3.2957661   -1.8391995   0.04677411   -3.2957661    1.4565667   338376 
 5611000   0.74854753   -3.2960392   -1.8389624  0.041748737   -3.2960392    1.4570768   338339 
 5612000   0.74807582   -3.2957942   -1.8397259  0.041315854   -3.2957942    1.4560682   338360 
 5613000   0.74836144   -3.2956058    -1.838874  0.040232081   -3.2956058    1.4567318   338335 
 5614000   0.74778143   -3.2944121   -1.8388137  0.043388633   -3.2944121    1.4555985   338336 
 5615000   0.74943779   -3.2968101   -1.8378494  0.043162153   -3.2968101    1.4589607   338304 
 5616000   0.74867916   -3.2958525   -1.8381058  0.038272803   -3.2958525    1.4577467   338243 
 5617000    0.7481449   -3.2938824   -1.8371803  0.045469944   -3.2938824    1.4567021   338244 
 5618000    0.7494081    -3.296998   -1.8376724  0.037181736    -3.296998    1.4593256   338206 
 5619000   0.74731012   -3.2943384   -1.8390164  0.043287344   -3.2943384     1.455322   338187 
 5620000   0.74787818   -3.2926454   -1.8362085  0.040934835   -3.2926454    1.4564368   338185 
 5621000   0.74737488   -3.2931598   -1.8375568  0.041347816   -3.2931598     1.455603   338151 
 5622000   0.74782073   -3.2934061   -1.8367279  0.040335507   -3.2934061    1.4566782   338103 
 5623000    0.7458829   -3.2910628   -1.8383054  0.039971878   -3.2910628    1.4527574   338137 
 5624000   0.74602289   -3.2905576   -1.8374846  0.037987878   -3.2905576     1.453073   338127 
 5625000   0.74503902   -3.2875039   -1.8362614  0.041184687   -3.2875039    1.4512425   338107 
 5626000   0.74680114   -3.2917266   -1.8367806  0.038533753   -3.2917266     1.454946   338044 
 5627000   0.74656469   -3.2905765   -1.8360955  0.040060229   -3.2905765     1.454481   338045 
 5628000   0.74642448   -3.2897357   -1.8355106  0.038855108   -3.2897357    1.4542251   338041 
 5629000   0.74631451   -3.2898212   -1.8357674  0.039308273   -3.2898212    1.4540538   338031 
 5630000   0.74611376   -3.2888654   -1.8351769  0.044685168   -3.2888654    1.4536885   338025 
 5631000   0.74571263   -3.2897654    -1.836794  0.042914012   -3.2897654    1.4529714   338010 
 5632000   0.74545971   -3.2884384   -1.8359082  0.044646286   -3.2884384    1.4525302   337998 
 5633000    0.7475571   -3.2908399   -1.8341497  0.045700751   -3.2908399    1.4566903   337981 
 5634000   0.74707233    -3.290468    -1.834675  0.038245688    -3.290468     1.455793   337970 
 5635000   0.74655306   -3.2890679   -1.8340973   0.03997669   -3.2890679    1.4549706   337926 
 5636000   0.74828249   -3.2923441   -1.8339253  0.040076904   -3.2923441    1.4584188   337908 
 5637000   0.74690293   -3.2902012   -1.8341912  0.037330854   -3.2902012      1.45601   337843 
 5638000   0.74750461   -3.2900865   -1.8327224  0.042235328   -3.2900865    1.4573641   337801 
 5639000   0.74858039   -3.2920503   -1.8323641    0.0482307   -3.2920503    1.4596862   337749 
 5640000   0.74735058    -3.291652   -1.8342689  0.039869342    -3.291652    1.4573831   337727 
 5641000   0.74590062   -3.2911236   -1.8363053  0.042637681   -3.2911236    1.4548183   337666 
 5642000   0.74617235   -3.2899444   -1.8344452  0.044465379   -3.2899444    1.4554992   337631 
 5643000   0.74700149   -3.2909722    -1.833778  0.043976894   -3.2909722    1.4571942   337613 
 5644000   0.74618316   -3.2893174   -1.8335169  0.044626155   -3.2893174    1.4558005   337566 
 5645000   0.74471479   -3.2889984   -1.8358517  0.041271613   -3.2889984    1.4531467   337517 
 5646000   0.74454415   -3.2903924   -1.8374667  0.042094622   -3.2903924    1.4529257   337491 
 5647000   0.74505728   -3.2911471   -1.8370434  0.041739171   -3.2911471    1.4541037   337450 
 5648000   0.74544739   -3.2894864   -1.8345179  0.041941062   -3.2894864    1.4549685   337426 
 5649000   0.74678398   -3.2907663   -1.8332539  0.044591912   -3.2907663    1.4575125   337441 
 5650000   0.74726446    -3.290612   -1.8321791  0.038463408    -3.290612    1.4584329   337445 
 5651000    0.7467978   -3.2898129   -1.8320575  0.042460742   -3.2898129    1.4577554   337391 
 5652000   0.74727473   -3.2898007   -1.8311662  0.042359036   -3.2898007    1.4586345   337403 
 5653000   0.74624971   -3.2887382    -1.831854  0.041964353   -3.2887382    1.4568842   337345 
 5654000   0.74556465   -3.2897295   -1.8338029  0.044028076   -3.2897295    1.4559266   337257 
 5655000   0.74703111   -3.2915459   -1.8327903  0.039849527   -3.2915459    1.4587556   337265 
 5656000   0.74700955   -3.2909155   -1.8321717  0.042088128   -3.2909155    1.4587438   337258 
 5657000   0.74497206   -3.2863412   -1.8315848  0.041078251   -3.2863412    1.4547564   337260 
 5658000    0.7448327   -3.2865054   -1.8319391  0.041744243   -3.2865054    1.4545662   337241 
 5659000   0.74462959    -3.287248    -1.832824   0.03910784    -3.287248     1.454424   337182 
 5660000   0.74379307   -3.2848682   -1.8321341  0.044367848   -3.2848682    1.4527341   337195 
 5661000   0.74513501   -3.2868558   -1.8313237  0.038748792   -3.2868558    1.4555321   337154 
 5662000   0.74581997   -3.2900127   -1.8328401  0.046608317   -3.2900127    1.4571726   337084 
 5663000   0.74512506   -3.2882632   -1.8324397  0.041889728   -3.2882632    1.4558236   337082 
 5664000   0.74559832   -3.2885571   -1.8318737  0.040360214   -3.2885571    1.4566834   337097 
 5665000    0.7456089   -3.2897082   -1.8328053  0.039246162   -3.2897082    1.4569029   337051 
 5666000   0.74544509   -3.2885103   -1.8318498  0.044302201   -3.2885103    1.4566606   337033 
 5667000   0.74769846   -3.2910118   -1.8298352  0.041062009   -3.2910118    1.4611766   337007 
 5668000   0.74618956   -3.2878054   -1.8294565  0.038556837   -3.2878054     1.458349   336979 
 5669000   0.74662429    -3.288163   -1.8288648  0.041574107    -3.288163    1.4592982   336956 
 5670000   0.74605309   -3.2891771   -1.8307053  0.039732982   -3.2891771    1.4584718   336889 
 5671000   0.74536642   -3.2901565   -1.8328714  0.037693588   -3.2901565    1.4572851   336853 
 5672000    0.7446494   -3.2863503   -1.8304281  0.040786397   -3.2863503    1.4559222   336844 
 5673000   0.74526506   -3.2880407   -1.8307374  0.041569383   -3.2880407    1.4573033   336803 
 5674000    0.7467815   -3.2896776   -1.8292486  0.044767565   -3.2896776     1.460429   336766 
 5675000   0.74623627   -3.2879985   -1.8286748  0.044966831   -3.2879985    1.4593237   336775 
 5676000   0.74511846   -3.2854244   -1.8283429  0.042675952   -3.2854244    1.4570815   336788 
 5677000    0.7455753   -3.2863153   -1.8282192  0.041900846   -3.2863153    1.4580961   336760 
 5678000   0.74481498   -3.2821987   -1.8256198   0.04388478   -3.2821987    1.4565789   336767 
 5679000   0.74608418    -3.287361   -1.8281397  0.040486803    -3.287361    1.4592213   336730 
 5680000   0.74523185   -3.2853379     -1.82771  0.040235782   -3.2853379    1.4576278   336713 
 5681000    0.7453898   -3.2852998    -1.827441  0.040234137   -3.2852998    1.4578588   336731 
 5682000   0.74594876   -3.2867154   -1.8275293  0.045850533   -3.2867154    1.4591861   336677 
 5683000   0.74558975   -3.2859122   -1.8274457  0.048846347   -3.2859122    1.4584665   336681 
 5684000   0.74436655   -3.2830533   -1.8267806  0.042247286   -3.2830533    1.4562727   336635 
 5685000   0.74367946   -3.2827049   -1.8275084  0.041153741   -3.2827049    1.4551965   336573 
 5686000   0.74369158    -3.285432   -1.8301729  0.038875172    -3.285432    1.4552592   336564 
 5687000    0.7438103   -3.2862199   -1.8304949  0.038673266   -3.2862199     1.455725   336510 
 5688000   0.74232728   -3.2845067   -1.8314251  0.043906552   -3.2845067    1.4530817   336450 
 5689000   0.74185902   -3.2845238   -1.8323329  0.039053795   -3.2845238    1.4521909   336444 
 5690000   0.74164936   -3.2836719   -1.8319949  0.038810592   -3.2836719     1.451677   336468 
 5691000   0.74353005   -3.2854942   -1.8299716  0.043111352   -3.2854942    1.4555226   336430 
 5692000   0.74394359   -3.2860863   -1.8294815  0.039085127   -3.2860863    1.4566049   336367 
 5693000   0.74368472   -3.2851432   -1.8289673  0.042937193   -3.2851432    1.4561759   336349 
 5694000   0.74425289   -3.2867355   -1.8293258  0.048170078   -3.2867355    1.4574098   336321 
 5695000   0.74415915   -3.2869577   -1.8297098  0.049058506   -3.2869577    1.4572479   336316 
 5696000   0.74453189   -3.2879506   -1.8300335  0.046657497   -3.2879506    1.4579171   336330 
 5697000   0.74313101   -3.2857853   -1.8302435  0.042103019   -3.2857853    1.4555418   336245 
 5698000   0.74243765   -3.2857389   -1.8313303  0.044509511   -3.2857389    1.4544087   336193 
 5699000   0.74187183   -3.2864472   -1.8331124  0.037432437   -3.2864472    1.4533348   336185 
 5700000    0.7417076   -3.2851021   -1.8317864  0.041315956   -3.2851021    1.4533157   336115 
 5701000   0.74279648   -3.2870784   -1.8314212  0.045479664   -3.2870784    1.4556572   336067 
 5702000   0.74211437   -3.2880181   -1.8334379  0.037992328   -3.2880181    1.4545801   336007 
 5703000   0.74305329   -3.2879575   -1.8315283  0.040491041   -3.2879575    1.4564291   336005 
 5704000   0.74302614    -3.286923   -1.8305211  0.044025238    -3.286923    1.4564019   335999 
 5705000   0.74309596   -3.2878803   -1.8313285   0.04459086   -3.2878803    1.4565518   335996 
 5706000   0.74165802   -3.2858446   -1.8319079  0.045692231   -3.2858446    1.4539366   335949 
 5707000   0.74241789   -3.2884139   -1.8329356  0.042542403   -3.2884139    1.4554782   335937 
 5708000   0.74199942   -3.2869949   -1.8323284  0.042284104   -3.2869949    1.4546665   335935 
 5709000   0.74159581   -3.2864378   -1.8324068   0.04771309   -3.2864378    1.4540311   335899 
 5710000   0.74285281   -3.2887228   -1.8322011  0.038545965   -3.2887228    1.4565217   335893 
 5711000   0.74383137   -3.2903686   -1.8317328  0.043721778   -3.2903686    1.4586358   335848 
 5712000   0.74350278   -3.2891877     -1.83104  0.042614893   -3.2891877    1.4581477   335812 
 5713000   0.74247917   -3.2888261   -1.8324994  0.042184227   -3.2888261    1.4563267   335769 
 5714000   0.74262744   -3.2884475   -1.8318864  0.038533709   -3.2884475    1.4565611   335782 
 5715000   0.74011299   -3.2859662   -1.8339953  0.048025455   -3.2859662     1.451971   335703 
 5716000   0.74113655   -3.2864947   -1.8325503  0.039034106   -3.2864947    1.4539444   335711 
 5717000   0.74197956   -3.2872298   -1.8314625   0.04268994   -3.2872298    1.4557673   335672 
 5718000   0.74172276   -3.2870356   -1.8315554  0.041599009   -3.2870356    1.4554803   335622 
 5719000   0.74125305   -3.2875554   -1.8329405   0.04128022   -3.2875554    1.4546149   335609 
 5720000   0.73993118   -3.2860943   -1.8337748  0.041926708   -3.2860943    1.4523195   335540 
 5721000   0.74099033   -3.2878755   -1.8331997  0.037274629   -3.2878755    1.4546758   335476 
 5722000   0.74054397   -3.2870354   -1.8332922   0.04052607   -3.2870354    1.4537432   335489 
 5723000   0.74103304   -3.2865351   -1.8316063  0.041602854   -3.2865351    1.4549288   335437 
 5724000   0.74172339    -3.288393   -1.8319047  0.038767468    -3.288393    1.4564883   335390 
 5725000   0.73949098   -3.2837452    -1.831489   0.04221479   -3.2837452    1.4522562   335355 
 5726000   0.74006819   -3.2867774   -1.8329412    0.0460376   -3.2867774    1.4538362   335252 
 5727000   0.74126352   -3.2872609   -1.8310026  0.039376825   -3.2872609    1.4562583   335235 
 5728000   0.74104013    -3.288551   -1.8326795  0.039430771    -3.288551    1.4558715   335223 
 5729000   0.74003169     -3.28668   -1.8325598  0.036158233     -3.28668    1.4541202   335170 
 5730000   0.73927581   -3.2867446   -1.8338582  0.038643774   -3.2867446    1.4528864   335112 
 5731000   0.74055794   -3.2891182   -1.8336903  0.038931561   -3.2891182    1.4554278   335107 
 5732000    0.7389234   -3.2874261     -1.83515  0.041695005   -3.2874261    1.4522761   335093 
 5733000   0.73968951   -3.2863024   -1.8326247  0.044388164   -3.2863024    1.4536777   335117 
 5734000   0.74111594   -3.2888516    -1.832401  0.044294367   -3.2888516    1.4564506   335124 
 5735000   0.74201924   -3.2903869    -1.832048  0.042753073   -3.2903869    1.4583389   335098 
 5736000   0.74240458   -3.2911537   -1.8319268  0.039436319   -3.2911537    1.4592269   335068 
 5737000   0.74112735   -3.2866748   -1.8298583  0.041598522   -3.2866748    1.4568164   335045 
 5738000    0.7414842   -3.2885419   -1.8308326  0.040637803   -3.2885419    1.4577093   335001 
 5739000   0.74025789    -3.288074   -1.8326235  0.044538861    -3.288074    1.4554505   334966 
 5740000   0.74028452    -3.287354    -1.831799  0.039018558    -3.287354     1.455555   334954 
 5741000   0.74099579   -3.2877486    -1.830521   0.04023141   -3.2877486    1.4572276   334891 
 5742000   0.73960283    -3.285632   -1.8311438  0.038470619    -3.285632    1.4544883   334891 
 5743000    0.7404414   -3.2859976   -1.8296515  0.045757221   -3.2859976    1.4563461   334843 
 5744000   0.73898343   -3.2829402   -1.8293879   0.04033229   -3.2829402    1.4535523   334826 
 5745000   0.74059038   -3.2860139   -1.8290571  0.043852248   -3.2860139    1.4569568   334770 
 5746000   0.74020467   -3.2845916   -1.8284415   0.04374978   -3.2845916    1.4561501   334781 
 5747000   0.74096464   -3.2850626   -1.8271648  0.041386219   -3.2850626    1.4578977   334723 
 5748000   0.74034697   -3.2831084   -1.8262476  0.036016553   -3.2831084    1.4568609   334682 
 5749000   0.73891643   -3.2812498   -1.8270606  0.037684306   -3.2812498    1.4541892   334649 
 5750000   0.73947517   -3.2815388   -1.8261369  0.041886658   -3.2815388    1.4554019   334623 
 5751000   0.73978154   -3.2810623   -1.8250791  0.042631509   -3.2810623    1.4559831   334628 
 5752000   0.73835315     -3.27953    -1.826167  0.038475641     -3.27953     1.453363   334584 
 5753000   0.73941706   -3.2827762   -1.8271015  0.040959831   -3.2827762    1.4556747   334534 
 5754000   0.73736357   -3.2787867   -1.8271634  0.038685637   -3.2787867    1.4516234   334536 
 5755000   0.73806714   -3.2788534   -1.8257885  0.041752252   -3.2788534    1.4530649   334523 
 5756000    0.7371715   -3.2761844   -1.8248524  0.035978413   -3.2761844     1.451332   334516 
 5757000   0.73811087   -3.2772976   -1.8237599  0.042157969   -3.2772976    1.4535377   334434 
 5758000   0.73875381   -3.2784802   -1.8235415  0.039369877   -3.2784802    1.4549387   334403 
 5759000   0.73915006   -3.2800912    -1.824124  0.036949345   -3.2800912    1.4559673   334346 
 5760000   0.73820519   -3.2792691    -1.824976  0.037251902   -3.2792691    1.4542931   334303 
 5761000   0.73732679   -3.2791553   -1.8262797  0.041306879   -3.2791553    1.4528756   334231 
 5762000   0.73834107   -3.2802876   -1.8253307  0.043678004   -3.2802876    1.4549569   334212 
 5763000   0.73798882   -3.2802595   -1.8259228  0.040245429   -3.2802595    1.4543367   334195 
 5764000    0.7374121   -3.2798865   -1.8266472  0.040092146   -3.2798865    1.4532393   334186 
 5765000   0.73749339   -3.2801278   -1.8266456  0.040573741   -3.2801278    1.4534822   334167 
 5766000   0.73852332   -3.2814236   -1.8258811  0.042756685   -3.2814236    1.4555425   334160 
 5767000   0.73897101   -3.2809084   -1.8244748  0.042269869   -3.2809084    1.4564335   334158 
 5768000   0.73921084   -3.2837461   -1.8264779  0.038397662   -3.2837461    1.4572682   334075 
 5769000   0.74040807   -3.2856619   -1.8257057  0.042449484   -3.2856619    1.4599561   334000 
 5770000   0.73997473   -3.2843578   -1.8253784  0.043066996   -3.2843578    1.4589794   334028 
 5771000   0.73924848   -3.2822568   -1.8246701  0.046123164   -3.2822568    1.4575867   334019 
 5772000   0.73750581   -3.2829338   -1.8287178  0.045391478   -3.2829338     1.454216   334004 
 5773000    0.7375335   -3.2827019   -1.8282702  0.040529046   -3.2827019    1.4544317   333967 
 5774000   0.73894298   -3.2833337   -1.8260046  0.039760746   -3.2833337     1.457329   333940 
 5775000   0.73772571   -3.2834806   -1.8283082  0.045575991   -3.2834806    1.4551724   333884 
 5776000   0.73806305   -3.2847937   -1.8289124  0.039049757   -3.2847937    1.4558814   333874 
 5777000   0.73818129   -3.2826015   -1.8264389  0.041079978   -3.2826015    1.4561626   333863 
 5778000   0.73803426   -3.2829563   -1.8268613  0.040762278   -3.2829563     1.456095   333812 
 5779000   0.74013461   -3.2866271   -1.8262963  0.044166527   -3.2866271    1.4603307   333791 
 5780000   0.73893796   -3.2863744   -1.8282081  0.041963182   -3.2863744    1.4581662   333746 
 5781000   0.73863326   -3.2866844   -1.8290758   0.04250358   -3.2866844    1.4576086   333736 
 5782000    0.7370898    -3.284993   -1.8301207  0.042823664    -3.284993    1.4548723   333665 
 5783000   0.73809008   -3.2853407   -1.8284591  0.040621925   -3.2853407    1.4568816   333657 
 5784000   0.73709756   -3.2821024   -1.8269574  0.039883032   -3.2821024    1.4551449   333606 
 5785000   0.73695281   -3.2832867    -1.828096  0.042789239   -3.2832867    1.4551907   333530 
 5786000   0.73700508   -3.2828716   -1.8274817  0.040697581   -3.2828716    1.4553899   333508 
 5787000   0.73750199   -3.2837312   -1.8273207  0.046578088   -3.2837312    1.4564105   333499 
 5788000   0.73750802   -3.2839654   -1.8276304  0.039276962   -3.2839654     1.456335   333519 
 5789000   0.73865518   -3.2863943   -1.8276496  0.038399198   -3.2863943    1.4587446   333486 
 5790000   0.73840364   -3.2851523   -1.8268563  0.042972377   -3.2851523     1.458296   333475 
 5791000   0.73741115   -3.2848252   -1.8284019  0.036174706   -3.2848252    1.4564232   333455 
 5792000   0.73712523   -3.2859419   -1.8299568  0.039229782   -3.2859419    1.4559852   333426 
 5793000   0.73610224   -3.2838073   -1.8296421  0.042753361   -3.2838073    1.4541651   333380 
 5794000   0.73734354   -3.2850651   -1.8282642  0.043985892   -3.2850651    1.4568009   333338 
 5795000   0.73680688   -3.2846314   -1.8289651  0.043252912   -3.2846314    1.4556663   333355 
 5796000   0.73661952    -3.284304   -1.8289118  0.040645315    -3.284304    1.4553922   333333 
 5797000   0.73582653   -3.2835423   -1.8294857  0.044807458   -3.2835423    1.4540566   333280 
 5798000   0.73459164   -3.2839416   -1.8320202  0.036686068   -3.2839416    1.4519213   333210 
 5799000   0.73672237   -3.2884051   -1.8322243  0.039803296   -3.2884051    1.4561808   333199 
 5800000   0.73684141    -3.285732   -1.8292328  0.039371807    -3.285732    1.4564991   333180 
 5801000   0.73667222   -3.2850379   -1.8286546  0.045402224   -3.2850379    1.4563833   333130 
 5802000   0.73566803   -3.2825188   -1.8278807  0.040230738   -3.2825188    1.4546382   333075 
 5803000   0.73589593   -3.2840372   -1.8288828  0.041701386   -3.2840372    1.4551543   333060 
 5804000   0.73529788   -3.2850524    -1.830858  0.041703415   -3.2850524    1.4541944   333009 
 5805000   0.73741145    -3.287199   -1.8289779  0.043681741    -3.287199    1.4582211   333044 
 5806000   0.73665536    -3.284504   -1.8276992  0.041511695    -3.284504    1.4568047   333026 
 5807000   0.73583468   -3.2843951   -1.8290603  0.044453698   -3.2843951    1.4553347   332991 
 5808000   0.73481104   -3.2837038   -1.8303194  0.039824434   -3.2837038    1.4533844   332974 
 5809000   0.73447413    -3.284233   -1.8314975  0.039335237    -3.284233    1.4527354   332970 
 5810000   0.73490293   -3.2837408   -1.8300525  0.042673617   -3.2837408    1.4536884   332946 
 5811000   0.73598962   -3.2841821   -1.8281562   0.04476572   -3.2841821    1.4560259   332903 
 5812000   0.73666931   -3.2853843   -1.8278823  0.041663465   -3.2853843    1.4575019   332873 
 5813000   0.73797644   -3.2873318   -1.8271121  0.042219462   -3.2873318    1.4602197   332843 
 5814000   0.73596168   -3.2846256    -1.828073  0.043066513   -3.2846256    1.4565526   332770 
 5815000   0.73629452   -3.2841928   -1.8268807   0.04291964   -3.2841928     1.457312   332747 
 5816000   0.73565841   -3.2825195   -1.8261207  0.045911228   -3.2825195    1.4563988   332668 
 5817000   0.73575321   -3.2846113   -1.8279022  0.044467461   -3.2846113    1.4567091   332640 
 5818000   0.73673739   -3.2847992   -1.8261064  0.044469233   -3.2847992    1.4586927   332632 
 5819000   0.73586721   -3.2839093   -1.8268344  0.037602605   -3.2839093     1.457075   332608 
 5820000   0.73580863   -3.2836631   -1.8266121  0.039149238   -3.2836631     1.457051   332587 
 5821000   0.73442573   -3.2806441   -1.8261566  0.051036761   -3.2806441    1.4544875   332547 
 5822000   0.73502194    -3.281605    -1.825823  0.041745778    -3.281605     1.455782   332521 
 5823000   0.73576589    -3.281577   -1.8243785  0.045336947    -3.281577    1.4571985   332534 
 5824000   0.73541731    -3.281214   -1.8246095  0.043248254    -3.281214    1.4566045   332512 
 5825000   0.73579571   -3.2810023   -1.8236395  0.042377941   -3.2810023    1.4573628   332510 
 5826000   0.73516447   -3.2789749   -1.8226478  0.040727985   -3.2789749    1.4563271   332461 
 5827000   0.73416978   -3.2783106   -1.8237395  0.043836694   -3.2783106    1.4545711   332412 
 5828000   0.73512251   -3.2792908   -1.8228234  0.039359972   -3.2792908    1.4564674   332410 
 5829000   0.73511088   -3.2782238   -1.8216567  0.040729769   -3.2782238    1.4565671   332382 
 5830000   0.73481894   -3.2775189   -1.8214427  0.043463366   -3.2775189    1.4560762   332362 
 5831000   0.73396401   -3.2771658   -1.8227836  0.041021801   -3.2771658    1.4543821   332362 
 5832000     0.733908   -3.2784544   -1.8240782   0.03664508   -3.2784544    1.4543762   332338 
 5833000    0.7343312   -3.2785489   -1.8232159  0.042316172   -3.2785489    1.4553331   332311 
 5834000    0.7345393   -3.2780878   -1.8220663  0.035248956   -3.2780878    1.4560215   332248 
 5835000   0.73317507   -3.2777902   -1.8244116  0.040281582   -3.2777902    1.4533786   332234 
 5836000   0.73339695   -3.2755238   -1.8216704  0.044756733   -3.2755238    1.4538534   332226 
 5837000   0.73366752   -3.2760815   -1.8215079  0.041895955   -3.2760815    1.4545736   332184 
 5838000   0.73464488   -3.2787776   -1.8220645   0.04101265   -3.2787776    1.4567131   332138 
 5839000   0.73463282   -3.2802625   -1.8233672  0.041452324   -3.2802625    1.4568953   332091 
 5840000   0.73412966   -3.2786947   -1.8228279  0.043433074   -3.2786947    1.4558668   332098 
 5841000   0.73478892   -3.2799634   -1.8227453  0.044764126   -3.2799634    1.4572181   332088 
 5842000   0.73254791   -3.2774672   -1.8243653  0.042126778   -3.2774672    1.4531019   332013 
 5843000   0.73305487   -3.2793112   -1.8250723  0.038757949   -3.2793112    1.4542389   331983 
 5844000   0.73420485   -3.2820926   -1.8254451  0.042761892   -3.2820926    1.4566475   331954 
 5845000   0.73296227   -3.2797044   -1.8253381  0.041828298   -3.2797044    1.4543663   331912 
 5846000   0.73438295   -3.2819919   -1.8246925  0.042654188   -3.2819919    1.4572994   331886 
 5847000   0.73389911   -3.2821229   -1.8256607  0.043723835   -3.2821229    1.4564621   331858 
 5848000   0.73546731   -3.2840426   -1.8243319  0.046366456   -3.2840426    1.4597107   331827 
 5849000   0.73556634   -3.2853716   -1.8252839  0.043393295   -3.2853716    1.4600876   331786 
 5850000   0.73447796   -3.2846537   -1.8265067  0.042445967   -3.2846537     1.458147   331736 
 5851000   0.73381182   -3.2839601   -1.8268853   0.03994688   -3.2839601    1.4570748   331679 
 5852000   0.73339127   -3.2826361   -1.8264621  0.041090506   -3.2826361    1.4561739   331694 
 5853000   0.73409708   -3.2855489   -1.8278725   0.04223321   -3.2855489    1.4576764   331671 
 5854000   0.73416491   -3.2857622    -1.827784  0.043126942   -3.2857622    1.4579782   331633 
 5855000   0.73253614   -3.2822724   -1.8275902  0.044389191   -3.2822724    1.4546822   331647 
 5856000   0.73311272    -3.281473   -1.8254966  0.045432143    -3.281473    1.4559764   331613 
 5857000   0.73270358   -3.2825309   -1.8271915  0.043658304   -3.2825309    1.4553394   331573 
 5858000   0.73377297   -3.2850036    -1.827228  0.041674971   -3.2850036    1.4577756   331502 
 5859000   0.73236349    -3.282432   -1.8273995  0.042446222    -3.282432    1.4550325   331489 
 5860000   0.73358284   -3.2859892   -1.8283671  0.042253927   -3.2859892    1.4576222   331451 
 5861000   0.73229048   -3.2828213   -1.8275431  0.044197507   -3.2828213    1.4552782   331400 
 5862000   0.73119372    -3.282205   -1.8289661  0.041363007    -3.282205    1.4532389   331368 
 5863000    0.7324241   -3.2816386   -1.8260773  0.041043739   -3.2816386    1.4555613   331396 
 5864000   0.73217829   -3.2812381   -1.8260687  0.043810759   -3.2812381    1.4551694   331374 
 5865000   0.73321978   -3.2813198   -1.8238958    0.0502234   -3.2813198     1.457424   331332 
 5866000    0.7333427   -3.2799227   -1.8223071  0.041510754   -3.2799227    1.4576156   331344 
 5867000   0.73393229   -3.2824244   -1.8232142  0.044189299   -3.2824244    1.4592102   331248 
 5868000   0.73378793   -3.2811618   -1.8220403  0.041236817   -3.2811618    1.4591214   331203 
 5869000   0.73137367   -3.2786491   -1.8241791  0.040226029   -3.2786491      1.45447   331169 
 5870000   0.73291447   -3.2803307   -1.8226733  0.037883345   -3.2803307    1.4576574   331141 
 5871000   0.73262297   -3.2789102   -1.8217401  0.047273857   -3.2789102    1.4571701   331120 
 5872000   0.73308309   -3.2800011   -1.8217044    0.0462867   -3.2800011    1.4582967   331072 
 5873000   0.73143743   -3.2759806    -1.820729  0.042861957   -3.2759806    1.4552516   331020 
 5874000   0.73231745   -3.2760159   -1.8187934  0.041061083   -3.2760159    1.4572226   330970 
 5875000   0.73216884   -3.2761921    -1.819164   0.04297121   -3.2761921    1.4570281   330947 
 5876000   0.73362884   -3.2781294   -1.8180768  0.042949367   -3.2781294    1.4600526   330920 
 5877000   0.73214125   -3.2758065   -1.8185911  0.041298807   -3.2758065    1.4572154   330892 
 5878000   0.73219836   -3.2765106   -1.8190274  0.039523014   -3.2765106    1.4574832   330857 
 5879000   0.73166131   -3.2767511   -1.8201168   0.03581866   -3.2767511    1.4566343   330807 
 5880000   0.73151256   -3.2764955    -1.819968  0.036868659   -3.2764955    1.4565275   330764 
 5881000    0.7310694   -3.2742123   -1.8183999  0.040290221   -3.2742123    1.4558123   330726 
 5882000    0.7297681   -3.2724964    -1.819003  0.038667682   -3.2724964    1.4534935   330664 
 5883000   0.73033279   -3.2756755   -1.8207757  0.036665517   -3.2756755    1.4548998   330600 
 5884000   0.73112573   -3.2774932    -1.820648  0.039301589   -3.2774932    1.4568452   330517 
 5885000   0.72899421   -3.2777488   -1.8251114   0.04129925   -3.2777488    1.4526374   330508 
 5886000   0.72901503   -3.2771808   -1.8241722   0.03933965   -3.2771808    1.4530086   330433 
 5887000   0.72975734   -3.2784954   -1.8237255  0.041405941   -3.2784954    1.4547699   330369 
 5888000   0.72985044   -3.2782837   -1.8231035   0.04011845   -3.2782837    1.4551802   330318 
 5889000   0.72973838    -3.278831   -1.8235482  0.045274855    -3.278831    1.4552828   330244 
 5890000   0.73073466   -3.2782024    -1.820946  0.041245414   -3.2782024    1.4572564   330247 
 5891000   0.73087728   -3.2791692   -1.8215931  0.045284624   -3.2791692    1.4575761   330239 
 5892000   0.72990498   -3.2784911   -1.8226071  0.047260207   -3.2784911    1.4558839   330183 
 5893000   0.73023077   -3.2819925   -1.8252734  0.045343488   -3.2819925    1.4567191   330141 
 5894000    0.7305565   -3.2836243   -1.8259596  0.038042647   -3.2836243    1.4576647   330074 
 5895000   0.73020932   -3.2832115   -1.8258863  0.042125929   -3.2832115    1.4573252   329994 
 5896000   0.73004804   -3.2823121   -1.8250703  0.046191708   -3.2823121    1.4572417   329940 
 5897000   0.73017095   -3.2820419   -1.8245239  0.044659342   -3.2820419     1.457518   329933 
 5898000   0.72959955   -3.2826774   -1.8261631    0.0418424   -3.2826774    1.4565143   329902 
 5899000   0.72876074   -3.2828355   -1.8279605  0.042336883   -3.2828355     1.454875   329894 
 5900000   0.72837568   -3.2821521   -1.8279797  0.041293806   -3.2821521    1.4541724   329879 
 5901000   0.72857812   -3.2837598   -1.8289098  0.044232281   -3.2837598      1.45485   329817 
 5902000   0.72869311   -3.2840922   -1.8286948  0.044462441   -3.2840922    1.4553973   329745 
 5903000   0.72980904   -3.2847431   -1.8269091  0.045691663   -3.2847431    1.4578339   329698 
 5904000   0.72932868   -3.2834247    -1.826537  0.045640167   -3.2834247    1.4568877   329695 
 5905000   0.72875923   -3.2817454   -1.8258849  0.042408751   -3.2817454    1.4558605   329670 
 5906000   0.73015351   -3.2833579    -1.824535  0.039432672   -3.2833579    1.4588229   329630 
 5907000   0.72742942   -3.2791744    -1.825653  0.041906124   -3.2791744    1.4535214   329598 
 5908000   0.72844822   -3.2812183   -1.8253652  0.042729956   -3.2812183    1.4558531   329531 
 5909000    0.7284019   -3.2811305   -1.8251933  0.039537099   -3.2811305    1.4559372   329491 
 5910000   0.72789254   -3.2798966   -1.8250923  0.038434454   -3.2798966    1.4548043   329517 
 5911000   0.72763236   -3.2806009   -1.8265416  0.042124269   -3.2806009    1.4540592   329568 
 5912000   0.72766961   -3.2811382   -1.8266691  0.038392207   -3.2811382    1.4544691   329492 
 5913000    0.7264844   -3.2767315   -1.8243625  0.040423043   -3.2767315     1.452369   329431 
 5914000   0.72758915   -3.2785633   -1.8238445  0.039764815   -3.2785633    1.4547189   329399 
 5915000   0.72741729   -3.2783277   -1.8237803  0.037610287   -3.2783277    1.4545475   329360 
 5916000   0.72733269   -3.2769785   -1.8225031  0.037373319   -3.2769785    1.4544755   329338 
 5917000   0.72798289   -3.2764376   -1.8207459  0.040542027   -3.2764376    1.4556917   329357 
 5918000   0.72823651   -3.2778585   -1.8214076  0.043458484   -3.2778585    1.4564509   329300 
 5919000   0.72729153   -3.2776617   -1.8229417  0.044155531   -3.2776617      1.45472   329264 
 5920000   0.72648168   -3.2756705   -1.8225174  0.040194948   -3.2756705    1.4531531   329252 
 5921000   0.72750021   -3.2745666   -1.8192392  0.043738963   -3.2745666    1.4553275   329221 
 5922000   0.72709398   -3.2759406   -1.8211386  0.043155656   -3.2759406    1.4548021   329156 
 5923000   0.72783131   -3.2777565   -1.8213464  0.042295361   -3.2777565    1.4564101   329126 
 5924000   0.72784847    -3.278779   -1.8223302  0.045149606    -3.278779    1.4564488   329125 
 5925000   0.72686008   -3.2764218   -1.8218536   0.04219921   -3.2764218    1.4545683   329103 
 5926000   0.72701721   -3.2762307   -1.8212596  0.040330857   -3.2762307    1.4549711   329083 
 5927000   0.72747023   -3.2759788   -1.8202382  0.040260241   -3.2759788    1.4557406   329114 
 5928000    0.7259222   -3.2742091   -1.8213852  0.041355864   -3.2742091    1.4528238   329073 
 5929000   0.72508564   -3.2729195   -1.8216464  0.038334007   -3.2729195    1.4512731   329045 
 5930000   0.72542612   -3.2729907   -1.8209302  0.037170066   -3.2729907    1.4520605   329021 
 5931000   0.72541466   -3.2750336   -1.8226959   0.03957814   -3.2750336    1.4523377   328953 
 5932000   0.72606904   -3.2761612   -1.8224427   0.03841009   -3.2761612    1.4537185   328937 
 5933000   0.72541962   -3.2763935   -1.8240414  0.036096298   -3.2763935     1.452352   328952 
 5934000   0.72486405   -3.2735829    -1.822202  0.042507745   -3.2735829    1.4513809   328920 
 5935000   0.72617027   -3.2748993   -1.8207438  0.039759998   -3.2748993    1.4541555   328884 
 5936000    0.7271249   -3.2755335   -1.8194353  0.041478179   -3.2755335    1.4560981   328877 
 5937000    0.7281612   -3.2773901   -1.8190882  0.039813138   -3.2773901     1.458302   328848 
 5938000   0.72854215   -3.2781227   -1.8190666  0.042953018   -3.2781227     1.459056   328850 
 5939000   0.72823284   -3.2776554   -1.8189837   0.04364465   -3.2776554    1.4586717   328797 
 5940000   0.72821315   -3.2777902   -1.8191181  0.043125293   -3.2777902    1.4586722   328788 
 5941000   0.72807726   -3.2786952   -1.8200113  0.044362207   -3.2786952    1.4586839   328724 
 5942000   0.72670242   -3.2763059   -1.8204916  0.039864439   -3.2763059    1.4558143   328750 
 5943000    0.7255835   -3.2740526   -1.8205418  0.046632877   -3.2740526    1.4535108   328764 
 5944000   0.72621705   -3.2774125   -1.8223891  0.045141225   -3.2774125    1.4550234   328709 
 5945000   0.72615972   -3.2772122    -1.822131  0.045766397   -3.2772122    1.4550812   328670 
 5946000   0.72710313   -3.2762249   -1.8193154   0.03834641   -3.2762249    1.4569095   328684 
 5947000   0.72565478   -3.2736229     -1.81958  0.045139255   -3.2736229    1.4540428   328676 
 5948000   0.72598572   -3.2747808   -1.8199731  0.039879029   -3.2747808    1.4548078   328653 
 5949000   0.72637183   -3.2748933   -1.8193295  0.042895725   -3.2748933    1.4555638   328657 
 5950000   0.72691809   -3.2753362   -1.8187132  0.042064947   -3.2753362    1.4566229   328665 
 5951000   0.72636465   -3.2734727   -1.8177993   0.03965235   -3.2734727    1.4556734   328629 
 5952000   0.72562789   -3.2707473   -1.8165416  0.039100984   -3.2707473    1.4542058   328627 
 5953000   0.72673336   -3.2727555    -1.816126  0.044147524   -3.2727555    1.4566295   328580 
 5954000   0.72630109   -3.2735479   -1.8176475  0.039638716   -3.2735479    1.4559004   328549 
 5955000   0.72614713   -3.2717295   -1.8160181  0.041965015   -3.2717295    1.4557114   328522 
 5956000   0.72504329   -3.2715126   -1.8179078  0.044029259   -3.2715126    1.4536048   328498 
 5957000   0.72572082   -3.2734837    -1.818432  0.038112617   -3.2734837    1.4550517   328478 
 5958000   0.72564157   -3.2730082   -1.8180136  0.043294152   -3.2730082    1.4549947   328455 
 5959000   0.72473657   -3.2711498   -1.8179388  0.040102253   -3.2711498     1.453211   328448 
 5960000   0.72642123   -3.2745399   -1.8180085  0.037055615   -3.2745399    1.4565314   328461 
 5961000   0.72492153    -3.270608   -1.8171101  0.038487491    -3.270608    1.4534978   328467 
 5962000   0.72546647   -3.2710238   -1.8165396   0.04432293   -3.2710238    1.4544842   328491 
 5963000   0.72652885   -3.2726035   -1.8159362  0.045346417   -3.2726035    1.4566674   328479 
 5964000   0.72703244   -3.2751891    -1.817339  0.039858789   -3.2751891    1.4578501   328440 
 5965000   0.72735809   -3.2751635   -1.8164205  0.037667902   -3.2751635     1.458743   328386 
 5966000   0.72684484   -3.2724897   -1.8149181   0.04532851   -3.2724897    1.4575716   328418 
 5967000   0.72640765   -3.2709129   -1.8140939  0.044658873   -3.2709129    1.4568191   328390 
 5968000   0.72648737   -3.2724099   -1.8153599  0.042198665   -3.2724099    1.4570499   328374 
 5969000   0.72569129   -3.2707837   -1.8150334  0.043151901   -3.2707837    1.4557503   328307 
 5970000   0.72528185    -3.271353   -1.8161847  0.042052234    -3.271353    1.4551683   328253 
 5971000    0.7249053   -3.2719831   -1.8174196  0.039691354   -3.2719831    1.4545635   328219 
 5972000   0.72429707   -3.2706602   -1.8173083   0.04114574   -3.2706602    1.4533519   328217 
 5973000   0.72467995   -3.2708079   -1.8165371  0.045339864   -3.2708079    1.4542708   328183 
 5974000   0.72376622    -3.270365    -1.817733  0.041886386    -3.270365    1.4526319   328139 
 5975000   0.72451767   -3.2739071   -1.8198335  0.040487439   -3.2739071    1.4540737   328154 
 5976000   0.72450919   -3.2733251   -1.8190868  0.043723638   -3.2733251    1.4542384   328113 
 5977000   0.72672974   -3.2788499   -1.8199633  0.041337229   -3.2788499    1.4588866   328070 
 5978000   0.72510808    -3.275263   -1.8193921  0.036547205    -3.275263    1.4558708   328016 
 5979000   0.72582314   -3.2760388   -1.8187456   0.04171249   -3.2760388    1.4572932   328019 
 5980000   0.72484564    -3.274191   -1.8187849  0.040366107    -3.274191     1.455406   328002 
 5981000   0.72538798   -3.2759351   -1.8193025  0.039338233   -3.2759351    1.4566327   327971 
 5982000   0.72351565   -3.2748242   -1.8220399  0.044303069   -3.2748242    1.4527843   327991 
 5983000   0.72589258   -3.2787608   -1.8210215  0.040315129   -3.2787608    1.4577393   327950 
 5984000   0.72610701   -3.2770953   -1.8187698   0.04416292   -3.2770953    1.4583255   327915 
 5985000   0.72575433   -3.2776736    -1.819763  0.044681777   -3.2776736    1.4579106   327849 
 5986000   0.72618364   -3.2772674   -1.8182941  0.044011466   -3.2772674    1.4589733   327804 
 5987000   0.72503201   -3.2768578   -1.8199983  0.041063915   -3.2768578    1.4568596   327759 
 5988000   0.72436518   -3.2776074   -1.8218434  0.047391793   -3.2776074    1.4557639   327704 
 5989000   0.72408757   -3.2773678   -1.8221085  0.042336124   -3.2773678    1.4552593   327692 
 5990000   0.72428999   -3.2768409   -1.8212014  0.044420128   -3.2768409    1.4556395   327698 
 5991000   0.72378186   -3.2759581   -1.8213221  0.043579935   -3.2759581     1.454636   327694 
 5992000   0.72352886   -3.2754244   -1.8212791  0.044916239   -3.2754244    1.4541453   327690 
 5993000   0.72501313   -3.2778807   -1.8205877  0.046804387   -3.2778807    1.4572929   327653 
 5994000   0.72456046    -3.276327   -1.8198995  0.039413752    -3.276327    1.4564275   327643 
 5995000   0.72417798   -3.2755818   -1.8197098  0.041786136   -3.2755818     1.455872   327595 
 5996000   0.72498083   -3.2764438   -1.8190023  0.044687441   -3.2764438    1.4574415   327605 
 5997000   0.72525068   -3.2768236   -1.8188085  0.043897727   -3.2768236    1.4580152   327598 
 5998000   0.72519239   -3.2760101   -1.8180498  0.043212331   -3.2760101    1.4579603   327584 
 5999000   0.72368661   -3.2754217   -1.8204843  0.037677175   -3.2754217    1.4549374   327583 
 6000000   0.72470308   -3.2756088   -1.8184632  0.040373862   -3.2756088    1.4571456   327546 
 6001000   0.72507132   -3.2752601   -1.8173563    0.0418279   -3.2752601    1.4579038   327542 
 6002000   0.72381553   -3.2743757   -1.8187481  0.039923425   -3.2743757    1.4556276   327486 
 6003000   0.72467103   -3.2759478    -1.818386  0.038759704   -3.2759478    1.4575617   327438 
 6004000   0.72597587   -3.2761356   -1.8159093  0.041557852   -3.2761356    1.4602263   327429 
 6005000   0.72366869   -3.2729131   -1.8171274  0.043223401   -3.2729131    1.4557857   327384 
 6006000   0.72479522   -3.2731809   -1.8149418  0.044514998   -3.2731809     1.458239   327342 
 6007000   0.72379563   -3.2730023   -1.8163605  0.040367158   -3.2730023    1.4566418   327249 
 6008000   0.72398705   -3.2732168   -1.8160962  0.045181958   -3.2732168    1.4571205   327228 
 6009000   0.72332811   -3.2730819   -1.8172209  0.041295926   -3.2730819     1.455861   327213 
 6010000   0.72400946   -3.2748632   -1.8172878  0.041446901   -3.2748632    1.4575754   327136 
 6011000   0.72506654   -3.2769149   -1.8170105  0.040581267   -3.2769149    1.4599043   327091 
 6012000    0.7229044   -3.2733936   -1.8177714  0.040697926   -3.2733936    1.4556221   327075 
 6013000   0.72262637   -3.2731401   -1.8178953  0.044247303   -3.2731401    1.4552447   327034 
 6014000   0.72295427   -3.2732523     -1.81704  0.040391668   -3.2732523    1.4562123   326965 
 6015000   0.72314137   -3.2737594   -1.8171747  0.039274507   -3.2737594    1.4565847   326966 
 6016000   0.72255411   -3.2719421   -1.8164335  0.039629795   -3.2719421    1.4555087   326942 
 6017000   0.72298959   -3.2735858   -1.8169772  0.043230511   -3.2735858    1.4566086   326892 
 6018000   0.72285251   -3.2739543   -1.8174214  0.037381139   -3.2739543     1.456533   326847 
 6019000   0.72165138   -3.2706132   -1.8160599  0.038906631   -3.2706132    1.4545533   326748 
 6020000   0.72096854   -3.2692971   -1.8163025  0.045652746   -3.2692971    1.4529946   326789 
 6021000    0.7228325    -3.271916    -1.815031  0.045782013    -3.271916    1.4568849   326759 
 6022000   0.72201698   -3.2707419   -1.8152513  0.044311892   -3.2707419    1.4554907   326703 
 6023000   0.72425401   -3.2742349   -1.8141498  0.041381211   -3.2742349    1.4600851   326684 
 6024000   0.72319088   -3.2722711    -1.814356  0.046249656   -3.2722711    1.4579151   326690 
 6025000   0.72162141    -3.270026   -1.8151858  0.045365781    -3.270026    1.4548402   326670 
 6026000    0.7218715   -3.2698037   -1.8144727  0.041639926   -3.2698037     1.455331   326673 
 6027000   0.72181097   -3.2701268   -1.8149134  0.043753825   -3.2701268    1.4552134   326672 
 6028000   0.72236514   -3.2715612   -1.8149585  0.042662059   -3.2715612    1.4566027   326611 
 6029000   0.72156772   -3.2718819   -1.8169361  0.041027553   -3.2718819    1.4549457   326622 
 6030000   0.72149093   -3.2703392   -1.8155573  0.039234536   -3.2703392     1.454782   326624 
 6031000   0.72296963   -3.2729435   -1.8151264  0.038678916   -3.2729435    1.4578171   326612 
 6032000   0.72136352    -3.271392   -1.8165328  0.043155164    -3.271392    1.4548591   326549 
 6033000   0.72190906   -3.2718534   -1.8158851  0.039842055   -3.2718534    1.4559683   326547 
 6034000   0.71984101   -3.2683586   -1.8162233  0.041583067   -3.2683586    1.4521354   326471 
 6035000   0.72218616   -3.2725128   -1.8154546  0.035723213   -3.2725128    1.4570582   326428 
 6036000   0.72040341   -3.2718761   -1.8180095  0.039320543   -3.2718761    1.4538666   326337 
 6037000   0.72202728   -3.2749367   -1.8177035  0.042547653   -3.2749367    1.4572331   326317 
 6038000   0.72191523   -3.2753657   -1.8180505  0.042205639   -3.2753657    1.4573151   326248 
 6039000   0.72314617   -3.2764613    -1.816706  0.045250127   -3.2764613    1.4597553   326258 
 6040000   0.72254045   -3.2748037    -1.816289  0.040554154   -3.2748037    1.4585147   326262 
 6041000   0.72220551   -3.2756765   -1.8176681  0.043184664   -3.2756765    1.4580084   326224 
 6042000   0.72278904   -3.2771151   -1.8178616   0.04497458   -3.2771151    1.4592535   326209 
 6043000   0.72201272   -3.2745024   -1.8169234  0.045577106   -3.2745024     1.457579   326233 
 6044000   0.72342736   -3.2774902   -1.8171091  0.041017168   -3.2774902    1.4603811   326245 
 6045000   0.72240801   -3.2753112    -1.816818  0.049891822   -3.2753112    1.4584932   326207 
 6046000   0.72137963   -3.2742255   -1.8175718  0.046772837   -3.2742255    1.4566536   326154 
 6047000    0.7240075   -3.2772235   -1.8151918  0.045685535   -3.2772235    1.4620317   326138 
 6048000   0.72284194   -3.2768541   -1.8169702  0.040696828   -3.2768541    1.4598839   326092 
 6049000   0.72254862   -3.2746276   -1.8152913  0.044088004   -3.2746276    1.4593363   326082 
 6050000     0.722523   -3.2747797   -1.8151416  0.046300787   -3.2747797    1.4596382   326003 
 6051000   0.71938615   -3.2695884   -1.8161089   0.04253224   -3.2695884    1.4534795   325963 
 6052000   0.71963079   -3.2700051   -1.8160938  0.036135864   -3.2700051    1.4539113   325977 
 6053000   0.72062938   -3.2705796   -1.8147848  0.039304363   -3.2705796    1.4557948   326007 
 6054000   0.71890288   -3.2665964   -1.8141691  0.038893658   -3.2665964    1.4524273   325980 
 6055000   0.72061001   -3.2688617   -1.8130033  0.039394565   -3.2688617    1.4558584   325984 
 6056000   0.71985188   -3.2669487   -1.8124658    0.0378049   -3.2669487    1.4544829   325949 
 6057000    0.7198558   -3.2660525   -1.8113787  0.036707629   -3.2660525    1.4546738   325908 
 6058000   0.72048256   -3.2683101   -1.8122179  0.041417069   -3.2683101    1.4560923   325874 
 6059000   0.72006173   -3.2630836   -1.8078865  0.042549325   -3.2630836    1.4551971   325884 
 6060000   0.72117484   -3.2663804   -1.8088488   0.04063062   -3.2663804    1.4575316   325865 
 6061000   0.72157229   -3.2679395   -1.8094525  0.037563033   -3.2679395     1.458487   325831 
 6062000   0.72122105   -3.2651924   -1.8075137  0.042111301   -3.2651924    1.4576787   325853 
 6063000   0.72053835   -3.2651096   -1.8085604  0.044382712   -3.2651096    1.4565492   325797 
 6064000   0.72272237   -3.2697488   -1.8085739  0.039472655   -3.2697488    1.4611749   325750 
 6065000    0.7198381   -3.2654884   -1.8098901  0.046206435   -3.2654884    1.4555983   325693 
 6066000   0.72148688   -3.2676523   -1.8088274  0.040637147   -3.2676523    1.4588248   325717 
 6067000   0.72093896   -3.2642791   -1.8065174  0.042807835   -3.2642791    1.4577617   325707 
 6068000    0.7239626   -3.2705137   -1.8065302  0.044621216   -3.2705137    1.4639835   325683 
 6069000   0.72272306   -3.2692194   -1.8075809  0.048567479   -3.2692194    1.4616385   325647 
 6070000   0.72354037   -3.2699598   -1.8065965  0.047842613   -3.2699598    1.4633633   325631 
 6071000   0.72201684   -3.2668882   -1.8065569   0.04485488   -3.2668882    1.4603313   325620 
 6072000    0.7218289   -3.2682195   -1.8080889  0.038039723   -3.2682195    1.4601305   325580 
 6073000   0.72027141   -3.2653616   -1.8082563  0.043356772   -3.2653616    1.4571053   325552 
 6074000   0.72026504    -3.266184    -1.808917  0.043038234    -3.266184     1.457267   325513 
 6075000   0.72016545   -3.2675504   -1.8104178  0.040400516   -3.2675504    1.4571326   325498 
 6076000   0.71965998   -3.2665405   -1.8103143  0.043904223   -3.2665405    1.4562262   325472 
 6077000   0.72009703   -3.2657718   -1.8085806  0.046619913   -3.2657718    1.4571912   325454 
 6078000   0.72186043   -3.2677746    -1.806777  0.038038302   -3.2677746    1.4609975   325401 
 6079000     0.721124    -3.268178   -1.8086171  0.042920818    -3.268178    1.4595609   325389 
 6080000    0.7205395   -3.2673437   -1.8088717  0.038138657   -3.2673437     1.458472   325368 
 6081000   0.72009028    -3.266142   -1.8084135  0.045909736    -3.266142    1.4577285   325331 
 6082000   0.71986387    -3.266872   -1.8093779    0.0430554    -3.266872    1.4574941   325281 
 6083000   0.72056867   -3.2677737   -1.8087091  0.044969287   -3.2677737    1.4590647   325249 
 6084000   0.72132778   -3.2678719   -1.8073195  0.043389782   -3.2678719    1.4605524   325260 
 6085000   0.72052641   -3.2660857   -1.8071425  0.044929504   -3.2660857    1.4589432   325257 
 6086000   0.71987159   -3.2667667   -1.8088625  0.043797077   -3.2667667    1.4579042   325193 
 6087000   0.72120707   -3.2698858   -1.8090614  0.038429452   -3.2698858    1.4608244   325145 
 6088000   0.71925301   -3.2667429   -1.8097913  0.039436893   -3.2667429    1.4569516   325126 
 6089000   0.71866636   -3.2659208   -1.8099471  0.036215934   -3.2659208    1.4559737   325079 
 6090000   0.71842456   -3.2665117   -1.8109473  0.037202461   -3.2665117    1.4555644   325061 
 6091000   0.71911718   -3.2684848   -1.8114005  0.044609253   -3.2684848    1.4570843   325035 
 6092000   0.71798552   -3.2641386   -1.8092578  0.044076627   -3.2641386    1.4548808   325015 
 6093000   0.71861241   -3.2666959   -1.8105314  0.041868706   -3.2666959    1.4561645   325012 
 6094000   0.71964208   -3.2670167   -1.8086221  0.043284009   -3.2670167    1.4583946   324980 
 6095000   0.72085772   -3.2687175   -1.8077919  0.041956718   -3.2687175    1.4609256   324965 
 6096000   0.71924104   -3.2664085   -1.8087952  0.044491269   -3.2664085    1.4576133   324973 
 6097000   0.71990235   -3.2680266   -1.8087633   0.04317445   -3.2680266    1.4592633   324904 
 6098000   0.71899581   -3.2663679   -1.8089018  0.046408293   -3.2663679    1.4574661   324895 
 6099000   0.71795161   -3.2675682   -1.8119858  0.039021338   -3.2675682    1.4555824   324843 
 6100000    0.7179419   -3.2660797   -1.8102929  0.040245006   -3.2660797    1.4557868   324793 
 6101000   0.71840435   -3.2659126    -1.809067  0.042184578   -3.2659126    1.4568456   324766 
 6102000   0.71948779   -3.2678026   -1.8088183  0.040325658   -3.2678026    1.4589843   324779 
 6103000   0.71937968    -3.268983   -1.8100472  0.046160067    -3.268983    1.4589358   324741 
 6104000   0.71897235   -3.2684969   -1.8102345  0.043548823   -3.2684969    1.4582624   324707 
 6105000   0.71938292   -3.2690428   -1.8096286   0.04409455   -3.2690428    1.4594142   324636 
 6106000   0.71924232    -3.267905   -1.8087311  0.043907478    -3.267905    1.4591739   324626 
 6107000   0.71925142   -3.2684013   -1.8089706  0.045739611   -3.2684013    1.4594307   324573 
 6108000   0.71758867   -3.2675388   -1.8113609  0.043174722   -3.2675388    1.4561779   324546 
 6109000   0.71925121   -3.2691069   -1.8094293  0.042035987   -3.2691069    1.4596776   324518 
 6110000   0.71795478    -3.266766   -1.8096162  0.047041088    -3.266766    1.4571498   324495 
 6111000   0.71962831   -3.2692104   -1.8086235  0.042309814   -3.2692104    1.4605869   324486 
 6112000   0.71838679    -3.265189    -1.807378   0.04478495    -3.265189     1.457811   324543 
 6113000   0.71933955   -3.2688084    -1.808983  0.041072978   -3.2688084    1.4598254   324525 
 6114000   0.71849352   -3.2674172   -1.8092188  0.038295051   -3.2674172    1.4581983   324505 
 6115000   0.71846202   -3.2675049   -1.8092087   0.04367589   -3.2675049    1.4582962   324469 
 6116000   0.71921491   -3.2656419   -1.8058625  0.040439796   -3.2656419    1.4597794   324479 
 6117000   0.71712811   -3.2621656   -1.8064917  0.041934279   -3.2621656    1.4556739   324450 
 6118000   0.71830839   -3.2648982   -1.8067611  0.039693031   -3.2648982    1.4581371   324435 
 6119000   0.71832044   -3.2634177   -1.8050943  0.045046166   -3.2634177    1.4583234   324399 
 6120000   0.71842505   -3.2642787    -1.805644  0.042480309   -3.2642787    1.4586347   324377 
 6121000   0.71737239   -3.2632701   -1.8064986  0.041278893   -3.2632701    1.4567714   324316 
 6122000   0.71719673   -3.2629717   -1.8064492  0.045748126   -3.2629717    1.4565225   324292 
 6123000   0.71834944   -3.2636627   -1.8046013  0.040762703   -3.2636627    1.4590614   324248 
 6124000   0.71675496   -3.2635057   -1.8075032  0.037486936   -3.2635057    1.4560025   324208 
 6125000   0.71580291   -3.2626849   -1.8085267  0.040546622   -3.2626849    1.4541582   324188 
 6126000   0.71737327   -3.2652966   -1.8077683  0.039248184   -3.2652966    1.4575282   324148 
 6127000   0.71676453   -3.2654609   -1.8091739  0.044504326   -3.2654609    1.4562869   324149 
 6128000   0.71652096   -3.2650516   -1.8093404  0.041136417   -3.2650516    1.4557112   324167 
 6129000   0.71751341   -3.2654171   -1.8073343  0.044625871   -3.2654171    1.4580829   324088 
 6130000   0.71857534   -3.2678138   -1.8075144  0.039419241   -3.2678138    1.4602994   324075 
 6131000   0.71768954   -3.2658936   -1.8073628  0.048772786   -3.2658936    1.4585308   324068 
 6132000   0.71842181   -3.2664969   -1.8064645  0.043769942   -3.2664969    1.4600325   324065 
 6133000   0.71877044   -3.2684388   -1.8075446  0.044965686   -3.2684388    1.4608942   324031 
 6134000   0.71760869   -3.2657416   -1.8070871  0.047502116   -3.2657416    1.4586545   324004 
 6135000    0.7177899   -3.2649774   -1.8058509  0.042902931   -3.2649774    1.4591265   323981 
 6136000   0.71773773   -3.2659805   -1.8067033  0.041893019   -3.2659805    1.4592771   323924 
 6137000   0.71776411   -3.2669578   -1.8073792  0.043358048   -3.2669578    1.4595786   323869 
 6138000    0.7152665   -3.2618965   -1.8072172  0.040441217   -3.2618965    1.4546794   323829 
 6139000   0.71694474   -3.2638546    -1.805663  0.041366808   -3.2638546    1.4581916   323807 
 6140000    0.7164482   -3.2634086   -1.8060874  0.039131819   -3.2634086    1.4573212   323776 
 6141000    0.7177052   -3.2645483   -1.8046522  0.039755901   -3.2645483    1.4598961   323772 
 6142000   0.71706254   -3.2635981   -1.8049417  0.046937482   -3.2635981    1.4586564   323757 
 6143000   0.71637252   -3.2633222   -1.8057048   0.04273059   -3.2633222    1.4576174   323676 
 6144000   0.71703916   -3.2643159   -1.8051572   0.04189863   -3.2643159    1.4591587   323635 
 6145000   0.71465224   -3.2579239   -1.8034203  0.042702975   -3.2579239    1.4545036   323590 
 6146000   0.71569115   -3.2597392   -1.8030626  0.042333331   -3.2597392    1.4566766   323577 
 6147000   0.71701431    -3.260332   -1.8010796  0.037276579    -3.260332    1.4592524   323603 
 6148000   0.71612196   -3.2601937   -1.8026313   0.03833472   -3.2601937    1.4575624   323575 
 6149000   0.71594006   -3.2596692   -1.8023599  0.042328192   -3.2596692    1.4573093   323549 
 6150000   0.71595478   -3.2595599   -1.8022612  0.044253941   -3.2595599    1.4572987   323558 
 6151000   0.71552417   -3.2580114   -1.8013011  0.041077053   -3.2580114    1.4567104   323494 
 6152000   0.71581988   -3.2592372   -1.8018437  0.041314635   -3.2592372    1.4573935   323476 
 6153000    0.7156531    -3.257967   -1.8010032   0.03932955    -3.257967    1.4569638   323496 
 6154000   0.71419572   -3.2564157   -1.8024143  0.041267633   -3.2564157    1.4540013   323495 
 6155000   0.71413255   -3.2578537   -1.8037473  0.044190189   -3.2578537    1.4541065   323443 
 6156000   0.71397907   -3.2579012   -1.8037836  0.037873319   -3.2579012    1.4541176   323371 
 6157000   0.71347945   -3.2579515   -1.8047121  0.043748107   -3.2579515    1.4532394   323340 
 6158000   0.71531538   -3.2603999   -1.8032723  0.045076936   -3.2603999    1.4571276   323307 
 6159000   0.71607289   -3.2605541   -1.8015856  0.042505701   -3.2605541    1.4589685   323241 
 6160000   0.71527923   -3.2612816   -1.8036867   0.04524818   -3.2612816     1.457595   323187 
 6161000   0.71653446   -3.2633035   -1.8031913  0.044040227   -3.2633035    1.4601122   323196 
 6162000   0.71451686   -3.2603903   -1.8041101  0.043411255   -3.2603903    1.4562802   323134 
 6163000   0.71722538   -3.2644126   -1.8024356  0.046490613   -3.2644126     1.461977   323095 
 6164000   0.71491496   -3.2588938    -1.801527  0.046226422   -3.2588938    1.4573667   323073 
 6165000   0.71433764   -3.2587591   -1.8024024  0.048776131   -3.2587591    1.4563567   323036 
 6166000   0.71557743    -3.261268   -1.8022302  0.039123923    -3.261268    1.4590378   323002 
 6167000   0.71490435   -3.2604985   -1.8027067   0.04342664   -3.2604985    1.4577918   322974 
 6168000   0.71454489   -3.2598521   -1.8026624  0.043370408   -3.2598521    1.4571897   322945 
 6169000   0.71393713   -3.2599062   -1.8039965  0.039718548   -3.2599062    1.4559097   322954 
 6170000   0.71510561    -3.261927   -1.8033499  0.039454529    -3.261927    1.4585771   322891 
 6171000   0.71423806   -3.2594871   -1.8026615  0.044553526   -3.2594871    1.4568256   322887 
 6172000   0.71498827   -3.2603714   -1.8018349  0.038244684   -3.2603714    1.4585365   322847 
 6173000   0.71339834   -3.2591934   -1.8036749  0.043107275   -3.2591934    1.4555185   322797 
 6174000   0.71483294   -3.2617084   -1.8029466  0.039187776   -3.2617084    1.4587618   322727 
 6175000    0.7140825   -3.2578956   -1.8006607  0.042410943   -3.2578956    1.4572349   322726 
 6176000   0.71533809   -3.2575019    -1.797682  0.040183705   -3.2575019    1.4598198   322721 
 6177000   0.71543051   -3.2598818   -1.7996562  0.044604215   -3.2598818    1.4602256   322673 
 6178000   0.71444778    -3.259977   -1.8016578  0.044612414    -3.259977    1.4583193   322651 
 6179000   0.71422282   -3.2581366   -1.8001771  0.045468767   -3.2581366    1.4579595   322629 
 6180000   0.71485607    -3.259769   -1.8003766  0.045188038    -3.259769    1.4593924   322598 
 6181000   0.71615519   -3.2622831   -1.8000663  0.041250864   -3.2622831    1.4622168   322560 
 6182000   0.71532925    -3.260664    -1.800129  0.040711006    -3.260664    1.4605349   322559 
 6183000   0.71401369    -3.259193   -1.8011543  0.047182809    -3.259193    1.4580387   322517 
 6184000    0.7136943   -3.2601547   -1.8024698  0.041042582   -3.2601547    1.4576848   322451 
 6185000   0.71473161   -3.2616264   -1.8016961  0.039751813   -3.2616264    1.4599303   322423 
 6186000   0.71295635   -3.2582715   -1.8018455  0.042004273   -3.2582715     1.456426   322396 
 6187000   0.71337916   -3.2592863   -1.8018157  0.043108685   -3.2592863    1.4574706   322356 
 6188000     0.713144   -3.2589032   -1.8019401  0.044476959   -3.2589032     1.456963   322362 
 6189000   0.71298015   -3.2605413   -1.8039763  0.041616992   -3.2605413     1.456565   322376 
 6190000    0.7124992   -3.2601277   -1.8040575  0.037508441   -3.2601277    1.4560703   322268 
 6191000    0.7133559    -3.260058   -1.8021194  0.042954725    -3.260058    1.4579386   322242 
 6192000   0.71230989   -3.2598883   -1.8039068  0.043920465   -3.2598883    1.4559816   322202 
 6193000    0.7123526   -3.2598489   -1.8037213  0.039533688   -3.2598489    1.4561276   322189 
 6194000   0.71275589    -3.261392   -1.8041687  0.040651065    -3.261392    1.4572233   322129 
 6195000   0.71218125   -3.2612196   -1.8050807  0.042271647   -3.2612196    1.4561389   322109 
 6196000   0.71497268   -3.2640344   -1.8022879  0.034925776   -3.2640344    1.4617465   322131 
 6197000   0.71382137   -3.2613593   -1.8018307  0.042345988   -3.2613593    1.4595286   322101 
 6198000   0.71472548   -3.2614055   -1.7999194  0.047685229   -3.2614055    1.4614861   322077 
 6199000   0.71463294   -3.2626314   -1.8010985  0.042112263   -3.2626314    1.4615328   322025 
 6200000   0.71487593   -3.2623084   -1.8000698  0.044180206   -3.2623084    1.4622387   321979 
 6201000   0.71397702   -3.2603008   -1.7997784  0.046088023   -3.2603008    1.4605224   321952 
 6202000   0.71445723   -3.2614073   -1.7998526  0.040688679   -3.2614073    1.4615547   321941 
 6203000   0.71300489   -3.2605818   -1.8017897  0.045328475   -3.2605818    1.4587921   321895 
 6204000   0.71300298   -3.2591823   -1.8003578  0.041964141   -3.2591823    1.4588245   321887 
 6205000   0.71149905   -3.2565216    -1.800815  0.043370609   -3.2565216    1.4557067   321896 
 6206000   0.71225502   -3.2585179   -1.8009883  0.043660048   -3.2585179    1.4575296   321835 
 6207000   0.71271947   -3.2591729   -1.8006431  0.046165858   -3.2591729    1.4585299   321824 
 6208000   0.71399053   -3.2606381   -1.7992392  0.046223934   -3.2606381    1.4613989   321765 
 6209000   0.71263373   -3.2588122   -1.7996734  0.045735648   -3.2588122    1.4591388   321651 
 6210000   0.71282571    -3.259157   -1.7994481  0.039202121    -3.259157    1.4597089   321612 
 6211000   0.71226525   -3.2571433   -1.7987726  0.039387661   -3.2571433    1.4583707   321654 
 6212000   0.71052427   -3.2533064   -1.7984687  0.040588834   -3.2533064    1.4548377   321647 
 6213000   0.71179301   -3.2548235   -1.7971252  0.041503195   -3.2548235    1.4576984   321589 
 6214000   0.71260996   -3.2545972   -1.7952848  0.042362323   -3.2545972    1.4593124   321602 
 6215000   0.71337623   -3.2577007   -1.7967464  0.041465773   -3.2577007    1.4609543   321586 
 6216000   0.71113926   -3.2542995   -1.7977135  0.042954239   -3.2542995     1.456586   321539 
 6217000    0.7115201   -3.2541407   -1.7965707  0.042488206   -3.2541407      1.45757   321494 
 6218000   0.71112246   -3.2548864   -1.7980449  0.038130588   -3.2548864    1.4568416   321475 
 6219000   0.71024852    -3.252486   -1.7975253  0.040209785    -3.252486    1.4549606   321495 
 6220000   0.71034554   -3.2534758   -1.7980538  0.035916621   -3.2534758     1.455422   321437 
 6221000   0.71058269   -3.2542782   -1.7982753  0.040704775   -3.2542782     1.456003   321416 
 6222000   0.71075119   -3.2558977   -1.7992413  0.042358027   -3.2558977    1.4566564   321348 
 6223000   0.71082864   -3.2551567   -1.7980831  0.041840305   -3.2551567    1.4570736   321291 
 6224000   0.71116981   -3.2572918   -1.7991967   0.04486092   -3.2572918    1.4580952   321220 
 6225000   0.71170557   -3.2578023   -1.7985769  0.042384389   -3.2578023    1.4592254   321213 
 6226000   0.71062179    -3.255026   -1.7979955  0.040044436    -3.255026    1.4570305   321207 
 6227000   0.71031794   -3.2558909   -1.7993972   0.03831623   -3.2558909    1.4564937   321188 
 6228000   0.71019664   -3.2574359   -1.8011682  0.042392609   -3.2574359    1.4562676   321183 
 6229000   0.70985143   -3.2556792   -1.8000152  0.042690111   -3.2556792     1.455664   321160 
 6230000   0.70966599   -3.2575813   -1.8020619  0.044919663   -3.2575813    1.4555194   321108 
 6231000   0.71063944   -3.2602111   -1.8024546  0.038888626   -3.2602111    1.4577566   321055 
 6232000   0.71040614   -3.2597499   -1.8023766  0.041554743   -3.2597499    1.4573733   321034 
 6233000   0.71079713   -3.2604599   -1.8021755  0.040450911   -3.2604599    1.4582844   321010 
 6234000   0.71004747   -3.2604135   -1.8034583  0.042555745   -3.2604135    1.4569552   320964 
 6235000   0.70964012   -3.2591899   -1.8028846  0.043712143   -3.2591899    1.4563054   320923 
 6236000   0.70913155   -3.2591547   -1.8038205  0.042896477   -3.2591547    1.4553343   320907 
 6237000    0.7100233   -3.2613888   -1.8041609  0.042280575   -3.2613888    1.4572279   320893 
 6238000   0.70980244   -3.2585625   -1.8015654   0.04388731   -3.2585625    1.4569971   320844 
 6239000   0.70935551   -3.2591905   -1.8029474  0.043497226   -3.2591905    1.4562431   320808 
 6240000   0.70934003   -3.2610208    -1.804646  0.045188199   -3.2610208    1.4563748   320772 
 6241000   0.70904427   -3.2605139   -1.8047055  0.041808458   -3.2605139    1.4558084   320763 
 6242000    0.7100324   -3.2631441    -1.805025  0.040294348   -3.2631441    1.4581191   320701 
 6243000   0.70861809   -3.2602997   -1.8048264  0.043331274   -3.2602997    1.4554733   320644 
 6244000   0.70894089    -3.260139    -1.803721  0.042634212    -3.260139    1.4564179   320582 
 6245000   0.70853967   -3.2621265    -1.806333  0.034310148   -3.2621265    1.4557935   320538 
 6246000   0.70846904    -3.261763    -1.805783  0.041092309    -3.261763      1.45598   320465 
 6247000   0.70721856   -3.2566228   -1.8031084  0.043713614   -3.2566228    1.4535144   320442 
 6248000   0.70738015   -3.2582407   -1.8042671  0.040533903   -3.2582407    1.4539736   320414 
 6249000    0.7076717   -3.2583563     -1.80367  0.040570276   -3.2583563    1.4546864   320389 
 6250000   0.71000121   -3.2614955   -1.8018338  0.042799961   -3.2614955    1.4596617   320348 
 6251000   0.70914788   -3.2585552   -1.8005614  0.043418237   -3.2585552    1.4579938   320329 
 6252000   0.70915534   -3.2585111   -1.8002606  0.048241797   -3.2585111    1.4582504   320276 
 6253000   0.70803937   -3.2552192   -1.7991272  0.045208376   -3.2552192     1.456092   320246 
 6254000   0.70752861   -3.2555837   -1.8004648  0.037372482   -3.2555837    1.4551189   320229 
 6255000   0.70960644   -3.2601784   -1.8006631  0.040449699   -3.2601784    1.4595153   320202 
 6256000   0.70787722   -3.2579812    -1.801827  0.040196878   -3.2579812    1.4561542   320159 
 6257000   0.70713497   -3.2547552   -1.8001233  0.039165946   -3.2547552    1.4546318   320158 
 6258000   0.70510742   -3.2519133   -1.8009673  0.038058119   -3.2519133    1.4509459   320051 
 6259000   0.70585492   -3.2531208   -1.8005277  0.035815876   -3.2531208     1.452593   320027 
 6260000   0.70680784   -3.2537407   -1.7990093  0.038461222   -3.2537407    1.4547314   319988 
 6261000   0.70644356   -3.2532343   -1.7991528  0.041255903   -3.2532343    1.4540816   319966 
 6262000   0.70726128   -3.2557005   -1.7997902  0.039960089   -3.2557005    1.4559103   319934 
 6263000   0.70638615   -3.2536987   -1.7994671  0.039160058   -3.2536987    1.4542316   319907 
 6264000   0.70586191   -3.2524627   -1.7993467  0.042128574   -3.2524627     1.453116   319915 
 6265000   0.70597216   -3.2511073   -1.7977599  0.037433215   -3.2511073    1.4533475   319914 
 6266000   0.70618809   -3.2535604   -1.7994548  0.044065979   -3.2535604    1.4541056   319845 
 6267000   0.70736312   -3.2547477   -1.7978399  0.041403407   -3.2547477    1.4569077   319761 
 6268000   0.70703413   -3.2547671   -1.7983047  0.040493365   -3.2547671    1.4564624   319710 
 6269000   0.70750716   -3.2556768   -1.7981488  0.039294772   -3.2556768     1.457528   319690 
 6270000   0.70702324   -3.2550745   -1.7985935  0.042227916   -3.2550745     1.456481   319701 
 6271000   0.70669943   -3.2543668   -1.7983297  0.036318585   -3.2543668    1.4560371   319652 
 6272000   0.70678292   -3.2540408   -1.7975765  0.035967605   -3.2540408    1.4564643   319596 
 6273000   0.70554468   -3.2531582   -1.7991955   0.04148663   -3.2531582    1.4539627   319585 
 6274000   0.70593805   -3.2530053    -1.798191  0.036888239   -3.2530053    1.4548143   319576 
 6275000   0.70723901   -3.2570507   -1.7993182  0.037916163   -3.2570507    1.4577326   319524 
 6276000   0.70739939   -3.2566246   -1.7985478  0.044082231   -3.2566246    1.4580768   319521 
 6277000   0.70734935   -3.2562994   -1.7982208   0.04295307   -3.2562994    1.4580786   319498 
 6278000   0.70770773   -3.2567592   -1.7978003  0.043511436   -3.2567592    1.4589589   319467 
 6279000   0.70756715   -3.2571252   -1.7983374  0.042371341   -3.2571252    1.4587879   319441 
 6280000   0.70656471   -3.2564571   -1.7995261  0.042377624   -3.2564571    1.4569309   319395 
 6281000   0.70624075   -3.2567161   -1.8004395  0.044243178   -3.2567161    1.4562766   319392 
 6282000   0.70524661   -3.2554222   -1.8009132  0.044093765   -3.2554222     1.454509   319330 
 6283000   0.70615333   -3.2570101   -1.8003893  0.044643333   -3.2570101    1.4566208   319277 
 6284000   0.70584419   -3.2571937   -1.8011194  0.040102017   -3.2571937    1.4560743   319257 
 6285000   0.70537076   -3.2564941    -1.801319  0.043085233   -3.2564941    1.4551752   319240 
 6286000   0.70565733   -3.2573388   -1.8014858  0.041015838   -3.2573388     1.455853   319221 
 6287000   0.70414132   -3.2517913   -1.7990979   0.04459469   -3.2517913    1.4526935   319228 
 6288000   0.70471848   -3.2549281   -1.8011441  0.039024286   -3.2549281     1.453784   319250 
 6289000   0.70399489   -3.2543227   -1.8018449  0.044954127   -3.2543227    1.4524778   319209 
 6290000   0.70646493   -3.2587159   -1.8009866  0.043995386   -3.2587159    1.4577293   319175 
 6291000   0.70482932   -3.2547704   -1.8003021  0.046764138   -3.2547704    1.4544682   319150 
 6292000   0.70622138   -3.2553703   -1.7981207  0.042809956   -3.2553703    1.4572496   319170 
 6293000   0.70655565   -3.2545782   -1.7964196  0.043262091   -3.2545782    1.4581586   319122 
 6294000   0.70588012   -3.2539493   -1.7971027  0.040336382   -3.2539493    1.4568466   319104 
 6295000   0.70631457   -3.2538217   -1.7958454    0.0433698   -3.2538217    1.4579763   319053 
 6296000   0.70772254   -3.2559923   -1.7951143  0.043376427   -3.2559923    1.4608781   319054 
 6297000   0.70587226    -3.254003   -1.7968621  0.045751649    -3.254003    1.4571409   319036 
 6298000   0.70546879   -3.2524426   -1.7959611  0.039687458   -3.2524426    1.4564815   318998 
 6299000    0.7055671   -3.2526308    -1.795718  0.041791425   -3.2526308    1.4569128   318948 
 6300000   0.70549784   -3.2525374   -1.7958041  0.040621559   -3.2525374    1.4567333   318956 
 6301000   0.70506254   -3.2492073   -1.7934961  0.039800459   -3.2492073    1.4557112   318983 
 6302000   0.70542702   -3.2516737   -1.7948948  0.042328833   -3.2516737    1.4567789   318914 
 6303000   0.70596597   -3.2524957   -1.7943843   0.04504766   -3.2524957    1.4581113   318866 
 6304000   0.70566567   -3.2504007   -1.7929142  0.043790206   -3.2504007    1.4574865   318867 
 6305000   0.70476051   -3.2488473   -1.7930385  0.039997226   -3.2488473    1.4558088   318825 
 6306000   0.70408247   -3.2507239   -1.7959233  0.041091266   -3.2507239    1.4548006   318739 
 6307000   0.70444078   -3.2497427   -1.7942018  0.037296635   -3.2497427    1.4555409   318739 
 6308000   0.70373028   -3.2487575   -1.7944291  0.039486104   -3.2487575    1.4543284   318683 
 6309000   0.70345879   -3.2487465   -1.7948606   0.04183908   -3.2487465    1.4538859   318657 
 6310000   0.70462057   -3.2505938   -1.7942017  0.041736517   -3.2505938    1.4563922   318634 
 6311000   0.70354034   -3.2484341   -1.7943295  0.036135282   -3.2484341    1.4541047   318646 
 6312000   0.70334565   -3.2478818   -1.7939241  0.045674338   -3.2478818    1.4539578   318590 
 6313000   0.70309108   -3.2466997   -1.7931723  0.040262494   -3.2466997    1.4535273   318569 
 6314000   0.70587773   -3.2517869   -1.7924666   0.04079403   -3.2517869    1.4593204   318562 
 6315000   0.70510695   -3.2500166   -1.7918961  0.043801224   -3.2500166    1.4581205   318476 
 6316000   0.70505387   -3.2497353   -1.7914911  0.036690775   -3.2497353    1.4582443   318425 
 6317000   0.70338502   -3.2466446   -1.7915321  0.045603014   -3.2466446    1.4551125   318355 
 6318000   0.70468413   -3.2494023    -1.791584  0.041196999   -3.2494023    1.4578183   318351 
 6319000   0.70364463   -3.2490528   -1.7931701   0.04525539   -3.2490528    1.4558828   318304 
 6320000   0.70377328   -3.2485362   -1.7919983  0.046648156   -3.2485362    1.4565379   318219 
 6321000    0.7020805   -3.2462988   -1.7931638  0.044824473   -3.2462988     1.453135   318197 
 6322000   0.70344793    -3.248829   -1.7926899  0.043547088    -3.248829    1.4561391   318159 
 6323000   0.70407902   -3.2496243   -1.7920414  0.042663245   -3.2496243    1.4575829   318129 
 6324000   0.70131499   -3.2461467   -1.7939709  0.042105278   -3.2461467    1.4521758   318060 
 6325000   0.70227331   -3.2478874   -1.7936084  0.042154439   -3.2478874     1.454279   318034 
 6326000   0.70231141   -3.2496806   -1.7952815  0.044416081   -3.2496806    1.4543991   318025 
 6327000   0.70152151   -3.2472687   -1.7944232  0.041419704   -3.2472687    1.4528455   318007 
 6328000   0.70146639   -3.2489696   -1.7958818  0.040624194   -3.2489696    1.4530878   317929 
 6329000   0.70278779   -3.2510482   -1.7949758  0.038878385   -3.2510482    1.4560724   317875 
 6330000   0.70154766   -3.2503864   -1.7965953  0.042860622   -3.2503864    1.4537912   317812 
 6331000   0.70062685   -3.2516683    -1.799502  0.038075205   -3.2516683    1.4521663   317750 
 6332000   0.70173375   -3.2526171   -1.7981292  0.039550028   -3.2526171     1.454488   317744 
 6333000   0.70297035   -3.2546431   -1.7976104  0.040859203   -3.2546431    1.4570328   317748 
 6334000   0.70200513   -3.2518089   -1.7967493  0.042565246   -3.2518089    1.4550596   317742 
 6335000   0.70146834   -3.2540335   -1.7996837  0.039680215   -3.2540335    1.4543498   317654 
 6336000   0.70158596   -3.2525219   -1.7980106  0.039664053   -3.2525219    1.4545113   317672 
 6337000   0.70147976   -3.2528254   -1.7982642  0.038898579   -3.2528254    1.4545612   317613 
 6338000   0.70259459   -3.2566831   -1.7996359  0.043565734   -3.2566831    1.4570472   317575 
 6339000   0.70348192   -3.2560826   -1.7971493  0.042828745   -3.2560826    1.4589333   317565 
 6340000   0.70320931    -3.257673   -1.7989881  0.045705505    -3.257673    1.4586849   317496 
 6341000   0.70243663   -3.2568623   -1.7996471  0.043715943   -3.2568623    1.4572152   317467 
 6342000   0.70254568   -3.2577074   -1.8001374  0.046703431   -3.2577074      1.45757   317439 
 6343000    0.7015016   -3.2537347   -1.7982621  0.047705465   -3.2537347    1.4554726   317424 
 6344000   0.70206619   -3.2557747   -1.7988369  0.041419797   -3.2557747    1.4569378   317360 
 6345000   0.69974469   -3.2497656   -1.7975356  0.047561561   -3.2497656      1.45223   317336 
 6346000    0.7015475   -3.2549662   -1.7989581  0.044100913   -3.2549662    1.4560082   317328 
 6347000   0.70063925   -3.2543748   -1.8000912  0.042420868   -3.2543748    1.4542836   317293 
 6348000    0.7000582   -3.2527154   -1.7997706  0.041605591   -3.2527154    1.4529447   317322 
 6349000   0.70040562    -3.252926   -1.7992511  0.041873924    -3.252926    1.4536749   317320 
 6350000   0.70048893     -3.25306   -1.7991709  0.039010188     -3.25306    1.4538891   317311 
 6351000   0.69975532   -3.2522385   -1.7998766  0.042043219   -3.2522385    1.4523619   317312 
 6352000   0.70095818   -3.2548986   -1.7998613  0.040212807   -3.2548986    1.4550373   317273 
 6353000   0.69970022   -3.2512831   -1.7986144  0.040916594   -3.2512831    1.4526687   317220 
 6354000   0.70014284   -3.2521545   -1.7984431  0.039930704   -3.2521545    1.4537114   317193 
 6355000   0.70089092   -3.2530779   -1.7976344  0.040426793   -3.2530779    1.4554436   317154 
 6356000   0.70105316   -3.2533415   -1.7976253   0.04022395   -3.2533415    1.4557162   317168 
 6357000   0.70041995   -3.2524406   -1.7979245  0.044098811   -3.2524406     1.454516   317143 
 6358000   0.70030936   -3.2525455   -1.7982133  0.036125278   -3.2525455    1.4543322   317133 
 6359000   0.70020833   -3.2531627    -1.798866  0.044228919   -3.2531627    1.4542967   317095 
 6360000   0.70207216   -3.2545574   -1.7962333  0.041689471   -3.2545574    1.4583241   317061 
 6361000   0.70014577    -3.251287   -1.7967624  0.042619477    -3.251287    1.4545245   317017 
 6362000   0.70172922   -3.2532122   -1.7953614  0.043523307   -3.2532122    1.4578509   317009 
 6363000   0.70203162   -3.2532755    -1.794824  0.041153554   -3.2532755    1.4584515   317015 
 6364000   0.70213684   -3.2522738    -1.793369  0.043064268   -3.2522738    1.4589048   316964 
 6365000   0.70321036    -3.256073   -1.7950943   0.04323871    -3.256073    1.4609786   316998 
 6366000   0.70094036   -3.2510289   -1.7944999  0.042340943   -3.2510289     1.456529   316940 
 6367000   0.70182145   -3.2515419    -1.793136  0.046035876   -3.2515419    1.4584059   316930 
 6368000   0.70127402   -3.2516791   -1.7942682  0.038258137   -3.2516791    1.4574109   316899 
 6369000   0.70097755   -3.2506491   -1.7938038  0.044335792   -3.2506491    1.4568453   316888 
 6370000   0.70059072   -3.2516115   -1.7954276  0.042146002   -3.2516115    1.4561838   316857 
 6371000   0.70025452   -3.2502748   -1.7948219  0.038027188   -3.2502748    1.4554529   316864 
 6372000   0.70068895   -3.2507615   -1.7942356  0.039629524   -3.2507615    1.4565259   316827 
 6373000   0.69962731   -3.2488549   -1.7942328   0.03804804   -3.2488549    1.4546221   316761 
 6374000   0.69803551   -3.2464782    -1.795042  0.040299066   -3.2464782    1.4514362   316734 
 6375000   0.69966398   -3.2471048   -1.7924156  0.041708093   -3.2471048    1.4546892   316763 
 6376000   0.70080908   -3.2493237   -1.7920882  0.043894397   -3.2493237    1.4572356   316727 
 6377000   0.70067503   -3.2505838   -1.7935718  0.043551684   -3.2505838     1.457012   316715 
 6378000   0.69893592   -3.2472844   -1.7937694  0.042202546   -3.2472844     1.453515   316689 
 6379000   0.70014798   -3.2490927   -1.7927168  0.042684875   -3.2490927    1.4563759   316615 
 6380000   0.70089192   -3.2493238   -1.7912622  0.039362488   -3.2493238    1.4580615   316585 
 6381000   0.70001727    -3.248102   -1.7915104  0.041473539    -3.248102    1.4565917   316509 
 6382000   0.69939627   -3.2471214   -1.7918495  0.039666014   -3.2471214    1.4552719   316515 
 6383000   0.70005043   -3.2505274   -1.7938253   0.04472411   -3.2505274    1.4567021   316500 
 6384000   0.69974716   -3.2485913   -1.7923086     0.039628   -3.2485913    1.4562827   316454 
 6385000    0.6995383   -3.2488418   -1.7928649  0.043803352   -3.2488418    1.4559768   316426 
 6386000   0.69951944    -3.248977    -1.792975  0.041573759    -3.248977     1.456002   316412 
 6387000   0.69968854   -3.2506464   -1.7940944  0.040297349   -3.2506464    1.4565519   316369 
 6388000   0.69763186   -3.2466922   -1.7944447  0.040115605   -3.2466922    1.4522476   316374 
 6389000   0.69795587   -3.2502595   -1.7970757   0.04464422   -3.2502595    1.4531838   316317 
 6390000   0.69924814   -3.2508725   -1.7948231   0.04072224   -3.2508725    1.4560494   316279 
 6391000   0.70042233   -3.2519881   -1.7935121  0.041063343   -3.2519881    1.4584759   316283 
 6392000   0.70045712   -3.2512485   -1.7924464  0.044946679   -3.2512485    1.4588021   316228 
 6393000   0.69959339   -3.2503501   -1.7931902  0.046738286   -3.2503501    1.4571599   316194 
 6394000    0.7005255   -3.2538315   -1.7946056  0.040552207   -3.2538315     1.459226   316167 
 6395000   0.69867468   -3.2502446   -1.7947451  0.041387811   -3.2502446    1.4554995   316139 
 6396000   0.69965396   -3.2510055   -1.7933368  0.043376739   -3.2510055    1.4576687   316111 
 6397000   0.69922168   -3.2511931   -1.7942867  0.041605447   -3.2511931    1.4569063   316081 
 6398000   0.70021496   -3.2522079   -1.7932596  0.041517508   -3.2522079    1.4589482   316087 
 6399000   0.69971179   -3.2501684   -1.7920702  0.045709628   -3.2501684    1.4580982   316044 
 6400000   0.69870191   -3.2501664   -1.7940713  0.046775716   -3.2501664    1.4560951   316022 
 6401000   0.69695053    -3.249397   -1.7967909  0.039159629    -3.249397    1.4526061   315987 
 6402000   0.69813192    -3.251034   -1.7957676  0.038173795    -3.251034    1.4552664   315944 
 6403000    0.6984752   -3.2501144   -1.7938789  0.043612539   -3.2501144    1.4562355   315889 
 6404000   0.69781018   -3.2495154    -1.794694  0.039719907   -3.2495154    1.4548214   315895 
 6405000   0.69846909   -3.2480688   -1.7920119  0.045400138   -3.2480688    1.4560568   315925 
 6406000   0.70001014   -3.2512979   -1.7920008  0.043140636   -3.2512979    1.4592971   315919 
 6407000   0.69839133   -3.2491469   -1.7927589  0.043648785   -3.2491469     1.456388   315818 
 6408000   0.69895595   -3.2486134   -1.7910802  0.047037416   -3.2486134    1.4575331   315825 
 6409000   0.69725378    -3.247062   -1.7928344  0.043191508    -3.247062    1.4542276   315772 
 6410000   0.69837524   -3.2480381   -1.7913976  0.044077945   -3.2480381    1.4566404   315756 
 6411000   0.69738533    -3.246698    -1.792067    0.0370535    -3.246698     1.454631   315744 
 6412000   0.69700959   -3.2464967    -1.792304   0.03935329   -3.2464967    1.4541927   315669 
 6413000    0.6970316   -3.2473931   -1.7928596  0.041025468   -3.2473931    1.4545335   315605 
 6414000   0.69700921   -3.2453451   -1.7908445  0.043674327   -3.2453451    1.4545006   315602 
 6415000   0.69791161   -3.2482099   -1.7916878  0.036649405   -3.2482099    1.4565221   315572 
 6416000   0.69629048   -3.2442381   -1.7908321  0.042143136   -3.2442381     1.453406   315514 
 6417000   0.69719148   -3.2442313   -1.7888754  0.040518276   -3.2442313    1.4553559   315499 
 6418000   0.69832515   -3.2448378   -1.7873372  0.043787122   -3.2448378    1.4575007   315547 
 6419000   0.69913003   -3.2481229   -1.7886371  0.039600362   -3.2481229    1.4594858   315481 
 6420000   0.69757346   -3.2475052   -1.7911627  0.043913785   -3.2475052    1.4563425   315458 
 6421000   0.69729347   -3.2470837   -1.7910995  0.041344899   -3.2470837    1.4559842   315409 
 6422000   0.69794286   -3.2473891   -1.7899936   0.03965622   -3.2473891    1.4573956   315397 
 6423000   0.69728395   -3.2455828   -1.7895723  0.043753255   -3.2455828    1.4560104   315399 
 6424000   0.69658978   -3.2442732   -1.7894447  0.044943395   -3.2442732    1.4548285   315341 
 6425000   0.69552372   -3.2411162   -1.7886985  0.041301402   -3.2411162    1.4524178   315381 
 6426000   0.69613713   -3.2429836   -1.7891558  0.041845265   -3.2429836    1.4538278   315353 
 6427000   0.69687604   -3.2445041   -1.7891885  0.042132467   -3.2445041    1.4553156   315365 
 6428000   0.69733945   -3.2440959   -1.7876233  0.039554994   -3.2440959    1.4564727   315324 
 6429000   0.69670389   -3.2423545   -1.7872138  0.047310551   -3.2423545    1.4551406   315325 
 6430000   0.69860341   -3.2462055   -1.7872687  0.037035919   -3.2462055    1.4589368   315362 
 6431000   0.69796676   -3.2443482   -1.7867225   0.04217999   -3.2443482    1.4576257   315358 
 6432000   0.69779917   -3.2465879    -1.789155  0.046288249   -3.2465879    1.4574329   315324 
 6433000   0.69669131   -3.2450365   -1.7895852  0.036899597   -3.2450365    1.4554513   315252 
 6434000   0.69740852   -3.2472757   -1.7901227  0.039968797   -3.2472757     1.457153   315208 
 6435000   0.69709691   -3.2472521   -1.7904775  0.035631615   -3.2472521    1.4567746   315149 
 6436000   0.69650554   -3.2456848   -1.7900121  0.040436227   -3.2456848    1.4556727   315120 
 6437000   0.69751369   -3.2475782   -1.7898956  0.041615963   -3.2475782    1.4576826   315141 
 6438000   0.69741803   -3.2484011   -1.7907195  0.040052273   -3.2484011    1.4576815   315098 
 6439000    0.6980315   -3.2481097   -1.7891876  0.041027913   -3.2481097    1.4589221   315107 
 6440000   0.69668046   -3.2442168   -1.7881415  0.045344801   -3.2442168    1.4560752   315112 
 6441000   0.69819373   -3.2475281   -1.7883179  0.043106603   -3.2475281    1.4592102   315118 
 6442000   0.69796322    -3.246824   -1.7881326  0.041913585    -3.246824    1.4586914   315126 
 6443000   0.69783242   -3.2487139   -1.7899625  0.042678389   -3.2487139    1.4587514   315054 
 6444000   0.69816676   -3.2479488   -1.7884012  0.045303516   -3.2479488    1.4595476   315033 
 6445000   0.69707771   -3.2456421    -1.788177  0.045249282   -3.2456421    1.4574652   314991 
 6446000   0.69932495   -3.2486925   -1.7862084  0.044034807   -3.2486925    1.4624841   314922 
 6447000    0.6967209   -3.2443364   -1.7871824  0.041750959   -3.2443364     1.457154   314897 
 6448000   0.69748586   -3.2460318   -1.7873892  0.043678527   -3.2460318    1.4586427   314921 
 6449000   0.69680895   -3.2440459   -1.7867356  0.041693391   -3.2440459    1.4573104   314903 
 6450000   0.69631932   -3.2442563   -1.7876647  0.037769976   -3.2442563    1.4565916   314837 
 6451000   0.69610936   -3.2451059   -1.7887777  0.037960784   -3.2451059    1.4563282   314799 
 6452000   0.69681995   -3.2452257   -1.7872349  0.040953629   -3.2452257    1.4579908   314761 
 6453000   0.69634823   -3.2442423   -1.7871413  0.042151799   -3.2442423     1.457101   314740 
 6454000   0.69550163   -3.2430642   -1.7875913   0.04157509   -3.2430642    1.4554729   314709 
 6455000   0.69584779   -3.2439156   -1.7876535  0.039030687   -3.2439156    1.4562621   314695 
 6456000   0.69517271     -3.24411   -1.7889324  0.044302476     -3.24411    1.4551776   314624 
 6457000   0.69499061   -3.2423508   -1.7873694  0.040944391   -3.2423508    1.4549814   314584 
 6458000   0.69673741   -3.2442731   -1.7854956  0.041767147   -3.2442731    1.4587775   314554 
 6459000   0.69529357   -3.2415537   -1.7857576  0.041900972   -3.2415537    1.4557961   314545 
 6460000   0.69578008   -3.2439204   -1.7869342  0.041909896   -3.2439204    1.4569861   314508 
 6461000   0.69738746   -3.2453555   -1.7848874  0.041139571   -3.2453555    1.4604682   314483 
 6462000   0.69709049   -3.2429254   -1.7830559  0.043666441   -3.2429254    1.4598694   314478 
 6463000    0.6978537   -3.2454332   -1.7837656  0.040089964   -3.2454332    1.4616677   314435 
 6464000   0.69692716     -3.24344   -1.7834391  0.044535477     -3.24344     1.460001   314376 
 6465000   0.69661179   -3.2424021   -1.7828715  0.046937804   -3.2424021    1.4595306   314335 
 6466000   0.69554654   -3.2418517   -1.7844463  0.041758018   -3.2418517    1.4574054   314312 
 6467000   0.69543003   -3.2421373   -1.7847489  0.038536174   -3.2421373    1.4573884   314263 
 6468000      0.69488   -3.2414989   -1.7851936  0.042841436   -3.2414989    1.4563053   314248 
 6469000   0.69479909   -3.2412938   -1.7847966  0.043888112   -3.2412938    1.4564972   314170 
 6470000   0.69711148   -3.2446037   -1.7830451  0.045763485   -3.2446037    1.4615586   314124 
 6471000   0.69604814   -3.2423346     -1.78301  0.041176635   -3.2423346    1.4593246   314125 
 6472000   0.69648126   -3.2428768   -1.7824675  0.043240446   -3.2428768    1.4604094   314087 
 6473000   0.69550358   -3.2420768   -1.7835224  0.044219467   -3.2420768    1.4585544   314045 
 6474000   0.69449499   -3.2391752   -1.7826386  0.042472895   -3.2391752    1.4565366   314024 
 6475000   0.69592882   -3.2447878   -1.7849001  0.040080828   -3.2447878    1.4598878   313950 
 6476000   0.69415842   -3.2431793   -1.7867177  0.042860403   -3.2431793    1.4564615   313888 
 6477000   0.69418285   -3.2444669     -1.78775   0.04031141   -3.2444669     1.456717   313844 
 6478000   0.69322476   -3.2418131   -1.7868887  0.043239598   -3.2418131    1.4549244   313797 
 6479000   0.69359838    -3.242287   -1.7864626   0.04153276    -3.242287    1.4558245   313772 
 6480000   0.69457946   -3.2442889    -1.786382  0.043503592   -3.2442889    1.4579069   313767 
 6481000   0.69524114   -3.2438862   -1.7846742  0.042288202   -3.2438862    1.4592121   313785 
 6482000   0.69461805   -3.2445725   -1.7863103  0.040813031   -3.2445725    1.4582622   313708 
 6483000   0.69380912   -3.2426231   -1.7858595  0.037323976   -3.2426231    1.4567636   313665 
 6484000   0.69254135   -3.2409142    -1.786641  0.041966326   -3.2409142    1.4542732   313628 
 6485000   0.69175351    -3.239921   -1.7870659  0.045135609    -3.239921    1.4528551   313577 
 6486000   0.69384264   -3.2451374   -1.7876668   0.03815657   -3.2451374    1.4574705   313528 
 6487000   0.69325392   -3.2433263   -1.7869809  0.047165197   -3.2433263    1.4563454   313504 
 6488000    0.6940163   -3.2452549   -1.7872707  0.043889434   -3.2452549    1.4579841   313496 
 6489000   0.69392508   -3.2446438   -1.7867257   0.03914422   -3.2446438    1.4579181   313469 
 6490000    0.6932879   -3.2443359   -1.7876822  0.038727206   -3.2443359    1.4566537   313453 
 6491000   0.69318155   -3.2450131   -1.7885967  0.040721627   -3.2450131    1.4564163   313456 
 6492000    0.6928847   -3.2433469   -1.7874195  0.045092527   -3.2433469    1.4559273   313427 
 6493000   0.69228338   -3.2410063   -1.7862079  0.041684437   -3.2410063    1.4547984   313398 
 6494000   0.69267033    -3.243337   -1.7876604  0.042176227    -3.243337    1.4556766   313384 
 6495000   0.69224777   -3.2439407   -1.7888085  0.046371254   -3.2439407    1.4551322   313310 
 6496000   0.69352716   -3.2459885   -1.7882321  0.041749234   -3.2459885    1.4577564   313324 
 6497000   0.69149554   -3.2405282   -1.7870561   0.04369955   -3.2405282    1.4534721   313327 
 6498000   0.69257876   -3.2427883   -1.7869232  0.043116522   -3.2427883    1.4558651   313302 
 6499000   0.69327424   -3.2458291   -1.7882043  0.037974963   -3.2458291    1.4576248   313238 
 6500000   0.69198435    -3.243387   -1.7883534  0.037340861    -3.243387    1.4550336   313212 
 6501000   0.69429857   -3.2455084    -1.785618  0.039986393   -3.2455084    1.4598903   313214 
 6502000   0.69334547   -3.2454317   -1.7874431  0.043455905   -3.2454317    1.4579887   313192 
 6503000   0.69264303    -3.243049   -1.7864909  0.041344666    -3.243049    1.4565581   313182 
 6504000   0.69246927    -3.244306   -1.7879552  0.047673936    -3.244306    1.4563508   313148 
 6505000    0.6920717   -3.2416553   -1.7862104  0.042943851   -3.2416553    1.4554449   313163 
 6506000   0.69163449   -3.2427002   -1.7881097  0.043622988   -3.2427002    1.4545905   313149 
 6507000   0.69131583   -3.2428192   -1.7889314  0.042850478   -3.2428192    1.4538878   313156 
 6508000   0.69172654     -3.24365   -1.7886197  0.043413399     -3.24365    1.4550303   313096 
 6509000   0.69172131   -3.2430714    -1.788001  0.040985784   -3.2430714    1.4550705   313085 
 6510000   0.69089311   -3.2403263   -1.7867798  0.044954043   -3.2403263    1.4535465   313038 
 6511000   0.69255228   -3.2442815   -1.7870581  0.041387956   -3.2442815    1.4572234   312998 
 6512000   0.69111183   -3.2394938   -1.7852084  0.040931721   -3.2394938    1.4542854   312978 
 6513000   0.69093481   -3.2407723    -1.786929  0.038925761   -3.2407723    1.4538432   312993 
 6514000   0.69257404   -3.2426691   -1.7851484  0.044728636   -3.2426691    1.4575206   312944 
 6515000   0.69229915   -3.2420042   -1.7847408  0.039840373   -3.2420042    1.4572634   312875 
 6516000   0.69336175   -3.2424706   -1.7827745  0.044147502   -3.2424706    1.4596961   312833 
 6517000   0.69250177   -3.2414594   -1.7834432  0.045423744   -3.2414594    1.4580162   312805 
 6518000   0.69260174   -3.2404207   -1.7818817  0.040228231   -3.2404207     1.458539   312738 
 6519000    0.6933369   -3.2403275   -1.7801283  0.045985143   -3.2403275    1.4601993   312714 
 6520000   0.69223909   -3.2390235   -1.7809031  0.041119989   -3.2390235    1.4581204   312664 
 6521000   0.69304207   -3.2402249   -1.7802031  0.040988595   -3.2402249    1.4600219   312619 
 6522000   0.69196138   -3.2379142   -1.7799545   0.04292151   -3.2379142    1.4579597   312573 
 6523000    0.6919384   -3.2381973   -1.7802953  0.039440432   -3.2381973     1.457902   312575 
 6524000   0.69002962   -3.2343267   -1.7803395  0.038730822   -3.2343267    1.4539872   312552 
 6525000   0.69146758    -3.234913   -1.7779657  0.035614502    -3.234913    1.4569473   312567 
 6526000   0.69080154   -3.2332275   -1.7774368  0.039582207   -3.2332275    1.4557907   312514 
 6527000   0.68896098   -3.2309547   -1.7788243  0.038852017   -3.2309547    1.4521303   312467 
 6528000   0.69012833   -3.2333571   -1.7785568  0.043802738   -3.2333571    1.4548003   312422 
 6529000   0.69123813   -3.2351168   -1.7777157  0.035455517   -3.2351168     1.457401   312366 
 6530000   0.69123522   -3.2340694   -1.7768751  0.042971417   -3.2340694    1.4571943   312409 
 6531000   0.69104898   -3.2327989   -1.7760066  0.036885069   -3.2327989    1.4567923   312411 
 6532000   0.69047508   -3.2326768   -1.7767728  0.041036724   -3.2326768    1.4559041   312342 
 6533000   0.69188018   -3.2349916   -1.7756903   0.04084324   -3.2349916    1.4593013   312249 
 6534000   0.69042234   -3.2335206   -1.7771216  0.038149945   -3.2335206     1.456399   312212 
 6535000   0.69108436   -3.2357511   -1.7776894  0.041799461   -3.2357511    1.4580617   312155 
 6536000   0.68999258   -3.2307155   -1.7751064  0.045712102   -3.2307155     1.455609   312187 
 6537000   0.69135833   -3.2340775   -1.7754425  0.041606509   -3.2340775    1.4586351   312156 
 6538000   0.69236372   -3.2360822   -1.7753119  0.044256153   -3.2360822    1.4607703   312153 
 6539000   0.69253923     -3.23708   -1.7757568  0.042055402     -3.23708    1.4613231   312114 
 6540000   0.69255533   -3.2370192   -1.7754186  0.044390483   -3.2370192    1.4616006   312062 
 6541000    0.6924783   -3.2380712   -1.7763755  0.042900305   -3.2380712    1.4616957   312007 
 6542000   0.69220701   -3.2375098   -1.7762884  0.041577752   -3.2375098    1.4612214   311986 
 6543000   0.69019696   -3.2356251   -1.7786235  0.037994304   -3.2356251    1.4570016   311981 
 6544000   0.69158219   -3.2389502    -1.778575  0.042934565   -3.2389502    1.4603752   311885 
 6545000   0.69268064   -3.2414169   -1.7785205  0.039487866   -3.2414169    1.4628964   311842 
 6546000   0.69111495   -3.2397683    -1.779996  0.042302143   -3.2397683    1.4597723   311803 
 6547000   0.69031923    -3.238005   -1.7799414  0.045017441    -3.238005    1.4580636   311809 
 6548000    0.6898542    -3.236903   -1.7798637  0.041516452    -3.236903    1.4570393   311818 
 6549000   0.68780837   -3.2347491   -1.7817419   0.04006222   -3.2347491    1.4530072   311756 
 6550000   0.69068638   -3.2392766    -1.780138  0.038513988   -3.2392766    1.4591385   311745 
 6551000    0.6902525   -3.2386199    -1.780267  0.046097492   -3.2386199    1.4583529   311717 
 6552000   0.69151105    -3.240661   -1.7794147  0.042287933    -3.240661    1.4612463   311667 
 6553000   0.69086124   -3.2371854   -1.7771717  0.045904993   -3.2371854    1.4600137   311637 
 6554000   0.69066366   -3.2355544   -1.7756631  0.043552962   -3.2355544    1.4598913   311574 
 6555000   0.69084067   -3.2373335   -1.7771055  0.040863124   -3.2373335     1.460228   311582 
 6556000   0.68898067   -3.2340999    -1.777738  0.046141367   -3.2340999     1.456362   311568 
 6557000   0.68862162   -3.2352288    -1.779453  0.038684001   -3.2352288    1.4557759   311531 
 6558000   0.68886718   -3.2363659   -1.7797343  0.040131083   -3.2363659    1.4566317   311459 
 6559000   0.68904289    -3.235015   -1.7777732  0.037832916    -3.235015    1.4572418   311408 
 6560000   0.68786989   -3.2325334   -1.7778237  0.038134025   -3.2325334    1.4547097   311419 
 6561000   0.68820026   -3.2330387   -1.7776024  0.039441883   -3.2330387    1.4554364   311413 
 6562000   0.68805312   -3.2313295   -1.7761996  0.040290914   -3.2313295    1.4551299   311412 
 6563000   0.68877654   -3.2330629   -1.7762253  0.044848933   -3.2330629    1.4568376   311374 
 6564000   0.68897222   -3.2345392   -1.7771052  0.038804057   -3.2345392     1.457434   311335 
 6565000   0.68858034   -3.2318292   -1.7750931   0.04248363   -3.2318292     1.456736   311307 
 6566000   0.68786931   -3.2318452   -1.7764825  0.042212335   -3.2318452    1.4553627   311279 
 6567000   0.68695249   -3.2333269   -1.7797778   0.04000651   -3.2333269     1.453549   311252 
 6568000   0.68761076   -3.2330227   -1.7780013  0.038473406   -3.2330227    1.4550213   311235 
 6569000   0.68672831   -3.2320545   -1.7787183  0.042393571   -3.2320545    1.4533362   311196 
 6570000   0.68792734   -3.2344516   -1.7783767  0.042685083   -3.2344516    1.4560749   311153 
 6571000   0.68842427   -3.2339554   -1.7768147  0.040500802   -3.2339554    1.4571407   311150 
 6572000   0.68935978   -3.2379727   -1.7787393  0.036994404   -3.2379727    1.4592334   311126 
 6573000   0.68965086    -3.236448    -1.776406  0.041256477    -3.236448     1.460042   311085 
 6574000   0.68870893    -3.235406   -1.7771707  0.043022367    -3.235406    1.4582353   311045 
 6575000   0.68921233   -3.2363428   -1.7770369  0.040491685   -3.2363428    1.4593059   311044 
 6576000   0.69021287   -3.2374985    -1.776013   0.04566169   -3.2374985    1.4614855   311031 
 6577000   0.68977353   -3.2387501   -1.7780164  0.045041997   -3.2387501    1.4607337   310993 
 6578000   0.69046116    -3.238217   -1.7758438  0.039172697    -3.238217    1.4623733   310954 
 6579000   0.68832823   -3.2363832   -1.7783023  0.039072055   -3.2363832    1.4580809   310906 
 6580000   0.68701805    -3.233518   -1.7781704     0.042198    -3.233518    1.4553476   310897 
 6581000   0.68901663   -3.2362752   -1.7764872  0.043064687   -3.2362752    1.4597879   310853 
 6582000    0.6885769    -3.233641   -1.7746298  0.041426037    -3.233641    1.4590112   310820 
 6583000   0.68961054   -3.2346981   -1.7732711  0.045579623   -3.2346981     1.461427   310772 
 6584000   0.68886232   -3.2361085   -1.7759711  0.043659675   -3.2361085    1.4601374   310709 
 6585000   0.68844626   -3.2331827   -1.7740963  0.043885602   -3.2331827    1.4590865   310745 
 6586000   0.68900483   -3.2338861   -1.7734513  0.040267114   -3.2338861    1.4604348   310710 
 6587000   0.68775648   -3.2313637   -1.7734201  0.039554554   -3.2313637    1.4579436   310677 
 6588000   0.68644364   -3.2297639   -1.7742754  0.040141295   -3.2297639    1.4554885   310607 
 6589000   0.68780481   -3.2310471   -1.7725739   0.03807932   -3.2310471    1.4584732   310586 
 6590000   0.68682948   -3.2301273   -1.7736754   0.03755068   -3.2301273     1.456452   310576 
 6591000   0.68679722   -3.2294889   -1.7728943  0.039693662   -3.2294889    1.4565946   310531 
 6592000    0.6874922    -3.229027   -1.7707753  0.039673939    -3.229027    1.4582517   310492 
 6593000   0.68890774   -3.2294434   -1.7682645  0.040543869   -3.2294434    1.4611789   310508 
 6594000   0.68789809   -3.2278557   -1.7687337  0.050441586   -3.2278557     1.459122   310490 
 6595000   0.68754889   -3.2296137   -1.7711384  0.040453206   -3.2296137    1.4584753   310470 
 6596000   0.68832976   -3.2285003   -1.7682133  0.040471136   -3.2285003    1.4602869   310437 
 6597000   0.68692081   -3.2277829   -1.7701987  0.044051292   -3.2277829    1.4575843   310376 
 6598000    0.6885073    -3.228923   -1.7678782  0.039258009    -3.228923    1.4610448   310356 
 6599000   0.68618655   -3.2260882   -1.7698884  0.043266102   -3.2260882    1.4561998   310339 
 6600000   0.68765706   -3.2292833   -1.7696477  0.038601492   -3.2292833    1.4596356   310272 
 6601000   0.68884051   -3.2314773   -1.7691789  0.040155161   -3.2314773    1.4622984   310240 
 6602000   0.68693389   -3.2288187   -1.7703749  0.046320779   -3.2288187    1.4584437   310199 
 6603000   0.68768855   -3.2317348   -1.7715759  0.042593321   -3.2317348    1.4601589   310175 
 6604000   0.68830072   -3.2321722   -1.7706522  0.046602878   -3.2321722      1.46152   310162 
 6605000   0.68585361   -3.2275648   -1.7711564  0.041405207   -3.2275648    1.4564084   310144 
 6606000    0.6856098    -3.226922   -1.7709937  0.042357161    -3.226922    1.4559282   310136 
 6607000    0.6878484   -3.2325642   -1.7716231  0.041305621   -3.2325642    1.4609411   310081 
 6608000   0.68735097   -3.2311124   -1.7709358  0.043477833   -3.2311124    1.4601766   310019 
 6609000   0.68656432   -3.2300612   -1.7714757  0.042931011   -3.2300612    1.4585854   310002 
 6610000   0.68582774   -3.2286976   -1.7717287  0.039593613   -3.2286976    1.4569689   310013 
 6611000   0.68636323   -3.2283352   -1.7700735  0.045268984   -3.2283352    1.4582617   309980 
 6612000   0.68549479   -3.2270353   -1.7706563  0.041536396   -3.2270353     1.456379   309988 
 6613000   0.68551426    -3.228832   -1.7721532  0.037843794    -3.228832    1.4566788   309933 
 6614000   0.68604752   -3.2289853   -1.7709757  0.040679779   -3.2289853    1.4580095   309891 
 6615000   0.68614473   -3.2299718   -1.7717039  0.041152411   -3.2299718    1.4582679   309880 
 6616000   0.68647096   -3.2315289   -1.7722003  0.044203058   -3.2315289    1.4593286   309802 
 6617000   0.68934168    -3.234017   -1.7684438  0.045264449    -3.234017    1.4655732   309772 
 6618000   0.68763546    -3.230521   -1.7685234  0.048949582    -3.230521    1.4619976   309761 
 6619000     0.687067   -3.2298102   -1.7688184   0.04626631   -3.2298102    1.4609918   309718 
 6620000    0.6871935   -3.2290007   -1.7676126  0.039922645   -3.2290007    1.4613882   309691 
 6621000   0.68665297   -3.2307847   -1.7703291  0.042436339   -3.2307847    1.4604556   309645 
 6622000   0.68602772    -3.230699   -1.7716392  0.036322114    -3.230699    1.4590598   309659 
 6623000   0.68539699   -3.2307983    -1.772821  0.041843239   -3.2307983    1.4579773   309604 
 6624000   0.68550209   -3.2305516   -1.7722282  0.035322144   -3.2305516    1.4583233   309578 
 6625000   0.68420095   -3.2280502   -1.7723961  0.041749367   -3.2280502    1.4556541   309557 
 6626000   0.68500029    -3.230026    -1.772596  0.037988701    -3.230026      1.45743   309541 
 6627000   0.68500367   -3.2278684    -1.770191  0.037990667   -3.2278684    1.4576774   309490 
 6628000   0.68649039   -3.2304581   -1.7695132  0.039041013   -3.2304581    1.4609449   309468 
 6629000   0.68691661   -3.2313645   -1.7693141  0.045225111   -3.2313645    1.4620504   309426 
 6630000   0.68795086   -3.2313408   -1.7668145  0.043396359   -3.2313408    1.4645263   309368 
 6631000   0.68641938   -3.2281581   -1.7668638  0.045969879   -3.2281581    1.4612943   309362 
 6632000   0.68579665   -3.2280554   -1.7679829  0.042360607   -3.2280554    1.4600725   309340 
 6633000   0.68462945   -3.2264713   -1.7687142   0.04126378   -3.2264713    1.4577571   309304 
 6634000   0.68467562   -3.2291502   -1.7710308  0.043972032   -3.2291502    1.4581194   309248 
 6635000   0.68449238   -3.2293814   -1.7716333  0.042389296   -3.2293814    1.4577481   309244 
 6636000   0.68393628   -3.2270939    -1.770516  0.040168656   -3.2270939    1.4565779   309241 
 6637000   0.68270621   -3.2245494   -1.7705771  0.040617168   -3.2245494    1.4539723   309238 
 6638000   0.68388995   -3.2250549   -1.7686369  0.041107831   -3.2250549     1.456418   309254 
 6639000   0.68390626   -3.2264988   -1.7699236  0.041322576   -3.2264988    1.4565752   309228 
 6640000   0.68541001   -3.2282614     -1.76846  0.043503911   -3.2282614    1.4598014   309223 
 6641000   0.68474499   -3.2250914   -1.7667865   0.04292143   -3.2250914    1.4583049   309240 
 6642000   0.68595056   -3.2255812   -1.7646758  0.047834476   -3.2255812    1.4609055   309233 
 6643000   0.68595625     -3.22661   -1.7657586  0.039531578     -3.22661    1.4608514   309247 
 6644000   0.68546053   -3.2270031    -1.766943  0.042192615   -3.2270031    1.4600601   309191 
 6645000   0.68431749    -3.224492   -1.7666733    0.0437492    -3.224492    1.4578187   309150 
 6646000   0.68446149   -3.2273568   -1.7690332  0.040203153   -3.2273568    1.4583236   309108 
 6647000   0.68369098   -3.2261237   -1.7692155  0.040068379   -3.2261237    1.4569082   309060 
 6648000   0.68256062   -3.2238036   -1.7690593  0.042893283   -3.2238036    1.4547442   309008 
 6649000   0.68343007   -3.2257138   -1.7690128  0.043142901   -3.2257138     1.456701   308986 
 6650000   0.68408675   -3.2266262   -1.7681904   0.04418047   -3.2266262    1.4584358   308915 
 6651000   0.68343588   -3.2253834   -1.7679767  0.042164947   -3.2253834    1.4574067   308839 
 6652000   0.68383442   -3.2277666   -1.7693163  0.043243355   -3.2277666    1.4584502   308798 
 6653000   0.68524059    -3.228282   -1.7667808  0.046964167    -3.228282    1.4615013   308787 
 6654000   0.68494564   -3.2283546   -1.7673168  0.044514117   -3.2283546    1.4610378   308752 
 6655000   0.68379968   -3.2275459   -1.7687824  0.042823822   -3.2275459    1.4587635   308716 
 6656000   0.68378297   -3.2268066   -1.7679559  0.039720453   -3.2268066    1.4588507   308690 
 6657000   0.68359217   -3.2267613   -1.7681806   0.03939371   -3.2267613    1.4585807   308661 
 6658000   0.68372448   -3.2250132   -1.7659848  0.043326586   -3.2250132    1.4590284   308626 
 6659000   0.68377004   -3.2268101   -1.7675663  0.044145383   -3.2268101    1.4592439   308601 
 6660000   0.68367375   -3.2273436   -1.7682154   0.04254097   -3.2273436    1.4591282   308582 
 6661000     0.683361   -3.2263246   -1.7678403  0.043949099   -3.2263246    1.4584843   308577 
 6662000   0.68516444   -3.2288675   -1.7662402  0.044166407   -3.2288675    1.4626273   308515 
 6663000   0.68521852   -3.2309368    -1.768232  0.045757714   -3.2309368    1.4627048   308523 
 6664000   0.68199613   -3.2244522   -1.7685884  0.045901919   -3.2244522    1.4558638   308515 
 6665000   0.68260953   -3.2276953   -1.7703567  0.038742847   -3.2276953    1.4573386   308480 
 6666000   0.68142657   -3.2268188    -1.771935  0.043440484   -3.2268188    1.4548838   308465 
 6667000   0.68242522   -3.2269924   -1.7700096  0.045089509   -3.2269924    1.4569829   308472 
 6668000    0.6830593   -3.2281182   -1.7694127  0.039744568   -3.2281182    1.4587055   308394 
 6669000   0.68332548   -3.2301824   -1.7708942  0.036809502   -3.2301824    1.4592881   308391 
 6670000   0.68286236   -3.2295068   -1.7710091  0.042303759   -3.2295068    1.4584977   308349 
 6671000    0.6819802   -3.2274342   -1.7708962  0.044670486   -3.2274342     1.456538   308365 
 6672000   0.68323034   -3.2304972   -1.7710147  0.041943578   -3.2304972    1.4594825   308307 
 6673000   0.68255862   -3.2291649    -1.770947  0.042135428   -3.2291649    1.4582179   308271 
 6674000    0.6824639   -3.2302916   -1.7719876  0.045602314   -3.2302916    1.4583041   308210 
 6675000   0.68221563   -3.2308493   -1.7728156  0.041719948   -3.2308493    1.4580337   308155 
 6676000   0.68086535   -3.2282339   -1.7730813  0.043041508   -3.2282339    1.4551526   308154 
 6677000   0.68314666   -3.2302926   -1.7701364   0.04410794   -3.2302926    1.4601562   308127 
 6678000   0.68383988   -3.2301636   -1.7684213  0.040560659   -3.2301636    1.4617423   308105 
 6679000   0.68317067   -3.2284749   -1.7678834  0.044688631   -3.2284749    1.4605915   308046 
 6680000   0.68384104   -3.2298822    -1.767848  0.043654951   -3.2298822    1.4620342   308044 
 6681000   0.68344871   -3.2276857   -1.7663338  0.045807491   -3.2276857     1.461352   308011 
 6682000   0.68375258   -3.2279052   -1.7657991  0.042785552   -3.2279052    1.4621061   307989 
 6683000   0.68310086   -3.2275253   -1.7667606  0.042972463   -3.2275253    1.4607647   307978 
 6684000   0.68236983   -3.2240296   -1.7647287  0.041183856   -3.2240296     1.459301   307957 
 6685000   0.68229951   -3.2245705   -1.7652778  0.037024107   -3.2245705    1.4592927   307927 
 6686000   0.68044388   -3.2207389   -1.7652921  0.042927634   -3.2207389    1.4554468   307901 
 6687000   0.68129362   -3.2260344   -1.7684244  0.037690983   -3.2260344      1.45761   307828 
 6688000   0.68156511   -3.2243232   -1.7659097   0.04336883   -3.2243232    1.4584135   307781 
 6689000   0.68212287   -3.2235864   -1.7636237  0.046284075   -3.2235864    1.4599628   307706 
 6690000    0.6816493   -3.2244573   -1.7654607   0.03749129   -3.2244573    1.4589966   307696 
 6691000   0.68196775   -3.2246461   -1.7646738   0.04311619   -3.2246461    1.4599724   307634 
 6692000   0.68034365   -3.2238786   -1.7671463  0.044073289   -3.2238786    1.4567322   307584 
 6693000   0.68109921   -3.2246761   -1.7664162  0.039927264   -3.2246761    1.4582599   307603 
 6694000   0.68038222    -3.222918   -1.7661079  0.041482311    -3.222918    1.4568101   307585 
 6695000   0.68062939   -3.2231081   -1.7653801  0.039562741   -3.2231081    1.4577279   307503 
 6696000     0.680283   -3.2232326   -1.7662419  0.046392894   -3.2232326    1.4569908   307502 
 6697000   0.68122369   -3.2257473   -1.7665615  0.045203846   -3.2257473    1.4591858   307464 
 6698000   0.68055395   -3.2261047   -1.7679503  0.045946725   -3.2261047    1.4581544   307379 
 6699000   0.67978763    -3.224809   -1.7680549  0.047356936    -3.224809    1.4567541   307328 
 6700000   0.68160944   -3.2286869   -1.7677863  0.040525702   -3.2286869    1.4609006   307277 
 6701000   0.68236386   -3.2300147   -1.7674257  0.040380158   -3.2300147     1.462589   307262 
 6702000   0.68146325   -3.2286441   -1.7678191  0.045358948   -3.2286441     1.460825   307227 
 6703000   0.67999028   -3.2258529    -1.767877  0.040978188   -3.2258529    1.4579759   307162 
 6704000   0.68017467   -3.2273416   -1.7688944   0.04305708   -3.2273416    1.4584472   307146 
 6705000   0.67930911   -3.2258236   -1.7689999  0.044923803   -3.2258236    1.4568237   307097 
 6706000   0.68034468    -3.228724   -1.7695084  0.042135243    -3.228724    1.4592156   307061 
 6707000   0.67975639   -3.2257837   -1.7677777  0.044046257   -3.2257837    1.4580061   307050 
 6708000   0.67932874   -3.2255919   -1.7682942  0.044583466   -3.2255919    1.4572976   307006 
 6709000   0.67894434   -3.2262626    -1.769652  0.042060155   -3.2262626    1.4566106   306977 
 6710000   0.67817159   -3.2245343   -1.7693635  0.040252198   -3.2245343    1.4551708   306931 
 6711000   0.68032623   -3.2260664   -1.7661392  0.037905618   -3.2260664    1.4599272   306903 
 6712000   0.68016477   -3.2245632   -1.7647588  0.041003601   -3.2245632    1.4598043   306856 
 6713000    0.6799201   -3.2235486   -1.7644168  0.045672188   -3.2235486    1.4591318   306887 
 6714000   0.67892342   -3.2223437   -1.7655027  0.039948974   -3.2223437     1.456841   306919 
 6715000   0.67937396    -3.221244   -1.7632557  0.045834464    -3.221244    1.4579883   306881 
 6716000   0.67946393   -3.2228215   -1.7645309  0.040452072   -3.2228215    1.4582906   306858 
 6717000   0.67951142   -3.2244362   -1.7659724  0.041744223   -3.2244362    1.4584639   306843 
 6718000   0.68007337   -3.2237971   -1.7640748  0.040645259   -3.2237971    1.4597223   306832 
 6719000   0.67948227   -3.2233636   -1.7650003    0.0411192   -3.2233636    1.4583633   306851 
 6720000   0.68091876   -3.2233209   -1.7616316  0.039878075   -3.2233209    1.4616893   306800 
 6721000   0.68018322   -3.2191716   -1.7590137  0.046757545   -3.2191716     1.460158   306790 
 6722000   0.67991315   -3.2204028   -1.7604106  0.047556214   -3.2204028    1.4599923   306703 
 6723000   0.67960512   -3.2194688   -1.7602332  0.041841434   -3.2194688    1.4592356   306723 
 6724000   0.68109544   -3.2228788   -1.7602763  0.043230204   -3.2228788    1.4626025   306688 
 6725000   0.68009495   -3.2213436   -1.7609182  0.043795578   -3.2213436    1.4604255   306694 
 6726000    0.6797535   -3.2200768   -1.7603084  0.045647693   -3.2200768    1.4597684   306678 
 6727000   0.67957899   -3.2199309   -1.7603374  0.040548517   -3.2199309    1.4595935   306636 
 6728000    0.6786577   -3.2197211   -1.7621015  0.043882651   -3.2197211    1.4576196   306635 
 6729000   0.67885094   -3.2216656   -1.7634361  0.036756537   -3.2216656    1.4582296   306594 
 6730000   0.67700064   -3.2181095   -1.7636695  0.039949598   -3.2181095      1.45444   306555 
 6731000   0.67759123   -3.2208161   -1.7648604  0.041757532   -3.2208161    1.4559558   306503 
 6732000     0.677259   -3.2205167   -1.7651134  0.043375578   -3.2205167    1.4554033   306469 
 6733000   0.67794822   -3.2194446    -1.762427   0.04501247   -3.2194446    1.4570176   306441 
 6734000   0.67926501   -3.2227154   -1.7625343  0.041251474   -3.2227154    1.4601811   306371 
 6735000   0.67941327   -3.2214704   -1.7607417  0.047106887   -3.2214704    1.4607287   306323 
 6736000   0.67939443   -3.2235377   -1.7628019  0.039229154   -3.2235377    1.4607358   306313 
 6737000    0.6790573   -3.2235732   -1.7634049  0.044919755   -3.2235732    1.4601683   306280 
 6738000   0.67968151   -3.2254737   -1.7636816   0.03974642   -3.2254737    1.4617921   306221 
 6739000   0.67927818   -3.2233212   -1.7620911  0.042457794   -3.2233212    1.4612301   306157 
 6740000   0.67848923   -3.2209197   -1.7612247  0.040847477   -3.2209197     1.459695   306123 
 6741000   0.67740456   -3.2227385   -1.7649484  0.038843995   -3.2227385    1.4577901   306033 
 6742000   0.67743242   -3.2206266   -1.7625098  0.041086647   -3.2206266    1.4581169   305977 
 6743000   0.67507608   -3.2182159   -1.7650426  0.043622946   -3.2182159    1.4531733   305950 
 6744000   0.67788136   -3.2195338   -1.7603648  0.042263879   -3.2195338     1.459169   305959 
 6745000   0.67771462   -3.2168283    -1.757961  0.047206745   -3.2168283    1.4588673   305947 
 6746000   0.67754248   -3.2178737   -1.7590241  0.040401309   -3.2178737    1.4588496   305873 
 6747000   0.67725194   -3.2201726   -1.7618104  0.037928529   -3.2201726    1.4583623   305844 
 6748000   0.67697844   -3.2179689   -1.7602099  0.047457652   -3.2179689     1.457759   305847 
 6749000   0.67748254   -3.2199411   -1.7608198  0.038931922   -3.2199411    1.4591213   305789 
 6750000   0.67661114   -3.2179441   -1.7606758  0.043084256   -3.2179441    1.4572683   305784 
 6751000   0.67708329   -3.2180197   -1.7597965  0.039640998   -3.2180197    1.4582232   305797 
 6752000   0.67718806   -3.2178115   -1.7591051  0.039160881   -3.2178115    1.4587064   305743 
 6753000   0.67504507   -3.2153449   -1.7608883  0.040855333   -3.2153449    1.4544566   305666 
 6754000   0.67557338   -3.2156689   -1.7599883  0.034775133   -3.2156689    1.4556806   305648 
 6755000   0.67459531   -3.2133055   -1.7597561  0.048343388   -3.2133055    1.4535494   305653 
 6756000    0.6771819   -3.2174607   -1.7581805  0.042254871   -3.2174607    1.4592802   305620 
 6757000   0.67635231   -3.2176941   -1.7601395  0.041670433   -3.2176941    1.4575545   305607 
 6758000   0.67643651   -3.2168662   -1.7588774   0.04034853   -3.2168662    1.4579888   305554 
 6759000   0.67583157    -3.215975   -1.7589992  0.043169879    -3.215975    1.4569758   305493 
 6760000    0.6761747   -3.2184421   -1.7606073  0.042032793   -3.2184421    1.4578348   305468 
 6761000    0.6774141   -3.2211602   -1.7603424  0.042585488   -3.2211602    1.4608178   305403 
 6762000   0.67671188   -3.2200988   -1.7608622  0.043262576   -3.2200988    1.4592366   305417 
 6763000   0.67809297   -3.2223352   -1.7599529  0.043887749   -3.2223352    1.4623824   305382 
 6764000   0.67719458   -3.2214986   -1.7608576  0.045579305   -3.2214986     1.460641   305341 
 6765000   0.67568014   -3.2191997    -1.761577  0.045429159   -3.2191997    1.4576227   305289 
 6766000   0.67510449   -3.2210566   -1.7645803  0.043889803   -3.2210566    1.4564763   305269 
 6767000   0.67555613   -3.2216396   -1.7640887  0.042592808   -3.2216396     1.457551   305248 
 6768000   0.67518657   -3.2220483    -1.765204   0.04101172   -3.2220483    1.4568443   305229 
 6769000   0.67556256   -3.2226451   -1.7647316  0.048338278   -3.2226451    1.4579135   305175 
 6770000    0.6757174   -3.2223095   -1.7638946  0.038749026   -3.2223095    1.4584149   305140 
 6771000   0.67517756   -3.2233173   -1.7659673  0.036202993   -3.2233173      1.45735   305119 
 6772000   0.67693326   -3.2244624   -1.7635094  0.042069433   -3.2244624    1.4609529   305158 
 6773000   0.67643345   -3.2237084   -1.7637768  0.044832662   -3.2237084    1.4599317   305146 
 6774000   0.67652471   -3.2220805   -1.7619327  0.045203653   -3.2220805    1.4601478   305142 
 6775000   0.67543215     -3.22147   -1.7634175  0.043715911     -3.22147    1.4580525   305087 
 6776000   0.67671317   -3.2239902   -1.7630527  0.043482972   -3.2239902    1.4609375   305062 
 6777000   0.67598704   -3.2235593   -1.7639789  0.045424202   -3.2235593    1.4595804   305018 
 6778000   0.67483171   -3.2196125   -1.7625648  0.047833878   -3.2196125    1.4570476   305026 
 6779000   0.67499311   -3.2202005   -1.7625559  0.038378935   -3.2202005    1.4576446   304974 
 6780000   0.67428203   -3.2190682   -1.7625914  0.045204856   -3.2190682    1.4564768   304897 
 6781000   0.67370657   -3.2198776   -1.7643526  0.043945953   -3.2198776     1.455525   304836 
 6782000   0.67542614   -3.2221374   -1.7629931  0.044947978   -3.2221374    1.4591443   304856 
 6783000   0.67355769   -3.2181956   -1.7630304  0.042135555   -3.2181956    1.4551651   304844 
 6784000    0.6759238   -3.2204719   -1.7601758  0.041206335   -3.2204719    1.4602961   304840 
 6785000   0.67305438   -3.2173682   -1.7629517  0.043079444   -3.2173682    1.4544165   304773 
 6786000   0.67376954   -3.2174429   -1.7614906   0.04282036   -3.2174429    1.4559524   304775 
 6787000   0.67377493   -3.2170235   -1.7609353  0.036788448   -3.2170235    1.4560882   304749 
 6788000    0.6734394   -3.2152301   -1.7597046  0.040916782   -3.2152301    1.4555255   304715 
 6789000   0.67477086   -3.2186657   -1.7601045  0.037852267   -3.2186657    1.4585612   304682 
 6790000   0.67503416   -3.2178475   -1.7584729  0.044858679   -3.2178475    1.4593746   304631 
 6791000   0.67440568   -3.2178217   -1.7598632  0.039060365   -3.2178217    1.4579584   304643 
 6792000   0.67330019   -3.2166842    -1.761001  0.042249962   -3.2166842    1.4556832   304619 
 6793000   0.67386584   -3.2171377    -1.760112  0.040091048   -3.2171377    1.4570258   304594 
 6794000   0.67425696   -3.2171359   -1.7592358  0.046184995   -3.2171359    1.4579002   304588 
 6795000    0.6743873   -3.2174213   -1.7590621  0.043919049   -3.2174213    1.4583591   304551 
 6796000   0.67444246   -3.2206516   -1.7618905  0.043992921   -3.2206516     1.458761   304492 
 6797000   0.67628831   -3.2209589   -1.7581718  0.042898518   -3.2209589    1.4627871   304485 
 6798000   0.67604673   -3.2198659   -1.7574573   0.03952759   -3.2198659    1.4624086   304455 
 6799000   0.67459276   -3.2211005    -1.761607  0.043772794   -3.2211005    1.4594935   304407 
 6800000   0.67429011   -3.2195422   -1.7604782  0.040466876   -3.2195422     1.459064   304360 
 6801000   0.67331022   -3.2181006   -1.7611809  0.043270403   -3.2181006    1.4569197   304365 
 6802000   0.67341059   -3.2181114   -1.7608452    0.0397545   -3.2181114    1.4572662   304338 
 6803000   0.67285328   -3.2181334   -1.7618627  0.042548424   -3.2181334    1.4562707   304294 
 6804000   0.67321315    -3.219249   -1.7619887  0.039648018    -3.219249    1.4572603   304250 
 6805000   0.67299272   -3.2201424   -1.7631341  0.037956564   -3.2201424    1.4570082   304203 
 6806000   0.67369784   -3.2223546    -1.763652  0.040282637   -3.2223546    1.4587026   304168 
 6807000   0.67367796   -3.2217567   -1.7630971  0.039747151   -3.2217567    1.4586596   304168 
 6808000    0.6728078   -3.2182852   -1.7613852  0.041909457   -3.2182852       1.4569   304142 
 6809000   0.67306426   -3.2174673    -1.760103  0.040919069   -3.2174673    1.4573643   304161 
 6810000   0.67282883   -3.2174285     -1.76032  0.043070907   -3.2174285    1.4571085   304108 
 6811000   0.67389965   -3.2197563   -1.7600312  0.039823304   -3.2197563    1.4597251   304046 
 6812000   0.67262246   -3.2174045   -1.7604076  0.044554201   -3.2174045    1.4569969   304038 
 6813000    0.6731731   -3.2204267   -1.7619444  0.041690092   -3.2204267    1.4584823   303977 
 6814000   0.67309261   -3.2194634    -1.760978  0.038252743   -3.2194634    1.4584854   303940 
 6815000   0.67323123   -3.2209086    -1.761974  0.038015219   -3.2209086    1.4589346   303909 
 6816000   0.67316863   -3.2191813   -1.7604255  0.039295125   -3.2191813    1.4587558   303918 
 6817000   0.67261517   -3.2179639   -1.7601389  0.044162099   -3.2179639     1.457825   303862 
 6818000   0.67197544    -3.217817   -1.7613307  0.042525528    -3.217817    1.4564864   303852 
 6819000   0.67178469   -3.2187747   -1.7623422  0.041039632   -3.2187747    1.4564325   303777 
 6820000   0.67291564   -3.2212631   -1.7623019  0.036239508   -3.2212631    1.4589612   303761 
 6821000   0.67223717   -3.2202249   -1.7624084   0.04391997   -3.2202249    1.4578165   303693 
 6822000   0.67310136   -3.2221148   -1.7621934  0.043652348   -3.2221148    1.4599214   303645 
 6823000   0.67237738   -3.2199539   -1.7616892  0.044789328   -3.2199539    1.4582647   303663 
 6824000   0.67060696   -3.2172075   -1.7627155  0.043731287   -3.2172075     1.454492   303649 
 6825000   0.67116059   -3.2177764   -1.7620836  0.046568769   -3.2177764    1.4556928   303649 
 6826000   0.67397844   -3.2242437   -1.7619384  0.038843783   -3.2242437    1.4623053   303545 
 6827000   0.67291164   -3.2227395   -1.7625227  0.044294281   -3.2227395    1.4602168   303498 
 6828000   0.67101087   -3.2201017   -1.7637745  0.045819723   -3.2201017    1.4563272   303449 
 6829000   0.67207463   -3.2244552   -1.7656942  0.042912192   -3.2244552     1.458761   303423 
 6830000   0.67203415   -3.2238548   -1.7648451  0.046084823   -3.2238548    1.4590097   303353 
 6831000   0.67125677   -3.2232618   -1.7658774   0.04170089   -3.2232618    1.4573844   303340 
 6832000   0.67141107   -3.2205794   -1.7627927  0.045564568   -3.2205794    1.4577867   303326 
 6833000   0.67133156    -3.222354   -1.7643986  0.042610546    -3.222354    1.4579554   303255 
 6834000   0.67135433   -3.2217255   -1.7637303  0.047173871   -3.2217255    1.4579952   303257 
 6835000   0.67132148   -3.2237228   -1.7655297  0.041730767   -3.2237228    1.4581931   303201 
 6836000   0.67051097   -3.2227438   -1.7661815  0.039787046   -3.2227438    1.4565623   303174 
 6837000   0.67032245   -3.2232908   -1.7670323  0.038090054   -3.2232908    1.4562584   303152 
 6838000   0.67056294   -3.2243588   -1.7673424   0.04292889   -3.2243588    1.4570164   303103 
 6839000   0.66944558   -3.2221882   -1.7673644  0.043885564   -3.2221882    1.4548238   303054 
 6840000   0.67128707    -3.225921   -1.7668594  0.041604176    -3.225921    1.4590616   303005 
 6841000   0.67013526   -3.2240716    -1.767475  0.041634361   -3.2240716    1.4565965   302997 
 6842000   0.67012939   -3.2217135   -1.7650576  0.046227606   -3.2217135    1.4566559   302982 
 6843000   0.66975654    -3.220412   -1.7643552  0.044900199    -3.220412    1.4560569   302938 
 6844000   0.66998246   -3.2205287   -1.7640479  0.041863473   -3.2205287    1.4564807   302952 
 6845000   0.67100845   -3.2239449   -1.7648821  0.040786856   -3.2239449    1.4590627   302879 
 6846000    0.6725663   -3.2255822   -1.7630065  0.044498844   -3.2255822    1.4625757   302853 
 6847000   0.67058243   -3.2202939   -1.7619842  0.042045102   -3.2202939    1.4583097   302843 
 6848000   0.67050725   -3.2198209   -1.7614291  0.043677665   -3.2198209    1.4583918   302792 
 6849000   0.66975959   -3.2195374    -1.762589  0.047389759   -3.2195374    1.4569485   302754 
 6850000    0.6711552   -3.2221612   -1.7618102  0.041223328   -3.2221612    1.4603509   302678 
 6851000     0.670814   -3.2210812    -1.761328  0.039103663   -3.2210812    1.4597532   302648 
 6852000   0.66902258   -3.2172396    -1.761274  0.039843776   -3.2172396    1.4559656   302625 
 6853000   0.66760345   -3.2145248   -1.7617293  0.040020551   -3.2145248    1.4527956   302642 
 6854000   0.66911723    -3.217633   -1.7613844  0.039566392    -3.217633    1.4562486   302609 
 6855000   0.66824218   -3.2150923   -1.7606328  0.042874825   -3.2150923    1.4544595   302585 
 6856000    0.6706683   -3.2178459   -1.7580046   0.03902425   -3.2178459    1.4598413   302564 
 6857000   0.67112781    -3.217472   -1.7564953  0.039322078    -3.217472    1.4609768   302536 
 6858000   0.66980268   -3.2162141    -1.757828  0.040626946   -3.2162141    1.4583861   302475 
 6859000   0.67001161   -3.2170117   -1.7580067  0.041501858   -3.2170117    1.4590051   302441 
 6860000   0.67037323   -3.2177381   -1.7578635   0.04151248   -3.2177381    1.4598746   302424 
 6861000   0.67014399   -3.2184387   -1.7591067  0.042782546   -3.2184387    1.4593319   302433 
 6862000   0.66849164   -3.2162557   -1.7604595  0.044398106   -3.2162557    1.4557963   302420 
 6863000   0.66960319   -3.2161692   -1.7578317  0.039565736   -3.2161692    1.4583375   302395 
 6864000   0.66987095   -3.2170107   -1.7579163  0.041182005   -3.2170107    1.4590943   302359 
 6865000   0.66891218   -3.2183823   -1.7611305  0.042757566   -3.2183823    1.4572518   302308 
 6866000   0.66941672   -3.2202922   -1.7617434  0.043945081   -3.2202922    1.4585488   302267 
 6867000   0.66897851   -3.2200153   -1.7624165  0.040471794   -3.2200153    1.4575988   302266 
 6868000   0.66908266      -3.2202   -1.7622586  0.039148286      -3.2202    1.4579415   302242 
 6869000   0.66949092   -3.2182291   -1.7593063  0.042768188   -3.2182291    1.4589228   302223 
 6870000   0.66971928   -3.2179204   -1.7585965  0.043606969   -3.2179204    1.4593239   302243 
 6871000    0.6700817   -3.2198793   -1.7595434  0.043887188   -3.2198793    1.4603358   302197 
 6872000   0.66953934   -3.2196486   -1.7604707  0.040954777   -3.2196486     1.459178   302192 
 6873000   0.66919231   -3.2212104   -1.7625473  0.041295281   -3.2212104     1.458663   302142 
 6874000    0.6683286   -3.2201936   -1.7632397  0.042668228   -3.2201936    1.4569539   302106 
 6875000   0.66853711   -3.2199134   -1.7624904  0.045006936   -3.2199134     1.457423   302103 
 6876000   0.66873729   -3.2210157    -1.762944  0.043686768   -3.2210157    1.4580717   302059 
 6877000   0.66906913   -3.2216341   -1.7629644  0.044518824   -3.2216341    1.4586697   302085 
 6878000   0.66956544   -3.2212416   -1.7614802  0.040954947   -3.2212416    1.4597614   302083 
 6879000   0.67099108   -3.2233225   -1.7603561   0.04277718   -3.2233225    1.4629664   302063 
 6880000   0.67005541   -3.2214238   -1.7604539  0.050265442   -3.2214238    1.4609699   302054 
 6881000   0.66984861   -3.2220031   -1.7613197  0.046049157   -3.2220031    1.4606834   302020 
 6882000   0.66791237   -3.2198403   -1.7631041  0.045821006   -3.2198403    1.4567361   301963 
 6883000   0.66799951   -3.2209744   -1.7641399  0.045193786   -3.2209744    1.4568345   301982 
 6884000   0.66812992    -3.219535    -1.762363  0.042662592    -3.219535     1.457172   301971 
 6885000   0.66892583   -3.2193161   -1.7601473  0.043645978   -3.2193161    1.4591688   301917 
 6886000    0.6690857    -3.221362   -1.7616656  0.043822138    -3.221362    1.4596964   301880 
 6887000   0.66811118   -3.2173287   -1.7596473  0.042590569   -3.2173287    1.4576814   301857 
 6888000   0.66867263   -3.2168436   -1.7578453  0.043759125   -3.2168436    1.4589982   301838 
 6889000   0.66879677   -3.2156488    -1.756428  0.040365113   -3.2156488    1.4592207   301848 
 6890000   0.66957721   -3.2178849   -1.7568985  0.045350444   -3.2178849    1.4609865   301835 
 6891000   0.66807659   -3.2161431    -1.758344  0.042187004   -3.2161431    1.4577991   301817 
 6892000   0.66849379   -3.2165212   -1.7575217  0.038830372   -3.2165212    1.4589995   301757 
 6893000   0.66888645    -3.215395   -1.7554901   0.04003965    -3.215395    1.4599049   301747 
 6894000   0.66860364   -3.2140312   -1.7544243  0.044342414   -3.2140312    1.4596069   301681 
 6895000   0.66823667   -3.2124888   -1.7534557  0.047823849   -3.2124888    1.4590331   301634 
 6896000   0.66858765    -3.213266     -1.75321  0.041734534    -3.213266     1.460056   301581 
 6897000    0.6672682   -3.2093937   -1.7522627  0.042422906   -3.2093937    1.4571311   301590 
 6898000   0.66734541   -3.2105905   -1.7528703   0.04204609   -3.2105905    1.4577202   301503 
 6899000   0.66705842   -3.2101156   -1.7528192  0.041878094   -3.2101156    1.4572963   301461 
 6900000   0.66626244   -3.2101771   -1.7544507  0.040594094   -3.2101771    1.4557264   301426 
 6901000   0.66652469   -3.2106083   -1.7541108  0.036001078   -3.2106083    1.4564975   301385 
 6902000   0.66647227   -3.2094896   -1.7528312  0.041048836   -3.2094896    1.4566584   301328 
 6903000   0.66767229   -3.2111692   -1.7519509  0.046800085   -3.2111692    1.4592183   301341 
 6904000   0.66760783   -3.2113667   -1.7521537  0.039745239   -3.2113667     1.459213   301313 
 6905000   0.66619087   -3.2076957   -1.7513961  0.042779565   -3.2076957    1.4562995   301275 
 6906000   0.66794875   -3.2100412   -1.7497099  0.038172488   -3.2100412    1.4603313   301236 
 6907000   0.66803447   -3.2095685   -1.7489673  0.043621092   -3.2095685    1.4606012   301219 
 6908000   0.66847757   -3.2090947   -1.7473985  0.043764169   -3.2090947    1.4616961   301193 
 6909000   0.66902868   -3.2120035   -1.7488302  0.042518999   -3.2120035    1.4631732   301137 
 6910000    0.6684974    -3.211758   -1.7495136  0.043984915    -3.211758    1.4622444   301089 
 6911000    0.6674901   -3.2101096   -1.7499473  0.043469695   -3.2101096    1.4601623   301064 
 6912000   0.66626107   -3.2069148   -1.7494072  0.038531009   -3.2069148    1.4575077   301057 
 6913000   0.66731912    -3.209114   -1.7492142  0.038093119    -3.209114    1.4598998   301041 
 6914000   0.66679509   -3.2106251   -1.7517264  0.041541209   -3.2106251    1.4588988   301011 
 6915000    0.6662606   -3.2077921   -1.7501451  0.042522632   -3.2077921     1.457647   301028 
 6916000   0.66800013   -3.2116898   -1.7502273  0.043199243   -3.2116898    1.4614625   301026 
 6917000   0.66606487   -3.2076307    -1.750194  0.042114291   -3.2076307    1.4574367   300983 
 6918000   0.66606119   -3.2086134   -1.7510105  0.046247898   -3.2086134     1.457603   300947 
 6919000   0.66499837    -3.207027   -1.7515371  0.039250622    -3.207027    1.4554899   300903 
 6920000   0.66519155   -3.2090269   -1.7527415  0.041353302   -3.2090269    1.4562854   300826 
 6921000     0.665578   -3.2092405   -1.7520606  0.045261501   -3.2092405    1.4571799   300816 
 6922000   0.66604398    -3.209633   -1.7512729  0.043205841    -3.209633      1.45836   300783 
 6923000   0.66606753   -3.2088666   -1.7502804  0.040695282   -3.2088666    1.4585862   300747 
 6924000   0.66631655   -3.2112018   -1.7519975  0.042495455   -3.2112018    1.4592043   300732 
 6925000   0.66557314   -3.2102327    -1.752482  0.043135973   -3.2102327    1.4577507   300696 
 6926000   0.66545922   -3.2113226   -1.7536614  0.042153533   -3.2113226    1.4576612   300663 
 6927000   0.66582632   -3.2116547   -1.7530536  0.041922165   -3.2116547    1.4586011   300635 
 6928000   0.66514278   -3.2114199   -1.7540787  0.040477903   -3.2114199    1.4573413   300586 
 6929000   0.66487655   -3.2106623   -1.7538171  0.043430359   -3.2106623    1.4568452   300568 
 6930000   0.66494613   -3.2108878   -1.7538368   0.04559421   -3.2108878     1.457051   300557 
 6931000   0.66663653   -3.2148489    -1.754089  0.039876293   -3.2148489    1.4607599   300556 
 6932000   0.66507385   -3.2126132    -1.755069   0.04378411   -3.2126132    1.4575442   300513 
 6933000   0.66445069   -3.2144248   -1.7581154  0.042256938   -3.2144248    1.4563094   300486 
 6934000   0.66557058   -3.2161151   -1.7573221  0.040389355   -3.2161151     1.458793   300480 
 6935000   0.66605875   -3.2163733   -1.7561944  0.044141663   -3.2163733    1.4601789   300415 
 6936000   0.66541156   -3.2142503   -1.7552474   0.04653822   -3.2142503    1.4590029   300365 
 6937000   0.66454604    -3.213813   -1.7565575  0.042392845    -3.213813    1.4572555   300334 
 6938000   0.66450489   -3.2154455   -1.7580667  0.045570526   -3.2154455    1.4573788   300290 
 6939000   0.66482111   -3.2148946   -1.7569388  0.044764439   -3.2148946    1.4579558   300314 
 6940000   0.66615609   -3.2169556    -1.755863  0.043625309   -3.2169556    1.4610926   300271 
 6941000   0.66528905   -3.2172433   -1.7576732  0.042780049   -3.2172433    1.4595701   300193 
 6942000   0.66576109   -3.2162559   -1.7556356  0.048704413   -3.2162559    1.4606203   300190 
 6943000   0.66380708   -3.2141546   -1.7576271   0.04253394   -3.2141546    1.4565274   300150 
 6944000   0.66412741   -3.2148066   -1.7574549   0.04151079   -3.2148066    1.4573517   300125 
 6945000   0.66380175    -3.213626   -1.7569501  0.040921226    -3.213626    1.4566759   300117 
 6946000   0.66329223   -3.2124899    -1.756709  0.044235428   -3.2124899    1.4557809   300071 
 6947000   0.66444116   -3.2154717   -1.7568532  0.041624777   -3.2154717    1.4586185   300006 
 6948000   0.66453731   -3.2140953   -1.7551344  0.046750772   -3.2140953    1.4589609   299979 
 6949000   0.66479987   -3.2132774   -1.7535649  0.046227671   -3.2132774    1.4597125   299943 
 6950000   0.66452376    -3.215536   -1.7562206  0.048192667    -3.215536    1.4593154   299900 
 6951000   0.66333766   -3.2138968   -1.7570209  0.041911372   -3.2138968    1.4568759   299866 
 6952000   0.66386249   -3.2142899   -1.7559062  0.037188308   -3.2142899    1.4583836   299793 
 6953000   0.66517755   -3.2167293   -1.7553008  0.039062808   -3.2167293    1.4614285   299761 
 6954000   0.66304497   -3.2124789   -1.7553517   0.04409064   -3.2124789    1.4571272   299682 
 6955000   0.66387538   -3.2148931   -1.7558777  0.037444201   -3.2148931    1.4590154   299669 
 6956000   0.66348154    -3.212694   -1.7543446  0.045337085    -3.212694    1.4583494   299628 
 6957000   0.66317322   -3.2117362   -1.7538456  0.036296198   -3.2117362    1.4578906   299583 
 6958000   0.66298385   -3.2117942   -1.7542274  0.041209928   -3.2117942    1.4575668   299564 
 6959000    0.6617615    -3.210197   -1.7549387  0.039006759    -3.210197    1.4552584   299486 
 6960000   0.66303458    -3.213988   -1.7557889  0.037997614    -3.213988    1.4581992   299457 
 6961000   0.66213575   -3.2098773   -1.7534458  0.046683072   -3.2098773    1.4564315   299414 
 6962000   0.66312884   -3.2110672   -1.7524123  0.040132512   -3.2110672    1.4586549   299406 
 6963000   0.66370202   -3.2135676    -1.753208  0.038271537   -3.2135676    1.4603595   299315 
 6964000   0.66217829   -3.2122431   -1.7549441  0.044652439   -3.2122431     1.457299   299255 
 6965000   0.66184348   -3.2119283   -1.7551568  0.044536329   -3.2119283    1.4567714   299212 
 6966000   0.66340128    -3.214271   -1.7540316   0.03856761    -3.214271    1.4602393   299204 
 6967000   0.66168091    -3.213672   -1.7570588  0.042331347    -3.213672    1.4566132   299171 
 6968000   0.66209576   -3.2130544   -1.7553525  0.035550817   -3.2130544    1.4577019   299135 
 6969000   0.66294745   -3.2131616   -1.7534724  0.043370437   -3.2131616    1.4596892   299112 
 6970000   0.66326799   -3.2136807   -1.7531343   0.04161429   -3.2136807    1.4605464   299081 
 6971000   0.66284938   -3.2137174   -1.7541905  0.044750029   -3.2137174     1.459527   299101 
 6972000   0.66191124   -3.2132167   -1.7555604  0.042905132   -3.2132167    1.4576562   299061 
 6973000   0.66258827   -3.2127806   -1.7535066  0.045545556   -3.2127806     1.459274   299035 
 6974000   0.66152792   -3.2107137   -1.7534826  0.041062237   -3.2107137    1.4572311   298975 
 6975000   0.66273951   -3.2140071   -1.7538629  0.041426707   -3.2140071    1.4601442   298925 
 6976000   0.66141088    -3.212001   -1.7545939  0.041610473    -3.212001    1.4574072   298886 
 6977000    0.6609869   -3.2098865   -1.7533307  0.045244636   -3.2098865    1.4565558   298869 
 6978000   0.65990418   -3.2098345   -1.7555089  0.040716027   -3.2098345    1.4543256   298837 
 6979000   0.66044903   -3.2100931   -1.7543037  0.041229732   -3.2100931    1.4557894   298783 
 6980000   0.66027393    -3.209377   -1.7539492  0.043768534    -3.209377    1.4554278   298778 
 6981000   0.66097983   -3.2112028   -1.7539459  0.040526582   -3.2112028    1.4572569   298722 
 6982000   0.66000189    -3.209633   -1.7544298   0.04171808    -3.209633    1.4552032   298701 
 6983000   0.66081244   -3.2112363   -1.7540753  0.041809237   -3.2112363    1.4571611   298666 
 6984000   0.66096969   -3.2100833   -1.7523705  0.047411692   -3.2100833    1.4577128   298624 
 6985000   0.66067974   -3.2094331   -1.7518765  0.042472597   -3.2094331    1.4575566   298525 
 6986000   0.66082686   -3.2090889   -1.7510857  0.041570111   -3.2090889    1.4580032   298500 
 6987000   0.66058462   -3.2107202   -1.7531684  0.039542102   -3.2107202    1.4575518   298483 
 6988000   0.65975118   -3.2091623   -1.7532349   0.03926947   -3.2091623    1.4559274   298439 
 6989000   0.66056365   -3.2120681   -1.7541523  0.042968064   -3.2120681    1.4579158   298399 
 6990000   0.66081224   -3.2117598   -1.7531878  0.042097812   -3.2117598     1.458572   298377 
 6991000   0.66112926   -3.2084131   -1.7491218  0.043203741   -3.2084131    1.4592913   298373 
 6992000   0.66249078   -3.2109685    -1.748422  0.040102341   -3.2109685    1.4625465   298322 
 6993000   0.66175587   -3.2079806   -1.7470271  0.043367084   -3.2079806    1.4609535   298316 
 6994000   0.66115915   -3.2101695   -1.7503181  0.045358003   -3.2101695    1.4598514   298272 
 6995000   0.65963584   -3.2089596    -1.752286  0.042545192   -3.2089596    1.4566735   298234 
 6996000   0.66060964   -3.2099878   -1.7512616   0.03766291   -3.2099878    1.4587261   298254 
 6997000   0.66151232   -3.2072009   -1.7466725  0.044716037   -3.2072009    1.4605284   298293 
 6998000   0.65986443   -3.2042167   -1.7473168  0.044818487   -3.2042167    1.4568998   298291 
 6999000   0.66061573   -3.2062073   -1.7475753  0.043780887   -3.2062073     1.458632   298276 
 7000000   0.65955494   -3.2035913   -1.7470622  0.044998009   -3.2035913    1.4565291   298227 
 7001000   0.66071385   -3.2042777   -1.7452627  0.038334661   -3.2042777     1.459015   298242 
 7002000   0.66013535   -3.2027907   -1.7449506  0.037537748   -3.2027907    1.4578401   298221 
 7003000   0.66018258   -3.2024452   -1.7443198  0.041683691   -3.2024452    1.4581253   298184 
 7004000   0.65999812   -3.2042914   -1.7464415  0.043165363   -3.2042914    1.4578499   298157 
 7005000   0.65936027   -3.2003789   -1.7438011  0.045859479   -3.2003789    1.4565778   298129 
 7006000   0.65969918   -3.2022571   -1.7447644  0.041175684   -3.2022571    1.4574927   298095 
 7007000   0.66020177   -3.1999894   -1.7412787   0.03877716   -3.1999894    1.4587107   298073 
 7008000   0.66031459    -3.200652   -1.7414228  0.041376114    -3.200652    1.4592293   298018 
 7009000   0.66092278   -3.2029901   -1.7421717  0.044150739   -3.2029901    1.4608184   297968 
 7010000   0.66020628   -3.2032402   -1.7436087  0.040406413   -3.2032402    1.4596315   297887 
 7011000   0.66018798   -3.2027366   -1.7429692  0.043524235   -3.2027366    1.4597675   297851 
 7012000   0.65964554   -3.2027232   -1.7438661  0.039085377   -3.2027232     1.458857   297792 
 7013000   0.65930208   -3.2019571   -1.7438352  0.043023076   -3.2019571    1.4581219   297787 
 7014000   0.65876387   -3.2015189    -1.744553  0.042090108   -3.2015189    1.4569659   297780 
 7015000   0.65935387   -3.2005307   -1.7422746  0.037046078   -3.2005307    1.4582561   297783 
 7016000    0.6593489     -3.19802   -1.7397603  0.043620464     -3.19802    1.4582598   297780 
 7017000   0.66000051   -3.2019894   -1.7421904  0.042772549   -3.2019894    1.4597989   297760 
 7018000   0.66004858   -3.2021213   -1.7419267   0.04321353   -3.2021213    1.4601946   297701 
 7019000   0.66018732   -3.2016889   -1.7410549  0.045652764   -3.2016889     1.460634   297674 
 7020000   0.65948624   -3.2004676   -1.7410856  0.043046111   -3.2004676     1.459382   297613 
 7021000   0.65916681   -3.2018817   -1.7430203  0.042709567   -3.2018817    1.4588614   297575 
 7022000   0.65936716   -3.2042837   -1.7448171    0.0406791   -3.2042837    1.4594666   297542 
 7023000   0.65867726   -3.2033746   -1.7453419  0.042027818   -3.2033746    1.4580327   297523 
 7024000   0.66022354   -3.2054158   -1.7436705  0.042728989   -3.2054158    1.4617454   297464 
 7025000   0.65854967   -3.1998044   -1.7417748  0.045337849   -3.1998044    1.4580296   297466 
 7026000   0.65826669    -3.201752   -1.7441676  0.040711384    -3.201752    1.4575844   297429 
 7027000   0.65769244   -3.2028394   -1.7461789  0.045066884   -3.2028394    1.4566605   297358 
 7028000   0.65845101   -3.2041336   -1.7455527  0.043198335   -3.2041336     1.458581   297309 
 7029000   0.65888997   -3.2053963   -1.7457791  0.044328826   -3.2053963    1.4596172   297296 
 7030000    0.6586155   -3.2054461   -1.7463928  0.043213682   -3.2054461    1.4590533   297287 
 7031000   0.65853236   -3.2063132   -1.7473558  0.038998927   -3.2063132    1.4589575   297269 
 7032000   0.65800356   -3.2032654   -1.7455187  0.042830922   -3.2032654    1.4577467   297277 
 7033000   0.65932773    -3.204167   -1.7433835  0.045513287    -3.204167    1.4607835   297256 
 7034000   0.65979102   -3.2055251   -1.7433709   0.04591862   -3.2055251    1.4621542   297186 
 7035000   0.65876741   -3.2054612    -1.745315  0.047164697   -3.2054612    1.4601462   297133 
 7036000   0.65788534   -3.2052531   -1.7469147  0.041248544   -3.2052531    1.4583384   297103 
 7037000   0.65873847   -3.2059274   -1.7453685  0.038981121   -3.2059274    1.4605589   297036 
 7038000   0.65743994   -3.2035021   -1.7456898  0.041963245   -3.2035021    1.4578123   297009 
 7039000   0.65694074   -3.2051026   -1.7482697   0.04129278   -3.2051026    1.4568329   296983 
 7040000   0.65754872   -3.2068471   -1.7487151  0.044006377   -3.2068471     1.458132   296993 
 7041000    0.6575552   -3.2092021   -1.7508986  0.041821904   -3.2092021    1.4583035   296961 
 7042000   0.65757144   -3.2097221   -1.7512499  0.038660615   -3.2097221    1.4584722   296934 
 7043000   0.65812672   -3.2083839   -1.7485474  0.039947393   -3.2083839    1.4598365   296907 
 7044000   0.65921616   -3.2072895   -1.7450906  0.043221705   -3.2072895    1.4621989   296918 
 7045000   0.65782042   -3.2061351   -1.7466683  0.043841221   -3.2061351    1.4594668   296844 
 7046000   0.65893742    -3.210234   -1.7483924  0.043017539    -3.210234    1.4618416   296865 
 7047000   0.65804101   -3.2086545   -1.7486541  0.042866592   -3.2086545    1.4600004   296835 
 7048000   0.65872774   -3.2084376   -1.7468594  0.042813127   -3.2084376    1.4615782   296824 
 7049000   0.65757981   -3.2070255   -1.7479205  0.043707055   -3.2070255     1.459105   296809 
 7050000   0.65708202   -3.2056441   -1.7478107  0.043030335   -3.2056441    1.4578334   296843 
 7051000    0.6571404   -3.2062028   -1.7478861  0.039307813   -3.2062028    1.4583167   296771 
 7052000   0.65736197   -3.2083326   -1.7492931  0.043683299   -3.2083326    1.4590394   296724 
 7053000     0.657442   -3.2072897   -1.7479103   0.04301604   -3.2072897    1.4593794   296691 
 7054000   0.65600867   -3.2064181   -1.7498031   0.04318575   -3.2064181     1.456615   296606 
 7055000   0.65654914   -3.2080378   -1.7502079  0.043070695   -3.2080378    1.4578298   296603 
 7056000   0.65671939   -3.2064574   -1.7480184  0.042418851   -3.2064574    1.4584389   296556 
 7057000   0.65773709   -3.2073709   -1.7465684  0.042711211   -3.2073709    1.4608025   296535 
 7058000   0.65745095   -3.2058303   -1.7455599  0.043565597   -3.2058303    1.4602704   296514 
 7059000   0.65663441   -3.2058621   -1.7470511  0.045296183   -3.2058621     1.458811   296442 
 7060000   0.65656434   -3.2073771   -1.7485102  0.044933383   -3.2073771     1.458867   296399 
 7061000   0.65636893   -3.2062415   -1.7477891  0.042888343   -3.2062415    1.4584525   296395 
 7062000   0.65669199   -3.2071044    -1.747752  0.041876869   -3.2071044    1.4593525   296358 
 7063000   0.65540588   -3.2052287   -1.7486606  0.041640173   -3.2052287    1.4565681   296343 
 7064000    0.6570571   -3.2091544   -1.7489856  0.041924882   -3.2091544    1.4601688   296357 
 7065000   0.65579621   -3.2056273   -1.7480638  0.042630852   -3.2056273    1.4575634   296317 
 7066000     0.655013    -3.203735   -1.7477207  0.045062183    -3.203735    1.4560143   296278 
 7067000   0.65668637    -3.205186   -1.7453732  0.043492643    -3.205186    1.4598128   296262 
 7068000   0.65749481   -3.2085078     -1.74673   0.04103009   -3.2085078    1.4617778   296228 
 7069000   0.65599794   -3.2036144   -1.7449381  0.042758986   -3.2036144    1.4586764   296182 
 7070000   0.65564398   -3.2017505   -1.7437086  0.049489634   -3.2017505    1.4580419   296151 
 7071000   0.65662727   -3.2064444   -1.7459495  0.043675815   -3.2064444    1.4604949   296097 
 7072000   0.65647751   -3.2039515   -1.7436368  0.046987114   -3.2039515    1.4603147   296066 
 7073000   0.65783752   -3.2059061   -1.7423734  0.040228517   -3.2059061    1.4635328   296027 
 7074000   0.65647008   -3.2021629   -1.7415095  0.044656038   -3.2021629    1.4606533   295994 
 7075000   0.65638716   -3.2048044   -1.7441875   0.04544796   -3.2048044    1.4606169   295964 
 7076000   0.65623042   -3.2047074   -1.7442271  0.044222689   -3.2047074    1.4604803   295921 
 7077000   0.65732696   -3.2050829    -1.742177  0.041577579   -3.2050829    1.4629059   295924 
 7078000   0.65595073   -3.2035309   -1.7436286  0.040747817   -3.2035309    1.4599022   295912 
 7079000   0.65581953   -3.1999878   -1.7402493  0.047661238   -3.1999878    1.4597385   295886 
 7080000   0.65587974   -3.2001822   -1.7399741  0.045347232   -3.2001822    1.4602081   295818 
 7081000   0.65638542   -3.2020938   -1.7406216  0.041108065   -3.2020938    1.4614722   295790 
 7082000   0.65639923   -3.2016691   -1.7400475  0.040593762   -3.2016691    1.4616216   295766 
 7083000   0.65681809   -3.2022713   -1.7395637  0.039850679   -3.2022713    1.4627076   295735 
 7084000   0.65439112   -3.1980259   -1.7406196  0.043331464   -3.1980259    1.4574063   295714 
 7085000   0.65398536   -3.1980568   -1.7413226  0.040796111   -3.1980568    1.4567341   295667 
 7086000   0.65504263   -3.1995476   -1.7404337  0.040185308   -3.1995476    1.4591139   295662 
 7087000   0.65409424   -3.1977521   -1.7404106  0.041232608   -3.1977521    1.4573414   295593 
 7088000   0.65437806   -3.1968415   -1.7386211  0.037026934   -3.1968415    1.4582205   295543 
 7089000    0.6554103   -3.1983022   -1.7377222  0.043665191   -3.1983022      1.46058   295531 
 7090000   0.65506202   -3.1982025   -1.7382603  0.038687248   -3.1982025    1.4599422   295503 
 7091000   0.65573496    -3.199364   -1.7380308  0.041739067    -3.199364    1.4613332   295525 
 7092000   0.65592706   -3.1987143   -1.7369678  0.044114546   -3.1987143    1.4617464   295528 
 7093000   0.65605271   -3.1990915   -1.7368424  0.047515136   -3.1990915    1.4622491   295483 
 7094000   0.65478482   -3.1950659   -1.7354451  0.044783089   -3.1950659    1.4596208   295443 
 7095000   0.65577872   -3.1974272   -1.7354276  0.046700755   -3.1974272    1.4619996   295410 
 7096000   0.65592478   -3.1972198   -1.7350282  0.042276275   -3.1972198    1.4621916   295437 
 7097000   0.65593659   -3.1971696   -1.7346249  0.041239354   -3.1971696    1.4625447   295371 
 7098000    0.6556724   -3.1962049   -1.7341998  0.043378453   -3.1962049    1.4620051   295361 
 7099000   0.65443195   -3.1936398   -1.7344352  0.042603962   -3.1936398    1.4592046   295368 
 7100000   0.65408013   -3.1940519    -1.735375  0.046267546   -3.1940519    1.4586769   295316 
 7101000   0.65467423   -3.1944331   -1.7343027  0.039130492   -3.1944331    1.4601304   295290 
 7102000   0.65459087   -3.1936781   -1.7334468  0.045390094   -3.1936781    1.4602313   295232 
 7103000    0.6551277   -3.1952783   -1.7340078  0.042506046   -3.1952783    1.4612704   295264 
 7104000   0.65510281   -3.1947347   -1.7332872  0.038393687   -3.1947347    1.4614476   295217 
 7105000   0.65483773   -3.1922774   -1.7312183  0.043714486   -3.1922774    1.4610591   295176 
 7106000   0.65541386   -3.1924265   -1.7298838  0.042032531   -3.1924265    1.4625427   295136 
 7107000   0.65461969    -3.192259   -1.7313053  0.042944636    -3.192259    1.4609537   295099 
 7108000   0.65626148   -3.1953535   -1.7305868  0.039036145   -3.1953535    1.4647667   295069 
 7109000   0.65358514   -3.1924713    -1.733426  0.041798138   -3.1924713    1.4590453   295018 
 7110000   0.65484705   -3.1935652   -1.7315293   0.04172113   -3.1935652    1.4620359   294983 
 7111000   0.65348123    -3.190454   -1.7315813  0.047087094    -3.190454    1.4588727   295006 
 7112000   0.65404186   -3.1915338    -1.731266  0.043270851   -3.1915338    1.4602679   294977 
 7113000   0.65479749   -3.1934639   -1.7314297  0.040870339   -3.1934639    1.4620342   294961 
 7114000   0.65439388   -3.1938465   -1.7327977  0.043036505   -3.1938465    1.4610488   294978 
 7115000   0.65592719   -3.1974314   -1.7327854  0.043693161   -3.1974314     1.464646   294943 
 7116000   0.65458649    -3.195367    -1.733452  0.043731748    -3.195367     1.461915   294890 
 7117000    0.6538843   -3.1945632   -1.7343451  0.044044976   -3.1945632     1.460218   294916 
 7118000   0.65522995   -3.1951989   -1.7317228  0.043848104   -3.1951989    1.4634761   294865 
 7119000   0.65555908   -3.1958175   -1.7313976  0.047621839   -3.1958175    1.4644198   294823 
 7120000    0.6553331   -3.1963002   -1.7321964  0.043186765   -3.1963002    1.4641037   294785 
 7121000   0.65478409   -3.1956201   -1.7327429  0.046454456   -3.1956201    1.4628772   294785 
 7122000   0.65526231   -3.1967607   -1.7328349  0.046638653   -3.1967607    1.4639257   294789 
 7123000   0.65415156    -3.196739    -1.735161  0.041386876    -3.196739    1.4615781   294762 
 7124000   0.65360215   -3.1942964    -1.733936  0.042581447   -3.1942964    1.4603604   294760 
 7125000   0.65368224   -3.1963632   -1.7356404  0.044289779   -3.1963632    1.4607227   294723 
 7126000   0.65295605   -3.1968394   -1.7373878  0.041780926   -3.1968394    1.4594516   294652 
 7127000   0.65315186   -3.1963839   -1.7363212  0.043527108   -3.1963839    1.4600627   294617 
 7128000    0.6531689   -3.1953344   -1.7350502  0.042378972   -3.1953344    1.4602842   294580 
 7129000   0.65266927   -3.1957479   -1.7364371  0.043027625   -3.1957479    1.4593108   294551 
 7130000   0.65399891   -3.1997701   -1.7373374  0.039613519   -3.1997701    1.4624327   294521 
 7131000   0.65313956   -3.1964636   -1.7358285  0.042390932   -3.1964636    1.4606351   294496 
 7132000   0.65350798   -3.1961581   -1.7344807  0.036496443   -3.1961581    1.4616774   294452 
 7133000   0.65285455   -3.1969519   -1.7365227  0.042175283   -3.1969519    1.4604291   294409 
 7134000   0.65310787   -3.1962604   -1.7348973  0.047294282   -3.1962604    1.4613631   294335 
 7135000   0.65281137   -3.1950127   -1.7341195  0.043729118   -3.1950127    1.4608933   294296 
 7136000   0.65255703   -3.1958747   -1.7354663  0.046598562   -3.1958747    1.4604084   294279 
 7137000   0.65327003   -3.1969692   -1.7348955  0.042773405   -3.1969692    1.4620737   294265 
 7138000   0.65260679   -3.1955798   -1.7348118  0.044166182   -3.1955798     1.460768   294229 
 7139000    0.6522454   -3.1948273   -1.7347094  0.046928276   -3.1948273    1.4601179   294197 
 7140000   0.65250329   -3.1953646   -1.7342771  0.044747972   -3.1953646    1.4610875   294118 
 7141000   0.65231846   -3.1951558    -1.734353  0.041947781   -3.1951558    1.4608028   294092 
 7142000   0.65154621   -3.1939923   -1.7347651  0.039754733   -3.1939923    1.4592272   294061 
 7143000    0.6517612   -3.1948949   -1.7349578  0.035915039   -3.1948949    1.4599371   294015 
 7144000   0.65082876   -3.1929996   -1.7350024  0.039280547   -3.1929996    1.4579972   293985 
 7145000   0.64989067   -3.1920243    -1.735876  0.042346524   -3.1920243    1.4561483   293934 
 7146000   0.65167872   -3.1933379   -1.7330888  0.042212486   -3.1933379     1.460249   293915 
 7147000   0.65022167   -3.1898547   -1.7328309  0.041885751   -3.1898547    1.4570238   293907 
 7148000   0.65108555   -3.1897129   -1.7307881  0.044005663   -3.1897129    1.4589248   293914 
 7149000   0.65208035   -3.1912249   -1.7300362  0.045260381   -3.1912249    1.4611887   293907 
 7150000   0.65084849   -3.1891791   -1.7305572  0.045796699   -3.1891791    1.4586219   293868 
 7151000   0.65106151    -3.189083   -1.7297801  0.042659437    -3.189083    1.4593029   293827 
 7152000   0.65210699   -3.1906678   -1.7288126  0.042104746   -3.1906678    1.4618552   293785 
 7153000   0.65094742   -3.1886893   -1.7293043  0.042778855   -3.1886893    1.4593849   293759 
 7154000   0.65129047   -3.1897637   -1.7294009  0.045027101   -3.1897637    1.4603628   293717 
 7155000   0.65161015   -3.1885558   -1.7273916  0.042426654   -3.1885558    1.4611642   293700 
 7156000   0.65220143   -3.1914815    -1.728837  0.038464016   -3.1914815    1.4626445   293669 
 7157000   0.65008354   -3.1871876   -1.7292581  0.044125735   -3.1871876    1.4579296   293662 
 7158000   0.65007254    -3.188658   -1.7306786  0.042915845    -3.188658    1.4579794   293647 
 7159000   0.65003926    -3.187907   -1.7297888  0.036714593    -3.187907    1.4581183   293604 
 7160000   0.65009068   -3.1880108   -1.7296381  0.038594563   -3.1880108    1.4583727   293576 
 7161000   0.65043015   -3.1869762   -1.7277923  0.042927661   -3.1869762    1.4591839   293566 
 7162000   0.64977911   -3.1858523   -1.7280793   0.04197422   -3.1858523     1.457773   293556 
 7163000    0.6506417   -3.1878487   -1.7279813  0.042574795   -3.1878487    1.4598674   293524 
 7164000   0.65115765   -3.1878477   -1.7268276  0.037837879   -3.1878477    1.4610201   293525 
 7165000    0.6493658   -3.1861971   -1.7290435  0.038963992   -3.1861971    1.4571536   293494 
 7166000   0.65067734   -3.1857578   -1.7256761  0.042030186   -3.1857578    1.4600817   293497 
 7167000   0.65102152   -3.1879214   -1.7267986  0.040722051   -3.1879214    1.4611228   293443 
 7168000   0.65061871   -3.1881121   -1.7278087  0.038763758   -3.1881121    1.4603034   293426 
 7169000   0.64986117   -3.1870181   -1.7284946  0.037751649   -3.1870181    1.4585236   293442 
 7170000   0.65065576   -3.1869158   -1.7264895  0.039254733   -3.1869158    1.4604264   293418 
 7171000    0.6506922   -3.1855586   -1.7251003  0.042385036   -3.1855586    1.4604583   293428 
 7172000   0.65168218   -3.1885992   -1.7259139  0.038108097   -3.1885992    1.4626853   293427 
 7173000   0.65061642   -3.1865816   -1.7260644  0.045388578   -3.1865816    1.4605172   293382 
 7174000   0.65100685   -3.1880575   -1.7264446  0.040218908   -3.1880575    1.4616129   293338 
 7175000   0.65039501   -3.1857575   -1.7254038  0.044056218   -3.1857575    1.4603537   293315 
 7176000   0.65010531     -3.18675   -1.7269173  0.045284392     -3.18675    1.4598326   293289 
 7177000   0.65107422   -3.1888999   -1.7266921  0.040793693   -3.1888999    1.4622078   293249 
 7178000   0.65029581   -3.1868067   -1.7260831  0.042052548   -3.1868067    1.4607236   293196 
 7179000   0.65106204   -3.1856841   -1.7231994  0.045133964   -3.1856841    1.4624846   293188 
 7180000   0.65039181   -3.1857914   -1.7245681  0.044726914   -3.1857914    1.4612233   293139 
 7181000   0.65143524    -3.188929   -1.7250068  0.043412683    -3.188929    1.4639221   293068 
 7182000   0.65000188   -3.1884071   -1.7275864  0.043375965   -3.1884071    1.4608207   293044 
 7183000   0.65090007   -3.1886034   -1.7255644  0.040722722   -3.1886034     1.463039   293004 
 7184000   0.64788647   -3.1835219   -1.7271821  0.041227911   -3.1835219    1.4563398   292989 
 7185000   0.65003288   -3.1865372   -1.7249436  0.040317904   -3.1865372    1.4615936   292903 
 7186000   0.64875846   -3.1838744   -1.7250118  0.040290521   -3.1838744    1.4588626   292876 
 7187000   0.64902521    -3.182199   -1.7225621  0.045241952    -3.182199    1.4596368   292841 
 7188000   0.64966649   -3.1859318   -1.7247081  0.038843737   -3.1859318    1.4612238   292812 
 7189000   0.64864462   -3.1822019   -1.7233812  0.043457653   -3.1822019    1.4588208   292833 
 7190000   0.64790154   -3.1817051   -1.7243465  0.040560426   -3.1817051    1.4573586   292791 
 7191000   0.64744018    -3.179707   -1.7232419  0.040428013    -3.179707    1.4564651   292762 
 7192000   0.64765666   -3.1802569   -1.7229863  0.040199771   -3.1802569    1.4572706   292698 
 7193000   0.64655743   -3.1770471   -1.7221951  0.037240145   -3.1770471     1.454852   292687 
 7194000   0.64843125   -3.1794925   -1.7201798  0.041234981   -3.1794925    1.4593127   292638 
 7195000   0.64852742   -3.1815191   -1.7218753  0.045013943   -3.1815191    1.4596438   292615 
 7196000   0.64917368   -3.1822658   -1.7211525  0.040202345   -3.1822658    1.4611133   292612 
 7197000   0.64832507   -3.1824731   -1.7229355  0.041740351   -3.1824731    1.4595375   292545 
 7198000   0.64885053   -3.1814522   -1.7207866  0.038150808   -3.1814522    1.4606656   292556 
 7199000   0.64851094   -3.1815592   -1.7217279  0.044259121   -3.1815592    1.4598312   292570 
 7200000   0.64934056   -3.1841684   -1.7223197  0.042379423   -3.1841684    1.4618486   292540 
 7201000   0.64920603   -3.1842733   -1.7227375  0.037875659   -3.1842733    1.4615358   292542 
 7202000     0.648677   -3.1822722   -1.7217577  0.045846763   -3.1822722    1.4605145   292508 
 7203000   0.64967369   -3.1827971   -1.7198334  0.043386774   -3.1827971    1.4629637   292467 
 7204000    0.6491005   -3.1831368   -1.7212939  0.039462391   -3.1831368    1.4618429   292433 
 7205000   0.64965521   -3.1853128   -1.7221406   0.04087942   -3.1853128    1.4631722   292417 
 7206000   0.64877835   -3.1851482    -1.723786  0.044180286   -3.1851482    1.4613622   292384 
 7207000   0.64733501   -3.1843615   -1.7260509  0.046242632   -3.1843615    1.4583106   292344 
 7208000   0.64755307   -3.1831368   -1.7241652  0.045843225   -3.1831368    1.4589716   292310 
 7209000   0.64682068    -3.179453   -1.7218124  0.048735573    -3.179453    1.4576406   292246 
 7210000   0.64964062    -3.184643   -1.7206275  0.048850077    -3.184643    1.4640155   292242 
 7211000   0.64863278   -3.1835451   -1.7216458  0.049549179   -3.1835451    1.4618993   292211 
 7212000   0.65030405   -3.1861773   -1.7204159  0.045043768   -3.1861773    1.4657614   292192 
 7213000   0.64997775   -3.1862636   -1.7212077  0.049728302   -3.1862636     1.465056   292186 
 7214000   0.64745391   -3.1821288   -1.7225967  0.044057935   -3.1821288    1.4595321   292153 
 7215000   0.64731264   -3.1827538   -1.7234602  0.040848426   -3.1827538    1.4592935   292137 
 7216000   0.64593974   -3.1791611   -1.7228131  0.036931128   -3.1791611     1.456348   292107 
 7217000   0.64609954   -3.1788424   -1.7219795  0.038973617   -3.1788424    1.4568629   292076 
 7218000   0.64773048   -3.1824408   -1.7217904  0.041806996   -3.1824408    1.4606505   292054 
 7219000   0.64818475   -3.1820603   -1.7202252  0.040291608   -3.1820603    1.4618351   292022 
 7220000   0.64755258   -3.1811799   -1.7207005  0.041206736   -3.1811799    1.4604794   292008 
 7221000   0.64714292   -3.1804082   -1.7207378  0.039145745   -3.1804082    1.4596704   291985 
 7222000   0.64693066   -3.1790564   -1.7198148  0.049404117   -3.1790564    1.4592416   291975 
 7223000   0.64677427    -3.180144   -1.7210253  0.039087732    -3.180144    1.4591187   291929 
 7224000   0.64701541   -3.1802821   -1.7205894  0.036342363   -3.1802821    1.4596927   291923 
 7225000   0.64771638   -3.1808347   -1.7196256  0.042160554   -3.1808347    1.4612091   291936 
 7226000   0.64760529   -3.1812203   -1.7200166  0.043597064   -3.1812203    1.4612037   291887 
 7227000   0.64669854   -3.1811645   -1.7215316  0.041718414   -3.1811645    1.4596329   291792 
 7228000   0.64579614   -3.1783062   -1.7205602  0.044029327   -3.1783062     1.457746   291762 
 7229000   0.64738373   -3.1807814   -1.7191612  0.041908995   -3.1807814    1.4616202   291704 
 7230000   0.64809011   -3.1799971   -1.7168072  0.047813702   -3.1799971    1.4631899   291709 
 7231000   0.64766203   -3.1826352   -1.7204068  0.045017965   -3.1826352    1.4622285   291708 
 7232000   0.64798996   -3.1799078   -1.7168738  0.043247772   -3.1799078     1.463034   291695 
 7233000   0.64672091   -3.1792256   -1.7189567  0.041126666   -3.1792256    1.4602689   291675 
 7234000   0.64604762   -3.1792537      -1.7203  0.041256303   -3.1792537    1.4589537   291634 
 7235000   0.64607176    -3.180014   -1.7207757  0.044518576    -3.180014    1.4592384   291588 
 7236000   0.64522934   -3.1778574   -1.7205817  0.044950698   -3.1778574    1.4572757   291600 
 7237000   0.64569743   -3.1792342   -1.7208013  0.042096876   -3.1792342    1.4584329   291580 
 7238000   0.64655567   -3.1818525    -1.721411  0.042794301   -3.1818525    1.4604415   291566 
 7239000   0.64607272   -3.1795951   -1.7201594  0.042746072   -3.1795951    1.4594358   291549 
 7240000   0.64575212   -3.1791233   -1.7200214  0.040632059   -3.1791233    1.4591019   291471 
 7241000   0.64455509   -3.1772263   -1.7206143  0.041264027   -3.1772263    1.4566121   291428 
 7242000   0.64537998   -3.1782085   -1.7197473  0.040764987   -3.1782085    1.4584612   291431 
 7243000    0.6467626   -3.1793462      -1.7176  0.040884142   -3.1793462    1.4617462   291399 
 7244000   0.64616575   -3.1785084   -1.7179056  0.040328742   -3.1785084    1.4606028   291358 
 7245000   0.64453932    -3.175279   -1.7181426  0.043252588    -3.175279    1.4571364   291316 
 7246000   0.64533384   -3.1771366    -1.718219  0.041395237   -3.1771366    1.4589176   291319 
 7247000   0.64619145   -3.1786588   -1.7175968  0.042388182   -3.1786588     1.461062   291278 
 7248000   0.64623887   -3.1784575   -1.7172431  0.042758427   -3.1784575    1.4612144   291269 
 7249000   0.64629255   -3.1769157   -1.7155247  0.043085088   -3.1769157     1.461391   291258 
 7250000    0.6463635   -3.1788122   -1.7171905  0.042129858   -3.1788122    1.4616217   291244 
 7251000   0.64576192   -3.1767156   -1.7161384   0.04449082   -3.1767156    1.4605772   291181 
 7252000   0.64531621   -3.1758768   -1.7160069   0.04682601   -3.1758768      1.45987   291121 
 7253000   0.64533241   -3.1772179     -1.71691  0.045062064   -3.1772179    1.4603079   291041 
 7254000   0.64563186   -3.1773669   -1.7163864  0.045783174   -3.1773669    1.4609805   291042 
 7255000    0.6452578   -3.1762938   -1.7159891  0.042629044   -3.1762938    1.4603047   291008 
 7256000    0.6452079   -3.1761646    -1.715732  0.042195073   -3.1761646    1.4604326   290960 
 7257000   0.64384107   -3.1734574   -1.7160235  0.041752688   -3.1734574    1.4574339   290941 
 7258000   0.64536354   -3.1740745    -1.713385  0.041868276   -3.1740745    1.4606895   290979 
 7259000    0.6434967   -3.1699535   -1.7135193  0.046321398   -3.1699535    1.4564342   290985 
 7260000   0.64325813   -3.1711377   -1.7152234  0.041495063   -3.1711377    1.4559142   290981 
 7261000     0.644112   -3.1710487   -1.7131919  0.040389356   -3.1710487    1.4578568   290979 
 7262000   0.64424877   -3.1721503   -1.7136933  0.040532154   -3.1721503    1.4584571   290921 
 7263000   0.64343888    -3.170722   -1.7141785  0.039000064    -3.170722    1.4565435   290937 
 7264000   0.64286321   -3.1683041   -1.7130287  0.043241028   -3.1683041    1.4552754   290930 
 7265000   0.64416794   -3.1707324   -1.7120923  0.037313077   -3.1707324    1.4586401   290848 
 7266000   0.64435672   -3.1705025   -1.7113998  0.041460056   -3.1705025    1.4591027   290841 
 7267000   0.64444479   -3.1713105   -1.7116018  0.042039648   -3.1713105    1.4597087   290760 
 7268000   0.64511471   -3.1735012   -1.7121746  0.041210544   -3.1735012    1.4613266   290740 
 7269000   0.64445231    -3.170146   -1.7101993  0.043987392    -3.170146    1.4599466   290716 
 7270000   0.64377663   -3.1708703   -1.7123891  0.045864189   -3.1708703    1.4584812   290703 
 7271000   0.64435122   -3.1732494   -1.7134816  0.043296218   -3.1732494    1.4597678   290706 
 7272000   0.64528949   -3.1738772   -1.7118579   0.04400002   -3.1738772    1.4620192   290681 
 7273000   0.64534233   -3.1747831   -1.7124027   0.04595474   -3.1747831    1.4623804   290633 
 7274000   0.64345795   -3.1743039   -1.7156816  0.039449142   -3.1743039    1.4586222   290531 
 7275000   0.64337718   -3.1745358   -1.7159009  0.043902608   -3.1745358    1.4586349   290492 
 7276000   0.64224066   -3.1714072   -1.7152186  0.043414702   -3.1714072    1.4561886   290466 
 7277000   0.64388595   -3.1762196   -1.7162151  0.039615305   -3.1762196    1.4600045   290449 
 7278000   0.64453585   -3.1776787   -1.7160043  0.038536622   -3.1776787    1.4616744   290410 
 7279000    0.6448222   -3.1778598   -1.7153396  0.040100395   -3.1778598    1.4625202   290371 
 7280000   0.64192305   -3.1710118   -1.7152978  0.039808171   -3.1710118     1.455714   290417 
 7281000   0.64309953   -3.1726075   -1.7140296  0.047070504   -3.1726075    1.4585778   290378 
 7282000   0.64336416   -3.1735754   -1.7141561  0.045384948   -3.1735754    1.4594193   290330 
 7283000   0.64445201   -3.1762656   -1.7140563  0.042548569   -3.1762656    1.4622093   290266 
 7284000   0.64538033   -3.1774311   -1.7131105  0.039418839   -3.1774311    1.4643206   290265 
 7285000   0.64456375   -3.1770125   -1.7143229  0.043483758   -3.1770125    1.4626896   290221 
 7286000   0.64267773   -3.1731356   -1.7144042  0.043744872   -3.1731356    1.4587314   290157 
 7287000   0.64217454     -3.17246   -1.7148506  0.045490225     -3.17246    1.4576094   290153 
 7288000    0.6436308   -3.1771601   -1.7159936  0.042473088   -3.1771601    1.4611666   290103 
 7289000   0.64248302   -3.1749542   -1.7160765  0.042304862   -3.1749542    1.4588777   290040 
 7290000   0.64257633   -3.1749591   -1.7155273  0.038683267   -3.1749591    1.4594317   289972 
 7291000   0.64341114   -3.1750938   -1.7136652  0.045052701   -3.1750938    1.4614286   289952 
 7292000    0.6427193   -3.1751142   -1.7149549   0.04215015   -3.1751142    1.4601593   289892 
 7293000   0.64217546   -3.1730164   -1.7140473  0.044090454   -3.1730164    1.4589691   289883 
 7294000   0.64182235   -3.1720606   -1.7136019  0.042434944   -3.1720606    1.4584587   289825 
 7295000   0.64054194   -3.1701915   -1.7142355  0.046263169   -3.1701915     1.455956   289744 
 7296000   0.64292385   -3.1739624   -1.7125116  0.041125308   -3.1739624    1.4614508   289728 
 7297000   0.64171957    -3.171901   -1.7128956  0.043196203    -3.171901    1.4590054   289670 
 7298000   0.64045309    -3.170315   -1.7137919  0.039368296    -3.170315    1.4565232   289591 
 7299000   0.64048884    -3.171495   -1.7147547  0.041992284    -3.171495    1.4567403   289564 
 7300000   0.63918683   -3.1697208   -1.7161074  0.037891774   -3.1697208    1.4536133   289597 
 7301000   0.64012641   -3.1682058   -1.7124457  0.042859689   -3.1682058    1.4557601   289595 
 7302000   0.64039477   -3.1686969   -1.7122309  0.041749687   -3.1686969     1.456466   289576 
 7303000   0.64048228   -3.1678894   -1.7110584  0.040062205   -3.1678894     1.456831   289543 
 7304000   0.64192862   -3.1706133   -1.7104471   0.04017347   -3.1706133    1.4601662   289534 
 7305000   0.64070736    -3.169383   -1.7119645  0.047267634    -3.169383    1.4574185   289528 
 7306000   0.63953365   -3.1684207   -1.7135213  0.043794644   -3.1684207    1.4548994   289498 
 7307000   0.64148856   -3.1718045   -1.7121503  0.040724465   -3.1718045    1.4596543   289437 
 7308000   0.64093743   -3.1719958   -1.7131924  0.043119774   -3.1719958    1.4588034   289357 
 7309000   0.64115454   -3.1721304   -1.7126513  0.045016033   -3.1721304    1.4594792   289321 
 7310000   0.63975777   -3.1705842   -1.7140983  0.036190422   -3.1705842    1.4564859   289284 
 7311000   0.64121494   -3.1733838    -1.713414  0.040645555   -3.1733838    1.4599699   289251 
 7312000   0.64147374   -3.1726391   -1.7120143  0.046665813   -3.1726391    1.4606248   289238 
 7313000    0.6413968   -3.1742268   -1.7135651  0.042438661   -3.1742268    1.4606617   289196 
 7314000   0.64164902   -3.1736006   -1.7122483  0.042219241   -3.1736006    1.4613523   289173 
 7315000   0.64044774   -3.1731673   -1.7144046  0.043493959   -3.1731673    1.4587627   289144 
 7316000   0.64162958   -3.1744783   -1.7130743  0.040821105   -3.1744783     1.461404   289154 
 7317000   0.64072313   -3.1726588   -1.7133597   0.04261105   -3.1726588    1.4592991   289162 
 7318000   0.64148847   -3.1740532   -1.7124499  0.041363941   -3.1740532    1.4616033   289051 
 7319000   0.64171158   -3.1728424   -1.7104575  0.041214397   -3.1728424    1.4623848   288997 
 7320000   0.64155247   -3.1737255   -1.7114351  0.042289068   -3.1737255    1.4622904   288944 
 7321000    0.6391911   -3.1705341   -1.7130963  0.044671403   -3.1705341    1.4574378   288839 
 7322000   0.64118181   -3.1744134   -1.7124366  0.042772182   -3.1744134    1.4619768   288839 
 7323000   0.63981639   -3.1723763   -1.7135987  0.045727411   -3.1723763    1.4587777   288856 
 7324000   0.64023186   -3.1733667   -1.7132627  0.038795729   -3.1733667     1.460104   288781 
 7325000   0.63854286   -3.1714811   -1.7154458  0.036470587   -3.1714811    1.4560353   288824 
 7326000   0.63787559   -3.1716646   -1.7170955  0.037772551   -3.1716646    1.4545692   288813 
 7327000   0.63905518   -3.1744836   -1.7170328  0.038589309   -3.1744836    1.4574508   288775 
 7328000   0.64002573   -3.1763971    -1.716389  0.041182026   -3.1763971    1.4600081   288707 
 7329000   0.63865023   -3.1752708   -1.7182592  0.042837427   -3.1752708    1.4570116   288679 
 7330000   0.63933892   -3.1771056   -1.7182903   0.04087597   -3.1771056    1.4588152   288633 
 7331000   0.63863168   -3.1767005   -1.7193425   0.04398466   -3.1767005     1.457358   288602 
 7332000   0.63992325   -3.1787554   -1.7183083  0.041605014   -3.1787554    1.4604471   288574 
 7333000   0.64031659   -3.1790234   -1.7174152  0.045341153   -3.1790234    1.4616081   288522 
 7334000     0.640028   -3.1802166   -1.7191204  0.044526343   -3.1802166    1.4610962   288493 
 7335000   0.63966854   -3.1791933   -1.7186544  0.041698688   -3.1791933    1.4605389   288441 
 7336000   0.63887329   -3.1787136   -1.7198792  0.040755257   -3.1787136    1.4588344   288419 
 7337000   0.63841648   -3.1788495   -1.7210076  0.038681891   -3.1788495    1.4578419   288409 
 7338000   0.63835868   -3.1794205   -1.7215742   0.04166187   -3.1794205    1.4578463   288382 
 7339000   0.63877573   -3.1807814   -1.7215576  0.040711133   -3.1807814    1.4592238   288298 
 7340000   0.63759262   -3.1787505   -1.7219009  0.041925109   -3.1787505    1.4568496   288233 
 7341000   0.63779015   -3.1800435   -1.7224594  0.040788508   -3.1800435    1.4575841   288177 
 7342000   0.63925456   -3.1817892   -1.7207519  0.039897338   -3.1817892    1.4610373   288156 
 7343000   0.63791103   -3.1784753   -1.7202507  0.045863497   -3.1784753    1.4582247   288105 
 7344000   0.63876334   -3.1795959   -1.7193113  0.045503211   -3.1795959    1.4602845   288083 
 7345000   0.63771066   -3.1760235   -1.7179886  0.043175105   -3.1760235    1.4580349   288052 
 7346000   0.63842122   -3.1778075   -1.7179808  0.040769554   -3.1778075    1.4598267   288019 
 7347000   0.63744431   -3.1767446   -1.7189037  0.043830686   -3.1767446    1.4578409   287970 
 7348000   0.63628386   -3.1767467   -1.7211806  0.042942672   -3.1767467     1.455566   287895 
 7349000   0.63563091   -3.1731541   -1.7187432    0.0449358   -3.1731541    1.4544108   287828 
 7350000   0.63682833   -3.1749685   -1.7177216  0.043562148   -3.1749685    1.4572469   287809 
 7351000   0.63759362   -3.1752531   -1.7162246  0.039933013   -3.1752531    1.4590285   287803 
 7352000   0.63690165   -3.1725159   -1.7149696  0.040877856   -3.1725159    1.4575463   287783 
 7353000   0.63760385   -3.1734917   -1.7142826  0.034500985   -3.1734917    1.4592091   287772 
 7354000    0.6375242    -3.172471   -1.7133529  0.042296917    -3.172471    1.4591181   287754 
 7355000   0.63758695   -3.1722555   -1.7128316  0.046391268   -3.1722555     1.459424   287722 
 7356000   0.63777315   -3.1725538   -1.7127289  0.041813154   -3.1725538    1.4598248   287727 
 7357000    0.6375203   -3.1718471   -1.7124387  0.044229143   -3.1718471    1.4594084   287695 
 7358000   0.63637054   -3.1681671     -1.71094  0.048057831   -3.1681671    1.4572272   287606 
 7359000   0.63783394   -3.1712548   -1.7104429  0.042036496   -3.1712548    1.4608119   287560 
 7360000   0.63736074   -3.1700347    -1.710068  0.049326572   -3.1700347    1.4599667   287513 
 7361000   0.63728808   -3.1724455   -1.7123406  0.045065885   -3.1724455     1.460105   287453 
 7362000   0.63670037    -3.168964   -1.7101345  0.039733367    -3.168964    1.4588295   287439 
 7363000   0.63630163   -3.1690864   -1.7109777  0.046052119   -3.1690864    1.4581087   287401 
 7364000   0.63694429   -3.1702357   -1.7104157  0.039781418   -3.1702357    1.4598201   287354 
 7365000   0.63672733   -3.1700147   -1.7105751  0.043694125   -3.1700147    1.4594396   287331 
 7366000   0.63702869   -3.1703339   -1.7100968  0.037354726   -3.1703339    1.4602371   287310 
 7367000   0.63742887   -3.1718978   -1.7103669  0.042556251   -3.1718978    1.4615309   287236 
 7368000    0.6374965   -3.1699097   -1.7081169   0.04047833   -3.1699097    1.4617928   287215 
 7369000   0.63658133   -3.1661277   -1.7062758  0.045157856   -3.1661277    1.4598519   287184 
 7370000   0.63674159    -3.167063   -1.7064367  0.042326823    -3.167063    1.4606263   287104 
 7371000    0.6372043   -3.1693952   -1.7077228  0.039611867   -3.1693952    1.4616724   287107 
 7372000   0.63642128    -3.168751   -1.7086561  0.043907972    -3.168751    1.4600949   287064 
 7373000   0.63737038   -3.1711241   -1.7086377  0.042606229   -3.1711241    1.4624864   287022 
 7374000    0.6354188   -3.1675006   -1.7094313   0.04007322   -3.1675006    1.4580693   287010 
 7375000   0.63628733   -3.1691898   -1.7088884  0.042114794   -3.1691898    1.4603014   286963 
 7376000   0.63521921    -3.169229   -1.7111859  0.036755226    -3.169229    1.4580431   286925 
 7377000   0.63625098   -3.1715288   -1.7108171  0.043184079   -3.1715288    1.4607117   286866 
 7378000   0.63494031   -3.1691237   -1.7111314  0.042399808   -3.1691237    1.4579924   286809 
 7379000   0.63445878   -3.1689182   -1.7120061  0.041615508   -3.1689182    1.4569121   286804 
 7380000    0.6334825   -3.1682955    -1.713534  0.045497373   -3.1682955    1.4547615   286786 
 7381000   0.63511274   -3.1713435   -1.7127517  0.043115782   -3.1713435    1.4585918   286769 
 7382000   0.63499535    -3.173015   -1.7143317   0.04306144    -3.173015    1.4586833   286698 
 7383000   0.63639518   -3.1758474     -1.71352  0.041282252   -3.1758474    1.4623274   286614 
 7384000   0.63511242   -3.1737197   -1.7139273  0.044398189   -3.1737197    1.4597924   286533 
 7385000   0.63400661   -3.1706815   -1.7131867  0.040903044   -3.1706815    1.4574948   286485 
 7386000   0.63485233   -3.1719789   -1.7123463  0.042145399   -3.1719789    1.4596327   286447 
 7387000   0.63433541   -3.1717666    -1.713185  0.044108688   -3.1717666    1.4585817   286420 
 7388000   0.63576398   -3.1749426   -1.7128566  0.040793652   -3.1749426     1.462086   286377 
 7389000   0.63387247   -3.1711349   -1.7132004  0.040569613   -3.1711349    1.4579346   286338 
 7390000   0.63392157   -3.1727814   -1.7146167  0.040822142   -3.1727814    1.4581646   286315 
 7391000   0.63319256   -3.1689037   -1.7120903  0.040352377   -3.1689037    1.4568134   286251 
 7392000   0.63384817   -3.1718877   -1.7134743  0.041358801   -3.1718877    1.4584135   286233 
 7393000   0.63489327   -3.1743698   -1.7134087  0.039157034   -3.1743698     1.460961   286205 
 7394000   0.63398406   -3.1702436   -1.7111963  0.047779801   -3.1702436    1.4590473   286170 
 7395000    0.6343821   -3.1715153   -1.7113275  0.041323116   -3.1715153    1.4601878   286126 
 7396000   0.63318016   -3.1703102   -1.7128226  0.041368368   -3.1703102    1.4574875   286113 
 7397000   0.63351255   -3.1686708   -1.7101429  0.046656728   -3.1686708    1.4585279   286059 
 7398000   0.63341765   -3.1679977   -1.7097495  0.043050034   -3.1679977    1.4582482   286071 
 7399000   0.63490171    -3.171182   -1.7093792  0.042509283    -3.171182    1.4618028   286044 
 7400000   0.63306161   -3.1689949   -1.7110975  0.042578504   -3.1689949    1.4578974   285979 
 7401000   0.63237012   -3.1668639   -1.7105385  0.039366674   -3.1668639    1.4563253   285975 
 7402000    0.6335197   -3.1700203   -1.7108945  0.039355871   -3.1700203    1.4591258   285945 
 7403000   0.63390855   -3.1699928   -1.7100173  0.041813153   -3.1699928    1.4599755   285954 
 7404000   0.63290083   -3.1685228   -1.7107204  0.041682736   -3.1685228    1.4578024   285925 
 7405000   0.63339875   -3.1719104   -1.7127773  0.042733275   -3.1719104     1.459133   285889 
 7406000   0.63398144   -3.1727187   -1.7121412  0.048473208   -3.1727187    1.4605775   285869 
 7407000    0.6324041    -3.168407   -1.7114073  0.042085196    -3.168407    1.4569997   285858 
 7408000   0.63344618   -3.1717652   -1.7121093  0.040929966   -3.1717652    1.4596558   285808 
 7409000   0.63214709   -3.1692451   -1.7121749  0.039735908   -3.1692451    1.4570702   285728 
 7410000   0.63249577    -3.169442   -1.7115426  0.041535703    -3.169442    1.4578994   285723 
 7411000   0.63312185   -3.1715429    -1.711807  0.045490716   -3.1715429    1.4597359   285646 
 7412000   0.63255019   -3.1706568   -1.7120041  0.043914377   -3.1706568    1.4586528   285600 
 7413000   0.63179518    -3.170321   -1.7132868  0.045855755    -3.170321    1.4570342   285576 
 7414000   0.63221061   -3.1712644   -1.7129198  0.044068312   -3.1712644    1.4583446   285507 
 7415000   0.63413906   -3.1711486   -1.7082173  0.041307829   -3.1711486    1.4629314   285480 
 7416000   0.63167789   -3.1666143   -1.7092893  0.047270412   -3.1666143     1.457325   285466 
 7417000   0.63259826   -3.1688991   -1.7092871  0.044347205   -3.1688991     1.459612   285434 
 7418000   0.63321476   -3.1689144   -1.7077007  0.040481823   -3.1689144    1.4612136   285399 
 7419000   0.63257573   -3.1672821   -1.7074101  0.043668042   -3.1672821     1.459872   285373 
 7420000   0.63168445   -3.1653418   -1.7072559  0.040937553   -3.1653418    1.4580859   285320 
 7421000   0.63205295   -3.1661953   -1.7068804  0.042948532   -3.1661953    1.4593149   285246 
 7422000   0.63127995    -3.163552   -1.7059758  0.040653355    -3.163552    1.4575762   285237 
 7423000    0.6308087   -3.1625939   -1.7059883  0.044859995   -3.1625939    1.4566056   285214 
 7424000   0.63041706   -3.1634042   -1.7073712  0.039471246   -3.1634042    1.4560331   285149 
 7425000   0.63109275   -3.1635353   -1.7058139  0.041180612   -3.1635353    1.4577215   285124 
 7426000   0.63036636   -3.1625431   -1.7064892  0.042067124   -3.1625431    1.4560538   285122 
 7427000   0.63220474   -3.1671764   -1.7065893  0.039869807   -3.1671764    1.4605871   285066 
 7428000   0.63299131   -3.1682037   -1.7057789  0.041842398   -3.1682037    1.4624248   285062 
 7429000   0.63279153   -3.1657371   -1.7037379   0.04482898   -3.1657371    1.4619992   285055 
 7430000   0.63211006    -3.165947   -1.7053429  0.044210498    -3.165947     1.460604   285020 
 7431000    0.6326969   -3.1677863   -1.7055852  0.038176231   -3.1677863    1.4622012   284973 
 7432000   0.63152178   -3.1658815    -1.705935  0.044626544   -3.1658815    1.4599465   284883 
 7433000   0.63129187   -3.1637381   -1.7043078  0.043245633   -3.1637381    1.4594303   284880 
 7434000   0.63140002   -3.1664961   -1.7067543  0.043713055   -3.1664961    1.4597418   284868 
 7435000   0.63148983   -3.1640408   -1.7039274  0.048882046   -3.1640408    1.4601135   284836 
 7436000   0.63280483   -3.1673753   -1.7038308  0.044912553   -3.1673753    1.4635445   284760 
 7437000   0.63229367   -3.1661441   -1.7037202   0.04259877   -3.1661441    1.4624239   284748 
 7438000   0.63301364   -3.1698551   -1.7055655  0.046016387   -3.1698551    1.4642897   284709 
 7439000   0.63191615   -3.1661885    -1.704376  0.039518376   -3.1661885    1.4618126   284697 
 7440000    0.6316618   -3.1649932   -1.7037536  0.041731915   -3.1649932    1.4612396   284694 
 7441000   0.62979754   -3.1627813   -1.7055268  0.037415316   -3.1627813    1.4572546   284630 
 7442000   0.63082275   -3.1649202   -1.7050883    0.0434504   -3.1649202    1.4598319   284590 
 7443000   0.63025645   -3.1651348   -1.7064597  0.046160446   -3.1651348    1.4586751   284560 
 7444000   0.63090466   -3.1659094   -1.7055441  0.043374502   -3.1659094    1.4603653   284523 
 7445000   0.63078696   -3.1648761   -1.7045267   0.04209698   -3.1648761    1.4603494   284473 
 7446000   0.63138336   -3.1648071   -1.7031335  0.047594615   -3.1648071    1.4616737   284484 
 7447000   0.63076835   -3.1638636   -1.7035778  0.044330296   -3.1638636    1.4602858   284477 
 7448000   0.63197938   -3.1669963   -1.7037525  0.045598612   -3.1669963    1.4632438   284447 
 7449000   0.63079031   -3.1642762   -1.7036469  0.039647584   -3.1642762    1.4606293   284420 
 7450000   0.63098389   -3.1635306   -1.7024684  0.037176069   -3.1635306    1.4610621   284423 
 7451000   0.63228422   -3.1668011   -1.7024603  0.039849674   -3.1668011    1.4643408   284371 
 7452000   0.63138413   -3.1655756   -1.7030107  0.043092146   -3.1655756    1.4625648   284311 
 7453000   0.63249925   -3.1672463   -1.7019179  0.046213743   -3.1672463    1.4653283   284276 
 7454000   0.63130282   -3.1662525   -1.7035364  0.042418124   -3.1662525     1.462716   284245 
 7455000   0.63148857   -3.1677352   -1.7042953  0.043331821   -3.1677352    1.4634399   284188 
 7456000   0.63057831    -3.165748    -1.704109  0.040520691    -3.165748     1.461639   284128 
 7457000   0.63003675   -3.1669332   -1.7063078  0.040554663   -3.1669332    1.4606253   284081 
 7458000   0.63079493   -3.1690824   -1.7064059  0.044681308   -3.1690824    1.4626765   284024 
 7459000   0.62972044    -3.165841   -1.7056303  0.042868093    -3.165841    1.4602107   284019 
 7460000   0.62939136   -3.1651443   -1.7054654   0.04641586   -3.1651443    1.4596789   283974 
 7461000    0.6300807   -3.1662727   -1.7048922  0.041607676   -3.1662727    1.4613805   283954 
 7462000    0.6291866   -3.1651102   -1.7054899  0.041111272   -3.1651102    1.4596204   283893 
 7463000   0.62893827   -3.1640672   -1.7048739  0.041681092   -3.1640672    1.4591933   283864 
 7464000   0.62813812   -3.1611292   -1.7035509  0.045433444   -3.1611292    1.4575782   283817 
 7465000   0.63006224   -3.1656415   -1.7033202  0.044094091   -3.1656415    1.4623213   283763 
 7466000   0.62947369   -3.1637961   -1.7026502  0.042892866   -3.1637961    1.4611459   283726 
 7467000   0.62921309   -3.1643708   -1.7035672  0.047822283   -3.1643708    1.4608036   283675 
 7468000   0.62958927   -3.1647605   -1.7028465  0.044120789   -3.1647605     1.461914   283629 
 7469000   0.63054221   -3.1673291    -1.703125  0.043754884   -3.1673291    1.4642041   283614 
 7470000   0.63003381   -3.1644172    -1.701342  0.044188537   -3.1644172    1.4630752   283604 
 7471000   0.62997041   -3.1642997   -1.7013408  0.044881267   -3.1642997    1.4629589   283598 
 7472000   0.62988157   -3.1645813   -1.7015347  0.044236365   -3.1645813    1.4630466   283541 
 7473000   0.62837722   -3.1616769   -1.7019649  0.041535125   -3.1616769     1.459712   283510 
 7474000   0.62760638   -3.1589641   -1.7008061  0.040595481   -3.1589641     1.458158   283464 
 7475000   0.62826384   -3.1606096   -1.7007439  0.045412823   -3.1606096    1.4598657   283429 
 7476000   0.62781395   -3.1595756   -1.7006214  0.042220893   -3.1595756    1.4589542   283403 
 7477000   0.63009955   -3.1620558   -1.6975835  0.039614175   -3.1620558    1.4644723   283363 
 7478000   0.62955138   -3.1597025   -1.6966127  0.045231135   -3.1597025    1.4630898   283384 
 7479000   0.62941379   -3.1613206   -1.6981994  0.041632995   -3.1613206    1.4631211   283316 
 7480000   0.62843512   -3.1576953   -1.6966996  0.042414076   -3.1576953    1.4609957   283287 
 7481000   0.62776217   -3.1593838   -1.6995198  0.045331759   -3.1593838    1.4598641   283203 
 7482000   0.62781703   -3.1580606   -1.6979091  0.041513663   -3.1580606    1.4601515   283172 
 7483000   0.62777636   -3.1556425   -1.6956835  0.040095726   -3.1556425     1.459959   283191 
 7484000   0.62879116   -3.1585993   -1.6959033  0.040783603   -3.1585993     1.462696   283118 
 7485000   0.62850063   -3.1572923   -1.6948124  0.037677544   -3.1572923    1.4624799   283029 
 7486000   0.62670126   -3.1553868    -1.696862  0.038925931   -3.1553868    1.4585248   282984 
 7487000   0.62753079   -3.1561484   -1.6953885  0.040295436   -3.1561484    1.4607599   282925 
 7488000   0.62650781   -3.1560146   -1.6973679  0.042935448   -3.1560146    1.4586467   282873 
 7489000   0.62678129   -3.1576465   -1.6982341  0.040287258   -3.1576465    1.4594124   282848 
 7490000   0.62767942   -3.1573398   -1.6958516  0.037705082   -3.1573398    1.4614882   282851 
 7491000   0.62783323   -3.1569809   -1.6949743  0.045028693   -3.1569809    1.4620065   282820 
 7492000   0.62758949   -3.1573788   -1.6956814  0.042106375   -3.1573788    1.4616974   282770 
 7493000   0.62806366   -3.1601253   -1.6971218  0.038977104   -3.1601253    1.4630035   282731 
 7494000   0.62723805   -3.1602967   -1.6989889  0.041767843   -3.1602967    1.4613078   282687 
 7495000   0.62751933   -3.1589905   -1.6969188  0.048075704   -3.1589905    1.4620717   282666 
 7496000   0.62778698   -3.1604221   -1.6975819  0.041440445   -3.1604221    1.4628402   282638 
 7497000   0.62732538   -3.1609053   -1.6990114  0.043098561   -3.1609053    1.4618939   282613 
 7498000   0.62749932   -3.1608901   -1.6982544  0.044089279   -3.1608901    1.4626356   282548 
 7499000   0.62889082   -3.1633943   -1.6973699  0.038958502   -3.1633943    1.4660244   282520 
 7500000   0.62873186   -3.1612757   -1.6956011   0.04107445   -3.1612757    1.4656746   282516 
 7501000    0.6267999    -3.160083   -1.6987362  0.043099566    -3.160083    1.4613467   282482 
 7502000    0.6268756   -3.1597965    -1.698206  0.042071527   -3.1597965    1.4615905   282469 
 7503000   0.62633949   -3.1576442   -1.6971382  0.041522989   -3.1576442     1.460506   282437 
 7504000   0.62573145   -3.1558635   -1.6965221  0.043721273   -3.1558635    1.4593413   282388 
 7505000   0.62707743   -3.1608207   -1.6983506  0.041430181   -3.1608207    1.4624701   282390 
 7506000   0.62666337   -3.1581901   -1.6965822  0.039649717   -3.1581901    1.4616079   282370 
 7507000   0.62590074   -3.1584913   -1.6984346  0.044375957   -3.1584913    1.4600567   282326 
 7508000   0.62697245   -3.1598641   -1.6971467  0.045330103   -3.1598641    1.4627173   282295 
 7509000   0.62659081   -3.1570719   -1.6950636  0.046036564   -3.1570719    1.4620082   282260 
 7510000   0.62658489   -3.1573827   -1.6953054  0.045268003   -3.1573827    1.4620773   282244 
 7511000   0.62654619   -3.1565546   -1.6945831  0.047416555   -3.1565546    1.4619714   282247 
 7512000   0.62541206   -3.1556694   -1.6959875  0.042071588   -3.1556694    1.4596819   282178 
 7513000   0.62539717   -3.1565208   -1.6965943  0.039430135   -3.1565208    1.4599266   282124 
 7514000    0.6253424   -3.1558281    -1.695869  0.041326687   -3.1558281    1.4599591   282093 
 7515000   0.62459807   -3.1551955   -1.6964467  0.038855335   -3.1551955    1.4587488   281991 
 7516000   0.62394139   -3.1536037   -1.6962852  0.044254348   -3.1536037    1.4573185   281971 
 7517000   0.62568061   -3.1552776   -1.6936532  0.035260038   -3.1552776    1.4616244   281924 
 7518000     0.626561   -3.1587891   -1.6948848  0.039216105   -3.1587891    1.4639043   281881 
 7519000   0.62466948   -3.1544983   -1.6948736  0.042577598   -3.1544983    1.4596247   281854 
 7520000   0.62538968   -3.1554955    -1.693965  0.043206147   -3.1554955    1.4615306   281811 
 7521000   0.62463605   -3.1551119    -1.695125  0.045266444   -3.1551119    1.4599869   281769 
 7522000   0.62511572   -3.1553332   -1.6940696  0.046926759   -3.1553332    1.4612636   281739 
 7523000   0.62480703   -3.1537122   -1.6930768  0.041439837   -3.1537122    1.4606354   281721 
 7524000   0.62424548   -3.1530879   -1.6936358  0.039358487   -3.1530879    1.4594521   281696 
 7525000   0.62405944   -3.1530766   -1.6942096  0.045204734   -3.1530766     1.458867   281725 
 7526000   0.62523253   -3.1551563   -1.6934068  0.035267105   -3.1551563    1.4617494   281698 
 7527000   0.62359154   -3.1518281   -1.6939514  0.043753472   -3.1518281    1.4578767   281705 
 7528000   0.62415556   -3.1532868   -1.6940759   0.04195344   -3.1532868    1.4592108   281702 
 7529000   0.62577538   -3.1557208   -1.6924581  0.042664389   -3.1557208    1.4632627   281651 
 7530000   0.62547159   -3.1548187   -1.6919547  0.039683233   -3.1548187     1.462864   281591 
 7531000   0.62502414    -3.154696   -1.6925617  0.044321695    -3.154696    1.4621342   281530 
 7532000    0.6245079   -3.1562476   -1.6952847  0.042397509   -3.1562476    1.4609629   281523 
 7533000   0.62399969   -3.1556754   -1.6957043  0.046864345   -3.1556754    1.4599711   281485 
 7534000   0.62472401   -3.1583924   -1.6962903  0.039729677   -3.1583924    1.4621021   281401 
 7535000   0.62388186   -3.1589795   -1.6985525  0.040746145   -3.1589795    1.4604269   281344 
 7536000   0.62326312   -3.1571883   -1.6979712  0.040619965   -3.1571883    1.4592171   281298 
 7537000    0.6231456   -3.1554625   -1.6965049  0.045091032   -3.1554625    1.4589575   281295 
 7538000     0.624607   -3.1588293   -1.6961434  0.042604813   -3.1588293    1.4626859   281236 
 7539000   0.62308266   -3.1565305   -1.6971652    0.0432329   -3.1565305    1.4593653   281188 
 7540000   0.62302514   -3.1590346   -1.6995653  0.042874175   -3.1590346    1.4594693   281142 
 7541000   0.62338082    -3.157593   -1.6971969  0.044354746    -3.157593     1.460396   281124 
 7542000   0.62233867   -3.1587108   -1.7003205  0.042503894   -3.1587108    1.4583903   281040 
 7543000   0.62246899   -3.1560344   -1.6971725  0.044239578   -3.1560344    1.4588619   281008 
 7544000   0.62258872    -3.158745   -1.6993792  0.044550051    -3.158745    1.4593658   280965 
 7545000   0.62261456   -3.1563646   -1.6969279  0.046604544   -3.1563646    1.4594367   280963 
 7546000   0.62243887   -3.1553553   -1.6960551  0.041263162   -3.1553553    1.4593002   280910 
 7547000    0.6238885   -3.1579766   -1.6949913  0.040536767   -3.1579766    1.4629853   280855 
 7548000    0.6227369   -3.1569836   -1.6963243  0.045272085   -3.1569836    1.4606593   280783 
 7549000   0.62252302   -3.1563881   -1.6959808  0.040597771   -3.1563881    1.4604073   280735 
 7550000   0.62234131   -3.1545145   -1.6942318  0.046586418   -3.1545145    1.4602827   280677 
 7551000   0.62143245    -3.151961   -1.6937486  0.042386472    -3.151961    1.4582124   280665 
 7552000   0.62207864   -3.1543557     -1.69432  0.039076761   -3.1543557    1.4600357   280606 
 7553000   0.62052681   -3.1505916   -1.6940787  0.036361711   -3.1505916    1.4565129   280583 
 7554000   0.61982271   -3.1493995   -1.6945341  0.038268872   -3.1493995    1.4548654   280582 
 7555000   0.62106645   -3.1514804   -1.6934619    0.0401572   -3.1514804    1.4580186   280537 
 7556000    0.6205047   -3.1507433   -1.6940798  0.040752157   -3.1507433    1.4566634   280544 
 7557000   0.62083393   -3.1504854   -1.6927997  0.042173029   -3.1504854    1.4576857   280496 
 7558000   0.62006477   -3.1496981   -1.6935484  0.041135628   -3.1496981    1.4561497   280444 
 7559000   0.61991908   -3.1502925   -1.6942824  0.043342376   -3.1502925    1.4560101   280405 
 7560000   0.61958112   -3.1496994      -1.6944  0.041490604   -3.1496994    1.4552994   280389 
 7561000   0.62050761   -3.1513588   -1.6937585  0.037742949   -3.1513588    1.4576003   280365 
 7562000   0.61933693   -3.1504472   -1.6950986  0.041775916   -3.1504472    1.4553486   280269 
 7563000   0.62056025   -3.1520373    -1.693684  0.045243387   -3.1520373    1.4583534   280244 
 7564000   0.62280894   -3.1586851   -1.6950524  0.042928714   -3.1586851    1.4636327   280245 
 7565000   0.62119701   -3.1542342   -1.6943531  0.043815321   -3.1542342     1.459881   280238 
 7566000   0.62143105   -3.1560767   -1.6954945  0.042759853   -3.1560767    1.4605822   280209 
 7567000   0.62127662   -3.1572619   -1.6966621  0.043121488   -3.1572619    1.4605998   280136 
 7568000   0.62123619   -3.1566146     -1.69599  0.043257611   -3.1566146    1.4606246   280113 
 7569000   0.62084579   -3.1550741   -1.6952684  0.041100151   -3.1550741    1.4598057   280094 
 7570000   0.61956596   -3.1558449   -1.6987519  0.040849208   -3.1558449     1.457093   280037 
 7571000   0.61881623   -3.1542977   -1.6986352  0.041939021   -3.1542977    1.4556624   279973 
 7572000    0.6212658   -3.1571308   -1.6956122    0.0434413   -3.1571308    1.4615186   279955 
 7573000   0.61945488   -3.1526256   -1.6952682  0.044070372   -3.1526256    1.4573574   279936 
 7574000   0.61913594   -3.1539529   -1.6970597  0.040784999   -3.1539529    1.4568933   279881 
 7575000   0.62007377   -3.1555962   -1.6964596  0.043056705   -3.1555962    1.4591366   279874 
 7576000   0.61917859    -3.154413   -1.6971955  0.042488512    -3.154413    1.4572175   279838 
 7577000   0.61930781   -3.1550606   -1.6972525  0.044413993   -3.1550606    1.4578081   279783 
 7578000   0.62143788   -3.1579705   -1.6950438  0.040324319   -3.1579705    1.4629267   279763 
 7579000   0.62153535   -3.1568024   -1.6936044  0.047196177   -3.1568024     1.463198   279755 
 7580000   0.62064129   -3.1549731   -1.6937858  0.038953383   -3.1549731    1.4611873   279737 
 7581000    0.6190902   -3.1537582   -1.6957745  0.043760567   -3.1537582    1.4579837   279651 
 7582000   0.61932272   -3.1540564    -1.695306  0.042837236   -3.1540564    1.4587504   279609 
 7583000   0.61860056   -3.1527387   -1.6955225  0.041344384   -3.1527387    1.4572162   279577 
 7584000   0.61931344   -3.1547227   -1.6957437  0.041816021   -3.1547227     1.458979   279561 
 7585000   0.61774535   -3.1516836   -1.6959613  0.044128424   -3.1516836    1.4557223   279477 
 7586000   0.61807429    -3.153769   -1.6970265  0.037573196    -3.153769    1.4567425   279430 
 7587000   0.61896309   -3.1543682   -1.6956301  0.044460267   -3.1543682    1.4587381   279449 
 7588000   0.61892198   -3.1556409   -1.6966655  0.040764595   -3.1556409    1.4589753   279385 
 7589000   0.61891833   -3.1551904   -1.6960304  0.046677383   -3.1551904      1.45916   279348 
 7590000   0.61892512   -3.1546968    -1.695385  0.045378264   -3.1546968    1.4593118   279322 
 7591000   0.61938558   -3.1576654   -1.6969489  0.043632535   -3.1576654    1.4607165   279261 
 7592000   0.62046805   -3.1590588   -1.6954908  0.041638155   -3.1590588    1.4635681   279204 
 7593000   0.62001661   -3.1604686   -1.6975725  0.045288735   -3.1604686    1.4628962   279129 
 7594000   0.61933737   -3.1576349   -1.6963309    0.0409223   -3.1576349     1.461304   279127 
 7595000   0.61916009   -3.1583262   -1.6971997  0.045073522   -3.1583262    1.4611265   279081 
 7596000   0.61797058   -3.1582278   -1.6997621  0.041995575   -3.1582278    1.4584658   279053 
 7597000   0.61911366   -3.1589289   -1.6974878  0.041923591   -3.1589289    1.4614411   279000 
 7598000   0.61887149   -3.1571979   -1.6962971   0.04134491   -3.1571979    1.4609009   278994 
 7599000   0.61768157   -3.1535863   -1.6950187  0.044726179   -3.1535863    1.4585677   278903 
 7600000   0.61780199   -3.1531809    -1.694308  0.044820158   -3.1531809     1.458873   278899 
 7601000   0.61700339   -3.1512895    -1.694109  0.042448646   -3.1512895    1.4571805   278862 
 7602000    0.6185279   -3.1559758   -1.6949329  0.045311737   -3.1559758    1.4610429   278812 
 7603000   0.61764717   -3.1512088   -1.6922097  0.046894215   -3.1512088    1.4589991   278805 
 7604000   0.61856291   -3.1524675   -1.6911689  0.046592698   -3.1524675    1.4612986   278779 
 7605000   0.61934966   -3.1528161   -1.6895067  0.043112872   -3.1528161    1.4633094   278750 
 7606000   0.61873905    -3.151067   -1.6888331  0.041484091    -3.151067    1.4622339   278680 
 7607000   0.61735173   -3.1496744    -1.690452  0.044386221   -3.1496744    1.4592224   278629 
 7608000   0.61765276   -3.1494648   -1.6894103  0.041503551   -3.1494648    1.4600545   278606 
 7609000   0.61845012   -3.1516683   -1.6894299  0.045315477   -3.1516683    1.4622385   278549 
 7610000   0.61770079   -3.1490425   -1.6884655  0.037819611   -3.1490425    1.4605769   278528 
 7611000   0.61735186   -3.1480009   -1.6879293  0.046242103   -3.1480009    1.4600716   278467 
 7612000   0.61702629   -3.1473808   -1.6878014  0.044001327   -3.1473808    1.4595794   278414 
 7613000   0.61595621   -3.1458003   -1.6886004  0.037506877   -3.1458003    1.4571999   278385 
 7614000   0.61641164   -3.1463735   -1.6878028  0.044141579   -3.1463735    1.4585708   278329 
 7615000   0.61519833   -3.1444004   -1.6885019  0.046451923   -3.1444004    1.4558986   278291 
 7616000   0.61481161   -3.1436557   -1.6887037  0.042174866   -3.1436557     1.454952   278297 
 7617000   0.61649487    -3.145599   -1.6867474  0.040580721    -3.145599    1.4588516   278313 
 7618000   0.61719363   -3.1459307   -1.6852839   0.04090562   -3.1459307    1.4606468   278286 
 7619000   0.61716122   -3.1450958   -1.6844942   0.04340619   -3.1450958    1.4606016   278280 
 7620000   0.61628945   -3.1426468   -1.6835998  0.043915089   -3.1426468     1.459047   278183 
 7621000   0.61680744   -3.1459015   -1.6853289  0.044820966   -3.1459015    1.4605726   278126 
 7622000   0.61553851   -3.1419404    -1.684121  0.040392126   -3.1419404    1.4578194   278078 
 7623000   0.61666278    -3.145953   -1.6853659  0.039578452    -3.145953    1.4605872   278058 
 7624000   0.61587179   -3.1454798   -1.6866717  0.039103753   -3.1454798    1.4588081   278040 
 7625000   0.61445912   -3.1416565   -1.6858908  0.042168134   -3.1416565    1.4557656   277982 
 7626000   0.61604516   -3.1432985   -1.6839433  0.035598305   -3.1432985    1.4593552   278014 
 7627000   0.61582254   -3.1428614   -1.6840493  0.044146633   -3.1428614    1.4588121   278017 
 7628000   0.61708537   -3.1456901   -1.6835867  0.042376741   -3.1456901    1.4621034   277960 
 7629000   0.61681585   -3.1437983   -1.6821442  0.044234436   -3.1437983    1.4616541   277924 
 7630000   0.61588513   -3.1439684   -1.6842363  0.041083298   -3.1439684    1.4597322   277870 
 7631000   0.61770332   -3.1467893   -1.6827056  0.043355691   -3.1467893    1.4640837   277862 
 7632000    0.6173943   -3.1481101   -1.6844533  0.042217739   -3.1481101    1.4636568   277804 
 7633000   0.61516382   -3.1436917   -1.6850654  0.039240854   -3.1436917    1.4586263   277755 
 7634000    0.6168493   -3.1468273   -1.6842203  0.044089567   -3.1468273    1.4626069   277758 
 7635000   0.61653637   -3.1454804   -1.6835155   0.04504909   -3.1454804     1.461965   277739 
 7636000   0.61627868   -3.1442952   -1.6826939  0.045803496   -3.1442952    1.4616013   277692 
 7637000   0.61654945   -3.1436048   -1.6811086  0.046219833   -3.1436048    1.4624962   277644 
 7638000   0.61719819   -3.1454471   -1.6813276  0.044073665   -3.1454471    1.4641195   277628 
 7639000   0.61575702   -3.1421007   -1.6812317  0.041615609   -3.1421007    1.4608691   277596 
 7640000   0.61675666   -3.1463156   -1.6828745  0.040143649   -3.1463156    1.4634411   277558 
 7641000   0.61547396   -3.1448554   -1.6843212  0.044552962   -3.1448554    1.4605343   277532 
 7642000   0.61429105    -3.144767   -1.6865669  0.041044614    -3.144767    1.4582001   277442 
 7643000   0.61534957   -3.1454113   -1.6845511  0.040842346   -3.1454113    1.4608602   277414 
 7644000   0.61685694   -3.1485384   -1.6839254   0.04207184   -3.1485384     1.464613   277381 
 7645000   0.61588426   -3.1452344   -1.6828729  0.044364783   -3.1452344    1.4623615   277370 
 7646000   0.61393136   -3.1443653   -1.6863306  0.040287946   -3.1443653    1.4580347   277311 
 7647000   0.61557801   -3.1442593    -1.682256  0.042905349   -3.1442593    1.4620033   277300 
 7648000   0.61497609   -3.1421657   -1.6814129  0.047523114   -3.1421657    1.4607529   277266 
 7649000   0.61694714   -3.1441493   -1.6783921  0.047483874   -3.1441493    1.4657572   277205 
 7650000   0.61705526   -3.1444339   -1.6782559  0.042946609   -3.1444339     1.466178   277174 
 7651000   0.61525301   -3.1423209   -1.6802933  0.046691014   -3.1423209    1.4620276   277149 
 7652000   0.61536236   -3.1439978   -1.6815732  0.043186768   -3.1439978    1.4624246   277123 
 7653000   0.61498724   -3.1439946   -1.6824456  0.042623793   -3.1439946     1.461549   277120 
 7654000   0.61317379   -3.1412472   -1.6839765  0.044239487   -3.1412472    1.4572707   277114 
 7655000   0.61208467   -3.1389176   -1.6843823  0.042952657   -3.1389176    1.4545354   277142 
 7656000   0.61211714   -3.1418333    -1.686953  0.039665788   -3.1418333    1.4548803   277091 
 7657000   0.61198381   -3.1423325   -1.6874856  0.040053509   -3.1423325    1.4548469   277037 
 7658000   0.61274433    -3.143637   -1.6866824  0.036431522    -3.143637    1.4569546   276980 
 7659000   0.61349135   -3.1434644   -1.6844491   0.04483379   -3.1434644    1.4590153   276926 
 7660000   0.61441608   -3.1449566   -1.6837052  0.043803304   -3.1449566    1.4612514   276919 
 7661000   0.61349795   -3.1445774   -1.6851775  0.041621892   -3.1445774    1.4593999   276856 
 7662000   0.61349291   -3.1460701   -1.6864186   0.04339883   -3.1460701    1.4596515   276806 
 7663000   0.61430091   -3.1500024    -1.688212  0.044147985   -3.1500024    1.4617905   276765 
 7664000   0.61323323   -3.1460134    -1.686695  0.043267341   -3.1460134    1.4593184   276752 
 7665000   0.61350876   -3.1465938    -1.686662  0.039278195   -3.1465938    1.4599318   276760 
 7666000   0.61312371   -3.1457772   -1.6868407  0.043699184   -3.1457772    1.4589365   276775 
 7667000   0.61435486   -3.1500662   -1.6879994  0.041656662   -3.1500662    1.4620668   276737 
 7668000   0.61274638   -3.1482086   -1.6898433  0.041741573   -3.1482086    1.4583653   276713 
 7669000   0.61321186   -3.1512629   -1.6914151  0.046084409   -3.1512629    1.4598477   276642 
 7670000   0.61399151   -3.1524371   -1.6904954  0.043136758   -3.1524371    1.4619416   276597 
 7671000   0.61362126   -3.1522937   -1.6907581   0.04322241   -3.1522937    1.4615356   276507 
 7672000   0.61332317   -3.1525287   -1.6913861  0.042482811   -3.1525287    1.4611427   276447 
 7673000   0.61244749   -3.1496307    -1.690268  0.041669586   -3.1496307    1.4593627   276389 
 7674000   0.61292702   -3.1503614   -1.6898455  0.043616791   -3.1503614    1.4605159   276387 
 7675000   0.61320623   -3.1500614   -1.6887691  0.044196439   -3.1500614    1.4612922   276366 
 7676000   0.61324512    -3.151673   -1.6899285  0.043552974    -3.151673    1.4617446   276298 
 7677000   0.61157434   -3.1493503   -1.6914246  0.045151111   -3.1493503    1.4579256   276267 
 7678000   0.61118877   -3.1492118   -1.6919416  0.043831684   -3.1492118    1.4572702   276217 
 7679000   0.61089493   -3.1482798   -1.6915098  0.047760805   -3.1482798      1.45677   276179 
 7680000   0.61166574   -3.1496192   -1.6908631  0.043653564   -3.1496192     1.458756   276151 
 7681000   0.61016848   -3.1482918   -1.6926902    0.0382775   -3.1482918    1.4556017   276072 
 7682000   0.61106863   -3.1520529   -1.6939975  0.041297199   -3.1520529    1.4580554   276014 
 7683000   0.61060092    -3.147558   -1.6907242   0.04476418    -3.147558    1.4568338   276034 
 7684000   0.61095301   -3.1484329   -1.6905161   0.04295692   -3.1484329    1.4579168   275988 
 7685000   0.61112109   -3.1480377   -1.6896088   0.04402565   -3.1480377    1.4584289   275967 
 7686000   0.61322061   -3.1525755   -1.6887489  0.043468737   -3.1525755    1.4638265   275894 
 7687000   0.61152296   -3.1517589   -1.6916726  0.044556357   -3.1517589    1.4600863   275835 
 7688000     0.611401   -3.1501012   -1.6902955  0.038662675   -3.1501012    1.4598057   275833 
 7689000   0.61212853    -3.150761    -1.689054  0.040473547    -3.150761    1.4617071   275802 
 7690000   0.61043791   -3.1466142   -1.6889812  0.045586524   -3.1466142     1.457633   275809 
 7691000    0.6097862   -3.1458221   -1.6896238  0.045397169   -3.1458221    1.4561983   275786 
 7692000   0.60984394   -3.1460443    -1.689555  0.043720681   -3.1460443    1.4564893   275757 
 7693000   0.61127629    -3.147963   -1.6879628   0.04072547    -3.147963    1.4600002   275740 
 7694000   0.61086789   -3.1483352   -1.6889559  0.043423867   -3.1483352    1.4593794   275673 
 7695000   0.60949279   -3.1449656   -1.6888397  0.044538709   -3.1449656    1.4561259   275667 
 7696000   0.60984851   -3.1450782   -1.6879492  0.042312999   -3.1450782     1.457129   275638 
 7697000   0.60929331   -3.1443193   -1.6885274  0.040259319   -3.1443193    1.4557919   275640 
 7698000    0.6096083   -3.1462699    -1.689477  0.040145897   -3.1462699    1.4567929   275593 
 7699000   0.60964544    -3.142799   -1.6858909  0.045934558    -3.142799    1.4569081   275588 
 7700000   0.61200004    -3.148798   -1.6861356  0.042714324    -3.148798    1.4626624   275564 
 7701000   0.61009357   -3.1441989   -1.6859817  0.039948936   -3.1441989    1.4582171   275543 
 7702000   0.61088148   -3.1456507   -1.6853065  0.039753684   -3.1456507    1.4603442   275497 
 7703000   0.60977624   -3.1444813   -1.6866682  0.045737799   -3.1444813    1.4578131   275476 
 7704000   0.60987779   -3.1433727   -1.6851738  0.044628509   -3.1433727    1.4581988   275449 
 7705000   0.61062372   -3.1444307   -1.6845649  0.041910984   -3.1444307    1.4598657   275471 
 7706000   0.60990831   -3.1434407   -1.6850207  0.041976322   -3.1434407    1.4584201   275421 
 7707000   0.61083325   -3.1463988   -1.6854063  0.044671648   -3.1463988    1.4609925   275353 
 7708000   0.61014605   -3.1455224   -1.6859138  0.042578631   -3.1455224    1.4596086   275304 
 7709000   0.60990853   -3.1441074   -1.6848285  0.044796591   -3.1441074    1.4592789   275259 
 7710000   0.61021931   -3.1455004   -1.6855044  0.038830499   -3.1455004     1.459996   275264 
 7711000   0.60943398   -3.1420756    -1.683736  0.039826064   -3.1420756    1.4583395   275222 
 7712000   0.60897212   -3.1411951   -1.6838125  0.042080705   -3.1411951    1.4573826   275194 
 7713000    0.6092212   -3.1408965   -1.6827536  0.042246586   -3.1408965     1.458143   275163 
 7714000   0.60927481   -3.1402299   -1.6819427  0.044512803   -3.1402299    1.4582872   275160 
 7715000   0.60980578    -3.140504    -1.680686  0.043261556    -3.140504     1.459818   275111 
 7716000   0.61109424   -3.1440106   -1.6807252  0.042284847   -3.1440106    1.4632854   275039 
 7717000   0.61042024   -3.1424837   -1.6807006  0.047382645   -3.1424837    1.4617831   275018 
 7718000   0.61067058   -3.1442329   -1.6817971  0.046168802   -3.1442329    1.4624358   275008 
 7719000   0.61001203   -3.1436475   -1.6824806  0.042306872   -3.1436475    1.4611668   274950 
 7720000   0.61003698   -3.1428923   -1.6816178   0.04527344   -3.1428923    1.4612744   274941 
 7721000   0.61042376   -3.1440029   -1.6817488  0.044412674   -3.1440029    1.4622541   274931 
 7722000   0.60964262   -3.1424239   -1.6818869  0.042548503   -3.1424239     1.460537   274902 
 7723000   0.60937501   -3.1422101   -1.6821443  0.043478066   -3.1422101    1.4600658   274870 
 7724000   0.61081967    -3.144758   -1.6810018  0.042786091    -3.144758    1.4637562   274827 
 7725000   0.60995216   -3.1423348    -1.680567  0.044089411   -3.1423348    1.4617677   274810 
 7726000   0.60742868   -3.1382068   -1.6823595  0.044356611   -3.1382068    1.4558473   274786 
 7727000   0.60826001   -3.1382867   -1.6804575  0.043036565   -3.1382867    1.4578292   274788 
 7728000   0.60818338   -3.1373528   -1.6796383   0.04172482   -3.1373528    1.4577145   274775 
 7729000   0.60816377   -3.1372561   -1.6795462  0.043243995   -3.1372561    1.4577099   274767 
 7730000   0.60936437   -3.1403607   -1.6794753  0.042945978   -3.1403607    1.4608854   274711 
 7731000   0.61042752   -3.1399207   -1.6762575  0.042859566   -3.1399207    1.4636633   274668 
 7732000   0.60961261   -3.1371989   -1.6753352  0.048021825   -3.1371989    1.4618636   274639 
 7733000   0.61043328   -3.1387016   -1.6747207  0.042951307   -3.1387016    1.4639809   274611 
 7734000   0.60980866   -3.1388255   -1.6762947  0.043890901   -3.1388255    1.4625308   274602 
 7735000   0.60896294   -3.1374173   -1.6763988  0.042183617   -3.1374173    1.4610186   274505 
 7736000   0.60880367   -3.1369967   -1.6762325  0.049876266   -3.1369967    1.4607642   274481 
 7737000   0.60922432   -3.1366045     -1.67457   0.04700932   -3.1366045    1.4620345   274432 
 7738000    0.6088929   -3.1355686   -1.6741537   0.04484628   -3.1355686    1.4614149   274399 
 7739000   0.60930067   -3.1368367   -1.6743899  0.042716218   -3.1368367    1.4624468   274389 
 7740000   0.60948606   -3.1362969   -1.6732718  0.045760468   -3.1362969    1.4630251   274364 
 7741000   0.60879234    -3.134139   -1.6727791  0.044865951    -3.134139    1.4613599   274364 
 7742000     0.609235   -3.1352253   -1.6727921  0.041549021   -3.1352253    1.4624331   274362 
 7743000   0.60755915   -3.1311288   -1.6727451  0.046151187   -3.1311288    1.4583838   274367 
 7744000   0.60839311   -3.1316024   -1.6709932  0.040187786   -3.1316024    1.4606092   274325 
 7745000   0.60829089   -3.1320765   -1.6712441  0.042567459   -3.1320765    1.4608324   274237 
 7746000   0.60930092   -3.1341546   -1.6707471  0.042724064   -3.1341546    1.4634074   274209 
 7747000     0.609895   -3.1350135   -1.6699816  0.045099785   -3.1350135     1.465032   274172 
 7748000   0.60811574   -3.1322288   -1.6712949  0.044510889   -3.1322288    1.4609338   274139 
 7749000   0.60790045   -3.1325963   -1.6719985  0.041656476   -3.1325963    1.4605978   274105 
 7750000   0.60915115   -3.1342006   -1.6702453  0.044269581   -3.1342006    1.4639553   274039 
 7751000   0.61033958   -3.1362609   -1.6692192  0.042058598   -3.1362609    1.4670417   273996 
 7752000   0.60823905   -3.1346619    -1.672461  0.043076041   -3.1346619    1.4622008   273957 
 7753000    0.6063962   -3.1323825   -1.6744043  0.038795178   -3.1323825    1.4579782   273918 
 7754000   0.60706528   -3.1356115   -1.6761738  0.037945037   -3.1356115    1.4594377   273946 
 7755000   0.60668695    -3.133407   -1.6746711  0.039734906    -3.133407    1.4587358   273907 
 7756000   0.60800875   -3.1357733   -1.6737258   0.04478764   -3.1357733    1.4620475   273882 
 7757000   0.60846938   -3.1361967   -1.6729561  0.042393327   -3.1361967    1.4632406   273866 
 7758000   0.60714088   -3.1355479   -1.6754008   0.04521241   -3.1355479    1.4601471   273847 
 7759000   0.60778012    -3.134702   -1.6730495  0.042893414    -3.134702    1.4616525   273853 
 7760000   0.60728378   -3.1339299    -1.673199  0.044146383   -3.1339299    1.4607308   273802 
 7761000   0.60769178   -3.1357094   -1.6736554  0.041962299   -3.1357094     1.462054   273738 
 7762000   0.60894174   -3.1399238   -1.6748304  0.041971597   -3.1399238    1.4650934   273732 
 7763000   0.60865842   -3.1377914   -1.6732567  0.045919783   -3.1377914    1.4645348   273709 
 7764000   0.60765245   -3.1350471   -1.6728421  0.041334323   -3.1350471    1.4622051   273692 
 7765000   0.60627583   -3.1345383   -1.6755285  0.044469278   -3.1345383    1.4590098   273670 
 7766000   0.60807262   -3.1367028   -1.6735829  0.039986446   -3.1367028    1.4631199   273710 
 7767000   0.60759135   -3.1354337    -1.673365  0.043842602   -3.1354337    1.4620687   273690 
 7768000   0.60731702   -3.1372338   -1.6755155  0.042252074   -3.1372338    1.4617184   273632 
 7769000     0.607507   -3.1355351   -1.6732633  0.050263582   -3.1355351    1.4622718   273614 
 7770000   0.60741393   -3.1390377   -1.6766853  0.045567708   -3.1390377    1.4623524   273557 
 7771000    0.6066852   -3.1361512   -1.6754998  0.047408777   -3.1361512    1.4606514   273547 
 7772000   0.60718914   -3.1365971   -1.6745828   0.04071372   -3.1365971    1.4620143   273519 
 7773000   0.60601953   -3.1358275   -1.6764213  0.042232926   -3.1358275    1.4594062   273480 
 7774000   0.60570394   -3.1348214   -1.6758604  0.038587879   -3.1348214    1.4589609   273421 
 7775000   0.60600476   -3.1353927    -1.675531  0.042819941   -3.1353927    1.4598617   273388 
 7776000   0.60589432   -3.1346163   -1.6748765  0.041408393   -3.1346163    1.4597398   273361 
 7777000   0.60650222   -3.1350591   -1.6738226  0.044429728   -3.1350591    1.4612365   273355 
 7778000   0.60767266   -3.1370927   -1.6729024  0.042155199   -3.1370927    1.4641903   273330 
 7779000   0.60668783   -3.1367002   -1.6749149  0.045367796   -3.1367002    1.4617853   273336 
 7780000   0.60658101   -3.1384749   -1.6769791  0.038543946   -3.1384749    1.4614958   273342 
 7781000   0.60527275   -3.1349771   -1.6763506  0.045718174   -3.1349771    1.4586265   273289 
 7782000   0.60722496   -3.1387216   -1.6753958  0.043177779   -3.1387216    1.4633257   273290 
 7783000   0.60688277   -3.1368585   -1.6741219  0.043867821   -3.1368585    1.4627366   273246 
 7784000   0.60865141   -3.1385532   -1.6713658   0.04646172   -3.1385532    1.4671874   273211 
 7785000    0.6088585   -3.1383841   -1.6706922  0.047688281   -3.1383841     1.467692   273210 
 7786000   0.60915336   -3.1393078   -1.6706739  0.046563965   -3.1393078    1.4686339   273167 
 7787000   0.60690817   -3.1338819   -1.6705378  0.043518045   -3.1338819    1.4633441   273144 
 7788000   0.60581582   -3.1327354   -1.6718914   0.04562187   -3.1327354     1.460844   273119 
 7789000    0.6052763   -3.1315661   -1.6716863  0.044795298   -3.1315661    1.4598797   273056 
 7790000   0.60483335   -3.1315046   -1.6725115  0.039545164   -3.1315046     1.458993   273022 
 7791000   0.60436239   -3.1295106   -1.6714667  0.041275735   -3.1295106    1.4580439   272987 
 7792000   0.60434802   -3.1316167   -1.6736769  0.040792959   -3.1316167    1.4579398   273000 
 7793000   0.60510162   -3.1308299   -1.6710561  0.040688847   -3.1308299    1.4597738   272997 
 7794000   0.60534665   -3.1318837   -1.6712833  0.040932734   -3.1318837    1.4606004   272953 
 7795000   0.60637246   -3.1326947   -1.6694637  0.043091447   -3.1326947    1.4632309   272924 
 7796000   0.60649214   -3.1316242   -1.6678953  0.042717624   -3.1316242    1.4637289   272885 
 7797000    0.6050929   -3.1293495   -1.6687086   0.04526037   -3.1293495    1.4606409   272831 
 7798000   0.60503592   -3.1283758   -1.6677439  0.040351624   -3.1283758    1.4606319   272807 
 7799000   0.60657513   -3.1307022   -1.6662524  0.042478634   -3.1307022    1.4644497   272788 
 7800000   0.60489871   -3.1288555   -1.6681586  0.042996067   -3.1288555    1.4606969   272733 
 7801000   0.60547776   -3.1284804   -1.6660903  0.043507363   -3.1284804    1.4623901   272678 
 7802000   0.60579891   -3.1300243   -1.6669391  0.044482562   -3.1300243    1.4630852   272693 
 7803000   0.60538615   -3.1288463   -1.6662162  0.045532547   -3.1288463    1.4626301   272592 
 7804000   0.60469834   -3.1278013    -1.666581  0.042370251   -3.1278013    1.4612203   272545 
 7805000   0.60426953   -3.1290992   -1.6685829  0.038529933   -3.1290992    1.4605163   272483 
 7806000   0.60484794    -3.128954   -1.6668626  0.044574147    -3.128954    1.4620914   272450 
 7807000   0.60479756   -3.1308466    -1.668555  0.042604034   -3.1308466    1.4622917   272390 
 7808000   0.60485143   -3.1292565   -1.6667648  0.041538722   -3.1292565    1.4624917   272377 
 7809000   0.60396367   -3.1269033   -1.6666547  0.040685699   -3.1269033    1.4602487   272395 
 7810000   0.60382057    -3.128318   -1.6684207  0.040158828    -3.128318    1.4598973   272396 
 7811000   0.60585725   -3.1281163   -1.6633378  0.043777593   -3.1281163    1.4647785   272404 
 7812000   0.60492771   -3.1282309   -1.6652647   0.04748448   -3.1282309    1.4629662   272323 
 7813000   0.60420144   -3.1269711    -1.665756  0.044665587   -3.1269711    1.4612151   272322 
 7814000   0.60274171   -3.1263263   -1.6682452  0.039692603   -3.1263263    1.4580811   272248 
 7815000   0.60427532   -3.1268205    -1.665008  0.038743593   -3.1268205    1.4618125   272244 
 7816000   0.60257452    -3.122545   -1.6647291  0.044885414    -3.122545    1.4578159   272222 
 7817000   0.60326366   -3.1246584   -1.6648428  0.042061859   -3.1246584    1.4598156   272160 
 7818000    0.6036765   -3.1241526   -1.6632789  0.044362476   -3.1241526    1.4608737   272149 
 7819000   0.60473865   -3.1275056   -1.6640615  0.041725348   -3.1275056     1.463444   272149 
 7820000   0.60324509   -3.1254249   -1.6655255   0.04332908   -3.1254249    1.4598994   272136 
 7821000   0.60272198   -3.1222945    -1.663393  0.042811056   -3.1222945    1.4589015   272086 
 7822000   0.60472273   -3.1256853   -1.6615804  0.043783402   -3.1256853    1.4641049   272019 
 7823000   0.60418656   -3.1274752   -1.6644695  0.040806212   -3.1274752    1.4630057   271982 
 7824000   0.60333306   -3.1260416   -1.6648715   0.03963719   -3.1260416      1.46117   271939 
 7825000   0.60244985     -3.12555   -1.6661755  0.044655023     -3.12555    1.4593745   271875 
 7826000   0.60191653   -3.1238897   -1.6656998  0.043049897   -3.1238897    1.4581899   271855 
 7827000   0.60274583   -3.1262044   -1.6657691  0.040027862   -3.1262044    1.4604353   271811 
 7828000   0.60265292   -3.1254635   -1.6650599  0.042423847   -3.1254635    1.4604036   271775 
 7829000   0.60268496   -3.1272375   -1.6664929  0.043761447   -3.1272375    1.4607446   271726 
 7830000   0.60213545   -3.1251653   -1.6656989  0.043251644   -3.1251653    1.4594664   271716 
 7831000   0.60224837   -3.1244341   -1.6645059  0.039688369   -3.1244341    1.4599282   271681 
 7832000   0.60305952   -3.1251062    -1.662991  0.045993524   -3.1251062    1.4621152   271640 
 7833000   0.60345546    -3.123811   -1.6605474  0.046490707    -3.123811    1.4632637   271605 
 7834000   0.60393351   -3.1241861   -1.6594343  0.051642584   -3.1241861    1.4647518   271544 
 7835000   0.60395931   -3.1248264    -1.659834  0.046397075   -3.1248264    1.4649924   271511 
 7836000    0.6033687   -3.1261234   -1.6623587  0.042039294   -3.1261234    1.4637647   271473 
 7837000   0.60088674     -3.11879   -1.6609982  0.041325572     -3.11879    1.4577918   271464 
 7838000   0.60129412   -3.1184802   -1.6595173   0.04111157   -3.1184802    1.4589629   271430 
 7839000   0.60004311   -3.1159754   -1.6599889  0.039982829   -3.1159754    1.4559865   271419 
 7840000   0.60060438   -3.1195137   -1.6618968  0.039964965   -3.1195137    1.4576169   271369 
 7841000   0.60066421   -3.1175487   -1.6593298  0.042922285   -3.1175487    1.4582188   271284 
 7842000   0.60170031   -3.1179696   -1.6570147  0.043679577   -3.1179696     1.460955   271243 
 7843000   0.60109434    -3.115536   -1.6560739  0.039170919    -3.115536    1.4594621   271247 
 7844000   0.59990889   -3.1142999   -1.6576301  0.044885294   -3.1142999    1.4566698   271231 
 7845000   0.60058811   -3.1165005   -1.6580847  0.042649533   -3.1165005    1.4584158   271213 
 7846000   0.60100083   -3.1187072   -1.6590201  0.041406569   -3.1187072    1.4596871   271163 
 7847000   0.60028238   -3.1171205   -1.6591139  0.039721726   -3.1171205    1.4580067   271151 
 7848000   0.60139401   -3.1186392   -1.6577493  0.044527379   -3.1186392    1.4608899   271117 
 7849000   0.60071505    -3.117635   -1.6582652  0.040801926    -3.117635    1.4593698   271093 
 7850000   0.60159912   -3.1198838   -1.6580913  0.041273705   -3.1198838    1.4617925   271042 
 7851000   0.60117202    -3.117974   -1.6571869   0.04465029    -3.117974    1.4607871   271036 
 7852000   0.60108628   -3.1188431   -1.6582051  0.044680657   -3.1188431     1.460638   271025 
 7853000   0.60175734   -3.1218283   -1.6595056  0.041213576   -3.1218283    1.4623226   271015 
 7854000   0.60022678   -3.1184188   -1.6595141  0.045568983   -3.1184188    1.4589047   270959 
 7855000   0.60010201   -3.1194149   -1.6604904  0.043262412   -3.1194149    1.4589245   270899 
 7856000   0.60032558   -3.1213892   -1.6616302  0.043601795   -3.1213892     1.459759   270845 
 7857000   0.60065139   -3.1229847     -1.66218  0.044256227   -3.1229847    1.4608047   270798 
 7858000   0.60066484   -3.1240506   -1.6629218  0.042167372   -3.1240506    1.4611288   270744 
 7859000   0.60112385   -3.1263475   -1.6640751   0.04614171   -3.1263475    1.4622724   270739 
 7860000   0.60096387   -3.1252337   -1.6632479  0.045873272   -3.1252337    1.4619858   270720 
 7861000   0.60008899   -3.1251776    -1.665126  0.046045949   -3.1251776    1.4600516   270684 
 7862000   0.60065632   -3.1246512   -1.6630573  0.044409031   -3.1246512    1.4615939   270654 
 7863000    0.6009263   -3.1265951   -1.6642848  0.047663004   -3.1265951    1.4623103   270643 
 7864000   0.60000527   -3.1259891   -1.6657906  0.041262495   -3.1259891    1.4601986   270619 
 7865000   0.59925788   -3.1240552   -1.6654599  0.042905167   -3.1240552    1.4585953   270579 
 7866000   0.59962278   -3.1244582   -1.6644028  0.042460121   -3.1244582    1.4600554   270473 
 7867000   0.60024446   -3.1244023    -1.662898  0.043145911   -3.1244023    1.4615043   270485 
 7868000   0.60096598   -3.1276339   -1.6644322  0.044261932   -3.1276339    1.4632016   270496 
 7869000   0.59993847   -3.1240853   -1.6633152  0.042905365   -3.1240853    1.4607701   270483 
 7870000   0.59873389   -3.1214809    -1.663288  0.041250025   -3.1214809    1.4581929   270417 
 7871000    0.5985351   -3.1213479   -1.6633049  0.042740976   -3.1213479     1.458043   270355 
 7872000   0.59885794   -3.1231219   -1.6641413  0.039846214   -3.1231219    1.4589806   270327 
 7873000   0.59846683   -3.1236403   -1.6656018  0.037351948   -3.1236403    1.4580386   270325 
 7874000    0.5995078   -3.1230129   -1.6623355  0.040973437   -3.1230129    1.4606773   270306 
 7875000   0.60056157   -3.1234606   -1.6598747  0.043052928   -3.1234606    1.4635859   270243 
 7876000    0.6002589   -3.1213761   -1.6584087  0.043700945   -3.1213761    1.4629674   270221 
 7877000   0.59989743    -3.120955   -1.6587766  0.047323328    -3.120955    1.4621784   270204 
 7878000   0.60042698   -3.1233116   -1.6597125  0.042424332   -3.1233116    1.4635991   270180 
 7879000   0.59855017   -3.1201239   -1.6610457   0.04087935   -3.1201239    1.4590782   270170 
 7880000   0.59802493   -3.1194095   -1.6612824  0.040829632   -3.1194095     1.458127   270109 
 7881000   0.59857329   -3.1220323   -1.6622926  0.038949965   -3.1220323    1.4597397   270058 
 7882000   0.59845378    -3.120065   -1.6605303  0.041093378    -3.120065    1.4595347   270042 
 7883000   0.59941576   -3.1223895   -1.6604979  0.043897195   -3.1223895    1.4618917   270040 
 7884000   0.60001126   -3.1227332   -1.6593837   0.04104212   -3.1227332    1.4633494   270039 
 7885000   0.59857575   -3.1207281   -1.6607391  0.043203585   -3.1207281     1.459989   270013 
 7886000   0.59842731   -3.1194691   -1.6595718   0.03950405   -3.1194691    1.4598973   269963 
 7887000   0.59794837   -3.1190678   -1.6600417  0.039777382   -3.1190678    1.4590261   269908 
 7888000    0.5987739   -3.1186874   -1.6575495  0.039737007   -3.1186874    1.4611379   269890 
 7889000    0.5973873   -3.1177602    -1.659725  0.046368066   -3.1177602    1.4580352   269838 
 7890000   0.59792451   -3.1193452   -1.6598961  0.043990765   -3.1193452    1.4594491   269819 
 7891000   0.59855896   -3.1219587   -1.6609122  0.040520218   -3.1219587    1.4610465   269810 
 7892000    0.5981913   -3.1177456   -1.6574234  0.043355652   -3.1177456    1.4603222   269778 
 7893000    0.5984102   -3.1184177   -1.6571386  0.043680809   -3.1184177    1.4612791   269700 
 7894000   0.59855703   -3.1202798   -1.6582464  0.038228671   -3.1202798    1.4620334   269627 
 7895000   0.59837701    -3.119896   -1.6579174  0.039892691    -3.119896    1.4619786   269556 
 7896000    0.5985317   -3.1196579   -1.6571006  0.043246368   -3.1196579    1.4625573   269519 
 7897000   0.59698819   -3.1144535   -1.6556624  0.043797553   -3.1144535    1.4587911   269518 
 7898000   0.59738813   -3.1133639   -1.6534439  0.042118031   -3.1133639      1.45992   269490 
 7899000   0.59875102    -3.116062   -1.6524855  0.042479805    -3.116062    1.4635766   269430 
 7900000   0.59778044   -3.1138378   -1.6526554  0.046917176   -3.1138378    1.4611824   269434 
 7901000   0.59827558   -3.1146323   -1.6520768  0.044135071   -3.1146323    1.4625555   269404 
 7902000   0.59834966   -3.1150219    -1.651992  0.042862323   -3.1150219    1.4630299   269350 
 7903000   0.59687524   -3.1111455    -1.651504  0.044449143   -3.1111455    1.4596415   269310 
 7904000   0.59753865   -3.1119026   -1.6503565   0.04412124   -3.1119026    1.4615461   269258 
 7905000   0.59727305   -3.1120407    -1.651166  0.043062368   -3.1120407    1.4608748   269262 
 7906000   0.59673306   -3.1097396    -1.650088  0.043387871   -3.1097396    1.4596516   269244 
 7907000   0.59693432   -3.1114286   -1.6509376  0.046296294   -3.1114286     1.460491   269180 
 7908000   0.59835078   -3.1116741   -1.6474129   0.03809302   -3.1116741    1.4642612   269124 
 7909000   0.59726633   -3.1102828   -1.6481375    0.0465758   -3.1102828    1.4621453   269025 
 7910000   0.59810331   -3.1117093   -1.6471503  0.044983692   -3.1117093     1.464559   268958 
 7911000   0.59788221   -3.1100703   -1.6458839  0.043776043   -3.1100703    1.4641863   268927 
 7912000   0.59623483   -3.1082894   -1.6479474  0.042872676   -3.1082894     1.460342   268892 
 7913000   0.59513755    -3.109759   -1.6519689  0.039929514    -3.109759    1.4577901   268867 
 7914000   0.59549272    -3.106298   -1.6473938  0.047219911    -3.106298    1.4589042   268822 
 7915000   0.59385986   -3.1052311   -1.6502028  0.039447574   -3.1052311    1.4550283   268799 
 7916000   0.59634105   -3.1109396   -1.6495167  0.041976612   -3.1109396    1.4614229   268741 
 7917000   0.59533292   -3.1119349   -1.6526568  0.041858374   -3.1119349    1.4592781   268681 
 7918000   0.59598635   -3.1118954    -1.650885  0.042520847   -3.1118954    1.4610103   268657 
 7919000   0.59799353   -3.1142914    -1.648448  0.043933415   -3.1142914    1.4658435   268673 
 7920000   0.59780888     -3.11376   -1.6480801  0.043338329     -3.11376      1.46568   268620 
 7921000    0.5969368   -3.1137254   -1.6501836  0.041110253   -3.1137254    1.4635418   268620 
 7922000   0.59611785   -3.1122808   -1.6506924  0.044640156   -3.1122808    1.4615884   268610 
 7923000   0.59515259    -3.110461   -1.6510817  0.044536374    -3.110461    1.4593793   268581 
 7924000   0.59402775   -3.1072797   -1.6503115  0.043566844   -3.1072797    1.4569682   268517 
 7925000   0.59590074   -3.1096914   -1.6480803  0.043741127   -3.1096914    1.4616111   268508 
 7926000   0.59680804   -3.1125082   -1.6484973  0.044540401   -3.1125082     1.464011   268476 
 7927000   0.59616073   -3.1095118   -1.6469962  0.049490345   -3.1095118    1.4625157   268459 
 7928000   0.59497421   -3.1089799   -1.6491249  0.042819605   -3.1089799     1.459855   268413 
 7929000   0.59531221    -3.109058   -1.6480362   0.04142182    -3.109058    1.4610218   268351 
 7930000   0.59564204   -3.1070962   -1.6453793  0.044239368   -3.1070962    1.4617169   268372 
 7931000   0.59543807   -3.1085987   -1.6470992  0.041438526   -3.1085987    1.4614995   268320 
 7932000   0.59659222   -3.1103631   -1.6459106  0.040188429   -3.1103631    1.4644525   268298 
 7933000   0.59535084   -3.1088936   -1.6472486  0.045501245   -3.1088936     1.461645   268254 
 7934000   0.59633364    -3.111328   -1.6469863   0.04389283    -3.111328    1.4643417   268202 
 7935000   0.59536928   -3.1088469    -1.646737  0.043756412   -3.1088469    1.4621099   268177 
 7936000   0.59605935    -3.110712   -1.6467928  0.043873467    -3.110712    1.4639192   268156 
 7937000   0.59628511   -3.1123888   -1.6479042  0.046203008   -3.1123888    1.4644846   268154 
 7938000   0.59721384   -3.1137562   -1.6470289  0.042634789   -3.1137562    1.4667273   268161 
 7939000   0.59630018   -3.1118264   -1.6470699  0.045144181   -3.1118264    1.4647565   268111 
 7940000    0.5963944   -3.1140466   -1.6489056  0.047364564   -3.1140466     1.465141   268083 
 7941000   0.59493179   -3.1120201   -1.6501397  0.043055831   -3.1120201    1.4618805   268022 
 7942000   0.59639594   -3.1154561    -1.649874  0.042345289   -3.1154561    1.4655821   268003 
 7943000   0.59502425    -3.112105   -1.6496208  0.046206017    -3.112105    1.4624842   267953 
 7944000   0.59536466   -3.1131456   -1.6498193  0.043506064   -3.1131456    1.4633263   267952 
 7945000    0.5953393   -3.1108026   -1.6475714  0.044454979   -3.1108026    1.4632312   267958 
 7946000   0.59671355    -3.113758   -1.6469411  0.044563322    -3.113758    1.4668169   267920 
 7947000   0.59565844   -3.1111144   -1.6466069  0.047472436   -3.1111144    1.4645075   267868 
 7948000   0.59785252    -3.114566    -1.644708  0.048313248    -3.114566     1.469858   267876 
 7949000   0.59634431   -3.1117663   -1.6453371  0.046048023   -3.1117663    1.4664292   267825 
 7950000   0.59635485   -3.1112932   -1.6446684  0.045993817   -3.1112932    1.4666249   267794 
 7951000    0.5963961   -3.1123827   -1.6455961  0.042471991   -3.1123827    1.4667866   267783 
 7952000   0.59521969   -3.1087142   -1.6448483   0.04556925   -3.1087142     1.463866   267788 
 7953000   0.59543795   -3.1093551   -1.6449961  0.040349322   -3.1093551     1.464359   267796 
 7954000   0.59539306   -3.1071766   -1.6427913  0.041162722   -3.1071766    1.4643853   267771 
 7955000   0.59435757   -3.1053753   -1.6433676  0.043634401   -3.1053753    1.4620077   267740 
 7956000    0.5960304    -3.107876   -1.6417041  0.042453778    -3.107876    1.4661719   267731 
 7957000   0.59420752   -3.1031243   -1.6412345  0.043654778   -3.1031243    1.4618898   267694 
 7958000   0.59413859   -3.1038452   -1.6418574  0.043915543   -3.1038452    1.4619878   267645 
 7959000   0.59349044   -3.1023328   -1.6417761  0.043481233   -3.1023328    1.4605567   267615 
 7960000   0.59472029   -3.1055388   -1.6416273  0.041209243   -3.1055388    1.4639115   267555 
 7961000    0.5944021   -3.1055445    -1.642181  0.043938531   -3.1055445    1.4633634   267512 
 7962000   0.59489614   -3.1041852   -1.6398573  0.039481605   -3.1041852    1.4643279   267558 
 7963000   0.59263155   -3.1004166   -1.6415266  0.046107339   -3.1004166      1.45889   267533 
 7964000   0.59290796   -3.1005586   -1.6409281   0.04136343   -3.1005586    1.4596304   267522 
 7965000   0.59526875   -3.1059641   -1.6400122  0.044437589   -3.1059641    1.4659519   267429 
 7966000   0.59544018   -3.1059719   -1.6394881  0.042923548   -3.1059719    1.4664837   267409 
 7967000   0.59446887   -3.1049218   -1.6406221  0.041314722   -3.1049218    1.4642996   267371 
 7968000   0.59340759   -3.1020284   -1.6400422  0.046514854   -3.1020284    1.4619862   267316 
 7969000   0.59441608   -3.1034116   -1.6387873  0.047816234   -3.1034116    1.4646243   267288 
 7970000   0.59329376   -3.1020867   -1.6398175  0.047217371   -3.1020867    1.4622692   267213 
 7971000   0.59416188   -3.1054325     -1.64064  0.043915854   -3.1054325    1.4647925   267143 
 7972000   0.59447228   -3.1038477   -1.6382241  0.043969539   -3.1038477    1.4656236   267131 
 7973000   0.59405303   -3.1050705   -1.6401186   0.04349917   -3.1050705    1.4649519   267065 
 7974000    0.5940168   -3.1048566   -1.6398569  0.042992444   -3.1048566    1.4649997   267040 
 7975000   0.59279523   -3.1040299   -1.6418786   0.04088184   -3.1040299    1.4621513   267010 
 7976000   0.59293737   -3.1054806   -1.6426117  0.043810474   -3.1054806    1.4628689   266943 
 7977000   0.59387145   -3.1050623   -1.6397187  0.048069324   -3.1050623    1.4653436   266912 
 7978000   0.59371463   -3.1067773   -1.6416285  0.042694793   -3.1067773    1.4651488   266877 
 7979000   0.59446162   -3.1061022   -1.6389506  0.047012156   -3.1061022    1.4671516   266848 
 7980000   0.59348877   -3.1056743   -1.6408633  0.044929212   -3.1056743     1.464811   266837 
 7981000   0.59378143   -3.1057828    -1.640211  0.044664883   -3.1057828    1.4655718   266830 
 7982000   0.59417027   -3.1052789    -1.638742  0.048244225   -3.1052789     1.466537   266829 
 7983000   0.59319324   -3.1045376   -1.6404121    0.0461132   -3.1045376    1.4641255   266829 
 7984000   0.59266767   -3.1049591   -1.6416812  0.041744228   -3.1049591     1.463278   266747 
 7985000   0.59358647   -3.1056457    -1.639896  0.040654372   -3.1056457    1.4657497   266710 
 7986000   0.59297555   -3.1052094   -1.6407815  0.040200364   -3.1052094    1.4644279   266676 
 7987000   0.59269468   -3.1046382   -1.6409698   0.04064286   -3.1046382    1.4636684   266688 
 7988000   0.59275766   -3.1050093   -1.6407571  0.040065992   -3.1050093    1.4642521   266610 
 7989000   0.59076272   -3.1020761   -1.6425767  0.044440761   -3.1020761    1.4594994   266578 
 7990000   0.59193132   -3.1031458   -1.6404357  0.041158803   -3.1031458    1.4627102   266519 
 7991000   0.59206254   -3.1037196   -1.6403503  0.041522886   -3.1037196    1.4633693   266458 
 7992000   0.59318968    -3.105164   -1.6388657  0.041073234    -3.105164    1.4662983   266432 
 7993000   0.59246706   -3.1015599   -1.6367784  0.048237336   -3.1015599    1.4647815   266383 
 7994000   0.59273867   -3.1015809   -1.6360233  0.042295549   -3.1015809    1.4655575   266364 
 7995000   0.59202886   -3.1014548   -1.6372236  0.041823404   -3.1014548    1.4642313   266286 
 7996000   0.59085008   -3.0990745   -1.6376488  0.044500212   -3.0990745    1.4614256   266266 
 7997000    0.5908977   -3.1001491   -1.6382762  0.042663501   -3.1001491    1.4618728   266206 
 7998000   0.59140424   -3.1016324   -1.6382425  0.040078602   -3.1016324    1.4633899   266158 
 7999000   0.59191862   -3.1027295   -1.6378522  0.042286538   -3.1027295    1.4648773   266119 
 8000000   0.59203689   -3.1022599   -1.6369302  0.047026739   -3.1022599    1.4653297   266090 
Loop time of 9159.67 on 192 procs for 5000000 steps with 266090 atoms

Performance: 235816.371 tau/day, 545.871 timesteps/s
99.1% CPU use with 192 MPI tasks x 1 OpenMP threads

MPI task timing breakdown:
Section |  min time  |  avg time  |  max time  |%varavg|  %CPU | %total
-----------------------------------------------------------------------
Pair    | 999.79     | 2471.2     | 2803.4     |1095.2 |  99.0 | 26.98
Bond    | 3.2556     | 3.3614     | 3.5388     |   2.7 | 100.0 |  0.04
Neigh   | 628.58     | 1198.2     | 1340.5     | 604.4 |  99.4 | 13.08
Comm    | 1286.5     | 1806.5     | 3918.1     |1829.7 |  98.8 | 19.72
Output  | 280.77     | 284.44     | 284.47     |   1.6 |  98.7 |  3.11
Modify  | 3235.2     | 3315.1     | 3624.7     | 237.8 |  99.2 | 36.19
Other   |            | 80.82      |            |       |       |  0.88

Nlocal:        1385.89 ave        1582 max        1175 min
Histogram: 2 1 4 14 58 81 23 4 3 2
Nghost:        2494.05 ave        2997 max        1315 min
Histogram: 12 11 1 13 23 11 1 0 36 84
Neighs:        35738.6 ave       46317 max        3744 min
Histogram: 24 0 0 0 0 2 4 25 90 47

Total # of neighbors = 6861815
Ave neighs/atom = 25.787572
Ave special neighs/atom = 0.0000000
Neighbor list builds = 505000
Dangerous builds = 450000

write_restart   restart_write.dat
System init for write_restart ...
write_data	data.write
System init for write_data ...
WARNING: Not all mixed pair coeffs generated from mixing. Use write_data with 'pair ij' option to store all pair coeffs. (src/write_data.cpp:312)

Total wall time: 2:32:42
