LAMMPS (24 Dec 2020)
OMP_NUM_THREADS environment is not set. Defaulting to 1 thread. (src/comm.cpp:94)
  using 1 OpenMP thread(s) per MPI task
# Simple rigid body system
# needed variables: startTemp, temp

units		lj
atom_style	full
dimension 	3
boundary	p p f
pair_style	lj/cut/opt 2.5


variable 	sigma		equal 1.0
variable 	epsilon 	equal 1.0


region		box block 0 160 0 160 0 160
create_box 	3 box
Created orthogonal box = (0.0000000 0.0000000 0.0000000) to (160.00000 160.00000 160.00000)
  6 by 4 by 6 MPI processor grid
lattice 	sc 1.0
Lattice spacing in x,y,z = 1.0000000 1.0000000 1.0000000

create_atoms 	1 region box
Created 4096000 atoms
  create_atoms CPU = 0.071 seconds

mass		1 1.0
mass		2 1.0
mass		3 1.0


group		solvent type 1
4096000 atoms in group solvent


velocity 	solvent create ${startTemp} 563435 loop geom
velocity 	solvent create 0.5 563435 loop geom

read_data	data.vac add append
Reading data file ...
  orthogonal box = (0.0000000 0.0000000 0.0000000) to (160.00000 160.00000 320.00000)
  4 by 4 by 9 MPI processor grid
Finding 1-2 1-3 1-4 neighbors ...
  special bond factors lj:    0        0        0       
  special bond factors coul:  0        0        0       
     0 = max # of 1-2 neighbors
     0 = max # of 1-3 neighbors
     0 = max # of 1-4 neighbors
     1 = max # of special neighbors
  special bonds CPU = 0.942 seconds
  read_data CPU = 0.979 seconds

neighbor 	0.4 bin

pair_coeff	1 1 1.0 1.0
pair_coeff	2 2 0.0 0.0
pair_coeff	3 3 0.0 0.0
pair_coeff	2 3 0.0 0.0
pair_coeff	1 2*3 0.0 0.0

pair_modify 	shift yes


balance 	1.05 shift z 10 1.05
Balancing ...
Neighbor list info ...
  update every 1 steps, delay 10 steps, check yes
  max neighbors/atom: 2000, page size: 100000
  master list distance cutoff = 2.9
  ghost atom cutoff = 2.9
  binsize = 1.45, bins = 111 111 221
  1 neighbor lists, perpetual/occasional/extra = 1 0 0
  (1) pair lj/cut/opt, perpetual
      attributes: half, newton on
      pair build: half/bin/newton
      stencil: half/bin/3d/newton
      bin: standard
 rebalancing time: 0.060 seconds
  iteration count = 5
  initial/final maximal load/proc = 57600.000 41600.000
  initial/final imbalance factor  = 2.0250000 1.4625000
  x cuts: 0.0000000 0.25000000 0.50000000 0.75000000 1.0000000
  y cuts: 0.0000000 0.25000000 0.50000000 0.75000000 1.0000000
  z cuts: 0.0000000 0.052083333 0.10416667 0.15972222 0.22569444 0.27430556 0.31944444 0.37500000 0.45486111 1.0000000


####################### WALLS ###########################


region	       low block  EDGE EDGE EDGE EDGE 0 2

region 	       top block  EDGE EDGE EDGE EDGE 159 160


delete_atoms   region low
WARNING: Ignoring 'compress yes' for molecular system (src/delete_atoms.cpp:125)
Deleted 76800 atoms, new total = 4019200

delete_atoms   region top
WARNING: Ignoring 'compress yes' for molecular system (src/delete_atoms.cpp:125)
Deleted 25600 atoms, new total = 3993600


variable       epsilonWall equal 2*${epsilon}
variable       epsilonWall equal 2*1

variable       cutoffTop   equal   0.7147*${sigma}
variable       cutoffTop   equal   0.7147*1

variable       cutoffLow   equal   3*${sigma}
variable       cutoffLow   equal   3*1


fix            topWall all wall/lj93 zhi EDGE                ${epsilonWall} ${sigma} ${cutoffTop} units box
fix            topWall all wall/lj93 zhi EDGE                2 ${sigma} ${cutoffTop} units box
fix            topWall all wall/lj93 zhi EDGE                2 1 ${cutoffTop} units box
fix            topWall all wall/lj93 zhi EDGE                2 1 0.7147 units box

fix            lowWall all wall/lj93 zlo EDGE                ${epsilonWall} ${sigma} ${cutoffLow} units box
fix            lowWall all wall/lj93 zlo EDGE                2 ${sigma} ${cutoffLow} units box
fix            lowWall all wall/lj93 zlo EDGE                2 1 ${cutoffLow} units box
fix            lowWall all wall/lj93 zlo EDGE                2 1 3 units box


###################### COMPUTES ##########################

compute        bin1 solvent chunk/atom bin/1d z upper 1.0



######################	FIXES ############################


fix 		peclet solvent ave/chunk 1000 1 1000 bin1 density/number norm 		 none ave one file density.profile

fix 		 temp solvent  ave/chunk 1000 1 1000 bin1 temp norm 		 none ave one file temp.profile

fix 		2 solvent nve

## Thermostat


region		regthermo block EDGE EDGE EDGE EDGE 0 20

group 		thermo dynamic solvent region regthermo every 1000
dynamic group thermo defined

fix 		3 thermo langevin ${startTemp} ${temp} 10 156453
fix 		3 thermo langevin 0.5 ${temp} 10 156453
fix 		3 thermo langevin 0.5 .9 10 156453



#### Load balancing


fix 		bal all balance 1000 1.05 shift z 10 1.05


############### Diagnostics and computes ###################
#compute 	com cube	  rigid/local	1 mol x y z
#compute 	quat cube	  rigid/local	1 mol quatw quati quatj quatk

thermo 		1000
thermo_style 	custom step temp epair evdwl etotal press pe ke vol

dump		1 all custom 100000 dump.lammpstrj id mol type x y z
dump 		2 all image 10000 image.*.png type type
dump 		3 all movie 1000 movie.avi type type
#dump 		com cube local 1000 dump.*.xyz c_com[*]
#dump		quat cube      local 1000 dump.*.quat c_quat[*]


#restart 	500000 restart.dat
timestep 	0.01
timer 		full
New timer settings: style=full  mode=nosync  timeout=off


run		1000000
Per MPI rank memory allocation (min/avg/max) = 30.98 | 35.02 | 39.72 Mbytes
Step Temp E_pair E_vdwl TotEng Press PotEng KinEng Volume 
       0   0.49997217   -3.3137429   -3.3137429   -2.5637849    8.4475947   -3.3137429   0.74995807      8192000 
    1000    1.3821415   -4.8809464   -4.8809464   -2.8077347     2.845808   -4.8809464    2.0732117      8192000 
    2000     1.308624   -4.9211913   -4.9211913   -2.9582558   0.81511722   -4.9211913    1.9629355      8192000 
    3000    1.1688239   -4.7206069   -4.7206069   -2.9673714  -0.17844545   -4.7206069    1.7532355      8192000 
    4000    1.1569162   -4.6861678   -4.6861678    -2.950794  0.020599913   -4.6861678    1.7353738      8192000 
    5000    1.1674792   -4.7106895   -4.7106895   -2.9594712   0.14216933   -4.7106895    1.7512183      8192000 
    6000     1.163374   -4.7165061   -4.7165061   -2.9714456   0.13658624   -4.7165061    1.7450605      8192000 
    7000    1.1737552   -4.7392436   -4.7392436   -2.9786112   0.21717001   -4.7392436    1.7606324      8192000 
    8000    1.1657755    -4.735072    -4.735072   -2.9864091   0.19025264    -4.735072    1.7486628      8192000 
    9000    1.1650503   -4.7399921   -4.7399921   -2.9924172   0.19770201   -4.7399921    1.7475749      8192000 
   10000    1.1673525   -4.7500983   -4.7500983   -2.9990701   0.22584743   -4.7500983    1.7510283      8192000 
   11000    1.1707233   -4.7621107   -4.7621107   -3.0060263   0.51826746   -4.7621107    1.7560845      8192000 
   12000    1.1679849   -4.7625669   -4.7625669     -3.01059    1.9271278   -4.7625669    1.7519769      8192000 
   13000     1.172907   -4.7723095   -4.7723095   -3.0129494    2.0631611   -4.7723095    1.7593601      8192000 
   14000    1.1587516   -4.7510001   -4.7510001   -3.0128732    1.0196729   -4.7510001    1.7381269      8192000 
   15000    1.0650843   -4.6152262   -4.6152262   -3.0176002   0.46922132   -4.6152262     1.597626      8192000 
   16000   0.97314645   -4.4833189   -4.4833189   -3.0235996  0.084764386   -4.4833189    1.4597193      8192000 
   17000   0.90961856   -4.3942934   -4.3942934   -3.0298659 -0.048019895   -4.3942934    1.3644275      8192000 
   18000   0.88842112   -4.3695797   -4.3695797   -3.0369484 -0.052919332   -4.3695797    1.3326313      8192000 
   19000   0.90129602   -4.3978148   -4.3978148   -3.0458711  0.036592567   -4.3978148    1.3519437      8192000 
   20000   0.91462701   -4.4277922   -4.4277922    -3.055852   0.13624126   -4.4277922    1.3719402      8192000 
   21000   0.91184172   -4.4342429   -4.4342429   -3.0664807   0.15852187   -4.4342429    1.3677622      8192000 
   22000   0.90658902   -4.4372661   -4.4372661   -3.0773829   0.14950727   -4.4372661    1.3598832      8192000 
   23000   0.88966613   -4.4237087   -4.4237087   -3.0892098  0.094064803   -4.4237087    1.3344989      8192000 
   24000   0.87053083   -4.4071066   -4.4071066   -3.1013107  0.028060317   -4.4071066    1.3057959      8192000 
   25000   0.86435262   -4.4096936   -4.4096936    -3.113165  0.014022406   -4.4096936    1.2965286      8192000 
   26000   0.86715284   -4.4254017   -4.4254017   -3.1246728  0.038794986   -4.4254017    1.3007289      8192000 
   27000   0.87676701   -4.4506106   -4.4506106   -3.1354604  0.094061716   -4.4506106    1.3151502      8192000 
   28000   0.88127526   -4.4680696   -4.4680696    -3.146157   0.12114667   -4.4680696    1.3219126      8192000 
   29000   0.87419955   -4.4678091   -4.4678091   -3.1565101  0.094376059   -4.4678091     1.311299      8192000 
   30000    0.8643373   -4.4631623   -4.4631623   -3.1666567   0.05604066   -4.4631623    1.2965056      8192000 
   31000   0.85977141    -4.466381    -4.466381   -3.1767242  0.040964509    -4.466381    1.2896568      8192000 
   32000   0.86708945   -4.4876504   -4.4876504   -3.1870165  0.076687911   -4.4876504    1.3006339      8192000 
   33000   0.88099345   -4.5190012   -4.5190012   -3.1975114   0.14665955   -4.5190012    1.3214898      8192000 
   34000   0.89759294   -4.5553135   -4.5553135   -3.2089244   0.23033032   -4.5553135    1.3463891      8192000 
   35000   0.91436807   -4.5935174   -4.5935174   -3.2219656    0.3385543   -4.5935174    1.3715518      8192000 
   36000   0.93386803   -4.6375007   -4.6375007    -3.236699    0.5031861   -4.6375007    1.4008017      8192000 
   37000   0.94400865   -4.6725939   -4.6725939   -3.2565813   0.65731773   -4.6725939    1.4160126      8192000 
   38000   0.94274266   -4.6906728   -4.6906728   -3.2765592   0.68080319   -4.6906728    1.4141136      8192000 
   39000   0.92954518   -4.6879012   -4.6879012   -3.2935838   0.61157402   -4.6879012    1.3943174      8192000 
   40000   0.90456864   -4.6649292   -4.6649292   -3.3080766   0.45693795   -4.6649292    1.3568526      8192000 
   41000   0.86819912   -4.6214061   -4.6214061   -3.3191077   0.25337339   -4.6214061    1.3022984      8192000 
   42000   0.83149153   -4.5734853   -4.5734853   -3.3262483  0.078015391   -4.5734853     1.247237      8192000 
   43000    0.7985759   -4.5287937   -4.5287937   -3.3309302 -0.034622392   -4.5287937    1.1978636      8192000 
   44000    0.7770201   -4.4996895   -4.4996895   -3.3341596 -0.090494795   -4.4996895    1.1655299      8192000 
   45000   0.77517299   -4.5001462   -4.5001462    -3.337387 -0.085058531   -4.5001462    1.1627592      8192000 
   46000   0.78908405   -4.5256569   -4.5256569   -3.3420311 -0.022944774   -4.5256569    1.1836258      8192000 
   47000   0.80159364   -4.5502257   -4.5502257   -3.3478355  0.037040993   -4.5502257    1.2023902      8192000 
   48000   0.80427514   -4.5596715   -4.5596715   -3.3532591  0.047673723   -4.5596715    1.2064124      8192000 
   49000   0.79879704   -4.5561435   -4.5561435   -3.3579482  0.028554393   -4.5561435    1.1981953      8192000 
   50000   0.79002794   -4.5481778   -4.5481778   -3.3631362 -0.0029656447   -4.5481778    1.1850416      8192000 
   51000   0.78473643   -4.5457011   -4.5457011   -3.3685968 -0.020177342   -4.5457011    1.1771044      8192000 
   52000   0.78799464   -4.5555395   -4.5555395   -3.3735478 -0.0039060999   -4.5555395    1.1819917      8192000 
   53000   0.79564005   -4.5718183   -4.5718183   -3.3783585  0.037860645   -4.5718183    1.1934598      8192000 
   54000   0.79673403   -4.5785826   -4.5785826   -3.3834819  0.046209124   -4.5785826    1.1951007      8192000 
   55000   0.78984779   -4.5728186   -4.5728186   -3.3880473  0.017711287   -4.5728186    1.1847714      8192000 
   56000   0.78246773   -4.5665554   -4.5665554   -3.3928541 -0.0073640517   -4.5665554    1.1737013      8192000 
   57000   0.78187169   -4.5701174   -4.5701174   -3.3973102 -0.0072268563   -4.5701174    1.1728072      8192000 
   58000   0.78650683   -4.5820797   -4.5820797   -3.4023197  0.017562306   -4.5820797    1.1797599      8192000 
   59000   0.79001621   -4.5916024   -4.5916024   -3.4065784  0.036778691   -4.5916024     1.185024      8192000 
   60000   0.78711927   -4.5916271   -4.5916271   -3.4109485  0.028237269   -4.5916271    1.1806786      8192000 
   61000   0.78084196   -4.5867711   -4.5867711   -3.4155085 0.0055225828   -4.5867711    1.1712626      8192000 
   62000   0.77728915    -4.585581    -4.585581   -3.4196476 -0.0045916961    -4.585581    1.1659334      8192000 
   63000   0.78003389   -4.5939937   -4.5939937   -3.4239432 0.0096329727   -4.5939937    1.1700505      8192000 
   64000   0.78377795   -4.6034946   -4.6034946    -3.427828  0.031706003   -4.6034946    1.1756666      8192000 
   65000   0.78315832   -4.6066321   -4.6066321   -3.4318949   0.03186694   -4.6066321    1.1747372      8192000 
   66000   0.77854949   -4.6037592   -4.6037592   -3.4359352  0.016093934   -4.6037592    1.1678239      8192000 
   67000   0.77485777   -4.6019871   -4.6019871   -3.4397007 0.0014914945   -4.6019871    1.1622864      8192000 
   68000   0.77501779   -4.6060941   -4.6060941   -3.4435677   0.00823656   -4.6060941    1.1625264      8192000 
   69000    0.7779324   -4.6146003   -4.6146003    -3.447702  0.026108594   -4.6146003    1.1668983      8192000 
   70000    0.7793057   -4.6205146   -4.6205146   -3.4515564  0.033334481   -4.6205146    1.1689583      8192000 
   71000   0.77672481   -4.6202477   -4.6202477   -3.4551608  0.023814357   -4.6202477    1.1650869      8192000 
   72000   0.77753558   -4.6246781   -4.6246781    -3.458375  0.034185635   -4.6246781    1.1663031      8192000 
   73000   0.78832412   -4.6447143   -4.6447143   -3.4622285  0.099306544   -4.6447143    1.1824859      8192000 
   74000    0.8061696   -4.6747606   -4.6747606   -3.4655065   0.21736796   -4.6747606    1.2092541      8192000 
   75000   0.81619363   -4.6924281   -4.6924281    -3.468138   0.27348478   -4.6924281    1.2242901      8192000 
   76000   0.80351978   -4.6759175   -4.6759175   -3.4706382   0.19167769   -4.6759175    1.2052794      8192000 
   77000   0.78014169   -4.6435797   -4.6435797   -3.4733674  0.070415732   -4.6435797    1.1702122      8192000 
   78000   0.76720072    -4.627249    -4.627249   -3.4764482  0.013856049    -4.627249    1.1508008      8192000 
   79000   0.76252189   -4.6236874   -4.6236874   -3.4799049 -0.00069051281   -4.6236874    1.1437826      8192000 
   80000   0.76580444   -4.6319571   -4.6319571   -3.4832507  0.016229389   -4.6319571    1.1487064      8192000 
   81000   0.77009747   -4.6416934   -4.6416934   -3.4865475  0.037965867   -4.6416934    1.1551459      8192000 
   82000   0.77095243   -4.6460437   -4.6460437   -3.4896154  0.044910642   -4.6460437    1.1564283      8192000 
   83000    0.7655179   -4.6409621   -4.6409621   -3.4926856  0.026275263   -4.6409621    1.1482766      8192000 
   84000   0.75966193   -4.6352389   -4.6352389   -3.4957462 0.0034995814   -4.6352389    1.1394926      8192000 
   85000   0.75683208   -4.6343346   -4.6343346   -3.4990868 -0.0067571478   -4.6343346    1.1352478      8192000 
   86000   0.75837311   -4.6397075   -4.6397075   -3.5021481 0.0014313867   -4.6397075    1.1375594      8192000 
   87000   0.76258439    -4.649347    -4.649347   -3.5054707  0.023038769    -4.649347    1.1438763      8192000 
   88000   0.76511491   -4.6561629   -4.6561629   -3.5084908  0.034760817   -4.6561629    1.1476721      8192000 
   89000   0.76291953   -4.6555798   -4.6555798   -3.5112008  0.025819975   -4.6555798     1.144379      8192000 
   90000   0.75808185   -4.6512427   -4.6512427   -3.5141202 0.0086023187   -4.6512427    1.1371225      8192000 
   91000   0.75393807   -4.6479498   -4.6479498    -3.517043 -0.0057104456   -4.6479498    1.1309068      8192000 
   92000   0.75386255    -4.650548    -4.650548   -3.5197544 -0.0031087618    -4.650548    1.1307935      8192000 
   93000   0.75637605   -4.6571403   -4.6571403   -3.5225765 0.0094442063   -4.6571403    1.1345638      8192000 
   94000   0.75935364   -4.6644856   -4.6644856   -3.5254554  0.025352459   -4.6644856    1.1390302      8192000 
   95000    0.7597788   -4.6678776   -4.6678776   -3.5282097  0.028084475   -4.6678776    1.1396679      8192000 
   96000    0.7563902   -4.6651829   -4.6651829   -3.5305979  0.016878765   -4.6651829     1.134585      8192000 
   97000   0.75271395   -4.6623291   -4.6623291   -3.5332585 0.0013362894   -4.6623291    1.1290706      8192000 
   98000   0.75104172   -4.6624715   -4.6624715   -3.5359092 -0.0046651192   -4.6624715    1.1265623      8192000 
   99000   0.75219626   -4.6670443   -4.6670443   -3.5387502 0.0039551614   -4.6670443    1.1282941      8192000 
  100000   0.75476487   -4.6736061   -4.6736061   -3.5414591  0.015117186   -4.6736061     1.132147      8192000 
  101000   0.75680581   -4.6786923   -4.6786923   -3.5434839  0.024781839   -4.6786923    1.1352084      8192000 
  102000   0.75505987   -4.6788836   -4.6788836   -3.5462941  0.017431136   -4.6788836    1.1325895      8192000 
  103000   0.75180457   -4.6765356   -4.6765356    -3.548829 0.0059655778   -4.6765356    1.1277066      8192000 
  104000   0.74914407   -4.6750456   -4.6750456   -3.5513298 -0.0014668082   -4.6750456    1.1237158      8192000 
  105000   0.74952139   -4.6780284   -4.6780284   -3.5537466 5.1953249e-05   -4.6780284    1.1242818      8192000 
  106000   0.75152775   -4.6838171   -4.6838171   -3.5565258 0.0089840997   -4.6838171    1.1272913      8192000 
  107000   0.75363554   -4.6894136   -4.6894136   -3.5589606   0.01801911   -4.6894136     1.130453      8192000 
  108000   0.75333752   -4.6913573   -4.6913573   -3.5613513  0.019138957   -4.6913573     1.130006      8192000 
  109000   0.75091658   -4.6898505   -4.6898505   -3.5634759  0.011326335   -4.6898505    1.1263746      8192000 
  110000     0.747761   -4.6876751   -4.6876751   -3.5660338 4.4003329e-05   -4.6876751    1.1216412      8192000 
  111000   0.74726414   -4.6894481   -4.6894481   -3.5685522 0.00012005852   -4.6894481    1.1208959      8192000 
  112000   0.74891004   -4.6943176   -4.6943176   -3.5709528 0.0055387276   -4.6943176    1.1233648      8192000 
  113000   0.75082196   -4.6993801   -4.6993801   -3.5731475   0.01455875   -4.6993801    1.1262327      8192000 
  114000   0.75140988   -4.7024471   -4.7024471   -3.5753326  0.015159838   -4.7024471    1.1271145      8192000 
  115000   0.75005228   -4.7029123   -4.7029123   -3.5778342  0.013900835   -4.7029123    1.1250781      8192000 
  116000   0.74793329   -4.7014615   -4.7014615   -3.5795619 0.0030713576   -4.7014615    1.1218997      8192000 
  117000   0.74630188   -4.7014096   -4.7014096    -3.581957 0.00055305178   -4.7014096    1.1194525      8192000 
  118000   0.74661843   -4.7044102   -4.7044102   -3.5844828 0.0052268729   -4.7044102    1.1199274      8192000 
  119000   0.74819101   -4.7090508   -4.7090508   -3.5867646  0.012851251   -4.7090508    1.1222862      8192000 
  120000    0.7490416   -4.7124541   -4.7124541    -3.588892   0.01725884   -4.7124541    1.1235621      8192000 
  121000   0.74818367   -4.7132999   -4.7132999   -3.5910247  0.013553455   -4.7132999    1.1222752      8192000 
  122000   0.74657989    -4.713108    -4.713108   -3.5932384 0.0065083909    -4.713108    1.1198696      8192000 
  123000   0.74497862   -4.7127194   -4.7127194   -3.5952518 0.0027998255   -4.7127194    1.1174677      8192000 
  124000   0.74538281   -4.7153133   -4.7153133   -3.5972394  0.002999895   -4.7153133    1.1180739      8192000 
  125000   0.74624297   -4.7188948   -4.7188948   -3.5995307 0.0088627612   -4.7188948    1.1193642      8192000 
  126000   0.74774692   -4.7235516   -4.7235516   -3.6019315  0.016048953   -4.7235516    1.1216201      8192000 
  127000   0.74715747   -4.7247083   -4.7247083   -3.6039724   0.01650567   -4.7247083    1.1207359      8192000 
  128000   0.74543388   -4.7242148   -4.7242148   -3.6060643 0.0078883918   -4.7242148    1.1181505      8192000 
  129000   0.74467188   -4.7249232   -4.7249232   -3.6079156 0.00015425733   -4.7249232    1.1170075      8192000 
  130000   0.74416333   -4.7264314   -4.7264314   -3.6101867  0.003434759   -4.7264314    1.1162447      8192000 
  131000   0.74490152   -4.7295322   -4.7295322   -3.6121802 0.0073610557   -4.7295322     1.117352      8192000 
  132000   0.74593514   -4.7328688   -4.7328688   -3.6139663  0.011853032   -4.7328688    1.1189024      8192000 
  133000   0.74597189   -4.7349045   -4.7349045    -3.615947  0.014287922   -4.7349045    1.1189575      8192000 
  134000   0.74553081   -4.7362268   -4.7362268   -3.6179309 0.0079142056   -4.7362268    1.1182959      8192000 
  135000   0.74343577   -4.7352098   -4.7352098   -3.6200564 0.0038722312   -4.7352098    1.1151534      8192000 
  136000   0.74257722   -4.7363884   -4.7363884   -3.6225229 0.0025383373   -4.7363884    1.1138656      8192000 
  137000   0.74392194   -4.7401663   -4.7401663   -3.6242836 0.0042340845   -4.7401663    1.1158826      8192000 
  138000   0.74443676   -4.7429407   -4.7429407   -3.6262858 0.0097155959   -4.7429407    1.1166549      8192000 
  139000   0.74461564   -4.7450229   -4.7450229   -3.6280997   0.01142686   -4.7450229    1.1169232      8192000 
  140000   0.74399894   -4.7459859   -4.7459859   -3.6299878 0.0093993344   -4.7459859    1.1159981      8192000 
  141000   0.74261503   -4.7457836   -4.7457836   -3.6318614 0.0038704266   -4.7457836    1.1139223      8192000 
  142000   0.74202989   -4.7463271   -4.7463271   -3.6332826 0.0035069964   -4.7463271    1.1130446      8192000 
  143000   0.74206494   -4.7484303   -4.7484303   -3.6353332  0.005437856   -4.7484303    1.1130971      8192000 
  144000   0.74316574   -4.7518126   -4.7518126   -3.6370642  0.010402813   -4.7518126    1.1147483      8192000 
  145000   0.74303653   -4.7530681   -4.7530681   -3.6385135  0.012556538   -4.7530681    1.1145545      8192000 
  146000    0.7426011   -4.7541921   -4.7541921   -3.6402908  0.010073034   -4.7541921    1.1139014      8192000 
  147000   0.74134683   -4.7543027   -4.7543027   -3.6422827 0.0056802454   -4.7543027      1.11202      8192000 
  148000   0.74098345   -4.7553282   -4.7553282   -3.6438533 0.0037782614   -4.7553282    1.1114749      8192000 
  149000   0.74103079   -4.7573029   -4.7573029    -3.645757 0.0038915102   -4.7573029    1.1115459      8192000 
  150000   0.74169547   -4.7597338   -4.7597338   -3.6471909 0.0078121805   -4.7597338    1.1125429      8192000 
  151000    0.7417804   -4.7616236   -4.7616236   -3.6489533  0.010477186   -4.7616236    1.1126703      8192000 
  152000   0.74117013   -4.7621458   -4.7621458   -3.6503909  0.009533524   -4.7621458    1.1117549      8192000 
  153000   0.74033441   -4.7623425   -4.7623425   -3.6518411 0.0075872883   -4.7623425    1.1105013      8192000 
  154000   0.74026849    -4.763822    -4.763822   -3.6534195 0.0060657972    -4.763822    1.1104025      8192000 
  155000    0.7403989   -4.7654793   -4.7654793   -3.6548812 0.0055039039   -4.7654793    1.1105981      8192000 
  156000   0.74037722   -4.7674772   -4.7674772   -3.6569116  0.008717154   -4.7674772    1.1105656      8192000 
  157000   0.74087678   -4.7698994   -4.7698994   -3.6585845  0.010227991   -4.7698994    1.1113149      8192000 
  158000   0.74057521   -4.7708915   -4.7708915   -3.6600289   0.01020733   -4.7708915    1.1108625      8192000 
  159000   0.73988964   -4.7716693   -4.7716693   -3.6618351 0.0075151346   -4.7716693    1.1098342      8192000 
  160000   0.73923372   -4.7717249   -4.7717249   -3.6628746 0.0087491872   -4.7717249    1.1088503      8192000 
  161000   0.73944274   -4.7736759   -4.7736759   -3.6645121 0.0062693065   -4.7736759    1.1091638      8192000 
  162000   0.73943435   -4.7753952   -4.7753952   -3.6662439 0.0082081568   -4.7753952    1.1091513      8192000 
  163000   0.73979274   -4.7774358   -4.7774358   -3.6677469  0.012005496   -4.7774358    1.1096888      8192000 
  164000   0.74059121    -4.780131    -4.780131   -3.6692444  0.011568307    -4.780131    1.1108865      8192000 
  165000   0.73933344   -4.7795767   -4.7795767   -3.6705768  0.011679629   -4.7795767    1.1089999      8192000 
  166000   0.73869545   -4.7798672   -4.7798672   -3.6718243 0.0088530957   -4.7798672    1.1080429      8192000 
  167000   0.73890684   -4.7814104   -4.7814104   -3.6730504 0.0056361675   -4.7814104      1.10836      8192000 
  168000    0.7388736   -4.7829513   -4.7829513   -3.6746412 0.0093710448   -4.7829513    1.1083101      8192000 
  169000   0.73939442   -4.7854375   -4.7854375   -3.6763462  0.011158294   -4.7854375    1.1090914      8192000 
  170000   0.73963166   -4.7868994   -4.7868994   -3.6774522  0.014943702   -4.7868994    1.1094472      8192000 
  171000   0.73933308   -4.7878783   -4.7878783    -3.678879  0.013429433   -4.7878783    1.1089993      8192000 
  172000   0.73897227   -4.7886698   -4.7886698   -3.6802116 0.0091628148   -4.7886698    1.1084581      8192000 
  173000   0.73883675   -4.7897363   -4.7897363   -3.6814815 0.0096857713   -4.7897363    1.1082548      8192000 
  174000    0.7396282   -4.7928109   -4.7928109   -3.6833689  0.012374376   -4.7928109     1.109442      8192000 
  175000   0.74036264   -4.7952852   -4.7952852   -3.6847415  0.017420404   -4.7952852    1.1105437      8192000 
  176000   0.74109653   -4.7978576   -4.7978576   -3.6862131  0.023018335   -4.7978576    1.1116445      8192000 
  177000   0.74193557   -4.8002866   -4.8002866   -3.6873835  0.028393771   -4.8002866    1.1129031      8192000 
  178000   0.74281791   -4.8031562   -4.8031562   -3.6889296  0.034408337   -4.8031562    1.1142266      8192000 
  179000   0.74430893    -4.806804    -4.806804   -3.6903409  0.041220465    -4.806804    1.1164631      8192000 
  180000   0.74638868   -4.8117242   -4.8117242   -3.6921414  0.052106707   -4.8117242    1.1195827      8192000 
  181000   0.75047597   -4.8197646   -4.8197646   -3.6940509  0.076126494   -4.8197646    1.1257137      8192000 
  182000   0.75311553   -4.8256405   -4.8256405   -3.6959675  0.098632948   -4.8256405     1.129673      8192000 
  183000   0.75375845   -4.8290099   -4.8290099   -3.6983725  0.098584006   -4.8290099    1.1306374      8192000 
  184000   0.75106125   -4.8267925   -4.8267925   -3.7002009  0.085529015   -4.8267925    1.1265916      8192000 
  185000   0.74713171     -4.82247     -4.82247   -3.7017727  0.065023311     -4.82247    1.1206973      8192000 
  186000   0.74086355    -4.814492    -4.814492   -3.7031969  0.036635292    -4.814492    1.1112951      8192000 
  187000    0.7348226   -4.8062167   -4.8062167   -3.7039831 0.0019747395   -4.8062167    1.1022336      8192000 
  188000   0.72879571    -4.797547    -4.797547   -3.7043537 -0.025156358    -4.797547    1.0931933      8192000 
  189000   0.72451285   -4.7913207   -4.7913207   -3.7045518 -0.046965227   -4.7913207     1.086769      8192000 
  190000   0.72058313   -4.7858843   -4.7858843   -3.7050099 -0.061151082   -4.7858843    1.0808744      8192000 
  191000   0.71962665   -4.7843356   -4.7843356   -3.7048959 -0.067544762   -4.7843356    1.0794397      8192000 
  192000   0.72092647   -4.7866245   -4.7866245   -3.7052351  -0.06003569   -4.7866245    1.0813894      8192000 
  193000   0.72422764    -4.791712    -4.791712   -3.7053708 -0.044052556    -4.791712    1.0863412      8192000 
  194000   0.72841163   -4.7992298   -4.7992298   -3.7066127 -0.025118724   -4.7992298    1.0926172      8192000 
  195000   0.73366694   -4.8084094   -4.8084094   -3.7079093 0.0051805582   -4.8084094    1.1005001      8192000 
  196000    0.7388743   -4.8174081   -4.8174081    -3.709097  0.035908619   -4.8174081    1.1083112      8192000 
  197000   0.74326205   -4.8254531   -4.8254531   -3.7105603  0.060185481   -4.8254531    1.1148928      8192000 
  198000    0.7464109   -4.8319238   -4.8319238   -3.7123078   0.07943398   -4.8319238    1.1196161      8192000 
  199000   0.74794261   -4.8364515   -4.8364515   -3.7145379  0.088180999   -4.8364515    1.1219136      8192000 
  200000   0.74674574   -4.8363145   -4.8363145   -3.7161961  0.080982331   -4.8363145    1.1201183      8192000 
  201000   0.74300944   -4.8323737   -4.8323737   -3.7178598  0.066910132   -4.8323737    1.1145139      8192000 
  202000   0.73868301   -4.8269486   -4.8269486   -3.7189243  0.043013899   -4.8269486    1.1080242      8192000 
  203000   0.73389483   -4.8201161   -4.8201161   -3.7192741  0.014930224   -4.8201161     1.100842      8192000 
  204000   0.72843132   -4.8124742   -4.8124742   -3.7198274 -0.011332421   -4.8124742    1.0926467      8192000 
  205000   0.72423685    -4.806664    -4.806664    -3.720309 -0.035030766    -4.806664     1.086355      8192000 
  206000   0.72131366   -4.8025309   -4.8025309   -3.7205607 -0.048405613   -4.8025309    1.0819702      8192000 
  207000   0.71912905   -4.7994475   -4.7994475   -3.7207542 -0.055821909   -4.7994475    1.0786933      8192000 
  208000   0.71969627    -4.800415    -4.800415   -3.7208709 -0.051289529    -4.800415    1.0795441      8192000 
  209000   0.72230063   -4.8050082   -4.8050082   -3.7215575 -0.040875332   -4.8050082    1.0834507      8192000 
  210000   0.72578944   -4.8109862   -4.8109862   -3.7223023 -0.019684836   -4.8109862    1.0886839      8192000 
  211000    0.7297933    -4.817824    -4.817824   -3.7231343 0.0037439421    -4.817824    1.0946897      8192000 
  212000   0.73439326    -4.825688    -4.825688   -3.7240984  0.030543967    -4.825688    1.1015896      8192000 
  213000   0.73843461   -4.8331653   -4.8331653   -3.7255137  0.053782817   -4.8331653    1.1076516      8192000 
  214000   0.74114106   -4.8387798   -4.8387798   -3.7270685  0.071345169   -4.8387798    1.1117113      8192000 
  215000   0.74209582   -4.8414224   -4.8414224    -3.728279  0.078857447   -4.8414224    1.1131435      8192000 
  216000   0.74165173   -4.8423184   -4.8423184   -3.7298411  0.074874723   -4.8423184    1.1124773      8192000 
  217000   0.73861432   -4.8387919   -4.8387919   -3.7308707  0.061974074   -4.8387919    1.1079212      8192000 
  218000   0.73461885   -4.8343235   -4.8343235   -3.7323955   0.04079356   -4.8343235     1.101928      8192000 
  219000   0.73022416   -4.8281216   -4.8281216   -3.7327856  0.017064602   -4.8281216     1.095336      8192000 
  220000   0.72603782   -4.8223522   -4.8223522   -3.7332958 -0.0064312584   -4.8223522    1.0890565      8192000 
  221000   0.72204694   -4.8166675   -4.8166675   -3.7335974   -0.0246284   -4.8166675    1.0830701      8192000 
  222000   0.71970083   -4.8125727   -4.8125727   -3.7330217 -0.038442655   -4.8125727     1.079551      8192000 
  223000   0.71876839   -4.8109896   -4.8109896   -3.7328372 -0.044220566   -4.8109896    1.0781523      8192000 
  224000   0.71907908   -4.8117791   -4.8117791   -3.7331608 -0.040199838   -4.8117791    1.0786184      8192000 
  225000   0.72120959   -4.8154921   -4.8154921    -3.733678 -0.030393775   -4.8154921    1.0818141      8192000 
  226000    0.7247325   -4.8209971   -4.8209971   -3.7338986 -0.012166336   -4.8209971    1.0870985      8192000 
  227000   0.72806824   -4.8265188   -4.8265188   -3.7344167  0.010409155   -4.8265188    1.0921021      8192000 
  228000   0.73209715   -4.8333559   -4.8333559   -3.7352104   0.03114031   -4.8333559    1.0981455      8192000 
  229000   0.73513085   -4.8389251   -4.8389251   -3.7362291  0.051474104   -4.8389251     1.102696      8192000 
  230000   0.73691582   -4.8431761   -4.8431761   -3.7378027  0.065053747   -4.8431761    1.1053735      8192000 
  231000    0.7377391   -4.8456998   -4.8456998   -3.7390914  0.068938148   -4.8456998    1.1066084      8192000 
  232000   0.73663854   -4.8453172   -4.8453172   -3.7403597  0.063757598   -4.8453172    1.1049575      8192000 
  233000   0.73425333   -4.8426319   -4.8426319   -3.7412522  0.054354234   -4.8426319    1.1013797      8192000 
  234000   0.73143027   -4.8389153   -4.8389153   -3.7417702  0.034089771   -4.8389153    1.0971451      8192000 
  235000   0.72744996   -4.8334726   -4.8334726   -3.7422979  0.013533527   -4.8334726    1.0911747      8192000 
  236000   0.72391695    -4.828411    -4.828411   -3.7425359 -0.0061905224    -4.828411    1.0858752      8192000 
  237000   0.72050748   -4.8232367   -4.8232367   -3.7424758 -0.021165161   -4.8232367    1.0807609      8192000 
  238000   0.71886707   -4.8204844   -4.8204844    -3.742184 -0.031464277   -4.8204844    1.0783003      8192000 
  239000   0.71812745   -4.8191569   -4.8191569    -3.741966 -0.033143603   -4.8191569    1.0771909      8192000 
  240000   0.71890413   -4.8205463   -4.8205463   -3.7421904 -0.029266205   -4.8205463    1.0783559      8192000 
  241000   0.72070296   -4.8227461   -4.8227461   -3.7416919 -0.017211021   -4.8227461    1.0810542      8192000 
  242000   0.72356088    -4.826836    -4.826836    -3.741495 -0.0012914915    -4.826836    1.0853411      8192000 
  243000   0.72713739   -4.8323634   -4.8323634   -3.7416576  0.017431872   -4.8323634    1.0907058      8192000 
  244000   0.72995811   -4.8373146   -4.8373146   -3.7423777  0.035041794   -4.8373146    1.0949369      8192000 
  245000   0.73219191   -4.8421024   -4.8421024   -3.7438148  0.048189877   -4.8421024    1.0982876      8192000 
  246000   0.73304686   -4.8442597   -4.8442597   -3.7446897  0.058659218   -4.8442597      1.09957      8192000 
  247000   0.73353635   -4.8457764   -4.8457764   -3.7454722    0.0577589   -4.8457764    1.1003043      8192000 
  248000   0.73237353   -4.8450736   -4.8450736   -3.7465136  0.052555186   -4.8450736      1.09856      8192000 
  249000   0.72996314   -4.8417837   -4.8417837   -3.7468392  0.043519677   -4.8417837    1.0949444      8192000 
  250000   0.72728338   -4.8380483   -4.8380483   -3.7471235  0.025388409   -4.8380483    1.0909248      8192000 
  251000   0.72426406   -4.8333392   -4.8333392   -3.7469434  0.008627008   -4.8333392    1.0863958      8192000 
  252000   0.72149527   -4.8293439   -4.8293439   -3.7471013 -0.008444461   -4.8293439    1.0822426      8192000 
  253000   0.71947466   -4.8262245   -4.8262245   -3.7470128 -0.018166405   -4.8262245    1.0792117      8192000 
  254000   0.71832505    -4.823651    -4.823651   -3.7461637 -0.023837636    -4.823651    1.0774873      8192000 
  255000   0.71783583   -4.8226644   -4.8226644    -3.745911 -0.022324987   -4.8226644    1.0767535      8192000 
  256000   0.71935468   -4.8241028   -4.8241028    -3.745071 -0.017421023   -4.8241028    1.0790317      8192000 
  257000   0.72116186   -4.8267876   -4.8267876   -3.7450451 -0.0074473722   -4.8267876    1.0817425      8192000 
  258000   0.72354675   -4.8303659   -4.8303659    -3.745046 0.0060040528   -4.8303659    1.0853199      8192000 
  259000   0.72601608   -4.8346481   -4.8346481   -3.7456243  0.021373968   -4.8346481    1.0890239      8192000 
  260000   0.72799684   -4.8381178   -4.8381178   -3.7461228  0.036351312   -4.8381178     1.091995      8192000 
  261000   0.72958949    -4.840891    -4.840891    -3.746507  0.045475468    -4.840891     1.094384      8192000 
  262000   0.73023149   -4.8431187   -4.8431187   -3.7477718  0.050457018   -4.8431187     1.095347      8192000 
  263000    0.7297481    -4.842744    -4.842744   -3.7481221  0.049268941    -4.842744    1.0946219      8192000 
  264000   0.72840558   -4.8414219   -4.8414219   -3.7488138   0.03997417   -4.8414219    1.0926081      8192000 
  265000   0.72641146   -4.8386355   -4.8386355   -3.7490186  0.031247712   -4.8386355    1.0896169      8192000 
  266000   0.72418982    -4.835234    -4.835234   -3.7489495  0.018702941    -4.835234    1.0862845      8192000 
  267000   0.72186493   -4.8312322   -4.8312322    -3.748435 0.0044822101   -4.8312322    1.0827971      8192000 
  268000   0.71988236   -4.8275838   -4.8275838   -3.7477605 -0.0059857493   -4.8275838    1.0798233      8192000 
  269000    0.7186652   -4.8250424   -4.8250424   -3.7470449 -0.012230666   -4.8250424    1.0779975      8192000 
  270000    0.7181128   -4.8236484   -4.8236484   -3.7464794 -0.015712414   -4.8236484    1.0771689      8192000 
  271000   0.71860293   -4.8234136   -4.8234136   -3.7455095 -0.014196287   -4.8234136    1.0779041      8192000 
  272000    0.7193905   -4.8242356   -4.8242356   -3.7451502 -0.007542935   -4.8242356    1.0790855      8192000 
  273000   0.72143132   -4.8264814   -4.8264814   -3.7443347 0.0029499881   -4.8264814    1.0821467      8192000 
  274000    0.7226934   -4.8285309   -4.8285309   -3.7444911  0.013604547   -4.8285309    1.0840398      8192000 
  275000   0.72457282   -4.8315895   -4.8315895   -3.7447305  0.023931608   -4.8315895     1.086859      8192000 
  276000   0.72641368   -4.8344059   -4.8344059   -3.7447856  0.032721511   -4.8344059    1.0896202      8192000 
  277000   0.72704172   -4.8358375   -4.8358375   -3.7452752   0.03864972   -4.8358375    1.0905623      8192000 
  278000   0.72689188   -4.8361087   -4.8361087   -3.7457712  0.039635541   -4.8361087    1.0903375      8192000 
  279000   0.72649239   -4.8354337   -4.8354337   -3.7456954   0.03725055   -4.8354337    1.0897383      8192000 
  280000   0.72500718   -4.8329977   -4.8329977   -3.7454872  0.032868997   -4.8329977    1.0875105      8192000 
  281000   0.72380101   -4.8315563   -4.8315563   -3.7458551  0.021230712   -4.8315563    1.0857012      8192000 
  282000   0.72207441   -4.8289516   -4.8289516   -3.7458402  0.012154021   -4.8289516    1.0831113      8192000 
  283000   0.72029521   -4.8255951   -4.8255951   -3.7451525 0.0020285281   -4.8255951    1.0804425      8192000 
  284000   0.71868983   -4.8220241   -4.8220241   -3.7439897 -0.0023664664   -4.8220241    1.0780345      8192000 
  285000   0.71846273   -4.8203821   -4.8203821   -3.7426883 -0.0073157114   -4.8203821    1.0776938      8192000 
  286000   0.71839098    -4.819597    -4.819597   -3.7420108 -0.0088977419    -4.819597    1.0775862      8192000 
  287000   0.71867946   -4.8189147   -4.8189147   -3.7408958 -0.0051519017   -4.8189147    1.0780189      8192000 
  288000   0.71977524   -4.8198102   -4.8198102   -3.7401476 -0.00084607586   -4.8198102    1.0796626      8192000 
  289000   0.72082087   -4.8205634   -4.8205634   -3.7393324 0.0075490635   -4.8205634     1.081231      8192000 
  290000   0.72229171    -4.822242    -4.822242   -3.7388047  0.014764976    -4.822242    1.0834373      8192000 
  291000   0.72326521     -4.82346     -4.82346   -3.7385625  0.021796908     -4.82346    1.0848975      8192000 
  292000   0.72413698   -4.8244342   -4.8244342    -3.738229  0.028613798   -4.8244342    1.0862052      8192000 
  293000   0.72460191   -4.8249929   -4.8249929   -3.7380903  0.030760797   -4.8249929    1.0869026      8192000 
  294000   0.72444997   -4.8244033   -4.8244033   -3.7377287  0.029307402   -4.8244033    1.0866747      8192000 
  295000   0.72348162   -4.8225188   -4.8225188   -3.7372966  0.028107585   -4.8225188    1.0852222      8192000 
  296000   0.72275798   -4.8210164   -4.8210164   -3.7368797  0.024148514   -4.8210164    1.0841367      8192000 
  297000   0.72179529    -4.819124    -4.819124   -3.7364313   0.01522832    -4.819124    1.0826927      8192000 
  298000   0.72046906   -4.8162514   -4.8162514   -3.7355481 0.0082463982   -4.8162514    1.0807033      8192000 
  299000   0.71933372   -4.8134037   -4.8134037   -3.7344034 0.0037982193   -4.8134037    1.0790003      8192000 
  300000   0.71803829   -4.8101801   -4.8101801   -3.7331229 0.0015935468   -4.8101801    1.0770572      8192000 
  301000   0.71831237   -4.8092148   -4.8092148   -3.7317465 -0.0025686951   -4.8092148    1.0774683      8192000 
  302000   0.71838255   -4.8077914   -4.8077914   -3.7302179 -3.7989926e-05   -4.8077914    1.0775736      8192000 
  303000   0.71917417   -4.8077873   -4.8077873   -3.7290263 -0.00056155148   -4.8077873     1.078761      8192000 
  304000   0.71992439   -4.8075783   -4.8075783    -3.727692  0.003582373   -4.8075783    1.0798863      8192000 
  305000   0.72007417   -4.8070178   -4.8070178   -3.7269068  0.010888141   -4.8070178     1.080111      8192000 
  306000   0.72060699   -4.8068767   -4.8068767   -3.7259665  0.018030265   -4.8068767    1.0809102      8192000 
  307000   0.72179405   -4.8076753   -4.8076753   -3.7249845  0.020974308   -4.8076753    1.0826908      8192000 
  308000   0.72236425   -4.8077468   -4.8077468   -3.7242007  0.022523214   -4.8077468    1.0835461      8192000 
  309000   0.72263001   -4.8071552   -4.8071552   -3.7232104  0.024778459   -4.8071552    1.0839447      8192000 
  310000   0.72225995   -4.8055584   -4.8055584   -3.7221688   0.02390412   -4.8055584    1.0833897      8192000 
  311000   0.72162449   -4.8033867   -4.8033867   -3.7209503  0.019823939   -4.8033867    1.0824365      8192000 
  312000   0.72116646   -4.8015099   -4.8015099   -3.7197604  0.016356812   -4.8015099    1.0817494      8192000 
  313000   0.72019643   -4.7989105   -4.7989105   -3.7186161  0.012289896   -4.7989105    1.0802944      8192000 
  314000   0.71942269   -4.7964039   -4.7964039   -3.7172702 0.0075525806   -4.7964039    1.0791338      8192000 
  315000    0.7186423   -4.7935571   -4.7935571   -3.7155939 0.0036587289   -4.7935571    1.0779632      8192000 
  316000   0.71851717   -4.7909477   -4.7909477   -3.7131722 0.0018844363   -4.7909477    1.0777755      8192000 
  317000   0.71853337   -4.7890853   -4.7890853   -3.7112855 0.0001973639   -4.7890853    1.0777998      8192000 
  318000   0.71867668   -4.7872575   -4.7872575   -3.7092428 0.0022681049   -4.7872575    1.0780147      8192000 
  319000    0.7190728      -4.7861      -4.7861   -3.7074911 0.0046505502      -4.7861    1.0786089      8192000 
  320000   0.71916455   -4.7844415   -4.7844415   -3.7056949 0.0082592773   -4.7844415    1.0787466      8192000 
  321000   0.71994421   -4.7838114   -4.7838114   -3.7038953  0.010387261   -4.7838114     1.079916      8192000 
  322000   0.72040688    -4.782946    -4.782946    -3.702336   0.01478742    -4.782946    1.0806101      8192000 
  323000   0.72063348   -4.7821019   -4.7821019   -3.7011519  0.017446548   -4.7821019    1.0809499      8192000 
  324000   0.72152025   -4.7819078   -4.7819078   -3.6996277   0.01675485   -4.7819078    1.0822801      8192000 
  325000   0.72135107   -4.7804133   -4.7804133    -3.698387  0.018141211   -4.7804133    1.0820263      8192000 
  326000   0.72098425   -4.7783111   -4.7783111    -3.696835    0.0202084   -4.7783111    1.0814761      8192000 
  327000   0.72064901   -4.7767115   -4.7767115   -3.6957383  0.014923771   -4.7767115    1.0809732      8192000 
  328000   0.72010053   -4.7741522   -4.7741522   -3.6940016  0.014796676   -4.7741522    1.0801505      8192000 
  329000   0.71993906   -4.7721281   -4.7721281   -3.6922198  0.012293162   -4.7721281    1.0799083      8192000 
  330000   0.71967788   -4.7700296   -4.7700296   -3.6905131 0.0082999655   -4.7700296    1.0795166      8192000 
  331000   0.71907735   -4.7672596   -4.7672596   -3.6886439 0.0069782422   -4.7672596    1.0786157      8192000 
  332000   0.71925417   -4.7655801   -4.7655801   -3.6866991 0.0047890202   -4.7655801     1.078881      8192000 
  333000   0.71851798   -4.7629046   -4.7629046   -3.6851279 0.0059876666   -4.7629046    1.0777767      8192000 
  334000   0.71890257    -4.761755    -4.761755   -3.6834014 0.0035959469    -4.761755    1.0783536      8192000 
  335000   0.71923294    -4.760655    -4.760655   -3.6818058 0.0062295423    -4.760655    1.0788491      8192000 
  336000   0.71949018   -4.7589382   -4.7589382   -3.6797032 0.0085777646   -4.7589382     1.079235      8192000 
  337000   0.72003913   -4.7586086   -4.7586086   -3.6785502    0.0080536   -4.7586086    1.0800584      8192000 
  338000   0.71947936   -4.7565764   -4.7565764   -3.6773576  0.012038192   -4.7565764    1.0792188      8192000 
  339000   0.71983678   -4.7557718   -4.7557718   -3.6760169  0.013857285   -4.7557718    1.0797549      8192000 
  340000   0.72031229   -4.7551649   -4.7551649   -3.6746967  0.013762315   -4.7551649    1.0804682      8192000 
  341000   0.72046374   -4.7541864   -4.7541864   -3.6734911  0.015546075   -4.7541864    1.0806953      8192000 
  342000    0.7205748   -4.7531443   -4.7531443   -3.6722824  0.015469449   -4.7531443    1.0808619      8192000 
  343000   0.72004092   -4.7512858   -4.7512858   -3.6712247  0.015570523   -4.7512858    1.0800611      8192000 
  344000   0.72008645   -4.7498884   -4.7498884    -3.669759  0.014002537   -4.7498884    1.0801294      8192000 
  345000   0.72026875   -4.7484139   -4.7484139   -3.6680111   0.01298219   -4.7484139    1.0804028      8192000 
  346000   0.71993197   -4.7466018   -4.7466018   -3.6667041  0.011619951   -4.7466018    1.0798977      8192000 
  347000    0.7194635    -4.744795    -4.744795      -3.6656  0.011698398    -4.744795     1.079195      8192000 
  348000   0.71972183   -4.7436174   -4.7436174    -3.664035 0.0082046341   -4.7436174    1.0795825      8192000 
  349000   0.71923561   -4.7416367   -4.7416367   -3.6627835 0.0076872423   -4.7416367    1.0788531      8192000 
  350000   0.71926978    -4.740408    -4.740408   -3.6615036 0.0060685209    -4.740408    1.0789044      8192000 
  351000   0.71916187   -4.7389421   -4.7389421   -3.6601996 0.0070527379   -4.7389421    1.0787425      8192000 
  352000   0.71939895    -4.737991    -4.737991   -3.6588928 0.0075378249    -4.737991    1.0790982      8192000 
  353000   0.71976421   -4.7373649   -4.7373649   -3.6577188 0.0077366543   -4.7373649     1.079646      8192000 
  354000   0.71979483   -4.7362639   -4.7362639   -3.6565719  0.010692413   -4.7362639     1.079692      8192000 
  355000   0.72012386    -4.735615    -4.735615   -3.6554295  0.010938558    -4.735615    1.0801855      8192000 
  356000   0.72028435   -4.7352595   -4.7352595   -3.6548333  0.010473923   -4.7352595    1.0804263      8192000 
  357000   0.72057986   -4.7348467   -4.7348467   -3.6539771   0.01168545   -4.7348467    1.0808695      8192000 
  358000   0.72055364   -4.7339254   -4.7339254   -3.6530953  0.011951332   -4.7339254    1.0808302      8192000 
  359000   0.72067304   -4.7335981   -4.7335981   -3.6525888  0.012554768   -4.7335981    1.0810093      8192000 
  360000   0.72058922   -4.7325729   -4.7325729   -3.6516893  0.012330353   -4.7325729    1.0808836      8192000 
  361000   0.72019834   -4.7316651   -4.7316651   -3.6513678  0.010311271   -4.7316651    1.0802972      8192000 
  362000   0.72031528   -4.7312014   -4.7312014   -3.6507287  0.010004895   -4.7312014    1.0804727      8192000 
  363000    0.7200121   -4.7300497   -4.7300497   -3.6500319 0.0094077751   -4.7300497    1.0800179      8192000 
  364000   0.72004764   -4.7296466   -4.7296466   -3.6495754 0.0096710796   -4.7296466    1.0800712      8192000 
  365000    0.7200724   -4.7290903   -4.7290903    -3.648982 0.0090370984   -4.7290903    1.0801083      8192000 
  366000   0.72002199   -4.7286486   -4.7286486   -3.6486159 0.0093412856   -4.7286486    1.0800327      8192000 
  367000   0.72013961   -4.7283767   -4.7283767   -3.6481676  0.007585614   -4.7283767    1.0802091      8192000 
  368000   0.71955651   -4.7268825   -4.7268825    -3.647548  0.010388846   -4.7268825    1.0793345      8192000 
  369000   0.72004417   -4.7276483   -4.7276483   -3.6475823 0.0086061076   -4.7276483     1.080066      8192000 
  370000   0.72030296    -4.727983    -4.727983   -3.6475288 0.0082870406    -4.727983    1.0804542      8192000 
  371000   0.72031024   -4.7276569   -4.7276569   -3.6471918   0.01131112   -4.7276569    1.0804651      8192000 
  372000    0.7205051   -4.7280442   -4.7280442   -3.6472868  0.011484351   -4.7280442    1.0807574      8192000 
  373000   0.72071133   -4.7283356   -4.7283356   -3.6472689  0.011144673   -4.7283356    1.0810667      8192000 
  374000   0.72061554   -4.7281293   -4.7281293   -3.6472063  0.011928101   -4.7281293     1.080923      8192000 
  375000    0.7213768   -4.7292148   -4.7292148   -3.6471498  0.011824425   -4.7292148    1.0820649      8192000 
  376000   0.72095696   -4.7280978   -4.7280978   -3.6466626  0.012756444   -4.7280978    1.0814352      8192000 
  377000   0.72062716   -4.7276924   -4.7276924   -3.6467519  0.013978334   -4.7276924    1.0809405      8192000 
  378000   0.72082932   -4.7281865   -4.7281865   -3.6469428  0.014854709   -4.7281865    1.0812437      8192000 
  379000   0.72055479   -4.7274289   -4.7274289    -3.646597  0.014521349   -4.7274289    1.0808319      8192000 
  380000     0.720886   -4.7275583   -4.7275583   -3.6462295   0.01167752   -4.7275583    1.0813287      8192000 
  381000   0.72047231   -4.7267325   -4.7267325   -3.6460243  0.011218511   -4.7267325    1.0807082      8192000 
  382000   0.72071313   -4.7268096   -4.7268096   -3.6457402  0.010199394   -4.7268096    1.0810694      8192000 
  383000   0.72055906   -4.7262967   -4.7262967   -3.6454584 0.0094701003   -4.7262967    1.0808383      8192000 
  384000   0.72099031    -4.726641    -4.726641   -3.6451559 0.0081541609    -4.726641    1.0814852      8192000 
  385000   0.72064634     -4.72576     -4.72576   -3.6447908  0.010404919     -4.72576    1.0809692      8192000 
  386000   0.72094695   -4.7264038   -4.7264038   -3.6449837 0.0089378534   -4.7264038    1.0814202      8192000 
  387000   0.72090978   -4.7259295   -4.7259295   -3.6445651  0.007193084   -4.7259295    1.0813644      8192000 
  388000   0.72089031   -4.7257484   -4.7257484   -3.6444132 0.0085886797   -4.7257484    1.0813352      8192000 
  389000   0.72086773   -4.7256799   -4.7256799   -3.6443786 0.0097150838   -4.7256799    1.0813013      8192000 
  390000   0.72131389   -4.7264006   -4.7264006   -3.6444301  0.010927164   -4.7264006    1.0819706      8192000 
  391000   0.72133063    -4.726164    -4.726164   -3.6441684  0.011376702    -4.726164    1.0819957      8192000 
  392000   0.72122126   -4.7263743   -4.7263743   -3.6445427  0.012475507   -4.7263743    1.0818316      8192000 
  393000    0.7216096   -4.7269287   -4.7269287   -3.6445145  0.012302715   -4.7269287    1.0824141      8192000 
  394000   0.72147072   -4.7265596   -4.7265596   -3.6443538  0.012051812   -4.7265596    1.0822058      8192000 
  395000   0.72127653   -4.7260025   -4.7260025    -3.644088  0.012544089   -4.7260025    1.0819145      8192000 
  396000    0.7217118   -4.7264111   -4.7264111   -3.6438436  0.012219457   -4.7264111    1.0825674      8192000 
  397000   0.72152689   -4.7262733   -4.7262733   -3.6439833  0.013222014   -4.7262733    1.0822901      8192000 
  398000   0.72134369   -4.7256749   -4.7256749   -3.6436596 0.0099553502   -4.7256749    1.0820153      8192000 
  399000   0.72150676   -4.7257918   -4.7257918    -3.643532 0.0094091452   -4.7257918    1.0822599      8192000 
  400000   0.72122023   -4.7250983   -4.7250983   -3.6432682 0.0079873343   -4.7250983    1.0818301      8192000 
  401000   0.72098764   -4.7247094   -4.7247094   -3.6432282 0.0086841718   -4.7247094    1.0814812      8192000 
  402000   0.72126979   -4.7247197   -4.7247197   -3.6428153 0.0091651507   -4.7247197    1.0819044      8192000 
  403000   0.72139187   -4.7244498   -4.7244498   -3.6423623  0.010325347   -4.7244498    1.0820875      8192000 
  404000   0.72161255   -4.7247329   -4.7247329   -3.6423143 0.0090039639   -4.7247329    1.0824186      8192000 
  405000   0.72155027   -4.7243967   -4.7243967   -3.6420716  0.008550855   -4.7243967    1.0823251      8192000 
  406000   0.72195783   -4.7246314   -4.7246314    -3.641695  0.010519362   -4.7246314    1.0829365      8192000 
  407000   0.72191539   -4.7246594   -4.7246594   -3.6417866  0.010836544   -4.7246594    1.0828728      8192000 
  408000   0.72169503   -4.7241893   -4.7241893    -3.641647  0.010883669   -4.7241893    1.0825423      8192000 
  409000   0.72186716   -4.7241417   -4.7241417   -3.6413412  0.012122073   -4.7241417    1.0828005      8192000 
  410000   0.72157063   -4.7238519   -4.7238519   -3.6414962  0.012247325   -4.7238519    1.0823557      8192000 
  411000   0.72185697   -4.7240995   -4.7240995   -3.6413144    0.0110233   -4.7240995    1.0827852      8192000 
  412000   0.72191136   -4.7239929   -4.7239929   -3.6411262  0.010904526   -4.7239929    1.0828668      8192000 
  413000   0.72207527   -4.7243957   -4.7243957    -3.641283 0.0093841227   -4.7243957    1.0831126      8192000 
  414000   0.72194089   -4.7237186   -4.7237186   -3.6408075  0.011415701   -4.7237186    1.0829111      8192000 
  415000   0.72223262   -4.7239495   -4.7239495   -3.6406009  0.011547193   -4.7239495    1.0833487      8192000 
  416000   0.72217169   -4.7237993   -4.7237993   -3.6405421  0.010707883   -4.7237993    1.0832573      8192000 
  417000    0.7222745   -4.7235312   -4.7235312   -3.6401197  0.010165915   -4.7235312    1.0834115      8192000 
  418000   0.72181102   -4.7226744   -4.7226744   -3.6399581  0.011931911   -4.7226744    1.0827163      8192000 
  419000   0.72196125    -4.722552    -4.722552   -3.6396104  0.012340504    -4.722552    1.0829416      8192000 
  420000   0.72243582   -4.7230068   -4.7230068   -3.6393534  0.010082265   -4.7230068    1.0836535      8192000 
  421000   0.72166282   -4.7217917   -4.7217917   -3.6392978  0.010682795   -4.7217917     1.082494      8192000 
  422000   0.72221321    -4.722185    -4.722185   -3.6388655 0.0096390352    -4.722185    1.0833195      8192000 
  423000   0.72219429   -4.7220462   -4.7220462    -3.638755  0.009284425   -4.7220462    1.0832912      8192000 
  424000   0.72220898   -4.7218576   -4.7218576   -3.6385444  0.008610829   -4.7218576    1.0833132      8192000 
  425000   0.72223161   -4.7217532   -4.7217532   -3.6384061  0.010034743   -4.7217532    1.0833471      8192000 
  426000   0.72228412   -4.7217054   -4.7217054   -3.6382795  0.010024347   -4.7217054    1.0834259      8192000 
  427000   0.72207745   -4.7211567   -4.7211567   -3.6380408   0.01017014   -4.7211567    1.0831159      8192000 
  428000   0.72230261   -4.7215121   -4.7215121   -3.6380585  0.010169713   -4.7215121    1.0834536      8192000 
  429000   0.72219529   -4.7213171   -4.7213171   -3.6380245 0.0099030825   -4.7213171    1.0832927      8192000 
  430000     0.722356   -4.7217385   -4.7217385   -3.6382047  0.009255922   -4.7217385    1.0835337      8192000 
  431000   0.72247403    -4.721428    -4.721428   -3.6377172  0.011559828    -4.721428    1.0837108      8192000 
  432000   0.72273115   -4.7214734   -4.7214734    -3.637377  0.011890982   -4.7214734    1.0840964      8192000 
  433000   0.72272909    -4.721434    -4.721434   -3.6373407   0.01251589    -4.721434    1.0840934      8192000 
  434000   0.72289451   -4.7215526   -4.7215526   -3.6372111  0.012577211   -4.7215526    1.0843415      8192000 
  435000   0.72303972   -4.7213975   -4.7213975   -3.6368382  0.012153603   -4.7213975    1.0845593      8192000 
  436000   0.72334735   -4.7213254   -4.7213254   -3.6363047 0.0096112265   -4.7213254    1.0850208      8192000 
  437000   0.72283681    -4.720361    -4.720361   -3.6361061  0.012857403    -4.720361    1.0842549      8192000 
  438000   0.72303728   -4.7207718   -4.7207718   -3.6362161  0.010914751   -4.7207718    1.0845557      8192000 
  439000   0.72287764   -4.7203434   -4.7203434   -3.6360272  0.011185478   -4.7203434    1.0843162      8192000 
  440000   0.72289948    -4.719856    -4.719856    -3.635507 0.0086610789    -4.719856    1.0843489      8192000 
  441000   0.72258533   -4.7190204   -4.7190204   -3.6351427  0.010502384   -4.7190204    1.0838777      8192000 
  442000   0.72300472   -4.7192146   -4.7192146   -3.6347078 0.0087922007   -4.7192146    1.0845068      8192000 
  443000   0.72303691   -4.7190747   -4.7190747   -3.6345196 0.0083182214   -4.7190747    1.0845551      8192000 
  444000   0.72328131   -4.7191166   -4.7191166   -3.6341949 0.0088341694   -4.7191166    1.0849217      8192000 
  445000   0.72321517   -4.7184704   -4.7184704   -3.6336479  0.010405179   -4.7184704    1.0848225      8192000 
  446000     0.723463    -4.718712    -4.718712   -3.6335177  0.010220319    -4.718712    1.0851942      8192000 
  447000   0.72321596   -4.7180836   -4.7180836   -3.6332599  0.010350405   -4.7180836    1.0848237      8192000 
  448000   0.72293603   -4.7177525   -4.7177525   -3.6333488  0.012128985   -4.7177525    1.0844038      8192000 
  449000   0.72311526   -4.7178656   -4.7178656   -3.6331929  0.010048628   -4.7178656    1.0846726      8192000 
  450000   0.72317152   -4.7179566   -4.7179566   -3.6331996  0.012451423   -4.7179566     1.084757      8192000 
  451000   0.72391287   -4.7182197   -4.7182197   -3.6323507  0.011282264   -4.7182197     1.085869      8192000 
  452000   0.72380052   -4.7183979   -4.7183979   -3.6326974 0.0098865269   -4.7183979    1.0857005      8192000 
  453000   0.72402648   -4.7181398   -4.7181398   -3.6321004  0.008919274   -4.7181398    1.0860394      8192000 
  454000   0.72408266   -4.7179475   -4.7179475   -3.6318238 0.0098814732   -4.7179475    1.0861237      8192000 
  455000    0.7235399   -4.7168581   -4.7168581   -3.6315486  0.012401866   -4.7168581    1.0853096      8192000 
  456000   0.72398271   -4.7174407   -4.7174407   -3.6314669  0.010770354   -4.7174407    1.0859738      8192000 
  457000   0.72416179   -4.7170804   -4.7170804    -3.630838  0.011424123   -4.7170804    1.0862424      8192000 
  458000   0.72410846   -4.7165092   -4.7165092   -3.6303468  0.010981148   -4.7165092    1.0861624      8192000 
  459000    0.7237228   -4.7162298   -4.7162298   -3.6306459  0.010276339   -4.7162298    1.0855839      8192000 
  460000   0.72378614    -4.715944    -4.715944    -3.630265  0.010032682    -4.715944    1.0856789      8192000 
  461000   0.72391059   -4.7154768   -4.7154768   -3.6296112  0.010050494   -4.7154768    1.0858656      8192000 
  462000   0.72415245   -4.7153232   -4.7153232   -3.6290948  0.010387005   -4.7153232    1.0862284      8192000 
  463000   0.72396753   -4.7147916   -4.7147916   -3.6288406  0.011000176   -4.7147916     1.085951      8192000 
  464000   0.72413389   -4.7145678   -4.7145678   -3.6283672    0.0101609   -4.7145678    1.0862006      8192000 
  465000   0.72475935   -4.7152108   -4.7152108    -3.628072 0.0099041848   -4.7152108    1.0871387      8192000 
  466000   0.72459177   -4.7146973   -4.7146973     -3.62781 0.0095880745   -4.7146973    1.0868874      8192000 
  467000   0.72420969   -4.7139792   -4.7139792   -3.6276649 0.0085883322   -4.7139792    1.0863143      8192000 
  468000   0.72451662   -4.7138985   -4.7138985   -3.6271238  0.010029566   -4.7138985    1.0867747      8192000 
  469000   0.72423022   -4.7134531   -4.7134531    -3.627108 0.0089536208   -4.7134531    1.0863451      8192000 
  470000   0.72447677   -4.7138121   -4.7138121   -3.6270972 0.0095655463   -4.7138121    1.0867149      8192000 
  471000   0.72483327   -4.7137349   -4.7137349   -3.6264853 0.0097755103   -4.7137349    1.0872496      8192000 
  472000   0.72489727   -4.7135026   -4.7135026   -3.6261569  0.010785425   -4.7135026    1.0873456      8192000 
  473000   0.72492901   -4.7133779   -4.7133779   -3.6259846  0.010156358   -4.7133779    1.0873932      8192000 
  474000   0.72493201   -4.7129787   -4.7129787    -3.625581  0.010420474   -4.7129787    1.0873977      8192000 
  475000    0.7250978   -4.7128264   -4.7128264     -3.62518  0.010204813   -4.7128264    1.0876464      8192000 
  476000   0.72512558   -4.7124556   -4.7124556   -3.6247675  0.013117254   -4.7124556    1.0876881      8192000 
  477000   0.72519156   -4.7120078   -4.7120078   -3.6242207  0.012047869   -4.7120078    1.0877871      8192000 
  478000   0.72534327    -4.712095    -4.712095   -3.6240803  0.011422575    -4.712095    1.0880146      8192000 
  479000   0.72543015   -4.7116535   -4.7116535   -3.6235086  0.010134555   -4.7116535     1.088145      8192000 
  480000   0.72544238   -4.7114008   -4.7114008   -3.6232375 0.0092005479   -4.7114008    1.0881633      8192000 
  481000   0.72522838   -4.7107595   -4.7107595   -3.6229172   0.01065129   -4.7107595    1.0878423      8192000 
  482000   0.72545097   -4.7105027   -4.7105027   -3.6223265  0.008687007   -4.7105027    1.0881762      8192000 
  483000   0.72544781   -4.7096164   -4.7096164   -3.6214449  0.010719496   -4.7096164    1.0881714      8192000 
  484000   0.72546422    -4.709775    -4.709775   -3.6215789   0.01106795    -4.709775    1.0881961      8192000 
  485000   0.72570653   -4.7092622   -4.7092622   -3.6207026 0.0089898302   -4.7092622    1.0885595      8192000 
  486000   0.72542804   -4.7086127   -4.7086127   -3.6204709 0.0093333713   -4.7086127    1.0881418      8192000 
  487000   0.72551824   -4.7085589   -4.7085589   -3.6202818 0.0086217525   -4.7085589    1.0882771      8192000 
  488000   0.72561514   -4.7084125   -4.7084125   -3.6199901 0.0085475259   -4.7084125    1.0884224      8192000 
  489000   0.72601928   -4.7087427   -4.7087427   -3.6197141 0.0074873237   -4.7087427    1.0890287      8192000 
  490000    0.7257857    -4.707997    -4.707997   -3.6193187  0.011323314    -4.707997    1.0886783      8192000 
  491000   0.72634406   -4.7083603   -4.7083603   -3.6188445  0.011141338   -4.7083603    1.0895158      8192000 
  492000   0.72627725   -4.7080659   -4.7080659   -3.6186503 0.0087094275   -4.7080659    1.0894156      8192000 
  493000   0.72634129   -4.7076259   -4.7076259   -3.6181142  0.011922338   -4.7076259    1.0895117      8192000 
  494000   0.72693656   -4.7079636   -4.7079636    -3.617559  0.010762714   -4.7079636    1.0904046      8192000 
  495000   0.72667796   -4.7076898   -4.7076898   -3.6176731  0.010662366   -4.7076898    1.0900167      8192000 
  496000   0.72712273   -4.7075626   -4.7075626   -3.6168788  0.011515906   -4.7075626    1.0906838      8192000 
  497000   0.72716147   -4.7070311   -4.7070311   -3.6162891 0.0098554672   -4.7070311    1.0907419      8192000 
  498000   0.72697383   -4.7062599   -4.7062599   -3.6157995  0.012522371   -4.7062599    1.0904605      8192000 
  499000   0.72678248   -4.7056747   -4.7056747   -3.6155012  0.010770071   -4.7056747    1.0901734      8192000 
  500000   0.72683249    -4.705326    -4.705326   -3.6150775   0.01078304    -4.705326    1.0902485      8192000 
  501000     0.726733   -4.7047029   -4.7047029   -3.6146036 0.0088605382   -4.7047029    1.0900992      8192000 
  502000   0.72663707   -4.7043133   -4.7043133    -3.614358 0.0087229885   -4.7043133    1.0899553      8192000 
  503000   0.72680172   -4.7043543   -4.7043543    -3.614152   0.00608364   -4.7043543    1.0902023      8192000 
  504000   0.72653933   -4.7035627   -4.7035627    -3.613754 0.0077120976   -4.7035627    1.0898087      8192000 
  505000    0.7270349   -4.7035928   -4.7035928   -3.6130408 0.0074105682   -4.7035928    1.0905521      8192000 
  506000   0.72714541   -4.7034541   -4.7034541   -3.6127363 0.0071259363   -4.7034541    1.0907178      8192000 
  507000   0.72737957   -4.7034126   -4.7034126   -3.6123435 0.0079923435   -4.7034126    1.0910691      8192000 
  508000   0.72751423   -4.7033863   -4.7033863   -3.6121152 0.0094561213   -4.7033863    1.0912711      8192000 
  509000   0.72780914   -4.7033123   -4.7033123   -3.6115988  0.010019835   -4.7033123    1.0917134      8192000 
  510000   0.72785432   -4.7030483   -4.7030483   -3.6112671  0.010926291   -4.7030483    1.0917812      8192000 
  511000   0.72794193   -4.7028153   -4.7028153   -3.6109027  0.011210478   -4.7028153    1.0919126      8192000 
  512000   0.72819798   -4.7029764   -4.7029764   -3.6106797  0.011407801   -4.7029764    1.0922967      8192000 
  513000   0.72825221   -4.7029091   -4.7029091   -3.6105311 0.0092808598   -4.7029091     1.092378      8192000 
  514000   0.72831834   -4.7025824   -4.7025824   -3.6101052  0.010149521   -4.7025824    1.0924772      8192000 
  515000   0.72822337   -4.7015937   -4.7015937   -3.6092589  0.012305326   -4.7015937    1.0923348      8192000 
  516000   0.72845773   -4.7022416   -4.7022416   -3.6095553 0.0086904966   -4.7022416    1.0926863      8192000 
  517000   0.72820838   -4.7012642   -4.7012642   -3.6089519  0.009117446   -4.7012642    1.0923123      8192000 
  518000   0.72837526   -4.7008629   -4.7008629   -3.6083003 0.0070827243   -4.7008629    1.0925626      8192000 
  519000   0.72789284   -4.7001521   -4.7001521   -3.6083131 0.0077031869   -4.7001521     1.091839      8192000 
  520000   0.72807201   -4.6995157   -4.6995157    -3.607408  0.009389995   -4.6995157    1.0921077      8192000 
  521000   0.72833181   -4.6996623   -4.6996623   -3.6071648 0.0080211753   -4.6996623    1.0924974      8192000 
  522000   0.72829244    -4.698981    -4.698981   -3.6065426 0.0095878796    -4.698981    1.0924384      8192000 
  523000   0.72840725    -4.698924    -4.698924   -3.6063134 0.0099254178    -4.698924    1.0926106      8192000 
  524000   0.72823293   -4.6981176   -4.6981176   -3.6057685  0.010874156   -4.6981176    1.0923491      8192000 
  525000   0.72877643   -4.6985842   -4.6985842   -3.6054198 0.0092821537   -4.6985842    1.0931644      8192000 
  526000   0.72884816   -4.6982902   -4.6982902   -3.6050183  0.008128816   -4.6982902     1.093272      8192000 
  527000   0.72913384   -4.6980423   -4.6980423   -3.6043418  0.010478767   -4.6980423    1.0937005      8192000 
  528000   0.72930761   -4.6982479   -4.6982479   -3.6042868 0.0094631667   -4.6982479    1.0939611      8192000 
  529000   0.72938611   -4.6976921   -4.6976921   -3.6036132 0.0092785931   -4.6976921    1.0940789      8192000 
  530000   0.72951633     -4.69719     -4.69719   -3.6029157  0.011363088     -4.69719    1.0942742      8192000 
  531000   0.72957215   -4.6967813   -4.6967813   -3.6024233  0.010162152   -4.6967813    1.0943579      8192000 
  532000    0.7297951   -4.6966683   -4.6966683   -3.6019759 0.0084179355   -4.6966683    1.0946924      8192000 
  533000   0.72967845   -4.6959962   -4.6959962   -3.6014788 0.0085221657   -4.6959962    1.0945174      8192000 
  534000   0.72941832   -4.6953844   -4.6953844   -3.6012572 0.0095427278   -4.6953844    1.0941272      8192000 
  535000   0.72893447   -4.6943963   -4.6943963   -3.6009949  0.010777758   -4.6943963    1.0934014      8192000 
  536000   0.72978521   -4.6949172   -4.6949172   -3.6002396 0.0072655226   -4.6949172    1.0946775      8192000 
  537000   0.72946988    -4.693893    -4.693893   -3.5996885 0.0081077188    -4.693893    1.0942045      8192000 
  538000   0.72976053   -4.6940652   -4.6940652   -3.5994247 0.0086616073   -4.6940652    1.0946405      8192000 
  539000   0.72997548   -4.6937244   -4.6937244   -3.5987614 0.0089577859   -4.6937244    1.0949629      8192000 
  540000   0.73042242   -4.6940176   -4.6940176   -3.5983843 0.0073669422   -4.6940176    1.0956334      8192000 
  541000   0.73012256   -4.6930994   -4.6930994   -3.5979159 0.0090617212   -4.6930994    1.0951836      8192000 
  542000    0.7300247   -4.6924129   -4.6924129   -3.5973761  0.011082554   -4.6924129    1.0950368      8192000 
  543000   0.73042516   -4.6924589   -4.6924589   -3.5968214  0.011004255   -4.6924589    1.0956375      8192000 
  544000   0.73044877   -4.6922238   -4.6922238    -3.596551 0.0093697523   -4.6922238    1.0956729      8192000 
  545000   0.73056612   -4.6920775   -4.6920775   -3.5962286  0.010830664   -4.6920775    1.0958489      8192000 
  546000   0.73062617   -4.6915515   -4.6915515   -3.5956125 0.0098819714   -4.6915515     1.095939      8192000 
  547000   0.73065726    -4.691447    -4.691447   -3.5954613  0.008403864    -4.691447    1.0959856      8192000 
  548000   0.73086229   -4.6910891   -4.6910891    -3.594796 0.0088555367   -4.6910891    1.0962932      8192000 
  549000   0.73089468   -4.6907167   -4.6907167    -3.594375  0.010525303   -4.6907167    1.0963418      8192000 
  550000   0.73099163   -4.6904901   -4.6904901   -3.5940029 0.0087901594   -4.6904901    1.0964872      8192000 
  551000   0.73103621   -4.6899491   -4.6899491   -3.5933951 0.0088394109   -4.6899491     1.096554      8192000 
  552000   0.73087722   -4.6892614   -4.6892614   -3.5929458 0.0080383918   -4.6892614    1.0963155      8192000 
  553000   0.73097536    -4.689282    -4.689282   -3.5928193 0.0090004252    -4.689282    1.0964628      8192000 
  554000   0.73097965   -4.6887928   -4.6887928   -3.5923236 0.0086823314   -4.6887928    1.0964692      8192000 
  555000   0.73139484   -4.6888904   -4.6888904   -3.5917984 0.0069484539   -4.6888904     1.097092      8192000 
  556000   0.73165104   -4.6885501   -4.6885501   -3.5910738 0.0084209471   -4.6885501    1.0974763      8192000 
  557000   0.73139409    -4.687896    -4.687896   -3.5908051  0.010019562    -4.687896    1.0970909      8192000 
  558000   0.73158138   -4.6879515   -4.6879515   -3.5905797 0.0089010949   -4.6879515    1.0973718      8192000 
  559000    0.7314229   -4.6869857   -4.6869857   -3.5898517 0.0089681833   -4.6869857    1.0971341      8192000 
  560000   0.73193841    -4.687319    -4.687319   -3.5894117 0.0085041705    -4.687319    1.0979073      8192000 
  561000   0.73178247   -4.6866508   -4.6866508   -3.5889774  0.009229903   -4.6866508    1.0976734      8192000 
  562000    0.7320465   -4.6866674   -4.6866674   -3.5885979  0.010213587   -4.6866674    1.0980695      8192000 
  563000   0.73240774   -4.6863753   -4.6863753    -3.587764  0.010235092   -4.6863753    1.0986113      8192000 
  564000   0.73236218   -4.6858989   -4.6858989   -3.5873559  0.010652275   -4.6858989     1.098543      8192000 
  565000   0.73234477   -4.6853196   -4.6853196   -3.5868027 0.0092819273   -4.6853196    1.0985169      8192000 
  566000   0.73219804   -4.6846528   -4.6846528    -3.586356  0.010868547   -4.6846528    1.0982968      8192000 
  567000    0.7323159   -4.6842323   -4.6842323   -3.5857587 0.0092938437   -4.6842323    1.0984736      8192000 
  568000    0.7326766   -4.6839891   -4.6839891   -3.5849745 0.0085090347   -4.6839891    1.0990146      8192000 
  569000   0.73316438   -4.6840933   -4.6840933    -3.584347 0.0090450028   -4.6840933    1.0997463      8192000 
  570000   0.73292407   -4.6831595   -4.6831595   -3.5837737 0.0095935157   -4.6831595    1.0993858      8192000 
  571000   0.73253658   -4.6825239   -4.6825239   -3.5837193 0.0088113542   -4.6825239    1.0988046      8192000 
  572000   0.73259472   -4.6819501   -4.6819501   -3.5830582 0.0056262433   -4.6819501    1.0988918      8192000 
  573000   0.73287021   -4.6815531   -4.6815531   -3.5822481 0.0061012614   -4.6815531     1.099305      8192000 
  574000   0.73274091   -4.6806991   -4.6806991    -3.581588 0.0067529106   -4.6806991    1.0991111      8192000 
  575000      0.73283   -4.6807792   -4.6807792   -3.5815345 0.0067550901   -4.6807792    1.0992447      8192000 
  576000   0.73323039      -4.6804      -4.6804   -3.5805547  0.008949728      -4.6804    1.0998453      8192000 
  577000   0.73344445   -4.6802402   -4.6802402   -3.5800738 0.0094733425   -4.6802402    1.1001664      8192000 
  578000   0.73356631    -4.679666    -4.679666   -3.5793168 0.0098584323    -4.679666    1.1003492      8192000 
  579000   0.73365614   -4.6793791   -4.6793791   -3.5788952 0.0098645016   -4.6793791    1.1004839      8192000 
  580000   0.73387417   -4.6795568   -4.6795568   -3.5787458  0.009690905   -4.6795568     1.100811      8192000 
  581000   0.73408619   -4.6793882   -4.6793882   -3.5782592   0.01012312   -4.6793882     1.101129      8192000 
  582000   0.73419955   -4.6791815   -4.6791815   -3.5778825  0.012273459   -4.6791815     1.101299      8192000 
  583000   0.73427923   -4.6785631   -4.6785631   -3.5771445    0.0112612   -4.6785631    1.1014186      8192000 
  584000   0.73407171   -4.6778479   -4.6778479   -3.5767406  0.010713234   -4.6778479    1.1011073      8192000 
  585000   0.73450872   -4.6780678   -4.6780678    -3.576305 0.0091707714   -4.6780678    1.1017628      8192000 
  586000   0.73443464   -4.6776009   -4.6776009   -3.5759492 0.0081323486   -4.6776009    1.1016517      8192000 
  587000   0.73457075   -4.6771686   -4.6771686   -3.5753128 0.0090993696   -4.6771686    1.1018559      8192000 
  588000   0.73426438   -4.6764414   -4.6764414   -3.5750451 0.0097714053   -4.6764414    1.1013963      8192000 
  589000   0.73467676    -4.676193    -4.676193   -3.5741781  0.008079639    -4.676193    1.1020149      8192000 
  590000   0.73446781   -4.6753139   -4.6753139   -3.5736125 0.0082059914   -4.6753139    1.1017014      8192000 
  591000   0.73462335    -4.674549    -4.674549   -3.5726143 0.0080435798    -4.674549    1.1019347      8192000 
  592000   0.73445863   -4.6742287   -4.6742287    -3.572541 0.0087050682   -4.6742287    1.1016877      8192000 
  593000   0.73489914   -4.6742772   -4.6742772   -3.5719288  0.008116996   -4.6742772    1.1023484      8192000 
  594000   0.73474223   -4.6735963   -4.6735963   -3.5714833 0.0090497147   -4.6735963    1.1021131      8192000 
  595000    0.7351707   -4.6734734   -4.6734734   -3.5707176 0.0088272287   -4.6734734    1.1027558      8192000 
  596000   0.73512343   -4.6730464   -4.6730464   -3.5703615 0.0098955403   -4.6730464    1.1026849      8192000 
  597000   0.73574508   -4.6736529   -4.6736529   -3.5700356 0.0071450778   -4.6736529    1.1036173      8192000 
  598000   0.73545635   -4.6726162   -4.6726162   -3.5694319 0.0073111857   -4.6726162    1.1031842      8192000 
  599000   0.73587727   -4.6724442   -4.6724442   -3.5686286 0.0096763067   -4.6724442    1.1038156      8192000 
  600000   0.73626111    -4.672227    -4.672227   -3.5678356 0.0094770027    -4.672227    1.1043914      8192000 
  601000    0.7360194   -4.6715204   -4.6715204   -3.5674915 0.0096591788   -4.6715204    1.1040288      8192000 
  602000   0.73588614   -4.6708406   -4.6708406   -3.5670117 0.0099482993   -4.6708406    1.1038289      8192000 
  603000   0.73580118   -4.6704162   -4.6704162   -3.5667147 0.0094298556   -4.6704162    1.1037015      8192000 
  604000   0.73588673   -4.6700003   -4.6700003   -3.5661705 0.0094901277   -4.6700003    1.1038298      8192000 
  605000   0.73591794   -4.6697258   -4.6697258   -3.5658492  0.010067006   -4.6697258    1.1038766      8192000 
  606000   0.73615739   -4.6693994   -4.6693994   -3.5651636  0.008375757   -4.6693994    1.1042358      8192000 
  607000   0.73639947   -4.6693124   -4.6693124   -3.5647134 0.0091890547   -4.6693124    1.1045989      8192000 
  608000    0.7363684    -4.668586    -4.668586   -3.5640337 0.0074522112    -4.668586    1.1045523      8192000 
  609000   0.73649051   -4.6683148   -4.6683148   -3.5635793 0.0083392538   -4.6683148    1.1047355      8192000 
  610000   0.73660098   -4.6678208   -4.6678208   -3.5629196 0.0074778074   -4.6678208    1.1049012      8192000 
  611000   0.73700648   -4.6677358   -4.6677358   -3.5622264 0.0087020505   -4.6677358    1.1055095      8192000 
  612000   0.73680313   -4.6667739   -4.6667739   -3.5615695  0.010915615   -4.6667739    1.1052044      8192000 
  613000   0.73700226   -4.6670482   -4.6670482   -3.5615451 0.0089834878   -4.6670482    1.1055031      8192000 
  614000   0.73727519   -4.6661743   -4.6661743   -3.5602618 0.0082053407   -4.6661743    1.1059125      8192000 
  615000   0.73728524   -4.6655435   -4.6655435   -3.5596159 0.0092438567   -4.6655435    1.1059276      8192000 
  616000   0.73741179   -4.6651007   -4.6651007   -3.5589833  0.009426598   -4.6651007    1.1061174      8192000 
  617000   0.73805693   -4.6654186   -4.6654186   -3.5583335  0.010051525   -4.6654186    1.1070851      8192000 
  618000   0.73812623   -4.6649816   -4.6649816   -3.5577925 0.0093646876   -4.6649816    1.1071891      8192000 
  619000   0.73776434   -4.6637719   -4.6637719   -3.5571257 0.0086459374   -4.6637719    1.1066462      8192000 
  620000   0.73770435   -4.6628111   -4.6628111   -3.5562548 0.0079072984   -4.6628111    1.1065562      8192000 
  621000   0.73815363   -4.6632161   -4.6632161   -3.5559859 0.0056756441   -4.6632161    1.1072302      8192000 
  622000   0.73799709   -4.6627455   -4.6627455   -3.5557501 0.0090334587   -4.6627455    1.1069954      8192000 
  623000   0.73763587   -4.6618661   -4.6618661   -3.5554126 0.0090932729   -4.6618661    1.1064535      8192000 
  624000   0.73769453   -4.6609944   -4.6609944   -3.5544529 0.0074467314   -4.6609944    1.1065415      8192000 
  625000   0.73794658   -4.6607938   -4.6607938   -3.5538742 0.0070775665   -4.6607938    1.1069196      8192000 
  626000   0.73810561   -4.6608281   -4.6608281   -3.5536699 0.0068276295   -4.6608281    1.1071581      8192000 
  627000   0.73815587   -4.6603859   -4.6603859   -3.5531524 0.0055789193   -4.6603859    1.1072335      8192000 
  628000   0.73840755   -4.6603812   -4.6603812   -3.5527702 0.0064556515   -4.6603812     1.107611      8192000 
  629000   0.73837899   -4.6596788   -4.6596788   -3.5521106   0.01072981   -4.6596788    1.1075682      8192000 
  630000    0.7387756    -4.660023    -4.660023   -3.5518599 0.0097437112    -4.660023    1.1081631      8192000 
  631000   0.73937912   -4.6601589   -4.6601589   -3.5510905  0.010175648   -4.6601589    1.1090684      8192000 
  632000   0.73947799    -4.659527    -4.659527   -3.5503103    0.0110002    -4.659527    1.1092167      8192000 
  633000   0.73952535    -4.659391    -4.659391   -3.5501032  0.010935197    -4.659391    1.1092878      8192000 
  634000   0.74007688   -4.6597844   -4.6597844   -3.5496693  0.010260721   -4.6597844     1.110115      8192000 
  635000   0.73961754   -4.6582128   -4.6582128   -3.5487867  0.010933628   -4.6582128     1.109426      8192000 
  636000   0.73989282   -4.6578454   -4.6578454   -3.5480064     0.010902   -4.6578454     1.109839      8192000 
  637000   0.73999052    -4.657383    -4.657383   -3.5473975  0.008824862    -4.657383    1.1099855      8192000 
  638000   0.73962539   -4.6562167   -4.6562167   -3.5467789  0.008614993   -4.6562167    1.1094378      8192000 
  639000   0.73982884   -4.6561923   -4.6561923   -3.5464493 0.0068186575   -4.6561923     1.109743      8192000 
  640000   0.73963349   -4.6548594   -4.6548594   -3.5454094 0.0079006531   -4.6548594      1.10945      8192000 
  641000   0.73950623     -4.65383     -4.65383   -3.5445709 0.0092419711     -4.65383    1.1092591      8192000 
  642000   0.73940173   -4.6533355   -4.6533355   -3.5442332 0.0077035662   -4.6533355    1.1091023      8192000 
  643000   0.73992551   -4.6531552   -4.6531552   -3.5432672 0.0070271203   -4.6531552     1.109888      8192000 
  644000   0.74003957   -4.6526968   -4.6526968   -3.5426377 0.0060058614   -4.6526968    1.1100591      8192000 
  645000   0.74027221   -4.6522602   -4.6522602   -3.5418521 0.0078440918   -4.6522602     1.110408      8192000 
  646000   0.74061446   -4.6523426   -4.6523426   -3.5414212 0.0077100436   -4.6523426    1.1109214      8192000 
  647000   0.74030073   -4.6511867   -4.6511867   -3.5407359 0.0085830727   -4.6511867    1.1104508      8192000 
  648000   0.74090486   -4.6513278   -4.6513278   -3.5399708  0.009525507   -4.6513278     1.111357      8192000 
  649000   0.74111947   -4.6511592   -4.6511592   -3.5394803  0.010074077   -4.6511592    1.1116789      8192000 
  650000   0.74104856   -4.6505784   -4.6505784   -3.5390059  0.010099969   -4.6505784    1.1115726      8192000 
  651000   0.74168778   -4.6511154   -4.6511154    -3.538584 0.0076160252   -4.6511154    1.1125314      8192000 
  652000   0.74153634   -4.6500608   -4.6500608   -3.5377566 0.0081500621   -4.6500608    1.1123042      8192000 
  653000   0.74161856   -4.6496061   -4.6496061   -3.5371786 0.0080842088   -4.6496061    1.1124276      8192000 
  654000   0.74133982   -4.6488072   -4.6488072   -3.5367978 0.0099512618   -4.6488072    1.1120094      8192000 
  655000   0.74211779   -4.6495218   -4.6495218   -3.5363454  0.009120255   -4.6495218    1.1131764      8192000 
  656000   0.74179246    -4.648482    -4.648482   -3.5357936 0.0081279725    -4.648482    1.1126884      8192000 
  657000   0.74220324   -4.6482119   -4.6482119   -3.5349073 0.0071697092   -4.6482119    1.1133046      8192000 
  658000   0.74205469   -4.6470223   -4.6470223   -3.5339405 0.0091921293   -4.6470223    1.1130818      8192000 
  659000   0.74215283   -4.6468554   -4.6468554   -3.5336264 0.0078018044   -4.6468554     1.113229      8192000 
  660000    0.7424657   -4.6466702   -4.6466702   -3.5329719 0.0075057173   -4.6466702    1.1136983      8192000 
  661000   0.74259609   -4.6459138   -4.6459138     -3.53202 0.0079764415   -4.6459138    1.1138939      8192000 
  662000   0.74205434   -4.6444762   -4.6444762    -3.531395 0.0080882358   -4.6444762    1.1130812      8192000 
  663000   0.74262162   -4.6447526   -4.6447526   -3.5308204 0.0073383243   -4.6447526    1.1139321      8192000 
  664000   0.74240375   -4.6440119   -4.6440119   -3.5304066 0.0084875127   -4.6440119    1.1136053      8192000 
  665000   0.74233102   -4.6433658   -4.6433658   -3.5298695 0.0085214952   -4.6433658    1.1134962      8192000 
  666000   0.74282732   -4.6429454   -4.6429454   -3.5287047 0.0077359499   -4.6429454    1.1142407      8192000 
  667000   0.74304814   -4.6426691   -4.6426691   -3.5280971 0.0077544523   -4.6426691    1.1145719      8192000 
  668000   0.74301578   -4.6420453   -4.6420453   -3.5275219 0.0084741913   -4.6420453    1.1145234      8192000 
  669000   0.74349852   -4.6417781   -4.6417781   -3.5265306  0.010178249   -4.6417781    1.1152475      8192000 
  670000   0.74378838    -4.641802    -4.641802   -3.5261197 0.0077926456    -4.641802    1.1156823      8192000 
  671000    0.7431397    -4.640733    -4.640733   -3.5260237  0.008377834    -4.640733    1.1147093      8192000 
  672000   0.74372144   -4.6407746   -4.6407746   -3.5251927 0.0078588557   -4.6407746    1.1155819      8192000 
  673000   0.74360629    -4.639649    -4.639649   -3.5242399 0.0083586187    -4.639649    1.1154092      8192000 
  674000   0.74391103    -4.639373    -4.639373   -3.5235068 0.0089368711    -4.639373    1.1158663      8192000 
  675000   0.74436582   -4.6391934   -4.6391934    -3.522645 0.0097761492   -4.6391934    1.1165484      8192000 
  676000   0.74472004   -4.6392866   -4.6392866   -3.5222069  0.009620647   -4.6392866    1.1170798      8192000 
  677000   0.74464384   -4.6382624   -4.6382624   -3.5212969  0.010447433   -4.6382624    1.1169655      8192000 
  678000   0.74452555   -4.6375598   -4.6375598   -3.5207718  0.010708177   -4.6375598     1.116788      8192000 
  679000   0.74453996   -4.6369802   -4.6369802   -3.5201705 0.0071204883   -4.6369802    1.1168097      8192000 
  680000   0.74464413   -4.6363126   -4.6363126   -3.5193466 0.0095923603   -4.6363126    1.1169659      8192000 
  681000   0.74479661   -4.6359343   -4.6359343   -3.5187397 0.0072128174   -4.6359343    1.1171946      8192000 
  682000   0.74455926   -4.6352827   -4.6352827   -3.5184441 0.0087737041   -4.6352827    1.1168386      8192000 
  683000   0.74510971   -4.6351624   -4.6351624   -3.5174981 0.0071175613   -4.6351624    1.1176643      8192000 
  684000   0.74471406   -4.6339261   -4.6339261   -3.5168553 0.0064872204   -4.6339261    1.1170708      8192000 
  685000   0.74476092   -4.6336677   -4.6336677   -3.5165266 0.0048856261   -4.6336677    1.1171411      8192000 
  686000   0.74514885   -4.6337888   -4.6337888   -3.5160658 0.0060716332   -4.6337888     1.117723      8192000 
  687000   0.74493253   -4.6326245   -4.6326245    -3.515226 0.0075500551   -4.6326245    1.1173985      8192000 
  688000   0.74542572   -4.6326498   -4.6326498   -3.5145115 0.0077445738   -4.6326498    1.1181383      8192000 
  689000   0.74628182   -4.6329939   -4.6329939   -3.5135715 0.0089388829   -4.6329939    1.1194224      8192000 
  690000   0.74619889   -4.6324785   -4.6324785   -3.5131805 0.0085971405   -4.6324785    1.1192981      8192000 
  691000    0.7464278   -4.6321074   -4.6321074    -3.512466 0.0091902454   -4.6321074    1.1196414      8192000 
  692000   0.74602829   -4.6306874   -4.6306874   -3.5116452  0.012187403   -4.6306874    1.1190422      8192000 
  693000   0.74650126   -4.6307714   -4.6307714   -3.5110198  0.010345116   -4.6307714    1.1197516      8192000 
  694000   0.74659024    -4.630491    -4.630491    -3.510606  0.010205081    -4.630491    1.1198851      8192000 
  695000   0.74626372   -4.6294092   -4.6294092   -3.5100139    0.0111675   -4.6294092    1.1193953      8192000 
  696000   0.74705044   -4.6299156   -4.6299156   -3.5093403 0.0085232361   -4.6299156    1.1205754      8192000 
  697000   0.74695019   -4.6285211   -4.6285211   -3.5080961 0.0086415798   -4.6285211     1.120425      8192000 
  698000   0.74673678   -4.6274237   -4.6274237   -3.5073189 0.0089090625   -4.6274237    1.1201049      8192000 
  699000   0.74636589   -4.6265113   -4.6265113   -3.5069628 0.0099979493   -4.6265113    1.1195486      8192000 
  700000   0.74713108   -4.6269889   -4.6269889   -3.5062925 0.0079155522   -4.6269889    1.1206963      8192000 
  701000   0.74692967   -4.6255571   -4.6255571   -3.5051629 0.0086896804   -4.6255571    1.1203942      8192000 
  702000   0.74758489   -4.6258955   -4.6258955   -3.5045185 0.0067261199   -4.6258955    1.1213771      8192000 
  703000   0.74680961   -4.6241733   -4.6241733   -3.5039591 0.0078844328   -4.6241733    1.1202141      8192000 
  704000   0.74716423   -4.6237224   -4.6237224   -3.5029764 0.0067870814   -4.6237224    1.1207461      8192000 
  705000   0.74697922   -4.6228763   -4.6228763   -3.5024078 0.0080120833   -4.6228763    1.1204686      8192000 
  706000   0.74776805   -4.6233022   -4.6233022   -3.5016504 0.0065448939   -4.6233022    1.1216518      8192000 
  707000   0.74775829   -4.6228216   -4.6228216   -3.5011844 0.0060828281   -4.6228216    1.1216372      8192000 
  708000   0.74789654   -4.6224496   -4.6224496   -3.5006051  0.006858845   -4.6224496    1.1218445      8192000 
  709000   0.74813515   -4.6214155   -4.6214155    -3.499213 0.0087060241   -4.6214155    1.1222024      8192000 
  710000   0.74829362   -4.6212678   -4.6212678   -3.4988276  0.010620284   -4.6212678    1.1224401      8192000 
  711000   0.74867949   -4.6214554   -4.6214554   -3.4984365 0.0098624707   -4.6214554    1.1230189      8192000 
  712000    0.7488895   -4.6210828   -4.6210828   -3.4977488 0.0088152455   -4.6210828     1.123334      8192000 
  713000   0.74893951   -4.6202937   -4.6202937   -3.4968848  0.010706243   -4.6202937     1.123409      8192000 
  714000   0.74883415   -4.6197381   -4.6197381   -3.4964871  0.010388282   -4.6197381     1.123251      8192000 
  715000   0.74931289   -4.6202408   -4.6202408   -3.4962717 0.0092733424   -4.6202408     1.123969      8192000 
  716000   0.74926129   -4.6191958   -4.6191958   -3.4953041  0.010784173   -4.6191958    1.1238917      8192000 
  717000   0.74967361   -4.6187907   -4.6187907   -3.4942805 0.0095330483   -4.6187907    1.1245101      8192000 
  718000   0.74969324   -4.6178652   -4.6178652   -3.4933256  0.010462432   -4.6178652    1.1245396      8192000 
  719000   0.74974551   -4.6174234   -4.6174234   -3.4928055  0.009004999   -4.6174234     1.124618      8192000 
  720000   0.74983822   -4.6169461   -4.6169461    -3.492189 0.0076021536   -4.6169461     1.124757      8192000 
  721000   0.74936729   -4.6154689   -4.6154689   -3.4914183 0.0085796697   -4.6154689    1.1240507      8192000 
  722000   0.74963974   -4.6147849   -4.6147849   -3.4903256 0.0080752677   -4.6147849    1.1244593      8192000 
  723000     0.749575   -4.6140316   -4.6140316   -3.4896694 0.0079513023   -4.6140316    1.1243622      8192000 
  724000   0.74990515   -4.6137133   -4.6137133   -3.4888558 0.0071719459   -4.6137133    1.1248574      8192000 
  725000   0.75008069   -4.6130269   -4.6130269   -3.4879062 0.0070755617   -4.6130269    1.1251208      8192000 
  726000   0.75011978   -4.6124987   -4.6124987   -3.4873193  0.007528266   -4.6124987    1.1251794      8192000 
  727000   0.75013481   -4.6113955   -4.6113955   -3.4861936 0.0068846756   -4.6113955    1.1252019      8192000 
  728000   0.75007512   -4.6112494   -4.6112494    -3.486137 0.0069553366   -4.6112494    1.1251124      8192000 
  729000   0.75030665   -4.6113399   -4.6113399   -3.4858802 0.0061338376   -4.6113399    1.1254597      8192000 
  730000   0.75041265   -4.6105991   -4.6105991   -3.4849804 0.0076539263   -4.6105991    1.1256187      8192000 
  731000   0.75088949   -4.6105337   -4.6105337   -3.4841997 0.0074881297   -4.6105337    1.1263339      8192000 
  732000   0.75091048   -4.6101992   -4.6101992   -3.4838338 0.0074895836   -4.6101992    1.1263654      8192000 
  733000   0.75169945   -4.6103421   -4.6103421   -3.4827933 0.0081283523   -4.6103421    1.1275489      8192000 
  734000   0.75190332   -4.6100802   -4.6100802   -3.4822255 0.0098229067   -4.6100802    1.1278547      8192000 
  735000   0.75190623   -4.6095003   -4.6095003   -3.4816412  0.011259703   -4.6095003    1.1278591      8192000 
  736000   0.75209617   -4.6088345   -4.6088345   -3.4806905  0.011561595   -4.6088345     1.128144      8192000 
  737000   0.75230616   -4.6084723   -4.6084723   -3.4800133  0.011753913   -4.6084723     1.128459      8192000 
  738000   0.75242723   -4.6081862   -4.6081862   -3.4795456  0.010817409   -4.6081862    1.1286406      8192000 
  739000   0.75242585    -4.607318    -4.607318   -3.4786795  0.010572776    -4.607318    1.1286385      8192000 
  740000   0.75256543   -4.6062454   -4.6062454   -3.4773975   0.01017265   -4.6062454    1.1288479      8192000 
  741000   0.75229435   -4.6054441   -4.6054441   -3.4770029 0.0097651937   -4.6054441    1.1284412      8192000 
  742000   0.75224989   -4.6047166   -4.6047166    -3.476342 0.0074360994   -4.6047166    1.1283746      8192000 
  743000   0.75205929   -4.6036793   -4.6036793   -3.4755907 0.0092548853   -4.6036793    1.1280887      8192000 
  744000   0.75218096    -4.603489    -4.603489   -3.4752179 0.0061695474    -4.603489    1.1282712      8192000 
  745000   0.75161593   -4.6016892   -4.6016892   -3.4742656  0.006482494   -4.6016892    1.1274236      8192000 
  746000   0.75225286   -4.6021188   -4.6021188   -3.4737398 0.0037324222   -4.6021188     1.128379      8192000 
  747000   0.75252012   -4.6016959   -4.6016959    -3.472916 0.0032227494   -4.6016959    1.1287799      8192000 
  748000   0.75245447   -4.6006901   -4.6006901   -3.4720087  0.007267431   -4.6006901    1.1286814      8192000 
  749000   0.75306939   -4.6003955   -4.6003955   -3.4707917 0.0086853603   -4.6003955    1.1296038      8192000 
  750000   0.75391072   -4.6008779   -4.6008779   -3.4700121 0.0076734718   -4.6008779    1.1308658      8192000 
  751000   0.75367364   -4.5999349   -4.5999349   -3.4694247  0.011487177   -4.5999349    1.1305102      8192000 
  752000   0.75413325   -4.5999145   -4.5999145   -3.4687149 0.0096229832   -4.5999145    1.1311996      8192000 
  753000   0.75408654   -4.5994218   -4.5994218   -3.4682923  0.011024096   -4.5994218    1.1311295      8192000 
  754000   0.75438741   -4.5991958   -4.5991958    -3.467615 0.0091836982   -4.5991958    1.1315808      8192000 
  755000   0.75397465    -4.598272    -4.598272   -3.4673103  0.011005625    -4.598272    1.1309617      8192000 
  756000   0.75462943   -4.5982532   -4.5982532   -3.4663093 0.0089032389   -4.5982532    1.1319439      8192000 
  757000   0.75466365    -4.597158    -4.597158   -3.4651628  0.010616843    -4.597158    1.1319952      8192000 
  758000   0.75512691   -4.5971951   -4.5971951    -3.464505 0.0093300209   -4.5971951    1.1326901      8192000 
  759000   0.75461868   -4.5955675   -4.5955675   -3.4636398  0.011017481   -4.5955675    1.1319277      8192000 
  760000   0.75463233    -4.595252    -4.595252   -3.4633038  0.011002133    -4.595252    1.1319482      8192000 
  761000   0.75480254   -4.5944688   -4.5944688   -3.4622653 0.0062092822   -4.5944688    1.1322035      8192000 
  762000   0.75516698   -4.5938252   -4.5938252    -3.461075 0.0061701369   -4.5938252    1.1327502      8192000 
  763000   0.75453396    -4.592281    -4.592281   -3.4604803 0.0081342767    -4.592281    1.1318007      8192000 
  764000   0.75518889   -4.5925816   -4.5925816   -3.4597986 0.0057531062   -4.5925816    1.1327831      8192000 
  765000   0.75499937   -4.5912784   -4.5912784   -3.4587796 0.0071691687   -4.5912784    1.1324988      8192000 
  766000   0.75551549   -4.5910736   -4.5910736   -3.4578007 0.0068186093   -4.5910736    1.1332729      8192000 
  767000   0.75540579   -4.5903724   -4.5903724    -3.457264 0.0068097847   -4.5903724    1.1331084      8192000 
  768000   0.75542038   -4.5898849   -4.5898849   -3.4567546 0.0059765993   -4.5898849    1.1331303      8192000 
  769000   0.75523098   -4.5889347   -4.5889347   -3.4560885  0.005717696   -4.5889347    1.1328462      8192000 
  770000   0.75575725   -4.5889942   -4.5889942   -3.4553586 0.0051889386   -4.5889942    1.1336356      8192000 
  771000   0.75627195   -4.5886686   -4.5886686   -3.4542609  0.007764195   -4.5886686    1.1344076      8192000 
  772000   0.75643493   -4.5883026   -4.5883026   -3.4536505  0.008975105   -4.5883026    1.1346521      8192000 
  773000   0.75673067   -4.5879244   -4.5879244   -3.4528286 0.0096296708   -4.5879244    1.1350957      8192000 
  774000   0.75695755   -4.5877539   -4.5877539   -3.4523179 0.0091421561   -4.5877539     1.135436      8192000 
  775000    0.7571129    -4.587435    -4.587435   -3.4517659 0.0095714478    -4.587435    1.1356691      8192000 
  776000   0.75713952   -4.5868247   -4.5868247   -3.4511157  0.010343829   -4.5868247     1.135709      8192000 
  777000   0.75693784   -4.5858205   -4.5858205    -3.450414 0.0081313312   -4.5858205    1.1354065      8192000 
  778000   0.75765532   -4.5861143   -4.5861143   -3.4496316  0.007815006   -4.5861143    1.1364827      8192000 
  779000    0.7573989   -4.5845951   -4.5845951   -3.4484971 0.0098776339   -4.5845951    1.1360981      8192000 
  780000    0.7577415   -4.5841984   -4.5841984   -3.4475864 0.0098593607   -4.5841984     1.136612      8192000 
  781000   0.75796531   -4.5836983   -4.5836983   -3.4467506 0.0083272921   -4.5836983    1.1369477      8192000 
  782000   0.75781194   -4.5827417   -4.5827417   -3.4460241 0.0090853122   -4.5827417    1.1367176      8192000 
  783000    0.7573067   -4.5817572   -4.5817572   -3.4457975 0.0073355645   -4.5817572    1.1359598      8192000 
  784000   0.75789981    -4.581714    -4.581714   -3.4448646 0.0058001011    -4.581714    1.1368494      8192000 
  785000    0.7579405   -4.5810288   -4.5810288   -3.4441183 0.0052809811   -4.5810288    1.1369105      8192000 
  786000   0.75797934   -4.5800144   -4.5800144   -3.4430457 0.0070116704   -4.5800144    1.1369687      8192000 
  787000   0.75803774   -4.5795465   -4.5795465   -3.4424902 0.0073658978   -4.5795465    1.1370563      8192000 
  788000    0.7588875   -4.5792462   -4.5792462   -3.4409153 0.0068277395   -4.5792462     1.138331      8192000 
  789000     0.758708   -4.5784596   -4.5784596   -3.4403979 0.0091800017   -4.5784596    1.1380617      8192000 
  790000   0.75908576   -4.5784656   -4.5784656   -3.4398372 0.0066863059   -4.5784656    1.1386284      8192000 
  791000   0.75878809   -4.5771738   -4.5771738   -3.4389919 0.0080296869   -4.5771738    1.1381818      8192000 
  792000   0.75877639   -4.5767611   -4.5767611   -3.4385968 0.0094732751   -4.5767611    1.1381643      8192000 
  793000   0.75897905   -4.5761645   -4.5761645   -3.4376962 0.0095890901   -4.5761645    1.1384683      8192000 
  794000   0.75892654   -4.5758218   -4.5758218   -3.4374323 0.0083042075   -4.5758218    1.1383895      8192000 
  795000    0.7591422   -4.5754774   -4.5754774   -3.4367644 0.0083785789   -4.5754774     1.138713      8192000 
  796000   0.75966968   -4.5753455   -4.5753455   -3.4358413 0.0073725016   -4.5753455    1.1395042      8192000 
  797000   0.75998257   -4.5748926   -4.5748926    -3.434919 0.0064734913   -4.5748926    1.1399736      8192000 
  798000   0.75986982   -4.5739329   -4.5739329   -3.4341284 0.0079814178   -4.5739329    1.1398044      8192000 
  799000   0.75986757   -4.5730847   -4.5730847   -3.4332836  0.010011362   -4.5730847    1.1398011      8192000 
  800000   0.76005534   -4.5724908   -4.5724908   -3.4324081 0.0097303908   -4.5724908    1.1400827      8192000 
  801000    0.7606121   -4.5725341   -4.5725341   -3.4316163 0.0088422016   -4.5725341    1.1409179      8192000 
  802000   0.76065752   -4.5718384   -4.5718384   -3.4308524 0.0089140011   -4.5718384     1.140986      8192000 
  803000   0.76038603   -4.5708206   -4.5708206   -3.4302418 0.0085926168   -4.5708206    1.1405788      8192000 
  804000   0.76048871    -4.570227    -4.570227   -3.4294942 0.0059474732    -4.570227    1.1407328      8192000 
  805000   0.76077308   -4.5697949   -4.5697949   -3.4286356 0.0057294334   -4.5697949    1.1411593      8192000 
  806000   0.76079813   -4.5688036   -4.5688036   -3.4276067 0.0080917514   -4.5688036    1.1411969      8192000 
  807000   0.76078425   -4.5679956   -4.5679956   -3.4268195 0.0098648618   -4.5679956    1.1411761      8192000 
  808000    0.7613026   -4.5677608   -4.5677608   -3.4258072 0.0084146368   -4.5677608    1.1419536      8192000 
  809000   0.76134248   -4.5670091   -4.5670091   -3.4249956 0.0074743727   -4.5670091    1.1420134      8192000 
  810000   0.76119617   -4.5661166   -4.5661166   -3.4243227 0.0082753518   -4.5661166     1.141794      8192000 
  811000   0.76170176   -4.5657564   -4.5657564   -3.4232041 0.0078689409   -4.5657564    1.1425524      8192000 
  812000   0.76207357   -4.5658385   -4.5658385   -3.4227284 0.0052182985   -4.5658385    1.1431101      8192000 
  813000   0.76214816   -4.5648119   -4.5648119     -3.42159 0.0066364876   -4.5648119     1.143222      8192000 
  814000   0.76211296   -4.5636966   -4.5636966   -3.4205275  0.008518898   -4.5636966    1.1431692      8192000 
  815000   0.76208263   -4.5630608   -4.5630608   -3.4199371 0.0088928697   -4.5630608    1.1431237      8192000 
  816000   0.76270477    -4.563153    -4.563153   -3.4190961 0.0069300594    -4.563153    1.1440569      8192000 
  817000   0.76265412   -4.5620715   -4.5620715   -3.4180906 0.0063949641   -4.5620715    1.1439809      8192000 
  818000   0.76249951   -4.5612087   -4.5612087   -3.4174597 0.0072878615   -4.5612087     1.143749      8192000 
  819000   0.76257951   -4.5607199   -4.5607199   -3.4168509 0.0080436141   -4.5607199     1.143869      8192000 
  820000   0.76288094    -4.560177    -4.560177   -3.4158559 0.0076930513    -4.560177    1.1443211      8192000 
  821000   0.76316884   -4.5600115   -4.5600115   -3.4152585  0.009036869   -4.5600115     1.144753      8192000 
  822000   0.76289107   -4.5587764   -4.5587764   -3.4144401 0.0063829378   -4.5587764    1.1443363      8192000 
  823000   0.76275942   -4.5578653   -4.5578653   -3.4137265 0.0083381111   -4.5578653    1.1441388      8192000 
  824000   0.76333498   -4.5573916   -4.5573916   -3.4123895 0.0081111974   -4.5573916    1.1450022      8192000 
  825000   0.76368822    -4.557305    -4.557305   -3.4117729 0.0071188313    -4.557305     1.145532      8192000 
  826000    0.7638257   -4.5572874   -4.5572874   -3.4115491 0.0064952724   -4.5572874    1.1457383      8192000 
  827000   0.76385824   -4.5562451   -4.5562451    -3.410458 0.0097359277   -4.5562451    1.1457871      8192000 
  828000   0.76411304   -4.5557733   -4.5557733   -3.4096041 0.0089280276   -4.5557733    1.1461693      8192000 
  829000   0.76408815   -4.5550385   -4.5550385   -3.4089065 0.0070363006   -4.5550385    1.1461319      8192000 
  830000   0.76446645    -4.555075    -4.555075   -3.4083756 0.0074081958    -4.555075    1.1466994      8192000 
  831000   0.76485918   -4.5547983   -4.5547983   -3.4075098 0.0078702119   -4.5547983    1.1472885      8192000 
  832000   0.76465017   -4.5539804   -4.5539804   -3.4070055 0.0074160641   -4.5539804     1.146975      8192000 
  833000   0.76507051   -4.5537074   -4.5537074   -3.4061019  0.009135475   -4.5537074    1.1476055      8192000 
  834000   0.76473153   -4.5522709   -4.5522709   -3.4051739 0.0092882421   -4.5522709     1.147097      8192000 
  835000    0.7649369   -4.5514335   -4.5514335   -3.4040284 0.0077653668   -4.5514335    1.1474051      8192000 
  836000   0.76539866   -4.5511495   -4.5511495   -3.4030518  0.007546865   -4.5511495    1.1480977      8192000 
  837000   0.76546627   -4.5506301   -4.5506301    -3.402431 0.0066165641   -4.5506301    1.1481991      8192000 
  838000   0.76562171   -4.5498109   -4.5498109   -3.4013786  0.008079773   -4.5498109    1.1484323      8192000 
  839000   0.76549361   -4.5492092   -4.5492092   -3.4009691 0.0070091463   -4.5492092    1.1482401      8192000 
  840000   0.76510721   -4.5476331   -4.5476331   -3.3999726   0.00722041   -4.5476331    1.1476605      8192000 
  841000   0.76534502   -4.5470804   -4.5470804   -3.3990632 0.0077687256   -4.5470804    1.1480172      8192000 
  842000   0.76541229   -4.5467011   -4.5467011    -3.398583 0.0071773485   -4.5467011    1.1481181      8192000 
  843000   0.76568369   -4.5466975   -4.5466975   -3.3981722 0.0068271575   -4.5466975    1.1485252      8192000 
  844000   0.76603331   -4.5464319   -4.5464319   -3.3973822  0.007453723   -4.5464319    1.1490497      8192000 
  845000   0.76591289    -4.545099    -4.545099   -3.3962299 0.0078590961    -4.545099    1.1488691      8192000 
  846000   0.76644382   -4.5451422   -4.5451422   -3.3954768 0.0051743902   -4.5451422    1.1496654      8192000 
  847000   0.76659188   -4.5445246   -4.5445246   -3.3946371 0.0074120924   -4.5445246    1.1498875      8192000 
  848000   0.76709476   -4.5442802   -4.5442802   -3.3936383 0.0084622961   -4.5442802    1.1506419      8192000 
  849000   0.76713557   -4.5438318   -4.5438318   -3.3931288 0.0087107377   -4.5438318    1.1507031      8192000 
  850000   0.76737592   -4.5433903   -4.5433903   -3.3923267  0.008523656   -4.5433903    1.1510636      8192000 
  851000    0.7675485    -4.542576    -4.542576   -3.3912536 0.0083594821    -4.542576    1.1513225      8192000 
  852000   0.76744404   -4.5416504   -4.5416504   -3.3904846 0.0078290354   -4.5416504    1.1511658      8192000 
  853000   0.76708039   -4.5404842   -4.5404842   -3.3898639 0.0089021342   -4.5404842    1.1506203      8192000 
  854000    0.7677025   -4.5408436   -4.5408436   -3.3892902 0.0097012969   -4.5408436    1.1515535      8192000 
  855000   0.76771853   -4.5397584   -4.5397584   -3.3881809 0.0096282404   -4.5397584    1.1515775      8192000 
  856000   0.76818332   -4.5396658   -4.5396658   -3.3873911 0.0081644579   -4.5396658    1.1522747      8192000 
  857000   0.76762465   -4.5375712   -4.5375712   -3.3861345 0.0097495214   -4.5375712    1.1514367      8192000 
  858000   0.76807692   -4.5372726   -4.5372726   -3.3851575 0.0082288481   -4.5372726    1.1521151      8192000 
  859000   0.76790447   -4.5365285   -4.5365285   -3.3846721 0.0091573524   -4.5365285    1.1518564      8192000 
  860000   0.76820529   -4.5360869   -4.5360869   -3.3837793  0.008602416   -4.5360869    1.1523077      8192000 
  861000   0.76878203   -4.5360328   -4.5360328   -3.3828601  0.006761545   -4.5360328    1.1531728      8192000 
  862000   0.76854912   -4.5350354   -4.5350354    -3.382212 0.0092415234   -4.5350354    1.1528234      8192000 
  863000   0.76850115    -4.533941    -4.533941   -3.3811895 0.0077860794    -4.533941    1.1527514      8192000 
  864000   0.76853442   -4.5331281   -4.5331281   -3.3803267 0.0062878105   -4.5331281    1.1528013      8192000 
  865000   0.76884698   -4.5326901   -4.5326901   -3.3794199 0.0071379439   -4.5326901    1.1532702      8192000 
  866000   0.76893574    -4.532029    -4.532029   -3.3786257 0.0068645098    -4.532029    1.1534033      8192000 
  867000   0.76909128    -4.531718    -4.531718   -3.3780813 0.0075787806    -4.531718    1.1536366      8192000 
  868000   0.76997987   -4.5317715   -4.5317715    -3.376802  0.007919675   -4.5317715    1.1549695      8192000 
  869000    0.7694655   -4.5303444   -4.5303444   -3.3761465 0.0097133109   -4.5303444     1.154198      8192000 
  870000   0.76997446   -4.5305781   -4.5305781   -3.3756167 0.0078142627   -4.5305781    1.1549614      8192000 
  871000   0.77025058    -4.529838    -4.529838   -3.3744624 0.0082238322    -4.529838    1.1553756      8192000 
  872000   0.77019882   -4.5287114   -4.5287114   -3.3734135 0.0072207153   -4.5287114    1.1552979      8192000 
  873000   0.77040266   -4.5289545   -4.5289545   -3.3733508  0.006643823   -4.5289545    1.1556037      8192000 
  874000   0.77057774   -4.5283379   -4.5283379   -3.3724716 0.0083831469   -4.5283379    1.1558663      8192000 
  875000   0.77062147   -4.5275489   -4.5275489    -3.371617 0.0097554322   -4.5275489    1.1559319      8192000 
  876000   0.77106548   -4.5273056   -4.5273056   -3.3707077 0.0084834462   -4.5273056    1.1565979      8192000 
  877000   0.77137526    -4.526667    -4.526667   -3.3696044  0.007780164    -4.526667    1.1570626      8192000 
  878000   0.77108225   -4.5251539   -4.5251539   -3.3685308 0.0078972339   -4.5251539    1.1566231      8192000 
  879000   0.77167012   -4.5252993   -4.5252993   -3.3677944 0.0064618948   -4.5252993    1.1575049      8192000 
  880000   0.77154805   -4.5240302   -4.5240302   -3.3667084 0.0080736697   -4.5240302    1.1573218      8192000 
  881000   0.77156578   -4.5231249   -4.5231249   -3.3657765 0.0089363304   -4.5231249    1.1573484      8192000 
  882000   0.77223213   -4.5230717   -4.5230717   -3.3647238 0.0084229166   -4.5230717    1.1583479      8192000 
  883000   0.77195378   -4.5219542   -4.5219542   -3.3640238 0.0069269531   -4.5219542    1.1579304      8192000 
  884000   0.77205047   -4.5208499   -4.5208499   -3.3627745 0.0067658801   -4.5208499    1.1580754      8192000 
  885000   0.77191108   -4.5199589   -4.5199589   -3.3620926 0.0073701785   -4.5199589    1.1578663      8192000 
  886000   0.77209405   -4.5195317   -4.5195317   -3.3613909 0.0058462013   -4.5195317    1.1581408      8192000 
  887000   0.77211593   -4.5187457   -4.5187457   -3.3605721 0.0074566456   -4.5187457    1.1581736      8192000 
  888000   0.77236763   -4.5179292   -4.5179292    -3.359378 0.0071273897   -4.5179292    1.1585512      8192000 
  889000   0.77241944    -4.517234    -4.517234   -3.3586051 0.0071184879    -4.517234    1.1586289      8192000 
  890000    0.7723662   -4.5161259   -4.5161259   -3.3575769 0.0069353258   -4.5161259     1.158549      8192000 
  891000   0.77270307   -4.5157629   -4.5157629   -3.3567086 0.0081779367   -4.5157629    1.1590543      8192000 
  892000   0.77277324   -4.5154206   -4.5154206   -3.3562611 0.0086095225   -4.5154206    1.1591596      8192000 
  893000   0.77302208   -4.5152463   -4.5152463   -3.3557135   0.00813887   -4.5152463    1.1595328      8192000 
  894000    0.7733336   -4.5149633   -4.5149633   -3.3549632 0.0066094645   -4.5149633    1.1600001      8192000 
  895000   0.77335423   -4.5141751   -4.5141751    -3.354144 0.0080804898   -4.5141751     1.160031      8192000 
  896000    0.7735754   -4.5132569   -4.5132569    -3.352894  0.008693153   -4.5132569    1.1603628      8192000 
  897000   0.77376551   -4.5130875   -4.5130875   -3.3524395 0.0095342404   -4.5130875     1.160648      8192000 
  898000   0.77413392   -4.5124723   -4.5124723   -3.3512717 0.0093604074   -4.5124723    1.1612006      8192000 
  899000   0.77428245   -4.5120694   -4.5120694    -3.350646  0.010492398   -4.5120694    1.1614234      8192000 
  900000   0.77476721   -4.5118067   -4.5118067   -3.3496562 0.0077056117   -4.5118067    1.1621505      8192000 
  901000   0.77431356   -4.5105495   -4.5105495   -3.3490794 0.0092093813   -4.5105495      1.16147      8192000 
  902000   0.77443307    -4.509677    -4.509677   -3.3480277 0.0085851878    -4.509677    1.1616493      8192000 
  903000   0.77469794   -4.5092533   -4.5092533   -3.3472067  0.008427933   -4.5092533    1.1620466      8192000 
  904000   0.77430124   -4.5076957   -4.5076957   -3.3462441  0.011113734   -4.5076957    1.1614516      8192000 
  905000   0.77534721   -4.5082607   -4.5082607   -3.3452402 0.0077394052   -4.5082607    1.1630205      8192000 
  906000   0.77596081   -4.5080707   -4.5080707   -3.3441298  0.010216507   -4.5080707    1.1639409      8192000 
  907000   0.77531011   -4.5066654   -4.5066654   -3.3437005 0.0086719789   -4.5066654    1.1629649      8192000 
  908000   0.77590559   -4.5065637   -4.5065637   -3.3427056 0.0060345673   -4.5065637    1.1638581      8192000 
  909000   0.77497634   -4.5044781   -4.5044781   -3.3420139 0.0076536309   -4.5044781    1.1624642      8192000 
  910000   0.77513855   -4.5036163   -4.5036163   -3.3409088 0.0072016438   -4.5036163    1.1627075      8192000 
  911000   0.77564783   -4.5032016   -4.5032016   -3.3397302 0.0078346343   -4.5032016    1.1634714      8192000 
  912000   0.77588826    -4.502395    -4.502395   -3.3385629 0.0075203286    -4.502395    1.1638321      8192000 
  913000   0.77607475   -4.5019271   -4.5019271   -3.3378152 0.0079934764   -4.5019271    1.1641118      8192000 
  914000   0.77577892   -4.5005854   -4.5005854   -3.3369173 0.0084032461   -4.5005854    1.1636681      8192000 
  915000   0.77586325    -4.499747    -4.499747   -3.3359524 0.0071665081    -4.499747    1.1637946      8192000 
  916000   0.77612042   -4.4992768   -4.4992768   -3.3350965 0.0057360579   -4.4992768    1.1641803      8192000 
  917000   0.77621224   -4.4986646   -4.4986646   -3.3343465 0.0056326646   -4.4986646    1.1643181      8192000 
  918000   0.77633725   -4.4984008   -4.4984008   -3.3338952  0.007428068   -4.4984008    1.1645056      8192000 
  919000   0.77683931   -4.4978983   -4.4978983   -3.3326397 0.0070146114   -4.4978983    1.1652587      8192000 
  920000    0.7771568   -4.4974812   -4.4974812   -3.3317463 0.0074493978   -4.4974812    1.1657349      8192000 
  921000   0.77715053   -4.4967023   -4.4967023   -3.3309768 0.0071132986   -4.4967023    1.1657255      8192000 
  922000   0.77760954   -4.4962111   -4.4962111   -3.3297971 0.0069457203   -4.4962111     1.166414      8192000 
  923000   0.77786573   -4.4956755   -4.4956755   -3.3288772 0.0081813934   -4.4956755    1.1667983      8192000 
  924000   0.77791792   -4.4949932   -4.4949932   -3.3281166 0.0088785317   -4.4949932    1.1668766      8192000 
  925000   0.77817133   -4.4947064   -4.4947064   -3.3274497 0.0089413429   -4.4947064    1.1672567      8192000 
  926000   0.77793466   -4.4936793   -4.4936793   -3.3267776  0.010386909   -4.4936793    1.1669017      8192000 
  927000   0.77816756   -4.4933087   -4.4933087   -3.3260576 0.0090926393   -4.4933087     1.167251      8192000 
  928000   0.77814289   -4.4925188   -4.4925188   -3.3253048 0.0082270656   -4.4925188     1.167214      8192000 
  929000   0.77859943   -4.4923326   -4.4923326   -3.3244338 0.0086537532   -4.4923326    1.1678989      8192000 
  930000   0.77848093   -4.4912636   -4.4912636   -3.3235425 0.0082517089   -4.4912636    1.1677211      8192000 
  931000    0.7786748   -4.4910837   -4.4910837   -3.3230718 0.0085441299   -4.4910837    1.1680119      8192000 
  932000   0.77889808   -4.4904527   -4.4904527   -3.3221059 0.0092274243   -4.4904527    1.1683468      8192000 
  933000   0.77886664   -4.4893959   -4.4893959   -3.3210963  0.008890766   -4.4893959    1.1682997      8192000 
  934000   0.77921668   -4.4888886   -4.4888886   -3.3200639 0.0094911444   -4.4888886    1.1688247      8192000 
  935000    0.7794546   -4.4883944   -4.4883944   -3.3192128  0.007516275   -4.4883944    1.1691816      8192000 
  936000   0.77979064    -4.487758    -4.487758   -3.3180723 0.0077573018    -4.487758    1.1696857      8192000 
  937000   0.77966208   -4.4865441   -4.4865441   -3.3170513 0.0071091629   -4.4865441    1.1694928      8192000 
  938000   0.77975555   -4.4858169   -4.4858169   -3.3161839 0.0085647759   -4.4858169     1.169633      8192000 
  939000   0.77998122   -4.4850468   -4.4850468   -3.3150752 0.0097652708   -4.4850468    1.1699715      8192000 
  940000   0.78010861   -4.4842681   -4.4842681   -3.3141055 0.0092272652   -4.4842681    1.1701626      8192000 
  941000   0.78009187    -4.483222    -4.483222   -3.3130845 0.0073077833    -4.483222    1.1701375      8192000 
  942000   0.78020958   -4.4826541   -4.4826541     -3.31234 0.0059259399   -4.4826541    1.1703141      8192000 
  943000   0.78026315   -4.4817859   -4.4817859   -3.3113915 0.0065129973   -4.4817859    1.1703944      8192000 
  944000   0.78051894   -4.4813865   -4.4813865   -3.3106084 0.0073857864   -4.4813865    1.1707781      8192000 
  945000   0.78070397   -4.4805971   -4.4805971   -3.3095414 0.0061076821   -4.4805971    1.1710557      8192000 
  946000   0.78114302   -4.4801346   -4.4801346   -3.3084203 0.0072799727   -4.4801346    1.1717142      8192000 
  947000   0.78132587   -4.4792599   -4.4792599   -3.3072714 0.0087000459   -4.4792599    1.1719885      8192000 
  948000   0.78106162   -4.4778251   -4.4778251    -3.306233 0.0096225244   -4.4778251    1.1715921      8192000 
  949000   0.78145579   -4.4774838   -4.4774838   -3.3053004 0.0081209204   -4.4774838    1.1721834      8192000 
  950000   0.78178674   -4.4770991   -4.4770991   -3.3044192 0.0079190048   -4.4770991    1.1726798      8192000 
  951000   0.78173458    -4.476111    -4.476111   -3.3035094 0.0085629901    -4.476111    1.1726016      8192000 
  952000   0.78185376   -4.4755785   -4.4755785   -3.3027982 0.0050575025   -4.4755785    1.1727803      8192000 
  953000   0.78147666   -4.4740064   -4.4740064   -3.3017917 0.0074497014   -4.4740064    1.1722147      8192000 
  954000    0.7818924   -4.4739705   -4.4739705   -3.3011322 0.0079640082   -4.4739705    1.1728383      8192000 
  955000   0.78220851   -4.4736166   -4.4736166   -3.3003041 0.0063102213   -4.4736166    1.1733125      8192000 
  956000    0.7827488   -4.4731548   -4.4731548   -3.2990319 0.0075615319   -4.4731548    1.1741229      8192000 
  957000    0.7824562    -4.471874    -4.471874   -3.2981899 0.0088424135    -4.471874     1.173684      8192000 
  958000    0.7825146    -4.471411    -4.471411   -3.2976393 0.0089643756    -4.471411    1.1737716      8192000 
  959000     0.782938    -4.471106    -4.471106   -3.2966993 0.0078920895    -4.471106    1.1744067      8192000 
  960000   0.78315654   -4.4704755   -4.4704755    -3.295741 0.0096136632   -4.4704755    1.1747345      8192000 
  961000   0.78286948   -4.4695314   -4.4695314   -3.2952274 0.0078687454   -4.4695314    1.1743039      8192000 
  962000   0.78338488   -4.4690068   -4.4690068   -3.2939298 0.0090216808   -4.4690068     1.175077      8192000 
  963000    0.7836505   -4.4689007   -4.4689007   -3.2934253 0.0086994234   -4.4689007    1.1754755      8192000 
  964000   0.78367256    -4.467926    -4.467926   -3.2924175  0.010159197    -4.467926    1.1755086      8192000 
  965000   0.78365651    -4.466811    -4.466811   -3.2913265 0.0093625707    -4.466811    1.1754845      8192000 
  966000   0.78401955   -4.4662132   -4.4662132   -3.2901842 0.0072783213   -4.4662132     1.176029      8192000 
  967000   0.78411271   -4.4661582   -4.4661582   -3.2899894 0.0057349274   -4.4661582    1.1761688      8192000 
  968000   0.78390569   -4.4652691   -4.4652691   -3.2894109 0.0063598788   -4.4652691    1.1758582      8192000 
  969000   0.78392175   -4.4644443   -4.4644443    -3.288562 0.0074565896   -4.4644443    1.1758823      8192000 
  970000   0.78426591   -4.4639163   -4.4639163   -3.2875177 0.0060812076   -4.4639163    1.1763986      8192000 
  971000   0.78413386   -4.4626134   -4.4626134   -3.2864129 0.0073146224   -4.4626134    1.1762005      8192000 
  972000   0.78433284   -4.4617056   -4.4617056   -3.2852066 0.0091554261   -4.4617056     1.176499      8192000 
  973000   0.78477278   -4.4615118   -4.4615118   -3.2843529 0.0090367063   -4.4615118    1.1771589      8192000 
  974000   0.78508739    -4.461462    -4.461462   -3.2838312  0.010241434    -4.461462    1.1776308      8192000 
  975000   0.78563428   -4.4608457   -4.4608457   -3.2823946 0.0096085408   -4.4608457    1.1784511      8192000 
  976000   0.78558333   -4.4599738   -4.4599738   -3.2815991  0.009367911   -4.4599738    1.1783747      8192000 
  977000   0.78608259   -4.4597829   -4.4597829   -3.2806593 0.0064391552   -4.4597829    1.1791236      8192000 
  978000   0.78601186   -4.4590977   -4.4590977   -3.2800802 0.0082576591   -4.4590977    1.1790175      8192000 
  979000   0.78603139   -4.4581438   -4.4581438    -3.279097 0.0077880672   -4.4581438    1.1790468      8192000 
  980000   0.78606238   -4.4571776   -4.4571776   -3.2780844 0.0087804828   -4.4571776    1.1790933      8192000 
  981000   0.78618814   -4.4562359   -4.4562359    -3.276954 0.0080944094   -4.4562359    1.1792819      8192000 
  982000   0.78662079   -4.4559191   -4.4559191   -3.2759882 0.0077335022   -4.4559191    1.1799309      8192000 
  983000   0.78682436   -4.4547186   -4.4547186   -3.2744824 0.0082385381   -4.4547186    1.1802362      8192000 
  984000   0.78664731   -4.4538537   -4.4538537    -3.273883 0.0082636345   -4.4538537    1.1799707      8192000 
  985000   0.78748952   -4.4539788   -4.4539788   -3.2727448 0.0051762952   -4.4539788     1.181234      8192000 
  986000   0.78734112   -4.4524001   -4.4524001   -3.2713887 0.0078812309   -4.4524001    1.1810114      8192000 
  987000   0.78732423   -4.4513231   -4.4513231    -3.270337 0.0067337991   -4.4513231    1.1809861      8192000 
  988000   0.78738498   -4.4507011   -4.4507011   -3.2696239 0.0071990662   -4.4507011    1.1810772      8192000 
  989000   0.78714553     -4.44926     -4.44926    -3.268542 0.0074904149     -4.44926     1.180718      8192000 
  990000   0.78743275   -4.4485799   -4.4485799   -3.2674311 0.0063329152   -4.4485799    1.1811488      8192000 
  991000   0.78754687   -4.4477754   -4.4477754   -3.2664554 0.0059575163   -4.4477754      1.18132      8192000 
  992000   0.78755231   -4.4468981   -4.4468981   -3.2655699 0.0069687765   -4.4468981    1.1813282      8192000 
  993000   0.78792309   -4.4464191   -4.4464191   -3.2645348 0.0064047335   -4.4464191    1.1818843      8192000 
  994000   0.78810706   -4.4457795   -4.4457795   -3.2636192 0.0088457703   -4.4457795    1.1821603      8192000 
  995000    0.7884397   -4.4451374   -4.4451374   -3.2624782 0.0058292341   -4.4451374    1.1826592      8192000 
  996000   0.78833388   -4.4444838   -4.4444838   -3.2619832 0.0060278997   -4.4444838    1.1825005      8192000 
  997000   0.78863209   -4.4438426   -4.4438426   -3.2608948 0.0058724911   -4.4438426    1.1829478      8192000 
  998000    0.7885192    -4.443035    -4.443035   -3.2602565 0.0059801752    -4.443035    1.1827785      8192000 
  999000   0.78840424   -4.4415551   -4.4415551    -3.258949  0.008140153   -4.4415551    1.1826061      8192000 
 1000000    0.7890524    -4.441548    -4.441548   -3.2579697 0.0078589331    -4.441548    1.1835783      8192000 
Loop time of 23566.6 on 144 procs for 1000000 steps with 3993600 atoms

Performance: 36662.032 tau/day, 42.433 timesteps/s
99.5% CPU use with 144 MPI tasks x 1 OpenMP threads

MPI task timing breakdown:
Section |  min time  |  avg time  |  max time  |%varavg|  %CPU | %total
-----------------------------------------------------------------------
Pair    | 9530.4     | 11363      | 12471      | 595.6 |  99.5 | 48.22
Bond    | 0.82742    | 0.93864    | 1.0567     |   4.1 | 100.0 |  0.00
Neigh   | 4032.9     | 4709.7     | 5206.3     | 340.3 |  99.6 | 19.98
Comm    | 4678.6     | 6156.7     | 8638.2     |1195.2 |  99.3 | 26.12
Output  | 54.589     | 54.989     | 54.995     |   0.5 |  98.1 |  0.23
Modify  | 680.61     | 853.51     | 1697.5     |1007.1 |  98.9 |  3.62
Other   |            | 427.4      |            |       |       |  1.81

Nlocal:        27733.3 ave       28949 max       27102 min
Histogram: 8 28 47 36 3 2 1 2 1 16
Nghost:        16588.0 ave       18249 max       12563 min
Histogram: 16 16 0 0 0 0 0 16 39 57
Neighs:    1.00080e+06 ave 1.09854e+06 max      898114 min
Histogram: 24 5 6 13 11 16 28 25 0 16

Total # of neighbors = 1.4411485e+08
Ave neighs/atom = 36.086450
Ave special neighs/atom = 0.0000000
Neighbor list builds = 100000
Dangerous builds = 99000
write_restart 	restart.01
System init for write_restart ...
write_data	data.lj
System init for write_data ...
WARNING: Not all mixed pair coeffs generated from mixing. Use write_data with 'pair ij' option to store all pair coeffs. (src/write_data.cpp:312)
Total wall time: 6:32:55
