LAMMPS (24 Dec 2020)
OMP_NUM_THREADS environment is not set. Defaulting to 1 thread. (src/comm.cpp:94)
  using 1 OpenMP thread(s) per MPI task
#Read the equilibrated lj fluid and add nanocubes

units           lj
atom_style      full
atom_modify     map array first cubes
dimension       3
boundary        p p f
pair_style      lj/cut/opt 2.5

variable        sigma           equal 1.0
variable        epsilon         equal 1.0
read_restart	restart.dat.3000000
Reading restart file ...
  restart file = 24 Dec 2020, LAMMPS = 24 Dec 2020
WARNING: Restart file used different # of processors: 48 vs. 288 (src/read_restart.cpp:697)
  restoring atom style full from restart
  orthogonal box = (0.0000000 0.0000000 0.0000000) to (80.000000 80.000000 160.00000)
  6 by 4 by 12 MPI processor grid
  restoring pair style lj/cut/opt from restart
  518400 atoms
Finding 1-2 1-3 1-4 neighbors ...
  special bond factors lj:    0        0        0       
  special bond factors coul:  0        0        0       
     0 = max # of 1-2 neighbors
     0 = max # of 1-3 neighbors
     0 = max # of 1-4 neighbors
     1 = max # of special neighbors
  special bonds CPU = 2.344 seconds
  read_restart CPU = 2.710 seconds

group		solvent type 1
518400 atoms in group solvent

read_data	data_150.cubes group cubes add append
Reading data file ...
  orthogonal box = (0.0000000 0.0000000 0.0000000) to (80.000000 80.000000 160.00000)
  6 by 4 by 12 MPI processor grid
  reading atoms ...
  200025 atoms
  reading velocities ...
  200025 velocities
Finding 1-2 1-3 1-4 neighbors ...
  special bond factors lj:    0        0        0       
  special bond factors coul:  0        0        0       
     0 = max # of 1-2 neighbors
     0 = max # of 1-3 neighbors
     0 = max # of 1-4 neighbors
     1 = max # of special neighbors
  special bonds CPU = 0.060 seconds
  read_data CPU = 0.519 seconds

group 		hull  type 2
78050 atoms in group hull
group 		dummy type 3
121975 atoms in group dummy

neighbor      0.4 bin
neigh_modify  exclude molecule/intra cubes


pair_modify   shift yes

pair_coeff    1 1 1.0 1.0 #solvent
pair_coeff    2 2 1.0 1.0 1.12 #np
pair_coeff    3 3 0.0 0.0 0.0 #dummy
pair_coeff    2 3 0.0 0.0 0.0 #np dummy
pair_coeff    1 2 ${eps} ${sig} ${nscut} #np solvent
pair_coeff    1 2 1.0 ${sig} ${nscut} 
pair_coeff    1 2 1.0 1.0 ${nscut} 
pair_coeff    1 2 1.0 1.0 4.0 
pair_coeff    1 3 0.0 0.0 2.5 #dummy solvent

# delete solvent where the cubes are
delete_atoms  overlap 2.0 solvent cubes
System init for delete_atoms ...
Neighbor list info ...
  update every 1 steps, delay 10 steps, check yes
  max neighbors/atom: 2000, page size: 100000
  master list distance cutoff = 4.4
  ghost atom cutoff = 4.4
  binsize = 2.2, bins = 37 37 73
  2 neighbor lists, perpetual/occasional/extra = 1 1 0
  (1) command delete_atoms, occasional
      attributes: full, newton on
      pair build: full/bin
      stencil: full/bin/3d
      bin: standard
  (2) pair lj/cut/opt, perpetual
      attributes: half, newton on
      pair build: half/bin/newton
      stencil: half/bin/3d/newton
      bin: standard
WARNING: Delete_atoms cutoff > minimum neighbor cutoff (src/delete_atoms.cpp:307)
WARNING: Ignoring 'compress yes' for molecular system (src/delete_atoms.cpp:125)
Deleted 198079 atoms, new total = 520346



pair_coeff    1 1 1.0 1.0 #solvent
pair_coeff    2 2 1.0 1.0 1.12 #np
pair_coeff    3 3 0.0 0.0 0.0 #dummy
pair_coeff    2 3 0.0 0.0 0.0 #np dummy
pair_coeff    1 2 ${eps} ${sig} ${nscut} #np solvent
pair_coeff    1 2 1.0 ${sig} ${nscut} 
pair_coeff    1 2 1.0 1.0 ${nscut} 
pair_coeff    1 2 1.0 1.0 4.0 
pair_coeff    1 3 0.0 0.0 0.0 #dummy solvent


comm_modify   mode multi cutoff/multi 1 2.5 cutoff/multi 2 2.5 cutoff/multi 3 6.95

reset_timestep 	0

balance 	1.05 shift z 10 1.05
Balancing ...
Neighbor list info ...
  update every 1 steps, delay 10 steps, check yes
  max neighbors/atom: 2000, page size: 100000
  master list distance cutoff = 4.4
  ghost atom cutoff = 6.95
  binsize = 2.2, bins = 37 37 73
  1 neighbor lists, perpetual/occasional/extra = 1 0 0
  (1) pair lj/cut/opt, perpetual
      attributes: half, newton on
      pair build: half/bin/newton
      stencil: half/bin/3d/newton
      bin: standard
 rebalancing time: 0.003 seconds
  iteration count = 4
  initial/final maximal load/proc = 2181.0000 2317.0000
  initial/final imbalance factor  = 1.2071353 1.2824082
  x cuts: 0.0000000 0.16666667 0.33333333 0.50000000 0.66666667 0.83333333 1.0000000
  y cuts: 0.0000000 0.25000000 0.50000000 0.75000000 1.0000000
  z cuts: 0.0000000 0.078125000 0.16145833 0.25520833 0.33854167 0.41145833 0.49479167 0.56770833 0.64062500 0.71354167 0.78645833 0.85937500 1.0000000

####################### WALLS ###########################

variable       epsilonWall equal 2*${epsilon}
variable       epsilonWall equal 2*1
variable       repulsive   equal   0.7147*${sigma}
variable       repulsive   equal   0.7147*1
variable       full	   equal   3*${sigma}
variable       full	   equal   3*1
region         lowWall block EDGE EDGE EDGE EDGE EDGE 2

fix            topWall all wall/lj93 zhi EDGE 	       ${epsilonWall} ${sigma} ${repulsive} units box
fix            topWall all wall/lj93 zhi EDGE 	       2 ${sigma} ${repulsive} units box
fix            topWall all wall/lj93 zhi EDGE 	       2 1 ${repulsive} units box
fix            topWall all wall/lj93 zhi EDGE 	       2 1 0.7147 units box
fix            lowSol solvent wall/lj93 zlo EDGE                ${epsilonWall} ${sigma} ${full} units box
fix            lowSol solvent wall/lj93 zlo EDGE                2 ${sigma} ${full} units box
fix            lowSol solvent wall/lj93 zlo EDGE                2 1 ${full} units box
fix            lowSol solvent wall/lj93 zlo EDGE                2 1 3 units box
fix 	       lowCub cubes wall/lj93 zlo EDGE                ${epsilonWall} ${sigma} ${repulsive} units box
fix 	       lowCub cubes wall/lj93 zlo EDGE                2 ${sigma} ${repulsive} units box
fix 	       lowCub cubes wall/lj93 zlo EDGE                2 1 ${repulsive} units box
fix 	       lowCub cubes wall/lj93 zlo EDGE                2 1 0.7147 units box


###################### COMPUTES ##########################

compute        bin1 solvent chunk/atom bin/1d z lower 1.0 units box


######################  FIXES ############################


fix             peclet solvent ave/chunk 10 10 10000 bin1 density/number norm                  none ave one file density.profile

fix              temp solvent ave/chunk 10 10 10000 bin1 temp norm                  none ave one file temp.profile

fix             1 cubes rigid/nve/small molecule
  create bodies CPU = 0.001 seconds
  175 rigid bodies with 200025 atoms
  6.9282032 = max distance from body owner to body atom

fix             2 solvent nve# temp ${temp} ${temp} 10


## Thermostat
region          regthermo block EDGE EDGE EDGE EDGE 0 15
group           thermo dynamic solvent region regthermo every 1000
dynamic group thermo defined
fix             3 thermo langevin ${temp} ${temp} 10 156453
fix             3 thermo langevin 1.0 ${temp} 10 156453
fix             3 thermo langevin 1.0 1.0 10 156453


#### Load balancing

fix             bal all balance 1000 1.05 shift z 10 1.05

############### Diagnostics and computes ###################

compute        	com cubes          rigid/local   1 mol x y z
compute        	quat cubes         rigid/local   1 mol quatw quati quatj quatk

compute 	cc2 cubes 	   chunk/atom 	 molecule
compute 	msd cubes 	   msd/chunk 	 cc2

fix 		msd all ave/time  1 1 10000 c_msd[*] file dump.msd ave one mode vector

dump            1 all custom 500000 dump.lammpstrj id mol type x y z
dump		cubetrj hull custom 500000 cubes.lammpstrj id mol type x y z
dump            com cubes local 10000 dump.*.xyz c_com[*]
dump	        xyz hull xyz 100000 cubes.xyz
dump            quat cubes      local 10000 dump.*.quat c_quat[*]
#dump		mol cubes molfile 10000 mol.xyz xyz


dump            2 all image 10000 image.*.png type type
dump_modify     2 pad 8
dump		image cubes image 10000 image_cubes.*.png type type
dump_modify	image pad 8
dump            3 all movie 5000 movie.avi type type
dump		4 cubes movie 5000 movie_cubes.avi type type


thermo          1000
thermo_style    custom step temp epair evdwl etotal press pe ke atoms

restart         1000000 restart.dat
timestep        0.005
timer           full
New timer settings: style=full  mode=nosync  timeout=off

run 		4000000
Per MPI rank memory allocation (min/avg/max) = 15.95 | 21.54 | 24.07 Mbytes
Step Temp E_pair E_vdwl TotEng Press PotEng KinEng Atoms 
       0   0.99744477   -1.9444568   -1.9444568   -1.0224243  0.043984702   -1.9444568   0.92203249   520346 
    1000    1.0085722    -1.954705    -1.954705   -1.0223863 0.0057623774    -1.954705   0.93231867   520346 
    2000    1.0357403   -1.9828891   -1.9828891   -1.0254564  0.030818429   -1.9828891   0.95743269   520346 
    3000    1.0499718   -2.0002941   -2.0002941   -1.0297059   0.04136311   -2.0002941   0.97058817   520346 
    4000     1.059838   -2.0137874   -2.0137874    -1.034079  0.062680587   -2.0137874   0.97970843   520346 
    5000    1.0647023   -2.0236731   -2.0236731   -1.0394681  0.064152527   -2.0236731   0.98420503   520346 
    6000    1.0664164   -2.0305572   -2.0305572   -1.0447677  0.066721155   -2.0305572   0.98578946   520346 
    7000    1.0677182   -2.0357342   -2.0357342   -1.0487414  0.055725681   -2.0357342   0.98699283   520346 
    8000    1.0668862    -2.039866    -2.039866   -1.0536422  0.063082364    -2.039866   0.98622377   520346 
    9000    1.0674711   -2.0458008   -2.0458008   -1.0590364    0.0632159   -2.0458008   0.98676445   520346 
   10000    1.0675366   -2.0506031   -2.0506031   -1.0637782  0.074685426   -2.0506031   0.98682497   520346 
   11000    1.0657018   -2.0529648   -2.0529648   -1.0678358  0.083283226   -2.0529648   0.98512894   520346 
   12000    1.0700782   -2.0601784   -2.0601784    -1.071004  0.061936271   -2.0601784   0.98917444   520346 
   13000    1.0653523   -2.0595595   -2.0595595   -1.0747537  0.062725073   -2.0595595   0.98480586   520346 
   14000    1.0636331   -2.0617656   -2.0617656    -1.078549  0.080349668   -2.0617656   0.98321659   520346 
   15000    1.0621244   -2.0651087   -2.0651087   -1.0832867  0.067258828   -2.0651087   0.98182201   520346 
   16000    1.0598509    -2.065773    -2.065773   -1.0860526  0.072856733    -2.065773   0.97972041   520346 
   17000    1.0606533    -2.069261    -2.069261   -1.0887988  0.076428535    -2.069261   0.98046216   520346 
   18000    1.0604082   -2.0715033   -2.0715033   -1.0912677  0.061431034   -2.0715033   0.98023556   520346 
   19000    1.0593131    -2.073884    -2.073884   -1.0946608  0.065823369    -2.073884   0.97922323   520346 
   20000    1.0576709   -2.0747405   -2.0747405   -1.0970353  0.059032848   -2.0747405   0.97770522   520346 
   21000    1.0562056   -2.0756146   -2.0756146   -1.0992639  0.059861555   -2.0756146   0.97635065   520346 
   22000    1.0568185   -2.0788262   -2.0788262    -1.101909  0.054541512   -2.0788262   0.97691723   520346 
   23000    1.0569135   -2.0807847   -2.0807847   -1.1037796  0.074994423   -2.0807847   0.97700511   520346 
   24000    1.0550761    -2.081282    -2.081282   -1.1059755  0.069153777    -2.081282   0.97530658   520346 
   25000    1.0550774    -2.083166    -2.083166   -1.1078582  0.048419767    -2.083166   0.97530776   520346 
   26000     1.058234   -2.0886729   -2.0886729   -1.1104472  0.075882347   -2.0886729    0.9782257   520346 
   27000     1.055022   -2.0877387   -2.0877387   -1.1124821  0.069246793   -2.0877387    0.9752566   520346 
   28000    1.0547444   -2.0891402   -2.0891402   -1.1141402  0.070797361   -2.0891402        0.975   520346 
   29000    1.0543966   -2.0907281   -2.0907281   -1.1160497  0.061414188   -2.0907281   0.97467843   520346 
   30000    1.0547852   -2.0923262   -2.0923262   -1.1172885  0.070379242   -2.0923262   0.97503772   520346 
   31000     1.054362    -2.094842    -2.094842   -1.1201955  0.073337941    -2.094842   0.97464651   520346 
   32000    1.0549396   -2.0963721   -2.0963721   -1.1211917  0.069915222   -2.0963721    0.9751804   520346 
   33000    1.0526176   -2.0968203   -2.0968203   -1.1237863  0.065170882   -2.0968203   0.97303396   520346 
   34000    1.0548064   -2.1002042   -2.1002042    -1.125147  0.076204478   -2.1002042   0.97505724   520346 
   35000    1.0531766   -2.0997473   -2.0997473   -1.1261965  0.061840331   -2.0997473   0.97355072   520346 
   36000    1.0544783   -2.1014571   -2.1014571   -1.1267031  0.066907966   -2.1014571   0.97475401   520346 
   37000     1.054226   -2.1023956   -2.1023956   -1.1278748    0.0675788   -2.1023956   0.97452079   520346 
   38000    1.0547871   -2.1036934   -2.1036934    -1.128654  0.065242339   -2.1036934   0.97503945   520346 
   39000    1.0530428   -2.1035534   -2.1035534   -1.1301264  0.073311334   -2.1035534   0.97342701   520346 
   40000     1.052959    -2.105122    -2.105122   -1.1317725  0.071681514    -2.105122   0.97334953   520346 
   41000    1.0532596   -2.1058714   -2.1058714    -1.132244  0.078259094   -2.1058714    0.9736274   520346 
   42000    1.0554461   -2.1098009   -2.1098009   -1.1341524  0.084321575   -2.1098009   0.97564858   520346 
   43000    1.0554537   -2.1111287   -2.1111287   -1.1354731  0.075074155   -2.1111287   0.97565559   520346 
   44000    1.0538358   -2.1107645   -2.1107645   -1.1366044  0.071380637   -2.1107645   0.97416006   520346 
   45000    1.0548319   -2.1127516   -2.1127516   -1.1376708  0.068418669   -2.1127516   0.97508083   520346 
   46000    1.0526711   -2.1121121   -2.1121121   -1.1390287  0.076880923   -2.1121121   0.97308344   520346 
   47000    1.0529404   -2.1136629   -2.1136629   -1.1403305  0.066894502   -2.1136629    0.9733324   520346 
   48000    1.0520372     -2.11375     -2.11375   -1.1412525  0.075639073     -2.11375   0.97249747   520346 
   49000    1.0512926   -2.1144332   -2.1144332    -1.142624  0.062003195   -2.1144332   0.97180912   520346 
   50000    1.0524671   -2.1159448   -2.1159448   -1.1430499  0.083798492   -2.1159448   0.97289486   520346 
   51000    1.0525786   -2.1177164   -2.1177164   -1.1447184  0.061423824   -2.1177164   0.97299792   520346 
   52000    1.0531574   -2.1191066   -2.1191066   -1.1455737  0.077007045   -2.1191066   0.97353297   520346 
   53000    1.0517167   -2.1183616   -2.1183616   -1.1461604  0.067085511   -2.1183616   0.97220118   520346 
   54000    1.0500264   -2.1188322   -2.1188322   -1.1481936  0.074098478   -2.1188322   0.97063863   520346 
   55000    1.0523982   -2.1217255   -2.1217255   -1.1488944  0.071137952   -2.1217255   0.97283112   520346 
   56000    1.0513038   -2.1209052   -2.1209052   -1.1490857  0.084883551   -2.1209052   0.97181953   520346 
   57000    1.0498306   -2.1210921   -2.1210921   -1.1506344  0.071881277   -2.1210921   0.97045767   520346 
   58000    1.0499256   -2.1231859   -2.1231859   -1.1526404  0.053170179   -2.1231859    0.9705455   520346 
   59000    1.0487363   -2.1225325   -2.1225325   -1.1530864  0.073335403   -2.1225325   0.96944611   520346 
   60000    1.0514008   -2.1261473   -2.1261473   -1.1542381   0.06460881   -2.1261473   0.97190919   520346 
   61000    1.0523841   -2.1270041   -2.1270041   -1.1541861  0.073175105   -2.1270041   0.97281808   520346 
   62000    1.0494198   -2.1255216   -2.1255216   -1.1554437  0.075920076   -2.1255216    0.9700779   520346 
   63000    1.0480849   -2.1256723   -2.1256723   -1.1568283  0.062418305   -2.1256723     0.968844   520346 
   64000    1.0513337   -2.1292157   -2.1292157   -1.1573686  0.067220147   -2.1292157    0.9718471   520346 
   65000    1.0482806   -2.1281722   -2.1281722   -1.1591474  0.074245467   -2.1281722   0.96902483   520346 
   66000    1.0515905    -2.130715    -2.130715   -1.1586304   0.07310418    -2.130715   0.97208452   520346 
   67000    1.0494154   -2.1301253   -2.1301253   -1.1600514  0.080089046   -2.1301253   0.97007386   520346 
   68000    1.0469875   -2.1292554   -2.1292554   -1.1614259  0.065965317   -2.1292554    0.9678295   520346 
   69000    1.0495328    -2.132758    -2.132758   -1.1625757  0.071434876    -2.132758   0.97018234   520346 
   70000    1.0481847   -2.1325186   -2.1325186   -1.1635824  0.069295914   -2.1325186    0.9689362   520346 
   71000    1.0487078   -2.1339982   -2.1339982   -1.1645785  0.072653364   -2.1339982   0.96941975   520346 
   72000    1.0490462   -2.1346899   -2.1346899   -1.1649573  0.059714594   -2.1346899   0.96973259   520346 
   73000    1.0488343   -2.1353766   -2.1353766   -1.1658399  0.084269271   -2.1353766   0.96953671   520346 
   74000    1.0481138     -2.13608     -2.13608   -1.1672094  0.070098597     -2.13608   0.96887067   520346 
   75000    1.0479477   -2.1366001   -2.1366001    -1.167883  0.074861822   -2.1366001   0.96871709   520346 
   76000    1.0493784   -2.1391198   -2.1391198   -1.1690801  0.073686121   -2.1391198    0.9700397   520346 
   77000    1.0493626   -2.1397009   -2.1397009   -1.1696759  0.068421102   -2.1397009   0.97002503   520346 
   78000    1.0496229   -2.1399953   -2.1399953   -1.1697295  0.079709155   -2.1399953   0.97026571   520346 
   79000     1.049273   -2.1394244   -2.1394244   -1.1694822  0.056920618   -2.1394244    0.9699422   520346 
   80000    1.0471085   -2.1376741   -2.1376741   -1.1697327  0.068795535   -2.1376741   0.96794139   520346 
   81000    1.0473884   -2.1381717   -2.1381717   -1.1699715  0.056467802   -2.1381717   0.96820015   520346 
   82000    1.0456652    -2.137559    -2.137559   -1.1709518  0.077928032    -2.137559   0.96660722   520346 
   83000     1.045639   -2.1376884   -2.1376884   -1.1711054  0.082474983   -2.1376884   0.96658297   520346 
   84000    1.0483782   -2.1402956   -2.1402956   -1.1711805  0.072047814   -2.1402956   0.96911512   520346 
   85000      1.04663   -2.1395668   -2.1395668   -1.1720677  0.068694778   -2.1395668    0.9674991   520346 
   86000    1.0445626   -2.1389968   -2.1389968   -1.1734088  0.066898476   -2.1389968   0.96558798   520346 
   87000    1.0459657   -2.1412997   -2.1412997   -1.1744147  0.073224353   -2.1412997   0.96688498   520346 
   88000    1.0460496   -2.1421436   -2.1421436    -1.175181  0.077092349   -2.1421436   0.96696257   520346 
   89000    1.0448801   -2.1418247   -2.1418247   -1.1759432  0.075658493   -2.1418247   0.96588149   520346 
   90000    1.0477099   -2.1439072   -2.1439072   -1.1754099  0.069153786   -2.1439072   0.96849735   520346 
   91000    1.0457723   -2.1425717   -2.1425717   -1.1758655    0.0683247   -2.1425717   0.96670618   520346 
   92000    1.0452938    -2.143495    -2.143495   -1.1772312  0.073245003    -2.143495   0.96626385   520346 
   93000    1.0460432   -2.1449788   -2.1449788   -1.1780222  0.070516691   -2.1449788   0.96695658   520346 
   94000    1.0465115   -2.1463501   -2.1463501   -1.1789606   0.07382635   -2.1463501   0.96738947   520346 
   95000    1.0453856   -2.1466179   -2.1466179   -1.1802691  0.079499926   -2.1466179   0.96634877   520346 
   96000    1.0469764   -2.1484425   -2.1484425   -1.1806232  0.076147641   -2.1484425   0.96781928   520346 
   97000    1.0434962   -2.1459881   -2.1459881   -1.1813859  0.064348847   -2.1459881   0.96460216   520346 
   98000    1.0449487   -2.1475986   -2.1475986   -1.1816538  0.071259869   -2.1475986   0.96594486   520346 
   99000    1.0451311   -2.1490113   -2.1490113   -1.1828978  0.056956868   -2.1490113   0.96611345   520346 
  100000    1.0416571   -2.1461926   -2.1461926   -1.1832905  0.069002021   -2.1461926   0.96290213   520346 
  101000    1.0445058   -2.1494202   -2.1494202   -1.1838847  0.079715565   -2.1494202   0.96553544   520346 
  102000    1.0445169   -2.1501833   -2.1501833   -1.1846376  0.060208138   -2.1501833   0.96554568   520346 
  103000    1.0440839    -2.150693    -2.150693   -1.1855475  0.071369336    -2.150693   0.96514549   520346 
  104000    1.0423684   -2.1492076   -2.1492076   -1.1856479  0.061012033   -2.1492076    0.9635597   520346 
  105000    1.0444805   -2.1517142   -2.1517142   -1.1862022  0.065139708   -2.1517142   0.96551206   520346 
  106000    1.0433408   -2.1502851   -2.1502851   -1.1858266  0.068988221   -2.1502851    0.9644585   520346 
  107000    1.0441485   -2.1521965   -2.1521965   -1.1869913  0.064469656   -2.1521965   0.96520519   520346 
  108000    1.0432737   -2.1517477   -2.1517477   -1.1873512  0.065867972   -2.1517477   0.96439648   520346 
  109000    1.0422144   -2.1517452   -2.1517452   -1.1883279  0.075736133   -2.1517452   0.96341727   520346 
  110000    1.0431395    -2.152937    -2.152937   -1.1886645  0.059882088    -2.152937   0.96427249   520346 
  111000    1.0448413   -2.1550346   -2.1550346   -1.1891891  0.063185707   -2.1550346   0.96584559   520346 
  112000    1.0425976   -2.1542534   -2.1542534   -1.1904818  0.078305782   -2.1542534   0.96377157   520346 
  113000    1.0425408   -2.1542873   -2.1542873   -1.1905683  0.077830564   -2.1542873   0.96371905   520346 
  114000    1.0404663   -2.1524382   -2.1524382   -1.1906368  0.061128691   -2.1524382   0.96180141   520346 
  115000    1.0415808   -2.1535843   -2.1535843   -1.1907527  0.076628088   -2.1535843   0.96283158   520346 
  116000    1.0424744   -2.1558124   -2.1558124   -1.1921548  0.067002434   -2.1558124   0.96365763   520346 
  117000    1.0412367   -2.1551278   -2.1551278   -1.1926142  0.073169776   -2.1551278   0.96251356   520346 
  118000     1.043203   -2.1565927   -2.1565927   -1.1922616  0.066889042   -2.1565927   0.96433116   520346 
  119000    1.0422294   -2.1578407   -2.1578407   -1.1944095  0.079134927   -2.1578407   0.96343121   520346 
  120000    1.0424297   -2.1582544   -2.1582544   -1.1946381  0.056819826   -2.1582544   0.96361631   520346 
  121000    1.0444036   -2.1603839   -2.1603839   -1.1949429  0.086567137   -2.1603839   0.96544099   520346 
  122000    1.0423272   -2.1597793   -2.1597793   -1.1962578  0.074484072   -2.1597793   0.96352156   520346 
  123000    1.0414537   -2.1584023   -2.1584023   -1.1956882  0.070958117   -2.1584023   0.96271412   520346 
  124000    1.0411268   -2.1590148   -2.1590148    -1.196603  0.055961523   -2.1590148   0.96241188   520346 
  125000    1.0405538   -2.1593975   -2.1593975   -1.1975152  0.070980577   -2.1593975   0.96188228   520346 
  126000    1.0413246   -2.1605211   -2.1605211   -1.1979263   0.06139702   -2.1605211    0.9625948   520346 
  127000    1.0387564   -2.1587171   -2.1587171   -1.1984964  0.070978609   -2.1587171   0.96022071   520346 
  128000    1.0415685   -2.1620233   -2.1620233   -1.1992031  0.069080629   -2.1620233   0.96282022   520346 
  129000    1.0409552   -2.1631061   -2.1631061   -1.2008528  0.073242909   -2.1631061   0.96225327   520346 
  130000    1.0423255   -2.1641106   -2.1641106   -1.2005906  0.071002267   -2.1641106   0.96352004   520346 
  131000    1.0427405   -2.1645391   -2.1645391   -1.2006355  0.063776512   -2.1645391   0.96390359   520346 
  132000    1.0407548   -2.1629353   -2.1629353   -1.2008672  0.066344464   -2.1629353   0.96206808   520346 
  133000    1.0401997   -2.1632413   -2.1632413   -1.2016864  0.075569583   -2.1632413   0.96155489   520346 
  134000    1.0385644   -2.1625449   -2.1625449   -1.2025016  0.065651776   -2.1625449   0.96004324   520346 
  135000    1.0416193   -2.1662658   -2.1662658   -1.2033986  0.064110652   -2.1662658   0.96286718   520346 
  136000    1.0404888    -2.165872    -2.165872   -1.2040499   0.06467686    -2.165872   0.96182216   520346 
  137000    1.0401956   -2.1672175   -2.1672175   -1.2056663  0.076474704   -2.1672175   0.96155116   520346 
  138000    1.0376874   -2.1638602   -2.1638602   -1.2046276  0.063276665   -2.1638602   0.95923261   520346 
  139000    1.0403879   -2.1662354   -2.1662354   -1.2045065  0.064208051   -2.1662354   0.96172891   520346 
  140000    1.0407517   -2.1679583   -2.1679583   -1.2058931  0.070047178   -2.1679583   0.96206517   520346 
  141000    1.0417115    -2.168891    -2.168891   -1.2059386  0.075261393    -2.168891   0.96295246   520346 
  142000    1.0432625   -2.1711926   -2.1711926   -1.2068064  0.066969274   -2.1711926   0.96438618   520346 
  143000    1.0414467   -2.1704904   -2.1704904   -1.2077828  0.073290854   -2.1704904   0.96270763   520346 
  144000     1.039852   -2.1691495   -2.1691495    -1.207916  0.071317661   -2.1691495   0.96123352   520346 
  145000    1.0401465   -2.1692236   -2.1692236   -1.2077178   0.06013319   -2.1692236   0.96150579   520346 
  146000    1.0390011   -2.1693101   -2.1693101   -1.2088631  0.072811899   -2.1693101   0.96044697   520346 
  147000    1.0407016    -2.171448    -2.171448   -1.2094292  0.070815256    -2.171448   0.96201884   520346 
  148000    1.0389667   -2.1707653   -2.1707653   -1.2103501  0.071246586   -2.1707653   0.96041512   520346 
  149000    1.0373946   -2.1688309   -2.1688309    -1.209869  0.075251464   -2.1688309   0.95896188   520346 
  150000    1.0378723   -2.1698159   -2.1698159   -1.2104124  0.066485685   -2.1698159   0.95940351   520346 
  151000    1.0369318   -2.1699304   -2.1699304   -1.2113963  0.063139325   -2.1699304   0.95853409   520346 
  152000    1.0390597   -2.1728875   -2.1728875   -1.2123864  0.064598625   -2.1728875   0.96050107   520346 
  153000    1.0369691   -2.1710777   -2.1710777   -1.2125091  0.072926961   -2.1710777   0.95856858   520346 
  154000    1.0401208   -2.1743579   -2.1743579    -1.212876  0.062622002   -2.1743579   0.96148199   520346 
  155000    1.0374328   -2.1719606   -2.1719606   -1.2129634  0.075585428   -2.1719606   0.95899721   520346 
  156000    1.0379356   -2.1734015   -2.1734015   -1.2139395  0.079812525   -2.1734015   0.95946195   520346 
  157000    1.0376802   -2.1746811   -2.1746811   -1.2154552  0.064060268   -2.1746811   0.95922592   520346 
  158000    1.0383797   -2.1753442   -2.1753442   -1.2154717  0.055640414   -2.1753442   0.95987255   520346 
  159000    1.0390626   -2.1762865   -2.1762865   -1.2157828  0.070615449   -2.1762865   0.96050378   520346 
  160000    1.0385379    -2.176833    -2.176833   -1.2168142  0.065150303    -2.176833   0.96001881   520346 
  161000    1.0372171   -2.1764689   -2.1764689    -1.217671  0.072386201   -2.1764689   0.95879784   520346 
  162000    1.0365174   -2.1764697   -2.1764697   -1.2183187  0.063100181   -2.1764697   0.95815104   520346 
  163000    1.0390442   -2.1781742   -2.1781742   -1.2176875  0.071799283   -2.1781742   0.96048675   520346 
  164000    1.0369255   -2.1769234   -2.1769234   -1.2183951  0.075960574   -2.1769234    0.9585283   520346 
  165000     1.039567   -2.1794449   -2.1794449   -1.2184748  0.070164141   -2.1794449   0.96097007   520346 
  166000    1.0380513   -2.1792088   -2.1792088   -1.2196398   0.07481572   -2.1792088   0.95956897   520346 
  167000    1.0372556   -2.1792977   -2.1792977   -1.2204643  0.068885306   -2.1792977   0.95883344   520346 
  168000    1.0341648   -2.1760538   -2.1760538   -1.2200775  0.057815518   -2.1760538   0.95597629   520346 
  169000    1.0371001   -2.1785247   -2.1785247   -1.2198351  0.074220005   -2.1785247   0.95868966   520346 
  170000    1.0371458   -2.1786358   -2.1786358   -1.2199039  0.070699307   -2.1786358   0.95873192   520346 
  171000    1.0382919   -2.1801315   -2.1801315   -1.2203402  0.072578135   -2.1801315   0.95979134   520346 
  172000    1.0387298   -2.1810859   -2.1810859   -1.2208898  0.059015018   -2.1810859   0.96019613   520346 
  173000    1.0389462   -2.1817803   -2.1817803   -1.2213841  0.066659291   -2.1817803   0.96039622   520346 
  174000    1.0368414    -2.180295    -2.180295   -1.2218445  0.064014121    -2.180295   0.95845056   520346 
  175000    1.0357719   -2.1800669   -2.1800669    -1.222605  0.069193673   -2.1800669   0.95746193   520346 
  176000    1.0367871   -2.1808804   -2.1808804   -1.2224801  0.057999891   -2.1808804   0.95840031   520346 
  177000    1.0356931    -2.179289    -2.179289      -1.2219  0.077070318    -2.179289   0.95738901   520346 
  178000    1.0362953   -2.1812732   -2.1812732   -1.2233274  0.066113499   -2.1812732   0.95794574   520346 
  179000    1.0360087   -2.1817305   -2.1817305   -1.2240497  0.064758993   -2.1817305   0.95768081   520346 
  180000    1.0349633   -2.1808855   -2.1808855   -1.2241712  0.078996397   -2.1808855   0.95671439   520346 
  181000    1.0376948    -2.183364    -2.183364   -1.2241245  0.057006146    -2.183364   0.95923942   520346 
  182000    1.0351613   -2.1812186   -2.1812186   -1.2243212  0.069852688   -2.1812186   0.95689744   520346 
  183000    1.0361504   -2.1832919   -2.1832919   -1.2254801  0.076202195   -2.1832919   0.95781174   520346 
  184000    1.0355962    -2.182682    -2.182682   -1.2253825  0.070802376    -2.182682   0.95729948   520346 
  185000    1.0363657   -2.1836765   -2.1836765   -1.2256657  0.075934402   -2.1836765    0.9580108   520346 
  186000     1.037356   -2.1843677   -2.1843677   -1.2254414  0.061935155   -2.1843677   0.95892625   520346 
  187000    1.0369593   -2.1847706   -2.1847706   -1.2262111  0.063612244   -2.1847706    0.9585595   520346 
  188000    1.0363426   -2.1856583   -2.1856583   -1.2276689  0.065436237   -2.1856583    0.9579894   520346 
  189000    1.0353135    -2.186181    -2.186181   -1.2291429   0.06512851    -2.186181   0.95703814   520346 
  190000    1.0372006   -2.1874809   -2.1874809   -1.2286984  0.057095904   -2.1874809   0.95878253   520346 
  191000      1.03577   -2.1865744   -2.1865744   -1.2291143  0.061005333   -2.1865744   0.95746011   520346 
  192000    1.0349237   -2.1852431   -2.1852431   -1.2285652  0.082026359   -2.1852431   0.95667783   520346 
  193000    1.0372135   -2.1871706   -2.1871706   -1.2283761   0.07167022   -2.1871706   0.95879451   520346 
  194000    1.0349938   -2.1851864   -2.1851864   -1.2284438   0.07045745   -2.1851864    0.9567426   520346 
  195000     1.036747   -2.1864998   -2.1864998   -1.2281366  0.073687415   -2.1864998   0.95836323   520346 
  196000    1.0366282   -2.1869076   -2.1869076   -1.2286542  0.062740642   -2.1869076   0.95825346   520346 
  197000    1.0365932   -2.1874345   -2.1874345   -1.2292133  0.057260927   -2.1874345   0.95822112   520346 
  198000    1.0362663   -2.1881011   -2.1881011   -1.2301821  0.060695822   -2.1881011   0.95791891   520346 
  199000    1.0379885   -2.1896539   -2.1896539   -1.2301429  0.070382123   -2.1896539   0.95951093   520346 
  200000    1.0363411   -2.1889517   -2.1889517   -1.2309637  0.061732344   -2.1889517   0.95798806   520346 
  201000    1.0353696   -2.1877577   -2.1877577   -1.2306677  0.072141052   -2.1877577   0.95708999   520346 
  202000    1.0358397   -2.1885187   -2.1885187   -1.2309941  0.065684557   -2.1885187   0.95752455   520346 
  203000    1.0349861   -2.1887271   -2.1887271   -1.2319916  0.062124317   -2.1887271   0.95673551   520346 
  204000    1.0387133   -2.1925547   -2.1925547   -1.2323738  0.079743053   -2.1925547   0.96018092   520346 
  205000    1.0383591   -2.1931334   -2.1931334     -1.23328  0.063184085   -2.1931334   0.95985346   520346 
  206000    1.0356929   -2.1903754   -2.1903754   -1.2329866  0.070805533   -2.1903754   0.95738883   520346 
  207000    1.0363073   -2.1911907   -2.1911907   -1.2332339  0.065314661   -2.1911907   0.95795685   520346 
  208000    1.0350933   -2.1897616   -2.1897616    -1.232927  0.073956565   -2.1897616   0.95683462   520346 
  209000    1.0360411   -2.1905578   -2.1905578   -1.2328471  0.059955263   -2.1905578   0.95771069   520346 
  210000    1.0354473   -2.1894721   -2.1894721   -1.2323102  0.074559592   -2.1894721   0.95716183   520346 
  211000    1.0359763   -2.1910455   -2.1910455   -1.2333946  0.064452478   -2.1910455   0.95765082   520346 
  212000    1.0374363   -2.1931345   -2.1931345    -1.234134  0.071458422   -2.1931345   0.95900048   520346 
  213000    1.0365944   -2.1936529   -2.1936529   -1.2354307  0.072128436   -2.1936529   0.95822221   520346 
  214000     1.036943   -2.1950837   -2.1950837   -1.2365392  0.065631905   -2.1950837   0.95854441   520346 
  215000    1.0368136   -2.1955072   -2.1955072   -1.2370824  0.070153881   -2.1955072   0.95842484   520346 
  216000    1.0357721   -2.1944565   -2.1944565   -1.2369944   0.07761512   -2.1944565   0.95746206   520346 
  217000    1.0364528   -2.1957524   -2.1957524   -1.2376611  0.057001421   -2.1957524   0.95809132   520346 
  218000     1.033667   -2.1933257   -2.1933257   -1.2378096  0.079072922   -2.1933257    0.9555161   520346 
  219000    1.0361552   -2.1949234   -2.1949234   -1.2371071  0.060061354   -2.1949234   0.95781623   520346 
  220000    1.0351114   -2.1949357   -2.1949357   -1.2380844  0.070828479   -2.1949357   0.95685134   520346 
  221000    1.0323404   -2.1921974   -2.1921974   -1.2379076  0.074724245   -2.1921974    0.9542898   520346 
  222000    1.0337491   -2.1928093   -2.1928093   -1.2372172  0.057661978   -2.1928093   0.95559203   520346 
  223000    1.0365145   -2.1958624   -2.1958624   -1.2377141  0.070876353   -2.1958624   0.95814831   520346 
  224000    1.0325853   -2.1924441   -2.1924441   -1.2379279  0.065883789   -2.1924441   0.95451619   520346 
  225000    1.0343071   -2.1948837   -2.1948837   -1.2387759  0.059664464   -2.1948837   0.95610787   520346 
  226000    1.0348889   -2.1958128   -2.1958128   -1.2391671  0.071785432   -2.1958128   0.95664565   520346 
  227000    1.0354446   -2.1961095   -2.1961095   -1.2389502  0.068022612   -2.1961095   0.95715934   520346 
  228000    1.0354435   -2.1974911   -2.1974911   -1.2403327   0.06940785   -2.1974911   0.95715835   520346 
  229000    1.0354628    -2.198305    -2.198305   -1.2411289  0.065748987    -2.198305   0.95717617   520346 
  230000    1.0352606   -2.1979394   -2.1979394   -1.2409502  0.059500362   -2.1979394   0.95698926   520346 
  231000    1.0342446   -2.1969682   -2.1969682   -1.2409182  0.073808592   -2.1969682   0.95605002   520346 
  232000    1.0311414   -2.1951643   -2.1951643   -1.2419828  0.061431549   -2.1951643   0.95318147   520346 
  233000    1.0319468   -2.1963624   -2.1963624   -1.2424365  0.066993821   -2.1963624   0.95392597   520346 
  234000    1.0344073   -2.1992643   -2.1992643   -1.2430639  0.064380556   -2.1992643   0.95620046   520346 
  235000     1.032378   -2.1976434   -2.1976434   -1.2433188   0.07442916   -2.1976434   0.95432463   520346 
  236000    1.0345424   -2.2003601   -2.2003601   -1.2440348  0.075336133   -2.2003601   0.95632532   520346 
  237000    1.0329881    -2.199529    -2.199529   -1.2446404  0.056359308    -2.199529   0.95488856   520346 
  238000    1.0311821   -2.1983545   -2.1983545   -1.2451354  0.066770326   -2.1983545   0.95321911   520346 
  239000    1.0336156   -2.2004668   -2.2004668   -1.2449982  0.053254945   -2.2004668   0.95546857   520346 
  240000    1.0342866   -2.2000444   -2.2000444   -1.2439555  0.051301256   -2.2000444   0.95608887   520346 
  241000    1.0338962   -2.2000942   -2.2000942   -1.2443662  0.059206402   -2.2000942   0.95572798   520346 
  242000    1.0339209   -2.2004177   -2.2004177   -1.2446668  0.076953176   -2.2004177   0.95575085   520346 
  243000    1.0303492   -2.1972959   -2.1972959   -1.2448467   0.06209031   -2.1972959    0.9524492   520346 
  244000    1.0317488   -2.2001502   -2.2001502   -1.2464072  0.060127942   -2.2001502   0.95374294   520346 
  245000    1.0348246   -2.2014382   -2.2014382    -1.244852  0.065747277   -2.2014382    0.9565862   520346 
  246000    1.0328925   -2.2001482   -2.2001482    -1.245348  0.069343325   -2.2001482   0.95480021   520346 
  247000    1.0319446   -2.1984187   -2.1984187   -1.2444948  0.071856591   -2.1984187   0.95392394   520346 
  248000    1.0336261   -2.2004835   -2.2004835   -1.2450052  0.060016106   -2.2004835   0.95547834   520346 
  249000    1.0338293   -2.2003079   -2.2003079   -1.2446418  0.060197868   -2.2003079   0.95566613   520346 
  250000    1.0344282    -2.200938    -2.200938   -1.2447182  0.059155101    -2.200938   0.95621975   520346 
  251000    1.0336643   -2.2010736   -2.2010736   -1.2455599  0.069962754   -2.2010736   0.95551368   520346 
  252000    1.0359391   -2.2038498   -2.2038498   -1.2462333  0.074451861   -2.2038498   0.95761648   520346 
  253000    1.0342228    -2.202862    -2.202862   -1.2468321  0.067883694    -2.202862   0.95602987   520346 
  254000    1.0323481   -2.2009798   -2.2009798   -1.2466829  0.079823407   -2.2009798    0.9542969   520346 
  255000    1.0351273   -2.2036024   -2.2036024   -1.2467363  0.081776916   -2.2036024   0.95686606   520346 
  256000    1.0319865   -2.2009654   -2.2009654   -1.2470027  0.062696138   -2.2009654   0.95396273   520346 
  257000    1.0300932   -2.2000306   -2.2000306   -1.2478181  0.075508607   -2.2000306   0.95221255   520346 
  258000    1.0309452   -2.2011788   -2.2011788   -1.2481787  0.075967048   -2.2011788    0.9530001   520346 
  259000    1.0323505   -2.2022583   -2.2022583   -1.2479591  0.063997495   -2.2022583   0.95429919   520346 
  260000    1.0330122   -2.2042678   -2.2042678   -1.2493569  0.078171761   -2.2042678   0.95491083   520346 
  261000    1.0351388   -2.2062813   -2.2062813   -1.2494046  0.079963791   -2.2062813   0.95687669   520346 
  262000     1.032338   -2.2035992   -2.2035992   -1.2493116  0.062392206   -2.2035992   0.95428761   520346 
  263000    1.0322734   -2.2046768   -2.2046768   -1.2504489  0.063530184   -2.2046768   0.95422788   520346 
  264000    1.0320859   -2.2042472   -2.2042472   -1.2501926  0.077598158   -2.2042472   0.95405454   520346 
  265000    1.0324768   -2.2053196   -2.2053196   -1.2509036  0.068752288   -2.2053196   0.95441594   520346 
  266000    1.0321084   -2.2048587   -2.2048587   -1.2507833  0.077338862   -2.2048587   0.95407538   520346 
  267000      1.03296   -2.2060815   -2.2060815   -1.2512189   0.06726603   -2.2060815    0.9548626   520346 
  268000    1.0322764   -2.2057507   -2.2057507     -1.25152  0.072287955   -2.2057507    0.9542307   520346 
  269000    1.0338819   -2.2078766   -2.2078766   -1.2521619  0.071632155   -2.2078766   0.95571474   520346 
  270000    1.0333562   -2.2071167   -2.2071167   -1.2518879  0.068391996   -2.2071167   0.95522884   520346 
  271000    1.0336033   -2.2081476   -2.2081476   -1.2526904  0.062963431   -2.2081476   0.95545722   520346 
  272000    1.0327408   -2.2074145   -2.2074145   -1.2527545  0.084185667   -2.2074145      0.95466   520346 
  273000    1.0335789   -2.2092205   -2.2092205   -1.2537859  0.065914965   -2.2092205   0.95543466   520346 
  274000    1.0337694   -2.2090153   -2.2090153   -1.2534045  0.076624507   -2.2090153   0.95561078   520346 
  275000    1.0311664   -2.2068993   -2.2068993   -1.2536947  0.070760877   -2.2068993   0.95320457   520346 
  276000    1.0343168   -2.2101467   -2.2101467     -1.25403  0.060055047   -2.2101467   0.95611678   520346 
  277000    1.0362477   -2.2125956   -2.2125956   -1.2546939  0.071446771   -2.2125956   0.95790169   520346 
  278000    1.0308665   -2.2085233   -2.2085233    -1.255596  0.067846948   -2.2085233   0.95292735   520346 
  279000    1.0299333   -2.2082695   -2.2082695   -1.2562047   0.06943686   -2.2082695   0.95206476   520346 
  280000    1.0295164   -2.2085296   -2.2085296   -1.2568503  0.064990201   -2.2085296   0.95167932   520346 
  281000     1.031387   -2.2101362   -2.2101362   -1.2567277  0.069235299   -2.2101362   0.95340855   520346 
  282000    1.0341798   -2.2126592   -2.2126592   -1.2566691  0.067301419   -2.2126592   0.95599013   520346 
  283000    1.0329855    -2.210967    -2.210967   -1.2560809  0.060600612    -2.210967   0.95488612   520346 
  284000    1.0299354   -2.2080121   -2.2080121   -1.2559454  0.063645366   -2.2080121   0.95206664   520346 
  285000    1.0306362   -2.2086419   -2.2086419   -1.2559274  0.070821003   -2.2086419   0.95271445   520346 
  286000    1.0298608   -2.2084102   -2.2084102   -1.2564125  0.072940276   -2.2084102   0.95199768   520346 
  287000    1.0306947   -2.2090181   -2.2090181   -1.2562496   0.07136816   -2.2090181   0.95276852   520346 
  288000      1.02876   -2.2075857   -2.2075857   -1.2566055  0.061220358   -2.2075857   0.95098017   520346 
  289000    1.0279364    -2.207756    -2.207756   -1.2575372  0.057287563    -2.207756   0.95021881   520346 
  290000    1.0305861   -2.2097737   -2.2097737   -1.2571056  0.059780482   -2.2097737   0.95266813   520346 
  291000    1.0314729   -2.2105433   -2.2105433   -1.2570554  0.076638504   -2.2105433    0.9534879   520346 
  292000    1.0329461    -2.213427    -2.213427   -1.2585773  0.061970624    -2.213427    0.9548497   520346 
  293000    1.0319232    -2.211968    -2.211968   -1.2580638  0.071068766    -2.211968   0.95390413   520346 
  294000    1.0334287   -2.2138088   -2.2138088   -1.2585129  0.071926862   -2.2138088   0.95529588   520346 
  295000    1.0335107   -2.2148361   -2.2148361   -1.2594644  0.061733117   -2.2148361   0.95537167   520346 
  296000    1.0327826   -2.2144157   -2.2144157    -1.259717  0.057278005   -2.2144157   0.95469863   520346 
  297000    1.0306691   -2.2136362   -2.2136362   -1.2608913  0.072212878   -2.2136362    0.9527449   520346 
  298000    1.0295126   -2.2129144   -2.2129144   -1.2612386  0.066000303   -2.2129144   0.95167581   520346 
  299000    1.0309545   -2.2140478   -2.2140478   -1.2610392  0.069351456   -2.2140478   0.95300868   520346 
  300000    1.0286555   -2.2126439   -2.2126439   -1.2617603  0.077676177   -2.2126439   0.95088357   520346 
  301000    1.0316944   -2.2157728   -2.2157728   -1.2620802  0.051307665   -2.2157728   0.95369265   520346 
  302000    1.0321396   -2.2165793   -2.2165793    -1.262475  0.071628803   -2.2165793   0.95410424   520346 
  303000    1.0338653   -2.2177369   -2.2177369   -1.2620374  0.071725807   -2.2177369   0.95569946   520346 
  304000    1.0301508   -2.2143525   -2.2143525   -1.2620868  0.058235575   -2.2143525   0.95226577   520346 
  305000    1.0315148   -2.2159062   -2.2159062   -1.2623796  0.070037232   -2.2159062   0.95352665   520346 
  306000     1.030683   -2.2158846   -2.2158846   -1.2631269  0.068416455   -2.2158846   0.95275775   520346 
  307000    1.0314968   -2.2167033   -2.2167033   -1.2631933  0.057579011   -2.2167033      0.95351   520346 
  308000    1.0312463   -2.2166614   -2.2166614   -1.2633829  0.074082308   -2.2166614   0.95327843   520346 
  309000    1.0303317   -2.2158618   -2.2158618   -1.2634288  0.065403713   -2.2158618   0.95243296   520346 
  310000    1.0302591   -2.2170086   -2.2170086   -1.2646427  0.062244739   -2.2170086   0.95236593   520346 
  311000    1.0304794   -2.2166776   -2.2166776    -1.264108  0.076372676   -2.2166776   0.95256957   520346 
  312000     1.032334   -2.2187713   -2.2187713   -1.2644874   0.06308758   -2.2187713   0.95428388   520346 
  313000    1.0314073   -2.2187972   -2.2187972   -1.2653699  0.060514826   -2.2187972   0.95342731   520346 
  314000    1.0312818   -2.2183695   -2.2183695   -1.2650583  0.069305091   -2.2183695   0.95331125   520346 
  315000    1.0309422   -2.2175398   -2.2175398   -1.2645424  0.070690044   -2.2175398   0.95299738   520346 
  316000    1.0286112    -2.215446    -2.215446   -1.2646034   0.06960014    -2.215446   0.95084258   520346 
  317000    1.0296754   -2.2169859   -2.2169859   -1.2651595   0.07284292   -2.2169859   0.95182635   520346 
  318000    1.0315269   -2.2179679   -2.2179679   -1.2644301  0.061954123   -2.2179679   0.95353781   520346 
  319000    1.0300627   -2.2163752   -2.2163752   -1.2641909  0.064483029   -2.2163752   0.95218433   520346 
  320000    1.0302887   -2.2166546   -2.2166546   -1.2642614    0.0787934   -2.2166546   0.95239321   520346 
  321000    1.0306898   -2.2171665   -2.2171665   -1.2644025  0.075682015   -2.2171665   0.95276398   520346 
  322000    1.0303468   -2.2172576   -2.2172576   -1.2648107   0.06194931   -2.2172576   0.95244694   520346 
  323000    1.0296413    -2.217259    -2.217259   -1.2654643  0.069982521    -2.217259   0.95179479   520346 
  324000    1.0297968   -2.2165267   -2.2165267   -1.2645882  0.055266406   -2.2165267   0.95193854   520346 
  325000    1.0303257   -2.2178912   -2.2178912   -1.2654637  0.060116635   -2.2178912   0.95242745   520346 
  326000    1.0318384   -2.2181879   -2.2181879   -1.2643621  0.071297883   -2.2181879   0.95382582   520346 
  327000    1.0309766    -2.219101    -2.219101   -1.2660719  0.054825483    -2.219101   0.95302917   520346 
  328000    1.0284073   -2.2175178   -2.2175178   -1.2668637  0.068195134   -2.2175178   0.95065407   520346 
  329000    1.0310821   -2.2195705   -2.2195705   -1.2664438  0.068392712   -2.2195705   0.95312668   520346 
  330000    1.0336643   -2.2224965   -2.2224965   -1.2669829  0.068053231   -2.2224965   0.95551363   520346 
  331000     1.030606   -2.2199659   -2.2199659   -1.2672794   0.06628616   -2.2199659   0.95268658   520346 
  332000    1.0293067    -2.219049    -2.219049   -1.2675635  0.079830061    -2.219049   0.95148549   520346 
  333000    1.0281638   -2.2185511   -2.2185511   -1.2681221  0.061160392   -2.2185511   0.95042897   520346 
  334000    1.0276597   -2.2189093   -2.2189093   -1.2689463  0.070094978   -2.2189093   0.94996301   520346 
  335000     1.027748    -2.219421    -2.219421   -1.2693764  0.068661854    -2.219421   0.95004459   520346 
  336000    1.0292068   -2.2214697   -2.2214697   -1.2700766  0.062333827   -2.2214697   0.95139314   520346 
  337000    1.0323426   -2.2242284   -2.2242284   -1.2699365  0.078844445   -2.2242284   0.95429187   520346 
  338000    1.0317668   -2.2237343   -2.2237343   -1.2699746  0.075996586   -2.2237343   0.95375963   520346 
  339000    1.0289956   -2.2215643   -2.2215643   -1.2703664  0.064727592   -2.2215643   0.95119788   520346 
  340000    1.0292341   -2.2224248   -2.2224248   -1.2710064  0.061436151   -2.2224248   0.95141839   520346 
  341000    1.0311617   -2.2228318   -2.2228318   -1.2696316  0.051759181   -2.2228318   0.95320021   520346 
  342000    1.0299138   -2.2218392   -2.2218392   -1.2697925  0.058488728   -2.2218392    0.9520467   520346 
  343000    1.0279918   -2.2208078   -2.2208078   -1.2705377  0.059388657   -2.2208078   0.95027003   520346 
  344000    1.0296416   -2.2225417   -2.2225417   -1.2707467  0.069844966   -2.2225417   0.95179507   520346 
  345000    1.0309072   -2.2239011   -2.2239011   -1.2709361  0.067861035   -2.2239011   0.95296502   520346 
  346000    1.0298675   -2.2238054   -2.2238054   -1.2718015  0.057777231   -2.2238054   0.95200389   520346 
  347000    1.0298348   -2.2233939   -2.2233939   -1.2714202  0.062646965   -2.2233939   0.95197366   520346 
  348000    1.0299454    -2.223483    -2.223483   -1.2714072  0.069180249    -2.223483   0.95207588   520346 
  349000    1.0286096   -2.2231508   -2.2231508   -1.2723097  0.064911403   -2.2231508   0.95084105   520346 
  350000    1.0280213   -2.2238288   -2.2238288   -1.2735315  0.077108412   -2.2238288   0.95029727   520346 
  351000    1.0291786   -2.2248657   -2.2248657   -1.2734986  0.076610093   -2.2248657   0.95136709   520346 
  352000    1.0281764   -2.2241666   -2.2241666   -1.2737259  0.078014598   -2.2241666   0.95044065   520346 
  353000    1.0295717   -2.2251327   -2.2251327   -1.2734022  0.066674317   -2.2251327   0.95173045   520346 
  354000    1.0283411   -2.2245923   -2.2245923   -1.2739994  0.075673082   -2.2245923   0.95059289   520346 
  355000    1.0320767   -2.2287984   -2.2287984   -1.2747523  0.069499658   -2.2287984   0.95404608   520346 
  356000     1.029606   -2.2263564   -2.2263564   -1.2745943  0.069732832   -2.2263564   0.95176212   520346 
  357000    1.0289526   -2.2253676   -2.2253676   -1.2742094   0.05245486   -2.2253676   0.95115814   520346 
  358000    1.0305246   -2.2267134   -2.2267134    -1.274102   0.07734538   -2.2267134   0.95261135   520346 
  359000    1.0263703   -2.2235809   -2.2235809   -1.2748098  0.065491985   -2.2235809   0.94877106   520346 
  360000    1.0292283   -2.2260229   -2.2260229   -1.2746099  0.073578407   -2.2260229   0.95141299   520346 
  361000    1.0302578   -2.2260415   -2.2260415   -1.2736768  0.054467306   -2.2260415   0.95236471   520346 
  362000    1.0269261   -2.2240471   -2.2240471   -1.2747623  0.067921549   -2.2240471   0.94928486   520346 
  363000    1.0276014   -2.2246243   -2.2246243   -1.2747152  0.080891188   -2.2246243   0.94990908   520346 
  364000    1.0300049   -2.2278232   -2.2278232   -1.2756923  0.069236995   -2.2278232    0.9521309   520346 
  365000    1.0305986   -2.2283466   -2.2283466   -1.2756669  0.077259027   -2.2283466   0.95267974   520346 
  366000    1.0289442   -2.2263835   -2.2263835   -1.2752331  0.061699899   -2.2263835   0.95115044   520346 
  367000    1.0284471   -2.2260184   -2.2260184   -1.2753275  0.066314714   -2.2260184   0.95069091   520346 
  368000    1.0284671   -2.2255214   -2.2255214    -1.274812  0.070145462   -2.2255214   0.95070938   520346 
  369000    1.0285662   -2.2271974   -2.2271974   -1.2763964  0.049793267   -2.2271974   0.95080095   520346 
  370000    1.0282779   -2.2275575   -2.2275575    -1.277023  0.056830465   -2.2275575   0.95053449   520346 
  371000    1.0307405   -2.2293389   -2.2293389    -1.276528  0.069717793   -2.2293389   0.95281089   520346 
  372000    1.0295594   -2.2286349   -2.2286349   -1.2769158  0.072811355   -2.2286349   0.95171913   520346 
  373000    1.0293508   -2.2290819   -2.2290819   -1.2775557  0.074379406   -2.2290819   0.95152625   520346 
  374000    1.0300092   -2.2310538   -2.2310538   -1.2789189  0.071072787   -2.2310538   0.95213489   520346 
  375000    1.0304762   -2.2310813   -2.2310813   -1.2785147  0.077428293   -2.2310813   0.95256661   520346 
  376000    1.0300073     -2.23162     -2.23162   -1.2794869  0.077410538     -2.23162   0.95213309   520346 
  377000    1.0268784   -2.2289542   -2.2289542   -1.2797134  0.060492419   -2.2289542   0.94924075   520346 
  378000    1.0299625   -2.2316886   -2.2316886   -1.2795969  0.064267442   -2.2316886   0.95209167   520346 
  379000    1.0279397   -2.2290274   -2.2290274   -1.2788056  0.069146681   -2.2290274   0.95022181   520346 
  380000    1.0256978     -2.22648     -2.22648   -1.2783305  0.066233792     -2.22648   0.94814949   520346 
  381000    1.0290187   -2.2299593   -2.2299593     -1.27874  0.062885938   -2.2299593    0.9512193   520346 
  382000    1.0299811   -2.2307881   -2.2307881   -1.2786792  0.067455265   -2.2307881   0.95210891   520346 
  383000    1.0277321   -2.2286075   -2.2286075   -1.2785776  0.077514491   -2.2286075   0.95002998   520346 
  384000    1.0280323   -2.2294112   -2.2294112   -1.2791038   0.06903385   -2.2294112   0.95030741   520346 
  385000    1.0282401   -2.2297704   -2.2297704   -1.2792708   0.07121082   -2.2297704   0.95049954   520346 
  386000    1.0280486   -2.2291154   -2.2291154   -1.2787929  0.069124035   -2.2291154    0.9503225   520346 
  387000    1.0288312   -2.2302476   -2.2302476   -1.2792017   0.07072204   -2.2302476   0.95104591   520346 
  388000    1.0269207   -2.2301205   -2.2301205   -1.2808406  0.061748002   -2.2301205   0.94927989   520346 
  389000    1.0257681   -2.2303429   -2.2303429   -1.2821285  0.062845797   -2.2303429   0.94821443   520346 
  390000    1.0268773   -2.2315418   -2.2315418   -1.2823021   0.06225389   -2.2315418   0.94923977   520346 
  391000    1.0279101   -2.2333065   -2.2333065    -1.283112  0.061727068   -2.2333065   0.95019445   520346 
  392000    1.0264242   -2.2317412   -2.2317412   -1.2829203  0.062449705   -2.2317412    0.9488209   520346 
  393000     1.025828   -2.2314659   -2.2314659   -1.2831961  0.081269732   -2.2314659   0.94826984   520346 
  394000    1.0276683   -2.2333014   -2.2333014   -1.2833305  0.068867057   -2.2333014   0.94997098   520346 
  395000    1.0280425   -2.2336941   -2.2336941   -1.2833772  0.068395078   -2.2336941   0.95031691   520346 
  396000    1.0267013   -2.2325762   -2.2325762   -1.2834992  0.074108858   -2.2325762   0.94907703   520346 
  397000     1.024961   -2.2322882   -2.2322882   -1.2848199  0.075064944   -2.2322882   0.94746839   520346 
  398000    1.0264319   -2.2328892   -2.2328892   -1.2840612  0.060535694   -2.2328892   0.94882805   520346 
  399000    1.0249397   -2.2317566   -2.2317566    -1.284308  0.062273194   -2.2317566   0.94744864   520346 
  400000    1.0296278   -2.2364013   -2.2364013    -1.284619  0.074397319   -2.2364013   0.95178227   520346 
  401000    1.0267806   -2.2342677   -2.2342677   -1.2851173    0.0669935   -2.2342677   0.94915042   520346 
  402000    1.0255079   -2.2330086   -2.2330086   -1.2850347   0.05972667   -2.2330086   0.94797391   520346 
  403000    1.0263237   -2.2341211   -2.2341211   -1.2853931  0.050146683   -2.2341211   0.94872802   520346 
  404000    1.0262414     -2.23429     -2.23429   -1.2856381  0.069905707     -2.23429   0.94865194   520346 
  405000    1.0264547   -2.2345796   -2.2345796   -1.2857305  0.079016115   -2.2345796    0.9488491   520346 
  406000    1.0279458   -2.2354832   -2.2354832   -1.2852558  0.063340996   -2.2354832   0.95022745   520346 
  407000    1.0287988   -2.2366072   -2.2366072   -1.2855912  0.070405339   -2.2366072   0.95101596   520346 
  408000    1.0261016    -2.234185    -2.234185   -1.2856623  0.071692137    -2.234185   0.94852268   520346 
  409000    1.0282397   -2.2362611   -2.2362611   -1.2857619  0.058541407   -2.2362611    0.9504992   520346 
  410000    1.0257881   -2.2349347   -2.2349347   -1.2867017  0.058710183   -2.2349347   0.94823293   520346 
  411000    1.0265878   -2.2351647   -2.2351647   -1.2861925  0.056277582   -2.2351647   0.94897217   520346 
  412000    1.0251991    -2.235156    -2.235156   -1.2874676  0.065359574    -2.235156   0.94768844   520346 
  413000    1.0273346    -2.236816    -2.236816   -1.2871535  0.071699003    -2.236816   0.94966245   520346 
  414000    1.0265007   -2.2355863   -2.2355863   -1.2866947  0.075257735   -2.2355863    0.9488916   520346 
  415000    1.0281135   -2.2368525   -2.2368525     -1.28647  0.078970141   -2.2368525   0.95038248   520346 
  416000    1.0254293   -2.2343653   -2.2343653   -1.2864641  0.061463032   -2.2343653   0.94790123   520346 
  417000    1.0265038   -2.2356659   -2.2356659   -1.2867714  0.074215381   -2.2356659   0.94889454   520346 
  418000    1.0258434   -2.2350751   -2.2350751   -1.2867911  0.062636579   -2.2350751   0.94828405   520346 
  419000    1.0252373   -2.2348311   -2.2348311   -1.2871074  0.067773819   -2.2348311   0.94772374   520346 
  420000    1.0262096   -2.2357671   -2.2357671   -1.2871446  0.066021256   -2.2357671   0.94862252   520346 
  421000    1.0248226   -2.2356558   -2.2356558   -1.2883153  0.066248589   -2.2356558   0.94734043   520346 
  422000     1.024475   -2.2353836   -2.2353836   -1.2883645  0.067214012   -2.2353836   0.94701907   520346 
  423000    1.0279805   -2.2374496   -2.2374496   -1.2871901   0.07678437   -2.2374496   0.95025952   520346 
  424000    1.0288737   -2.2394861   -2.2394861   -1.2884009  0.056596315   -2.2394861   0.95108525   520346 
  425000    1.0254361   -2.2371845   -2.2371845   -1.2892769  0.071949375   -2.2371845   0.94790755   520346 
  426000    1.0248221   -2.2368332   -2.2368332   -1.2894932   0.06583004   -2.2368332   0.94733994   520346 
  427000    1.0261283   -2.2376944   -2.2376944    -1.289147  0.074814428   -2.2376944   0.94854737   520346 
  428000    1.0257151    -2.236687    -2.236687   -1.2885216  0.070474241    -2.236687   0.94816544   520346 
  429000    1.0243084   -2.2360274   -2.2360274   -1.2891623  0.071466804   -2.2360274   0.94686507   520346 
  430000    1.0280282   -2.2389645   -2.2389645   -1.2886608  0.060293909   -2.2389645   0.95030368   520346 
  431000    1.0259451    -2.237599    -2.237599    -1.289221  0.066092147    -2.237599   0.94837804   520346 
  432000    1.0256668   -2.2380526   -2.2380526   -1.2899318  0.067695877   -2.2380526   0.94812076   520346 
  433000    1.0249335   -2.2382032   -2.2382032   -1.2907603  0.056477049   -2.2382032    0.9474429   520346 
  434000    1.0261906   -2.2396556   -2.2396556   -1.2910505  0.055804685   -2.2396556   0.94860503   520346 
  435000    1.0288885   -2.2424586   -2.2424586   -1.2913597  0.066751755   -2.2424586    0.9510989   520346 
  436000    1.0269071   -2.2420001   -2.2420001   -1.2927327  0.064012672   -2.2420001   0.94926733   520346 
  437000    1.0280283   -2.2434414   -2.2434414   -1.2931377  0.065159635   -2.2434414   0.95030371   520346 
  438000    1.0251878   -2.2411907   -2.2411907   -1.2935126  0.067630121   -2.2411907   0.94767805   520346 
  439000     1.024176   -2.2404883   -2.2404883   -1.2937456  0.073473349   -2.2404883   0.94674271   520346 
  440000     1.026355   -2.2427768   -2.2427768   -1.2940199  0.061057512   -2.2427768   0.94875694   520346 
  441000    1.0273985   -2.2430403   -2.2430403   -1.2933187  0.066099005   -2.2430403   0.94972155   520346 
  442000    1.0266781   -2.2432954   -2.2432954   -1.2942397  0.060740219   -2.2432954   0.94905561   520346 
  443000    1.0263962    -2.244174    -2.244174   -1.2953789  0.062562813    -2.244174   0.94879504   520346 
  444000    1.0255145   -2.2436755   -2.2436755   -1.2956955  0.073118474   -2.2436755      0.94798   520346 
  445000    1.0257078   -2.2434313   -2.2434313   -1.2952726  0.059602954   -2.2434313   0.94815871   520346 
  446000    1.0241388   -2.2422429   -2.2422429   -1.2955346  0.064091972   -2.2422429   0.94670831   520346 
  447000     1.023893    -2.241713    -2.241713    -1.295232  0.062114681    -2.241713   0.94648106   520346 
  448000    1.0241865   -2.2415873   -2.2415873   -1.2948349  0.069633362   -2.2415873   0.94675239   520346 
  449000    1.0240815   -2.2415634   -2.2415634   -1.2949081  0.074473839   -2.2415634    0.9466553   520346 
  450000    1.0241423   -2.2427607   -2.2427607   -1.2960492  0.067679346   -2.2427607    0.9467115   520346 
  451000    1.0249824   -2.2432828   -2.2432828   -1.2957947  0.045548969   -2.2432828   0.94748814   520346 
  452000    1.0262796   -2.2434923   -2.2434923    -1.294805  0.069396618   -2.2434923   0.94868728   520346 
  453000    1.0241781    -2.241624    -2.241624   -1.2948794  0.067003913    -2.241624    0.9467446   520346 
  454000    1.0246508   -2.2426709   -2.2426709   -1.2954893  0.057845948   -2.2426709   0.94718161   520346 
  455000    1.0255367   -2.2440427   -2.2440427   -1.2960422  0.066416467   -2.2440427   0.94800049   520346 
  456000    1.0266828   -2.2454489   -2.2454489   -1.2963889  0.062984939   -2.2454489   0.94905998   520346 
  457000    1.0270499   -2.2460146   -2.2460146   -1.2966153  0.078641135   -2.2460146    0.9493993   520346 
  458000    1.0259464   -2.2448883   -2.2448883    -1.296509  0.065583037   -2.2448883   0.94837926   520346 
  459000    1.0241342   -2.2425479   -2.2425479   -1.2958438   0.06085335   -2.2425479   0.94670401   520346 
  460000    1.0232541   -2.2420543   -2.2420543   -1.2961638  0.067885305   -2.2420543   0.94589052   520346 
  461000    1.0224473   -2.2404882   -2.2404882   -1.2953435  0.062410934   -2.2404882   0.94514469   520346 
  462000    1.0243164    -2.242331    -2.242331   -1.2954585  0.061072465    -2.242331   0.94687251   520346 
  463000    1.0227282   -2.2410524   -2.2410524    -1.295648  0.052428683   -2.2410524    0.9454044   520346 
  464000    1.0255075   -2.2443325   -2.2443325    -1.296359  0.071103269   -2.2443325   0.94797351   520346 
  465000    1.0256182   -2.2443196   -2.2443196   -1.2962438  0.072481616   -2.2443196   0.94807583   520346 
  466000    1.0266811   -2.2441287   -2.2441287   -1.2950703  0.059382473   -2.2441287   0.94905839   520346 
  467000    1.0248415   -2.2428508   -2.2428508   -1.2954929  0.062658369   -2.2428508   0.94735792   520346 
  468000    1.0237046   -2.2426053   -2.2426053   -1.2962983   0.05834571   -2.2426053   0.94630697   520346 
  469000    1.0234785   -2.2436777   -2.2436777   -1.2975797  0.060208018   -2.2436777   0.94609795   520346 
  470000    1.0249963   -2.2446606   -2.2446606   -1.2971595   0.06057115   -2.2446606   0.94750102   520346 
  471000    1.0227445   -2.2428647   -2.2428647   -1.2974453  0.066715635   -2.2428647   0.94541943   520346 
  472000    1.0231754   -2.2431988   -2.2431988    -1.297381  0.075792845   -2.2431988   0.94581779   520346 
  473000    1.0228236    -2.243485    -2.243485   -1.2979924  0.066388844    -2.243485   0.94549255   520346 
  474000    1.0243795    -2.244741    -2.244741   -1.2978102  0.055467434    -2.244741   0.94693084   520346 
  475000    1.0247775   -2.2458302   -2.2458302   -1.2985315  0.058596584   -2.2458302   0.94729872   520346 
  476000    1.0237359   -2.2448895   -2.2448895   -1.2985536  0.071290016   -2.2448895   0.94633592   520346 
  477000    1.0212754   -2.2433317   -2.2433317   -1.2992704  0.068972084   -2.2433317   0.94406136   520346 
  478000    1.0242617   -2.2455506   -2.2455506   -1.2987286  0.061656667   -2.2455506   0.94682196   520346 
  479000    1.0253441   -2.2466841   -2.2466841   -1.2988617   0.07775779   -2.2466841   0.94782248   520346 
  480000    1.0262767   -2.2475605   -2.2475605   -1.2988759  0.064311836   -2.2475605   0.94868453   520346 
  481000    1.0237178   -2.2452234   -2.2452234   -1.2989042  0.070507134   -2.2452234   0.94631918   520346 
  482000    1.0256303   -2.2474889   -2.2474889   -1.2994019  0.074663326   -2.2474889   0.94808703   520346 
  483000    1.0258662   -2.2476635   -2.2476635   -1.2993584  0.066637188   -2.2476635   0.94830511   520346 
  484000    1.0250367   -2.2474929   -2.2474929   -1.2999546  0.067352226   -2.2474929   0.94753834   520346 
  485000    1.0235411   -2.2458245   -2.2458245   -1.2996687  0.062882696   -2.2458245   0.94615582   520346 
  486000    1.0234521   -2.2466831   -2.2466831   -1.3006096  0.066393763   -2.2466831   0.94607353   520346 
  487000    1.0261128   -2.2494476   -2.2494476   -1.3009145   0.05965327   -2.2494476   0.94853306   520346 
  488000    1.0228908   -2.2464017   -2.2464017   -1.3008469  0.075598733   -2.2464017   0.94555471   520346 
  489000    1.0240194   -2.2480801   -2.2480801   -1.3014822  0.070392227   -2.2480801   0.94659793   520346 
  490000    1.0235998   -2.2473181   -2.2473181    -1.301108  0.065745246   -2.2473181   0.94621007   520346 
  491000    1.0226748   -2.2466928   -2.2466928   -1.3013378  0.060478739   -2.2466928   0.94535502   520346 
  492000    1.0217643   -2.2455753   -2.2455753    -1.301062  0.057287295   -2.2455753   0.94451333   520346 
  493000    1.0220401   -2.2460905   -2.2460905   -1.3013222  0.069276603   -2.2460905   0.94476831   520346 
  494000    1.0234488   -2.2478991   -2.2478991   -1.3018286  0.080743694   -2.2478991   0.94607051   520346 
  495000     1.023588   -2.2473723   -2.2473723   -1.3011732  0.073595547   -2.2473723   0.94619911   520346 
  496000    1.0223367   -2.2470897   -2.2470897   -1.3020473  0.062190159   -2.2470897   0.94504243   520346 
  497000    1.0233339   -2.2486708   -2.2486708   -1.3027066  0.064678464   -2.2486708   0.94596428   520346 
  498000    1.0223894   -2.2470664   -2.2470664   -1.3019753  0.056304664   -2.2470664   0.94509118   520346 
  499000    1.0223535   -2.2473928   -2.2473928   -1.3023348  0.056666365   -2.2473928     0.945058   520346 
  500000    1.0226236    -2.247807    -2.247807   -1.3024993  0.068764801    -2.247807    0.9453077   520346 
  501000    1.0226631   -2.2475217   -2.2475217   -1.3021776   0.06383392   -2.2475217   0.94534415   520346 
  502000    1.0238941   -2.2486692   -2.2486692   -1.3021871  0.065188439   -2.2486692   0.94648209   520346 
  503000       1.0219    -2.246938    -2.246938   -1.3022992  0.065563477    -2.246938   0.94463881   520346 
  504000    1.0215167   -2.2467276   -2.2467276   -1.3024432  0.071718678   -2.2467276   0.94428443   520346 
  505000    1.0240366     -2.24884     -2.24884   -1.3022261  0.056728322     -2.24884   0.94661381   520346 
  506000    1.0228055   -2.2477637   -2.2477637   -1.3022878  0.067046018   -2.2477637   0.94547585   520346 
  507000    1.0234091   -2.2485404   -2.2485404   -1.3025066  0.069401227   -2.2485404   0.94603382   520346 
  508000    1.0232499   -2.2486217   -2.2486217    -1.302735  0.063694264   -2.2486217   0.94588666   520346 
  509000    1.0234346   -2.2487348   -2.2487348   -1.3026774  0.056469815   -2.2487348   0.94605739   520346 
  510000    1.0232182   -2.2489976   -2.2489976   -1.3031403  0.056402694   -2.2489976   0.94585728   520346 
  511000    1.0247481   -2.2504136   -2.2504136    -1.303142  0.073392012   -2.2504136   0.94727158   520346 
  512000    1.0225996   -2.2490626   -2.2490626   -1.3037771  0.068709771   -2.2490626   0.94528549   520346 
  513000    1.0229313   -2.2494968   -2.2494968   -1.3039046  0.062984102   -2.2494968   0.94559215   520346 
  514000    1.0229153   -2.2492835   -2.2492835   -1.3037062  0.057186248   -2.2492835   0.94557728   520346 
  515000     1.021894    -2.248967    -2.248967   -1.3043337  0.070985955    -2.248967   0.94463325   520346 
  516000    1.0215647   -2.2486583   -2.2486583   -1.3043295  0.068785744   -2.2486583   0.94432879   520346 
  517000    1.0223949   -2.2494244   -2.2494244   -1.3043281  0.065530697   -2.2494244   0.94509629   520346 
  518000    1.0223228   -2.2486581   -2.2486581   -1.3036285  0.074442787   -2.2486581   0.94502958   520346 
  519000    1.0228062     -2.24986     -2.24986   -1.3043835  0.055105087     -2.24986   0.94547645   520346 
  520000    1.0246084   -2.2507177   -2.2507177   -1.3035753  0.060183177   -2.2507177   0.94714239   520346 
  521000    1.0242868   -2.2506898   -2.2506898   -1.3038447   0.06379269   -2.2506898   0.94684514   520346 
  522000    1.0228798   -2.2497174   -2.2497174   -1.3041729  0.071502465   -2.2497174   0.94554454   520346 
  523000    1.0225248   -2.2486272   -2.2486272   -1.3034109  0.067396202   -2.2486272    0.9452163   520346 
  524000     1.022484   -2.2490517   -2.2490517    -1.303873  0.069354783   -2.2490517   0.94517863   520346 
  525000    1.0224778   -2.2497878   -2.2497878   -1.3046149  0.070492315   -2.2497878   0.94517286   520346 
  526000    1.0215969    -2.248675    -2.248675   -1.3043164  0.063129123    -2.248675    0.9443586   520346 
  527000    1.0229237   -2.2502864   -2.2502864   -1.3047013  0.066602428   -2.2502864   0.94558511   520346 
  528000    1.0236731   -2.2519711   -2.2519711   -1.3056933  0.065213442   -2.2519711   0.94627783   520346 
  529000    1.0222599   -2.2512871   -2.2512871   -1.3063157  0.069623607   -2.2512871   0.94497144   520346 
  530000    1.0217009   -2.2514687   -2.2514687    -1.307014  0.069793777   -2.2514687   0.94445474   520346 
  531000      1.02127   -2.2507684   -2.2507684    -1.306712  0.066266012   -2.2507684   0.94405641   520346 
  532000     1.023443    -2.253546    -2.253546   -1.3074808  0.061351822    -2.253546   0.94606516   520346 
  533000    1.0208603    -2.251579    -2.251579   -1.3079014  0.059530871    -2.251579   0.94367764   520346 
  534000    1.0236773   -2.2538106   -2.2538106   -1.3075289   0.06879403   -2.2538106   0.94628174   520346 
  535000    1.0230499   -2.2525216   -2.2525216   -1.3068199  0.072285238   -2.2525216   0.94570172   520346 
  536000     1.023625   -2.2529572   -2.2529572   -1.3067238  0.049688775   -2.2529572   0.94623336   520346 
  537000      1.02285   -2.2523859   -2.2523859   -1.3068689  0.064802142   -2.2523859   0.94551698   520346 
  538000    1.0209341   -2.2519226   -2.2519226   -1.3081767  0.068717342   -2.2519226   0.94374588   520346 
  539000     1.020643   -2.2508659   -2.2508659    -1.307389  0.070129947   -2.2508659   0.94347684   520346 
  540000    1.0215424   -2.2515631   -2.2515631   -1.3072549  0.055131612   -2.2515631   0.94430818   520346 
  541000    1.0227517   -2.2525376   -2.2525376   -1.3071116  0.063413178   -2.2525376   0.94542605   520346 
  542000    1.0227526   -2.2534958   -2.2534958   -1.3080689  0.064167861   -2.2534958   0.94542692   520346 
  543000    1.0212723   -2.2520164   -2.2520164   -1.3079578  0.075561933   -2.2520164   0.94405853   520346 
  544000    1.0237977   -2.2542583   -2.2542583   -1.3078653   0.06622633   -2.2542583     0.946393   520346 
  545000     1.021371   -2.2527257   -2.2527257   -1.3085759  0.065203663   -2.2527257   0.94414978   520346 
  546000    1.0233513   -2.2542451   -2.2542451   -1.3082647  0.070976083   -2.2542451   0.94598036   520346 
  547000     1.021489   -2.2528311   -2.2528311   -1.3085723  0.070386268   -2.2528311   0.94425885   520346 
  548000    1.0214556   -2.2536478   -2.2536478   -1.3094198  0.045269719   -2.2536478   0.94422801   520346 
  549000     1.021171   -2.2542091   -2.2542091   -1.3102442  0.059977627   -2.2542091   0.94396491   520346 
  550000    1.0234684   -2.2571325   -2.2571325   -1.3110439  0.069803455   -2.2571325   0.94608862   520346 
  551000    1.0245455   -2.2579052   -2.2579052    -1.310821  0.071747436   -2.2579052   0.94708423   520346 
  552000    1.0224654   -2.2552187   -2.2552187   -1.3100573  0.056042721   -2.2552187   0.94516141   520346 
  553000    1.0211333   -2.2544265   -2.2544265   -1.3104965  0.062219634   -2.2544265   0.94393009   520346 
  554000    1.0200289   -2.2527355   -2.2527355   -1.3098263  0.074521918   -2.2527355   0.94290913   520346 
  555000    1.0222146   -2.2548347   -2.2548347   -1.3099051  0.057472337   -2.2548347   0.94492955   520346 
  556000    1.0218537   -2.2540466   -2.2540466   -1.3094506  0.056226321   -2.2540466     0.944596   520346 
  557000    1.0208776   -2.2530668   -2.2530668   -1.3093732  0.062976382   -2.2530668   0.94369369   520346 
  558000    1.0218678   -2.2546663   -2.2546663   -1.3100573  0.054515226   -2.2546663   0.94460901   520346 
  559000    1.0216383   -2.2546966   -2.2546966   -1.3102997  0.053754247   -2.2546966   0.94439684   520346 
  560000    1.0212946   -2.2550879   -2.2550879   -1.3110088  0.063485086   -2.2550879   0.94407915   520346 
  561000    1.0206352   -2.2544251   -2.2544251   -1.3109555  0.051247167   -2.2544251   0.94346957   520346 
  562000    1.0207608   -2.2539284   -2.2539284   -1.3103427  0.058891153   -2.2539284    0.9435857   520346 
  563000    1.0176579   -2.2519915   -2.2519915    -1.311274  0.069567938   -2.2519915   0.94071743   520346 
  564000    1.0200172   -2.2547885   -2.2547885   -1.3118902  0.062283155   -2.2547885   0.94289829   520346 
  565000    1.0223147   -2.2564079   -2.2564079   -1.3113858  0.066325482   -2.2564079   0.94502209   520346 
  566000    1.0232536   -2.2571743   -2.2571743   -1.3112843  0.071381899   -2.2571743   0.94589005   520346 
  567000    1.0222636   -2.2570049   -2.2570049     -1.31203  0.062786746   -2.2570049   0.94497489   520346 
  568000     1.021136   -2.2562473   -2.2562473   -1.3123148  0.072031739   -2.2562473   0.94393256   520346 
  569000    1.0211835   -2.2560588   -2.2560588   -1.3120824  0.069199478   -2.2560588   0.94397645   520346 
  570000    1.0209007   -2.2559966   -2.2559966   -1.3122815  0.049916937   -2.2559966   0.94371507   520346 
  571000    1.0207323   -2.2554428   -2.2554428   -1.3118834  0.068661912   -2.2554428   0.94355941   520346 
  572000    1.0219621   -2.2570092   -2.2570092    -1.312313  0.061360142   -2.2570092   0.94469616   520346 
  573000    1.0202785    -2.256062    -2.256062   -1.3129222   0.07105185    -2.256062   0.94313986   520346 
  574000    1.0222651   -2.2575994   -2.2575994   -1.3126231  0.065834463   -2.2575994   0.94497628   520346 
  575000     1.022239   -2.2581597   -2.2581597   -1.3132075   0.06804538   -2.2581597   0.94495219   520346 
  576000    1.0211673   -2.2576366   -2.2576366   -1.3136751   0.06569805   -2.2576366   0.94396146   520346 
  577000    1.0218783   -2.2586392   -2.2586392   -1.3140205  0.074619532   -2.2586392   0.94461869   520346 
  578000    1.0236759   -2.2604192   -2.2604192   -1.3141388  0.063266162   -2.2604192    0.9462804   520346 
  579000    1.0220819   -2.2592346   -2.2592346   -1.3144277  0.058842136   -2.2592346   0.94480694   520346 
  580000    1.0210951   -2.2583383   -2.2583383   -1.3144436  0.059861491   -2.2583383   0.94389473   520346 
  581000    1.0213735   -2.2589279   -2.2589279   -1.3147759  0.066577501   -2.2589279   0.94415205   520346 
  582000    1.0217914   -2.2586964   -2.2586964    -1.314158  0.067983485   -2.2586964    0.9445384   520346 
  583000    1.0209736   -2.2585849   -2.2585849   -1.3148024  0.071931954   -2.2585849   0.94378243   520346 
  584000     1.017788   -2.2556758   -2.2556758   -1.3148382  0.061820556   -2.2556758   0.94083766   520346 
  585000    1.0209139    -2.258932    -2.258932   -1.3152048  0.067079195    -2.258932   0.94372723   520346 
  586000    1.0195241   -2.2571199   -2.2571199   -1.3146774  0.065890813   -2.2571199    0.9424425   520346 
  587000    1.0201517   -2.2584512   -2.2584512   -1.3154285    0.0739387   -2.2584512    0.9430227   520346 
  588000    1.0203969   -2.2594029   -2.2594029   -1.3161536  0.060653927   -2.2594029    0.9432493   520346 
  589000    1.0210074    -2.260203    -2.260203   -1.3163894  0.062342869    -2.260203   0.94381365   520346 
  590000    1.0224389   -2.2613462   -2.2613462   -1.3162093  0.079207163   -2.2613462    0.9451369   520346 
  591000     1.021242   -2.2601773   -2.2601773   -1.3161467  0.067896874   -2.2601773    0.9440305   520346 
  592000    1.0211018   -2.2602473   -2.2602473   -1.3163464  0.050816925   -2.2602473   0.94390093   520346 
  593000    1.0220983   -2.2612691   -2.2612691    -1.316447  0.066949975   -2.2612691   0.94482209   520346 
  594000    1.0211617   -2.2604318   -2.2604318   -1.3164755  0.067602379   -2.2604318   0.94395632   520346 
  595000    1.0186623   -2.2581949   -2.2581949    -1.316549   0.06211404   -2.2581949   0.94164589   520346 
  596000    1.0215393   -2.2614121   -2.2614121   -1.3171068  0.047503236   -2.2614121    0.9443053   520346 
  597000    1.0184266   -2.2591422   -2.2591422   -1.3177141  0.060289942   -2.2591422   0.94142802   520346 
  598000    1.0215251   -2.2616471   -2.2616471   -1.3173548  0.069352187   -2.2616471   0.94429226   520346 
  599000    1.0189984   -2.2595966   -2.2595966   -1.3176401  0.063132327   -2.2595966   0.94195653   520346 
  600000    1.0201033   -2.2607964   -2.2607964   -1.3178184  0.068315105   -2.2607964   0.94297795   520346 
  601000    1.0212417   -2.2622824   -2.2622824   -1.3182521   0.06670375   -2.2622824   0.94403029   520346 
  602000    1.0195321   -2.2607286   -2.2607286   -1.3182787  0.059021851   -2.2607286   0.94244988   520346 
  603000    1.0180426   -2.2594919   -2.2594919   -1.3184189  0.065160574   -2.2594919   0.94107299   520346 
  604000    1.0200427   -2.2611927   -2.2611927   -1.3182709  0.064133187   -2.2611927   0.94292188   520346 
  605000    1.0181851   -2.2603061   -2.2603061   -1.3191013  0.062050461   -2.2603061   0.94120478   520346 
  606000    1.0194431   -2.2609821   -2.2609821   -1.3186145  0.047398016   -2.2609821   0.94236764   520346 
  607000    1.0203845   -2.2623359   -2.2623359   -1.3190981  0.083582164   -2.2623359   0.94323786   520346 
  608000    1.0202113   -2.2621799   -2.2621799   -1.3191021  0.052879194   -2.2621799    0.9430778   520346 
  609000    1.0207156   -2.2622186   -2.2622186   -1.3186746  0.064226516   -2.2622186   0.94354394   520346 
  610000    1.0212705   -2.2631697   -2.2631697   -1.3191128  0.076546018   -2.2631697   0.94405687   520346 
  611000    1.0201745   -2.2622364   -2.2622364   -1.3191927  0.066657344   -2.2622364    0.9430437   520346 
  612000    1.0209848   -2.2635438   -2.2635438    -1.319751  0.058027002   -2.2635438   0.94379275   520346 
  613000    1.0214999   -2.2646018   -2.2646018   -1.3203329  0.069438991   -2.2646018    0.9442689   520346 
  614000    1.0207936   -2.2639349   -2.2639349   -1.3203188  0.057030303   -2.2639349   0.94361607   520346 
  615000    1.0231528    -2.265728    -2.265728   -1.3199312  0.058416631    -2.265728   0.94579686   520346 
  616000    1.0212329   -2.2635789   -2.2635789   -1.3195568  0.063481982   -2.2635789   0.94402216   520346 
  617000    1.0202924   -2.2624267   -2.2624267   -1.3192739  0.065111354   -2.2624267   0.94315274   520346 
  618000    1.0191512   -2.2612261   -2.2612261   -1.3191283  0.058899979   -2.2612261   0.94209778   520346 
  619000    1.0178403   -2.2609223   -2.2609223   -1.3200363  0.054187118   -2.2609223   0.94088605   520346 
  620000    1.0174604   -2.2609214   -2.2609214   -1.3203865  0.068899617   -2.2609214   0.94053487   520346 
  621000    1.0189533   -2.2626383   -2.2626383   -1.3207234  0.069562626   -2.2626383   0.94191489   520346 
  622000    1.0205408   -2.2636801   -2.2636801   -1.3202978  0.061935627   -2.2636801   0.94338234   520346 
  623000    1.0194988   -2.2626172   -2.2626172    -1.320198  0.063566671   -2.2626172   0.94241911   520346 
  624000    1.0205171   -2.2647325   -2.2647325   -1.3213721   0.07358821   -2.2647325   0.94336043   520346 
  625000    1.0188827   -2.2641568   -2.2641568   -1.3223073  0.068765722   -2.2641568   0.94184956   520346 
  626000    1.0173894   -2.2620433   -2.2620433   -1.3215741  0.056913346   -2.2620433   0.94046923   520346 
  627000    1.0188492   -2.2640885   -2.2640885   -1.3222698  0.065405076   -2.2640885   0.94181861   520346 
  628000    1.0193496    -2.264147    -2.264147   -1.3218658  0.056028481    -2.264147   0.94228117   520346 
  629000    1.0168826   -2.2617474   -2.2617474   -1.3217467  0.061193784   -2.2617474   0.94000069   520346 
  630000    1.0184219   -2.2633521   -2.2633521   -1.3219284    0.0643935   -2.2633521   0.94142365   520346 
  631000    1.0194656   -2.2646523   -2.2646523   -1.3222639  0.064112685   -2.2646523   0.94238844   520346 
  632000      1.02154   -2.2672102   -2.2672102   -1.3229042   0.07095284   -2.2672102   0.94430601   520346 
  633000    1.0192105   -2.2661199   -2.2661199   -1.3239673  0.060258978   -2.2661199   0.94215261   520346 
  634000    1.0197233   -2.2667585   -2.2667585   -1.3241318  0.070786458   -2.2667585   0.94262664   520346 
  635000    1.0202913   -2.2673401   -2.2673401   -1.3241884  0.072048202   -2.2673401   0.94315171   520346 
  636000    1.0198848   -2.2664899   -2.2664899    -1.323714  0.050028247   -2.2664899   0.94277592   520346 
  637000    1.0199164     -2.26691     -2.26691   -1.3241048  0.057265677     -2.26691   0.94280516   520346 
  638000    1.0208893   -2.2671167   -2.2671167   -1.3234122  0.063883922   -2.2671167   0.94370451   520346 
  639000    1.0204169    -2.266444    -2.266444   -1.3231762  0.064086071    -2.266444   0.94326777   520346 
  640000    1.0186156   -2.2648053   -2.2648053   -1.3232026  0.077884789   -2.2648053    0.9416027   520346 
  641000    1.0185414   -2.2649721   -2.2649721    -1.323438  0.072254555   -2.2649721   0.94153413   520346 
  642000    1.0186436   -2.2645989   -2.2645989   -1.3229703  0.061375226   -2.2645989   0.94162857   520346 
  643000    1.0215437   -2.2683449   -2.2683449   -1.3240355  0.059577907   -2.2683449    0.9443094   520346 
  644000    1.0211724   -2.2676288   -2.2676288   -1.3236626  0.068048318   -2.2676288   0.94396623   520346 
  645000    1.0208571   -2.2669059   -2.2669059   -1.3232312  0.062256971   -2.2669059   0.94367475   520346 
  646000    1.0207584   -2.2664279   -2.2664279   -1.3228444  0.069255568   -2.2664279   0.94358352   520346 
  647000    1.0208727   -2.2670518   -2.2670518   -1.3233626  0.066717194   -2.2670518   0.94368919   520346 
  648000    1.0221486   -2.2683024   -2.2683024   -1.3234339   0.07624194   -2.2683024   0.94486855   520346 
  649000    1.0186702   -2.2647573   -2.2647573   -1.3231042  0.066459994   -2.2647573   0.94165315   520346 
  650000    1.0186906   -2.2658973   -2.2658973   -1.3242253  0.060052355   -2.2658973   0.94167198   520346 
  651000    1.0198562    -2.266351    -2.266351   -1.3236015  0.058479375    -2.266351   0.94274951   520346 
  652000    1.0217156   -2.2687281   -2.2687281   -1.3242597  0.066067892   -2.2687281   0.94446836   520346 
  653000    1.0189655   -2.2662113   -2.2662113   -1.3242851  0.056728979   -2.2662113   0.94192614   520346 
  654000    1.0194956   -2.2663341   -2.2663341   -1.3239179  0.060092872   -2.2663341   0.94241618   520346 
  655000    1.0219235   -2.2691621   -2.2691621   -1.3245016  0.071468868   -2.2691621   0.94466052   520346 
  656000    1.0204409   -2.2680512   -2.2680512   -1.3247612  0.064081803   -2.2680512   0.94329002   520346 
  657000    1.0201061   -2.2678118   -2.2678118   -1.3248313  0.067342465   -2.2678118   0.94298049   520346 
  658000     1.019923   -2.2675679   -2.2675679   -1.3247567  0.069658516   -2.2675679   0.94281124   520346 
  659000    1.0206342    -2.268115    -2.268115   -1.3246464  0.056245605    -2.268115   0.94346867   520346 
  660000    1.0218352   -2.2692543   -2.2692543   -1.3246754   0.07065125   -2.2692543   0.94457889   520346 
  661000    1.0192275   -2.2678892   -2.2678892   -1.3257208  0.073536052   -2.2678892   0.94216836   520346 
  662000    1.0199725   -2.2679572   -2.2679572   -1.3251002  0.054665775   -2.2679572     0.942857   520346 
  663000    1.0214867   -2.2684002   -2.2684002   -1.3241434  0.067995314   -2.2684002   0.94425671   520346 
  664000    1.0194497   -2.2666895   -2.2666895   -1.3243157  0.058222201   -2.2666895   0.94237372   520346 
  665000    1.0204325   -2.2676902   -2.2676902    -1.324408  0.058682386   -2.2676902   0.94328221   520346 
  666000    1.0197005   -2.2685017   -2.2685017   -1.3258961  0.064075431   -2.2685017   0.94260557   520346 
  667000    1.0182754   -2.2661508   -2.2661508   -1.3248625  0.051959269   -2.2661508   0.94128823   520346 
  668000      1.01967   -2.2678248   -2.2678248   -1.3252474   0.07141453   -2.2678248   0.94257741   520346 
  669000    1.0199407   -2.2686268   -2.2686268   -1.3257992  0.065979882   -2.2686268   0.94282761   520346 
  670000    1.0192409   -2.2684933   -2.2684933   -1.3263126  0.074008944   -2.2684933   0.94218068   520346 
  671000    1.0194214   -2.2682839   -2.2682839   -1.3259363  0.059132766   -2.2682839   0.94234762   520346 
  672000    1.0182709   -2.2670323   -2.2670323   -1.3257482  0.060535993   -2.2670323   0.94128407   520346 
  673000     1.019279   -2.2678726   -2.2678726   -1.3256567  0.060659871   -2.2678726   0.94221591   520346 
  674000    1.0220476   -2.2703948   -2.2703948   -1.3256196    0.0567354   -2.2703948   0.94477521   520346 
  675000     1.021793   -2.2703195   -2.2703195   -1.3257796  0.069997628   -2.2703195   0.94453984   520346 
  676000    1.0207185   -2.2687074   -2.2687074   -1.3251608  0.052871026   -2.2687074   0.94354665   520346 
  677000    1.0184521   -2.2670344   -2.2670344   -1.3255829  0.060398713   -2.2670344   0.94145152   520346 
  678000    1.0205856   -2.2687689   -2.2687689   -1.3253452  0.069402202   -2.2687689   0.94342375   520346 
  679000    1.0178548   -2.2657563   -2.2657563   -1.3248569  0.053772555   -2.2657563   0.94089945   520346 
  680000    1.0189443   -2.2676111   -2.2676111   -1.3257045  0.060437062   -2.2676111   0.94190655   520346 
  681000    1.0195874   -2.2690764   -2.2690764   -1.3265754  0.058623703   -2.2690764     0.942501   520346 
  682000    1.0217837   -2.2704859   -2.2704859   -1.3259546  0.066446353   -2.2704859   0.94453131   520346 
  683000    1.0178211   -2.2672262   -2.2672262    -1.326358   0.06891004   -2.2672262   0.94086826   520346 
  684000    1.0203595    -2.270559    -2.270559   -1.3273442  0.059356037    -2.270559   0.94321472   520346 
  685000     1.020551   -2.2713567   -2.2713567    -1.327965  0.062140813   -2.2713567   0.94339174   520346 
  686000    1.0209755   -2.2709021   -2.2709021   -1.3271179  0.082421846   -2.2709021   0.94378413   520346 
  687000    1.0184938   -2.2693803   -2.2693803   -1.3278902   0.06632678   -2.2693803   0.94149012   520346 
  688000    1.0201182   -2.2712685   -2.2712685   -1.3282768  0.061063308   -2.2712685   0.94299166   520346 
  689000    1.0194597   -2.2705739   -2.2705739   -1.3281909  0.062774241   -2.2705739   0.94238299   520346 
  690000    1.0199781   -2.2717924   -2.2717924   -1.3289302  0.062134649   -2.2717924   0.94286222   520346 
  691000    1.0204813   -2.2728531   -2.2728531   -1.3295257  0.051800281   -2.2728531   0.94332736   520346 
  692000    1.0183549   -2.2712425   -2.2712425   -1.3298808  0.075452814   -2.2712425   0.94136173   520346 
  693000    1.0174429   -2.2696045   -2.2696045   -1.3290859  0.076049773   -2.2696045   0.94051866   520346 
  694000    1.0189354    -2.271366    -2.271366   -1.3294676   0.05737809    -2.271366   0.94189832   520346 
  695000    1.0193919   -2.2723301   -2.2723301   -1.3300098  0.063897381   -2.2723301   0.94232031   520346 
  696000    1.0182276    -2.271333    -2.271333   -1.3300889  0.059633833    -2.271333   0.94124405   520346 
  697000    1.0200272   -2.2719806   -2.2719806    -1.329073  0.071982101   -2.2719806   0.94290761   520346 
  698000     1.018323   -2.2713001   -2.2713001   -1.3299679  0.065831198   -2.2713001   0.94133222   520346 
  699000    1.0184273     -2.27265     -2.27265   -1.3312213  0.067657363     -2.27265   0.94142865   520346 
  700000    1.0198698   -2.2735731   -2.2735731    -1.330811  0.059884796   -2.2735731   0.94276209   520346 
  701000    1.0202215   -2.2738975   -2.2738975   -1.3308103  0.069360862   -2.2738975   0.94308719   520346 
  702000    1.0181714   -2.2719575   -2.2719575   -1.3307654  0.063256926   -2.2719575   0.94119207   520346 
  703000      1.01925   -2.2729491   -2.2729491   -1.3307599  0.062967994   -2.2729491   0.94218916   520346 
  704000    1.0196768   -2.2727348   -2.2727348   -1.3301511  0.070736761   -2.2727348   0.94258365   520346 
  705000    1.0188299   -2.2714277   -2.2714277   -1.3296269  0.058516032   -2.2714277   0.94180075   520346 
  706000     1.017433   -2.2698379   -2.2698379   -1.3293284  0.060937596   -2.2698379   0.94050952   520346 
  707000    1.0176814   -2.2701794   -2.2701794   -1.3294403  0.062716809   -2.2701794   0.94073914   520346 
  708000    1.0179945   -2.2712993   -2.2712993   -1.3302707  0.059525746   -2.2712993   0.94102856   520346 
  709000    1.0185364   -2.2714632   -2.2714632   -1.3299338  0.066947105   -2.2714632   0.94152946   520346 
  710000    1.0191602   -2.2716339   -2.2716339   -1.3295277  0.063387463   -2.2716339   0.94210614   520346 
  711000    1.0203642   -2.2727297   -2.2727297   -1.3295107  0.050978432   -2.2727297   0.94321907   520346 
  712000     1.018157   -2.2704962   -2.2704962   -1.3293174  0.059322863   -2.2704962   0.94117875   520346 
  713000    1.0208604   -2.2734301   -2.2734301   -1.3297523  0.064976657   -2.2734301   0.94367776   520346 
  714000    1.0189223   -2.2723691   -2.2723691   -1.3304829  0.054696284   -2.2723691   0.94188619   520346 
  715000    1.0167043   -2.2711108   -2.2711108   -1.3312748  0.071774989   -2.2711108   0.93983594   520346 
  716000    1.0167934   -2.2715193   -2.2715193    -1.331601  0.056041084   -2.2715193   0.93991824   520346 
  717000    1.0183008   -2.2739499   -2.2739499   -1.3326382  0.067821431   -2.2739499    0.9413117   520346 
  718000    1.0197439   -2.2741228   -2.2741228   -1.3314771  0.059481592   -2.2741228    0.9426457   520346 
  719000    1.0200719   -2.2751475   -2.2751475   -1.3321986  0.059462765   -2.2751475   0.94294887   520346 
  720000      1.01656   -2.2728461   -2.2728461   -1.3331436  0.051736437   -2.2728461   0.93970248   520346 
  721000    1.0179943   -2.2748988   -2.2748988   -1.3338704  0.063668016   -2.2748988   0.94102834   520346 
  722000    1.0187956   -2.2756158   -2.2756158   -1.3338467  0.072743834   -2.2756158   0.94176911   520346 
  723000    1.0193582   -2.2761515   -2.2761515   -1.3338624  0.070675468   -2.2761515   0.94228913   520346 
  724000    1.0193587   -2.2756374   -2.2756374   -1.3333478  0.061605929   -2.2756374   0.94228963   520346 
  725000    1.0166628   -2.2735844   -2.2735844   -1.3337868  0.067319196   -2.2735844   0.93979755   520346 
  726000     1.017233   -2.2737952   -2.2737952   -1.3334706  0.073692626   -2.2737952   0.94032462   520346 
  727000    1.0197151   -2.2765935   -2.2765935   -1.3339744   0.06327205   -2.2765935   0.94261903   520346 
  728000      1.01958    -2.277469    -2.277469   -1.3349748  0.053738968    -2.277469   0.94249422   520346 
  729000    1.0210585   -2.2777582   -2.2777582   -1.3338973  0.065084772   -2.2777582   0.94386092   520346 
  730000      1.01927   -2.2760719   -2.2760719   -1.3338643  0.066331732   -2.2760719   0.94220762   520346 
  731000    1.0162339   -2.2747186   -2.2747186   -1.3353175  0.059803669   -2.2747186   0.93940105   520346 
  732000    1.0173984   -2.2763706   -2.2763706    -1.335893  0.058198647   -2.2763706   0.94047756   520346 
  733000    1.0186365   -2.2772224   -2.2772224   -1.3356004  0.062832438   -2.2772224     0.941622   520346 
  734000    1.0158361   -2.2748088   -2.2748088   -1.3357754  0.063226313   -2.2748088   0.93903337   520346 
  735000    1.0191193   -2.2775562   -2.2775562   -1.3354879   0.05264796   -2.2775562   0.94206834   520346 
  736000    1.0176544   -2.2768223   -2.2768223   -1.3361081  0.061643887   -2.2768223   0.94071418   520346 
  737000    1.0180197   -2.2774003   -2.2774003   -1.3363484  0.076657794   -2.2774003   0.94105187   520346 
  738000    1.0182189   -2.2773321   -2.2773321   -1.3360961  0.056544393   -2.2773321   0.94123599   520346 
  739000    1.0156185   -2.2749118   -2.2749118   -1.3360796  0.060173896   -2.2749118   0.93883222   520346 
  740000     1.016894   -2.2760053   -2.2760053    -1.335994  0.054537755   -2.2760053   0.94001128   520346 
  741000    1.0190094   -2.2770301   -2.2770301   -1.3350634  0.067457554   -2.2770301    0.9419667   520346 
  742000    1.0199462   -2.2782168   -2.2782168   -1.3353841  0.066021169   -2.2782168   0.94283273   520346 
  743000     1.020239   -2.2784123   -2.2784123   -1.3353089  0.068538799   -2.2784123   0.94310337   520346 
  744000     1.018386   -2.2772777   -2.2772777   -1.3358873  0.060856032   -2.2772777   0.94139041   520346 
  745000    1.0165105   -2.2758197   -2.2758197   -1.3361629  0.068004715   -2.2758197   0.93965676   520346 
  746000    1.0176106   -2.2766111   -2.2766111   -1.3359374  0.068333139   -2.2766111   0.94067367   520346 
  747000    1.0193098   -2.2775443   -2.2775443   -1.3352999  0.055854068   -2.2775443   0.94224437   520346 
  748000    1.0170367   -2.2760146   -2.2760146   -1.3358714  0.063138638   -2.2760146   0.94014318   520346 
  749000    1.0201724   -2.2792974   -2.2792974   -1.3362556  0.072479691   -2.2792974   0.94304176   520346 
  750000    1.0206608   -2.2787295   -2.2787295   -1.3352362  0.061299553   -2.2787295   0.94349328   520346 
  751000    1.0179571    -2.276262    -2.276262    -1.335268  0.062456856    -2.276262   0.94099394   520346 
  752000    1.0186542   -2.2768556   -2.2768556   -1.3352172  0.061084342   -2.2768556   0.94163842   520346 
  753000    1.0181175   -2.2769113   -2.2769113    -1.335769  0.057357832   -2.2769113    0.9411423   520346 
  754000    1.0187503   -2.2772825   -2.2772825   -1.3355553  0.060919311   -2.2772825   0.94172724   520346 
  755000    1.0187609   -2.2774862   -2.2774862   -1.3357493  0.065911202   -2.2774862   0.94173697   520346 
  756000    1.0184338   -2.2774504   -2.2774504   -1.3360157  0.067409274   -2.2774504   0.94143463   520346 
  757000    1.0204593   -2.2797499   -2.2797499   -1.3364429  0.061382602   -2.2797499   0.94330699   520346 
  758000    1.0189722   -2.2785564   -2.2785564    -1.336624  0.064846486   -2.2785564   0.94193237   520346 
  759000    1.0193448   -2.2798529   -2.2798529   -1.3375762  0.072460794   -2.2798529   0.94227673   520346 
  760000    1.0175576   -2.2777093   -2.2777093   -1.3370846  0.075111191   -2.2777093   0.94062472   520346 
  761000    1.0195031   -2.2796794   -2.2796794   -1.3372563  0.049630165   -2.2796794    0.9424231   520346 
  762000    1.0191936   -2.2795487   -2.2795487   -1.3374117  0.058734123   -2.2795487     0.942137   520346 
  763000    1.0183887   -2.2797547   -2.2797547   -1.3383618  0.071401736   -2.2797547   0.94139296   520346 
  764000     1.018235   -2.2800923   -2.2800923   -1.3388414    0.0628816   -2.2800923   0.94125091   520346 
  765000    1.0183811    -2.280645    -2.280645   -1.3392591  0.070816003    -2.280645    0.9413859   520346 
  766000    1.0163118   -2.2781483   -2.2781483   -1.3386753  0.053536531   -2.2781483   0.93947303   520346 
  767000     1.017134   -2.2786319   -2.2786319   -1.3383988   0.06240221   -2.2786319   0.94023313   520346 
  768000    1.0175865    -2.279688    -2.279688   -1.3390366  0.057421513    -2.279688    0.9406514   520346 
  769000    1.0182946   -2.2802495   -2.2802495   -1.3389435  0.041966012   -2.2802495   0.94130598   520346 
  770000    1.0178951   -2.2801869   -2.2801869   -1.3392503  0.052636201   -2.2801869   0.94093663   520346 
  771000    1.0189355   -2.2804846   -2.2804846   -1.3385862  0.052841878   -2.2804846   0.94189843   520346 
  772000    1.0150229    -2.277304    -2.277304   -1.3390223  0.065138281    -2.277304   0.93828165   520346 
  773000    1.0182452   -2.2807914   -2.2807914   -1.3395312  0.065010438   -2.2807914   0.94126026   520346 
  774000    1.0165285   -2.2794742   -2.2794742   -1.3398008  0.057340988   -2.2794742   0.93967339   520346 
  775000    1.0147422   -2.2778208   -2.2778208   -1.3397986  0.048264392   -2.2778208   0.93802215   520346 
  776000    1.0184406   -2.2809512   -2.2809512   -1.3395102  0.078532096   -2.2809512   0.94144097   520346 
  777000    1.0181552   -2.2814378   -2.2814378   -1.3402607  0.080464617   -2.2814378   0.94117708   520346 
  778000    1.0165231   -2.2803924   -2.2803924    -1.340724  0.064196965   -2.2803924   0.93966842   520346 
  779000    1.0161058   -2.2799965   -2.2799965   -1.3407138  0.071402651   -2.2799965   0.93928267   520346 
  780000    1.0167821   -2.2803261   -2.2803261   -1.3404183  0.064138791   -2.2803261   0.93990779   520346 
  781000    1.0146115   -2.2785137   -2.2785137   -1.3406123  0.059464697   -2.2785137   0.93790131   520346 
  782000    1.0175356   -2.2807796   -2.2807796   -1.3401752  0.061047791   -2.2807796   0.94060432   520346 
  783000     1.018552   -2.2815482   -2.2815482   -1.3400043  0.056722329   -2.2815482   0.94154391   520346 
  784000    1.0173394   -2.2806561   -2.2806561   -1.3402331  0.060163181   -2.2806561   0.94042298   520346 
  785000    1.0171604   -2.2805195   -2.2805195    -1.340262  0.063513394   -2.2805195   0.94025755   520346 
  786000    1.0177752   -2.2803018   -2.2803018    -1.339476  0.070542883   -2.2803018   0.94082588   520346 
  787000    1.0176281   -2.2800672   -2.2800672   -1.3393773  0.048224902   -2.2800672   0.94068987   520346 
  788000    1.0167003    -2.279711    -2.279711   -1.3398789  0.071790269    -2.279711   0.93983216   520346 
  789000    1.0171395   -2.2815255   -2.2815255   -1.3412873  0.056602275   -2.2815255    0.9402382   520346 
  790000    1.0171331   -2.2812382   -2.2812382    -1.341006  0.064581285   -2.2812382   0.94023224   520346 
  791000    1.0190979   -2.2832972   -2.2832972   -1.3412487  0.065570908   -2.2832972   0.94204851   520346 
  792000     1.016904   -2.2810643   -2.2810643   -1.3410438  0.069252901   -2.2810643   0.94002046   520346 
  793000    1.0179123   -2.2823973   -2.2823973   -1.3414447  0.055814301   -2.2823973   0.94095258   520346 
  794000     1.018881   -2.2839834   -2.2839834   -1.3421354  0.074269583   -2.2839834   0.94184805   520346 
  795000    1.0191362   -2.2844113   -2.2844113   -1.3423274  0.064749295   -2.2844113   0.94208396   520346 
  796000    1.0171639    -2.282144    -2.282144   -1.3418833  0.077622934    -2.282144   0.94026071   520346 
  797000    1.0191885   -2.2847657   -2.2847657   -1.3426334  0.066352112   -2.2847657    0.9421323   520346 
  798000     1.018037   -2.2840416   -2.2840416   -1.3429738  0.063039067   -2.2840416   0.94106782   520346 
  799000    1.0180734   -2.2843429   -2.2843429   -1.3432415  0.060944675   -2.2843429   0.94110147   520346 
  800000     1.016777   -2.2828404   -2.2828404   -1.3429373   0.06831759   -2.2828404   0.93990309   520346 
  801000    1.0166885   -2.2824663   -2.2824663    -1.342645   0.06710489   -2.2824663   0.93982127   520346 
  802000    1.0161888   -2.2812493   -2.2812493     -1.34189  0.064315425   -2.2812493   0.93935935   520346 
  803000    1.0170939    -2.281482    -2.281482    -1.341286  0.060983598    -2.281482   0.94019605   520346 
  804000     1.018313   -2.2826069   -2.2826069   -1.3412839  0.058783498   -2.2826069   0.94132299   520346 
  805000    1.0164392    -2.281214    -2.281214   -1.3416232  0.064635294    -2.281214   0.93959088   520346 
  806000    1.0181746   -2.2828063   -2.2828063   -1.3416113   0.06196263   -2.2828063   0.94119501   520346 
  807000    1.0164735   -2.2818025   -2.2818025   -1.3421799  0.049820883   -2.2818025   0.93962254   520346 
  808000    1.0160373   -2.2818498   -2.2818498   -1.3426305  0.057298572   -2.2818498    0.9392193   520346 
  809000     1.016201   -2.2816342   -2.2816342   -1.3422635  0.063140793   -2.2816342    0.9393707   520346 
  810000    1.0185629    -2.284367    -2.284367    -1.342813   0.06131262    -2.284367   0.94155398   520346 
  811000    1.0183438    -2.284574    -2.284574   -1.3432225  0.058538048    -2.284574   0.94135147   520346 
  812000    1.0185986   -2.2850516   -2.2850516   -1.3434646  0.057233906   -2.2850516   0.94158696   520346 
  813000    1.0159181   -2.2829248   -2.2829248   -1.3438157  0.064432843   -2.2829248    0.9391091   520346 
  814000    1.0167756   -2.2847595   -2.2847595   -1.3448576  0.068016086   -2.2847595   0.93990184   520346 
  815000    1.0144337   -2.2823752   -2.2823752   -1.3446382  0.053262084   -2.2823752   0.93773702   520346 
  816000    1.0160108   -2.2829194   -2.2829194   -1.3437246  0.061199962   -2.2829194   0.93919486   520346 
  817000    1.0180693   -2.2852173   -2.2852173   -1.3441196  0.072988104   -2.2852173   0.94109768   520346 
  818000    1.0166753   -2.2836978   -2.2836978   -1.3438887  0.068030632   -2.2836978   0.93980906   520346 
  819000    1.0171153   -2.2842673   -2.2842673   -1.3440516  0.067574884   -2.2842673   0.94021578   520346 
  820000    1.0176031   -2.2850496   -2.2850496   -1.3443829  0.069048937   -2.2850496   0.94066674   520346 
  821000    1.0168212    -2.284995    -2.284995    -1.345051  0.064316931    -2.284995   0.93994398   520346 
  822000    1.0160134   -2.2838689   -2.2838689   -1.3446717  0.055047894   -2.2838689   0.93919724   520346 
  823000    1.0148354   -2.2826944   -2.2826944   -1.3445861  0.056071897   -2.2826944   0.93810829   520346 
  824000    1.0159004    -2.283942    -2.283942   -1.3448493  0.052336872    -2.283942   0.93909279   520346 
  825000    1.0152348   -2.2827937   -2.2827937   -1.3443162  0.055405287   -2.2827937   0.93847746   520346 
  826000    1.0166182   -2.2843608   -2.2843608   -1.3446045  0.064659776   -2.2843608   0.93975633   520346 
  827000    1.0175242   -2.2855049   -2.2855049   -1.3449111  0.061703275   -2.2855049   0.94059378   520346 
  828000    1.0174041   -2.2854919   -2.2854919   -1.3450091  0.074246066   -2.2854919   0.94048282   520346 
  829000    1.0205383   -2.2882385   -2.2882385   -1.3448585  0.064893557   -2.2882385   0.94338004   520346 
  830000    1.0180151   -2.2860143   -2.2860143   -1.3449667  0.065517474   -2.2860143   0.94104763   520346 
  831000    1.0179378   -2.2872176   -2.2872176   -1.3462414  0.056620383   -2.2872176   0.94097614   520346 
  832000    1.0150007   -2.2846097   -2.2846097   -1.3463486  0.055390982   -2.2846097   0.93826112   520346 
  833000    1.0151268   -2.2860712   -2.2860712   -1.3476935  0.063385989   -2.2860712    0.9383777   520346 
  834000    1.0170751    -2.288594    -2.288594   -1.3484153  0.053732532    -2.288594   0.94017866   520346 
  835000    1.0179835   -2.2897192   -2.2897192   -1.3487008  0.066188464   -2.2897192   0.94101837   520346 
  836000    1.0185815   -2.2900516   -2.2900516   -1.3484804  0.064604567   -2.2900516   0.94157121   520346 
  837000    1.0160139   -2.2885999   -2.2885999   -1.3494022  0.063927889   -2.2885999   0.93919772   520346 
  838000    1.0155183   -2.2887521   -2.2887521   -1.3500125  0.058525513   -2.2887521   0.93873958   520346 
  839000    1.0180475   -2.2912675   -2.2912675   -1.3501899  0.064618008   -2.2912675   0.94107753   520346 
  840000    1.0149663   -2.2887857   -2.2887857   -1.3505564  0.072586858   -2.2887857   0.93822934   520346 
  841000    1.0166641   -2.2902581   -2.2902581   -1.3504594  0.056975434   -2.2902581   0.93979871   520346 
  842000    1.0166827   -2.2910914   -2.2910914   -1.3512755  0.062101411   -2.2910914   0.93981596   520346 
  843000    1.0178176   -2.2912415   -2.2912415   -1.3503765  0.068787797   -2.2912415   0.94086501   520346 
  844000    1.0167551    -2.289892    -2.289892   -1.3500091  0.066257489    -2.289892   0.93988288   520346 
  845000    1.0155185   -2.2893106   -2.2893106   -1.3505709  0.071902014   -2.2893106   0.93873977   520346 
  846000     1.016379   -2.2888643   -2.2888643   -1.3493291  0.076429652   -2.2888643   0.93953517   520346 
  847000     1.016819   -2.2887887   -2.2887887   -1.3488468  0.057475291   -2.2887887    0.9399419   520346 
  848000    1.0172161   -2.2891877   -2.2891877   -1.3488787  0.062396353   -2.2891877   0.94030899   520346 
  849000    1.0165482   -2.2876017   -2.2876017   -1.3479101  0.059155733   -2.2876017   0.93969156   520346 
  850000    1.0163008   -2.2879855   -2.2879855   -1.3485226  0.066330469   -2.2879855   0.93946294   520346 
  851000    1.0166183   -2.2886715   -2.2886715   -1.3489151  0.059369773   -2.2886715   0.93975639   520346 
  852000    1.0168104   -2.2879336   -2.2879336   -1.3479996  0.060412316   -2.2879336     0.939934   520346 
  853000    1.0169826   -2.2873809   -2.2873809   -1.3472877  0.065228275   -2.2873809   0.94009319   520346 
  854000    1.0141856   -2.2850869   -2.2850869   -1.3475793  0.067874709   -2.2850869    0.9375076   520346 
  855000    1.0162171   -2.2874765   -2.2874765    -1.348091  0.063583214   -2.2874765   0.93938555   520346 
  856000    1.0181694   -2.2888827   -2.2888827   -1.3476925  0.061448111   -2.2888827   0.94119024   520346 
  857000    1.0167529    -2.289142    -2.289142   -1.3492612  0.088202241    -2.289142   0.93988085   520346 
  858000    1.0169674   -2.2892381   -2.2892381    -1.349159  0.071953337   -2.2892381   0.94007907   520346 
  859000     1.014925   -2.2878043   -2.2878043   -1.3496131  0.055268708   -2.2878043   0.93819116   520346 
  860000    1.0147903   -2.2877735   -2.2877735   -1.3497068  0.055535355   -2.2877735   0.93806665   520346 
  861000     1.015968   -2.2890096   -2.2890096   -1.3498543  0.065824465   -2.2890096   0.93915531   520346 
  862000    1.0162347   -2.2894615   -2.2894615   -1.3500597  0.043940469   -2.2894615   0.93940179   520346 
  863000    1.0159538   -2.2897765   -2.2897765   -1.3506344  0.064168227   -2.2897765   0.93914214   520346 
  864000     1.014737   -2.2888908   -2.2888908   -1.3508734   0.05325752   -2.2888908   0.93801735   520346 
  865000    1.0158529   -2.2899941   -2.2899941   -1.3509452  0.060440519   -2.2899941    0.9390489   520346 
  866000    1.0173192   -2.2914084   -2.2914084   -1.3510041  0.052444261   -2.2914084    0.9404043   520346 
  867000    1.0160454   -2.2904067   -2.2904067   -1.3511799   0.06933988   -2.2904067   0.93922677   520346 
  868000    1.0169991    -2.290937    -2.290937   -1.3508287  0.066913084    -2.290937   0.94010837   520346 
  869000    1.0170614   -2.2911993   -2.2911993   -1.3510332  0.061062907   -2.2911993   0.94016603   520346 
  870000    1.0161866   -2.2908812   -2.2908812   -1.3515239  0.066386045   -2.2908812    0.9393573   520346 
  871000    1.0144181   -2.2892137   -2.2892137   -1.3514911  0.070583237   -2.2892137   0.93772255   520346 
  872000    1.0164341   -2.2910725   -2.2910725   -1.3514864  0.068181683   -2.2910725    0.9395861   520346 
  873000    1.0168609   -2.2906632   -2.2906632   -1.3506826  0.061654808   -2.2906632   0.93998062   520346 
  874000    1.0157029   -2.2905576   -2.2905576   -1.3516474  0.065337255   -2.2905576   0.93891022   520346 
  875000    1.0179302   -2.2919235   -2.2919235   -1.3509543  0.072894384   -2.2919235   0.94096914   520346 
  876000    1.0153614   -2.2900768   -2.2900768   -1.3514823  0.060410265   -2.2900768   0.93859452   520346 
  877000    1.0143376   -2.2898969   -2.2898969   -1.3522487  0.067687703   -2.2898969   0.93764816   520346 
  878000    1.0162939   -2.2910926   -2.2910926   -1.3516361  0.063462755   -2.2910926   0.93945649   520346 
  879000    1.0160825   -2.2914277   -2.2914277   -1.3521666  0.070556019   -2.2914277    0.9392611   520346 
  880000    1.0162224   -2.2919405   -2.2919405   -1.3525501  0.055947897   -2.2919405   0.93939042   520346 
  881000     1.018532    -2.293518    -2.293518   -1.3519926  0.048253836    -2.293518   0.94152545   520346 
  882000    1.0151586   -2.2903029   -2.2903029   -1.3518958  0.062571584   -2.2903029   0.93840702   520346 
  883000    1.0175922   -2.2918655   -2.2918655   -1.3512089  0.064448135   -2.2918655   0.94065667   520346 
  884000    1.0180804   -2.2924511   -2.2924511   -1.3513431  0.067824815   -2.2924511   0.94110801   520346 
  885000    1.0175273   -2.2924732   -2.2924732   -1.3518765  0.067215213   -2.2924732   0.94059665   520346 
  886000    1.0135222   -2.2890102   -2.2890102   -1.3521158  0.054305848   -2.2890102   0.93689436   520346 
  887000    1.0169798   -2.2925221   -2.2925221   -1.3524315  0.058865015   -2.2925221   0.94009054   520346 
  888000    1.0167695   -2.2929478   -2.2929478   -1.3530516  0.068829389   -2.2929478   0.93989618   520346 
  889000    1.0151146   -2.2921413   -2.2921413   -1.3537749  0.056737216   -2.2921413   0.93836636   520346 
  890000    1.0155676   -2.2929928   -2.2929928   -1.3542076  0.072491912   -2.2929928   0.93878512   520346 
  891000    1.0185574   -2.2944763   -2.2944763   -1.3529275  0.074293048   -2.2944763   0.94154886   520346 
  892000    1.0163312    -2.293311    -2.293311     -1.35382  0.059855205    -2.293311   0.93949105   520346 
  893000    1.0158982   -2.2924048   -2.2924048    -1.353314  0.049600549   -2.2924048   0.93909079   520346 
  894000    1.0146791   -2.2919294   -2.2919294   -1.3539656  0.065074261   -2.2919294   0.93796379   520346 
  895000    1.0172041   -2.2949128   -2.2949128   -1.3546148  0.058382912   -2.2949128   0.94029796   520346 
  896000    1.0163482   -2.2932146   -2.2932146   -1.3537079   0.06163962   -2.2932146    0.9395067   520346 
  897000    1.0180523   -2.2949164   -2.2949164   -1.3538344  0.065101908   -2.2949164     0.941082   520346 
  898000     1.016649   -2.2934059   -2.2934059   -1.3536211  0.068318825   -2.2934059   0.93978482   520346 
  899000    1.0140656   -2.2920092   -2.2920092   -1.3546125  0.062216117   -2.2920092   0.93739672   520346 
  900000    1.0141863   -2.2918079   -2.2918079   -1.3542996  0.056611138   -2.2918079   0.93750832   520346 
  901000    1.0157937   -2.2928272   -2.2928272    -1.353833  0.062799016   -2.2928272   0.93899412   520346 
  902000    1.0164034   -2.2932535   -2.2932535   -1.3536957  0.063219102   -2.2932535   0.93955776   520346 
  903000    1.0170311   -2.2936821   -2.2936821   -1.3535441  0.067333808   -2.2936821   0.94013797   520346 
  904000    1.0171162   -2.2939887   -2.2939887    -1.353772  0.077213472   -2.2939887    0.9402167   520346 
  905000    1.0168706   -2.2938756   -2.2938756    -1.353886  0.059811117   -2.2938756   0.93998964   520346 
  906000    1.0137023   -2.2898848   -2.2898848   -1.3528239    0.0724783   -2.2898848   0.93706086   520346 
  907000    1.0155529   -2.2926676   -2.2926676   -1.3538961  0.063648068   -2.2926676   0.93877154   520346 
  908000    1.0145735   -2.2912082   -2.2912082    -1.353342  0.062828037   -2.2912082    0.9378662   520346 
  909000    1.0155232   -2.2929252   -2.2929252   -1.3541811  0.062912901   -2.2929252   0.93874414   520346 
  910000     1.015435   -2.2929519   -2.2929519   -1.3542893  0.061089318   -2.2929519   0.93866259   520346 
  911000    1.0145483   -2.2910025   -2.2910025   -1.3531595  0.076903179   -2.2910025   0.93784294   520346 
  912000    1.0172314     -2.29286     -2.29286   -1.3525368  0.062794507     -2.29286   0.94032318   520346 
  913000    1.0142031   -2.2911564   -2.2911564   -1.3536326  0.056988042   -2.2911564   0.93752376   520346 
  914000    1.0141504    -2.291591    -2.291591    -1.354116  0.060659349    -2.291591   0.93747506   520346 
  915000    1.0163955   -2.2935199   -2.2935199   -1.3539695  0.064984602   -2.2935199   0.93955042   520346 
  916000    1.0158899    -2.293599    -2.293599    -1.354516  0.064193761    -2.293599   0.93908304   520346 
  917000    1.0127619   -2.2913622   -2.2913622   -1.3551707   0.08175772   -2.2913622   0.93619157   520346 
  918000    1.0163848   -2.2940779   -2.2940779   -1.3545373  0.054843448   -2.2940779   0.93954054   520346 
  919000    1.0165167   -2.2945591   -2.2945591   -1.3548966  0.063138276   -2.2945591   0.93966251   520346 
  920000    1.0146762   -2.2939624   -2.2939624   -1.3560013  0.057811058   -2.2939624   0.93796111   520346 
  921000    1.0142126   -2.2941221   -2.2941221   -1.3565895  0.053980603   -2.2941221   0.93753262   520346 
  922000    1.0149806   -2.2950192   -2.2950192   -1.3567766  0.059522568   -2.2950192   0.93824253   520346 
  923000    1.0155515   -2.2956445   -2.2956445   -1.3568742  0.068581138   -2.2956445   0.93877025   520346 
  924000    1.0144587   -2.2954435   -2.2954435   -1.3576834  0.072962403   -2.2954435   0.93776007   520346 
  925000    1.0153653   -2.2957688   -2.2957688   -1.3571707  0.066581665   -2.2957688   0.93859817   520346 
  926000    1.0146435   -2.2948999   -2.2948999    -1.356969  0.052816459   -2.2948999    0.9379309   520346 
  927000    1.0165467   -2.2966012   -2.2966012    -1.356911  0.063361784   -2.2966012    0.9396902   520346 
  928000    1.0139906   -2.2941992   -2.2941992   -1.3568718  0.057702321   -2.2941992   0.93732739   520346 
  929000    1.0161976   -2.2964317   -2.2964317   -1.3570642  0.072296644   -2.2964317   0.93936748   520346 
  930000    1.0132248   -2.2941632   -2.2941632   -1.3575437  0.050307305   -2.2941632    0.9366195   520346 
  931000    1.0133152   -2.2931637   -2.2931637   -1.3564607  0.048209641   -2.2931637     0.936703   520346 
  932000    1.0164486   -2.2957891   -2.2957891   -1.3561895  0.072518519   -2.2957891   0.93959953   520346 
  933000    1.0155204   -2.2950532   -2.2950532   -1.3563117  0.062588085   -2.2950532   0.93874149   520346 
  934000    1.0154452   -2.2955416   -2.2955416   -1.3568696  0.063665646   -2.2955416   0.93867198   520346 
  935000    1.0162718   -2.2958313   -2.2958313   -1.3563952  0.059242525   -2.2958313   0.93943612   520346 
  936000     1.015396   -2.2953954   -2.2953954   -1.3567688   0.06294287   -2.2953954   0.93862653   520346 
  937000    1.0169244   -2.2968783   -2.2968783   -1.3568389  0.061768434   -2.2968783   0.94003939   520346 
  938000    1.0146598   -2.2949139   -2.2949139   -1.3569679  0.070861668   -2.2949139   0.93794601   520346 
  939000    1.0149888   -2.2946444   -2.2946444   -1.3563943  0.073299782   -2.2946444   0.93825011   520346 
  940000     1.015069   -2.2948956   -2.2948956   -1.3565714  0.061571793   -2.2948956   0.93832421   520346 
  941000    1.0150032   -2.2960765   -2.2960765   -1.3578131  0.065833028   -2.2960765   0.93826346   520346 
  942000    1.0149517   -2.2960726   -2.2960726   -1.3578568  0.061226301   -2.2960726   0.93821582   520346 
  943000    1.0164591   -2.2981413   -2.2981413    -1.358532  0.050028578   -2.2981413   0.93960921   520346 
  944000    1.0151606    -2.296552    -2.296552   -1.3581431  0.076716951    -2.296552   0.93840891   520346 
  945000    1.0139314   -2.2962435   -2.2962435   -1.3589708   0.05727489   -2.2962435   0.93727263   520346 
  946000    1.0144539    -2.296442    -2.296442   -1.3586863  0.067779806    -2.296442   0.93775568   520346 
  947000    1.0154586   -2.2981179   -2.2981179   -1.3594335  0.058597268   -2.2981179    0.9386844   520346 
  948000    1.0141578   -2.2968967   -2.2968967   -1.3594148  0.071703253   -2.2968967    0.9374819   520346 
  949000    1.0157014   -2.2988818   -2.2988818   -1.3599729  0.067701963   -2.2988818   0.93890882   520346 
  950000    1.0139863   -2.2973346   -2.2973346   -1.3600112  0.059399524   -2.2973346   0.93732339   520346 
  951000    1.0133818   -2.2965337   -2.2965337   -1.3597691  0.055750426   -2.2965337   0.93676462   520346 
  952000    1.0126811   -2.2960917   -2.2960917   -1.3599748  0.069582863   -2.2960917    0.9361169   520346 
  953000    1.0137321   -2.2974202   -2.2974202   -1.3603319  0.070594028   -2.2974202   0.93708838   520346 
  954000    1.0121862   -2.2954719   -2.2954719   -1.3598125  0.067661201   -2.2954719   0.93565943   520346 
  955000    1.0136088   -2.2968985   -2.2968985   -1.3599241  0.058755562   -2.2968985   0.93697447   520346 
  956000    1.0142334   -2.2983297   -2.2983297   -1.3607779  0.071559576   -2.2983297   0.93755182   520346 
  957000    1.0151603   -2.2988705   -2.2988705   -1.3604619  0.059763487   -2.2988705   0.93840862   520346 
  958000    1.0174514   -2.3008328   -2.3008328   -1.3603062  0.068453479   -2.3008328   0.94052656   520346 
  959000    1.0162412   -2.3004197   -2.3004197   -1.3610119  0.066270439   -2.3004197   0.93940785   520346 
  960000    1.0134481   -2.2983883   -2.2983883   -1.3615625   0.06753273   -2.2983883   0.93682589   520346 
  961000    1.0139293   -2.2985472   -2.2985472   -1.3612765  0.063237744   -2.2985472   0.93727072   520346 
  962000      1.01366   -2.2987532   -2.2987532   -1.3617314  0.059660463   -2.2987532   0.93702178   520346 
  963000    1.0144261   -2.2988152   -2.2988152   -1.3610852  0.067220503   -2.2988152   0.93772995   520346 
  964000    1.0145695   -2.2990379   -2.2990379   -1.3611755   0.05618973   -2.2990379   0.93786248   520346 
  965000    1.0134049   -2.2986782   -2.2986782   -1.3618923  0.056742494   -2.2986782   0.93678598   520346 
  966000    1.0158738    -2.300319    -2.300319   -1.3612508  0.064662076    -2.300319   0.93906818   520346 
  967000    1.0156811   -2.3003613   -2.3003613   -1.3614712  0.067553291   -2.3003613   0.93889005   520346 
  968000    1.0149191   -2.3001364   -2.3001364   -1.3619508  0.075696404   -2.3001364   0.93818564   520346 
  969000    1.0143256   -2.3002661   -2.3002661    -1.362629  0.070776512   -2.3002661   0.93763706   520346 
  970000    1.0144368   -2.3004187   -2.3004187   -1.3626788  0.069114715   -2.3004187   0.93773982   520346 
  971000    1.0141097   -2.2998311   -2.2998311   -1.3623936  0.068235385   -2.2998311    0.9374375   520346 
  972000    1.0137778   -2.2988584   -2.2988584   -1.3617277  0.068385232   -2.2988584   0.93713069   520346 
  973000    1.0163437   -2.3007598   -2.3007598   -1.3612572  0.061410251   -2.3007598   0.93950261   520346 
  974000    1.0139508   -2.2997027   -2.2997027   -1.3624121  0.062325412   -2.2997027   0.93729062   520346 
  975000    1.0145111   -2.2998079   -2.2998079   -1.3619994  0.068641131   -2.2998079   0.93780849   520346 
  976000    1.0159855   -2.3014245   -2.3014245   -1.3622531  0.051843384   -2.3014245   0.93917142   520346 
  977000    1.0138991   -2.2996778   -2.2996778   -1.3624349  0.054759334   -2.2996778   0.93724281   520346 
  978000    1.0120955   -2.2977704   -2.2977704   -1.3621948  0.056185547   -2.2977704   0.93557552   520346 
  979000    1.0133964   -2.2987494   -2.2987494   -1.3619713  0.060783689   -2.2987494   0.93677807   520346 
  980000    1.0116817   -2.2975057   -2.2975057   -1.3623126   0.06145842   -2.2975057   0.93519307   520346 
  981000    1.0154034   -2.3004486   -2.3004486   -1.3618152  0.061260651   -2.3004486   0.93863338   520346 
  982000    1.0144247   -2.3000008   -2.3000008   -1.3622722  0.062553597   -2.3000008   0.93772866   520346 
  983000    1.0148837   -2.3011368   -2.3011368   -1.3629838  0.062689976   -2.3011368   0.93815298   520346 
  984000    1.0149712   -2.3012969   -2.3012969   -1.3630631  0.058916864   -2.3012969    0.9382338   520346 
  985000    1.0150512   -2.3011602   -2.3011602   -1.3628525  0.046230994   -2.3011602   0.93830776   520346 
  986000    1.0130789   -2.2996551   -2.2996551   -1.3631705  0.065037752   -2.2996551   0.93648458   520346 
  987000    1.0133188   -2.2996978   -2.2996978   -1.3629914  0.065942978   -2.2996978   0.93670641   520346 
  988000    1.0153697   -2.3015263   -2.3015263   -1.3629241  0.075032142   -2.3015263   0.93860218   520346 
  989000    1.0151061   -2.3027455   -2.3027455   -1.3643869  0.067765464   -2.3027455   0.93835858   520346 
  990000    1.0157379   -2.3038337   -2.3038337   -1.3648911  0.064265001   -2.3038337   0.93894257   520346 
  991000    1.0119975   -2.2996047   -2.2996047   -1.3641198  0.070601058   -2.2996047   0.93548493   520346 
  992000    1.0125028   -2.2998925   -2.2998925   -1.3639405  0.059462163   -2.2998925   0.93595207   520346 
  993000    1.0144023   -2.3002723   -2.3002723   -1.3625644  0.061578611   -2.3002723   0.93770791   520346 
  994000     1.015239   -2.3014883   -2.3014883   -1.3630069  0.052586451   -2.3014883   0.93848142   520346 
  995000     1.014607   -2.3013677   -2.3013677   -1.3634705  0.069903114   -2.3013677   0.93789715   520346 
  996000    1.0143666   -2.3007913   -2.3007913   -1.3631164  0.059787146   -2.3007913   0.93767493   520346 
  997000    1.0151756   -2.3016028   -2.3016028   -1.3631801  0.070455227   -2.3016028   0.93842274   520346 
  998000    1.0139008   -2.3013838   -2.3013838   -1.3641395  0.071013655   -2.3013838   0.93724432   520346 
  999000    1.0149434   -2.3024817   -2.3024817   -1.3642736  0.066523489   -2.3024817   0.93820812   520346 
 1000000    1.0146678   -2.3026951   -2.3026951   -1.3647417  0.064308916   -2.3026951   0.93795338   520346 
 1001000    1.0164599   -2.3044107   -2.3044107   -1.3648006  0.059190351   -2.3044107   0.93961001   520346 
 1002000    1.0159338   -2.3039514   -2.3039514   -1.3648278  0.076982461   -2.3039514   0.93912368   520346 
 1003000    1.0139014   -2.3015719   -2.3015719    -1.364327  0.069356843   -2.3015719   0.93724495   520346 
 1004000    1.0141978   -2.3020786   -2.3020786   -1.3645597  0.058980934   -2.3020786   0.93751888   520346 
 1005000    1.0131201   -2.3005935   -2.3005935   -1.3640708  0.066718504   -2.3005935   0.93652267   520346 
 1006000    1.0131007   -2.3003057   -2.3003057    -1.363801  0.066173858   -2.3003057   0.93650479   520346 
 1007000    1.0131534   -2.2997173   -2.2997173   -1.3631639  0.065313048   -2.2997173   0.93655347   520346 
 1008000    1.0143523   -2.3001706   -2.3001706   -1.3625089  0.074096901   -2.3001706   0.93766171   520346 
 1009000     1.015902   -2.3028276   -2.3028276   -1.3637333  0.070147118   -2.3028276    0.9390943   520346 
 1010000    1.0151956   -2.3016305   -2.3016305   -1.3631892  0.067114109   -2.3016305   0.93844125   520346 
 1011000    1.0158833   -2.3019248   -2.3019248   -1.3628478  0.064080819   -2.3019248     0.939077   520346 
 1012000    1.0159088    -2.303728    -2.303728   -1.3646274  0.069613761    -2.303728   0.93910059   520346 
 1013000    1.0143717   -2.3024683   -2.3024683   -1.3647886  0.051059512   -2.3024683   0.93767969   520346 
 1014000    1.0140723   -2.3020408   -2.3020408   -1.3646379  0.051154317   -2.3020408   0.93740287   520346 
 1015000    1.0125534   -2.3007227   -2.3007227   -1.3647239  0.059423185   -2.3007227    0.9359988   520346 
 1016000    1.0157825   -2.3037205   -2.3037205   -1.3647367  0.069550776   -2.3037205   0.93898376   520346 
 1017000    1.0140289   -2.3019845   -2.3019845   -1.3646217  0.063981867   -2.3019845   0.93736279   520346 
 1018000    1.0153469   -2.3033288   -2.3033288   -1.3647477  0.047742874   -2.3033288   0.93858113   520346 
 1019000    1.0128077   -2.3011179   -2.3011179    -1.364884  0.062697175   -2.3011179   0.93623391   520346 
 1020000    1.0146462   -2.3015282   -2.3015282   -1.3635949  0.057987438   -2.3015282   0.93793338   520346 
 1021000    1.0158161   -2.3036483   -2.3036483   -1.3646334   0.04865217   -2.3036483   0.93901489   520346 
 1022000    1.0136217   -2.3015139   -2.3015139   -1.3645275  0.070441479   -2.3015139   0.93698634   520346 
 1023000    1.0149795   -2.3028225   -2.3028225    -1.364581  0.074665024   -2.3028225   0.93824148   520346 
 1024000    1.0135474   -2.3013628   -2.3013628   -1.3644451  0.060929799   -2.3013628   0.93691768   520346 
 1025000    1.0131619    -2.302034    -2.302034   -1.3654726   0.07210911    -2.302034   0.93656133   520346 
 1026000    1.0156074   -2.3028113   -2.3028113   -1.3639894  0.064514545   -2.3028113   0.93882195   520346 
 1027000    1.0137668   -2.3019019   -2.3019019   -1.3647814  0.055534255   -2.3019019   0.93712049   520346 
 1028000    1.0141891   -2.3023946   -2.3023946   -1.3648837  0.047807069   -2.3023946   0.93751089   520346 
 1029000    1.0154478   -2.3041091   -2.3041091   -1.3654346  0.068358456   -2.3041091   0.93867443   520346 
 1030000    1.0158962   -2.3041844   -2.3041844   -1.3650954  0.074388844   -2.3041844   0.93908894   520346 
 1031000    1.0137307   -2.3024068   -2.3024068   -1.3653197  0.057243439   -2.3024068   0.93708713   520346 
 1032000    1.0161056   -2.3050244   -2.3050244    -1.365742  0.066516024   -2.3050244   0.93928243   520346 
 1033000    1.0146268   -2.3036891   -2.3036891   -1.3657737  0.066914508   -2.3036891   0.93791543   520346 
 1034000    1.0159392   -2.3043243   -2.3043243   -1.3651957  0.072848808   -2.3043243   0.93912867   520346 
 1035000    1.0155941   -2.3050418   -2.3050418   -1.3662322  0.062916666   -2.3050418   0.93880965   520346 
 1036000    1.0139319    -2.303811    -2.303811   -1.3665379  0.060067709    -2.303811   0.93727308   520346 
 1037000    1.0155049    -2.305588    -2.305588   -1.3668607  0.064345171    -2.305588   0.93872722   520346 
 1038000    1.0116893   -2.3017786   -2.3017786   -1.3665785  0.064408142   -2.3017786   0.93520008   520346 
 1039000     1.014042    -2.303673    -2.303673   -1.3662981  0.071934154    -2.303673    0.9373749   520346 
 1040000    1.0136965   -2.3028535   -2.3028535    -1.365798  0.059974605   -2.3028535   0.93705553   520346 
 1041000    1.0156457   -2.3049932   -2.3049932   -1.3661359  0.074712383   -2.3049932   0.93885731   520346 
 1042000    1.0131202   -2.3026966   -2.3026966   -1.3661739  0.073303197   -2.3026966   0.93652277   520346 
 1043000    1.0138367   -2.3036649   -2.3036649   -1.3664798  0.062008578   -2.3036649   0.93718508   520346 
 1044000    1.0161354   -2.3057604   -2.3057604   -1.3664504  0.062886657   -2.3057604   0.93931002   520346 
 1045000    1.0168339   -2.3067771   -2.3067771   -1.3668214  0.069613517   -2.3067771   0.93995569   520346 
 1046000    1.0151147   -2.3062653   -2.3062653   -1.3678988  0.062246739   -2.3062653   0.93836647   520346 
 1047000    1.0136953   -2.3047476   -2.3047476   -1.3676931  0.059356298   -2.3047476   0.93705441   520346 
 1048000    1.0155019   -2.3069048   -2.3069048   -1.3681804  0.070163608   -2.3069048    0.9387244   520346 
 1049000    1.0119705   -2.3041953   -2.3041953   -1.3687353  0.064216588   -2.3041953   0.93546001   520346 
 1050000    1.0140591   -2.3055621   -2.3055621   -1.3681714  0.067031445   -2.3055621   0.93739071   520346 
 1051000    1.0160921   -2.3072835   -2.3072835   -1.3680135  0.058759035   -2.3072835   0.93926998   520346 
 1052000    1.0144928    -2.305589    -2.305589   -1.3677973  0.065965881    -2.305589   0.93779165   520346 
 1053000    1.0140693   -2.3050644   -2.3050644   -1.3676642  0.059659582   -2.3050644   0.93740013   520346 
 1054000    1.0152658   -2.3069673   -2.3069673   -1.3684612  0.065313531   -2.3069673   0.93850612   520346 
 1055000    1.0148648   -2.3056609   -2.3056609   -1.3675254  0.053610145   -2.3056609   0.93813547   520346 
 1056000    1.0165014   -2.3074656   -2.3074656   -1.3678173  0.069148754   -2.3074656   0.93964833   520346 
 1057000    1.0162228   -2.3066947   -2.3066947   -1.3673039  0.058529931   -2.3066947   0.93939082   520346 
 1058000    1.0140311   -2.3047958   -2.3047958    -1.367431    0.0673165   -2.3047958   0.93736483   520346 
 1059000    1.0147634   -2.3052348   -2.3052348    -1.367193  0.057499095   -2.3052348   0.93804178   520346 
 1060000    1.0141142   -2.3049261   -2.3049261   -1.3674845  0.047208712   -2.3049261   0.93744162   520346 
 1061000    1.0134985   -2.3047395   -2.3047395    -1.367867  0.060360602   -2.3047395   0.93687246   520346 
 1062000    1.0125465   -2.3041417   -2.3041417   -1.3681492  0.062596696   -2.3041417   0.93599247   520346 
 1063000    1.0132473   -2.3045175   -2.3045175   -1.3678772  0.057559936   -2.3045175   0.93664028   520346 
 1064000    1.0154133   -2.3075467   -2.3075467   -1.3689042  0.065206773   -2.3075467   0.93864253   520346 
 1065000    1.0140321   -2.3070557   -2.3070557   -1.3696899  0.058910673   -2.3070557   0.93736577   520346 
 1066000    1.0142065   -2.3070617   -2.3070617   -1.3695348   0.06155049   -2.3070617    0.9375269   520346 
 1067000    1.0144106   -2.3072593   -2.3072593   -1.3695436  0.053280263   -2.3072593   0.93771565   520346 
 1068000    1.0149333   -2.3069593   -2.3069593   -1.3687605  0.064720098   -2.3069593   0.93819877   520346 
 1069000    1.0143367   -2.3071054   -2.3071054    -1.369458  0.074760957   -2.3071054   0.93764734   520346 
 1070000    1.0150049   -2.3083108   -2.3083108   -1.3700458  0.069730797   -2.3083108     0.938265   520346 
 1071000    1.0161021   -2.3092834   -2.3092834   -1.3700042  0.071058688   -2.3092834    0.9392792   520346 
 1072000    1.0137878   -2.3069824   -2.3069824   -1.3698426  0.067160653   -2.3069824   0.93713987   520346 
 1073000    1.0152563   -2.3082914   -2.3082914    -1.369794  0.059588974   -2.3082914   0.93849741   520346 
 1074000    1.0140415   -2.3065823   -2.3065823   -1.3692079  0.065084103   -2.3065823   0.93737439   520346 
 1075000    1.0140409   -2.3066976   -2.3066976   -1.3693238  0.063583964   -2.3066976   0.93737383   520346 
 1076000      1.01392   -2.3062639   -2.3062639   -1.3690018  0.057995583   -2.3062639    0.9372621   520346 
 1077000    1.0140926     -2.30673     -2.30673   -1.3693083  0.068155536     -2.30673   0.93742168   520346 
 1078000    1.0169898   -2.3085651   -2.3085651   -1.3684653  0.055588857   -2.3085651   0.94009979   520346 
 1079000     1.017197   -2.3089681   -2.3089681   -1.3686768  0.071848238   -2.3089681   0.94029135   520346 
 1080000    1.0164505   -2.3082284   -2.3082284   -1.3686271  0.058914128   -2.3082284   0.93960127   520346 
 1081000    1.0154643   -2.3079543   -2.3079543   -1.3692646  0.061760501   -2.3079543   0.93868967   520346 
 1082000     1.012898   -2.3062849   -2.3062849   -1.3699675  0.075250239   -2.3062849   0.93631741   520346 
 1083000    1.0132029   -2.3058587   -2.3058587   -1.3692595  0.070911142   -2.3058587   0.93659924   520346 
 1084000    1.0122066   -2.3057507   -2.3057507   -1.3700724  0.053022727   -2.3057507    0.9356783   520346 
 1085000    1.0129876   -2.3056322   -2.3056322    -1.369232  0.067692467   -2.3056322   0.93640021   520346 
 1086000    1.0153529   -2.3074852   -2.3074852   -1.3688985  0.064255544   -2.3074852   0.93858669   520346 
 1087000    1.0123286   -2.3057732   -2.3057732   -1.3699822  0.066878915   -2.3057732   0.93579103   520346 
 1088000     1.012698   -2.3064805   -2.3064805   -1.3703479  0.074445816   -2.3064805   0.93613253   520346 
 1089000    1.0138255   -2.3073882   -2.3073882   -1.3702135  0.059830185   -2.3073882   0.93717471   520346 
 1090000    1.0121546   -2.3058456   -2.3058456   -1.3702154  0.078791534   -2.3058456   0.93563019   520346 
 1091000    1.0141098   -2.3085122   -2.3085122   -1.3710746  0.064395299   -2.3085122   0.93743759   520346 
 1092000    1.0130459   -2.3074318   -2.3074318   -1.3709777  0.066458968   -2.3074318   0.93645407   520346 
 1093000    1.0133445   -2.3083228   -2.3083228   -1.3715927  0.070112154   -2.3083228   0.93673011   520346 
 1094000    1.0123178    -2.308425    -2.308425   -1.3726439   0.05870082    -2.308425   0.93578103   520346 
 1095000     1.012245   -2.3083624   -2.3083624   -1.3726486  0.066823381   -2.3083624   0.93571376   520346 
 1096000    1.0133915   -2.3095203   -2.3095203   -1.3727467  0.063570116   -2.3095203   0.93677359   520346 
 1097000    1.0130892    -2.310257    -2.310257   -1.3737629  0.061819788    -2.310257   0.93649411   520346 
 1098000    1.0135566   -2.3113018   -2.3113018   -1.3743756  0.064163128   -2.3113018   0.93692616   520346 
 1099000    1.0138611   -2.3109036   -2.3109036    -1.373696  0.060473486   -2.3109036   0.93720767   520346 
 1100000    1.0129231   -2.3094781   -2.3094781   -1.3731375  0.070674256   -2.3094781   0.93634061   520346 
 1101000    1.0148158   -2.3116917   -2.3116917   -1.3736015  0.055722262   -2.3116917   0.93809021   520346 
 1102000    1.0128872   -2.3102373   -2.3102373   -1.3739299  0.057236124   -2.3102373   0.93630741   520346 
 1103000    1.0141237    -2.311427    -2.311427   -1.3739766    0.0596637    -2.311427   0.93745041   520346 
 1104000    1.0157216   -2.3122543   -2.3122543   -1.3733268  0.067261576   -2.3122543   0.93892752   520346 
 1105000    1.0138384   -2.3109893   -2.3109893   -1.3738026  0.062820857   -2.3109893    0.9371867   520346 
 1106000     1.014301   -2.3106454   -2.3106454    -1.373031  0.066961506   -2.3106454   0.93761431   520346 
 1107000    1.0122169   -2.3087252   -2.3087252   -1.3730374  0.070669808   -2.3087252   0.93568776   520346 
 1108000     1.013594   -2.3095676   -2.3095676   -1.3726068  0.069369723   -2.3095676   0.93696077   520346 
 1109000    1.0124297   -2.3082104   -2.3082104   -1.3723259  0.060651093   -2.3082104   0.93588452   520346 
 1110000    1.0126668   -2.3090344   -2.3090344   -1.3729307  0.065911102   -2.3090344   0.93610366   520346 
 1111000    1.0139524    -2.310316    -2.310316   -1.3730239   0.06324112    -2.310316   0.93729208   520346 
 1112000    1.0130771    -2.309112    -2.309112    -1.372629  0.062549983    -2.309112   0.93648295   520346 
 1113000    1.0147375   -2.3105076   -2.3105076   -1.3724897  0.063814464   -2.3105076   0.93801783   520346 
 1114000    1.0142239   -2.3096953   -2.3096953   -1.3721523  0.062720045   -2.3096953   0.93754303   520346 
 1115000    1.0141378   -2.3104107   -2.3104107   -1.3729472  0.067944845   -2.3104107   0.93746344   520346 
 1116000    1.0110744   -2.3080546   -2.3080546    -1.373423   0.07412653   -2.3080546   0.93463162   520346 
 1117000     1.013604   -2.3104954   -2.3104954   -1.3735254  0.069683381   -2.3104954   0.93697002   520346 
 1118000    1.0117873   -2.3082605   -2.3082605   -1.3729699  0.071551213   -2.3082605   0.93529065   520346 
 1119000    1.0128735   -2.3098291   -2.3098291   -1.3735343   0.06122439   -2.3098291   0.93629476   520346 
 1120000    1.0115479   -2.3086823   -2.3086823   -1.3736129  0.058819412   -2.3086823   0.93506938   520346 
 1121000    1.0129791   -2.3105627   -2.3105627   -1.3741704  0.062900756   -2.3105627   0.93639231   520346 
 1122000    1.0136135   -2.3114057   -2.3114057   -1.3744268  0.058611777   -2.3114057   0.93697883   520346 
 1123000    1.0112657   -2.3099401   -2.3099401   -1.3751316  0.065575782   -2.3099401   0.93480853   520346 
 1124000    1.0146013   -2.3122861   -2.3122861   -1.3743942  0.067013878   -2.3122861   0.93789188   520346 
 1125000    1.0154193   -2.3132568   -2.3132568   -1.3746088   0.05496152   -2.3132568   0.93864809   520346 
 1126000    1.0150844   -2.3130279   -2.3130279   -1.3746894  0.071393238   -2.3130279   0.93833844   520346 
 1127000    1.0159703   -2.3140876   -2.3140876   -1.3749302  0.067282491   -2.3140876   0.93915743   520346 
 1128000    1.0120072   -2.3109797   -2.3109797   -1.3754858  0.060006511   -2.3109797   0.93549388   520346 
 1129000    1.0139545   -2.3122575   -2.3122575   -1.3749635  0.062957337   -2.3122575   0.93729403   520346 
 1130000    1.0129248   -2.3115455   -2.3115455   -1.3752033  0.072473559   -2.3115455   0.93634219   520346 
 1131000    1.0118997   -2.3119021   -2.3119021   -1.3765076  0.056710167   -2.3119021   0.93539454   520346 
 1132000    1.0116339    -2.311371    -2.311371   -1.3762222  0.064813577    -2.311371   0.93514882   520346 
 1133000    1.0111266   -2.3102632   -2.3102632   -1.3755832  0.066229649   -2.3102632   0.93467992   520346 
 1134000    1.0122257   -2.3103991   -2.3103991   -1.3747032   0.06152212   -2.3103991   0.93569591   520346 
 1135000     1.014143    -2.311892    -2.311892   -1.3744238  0.069137186    -2.311892   0.93746821   520346 
 1136000     1.015229   -2.3123807   -2.3123807   -1.3739085  0.069676332   -2.3123807   0.93847217   520346 
 1137000    1.0146632   -2.3109072   -2.3109072    -1.372958   0.06707917   -2.3109072   0.93794912   520346 
 1138000    1.0127058   -2.3096187   -2.3096187   -1.3734789   0.06497245   -2.3096187   0.93613975   520346 
 1139000    1.0142922   -2.3123924   -2.3123924   -1.3747863  0.047475235   -2.3123924   0.93760612   520346 
 1140000    1.0122748   -2.3101938   -2.3101938   -1.3744525   0.06105901   -2.3101938   0.93574126   520346 
 1141000    1.0118555   -2.3100339   -2.3100339   -1.3746802  0.073025616   -2.3100339   0.93535369   520346 
 1142000    1.0140313   -2.3115492   -2.3115492   -1.3741841  0.069371698   -2.3115492   0.93736503   520346 
 1143000    1.0129427   -2.3110698   -2.3110698   -1.3747111  0.061388439   -2.3110698    0.9363587   520346 
 1144000    1.0138949   -2.3119612   -2.3119612   -1.3747223  0.064193968   -2.3119612   0.93723889   520346 
 1145000    1.0157664   -2.3139121   -2.3139121   -1.3749431  0.061204146   -2.3139121   0.93896893   520346 
 1146000    1.0140005   -2.3132155   -2.3132155   -1.3758791  0.060418477   -2.3132155   0.93733648   520346 
 1147000    1.0161057    -2.315099    -2.315099   -1.3758164  0.069415906    -2.315099   0.93928253   520346 
 1148000    1.0168099    -2.316101    -2.316101   -1.3761674  0.065277574    -2.316101   0.93993355   520346 
 1149000    1.0133384   -2.3132403   -2.3132403   -1.3765157  0.080863849   -2.3132403   0.93672451   520346 
 1150000     1.013173   -2.3130472   -2.3130472   -1.3764756  0.068060405   -2.3130472   0.93657158   520346 
 1151000    1.0122135   -2.3125073   -2.3125073   -1.3768227  0.055572181   -2.3125073    0.9356846   520346 
 1152000    1.0145801   -2.3140746   -2.3140746   -1.3762024  0.069861675   -2.3140746   0.93787226   520346 
 1153000    1.0157651   -2.3141867   -2.3141867    -1.375219  0.073836907   -2.3141867   0.93896773   520346 
 1154000    1.0132897   -2.3117751   -2.3117751   -1.3750957  0.058409499   -2.3117751   0.93667946   520346 
 1155000    1.0130931   -2.3113927   -2.3113927   -1.3748949  0.054108145   -2.3113927   0.93649775   520346 
 1156000    1.0146221   -2.3137742   -2.3137742   -1.3758631  0.051674935   -2.3137742   0.93791108   520346 
 1157000    1.0147087   -2.3141365   -2.3141365   -1.3761453  0.061478605   -2.3141365   0.93799118   520346 
 1158000    1.0116254   -2.3113463   -2.3113463   -1.3762053  0.062157821   -2.3113463   0.93514103   520346 
 1159000    1.0146673   -2.3135024   -2.3135024   -1.3755495  0.065163148   -2.3135024   0.93795288   520346 
 1160000    1.0131712   -2.3126069   -2.3126069   -1.3760369  0.061149211   -2.3126069   0.93656992   520346 
 1161000    1.0125748   -2.3116138   -2.3116138   -1.3755952   0.06033406   -2.3116138   0.93601862   520346 
 1162000    1.0116817   -2.3115563   -2.3115563   -1.3763633  0.058659233   -2.3115563   0.93519304   520346 
 1163000    1.0105494   -2.3110506   -2.3110506   -1.3769042  0.070424939   -2.3110506   0.93414634   520346 
 1164000    1.0110422   -2.3113035   -2.3113035   -1.3767017  0.061040807   -2.3113035   0.93460186   520346 
 1165000    1.0134341   -2.3126432   -2.3126432   -1.3758302  0.061503399   -2.3126432   0.93681295   520346 
 1166000    1.0119674   -2.3117021   -2.3117021    -1.376245  0.072950869   -2.3117021   0.93545717   520346 
 1167000    1.0140974   -2.3135663   -2.3135663   -1.3761401  0.065075862   -2.3135663   0.93742613   520346 
 1168000    1.0121408   -2.3121906   -2.3121906   -1.3765732  0.065709547   -2.3121906   0.93561741   520346 
 1169000    1.0130546   -2.3130985   -2.3130985   -1.3766364  0.060879501   -2.3130985   0.93646212   520346 
 1170000    1.0110726   -2.3107312   -2.3107312   -1.3761012   0.07226938   -2.3107312   0.93462999   520346 
 1171000    1.0115996   -2.3122029   -2.3122029   -1.3770858  0.058994468   -2.3122029   0.93511712   520346 
 1172000     1.012984   -2.3132298   -2.3132298    -1.376833  0.062070413   -2.3132298   0.93639685   520346 
 1173000    1.0104255   -2.3119685   -2.3119685   -1.3779367   0.06155118   -2.3119685   0.93403178   520346 
 1174000    1.0114367   -2.3124067   -2.3124067   -1.3774401  0.066653024   -2.3124067    0.9349666   520346 
 1175000    1.0112319   -2.3128516   -2.3128516   -1.3780743  0.062991238   -2.3128516   0.93477729   520346 
 1176000    1.0111232   -2.3133493   -2.3133493   -1.3786725  0.070028746   -2.3133493    0.9346768   520346 
 1177000    1.0101866    -2.313695    -2.313695   -1.3798841  0.073113777    -2.313695   0.93381095   520346 
 1178000    1.0112331   -2.3132191   -2.3132191   -1.3784408  0.068877648   -2.3132191   0.93477833   520346 
 1179000    1.0119712   -2.3144995   -2.3144995   -1.3790388  0.071366443   -2.3144995   0.93546067   520346 
 1180000    1.0124732   -2.3141364   -2.3141364   -1.3782117  0.060861486   -2.3141364    0.9359247   520346 
 1181000    1.0112979   -2.3128184   -2.3128184   -1.3779801  0.074498908   -2.3128184   0.93483825   520346 
 1182000    1.0132312    -2.314015    -2.314015   -1.3773896  0.069493773    -2.314015   0.93662538   520346 
 1183000    1.0115259   -2.3131793   -2.3131793   -1.3781303  0.059292353   -2.3131793     0.935049   520346 
 1184000    1.0109308   -2.3119802   -2.3119802   -1.3774813  0.069366912   -2.3119802   0.93449888   520346 
 1185000    1.0116748   -2.3115822   -2.3115822   -1.3763955  0.058997718   -2.3115822   0.93518667   520346 
 1186000    1.0110716   -2.3107703   -2.3107703   -1.3761413  0.062591337   -2.3107703   0.93462902   520346 
 1187000    1.0126649   -2.3134951   -2.3134951   -1.3773933  0.057414418   -2.3134951    0.9361019   520346 
 1188000    1.0135297   -2.3137607   -2.3137607   -1.3768595  0.060299287   -2.3137607   0.93690127   520346 
 1189000    1.0141342   -2.3146395   -2.3146395   -1.3771794  0.054643114   -2.3146395   0.93746012   520346 
 1190000     1.011958   -2.3124394   -2.3124394   -1.3769909  0.056989978   -2.3124394   0.93544846   520346 
 1191000    1.0123239   -2.3140126   -2.3140126   -1.3782259  0.064973311   -2.3140126   0.93578669   520346 
 1192000    1.0125587   -2.3137183   -2.3137183   -1.3777145  0.062561349   -2.3137183   0.93600377   520346 
 1193000    1.0136388   -2.3141308   -2.3141308   -1.3771287  0.071486485   -2.3141308   0.93700215   520346 
 1194000     1.011203   -2.3119362   -2.3119362   -1.3771857  0.070318527   -2.3119362   0.93475055   520346 
 1195000    1.0128473   -2.3144421   -2.3144421   -1.3781716  0.062103578   -2.3144421   0.93627048   520346 
 1196000    1.0123853   -2.3146017   -2.3146017   -1.3787582  0.078556749   -2.3146017   0.93584346   520346 
 1197000     1.012398   -2.3150276   -2.3150276   -1.3791724  0.067778274   -2.3150276    0.9358552   520346 
 1198000    1.0120479   -2.3144073   -2.3144073   -1.3788758  0.084049798   -2.3144073   0.93553153   520346 
 1199000    1.0124311   -2.3149305   -2.3149305   -1.3790447   0.05751193   -2.3149305   0.93588582   520346 
 1200000    1.0147484   -2.3179675   -2.3179675   -1.3799397  0.061350494   -2.3179675   0.93802785   520346 
 1201000    1.0124787   -2.3148121   -2.3148121   -1.3788823  0.071184343   -2.3148121   0.93592977   520346 
 1202000    1.0122925   -2.3146249   -2.3146249   -1.3788673  0.071216716   -2.3146249   0.93575765   520346 
 1203000    1.0114247   -2.3132272   -2.3132272   -1.3782717  0.063916031   -2.3132272   0.93495542   520346 
 1204000    1.0105424   -2.3134839   -2.3134839    -1.379344  0.057467872   -2.3134839   0.93413991   520346 
 1205000    1.0106944   -2.3136766   -2.3136766   -1.3793962  0.060897563   -2.3136766   0.93428036   520346 
 1206000     1.011632   -2.3142945   -2.3142945   -1.3791474  0.054790192   -2.3142945   0.93514713   520346 
 1207000    1.0120992   -2.3157084   -2.3157084   -1.3801294   0.06159516   -2.3157084   0.93557898   520346 
 1208000       1.0116   -2.3151864   -2.3151864   -1.3800689  0.064004768   -2.3151864    0.9351175   520346 
 1209000    1.0128654   -2.3171617   -2.3171617   -1.3808744  0.060265815   -2.3171617   0.93628727   520346 
 1210000    1.0126326   -2.3167672   -2.3167672   -1.3806951  0.060648623   -2.3167672   0.93607206   520346 
 1211000    1.0126735   -2.3163548   -2.3163548    -1.380245  0.057057856   -2.3163548   0.93610981   520346 
 1212000    1.0148784   -2.3189689   -2.3189689   -1.3808208  0.057587071   -2.3189689   0.93814805   520346 
 1213000    1.0133397   -2.3173124   -2.3173124   -1.3805867  0.067427851   -2.3173124   0.93672565   520346 
 1214000    1.0097305   -2.3138827   -2.3138827   -1.3804934  0.058884736   -2.3138827   0.93338932   520346 
 1215000    1.0123193   -2.3156197   -2.3156197   -1.3798373  0.057097264   -2.3156197   0.93578244   520346 
 1216000    1.0098088   -2.3139957   -2.3139957    -1.380534  0.063461161   -2.3139957   0.93346177   520346 
 1217000    1.0098559   -2.3150592   -2.3150592   -1.3815539   0.06050906   -2.3150592    0.9335053   520346 
 1218000    1.0121536   -2.3170542   -2.3170542    -1.381425  0.069753087   -2.3170542   0.93562926   520346 
 1219000    1.0149111   -2.3196125   -2.3196125   -1.3814342  0.070636078   -2.3196125    0.9381783   520346 
 1220000    1.0134318   -2.3169582   -2.3169582   -1.3801473  0.067962423   -2.3169582   0.93681086   520346 
 1221000    1.0101296   -2.3148256   -2.3148256   -1.3810673  0.051587637   -2.3148256   0.93375831   520346 
 1222000    1.0087193   -2.3142294   -2.3142294   -1.3817747  0.073284848   -2.3142294   0.93245463   520346 
 1223000    1.0097958   -2.3156931   -2.3156931   -1.3822434  0.066527124   -2.3156931   0.93344971   520346 
 1224000    1.0106656   -2.3168898   -2.3168898    -1.382636  0.069059346   -2.3168898   0.93425377   520346 
 1225000    1.0110619   -2.3166649   -2.3166649   -1.3820448   0.07144851   -2.3166649   0.93462012   520346 
 1226000    1.0144169   -2.3193787   -2.3193787   -1.3816573  0.059454264   -2.3193787   0.93772141   520346 
 1227000    1.0140006   -2.3187448   -2.3187448   -1.3814082   0.06848565   -2.3187448   0.93733661   520346 
 1228000    1.0120845    -2.317156    -2.317156   -1.3815906  0.073078164    -2.317156   0.93556542   520346 
 1229000    1.0122153   -2.3177293   -2.3177293    -1.382043  0.064135115   -2.3177293   0.93568633   520346 
 1230000    1.0108199   -2.3163946   -2.3163946   -1.3819982  0.065290338   -2.3163946    0.9343964   520346 
 1231000    1.0115732   -2.3179871   -2.3179871   -1.3828944  0.075443276   -2.3179871   0.93509277   520346 
 1232000     1.011867   -2.3188927   -2.3188927   -1.3835284  0.054785199   -2.3188927   0.93536429   520346 
 1233000    1.0118969   -2.3178922   -2.3178922   -1.3825002  0.073842989   -2.3178922     0.935392   520346 
 1234000    1.0129892    -2.318477    -2.318477   -1.3820753  0.069333723    -2.318477   0.93640165   520346 
 1235000    1.0122212   -2.3189347   -2.3189347    -1.383243  0.067247352   -2.3189347   0.93569174   520346 
 1236000    1.0121097   -2.3183078   -2.3183078   -1.3827191  0.060762502   -2.3183078    0.9355887   520346 
 1237000    1.0119688   -2.3185905   -2.3185905   -1.3831321   0.06208843   -2.3185905   0.93545842   520346 
 1238000    1.0118439   -2.3196691   -2.3196691   -1.3843262  0.057578044   -2.3196691   0.93534294   520346 
 1239000    1.0115029    -2.318947    -2.318947   -1.3839193  0.062086158    -2.318947   0.93502775   520346 
 1240000    1.0140206   -2.3202992   -2.3202992   -1.3829441  0.077556375   -2.3202992   0.93735508   520346 
 1241000    1.0148107   -2.3213148   -2.3213148   -1.3832293  0.069325988   -2.3213148   0.93808548   520346 
 1242000    1.0145673   -2.3208476   -2.3208476   -1.3829872  0.060240865   -2.3208476   0.93786045   520346 
 1243000     1.012256   -2.3190658   -2.3190658   -1.3833419  0.066587257   -2.3190658   0.93572388   520346 
 1244000    1.0127895   -2.3190559   -2.3190559   -1.3828388   0.06175464   -2.3190559   0.93621709   520346 
 1245000    1.0125826   -2.3195814   -2.3195814   -1.3835556  0.055278297   -2.3195814   0.93602581   520346 
 1246000    1.0106408   -2.3174873   -2.3174873   -1.3832564  0.070875435   -2.3174873   0.93423084   520346 
 1247000    1.0114168   -2.3177818   -2.3177818   -1.3828336   0.04919386   -2.3177818   0.93494819   520346 
 1248000    1.0126246   -2.3194173   -2.3194173   -1.3833527  0.058120581   -2.3194173   0.93606462   520346 
 1249000    1.0103266   -2.3176858   -2.3176858   -1.3837454   0.06258531   -2.3176858   0.93394034   520346 
 1250000    1.0105057   -2.3170837   -2.3170837   -1.3829777   0.05290565   -2.3170837   0.93410599   520346 
 1251000    1.0110867   -2.3180581   -2.3180581   -1.3834151    0.0706844   -2.3180581   0.93464303   520346 
 1252000    1.0110621   -2.3186164   -2.3186164   -1.3839961  0.055711887   -2.3186164   0.93462027   520346 
 1253000    1.0107922   -2.3179424   -2.3179424   -1.3835716  0.065678966   -2.3179424   0.93437081   520346 
 1254000    1.0111707   -2.3184195   -2.3184195   -1.3836988  0.067036099   -2.3184195   0.93472069   520346 
 1255000    1.0136565   -2.3205101   -2.3205101   -1.3834916  0.073907043   -2.3205101   0.93701857   520346 
 1256000    1.0112635   -2.3182807   -2.3182807   -1.3834742  0.059635841   -2.3182807   0.93480645   520346 
 1257000    1.0114605    -2.318659    -2.318659   -1.3836704  0.080928144    -2.318659   0.93498858   520346 
 1258000     1.012153   -2.3195855   -2.3195855   -1.3839567  0.067721385   -2.3195855   0.93562873   520346 
 1259000    1.0111278   -2.3196449   -2.3196449   -1.3849639  0.075248602   -2.3196449   0.93468102   520346 
 1260000    1.0122812   -2.3212438   -2.3212438   -1.3854966  0.054242246   -2.3212438   0.93574718   520346 
 1261000    1.0101039   -2.3193322   -2.3193322   -1.3855977  0.059686082   -2.3193322   0.93373452   520346 
 1262000    1.0119753   -2.3197152   -2.3197152   -1.3842508  0.055317355   -2.3197152   0.93546443   520346 
 1263000    1.0123297   -2.3195957   -2.3195957   -1.3838036  0.059188847   -2.3195957   0.93579204   520346 
 1264000    1.0115189   -2.3181988   -2.3181988   -1.3831562  0.062184459   -2.3181988   0.93504255   520346 
 1265000    1.0112725   -2.3183708   -2.3183708   -1.3835561  0.065182159   -2.3183708   0.93481478   520346 
 1266000    1.0120467   -2.3195914   -2.3195914    -1.384061    0.0655874   -2.3195914    0.9355304   520346 
 1267000    1.0108325   -2.3197161   -2.3197161   -1.3853081  0.062342075   -2.3197161   0.93440801   520346 
 1268000    1.0129212   -2.3215492   -2.3215492   -1.3852103  0.066317468   -2.3215492   0.93633886   520346 
 1269000     1.010618   -2.3190428   -2.3190428    -1.384833  0.057376368   -2.3190428   0.93420976   520346 
 1270000    1.0120852   -2.3201147   -2.3201147   -1.3845487  0.059311057   -2.3201147   0.93556599   520346 
 1271000    1.0107642   -2.3182687   -2.3182687   -1.3839237  0.047988507   -2.3182687   0.93434493   520346 
 1272000    1.0090364   -2.3164695   -2.3164695   -1.3837218  0.066469457   -2.3164695   0.93274777   520346 
 1273000    1.0121355   -2.3195748   -2.3195748   -1.3839622  0.077911255   -2.3195748   0.93561254   520346 
 1274000    1.0121535   -2.3193887   -2.3193887   -1.3837596  0.075618615   -2.3193887   0.93562913   520346 
 1275000    1.0095355   -2.3167483   -2.3167483   -1.3835392  0.064219933   -2.3167483   0.93320914   520346 
 1276000    1.0096049   -2.3165751   -2.3165751   -1.3833019    0.0628363   -2.3165751   0.93327322   520346 
 1277000     1.009522   -2.3170186   -2.3170186    -1.383822  0.058321377   -2.3170186    0.9331966   520346 
 1278000     1.010948   -2.3185373   -2.3185373   -1.3840225  0.067729494   -2.3185373   0.93451484   520346 
 1279000    1.0111683   -2.3189255   -2.3189255    -1.384207   0.07897599   -2.3189255   0.93471843   520346 
 1280000    1.0115194   -2.3197798   -2.3197798   -1.3847368  0.070076932   -2.3197798   0.93504298   520346 
 1281000     1.010621   -2.3193189   -2.3193189   -1.3851064  0.067448095   -2.3193189   0.93421249   520346 
 1282000    1.0122473    -2.320979    -2.320979   -1.3852631  0.065881568    -2.320979   0.93571586   520346 
 1283000    1.0109336   -2.3203078   -2.3203078   -1.3858063   0.06549619   -2.3203078   0.93450152   520346 
 1284000    1.0119427   -2.3215955   -2.3215955   -1.3861611  0.056845551   -2.3215955   0.93543434   520346 
 1285000    1.0103009   -2.3206622   -2.3206622   -1.3867456  0.068939487   -2.3206622    0.9339166   520346 
 1286000    1.0118951    -2.321233    -2.321233   -1.3858427  0.074299676    -2.321233   0.93539031   520346 
 1287000    1.0130675   -2.3220611   -2.3220611    -1.385587  0.069283958   -2.3220611   0.93647403   520346 
 1288000    1.0117382   -2.3210143   -2.3210143   -1.3857691  0.069934434   -2.3210143   0.93524522   520346 
 1289000    1.0104059   -2.3195657   -2.3195657    -1.385552  0.070967188   -2.3195657   0.93401365   520346 
 1290000     1.009642   -2.3194619   -2.3194619   -1.3861544  0.051932169   -2.3194619   0.93330751   520346 
 1291000    1.0111668   -2.3215367   -2.3215367   -1.3868197  0.057252585   -2.3215367    0.9347171   520346 
 1292000    1.0113519   -2.3206603   -2.3206603   -1.3857722  0.069290238   -2.3206603   0.93488813   520346 
 1293000    1.0123029   -2.3208152   -2.3208152   -1.3850479  0.064888812   -2.3208152   0.93576723   520346 
 1294000    1.0115644   -2.3205715   -2.3205715   -1.3854869  0.063686883   -2.3205715   0.93508459   520346 
 1295000    1.0110554   -2.3195472   -2.3195472   -1.3849331   0.07470808   -2.3195472   0.93461406   520346 
 1296000    1.0104781   -2.3191243   -2.3191243   -1.3850439   0.06120277   -2.3191243    0.9340804   520346 
 1297000    1.0098908   -2.3191369   -2.3191369   -1.3855994  0.054053918   -2.3191369    0.9335375   520346 
 1298000    1.0109581    -2.319275    -2.319275   -1.3847509  0.060749117    -2.319275    0.9345241   520346 
 1299000    1.0108291   -2.3194169   -2.3194169    -1.385012  0.060166304   -2.3194169    0.9344049   520346 
 1300000    1.0110424   -2.3192187   -2.3192187   -1.3846167  0.063814623   -2.3192187   0.93460203   520346 
 1301000    1.0103692   -2.3181112   -2.3181112   -1.3841315  0.062265936   -2.3181112   0.93397973   520346 
 1302000    1.0101607   -2.3176987   -2.3176987   -1.3839116  0.075257228   -2.3176987   0.93378705   520346 
 1303000    1.0146431    -2.321995    -2.321995   -1.3840645  0.063614947    -2.321995   0.93793049   520346 
 1304000    1.0133559   -2.3208801   -2.3208801   -1.3841395  0.073894499   -2.3208801   0.93674066   520346 
 1305000     1.011208   -2.3195242   -2.3195242    -1.384769  0.058664049   -2.3195242   0.93475512   520346 
 1306000    1.0110273   -2.3193144   -2.3193144   -1.3847263  0.072718782   -2.3193144   0.93458809   520346 
 1307000    1.0121985   -2.3202183   -2.3202183   -1.3845475   0.05892206   -2.3202183   0.93567079   520346 
 1308000    1.0102161   -2.3183568   -2.3183568   -1.3845185  0.053326853   -2.3183568   0.93383823   520346 
 1309000     1.013979   -2.3219053   -2.3219053   -1.3845887  0.063435549   -2.3219053   0.93731661   520346 
 1310000    1.0113263   -2.3194006   -2.3194006   -1.3845361  0.061173772   -2.3194006   0.93486449   520346 
 1311000     1.010649   -2.3186826   -2.3186826   -1.3844443  0.058728326   -2.3186826    0.9342384   520346 
 1312000    1.0089367   -2.3174995   -2.3174995   -1.3848439  0.059029609   -2.3174995   0.93265558   520346 
 1313000    1.0106371   -2.3182409   -2.3182409   -1.3840135  0.063687898   -2.3182409   0.93422744   520346 
 1314000    1.0119936     -2.32018     -2.32018   -1.3846987  0.062887239     -2.32018   0.93548133   520346 
 1315000    1.0110851   -2.3199995   -2.3199995   -1.3853579  0.055699887   -2.3199995   0.93464154   520346 
 1316000    1.0102545   -2.3194211   -2.3194211   -1.3855473  0.066769891   -2.3194211   0.93387373   520346 
 1317000    1.0118421   -2.3210727   -2.3210727   -1.3857313  0.068167372   -2.3210727   0.93534134   520346 
 1318000    1.0094314   -2.3193478   -2.3193478   -1.3862349  0.073332327   -2.3193478   0.93311289   520346 
 1319000     1.012058   -2.3217563   -2.3217563   -1.3862154  0.052006831   -2.3217563    0.9355409   520346 
 1320000    1.0108358   -2.3200794   -2.3200794   -1.3856683   0.05950329   -2.3200794   0.93441112   520346 
 1321000    1.0120139   -2.3223602   -2.3223602   -1.3868601  0.068265656   -2.3223602   0.93550009   520346 
 1322000    1.0113082   -2.3215707   -2.3215707   -1.3867229  0.071284597   -2.3215707   0.93484781   520346 
 1323000    1.0121639   -2.3223071   -2.3223071   -1.3866683  0.070394073   -2.3223071   0.93563883   520346 
 1324000    1.0112784   -2.3211956   -2.3211956   -1.3863753  0.051970007   -2.3211956   0.93482027   520346 
 1325000    1.0130114   -2.3232832   -2.3232832   -1.3868611  0.058983455   -2.3232832   0.93642219   520346 
 1326000    1.0109388   -2.3213782   -2.3213782   -1.3868719  0.066642735   -2.3213782    0.9345063   520346 
 1327000    1.0084164   -2.3199833   -2.3199833   -1.3878087  0.054300389   -2.3199833   0.93217462   520346 
 1328000    1.0097393   -2.3215859   -2.3215859   -1.3881884  0.062478702   -2.3215859   0.93339746   520346 
 1329000    1.0080247   -2.3201529   -2.3201529   -1.3883404   0.06274525   -2.3201529   0.93181249   520346 
 1330000    1.0117025   -2.3231154   -2.3231154   -1.3879031  0.066162706   -2.3231154   0.93521231   520346 
 1331000    1.0120028   -2.3232555   -2.3232555   -1.3877657  0.055666671   -2.3232555   0.93548984   520346 
 1332000    1.0112571   -2.3221634   -2.3221634   -1.3873629  0.070642347   -2.3221634    0.9348005   520346 
 1333000    1.0092164   -2.3206133   -2.3206133   -1.3876992  0.056717932   -2.3206133   0.93291409   520346 
 1334000    1.0107964   -2.3212191   -2.3212191   -1.3868444  0.056224588   -2.3212191   0.93437469   520346 
 1335000    1.0087148    -2.320153    -2.320153   -1.3877025  0.062593622    -2.320153   0.93245044   520346 
 1336000    1.0090976   -2.3216366   -2.3216366   -1.3888323  0.059025832   -2.3216366   0.93280434   520346 
 1337000    1.0124312   -2.3236357   -2.3236357   -1.3877499  0.069779123   -2.3236357   0.93588587   520346 
 1338000    1.0135027   -2.3240461   -2.3240461   -1.3871697  0.069834001   -2.3240461   0.93687639   520346 
 1339000    1.0121151   -2.3234878   -2.3234878   -1.3878941  0.060860961   -2.3234878   0.93559367   520346 
 1340000    1.0114115   -2.3238215   -2.3238215   -1.3888783  0.053380128   -2.3238215   0.93494323   520346 
 1341000    1.0110332   -2.3239441   -2.3239441   -1.3893505  0.065146659   -2.3239441   0.93459359   520346 
 1342000    1.0137995   -2.3264681   -2.3264681   -1.3893174  0.058672293   -2.3264681   0.93715072   520346 
 1343000    1.0114074   -2.3238316   -2.3238316   -1.3888921  0.061472203   -2.3238316   0.93493946   520346 
 1344000    1.0085158   -2.3226111   -2.3226111   -1.3903446  0.062109988   -2.3226111   0.93226648   520346 
 1345000    1.0104653   -2.3243228   -2.3243228   -1.3902542  0.051323277   -2.3243228   0.93406856   520346 
 1346000    1.0118025   -2.3249443   -2.3249443   -1.3896396  0.067679116   -2.3249443   0.93530466   520346 
 1347000     1.011794   -2.3247344   -2.3247344   -1.3894375  0.058887336   -2.3247344   0.93529688   520346 
 1348000    1.0102701   -2.3232985   -2.3232985   -1.3894104  0.064367377   -2.3232985   0.93388816   520346 
 1349000    1.0103401   -2.3231373   -2.3231373   -1.3891845  0.077182337   -2.3231373   0.93395286   520346 
 1350000    1.0122361   -2.3249817   -2.3249817   -1.3892762  0.063862479   -2.3249817    0.9357055   520346 
 1351000    1.0111896    -2.323275    -2.323275   -1.3885369  0.056238125    -2.323275   0.93473816   520346 
 1352000    1.0138533   -2.3257837   -2.3257837   -1.3885833  0.063007143   -2.3257837   0.93720046   520346 
 1353000    1.0102602   -2.3224098   -2.3224098   -1.3885308  0.053668933   -2.3224098   0.93387899   520346 
 1354000    1.0116958   -2.3237985   -2.3237985   -1.3885924  0.060301717   -2.3237985   0.93520607   520346 
 1355000    1.0104879   -2.3222657   -2.3222657   -1.3881762  0.058270569   -2.3222657   0.93408952   520346 
 1356000    1.0097557   -2.3216813   -2.3216813   -1.3882687  0.061713386   -2.3216813   0.93341261   520346 
 1357000     1.011391   -2.3229476   -2.3229476   -1.3880234  0.046434773   -2.3229476   0.93492429   520346 
 1358000    1.0127803   -2.3233559   -2.3233559   -1.3871473  0.087288414   -2.3233559   0.93620859   520346 
 1359000    1.0127858   -2.3234286   -2.3234286   -1.3872149  0.065041223   -2.3234286   0.93621363   520346 
 1360000    1.0120558   -2.3227594   -2.3227594   -1.3872206   0.05861211   -2.3227594   0.93553883   520346 
 1361000    1.0099782   -2.3210936   -2.3210936   -1.3874753  0.056707472   -2.3210936   0.93361833   520346 
 1362000     1.011169   -2.3218749   -2.3218749   -1.3871558  0.066944579   -2.3218749   0.93471912   520346 
 1363000    1.0113692   -2.3217291   -2.3217291   -1.3868249  0.077237276   -2.3217291   0.93490421   520346 
 1364000    1.0125122   -2.3231384   -2.3231384   -1.3871777  0.077246356   -2.3231384   0.93596075   520346 
 1365000    1.0113046   -2.3225926   -2.3225926   -1.3877481  0.053001107   -2.3225926   0.93484448   520346 
 1366000     1.010786   -2.3217453   -2.3217453   -1.3873802  0.057848654   -2.3217453   0.93436507   520346 
 1367000    1.0097149   -2.3214323   -2.3214323   -1.3880573  0.061103389   -2.3214323   0.93337494   520346 
 1368000    1.0101796   -2.3212497   -2.3212497   -1.3874452  0.077002947   -2.3212497   0.93380451   520346 
 1369000    1.0126091   -2.3231055   -2.3231055   -1.3870551  0.074489901   -2.3231055   0.93605032   520346 
 1370000    1.0103678    -2.321283    -2.321283   -1.3873045  0.065448165    -2.321283   0.93397847   520346 
 1371000     1.009883   -2.3209325   -2.3209325   -1.3874022  0.054790342   -2.3209325   0.93353032   520346 
 1372000    1.0117809   -2.3230761   -2.3230761   -1.3877914   0.06124879   -2.3230761   0.93528472   520346 
 1373000     1.009626   -2.3214687   -2.3214687    -1.388176  0.048927832   -2.3214687   0.93329271   520346 
 1374000    1.0108432   -2.3227894   -2.3227894   -1.3883714  0.061874769   -2.3227894   0.93441796   520346 
 1375000    1.0102578   -2.3216511   -2.3216511   -1.3877743  0.053891645   -2.3216511   0.93387679   520346 
 1376000    1.0122484   -2.3242367   -2.3242367   -1.3885197  0.062390355   -2.3242367   0.93571693   520346 
 1377000    1.0129406   -2.3245356   -2.3245356   -1.3881789  0.069979577   -2.3245356   0.93635673   520346 
 1378000    1.0124425   -2.3240174   -2.3240174    -1.388121  0.068761822   -2.3240174   0.93589633   520346 
 1379000    1.0137252   -2.3254281   -2.3254281   -1.3883461  0.066871661   -2.3254281   0.93708205   520346 
 1380000    1.0125726   -2.3245401   -2.3245401   -1.3885235  0.068452725   -2.3245401   0.93601655   520346 
 1381000     1.011611    -2.323597    -2.323597   -1.3884693  0.060228491    -2.323597   0.93512772   520346 
 1382000    1.0129874   -2.3245526   -2.3245526   -1.3881525  0.070046553   -2.3245526   0.93640004   520346 
 1383000    1.0122893    -2.325133    -2.325133   -1.3893784  0.061407699    -2.325133   0.93575467   520346 
 1384000    1.0098707   -2.3230583   -2.3230583   -1.3895393  0.066316139   -2.3230583   0.93351896   520346 
 1385000    1.0104068    -2.323464    -2.323464   -1.3894495  0.064414085    -2.323464   0.93401452   520346 
 1386000     1.012059   -2.3252599   -2.3252599    -1.389718  0.068706566   -2.3252599   0.93554183   520346 
 1387000    1.0129382   -2.3259109   -2.3259109   -1.3895564  0.064857091   -2.3259109   0.93635457   520346 
 1388000    1.0116719   -2.3250022   -2.3250022   -1.3898183  0.064648389   -2.3250022   0.93518398   520346 
 1389000     1.011275    -2.325057    -2.325057   -1.3902399  0.072669031    -2.325057   0.93481707   520346 
 1390000    1.0106218   -2.3257034   -2.3257034   -1.3914902  0.062737391   -2.3257034   0.93421323   520346 
 1391000    1.0107621   -2.3267701   -2.3267701   -1.3924272  0.053410923   -2.3267701   0.93434295   520346 
 1392000    1.0099264   -2.3256633   -2.3256633   -1.3920929  0.050637868   -2.3256633   0.93357043   520346 
 1393000    1.0116505   -2.3264472   -2.3264472    -1.391283   0.06653856   -2.3264472   0.93516418   520346 
 1394000    1.0118941   -2.3265939   -2.3265939   -1.3912045  0.064129372   -2.3265939   0.93538937   520346 
 1395000    1.0123677    -2.327256    -2.327256   -1.3914288  0.062557053    -2.327256    0.9358272   520346 
 1396000    1.0148367    -2.329623    -2.329623   -1.3915135  0.065466123    -2.329623   0.93810949   520346 
 1397000    1.0121089   -2.3279732   -2.3279732   -1.3923852  0.080287575   -2.3279732   0.93558797   520346 
 1398000    1.0138014   -2.3294721   -2.3294721   -1.3923197  0.075259229   -2.3294721   0.93715244   520346 
 1399000    1.0128222   -2.3294589   -2.3294589   -1.3932116  0.062434148   -2.3294589   0.93624731   520346 
 1400000    1.0116285   -2.3285295   -2.3285295   -1.3933856  0.075489265   -2.3285295    0.9351439   520346 
 1401000    1.0105644   -2.3276277   -2.3276277   -1.3934675  0.064259569   -2.3276277   0.93416023   520346 
 1402000     1.009063   -2.3274508   -2.3274508   -1.3946785  0.074931675   -2.3274508   0.93277237   520346 
 1403000    1.0097769   -2.3278644   -2.3278644   -1.3944322  0.068818489   -2.3278644   0.93343223   520346 
 1404000    1.0092855    -2.327733    -2.327733    -1.394755  0.073700445    -2.327733   0.93297803   520346 
 1405000     1.011878   -2.3297286   -2.3297286   -1.3943541  0.068323121   -2.3297286   0.93537449   520346 
 1406000    1.0101088   -2.3280736   -2.3280736   -1.3943345  0.069555022   -2.3280736   0.93373903   520346 
 1407000    1.0121553   -2.3284769   -2.3284769   -1.3928461  0.050127249   -2.3284769   0.93563082   520346 
 1408000    1.0085756   -2.3263361   -2.3263361   -1.3940143  0.045020514   -2.3263361   0.93232177   520346 
 1409000    1.0094577   -2.3269633   -2.3269633   -1.3938262  0.066364694   -2.3269633   0.93313714   520346 
 1410000    1.0091319    -2.326898    -2.326898    -1.394062   0.05632519    -2.326898   0.93283602   520346 
 1411000    1.0091461   -2.3271655   -2.3271655   -1.3943164  0.054286899   -2.3271655    0.9328491   520346 
 1412000    1.0103662   -2.3272916   -2.3272916   -1.3933146   0.06695861   -2.3272916   0.93397704   520346 
 1413000    1.0120885   -2.3289668   -2.3289668   -1.3933977  0.058800249   -2.3289668   0.93556913   520346 
 1414000     1.011489   -2.3279752   -2.3279752   -1.3929602   0.05908883   -2.3279752   0.93501495   520346 
 1415000    1.0109681   -2.3275124   -2.3275124   -1.3929791  0.052191509   -2.3275124   0.93453335   520346 
 1416000    1.0127882   -2.3295798   -2.3295798   -1.3933639  0.051639563   -2.3295798    0.9362159   520346 
 1417000     1.013211   -2.3304326   -2.3304326   -1.3938259  0.070762988   -2.3304326   0.93660671   520346 
 1418000     1.013295   -2.3296287   -2.3296287   -1.3929443  0.062265363   -2.3296287   0.93668439   520346 
 1419000     1.010693   -2.3277417   -2.3277417   -1.3934626  0.067926885   -2.3277417   0.93427907   520346 
 1420000    1.0117472   -2.3279799   -2.3279799   -1.3927263  0.069320622   -2.3279799   0.93525359   520346 
 1421000    1.0108702    -2.327396    -2.327396   -1.3929531  0.077730771    -2.327396   0.93444289   520346 
 1422000    1.0119531   -2.3284567   -2.3284567   -1.3930128  0.064376298   -2.3284567   0.93544387   520346 
 1423000    1.0141047   -2.3301287   -2.3301287   -1.3926958  0.064982488   -2.3301287   0.93743285   520346 
 1424000    1.0132117   -2.3299486   -2.3299486   -1.3933413  0.068682337   -2.3299486   0.93660734   520346 
 1425000    1.0101142   -2.3275656   -2.3275656   -1.3938216  0.065225291   -2.3275656     0.933744   520346 
 1426000     1.008544   -2.3263587   -2.3263587   -1.3940661  0.062470562   -2.3263587   0.93229256   520346 
 1427000    1.0100655   -2.3275368   -2.3275368   -1.3938378  0.066973755   -2.3275368   0.93369899   520346 
 1428000    1.0088073   -2.3260791   -2.3260791   -1.3935431  0.064788859   -2.3260791     0.932536   520346 
 1429000    1.0105429   -2.3271457   -2.3271457   -1.3930053  0.061077325   -2.3271457   0.93414031   520346 
 1430000    1.0103653   -2.3270966   -2.3270966   -1.3931205  0.065406335   -2.3270966   0.93397615   520346 
 1431000    1.0106648    -2.327595    -2.327595    -1.393342  0.064525411    -2.327595   0.93425305   520346 
 1432000    1.0107915   -2.3282784   -2.3282784   -1.3939082  0.068592815   -2.3282784   0.93437017   520346 
 1433000    1.0124197   -2.3295786   -2.3295786   -1.3937034  0.059024552   -2.3295786   0.93587528   520346 
 1434000    1.0116607   -2.3295737   -2.3295737      -1.3944  0.061818799   -2.3295737   0.93517367   520346 
 1435000    1.0097685    -2.327483    -2.327483   -1.3940585  0.082789306    -2.327483   0.93342449   520346 
 1436000    1.0134138   -2.3309705   -2.3309705   -1.3941762    0.0641312   -2.3309705   0.93679422   520346 
 1437000    1.0103662    -2.328146    -2.328146    -1.394169  0.072710189    -2.328146     0.933977   520346 
 1438000     1.011642   -2.3298361   -2.3298361   -1.3946797  0.066961066   -2.3298361   0.93515634   520346 
 1439000    1.0126841   -2.3296694   -2.3296694   -1.3935498  0.062604953   -2.3296694   0.93611963   520346 
 1440000    1.0136382   -2.3301803   -2.3301803   -1.3931787  0.056927522   -2.3301803   0.93700158   520346 
 1441000      1.00962    -2.327579    -2.327579   -1.3942918  0.064064375    -2.327579   0.93328719   520346 
 1442000    1.0100218   -2.3279068   -2.3279068   -1.3942481  0.060991684   -2.3279068   0.93365867   520346 
 1443000    1.0103613   -2.3282098   -2.3282098   -1.3942373  0.060941959   -2.3282098   0.93397245   520346 
 1444000    1.0115733   -2.3293606   -2.3293606   -1.3942678  0.074838324   -2.3293606   0.93509283   520346 
 1445000    1.0109564   -2.3284501   -2.3284501   -1.3939275  0.059189789   -2.3284501   0.93452258   520346 
 1446000    1.0110228   -2.3277688   -2.3277688   -1.3931848  0.062221033   -2.3277688   0.93458393   520346 
 1447000    1.0095615   -2.3270017   -2.3270017   -1.3937686  0.057412341   -2.3270017   0.93323314   520346 
 1448000    1.0116444   -2.3293148   -2.3293148   -1.3941562  0.056656769   -2.3293148   0.93515855   520346 
 1449000    1.0116646   -2.3292666   -2.3292666   -1.3940894  0.065773345   -2.3292666   0.93517725   520346 
 1450000     1.011359   -2.3291152   -2.3291152   -1.3942205  0.066120683   -2.3291152    0.9348947   520346 
 1451000    1.0106178   -2.3295304   -2.3295304   -1.3953209  0.063677363   -2.3295304   0.93420956   520346 
 1452000    1.0102306   -2.3299373   -2.3299373   -1.3960857  0.073470032   -2.3299373   0.93385164   520346 
 1453000    1.0106644   -2.3304485   -2.3304485   -1.3961959  0.062873433   -2.3304485   0.93425261   520346 
 1454000    1.0102171   -2.3297271   -2.3297271    -1.395888   0.06935144   -2.3297271   0.93383913   520346 
 1455000    1.0123207   -2.3325079   -2.3325079   -1.3967242  0.069814293   -2.3325079   0.93578374   520346 
 1456000    1.0116492   -2.3319468   -2.3319468   -1.3967838  0.067902276   -2.3319468   0.93516299   520346 
 1457000    1.0097057   -2.3295714   -2.3295714   -1.3962049  0.077117354   -2.3295714   0.93336647   520346 
 1458000    1.0109187      -2.3314      -2.3314   -1.3969123  0.068909783      -2.3314   0.93448771   520346 
 1459000    1.0115278   -2.3321174   -2.3321174   -1.3970666  0.060547767   -2.3321174   0.93505078   520346 
 1460000    1.0106404   -2.3318883   -2.3318883   -1.3976578  0.070470587   -2.3318883    0.9342305   520346 
 1461000     1.011919   -2.3318773   -2.3318773   -1.3964649  0.067379319   -2.3318773    0.9354124   520346 
 1462000     1.013469   -2.3333418   -2.3333418   -1.3964967  0.077963888   -2.3333418   0.93684517   520346 
 1463000    1.0107553   -2.3306143   -2.3306143   -1.3962776  0.076139055   -2.3306143   0.93433666   520346 
 1464000    1.0119353   -2.3314711   -2.3314711   -1.3960436  0.068329213   -2.3314711   0.93542744   520346 
 1465000    1.0122326   -2.3321247   -2.3321247   -1.3964223  0.059604242   -2.3321247   0.93570233   520346 
 1466000    1.0106209   -2.3303896   -2.3303896   -1.3961771  0.065087499   -2.3303896   0.93421244   520346 
 1467000    1.0109818   -2.3300943   -2.3300943   -1.3955483  0.062604696   -2.3300943   0.93454601   520346 
 1468000    1.0120109   -2.3306462   -2.3306462   -1.3951489  0.064884995   -2.3306462   0.93549734   520346 
 1469000    1.0100324   -2.3289923   -2.3289923   -1.3953239  0.063618811   -2.3289923   0.93366841   520346 
 1470000     1.012541   -2.3314563   -2.3314563   -1.3954689   0.05534038   -2.3314563   0.93598736   520346 
 1471000    1.0115265   -2.3308303   -2.3308303   -1.3957807  0.064613726   -2.3308303   0.93504961   520346 
 1472000    1.0099714   -2.3294253   -2.3294253   -1.3958133   0.06637326   -2.3294253   0.93361202   520346 
 1473000    1.0112926   -2.3295983   -2.3295983   -1.3947649  0.050726591   -2.3295983   0.93483339   520346 
 1474000    1.0099482   -2.3284088   -2.3284088   -1.3948182  0.057033459   -2.3284088   0.93359061   520346 
 1475000    1.0118773   -2.3308142   -2.3308142   -1.3954403  0.074055745   -2.3308142   0.93537389   520346 
 1476000    1.0128492   -2.3316899   -2.3316899   -1.3954175  0.066630602   -2.3316899   0.93627231   520346 
 1477000    1.0107423   -2.3301482   -2.3301482   -1.3958235  0.065132908   -2.3301482   0.93432467   520346 
 1478000    1.0084307    -2.328529    -2.328529   -1.3963411  0.069951581    -2.328529   0.93218784   520346 
 1479000     1.008948   -2.3290116   -2.3290116   -1.3963456  0.071031924   -2.3290116     0.932666   520346 
 1480000    1.0102596   -2.3303413   -2.3303413   -1.3964628  0.058998162   -2.3303413   0.93387847   520346 
 1481000    1.0104231    -2.330903    -2.330903   -1.3968734  0.061198749    -2.330903    0.9340296   520346 
 1482000    1.0075152   -2.3288835   -2.3288835   -1.3975419   0.07260534   -2.3288835   0.93134153   520346 
 1483000    1.0088612   -2.3307786   -2.3307786   -1.3981928  0.068840672   -2.3307786   0.93258582   520346 
 1484000    1.0102386   -2.3323754   -2.3323754   -1.3985164  0.067249357   -2.3323754     0.933859   520346 
 1485000    1.0109986   -2.3331737   -2.3331737   -1.3986121  0.069358163   -2.3331737   0.93456162   520346 
 1486000    1.0100826    -2.332796    -2.332796   -1.3990812  0.055995571    -2.332796   0.93371482   520346 
 1487000    1.0094694   -2.3333811   -2.3333811   -1.4002331  0.056241631   -2.3333811   0.93314804   520346 
 1488000    1.0105356   -2.3338125   -2.3338125   -1.3996789  0.058427786   -2.3338125   0.93413358   520346 
 1489000    1.0103326    -2.334484    -2.334484    -1.400538  0.059099704    -2.334484   0.93394597   520346 
 1490000    1.0086673    -2.332739    -2.332739   -1.4003324  0.057710553    -2.332739   0.93240658   520346 
 1491000    1.0093339   -2.3332129   -2.3332129   -1.4001902  0.053739339   -2.3332129   0.93302274   520346 
 1492000    1.0091594   -2.3342656   -2.3342656   -1.4014042  0.069553649   -2.3342656   0.93286139   520346 
 1493000    1.0096569   -2.3337957   -2.3337957   -1.4004744  0.067987691   -2.3337957   0.93332133   520346 
 1494000    1.0102762    -2.334296    -2.334296   -1.4004022  0.056591593    -2.334296   0.93389383   520346 
 1495000    1.0096424   -2.3323451   -2.3323451   -1.3990372   0.05673492   -2.3323451   0.93330792   520346 
 1496000    1.0101545   -2.3322983   -2.3322983    -1.398517  0.061171544   -2.3322983    0.9337813   520346 
 1497000    1.0101299    -2.332448    -2.332448   -1.3986894  0.060694548    -2.332448   0.93375859   520346 
 1498000    1.0083507   -2.3310662   -2.3310662   -1.3989523  0.069037245   -2.3310662    0.9321139   520346 
 1499000     1.011728   -2.3341855   -2.3341855   -1.3989497  0.079723825   -2.3341855   0.93523582   520346 
 1500000    1.0112991   -2.3339968   -2.3339968   -1.3991574  0.057091734   -2.3339968   0.93483938   520346 
 1501000    1.0104079   -2.3327723   -2.3327723   -1.3987567  0.066131841   -2.3327723   0.93401558   520346 
 1502000    1.0125214   -2.3346239   -2.3346239   -1.3986546  0.054764569   -2.3346239   0.93596925   520346 
 1503000    1.0105371   -2.3333172   -2.3333172   -1.3991822   0.05753898   -2.3333172   0.93413496   520346 
 1504000    1.0083736   -2.3316585   -2.3316585   -1.3995234  0.055866778   -2.3316585   0.93213504   520346 
 1505000    1.0091892   -2.3318774   -2.3318774   -1.3989884  0.062340046   -2.3318774   0.93288898   520346 
 1506000    1.0137295   -2.3349427   -2.3349427   -1.3978567  0.064901532   -2.3349427   0.93708597   520346 
 1507000    1.0106646   -2.3318684   -2.3318684   -1.3976155  0.059346592   -2.3318684   0.93425284   520346 
 1508000    1.0119171   -2.3331336   -2.3331336   -1.3977229  0.068102267   -2.3331336   0.93541068   520346 
 1509000    1.0108446   -2.3334754   -2.3334754   -1.3990562  0.060917972   -2.3334754   0.93441924   520346 
 1510000    1.0082993   -2.3316703   -2.3316703   -1.3996039  0.065561204   -2.3316703   0.93206639   520346 
 1511000    1.0104535   -2.3320021   -2.3320021   -1.3979445  0.070535837   -2.3320021   0.93405765   520346 
 1512000    1.0092906   -2.3301376   -2.3301376   -1.3971549  0.065319516   -2.3301376   0.93298272   520346 
 1513000    1.0093355   -2.3305253   -2.3305253    -1.397501  0.058324097   -2.3305253   0.93302426   520346 
 1514000    1.0126163   -2.3333067   -2.3333067   -1.3972496  0.060382964   -2.3333067   0.93605701   520346 
 1515000    1.0112167   -2.3329401   -2.3329401   -1.3981769  0.060508074   -2.3329401   0.93476317   520346 
 1516000    1.0094547   -2.3299685   -2.3299685   -1.3968341  0.071404938   -2.3299685   0.93313443   520346 
 1517000    1.0109888   -2.3315532   -2.3315532   -1.3970006  0.064869093   -2.3315532   0.93455253   520346 
 1518000    1.0102758   -2.3315123   -2.3315123   -1.3976188  0.058854864   -2.3315123   0.93389343   520346 
 1519000    1.0096795   -2.3310378   -2.3310378   -1.3976956  0.062295801   -2.3310378   0.93334217   520346 
 1520000    1.0119647   -2.3327708   -2.3327708   -1.3973162  0.063698516   -2.3327708   0.93545464   520346 
 1521000    1.0113844    -2.332705    -2.332705   -1.3977868  0.067555978    -2.332705   0.93491822   520346 
 1522000    1.0086796   -2.3307544   -2.3307544   -1.3983365   0.06871158   -2.3307544   0.93241795   520346 
 1523000    1.0099096   -2.3317277   -2.3317277   -1.3981727  0.054086233   -2.3317277   0.93355493   520346 
 1524000    1.0092317   -2.3308897   -2.3308897   -1.3979615  0.056311945   -2.3308897   0.93292825   520346 
 1525000    1.0124378   -2.3331916   -2.3331916   -1.3972996  0.065084788   -2.3331916   0.93589202   520346 
 1526000     1.008968   -2.3311653   -2.3311653   -1.3984808  0.063129684   -2.3311653    0.9326845   520346 
 1527000     1.010483   -2.3326629   -2.3326629    -1.398578   0.06437038   -2.3326629   0.93408492   520346 
 1528000    1.0100927   -2.3321467   -2.3321467   -1.3984225  0.059304331   -2.3321467   0.93372418   520346 
 1529000     1.010364   -2.3316906   -2.3316906   -1.3977156  0.071492094   -2.3316906   0.93397494   520346 
 1530000    1.0105454   -2.3316919   -2.3316919   -1.3975492  0.047023178   -2.3316919   0.93414266   520346 
 1531000    1.0116532   -2.3335474   -2.3335474   -1.3983806  0.067290141   -2.3335474   0.93516673   520346 
 1532000    1.0098634   -2.3317757   -2.3317757   -1.3982635  0.070071598   -2.3317757   0.93351224   520346 
 1533000    1.0111115   -2.3333097   -2.3333097   -1.3986438  0.049227061   -2.3333097   0.93466595   520346 
 1534000     1.011085   -2.3326198   -2.3326198   -1.3979783  0.060673251   -2.3326198   0.93464147   520346 
 1535000    1.0097132    -2.330915    -2.330915   -1.3975416  0.061982017    -2.330915   0.93337339   520346 
 1536000    1.0088228    -2.330095    -2.330095   -1.3975447  0.057452835    -2.330095   0.93255028   520346 
 1537000    1.0104386   -2.3317777   -2.3317777   -1.3977338  0.063081912   -2.3317777   0.93404391   520346 
 1538000    1.0136733    -2.334228    -2.334228   -1.3971939  0.067837054    -2.334228    0.9370341   520346 
 1539000     1.011889   -2.3328769   -2.3328769   -1.3974923  0.061233923   -2.3328769   0.93538462   520346 
 1540000      1.01121   -2.3317626   -2.3317626   -1.3970057  0.065954692   -2.3317626   0.93475697   520346 
 1541000    1.0087993   -2.3302092   -2.3302092   -1.3976807  0.060820813   -2.3302092   0.93252856   520346 
 1542000    1.0105155   -2.3315201   -2.3315201   -1.3974051  0.073284816   -2.3315201   0.93411496   520346 
 1543000    1.0109108   -2.3327465   -2.3327465   -1.3982661  0.067400875   -2.3327465    0.9344804   520346 
 1544000    1.0082225   -2.3304656   -2.3304656   -1.3984703  0.070185418   -2.3304656   0.93199536   520346 
 1545000    1.0097145   -2.3320206   -2.3320206    -1.398646  0.068517047   -2.3320206    0.9333746   520346 
 1546000    1.0110932   -2.3331173   -2.3331173   -1.3984683  0.074351594   -2.3331173   0.93464899   520346 
 1547000    1.0098831   -2.3316091   -2.3316091   -1.3980787  0.061146772   -2.3316091   0.93353045   520346 
 1548000    1.0121165   -2.3332906   -2.3332906   -1.3976956  0.064527464   -2.3332906   0.93559498   520346 
 1549000    1.0085924   -2.3304547   -2.3304547   -1.3981174  0.073834064   -2.3304547   0.93233728   520346 
 1550000    1.0076752   -2.3295503   -2.3295503   -1.3980608  0.069997911   -2.3295503   0.93148948   520346 
 1551000     1.008735   -2.3310459   -2.3310459   -1.3985768  0.063945261   -2.3310459   0.93246909   520346 
 1552000    1.0103074   -2.3334555   -2.3334555   -1.3995328  0.072073221   -2.3334555   0.93392263   520346 
 1553000    1.0082441   -2.3311363   -2.3311363   -1.3991209  0.055886545   -2.3311363   0.93201537   520346 
 1554000    1.0088914   -2.3325248   -2.3325248   -1.3999111  0.060655754   -2.3325248   0.93261368   520346 
 1555000    1.0088278   -2.3334008   -2.3334008    -1.400846  0.061433278   -2.3334008   0.93255488   520346 
 1556000    1.0126899   -2.3360531   -2.3360531   -1.3999281  0.070347969   -2.3360531   0.93612501   520346 
 1557000    1.0124193   -2.3360548   -2.3360548   -1.4001799  0.072489073   -2.3360548   0.93587491   520346 
 1558000     1.011892   -2.3364912   -2.3364912   -1.4011037  0.051403528   -2.3364912   0.93538748   520346 
 1559000    1.0088354   -2.3326061   -2.3326061   -1.4000442   0.06259674   -2.3326061   0.93256191   520346 
 1560000    1.0104757   -2.3337724   -2.3337724   -1.3996942  0.067525217   -2.3337724   0.93407824   520346 
 1561000    1.0113254   -2.3354431   -2.3354431   -1.4005794  0.066590172   -2.3354431   0.93486366   520346 
 1562000    1.0136125   -2.3362363   -2.3362363   -1.3992584  0.071031757   -2.3362363    0.9369779   520346 
 1563000    1.0097394   -2.3331711   -2.3331711   -1.3997735  0.055678153   -2.3331711   0.93339761   520346 
 1564000    1.0106482   -2.3345596   -2.3345596   -1.4003219  0.065473717   -2.3345596   0.93423764   520346 
 1565000    1.0128981   -2.3361357   -2.3361357   -1.3998183  0.065488203   -2.3361357   0.93631743   520346 
 1566000    1.0105131   -2.3340933   -2.3340933   -1.3999805  0.074829319   -2.3340933   0.93411277   520346 
 1567000    1.0100707   -2.3351814   -2.3351814   -1.4014776  0.061701668   -2.3351814   0.93370386   520346 
 1568000    1.0084058   -2.3335461   -2.3335461   -1.4013813  0.066543406   -2.3335461   0.93216484   520346 
 1569000    1.0096825   -2.3344674   -2.3344674   -1.4011224  0.062442338   -2.3344674     0.933345   520346 
 1570000    1.0108085   -2.3357086   -2.3357086   -1.4013227  0.057373213   -2.3357086   0.93438589   520346 
 1571000    1.0116175   -2.3372098   -2.3372098   -1.4020761  0.067066796   -2.3372098   0.93513366   520346 
 1572000    1.0091793   -2.3339545   -2.3339545   -1.4010746  0.078049117   -2.3339545   0.93287986   520346 
 1573000    1.0089888   -2.3347169   -2.3347169   -1.4020132  0.061311312   -2.3347169   0.93270374   520346 
 1574000    1.0094237   -2.3349083   -2.3349083   -1.4018026  0.069134356   -2.3349083   0.93310575   520346 
 1575000    1.0073273   -2.3333548   -2.3333548    -1.402187   0.06186901   -2.3333548   0.93116784   520346 
 1576000     1.010091   -2.3355971   -2.3355971   -1.4018745  0.059521995   -2.3355971   0.93372258   520346 
 1577000    1.0109818   -2.3362039   -2.3362039   -1.4016578  0.053278552   -2.3362039   0.93454603   520346 
 1578000     1.010825   -2.3361596   -2.3361596   -1.4017585  0.069898759   -2.3361596    0.9344011   520346 
 1579000    1.0095004   -2.3350959   -2.3350959   -1.4019193  0.064756307   -2.3350959   0.93317664   520346 
 1580000    1.0101851   -2.3350126   -2.3350126   -1.4012031  0.059980003   -2.3350126   0.93380957   520346 
 1581000    1.0113102   -2.3364157   -2.3364157   -1.4015661  0.044452669   -2.3364157    0.9348496   520346 
 1582000    1.0092446   -2.3359949   -2.3359949   -1.4030547  0.071452813   -2.3359949   0.93294024   520346 
 1583000    1.0083108   -2.3351816   -2.3351816   -1.4031046  0.059094223   -2.3351816   0.93207697   520346 
 1584000    1.0109333   -2.3368538   -2.3368538   -1.4023526  0.059189704   -2.3368538   0.93450119   520346 
 1585000    1.0128938   -2.3389284   -2.3389284   -1.4026149  0.052889723   -2.3389284   0.93631345   520346 
 1586000    1.0123511   -2.3376965   -2.3376965   -1.4018846  0.079099763   -2.3376965   0.93581182   520346 
 1587000    1.0134596   -2.3383003   -2.3383003   -1.4014638  0.067720538   -2.3383003    0.9368365   520346 
 1588000    1.0095454   -2.3350799   -2.3350799   -1.4018616  0.065865284   -2.3350799   0.93321823   520346 
 1589000    1.0092545   -2.3350643   -2.3350643   -1.4021149   0.06452188   -2.3350643   0.93294935   520346 
 1590000    1.0102516   -2.3346602   -2.3346602   -1.4007891  0.063717321   -2.3346602   0.93387104   520346 
 1591000    1.0102633   -2.3346894   -2.3346894   -1.4008075  0.061489007   -2.3346894   0.93388187   520346 
 1592000    1.0117998   -2.3356452   -2.3356452    -1.400343  0.069062268   -2.3356452   0.93530217   520346 
 1593000    1.0098188   -2.3339355   -2.3339355   -1.4004646  0.061109501   -2.3339355   0.93347099   520346 
 1594000    1.0115479   -2.3353252   -2.3353252   -1.4002559    0.0562177   -2.3353252   0.93506934   520346 
 1595000    1.0109869   -2.3354506   -2.3354506   -1.4008998  0.059515126   -2.3354506   0.93455078   520346 
 1596000    1.0105441   -2.3345272   -2.3345272   -1.4003858  0.068466545   -2.3345272   0.93414144   520346 
 1597000    1.0123655   -2.3371185   -2.3371185   -1.4012933  0.061142527   -2.3371185   0.93582514   520346 
 1598000    1.0096522   -2.3337566   -2.3337566   -1.4004395  0.053715061   -2.3337566   0.93331702   520346 
 1599000    1.0116348   -2.3359582   -2.3359582   -1.4008086  0.065865939   -2.3359582   0.93514966   520346 
 1600000    1.0117899   -2.3362029   -2.3362029   -1.4009099  0.073677352   -2.3362029   0.93529302   520346 
 1601000     1.012106   -2.3352733   -2.3352733    -1.399688  0.074146089   -2.3352733   0.93558526   520346 
 1602000     1.011899   -2.3364572   -2.3364572   -1.4010633  0.051386739   -2.3364572   0.93539389   520346 
 1603000    1.0080955   -2.3341256   -2.3341256   -1.4022476  0.067420333   -2.3341256   0.93187793   520346 
 1604000    1.0083921   -2.3339641   -2.3339641   -1.4018119  0.067173508   -2.3339641   0.93215217   520346 
 1605000    1.0086376   -2.3331881   -2.3331881   -1.4008091   0.06259526   -2.3331881   0.93237906   520346 
 1606000    1.0118232   -2.3368133   -2.3368133   -1.4014895  0.075397118   -2.3368133   0.93532383   520346 
 1607000    1.0119719   -2.3361041   -2.3361041   -1.4006428  0.063938488   -2.3361041   0.93546132   520346 
 1608000    1.0092778   -2.3343561   -2.3343561   -1.4013852  0.069029648   -2.3343561   0.93297088   520346 
 1609000      1.01137   -2.3354447   -2.3354447   -1.4005399  0.058334756   -2.3354447   0.93490488   520346 
 1610000    1.0085929   -2.3338806   -2.3338806   -1.4015428  0.059498332   -2.3338806   0.93233778   520346 
 1611000    1.0108517   -2.3364849   -2.3364849   -1.4020591  0.062915478   -2.3364849   0.93442579   520346 
 1612000    1.0126654   -2.3371778   -2.3371778   -1.4010755  0.062497738   -2.3371778   0.93610233   520346 
 1613000    1.0133333    -2.337264    -2.337264   -1.4005442  0.061225738    -2.337264    0.9367198   520346 
 1614000     1.010608   -2.3354562   -2.3354562   -1.4012556  0.063016165   -2.3354562   0.93420054   520346 
 1615000    1.0108438   -2.3352467   -2.3352467   -1.4008282  0.063356606   -2.3352467   0.93441852   520346 
 1616000    1.0120845   -2.3364976   -2.3364976   -1.4009322  0.055346636   -2.3364976   0.93556539   520346 
 1617000    1.0100707   -2.3353331   -2.3353331   -1.4016293  0.067579398   -2.3353331   0.93370383   520346 
 1618000    1.0110772   -2.3363536   -2.3363536   -1.4017193  0.065037176   -2.3363536   0.93463428   520346 
 1619000    1.0128684   -2.3377486   -2.3377486   -1.4014586  0.078197041   -2.3377486   0.93629005   520346 
 1620000    1.0101432   -2.3359994   -2.3359994   -1.4022285  0.060827145   -2.3359994   0.93377085   520346 
 1621000    1.0115445   -2.3364221   -2.3364221   -1.4013558  0.073070701   -2.3364221   0.93506622   520346 
 1622000     1.008785   -2.3350669   -2.3350669   -1.4025515  0.065456472   -2.3350669   0.93251536   520346 
 1623000    1.0096414   -2.3348375   -2.3348375   -1.4015305  0.067174223   -2.3348375   0.93330696   520346 
 1624000     1.011623    -2.335655    -2.335655   -1.4005163  0.069039427    -2.335655   0.93513873   520346 
 1625000    1.0094065   -2.3337877   -2.3337877   -1.4006978  0.075968744   -2.3337877   0.93308985   520346 
 1626000     1.009902   -2.3341959   -2.3341959    -1.400648   0.05649562   -2.3341959   0.93354789   520346 
 1627000    1.0124416     -2.33713     -2.33713   -1.4012345  0.060698335     -2.33713    0.9358955   520346 
 1628000    1.0107007   -2.3358441   -2.3358441   -1.4015579   0.05943051   -2.3358441   0.93428621   520346 
 1629000    1.0135169   -2.3379526   -2.3379526   -1.4010632  0.061877233   -2.3379526   0.93688949   520346 
 1630000    1.0116813   -2.3364084   -2.3364084   -1.4012157  0.059158343   -2.3364084   0.93519269   520346 
 1631000    1.0112702    -2.335396    -2.335396   -1.4005833  0.073595778    -2.335396   0.93481267   520346 
 1632000    1.0109118    -2.335395    -2.335395   -1.4009136  0.063546034    -2.335395   0.93448136   520346 
 1633000    1.0130319   -2.3378977   -2.3378977   -1.4014566  0.072938394   -2.3378977   0.93644115   520346 
 1634000    1.0102867   -2.3360376   -2.3360376   -1.4021341   0.07160573   -2.3360376   0.93390349   520346 
 1635000    1.0120805   -2.3378245   -2.3378245   -1.4022628  0.062341443   -2.3378245   0.93556171   520346 
 1636000    1.0103506   -2.3366008   -2.3366008   -1.4026382   0.06291085   -2.3366008   0.93396255   520346 
 1637000    1.0086009   -2.3348308   -2.3348308   -1.4024857  0.060766171   -2.3348308   0.93234515   520346 
 1638000    1.0115205   -2.3366794   -2.3366794   -1.4016354  0.070184266   -2.3366794     0.935044   520346 
 1639000     1.011198   -2.3368732   -2.3368732   -1.4021273  0.060141749   -2.3368732   0.93474593   520346 
 1640000    1.0134295   -2.3382581   -2.3382581   -1.4014494  0.066025087   -2.3382581   0.93680873   520346 
 1641000    1.0117855   -2.3370661   -2.3370661   -1.4017771  0.069448982   -2.3370661   0.93528903   520346 
 1642000    1.0112236    -2.337412    -2.337412   -1.4026424  0.073193909    -2.337412   0.93476961   520346 
 1643000    1.0138972   -2.3406765   -2.3406765   -1.4034354   0.06744837   -2.3406765   0.93724106   520346 
 1644000    1.0094399    -2.336352    -2.336352   -1.4032313  0.071942033    -2.336352   0.93312069   520346 
 1645000    1.0127983   -2.3386187   -2.3386187   -1.4023936  0.064302891   -2.3386187   0.93622518   520346 
 1646000    1.0104802   -2.3367759   -2.3367759   -1.4026936  0.060199237   -2.3367759   0.93408235   520346 
 1647000    1.0118234   -2.3378963   -2.3378963   -1.4025723  0.062694519   -2.3378963     0.935324   520346 
 1648000    1.0118361   -2.3380244   -2.3380244   -1.4026886  0.062521016   -2.3380244   0.93533578   520346 
 1649000    1.0111273   -2.3379908   -2.3379908   -1.4033103  0.060884043   -2.3379908   0.93468056   520346 
 1650000    1.0128369   -2.3387067   -2.3387067   -1.4024458  0.068324962   -2.3387067   0.93626091   520346 
 1651000    1.0122688   -2.3390569   -2.3390569   -1.4033211  0.057795091   -2.3390569   0.93573579   520346 
 1652000    1.0086699   -2.3363247   -2.3363247   -1.4039157  0.052639739   -2.3363247   0.93240898   520346 
 1653000    1.0092745   -2.3380734   -2.3380734   -1.4051057  0.054220507   -2.3380734   0.93296779   520346 
 1654000    1.0084827   -2.3358862   -2.3358862   -1.4036503  0.060910638   -2.3358862   0.93223594   520346 
 1655000    1.0104351   -2.3367824   -2.3367824   -1.4027417  0.049382344   -2.3367824   0.93404065   520346 
 1656000    1.0109473    -2.337616    -2.337616   -1.4031018  0.072512734    -2.337616   0.93451419   520346 
 1657000    1.0124924   -2.3388322   -2.3388322   -1.4028898   0.07006021   -2.3388322   0.93594249   520346 
 1658000    1.0103172   -2.3368931   -2.3368931   -1.4029614  0.064232917   -2.3368931   0.93393173   520346 
 1659000    1.0103893   -2.3369776   -2.3369776   -1.4029793  0.065097884   -2.3369776   0.93399832   520346 
 1660000    1.0101292   -2.3369395   -2.3369395   -1.4031816  0.061832171   -2.3369395   0.93375796   520346 
 1661000    1.0117167   -2.3382993   -2.3382993   -1.4030739  0.058278369   -2.3382993   0.93522542   520346 
 1662000    1.0099286   -2.3372404   -2.3372404   -1.4036679  0.056302801   -2.3372404   0.93357245   520346 
 1663000    1.0097694   -2.3370073   -2.3370073    -1.403582  0.072653359   -2.3370073    0.9334253   520346 
 1664000    1.0111261   -2.3391994   -2.3391994     -1.40452  0.070517054   -2.3391994   0.93467942   520346 
 1665000     1.012087   -2.3397182   -2.3397182   -1.4041505  0.064783954   -2.3397182   0.93556766   520346 
 1666000    1.0116496   -2.3395196   -2.3395196   -1.4043563  0.074629231   -2.3395196   0.93516337   520346 
 1667000    1.0129163   -2.3412528   -2.3412528   -1.4049186   0.06736719   -2.3412528   0.93633428   520346 
 1668000    1.0103853    -2.339468    -2.339468   -1.4054733  0.069572119    -2.339468   0.93399467   520346 
 1669000    1.0124964   -2.3410405   -2.3410405   -1.4050944  0.061726016   -2.3410405   0.93594611   520346 
 1670000    1.0108099   -2.3402584   -2.3402584   -1.4058712  0.064560862   -2.3402584   0.93438716   520346 
 1671000    1.0100804   -2.3387299   -2.3387299    -1.405017  0.065590004   -2.3387299   0.93371283   520346 
 1672000    1.0115812   -2.3398324   -2.3398324   -1.4047323  0.059026949   -2.3398324   0.93510009   520346 
 1673000    1.0121024   -2.3404769   -2.3404769   -1.4048949  0.060554906   -2.3404769   0.93558195   520346 
 1674000    1.0122266   -2.3405216   -2.3405216   -1.4048249  0.058618606   -2.3405216   0.93569673   520346 
 1675000    1.0095543   -2.3380211   -2.3380211   -1.4047946  0.060485473   -2.3380211   0.93322647   520346 
 1676000    1.0117916   -2.3395911   -2.3395911   -1.4042965  0.064380714   -2.3395911   0.93529464   520346 
 1677000    1.0093223   -2.3385006   -2.3385006   -1.4054886  0.060794673   -2.3385006   0.93301201   520346 
 1678000    1.0125154   -2.3413906   -2.3413906   -1.4054269  0.064702566   -2.3413906   0.93596371   520346 
 1679000    1.0120851   -2.3405333   -2.3405333   -1.4049674  0.062506747   -2.3405333   0.93556591   520346 
 1680000    1.0134743   -2.3420457   -2.3420457   -1.4051956  0.070345432   -2.3420457   0.93685007   520346 
 1681000    1.0129343   -2.3417302   -2.3417302   -1.4053793  0.068597171   -2.3417302   0.93635089   520346 
 1682000    1.0122023   -2.3419211   -2.3419211   -1.4062468  0.055064639   -2.3419211   0.93567431   520346 
 1683000     1.012024   -2.3407765   -2.3407765   -1.4052671  0.059580343   -2.3407765   0.93550946   520346 
 1684000    1.0113478   -2.3411217   -2.3411217   -1.4062373   0.05982736   -2.3411217   0.93488437   520346 
 1685000    1.0106564   -2.3399505   -2.3399505   -1.4057052  0.068901827   -2.3399505   0.93424529   520346 
 1686000    1.0105037   -2.3390555   -2.3390555   -1.4049515  0.064896583   -2.3390555   0.93410406   520346 
 1687000    1.0095836   -2.3389694   -2.3389694   -1.4057158   0.06227673   -2.3389694    0.9332536   520346 
 1688000    1.0088398   -2.3380388   -2.3380388   -1.4054728  0.052546693   -2.3380388   0.93256605   520346 
 1689000    1.0111245   -2.3403095   -2.3403095   -1.4056316  0.051837177   -2.3403095   0.93467796   520346 
 1690000    1.0119458   -2.3403978   -2.3403978   -1.4049607  0.054468381   -2.3403978   0.93543716   520346 
 1691000    1.0119299   -2.3407359   -2.3407359   -1.4053134  0.056910093   -2.3407359   0.93542245   520346 
 1692000    1.0122708   -2.3407023   -2.3407023   -1.4049647  0.056805272   -2.3407023   0.93573757   520346 
 1693000    1.0101444   -2.3389219   -2.3389219   -1.4051499  0.057080863   -2.3389219   0.93377193   520346 
 1694000    1.0095039   -2.3385586   -2.3385586   -1.4053787  0.070782446   -2.3385586   0.93317988   520346 
 1695000    1.0101538   -2.3393355   -2.3393355   -1.4055548   0.06499931   -2.3393355   0.93378069   520346 
 1696000    1.0091021   -2.3374287   -2.3374287   -1.4046202  0.062427431   -2.3374287   0.93280847   520346 
 1697000    1.0111929   -2.3394018   -2.3394018   -1.4046607  0.056527214   -2.3394018   0.93474118   520346 
 1698000    1.0122492   -2.3407598   -2.3407598   -1.4050421  0.062251136   -2.3407598   0.93571767   520346 
 1699000    1.0138881   -2.3423359   -2.3423359   -1.4051032  0.066240213   -2.3423359   0.93723267   520346 
 1700000    1.0112221   -2.3400993   -2.3400993   -1.4053311  0.060105653   -2.3400993   0.93476819   520346 
 1701000    1.0118723   -2.3403794   -2.3403794   -1.4050101  0.058391869   -2.3403794   0.93536923   520346 
 1702000    1.0112359   -2.3399712   -2.3399712   -1.4051902  0.053773689   -2.3399712   0.93478092   520346 
 1703000    1.0104328   -2.3392131   -2.3392131   -1.4051745  0.057180844   -2.3392131   0.93403857   520346 
 1704000    1.0098247   -2.3392922   -2.3392922   -1.4058158   0.07247728   -2.3392922   0.93347643   520346 
 1705000    1.0111913   -2.3416171   -2.3416171   -1.4068774  0.074064247   -2.3416171   0.93473971   520346 
 1706000    1.0130653   -2.3441257   -2.3441257   -1.4076536  0.068544319   -2.3441257   0.93647206   520346 
 1707000    1.0107144   -2.3419539   -2.3419539   -1.4076551  0.069917669   -2.3419539   0.93429886   520346 
 1708000     1.010894   -2.3422393   -2.3422393   -1.4077744  0.069158546   -2.3422393   0.93446491   520346 
 1709000    1.0107615   -2.3421482   -2.3421482   -1.4078058  0.063075094   -2.3421482   0.93434241   520346 
 1710000    1.0101658   -2.3421858   -2.3421858   -1.4083941  0.060757473   -2.3421858   0.93379174   520346 
 1711000    1.0114178   -2.3425721   -2.3425721    -1.407623  0.061695176   -2.3425721    0.9349491   520346 
 1712000    1.0115181   -2.3419441   -2.3419441   -1.4069023  0.068135881   -2.3419441   0.93504184   520346 
 1713000    1.0111756   -2.3419257   -2.3419257   -1.4072005  0.057400087   -2.3419257   0.93472521   520346 
 1714000    1.0124418   -2.3435722   -2.3435722   -1.4076765  0.057841821   -2.3435722   0.93589571   520346 
 1715000     1.011558   -2.3419988   -2.3419988   -1.4069201  0.063317295   -2.3419988   0.93507867   520346 
 1716000    1.0099303    -2.340965    -2.340965    -1.407391  0.068589929    -2.340965   0.93357405   520346 
 1717000    1.0103717   -2.3410821   -2.3410821   -1.4071001  0.059940577   -2.3410821   0.93398206   520346 
 1718000    1.0074049   -2.3391914   -2.3391914   -1.4079518  0.062625176   -2.3391914   0.93123961   520346 
 1719000    1.0091527   -2.3416206   -2.3416206   -1.4087654  0.067391329   -2.3416206   0.93285526   520346 
 1720000    1.0088816   -2.3403081   -2.3403081   -1.4077035  0.064989797   -2.3403081   0.93260462   520346 
 1721000    1.0116127   -2.3421557   -2.3421557   -1.4070264  0.061481959   -2.3421557   0.93512927   520346 
 1722000    1.0107809   -2.3410891   -2.3410891   -1.4067287  0.061405311   -2.3410891   0.93436039   520346 
 1723000    1.0109704      -2.3407      -2.3407   -1.4061645  0.076680846      -2.3407   0.93453551   520346 
 1724000     1.009493    -2.339476    -2.339476   -1.4063062  0.062775161    -2.339476   0.93316978   520346 
 1725000    1.0096021   -2.3396995   -2.3396995   -1.4064289  0.063698697   -2.3396995   0.93327065   520346 
 1726000    1.0117499   -2.3413897   -2.3413897   -1.4061336  0.057742865   -2.3413897    0.9352561   520346 
 1727000    1.0103625   -2.3398059   -2.3398059   -1.4058323  0.073637611   -2.3398059    0.9339736   520346 
 1728000    1.0101716   -2.3393372   -2.3393372   -1.4055401  0.057415904   -2.3393372   0.93379707   520346 
 1729000     1.008363   -2.3378664   -2.3378664   -1.4057412  0.064061669   -2.3378664   0.93212521   520346 
 1730000    1.0086005   -2.3389157   -2.3389157   -1.4065709  0.065297356   -2.3389157   0.93234479   520346 
 1731000    1.0068698   -2.3363522   -2.3363522   -1.4056072  0.055601082   -2.3363522   0.93074492   520346 
 1732000    1.0098344   -2.3385775   -2.3385775   -1.4050921  0.056025491   -2.3385775   0.93348542   520346 
 1733000    1.0098946   -2.3394085   -2.3394085   -1.4058675  0.057733286   -2.3394085   0.93354107   520346 
 1734000    1.0122357    -2.340483    -2.340483   -1.4047779   0.06596096    -2.340483   0.93570513   520346 
 1735000     1.012229   -2.3403128   -2.3403128   -1.4046138   0.06637583   -2.3403128   0.93569898   520346 
 1736000    1.0139294   -2.3417958   -2.3417958    -1.404525  0.065745764   -2.3417958    0.9372708   520346 
 1737000    1.0121567   -2.3406149   -2.3406149   -1.4049829  0.059365042   -2.3406149    0.9356321   520346 
 1738000    1.0106336   -2.3399028   -2.3399028   -1.4056787  0.059326391   -2.3399028   0.93422418   520346 
 1739000    1.0125336   -2.3421182   -2.3421182   -1.4061377  0.062687008   -2.3421182   0.93598049   520346 
 1740000    1.0116157   -2.3414575   -2.3414575   -1.4063254  0.073284955   -2.3414575   0.93513205   520346 
 1741000    1.0112124   -2.3410025   -2.3410025   -1.4062432  0.060428387   -2.3410025   0.93475923   520346 
 1742000    1.0097959    -2.340929    -2.340929   -1.4074792  0.062317815    -2.340929   0.93344977   520346 
 1743000    1.0102799   -2.3408796   -2.3408796   -1.4069824  0.068686474   -2.3408796   0.93389718   520346 
 1744000    1.0112493   -2.3412625   -2.3412625   -1.4064692   0.07340455   -2.3412625   0.93479333   520346 
 1745000    1.0134975   -2.3431215   -2.3431215   -1.4062499  0.061737672   -2.3431215   0.93687153   520346 
 1746000    1.0109395   -2.3413409   -2.3413409    -1.406834   0.05544434   -2.3413409   0.93450697   520346 
 1747000    1.0109901   -2.3411278   -2.3411278   -1.4065741  0.057029763   -2.3411278   0.93455369   520346 
 1748000    1.0112155   -2.3414213   -2.3414213   -1.4066592  0.052245997   -2.3414213   0.93476205   520346 
 1749000    1.0098181    -2.341732    -2.341732   -1.4082616  0.063276734    -2.341732   0.93347037   520346 
 1750000    1.0097854   -2.3412727   -2.3412727   -1.4078326  0.061343498   -2.3412727   0.93344011   520346 
 1751000    1.0104395   -2.3417497   -2.3417497    -1.407705  0.059739358   -2.3417497   0.93404476   520346 
 1752000    1.0119373   -2.3431379   -2.3431379   -1.4077086  0.055070702   -2.3431379   0.93542927   520346 
 1753000    1.0093449   -2.3417974   -2.3417974   -1.4087644  0.069491132   -2.3417974   0.93303294   520346 
 1754000    1.0107942   -2.3434508   -2.3434508   -1.4090782  0.059702622   -2.3434508   0.93437267   520346 
 1755000    1.0094623   -2.3423632   -2.3423632   -1.4092217  0.060350019   -2.3423632   0.93314146   520346 
 1756000    1.0091822   -2.3421788   -2.3421788   -1.4092962  0.064007381   -2.3421788   0.93288252   520346 
 1757000    1.0109067   -2.3432721   -2.3432721   -1.4087955  0.065840141   -2.3432721   0.93447664   520346 
 1758000    1.0120579    -2.343969    -2.343969   -1.4084282  0.059746349    -2.343969   0.93554077   520346 
 1759000    1.0107388    -2.343436    -2.343436   -1.4091145  0.067794636    -2.343436   0.93432145   520346 
 1760000     1.009909   -2.3429576   -2.3429576   -1.4094032  0.067211862   -2.3429576   0.93355439   520346 
 1761000    1.0091322   -2.3416892   -2.3416892   -1.4088529  0.069799319   -2.3416892   0.93283632   520346 
 1762000    1.0115129   -2.3436185   -2.3436185   -1.4085815  0.064871426   -2.3436185   0.93503696   520346 
 1763000    1.0109993   -2.3434592   -2.3434592    -1.408897  0.070822984   -2.3434592    0.9345622   520346 
 1764000    1.0111055   -2.3427884   -2.3427884    -1.408128  0.055132267   -2.3427884   0.93466038   520346 
 1765000      1.01114   -2.3429154   -2.3429154   -1.4082231  0.065932358   -2.3429154   0.93469227   520346 
 1766000    1.0117522   -2.3438307   -2.3438307   -1.4085725  0.063975327   -2.3438307    0.9352582   520346 
 1767000    1.0101044   -2.3426649   -2.3426649   -1.4089299  0.055304437   -2.3426649   0.93373501   520346 
 1768000    1.0083575   -2.3408615   -2.3408615   -1.4087414   0.05178727   -2.3408615   0.93212017   520346 
 1769000    1.0096131   -2.3431513   -2.3431513   -1.4098705  0.065009477   -2.3431513   0.93328083   520346 
 1770000    1.0114977   -2.3442133   -2.3442133   -1.4091903  0.067694332   -2.3442133   0.93502297   520346 
 1771000    1.0102818   -2.3421646   -2.3421646   -1.4082657  0.069078384   -2.3421646   0.93389898   520346 
 1772000    1.0122034   -2.3442255   -2.3442255   -1.4085502  0.056376189   -2.3442255    0.9356753   520346 
 1773000     1.010444   -2.3431659   -2.3431659    -1.409117  0.051153822   -2.3431659   0.93404889   520346 
 1774000    1.0092517   -2.3422045   -2.3422045   -1.4092577  0.049436704   -2.3422045   0.93294675   520346 
 1775000    1.0095728   -2.3417951   -2.3417951   -1.4085515  0.064748262   -2.3417951   0.93324361   520346 
 1776000    1.0095438   -2.3414156   -2.3414156   -1.4081989  0.054152124   -2.3414156   0.93321674   520346 
 1777000    1.0081582   -2.3403717   -2.3403717   -1.4084357  0.064215797   -2.3403717   0.93193593   520346 
 1778000    1.0088574    -2.341045    -2.341045   -1.4084628  0.053283413    -2.341045   0.93258225   520346 
 1779000    1.0089482    -2.340745    -2.340745   -1.4080788  0.055619487    -2.340745   0.93266621   520346 
 1780000    1.0108728   -2.3429842   -2.3429842   -1.4085389  0.061014644   -2.3429842   0.93444532   520346 
 1781000    1.0110355   -2.3431377   -2.3431377    -1.408542   0.05928433   -2.3431377    0.9345957   520346 
 1782000    1.0120781   -2.3438856   -2.3438856   -1.4083262  0.059230652   -2.3438856   0.93555943   520346 
 1783000    1.0095481   -2.3412807   -2.3412807   -1.4080599  0.064852294   -2.3412807   0.93322075   520346 
 1784000    1.0088786   -2.3412612   -2.3412612   -1.4086593  0.072890002   -2.3412612   0.93260189   520346 
 1785000    1.0100634   -2.3430585   -2.3430585   -1.4093614  0.052202258   -2.3430585   0.93369706   520346 
 1786000    1.0104249   -2.3443409   -2.3443409   -1.4103097  0.063342088   -2.3443409   0.93403123   520346 
 1787000    1.0099783   -2.3435605   -2.3435605   -1.4099421  0.059705323   -2.3435605   0.93361844   520346 
 1788000    1.0089252   -2.3422665   -2.3422665   -1.4096215  0.064245247   -2.3422665   0.93264498   520346 
 1789000    1.0085752   -2.3422673   -2.3422673   -1.4099459  0.066532708   -2.3422673   0.93232139   520346 
 1790000     1.010858    -2.343265    -2.343265   -1.4088334   0.07242516    -2.343265    0.9344316   520346 
 1791000     1.011929   -2.3438029   -2.3438029   -1.4083813  0.071719468   -2.3438029    0.9354216   520346 
 1792000    1.0116469   -2.3439796   -2.3439796   -1.4088187  0.063873916   -2.3439796   0.93516088   520346 
 1793000    1.0110227   -2.3436668   -2.3436668   -1.4090829  0.072423374   -2.3436668   0.93458388   520346 
 1794000    1.0105449   -2.3431808   -2.3431808   -1.4090386  0.058380783   -2.3431808    0.9341422   520346 
 1795000    1.0097407   -2.3424416   -2.3424416   -1.4090429  0.063840036   -2.3424416   0.93339877   520346 
 1796000    1.0098882   -2.3427373   -2.3427373   -1.4092021   0.05773348   -2.3427373   0.93353515   520346 
 1797000    1.0115024   -2.3439775   -2.3439775   -1.4089502  0.059876293   -2.3439775   0.93502732   520346 
 1798000    1.0105187   -2.3426485   -2.3426485   -1.4085305  0.061067285   -2.3426485   0.93411797   520346 
 1799000    1.0085934    -2.341955    -2.341955   -1.4096168   0.05763987    -2.341955   0.93233826   520346 
 1800000    1.0101588   -2.3430182   -2.3430182    -1.409233  0.060151534   -2.3430182   0.93378525   520346 
 1801000    1.0087774   -2.3414275   -2.3414275   -1.4089191  0.069300209   -2.3414275   0.93250835   520346 
 1802000    1.0107912   -2.3422912   -2.3422912   -1.4079213  0.072651872   -2.3422912   0.93436989   520346 
 1803000    1.0110141   -2.3439471   -2.3439471   -1.4093712  0.059676141   -2.3439471   0.93457592   520346 
 1804000    1.0077785   -2.3409217   -2.3409217   -1.4093368  0.061203698   -2.3409217   0.93158493   520346 
 1805000    1.0106684   -2.3439958   -2.3439958   -1.4097395  0.062357205   -2.3439958   0.93425631   520346 
 1806000    1.0108229   -2.3436244   -2.3436244   -1.4092253  0.068544282   -2.3436244   0.93439912   520346 
 1807000    1.0082738   -2.3420141   -2.3420141   -1.4099713  0.058422129   -2.3420141   0.93204275   520346 
 1808000     1.007688   -2.3422039   -2.3422039   -1.4107026  0.062031599   -2.3422039   0.93150129   520346 
 1809000    1.0091002   -2.3427625   -2.3427625   -1.4099558  0.063682531   -2.3427625   0.93280669   520346 
 1810000    1.0098092   -2.3432579   -2.3432579   -1.4097959  0.063012606   -2.3432579   0.93346206   520346 
 1811000    1.0098878   -2.3438253   -2.3438253   -1.4102905  0.059670866   -2.3438253   0.93353481   520346 
 1812000    1.0119153   -2.3456083   -2.3456083   -1.4101994  0.055760347   -2.3456083   0.93540897   520346 
 1813000    1.0123048   -2.3455406   -2.3455406   -1.4097716  0.058923715   -2.3455406   0.93576899   520346 
 1814000    1.0121217   -2.3451516   -2.3451516   -1.4095518  0.064658471   -2.3451516    0.9355998   520346 
 1815000    1.0112333   -2.3447146   -2.3447146   -1.4099361  0.059373993   -2.3447146   0.93477852   520346 
 1816000    1.0097891   -2.3435283   -2.3435283   -1.4100848  0.070167259   -2.3435283   0.93344354   520346 
 1817000    1.0132205   -2.3460271   -2.3460271   -1.4094116  0.060401468   -2.3460271   0.93661553   520346 
 1818000    1.0116485   -2.3441944   -2.3441944    -1.409032  0.056189635   -2.3441944   0.93516238   520346 
 1819000    1.0118819   -2.3442292   -2.3442292   -1.4088512  0.055587697   -2.3442292   0.93537808   520346 
 1820000    1.0114521   -2.3441387   -2.3441387    -1.409158  0.066384778   -2.3441387   0.93498077   520346 
 1821000    1.0111554   -2.3435392   -2.3435392   -1.4088326  0.063173217   -2.3435392   0.93470653   520346 
 1822000    1.0107955   -2.3433647   -2.3433647   -1.4089908  0.059824209   -2.3433647   0.93437388   520346 
 1823000    1.0108464   -2.3438285   -2.3438285   -1.4094076  0.066605065   -2.3438285   0.93442092   520346 
 1824000     1.011034   -2.3454342   -2.3454342   -1.4108399  0.049865617   -2.3454342    0.9345943   520346 
 1825000    1.0083981   -2.3437578   -2.3437578   -1.4116001  0.047210846   -2.3437578   0.93215766   520346 
 1826000    1.0093078   -2.3436407   -2.3436407   -1.4106421   0.05624311   -2.3436407    0.9329986   520346 
 1827000    1.0101456   -2.3437932   -2.3437932   -1.4100201  0.057308086   -2.3437932   0.93377308   520346 
 1828000    1.0081745   -2.3435849   -2.3435849   -1.4116339  0.054557726   -2.3435849   0.93195099   520346 
 1829000    1.0118192   -2.3457056   -2.3457056   -1.4103854   0.06555612   -2.3457056   0.93532016   520346 
 1830000    1.0103326   -2.3447776   -2.3447776   -1.4108316  0.051272473   -2.3447776   0.93394596   520346 
 1831000     1.010907    -2.344782    -2.344782   -1.4103051  0.066792875    -2.344782   0.93447691   520346 
 1832000    1.0117942   -2.3456814   -2.3456814   -1.4103844   0.06860308   -2.3456814     0.935297   520346 
 1833000    1.0111916   -2.3451292   -2.3451292   -1.4103892  0.065394918   -2.3451292   0.93474004   520346 
 1834000    1.0091988   -2.3433053   -2.3433053   -1.4104074  0.058329675   -2.3433053   0.93289784   520346 
 1835000    1.0101026   -2.3443286   -2.3443286   -1.4105953  0.067484934   -2.3443286   0.93373334   520346 
 1836000    1.0097729     -2.34443     -2.34443   -1.4110014  0.056233691     -2.34443   0.93342857   520346 
 1837000    1.0112946   -2.3453587   -2.3453587   -1.4105235  0.060033716   -2.3453587   0.93483522   520346 
 1838000    1.0088322   -2.3437074   -2.3437074   -1.4111484  0.062918352   -2.3437074     0.932559   520346 
 1839000    1.0097541   -2.3440104   -2.3440104   -1.4105992  0.062210159   -2.3440104   0.93341121   520346 
 1840000    1.0093287   -2.3441749   -2.3441749   -1.4111569  0.078354558   -2.3441749   0.93301794   520346 
 1841000    1.0103709   -2.3450195   -2.3450195   -1.4110382  0.069511912   -2.3450195   0.93398135   520346 
 1842000    1.0143929   -2.3483894   -2.3483894   -1.4106901  0.065265419   -2.3483894   0.93769925   520346 
 1843000     1.012423   -2.3465959   -2.3465959   -1.4107176  0.065439855   -2.3465959   0.93587827   520346 
 1844000    1.0136938   -2.3483803   -2.3483803   -1.4113273  0.059180407   -2.3483803   0.93705299   520346 
 1845000     1.010948   -2.3454695   -2.3454695   -1.4109547  0.069062954   -2.3454695   0.93451485   520346 
 1846000    1.0092592   -2.3450226   -2.3450226    -1.412069  0.063400169   -2.3450226   0.93295367   520346 
 1847000    1.0090875   -2.3434657   -2.3434657   -1.4106708  0.052432968   -2.3434657   0.93279495   520346 
 1848000    1.0127398   -2.3465214   -2.3465214   -1.4103503   0.05383999   -2.3465214    0.9361711   520346 
 1849000    1.0120033   -2.3463293   -2.3463293    -1.410839  0.062298337   -2.3463293   0.93549032   520346 
 1850000    1.0132492   -2.3474246   -2.3474246   -1.4107826    0.0746268   -2.3474246   0.93664204   520346 
 1851000    1.0130085   -2.3474522   -2.3474522   -1.4110326  0.065229234   -2.3474522   0.93641956   520346 
 1852000    1.0119777   -2.3462946   -2.3462946   -1.4108279  0.063608881   -2.3462946   0.93546665   520346 
 1853000    1.0108397   -2.3463277   -2.3463277    -1.411913  0.063458048   -2.3463277   0.93441472   520346 
 1854000    1.0110047   -2.3474411   -2.3474411   -1.4128739  0.062184236   -2.3474411   0.93456721   520346 
 1855000    1.0101072   -2.3465588   -2.3465588   -1.4128212  0.063542508   -2.3465588   0.93373757   520346 
 1856000    1.0102676   -2.3475065   -2.3475065   -1.4136206  0.051795134   -2.3475065   0.93388587   520346 
 1857000    1.0103899   -2.3472968   -2.3472968   -1.4132979  0.061462895   -2.3472968   0.93399887   520346 
 1858000    1.0114226   -2.3485161   -2.3485161   -1.4135625  0.058397487   -2.3485161   0.93495357   520346 
 1859000    1.0115135   -2.3487955   -2.3487955   -1.4137579  0.060803659   -2.3487955   0.93503757   520346 
 1860000     1.008809   -2.3466412   -2.3466412   -1.4141037  0.049946614   -2.3466412    0.9325375   520346 
 1861000    1.0090203    -2.347586    -2.347586   -1.4148531  0.072830546    -2.347586   0.93273286   520346 
 1862000    1.0103608    -2.348867    -2.348867   -1.4148951  0.065341146    -2.348867   0.93397199   520346 
 1863000    1.0096163   -2.3485196   -2.3485196   -1.4152359  0.047341187   -2.3485196   0.93328375   520346 
 1864000    1.0078212   -2.3466837   -2.3466837   -1.4150592  0.052612564   -2.3466837   0.93162445   520346 
 1865000    1.0116744   -2.3497334   -2.3497334   -1.4145471  0.060494678   -2.3497334   0.93518627   520346 
 1866000     1.011237   -2.3490693   -2.3490693   -1.4142873    0.0631805   -2.3490693   0.93478193   520346 
 1867000    1.0100887   -2.3469713   -2.3469713   -1.4132508  0.051275872   -2.3469713   0.93372049   520346 
 1868000    1.0103015   -2.3475646   -2.3475646   -1.4136475  0.068533117   -2.3475646   0.93391717   520346 
 1869000    1.0076407   -2.3452774   -2.3452774   -1.4138198  0.052536226   -2.3452774   0.93145756   520346 
 1870000    1.0116184   -2.3491768   -2.3491768   -1.4140423  0.051704225   -2.3491768   0.93513451   520346 
 1871000    1.0112477   -2.3485855   -2.3485855   -1.4137937   0.05773725   -2.3485855   0.93479181   520346 
 1872000    1.0119406   -2.3492081   -2.3492081   -1.4137757  0.053208507   -2.3492081   0.93543237   520346 
 1873000    1.0105393   -2.3481967   -2.3481967   -1.4140597  0.065862467   -2.3481967   0.93413697   520346 
 1874000    1.0093221   -2.3477763   -2.3477763   -1.4147645  0.065417773   -2.3477763   0.93301184   520346 
 1875000    1.0105441   -2.3487277   -2.3487277   -1.4145863  0.045668755   -2.3487277   0.93414141   520346 
 1876000    1.0099192   -2.3481255   -2.3481255   -1.4145617  0.064478114   -2.3481255   0.93356375   520346 
 1877000    1.0101592   -2.3494538   -2.3494538   -1.4156681  0.057031934   -2.3494538   0.93378566   520346 
 1878000    1.0117224   -2.3501858   -2.3501858   -1.4149552  0.064330863   -2.3501858   0.93523063   520346 
 1879000    1.0104315   -2.3497389   -2.3497389   -1.4157015  0.055416792   -2.3497389   0.93403739   520346 
 1880000    1.0105458   -2.3495281   -2.3495281    -1.415385  0.065590229   -2.3495281   0.93414304   520346 
 1881000    1.0118834   -2.3498158   -2.3498158   -1.4144362  0.061260258   -2.3498158   0.93537952   520346 
 1882000    1.0127531   -2.3513516   -2.3513516   -1.4151682  0.058147014   -2.3513516   0.93618339   520346 
 1883000    1.0097328   -2.3496121   -2.3496121   -1.4162206  0.056381782   -2.3496121   0.93339149   520346 
 1884000    1.0121621   -2.3512787   -2.3512787   -1.4156416  0.072656441   -2.3512787   0.93563713   520346 
 1885000    1.0120319   -2.3509697   -2.3509697   -1.4154529  0.068525208   -2.3509697   0.93551674   520346 
 1886000    1.0130769   -2.3522921   -2.3522921   -1.4158093  0.054305667   -2.3522921   0.93648278   520346 
 1887000     1.014226   -2.3525646   -2.3525646   -1.4150196  0.062260175   -2.3525646   0.93754499   520346 
 1888000    1.0108995   -2.3503087   -2.3503087   -1.4158387  0.072130295   -2.3503087   0.93447001   520346 
 1889000    1.0119718   -2.3509643   -2.3509643   -1.4155031  0.049527141   -2.3509643    0.9354612   520346 
 1890000      1.01069   -2.3503928   -2.3503928   -1.4161165  0.055765178   -2.3503928   0.93427628   520346 
 1891000    1.0117285   -2.3502711   -2.3502711   -1.4150348   0.06934558   -2.3502711    0.9352363   520346 
 1892000    1.0087574   -2.3484375   -2.3484375   -1.4159477  0.066252225   -2.3484375   0.93248986   520346 
 1893000    1.0103107   -2.3497696   -2.3497696   -1.4158439  0.067627274   -2.3497696   0.93392571   520346 
 1894000    1.0103747   -2.3508212   -2.3508212   -1.4168364  0.057066429   -2.3508212   0.93398481   520346 
 1895000    1.0099571   -2.3496407   -2.3496407   -1.4160418  0.057701536   -2.3496407   0.93359882   520346 
 1896000    1.0111209   -2.3500457   -2.3500457    -1.415371  0.064321146   -2.3500457   0.93467464   520346 
 1897000    1.0107579    -2.350295    -2.350295   -1.4159559  0.063471653    -2.350295   0.93433908   520346 
 1898000    1.0131592   -2.3528526   -2.3528526   -1.4162937  0.052838156   -2.3528526   0.93655886   520346 
 1899000    1.0099229    -2.350349    -2.350349   -1.4167818  0.067743903    -2.350349    0.9335672   520346 
 1900000    1.0125342   -2.3523528   -2.3523528   -1.4163716  0.062061765   -2.3523528   0.93598111   520346 
 1901000    1.0109529    -2.350716    -2.350716   -1.4161967  0.063035026    -2.350716   0.93451931   520346 
 1902000    1.0095943   -2.3498216   -2.3498216   -1.4165581  0.072787388   -2.3498216   0.93326349   520346 
 1903000    1.0117927   -2.3518042   -2.3518042   -1.4165085  0.075471451   -2.3518042   0.93529568   520346 
 1904000    1.0126797   -2.3524927   -2.3524927   -1.4163772  0.070524321   -2.3524927   0.93611557   520346 
 1905000    1.0120269   -2.3517641   -2.3517641   -1.4162519  0.072318023   -2.3517641   0.93551215   520346 
 1906000    1.0133854   -2.3536062   -2.3536062   -1.4168383  0.055319907   -2.3536062   0.93676792   520346 
 1907000    1.0115826   -2.3523816   -2.3523816   -1.4172802   0.06515532   -2.3523816   0.93510143   520346 
 1908000    1.0123555   -2.3535698   -2.3535698   -1.4177539  0.081087342   -2.3535698   0.93581589   520346 
 1909000    1.0123364   -2.3527112   -2.3527112    -1.416913  0.068507801   -2.3527112   0.93579822   520346 
 1910000      1.00991   -2.3511748   -2.3511748   -1.4176195   0.06636029   -2.3511748   0.93355533   520346 
 1911000    1.0110827   -2.3511232   -2.3511232   -1.4164839  0.055618869   -2.3511232   0.93463937   520346 
 1912000    1.0082766   -2.3490985   -2.3490985   -1.4170531  0.061241361   -2.3490985   0.93204537   520346 
 1913000    1.0104063   -2.3506702   -2.3506702   -1.4166561  0.057999598   -2.3506702    0.9340141   520346 
 1914000    1.0118868   -2.3511923   -2.3511923   -1.4158097  0.068016984   -2.3511923    0.9353826   520346 
 1915000    1.0123844   -2.3513406   -2.3513406    -1.415498  0.067155391   -2.3513406   0.93584259   520346 
 1916000    1.0113303   -2.3507926   -2.3507926   -1.4159244  0.050477715   -2.3507926   0.93486823   520346 
 1917000    1.0116855   -2.3509625   -2.3509625    -1.415766  0.079198221   -2.3509625   0.93519651   520346 
 1918000    1.0130132   -2.3519538   -2.3519538   -1.4155299  0.076374236   -2.3519538    0.9364239   520346 
 1919000     1.013407   -2.3517757   -2.3517757   -1.4149878  0.056039347   -2.3517757   0.93678785   520346 
 1920000    1.0136883   -2.3526938   -2.3526938   -1.4156458  0.061614697   -2.3526938   0.93704797   520346 
 1921000    1.0126296   -2.3519165   -2.3519165   -1.4158472  0.066091637   -2.3519165   0.93606931   520346 
 1922000    1.0130057   -2.3517621   -2.3517621   -1.4153452  0.076888845   -2.3517621    0.9364169   520346 
 1923000    1.0124758   -2.3516154   -2.3516154   -1.4156884  0.053972948   -2.3516154   0.93592706   520346 
 1924000    1.0118954   -2.3510277   -2.3510277   -1.4156371   0.06001027   -2.3510277   0.93539054   520346 
 1925000    1.0125644    -2.352127    -2.352127    -1.416118  0.062279949    -2.352127   0.93600898   520346 
 1926000    1.0121399   -2.3521562   -2.3521562   -1.4165397  0.059028213   -2.3521562   0.93561655   520346 
 1927000    1.0107914   -2.3503715   -2.3503715   -1.4160014  0.068486203   -2.3503715   0.93437007   520346 
 1928000    1.0126941   -2.3524484   -2.3524484   -1.4163195  0.051159431   -2.3524484   0.93612889   520346 
 1929000    1.0120952   -2.3522058   -2.3522058   -1.4166305  0.062051581   -2.3522058    0.9355753   520346 
 1930000    1.0109921   -2.3515457   -2.3515457   -1.4169901   0.06388083   -2.3515457   0.93455559   520346 
 1931000    1.0106594   -2.3517003   -2.3517003   -1.4174523  0.058435131   -2.3517003   0.93424798   520346 
 1932000    1.0105282   -2.3511813   -2.3511813   -1.4170546  0.057242076   -2.3511813   0.93412676   520346 
 1933000    1.0106786   -2.3498635   -2.3498635   -1.4155977  0.069773919   -2.3498635   0.93426578   520346 
 1934000     1.011922   -2.3509715   -2.3509715   -1.4155563  0.050548561   -2.3509715   0.93541517   520346 
 1935000       1.0122   -2.3521282   -2.3521282    -1.416456  0.070221841   -2.3521282   0.93567218   520346 
 1936000    1.0131877   -2.3525965   -2.3525965   -1.4160114  0.053266617   -2.3525965   0.93658514   520346 
 1937000    1.0117677   -2.3507727   -2.3507727   -1.4155001  0.061476606   -2.3507727   0.93527258   520346 
 1938000    1.0110469    -2.349908    -2.349908   -1.4153017  0.058653281    -2.349908   0.93460623   520346 
 1939000    1.0138212   -2.3521862   -2.3521862   -1.4150154  0.060914351   -2.3521862   0.93717081   520346 
 1940000     1.010924   -2.3501038   -2.3501038   -1.4156112  0.064884385   -2.3501038   0.93449258   520346 
 1941000     1.011726   -2.3516861   -2.3516861   -1.4164521  0.053328918   -2.3516861   0.93523403   520346 
 1942000     1.011628   -2.3506438   -2.3506438   -1.4155005   0.06810964   -2.3506438   0.93514337   520346 
 1943000    1.0095962   -2.3491623   -2.3491623    -1.415897  0.067270322   -2.3491623   0.93326525   520346 
 1944000    1.0120094   -2.3513474   -2.3513474   -1.4158514  0.063469004   -2.3513474   0.93549598   520346 
 1945000    1.0122972   -2.3508227   -2.3508227   -1.4150606  0.064997378   -2.3508227   0.93576204   520346 
 1946000     1.010745   -2.3506395   -2.3506395   -1.4163124  0.069327146   -2.3506395   0.93432714   520346 
 1947000    1.0097821   -2.3507985   -2.3507985   -1.4173615  0.054498648   -2.3507985   0.93343701   520346 
 1948000    1.0085198   -2.3496172   -2.3496172    -1.417347   0.06897248   -2.3496172    0.9322702   520346 
 1949000    1.0116443   -2.3535327   -2.3535327   -1.4183743  0.065376699   -2.3535327   0.93515843   520346 
 1950000    1.0111842   -2.3536876   -2.3536876   -1.4189544   0.06608615   -2.3536876   0.93473315   520346 
 1951000    1.0105434   -2.3531694   -2.3531694   -1.4190286  0.063171782   -2.3531694   0.93414083   520346 
 1952000    1.0115242   -2.3546885   -2.3546885    -1.419641  0.062374831   -2.3546885   0.93504743   520346 
 1953000    1.0128585   -2.3569086   -2.3569086   -1.4206277  0.070039238   -2.3569086   0.93628088   520346 
 1954000    1.0119891   -2.3561064   -2.3561064   -1.4206292  0.057807723   -2.3561064   0.93547719   520346 
 1955000    1.0109951   -2.3537445   -2.3537445   -1.4191861  0.071416765   -2.3537445   0.93455838   520346 
 1956000    1.0143762   -2.3559021   -2.3559021   -1.4182183  0.069116236   -2.3559021   0.93768384   520346 
 1957000    1.0135559   -2.3555481   -2.3555481   -1.4186226   0.06980049   -2.3555481   0.93692554   520346 
 1958000    1.0127308   -2.3543042   -2.3543042   -1.4181413   0.06688985   -2.3543042   0.93616281   520346 
 1959000    1.0136894   -2.3549404   -2.3549404   -1.4178914  0.061743793   -2.3549404   0.93704897   520346 
 1960000    1.0143047    -2.355955    -2.355955   -1.4183372  0.073406782    -2.355955   0.93761777   520346 
 1961000    1.0134798   -2.3553672   -2.3553672    -1.418512  0.070887918   -2.3553672   0.93685521   520346 
 1962000    1.0143818   -2.3553581   -2.3553581   -1.4176691  0.067525695   -2.3553581   0.93768903   520346 
 1963000    1.0138311    -2.355054    -2.355054   -1.4178741  0.060508897    -2.355054   0.93717991   520346 
 1964000    1.0130171   -2.3546905   -2.3546905    -1.418263  0.067151685   -2.3546905   0.93642752   520346 
 1965000    1.0138547   -2.3550895   -2.3550895   -1.4178878  0.061737319   -2.3550895   0.93720172   520346 
 1966000    1.0116565   -2.3533321   -2.3533321   -1.4181624  0.061177031   -2.3533321    0.9351697   520346 
 1967000    1.0119497   -2.3537065   -2.3537065   -1.4182657  0.053242473   -2.3537065    0.9354408   520346 
 1968000    1.0125871   -2.3537871   -2.3537871   -1.4177571  0.041160569   -2.3537871   0.93603002   520346 
 1969000    1.0118959   -2.3528855   -2.3528855   -1.4174944  0.071427034   -2.3528855   0.93539103   520346 
 1970000    1.0128926    -2.353367    -2.353367   -1.4170547  0.066068638    -2.353367   0.93631235   520346 
 1971000    1.0136318   -2.3542569   -2.3542569   -1.4172612  0.048606705   -2.3542569   0.93699573   520346 
 1972000    1.0124769   -2.3531898   -2.3531898   -1.4172617  0.063033712   -2.3531898   0.93592815   520346 
 1973000    1.0116981   -2.3521095   -2.3521095   -1.4169013  0.059887855   -2.3521095   0.93520823   520346 
 1974000    1.0133803   -2.3534159   -2.3534159   -1.4166527  0.067745855   -2.3534159   0.93676322   520346 
 1975000    1.0143818   -2.3534883   -2.3534883   -1.4157994  0.054841226   -2.3534883   0.93768898   520346 
 1976000    1.0134396   -2.3531532   -2.3531532   -1.4163351  0.065261428   -2.3531532   0.93681806   520346 
 1977000    1.0134372   -2.3538137   -2.3538137   -1.4169979   0.06140602   -2.3538137   0.93681585   520346 
 1978000    1.0129495   -2.3521009   -2.3521009   -1.4157359   0.07921179   -2.3521009   0.93636501   520346 
 1979000    1.0152723   -2.3541817   -2.3541817   -1.4156695  0.076061137   -2.3541817   0.93851215   520346 
 1980000    1.0138977   -2.3540731   -2.3540731   -1.4168316  0.056955492   -2.3540731   0.93724147   520346 
 1981000    1.0129662   -2.3528238   -2.3528238   -1.4164435  0.063215415   -2.3528238   0.93638038   520346 
 1982000    1.0119155   -2.3521767   -2.3521767   -1.4167676  0.061203114   -2.3521767   0.93540911   520346 
 1983000    1.0125286    -2.353234    -2.353234   -1.4172581  0.056807308    -2.353234   0.93597592   520346 
 1984000    1.0128235   -2.3530329   -2.3530329   -1.4167844  0.058365854   -2.3530329   0.93624849   520346 
 1985000    1.0137211   -2.3540082   -2.3540082   -1.4169299  0.063529006   -2.3540082   0.93707827   520346 
 1986000    1.0154391   -2.3563724   -2.3563724   -1.4177061  0.062605491   -2.3563724   0.93866632   520346 
 1987000    1.0118032   -2.3533357   -2.3533357   -1.4180303  0.061245231   -2.3533357   0.93530538   520346 
 1988000    1.0116812   -2.3534972   -2.3534972   -1.4183046  0.060246142   -2.3534972   0.93519259   520346 
 1989000    1.0128213   -2.3545818   -2.3545818   -1.4183354  0.062799074   -2.3545818   0.93624645   520346 
 1990000    1.0138286   -2.3559934   -2.3559934   -1.4188158  0.060922381   -2.3559934   0.93717766   520346 
 1991000    1.0103465    -2.353969    -2.353969   -1.4200102   0.05973908    -2.353969   0.93395881   520346 
 1992000    1.0120149   -2.3541793   -2.3541793   -1.4186783  0.063769131   -2.3541793   0.93550106   520346 
 1993000    1.0135392   -2.3550044   -2.3550044   -1.4180944  0.060113051   -2.3550044   0.93691006   520346 
 1994000    1.0134404   -2.3558134   -2.3558134   -1.4189947  0.063473218   -2.3558134   0.93681873   520346 
 1995000    1.0120107   -2.3543988   -2.3543988   -1.4189016  0.061683053   -2.3543988   0.93549714   520346 
 1996000    1.0110988   -2.3530059   -2.3530059   -1.4183517  0.083908762   -2.3530059   0.93465424   520346 
 1997000    1.0142998   -2.3560281   -2.3560281   -1.4184149  0.056617917   -2.3560281    0.9376132   520346 
 1998000    1.0123001   -2.3540572   -2.3540572   -1.4182925  0.056488071   -2.3540572   0.93576466   520346 
 1999000    1.0145538   -2.3552247   -2.3552247   -1.4173767  0.056382118   -2.3552247   0.93784802   520346 
 2000000    1.0129029   -2.3539614   -2.3539614   -1.4176394  0.061661454   -2.3539614   0.93632195   520346 
 2001000     1.014698   -2.3550906   -2.3550906   -1.4171094  0.063725318   -2.3550906   0.93798126   520346 
 2002000     1.012749   -2.3538964   -2.3538964   -1.4177168  0.069353883   -2.3538964   0.93617962   520346 
 2003000    1.0120035    -2.353764    -2.353764   -1.4182735  0.064434783    -2.353764   0.93549051   520346 
 2004000    1.0120166   -2.3535081   -2.3535081   -1.4180055  0.060614316   -2.3535081   0.93550258   520346 
 2005000    1.0123497   -2.3532322   -2.3532322   -1.4174216  0.063599543   -2.3532322   0.93581055   520346 
 2006000    1.0119585   -2.3534862   -2.3534862   -1.4180373  0.059044811   -2.3534862   0.93544891   520346 
 2007000    1.0118691   -2.3536357   -2.3536357   -1.4182695  0.054698957   -2.3536357   0.93536623   520346 
 2008000     1.012112    -2.354005    -2.354005   -1.4184142  0.066067057    -2.354005    0.9355908   520346 
 2009000    1.0112199   -2.3537579   -2.3537579   -1.4189918  0.061454145   -2.3537579   0.93476617   520346 
 2010000    1.0101839   -2.3527779   -2.3527779   -1.4189694  0.055271283   -2.3527779   0.93380852   520346 
 2011000    1.0123142   -2.3544687   -2.3544687    -1.418691  0.051485006   -2.3544687    0.9357777   520346 
 2012000    1.0134247    -2.356112    -2.356112   -1.4193077  0.062338376    -2.356112   0.93680427   520346 
 2013000     1.011244   -2.3538016   -2.3538016   -1.4190132  0.081633672   -2.3538016   0.93478838   520346 
 2014000    1.0135987   -2.3564963   -2.3564963   -1.4195312  0.060990508   -2.3564963   0.93696513   520346 
 2015000    1.0134867   -2.3554423   -2.3554423   -1.4185807  0.057745399   -2.3554423   0.93686155   520346 
 2016000    1.0141414   -2.3563253   -2.3563253   -1.4188585  0.062729408   -2.3563253   0.93746677   520346 
 2017000     1.013117   -2.3563662   -2.3563662   -1.4198464  0.071701718   -2.3563662   0.93651978   520346 
 2018000    1.0114631   -2.3550962   -2.3550962   -1.4201052  0.067156111   -2.3550962   0.93499099   520346 
 2019000    1.0116825   -2.3551571   -2.3551571   -1.4199633  0.071390795   -2.3551571   0.93519379   520346 
 2020000    1.0134515   -2.3568638   -2.3568638   -1.4200348  0.056693332   -2.3568638   0.93682905   520346 
 2021000    1.0140453   -2.3572151   -2.3572151   -1.4198371  0.068278094   -2.3572151   0.93737794   520346 
 2022000    1.0146706   -2.3571591   -2.3571591   -1.4192031  0.064367869   -2.3571591   0.93795601   520346 
 2023000    1.0137591    -2.356474    -2.356474   -1.4193606  0.070360354    -2.356474   0.93711336   520346 
 2024000      1.01368   -2.3561371   -2.3561371   -1.4190968  0.073551128   -2.3561371   0.93704024   520346 
 2025000    1.0135582    -2.356194    -2.356194   -1.4192663  0.066004292    -2.356194   0.93692768   520346 
 2026000    1.0136296    -2.355389    -2.355389   -1.4183954  0.067570964    -2.355389   0.93699366   520346 
 2027000    1.0137562   -2.3561155   -2.3561155   -1.4190048  0.054308569   -2.3561155   0.93711074   520346 
 2028000    1.0133306   -2.3557882   -2.3557882   -1.4190709  0.068624333   -2.3557882   0.93671731   520346 
 2029000    1.0127113   -2.3552353   -2.3552353   -1.4190905   0.06195954   -2.3552353   0.93614477   520346 
 2030000    1.0130533   -2.3557797   -2.3557797   -1.4193189  0.053902654   -2.3557797   0.93646089   520346 
 2031000    1.0118668   -2.3549093   -2.3549093   -1.4195451  0.069715845   -2.3549093   0.93536418   520346 
 2032000    1.0109575   -2.3542668   -2.3542668   -1.4197432  0.061712272   -2.3542668    0.9345236   520346 
 2033000    1.0107898   -2.3537021   -2.3537021   -1.4193335  0.062170094   -2.3537021   0.93436861   520346 
 2034000    1.0123468   -2.3557295   -2.3557295   -1.4199216  0.060155652   -2.3557295   0.93580783   520346 
 2035000    1.0111424   -2.3551653   -2.3551653   -1.4204708  0.060563758   -2.3551653   0.93469449   520346 
 2036000    1.0117007   -2.3561967   -2.3561967   -1.4209861  0.060461929   -2.3561967   0.93521061   520346 
 2037000    1.0118427   -2.3565237   -2.3565237   -1.4211818  0.053397837   -2.3565237   0.93534187   520346 
 2038000    1.0095746   -2.3551878   -2.3551878   -1.4219426  0.059215063   -2.3551878   0.93324526   520346 
 2039000    1.0142104   -2.3584656   -2.3584656    -1.420935  0.061489082   -2.3584656    0.9375306   520346 
 2040000    1.0132031   -2.3583039   -2.3583039   -1.4217045  0.064874831   -2.3583039    0.9365994   520346 
 2041000    1.0128156   -2.3582888   -2.3582888   -1.4220477  0.069362507   -2.3582888   0.93624116   520346 
 2042000    1.0106206   -2.3566574   -2.3566574   -1.4224452  0.070784389   -2.3566574   0.93421213   520346 
 2043000    1.0137235   -2.3586362   -2.3586362   -1.4215557  0.059473388   -2.3586362   0.93708046   520346 
 2044000    1.0128592   -2.3582232   -2.3582232   -1.4219417  0.062251449   -2.3582232   0.93628152   520346 
 2045000    1.0135733   -2.3591484   -2.3591484   -1.4222068  0.091240259   -2.3591484   0.93694166   520346 
 2046000    1.0147878   -2.3605352   -2.3605352   -1.4224709  0.067366345   -2.3605352   0.93806427   520346 
 2047000    1.0136176   -2.3589477   -2.3589477   -1.4219651  0.071679766   -2.3589477   0.93698259   520346 
 2048000    1.0129857   -2.3589826   -2.3589826   -1.4225842  0.075671222   -2.3589826   0.93639843   520346 
 2049000    1.0134541   -2.3594527   -2.3594527   -1.4226213  0.071470008   -2.3594527   0.93683147   520346 
 2050000    1.0138584    -2.360724    -2.360724   -1.4235189  0.068243245    -2.360724   0.93720513   520346 
 2051000    1.0129177   -2.3592265   -2.3592265    -1.422891  0.063104927   -2.3592265   0.93633556   520346 
 2052000    1.0119379   -2.3594588   -2.3594588   -1.4240289  0.062766414   -2.3594588   0.93542989   520346 
 2053000     1.012746   -2.3592226   -2.3592226   -1.4230458  0.064614536   -2.3592226   0.93617683   520346 
 2054000    1.0118462   -2.3583956   -2.3583956   -1.4230505  0.054457149   -2.3583956   0.93534509   520346 
 2055000     1.011282   -2.3573431   -2.3573431   -1.4225195  0.075455549   -2.3573431    0.9348236   520346 
 2056000    1.0111047   -2.3576772   -2.3576772   -1.4230175   0.06477334   -2.3576772   0.93465969   520346 
 2057000     1.009112   -2.3565572   -2.3565572   -1.4237395  0.055749208   -2.3565572   0.93281762   520346 
 2058000    1.0101703   -2.3571605   -2.3571605   -1.4233646  0.065883687   -2.3571605    0.9337959   520346 
 2059000    1.0113087    -2.357657    -2.357657   -1.4228088  0.063365052    -2.357657   0.93484825   520346 
 2060000    1.0101181    -2.356502    -2.356502   -1.4227543  0.057448313    -2.356502   0.93374764   520346 
 2061000    1.0081144    -2.355527    -2.355527   -1.4236315  0.065788056    -2.355527   0.93189545   520346 
 2062000    1.0102877   -2.3570615   -2.3570615   -1.4231571  0.063910323   -2.3570615   0.93390439   520346 
 2063000    1.0117721    -2.358089    -2.358089   -1.4228124   0.07408521    -2.358089   0.93527663   520346 
 2064000    1.0112285   -2.3581519   -2.3581519   -1.4233778  0.069510471   -2.3581519   0.93477412   520346 
 2065000    1.0136005   -2.3601982   -2.3601982   -1.4232315  0.063292515   -2.3601982   0.93696673   520346 
 2066000    1.0104709   -2.3580457   -2.3580457   -1.4239719   0.06209224   -2.3580457   0.93407381   520346 
 2067000    1.0123933   -2.3587547   -2.3587547   -1.4229038  0.062963604   -2.3587547   0.93585084   520346 
 2068000    1.0125118   -2.3592666   -2.3592666   -1.4233062  0.061169218   -2.3592666   0.93596039   520346 
 2069000    1.0118329    -2.357708    -2.357708   -1.4223752  0.067283808    -2.357708   0.93533278   520346 
 2070000    1.0131751   -2.3585828   -2.3585828   -1.4220093   0.07204425   -2.3585828   0.93657352   520346 
 2071000    1.0132856   -2.3599008   -2.3599008   -1.4232251   0.07833366   -2.3599008   0.93667568   520346 
 2072000    1.0107219   -2.3569738   -2.3569738    -1.422668  0.075765419   -2.3569738   0.93430581   520346 
 2073000    1.0147698   -2.3613983   -2.3613983   -1.4233507  0.067962691   -2.3613983   0.93804766   520346 
 2074000    1.0129454   -2.3592854   -2.3592854   -1.4229242  0.068703044   -2.3592854    0.9363612   520346 
 2075000    1.0117753   -2.3585667   -2.3585667   -1.4232872  0.066526937   -2.3585667   0.93527954   520346 
 2076000    1.0130313   -2.3591847   -2.3591847   -1.4227441  0.074436703   -2.3591847   0.93644058   520346 
 2077000    1.0128602   -2.3592297   -2.3592297   -1.4229473  0.070838965   -2.3592297   0.93628241   520346 
 2078000    1.0126064   -2.3591136   -2.3591136   -1.4230657  0.074058614   -2.3591136   0.93604782   520346 
 2079000    1.0140685   -2.3604404   -2.3604404    -1.423041  0.061623648   -2.3604404   0.93739943   520346 
 2080000    1.0124161   -2.3581381   -2.3581381   -1.4222663  0.070046964   -2.3581381   0.93587187   520346 
 2081000    1.0132425    -2.359035    -2.359035   -1.4223992  0.065283382    -2.359035    0.9366358   520346 
 2082000    1.0112659   -2.3579273   -2.3579273   -1.4231186  0.066789785   -2.3579273   0.93480867   520346 
 2083000    1.0115186   -2.3588289   -2.3588289   -1.4237867  0.065695026   -2.3588289   0.93504225   520346 
 2084000    1.0112623   -2.3587803   -2.3587803    -1.423975  0.066911787   -2.3587803   0.93480533   520346 
 2085000    1.0128102   -2.3607645   -2.3607645   -1.4245283  0.056590863   -2.3607645    0.9362362   520346 
 2086000     1.012193   -2.3603417   -2.3603417    -1.424676  0.059766688   -2.3603417   0.93566572   520346 
 2087000    1.0130142   -2.3608768   -2.3608768    -1.424452  0.060640166   -2.3608768   0.93642476   520346 
 2088000    1.0122128   -2.3601973   -2.3601973   -1.4245133   0.07612803   -2.3601973     0.935684   520346 
 2089000    1.0104719   -2.3585534   -2.3585534   -1.4244787  0.063818429   -2.3585534   0.93407467   520346 
 2090000     1.010487   -2.3591894   -2.3591894   -1.4251008  0.076928525   -2.3591894   0.93408864   520346 
 2091000    1.0114137   -2.3606948   -2.3606948   -1.4257495  0.078883615   -2.3606948   0.93494528   520346 
 2092000    1.0142491     -2.36199     -2.36199   -1.4244237  0.059129518     -2.36199    0.9375663   520346 
 2093000    1.0122243   -2.3607507   -2.3607507    -1.425056  0.052145876   -2.3607507   0.93569461   520346 
 2094000    1.0106031   -2.3600771   -2.3600771   -1.4258812  0.061488421   -2.3600771   0.93419595   520346 
 2095000     1.012501   -2.3625844   -2.3625844    -1.426634  0.071384305   -2.3625844    0.9359504   520346 
 2096000    1.0121713   -2.3620656   -2.3620656     -1.42642  0.078779705   -2.3620656   0.93564558   520346 
 2097000    1.0133712   -2.3623678   -2.3623678    -1.425613   0.05968933   -2.3623678   0.93675484   520346 
 2098000    1.0120796   -2.3615085   -2.3615085   -1.4259477   0.05559825   -2.3615085   0.93556087   520346 
 2099000    1.0120789    -2.361123    -2.361123   -1.4255629  0.071637049    -2.361123   0.93556018   520346 
 2100000    1.0103503   -2.3604699   -2.3604699   -1.4265076  0.051697462   -2.3604699   0.93396227   520346 
 2101000    1.0132503   -2.3620699   -2.3620699   -1.4254269  0.068687528   -2.3620699   0.93664305   520346 
 2102000    1.0129603   -2.3612358   -2.3612358   -1.4248608  0.057254068   -2.3612358   0.93637499   520346 
 2103000    1.0153199   -2.3641249   -2.3641249   -1.4255687  0.069288352   -2.3641249   0.93855619   520346 
 2104000    1.0143073   -2.3631965   -2.3631965   -1.4255763  0.068942698   -2.3631965   0.93762017   520346 
 2105000    1.0127021   -2.3613123   -2.3613123   -1.4251761  0.078924949   -2.3613123   0.93613627   520346 
 2106000    1.0136661    -2.361877    -2.361877   -1.4248496  0.066892628    -2.361877   0.93702738   520346 
 2107000    1.0132378   -2.3618568   -2.3618568   -1.4252253  0.073632058   -2.3618568    0.9366315   520346 
 2108000    1.0142257   -2.3627188   -2.3627188   -1.4251741  0.071966199   -2.3627188    0.9375447   520346 
 2109000    1.0128608    -2.361181    -2.361181    -1.424898  0.068082223    -2.361181   0.93628303   520346 
 2110000    1.0108512   -2.3607954   -2.3607954   -1.4263701  0.068453852   -2.3607954   0.93442534   520346 
 2111000    1.0116925   -2.3620776   -2.3620776   -1.4268746  0.061464722   -2.3620776   0.93520299   520346 
 2112000    1.0102053   -2.3609321   -2.3609321   -1.4271039  0.058109073   -2.3609321   0.93382822   520346 
 2113000    1.0120209   -2.3628586   -2.3628586   -1.4273521  0.078271972   -2.3628586   0.93550656   520346 
 2114000    1.0135862   -2.3641303   -2.3641303   -1.4271768   0.07101561   -2.3641303   0.93695351   520346 
 2115000    1.0138165    -2.363895    -2.363895   -1.4267285  0.067141169    -2.363895   0.93716646   520346 
 2116000      1.01247   -2.3627711   -2.3627711   -1.4268493  0.055401312   -2.3627711   0.93592177   520346 
 2117000     1.012321   -2.3638384   -2.3638384   -1.4280544  0.074405465   -2.3638384   0.93578402   520346 
 2118000    1.0107915   -2.3620333   -2.3620333   -1.4276632  0.067102199   -2.3620333   0.93437019   520346 
 2119000    1.0110307    -2.363629    -2.363629   -1.4290377  0.065169517    -2.363629   0.93459124   520346 
 2120000    1.0102317   -2.3620893   -2.3620893   -1.4282367  0.078744405   -2.3620893   0.93385268   520346 
 2121000    1.0113841   -2.3631246   -2.3631246   -1.4282067  0.069002052   -2.3631246   0.93491791   520346 
 2122000    1.0114135   -2.3617628   -2.3617628   -1.4268177  0.064372829   -2.3617628   0.93494512   520346 
 2123000    1.0117566   -2.3629995   -2.3629995   -1.4277373  0.073033817   -2.3629995    0.9352623   520346 
 2124000    1.0132543   -2.3640111   -2.3640111   -1.4273643  0.073373932   -2.3640111   0.93664677   520346 
 2125000    1.0144044   -2.3645439   -2.3645439    -1.426834  0.058038102   -2.3645439   0.93770989   520346 
 2126000    1.0130128    -2.363463    -2.363463   -1.4270395  0.059924569    -2.363463    0.9364235   520346 
 2127000    1.0131762   -2.3631372   -2.3631372   -1.4265627  0.071159216   -2.3631372   0.93657453   520346 
 2128000    1.0131164   -2.3631541   -2.3631541   -1.4266349  0.074881229   -2.3631541   0.93651924   520346 
 2129000    1.0139469   -2.3642554   -2.3642554   -1.4269684  0.073125727   -2.3642554   0.93728698   520346 
 2130000    1.0124367   -2.3631123   -2.3631123   -1.4272214  0.066425417   -2.3631123   0.93589097   520346 
 2131000    1.0115549   -2.3619822   -2.3619822   -1.4269063  0.068138826   -2.3619822   0.93507586   520346 
 2132000    1.0128305     -2.36355     -2.36355    -1.427295  0.085616117     -2.36355   0.93625501   520346 
 2133000     1.011411   -2.3627481   -2.3627481   -1.4278053  0.073299558   -2.3627481   0.93494277   520346 
 2134000     1.012475   -2.3629941   -2.3629941   -1.4270677  0.070216948   -2.3629941   0.93592638   520346 
 2135000    1.0137234   -2.3640075   -2.3640075   -1.4269271  0.065296298   -2.3640075    0.9370804   520346 
 2136000     1.012715   -2.3643893   -2.3643893    -1.428241  0.052450051   -2.3643893   0.93614823   520346 
 2137000    1.0099557   -2.3617304   -2.3617304   -1.4281328  0.052075887   -2.3617304   0.93359755   520346 
 2138000    1.0091437   -2.3613275   -2.3613275   -1.4284806  0.055246876   -2.3613275   0.93284689   520346 
 2139000    1.0121945   -2.3630873   -2.3630873   -1.4274203  0.063423571   -2.3630873   0.93566706   520346 
 2140000    1.0099508   -2.3614509   -2.3614509   -1.4278579  0.068421835   -2.3614509     0.933593   520346 
 2141000    1.0082188   -2.3609721   -2.3609721   -1.4289802  0.067052991   -2.3609721   0.93199192   520346 
 2142000    1.0118717    -2.363014    -2.363014   -1.4276453  0.058877305    -2.363014   0.93536868   520346 
 2143000    1.0101722   -2.3616123   -2.3616123   -1.4278146  0.068440028   -2.3616123   0.93379765   520346 
 2144000    1.0101654   -2.3622341   -2.3622341   -1.4284427  0.071752957   -2.3622341   0.93379138   520346 
 2145000    1.0111218   -2.3625102   -2.3625102   -1.4278347   0.07054077   -2.3625102   0.93467547   520346 
 2146000    1.0123302   -2.3630702   -2.3630702   -1.4272777  0.077336035   -2.3630702    0.9357925   520346 
 2147000    1.0128436    -2.364649    -2.364649   -1.4283819  0.069640447    -2.364649   0.93626707   520346 
 2148000    1.0134566   -2.3650572   -2.3650572   -1.4282235  0.066570146   -2.3650572   0.93683375   520346 
 2149000     1.011356    -2.363905    -2.363905    -1.429013  0.067583689    -2.363905     0.934892   520346 
 2150000     1.010662   -2.3632695   -2.3632695   -1.4290191  0.083180436   -2.3632695   0.93425042   520346 
 2151000     1.012818   -2.3645475   -2.3645475    -1.428304  0.069548993   -2.3645475   0.93624344   520346 
 2152000    1.0125475   -2.3637869   -2.3637869   -1.4277934  0.075416182   -2.3637869   0.93599342   520346 
 2153000    1.0120311   -2.3637974   -2.3637974   -1.4282814  0.068079734   -2.3637974   0.93551601   520346 
 2154000    1.0143015   -2.3656248   -2.3656248   -1.4280101   0.07044355   -2.3656248   0.93761473   520346 
 2155000    1.0145829    -2.365927    -2.365927   -1.4280521  0.076699943    -2.365927   0.93787491   520346 
 2156000    1.0149393   -2.3666937   -2.3666937   -1.4284893  0.064872242   -2.3666937   0.93820434   520346 
 2157000     1.011733   -2.3641732   -2.3641732   -1.4289328  0.078563495   -2.3641732   0.93524046   520346 
 2158000    1.0127906   -2.3658169   -2.3658169   -1.4295989  0.056904876   -2.3658169   0.93621806   520346 
 2159000    1.0109073   -2.3636821   -2.3636821   -1.4292049  0.066063731   -2.3636821   0.93447719   520346 
 2160000    1.0109976   -2.3634878   -2.3634878   -1.4289271  0.063207432   -2.3634878   0.93456067   520346 
 2161000     1.012705   -2.3651981   -2.3651981   -1.4290592  0.066924703   -2.3651981   0.93613893   520346 
 2162000    1.0119825   -2.3647249   -2.3647249   -1.4292538  0.060897463   -2.3647249   0.93547107   520346 
 2163000    1.0118945    -2.364457    -2.364457   -1.4290673  0.069843163    -2.364457   0.93538972   520346 
 2164000    1.0104437   -2.3633687   -2.3633687     -1.42932  0.065314171   -2.3633687   0.93404865   520346 
 2165000    1.0111378   -2.3648274   -2.3648274   -1.4301371  0.061431739   -2.3648274   0.93469024   520346 
 2166000    1.0101463   -2.3637736   -2.3637736   -1.4299999  0.066461374   -2.3637736   0.93377374   520346 
 2167000    1.0116012   -2.3640653   -2.3640653   -1.4289467  0.064052029   -2.3640653    0.9351186   520346 
 2168000    1.0104086   -2.3630714   -2.3630714   -1.4290552  0.063379858   -2.3630714   0.93401618   520346 
 2169000    1.0102494   -2.3637287   -2.3637287   -1.4298597   0.06324255   -2.3637287     0.933869   520346 
 2170000    1.0115148   -2.3636075   -2.3636075   -1.4285688  0.067446098   -2.3636075   0.93503871   520346 
 2171000    1.0135578   -2.3658322   -2.3658322   -1.4289049  0.056472719   -2.3658322   0.93692733   520346 
 2172000    1.0113218   -2.3643474   -2.3643474    -1.429487  0.061261922   -2.3643474   0.93486039   520346 
 2173000    1.0106208   -2.3637537   -2.3637537   -1.4295414  0.060735546   -2.3637537   0.93421236   520346 
 2174000    1.0104032   -2.3637278   -2.3637278   -1.4297167  0.070816069   -2.3637278   0.93401116   520346 
 2175000    1.0103378   -2.3635032   -2.3635032   -1.4295525  0.060586788   -2.3635032    0.9339507   520346 
 2176000     1.009015   -2.3636526   -2.3636526   -1.4309246  0.061571998   -2.3636526   0.93272795   520346 
 2177000    1.0099552   -2.3645588   -2.3645588   -1.4309618  0.064353045   -2.3645588   0.93359704   520346 
 2178000    1.0096899   -2.3644108   -2.3644108    -1.431059  0.066448107   -2.3644108   0.93335185   520346 
 2179000    1.0107754   -2.3658566   -2.3658566   -1.4315013  0.067122106   -2.3658566   0.93435529   520346 
 2180000    1.0114541   -2.3661527   -2.3661527   -1.4311701  0.064164196   -2.3661527    0.9349826   520346 
 2181000    1.0122082   -2.3672796   -2.3672796   -1.4315999  0.072729131   -2.3672796   0.93567969   520346 
 2182000    1.0093117   -2.3649284   -2.3649284   -1.4319262  0.067447431   -2.3649284   0.93300219   520346 
 2183000    1.0127459   -2.3684319   -2.3684319   -1.4322551  0.063102622   -2.3684319   0.93617674   520346 
 2184000    1.0110442   -2.3670532   -2.3670532   -1.4324495  0.064550021   -2.3670532   0.93460373   520346 
 2185000    1.0096044   -2.3673193   -2.3673193   -1.4340465  0.062860739   -2.3673193   0.93327278   520346 
 2186000    1.0107158   -2.3677723   -2.3677723   -1.4334721  0.073930755   -2.3677723   0.93430021   520346 
 2187000    1.0099845   -2.3670622   -2.3670622    -1.433438  0.071913056   -2.3670622   0.93362412   520346 
 2188000    1.0118172   -2.3675208   -2.3675208   -1.4322025  0.072588421   -2.3675208   0.93531834   520346 
 2189000    1.0109334   -2.3677296   -2.3677296   -1.4332282  0.073429613   -2.3677296   0.93450131   520346 
 2190000    1.0111646   -2.3680533   -2.3680533   -1.4333382  0.064140447   -2.3680533   0.93471506   520346 
 2191000    1.0131139   -2.3692912   -2.3692912   -1.4327742  0.067796397   -2.3692912   0.93651698   520346 
 2192000    1.0125416    -2.368203    -2.368203   -1.4322151  0.071308952    -2.368203   0.93598797   520346 
 2193000    1.0132223    -2.368218    -2.368218   -1.4316008  0.064658571    -2.368218    0.9366172   520346 
 2194000    1.0117936   -2.3674337   -2.3674337   -1.4321372  0.070585161   -2.3674337   0.93529652   520346 
 2195000    1.0133565   -2.3688811   -2.3688811   -1.4321399   0.06547622   -2.3688811   0.93674125   520346 
 2196000    1.0139566   -2.3696259   -2.3696259   -1.4323299  0.075974104   -2.3696259   0.93729597   520346 
 2197000    1.0108044   -2.3677538   -2.3677538   -1.4333718  0.058767107   -2.3677538   0.93438209   520346 
 2198000    1.0099383   -2.3662407   -2.3662407   -1.4326593  0.074745432   -2.3662407   0.93358142   520346 
 2199000    1.0120607   -2.3688087   -2.3688087   -1.4332653  0.063440753   -2.3688087   0.93554337   520346 
 2200000    1.0097775    -2.366943    -2.366943   -1.4335102  0.062512024    -2.366943   0.93343283   520346 
 2201000    1.0082674   -2.3650397   -2.3650397   -1.4330028   0.06189908   -2.3650397   0.93203686   520346 
 2202000     1.009042   -2.3659344   -2.3659344   -1.4331815  0.061232004   -2.3659344   0.93275287   520346 
 2203000    1.0095507   -2.3665217   -2.3665217   -1.4332986  0.061317058   -2.3665217   0.93322315   520346 
 2204000    1.0110771   -2.3676351   -2.3676351   -1.4330009   0.06955177   -2.3676351   0.93463416   520346 
 2205000     1.010747   -2.3680053   -2.3680053   -1.4336763  0.061304205   -2.3680053   0.93432898   520346 
 2206000    1.0114975   -2.3677589   -2.3677589   -1.4327361  0.079400593   -2.3677589   0.93502279   520346 
 2207000    1.0110691   -2.3671837   -2.3671837    -1.432557  0.075175887   -2.3671837   0.93462673   520346 
 2208000    1.0123776   -2.3683665   -2.3683665   -1.4325302  0.055157159   -2.3683665   0.93583633   520346 
 2209000    1.0123192   -2.3684281   -2.3684281   -1.4326458  0.077086571   -2.3684281   0.93578236   520346 
 2210000    1.0144071    -2.370128    -2.370128   -1.4324156  0.061466713    -2.370128   0.93771241   520346 
 2211000      1.01305   -2.3696413   -2.3696413   -1.4331834  0.061822991   -2.3696413   0.93645788   520346 
 2212000    1.0115219    -2.367662    -2.367662   -1.4326167  0.076014032    -2.367662   0.93504536   520346 
 2213000    1.0113641   -2.3682473   -2.3682473   -1.4333478  0.075497527   -2.3682473   0.93489942   520346 
 2214000     1.013677   -2.3696411   -2.3696411   -1.4326035   0.06438098   -2.3696411   0.93703752   520346 
 2215000    1.0132352   -2.3703742   -2.3703742   -1.4337451  0.068709015   -2.3703742   0.93662906   520346 
 2216000    1.0140468   -2.3697165   -2.3697165   -1.4323372   0.06487193   -2.3697165   0.93737936   520346 
 2217000    1.0109895   -2.3672988   -2.3672988   -1.4327456  0.071496592   -2.3672988   0.93455316   520346 
 2218000    1.0104943   -2.3664661   -2.3664661   -1.4323707   0.06933707   -2.3664661   0.93409538   520346 
 2219000    1.0113342   -2.3671262   -2.3671262   -1.4322544  0.071438937   -2.3671262   0.93487181   520346 
 2220000    1.0122004    -2.367428    -2.367428   -1.4317555  0.066103729    -2.367428   0.93567248   520346 
 2221000    1.0113985   -2.3660588   -2.3660588   -1.4311275  0.063045948   -2.3660588   0.93493128   520346 
 2222000    1.0098398   -2.3649047   -2.3649047   -1.4314143  0.058194127   -2.3649047   0.93349036   520346 
 2223000    1.0085987    -2.364832    -2.364832   -1.4324889  0.077348876    -2.364832    0.9323431   520346 
 2224000    1.0099372   -2.3666183   -2.3666183   -1.4330378  0.054652314   -2.3666183   0.93358047   520346 
 2225000    1.0099373   -2.3664539   -2.3664539   -1.4328734  0.070596993   -2.3664539   0.93358048   520346 
 2226000    1.0110653   -2.3668694   -2.3668694   -1.4322461  0.059163158   -2.3668694   0.93462328   520346 
 2227000    1.0111286   -2.3665831   -2.3665831   -1.4319014  0.072448248   -2.3665831   0.93468172   520346 
 2228000    1.0101887    -2.366552    -2.366552   -1.4327391  0.051118194    -2.366552   0.93381288   520346 
 2229000    1.0112382   -2.3674865   -2.3674865   -1.4327034  0.060334964   -2.3674865   0.93478305   520346 
 2230000    1.0112068   -2.3673098   -2.3673098   -1.4325557  0.072515315   -2.3673098   0.93475403   520346 
 2231000    1.0129092   -2.3678327   -2.3678327    -1.431505  0.053337572   -2.3678327   0.93632769   520346 
 2232000     1.011401   -2.3674834   -2.3674834   -1.4325498  0.069117047   -2.3674834   0.93493358   520346 
 2233000    1.0122205   -2.3678048   -2.3678048   -1.4321137  0.053906051   -2.3678048   0.93569107   520346 
 2234000    1.0120849   -2.3682858   -2.3682858   -1.4327201  0.062221993   -2.3682858   0.93556575   520346 
 2235000    1.0130885   -2.3691294   -2.3691294   -1.4326359   0.07531299   -2.3691294   0.93649351   520346 
 2236000    1.0142892   -2.3704923   -2.3704923   -1.4328889  0.064620931   -2.3704923    0.9376034   520346 
 2237000    1.0125638   -2.3687165   -2.3687165    -1.432708  0.073719516   -2.3687165   0.93600849   520346 
 2238000    1.0109559   -2.3672961   -2.3672961    -1.432774  0.074651338   -2.3672961   0.93452211   520346 
 2239000    1.0127315   -2.3694081   -2.3694081   -1.4332446  0.074032711   -2.3694081   0.93616348   520346 
 2240000    1.0135375   -2.3695454   -2.3695454   -1.4326369  0.074873799   -2.3695454   0.93690851   520346 
 2241000    1.0124599    -2.369348    -2.369348   -1.4334356  0.075448684    -2.369348   0.93591237   520346 
 2242000    1.0105367    -2.366959    -2.366959   -1.4328243  0.077511651    -2.366959   0.93413461   520346 
 2243000     1.011106   -2.3671996   -2.3671996   -1.4325387  0.075255723   -2.3671996   0.93466091   520346 
 2244000     1.011656   -2.3680622   -2.3680622   -1.4328929    0.0593701   -2.3680622    0.9351693   520346 
 2245000    1.0112057   -2.3666077   -2.3666077   -1.4318547  0.066683465   -2.3666077   0.93475304   520346 
 2246000    1.0097223   -2.3660121   -2.3660121   -1.4326304  0.064210876   -2.3660121   0.93338177   520346 
 2247000    1.0079448   -2.3650281   -2.3650281   -1.4332895  0.049275396   -2.3650281   0.93173865   520346 
 2248000    1.0099668   -2.3660561   -2.3660561   -1.4324483  0.053475998   -2.3660561   0.93360781   520346 
 2249000    1.0085237   -2.3643926   -2.3643926   -1.4321188  0.068096989   -2.3643926   0.93227381   520346 
 2250000    1.0109499   -2.3664079   -2.3664079   -1.4318913  0.043598226   -2.3664079   0.93451655   520346 
 2251000    1.0090668   -2.3649021   -2.3649021   -1.4321262  0.057368321   -2.3649021   0.93277583   520346 
 2252000    1.0086586   -2.3643557   -2.3643557   -1.4319571  0.061677778   -2.3643557   0.93239854   520346 
 2253000    1.0088567   -2.3649995   -2.3649995   -1.4324179  0.059096495   -2.3649995   0.93258165   520346 
 2254000    1.0120328   -2.3682511   -2.3682511   -1.4327336  0.062556434   -2.3682511   0.93551756   520346 
 2255000    1.0100999   -2.3675273   -2.3675273   -1.4337965  0.073724684   -2.3675273   0.93373082   520346 
 2256000    1.0098361   -2.3666722   -2.3666722   -1.4331852  0.071591733   -2.3666722   0.93348698   520346 
 2257000    1.0097108   -2.3671452   -2.3671452   -1.4337741  0.074974881   -2.3671452   0.93337111   520346 
 2258000    1.0106948   -2.3681354   -2.3681354   -1.4338547  0.063397741   -2.3681354   0.93428072   520346 
 2259000    1.0123952   -2.3695476   -2.3695476    -1.433695  0.066533771   -2.3695476   0.93585261   520346 
 2260000    1.0131897    -2.370012    -2.370012    -1.433425  0.074268364    -2.370012     0.936587   520346 
 2261000    1.0122592   -2.3698753   -2.3698753   -1.4341484  0.072217449   -2.3698753   0.93572685   520346 
 2262000    1.0121053   -2.3692118   -2.3692118   -1.4336273  0.081161028   -2.3692118   0.93558457   520346 
 2263000    1.0136226   -2.3708554   -2.3708554   -1.4338681  0.070147778   -2.3708554   0.93698724   520346 
 2264000    1.0118372   -2.3700348   -2.3700348    -1.434698  0.068397121   -2.3700348   0.93533683   520346 
 2265000     1.009927   -2.3684044   -2.3684044   -1.4348334  0.072796102   -2.3684044   0.93357097   520346 
 2266000    1.0121461   -2.3712092   -2.3712092   -1.4355868  0.058596603   -2.3712092   0.93562234   520346 
 2267000    1.0125809   -2.3707413   -2.3707413    -1.434717  0.078695244   -2.3707413   0.93602424   520346 
 2268000    1.0125417   -2.3700508   -2.3700508   -1.4340628  0.070856215   -2.3700508   0.93598802   520346 
 2269000    1.0122352   -2.3701492   -2.3701492   -1.4344445  0.066745678   -2.3701492   0.93570473   520346 
 2270000    1.0117287   -2.3699205   -2.3699205   -1.4346841  0.070959934   -2.3699205   0.93523648   520346 
 2271000       1.0136    -2.371671    -2.371671   -1.4347047  0.064773799    -2.371671   0.93696634   520346 
 2272000    1.0106718    -2.369714    -2.369714   -1.4354545  0.061270151    -2.369714   0.93425953   520346 
 2273000    1.0106154   -2.3689834   -2.3689834   -1.4347761  0.055398936   -2.3689834   0.93420735   520346 
 2274000    1.0109002   -2.3698758   -2.3698758   -1.4354051  0.063486378   -2.3698758   0.93447061   520346 
 2275000    1.0107061    -2.368959    -2.368959   -1.4346678  0.062927096    -2.368959   0.93429124   520346 
 2276000    1.0097101   -2.3675896   -2.3675896   -1.4342191  0.065980974   -2.3675896   0.93337054   520346 
 2277000    1.0116971   -2.3683187   -2.3683187   -1.4331115  0.072138567   -2.3683187   0.93520727   520346 
 2278000    1.0103007   -2.3680465   -2.3680465   -1.4341301  0.064888649   -2.3680465   0.93391645   520346 
 2279000    1.0106833   -2.3685373   -2.3685373   -1.4342672  0.064837719   -2.3685373   0.93427016   520346 
 2280000    1.0117816   -2.3698938   -2.3698938   -1.4346084  0.059942846   -2.3698938   0.93528538   520346 
 2281000    1.0108819   -2.3690349   -2.3690349   -1.4345811   0.06253922   -2.3690349   0.93445374   520346 
 2282000    1.0102319    -2.367806    -2.367806   -1.4339531  0.066532559    -2.367806   0.93385287   520346 
 2283000    1.0117776   -2.3698204   -2.3698204   -1.4345387  0.060377411   -2.3698204   0.93528167   520346 
 2284000    1.0106838   -2.3681959   -2.3681959   -1.4339253  0.070476186   -2.3681959    0.9342706   520346 
 2285000    1.0103766   -2.3677728   -2.3677728   -1.4337862  0.065701465   -2.3677728   0.93398658   520346 
 2286000    1.0122446   -2.3696947   -2.3696947   -1.4339813    0.0622876   -2.3696947   0.93571336   520346 
 2287000    1.0114736   -2.3685149   -2.3685149   -1.4335141  0.067311686   -2.3685149   0.93500071   520346 
 2288000    1.0098548   -2.3675597   -2.3675597   -1.4340554  0.066950509   -2.3675597   0.93350427   520346 
 2289000    1.0111765   -2.3682297   -2.3682297   -1.4335037  0.058522469   -2.3682297     0.934726   520346 
 2290000    1.0098725   -2.3681779   -2.3681779   -1.4346572  0.076536891   -2.3681779   0.93352061   520346 
 2291000    1.0096102   -2.3681226   -2.3681226   -1.4348444   0.06201765   -2.3681226   0.93327816   520346 
 2292000    1.0084995   -2.3672867   -2.3672867   -1.4350353  0.066614623   -2.3672867    0.9322514   520346 
 2293000    1.0095118   -2.3689146   -2.3689146   -1.4357274  0.059143067   -2.3689146   0.93318719   520346 
 2294000    1.0087757   -2.3678138   -2.3678138   -1.4353071  0.058672101   -2.3678138   0.93250676   520346 
 2295000    1.0089365   -2.3680271   -2.3680271   -1.4353717  0.072711184   -2.3680271   0.93265543   520346 
 2296000    1.0117625   -2.3706678   -2.3706678   -1.4354001  0.069771852   -2.3706678   0.93526769   520346 
 2297000    1.0120141   -2.3703963   -2.3703963    -1.434896  0.065269286   -2.3703963   0.93550029   520346 
 2298000    1.0111487   -2.3694393   -2.3694393    -1.434739  0.062913482   -2.3694393   0.93470036   520346 
 2299000    1.0097302   -2.3685943   -2.3685943   -1.4352052  0.065018834   -2.3685943   0.93338912   520346 
 2300000    1.0101654   -2.3689704   -2.3689704    -1.435179  0.061776965   -2.3689704   0.93379135   520346 
 2301000    1.0111242   -2.3697697   -2.3697697   -1.4350921  0.063009758   -2.3697697   0.93467768   520346 
 2302000    1.0105546   -2.3691301   -2.3691301    -1.434979  0.063645486   -2.3691301   0.93415111   520346 
 2303000    1.0119652   -2.3706136   -2.3706136   -1.4351585  0.078446304   -2.3706136   0.93545509   520346 
 2304000    1.0118198   -2.3705039   -2.3705039   -1.4351832   0.07529681   -2.3705039   0.93532066   520346 
 2305000    1.0098108   -2.3687353   -2.3687353   -1.4352717  0.075335664   -2.3687353   0.93346362   520346 
 2306000    1.0100127   -2.3701256   -2.3701256   -1.4364754  0.076944635   -2.3701256   0.93365024   520346 
 2307000    1.0112716   -2.3717974   -2.3717974   -1.4369835  0.066373236   -2.3717974   0.93481397   520346 
 2308000    1.0109002   -2.3707332   -2.3707332   -1.4362625  0.060561985   -2.3707332   0.93447067   520346 
 2309000    1.0092641   -2.3692111   -2.3692111   -1.4362529    0.0726531   -2.3692111   0.93295823   520346 
 2310000    1.0092178   -2.3701587   -2.3701587   -1.4372433  0.073463803   -2.3701587   0.93291538   520346 
 2311000    1.0103195   -2.3713453   -2.3713453   -1.4374115  0.064864524   -2.3713453   0.93393383   520346 
 2312000    1.0109449   -2.3712721   -2.3712721   -1.4367601   0.06717544   -2.3712721   0.93451197   520346 
 2313000    1.0110069   -2.3722334   -2.3722334   -1.4376642  0.068485776   -2.3722334   0.93456925   520346 
 2314000     1.011461   -2.3730006   -2.3730006   -1.4380115  0.054719339   -2.3730006   0.93498902   520346 
 2315000    1.0128192   -2.3730604   -2.3730604   -1.4368159  0.072497174   -2.3730604   0.93624449   520346 
 2316000    1.0109749    -2.371868    -2.371868   -1.4373284  0.075459315    -2.371868   0.93453964   520346 
 2317000    1.0089186   -2.3705724   -2.3705724   -1.4379335   0.08049531   -2.3705724   0.93263887   520346 
 2318000    1.0114771    -2.372522    -2.372522   -1.4375181  0.066196992    -2.372522   0.93500387   520346 
 2319000    1.0097634   -2.3716559   -2.3716559   -1.4382362  0.070585583   -2.3716559   0.93341977   520346 
 2320000    1.0121669   -2.3726558   -2.3726558   -1.4370142  0.057634753   -2.3726558   0.93564159   520346 
 2321000    1.0107228   -2.3710025   -2.3710025   -1.4366959  0.053525909   -2.3710025   0.93430661   520346 
 2322000    1.0089402   -2.3705324   -2.3705324   -1.4378736  0.069662943   -2.3705324   0.93265882   520346 
 2323000    1.0101358   -2.3715669   -2.3715669   -1.4378029  0.064509474   -2.3715669   0.93376405   520346 
 2324000    1.0101631   -2.3711362   -2.3711362   -1.4373469  0.057396791   -2.3711362   0.93378928   520346 
 2325000     1.011257   -2.3719812   -2.3719812   -1.4371807  0.054277743   -2.3719812   0.93480044   520346 
 2326000    1.0109723   -2.3717497   -2.3717497   -1.4372124  0.079802104   -2.3717497   0.93453726   520346 
 2327000    1.0097694   -2.3701962   -2.3701962   -1.4367709   0.06150376   -2.3701962   0.93342535   520346 
 2328000    1.0101337   -2.3710799   -2.3710799   -1.4373179  0.066245992   -2.3710799   0.93376207   520346 
 2329000    1.0105375   -2.3712345   -2.3712345   -1.4370992  0.064589623   -2.3712345   0.93413533   520346 
 2330000    1.0117302   -2.3724389   -2.3724389   -1.4372011  0.058911014   -2.3724389   0.93523784   520346 
 2331000    1.0086623   -2.3695035   -2.3695035   -1.4371016  0.077528512   -2.3695035   0.93240188   520346 
 2332000    1.0103816   -2.3716671   -2.3716671   -1.4376759  0.055268328   -2.3716671   0.93399127   520346 
 2333000    1.0115411   -2.3725737   -2.3725737   -1.4375107  0.053538289   -2.3725737   0.93506304   520346 
 2334000    1.0111519   -2.3729575   -2.3729575   -1.4382542  0.062256729   -2.3729575   0.93470329   520346 
 2335000    1.0084108    -2.369662    -2.369662   -1.4374926  0.066201251    -2.369662   0.93216943   520346 
 2336000    1.0098962   -2.3716644   -2.3716644   -1.4381219  0.054388983   -2.3716644    0.9335425   520346 
 2337000    1.0106689   -2.3723344   -2.3723344   -1.4380776  0.070174413   -2.3723344   0.93425677   520346 
 2338000    1.0093078   -2.3710563   -2.3710563   -1.4380578  0.063817873   -2.3710563   0.93299858   520346 
 2339000    1.0085714   -2.3705442   -2.3705442   -1.4382264  0.061103216   -2.3705442   0.93231786   520346 
 2340000      1.00971   -2.3722791   -2.3722791   -1.4389087  0.064776014   -2.3722791   0.93337039   520346 
 2341000    1.0098662   -2.3720523   -2.3720523   -1.4385376  0.074869343   -2.3720523   0.93351478   520346 
 2342000    1.0109298   -2.3723554   -2.3723554   -1.4378573  0.071116055   -2.3723554   0.93449801   520346 
 2343000    1.0122082   -2.3731184   -2.3731184   -1.4374386  0.064631177   -2.3731184   0.93567973   520346 
 2344000    1.0117889   -2.3714568   -2.3714568   -1.4361647  0.080713406   -2.3714568   0.93529213   520346 
 2345000    1.0125424   -2.3731638   -2.3731638   -1.4371752  0.064717429   -2.3731638   0.93598863   520346 
 2346000    1.0115962   -2.3723693   -2.3723693   -1.4372553  0.066932477   -2.3723693     0.935114   520346 
 2347000    1.0108826   -2.3720099   -2.3720099   -1.4375556  0.061348472   -2.3720099   0.93445433   520346 
 2348000    1.0113605   -2.3718197   -2.3718197   -1.4369236  0.066497858   -2.3718197   0.93489608   520346 
 2349000     1.010071   -2.3710897   -2.3710897   -1.4373856  0.070385879   -2.3710897   0.93370409   520346 
 2350000    1.0104426   -2.3716122   -2.3716122   -1.4375645  0.072367478   -2.3716122   0.93404763   520346 
 2351000    1.0089099   -2.3704602   -2.3704602   -1.4378294  0.065558963   -2.3704602   0.93263076   520346 
 2352000    1.0092927   -2.3711567   -2.3711567   -1.4381721   0.06893193   -2.3711567   0.93298465   520346 
 2353000    1.0107047   -2.3729374   -2.3729374   -1.4386475  0.071449866   -2.3729374   0.93428992   520346 
 2354000    1.0082361   -2.3706156   -2.3706156   -1.4386077  0.072335223   -2.3706156   0.93200792   520346 
 2355000    1.0109551   -2.3720765   -2.3720765   -1.4375551  0.066654026   -2.3720765   0.93452136   520346 
 2356000    1.0103303   -2.3716679   -2.3716679   -1.4377241  0.055918934   -2.3716679   0.93394379   520346 
 2357000    1.0090387   -2.3710786   -2.3710786   -1.4383287  0.058731211   -2.3710786   0.93274984   520346 
 2358000    1.0092018   -2.3709301   -2.3709301   -1.4380295  0.059585877   -2.3709301   0.93290062   520346 
 2359000    1.0092123   -2.3706044   -2.3706044   -1.4376941  0.068409726   -2.3706044   0.93291035   520346 
 2360000    1.0095597   -2.3699004   -2.3699004   -1.4366689   0.07052642   -2.3699004   0.93323147   520346 
 2361000     1.009227   -2.3702802   -2.3702802   -1.4373562  0.067414066   -2.3702802   0.93292392   520346 
 2362000    1.0106597   -2.3722453   -2.3722453    -1.437997  0.060656319   -2.3722453   0.93424831   520346 
 2363000    1.0100938   -2.3708564   -2.3708564   -1.4371313  0.070528893   -2.3708564   0.93372517   520346 
 2364000    1.0102153   -2.3702438   -2.3702438   -1.4364063  0.063069048   -2.3702438   0.93383749   520346 
 2365000    1.0090163   -2.3687533   -2.3687533   -1.4360242  0.068675495   -2.3687533   0.93272914   520346 
 2366000    1.0100806    -2.370693    -2.370693     -1.43698  0.059637826    -2.370693   0.93371301   520346 
 2367000     1.010202   -2.3714729   -2.3714729   -1.4376478  0.067499272   -2.3714729   0.93382517   520346 
 2368000    1.0116892   -2.3724276   -2.3724276   -1.4372277  0.063502026   -2.3724276   0.93519993   520346 
 2369000    1.0088682    -2.369041    -2.369041   -1.4364487  0.061926491    -2.369041    0.9325923   520346 
 2370000    1.0097834   -2.3706518   -2.3706518   -1.4372135  0.076477401   -2.3706518   0.93343826   520346 
 2371000    1.0087814   -2.3699539   -2.3699539   -1.4374419  0.064329089   -2.3699539     0.932512   520346 
 2372000    1.0095662   -2.3699738   -2.3699738   -1.4367362  0.069139137   -2.3699738   0.93323752   520346 
 2373000     1.010863   -2.3721193   -2.3721193   -1.4376831  0.065559322   -2.3721193   0.93443619   520346 
 2374000    1.0115421   -2.3722634   -2.3722634   -1.4371994  0.068608529   -2.3722634   0.93506403   520346 
 2375000    1.0135902   -2.3733963   -2.3733963   -1.4364391  0.069169201   -2.3733963   0.93695725   520346 
 2376000    1.0117783   -2.3715601   -2.3715601   -1.4362778  0.064367099   -2.3715601   0.93528234   520346 
 2377000    1.0128021   -2.3735669   -2.3735669   -1.4373382  0.069706881   -2.3735669   0.93622869   520346 
 2378000    1.0119187   -2.3731402   -2.3731402    -1.437728  0.078119639   -2.3731402   0.93541216   520346 
 2379000    1.0134662   -2.3741404   -2.3741404   -1.4372977  0.069455643   -2.3741404   0.93684265   520346 
 2380000    1.0116183   -2.3730445   -2.3730445     -1.43791  0.072992475   -2.3730445   0.93513441   520346 
 2381000    1.0116312   -2.3730901   -2.3730901   -1.4379438   0.06572452   -2.3730901   0.93514635   520346 
 2382000    1.0124542   -2.3738502   -2.3738502   -1.4379431  0.061573241   -2.3738502   0.93590713   520346 
 2383000    1.0106155   -2.3728331   -2.3728331   -1.4386257  0.071419121   -2.3728331   0.93420742   520346 
 2384000    1.0089763   -2.3716217   -2.3716217   -1.4389296  0.070230289   -2.3716217   0.93269215   520346 
 2385000    1.0082933   -2.3715969   -2.3715969    -1.439536  0.060339775   -2.3715969   0.93206086   520346 
 2386000    1.0114724   -2.3736089   -2.3736089   -1.4386094  0.050932604   -2.3736089   0.93499954   520346 
 2387000    1.0104631   -2.3727117   -2.3727117   -1.4386451  0.059842851   -2.3727117    0.9340666   520346 
 2388000    1.0092282    -2.372163    -2.372163    -1.439238  0.076655437    -2.372163     0.932925   520346 
 2389000    1.0091121   -2.3715693   -2.3715693   -1.4387516   0.07364207   -2.3715693   0.93281773   520346 
 2390000    1.0092357   -2.3720581   -2.3720581   -1.4391261  0.054546763   -2.3720581   0.93293193   520346 
 2391000    1.0094807   -2.3717401   -2.3717401   -1.4385816   0.06327535   -2.3717401   0.93315845   520346 
 2392000     1.010919   -2.3717401   -2.3717401   -1.4372522  0.075837453   -2.3717401   0.93448796   520346 
 2393000    1.0103372   -2.3710937   -2.3710937   -1.4371436  0.072382681   -2.3710937   0.93395015   520346 
 2394000    1.0104219   -2.3717596   -2.3717596   -1.4377311  0.063174878   -2.3717596   0.93402849   520346 
 2395000    1.0091143    -2.371201    -2.371201   -1.4383813  0.053185379    -2.371201   0.93281972   520346 
 2396000    1.0084972   -2.3701686   -2.3701686   -1.4379192  0.062302594   -2.3701686   0.93224933   520346 
 2397000    1.0100212    -2.371325    -2.371325   -1.4376669  0.073827603    -2.371325   0.93365805   520346 
 2398000    1.0099805   -2.3709118   -2.3709118   -1.4372914   0.08045493   -2.3709118   0.93362043   520346 
 2399000    1.0104806   -2.3722267   -2.3722267    -1.438144  0.068855057   -2.3722267   0.93408273   520346 
 2400000    1.0107422   -2.3726547   -2.3726547   -1.4383301  0.072140532   -2.3726547   0.93432457   520346 
 2401000    1.0088888   -2.3708393   -2.3708393   -1.4382281  0.067279813   -2.3708393   0.93261126   520346 
 2402000    1.0096727   -2.3706799   -2.3706799    -1.437344   0.07094244   -2.3706799   0.93333597   520346 
 2403000    1.0134876    -2.373473    -2.373473   -1.4366106  0.057628035    -2.373473   0.93686237   520346 
 2404000    1.0128498   -2.3732612   -2.3732612   -1.4369883  0.061730391   -2.3732612   0.93627283   520346 
 2405000    1.0112985   -2.3715227   -2.3715227   -1.4366839  0.071043349   -2.3715227    0.9348388   520346 
 2406000    1.0137778   -2.3735713   -2.3735713   -1.4364406  0.066932494   -2.3735713    0.9371307   520346 
 2407000    1.0087843   -2.3701293   -2.3701293   -1.4376146  0.066361861   -2.3701293    0.9325147   520346 
 2408000     1.009535   -2.3709257   -2.3709257   -1.4377171  0.069280373   -2.3709257   0.93320864   520346 
 2409000    1.0090831   -2.3706206   -2.3706206   -1.4378296   0.06423245   -2.3706206   0.93279093   520346 
 2410000    1.0091559   -2.3716952   -2.3716952    -1.438837   0.07676781   -2.3716952    0.9328582   520346 
 2411000    1.0102408   -2.3728506   -2.3728506   -1.4389895  0.070801131   -2.3728506   0.93386107   520346 
 2412000    1.0096886   -2.3717129   -2.3717129   -1.4383623   0.07042121   -2.3717129   0.93335059   520346 
 2413000    1.0095699   -2.3715079   -2.3715079    -1.438267  0.069480767   -2.3715079    0.9332409   520346 
 2414000    1.0104533   -2.3727689   -2.3727689   -1.4387114  0.055683379   -2.3727689   0.93405754   520346 
 2415000    1.0095082   -2.3727242   -2.3727242   -1.4395404  0.064890683   -2.3727242   0.93318382   520346 
 2416000    1.0093931   -2.3716477   -2.3716477   -1.4385702  0.074314246   -2.3716477   0.93307749   520346 
 2417000    1.0124789    -2.374633    -2.374633   -1.4387031  0.066519116    -2.374633   0.93592996   520346 
 2418000    1.0088769   -2.3716635   -2.3716635   -1.4390632  0.066747797   -2.3716635   0.93260032   520346 
 2419000    1.0076387   -2.3718415   -2.3718415   -1.4403858  0.075071316   -2.3718415   0.93145573   520346 
 2420000     1.009866   -2.3741772   -2.3741772   -1.4406625  0.057071414   -2.3741772   0.93351465   520346 
 2421000    1.0095861   -2.3735785   -2.3735785   -1.4403226    0.0558978   -2.3735785   0.93325589   520346 
 2422000    1.0088857   -2.3737822   -2.3737822   -1.4411738  0.072340573   -2.3737822   0.93260839   520346 
 2423000     1.009679    -2.373338    -2.373338   -1.4399963  0.068064333    -2.373338   0.93334176   520346 
 2424000    1.0098074    -2.373854    -2.373854   -1.4403936  0.062451186    -2.373854   0.93346047   520346 
 2425000    1.0082972      -2.3726      -2.3726   -1.4405355  0.070092539      -2.3726   0.93206446   520346 
 2426000    1.0091324   -2.3737362   -2.3737362   -1.4408997  0.069979148   -2.3737362   0.93283651   520346 
 2427000    1.0111016   -2.3747399   -2.3747399   -1.4400832  0.072337646   -2.3747399   0.93465676   520346 
 2428000    1.0097867   -2.3742766   -2.3742766   -1.4408353  0.075218951   -2.3742766    0.9334413   520346 
 2429000    1.0109394   -2.3750262   -2.3750262   -1.4405194  0.068888205   -2.3750262   0.93450685   520346 
 2430000    1.0103814   -2.3736872   -2.3736872   -1.4396961  0.071452693   -2.3736872   0.93399107   520346 
 2431000    1.0105696   -2.3737146   -2.3737146   -1.4395497  0.061390107   -2.3737146     0.934165   520346 
 2432000     1.009005    -2.372705    -2.372705   -1.4399863  0.074056494    -2.372705   0.93271875   520346 
 2433000    1.0104087   -2.3748337   -2.3748337   -1.4408174  0.066459763   -2.3748337    0.9340163   520346 
 2434000    1.0085243   -2.3734999   -2.3734999   -1.4412256   0.06218831   -2.3734999   0.93227432   520346 
 2435000    1.0103087   -2.3749599   -2.3749599   -1.4410361   0.05965581   -2.3749599    0.9339238   520346 
 2436000     1.010022   -2.3750892   -2.3750892   -1.4414304  0.062594547   -2.3750892   0.93365878   520346 
 2437000    1.0090382   -2.3735196   -2.3735196   -1.4407702  0.069170599   -2.3735196   0.93274936   520346 
 2438000    1.0113084    -2.376158    -2.376158     -1.44131  0.067008374    -2.376158   0.93484795   520346 
 2439000    1.0093691   -2.3748791   -2.3748791   -1.4418238  0.074680776   -2.3748791   0.93305526   520346 
 2440000    1.0102285   -2.3748234   -2.3748234   -1.4409737  0.075174581   -2.3748234   0.93384969   520346 
 2441000    1.0123336   -2.3761862   -2.3761862   -1.4403905  0.055596133   -2.3761862   0.93579568   520346 
 2442000    1.0109556   -2.3750349   -2.3750349    -1.440513  0.066810191   -2.3750349   0.93452181   520346 
 2443000    1.0125421   -2.3766891   -2.3766891   -1.4407007  0.064434482   -2.3766891   0.93598836   520346 
 2444000    1.0097529   -2.3744017   -2.3744017   -1.4409917  0.079728217   -2.3744017   0.93341003   520346 
 2445000    1.0104366   -2.3745978   -2.3745978   -1.4405558  0.067891724   -2.3745978   0.93404207   520346 
 2446000     1.008213   -2.3728532   -2.3728532   -1.4408666  0.081443902   -2.3728532   0.93198662   520346 
 2447000    1.0089779   -2.3744473   -2.3744473   -1.4417536  0.070978973   -2.3744473   0.93269367   520346 
 2448000    1.0078101   -2.3732054   -2.3732054   -1.4415912  0.066570779   -2.3732054   0.93161416   520346 
 2449000    1.0099749   -2.3738347   -2.3738347   -1.4402194  0.057433912   -2.3738347   0.93361531   520346 
 2450000    1.0088159   -2.3725318   -2.3725318   -1.4399879  0.065592578   -2.3725318   0.93254394   520346 
 2451000    1.0071242   -2.3718931   -2.3718931    -1.440913  0.077370003   -2.3718931    0.9309801   520346 
 2452000    1.0095725   -2.3729763   -2.3729763    -1.439733  0.073490663   -2.3729763   0.93324332   520346 
 2453000    1.0098925    -2.373354    -2.373354   -1.4398149  0.061872906    -2.373354   0.93353914   520346 
 2454000    1.0092883    -2.374244    -2.374244   -1.4412633  0.064686602    -2.374244   0.93298063   520346 
 2455000    1.0099561   -2.3742744   -2.3742744   -1.4406764  0.060846259   -2.3742744   0.93359793   520346 
 2456000    1.0091055   -2.3726649   -2.3726649   -1.4398533  0.075445408   -2.3726649   0.93281164   520346 
 2457000    1.0102895   -2.3743931   -2.3743931   -1.4404869  0.061660488   -2.3743931   0.93390613   520346 
 2458000    1.0095815   -2.3741305   -2.3741305   -1.4408789  0.073002036   -2.3741305    0.9332516   520346 
 2459000    1.0087147   -2.3732055   -2.3732055   -1.4407552  0.072440535   -2.3732055   0.93245037   520346 
 2460000    1.0086703   -2.3740783   -2.3740783    -1.441669   0.05259657   -2.3740783   0.93240932   520346 
 2461000    1.0072128   -2.3732283   -2.3732283   -1.4421663   0.07054609   -2.3732283   0.93106199   520346 
 2462000     1.007057   -2.3731216   -2.3731216   -1.4422036  0.064197679   -2.3731216     0.930918   520346 
 2463000    1.0069688   -2.3732196   -2.3732196   -1.4423831  0.066661075   -2.3732196   0.93083648   520346 
 2464000    1.0081703   -2.3741485   -2.3741485   -1.4422013  0.066233993   -2.3741485   0.93194712   520346 
 2465000    1.0093594   -2.3746394   -2.3746394    -1.441593  0.064641661   -2.3746394   0.93304635   520346 
 2466000    1.0084675   -2.3735411   -2.3735411   -1.4413193  0.083834224   -2.3735411   0.93222185   520346 
 2467000    1.0102995   -2.3759534   -2.3759534   -1.4420381   0.06345701   -2.3759534   0.93391532   520346 
 2468000    1.0095429   -2.3754156   -2.3754156   -1.4421997  0.082799925   -2.3754156   0.93321595   520346 
 2469000    1.0124181   -2.3776183   -2.3776183   -1.4417445  0.070393664   -2.3776183   0.93587374   520346 
 2470000    1.0098161   -2.3762891   -2.3762891   -1.4428206  0.071267262   -2.3762891   0.93346849   520346 
 2471000    1.0080169   -2.3747827   -2.3747827   -1.4429774  0.065899032   -2.3747827   0.93180529   520346 
 2472000    1.0083486   -2.3747681   -2.3747681   -1.4426561  0.073192068   -2.3747681   0.93211194   520346 
 2473000     1.009609   -2.3760542   -2.3760542   -1.4427772  0.071575289   -2.3760542   0.93327703   520346 
 2474000    1.0112286   -2.3763411   -2.3763411   -1.4415669  0.053172482   -2.3763411   0.93477417   520346 
 2475000    1.0103764   -2.3758631   -2.3758631   -1.4418766  0.069279843   -2.3758631   0.93398645   520346 
 2476000    1.0104394   -2.3765009   -2.3765009   -1.4424563  0.077552102   -2.3765009   0.93404464   520346 
 2477000    1.0087737   -2.3759656   -2.3759656   -1.4434606  0.062985295   -2.3759656   0.93250494   520346 
 2478000    1.0122268   -2.3781854   -2.3781854   -1.4424885  0.067756739   -2.3781854   0.93569689   520346 
 2479000    1.0093604   -2.3764969   -2.3764969   -1.4434497  0.070866974   -2.3764969   0.93304724   520346 
 2480000    1.0094189   -2.3755342   -2.3755342   -1.4424329  0.065481104   -2.3755342   0.93310135   520346 
 2481000    1.0099618   -2.3760304   -2.3760304   -1.4424273  0.068183195   -2.3760304   0.93360314   520346 
 2482000    1.0085791   -2.3745775   -2.3745775   -1.4422525  0.074365379   -2.3745775   0.93232504   520346 
 2483000    1.0067207   -2.3730016   -2.3730016   -1.4423945  0.068961306   -2.3730016    0.9306071   520346 
 2484000    1.0087161   -2.3738284   -2.3738284   -1.4413767   0.07791828   -2.3738284   0.93245167   520346 
 2485000    1.0092886   -2.3742256   -2.3742256   -1.4412447   0.06845645   -2.3742256   0.93298085   520346 
 2486000    1.0090272    -2.373737    -2.373737   -1.4409978  0.048840159    -2.373737   0.93273924   520346 
 2487000    1.0077773   -2.3737889   -2.3737889   -1.4422051  0.070272444   -2.3737889   0.93158382   520346 
 2488000    1.0088887   -2.3744398   -2.3744398   -1.4418285  0.062025074   -2.3744398   0.93261125   520346 
 2489000    1.0077541   -2.3730095   -2.3730095   -1.4414471  0.069669051   -2.3730095   0.93156239   520346 
 2490000    1.0088069   -2.3737616   -2.3737616    -1.441226  0.058096829   -2.3737616   0.93253562   520346 
 2491000    1.0097017    -2.374204    -2.374204   -1.4408413  0.065386762    -2.374204   0.93336274   520346 
 2492000    1.0117505   -2.3757624   -2.3757624   -1.4405057  0.066892859   -2.3757624   0.93525661   520346 
 2493000    1.0103765   -2.3737845   -2.3737845    -1.439798  0.065485765   -2.3737845   0.93398653   520346 
 2494000     1.010857   -2.3745576   -2.3745576   -1.4401269   0.07466027   -2.3745576   0.93443068   520346 
 2495000    1.0112103   -2.3763474   -2.3763474   -1.4415901  0.070679458   -2.3763474   0.93475727   520346 
 2496000    1.0102337   -2.3750502   -2.3750502   -1.4411957  0.081182144   -2.3750502    0.9338545   520346 
 2497000    1.0087139   -2.3731162   -2.3731162   -1.4406666  0.064273023   -2.3731162   0.93244963   520346 
 2498000    1.0104005   -2.3758547   -2.3758547    -1.441846   0.07194458   -2.3758547   0.93400873   520346 
 2499000    1.0083448   -2.3732758   -2.3732758   -1.4411674  0.058034663   -2.3732758   0.93210844   520346 
 2500000    1.0082197   -2.3743713   -2.3743713   -1.4423785  0.063351384   -2.3743713   0.93199282   520346 
 2501000    1.0099532   -2.3754848   -2.3754848   -1.4418896  0.066157067   -2.3754848   0.93359526   520346 
 2502000     1.010336   -2.3761391   -2.3761391     -1.44219  0.058246707   -2.3761391   0.93394908   520346 
 2503000     1.010352   -2.3747829   -2.3747829    -1.440819  0.073949981   -2.3747829   0.93396388   520346 
 2504000    1.0092206   -2.3737495   -2.3737495   -1.4408315  0.082142416   -2.3737495   0.93291801   520346 
 2505000    1.0098623   -2.3754641   -2.3754641   -1.4419529  0.057036505   -2.3754641   0.93351122   520346 
 2506000    1.0109648   -2.3751159   -2.3751159   -1.4405855  0.067129163   -2.3751159   0.93453033   520346 
 2507000    1.0113992     -2.37508     -2.37508   -1.4401481  0.069831751     -2.37508   0.93493187   520346 
 2508000    1.0125728   -2.3752435   -2.3752435   -1.4392268  0.064692007   -2.3752435   0.93601675   520346 
 2509000    1.0132245   -2.3761352   -2.3761352    -1.439516    0.0774209   -2.3761352   0.93661921   520346 
 2510000    1.0123808   -2.3751659   -2.3751659   -1.4393266  0.078768467   -2.3751659   0.93583928   520346 
 2511000    1.0117387    -2.374327    -2.374327   -1.4390813  0.065697869    -2.374327   0.93524574   520346 
 2512000    1.0104249   -2.3732161   -2.3732161   -1.4391848  0.071088414   -2.3732161   0.93403124   520346 
 2513000    1.0080879   -2.3714572   -2.3714572   -1.4395863  0.062514568   -2.3714572   0.93187092   520346 
 2514000    1.0081919   -2.3719906   -2.3719906   -1.4400235  0.053373226   -2.3719906   0.93196704   520346 
 2515000    1.0075788   -2.3711063   -2.3711063    -1.439706  0.066816634   -2.3711063   0.93140031   520346 
 2516000    1.0092933   -2.3734442   -2.3734442    -1.440459  0.077734038   -2.3734442   0.93298519   520346 
 2517000     1.009371   -2.3735012   -2.3735012   -1.4404441  0.056471188   -2.3735012   0.93305708   520346 
 2518000    1.0065381   -2.3706697   -2.3706697   -1.4402314  0.061578238   -2.3706697   0.93043835   520346 
 2519000    1.0075623    -2.371566    -2.371566   -1.4401809  0.067436957    -2.371566    0.9313851   520346 
 2520000    1.0106731   -2.3738014   -2.3738014   -1.4395407  0.067386755   -2.3738014   0.93426066   520346 
 2521000     1.007503   -2.3710918   -2.3710918   -1.4397616     0.058876   -2.3710918   0.93133025   520346 
 2522000    1.0091399   -2.3733437   -2.3733437   -1.4405003  0.068184304   -2.3733437   0.93284342   520346 
 2523000    1.0122526   -2.3764102   -2.3764102   -1.4406894  0.070819397   -2.3764102   0.93572081   520346 
 2524000    1.0096867   -2.3746267   -2.3746267   -1.4412779  0.069244931   -2.3746267   0.93334886   520346 
 2525000    1.0098364   -2.3731942   -2.3731942   -1.4397069   0.07563972   -2.3731942   0.93348723   520346 
 2526000    1.0088248   -2.3721068   -2.3721068   -1.4395547  0.069919728   -2.3721068    0.9325521   520346 
 2527000    1.0113652   -2.3753332   -2.3753332   -1.4404328  0.065632182   -2.3753332   0.93490046   520346 
 2528000    1.0107042   -2.3748729   -2.3748729   -1.4405835  0.071319088   -2.3748729   0.93428945   520346 
 2529000    1.0115057   -2.3758082   -2.3758082   -1.4407778  0.064294162   -2.3758082   0.93503033   520346 
 2530000    1.0089818   -2.3733651   -2.3733651   -1.4406678  0.070220174   -2.3733651    0.9326973   520346 
 2531000    1.0102669   -2.3744918   -2.3744918   -1.4406066  0.061354425   -2.3744918   0.93388517   520346 
 2532000    1.0111202   -2.3749041   -2.3749041   -1.4402302   0.07763739   -2.3749041   0.93467396   520346 
 2533000    1.0098201   -2.3738081   -2.3738081   -1.4403359  0.065835553   -2.3738081   0.93347221   520346 
 2534000     1.011372   -2.3750376   -2.3750376   -1.4401308  0.050613433   -2.3750376   0.93490678   520346 
 2535000    1.0114619   -2.3757777   -2.3757777   -1.4407879  0.070149775   -2.3757777   0.93498983   520346 
 2536000    1.0130772   -2.3763446   -2.3763446   -1.4398616  0.077697686   -2.3763446   0.93648301   520346 
 2537000    1.0117198   -2.3752882   -2.3752882   -1.4400599  0.070543278   -2.3752882   0.93522824   520346 
 2538000    1.0104624   -2.3736184   -2.3736184   -1.4395524  0.074295459   -2.3736184   0.93406594   520346 
 2539000    1.0104208   -2.3741885   -2.3741885    -1.440161  0.058718297   -2.3741885   0.93402749   520346 
 2540000    1.0101765   -2.3737175   -2.3737175   -1.4399159  0.075232848   -2.3737175    0.9338016   520346 
 2541000    1.0088952   -2.3731676   -2.3731676   -1.4405504  0.072029645   -2.3731676   0.93261721   520346 
 2542000    1.0084768   -2.3735616   -2.3735616   -1.4413311  0.072795415   -2.3735616   0.93223047   520346 
 2543000     1.008903   -2.3729577   -2.3729577   -1.4403333   0.05582485   -2.3729577    0.9326244   520346 
 2544000    1.0102663   -2.3748118   -2.3748118   -1.4409271  0.059226465   -2.3748118   0.93388464   520346 
 2545000     1.009432   -2.3736532   -2.3736532   -1.4405397    0.0814057   -2.3736532   0.93311346   520346 
 2546000    1.0103579   -2.3743984   -2.3743984   -1.4404291  0.057461665   -2.3743984    0.9339693   520346 
 2547000    1.0113393   -2.3752613   -2.3752613   -1.4403848  0.064007236   -2.3752613    0.9348765   520346 
 2548000    1.0107535   -2.3740508   -2.3740508   -1.4397158  0.074236191   -2.3740508     0.934335   520346 
 2549000    1.0105282   -2.3739164   -2.3739164   -1.4397897  0.068755316   -2.3739164   0.93412674   520346 
 2550000    1.0113939   -2.3747806   -2.3747806   -1.4398536   0.06354494   -2.3747806   0.93492696   520346 
 2551000    1.0127321   -2.3752613   -2.3752613   -1.4390973  0.080465952   -2.3752613   0.93616398   520346 
 2552000     1.012039   -2.3750223   -2.3750223    -1.439499  0.058839892   -2.3750223   0.93552331   520346 
 2553000    1.0104102   -2.3732781   -2.3732781   -1.4392605  0.059907511   -2.3732781   0.93401765   520346 
 2554000    1.0105814   -2.3753563   -2.3753563   -1.4411804   0.07262676   -2.3753563   0.93417589   520346 
 2555000    1.0101565   -2.3746382   -2.3746382    -1.440855  0.062963444   -2.3746382   0.93378318   520346 
 2556000    1.0115647   -2.3743177   -2.3743177   -1.4392329  0.074106404   -2.3743177   0.93508485   520346 
 2557000    1.0096038   -2.3732971   -2.3732971   -1.4400249  0.075635003   -2.3732971   0.93327222   520346 
 2558000    1.0129968   -2.3767146   -2.3767146   -1.4403059  0.074014848   -2.3767146   0.93640873   520346 
 2559000    1.0111344   -2.3752722   -2.3752722   -1.4405852   0.06446485   -2.3752722   0.93468708   520346 
 2560000    1.0089681   -2.3741761   -2.3741761   -1.4414916  0.069497034   -2.3741761   0.93268457   520346 
 2561000    1.0084112   -2.3737749   -2.3737749    -1.441605  0.070661091   -2.3737749   0.93216984   520346 
 2562000    1.0103205   -2.3752539   -2.3752539   -1.4413191   0.05989222   -2.3752539   0.93393473   520346 
 2563000    1.0095172   -2.3749853   -2.3749853   -1.4417931  0.078272172   -2.3749853   0.93319218   520346 
 2564000    1.0103824   -2.3759284   -2.3759284   -1.4419364   0.06632683   -2.3759284     0.933992   520346 
 2565000    1.0103452   -2.3760591   -2.3760591   -1.4421015  0.061161251   -2.3760591   0.93395756   520346 
 2566000    1.0097619   -2.3752924   -2.3752924    -1.441874  0.061320993   -2.3752924    0.9334184   520346 
 2567000    1.0087938   -2.3742157   -2.3742157   -1.4416922  0.062173428   -2.3742157   0.93252348   520346 
 2568000    1.0105783    -2.375752    -2.375752    -1.441579  0.074472644    -2.375752   0.93417305   520346 
 2569000    1.0095693   -2.3755655   -2.3755655   -1.4423252  0.065674412   -2.3755655   0.93324032   520346 
 2570000    1.0108698   -2.3765506   -2.3765506   -1.4421081  0.072914748   -2.3765506   0.93444256   520346 
 2571000    1.0080783   -2.3733478   -2.3733478   -1.4414858  0.063577781   -2.3733478   0.93186205   520346 
 2572000    1.0087694    -2.373758    -2.373758   -1.4412571  0.067724289    -2.373758   0.93250092   520346 
 2573000    1.0087901   -2.3730998   -2.3730998   -1.4405797  0.069856069   -2.3730998   0.93252005   520346 
 2574000    1.0103695   -2.3750866   -2.3750866   -1.4411066  0.057348313   -2.3750866   0.93398005   520346 
 2575000    1.0096613   -2.3752917   -2.3752917   -1.4419663  0.071842079   -2.3752917   0.93332541   520346 
 2576000    1.0126025   -2.3779696   -2.3779696   -1.4419255  0.071275323   -2.3779696   0.93604418   520346 
 2577000    1.0088504   -2.3740452   -2.3740452   -1.4414694  0.068777387   -2.3740452   0.93257578   520346 
 2578000    1.0104886   -2.3746316   -2.3746316   -1.4405414  0.059197084   -2.3746316   0.93409018   520346 
 2579000    1.0103264   -2.3739717   -2.3739717   -1.4400315  0.072606754   -2.3739717   0.93394018   520346 
 2580000    1.0098174   -2.3738823   -2.3738823   -1.4404126  0.064888707   -2.3738823   0.93346965   520346 
 2581000    1.0085621   -2.3732233   -2.3732233    -1.440914  0.063789078   -2.3732233   0.93230927   520346 
 2582000    1.0092073   -2.3736989   -2.3736989   -1.4407932   0.07450683   -2.3736989   0.93290572   520346 
 2583000    1.0101594   -2.3744895   -2.3744895   -1.4407037  0.064151583   -2.3744895   0.93378582   520346 
 2584000    1.0101017   -2.3739518   -2.3739518   -1.4402193  0.058880563   -2.3739518   0.93373253   520346 
 2585000    1.0091581   -2.3723716   -2.3723716   -1.4395114   0.07421468   -2.3723716   0.93286024   520346 
 2586000    1.0099423   -2.3727776   -2.3727776   -1.4391924  0.072919188   -2.3727776   0.93358513   520346 
 2587000    1.0099735   -2.3725724   -2.3725724   -1.4389584  0.068220557   -2.3725724   0.93361396   520346 
 2588000    1.0085505   -2.3725224   -2.3725224   -1.4402238  0.071961316   -2.3725224   0.93229861   520346 
 2589000    1.0088793   -2.3720317   -2.3720317   -1.4394291  0.061424794   -2.3720317   0.93260252   520346 
 2590000    1.0097831   -2.3726338   -2.3726338   -1.4391958  0.071245705   -2.3726338   0.93343802   520346 
 2591000    1.0087575   -2.3717456   -2.3717456   -1.4392557  0.061672065   -2.3717456   0.93248992   520346 
 2592000    1.0081166   -2.3712504   -2.3712504   -1.4393529  0.067346339   -2.3712504   0.93189749   520346 
 2593000    1.0081291   -2.3707605   -2.3707605   -1.4388514  0.068245681   -2.3707605   0.93190905   520346 
 2594000    1.0113276   -2.3728515   -2.3728515   -1.4379858  0.048961205   -2.3728515   0.93486572   520346 
 2595000    1.0091797   -2.3712919   -2.3712919   -1.4384117  0.061992527   -2.3712919   0.93288023   520346 
 2596000    1.0112156   -2.3728716   -2.3728716   -1.4381094  0.056310957   -2.3728716   0.93476216   520346 
 2597000    1.0096016   -2.3717435   -2.3717435   -1.4384733  0.070832702   -2.3717435   0.93327021   520346 
 2598000    1.0101494    -2.372245    -2.372245   -1.4384684  0.072722212    -2.372245   0.93377658   520346 
 2599000    1.0105074   -2.3724287   -2.3724287   -1.4383212  0.080309462   -2.3724287   0.93410753   520346 
 2600000    1.0103833     -2.37298     -2.37298   -1.4389872  0.069593496     -2.37298   0.93399282   520346 
 2601000    1.0107994   -2.3724944   -2.3724944    -1.438117  0.073540099   -2.3724944   0.93437742   520346 
 2602000    1.0118389   -2.3735436   -2.3735436   -1.4382052  0.072851778   -2.3735436   0.93533836   520346 
 2603000    1.0113414   -2.3735096   -2.3735096   -1.4386311   0.06486124   -2.3735096   0.93487848   520346 
 2604000    1.0093602   -2.3720366   -2.3720366   -1.4389896  0.072099814   -2.3720366   0.93304704   520346 
 2605000    1.0101621   -2.3718452   -2.3718452   -1.4380569  0.062301021   -2.3718452   0.93378833   520346 
 2606000    1.0100498   -2.3720985   -2.3720985    -1.438414   0.06538926   -2.3720985   0.93368449   520346 
 2607000    1.0095113   -2.3707904   -2.3707904   -1.4376037  0.078660899   -2.3707904   0.93318676   520346 
 2608000    1.0109275   -2.3723141   -2.3723141   -1.4378182  0.079338584   -2.3723141   0.93449587   520346 
 2609000     1.010969   -2.3722898   -2.3722898   -1.4377556   0.06102213   -2.3722898   0.93453422   520346 
 2610000     1.012001   -2.3731861   -2.3731861    -1.437698  0.069481073   -2.3731861   0.93548818   520346 
 2611000    1.0106194    -2.372288    -2.372288   -1.4380769   0.06408476    -2.372288   0.93421106   520346 
 2612000    1.0117371   -2.3735333   -2.3735333   -1.4382891  0.063337053   -2.3735333   0.93524422   520346 
 2613000    1.0097116   -2.3721137   -2.3721137   -1.4387418  0.069339382   -2.3721137   0.93337191   520346 
 2614000    1.0104737   -2.3729971   -2.3729971   -1.4389207  0.063796194   -2.3729971   0.93407636   520346 
 2615000    1.0100517   -2.3715901   -2.3715901   -1.4379038  0.076304855   -2.3715901   0.93368632   520346 
 2616000    1.0092725   -2.3711907   -2.3711907   -1.4382246  0.052678996   -2.3711907   0.93296602   520346 
 2617000    1.0099777   -2.3723998   -2.3723998    -1.438782  0.072386786   -2.3723998   0.93361783   520346 
 2618000     1.008401   -2.3712619   -2.3712619   -1.4391016  0.074386226   -2.3712619   0.93216034   520346 
 2619000    1.0080468   -2.3716022   -2.3716022   -1.4397692  0.071619669   -2.3716022     0.931833   520346 
 2620000    1.0083759   -2.3714073   -2.3714073   -1.4392701  0.062038675   -2.3714073   0.93213722   520346 
 2621000    1.0104183   -2.3734738   -2.3734738   -1.4394487  0.068265718   -2.3734738   0.93402511   520346 
 2622000    1.0112052   -2.3743546   -2.3743546    -1.439602  0.072894198   -2.3743546   0.93475256   520346 
 2623000    1.0108541   -2.3734288   -2.3734288   -1.4390008  0.066779834   -2.3734288   0.93442798   520346 
 2624000    1.0115914   -2.3740319   -2.3740319   -1.4389224  0.064955004   -2.3740319   0.93510954   520346 
 2625000    1.0127717    -2.374949    -2.374949   -1.4387484   0.05863513    -2.374949   0.93620063   520346 
 2626000    1.0119049   -2.3748459   -2.3748459   -1.4394465  0.064250977   -2.3748459   0.93539936   520346 
 2627000    1.0112231   -2.3741304   -2.3741304   -1.4393613  0.072689951   -2.3741304   0.93476915   520346 
 2628000    1.0105144    -2.373752    -2.373752    -1.439638  0.072120884    -2.373752     0.934114   520346 
 2629000    1.0113368   -2.3743746   -2.3743746   -1.4395005  0.072664197   -2.3743746   0.93487418   520346 
 2630000     1.009239   -2.3728733   -2.3728733   -1.4399382  0.067045631   -2.3728733   0.93293505   520346 
 2631000     1.009691   -2.3745551   -2.3745551   -1.4412022  0.071947597   -2.3745551   0.93335287   520346 
 2632000    1.0100929   -2.3746363   -2.3746363    -1.440912  0.055427725   -2.3746363   0.93372433   520346 
 2633000     1.010868   -2.3742112   -2.3742112   -1.4397704  0.045689048   -2.3742112   0.93444084   520346 
 2634000    1.0091905   -2.3728247   -2.3728247   -1.4399345  0.058479751   -2.3728247    0.9328902   520346 
 2635000    1.0088641   -2.3733224   -2.3733224   -1.4407339  0.081109275   -2.3733224   0.93258846   520346 
 2636000    1.0099113   -2.3740114   -2.3740114   -1.4404549  0.064326234   -2.3740114   0.93355651   520346 
 2637000     1.010373   -2.3751535   -2.3751535   -1.4411702  0.056940549   -2.3751535   0.93398328   520346 
 2638000    1.0116748   -2.3760008   -2.3760008   -1.4408141  0.076602105   -2.3760008   0.93518665   520346 
 2639000    1.0090375   -2.3738509   -2.3738509   -1.4411022  0.058906179   -2.3738509   0.93274872   520346 
 2640000    1.0111344     -2.37501     -2.37501   -1.4403229  0.078012989     -2.37501   0.93468712   520346 
 2641000    1.0117462   -2.3752356   -2.3752356    -1.439983  0.071467122   -2.3752356   0.93525263   520346 
 2642000    1.0126245   -2.3755507   -2.3755507   -1.4394861  0.060626139   -2.3755507   0.93606459   520346 
 2643000    1.0126596   -2.3755198   -2.3755198   -1.4394228  0.060316012   -2.3755198   0.93609696   520346 
 2644000    1.0108505   -2.3742336   -2.3742336   -1.4398089  0.076630234   -2.3742336   0.93442472   520346 
 2645000    1.0116486   -2.3751915   -2.3751915   -1.4400291   0.06541315   -2.3751915   0.93516248   520346 
 2646000    1.0133253   -2.3758089   -2.3758089   -1.4390965  0.056420508   -2.3758089   0.93671242   520346 
 2647000    1.0123784   -2.3750598   -2.3750598   -1.4392227  0.065010381   -2.3750598   0.93583708   520346 
 2648000    1.0120962   -2.3753661   -2.3753661   -1.4397899  0.074302117   -2.3753661   0.93557619   520346 
 2649000    1.0106185   -2.3741946   -2.3741946   -1.4399844  0.066547299   -2.3741946   0.93421023   520346 
 2650000    1.0110669   -2.3742818   -2.3742818    -1.439657  0.072651408   -2.3742818   0.93462473   520346 
 2651000    1.0112348   -2.3753034   -2.3753034   -1.4405234  0.065152193   -2.3753034   0.93477996   520346 
 2652000    1.0108939   -2.3747118   -2.3747118    -1.440247   0.06806759   -2.3747118   0.93446476   520346 
 2653000    1.0118389   -2.3751412   -2.3751412   -1.4398028   0.06581646   -2.3751412    0.9353384   520346 
 2654000     1.009847   -2.3725145   -2.3725145   -1.4390174  0.065102844   -2.3725145   0.93349707   520346 
 2655000    1.0089675   -2.3720365   -2.3720365   -1.4393525  0.072360863   -2.3720365   0.93268405   520346 
 2656000    1.0108224   -2.3736654   -2.3736654   -1.4392667  0.057561311   -2.3736654   0.93439874   520346 
 2657000    1.0102762   -2.3735424   -2.3735424   -1.4396486  0.055375729   -2.3735424   0.93389382   520346 
 2658000      1.01074   -2.3732007   -2.3732007   -1.4388781  0.067873181   -2.3732007   0.93432257   520346 
 2659000    1.0111454   -2.3731799   -2.3731799   -1.4384826  0.071642309   -2.3731799    0.9346973   520346 
 2660000    1.0118436   -2.3734378   -2.3734378   -1.4380951  0.057644277   -2.3734378   0.93534269   520346 
 2661000    1.0124621   -2.3732721   -2.3732721   -1.4373577  0.067927427   -2.3732721   0.93591443   520346 
 2662000    1.0107403   -2.3721361   -2.3721361   -1.4378133  0.078516079   -2.3721361   0.93432281   520346 
 2663000    1.0113275   -2.3724558   -2.3724558   -1.4375902  0.075670201   -2.3724558   0.93486562   520346 
 2664000    1.0117926   -2.3734092   -2.3734092   -1.4381136  0.072125398   -2.3734092   0.93529559   520346 
 2665000    1.0104467   -2.3725296   -2.3725296   -1.4384783    0.0743637   -2.3725296   0.93405137   520346 
 2666000    1.0120313   -2.3746722   -2.3746722    -1.439156  0.058013639   -2.3746722   0.93551618   520346 
 2667000    1.0114183   -2.3741915   -2.3741915    -1.439242  0.066427348   -2.3741915   0.93494951   520346 
 2668000    1.0096888    -2.373024    -2.373024   -1.4396732  0.070849064    -2.373024   0.93335084   520346 
 2669000     1.009227   -2.3729813   -2.3729813   -1.4400574  0.068917399   -2.3729813    0.9329239   520346 
 2670000    1.0089596   -2.3735867   -2.3735867     -1.44091  0.055639796   -2.3735867   0.93267672   520346 
 2671000    1.0087815   -2.3729456   -2.3729456   -1.4404336  0.067159158   -2.3729456   0.93251207   520346 
 2672000     1.009854   -2.3735854   -2.3735854    -1.440082  0.079767415   -2.3735854   0.93350348   520346 
 2673000    1.0091747   -2.3746538   -2.3746538   -1.4417782  0.062889332   -2.3746538   0.93287558   520346 
 2674000    1.0104955   -2.3752318   -2.3752318   -1.4411353  0.064829603   -2.3752318   0.93409656   520346 
 2675000    1.0076116   -2.3726626   -2.3726626   -1.4412319  0.078445454   -2.3726626   0.93143067   520346 
 2676000    1.0092779   -2.3743628   -2.3743628   -1.4413918  0.061347545   -2.3743628   0.93297095   520346 
 2677000    1.0105134   -2.3759519   -2.3759519   -1.4418389  0.066595201   -2.3759519   0.93411305   520346 
 2678000    1.0102318   -2.3748277   -2.3748277   -1.4409749  0.064102717   -2.3748277   0.93385279   520346 
 2679000    1.0114619   -2.3761971   -2.3761971   -1.4412072  0.075981292   -2.3761971    0.9349899   520346 
 2680000    1.0102452   -2.3745491   -2.3745491    -1.440684  0.071028191   -2.3745491   0.93386511   520346 
 2681000    1.0115511    -2.375853    -2.375853   -1.4407807  0.077007257    -2.375853   0.93507232   520346 
 2682000    1.0107647   -2.3754803   -2.3754803    -1.441135  0.060961718   -2.3754803   0.93434532   520346 
 2683000    1.0110597   -2.3758707   -2.3758707   -1.4412527  0.060270624   -2.3758707   0.93461805   520346 
 2684000    1.0103754   -2.3756265   -2.3756265    -1.441641  0.066566346   -2.3756265   0.93398552   520346 
 2685000    1.0115108   -2.3766941   -2.3766941    -1.441659  0.068809999   -2.3766941   0.93503509   520346 
 2686000    1.0102156   -2.3751195   -2.3751195   -1.4412817   0.06677405   -2.3751195   0.93383782   520346 
 2687000    1.0085137   -2.3737031   -2.3737031   -1.4414385  0.069224084   -2.3737031   0.93226455   520346 
 2688000     1.009508     -2.37524     -2.37524   -1.4420564  0.061086386     -2.37524   0.93318363   520346 
 2689000    1.0105318   -2.3762374   -2.3762374   -1.4421073   0.05640734   -2.3762374   0.93413009   520346 
 2690000    1.0097014   -2.3758079   -2.3758079   -1.4424455  0.070816147   -2.3758079   0.93336242   520346 
 2691000    1.0093368   -2.3754453   -2.3754453   -1.4424199   0.06562418   -2.3754453   0.93302541   520346 
 2692000    1.0120588   -2.3772341   -2.3772341   -1.4416925  0.062155467   -2.3772341   0.93554164   520346 
 2693000    1.0098189    -2.374353    -2.374353   -1.4408819  0.067350049    -2.374353   0.93347111   520346 
 2694000    1.0120999    -2.377143    -2.377143   -1.4415634  0.067388055    -2.377143   0.93557958   520346 
 2695000    1.0106545   -2.3752563   -2.3752563   -1.4410128  0.066216487   -2.3752563   0.93424347   520346 
 2696000    1.0099394   -2.3750952   -2.3750952   -1.4415127  0.085990936   -2.3750952   0.93358251   520346 
 2697000    1.0100618   -2.3750723   -2.3750723   -1.4413767   0.07442509   -2.3750723   0.93369559   520346 
 2698000    1.0101694   -2.3752088   -2.3752088   -1.4414137  0.060067967   -2.3752088   0.93379511   520346 
 2699000    1.0081973    -2.374179    -2.374179    -1.442207  0.062441267    -2.374179   0.93197205   520346 
 2700000    1.0095917   -2.3758108   -2.3758108   -1.4425497  0.061650821   -2.3758108   0.93326108   520346 
 2701000    1.0123894   -2.3777638   -2.3777638   -1.4419166  0.068525725   -2.3777638    0.9358472   520346 
 2702000    1.0107835   -2.3760779   -2.3760779   -1.4417152  0.068685722   -2.3760779    0.9343627   520346 
 2703000    1.0099316   -2.3745855   -2.3745855   -1.4410102  0.067061617   -2.3745855   0.93357528   520346 
 2704000    1.0103173   -2.3748033   -2.3748033   -1.4408715  0.067363879   -2.3748033    0.9339318   520346 
 2705000    1.0104231   -2.3748314   -2.3748314   -1.4408018  0.058263798   -2.3748314   0.93402958   520346 
 2706000    1.0102574   -2.3752581   -2.3752581   -1.4413817  0.067452869   -2.3752581   0.93387643   520346 
 2707000    1.0094753   -2.3748335   -2.3748335   -1.4416801  0.073566874   -2.3748335   0.93315341   520346 
 2708000    1.0121056   -2.3755709   -2.3755709    -1.439986  0.089474674   -2.3755709   0.93558493   520346 
 2709000    1.0120391   -2.3758613   -2.3758613   -1.4403379  0.062445611   -2.3758613   0.93552339   520346 
 2710000    1.0119357   -2.3756288   -2.3756288   -1.4402009  0.072220042   -2.3756288   0.93542787   520346 
 2711000    1.0098362    -2.373708    -2.373708   -1.4402209  0.084370602    -2.373708   0.93348709   520346 
 2712000    1.0097446   -2.3738769   -2.3738769   -1.4404745  0.064784346   -2.3738769   0.93340239   520346 
 2713000    1.0099967   -2.3745402   -2.3745402   -1.4409048  0.069649419   -2.3745402   0.93363539   520346 
 2714000    1.0105456   -2.3748286   -2.3748286   -1.4406857  0.065564997   -2.3748286   0.93414281   520346 
 2715000    1.0099771   -2.3742022   -2.3742022   -1.4405848  0.066908214   -2.3742022   0.93361733   520346 
 2716000    1.0100689   -2.3743415   -2.3743415   -1.4406393  0.075034033   -2.3743415   0.93370217   520346 
 2717000    1.0115352     -2.37483     -2.37483   -1.4397725  0.073801382     -2.37483   0.93505757   520346 
 2718000     1.011781   -2.3751966   -2.3751966   -1.4399117  0.064430158   -2.3751966   0.93528487   520346 
 2719000    1.0098315   -2.3731844   -2.3731844   -1.4397017  0.069450286   -2.3731844   0.93348274   520346 
 2720000     1.010806   -2.3753258   -2.3753258   -1.4409423  0.066688478   -2.3753258    0.9343835   520346 
 2721000    1.0088337   -2.3736918   -2.3736918   -1.4411314  0.072503179   -2.3736918   0.93256038   520346 
 2722000    1.0087044   -2.3732447   -2.3732447   -1.4408039  0.069881575   -2.3732447   0.93244082   520346 
 2723000    1.0098129   -2.3741615   -2.3741615    -1.440696  0.057892597   -2.3741615   0.93346557   520346 
 2724000    1.0092736    -2.374034    -2.374034    -1.441067  0.059403184    -2.374034   0.93296703   520346 
 2725000    1.0113228   -2.3756811   -2.3756811   -1.4408198  0.053967336   -2.3756811   0.93486128   520346 
 2726000    1.0096965   -2.3736852   -2.3736852   -1.4403272  0.064103084   -2.3736852   0.93335796   520346 
 2727000    1.0111644   -2.3755119   -2.3755119    -1.440797  0.073061499   -2.3755119   0.93471488   520346 
 2728000    1.0098548   -2.3742482   -2.3742482   -1.4407439  0.079944934   -2.3742482    0.9335043   520346 
 2729000     1.008766   -2.3726794   -2.3726794   -1.4401816  0.062205509   -2.3726794    0.9324978   520346 
 2730000    1.0099334   -2.3735387   -2.3735387   -1.4399618   0.05014386   -2.3735387    0.9335769   520346 
 2731000    1.0113378   -2.3741132   -2.3741132    -1.439238  0.059925475   -2.3741132   0.93487511   520346 
 2732000        1.011     -2.37413     -2.37413   -1.4395671  0.072297148     -2.37413   0.93456288   520346 
 2733000    1.0099623   -2.3731631   -2.3731631   -1.4395595  0.067038401   -2.3731631   0.93360361   520346 
 2734000    1.0112383   -2.3749593   -2.3749593   -1.4401761  0.064586994   -2.3749593    0.9347832   520346 
 2735000    1.0124526   -2.3754041   -2.3754041   -1.4394985  0.074528905   -2.3754041   0.93590565   520346 
 2736000    1.0123037   -2.3761557   -2.3761557   -1.4403877  0.076166537   -2.3761557   0.93576805   520346 
 2737000    1.0099775   -2.3744778   -2.3744778   -1.4408601  0.069950862   -2.3744778   0.93361767   520346 
 2738000     1.010488   -2.3754704   -2.3754704   -1.4413808   0.08575999   -2.3754704    0.9340896   520346 
 2739000    1.0103154   -2.3753437   -2.3753437   -1.4414137  0.071363403   -2.3753437      0.93393   520346 
 2740000    1.0115101   -2.3757224   -2.3757224    -1.440688  0.061568445   -2.3757224   0.93503443   520346 
 2741000    1.0105416   -2.3746515   -2.3746515   -1.4405123  0.066559248   -2.3746515   0.93413916   520346 
 2742000    1.0087386   -2.3734818   -2.3734818   -1.4410093  0.074905341   -2.3734818   0.93247249   520346 
 2743000    1.0091068   -2.3739368   -2.3739368   -1.4411239  0.074294247   -2.3739368   0.93281286   520346 
 2744000    1.0105311   -2.3758813   -2.3758813   -1.4417518  0.056726883   -2.3758813   0.93412945   520346 
 2745000    1.0085651   -2.3737583   -2.3737583   -1.4414463  0.077301137   -2.3737583   0.93231203   520346 
 2746000    1.0114631   -2.3764783   -2.3764783   -1.4414873  0.069761685   -2.3764783   0.93499099   520346 
 2747000    1.0103033   -2.3745358   -2.3745358   -1.4406169  0.062201012   -2.3745358   0.93391884   520346 
 2748000    1.0097058   -2.3753149   -2.3753149   -1.4419483  0.062751544   -2.3753149   0.93336654   520346 
 2749000    1.0097781   -2.3758456   -2.3758456   -1.4424123  0.066124616   -2.3758456   0.93343332   520346 
 2750000    1.0108414   -2.3763128   -2.3763128   -1.4418965  0.067676638   -2.3763128    0.9344163   520346 
 2751000    1.0095125   -2.3748199   -2.3748199   -1.4416321  0.066604031   -2.3748199   0.93318788   520346 
 2752000    1.0095007   -2.3759418   -2.3759418   -1.4427649   0.07688485   -2.3759418    0.9331769   520346 
 2753000     1.009691   -2.3762729   -2.3762729   -1.4429201  0.068968221   -2.3762729   0.93335282   520346 
 2754000    1.0093748   -2.3762359   -2.3762359   -1.4431753  0.061676734   -2.3762359   0.93306059   520346 
 2755000    1.0089063   -2.3765206   -2.3765206   -1.4438931  0.076877032   -2.3765206    0.9326275   520346 
 2756000    1.0104165   -2.3773095   -2.3773095    -1.443286  0.070843285   -2.3773095   0.93402348   520346 
 2757000    1.0094047   -2.3771883   -2.3771883      -1.4441  0.075950194   -2.3771883   0.93308823   520346 
 2758000     1.008412   -2.3765518   -2.3765518   -1.4443813  0.071198013   -2.3765518   0.93217054   520346 
 2759000    1.0089821   -2.3760729   -2.3760729   -1.4433754  0.065374408   -2.3760729   0.93269751   520346 
 2760000    1.0096365   -2.3765091   -2.3765091   -1.4432066  0.076229527   -2.3765091    0.9333025   520346 
 2761000    1.0092012   -2.3763551   -2.3763551   -1.4434551  0.076620701   -2.3763551   0.93290005   520346 
 2762000    1.0104281   -2.3774407   -2.3774407   -1.4434065  0.065668249   -2.3774407   0.93403417   520346 
 2763000    1.0110235   -2.3781593   -2.3781593   -1.4435746  0.075268531   -2.3781593   0.93458461   520346 
 2764000    1.0097384   -2.3772934   -2.3772934   -1.4438968  0.076552921   -2.3772934   0.93339663   520346 
 2765000     1.010782   -2.3784459   -2.3784459   -1.4440846  0.059506171   -2.3784459   0.93436134   520346 
 2766000    1.0124358   -2.3799519   -2.3799519   -1.4440617  0.083030775   -2.3799519   0.93589014   520346 
 2767000    1.0109775   -2.3792982   -2.3792982   -1.4447561  0.073956625   -2.3792982   0.93454205   520346 
 2768000    1.0079652   -2.3767635   -2.3767635    -1.445006  0.060504272   -2.3767635    0.9317575   520346 
 2769000      1.00828   -2.3774018   -2.3774018   -1.4453533  0.067482273   -2.3774018   0.93204849   520346 
 2770000    1.0075346   -2.3756085   -2.3756085    -1.444249  0.063468255   -2.3756085   0.93135951   520346 
 2771000    1.0081574    -2.376498    -2.376498   -1.4445628  0.071096589    -2.376498   0.93193517   520346 
 2772000    1.0098586   -2.3774769   -2.3774769   -1.4439691  0.067754386   -2.3774769   0.93350778   520346 
 2773000    1.0083977   -2.3756709   -2.3756709   -1.4435136  0.066084163   -2.3756709   0.93215731   520346 
 2774000    1.0082033   -2.3756582   -2.3756582   -1.4436806  0.063494155   -2.3756582   0.93197758   520346 
 2775000     1.008048   -2.3752179   -2.3752179   -1.4433839  0.057155702   -2.3752179   0.93183406   520346 
 2776000    1.0078889   -2.3748063   -2.3748063   -1.4431193  0.071435763   -2.3748063   0.93168701   520346 
 2777000    1.0087575   -2.3760799   -2.3760799     -1.44359  0.061728259   -2.3760799   0.93248996   520346 
 2778000    1.0078756   -2.3746042   -2.3746042   -1.4429294  0.078351815   -2.3746042   0.93167474   520346 
 2779000    1.0083639   -2.3748634   -2.3748634   -1.4427373   0.07431932   -2.3748634   0.93212607   520346 
 2780000    1.0106412   -2.3764498   -2.3764498   -1.4422186  0.071621853   -2.3764498    0.9342312   520346 
 2781000    1.0103762   -2.3764028   -2.3764028   -1.4424165  0.060732175   -2.3764028   0.93398626   520346 
 2782000    1.0094894   -2.3759956   -2.3759956   -1.4428291  0.072561364   -2.3759956   0.93316649   520346 
 2783000    1.0094212   -2.3756438   -2.3756438   -1.4425404  0.081900366   -2.3756438   0.93310346   520346 
 2784000    1.0110718   -2.3776033   -2.3776033    -1.442974  0.059808703   -2.3776033   0.93462927   520346 
 2785000    1.0099949   -2.3764543   -2.3764543   -1.4428205  0.065544151   -2.3764543   0.93363377   520346 
 2786000    1.0091097   -2.3741571   -2.3741571   -1.4413416  0.071035913   -2.3741571   0.93281554   520346 
 2787000    1.0092733   -2.3742991   -2.3742991   -1.4413324  0.077873069   -2.3742991   0.93296672   520346 
 2788000    1.0089744   -2.3741589   -2.3741589   -1.4414684  0.066291445   -2.3741589   0.93269047   520346 
 2789000    1.0083998   -2.3738397   -2.3738397   -1.4416804  0.068584408   -2.3738397   0.93215927   520346 
 2790000    1.0091417   -2.3750221   -2.3750221    -1.442177   0.06915812   -2.3750221   0.93284506   520346 
 2791000    1.0108503   -2.3764536   -2.3764536   -1.4420291   0.05851161   -2.3764536   0.93442446   520346 
 2792000    1.0095489   -2.3748304   -2.3748304    -1.441609  0.065197146   -2.3748304   0.93322145   520346 
 2793000    1.0102572   -2.3751893   -2.3751893   -1.4413131  0.062297391   -2.3751893    0.9338762   520346 
 2794000    1.0099985   -2.3740814   -2.3740814   -1.4404443  0.059740692   -2.3740814   0.93363709   520346 
 2795000    1.0073401   -2.3720561   -2.3720561   -1.4408763  0.064225093   -2.3720561   0.93117972   520346 
 2796000    1.0105251    -2.374568    -2.374568   -1.4404441  0.069304313    -2.374568   0.93412385   520346 
 2797000    1.0101656   -2.3748175   -2.3748175   -1.4410259  0.070497354   -2.3748175   0.93379159   520346 
 2798000    1.0094796   -2.3735002   -2.3735002   -1.4403428  0.073312374   -2.3735002    0.9331574   520346 
 2799000    1.0102826   -2.3749688   -2.3749688   -1.4410691  0.076408913   -2.3749688   0.93389974   520346 
 2800000    1.0102117   -2.3752671   -2.3752671   -1.4414329  0.080073058   -2.3752671   0.93383421   520346 
 2801000    1.0112288   -2.3768925   -2.3768925   -1.4421181  0.070126181   -2.3768925    0.9347744   520346 
 2802000    1.0115643   -2.3765878   -2.3765878   -1.4415033  0.060836047   -2.3765878   0.93508453   520346 
 2803000    1.0110702   -2.3765536   -2.3765536   -1.4419258  0.073199963   -2.3765536   0.93462773   520346 
 2804000    1.0124308   -2.3776755   -2.3776755     -1.44179  0.068816926   -2.3776755   0.93588548   520346 
 2805000    1.0099533   -2.3749432   -2.3749432   -1.4413479  0.076238844   -2.3749432   0.93359532   520346 
 2806000    1.0116254    -2.377344    -2.377344    -1.442203    0.0654551    -2.377344   0.93514101   520346 
 2807000     1.011101   -2.3752299   -2.3752299   -1.4405736  0.074216598   -2.3752299   0.93465625   520346 
 2808000    1.0090757   -2.3738572   -2.3738572   -1.4410731  0.085318559   -2.3738572   0.93278409   520346 
 2809000    1.0085638   -2.3740774   -2.3740774   -1.4417666  0.063085915   -2.3740774   0.93231084   520346 
 2810000     1.010758   -2.3759282   -2.3759282   -1.4415891  0.076811442   -2.3759282   0.93433916   520346 
 2811000    1.0094805   -2.3748285   -2.3748285   -1.4416702  0.055411542   -2.3748285   0.93315826   520346 
 2812000    1.0074536   -2.3731981   -2.3731981   -1.4419135  0.075380204   -2.3731981   0.93128464   520346 
 2813000    1.0073345   -2.3737018   -2.3737018   -1.4425273  0.077015759   -2.3737018   0.93117455   520346 
 2814000    1.0091518    -2.374821    -2.374821   -1.4419665  0.062007322    -2.374821   0.93285444   520346 
 2815000    1.0072551   -2.3740267   -2.3740267   -1.4429257  0.063098358   -2.3740267   0.93110108   520346 
 2816000    1.0090597   -2.3748134   -2.3748134   -1.4420442   0.07221415   -2.3748134   0.93276924   520346 
 2817000    1.0085766   -2.3748211   -2.3748211   -1.4424984  0.065283277   -2.3748211   0.93232268   520346 
 2818000    1.0099996   -2.3759231   -2.3759231   -1.4422849  0.054752877   -2.3759231   0.93363815   520346 
 2819000     1.007594   -2.3745132   -2.3745132   -1.4430988  0.066552606   -2.3745132   0.93141435   520346 
 2820000    1.0078306   -2.3740749   -2.3740749   -1.4424418  0.071214921   -2.3740749   0.93163308   520346 
 2821000    1.0076372   -2.3741024   -2.3741024   -1.4426481  0.064826085   -2.3741024   0.93145431   520346 
 2822000    1.0087965   -2.3755586   -2.3755586   -1.4430326  0.066349591   -2.3755586   0.93252598   520346 
 2823000    1.0095409   -2.3756441   -2.3756441     -1.44243  0.071251561   -2.3756441   0.93321407   520346 
 2824000     1.009044   -2.3754434   -2.3754434   -1.4426886  0.062594381   -2.3754434   0.93275476   520346 
 2825000    1.0104128    -2.376411    -2.376411   -1.4423909  0.075444017    -2.376411   0.93402004   520346 
 2826000    1.0084495   -2.3749279   -2.3749279   -1.4427227  0.087366865   -2.3749279   0.93220521   520346 
 2827000     1.010143   -2.3761583   -2.3761583   -1.4423876  0.075332039   -2.3761583   0.93377065   520346 
 2828000    1.0110087   -2.3770002   -2.3770002   -1.4424293  0.076510955   -2.3770002   0.93457093   520346 
 2829000    1.0110088   -2.3760746   -2.3760746   -1.4415036  0.082820665   -2.3760746     0.934571   520346 
 2830000    1.0110858   -2.3778811   -2.3778811   -1.4432388  0.080684679   -2.3778811   0.93464223   520346 
 2831000    1.0108728   -2.3769222   -2.3769222   -1.4424769  0.061563061   -2.3769222    0.9344453   520346 
 2832000    1.0108653   -2.3772409   -2.3772409   -1.4428025  0.069296471   -2.3772409   0.93443841   520346 
 2833000    1.0078193    -2.374505    -2.374505   -1.4428824  0.083896522    -2.374505   0.93162265   520346 
 2834000    1.0104247   -2.3764144   -2.3764144   -1.4423833  0.066832226   -2.3764144   0.93403105   520346 
 2835000    1.0097258   -2.3763157   -2.3763157   -1.4429307  0.056499199   -2.3763157   0.93338504   520346 
 2836000    1.0086106   -2.3761603   -2.3761603   -1.4438062  0.067698469   -2.3761603   0.93235414   520346 
 2837000    1.0098311   -2.3763305   -2.3763305   -1.4428481  0.070687229   -2.3763305   0.93348238   520346 
 2838000    1.0110871   -2.3772741   -2.3772741   -1.4426307  0.060110658   -2.3772741   0.93464342   520346 
 2839000    1.0094349   -2.3752215   -2.3752215   -1.4421054  0.066114356   -2.3752215    0.9331161   520346 
 2840000    1.0078048   -2.3749429   -2.3749429   -1.4433337  0.050725445   -2.3749429   0.93160921   520346 
 2841000    1.0083019   -2.3740499   -2.3740499   -1.4419812  0.061280027   -2.3740499   0.93206876   520346 
 2842000     1.009646   -2.3752514   -2.3752514   -1.4419401  0.059922448   -2.3752514   0.93331129   520346 
 2843000    1.0095703   -2.3748277   -2.3748277   -1.4415864  0.070733283   -2.3748277   0.93324124   520346 
 2844000    1.0105243   -2.3756614   -2.3756614   -1.4415383  0.065856951   -2.3756614   0.93412312   520346 
 2845000    1.0094537   -2.3742898   -2.3742898   -1.4411564  0.083106147   -2.3742898   0.93313344   520346 
 2846000    1.0076952    -2.373333    -2.373333    -1.441825  0.068074068    -2.373333   0.93150794   520346 
 2847000    1.0086054   -2.3747186   -2.3747186   -1.4423693  0.067171337   -2.3747186   0.93234931   520346 
 2848000    1.0094497    -2.375717    -2.375717   -1.4425873  0.074126748    -2.375717   0.93312974   520346 
 2849000    1.0103838   -2.3767641   -2.3767641   -1.4427708  0.072728635   -2.3767641   0.93399322   520346 
 2850000    1.0108193    -2.377419    -2.377419   -1.4430232  0.053326867    -2.377419   0.93439585   520346 
 2851000    1.0077224   -2.3751265   -2.3751265   -1.4435934  0.052855633   -2.3751265   0.93153305   520346 
 2852000    1.0077586      -2.3754      -2.3754   -1.4438334  0.072617811      -2.3754   0.93156656   520346 
 2853000     1.007694   -2.3753618   -2.3753618   -1.4438551  0.054266968   -2.3753618   0.93150678   520346 
 2854000    1.0089759   -2.3771571   -2.3771571   -1.4444653  0.070477614   -2.3771571   0.93269181   520346 
 2855000    1.0097143   -2.3774475   -2.3774475   -1.4440731  0.061333039   -2.3774475   0.93337439   520346 
 2856000    1.0090163   -2.3757033   -2.3757033   -1.4429741  0.075257367   -2.3757033    0.9327292   520346 
 2857000    1.0081522   -2.3753133   -2.3753133   -1.4433829  0.069601835   -2.3753133   0.93193041   520346 
 2858000    1.0091522   -2.3765659   -2.3765659   -1.4437111  0.063762516   -2.3765659   0.93285481   520346 
 2859000    1.0093165   -2.3764452   -2.3764452   -1.4434386  0.071317105   -2.3764452   0.93300664   520346 
 2860000    1.0091054   -2.3766322   -2.3766322   -1.4438206  0.056860772   -2.3766322   0.93281153   520346 
 2861000    1.0095478   -2.3769773   -2.3769773   -1.4437568  0.065389938   -2.3769773   0.93322048   520346 
 2862000    1.0078537   -2.3762266   -2.3762266   -1.4445721  0.074172192   -2.3762266   0.93165446   520346 
 2863000    1.0079673     -2.37608     -2.37608   -1.4443205  0.067235988     -2.37608    0.9317595   520346 
 2864000    1.0082104   -2.3762487   -2.3762487   -1.4442645  0.072853452   -2.3762487   0.93198416   520346 
 2865000    1.0072734   -2.3753384   -2.3753384   -1.4442203  0.068777576   -2.3753384   0.93111807   520346 
 2866000    1.0078691   -2.3759129   -2.3759129   -1.4442443  0.057860073   -2.3759129   0.93166869   520346 
 2867000    1.0076484   -2.3749458   -2.3749458   -1.4434811  0.070760669   -2.3749458   0.93146466   520346 
 2868000    1.0093322    -2.377137    -2.377137   -1.4441158  0.063487381    -2.377137   0.93302121   520346 
 2869000     1.009378   -2.3770161   -2.3770161   -1.4439526  0.068008291   -2.3770161   0.93306353   520346 
 2870000     1.009097   -2.3763214   -2.3763214   -1.4435176  0.061589631   -2.3763214   0.93280372   520346 
 2871000    1.0082144   -2.3764722   -2.3764722   -1.4444844  0.057579583   -2.3764722   0.93198789   520346 
 2872000    1.0067381   -2.3749354   -2.3749354   -1.4443122  0.068797948   -2.3749354   0.93062323   520346 
 2873000    1.0096693   -2.3779498   -2.3779498    -1.444617  0.058331185   -2.3779498   0.93333276   520346 
 2874000    1.0067955   -2.3754171   -2.3754171   -1.4447408  0.075744434   -2.3754171    0.9306763   520346 
 2875000    1.0057916   -2.3746047   -2.3746047   -1.4448564  0.068472908   -2.3746047    0.9297483   520346 
 2876000    1.0081628   -2.3763907   -2.3763907   -1.4444505   0.07018332   -2.3763907   0.93194019   520346 
 2877000    1.0090949   -2.3768668   -2.3768668   -1.4440649  0.066951955   -2.3768668   0.93280184   520346 
 2878000     1.008555   -2.3765434   -2.3765434   -1.4442406  0.065528231   -2.3765434   0.93230276   520346 
 2879000    1.0086432   -2.3757485   -2.3757485   -1.4433643  0.060966946   -2.3757485   0.93238422   520346 
 2880000    1.0079087   -2.3751843   -2.3751843    -1.443479  0.068343162   -2.3751843   0.93170533   520346 
 2881000    1.0091173   -2.3757187   -2.3757187   -1.4428963   0.07276726   -2.3757187   0.93282248   520346 
 2882000    1.0116191   -2.3770872   -2.3770872    -1.441952  0.075871179   -2.3770872    0.9351352   520346 
 2883000    1.0089617   -2.3757913   -2.3757913   -1.4431126  0.080376017   -2.3757913   0.93267872   520346 
 2884000     1.011355   -2.3771138   -2.3771138   -1.4422228  0.076096068   -2.3771138   0.93489102   520346 
 2885000    1.0077609   -2.3745318   -2.3745318   -1.4429631  0.081318389   -2.3745318   0.93156872   520346 
 2886000    1.0105388   -2.3772504   -2.3772504   -1.4431139  0.066838042   -2.3772504   0.93413654   520346 
 2887000    1.0092485   -2.3765471   -2.3765471   -1.4436034  0.063838294   -2.3765471   0.93294376   520346 
 2888000    1.0098198   -2.3768425   -2.3768425   -1.4433705  0.077131823   -2.3768425   0.93347195   520346 
 2889000    1.0104839   -2.3762738   -2.3762738    -1.442188  0.065804645   -2.3762738   0.93408576   520346 
 2890000    1.0097226   -2.3758956   -2.3758956   -1.4425136  0.062855715   -2.3758956   0.93338204   520346 
 2891000     1.007837   -2.3739606   -2.3739606   -1.4423216   0.06354425   -2.3739606     0.931639   520346 
 2892000    1.0084166   -2.3749691   -2.3749691   -1.4427943  0.072488711   -2.3749691   0.93217478   520346 
 2893000    1.0088229   -2.3757863   -2.3757863   -1.4432359  0.066753066   -2.3757863   0.93255038   520346 
 2894000    1.0092334   -2.3756672   -2.3756672   -1.4427373  0.077252501   -2.3756672   0.93292986   520346 
 2895000     1.009011   -2.3756511   -2.3756511   -1.4429268  0.064767959   -2.3756511   0.93272429   520346 
 2896000    1.0061618   -2.3750197   -2.3750197   -1.4449292   0.06216325   -2.3750197   0.93009048   520346 
 2897000    1.0077584   -2.3757796   -2.3757796   -1.4442132  0.064951919   -2.3757796    0.9315664   520346 
 2898000    1.0097973   -2.3777993   -2.3777993   -1.4443482  0.067550392   -2.3777993    0.9334511   520346 
 2899000    1.0090222   -2.3757729   -2.3757729   -1.4430382  0.070374694   -2.3757729   0.93273465   520346 
 2900000    1.0077016   -2.3749866   -2.3749866   -1.4434727  0.069279753   -2.3749866   0.93151389   520346 
 2901000     1.011372   -2.3777191   -2.3777191   -1.4428123  0.074571367   -2.3777191   0.93490675   520346 
 2902000    1.0095478   -2.3759704   -2.3759704     -1.44275  0.059892991   -2.3759704   0.93322046   520346 
 2903000    1.0111123   -2.3772382   -2.3772382   -1.4425716  0.067917943   -2.3772382   0.93466667   520346 
 2904000    1.0105245   -2.3773023   -2.3773023   -1.4431789  0.072212239   -2.3773023   0.93412334   520346 
 2905000    1.0106121   -2.3771434   -2.3771434   -1.4429392  0.067661983   -2.3771434   0.93420427   520346 
 2906000    1.0076595   -2.3749465   -2.3749465   -1.4434716  0.073411423   -2.3749465    0.9314749   520346 
 2907000    1.0089009   -2.3763781   -2.3763781   -1.4437556  0.070191769   -2.3763781   0.93262244   520346 
 2908000    1.0098234   -2.3769539   -2.3769539   -1.4434787  0.075031784   -2.3769539   0.93347521   520346 
 2909000    1.0113152   -2.3774868   -2.3774868   -1.4426325   0.06022088   -2.3774868   0.93485429   520346 
 2910000    1.0095901   -2.3757533   -2.3757533   -1.4424938  0.077664837   -2.3757533   0.93325956   520346 
 2911000    1.0094903   -2.3761997   -2.3761997   -1.4430324  0.070475841   -2.3761997   0.93316731   520346 
 2912000    1.0100332   -2.3767473   -2.3767473   -1.4430782  0.053687715   -2.3767473   0.93366918   520346 
 2913000     1.008535    -2.376062    -2.376062   -1.4437777  0.061003349    -2.376062   0.93228428   520346 
 2914000    1.0086826   -2.3759343   -2.3759343   -1.4435136  0.064599548   -2.3759343   0.93242068   520346 
 2915000    1.0066359   -2.3746474   -2.3746474   -1.4441187  0.058455953   -2.3746474    0.9305287   520346 
 2916000    1.0068303   -2.3748247   -2.3748247   -1.4441163  0.067507404   -2.3748247   0.93070842   520346 
 2917000    1.0089156   -2.3762502   -2.3762502   -1.4436141  0.058887701   -2.3762502   0.93263607   520346 
 2918000    1.0086077   -2.3756824   -2.3756824    -1.443331  0.067487376   -2.3756824   0.93235142   520346 
 2919000    1.0083572   -2.3754296   -2.3754296   -1.4433096  0.060211802   -2.3754296   0.93211993   520346 
 2920000    1.0065138   -2.3744156   -2.3744156   -1.4439997  0.076977704   -2.3744156   0.93041587   520346 
 2921000    1.0079024   -2.3754086   -2.3754086   -1.4437091  0.066878601   -2.3754086   0.93169947   520346 
 2922000    1.0077784   -2.3759634   -2.3759634   -1.4443785  0.065405991   -2.3759634   0.93158487   520346 
 2923000    1.0069657   -2.3747193   -2.3747193   -1.4438857  0.058091675   -2.3747193   0.93083357   520346 
 2924000    1.0074577   -2.3754941   -2.3754941   -1.4442057  0.067395716   -2.3754941   0.93128842   520346 
 2925000    1.0063774   -2.3746139   -2.3746139   -1.4443241  0.060158353   -2.3746139    0.9302898   520346 
 2926000    1.0088887   -2.3760411   -2.3760411   -1.4434299    0.0592218   -2.3760411   0.93261124   520346 
 2927000    1.0085655   -2.3759932   -2.3759932   -1.4436808  0.075153305   -2.3759932   0.93231245   520346 
 2928000    1.0107094   -2.3777576   -2.3777576   -1.4434634  0.072429172   -2.3777576   0.93429428   520346 
 2929000    1.0097041   -2.3776283   -2.3776283   -1.4442634  0.052720818   -2.3776283   0.93336496   520346 
 2930000    1.0106792   -2.3784787   -2.3784787   -1.4442124  0.068118125   -2.3784787   0.93426633   520346 
 2931000    1.0099493   -2.3776899   -2.3776899   -1.4440982  0.069075901   -2.3776899   0.93359165   520346 
 2932000    1.0087043   -2.3768503   -2.3768503   -1.4444095  0.075142896   -2.3768503   0.93244077   520346 
 2933000    1.0102562   -2.3774823   -2.3774823    -1.443607  0.063907333   -2.3774823   0.93387528   520346 
 2934000    1.0088453   -2.3771098   -2.3771098   -1.4445388  0.070232996   -2.3771098   0.93257107   520346 
 2935000    1.0104629   -2.3785412   -2.3785412   -1.4444748   0.07042152   -2.3785412    0.9340664   520346 
 2936000    1.0108789   -2.3782349   -2.3782349   -1.4437839  0.062977524   -2.3782349   0.93445096   520346 
 2937000     1.007785   -2.3757001   -2.3757001   -1.4441092   0.06828898   -2.3757001   0.93159094   520346 
 2938000    1.0088713   -2.3772885   -2.3772885   -1.4446934  0.066395988   -2.3772885   0.93259511   520346 
 2939000    1.0083109   -2.3766955   -2.3766955   -1.4446183  0.061750395   -2.3766955   0.93207713   520346 
 2940000    1.0068839   -2.3760747   -2.3760747   -1.4453168  0.064409682   -2.3760747   0.93075796   520346 
 2941000    1.0063923   -2.3765258   -2.3765258   -1.4462222  0.065502421   -2.3765258   0.93030352   520346 
 2942000    1.0056357   -2.3761443   -2.3761443   -1.4465402  0.070533312   -2.3761443   0.92960414   520346 
 2943000    1.0054566   -2.3761445   -2.3761445   -1.4467059  0.056615986   -2.3761445   0.92943862   520346 
 2944000    1.0074139   -2.3777005   -2.3777005   -1.4464526  0.072436995   -2.3777005   0.93124791   520346 
 2945000    1.0076883   -2.3782775   -2.3782775   -1.4467759   0.05668841   -2.3782775   0.93150159   520346 
 2946000    1.0085102   -2.3783036   -2.3783036   -1.4460422  0.076018962   -2.3783036   0.93226133   520346 
 2947000    1.0087276   -2.3782579   -2.3782579   -1.4457956  0.069810962   -2.3782579   0.93246225   520346 
 2948000    1.0085788   -2.3776055   -2.3776055   -1.4452807  0.063746859   -2.3776055   0.93232478   520346 
 2949000    1.0088045   -2.3780898   -2.3780898   -1.4455564  0.078927514   -2.3780898   0.93253339   520346 
 2950000    1.0101741   -2.3789616   -2.3789616   -1.4451621  0.060343524   -2.3789616   0.93379945   520346 
 2951000     1.008704   -2.3777889   -2.3777889   -1.4453484  0.067293597   -2.3777889    0.9324405   520346 
 2952000    1.0074843   -2.3774959   -2.3774959   -1.4461829   0.06906717   -2.3774959   0.93131296   520346 
 2953000    1.0076678   -2.3770319   -2.3770319   -1.4455493  0.068471661   -2.3770319    0.9314826   520346 
 2954000    1.0076151   -2.3769837   -2.3769837   -1.4455498   0.07349942   -2.3769837   0.93143389   520346 
 2955000    1.0086443    -2.377647    -2.377647   -1.4452617  0.072704172    -2.377647   0.93238526   520346 
 2956000    1.0078766   -2.3769237   -2.3769237   -1.4452481  0.066016076   -2.3769237    0.9316756   520346 
 2957000    1.0070131   -2.3759045   -2.3759045   -1.4450271  0.069300516   -2.3759045   0.93087738   520346 
 2958000    1.0074521   -2.3763267   -2.3763267   -1.4450435  0.076656097   -2.3763267   0.93128322   520346 
 2959000    1.0077871   -2.3762056   -2.3762056   -1.4446127  0.079901489   -2.3762056   0.93159292   520346 
 2960000    1.0078473   -2.3755076   -2.3755076   -1.4438591  0.071722469   -2.3755076    0.9316485   520346 
 2961000     1.008078   -2.3759731   -2.3759731   -1.4441113  0.058061507   -2.3759731   0.93186183   520346 
 2962000    1.0056874   -2.3742711   -2.3742711   -1.4446191  0.076262824   -2.3742711   0.92965192   520346 
 2963000    1.0071988    -2.375569    -2.375569   -1.4445199  0.077897501    -2.375569   0.93104906   520346 
 2964000    1.0082142   -2.3762536   -2.3762536   -1.4442659  0.067823764   -2.3762536   0.93198769   520346 
 2965000    1.0074691   -2.3752335   -2.3752335   -1.4439346  0.068488611   -2.3752335   0.93129894   520346 
 2966000    1.0085412   -2.3758729   -2.3758729   -1.4435829  0.056603995   -2.3758729      0.93229   520346 
 2967000    1.0100379   -2.3776049   -2.3776049   -1.4439314  0.063403281   -2.3776049   0.93367353   520346 
 2968000    1.0086796   -2.3760601   -2.3760601   -1.4436422  0.063905268   -2.3760601    0.9324179   520346 
 2969000    1.0089498    -2.376544    -2.376544   -1.4438763  0.057352852    -2.376544   0.93266768   520346 
 2970000     1.009645    -2.377052    -2.377052   -1.4437416  0.068936835    -2.377052   0.93331036   520346 
 2971000    1.0096913   -2.3763662   -2.3763662    -1.443013  0.068584923   -2.3763662   0.93335317   520346 
 2972000     1.008722    -2.376143    -2.376143   -1.4436859  0.061548592    -2.376143   0.93245712   520346 
 2973000     1.009813   -2.3765232   -2.3765232   -1.4430575  0.062218395   -2.3765232   0.93346566   520346 
 2974000    1.0089203   -2.3753434   -2.3753434   -1.4427031  0.060004018   -2.3753434   0.93264037   520346 
 2975000    1.0096092    -2.376527    -2.376527   -1.4432497  0.060463053    -2.376527   0.93327722   520346 
 2976000    1.0070852   -2.3744057   -2.3744057   -1.4434616  0.059330656   -2.3744057    0.9309441   520346 
 2977000    1.0080174   -2.3751203   -2.3751203   -1.4433145  0.064671433   -2.3751203   0.93180575   520346 
 2978000      1.00983   -2.3765665   -2.3765665   -1.4430852  0.059495575   -2.3765665    0.9334813   520346 
 2979000    1.0075387   -2.3751119   -2.3751119   -1.4437486  0.074283742   -2.3751119   0.93136324   520346 
 2980000    1.0082413   -2.3752449   -2.3752449   -1.4432321  0.060300146   -2.3752449   0.93201275   520346 
 2981000     1.008014   -2.3753628   -2.3753628   -1.4435602  0.069307457   -2.3753628   0.93180262   520346 
 2982000    1.0104634   -2.3775007   -2.3775007   -1.4434339  0.071491159   -2.3775007   0.93406681   520346 
 2983000    1.0082489   -2.3753189   -2.3753189   -1.4432991  0.070704743   -2.3753189   0.93201981   520346 
 2984000    1.0094951   -2.3762283   -2.3762283   -1.4430565  0.061042035   -2.3762283   0.93317173   520346 
 2985000    1.0105318   -2.3771863   -2.3771863   -1.4430562  0.073768119   -2.3771863   0.93413008   520346 
 2986000    1.0118961   -2.3780374   -2.3780374   -1.4426462  0.059596947   -2.3780374   0.93539118   520346 
 2987000    1.0104152   -2.3764669   -2.3764669   -1.4424446  0.073397851   -2.3764669   0.93402226   520346 
 2988000    1.0117569   -2.3784586   -2.3784586   -1.4431961  0.064212434   -2.3784586   0.93526255   520346 
 2989000    1.0101352   -2.3762744   -2.3762744   -1.4425109  0.066882152   -2.3762744   0.93376346   520346 
 2990000    1.0104142   -2.3770491   -2.3770491   -1.4430277  0.062476234   -2.3770491   0.93402137   520346 
 2991000    1.0093399   -2.3759132   -2.3759132    -1.442885  0.062532548   -2.3759132   0.93302826   520346 
 2992000    1.0071812   -2.3744336   -2.3744336   -1.4434008  0.077166783   -2.3744336   0.93103284   520346 
 2993000    1.0084953   -2.3763631   -2.3763631   -1.4441156  0.074668189   -2.3763631   0.93224751   520346 
 2994000    1.0089286   -2.3775545   -2.3775545   -1.4449064  0.072475417   -2.3775545    0.9326481   520346 
 2995000    1.0069579   -2.3769294   -2.3769294    -1.446103  0.060571671   -2.3769294   0.93082639   520346 
 2996000    1.0078389   -2.3771913   -2.3771913   -1.4455505  0.062753109   -2.3771913   0.93164077   520346 
 2997000    1.0091689   -2.3781571   -2.3781571   -1.4452868  0.050759847   -2.3781571   0.93287022   520346 
 2998000    1.0074566   -2.3766982   -2.3766982   -1.4454109  0.064675075   -2.3766982   0.93128736   520346 
 2999000    1.0092299   -2.3786041   -2.3786041   -1.4456776  0.064543791   -2.3786041   0.93292657   520346 
 3000000    1.0095928   -2.3781175   -2.3781175   -1.4448555  0.076516033   -2.3781175   0.93326204   520346 
 3001000    1.0112151   -2.3789236   -2.3789236   -1.4441619  0.072215922   -2.3789236   0.93476168   520346 
 3002000    1.0098109   -2.3777287   -2.3777287   -1.4442651  0.077004395   -2.3777287   0.93346364   520346 
 3003000     1.011578   -2.3791469   -2.3791469   -1.4440497  0.064503165   -2.3791469   0.93509714   520346 
 3004000    1.0097269   -2.3786346   -2.3786346   -1.4452486  0.056820148   -2.3786346   0.93338605   520346 
 3005000    1.0079042   -2.3784245   -2.3784245   -1.4467233  0.062456045   -2.3784245   0.93170116   520346 
 3006000    1.0092682   -2.3794813   -2.3794813   -1.4465193  0.064718943   -2.3794813   0.93296202   520346 
 3007000    1.0086911   -2.3787916   -2.3787916   -1.4463631  0.057845436   -2.3787916   0.93242851   520346 
 3008000    1.0085374   -2.3787768   -2.3787768   -1.4464904  0.072082404   -2.3787768   0.93228645   520346 
 3009000    1.0089778   -2.3787079   -2.3787079   -1.4460143   0.07351935   -2.3787079    0.9326936   520346 
 3010000    1.0105709   -2.3800135   -2.3800135   -1.4458473  0.066810162   -2.3800135   0.93416617   520346 
 3011000    1.0116053   -2.3803175   -2.3803175   -1.4451951  0.070116059   -2.3803175    0.9351224   520346 
 3012000    1.0118391   -2.3810951   -2.3810951   -1.4457566  0.068975535   -2.3810951    0.9353385   520346 
 3013000     1.009857    -2.378728    -2.378728   -1.4452218  0.066994944    -2.378728   0.93350627   520346 
 3014000    1.0092461    -2.378566    -2.378566   -1.4456245  0.068578035    -2.378566   0.93294154   520346 
 3015000    1.0083755   -2.3782099   -2.3782099   -1.4460731  0.055575793   -2.3782099   0.93213683   520346 
 3016000    1.0080736   -2.3773932   -2.3773932   -1.4455354  0.073869302   -2.3773932   0.93185777   520346 
 3017000    1.0104069   -2.3799988   -2.3799988   -1.4459841  0.061121654   -2.3799988   0.93401466   520346 
 3018000    1.0085804   -2.3783117   -2.3783117   -1.4459855   0.07415514   -2.3783117   0.93232621   520346 
 3019000    1.0099096   -2.3789861   -2.3789861   -1.4454312  0.068020895   -2.3789861    0.9335549   520346 
 3020000    1.0090424   -2.3774766   -2.3774766   -1.4447233  0.068271647   -2.3774766   0.93275328   520346 
 3021000    1.0093734   -2.3779207   -2.3779207   -1.4448614   0.06499483   -2.3779207   0.93305926   520346 
 3022000    1.0089367   -2.3784902   -2.3784902   -1.4458346  0.064596484   -2.3784902   0.93265562   520346 
 3023000    1.0084156   -2.3771044   -2.3771044   -1.4449305  0.064359618   -2.3771044   0.93217389   520346 
 3024000    1.0095886   -2.3779223   -2.3779223   -1.4446641  0.068134708   -2.3779223   0.93325822   520346 
 3025000    1.0082467   -2.3765279   -2.3765279   -1.4445102  0.063717044   -2.3765279   0.93201771   520346 
 3026000    1.0092041   -2.3772078   -2.3772078    -1.444305   0.06393331   -2.3772078   0.93290279   520346 
 3027000    1.0086236   -2.3770596   -2.3770596   -1.4446935  0.063554913   -2.3770596   0.93236612   520346 
 3028000    1.0082689   -2.3761086   -2.3761086   -1.4440703  0.077080071   -2.3761086   0.93203826   520346 
 3029000    1.0081097   -2.3765889   -2.3765889   -1.4446978  0.065240052   -2.3765889   0.93189112   520346 
 3030000    1.0064459   -2.3755528   -2.3755528   -1.4451997  0.074051791   -2.3755528   0.93035308   520346 
 3031000    1.0079659   -2.3773307   -2.3773307   -1.4455725  0.072878827   -2.3773307   0.93175814   520346 
 3032000    1.0088444   -2.3779541   -2.3779541   -1.4453838  0.074939392   -2.3779541   0.93257028   520346 
 3033000    1.0093962   -2.3788697   -2.3788697   -1.4457894  0.063675145   -2.3788697   0.93308033   520346 
 3034000    1.0085659   -2.3783792   -2.3783792   -1.4460664  0.068326897   -2.3783792   0.93231283   520346 
 3035000    1.0102701   -2.3791223   -2.3791223   -1.4452341  0.067661801   -2.3791223   0.93388815   520346 
 3036000    1.0070523   -2.3767627   -2.3767627    -1.445849  0.074966854   -2.3767627   0.93091367   520346 
 3037000    1.0080947   -2.3772039   -2.3772039   -1.4453267  0.063822848   -2.3772039   0.93187723   520346 
 3038000    1.0087616   -2.3785002   -2.3785002   -1.4460065  0.071647988   -2.3785002   0.93249375   520346 
 3039000    1.0089151   -2.3794793   -2.3794793   -1.4468437  0.066152677   -2.3794793   0.93263563   520346 
 3040000    1.0089374   -2.3785105   -2.3785105   -1.4458543  0.064014292   -2.3785105   0.93265619   520346 
 3041000    1.0096276   -2.3791996   -2.3791996   -1.4459054  0.082179491   -2.3791996   0.93329427   520346 
 3042000     1.011802   -2.3811078   -2.3811078   -1.4458036  0.070994791   -2.3811078   0.93530423   520346 
 3043000     1.009962   -2.3798008   -2.3798008   -1.4461974  0.063025441   -2.3798008   0.93360334   520346 
 3044000    1.0099163   -2.3793725   -2.3793725   -1.4458114  0.071633121   -2.3793725   0.93356113   520346 
 3045000    1.0112141   -2.3815842   -2.3815842   -1.4468235  0.075337134   -2.3815842   0.93476077   520346 
 3046000     1.008552   -2.3785314   -2.3785314   -1.4462315  0.071853015   -2.3785314   0.93229992   520346 
 3047000    1.0101268   -2.3795285   -2.3795285   -1.4457728  0.069295428   -2.3795285   0.93375572   520346 
 3048000    1.0106683   -2.3794436   -2.3794436   -1.4451873  0.065239835   -2.3794436   0.93425623   520346 
 3049000    1.0079962    -2.377236    -2.377236   -1.4454498  0.077492543    -2.377236   0.93178615   520346 
 3050000     1.008239   -2.3783169   -2.3783169   -1.4463062  0.083703654   -2.3783169   0.93201062   520346 
 3051000    1.0081642   -2.3790023   -2.3790023   -1.4470609  0.057874932   -2.3790023   0.93194147   520346 
 3052000    1.0080131    -2.378013    -2.378013   -1.4462113  0.065513935    -2.378013   0.93180177   520346 
 3053000     1.009623   -2.3789247   -2.3789247   -1.4456347  0.071369635   -2.3789247   0.93328998   520346 
 3054000    1.0073594   -2.3773514   -2.3773514   -1.4461539  0.061212949   -2.3773514   0.93119751   520346 
 3055000    1.0067579   -2.3760661   -2.3760661   -1.4454246  0.055664695   -2.3760661   0.93064153   520346 
 3056000    1.0069486   -2.3763263   -2.3763263   -1.4455086  0.061568683   -2.3763263   0.93081776   520346 
 3057000     1.006306   -2.3762269   -2.3762269   -1.4460031  0.062644459   -2.3762269   0.93022377   520346 
 3058000    1.0055946   -2.3751868   -2.3751868   -1.4456207  0.067023672   -2.3751868   0.92956615   520346 
 3059000    1.0095563    -2.379094    -2.379094   -1.4458657  0.065251061    -2.379094    0.9332283   520346 
 3060000    1.0068862   -2.3754234   -2.3754234   -1.4446632  0.073061877   -2.3754234   0.93076014   520346 
 3061000    1.0085793   -2.3779798   -2.3779798   -1.4456546  0.063963628   -2.3779798   0.93232518   520346 
 3062000    1.0073189   -2.3773223   -2.3773223   -1.4461623  0.060453387   -2.3773223   0.93116005   520346 
 3063000    1.0088921   -2.3783863   -2.3783863    -1.445772  0.068658479   -2.3783863    0.9326143   520346 
 3064000     1.008446   -2.3775077   -2.3775077   -1.4453058  0.060879491   -2.3775077   0.93220196   520346 
 3065000    1.0081426   -2.3771992   -2.3771992   -1.4452777  0.056989326   -2.3771992   0.93192148   520346 
 3066000     1.008965   -2.3765905   -2.3765905   -1.4439088  0.076431793   -2.3765905    0.9326817   520346 
 3067000    1.0090278   -2.3767767   -2.3767767   -1.4440369  0.081108566   -2.3767767   0.93273978   520346 
 3068000    1.0104898   -2.3788269   -2.3788269   -1.4447356   0.07310323   -2.3788269   0.93409127   520346 
 3069000    1.0110418   -2.3793226   -2.3793226    -1.444721  0.061713727   -2.3793226   0.93460153   520346 
 3070000    1.0103095   -2.3789935   -2.3789935   -1.4450689  0.061435256   -2.3789935   0.93392462   520346 
 3071000    1.0092851   -2.3782365   -2.3782365   -1.4452588   0.07184418   -2.3782365   0.93297766   520346 
 3072000     1.006572   -2.3757003   -2.3757003   -1.4452307  0.063358893   -2.3757003   0.93046969   520346 
 3073000    1.0070469   -2.3762945   -2.3762945   -1.4453858  0.074474774   -2.3762945    0.9309087   520346 
 3074000    1.0090083   -2.3777393   -2.3777393   -1.4450175  0.059770084   -2.3777393   0.93272174   520346 
 3075000    1.0074757   -2.3765735   -2.3765735   -1.4452685  0.054010145   -2.3765735   0.93130501   520346 
 3076000    1.0090566   -2.3776384   -2.3776384    -1.444872  0.062927431   -2.3776384    0.9327664   520346 
 3077000    1.0087998    -2.376489    -2.376489     -1.44396  0.062441676    -2.376489   0.93252901   520346 
 3078000    1.0098099   -2.3773519   -2.3773519   -1.4438892  0.073651657   -2.3773519   0.93346278   520346 
 3079000    1.0082263   -2.3755614   -2.3755614   -1.4435625  0.077543895   -2.3755614   0.93199884   520346 
 3080000    1.0103647   -2.3765507   -2.3765507   -1.4425751  0.066929125   -2.3765507   0.93397558   520346 
 3081000    1.0128827   -2.3777557   -2.3777557   -1.4414524  0.068914579   -2.3777557   0.93630328   520346 
 3082000    1.0112171   -2.3753707   -2.3753707   -1.4406072    0.0869588   -2.3753707   0.93476354   520346 
 3083000    1.0118829   -2.3767585   -2.3767585   -1.4413794   0.06740716   -2.3767585   0.93537904   520346 
 3084000    1.0110973   -2.3758385   -2.3758385   -1.4411856  0.078231225   -2.3758385   0.93465284   520346 
 3085000    1.0103839   -2.3757928   -2.3757928   -1.4417995  0.067823839   -2.3757928   0.93399334   520346 
 3086000    1.0100698   -2.3750154   -2.3750154   -1.4413124  0.073489634   -2.3750154   0.93370302   520346 
 3087000    1.0105488   -2.3751994   -2.3751994   -1.4410536  0.070060269   -2.3751994   0.93414576   520346 
 3088000    1.0104953   -2.3749742   -2.3749742   -1.4408779  0.067142061   -2.3749742   0.93409636   520346 
 3089000    1.0102236   -2.3745859   -2.3745859   -1.4407407  0.064707696   -2.3745859   0.93384521   520346 
 3090000    1.0085571   -2.3738174   -2.3738174   -1.4415127  0.068133455   -2.3738174   0.93230471   520346 
 3091000    1.0073753   -2.3735385   -2.3735385   -1.4423263  0.069594445   -2.3735385   0.93121222   520346 
 3092000    1.0087745   -2.3744738   -2.3744738   -1.4419681  0.064209293   -2.3744738   0.93250563   520346 
 3093000    1.0087603   -2.3744809   -2.3744809   -1.4419884  0.061747889   -2.3744809   0.93249253   520346 
 3094000    1.0097357   -2.3750886   -2.3750886   -1.4416945  0.054600882   -2.3750886   0.93339417   520346 
 3095000    1.0059507   -2.3725925   -2.3725925   -1.4426972  0.067113595   -2.3725925   0.92989535   520346 
 3096000    1.0078826   -2.3745209   -2.3745209   -1.4428397  0.070023958   -2.3745209   0.93168122   520346 
 3097000    1.0097239   -2.3762602   -2.3762602    -1.442877   0.06755546   -2.3762602   0.93338323   520346 
 3098000    1.0095454   -2.3757071   -2.3757071   -1.4424889  0.073426366   -2.3757071   0.93321821   520346 
 3099000    1.0112883   -2.3771294   -2.3771294      -1.4423    0.0674783   -2.3771294   0.93482942   520346 
 3100000    1.0093146   -2.3757029   -2.3757029    -1.442698  0.059071731   -2.3757029    0.9330049   520346 
 3101000    1.0094671   -2.3760126   -2.3760126   -1.4428667  0.072065221   -2.3760126   0.93314583   520346 
 3102000    1.0097597   -2.3765453   -2.3765453   -1.4431289  0.072370088   -2.3765453   0.93341639   520346 
 3103000    1.0106558   -2.3773965   -2.3773965   -1.4431518  0.073227171   -2.3773965   0.93424472   520346 
 3104000    1.0119949   -2.3791924   -2.3791924   -1.4437098  0.062998809   -2.3791924   0.93548257   520346 
 3105000    1.0105821   -2.3787046   -2.3787046   -1.4445281  0.067498624   -2.3787046   0.93417656   520346 
 3106000    1.0100524   -2.3783054   -2.3783054   -1.4446185  0.067804949   -2.3783054   0.93368691   520346 
 3107000    1.0096382   -2.3782857   -2.3782857   -1.4449817  0.073105824   -2.3782857   0.93330406   520346 
 3108000    1.0111601   -2.3797322   -2.3797322   -1.4450213  0.075185573   -2.3797322   0.93471088   520346 
 3109000    1.0100702   -2.3779193   -2.3779193    -1.444216  0.077618147   -2.3779193   0.93370333   520346 
 3110000    1.0110385   -2.3787371   -2.3787371   -1.4441386  0.076228877   -2.3787371   0.93459847   520346 
 3111000    1.0093843   -2.3776474   -2.3776474    -1.444578  0.073607229   -2.3776474   0.93306935   520346 
 3112000    1.0112512   -2.3791082   -2.3791082    -1.444313  0.068307312   -2.3791082   0.93479513   520346 
 3113000    1.0100571   -2.3772403   -2.3772403    -1.443549  0.075670415   -2.3772403   0.93369131   520346 
 3114000    1.0074971   -2.3765031   -2.3765031   -1.4451782  0.080162861   -2.3765031   0.93132486   520346 
 3115000    1.0082638    -2.376929    -2.376929   -1.4448954  0.063790353    -2.376929   0.93203358   520346 
 3116000    1.0082325   -2.3769826   -2.3769826    -1.444978  0.067019554   -2.3769826   0.93200464   520346 
 3117000    1.0092944   -2.3775227   -2.3775227   -1.4445365  0.061598336   -2.3775227   0.93298626   520346 
 3118000    1.0104001   -2.3785869   -2.3785869   -1.4445786  0.067705949   -2.3785869   0.93400831   520346 
 3119000    1.0087798   -2.3767875   -2.3767875   -1.4442769  0.076966833   -2.3767875   0.93251054   520346 
 3120000    1.0090412   -2.3774272   -2.3774272    -1.444675  0.072478318   -2.3774272   0.93275221   520346 
 3121000    1.0085577   -2.3764269   -2.3764269   -1.4441217  0.069552003   -2.3764269   0.93230527   520346 
 3122000    1.0076801   -2.3759078   -2.3759078   -1.4444138  0.055382965   -2.3759078   0.93149399   520346 
 3123000    1.0074072   -2.3761895   -2.3761895   -1.4449478  0.059672762   -2.3761895    0.9312417   520346 
 3124000    1.0108062   -2.3776605   -2.3776605   -1.4432768  0.058629673   -2.3776605   0.93438371   520346 
 3125000    1.0102616   -2.3776632   -2.3776632   -1.4437829  0.067481371   -2.3776632   0.93388033   520346 
 3126000    1.0085304   -2.3767901   -2.3767901   -1.4445101   0.07529562   -2.3767901      0.93228   520346 
 3127000    1.0103682   -2.3780612   -2.3780612   -1.4440823  0.061036946   -2.3780612   0.93397885   520346 
 3128000    1.0110572   -2.3789047   -2.3789047   -1.4442889  0.066592816   -2.3789047   0.93461576   520346 
 3129000    1.0103197   -2.3778754   -2.3778754   -1.4439414  0.076394194   -2.3778754   0.93393401   520346 
 3130000     1.009092   -2.3773451   -2.3773451   -1.4445459  0.067424672   -2.3773451   0.93279914   520346 
 3131000    1.0108354   -2.3788774   -2.3788774   -1.4444667  0.075775218   -2.3788774   0.93441068   520346 
 3132000      1.01065    -2.378684    -2.378684   -1.4444447  0.068749124    -2.378684   0.93423931   520346 
 3133000    1.0103065   -2.3783819   -2.3783819     -1.44446  0.064905991   -2.3783819   0.93392185   520346 
 3134000     1.010424   -2.3780703   -2.3780703   -1.4440399  0.055817828   -2.3780703   0.93403042   520346 
 3135000    1.0083153   -2.3768443   -2.3768443   -1.4447631  0.070676005   -2.3768443   0.93208118   520346 
 3136000    1.0097508   -2.3782634   -2.3782634   -1.4448554  0.066890994   -2.3782634   0.93340808   520346 
 3137000    1.0100076   -2.3786234   -2.3786234   -1.4449779  0.087159532   -2.3786234   0.93364553   520346 
 3138000    1.0100118   -2.3785007   -2.3785007   -1.4448513   0.07788063   -2.3785007   0.93364936   520346 
 3139000    1.0093946   -2.3777734   -2.3777734   -1.4446946  0.076793614   -2.3777734   0.93307886   520346 
 3140000    1.0103964    -2.379859    -2.379859   -1.4458541  0.068354333    -2.379859   0.93400492   520346 
 3141000     1.011446   -2.3813152   -2.3813152   -1.4463401  0.065750866   -2.3813152   0.93497514   520346 
 3142000    1.0093488   -2.3789127   -2.3789127   -1.4458762  0.071144867   -2.3789127   0.93303648   520346 
 3143000    1.0109422    -2.379843    -2.379843   -1.4453335  0.068506065    -2.379843   0.93450945   520346 
 3144000    1.0098938   -2.3794051   -2.3794051   -1.4458648  0.068497753   -2.3794051   0.93354028   520346 
 3145000    1.0081379   -2.3780244   -2.3780244   -1.4461073  0.070297045   -2.3780244   0.93191713   520346 
 3146000    1.0116946    -2.380562    -2.380562    -1.445357  0.067068689    -2.380562   0.93520501   520346 
 3147000    1.0100498   -2.3798311   -2.3798311   -1.4461466  0.074308516   -2.3798311   0.93368452   520346 
 3148000     1.007428   -2.3777873   -2.3777873   -1.4465264   0.06735603   -2.3777873    0.9312609   520346 
 3149000     1.008407    -2.378515    -2.378515    -1.446349  0.068482317    -2.378515   0.93216596   520346 
 3150000    1.0077493   -2.3776308   -2.3776308   -1.4460728  0.063556038   -2.3776308   0.93155793   520346 
 3151000    1.0099403   -2.3787519   -2.3787519   -1.4451686  0.062140715   -2.3787519   0.93358326   520346 
 3152000    1.0090261    -2.378332    -2.378332   -1.4455938  0.072334685    -2.378332    0.9327382   520346 
 3153000     1.009408   -2.3782826   -2.3782826   -1.4451914  0.061378731   -2.3782826   0.93309123   520346 
 3154000     1.008072   -2.3775651   -2.3775651   -1.4457088   0.06763902   -2.3775651   0.93185629   520346 
 3155000    1.0084455   -2.3777209   -2.3777209   -1.4455194  0.066468954   -2.3777209   0.93220155   520346 
 3156000    1.0083931   -2.3782917   -2.3782917   -1.4461386  0.075592263   -2.3782917   0.93215306   520346 
 3157000    1.0098872   -2.3797921   -2.3797921   -1.4462578  0.073543418   -2.3797921   0.93353426   520346 
 3158000    1.0096081   -2.3797035   -2.3797035   -1.4464273  0.065537999   -2.3797035   0.93327618   520346 
 3159000    1.0085001   -2.3792255   -2.3792255   -1.4469735  0.080400622   -2.3792255   0.93225199   520346 
 3160000     1.007417   -2.3784897   -2.3784897   -1.4472389   0.06573694   -2.3784897    0.9312508   520346 
 3161000    1.0048438   -2.3772138   -2.3772138   -1.4483417  0.078942352   -2.3772138   0.92887211   520346 
 3162000    1.0080218   -2.3792081   -2.3792081   -1.4473983  0.055651946   -2.3792081   0.93180983   520346 
 3163000    1.0093303    -2.379843    -2.379843   -1.4468236  0.070517783    -2.379843   0.93301942   520346 
 3164000    1.0077146   -2.3797392   -2.3797392   -1.4482134   0.06946668   -2.3797392   0.93152583   520346 
 3165000    1.0109489   -2.3812566   -2.3812566    -1.446741   0.07113932   -2.3812566   0.93451563   520346 
 3166000    1.0076122   -2.3788939   -2.3788939   -1.4474627  0.076533554   -2.3788939    0.9314312   520346 
 3167000    1.0093139    -2.380329    -2.380329   -1.4473248  0.063655898    -2.380329   0.93300423   520346 
 3168000     1.008032   -2.3788592   -2.3788592     -1.44704  0.064643519   -2.3788592   0.93181927   520346 
 3169000    1.0090454   -2.3806503   -2.3806503   -1.4478943    0.0773697   -2.3806503   0.93275604   520346 
 3170000    1.0094296   -2.3812716   -2.3812716   -1.4481603  0.069920807   -2.3812716   0.93311124   520346 
 3171000    1.0089568   -2.3805992   -2.3805992   -1.4479251  0.078966839   -2.3805992   0.93267417   520346 
 3172000    1.0072446   -2.3795489   -2.3795489   -1.4484575  0.063102029   -2.3795489    0.9310914   520346 
 3173000    1.0083468    -2.380593    -2.380593   -1.4484827  0.067341532    -2.380593   0.93211028   520346 
 3174000    1.0086291   -2.3799829   -2.3799829   -1.4476117  0.071826249   -2.3799829   0.93237122   520346 
 3175000    1.0098516   -2.3805335   -2.3805335   -1.4470322   0.06900694   -2.3805335   0.93350126   520346 
 3176000    1.0090875   -2.3791837   -2.3791837   -1.4463887  0.068654677   -2.3791837   0.93279493   520346 
 3177000     1.007328    -2.378011    -2.378011   -1.4468425  0.062021112    -2.378011   0.93116848   520346 
 3178000    1.0088848   -2.3795555   -2.3795555   -1.4469479  0.063819109   -2.3795555    0.9326076   520346 
 3179000    1.0082539   -2.3786566   -2.3786566   -1.4466323  0.063706491   -2.3786566   0.93202439   520346 
 3180000    1.0082454   -2.3796764   -2.3796764   -1.4476599  0.060782472   -2.3796764   0.93201657   520346 
 3181000    1.0075943   -2.3783812   -2.3783812   -1.4469666  0.060621213   -2.3783812   0.93141465   520346 
 3182000    1.0072815   -2.3787391   -2.3787391   -1.4476136  0.068995069   -2.3787391   0.93112553   520346 
 3183000    1.0089117   -2.3796638   -2.3796638   -1.4470313  0.053046368   -2.3796638   0.93263251   520346 
 3184000    1.0089417   -2.3786306   -2.3786306   -1.4459704  0.068494054   -2.3786306   0.93266019   520346 
 3185000    1.0080526   -2.3788457   -2.3788457   -1.4470074  0.067302146   -2.3788457   0.93183829   520346 
 3186000    1.0092149   -2.3791486   -2.3791486   -1.4462358  0.059319904   -2.3791486   0.93291274   520346 
 3187000    1.0089958    -2.379399    -2.379399   -1.4466889   0.05454734    -2.379399   0.93271016   520346 
 3188000    1.0077151   -2.3793564   -2.3793564   -1.4478301  0.070164316   -2.3793564   0.93152631   520346 
 3189000    1.0066727   -2.3795752   -2.3795752   -1.4490124  0.067177488   -2.3795752   0.93056277   520346 
 3190000    1.0088383   -2.3808915   -2.3808915   -1.4483268  0.069267158   -2.3808915   0.93256461   520346 
 3191000    1.0076064   -2.3802498   -2.3802498   -1.4488239  0.062007387   -2.3802498   0.93142589   520346 
 3192000     1.008256    -2.380571    -2.380571   -1.4485446  0.079425867    -2.380571   0.93202636   520346 
 3193000    1.0078483    -2.380379    -2.380379   -1.4487296  0.068465049    -2.380379   0.93164944   520346 
 3194000      1.00963   -2.3824401   -2.3824401   -1.4491437  0.071014525   -2.3824401   0.93329641   520346 
 3195000    1.0103694   -2.3829151   -2.3829151   -1.4489352  0.060782598   -2.3829151   0.93397993   520346 
 3196000    1.0102119   -2.3814117   -2.3814117   -1.4475773  0.075666173   -2.3814117   0.93383436   520346 
 3197000     1.009415   -2.3805975   -2.3805975   -1.4474998  0.071123857   -2.3805975   0.93309771   520346 
 3198000    1.0093318    -2.380356    -2.380356   -1.4473352  0.069046036    -2.380356   0.93302079   520346 
 3199000    1.0089108   -2.3792607   -2.3792607   -1.4466291  0.068238203   -2.3792607   0.93263159   520346 
 3200000    1.0093707   -2.3795634   -2.3795634   -1.4465067   0.06263275   -2.3795634   0.93305676   520346 
 3201000    1.0090292   -2.3805393   -2.3805393   -1.4477982  0.073762207   -2.3805393    0.9327411   520346 
 3202000    1.0105345   -2.3808921   -2.3808921   -1.4467596  0.076905188   -2.3808921   0.93413256   520346 
 3203000    1.0094793    -2.380109    -2.380109   -1.4469518  0.084840312    -2.380109   0.93315718   520346 
 3204000     1.008801   -2.3795378   -2.3795378   -1.4470077  0.060256178   -2.3795378   0.93253012   520346 
 3205000    1.0086011   -2.3798114   -2.3798114   -1.4474661  0.067841796   -2.3798114   0.93234533   520346 
 3206000    1.0086908   -2.3791908   -2.3791908   -1.4467625  0.064114905   -2.3791908   0.93242829   520346 
 3207000    1.0079908    -2.379453    -2.379453   -1.4476718  0.066172378    -2.379453    0.9317812   520346 
 3208000    1.0065449   -2.3776419   -2.3776419   -1.4471973  0.067189435   -2.3776419   0.93044461   520346 
 3209000    1.0053686    -2.378426    -2.378426   -1.4490688  0.060903047    -2.378426   0.92935722   520346 
 3210000    1.0058423   -2.3785649   -2.3785649   -1.4487698  0.071472426   -2.3785649   0.92979511   520346 
 3211000    1.0057109   -2.3789504   -2.3789504   -1.4492767  0.059245865   -2.3789504   0.92967364   520346 
 3212000    1.0055485   -2.3779831   -2.3779831   -1.4484596  0.072302538   -2.3779831   0.92952351   520346 
 3213000    1.0062631   -2.3784698   -2.3784698   -1.4482858  0.062992006   -2.3784698   0.93018408   520346 
 3214000    1.0078719   -2.3792681   -2.3792681   -1.4475968  0.069328899   -2.3792681   0.93167129   520346 
 3215000    1.0074934    -2.378688    -2.378688   -1.4473666   0.05874113    -2.378688   0.93132138   520346 
 3216000    1.0063377   -2.3776337   -2.3776337   -1.4473806  0.074737974   -2.3776337    0.9302531   520346 
 3217000    1.0083415   -2.3790953   -2.3790953     -1.44699   0.07750687   -2.3790953   0.93210539   520346 
 3218000     1.006472   -2.3789208   -2.3789208   -1.4485436  0.065476586   -2.3789208   0.93037724   520346 
 3219000    1.0089897   -2.3813041   -2.3813041   -1.4485995  0.065832524   -2.3813041   0.93270458   520346 
 3220000    1.0078316   -2.3808427   -2.3808427   -1.4492087  0.066598435   -2.3808427   0.93163399   520346 
 3221000    1.0071821   -2.3800687   -2.3800687    -1.449035  0.071127825   -2.3800687   0.93103364   520346 
 3222000    1.0080622     -2.38016     -2.38016   -1.4483128  0.070015714     -2.38016    0.9318472   520346 
 3223000     1.009668   -2.3805051   -2.3805051   -1.4471735  0.070055622   -2.3805051   0.93333154   520346 
 3224000    1.0101156   -2.3807437   -2.3807437   -1.4469984  0.075668761   -2.3807437   0.93374531   520346 
 3225000    1.0088375   -2.3807033   -2.3807033   -1.4481395  0.060423299   -2.3807033   0.93256383   520346 
 3226000     1.006658   -2.3788622   -2.3788622   -1.4483131  0.070425937   -2.3788622   0.93054916   520346 
 3227000    1.0075749   -2.3793077   -2.3793077    -1.447911  0.066336827   -2.3793077   0.93139675   520346 
 3228000     1.007517   -2.3800663   -2.3800663   -1.4487231  0.073730488   -2.3800663   0.93134325   520346 
 3229000     1.010057   -2.3809911   -2.3809911   -1.4472999  0.074200622   -2.3809911   0.93369119   520346 
 3230000    1.0073912   -2.3787084   -2.3787084   -1.4474815  0.066118575   -2.3787084    0.9312269   520346 
 3231000    1.0078414   -2.3787759   -2.3787759   -1.4471329  0.070517173   -2.3787759   0.93164309   520346 
 3232000    1.0083143   -2.3802364   -2.3802364   -1.4481561  0.065805262   -2.3802364   0.93208026   520346 
 3233000    1.0088106   -2.3807983   -2.3807983   -1.4482593   0.07202333   -2.3807983   0.93253896   520346 
 3234000    1.0056716   -2.3787601   -2.3787601   -1.4491228  0.071690206   -2.3787601   0.92963732   520346 
 3235000    1.0088367   -2.3812852   -2.3812852   -1.4487221  0.077145615   -2.3812852   0.93256318   520346 
 3236000    1.0076763   -2.3804304   -2.3804304   -1.4489399  0.077999496   -2.3804304   0.93149049   520346 
 3237000    1.0080107   -2.3806736   -2.3806736    -1.448874  0.069909703   -2.3806736   0.93179954   520346 
 3238000    1.0069885   -2.3795203   -2.3795203   -1.4486656  0.068844152   -2.3795203   0.93085471   520346 
 3239000    1.0096163   -2.3812135   -2.3812135   -1.4479296  0.077066689   -2.3812135   0.93328383   520346 
 3240000    1.0086556   -2.3807857   -2.3807857     -1.44839  0.074964946   -2.3807857   0.93239574   520346 
 3241000    1.0112989    -2.382704    -2.382704   -1.4478648  0.071405966    -2.382704   0.93483917   520346 
 3242000    1.0083441   -2.3800739   -2.3800739   -1.4479661  0.068733763   -2.3800739   0.93210776   520346 
 3243000     1.008216   -2.3797083   -2.3797083   -1.4477189  0.066269858   -2.3797083   0.93198935   520346 
 3244000    1.0099095   -2.3810714   -2.3810714   -1.4475166  0.067299371   -2.3810714    0.9335548   520346 
 3245000    1.0105997   -2.3822559   -2.3822559   -1.4480631  0.065829187   -2.3822559   0.93419284   520346 
 3246000    1.0092518   -2.3809289   -2.3809289    -1.447982  0.064417274   -2.3809289   0.93294689   520346 
 3247000    1.0097715   -2.3816272   -2.3816272      -1.4482  0.076417807   -2.3816272   0.93342723   520346 
 3248000    1.0087968   -2.3806781   -2.3806781   -1.4481518  0.059555846   -2.3806781   0.93252625   520346 
 3249000    1.0081807   -2.3798406   -2.3798406   -1.4478839  0.073087378   -2.3798406   0.93195673   520346 
 3250000    1.0076214   -2.3788325   -2.3788325   -1.4473928  0.066318175   -2.3788325   0.93143969   520346 
 3251000     1.007273    -2.378667    -2.378667   -1.4475493  0.073661494    -2.378667    0.9311177   520346 
 3252000    1.0095032   -2.3797734   -2.3797734   -1.4465942  0.043525214   -2.3797734   0.93317922   520346 
 3253000    1.0095613   -2.3793402   -2.3793402   -1.4461072    0.0532921   -2.3793402   0.93323294   520346 
 3254000    1.0075092   -2.3775144   -2.3775144   -1.4461784  0.082145267   -2.3775144   0.93133598   520346 
 3255000      1.00921   -2.3782305   -2.3782305   -1.4453223  0.064226201   -2.3782305   0.93290818   520346 
 3256000    1.0089585   -2.3784001   -2.3784001   -1.4457244  0.062744548   -2.3784001   0.93267574   520346 
 3257000    1.0076375   -2.3772351   -2.3772351   -1.4457805    0.0697829   -2.3772351   0.93145456   520346 
 3258000     1.008457   -2.3765479   -2.3765479   -1.4443357  0.058953418   -2.3765479   0.93221214   520346 
 3259000    1.0088268   -2.3775919   -2.3775919   -1.4450379  0.061570294   -2.3775919   0.93255395   520346 
 3260000    1.0086956   -2.3780012   -2.3780012   -1.4455685  0.059854867   -2.3780012   0.93243267   520346 
 3261000    1.0067188   -2.3754609   -2.3754609   -1.4448556  0.066834233   -2.3754609   0.93060535   520346 
 3262000    1.0094408   -2.3781616   -2.3781616   -1.4450401  0.056778547   -2.3781616   0.93312157   520346 
 3263000    1.0066478     -2.37573     -2.37573   -1.4451903  0.065068264     -2.37573   0.93053973   520346 
 3264000    1.0081204   -2.3778994   -2.3778994   -1.4459984  0.065775837   -2.3778994     0.931901   520346 
 3265000    1.0067902   -2.3775536   -2.3775536   -1.4468822  0.057378169   -2.3775536   0.93067139   520346 
 3266000    1.0071578   -2.3788671   -2.3788671    -1.447856  0.070872356   -2.3788671   0.93101113   520346 
 3267000     1.007616   -2.3791808   -2.3791808   -1.4477461  0.053876402   -2.3791808   0.93143473   520346 
 3268000    1.0074274   -2.3780767   -2.3780767   -1.4468163  0.058242388   -2.3780767   0.93126041   520346 
 3269000    1.0080265   -2.3783489   -2.3783489   -1.4465346  0.068038533   -2.3783489   0.93181422   520346 
 3270000    1.0082386   -2.3785405   -2.3785405   -1.4465302  0.061280711   -2.3785405   0.93201026   520346 
 3271000    1.0088823   -2.3793612   -2.3793612   -1.4467559  0.072738168   -2.3793612   0.93260527   520346 
 3272000    1.0068773   -2.3776656   -2.3776656   -1.4469138   0.08234704   -2.3776656   0.93075188   520346 
 3273000    1.0102022   -2.3810196   -2.3810196   -1.4471942  0.070056876   -2.3810196   0.93382543   520346 
 3274000     1.008243   -2.3787639   -2.3787639   -1.4467496   0.07153949   -2.3787639   0.93201433   520346 
 3275000    1.0097875   -2.3805854   -2.3805854   -1.4471433  0.071106856   -2.3805854   0.93344208   520346 
 3276000    1.0103539   -2.3805718   -2.3805718   -1.4466061  0.067749793   -2.3805718   0.93396563   520346 
 3277000    1.0099522   -2.3804087   -2.3804087   -1.4468145  0.059550249   -2.3804087   0.93359425   520346 
 3278000    1.0083548   -2.3783916   -2.3783916   -1.4462739  0.065798942   -2.3783916   0.93211766   520346 
 3279000     1.010633   -2.3812425   -2.3812425   -1.4470189  0.080494993   -2.3812425   0.93422365   520346 
 3280000    1.0100827    -2.381906    -2.381906   -1.4481911   0.06433384    -2.381906   0.93371494   520346 
 3281000       1.0091   -2.3808079   -2.3808079   -1.4480014   0.05712575   -2.3808079   0.93280649   520346 
 3282000    1.0109716   -2.3809291   -2.3809291   -1.4463926  0.078956097   -2.3809291   0.93453659   520346 
 3283000    1.0100446   -2.3807968   -2.3807968    -1.447117  0.079973335   -2.3807968   0.93367974   520346 
 3284000    1.0090902    -2.380825    -2.380825   -1.4480276  0.063428895    -2.380825   0.93279747   520346 
 3285000    1.0072989    -2.378306    -2.378306   -1.4471644  0.065105051    -2.378306   0.93114164   520346 
 3286000    1.0071736   -2.3790519   -2.3790519   -1.4480262  0.062652841   -2.3790519   0.93102573   520346 
 3287000    1.0078147   -2.3801808   -2.3801808   -1.4485624  0.065642767   -2.3801808   0.93161838   520346 
 3288000    1.0059628   -2.3785278   -2.3785278   -1.4486213   0.07390683   -2.3785278   0.92990649   520346 
 3289000    1.0083614   -2.3804379   -2.3804379   -1.4483141  0.077833521   -2.3804379   0.93212376   520346 
 3290000    1.0080655   -2.3800758   -2.3800758   -1.4482256  0.064677534   -2.3800758   0.93185025   520346 
 3291000    1.0080528   -2.3790738   -2.3790738   -1.4472353  0.071569073   -2.3790738   0.93183852   520346 
 3292000    1.0093082   -2.3814658   -2.3814658   -1.4484668      0.06739   -2.3814658   0.93299895   520346 
 3293000    1.0088401   -2.3805778   -2.3805778   -1.4480115  0.070681833   -2.3805778   0.93256631   520346 
 3294000    1.0099703   -2.3808476   -2.3808476   -1.4472366   0.06773746   -2.3808476   0.93361099   520346 
 3295000    1.0084122   -2.3790285   -2.3790285   -1.4468578  0.076985283   -2.3790285   0.93217073   520346 
 3296000    1.0104578   -2.3806816   -2.3806816   -1.4466199  0.070671652   -2.3806816   0.93406171   520346 
 3297000    1.0113098   -2.3811533   -2.3811533   -1.4463041  0.061928523   -2.3811533   0.93484921   520346 
 3298000    1.0105576   -2.3800822   -2.3800822   -1.4459282  0.056048735   -2.3800822   0.93415394   520346 
 3299000    1.0095182   -2.3795646   -2.3795646   -1.4463715  0.069269835   -2.3795646   0.93319315   520346 
 3300000    1.0099595   -2.3806909   -2.3806909   -1.4470898  0.071787506   -2.3806909   0.93360105   520346 
 3301000     1.009624   -2.3793677   -2.3793677   -1.4460768  0.064057122   -2.3793677   0.93329095   520346 
 3302000    1.0096895   -2.3795715   -2.3795715   -1.4462201  0.070535878   -2.3795715   0.93335143   520346 
 3303000    1.0088867   -2.3786048   -2.3786048   -1.4459955  0.070192893   -2.3786048   0.93260932   520346 
 3304000     1.009826   -2.3791824   -2.3791824   -1.4457047   0.06156422   -2.3791824   0.93347768   520346 
 3305000    1.0097069   -2.3795743   -2.3795743   -1.4462067  0.058607237   -2.3795743   0.93336757   520346 
 3306000    1.0080592   -2.3780304   -2.3780304    -1.446186  0.084244829   -2.3780304   0.93184438   520346 
 3307000     1.008581   -2.3796428   -2.3796428   -1.4473161  0.071024709   -2.3796428   0.93232679   520346 
 3308000    1.0093735   -2.3806394   -2.3806394   -1.4475801  0.059006953   -2.3806394   0.93305935   520346 
 3309000    1.0073543   -2.3777199   -2.3777199    -1.446527  0.061772913   -2.3777199   0.93119286   520346 
 3310000    1.0105356   -2.3802814   -2.3802814   -1.4461478  0.063005736   -2.3802814    0.9341336   520346 
 3311000    1.0113171   -2.3805657   -2.3805657   -1.4457097  0.057435576   -2.3805657   0.93485599   520346 
 3312000    1.0091194   -2.3790716   -2.3790716   -1.4462472  0.073141942   -2.3790716   0.93282444   520346 
 3313000    1.0131676   -2.3826355   -2.3826355   -1.4460689  0.073065856   -2.3826355    0.9365666   520346 
 3314000    1.0119071   -2.3811393   -2.3811393    -1.445738  0.074719599   -2.3811393   0.93540136   520346 
 3315000    1.0122993   -2.3816351   -2.3816351   -1.4458712  0.078108076   -2.3816351   0.93576394   520346 
 3316000    1.0105055   -2.3803527   -2.3803527   -1.4462469  0.080390866   -2.3803527    0.9341058   520346 
 3317000    1.0110469   -2.3815297   -2.3815297   -1.4469235  0.053243119   -2.3815297   0.93460627   520346 
 3318000    1.0108839   -2.3810184   -2.3810184   -1.4465629  0.075871984   -2.3810184   0.93445551   520346 
 3319000    1.0105483     -2.38079     -2.38079   -1.4466447  0.065976517     -2.38079    0.9341453   520346 
 3320000    1.0087735   -2.3792446   -2.3792446   -1.4467399  0.076473201   -2.3792446   0.93250471   520346 
 3321000    1.0101979   -2.3804576   -2.3804576   -1.4466362  0.056010448   -2.3804576   0.93382141   520346 
 3322000    1.0105911   -2.3803667   -2.3803667   -1.4461818  0.064303721   -2.3803667   0.93418488   520346 
 3323000    1.0100517    -2.380211    -2.380211   -1.4465247  0.070966019    -2.380211    0.9336863   520346 
 3324000    1.0090777   -2.3799286   -2.3799286   -1.4471427  0.064934307   -2.3799286   0.93278589   520346 
 3325000    1.0099582   -2.3807877   -2.3807877   -1.4471878  0.066759216   -2.3807877   0.93359986   520346 
 3326000    1.0090004   -2.3793036   -2.3793036   -1.4465891   0.06275435   -2.3793036    0.9327145   520346 
 3327000    1.0095056   -2.3792862   -2.3792862   -1.4461048   0.07823625   -2.3792862   0.93318143   520346 
 3328000    1.0088371   -2.3786585   -2.3786585   -1.4460951  0.065934333   -2.3786585   0.93256346   520346 
 3329000    1.0095829   -2.3793527   -2.3793527   -1.4460998  0.068364054   -2.3793527    0.9332529   520346 
 3330000    1.0070944   -2.3771787   -2.3771787   -1.4462261  0.078191803   -2.3771787    0.9309526   520346 
 3331000    1.0077292   -2.3782182   -2.3782182   -1.4466789  0.076206389   -2.3782182   0.93153935   520346 
 3332000    1.0061063   -2.3772313   -2.3772313   -1.4471921  0.061312577   -2.3772313   0.93003916   520346 
 3333000    1.0074817   -2.3783047   -2.3783047   -1.4469941  0.066023842   -2.3783047   0.93131058   520346 
 3334000    1.0063333   -2.3775267   -2.3775267   -1.4472777  0.068890046   -2.3775267   0.93024896   520346 
 3335000    1.0072836   -2.3787395   -2.3787395   -1.4476121  0.073412217   -2.3787395   0.93112745   520346 
 3336000    1.0073315   -2.3787918   -2.3787918   -1.4476201  0.061724372   -2.3787918   0.93117169   520346 
 3337000    1.0065626   -2.3790885   -2.3790885   -1.4486276  0.062920976   -2.3790885   0.93046093   520346 
 3338000    1.0086724   -2.3809392   -2.3809392   -1.4485279  0.077149419   -2.3809392   0.93241128   520346 
 3339000    1.0085047   -2.3801871   -2.3801871   -1.4479308  0.075019363   -2.3801871   0.93225627   520346 
 3340000    1.0099139   -2.3813735   -2.3813735   -1.4478146  0.068251066   -2.3813735   0.93355885   520346 
 3341000    1.0091469   -2.3808705   -2.3808705   -1.4480206  0.072159547   -2.3808705   0.93284987   520346 
 3342000    1.0102849   -2.3800505   -2.3800505   -1.4461487   0.06365906   -2.3800505   0.93390188   520346 
 3343000    1.0098198   -2.3794522   -2.3794522   -1.4459803  0.086611866   -2.3794522   0.93347188   520346 
 3344000    1.0107374   -2.3805751   -2.3805751    -1.446255  0.079543832   -2.3805751    0.9343201   520346 
 3345000    1.0110656      -2.3806      -2.3806   -1.4459765  0.067870452      -2.3806   0.93462351   520346 
 3346000    1.0085915   -2.3782197   -2.3782197   -1.4458833  0.074640065   -2.3782197   0.93233645   520346 
 3347000    1.0086177   -2.3789907   -2.3789907     -1.44663  0.075925847   -2.3789907   0.93236067   520346 
 3348000    1.0080656   -2.3781469   -2.3781469   -1.4462965  0.059390553   -2.3781469   0.93185037   520346 
 3349000    1.0094198   -2.3790265   -2.3790265   -1.4459244  0.070554512   -2.3790265   0.93310216   520346 
 3350000    1.0068136   -2.3774236   -2.3774236   -1.4467306  0.066935358   -2.3774236   0.93069296   520346 
 3351000    1.0083295   -2.3792124   -2.3792124   -1.4471181  0.056750891   -2.3792124   0.93209427   520346 
 3352000    1.0066461   -2.3769948   -2.3769948   -1.4464567  0.057232965   -2.3769948   0.93053811   520346 
 3353000    1.0080599   -2.3782313   -2.3782313   -1.4463862   0.06672143   -2.3782313   0.93184508   520346 
 3354000    1.0068443   -2.3775238   -2.3775238   -1.4468025  0.071969591   -2.3775238   0.93072133   520346 
 3355000    1.0079624   -2.3781816   -2.3781816   -1.4464266  0.060725245   -2.3781816   0.93175492   520346 
 3356000    1.0071131   -2.3775695   -2.3775695   -1.4465996  0.062866023   -2.3775695   0.93096983   520346 
 3357000    1.0057167   -2.3760327   -2.3760327   -1.4463537  0.063930355   -2.3760327   0.92967902   520346 
 3358000     1.005372   -2.3754085   -2.3754085   -1.4460481  0.074837497   -2.3754085   0.92936038   520346 
 3359000     1.008231   -2.3772989   -2.3772989   -1.4452957  0.066984902   -2.3772989   0.93200324   520346 
 3360000    1.0086438   -2.3779767   -2.3779767   -1.4455919  0.059709697   -2.3779767   0.93238478   520346 
 3361000    1.0078911   -2.3765356   -2.3765356   -1.4448466  0.076876927   -2.3765356   0.93168901   520346 
 3362000    1.0090541   -2.3774696   -2.3774696   -1.4447056   0.06508436   -2.3774696   0.93276406   520346 
 3363000     1.009934   -2.3781681   -2.3781681   -1.4445906  0.077566273   -2.3781681   0.93357748   520346 
 3364000    1.0099495   -2.3779387   -2.3779387   -1.4443468  0.068938193   -2.3779387   0.93359183   520346 
 3365000    1.0103508    -2.378298    -2.378298   -1.4443352  0.075819519    -2.378298   0.93396274   520346 
 3366000    1.0101051   -2.3780295   -2.3780295   -1.4442938  0.064030895   -2.3780295   0.93373566   520346 
 3367000    1.0104782   -2.3782494   -2.3782494   -1.4441689  0.070257567   -2.3782494    0.9340805   520346 
 3368000    1.0091705   -2.3773252   -2.3773252   -1.4444535  0.073950217   -2.3773252   0.93287169   520346 
 3369000    1.0104494   -2.3795239   -2.3795239   -1.4454699  0.067229003   -2.3795239   0.93405393   520346 
 3370000    1.0101239   -2.3791144   -2.3791144   -1.4453614  0.075473305   -2.3791144     0.933753   520346 
 3371000    1.0088192    -2.378291    -2.378291    -1.445744  0.068583919    -2.378291   0.93254699   520346 
 3372000    1.0063884   -2.3760525   -2.3760525   -1.4457526  0.076387089   -2.3760525   0.93029995   520346 
 3373000    1.0082513   -2.3773277   -2.3773277   -1.4453058  0.079688478   -2.3773277   0.93202195   520346 
 3374000    1.0083694   -2.3778326   -2.3778326   -1.4457014  0.060721768   -2.3778326   0.93213117   520346 
 3375000    1.0072583    -2.376551    -2.376551   -1.4454469  0.073948343    -2.376551   0.93110407   520346 
 3376000    1.0074026   -2.3764702   -2.3764702   -1.4452328  0.061903194   -2.3764702   0.93123743   520346 
 3377000    1.0089051   -2.3786367   -2.3786367   -1.4460103  0.063213243   -2.3786367   0.93262639   520346 
 3378000    1.0100239   -2.3791724   -2.3791724   -1.4455118   0.07353082   -2.3791724   0.93366054   520346 
 3379000    1.0067558   -2.3769025   -2.3769025   -1.4462629  0.068043089   -2.3769025   0.93063954   520346 
 3380000    1.0074193   -2.3780868   -2.3780868   -1.4468339  0.058258919   -2.3780868   0.93125287   520346 
 3381000    1.0068117   -2.3770934   -2.3770934   -1.4464022  0.074057414   -2.3770934    0.9306912   520346 
 3382000    1.0084368   -2.3785716   -2.3785716   -1.4463781  0.070309327   -2.3785716   0.93219347   520346 
 3383000    1.0080361   -2.3778335   -2.3778335   -1.4460104  0.068030916   -2.3778335    0.9318231   520346 
 3384000    1.0086019    -2.378362    -2.378362   -1.4460159    0.0694845    -2.378362    0.9323461   520346 
 3385000    1.0116238   -2.3807434   -2.3807434   -1.4456039  0.069328314   -2.3807434   0.93513948   520346 
 3386000    1.0091544   -2.3788808   -2.3788808    -1.446024  0.075382674   -2.3788808    0.9328568   520346 
 3387000    1.0084086   -2.3780436   -2.3780436   -1.4458762  0.061656927   -2.3780436    0.9321674   520346 
 3388000    1.0095996   -2.3792083   -2.3792083     -1.44594  0.062900093   -2.3792083   0.93326833   520346 
 3389000    1.0106021   -2.3802651   -2.3802651     -1.44607  0.071792632   -2.3802651    0.9341951   520346 
 3390000    1.0098823   -2.3802452   -2.3802452   -1.4467155  0.071297681   -2.3802452   0.93352966   520346 
 3391000    1.0096261   -2.3804613   -2.3804613   -1.4471685  0.076176162   -2.3804613   0.93329286   520346 
 3392000    1.0095872   -2.3815565   -2.3815565   -1.4482996  0.062593616   -2.3815565   0.93325691   520346 
 3393000     1.007843   -2.3795623   -2.3795623   -1.4479177  0.062208989   -2.3795623   0.93164458   520346 
 3394000    1.0096516   -2.3815266   -2.3815266   -1.4482102  0.072789094   -2.3815266   0.93331639   520346 
 3395000    1.0063095   -2.3788904   -2.3788904   -1.4486633  0.080410172   -2.3788904   0.93022703   520346 
 3396000    1.0098649   -2.3817144   -2.3817144   -1.4482008  0.068245735   -2.3817144   0.93351355   520346 
 3397000    1.0060741   -2.3787412   -2.3787412   -1.4487318  0.074005505   -2.3787412   0.93000942   520346 
 3398000    1.0086268   -2.3804538   -2.3804538   -1.4480848  0.068452677   -2.3804538   0.93236908   520346 
 3399000    1.0096373   -2.3813719   -2.3813719   -1.4480688  0.061041655   -2.3813719   0.93330318   520346 
 3400000     1.009918   -2.3805776   -2.3805776   -1.4470149   0.08157232   -2.3805776   0.93356269   520346 
 3401000    1.0099201   -2.3809741   -2.3809741   -1.4474096  0.072964529   -2.3809741   0.93356459   520346 
 3402000    1.0108327    -2.381875    -2.381875   -1.4474667  0.071860008    -2.381875   0.93440825   520346 
 3403000     1.009184   -2.3806771   -2.3806771   -1.4477929  0.083354468   -2.3806771   0.93288415   520346 
 3404000    1.0080879   -2.3797754   -2.3797754   -1.4479044  0.066789783   -2.3797754   0.93187095   520346 
 3405000    1.0075077   -2.3794102   -2.3794102   -1.4480756  0.079875358   -2.3794102   0.93133465   520346 
 3406000    1.0061181   -2.3786274   -2.3786274   -1.4485773  0.063522005   -2.3786274   0.93005008   520346 
 3407000    1.0063368   -2.3788688   -2.3788688   -1.4486166  0.063956333   -2.3788688    0.9302522   520346 
 3408000     1.009741   -2.3814899   -2.3814899   -1.4480909  0.066682896   -2.3814899   0.93339902   520346 
 3409000    1.0085139   -2.3804688   -2.3804688    -1.448204  0.060550267   -2.3804688   0.93226473   520346 
 3410000     1.007298   -2.3798161   -2.3798161   -1.4486753  0.060011583   -2.3798161   0.93114072   520346 
 3411000    1.0067268   -2.3793244   -2.3793244   -1.4487117  0.061780471   -2.3793244   0.93061275   520346 
 3412000    1.0090905    -2.381027    -2.381027   -1.4482293  0.062641812    -2.381027   0.93279772   520346 
 3413000    1.0057818   -2.3785639   -2.3785639   -1.4488247  0.074935638   -2.3785639   0.92973916   520346 
 3414000    1.0066925       -2.379       -2.379   -1.4484189  0.073637991       -2.379   0.93058104   520346 
 3415000    1.0082995   -2.3809806   -2.3809806   -1.4489141  0.084927681   -2.3809806   0.93206652   520346 
 3416000      1.00996   -2.3816789   -2.3816789   -1.4480774  0.068194968   -2.3816789   0.93360148   520346 
 3417000    1.0096337   -2.3818952   -2.3818952   -1.4485953  0.074566376   -2.3818952   0.93329985   520346 
 3418000    1.0104997   -2.3817928   -2.3817928   -1.4476924  0.072915889   -2.3817928   0.93410039   520346 
 3419000    1.0104731   -2.3812909   -2.3812909    -1.447215  0.070745544   -2.3812909   0.93407585   520346 
 3420000    1.0103365   -2.3817406   -2.3817406   -1.4477911    0.0684201   -2.3817406   0.93394954   520346 
 3421000    1.0091538   -2.3810916   -2.3810916   -1.4482354  0.071832158   -2.3810916   0.93285625   520346 
 3422000    1.0090172    -2.381133    -2.381133    -1.448403  0.072702621    -2.381133   0.93273001   520346 
 3423000    1.0096624   -2.3819305   -2.3819305    -1.448604  0.079996731   -2.3819305   0.93332641   520346 
 3424000    1.0083217   -2.3808268   -2.3808268   -1.4487397  0.079696466   -2.3808268   0.93208705   520346 
 3425000    1.0104263   -2.3826386   -2.3826386   -1.4486061  0.072142887   -2.3826386   0.93403256   520346 
 3426000    1.0092208   -2.3811783   -2.3811783   -1.4482602  0.070385931   -2.3811783   0.93291817   520346 
 3427000     1.007037    -2.381153    -2.381153   -1.4502536  0.082804911    -2.381153   0.93089946   520346 
 3428000    1.0076738   -2.3807833   -2.3807833   -1.4492951  0.063558302   -2.3807833   0.93148819   520346 
 3429000    1.0060005   -2.3797587   -2.3797587   -1.4498173  0.063931825   -2.3797587   0.92994141   520346 
 3430000    1.0068058   -2.3805944   -2.3805944   -1.4499085  0.072848467   -2.3805944   0.93068582   520346 
 3431000    1.0089501   -2.3821354   -2.3821354   -1.4494674  0.071186919   -2.3821354   0.93266799   520346 
 3432000    1.0070671   -2.3804126   -2.3804126   -1.4494852  0.066133387   -2.3804126   0.93092737   520346 
 3433000    1.0067831   -2.3804137   -2.3804137   -1.4497489  0.072335204   -2.3804137   0.93066481   520346 
 3434000    1.0086154   -2.3820089   -2.3820089   -1.4496503  0.072993364   -2.3820089   0.93235854   520346 
 3435000     1.007623   -2.3809096   -2.3809096   -1.4494684  0.062261412   -2.3809096   0.93144117   520346 
 3436000    1.0100376   -2.3819079   -2.3819079   -1.4482346  0.069852202   -2.3819079   0.93367328   520346 
 3437000    1.0095723   -2.3815756   -2.3815756   -1.4483325  0.074017032   -2.3815756   0.93324312   520346 
 3438000    1.0085686   -2.3804958   -2.3804958   -1.4481805  0.075341493   -2.3804958   0.93231531   520346 
 3439000    1.0104203   -2.3819379   -2.3819379   -1.4479109  0.070669664   -2.3819379   0.93402697   520346 
 3440000    1.0081769   -2.3795444   -2.3795444   -1.4475912  0.078256437   -2.3795444   0.93195317   520346 
 3441000     1.009083   -2.3801395   -2.3801395   -1.4473487  0.078165369   -2.3801395    0.9327908   520346 
 3442000    1.0087218   -2.3795084   -2.3795084   -1.4470515  0.072674627   -2.3795084   0.93245691   520346 
 3443000    1.0087116   -2.3797551   -2.3797551   -1.4473076  0.067282131   -2.3797551   0.93244749   520346 
 3444000     1.009786   -2.3802207   -2.3802207   -1.4467801  0.074058565   -2.3802207   0.93344066   520346 
 3445000    1.0066845   -2.3776617   -2.3776617   -1.4470881  0.056896593   -2.3776617   0.93057362   520346 
 3446000    1.0070669   -2.3782598   -2.3782598   -1.4473326    0.0744681   -2.3782598   0.93092718   520346 
 3447000    1.0069562   -2.3781802   -2.3781802   -1.4473554  0.080486203   -2.3781802   0.93082483   520346 
 3448000    1.0077209   -2.3785284   -2.3785284   -1.4469967  0.072716097   -2.3785284    0.9315317   520346 
 3449000    1.0086369   -2.3791963   -2.3791963   -1.4468178  0.080686121   -2.3791963   0.93237844   520346 
 3450000    1.0068609   -2.3775985   -2.3775985   -1.4468617  0.073130394   -2.3775985   0.93073676   520346 
 3451000     1.006582   -2.3767926   -2.3767926   -1.4463137  0.070853762   -2.3767926   0.93047889   520346 
 3452000    1.0084338    -2.378376    -2.378376   -1.4461853  0.068201165    -2.378376   0.93219069   520346 
 3453000    1.0075425   -2.3773494   -2.3773494   -1.4459826  0.062544005   -2.3773494   0.93136679   520346 
 3454000    1.0099904   -2.3798046   -2.3798046    -1.446175  0.056787292   -2.3798046   0.93362959   520346 
 3455000    1.0087309    -2.379496    -2.379496   -1.4470306  0.064909925    -2.379496   0.93246532   520346 
 3456000    1.0086369    -2.378942    -2.378942   -1.4465636   0.08630355    -2.378942   0.93237844   520346 
 3457000    1.0108982   -2.3812493   -2.3812493   -1.4467805  0.066889199   -2.3812493    0.9344688   520346 
 3458000    1.0106672   -2.3801607   -2.3801607   -1.4459055  0.072488502   -2.3801607   0.93425528   520346 
 3459000    1.0093864   -2.3803932   -2.3803932    -1.447322  0.059579551   -2.3803932   0.93307123   520346 
 3460000    1.0092044   -2.3794095   -2.3794095   -1.4465065   0.06444938   -2.3794095     0.932903   520346 
 3461000    1.0114632   -2.3818188   -2.3818188   -1.4468277  0.073677167   -2.3818188   0.93499109   520346 
 3462000    1.0110183   -2.3813867   -2.3813867   -1.4468069  0.069827503   -2.3813867    0.9345798   520346 
 3463000    1.0103844   -2.3814103   -2.3814103   -1.4474164  0.062022125   -2.3814103   0.93399385   520346 
 3464000     1.008594   -2.3792175   -2.3792175   -1.4468787  0.069505604   -2.3792175   0.93233878   520346 
 3465000    1.0075468    -2.378652    -2.378652   -1.4472812  0.062495323    -2.378652   0.93137078   520346 
 3466000    1.0085197   -2.3795127   -2.3795127   -1.4472425  0.060456217   -2.3795127   0.93227015   520346 
 3467000    1.0080454   -2.3785254   -2.3785254   -1.4466938  0.069385199   -2.3785254   0.93183166   520346 
 3468000    1.0055775   -2.3769142   -2.3769142   -1.4473638  0.058124366   -2.3769142   0.92955034   520346 
 3469000     1.007238   -2.3776459   -2.3776459   -1.4465606  0.069930656   -2.3776459   0.93108534   520346 
 3470000    1.0062581   -2.3772908   -2.3772908   -1.4471113   0.06175759   -2.3772908   0.93017945   520346 
 3471000    1.0074288     -2.37759     -2.37759   -1.4463283  0.055129719     -2.37759   0.93126172   520346 
 3472000     1.007751   -2.3780114   -2.3780114   -1.4464518  0.065776056   -2.3780114   0.93155956   520346 
 3473000    1.0064193   -2.3769632   -2.3769632   -1.4466348  0.057454616   -2.3769632   0.93032848   520346 
 3474000    1.0083678   -2.3781639   -2.3781639   -1.4460341  0.055922962   -2.3781639   0.93212971   520346 
 3475000    1.0084935    -2.379317    -2.379317   -1.4470711  0.067066557    -2.379317   0.93224589   520346 
 3476000    1.0076362   -2.3787298   -2.3787298   -1.4472764  0.058597057   -2.3787298    0.9314534   520346 
 3477000    1.0063525   -2.3778664   -2.3778664   -1.4475996  0.069569341   -2.3778664   0.93026678   520346 
 3478000    1.0091826   -2.3811247   -2.3811247   -1.4482419  0.067274877   -2.3811247   0.93288284   520346 
 3479000    1.0083325   -2.3795029   -2.3795029   -1.4474058  0.069804162   -2.3795029   0.93209708   520346 
 3480000    1.0078353   -2.3796613   -2.3796613   -1.4480238  0.078927557   -2.3796613   0.93163745   520346 
 3481000    1.0088178   -2.3808046   -2.3808046   -1.4482589  0.076173687   -2.3808046   0.93254567   520346 
 3482000    1.0096799   -2.3820889   -2.3820889   -1.4487463   0.06860645   -2.3820889   0.93334261   520346 
 3483000    1.0102459   -2.3835007   -2.3835007   -1.4496349  0.067227163   -2.3835007    0.9338658   520346 
 3484000    1.0094183   -2.3828305   -2.3828305   -1.4497297  0.071917317   -2.3828305   0.93310079   520346 
 3485000    1.0111822   -2.3839409   -2.3839409   -1.4492095  0.072643395   -2.3839409   0.93473132   520346 
 3486000    1.0090218   -2.3819456   -2.3819456   -1.4492113  0.074331367   -2.3819456   0.93273423   520346 
 3487000    1.0104311   -2.3832689   -2.3832689   -1.4492318  0.076356167   -2.3832689   0.93403703   520346 
 3488000    1.0102326   -2.3829486   -2.3829486   -1.4490951  0.060579306   -2.3829486   0.93385353   520346 
 3489000    1.0087781   -2.3825225   -2.3825225   -1.4500136  0.077359251   -2.3825225   0.93250893   520346 
 3490000    1.0059351   -2.3799558   -2.3799558   -1.4500749  0.080260026   -2.3799558   0.92988093   520346 
 3491000    1.0072664   -2.3808357   -2.3808357   -1.4497242  0.063094819   -2.3808357   0.93111154   520346 
 3492000    1.0103925   -2.3844012   -2.3844012      -1.4504  0.068138123   -2.3844012   0.93400129   520346 
 3493000    1.0075834   -2.3812649   -2.3812649   -1.4498603  0.065583194   -2.3812649   0.93140456   520346 
 3494000      1.00811   -2.3815004   -2.3815004    -1.449609  0.076136895   -2.3815004    0.9318914   520346 
 3495000    1.0075584    -2.381397    -2.381397   -1.4500155  0.072128417    -2.381397   0.93138147   520346 
 3496000    1.0068757   -2.3803235   -2.3803235   -1.4495731  0.069007448   -2.3803235   0.93075039   520346 
 3497000    1.0073216   -2.3802133   -2.3802133   -1.4490507  0.074595102   -2.3802133   0.93116258   520346 
 3498000    1.0089343   -2.3815417   -2.3815417   -1.4488884  0.067700914   -2.3815417   0.93265335   520346 
 3499000    1.0088918   -2.3809126   -2.3809126   -1.4482986  0.052520035   -2.3809126   0.93261408   520346 
 3500000    1.0097019   -2.3812388   -2.3812388   -1.4478758  0.066725553   -2.3812388   0.93336293   520346 
 3501000    1.0081293   -2.3797403   -2.3797403   -1.4478311  0.071955075   -2.3797403   0.93190924   520346 
 3502000      1.00805   -2.3795953   -2.3795953   -1.4477593   0.06603722   -2.3795953   0.93183595   520346 
 3503000    1.0091001   -2.3801763   -2.3801763   -1.4473697  0.077984287   -2.3801763   0.93280662   520346 
 3504000    1.0094541   -2.3812349   -2.3812349   -1.4481011   0.06968335   -2.3812349   0.93313382   520346 
 3505000    1.0082804   -2.3808335   -2.3808335   -1.4487846  0.052393235   -2.3808335   0.93204889   520346 
 3506000    1.0074206   -2.3792447   -2.3792447   -1.4479906  0.067297532   -2.3792447   0.93125406   520346 
 3507000    1.0072007   -2.3794415   -2.3794415   -1.4483907  0.060302067   -2.3794415    0.9310508   520346 
 3508000    1.0082346   -2.3808548   -2.3808548   -1.4488483  0.070713799   -2.3808548   0.93200652   520346 
 3509000    1.0085918   -2.3816744   -2.3816744   -1.4493376  0.065803628   -2.3816744   0.93233677   520346 
 3510000     1.007185   -2.3808265   -2.3808265   -1.4497902  0.063283559   -2.3808265   0.93103633   520346 
 3511000    1.0076527   -2.3816496   -2.3816496   -1.4501809   0.06452698   -2.3816496   0.93146866   520346 
 3512000    1.0094054   -2.3825847   -2.3825847   -1.4494959  0.059593516   -2.3825847    0.9330888   520346 
 3513000    1.0104757   -2.3826326   -2.3826326   -1.4485544   0.06675959   -2.3826326    0.9340782   520346 
 3514000    1.0098493   -2.3821726   -2.3821726   -1.4486735  0.080757253   -2.3821726   0.93349916   520346 
 3515000    1.0098085   -2.3824808   -2.3824808   -1.4490193  0.073146592   -2.3824808   0.93346148   520346 
 3516000     1.009957    -2.382685    -2.382685   -1.4490862  0.060931128    -2.382685   0.93359873   520346 
 3517000    1.0080634   -2.3809217   -2.3809217   -1.4490734  0.066767859   -2.3809217   0.93184833   520346 
 3518000     1.009711   -2.3820078   -2.3820078   -1.4486365   0.07063081   -2.3820078   0.93337131   520346 
 3519000    1.0090362    -2.381746    -2.381746   -1.4489984  0.050322562    -2.381746   0.93274757   520346 
 3520000    1.0091753   -2.3815297   -2.3815297   -1.4486535  0.068800985   -2.3815297   0.93287618   520346 
 3521000    1.0075819   -2.3801792   -2.3801792   -1.4487761  0.062247674   -2.3801792   0.93140316   520346 
 3522000    1.0080009   -2.3802402   -2.3802402   -1.4484496  0.056500927   -2.3802402   0.93179056   520346 
 3523000    1.0059164   -2.3790485   -2.3790485   -1.4491848  0.056535963   -2.3790485   0.92986366   520346 
 3524000     1.006023   -2.3795128   -2.3795128   -1.4495507  0.062693083   -2.3795128   0.92996219   520346 
 3525000    1.0055032   -2.3787172   -2.3787172   -1.4492356   0.07403159   -2.3787172   0.92948166   520346 
 3526000    1.0070742   -2.3804635   -2.3804635   -1.4495296  0.067888449   -2.3804635   0.93093393   520346 
 3527000    1.0067304   -2.3797011   -2.3797011    -1.449085   0.05300479   -2.3797011   0.93061605   520346 
 3528000    1.0080345    -2.379615    -2.379615   -1.4477934  0.074434473    -2.379615   0.93182155   520346 
 3529000    1.0084505   -2.3801782   -2.3801782   -1.4479721  0.056133808   -2.3801782   0.93220617   520346 
 3530000    1.0096936   -2.3822215   -2.3822215   -1.4488663  0.065381474   -2.3822215   0.93335522   520346 
 3531000    1.0098956   -2.3808247   -2.3808247   -1.4472828  0.069966208   -2.3808247   0.93354195   520346 
 3532000    1.0103528   -2.3811055   -2.3811055   -1.4471409  0.073521819   -2.3811055   0.93396458   520346 
 3533000    1.0092117    -2.380082    -2.380082   -1.4471723  0.063681316    -2.380082   0.93290977   520346 
 3534000    1.0091011   -2.3801806   -2.3801806    -1.447373  0.070100547   -2.3801806   0.93280754   520346 
 3535000    1.0093873   -2.3804836   -2.3804836   -1.4474115  0.068144493   -2.3804836   0.93307213   520346 
 3536000    1.0090803   -2.3810031   -2.3810031   -1.4482148  0.067319028   -2.3810031   0.93278831   520346 
 3537000    1.0105897   -2.3826518   -2.3826518   -1.4484682  0.083257284   -2.3826518   0.93418356   520346 
 3538000    1.0089919   -2.3804201   -2.3804201   -1.4477135  0.077556989   -2.3804201   0.93270661   520346 
 3539000    1.0101073   -2.3813665   -2.3813665   -1.4476288   0.06349486   -2.3813665    0.9337377   520346 
 3540000    1.0083443   -2.3801566   -2.3801566   -1.4480487  0.068620147   -2.3801566   0.93210798   520346 
 3541000    1.0089716   -2.3808939   -2.3808939   -1.4482061  0.071773492   -2.3808939   0.93268783   520346 
 3542000    1.0096823    -2.381555    -2.381555   -1.4482102  0.072438729    -2.381555   0.93334478   520346 
 3543000    1.0108715    -2.381664    -2.381664   -1.4472199   0.06647186    -2.381664   0.93444411   520346 
 3544000    1.0085896   -2.3801496   -2.3801496   -1.4478148  0.070962241   -2.3801496   0.93233472   520346 
 3545000     1.010909   -2.3817778   -2.3817778   -1.4472991  0.067060511   -2.3817778   0.93447872   520346 
 3546000    1.0091573   -2.3809858   -2.3809858   -1.4481263  0.063413654   -2.3809858    0.9328595   520346 
 3547000    1.0074163   -2.3800668   -2.3800668   -1.4488167  0.072341735   -2.3800668   0.93125008   520346 
 3548000    1.0074645   -2.3810366   -2.3810366   -1.4497419  0.072323818   -2.3810366   0.93129472   520346 
 3549000    1.0060653   -2.3807904   -2.3807904   -1.4507892  0.070673788   -2.3807904   0.93000125   520346 
 3550000    1.0058365   -2.3794017   -2.3794017   -1.4496119  0.074837931   -2.3794017   0.92978975   520346 
 3551000    1.0072281   -2.3801721   -2.3801721    -1.449096  0.064205111   -2.3801721   0.93107613   520346 
 3552000    1.0073762   -2.3799437   -2.3799437   -1.4487307  0.075665517   -2.3799437   0.93121305   520346 
 3553000     1.006237   -2.3801312   -2.3801312   -1.4499711   0.06557737   -2.3801312   0.93016002   520346 
 3554000    1.0067534   -2.3806664   -2.3806664    -1.450029  0.067018122   -2.3806664   0.93063736   520346 
 3555000    1.0064691    -2.380878    -2.380878   -1.4505034  0.067880866    -2.380878   0.93037458   520346 
 3556000    1.0065225   -2.3805174   -2.3805174   -1.4500935  0.066268317   -2.3805174   0.93042386   520346 
 3557000    1.0084473   -2.3817415   -2.3817415   -1.4495383  0.069937698   -2.3817415   0.93220314   520346 
 3558000    1.0082241   -2.3814516   -2.3814516   -1.4494547  0.078600628   -2.3814516   0.93199687   520346 
 3559000    1.0076159   -2.3811731   -2.3811731   -1.4497385  0.075835846   -2.3811731   0.93143465   520346 
 3560000    1.0101979   -2.3827759   -2.3827759   -1.4489545   0.06733736   -2.3827759   0.93382139   520346 
 3561000    1.0096549   -2.3833845   -2.3833845    -1.450065  0.073320139   -2.3833845   0.93331944   520346 
 3562000    1.0110221    -2.384364    -2.384364   -1.4497807  0.075304915    -2.384364   0.93458335   520346 
 3563000    1.0095166   -2.3829208   -2.3829208   -1.4497292  0.075040221   -2.3829208   0.93319163   520346 
 3564000    1.0104974   -2.3837731   -2.3837731   -1.4496748  0.062467025   -2.3837731   0.93409829   520346 
 3565000    1.0107785   -2.3844127   -2.3844127   -1.4500546  0.052859216   -2.3844127   0.93435813   520346 
 3566000    1.0087079    -2.382623    -2.382623   -1.4501789  0.074778404    -2.382623   0.93244408   520346 
 3567000    1.0074011    -2.382352    -2.382352   -1.4511159  0.072279742    -2.382352   0.93123604   520346 
 3568000     1.008967   -2.3835389   -2.3835389   -1.4508553  0.067855575   -2.3835389    0.9326836   520346 
 3569000    1.0074824   -2.3819451   -2.3819451   -1.4506339  0.071370075   -2.3819451   0.93131126   520346 
 3570000    1.0086575   -2.3831106   -2.3831106   -1.4507131    0.0596542   -2.3831106    0.9323975   520346 
 3571000    1.0085967   -2.3833389   -2.3833389   -1.4509976  0.058683224   -2.3833389   0.93234133   520346 
 3572000    1.0062294   -2.3807957   -2.3807957   -1.4506428  0.071789154   -2.3807957   0.93015292   520346 
 3573000    1.0079328   -2.3819419   -2.3819419   -1.4502143  0.066837133   -2.3819419   0.93172759   520346 
 3574000     1.008447    -2.382319    -2.382319   -1.4501161  0.072870964    -2.382319   0.93220292   520346 
 3575000     1.007463   -2.3817574   -2.3817574   -1.4504642    0.0698465   -2.3817574   0.93129325   520346 
 3576000    1.0083442   -2.3822018   -2.3822018   -1.4500939  0.065892763   -2.3822018   0.93210788   520346 
 3577000    1.0068503   -2.3809275   -2.3809275   -1.4502006    0.0728867   -2.3809275   0.93072689   520346 
 3578000    1.0090125   -2.3829522   -2.3829522   -1.4502265  0.069378078   -2.3829522   0.93272564   520346 
 3579000    1.0093163   -2.3821104   -2.3821104    -1.449104  0.073720739   -2.3821104   0.93300646   520346 
 3580000    1.0098942   -2.3833523   -2.3833523   -1.4498116  0.060950295   -2.3833523   0.93354072   520346 
 3581000    1.0067857   -2.3808902   -2.3808902    -1.450223  0.063080761   -2.3808902   0.93066719   520346 
 3582000    1.0105481   -2.3838728   -2.3838728   -1.4497276  0.076100161   -2.3838728   0.93414514   520346 
 3583000    1.0090341   -2.3819341   -2.3819341   -1.4491885  0.071936837   -2.3819341   0.93274561   520346 
 3584000    1.0084908   -2.3810509   -2.3810509   -1.4488075  0.078178043   -2.3810509   0.93224339   520346 
 3585000     1.008038   -2.3800491   -2.3800491   -1.4482243  0.082752498   -2.3800491   0.93182483   520346 
 3586000    1.0108541   -2.3819366   -2.3819366   -1.4475086  0.070800114   -2.3819366   0.93442796   520346 
 3587000    1.0099805   -2.3822155   -2.3822155    -1.448595  0.060587425   -2.3822155   0.93362049   520346 
 3588000    1.0068966   -2.3804629   -2.3804629   -1.4496932  0.067897676   -2.3804629   0.93076972   520346 
 3589000    1.0064325   -2.3794063   -2.3794063   -1.4490656  0.063083221   -2.3794063   0.93034067   520346 
 3590000    1.0050432   -2.3792105   -2.3792105    -1.450154  0.071217233   -2.3792105   0.92905647   520346 
 3591000    1.0080713   -2.3808994   -2.3808994   -1.4490438  0.066919732   -2.3808994   0.93185557   520346 
 3592000    1.0071213    -2.380994    -2.380994   -1.4500166   0.05776242    -2.380994   0.93097739   520346 
 3593000    1.0083885   -2.3816014   -2.3816014   -1.4494525   0.06073438   -2.3816014   0.93214886   520346 
 3594000    1.0082855   -2.3814456   -2.3814456    -1.449392  0.065318731   -2.3814456   0.93205358   520346 
 3595000     1.006947    -2.380972    -2.380972   -1.4501557  0.075639776    -2.380972   0.93081632   520346 
 3596000    1.0087185   -2.3831345   -2.3831345   -1.4506806  0.068468903   -2.3831345   0.93245389   520346 
 3597000    1.0093179   -2.3833111   -2.3833111   -1.4503032  0.063099729   -2.3833111   0.93300793   520346 
 3598000    1.0095004   -2.3827762   -2.3827762   -1.4495996  0.068732626   -2.3827762   0.93317663   520346 
 3599000    1.0085475   -2.3832349   -2.3832349   -1.4509391  0.084939727   -2.3832349   0.93229577   520346 
 3600000    1.0070211   -2.3812953   -2.3812953   -1.4504105  0.068117754   -2.3812953   0.93088478   520346 
 3601000    1.0076061   -2.3825941   -2.3825941   -1.4511685  0.082828352   -2.3825941    0.9314256   520346 
 3602000    1.0078209    -2.382605    -2.382605   -1.4509808   0.06806048    -2.382605   0.93162416   520346 
 3603000    1.0072232   -2.3813163   -2.3813163   -1.4502447  0.052706173   -2.3813163   0.93107167   520346 
 3604000    1.0061879   -2.3808704   -2.3808704   -1.4507558  0.067465446   -2.3808704    0.9301146   520346 
 3605000    1.0090702   -2.3837892   -2.3837892   -1.4510103  0.070526875   -2.3837892   0.93277894   520346 
 3606000     1.005655    -2.381089    -2.381089    -1.451467  0.061813159    -2.381089     0.929622   520346 
 3607000    1.0061732   -2.3813676   -2.3813676   -1.4512665  0.067427175   -2.3813676   0.93010103   520346 
 3608000    1.0076489   -2.3822386   -2.3822386   -1.4507735  0.076970213   -2.3822386   0.93146518   520346 
 3609000    1.0082929   -2.3829413   -2.3829413   -1.4508809  0.069398521   -2.3829413   0.93206044   520346 
 3610000    1.0084496   -2.3830417   -2.3830417   -1.4508364  0.070480446   -2.3830417   0.93220526   520346 
 3611000    1.0080932   -2.3827632   -2.3827632   -1.4508874  0.066923356   -2.3827632    0.9318758   520346 
 3612000    1.0088987    -2.383935    -2.383935   -1.4513145   0.07127183    -2.383935   0.93262044   520346 
 3613000    1.0084815   -2.3821131   -2.3821131   -1.4498782  0.080794205   -2.3821131   0.93223482   520346 
 3614000    1.0097577    -2.384101    -2.384101   -1.4506865  0.063330974    -2.384101   0.93341448   520346 
 3615000    1.0082723   -2.3820212   -2.3820212   -1.4499798  0.059964835   -2.3820212   0.93204142   520346 
 3616000    1.0072084    -2.381899    -2.381899   -1.4508411  0.059941512    -2.381899   0.93105791   520346 
 3617000    1.0100065   -2.3835872   -2.3835872   -1.4499427   0.06174796   -2.3835872   0.93364447   520346 
 3618000    1.0080674   -2.3817648   -2.3817648   -1.4499128   0.07736916   -2.3817648   0.93185201   520346 
 3619000    1.0081917   -2.3816303   -2.3816303   -1.4496634  0.072353418   -2.3816303    0.9319669   520346 
 3620000    1.0090602   -2.3830036   -2.3830036   -1.4502338  0.063577302   -2.3830036   0.93276976   520346 
 3621000     1.007472   -2.3806867   -2.3806867    -1.449385  0.075619122   -2.3806867   0.93130161   520346 
 3622000    1.0100312   -2.3833306   -2.3833306   -1.4496632  0.067643176   -2.3833306   0.93366736   520346 
 3623000    1.0067581   -2.3800685   -2.3800685   -1.4494268   0.07370363   -2.3800685   0.93064173   520346 
 3624000    1.0054529   -2.3797863   -2.3797863   -1.4503512  0.078286077   -2.3797863   0.92943516   520346 
 3625000    1.0069916   -2.3813211   -2.3813211   -1.4504636  0.066835443   -2.3813211   0.93085749   520346 
 3626000    1.0090008   -2.3828012   -2.3828012   -1.4500864  0.071625186   -2.3828012   0.93271483   520346 
 3627000    1.0074863   -2.3817062   -2.3817062   -1.4503914  0.069372383   -2.3817062   0.93131488   520346 
 3628000    1.0084169   -2.3831908   -2.3831908   -1.4510157  0.060900408   -2.3831908   0.93217511   520346 
 3629000    1.0098051   -2.3842533   -2.3842533    -1.450795  0.063639366   -2.3842533   0.93345829   520346 
 3630000    1.0073672   -2.3823543   -2.3823543   -1.4511496  0.066026266   -2.3823543   0.93120475   520346 
 3631000    1.0088004   -2.3818145   -2.3818145   -1.4492849  0.065152339   -2.3818145   0.93252954   520346 
 3632000    1.0101822   -2.3831589   -2.3831589   -1.4493519  0.075804107   -2.3831589   0.93380693   520346 
 3633000    1.0081834   -2.3824492   -2.3824492     -1.45049  0.077508347   -2.3824492   0.93195921   520346 
 3634000    1.0066117   -2.3810682   -2.3810682   -1.4505618    0.0742453   -2.3810682   0.93050639   520346 
 3635000    1.0073729   -2.3806864   -2.3806864   -1.4494764  0.071755824   -2.3806864      0.93121   520346 
 3636000    1.0070638   -2.3807234   -2.3807234   -1.4497991  0.072724487   -2.3807234   0.93092432   520346 
 3637000    1.0089916   -2.3815815   -2.3815815   -1.4488752  0.070318792   -2.3815815   0.93270634   520346 
 3638000    1.0079304   -2.3815092   -2.3815092   -1.4497838  0.066812218   -2.3815092   0.93172539   520346 
 3639000    1.0078151   -2.3809043   -2.3809043   -1.4492856  0.072871735   -2.3809043   0.93161874   520346 
 3640000    1.0083143   -2.3822281   -2.3822281   -1.4501479  0.066041019   -2.3822281   0.93208019   520346 
 3641000    1.0096024   -2.3828981   -2.3828981   -1.4496271  0.064268238   -2.3828981   0.93327097   520346 
 3642000    1.0076656   -2.3806838   -2.3806838   -1.4492032  0.074803958   -2.3806838   0.93148062   520346 
 3643000     1.006684   -2.3787376   -2.3787376   -1.4481644  0.081038577   -2.3787376   0.93057319   520346 
 3644000    1.0072827   -2.3792758   -2.3792758   -1.4481492  0.065515842   -2.3792758   0.93112664   520346 
 3645000    1.0092408   -2.3808527   -2.3808527    -1.447916  0.065541328   -2.3808527   0.93293672   520346 
 3646000    1.0085172   -2.3804564   -2.3804564   -1.4481886  0.057512148   -2.3804564   0.93226781   520346 
 3647000    1.0094987   -2.3812619   -2.3812619   -1.4480869  0.063555414   -2.3812619   0.93317504   520346 
 3648000    1.0107454   -2.3824474   -2.3824474   -1.4481199  0.059380254   -2.3824474   0.93432749   520346 
 3649000    1.0083172   -2.3798964   -2.3798964   -1.4478135  0.072803322   -2.3798964   0.93208294   520346 
 3650000    1.0094472   -2.3802279   -2.3802279   -1.4471004  0.071697116   -2.3802279   0.93312749   520346 
 3651000    1.0072887   -2.3788632   -2.3788632    -1.447731  0.071388078   -2.3788632   0.93113221   520346 
 3652000    1.0088376   -2.3798062   -2.3798062   -1.4472422  0.071466269   -2.3798062   0.93256397   520346 
 3653000    1.0094524   -2.3810672   -2.3810672    -1.447935  0.078708587   -2.3810672   0.93313227   520346 
 3654000    1.0075902   -2.3799008   -2.3799008   -1.4484899  0.070090954   -2.3799008   0.93141085   520346 
 3655000    1.0082841   -2.3794487   -2.3794487   -1.4473964  0.071987249   -2.3794487   0.93205234   520346 
 3656000    1.0075799   -2.3785885   -2.3785885   -1.4471871  0.076572968   -2.3785885   0.93140138   520346 
 3657000    1.0099338   -2.3813429   -2.3813429   -1.4477656  0.064929943   -2.3813429   0.93357727   520346 
 3658000    1.0057574   -2.3786785   -2.3786785   -1.4489618  0.064533368   -2.3786785   0.92971667   520346 
 3659000    1.0073942   -2.3801397   -2.3801397     -1.44891  0.075752713   -2.3801397   0.93122974   520346 
 3660000    1.0083561   -2.3809048   -2.3809048    -1.448786  0.074949466   -2.3809048   0.93211889   520346 
 3661000    1.0067731   -2.3798166   -2.3798166   -1.4491611  0.063069225   -2.3798166   0.93065559   520346 
 3662000    1.0076174   -2.3803252   -2.3803252   -1.4488892   0.06680448   -2.3803252   0.93143606   520346 
 3663000    1.0066565   -2.3794196   -2.3794196   -1.4488719  0.074154517   -2.3794196   0.93054773   520346 
 3664000    1.0084631   -2.3818894   -2.3818894   -1.4496716  0.060720165   -2.3818894   0.93221781   520346 
 3665000    1.0081085   -2.3805118   -2.3805118   -1.4486217  0.063677528   -2.3805118   0.93189004   520346 
 3666000    1.0079171   -2.3808643   -2.3808643   -1.4491512  0.060765893   -2.3808643   0.93171307   520346 
 3667000    1.0063767     -2.37956     -2.37956   -1.4492709  0.071086731     -2.37956   0.93028911   520346 
 3668000     1.008857   -2.3821351   -2.3821351   -1.4495532   0.07132125   -2.3821351    0.9325819   520346 
 3669000    1.0082432   -2.3808514   -2.3808514   -1.4488369  0.066590822   -2.3808514   0.93201449   520346 
 3670000     1.008632   -2.3812419   -2.3812419   -1.4488679  0.069463692   -2.3812419   0.93237393   520346 
 3671000    1.0088627   -2.3816876   -2.3816876   -1.4491005  0.081034401   -2.3816876   0.93258713   520346 
 3672000    1.0076184   -2.3818439   -2.3818439    -1.450407  0.074574881   -2.3818439   0.93143692   520346 
 3673000    1.0053746    -2.380049    -2.380049   -1.4506862  0.059397073    -2.380049   0.92936275   520346 
 3674000    1.0069555   -2.3819355   -2.3819355   -1.4511113  0.059653798   -2.3819355   0.93082421   520346 
 3675000    1.0075343   -2.3813966   -2.3813966   -1.4500374  0.075719612   -2.3813966   0.93135919   520346 
 3676000    1.0062631   -2.3801033   -2.3801033   -1.4499191  0.061041829   -2.3801033   0.93018413   520346 
 3677000    1.0097566   -2.3831716   -2.3831716   -1.4497581  0.064043236   -2.3831716   0.93341352   520346 
 3678000    1.0077687   -2.3810107   -2.3810107   -1.4494348  0.078401969   -2.3810107   0.93157585   520346 
 3679000    1.0070921   -2.3808784   -2.3808784   -1.4499279  0.068186187   -2.3808784   0.93095046   520346 
 3680000    1.0093956   -2.3824194   -2.3824194   -1.4493396  0.077625469   -2.3824194   0.93307976   520346 
 3681000    1.0084542   -2.3826199   -2.3826199   -1.4504104    0.0546519   -2.3826199   0.93220957   520346 
 3682000    1.0058189   -2.3801392   -2.3801392   -1.4503656  0.066519311   -2.3801392   0.92977354   520346 
 3683000    1.0072892   -2.3808117   -2.3808117   -1.4496791  0.077975961   -2.3808117   0.93113266   520346 
 3684000    1.0072213   -2.3815172   -2.3815172   -1.4504473  0.068826023   -2.3815172    0.9310699   520346 
 3685000    1.0058357   -2.3801072   -2.3801072   -1.4503182  0.075192327   -2.3801072     0.929789   520346 
 3686000    1.0054686   -2.3815828   -2.3815828   -1.4521331  0.062010676   -2.3815828    0.9294497   520346 
 3687000    1.0075821    -2.383615    -2.383615   -1.4522116  0.068384861    -2.383615   0.93140336   520346 
 3688000    1.0055575   -2.3815726   -2.3815726   -1.4520407  0.067930525   -2.3815726   0.92953189   520346 
 3689000    1.0088908   -2.3825992   -2.3825992   -1.4499861  0.069375528   -2.3825992   0.93261314   520346 
 3690000    1.0075213   -2.3818513   -2.3818513   -1.4505041  0.062217884   -2.3818513   0.93134717   520346 
 3691000    1.0079551   -2.3823059   -2.3823059   -1.4505577  0.054129964   -2.3823059   0.93174823   520346 
 3692000    1.0068654   -2.3811476   -2.3811476   -1.4504067  0.062787846   -2.3811476   0.93074088   520346 
 3693000    1.0077927    -2.382089    -2.382089    -1.450491   0.06408529    -2.382089   0.93159804   520346 
 3694000    1.0070734   -2.3819818   -2.3819818   -1.4510487  0.064192037   -2.3819818   0.93093313   520346 
 3695000    1.0080566   -2.3829584   -2.3829584   -1.4511164  0.051578031   -2.3829584   0.93184204   520346 
 3696000    1.0076953   -2.3818017   -2.3818017   -1.4502936  0.071478808   -2.3818017   0.93150803   520346 
 3697000    1.0073232   -2.3812582   -2.3812582   -1.4500941  0.061952354   -2.3812582   0.93116405   520346 
 3698000     1.007704    -2.381636    -2.381636   -1.4501199  0.063545471    -2.381636   0.93151607   520346 
 3699000    1.0092078   -2.3829338   -2.3829338   -1.4500276  0.077468328   -2.3829338   0.93290619   520346 
 3700000    1.0102051   -2.3838417   -2.3838417   -1.4500136  0.065517848   -2.3838417   0.93382804   520346 
 3701000    1.0092617   -2.3831437   -2.3831437   -1.4501876  0.084176098   -2.3831437   0.93295602   520346 
 3702000    1.0072918    -2.381723    -2.381723    -1.450588  0.075219621    -2.381723   0.93113499   520346 
 3703000    1.0064584   -2.3808261   -2.3808261   -1.4504614  0.062622308   -2.3808261   0.93036465   520346 
 3704000    1.0066947   -2.3805863   -2.3805863   -1.4500032   0.07077676   -2.3805863   0.93058312   520346 
 3705000    1.0075439   -2.3805381   -2.3805381     -1.44917  0.063301485   -2.3805381   0.93136812   520346 
 3706000    1.0080225    -2.381027    -2.381027   -1.4492166  0.066324816    -2.381027   0.93181046   520346 
 3707000    1.0088815   -2.3818406   -2.3818406   -1.4492361  0.063943488   -2.3818406   0.93260452   520346 
 3708000    1.0065256   -2.3793513   -2.3793513   -1.4489246   0.07036806   -2.3793513   0.93042672   520346 
 3709000    1.0076582    -2.379968    -2.379968   -1.4484943  0.061891236    -2.379968   0.93147375   520346 
 3710000    1.0075636   -2.3802685   -2.3802685   -1.4488822  0.068273175   -2.3802685   0.93138631   520346 
 3711000    1.0080353    -2.379888    -2.379888   -1.4480656  0.073830198    -2.379888   0.93182236   520346 
 3712000    1.0093805   -2.3813488   -2.3813488    -1.448283  0.061376021   -2.3813488   0.93306581   520346 
 3713000    1.0088014   -2.3814946   -2.3814946   -1.4489641  0.074257744   -2.3814946   0.93253048   520346 
 3714000     1.008249   -2.3805622   -2.3805622   -1.4485423  0.067259472   -2.3805622    0.9320199   520346 
 3715000    1.0086568   -2.3803044   -2.3803044   -1.4479076  0.064428929   -2.3803044   0.93239682   520346 
 3716000    1.0074665   -2.3786925   -2.3786925   -1.4473959  0.079299104   -2.3786925   0.93129654   520346 
 3717000     1.008123   -2.3796614   -2.3796614   -1.4477579   0.06778733   -2.3796614   0.93190343   520346 
 3718000    1.0076945     -2.37898     -2.37898   -1.4474727  0.073673749     -2.37898   0.93150731   520346 
 3719000    1.0073396   -2.3791159   -2.3791159   -1.4479367  0.074117163   -2.3791159   0.93117925   520346 
 3720000    1.0078893   -2.3801251   -2.3801251   -1.4484377  0.061896128   -2.3801251   0.93168741   520346 
 3721000    1.0065493    -2.378309    -2.378309   -1.4478604  0.063853174    -2.378309   0.93044864   520346 
 3722000    1.0066639   -2.3793962   -2.3793962   -1.4488416  0.055177133   -2.3793962   0.93055463   520346 
 3723000    1.0065529   -2.3792719   -2.3792719   -1.4488199  0.049898707   -2.3792719   0.93045203   520346 
 3724000    1.0055894   -2.3785634   -2.3785634    -1.449002  0.057207664   -2.3785634   0.92956136   520346 
 3725000    1.0074365   -2.3794553   -2.3794553   -1.4481865  0.062854288   -2.3794553   0.93126877   520346 
 3726000     1.006676   -2.3785674   -2.3785674   -1.4480016   0.05386841   -2.3785674   0.93056577   520346 
 3727000    1.0089157   -2.3808666   -2.3808666   -1.4482305  0.065536061   -2.3808666   0.93263614   520346 
 3728000    1.0099886   -2.3819638   -2.3819638   -1.4483359  0.074921545   -2.3819638   0.93362793   520346 
 3729000    1.0084697   -2.3805835   -2.3805835   -1.4483595  0.072852884   -2.3805835   0.93222392   520346 
 3730000    1.0092207   -2.3810465   -2.3810465   -1.4481284  0.070341969   -2.3810465    0.9329181   520346 
 3731000    1.0078048   -2.3805953   -2.3805953   -1.4489861  0.068191106   -2.3805953   0.93160923   520346 
 3732000    1.0084825   -2.3808063   -2.3808063   -1.4485706  0.058091099   -2.3808063   0.93223572   520346 
 3733000    1.0072428   -2.3806238   -2.3806238    -1.449534  0.064706514   -2.3806238   0.93108972   520346 
 3734000    1.0071958   -2.3805373   -2.3805373    -1.449491  0.066010659   -2.3805373   0.93104632   520346 
 3735000    1.0075848   -2.3799293   -2.3799293   -1.4485234  0.062556368   -2.3799293   0.93140592   520346 
 3736000    1.0082002   -2.3814398   -2.3814398    -1.449465  0.056602664   -2.3814398   0.93197477   520346 
 3737000    1.0070116   -2.3792574   -2.3792574   -1.4483814  0.063171092   -2.3792574     0.930876   520346 
 3738000    1.0097448   -2.3817983   -2.3817983   -1.4483957  0.060322058   -2.3817983   0.93340262   520346 
 3739000    1.0094247   -2.3815342   -2.3815342   -1.4484275  0.058984534   -2.3815342    0.9331067   520346 
 3740000     1.009097   -2.3811506   -2.3811506   -1.4483469  0.069769692   -2.3811506   0.93280371   520346 
 3741000    1.0071917    -2.379526    -2.379526   -1.4484834  0.069802765    -2.379526   0.93104252   520346 
 3742000    1.0076807   -2.3801941   -2.3801941   -1.4486995  0.056120814   -2.3801941   0.93149458   520346 
 3743000    1.0084825   -2.3808292   -2.3808292   -1.4485935  0.062315256   -2.3808292    0.9322357   520346 
 3744000    1.0076669   -2.3809914   -2.3809914   -1.4495096    0.0716859   -2.3809914    0.9314818   520346 
 3745000    1.0101298   -2.3820907   -2.3820907   -1.4483322  0.074796811   -2.3820907    0.9337585   520346 
 3746000    1.0089398   -2.3816211   -2.3816211   -1.4489627  0.060765215   -2.3816211   0.93265843   520346 
 3747000    1.0089712   -2.3816357   -2.3816357   -1.4489482  0.057446197   -2.3816357   0.93268745   520346 
 3748000    1.0078786   -2.3797004   -2.3797004   -1.4480229  0.081233076   -2.3797004   0.93167747   520346 
 3749000    1.0103626   -2.3817912   -2.3817912   -1.4478175  0.068977425   -2.3817912    0.9339737   520346 
 3750000     1.007975   -2.3809093   -2.3809093   -1.4491427    0.0558954   -2.3809093   0.93176661   520346 
 3751000    1.0069225   -2.3789858   -2.3789858   -1.4481922  0.063391642   -2.3789858   0.93079367   520346 
 3752000    1.0083215    -2.380137    -2.380137   -1.4480501  0.059134645    -2.380137    0.9320869   520346 
 3753000    1.0080399   -2.3805791   -2.3805791   -1.4487525  0.072902698   -2.3805791   0.93182654   520346 
 3754000     1.007105   -2.3791604   -2.3791604    -1.448198  0.058276573   -2.3791604   0.93096241   520346 
 3755000    1.0066766   -2.3786986   -2.3786986   -1.4481323  0.056299811   -2.3786986   0.93056638   520346 
 3756000    1.0073244   -2.3792439   -2.3792439   -1.4480788  0.065801283   -2.3792439   0.93116516   520346 
 3757000    1.0064352   -2.3792856   -2.3792856   -1.4489425  0.072047728   -2.3792856   0.93034317   520346 
 3758000    1.0079241   -2.3808379   -2.3808379   -1.4491183  0.066225594   -2.3808379   0.93171954   520346 
 3759000    1.0070921   -2.3800044   -2.3800044    -1.449054  0.069768676   -2.3800044   0.93095048   520346 
 3760000     1.006642   -2.3795074   -2.3795074    -1.448973  0.052897179   -2.3795074   0.93053436   520346 
 3761000    1.0060537   -2.3788632   -2.3788632   -1.4488727  0.069991404   -2.3788632   0.92999051   520346 
 3762000     1.008208   -2.3807339   -2.3807339   -1.4487519  0.066346215   -2.3807339   0.93198196   520346 
 3763000    1.0066175   -2.3794795   -2.3794795   -1.4489678  0.059894255   -2.3794795   0.93051175   520346 
 3764000    1.0077709   -2.3808962   -2.3808962   -1.4493183  0.061773721   -2.3808962   0.93157787   520346 
 3765000    1.0088443   -2.3813059   -2.3813059   -1.4487358  0.069774996   -2.3813059   0.93257015   520346 
 3766000    1.0085234   -2.3798074   -2.3798074   -1.4475339  0.067614407   -2.3798074   0.93227354   520346 
 3767000    1.0088003   -2.3804397   -2.3804397   -1.4479103   0.06134218   -2.3804397   0.93252948   520346 
 3768000    1.0065409   -2.3791241   -2.3791241   -1.4486832  0.072915493   -2.3791241   0.93044094   520346 
 3769000    1.0076267   -2.3805367   -2.3805367   -1.4490921  0.058535259   -2.3805367    0.9314446   520346 
 3770000    1.0088122   -2.3821899   -2.3821899   -1.4496494  0.065131543   -2.3821899   0.93254049   520346 
 3771000    1.0063031    -2.380719    -2.380719   -1.4504979  0.056953909    -2.380719    0.9302211   520346 
 3772000    1.0058839   -2.3809371   -2.3809371   -1.4511035  0.066298614   -2.3809371   0.92983361   520346 
 3773000    1.0072006   -2.3816845   -2.3816845   -1.4506338  0.069083453   -2.3816845   0.93105074   520346 
 3774000    1.0081908   -2.3819714   -2.3819714   -1.4500053  0.068699079   -2.3819714   0.93196608   520346 
 3775000    1.0075839   -2.3816314   -2.3816314   -1.4502263  0.075998314   -2.3816314   0.93140502   520346 
 3776000    1.0074655   -2.3817324   -2.3817324   -1.4504368  0.079988721   -2.3817324   0.93129562   520346 
 3777000    1.0062539   -2.3809747   -2.3809747    -1.450799  0.060061697   -2.3809747   0.93017564   520346 
 3778000    1.0076798   -2.3824191   -2.3824191   -1.4509254  0.066212733   -2.3824191   0.93149368   520346 
 3779000    1.0084786   -2.3836332   -2.3836332   -1.4514011  0.059077525   -2.3836332    0.9322321   520346 
 3780000     1.007206   -2.3824321   -2.3824321   -1.4513764  0.073261932   -2.3824321   0.93105568   520346 
 3781000    1.0055826   -2.3808395   -2.3808395   -1.4512844  0.078588333   -2.3808395   0.92955503   520346 
 3782000    1.0067259   -2.3824678   -2.3824678   -1.4518559  0.064496148   -2.3824678   0.93061192   520346 
 3783000    1.0081604   -2.3840134   -2.3840134   -1.4520754   0.06352358   -2.3840134   0.93193801   520346 
 3784000    1.0060497   -2.3822086   -2.3822086   -1.4522217  0.056836307   -2.3822086   0.92998688   520346 
 3785000    1.0072739   -2.3831941   -2.3831941   -1.4520756    0.0546731   -2.3831941   0.93111853   520346 
 3786000    1.0089913    -2.383214    -2.383214    -1.450508  0.069241987    -2.383214   0.93270605   520346 
 3787000     1.007638   -2.3816017   -2.3816017   -1.4501467  0.065691894   -2.3816017   0.93145503   520346 
 3788000    1.0097007   -2.3839304   -2.3839304   -1.4505686  0.064797541   -2.3839304   0.93336181   520346 
 3789000    1.0088746   -2.3839051   -2.3839051    -1.451307  0.067559245   -2.3839051   0.93259813   520346 
 3790000    1.0086408   -2.3834828   -2.3834828   -1.4511007  0.065862292   -2.3834828   0.93238205   520346 
 3791000    1.0086821   -2.3833107   -2.3833107   -1.4508904  0.073608068   -2.3833107   0.93242025   520346 
 3792000    1.0055812   -2.3802074   -2.3802074   -1.4506536  0.070772428   -2.3802074   0.92955381   520346 
 3793000    1.0087778   -2.3823791   -2.3823791   -1.4498704  0.066570266   -2.3823791   0.93250871   520346 
 3794000    1.0080457   -2.3822674   -2.3822674   -1.4504355  0.063743938   -2.3822674   0.93183195   520346 
 3795000    1.0076219   -2.3822759   -2.3822759   -1.4508358  0.067600195   -2.3822759   0.93144014   520346 
 3796000    1.0081636   -2.3825688   -2.3825688   -1.4506279  0.065752483   -2.3825688   0.93194094   520346 
 3797000     1.008205   -2.3836861   -2.3836861    -1.451707  0.062452286   -2.3836861   0.93197917   520346 
 3798000    1.0057674   -2.3818701   -2.3818701   -1.4521442  0.058688509   -2.3818701   0.92972585   520346 
 3799000    1.0068564    -2.381905    -2.381905   -1.4511724  0.071487543    -2.381905   0.93073258   520346 
 3800000    1.0074559   -2.3828427   -2.3828427    -1.451556  0.075190794   -2.3828427   0.93128672   520346 
 3801000    1.0088243   -2.3827321   -2.3827321   -1.4501805  0.078601765   -2.3827321   0.93255163   520346 
 3802000    1.0080301    -2.381954    -2.381954   -1.4501365  0.075007981    -2.381954    0.9318175   520346 
 3803000    1.0081128   -2.3824069   -2.3824069   -1.4505129  0.071141436   -2.3824069   0.93189398   520346 
 3804000    1.0090407   -2.3831566   -2.3831566   -1.4504048  0.071220042   -2.3831566   0.93275173   520346 
 3805000    1.0092976   -2.3831786   -2.3831786   -1.4501894  0.061241909   -2.3831786   0.93298914   520346 
 3806000    1.0087168   -2.3836544   -2.3836544   -1.4512021  0.071557943   -2.3836544   0.93245229   520346 
 3807000    1.0101267     -2.38468     -2.38468   -1.4509244   0.06490951     -2.38468   0.93375559   520346 
 3808000    1.0070588    -2.381232    -2.381232   -1.4503124  0.057529078    -2.381232   0.93091961   520346 
 3809000    1.0066326   -2.3811845   -2.3811845   -1.4506589  0.066742881   -2.3811845   0.93052564   520346 
 3810000     1.006059   -2.3806329   -2.3806329   -1.4506374  0.062476015   -2.3806329   0.92999547   520346 
 3811000    1.0075488   -2.3810793   -2.3810793   -1.4497067  0.064547773   -2.3810793   0.93137261   520346 
 3812000    1.0083978   -2.3823276   -2.3823276   -1.4501702  0.075931186   -2.3823276   0.93215744   520346 
 3813000    1.0058807   -2.3801667   -2.3801667    -1.450336  0.073646109   -2.3801667   0.92983061   520346 
 3814000    1.0052347   -2.3805279   -2.3805279   -1.4512944  0.068404164   -2.3805279   0.92923346   520346 
 3815000    1.0061571   -2.3811082   -2.3811082   -1.4510221  0.072706022   -2.3811082    0.9300861   520346 
 3816000    1.0057529   -2.3807617   -2.3807617   -1.4510492  0.070048486   -2.3807617   0.92971248   520346 
 3817000    1.0070451    -2.381437    -2.381437     -1.45053  0.070308464    -2.381437   0.93090699   520346 
 3818000    1.0078495    -2.381849    -2.381849   -1.4501985  0.054830595    -2.381849   0.93165056   520346 
 3819000    1.0063463   -2.3794712   -2.3794712   -1.4492102  0.075689635   -2.3794712   0.93026107   520346 
 3820000    1.0058298   -2.3793502   -2.3793502   -1.4495667  0.067182896   -2.3793502   0.92978355   520346 
 3821000    1.0071992   -2.3806212   -2.3806212   -1.4495717  0.071632815   -2.3806212   0.93104945   520346 
 3822000    1.0063417   -2.3795974   -2.3795974   -1.4493406  0.075789658   -2.3795974    0.9302568   520346 
 3823000    1.0079381   -2.3810493   -2.3810493   -1.4493168  0.061029328   -2.3810493    0.9317325   520346 
 3824000    1.0090845   -2.3810915   -2.3810915   -1.4482993  0.073198317   -2.3810915   0.93279216   520346 
 3825000    1.0082555   -2.3813771   -2.3813771   -1.4493513  0.075570468   -2.3813771   0.93202585   520346 
 3826000    1.0083095   -2.3813288   -2.3813288    -1.449253  0.067678106   -2.3813288   0.93207583   520346 
 3827000    1.0092295     -2.38225     -2.38225   -1.4493237  0.065079362     -2.38225   0.93292623   520346 
 3828000    1.0080126   -2.3812441   -2.3812441   -1.4494428  0.057532491   -2.3812441    0.9318013   520346 
 3829000    1.0090808   -2.3824898   -2.3824898   -1.4497011  0.069449556   -2.3824898   0.93278874   520346 
 3830000     1.007609   -2.3816424   -2.3816424   -1.4502142  0.078846647   -2.3816424   0.93142822   520346 
 3831000    1.0084113   -2.3818479   -2.3818479    -1.449678  0.068637083   -2.3818479   0.93216989   520346 
 3832000    1.0086195   -2.3822663   -2.3822663    -1.449904  0.064500695   -2.3822663   0.93236238   520346 
 3833000    1.0095287   -2.3830806   -2.3830806   -1.4498778  0.056572272   -2.3830806   0.93320281   520346 
 3834000    1.0098733   -2.3823844   -2.3823844    -1.448863  0.074129149   -2.3823844    0.9335214   520346 
 3835000    1.0075522   -2.3804798   -2.3804798   -1.4491041   0.07409656   -2.3804798   0.93137571   520346 
 3836000    1.0072945   -2.3807702   -2.3807702   -1.4496327  0.065254785   -2.3807702   0.93113754   520346 
 3837000    1.0064921   -2.3799683   -2.3799683   -1.4495725  0.074112283   -2.3799683   0.93039576   520346 
 3838000    1.0093832   -2.3819577   -2.3819577   -1.4488894  0.056880719   -2.3819577   0.93306829   520346 
 3839000    1.0082015   -2.3812798   -2.3812798   -1.4493039   0.05947742   -2.3812798   0.93197596   520346 
 3840000    1.0081992   -2.3802489   -2.3802489    -1.448275  0.078209152   -2.3802489   0.93197383   520346 
 3841000    1.0062177   -2.3786445   -2.3786445   -1.4485024  0.056614738   -2.3786445    0.9301421   520346 
 3842000    1.0092677   -2.3816508   -2.3816508   -1.4486893  0.069983997   -2.3816508   0.93296157   520346 
 3843000    1.0065524   -2.3789547   -2.3789547   -1.4485031  0.070092316   -2.3789547   0.93045153   520346 
 3844000    1.0079203   -2.3806476   -2.3806476   -1.4489316  0.063055185   -2.3806476   0.93171606   520346 
 3845000    1.0091775   -2.3801845   -2.3801845   -1.4473064  0.081460542   -2.3801845   0.93287812   520346 
 3846000    1.0081424   -2.3784142   -2.3784142   -1.4464929  0.064353971   -2.3784142   0.93192131   520346 
 3847000    1.0087264   -2.3787769   -2.3787769   -1.4463158  0.067802955   -2.3787769   0.93246119   520346 
 3848000    1.0083745   -2.3792456   -2.3792456   -1.4471097  0.065434529   -2.3792456   0.93213588   520346 
 3849000    1.0071281   -2.3779829   -2.3779829   -1.4469991  0.059557659   -2.3779829   0.93098372   520346 
 3850000    1.0075267   -2.3783244   -2.3783244   -1.4469723   0.06587575   -2.3783244   0.93135217   520346 
 3851000    1.0075063   -2.3778499   -2.3778499   -1.4465166  0.080795969   -2.3778499   0.93133335   520346 
 3852000    1.0088769   -2.3789525   -2.3789525   -1.4463522  0.074701477   -2.3789525   0.93260027   520346 
 3853000    1.0094826   -2.3800402   -2.3800402     -1.44688  0.064110279   -2.3800402    0.9331602   520346 
 3854000    1.0081176   -2.3791905   -2.3791905   -1.4472921  0.073431949   -2.3791905   0.93189842   520346 
 3855000    1.0098384   -2.3807235   -2.3807235   -1.4472343  0.065648691   -2.3807235   0.93348911   520346 
 3856000    1.0078129   -2.3787951   -2.3787951   -1.4471784  0.064208891   -2.3787951    0.9316167   520346 
 3857000    1.0095361   -2.3809239   -2.3809239   -1.4477142  0.064458948   -2.3809239   0.93320964   520346 
 3858000    1.0077548   -2.3796764   -2.3796764   -1.4481134   0.06021608   -2.3796764   0.93156299   520346 
 3859000    1.0070751   -2.3785705   -2.3785705   -1.4476358  0.062358643   -2.3785705    0.9309347   520346 
 3860000    1.0079449   -2.3789049   -2.3789049   -1.4471661  0.054787383   -2.3789049    0.9317388   520346 
 3861000    1.0074549   -2.3774707   -2.3774707   -1.4461849  0.072228057   -2.3774707   0.93128583   520346 
 3862000    1.0069766   -2.3782469   -2.3782469   -1.4474032  0.069439596   -2.3782469   0.93084368   520346 
 3863000    1.0074404   -2.3791936   -2.3791936   -1.4479212   0.06952725   -2.3791936   0.93127243   520346 
 3864000    1.0085634   -2.3788649   -2.3788649   -1.4465543  0.072114395   -2.3788649   0.93231052   520346 
 3865000    1.0081416   -2.3778503   -2.3778503   -1.4459297  0.055105627   -2.3778503   0.93192054   520346 
 3866000    1.0076171   -2.3786086   -2.3786086   -1.4471728  0.058231895   -2.3786086   0.93143572   520346 
 3867000    1.0066827   -2.3774788   -2.3774788   -1.4469069  0.065755485   -2.3774788   0.93057198   520346 
 3868000    1.0076447   -2.3789487   -2.3789487   -1.4474874  0.055021069   -2.3789487   0.93146123   520346 
 3869000     1.007718   -2.3781857   -2.3781857   -1.4466567  0.073062832   -2.3781857   0.93152902   520346 
 3870000    1.0099514   -2.3801237   -2.3801237   -1.4465302  0.064608884   -2.3801237   0.93359354   520346 
 3871000    1.0085887    -2.379474    -2.379474   -1.4471401  0.067005944    -2.379474    0.9323339   520346 
 3872000    1.0074589   -2.3786445   -2.3786445   -1.4473549   0.06941048   -2.3786445   0.93128955   520346 
 3873000    1.0087074   -2.3798785   -2.3798785   -1.4474348  0.063495947   -2.3798785   0.93244364   520346 
 3874000    1.0081522    -2.380419    -2.380419   -1.4484887  0.063804209    -2.380419   0.93193036   520346 
 3875000    1.0073458   -2.3798101   -2.3798101   -1.4486252  0.072282168   -2.3798101   0.93118492   520346 
 3876000    1.0067785   -2.3797867   -2.3797867   -1.4491262  0.061296468   -2.3797867   0.93066057   520346 
 3877000    1.0086041    -2.381614    -2.381614   -1.4492659   0.06743266    -2.381614   0.93234811   520346 
 3878000    1.0088529   -2.3817805   -2.3817805   -1.4492024  0.066994493   -2.3817805   0.93257813   520346 
 3879000      1.00889   -2.3820623   -2.3820623   -1.4494499  0.069387453   -2.3820623    0.9326124   520346 
 3880000    1.0082571   -2.3818333   -2.3818333    -1.449806  0.070015867   -2.3818333   0.93202732   520346 
 3881000    1.0087521   -2.3820372   -2.3820372   -1.4495522  0.071051248   -2.3820372   0.93248495   520346 
 3882000     1.008248   -2.3822626   -2.3822626   -1.4502437  0.068369741   -2.3822626    0.9320189   520346 
 3883000    1.0073165   -2.3812013   -2.3812013   -1.4500433  0.065184719   -2.3812013   0.93115791   520346 
 3884000    1.0091939   -2.3825655   -2.3825655   -1.4496722  0.068220313   -2.3825655   0.93289331   520346 
 3885000    1.0097932   -2.3837878   -2.3837878   -1.4503404   0.06321543   -2.3837878   0.93344734   520346 
 3886000    1.0084966   -2.3824944   -2.3824944   -1.4502456   0.06903905   -2.3824944   0.93224873   520346 
 3887000    1.0075634   -2.3812318   -2.3812318   -1.4498457  0.073438716   -2.3812318    0.9313861   520346 
 3888000    1.0107199    -2.383585    -2.383585    -1.449281  0.074667977    -2.383585   0.93430395   520346 
 3889000    1.0104589    -2.382957    -2.382957   -1.4488943  0.067066009    -2.382957   0.93406268   520346 
 3890000    1.0107145   -2.3827937   -2.3827937   -1.4484947  0.066464415   -2.3827937   0.93429899   520346 
 3891000    1.0100965   -2.3816471   -2.3816471   -1.4479194  0.068403176   -2.3816471   0.93372768   520346 
 3892000    1.0087605   -2.3804172   -2.3804172   -1.4479245  0.059312376   -2.3804172   0.93249274   520346 
 3893000    1.0092895   -2.3820394   -2.3820394   -1.4490577  0.070582613   -2.3820394    0.9329817   520346 
 3894000    1.0077096   -2.3801499   -2.3801499   -1.4486286  0.071914559   -2.3801499   0.93152127   520346 
 3895000    1.0075857   -2.3801786   -2.3801786   -1.4487719  0.057660943   -2.3801786   0.93140669   520346 
 3896000    1.0077526   -2.3817188   -2.3817188   -1.4501578  0.059785477   -2.3817188   0.93156098   520346 
 3897000     1.008721   -2.3824834   -2.3824834   -1.4500273  0.062260125   -2.3824834   0.93245614   520346 
 3898000    1.0088998   -2.3822756   -2.3822756   -1.4496542  0.075922752   -2.3822756   0.93262148   520346 
 3899000    1.0078225    -2.381257    -2.381257   -1.4496314  0.069468597    -2.381257    0.9316256   520346 
 3900000     1.008428   -2.3815803   -2.3815803   -1.4493949  0.071410732   -2.3815803   0.93218535   520346 
 3901000    1.0065749   -2.3806838   -2.3806838   -1.4502115  0.064014376   -2.3806838   0.93047233   520346 
 3902000    1.0091676   -2.3824939   -2.3824939   -1.4496248  0.056567194   -2.3824939   0.93286905   520346 
 3903000    1.0089369   -2.3827451   -2.3827451   -1.4500893  0.066138152   -2.3827451   0.93265575   520346 
 3904000    1.0095843   -2.3823687   -2.3823687   -1.4491145   0.06306953   -2.3823687   0.93325424   520346 
 3905000    1.0075733   -2.3801315   -2.3801315   -1.4487362  0.074486398   -2.3801315   0.93139526   520346 
 3906000    1.0088164    -2.380837    -2.380837   -1.4482927  0.069176771    -2.380837   0.93254434   520346 
 3907000    1.0079636   -2.3813549   -2.3813549   -1.4495988  0.064300643   -2.3813549   0.93175604   520346 
 3908000    1.0077287   -2.3806538   -2.3806538   -1.4491149  0.072181302   -2.3806538   0.93153886   520346 
 3909000      1.00743    -2.380585    -2.380585   -1.4493222  0.058680132    -2.380585   0.93126279   520346 
 3910000    1.0065786   -2.3802494   -2.3802494   -1.4497736   0.06889599   -2.3802494   0.93047577   520346 
 3911000    1.0068827   -2.3807082   -2.3807082   -1.4499513  0.061906348   -2.3807082    0.9307569   520346 
 3912000    1.0052611   -2.3791406   -2.3791406   -1.4498827   0.06334195   -2.3791406   0.92925784   520346 
 3913000    1.0079829   -2.3815715   -2.3815715   -1.4497976  0.079135368   -2.3815715   0.93177385   520346 
 3914000    1.0068785   -2.3807658   -2.3807658   -1.4500128     0.068384   -2.3807658     0.930753   520346 
 3915000      1.01054   -2.3838321   -2.3838321   -1.4496944  0.066261309   -2.3838321   0.93413769   520346 
 3916000    1.0084888   -2.3821304   -2.3821304   -1.4498889  0.077151391   -2.3821304   0.93224149   520346 
 3917000    1.0086191   -2.3830877   -2.3830877   -1.4507257  0.066706673   -2.3830877   0.93236198   520346 
 3918000    1.0116277   -2.3857103   -2.3857103   -1.4505671  0.053461707   -2.3857103   0.93514311   520346 
 3919000    1.0100131   -2.3835085   -2.3835085   -1.4498579  0.070644528   -2.3835085   0.93365059   520346 
 3920000    1.0077408    -2.382297    -2.382297   -1.4507469  0.072612741    -2.382297   0.93155007   520346 
 3921000    1.0081619   -2.3829288   -2.3829288   -1.4509894  0.071074358   -2.3829288   0.93193939   520346 
 3922000    1.0078325   -2.3829804   -2.3829804   -1.4513456  0.079530915   -2.3829804   0.93163485   520346 
 3923000    1.0086709    -2.383703    -2.383703   -1.4512932  0.076841465    -2.383703   0.93240988   520346 
 3924000    1.0089129   -2.3830739   -2.3830739   -1.4504403  0.070656837   -2.3830739   0.93263358   520346 
 3925000    1.0083519   -2.3822161   -2.3822161   -1.4501011  0.064771576   -2.3822161   0.93211497   520346 
 3926000    1.0079718   -2.3816542   -2.3816542   -1.4498906  0.062682894   -2.3816542   0.93176364   520346 
 3927000    1.0089713   -2.3828267   -2.3828267   -1.4501391  0.062352426   -2.3828267   0.93268752   520346 
 3928000    1.0093651   -2.3834953   -2.3834953   -1.4504437  0.067249657   -2.3834953   0.93305156   520346 
 3929000     1.008848   -2.3834352   -2.3834352   -1.4508616  0.066200558   -2.3834352   0.93257359   520346 
 3930000    1.0084192   -2.3829147   -2.3829147   -1.4507374  0.073774139   -2.3829147   0.93217722   520346 
 3931000    1.0071372   -2.3823197   -2.3823197   -1.4513275  0.048447235   -2.3823197   0.93099216   520346 
 3932000    1.0067261   -2.3810434   -2.3810434   -1.4504313  0.069611392   -2.3810434   0.93061211   520346 
 3933000     1.005656   -2.3805032   -2.3805032   -1.4508803  0.067753902   -2.3805032   0.92962288   520346 
 3934000    1.0057246   -2.3795319   -2.3795319   -1.4498456  0.063694444   -2.3795319   0.92968635   520346 
 3935000    1.0059204   -2.3789131   -2.3789131   -1.4490458  0.062739105   -2.3789131   0.92986733   520346 
 3936000    1.0090026   -2.3813756   -2.3813756   -1.4486592  0.066135116   -2.3813756   0.93271646   520346 
 3937000    1.0085047   -2.3806557   -2.3806557   -1.4483994   0.06818496   -2.3806557   0.93225622   520346 
 3938000    1.0086072    -2.381263    -2.381263    -1.448912  0.065852633    -2.381263   0.93235102   520346 
 3939000    1.0078476   -2.3811251   -2.3811251   -1.4494763  0.058091924   -2.3811251   0.93164881   520346 
 3940000    1.0067765   -2.3798367   -2.3798367    -1.449178  0.068493666   -2.3798367   0.93065873   520346 
 3941000     1.007754    -2.380666    -2.380666   -1.4491037  0.065524796    -2.380666   0.93156232   520346 
 3942000    1.0079103   -2.3800876   -2.3800876   -1.4483809  0.069695111   -2.3800876   0.93170675   520346 
 3943000    1.0092501    -2.381795    -2.381795   -1.4488498  0.066600745    -2.381795   0.93294527   520346 
 3944000    1.0076661   -2.3806069   -2.3806069   -1.4491259  0.066669188   -2.3806069     0.931481   520346 
 3945000    1.0073561   -2.3808501   -2.3808501   -1.4496556   0.07399231   -2.3808501   0.93119448   520346 
 3946000    1.0068314   -2.3811107   -2.3811107   -1.4504013  0.066887827   -2.3811107   0.93070941   520346 
 3947000     1.006619   -2.3802905   -2.3802905   -1.4497774  0.068091479   -2.3802905    0.9305131   520346 
 3948000    1.0065913   -2.3807986   -2.3807986   -1.4503111  0.070672327   -2.3807986   0.93048751   520346 
 3949000    1.0077212   -2.3821824   -2.3821824   -1.4506504  0.066522927   -2.3821824   0.93153201   520346 
 3950000     1.007841   -2.3823526   -2.3823526   -1.4507099  0.078988746   -2.3823526    0.9316427   520346 
 3951000    1.0076915    -2.382712    -2.382712   -1.4512074  0.063265668    -2.382712   0.93150456   520346 
 3952000    1.0077861   -2.3819576   -2.3819576   -1.4503656  0.061687455   -2.3819576   0.93159197   520346 
 3953000    1.0066908   -2.3806012   -2.3806012   -1.4500217  0.067261466   -2.3806012   0.93057949   520346 
 3954000    1.0071807   -2.3820013   -2.3820013   -1.4509689  0.053427431   -2.3820013   0.93103234   520346 
 3955000    1.0066809   -2.3809042   -2.3809042   -1.4503339  0.062098231   -2.3809042    0.9305703   520346 
 3956000    1.0058669   -2.3798058   -2.3798058   -1.4499879  0.065404186   -2.3798058   0.92981788   520346 
 3957000     1.007596    -2.382003    -2.382003   -1.4505867  0.062221514    -2.382003   0.93141623   520346 
 3958000    1.0078993   -2.3816123   -2.3816123   -1.4499156  0.078324645   -2.3816123   0.93169663   520346 
 3959000    1.0079545    -2.381913    -2.381913   -1.4501654  0.066526334    -2.381913   0.93174759   520346 
 3960000    1.0072778   -2.3813943   -2.3813943   -1.4502722  0.066009066   -2.3813943   0.93112211   520346 
 3961000    1.0061744   -2.3800163   -2.3800163   -1.4499142  0.079636786   -2.3800163   0.93010208   520346 
 3962000    1.0110876   -2.3846936   -2.3846936   -1.4500497   0.06937296   -2.3846936    0.9346439   520346 
 3963000    1.0080262   -2.3826117   -2.3826117   -1.4507978  0.067710753   -2.3826117   0.93181392   520346 
 3964000     1.007294   -2.3822526   -2.3822526   -1.4511155  0.070827729   -2.3822526    0.9311371   520346 
 3965000    1.0080989   -2.3830841   -2.3830841    -1.451203  0.064669752   -2.3830841    0.9318811   520346 
 3966000    1.0079801   -2.3837771   -2.3837771   -1.4520058   0.06300604   -2.3837771    0.9317713   520346 
 3967000    1.0076073   -2.3828094   -2.3828094   -1.4513827  0.076044184   -2.3828094   0.93142667   520346 
 3968000    1.0090981   -2.3828562   -2.3828562   -1.4500514  0.063610683   -2.3828562   0.93280479   520346 
 3969000    1.0080359   -2.3828535   -2.3828535   -1.4510306  0.075297359   -2.3828535   0.93182287   520346 
 3970000    1.0080726   -2.3823052   -2.3823052   -1.4504484  0.068847528   -2.3823052   0.93185681   520346 
 3971000    1.0077719   -2.3826596   -2.3826596   -1.4510807  0.069182039   -2.3826596   0.93157887   520346 
 3972000    1.0076074   -2.3826699   -2.3826699   -1.4512431  0.067103432   -2.3826699   0.93142674   520346 
 3973000    1.0077702   -2.3816376   -2.3816376   -1.4500603  0.068214797   -2.3816376   0.93157729   520346 
 3974000    1.0083386   -2.3817062   -2.3817062   -1.4496035   0.06824492   -2.3817062   0.93210266   520346 
 3975000    1.0069443   -2.3809784   -2.3809784   -1.4501646  0.078474421   -2.3809784   0.93081379   520346 
 3976000    1.0079265   -2.3812791   -2.3812791   -1.4495574  0.071014973   -2.3812791   0.93172171   520346 
 3977000     1.006193   -2.3802703   -2.3802703    -1.450151  0.071426929   -2.3802703   0.93011931   520346 
 3978000     1.007923    -2.381597    -2.381597   -1.4498785  0.061419751    -2.381597   0.93171854   520346 
 3979000    1.0073965   -2.3820519   -2.3820519     -1.45082  0.068150497   -2.3820519   0.93123183   520346 
 3980000    1.0092463   -2.3837062   -2.3837062   -1.4507645  0.064921578   -2.3837062   0.93294174   520346 
 3981000    1.0064589   -2.3811356   -2.3811356   -1.4507705  0.067731378   -2.3811356    0.9303651   520346 
 3982000    1.0055626   -2.3810533   -2.3810533   -1.4515167  0.070441477   -2.3810533   0.92953659   520346 
 3983000    1.0055166   -2.3804814   -2.3804814   -1.4509873  0.064670138   -2.3804814   0.92949405   520346 
 3984000    1.0065949    -2.382674    -2.382674   -1.4521832  0.057309507    -2.382674    0.9304908   520346 
 3985000    1.0071163   -2.3826216   -2.3826216   -1.4516488  0.054548186   -2.3826216   0.93097282   520346 
 3986000    1.0069589   -2.3822318   -2.3822318   -1.4514046  0.058069193   -2.3822318   0.93082726   520346 
 3987000    1.0060786   -2.3815147   -2.3815147   -1.4515011  0.065221849   -2.3815147   0.93001357   520346 
 3988000    1.0055224   -2.3818297   -2.3818297   -1.4523303  0.072629943   -2.3818297   0.92949938   520346 
 3989000     1.006225   -2.3815567   -2.3815567   -1.4514078  0.070528058   -2.3815567   0.93014886   520346 
 3990000    1.0065439   -2.3812677   -2.3812677    -1.450824   0.05672032   -2.3812677   0.93044371   520346 
 3991000    1.0070982   -2.3819138   -2.3819138   -1.4509578  0.068075339   -2.3819138   0.93095606   520346 
 3992000    1.0063299   -2.3812928   -2.3812928   -1.4510469  0.067620757   -2.3812928   0.93024587   520346 
 3993000    1.0055489   -2.3813693   -2.3813693   -1.4518454  0.063069773   -2.3813693   0.92952392   520346 
 3994000    1.0073864   -2.3829895   -2.3829895   -1.4517671  0.063306598   -2.3829895   0.93122248   520346 
 3995000    1.0070445   -2.3834972   -2.3834972   -1.4525908  0.064375459   -2.3834972   0.93090643   520346 
 3996000    1.0060028   -2.3828703   -2.3828703   -1.4529268  0.073682855   -2.3828703   0.92994345   520346 
 3997000    1.0069072   -2.3823316   -2.3823316   -1.4515521  0.068867849   -2.3823316   0.93077951   520346 
 3998000    1.0072681   -2.3830832   -2.3830832     -1.45197  0.065627015   -2.3830832   0.93111316   520346 
 3999000    1.0072184   -2.3836021   -2.3836021    -1.452535  0.076318503   -2.3836021   0.93106715   520346 
 4000000    1.0084821   -2.3847024   -2.3847024   -1.4524671  0.073142001   -2.3847024    0.9322353   520346 
Loop time of 14155 on 288 procs for 4000000 steps with 520346 atoms

Performance: 122076.916 tau/day, 282.585 timesteps/s
98.5% CPU use with 288 MPI tasks x 1 OpenMP threads

MPI task timing breakdown:
Section |  min time  |  avg time  |  max time  |%varavg|  %CPU | %total
-----------------------------------------------------------------------
Pair    | 843.67     | 2224       | 3701.5     |1200.8 |  98.6 | 15.71
Bond    | 2.695      | 2.8527     | 3.0126     |   3.9 | 100.0 |  0.02
Neigh   | 1333.3     | 3745.8     | 6494.9     |1861.1 |  99.5 | 26.46
Comm    | 2650.8     | 5615.9     | 9261       |1828.1 |  98.3 | 39.67
Output  | 175.21     | 179.24     | 185.81     |  26.5 |  96.8 |  1.27
Modify  | 1009.9     | 2282.9     | 5019.8     |1944.6 |  98.3 | 16.13
Other   |            | 104.4      |            |       |       |  0.74

Nlocal:        1806.76 ave        2359 max        1352 min
Histogram: 15 25 25 45 45 65 44 18 3 3
Nghost:        7746.70 ave       10673 max        3160 min
Histogram: 10 12 15 24 12 40 45 78 33 19
Neighs:        57258.5 ave       85432 max        8047 min
Histogram: 15 7 1 5 19 35 73 92 38 3

Total # of neighbors = 16490461
Ave neighs/atom = 31.691338
Ave special neighs/atom = 0.0000000
Neighbor list builds = 400000
Dangerous builds = 396000

Total wall time: 3:55:59
