LAMMPS (29 Oct 2020)
  using 1 OpenMP thread(s) per MPI task
# Simple rigid body system
# needed variables: startTemp, temp

units		lj
atom_style	full
dimension 	3
boundary	p p f
pair_style	lj/smooth/linear 2.5


variable 	sigma		equal 1.0
variable 	epsilon 	equal 1.0


region		box block 0 40 0 40 0 80
create_box 	3 box
Created orthogonal box = (0.0000000 0.0000000 0.0000000) to (40.000000 40.000000 80.000000)
  2 by 2 by 4 MPI processor grid

lattice 	sc 0.66
Lattice spacing in x,y,z = 1.1485556 1.1485556 1.1485556
region 		fluid block EDGE EDGE EDGE EDGE 2 40
create_atoms 	1 region fluid
Created 47775 atoms
  create_atoms CPU = 0.006 seconds

lattice 	sc 0.045
Lattice spacing in x,y,z = 2.8114422 2.8114422 2.8114422
region 		gas block EDGE EDGE EDGE EDGE 41 79
create_atoms    1 region gas
Created 0 atoms
  create_atoms CPU = 0.009 seconds

mass		1 1.0
mass		2 1.0
mass		3 1.0


group		solvent type 1
47775 atoms in group solvent


velocity 	solvent create ${startTemp} 563435 loop geom
velocity 	solvent create 1.0 563435 loop geom

neighbor 	0.4 bin

pair_coeff	1 1 1.0 1.0
pair_coeff	2 2 0.0 0.0
pair_coeff	3 3 0.0 0.0
pair_coeff	2 3 0.0 0.0
pair_coeff	1 2*3 0.0 0.0

pair_modify 	shift yes


balance 	1.05 shift z 10 1.05
Balancing ...
Neighbor list info ...
  update every 1 steps, delay 10 steps, check yes
  max neighbors/atom: 2000, page size: 100000
  master list distance cutoff = 2.9
  ghost atom cutoff = 2.9
  binsize = 1.45, bins = 28 28 56
  1 neighbor lists, perpetual/occasional/extra = 1 0 0
  (1) pair lj/smooth/linear, perpetual
      attributes: half, newton on
      pair build: half/bin/newton
      stencil: half/bin/3d/newton
      bin: standard
 rebalancing time: 0.006 seconds
  iteration count = 5
  initial/final maximal load/proc = 5508.0000 3240.0000
  initial/final imbalance factor  = 1.8446468 1.0850863
  x cuts: 0.0000000 0.5 1.0000000
  y cuts: 0.0000000 0.5 1.0000000
  z cuts: 0.0000000 0.1640625 0.3046875 0.453125 1.0000000


####################### WALLS ###########################


variable       epsilonWall equal 2*${epsilon}
variable       epsilonWall equal 2*1

variable       cutoffTop   equal   0.7147*${sigma}
variable       cutoffTop   equal   0.7147*1

variable       cutoffLow   equal   3*${sigma}
variable       cutoffLow   equal   3*1


fix            topWall all wall/lj93 zhi EDGE                ${epsilonWall} ${sigma} ${cutoffTop} units box
fix            topWall all wall/lj93 zhi EDGE                2 ${sigma} ${cutoffTop} units box
fix            topWall all wall/lj93 zhi EDGE                2 1 ${cutoffTop} units box
fix            topWall all wall/lj93 zhi EDGE                2 1 0.7147 units box

fix            lowWall all wall/lj93 zlo EDGE                ${epsilonWall} ${sigma} ${cutoffLow} units box
fix            lowWall all wall/lj93 zlo EDGE                2 ${sigma} ${cutoffLow} units box
fix            lowWall all wall/lj93 zlo EDGE                2 1 ${cutoffLow} units box
fix            lowWall all wall/lj93 zlo EDGE                2 1 3 units box


###################### COMPUTES ##########################

compute        bin1 solvent chunk/atom bin/1d z upper 1.0

######################	FIXES ############################

fix 		peclet solvent ave/chunk 1000 1 1000 bin1 density/number norm 		 sample ave one file density.profile

fix 		 temp solvent ave/chunk 1000 1 1000 bin1 temp norm sample ave one file temp.profile

#fix 		2 solvent nve/limit 0.1

#run 		100000
#unfix 		2

fix 		2 solvent nve # temp ${temp} ${temp} 10


## Thermostat


region		regthermo block EDGE EDGE EDGE EDGE 0 20

group 		thermo dynamic solvent region regthermo every 1000
dynamic group thermo defined

fix 		3 thermo langevin ${startTemp} ${temp} 10 156453
fix 		3 thermo langevin 1.0 ${temp} 10 156453
fix 		3 thermo langevin 1.0 1.1 10 156453



#### Load balancing

fix 		bal all balance 1000 1.05 shift z 10 1.05

############### Diagnostics and computes ###################
dump		1 all custom 100000 dump.lammpstrj id mol type x y z
dump 		2 all image 10000 image.*.png type type
dump 		3 all movie 1000 movie.avi type type

################ RUN  ##########################
thermo 		1000
thermo_style 	custom step temp epair evdwl etotal press pe ke vol

restart 	500000 restart.dat
timestep 	0.005
timer 		full
New timer settings: style=full  mode=nosync  timeout=off

run		1000000
Per MPI rank memory allocation (min/avg/max) = 8.977 | 10.63 | 15.46 Mbytes
Step Temp E_pair E_vdwl TotEng Press PotEng KinEng Volume 
       0            1   -3.6131624   -3.6131624   -2.1131938  -0.69764927   -3.6131624    1.4999686       128000 
    1000   0.91839849   -3.3311341   -3.3311341   -1.9535652   0.17538592   -3.3311341    1.3775689       128000 
    2000   0.92177523   -3.2062297   -3.2062297   -1.8235958   0.15652768   -3.2062297    1.3826339       128000 
    3000   0.93853154   -3.1207372   -3.1207372   -1.7129694   0.16611096   -3.1207372    1.4077678       128000 
    4000   0.95323198   -3.0515617   -3.0515617   -1.6217436   0.16002161   -3.0515617     1.429818       128000 
    5000   0.95061611   -2.9817973   -2.9817973    -1.555903   0.14836515   -2.9817973    1.4258943       128000 
    6000    0.9563973   -2.9094219   -2.9094219    -1.474856   0.14388901   -2.9094219    1.4345659       128000 
    7000   0.96088282   -2.8482488   -2.8482488   -1.4069547    0.1461444   -2.8482488    1.4412941       128000 
    8000   0.96445166   -2.7979903   -2.7979903   -1.3513431   0.13636632   -2.7979903    1.4466472       128000 
    9000   0.97152333     -2.75422     -2.75422   -1.2969655   0.13731663     -2.75422    1.4572545       128000 
   10000   0.97534019   -2.7017095   -2.7017095   -1.2387298   0.14085349   -2.7017095    1.4629797       128000 
   11000   0.97572545   -2.6616607   -2.6616607   -1.1981032   0.13869791   -2.6616607    1.4635575       128000 
   12000   0.97726678   -2.6261145   -2.6261145    -1.160245   0.12954155   -2.6261145    1.4658695       128000 
   13000   0.98629914   -2.5906037   -2.5906037   -1.1111859   0.15209595   -2.5906037    1.4794177       128000 
   14000   0.98168056    -2.556551    -2.556551    -1.084061    0.1307167    -2.556551      1.47249       128000 
   15000     0.988786    -2.530282    -2.530282   -1.0471341   0.14579495    -2.530282     1.483148       128000 
   16000   0.99338258   -2.5064307   -2.5064307    -1.016388     0.134523   -2.5064307    1.4900427       128000 
   17000   0.98750927   -2.4747234   -2.4747234  -0.99349045   0.14044187   -2.4747234    1.4812329       128000 
   18000   0.99052404   -2.4601437   -2.4601437   -0.9743887   0.14164284   -2.4601437     1.485755       128000 
   19000   0.99710587   -2.4465583   -2.4465583  -0.95093076   0.12055179   -2.4465583    1.4956275       128000 
   20000   0.99535689   -2.4202941   -2.4202941  -0.92728998   0.14131713   -2.4202941    1.4930041       128000 
   21000   0.99256046   -2.4114947   -2.4114947  -0.92268516   0.13949353   -2.4114947    1.4888095       128000 
   22000    1.0000613   -2.3954085   -2.3954085  -0.89534798   0.15298691   -2.3954085    1.5000605       128000 
   23000   0.99728402   -2.3764957   -2.3764957    -0.880601   0.14809697   -2.3764957    1.4958947       128000 
   24000   0.99831675   -2.3668074   -2.3668074  -0.86936361   0.14461142   -2.3668074    1.4974438       128000 
   25000   0.99850782    -2.352151    -2.352151  -0.85442065   0.13566627    -2.352151    1.4977304       128000 
   26000    1.0070685   -2.3416657   -2.3416657  -0.83109455   0.14818712   -2.3416657    1.5105712       128000 
   27000    1.0024633    -2.332793    -2.332793  -0.82912954   0.13225826    -2.332793    1.5036635       128000 
   28000    1.0021636   -2.3152099   -2.3152099  -0.81199593   0.14537039   -2.3152099     1.503214       128000 
   29000     1.008001   -2.3116056   -2.3116056  -0.79963573     0.144884   -2.3116056    1.5119699       128000 
   30000    1.0057205   -2.2989164   -2.2989164  -0.79036721   0.14871979   -2.2989164    1.5085492       128000 
   31000    1.0066339   -2.2962641   -2.2962641  -0.78634482   0.13940132   -2.2962641    1.5099193       128000 
   32000    1.0096669   -2.2841796   -2.2841796  -0.76971093   0.14233093   -2.2841796    1.5144687       128000 
   33000    1.0150903   -2.2783225   -2.2783225  -0.75571896   0.14870824   -2.2783225    1.5226035       128000 
   34000    1.0089042   -2.2733002   -2.2733002  -0.75997568   0.14656006   -2.2733002    1.5133246       128000 
   35000     1.010604   -2.2703488   -2.2703488  -0.75447451   0.15853639   -2.2703488    1.5158743       128000 
   36000    1.0075376    -2.268366    -2.268366  -0.75709114   0.15017049    -2.268366    1.5112748       128000 
   37000    1.0080479   -2.2578484   -2.2578484  -0.74580819   0.14761853   -2.2578484    1.5120402       128000 
   38000    1.0060906   -2.2657322   -2.2657322   -0.7566279   0.14652114   -2.2657322    1.5091043       128000 
   39000    1.0051211   -2.2640898   -2.2640898  -0.75643961    0.1457057   -2.2640898    1.5076501       128000 
   40000    1.0123919   -2.2583296   -2.2583296  -0.73977344   0.13553082   -2.2583296    1.5185561       128000 
   41000    1.0123445   -2.2507088   -2.2507088  -0.73222377   0.14685239   -2.2507088     1.518485       128000 
   42000    1.0180425   -2.2504867   -2.2504867  -0.72345484   0.13598029   -2.2504867    1.5270318       128000 
   43000    1.0118952    -2.239401    -2.239401  -0.72158991   0.14898139    -2.239401    1.5178111       128000 
   44000    1.0095328   -2.2359358   -2.2359358  -0.72166833   0.14525175   -2.2359358    1.5142675       128000 
   45000    1.0133828   -2.2304977   -2.2304977  -0.71045531   0.14981136   -2.2304977    1.5200424       128000 
   46000    1.0189861   -2.2315555   -2.2315555  -0.70310829   0.14816277   -2.2315555    1.5284472       128000 
   47000    1.0179906   -2.2251728   -2.2251728  -0.69821893   0.14481409   -2.2251728    1.5269539       128000 
   48000    1.0163685   -2.2252864   -2.2252864  -0.70076558   0.15107534   -2.2252864    1.5245208       128000 
   49000    1.0100975   -2.2276147   -2.2276147  -0.71250011   0.14063435   -2.2276147    1.5151145       128000 
   50000    1.0091922   -2.2333576   -2.2333576  -0.71960099   0.14763495   -2.2333576    1.5137566       128000 
   51000    1.0089937   -2.2235466   -2.2235466  -0.71008767   0.14278254   -2.2235466    1.5134589       128000 
   52000    1.0151619   -2.2261722   -2.2261722   -0.7034612   0.15308668   -2.2261722     1.522711       128000 
   53000    1.0092701   -2.2260328   -2.2260328  -0.71215925   0.14001951   -2.2260328    1.5138735       128000 
   54000     1.010224    -2.227065    -2.227065  -0.71176072   0.14104683    -2.227065    1.5153043       128000 
   55000    1.0161063   -2.2201197   -2.2201197   -0.6959922    0.1545006   -2.2201197    1.5241275       128000 
   56000    1.0125005   -2.2069583   -2.2069583  -0.68823945   0.14702534   -2.2069583    1.5187189       128000 
   57000    1.0155235   -2.2052066   -2.2052066  -0.68195317   0.14520607   -2.2052066    1.5232534       128000 
   58000    1.0165622   -2.2036381   -2.2036381  -0.67882669   0.14131763   -2.2036381    1.5248114       128000 
   59000    1.0154487   -2.1954454   -2.1954454  -0.67230428   0.13973867   -2.1954454    1.5231412       128000 
   60000    1.0113565   -2.1969795   -2.1969795  -0.67997653   0.13141024   -2.1969795     1.517003       128000 
   61000    1.0118937   -2.1905674   -2.1905674  -0.67275868   0.14592544   -2.1905674    1.5178088       128000 
   62000    1.0101705   -2.1893545   -2.1893545   -0.6741305   0.14347235   -2.1893545     1.515224       128000 
   63000    1.0203966   -2.1870415   -2.1870415  -0.65647871   0.14029711   -2.1870415    1.5305628       128000 
   64000    1.0151068   -2.1844377   -2.1844377  -0.66180926   0.15769057   -2.1844377    1.5226284       128000 
   65000    1.0105946   -2.1892901   -2.1892901  -0.67342989   0.14105945   -2.1892901    1.5158602       128000 
   66000    1.0132862   -2.1912234   -2.1912234  -0.67132599   0.13478141   -2.1912234    1.5198974       128000 
   67000    1.0164816   -2.1930016   -2.1930016  -0.66831116   0.15197855   -2.1930016    1.5246904       128000 
   68000     1.014536   -2.1939817   -2.1939817  -0.67220958   0.13288121   -2.1939817    1.5217721       128000 
   69000    1.0124934   -2.1975085   -2.1975085  -0.67880023    0.1406998   -2.1975085    1.5187083       128000 
   70000    1.0117225   -2.1898285   -2.1898285  -0.67227652   0.14271111   -2.1898285     1.517552       128000 
   71000    1.0115259    -2.188012    -2.188012  -0.67075485   0.15011933    -2.188012    1.5172572       128000 
   72000    1.0182436   -2.1918011   -2.1918011  -0.66446763   0.16043771   -2.1918011    1.5273335       128000 
   73000     1.015136   -2.1864788   -2.1864788   -0.6638066   0.14291976   -2.1864788    1.5226722       128000 
   74000    1.0210325   -2.1876877   -2.1876877  -0.65617103   0.16093231   -2.1876877    1.5315167       128000 
   75000    1.0159449   -2.1853962   -2.1853962  -0.66151076   0.14518207   -2.1853962    1.5238854       128000 
   76000    1.0143082   -2.1867855   -2.1867855  -0.66535501   0.14077599   -2.1867855    1.5214305       128000 
   77000    1.0081014   -2.1808319   -2.1808319  -0.66871151   0.13464065   -2.1808319    1.5121204       128000 
   78000    1.0160372   -2.1901698   -2.1901698  -0.66614584   0.14557008   -2.1901698    1.5240239       128000 
   79000    1.0101439   -2.1795653   -2.1795653  -0.66438111   0.13878826   -2.1795653    1.5151842       128000 
   80000    1.0129309    -2.180713    -2.180713  -0.66134851   0.14635359    -2.180713    1.5193645       128000 
   81000     1.014543   -2.1854262   -2.1854262  -0.66364355   0.15684201   -2.1854262    1.5217826       128000 
   82000    1.0123218   -2.1747565   -2.1747565  -0.65630556   0.15956576   -2.1747565     1.518451       128000 
   83000    1.0166853   -2.1768682   -2.1768682  -0.65187214   0.16325033   -2.1768682    1.5249961       128000 
   84000    1.0159694    -2.185137    -2.185137  -0.66121471   0.13892576    -2.185137    1.5239222       128000 
   85000    1.0146563   -2.1800711   -2.1800711  -0.65811854   0.14370133   -2.1800711    1.5219525       128000 
   86000    1.0077462   -2.1749257   -2.1749257  -0.66333799   0.14991654   -2.1749257    1.5115877       128000 
   87000    1.0061618   -2.1714787   -2.1714787  -0.66226753    0.1369506   -2.1714787    1.5092112       128000 
   88000    1.0137338   -2.1732481   -2.1732481  -0.65267927    0.1338366   -2.1732481    1.5205688       128000 
   89000    1.0198988   -2.1700594   -2.1700594  -0.64024327   0.13797682   -2.1700594    1.5298161       128000 
   90000    1.0192682   -2.1781973   -2.1781973  -0.64932697   0.13140108   -2.1781973    1.5288703       128000 
   91000    1.0151335   -2.1711271   -2.1711271  -0.64845875   0.14819243   -2.1711271    1.5226684       128000 
   92000    1.0088665   -2.1668238   -2.1668238  -0.65355577    0.1389481   -2.1668238     1.513268       128000 
   93000    1.0163646   -2.1688696   -2.1688696  -0.64435454   0.13898383   -2.1688696     1.524515       128000 
   94000    1.0084028      -2.1601      -2.1601  -0.64752742   0.15651814      -2.1601    1.5125726       128000 
   95000    1.0174549   -2.1643953   -2.1643953  -0.63824478   0.13902829   -2.1643953    1.5261505       128000 
   96000    1.0131239   -2.1601896   -2.1601896  -0.64053549   0.14942205   -2.1601896    1.5196541       128000 
   97000    1.0090972   -2.1500992   -2.1500992  -0.63648512   0.14821391   -2.1500992    1.5136141       128000 
   98000    1.0126742   -2.1576329   -2.1576329  -0.63865345   0.14270285   -2.1576329    1.5189795       128000 
   99000    1.0132982   -2.1545307   -2.1545307  -0.63461526    0.1413803   -2.1545307    1.5199154       128000 
  100000    1.0136316   -2.1581325   -2.1581325  -0.63771695   0.14964919   -2.1581325    1.5204156       128000 
  101000    1.0155418   -2.1568917   -2.1568917  -0.63361084   0.13559924   -2.1568917    1.5232809       128000 
  102000    1.0144425   -2.1549279   -2.1549279  -0.63329599   0.15029116   -2.1549279    1.5216319       128000 
  103000    1.0119315   -2.1537217   -2.1537217  -0.63585622    0.1415924   -2.1537217    1.5178655       128000 
  104000    1.0133775   -2.1597601   -2.1597601  -0.63972574   0.14386802   -2.1597601    1.5200344       128000 
  105000    1.0145555   -2.1612645   -2.1612645   -0.6394631   0.14069259   -2.1612645    1.5218014       128000 
  106000    1.0082601   -2.1561273   -2.1561273  -0.64376881   0.14315775   -2.1561273    1.5123585       128000 
  107000    1.0046943   -2.1526751   -2.1526751  -0.64566521   0.13413045   -2.1526751    1.5070099       128000 
  108000     1.008131   -2.1536229   -2.1536229  -0.64145796   0.13376757   -2.1536229    1.5121649       128000 
  109000    1.0106809   -2.1548891   -2.1548891   -0.6388995   0.15824787   -2.1548891    1.5159896       128000 
  110000    1.0094627   -2.1561128   -2.1561128  -0.64195044   0.14667359   -2.1561128    1.5141624       128000 
  111000    1.0159409   -2.1532231   -2.1532231  -0.62934363   0.13812064   -2.1532231    1.5238795       128000 
  112000    1.0094587   -2.1491707   -2.1491707  -0.63501425   0.14355379   -2.1491707    1.5141564       128000 
  113000     1.015889   -2.1479669   -2.1479669  -0.62416521   0.14865186   -2.1479669    1.5238017       128000 
  114000    1.0181222   -2.1495968   -2.1495968  -0.62244549   0.14768481   -2.1495968    1.5271513       128000 
  115000    1.0140362   -2.1480176   -2.1480176  -0.62699516   0.13024851   -2.1480176    1.5210225       128000 
  116000    1.0154875   -2.1401707   -2.1401707  -0.61697131   0.13844076   -2.1401707    1.5231994       128000 
  117000    1.0209816   -2.1409836   -2.1409836  -0.60954332   0.14699078   -2.1409836    1.5314403       128000 
  118000    1.0227448    -2.143029    -2.143029  -0.60894392   0.14645962    -2.143029    1.5340851       128000 
  119000    1.0194191   -2.1414071   -2.1414071  -0.61231046   0.14320134   -2.1414071    1.5290966       128000 
  120000    1.0213981   -2.1402347   -2.1402347  -0.60816968   0.14556521   -2.1402347     1.532065       128000 
  121000    1.0166502   -2.1389843   -2.1389843  -0.61404096   0.13372658   -2.1389843    1.5249433       128000 
  122000    1.0163384   -2.1371368   -2.1371368  -0.61266116   0.14777306   -2.1371368    1.5244757       128000 
  123000    1.0179563   -2.1401329   -2.1401329  -0.61323044   0.14136148   -2.1401329    1.5269025       128000 
  124000    1.0246456   -2.1428638   -2.1428638   -0.6059275   0.15205409   -2.1428638    1.5369363       128000 
  125000    1.0201542   -2.1373622   -2.1373622  -0.60716303   0.15633924   -2.1373622    1.5301992       128000 
  126000    1.0195103   -2.1410947   -2.1410947  -0.61186134    0.1470399   -2.1410947    1.5292334       128000 
  127000    1.0140912   -2.1351331   -2.1351331  -0.61402811   0.14343373   -2.1351331    1.5211049       128000 
  128000    1.0134244   -2.1399875   -2.1399875  -0.61988272   0.14534996   -2.1399875    1.5201048       128000 
  129000    1.0085248   -2.1363914   -2.1363914  -0.62363587   0.13698879   -2.1363914    1.5127555       128000 
  130000    1.0124989   -2.1415074   -2.1415074  -0.62279084   0.13997836   -2.1415074    1.5187165       128000 
  131000    1.0163286   -2.1399468   -2.1399468  -0.61548586   0.13812662   -2.1399468    1.5244609       128000 
  132000    1.0153226   -2.1317535   -2.1317535  -0.60880152   0.15459795   -2.1317535     1.522952       128000 
  133000    1.0184122   -2.1381172   -2.1381172  -0.61053084   0.14786797   -2.1381172    1.5275863       128000 
  134000    1.0190287   -2.1371034   -2.1371034  -0.60859245   0.14667327   -2.1371034     1.528511       128000 
  135000    1.0147732   -2.1284936   -2.1284936  -0.60636558   0.15401277   -2.1284936     1.522128       128000 
  136000    1.0131903   -2.1390848   -2.1390848  -0.61933116   0.14594094   -2.1390848    1.5197537       128000 
  137000    1.0158108   -2.1374448   -2.1374448   -0.6137604   0.14820441   -2.1374448    1.5236844       128000 
  138000    1.0203653   -2.1439731   -2.1439731  -0.61345728   0.15799258   -2.1439731    1.5305159       128000 
  139000    1.0161886   -2.1415811   -2.1415811  -0.61733022   0.15131739   -2.1415811    1.5242509       128000 
  140000    1.0151006   -2.1402931   -2.1402931  -0.61767407   0.15065502   -2.1402931     1.522619       128000 
  141000    1.0147823   -2.1395582   -2.1395582  -0.61741666   0.13989179   -2.1395582    1.5221416       128000 
  142000    1.0181759   -2.1317676   -2.1317676  -0.60453569   0.15855512   -2.1317676    1.5272319       128000 
  143000    1.0170343   -2.1247286   -2.1247286  -0.59920906   0.15966841   -2.1247286    1.5255195       128000 
  144000    1.0141268    -2.137734    -2.137734  -0.61657561   0.12902458    -2.137734    1.5211584       128000 
  145000    1.0179142   -2.1281052   -2.1281052  -0.60126592   0.14276275   -2.1281052    1.5268393       128000 
  146000    1.0142296   -2.1259912   -2.1259912  -0.60467873   0.14280209   -2.1259912    1.5213125       128000 
  147000    1.0164069   -2.1275742   -2.1275742  -0.60299577   0.14684012   -2.1275742    1.5245784       128000 
  148000    1.0239553   -2.1276714   -2.1276714  -0.59177051   0.13961213   -2.1276714    1.5359009       128000 
  149000    1.0141704   -2.1225644   -2.1225644  -0.60134074   0.14856503   -2.1225644    1.5212237       128000 
  150000     1.016625   -2.1226783   -2.1226783  -0.59777278   0.15055526   -2.1226783    1.5249056       128000 
  151000    1.0218351   -2.1308346   -2.1308346  -0.59811397   0.14379465   -2.1308346    1.5327206       128000 
  152000    1.0235851   -2.1352631   -2.1352631  -0.59991759   0.14922808   -2.1352631    1.5353455       128000 
  153000    1.0209557    -2.125372    -2.125372  -0.59397048   0.14404033    -2.125372    1.5314015       128000 
  154000    1.0207246   -2.1201831   -2.1201831  -0.58912823   0.13821234   -2.1201831    1.5310549       128000 
  155000    1.0182555   -2.1245453   -2.1245453  -0.59719406   0.14074162   -2.1245453    1.5273512       128000 
  156000    1.0172326   -2.1211005   -2.1211005  -0.59528356   0.14598777   -2.1211005    1.5258169       128000 
  157000    1.0196075   -2.1190024   -2.1190024  -0.58962315    0.1516251   -2.1190024    1.5293793       128000 
  158000    1.0193445   -2.1220967   -2.1220967  -0.59311202   0.14097076   -2.1220967    1.5289847       128000 
  159000    1.0184525   -2.1247078   -2.1247078  -0.59706108   0.15262205   -2.1247078    1.5276467       128000 
  160000    1.0228142   -2.1193086   -2.1193086  -0.58511938   0.14192112   -2.1193086    1.5341892       128000 
  161000    1.0227627   -2.1216164   -2.1216164  -0.58750445   0.13779361   -2.1216164    1.5341119       128000 
  162000    1.0266192   -2.1224321   -2.1224321  -0.58253552   0.15386199   -2.1224321    1.5398966       128000 
  163000    1.0164459   -2.1197657   -2.1197657  -0.59512869   0.15930354   -2.1197657     1.524637       128000 
  164000    1.0129659   -2.1172421   -2.1172421  -0.59782505   0.14755011   -2.1172421     1.519417       128000 
  165000    1.0134585   -2.1231767   -2.1231767  -0.60302073   0.13554193   -2.1231767    1.5201559       128000 
  166000    1.0185221   -2.1145305   -2.1145305  -0.58677943   0.15313664   -2.1145305    1.5277511       128000 
  167000    1.0274048   -2.1281489   -2.1281489  -0.58707396   0.14795988   -2.1281489    1.5410749       128000 
  168000     1.018844   -2.1215473   -2.1215473   -0.5933133   0.15056404   -2.1215473     1.528234       128000 
  169000    1.0226606   -2.1236716   -2.1236716  -0.58971276   0.14424756   -2.1236716    1.5339588       128000 
  170000    1.0167352    -2.116964    -2.116964  -0.59189314   0.14366291    -2.116964    1.5250708       128000 
  171000    1.0224894   -2.1167892   -2.1167892  -0.58308721   0.16159777   -2.1167892     1.533702       128000 
  172000    1.0219875   -2.1247483   -2.1247483  -0.59179911   0.14175826   -2.1247483    1.5329492       128000 
  173000    1.0202387   -2.1191921   -2.1191921  -0.58886616    0.1472457   -2.1191921     1.530326       128000 
  174000     1.026092   -2.1254367   -2.1254367  -0.58633094   0.14685872   -2.1254367    1.5391058       128000 
  175000     1.023785   -2.1184818   -2.1184818  -0.58283642   0.15368065   -2.1184818    1.5356454       128000 
  176000    1.0167413    -2.116525    -2.116525  -0.59144494    0.1440695    -2.116525    1.5250801       128000 
  177000    1.0180582   -2.1211503   -2.1211503  -0.59409506   0.15355502   -2.1211503    1.5270553       128000 
  178000    1.0204376   -2.1207449   -2.1207449  -0.59012054   0.13453853   -2.1207449    1.5306244       128000 
  179000    1.0158598   -2.1176888   -2.1176888  -0.59393101   0.14964542   -2.1176888    1.5237578       128000 
  180000    1.0197645    -2.120369    -2.120369  -0.59075423   0.13876819    -2.120369    1.5296148       128000 
  181000    1.0235222   -2.1158059   -2.1158059  -0.58055481   0.15485767   -2.1158059    1.5352511       128000 
  182000    1.0206825   -2.1049585   -2.1049585   -0.5739667   0.15643124   -2.1049585    1.5309918       128000 
  183000    1.0117564   -2.1047751   -2.1047751   -0.5871723   0.16228845   -2.1047751    1.5176028       128000 
  184000    1.0142135   -2.1115966   -2.1115966  -0.59030825   0.14392239   -2.1115966    1.5212884       128000 
  185000    1.0229288   -2.1208556   -2.1208556  -0.58649448   0.14217608   -2.1208556    1.5343611       128000 
  186000    1.0221649   -2.1149514   -2.1149514  -0.58173619   0.15936614   -2.1149514    1.5332152       128000 
  187000    1.0213245   -2.1149529   -2.1149529   -0.5829982   0.15507843   -2.1149529    1.5319547       128000 
  188000    1.0188992   -2.1191562   -2.1191562  -0.59083937   0.15371865   -2.1191562    1.5283169       128000 
  189000    1.0172025   -2.1148473   -2.1148473  -0.58907552   0.15658036   -2.1148473    1.5257718       128000 
  190000    1.0250294   -2.1152666   -2.1152666  -0.57775471   0.14514335   -2.1152666    1.5375119       128000 
  191000     1.021732    -2.105889    -2.105889  -0.57332306   0.14337088    -2.105889     1.532566       128000 
  192000    1.0254917   -2.1111859   -2.1111859  -0.57298057   0.14002858   -2.1111859    1.5382053       128000 
  193000    1.0249395   -2.1104711   -2.1104711  -0.57309398   0.15466988   -2.1104711    1.5373771       128000 
  194000    1.0246545   -2.1133717   -2.1133717  -0.57642221   0.15065218   -2.1133717    1.5369495       128000 
  195000    1.0208024   -2.1156617   -2.1156617  -0.58449016   0.15406577   -2.1156617    1.5311716       128000 
  196000    1.0227172   -2.1170103   -2.1170103  -0.58296666   0.13624235   -2.1170103    1.5340437       128000 
  197000    1.0237625   -2.1146586   -2.1146586  -0.57904707   0.16188373   -2.1146586    1.5356116       128000 
  198000    1.0168982   -2.1145247   -2.1145247  -0.58920932   0.14182373   -2.1145247    1.5253153       128000 
  199000    1.0230046   -2.1160182   -2.1160182  -0.58154345   0.13483162   -2.1160182    1.5344747       128000 
  200000    1.0222625   -2.1115328   -2.1115328  -0.57817119   0.15133334   -2.1115328    1.5333616       128000 
  201000    1.0209696   -2.1144073   -2.1144073  -0.58298488   0.14838414   -2.1144073    1.5314224       128000 
  202000     1.022208   -2.1162266   -2.1162266   -0.5829467   0.14851226   -2.1162266    1.5332799       128000 
  203000    1.0170844   -2.1114533   -2.1114533  -0.58585866   0.15078569   -2.1114533    1.5255947       128000 
  204000    1.0209253   -2.1174853   -2.1174853  -0.58612943   0.14181832   -2.1174853    1.5313559       128000 
  205000    1.0230009    -2.118938    -2.118938  -0.58446878   0.16172646    -2.118938    1.5344692       128000 
  206000    1.0191636   -2.1116088   -2.1116088  -0.58289539   0.15305662   -2.1116088    1.5287134       128000 
  207000    1.0241466   -2.1173211   -2.1173211  -0.58113333   0.15168621   -2.1173211    1.5361878       128000 
  208000    1.0183494   -2.1102118   -2.1102118   -0.5827196   0.15161707   -2.1102118    1.5274922       128000 
  209000    1.0180527   -2.1213586   -2.1213586  -0.59431153    0.1370025   -2.1213586    1.5270471       128000 
  210000    1.0215022   -2.1198774   -2.1198774  -0.58765616   0.14586204   -2.1198774    1.5322213       128000 
  211000     1.020246   -2.1214356   -2.1214356  -0.59109871   0.15168676   -2.1214356    1.5303369       128000 
  212000     1.016493   -2.1154556   -2.1154556  -0.59074806    0.1474224   -2.1154556    1.5247075       128000 
  213000    1.0185151   -2.1207233   -2.1207233  -0.59298262   0.15403923   -2.1207233    1.5277407       128000 
  214000    1.0172456   -2.1122428   -2.1122428  -0.58640627   0.14701074   -2.1122428    1.5258365       128000 
  215000    1.0220432   -2.1148132   -2.1148132  -0.58178045   0.14866126   -2.1148132    1.5330327       128000 
  216000    1.0253039   -2.1177292   -2.1177292  -0.57980562   0.13978988   -2.1177292    1.5379236       128000 
  217000    1.0255704   -2.1091906   -2.1091906  -0.57086722   0.14891756   -2.1091906    1.5383234       128000 
  218000    1.0248628   -2.1057523   -2.1057523  -0.56849028    0.1494755   -2.1057523     1.537262       128000 
  219000    1.0232864    -2.110852    -2.110852  -0.57595454   0.14371109    -2.110852    1.5348975       128000 
  220000    1.0264343    -2.110203    -2.110203  -0.57058374   0.15779265    -2.110203    1.5396193       128000 
  221000    1.0285344   -2.1064534   -2.1064534  -0.56368399   0.15919385   -2.1064534    1.5427694       128000 
  222000    1.0259714   -2.1040605   -2.1040605  -0.56513559    0.1505668   -2.1040605    1.5389249       128000 
  223000     1.027309   -2.1078041   -2.1078041  -0.56687284   0.16147885   -2.1078041    1.5409312       128000 
  224000    1.0258782   -2.1113025   -2.1113025  -0.57251743   0.15604174   -2.1113025    1.5387851       128000 
  225000    1.0224962   -2.1083834   -2.1083834   -0.5746712   0.14894397   -2.1083834    1.5337122       128000 
  226000     1.020428    -2.111147    -2.111147  -0.58053694   0.14992814    -2.111147      1.53061       128000 
  227000    1.0287879   -2.1118008   -2.1118008  -0.56865122   0.15544789   -2.1118008    1.5431495       128000 
  228000    1.0206231   -2.0942816   -2.0942816  -0.56337897   0.15614402   -2.0942816    1.5309027       128000 
  229000    1.0230198   -2.0990268   -2.0990268  -0.56452915   0.14867088   -2.0990268    1.5344976       128000 
  230000    1.0180171   -2.1012196   -2.1012196  -0.57422591   0.15116553   -2.1012196    1.5269937       128000 
  231000    1.0258341   -2.1044401   -2.1044401  -0.56572115   0.15485339   -2.1044401     1.538719       128000 
  232000    1.0295772   -2.1088828   -2.1088828  -0.56454936   0.15118116   -2.1088828    1.5443334       128000 
  233000    1.0278902   -2.0980566   -2.0980566  -0.55625357   0.15810394   -2.0980566     1.541803       128000 
  234000     1.027517   -2.0967077   -2.0967077   -0.5554645   0.14931743   -2.0967077    1.5412432       128000 
  235000    1.0237209   -2.0977725   -2.0977725  -0.56222325   0.14531171   -2.0977725    1.5355492       128000 
  236000    1.0306849   -2.1043055   -2.1043055  -0.55831054   0.14686263   -2.1043055     1.545995       128000 
  237000    1.0228222   -2.1071663   -2.1071663   -0.5729652   0.14363086   -2.1071663    1.5342011       128000 
  238000    1.0225825   -2.1026786   -2.1026786  -0.56883697    0.1525338   -2.1026786    1.5338416       128000 
  239000    1.0264101   -2.1022576   -2.1022576  -0.56267473   0.15285969   -2.1022576    1.5395829       128000 
  240000    1.0218271    -2.095815    -2.095815  -0.56310643   0.14842435    -2.095815    1.5327086       128000 
  241000    1.0233588    -2.101308    -2.101308  -0.56630193   0.13748361    -2.101308     1.535006       128000 
  242000    1.0284916   -2.1079923   -2.1079923  -0.56528717   0.15379175   -2.1079923    1.5427052       128000 
  243000    1.0242344   -2.0982843   -2.0982843  -0.56196489   0.15351149   -2.0982843    1.5363194       128000 
  244000    1.0239408   -2.0902134   -2.0902134  -0.55433431   0.15937651   -2.0902134    1.5358791       128000 
  245000     1.030898   -2.1030922   -2.1030922  -0.55677759   0.15215683   -2.1030922    1.5463146       128000 
  246000    1.0333038   -2.1059996   -2.1059996  -0.55607637   0.15508117   -2.1059996    1.5499232       128000 
  247000     1.023112   -2.1031779   -2.1031779   -0.5685421   0.14990637   -2.1031779    1.5346358       128000 
  248000    1.0259271    -2.106039    -2.106039  -0.56718059   0.14473382    -2.106039    1.5388584       128000 
  249000    1.0224434    -2.106197    -2.106197  -0.57256406   0.14222952    -2.106197     1.533633       128000 
  250000    1.0245466   -2.0979079   -2.0979079  -0.56112012    0.1375401   -2.0979079    1.5367878       128000 
  251000    1.0303805   -2.1009763   -2.1009763  -0.55543787   0.15069201   -2.1009763    1.5455384       128000 
  252000    1.0258965   -2.1062734   -2.1062734  -0.56746091   0.15440208   -2.1062734    1.5388125       128000 
  253000    1.0273709   -2.1047174   -2.1047174   -0.5636933   0.15967965   -2.1047174    1.5410241       128000 
  254000    1.0290335   -2.1056071   -2.1056071  -0.56208905   0.14034603   -2.1056071     1.543518       128000 
  255000    1.0226046   -2.1089531   -2.1089531  -0.57507826   0.15395911   -2.1089531    1.5338748       128000 
  256000    1.0232578   -2.1050415   -2.1050415  -0.57018688    0.1477291   -2.1050415    1.5348546       128000 
  257000    1.0250472   -2.1092535   -2.1092535  -0.57171496   0.14172184   -2.1092535    1.5375386       128000 
  258000    1.0269799   -2.1123412   -2.1123412  -0.57190367   0.13623342   -2.1123412    1.5404375       128000 
  259000    1.0212186   -2.1061263   -2.1061263  -0.57433047   0.13674474   -2.1061263    1.5317958       128000 
  260000    1.0220892   -2.0993648   -2.0993648  -0.56626308   0.16412841   -2.0993648    1.5331017       128000 
  261000    1.0220642    -2.100448    -2.100448  -0.56738383   0.14495507    -2.100448    1.5330641       128000 
  262000    1.0275641   -2.1102209   -2.1102209  -0.56890708   0.14181083   -2.1102209    1.5413138       128000 
  263000    1.0276714   -2.1051344   -2.1051344  -0.56365965   0.13792839   -2.1051344    1.5414748       128000 
  264000    1.0238509    -2.097376    -2.097376  -0.56163178   0.15896901    -2.097376    1.5357442       128000 
  265000    1.0232551   -2.1016785   -2.1016785  -0.56682804   0.13752166   -2.1016785    1.5348505       128000 
  266000    1.0208368   -2.0913626   -2.0913626  -0.56013942   0.15340789   -2.0913626    1.5312232       128000 
  267000    1.0272767    -2.100663    -2.100663  -0.55978013   0.14488786    -2.100663    1.5408829       128000 
  268000    1.0186243   -2.0909823   -2.0909823  -0.56307775   0.14774218   -2.0909823    1.5279045       128000 
  269000    1.0258031    -2.099065    -2.099065  -0.56039258   0.14288381    -2.099065    1.5386724       128000 
  270000    1.0271689   -2.1012268   -2.1012268  -0.56050569   0.14657657   -2.1012268    1.5407211       128000 
  271000    1.0227523   -2.0950997   -2.0950997  -0.56100338   0.14771727   -2.0950997    1.5340963       128000 
  272000    1.0312136   -2.1025254   -2.1025254   -0.5557374   0.15189939   -2.1025254     1.546788       128000 
  273000    1.0247566   -2.0938495   -2.0938495   -0.5567468   0.14619947   -2.0938495    1.5371027       128000 
  274000    1.0280896   -2.0914871   -2.0914871    -0.549385   0.14872461   -2.0914871    1.5421021       128000 
  275000    1.0299507   -2.0914038   -2.0914038  -0.54651011   0.14966432   -2.0914038    1.5448937       128000 
  276000    1.0255233   -2.0956274   -2.0956274  -0.55737459   0.13998711   -2.0956274    1.5382528       128000 
  277000    1.0300325     -2.08534     -2.08534  -0.54032361   0.15689717     -2.08534    1.5450164       128000 
  278000    1.0310603   -2.0941717   -2.0941717  -0.54761358   0.16686345   -2.0941717    1.5465581       128000 
  279000    1.0336448   -2.0993669   -2.0993669  -0.54893219   0.14967511   -2.0993669    1.5504348       128000 
  280000    1.0320027    -2.093645    -2.093645  -0.54567346   0.15376184    -2.093645    1.5479716       128000 
  281000    1.0342654   -2.1041374   -2.1041374  -0.55277185   0.15299266   -2.1041374    1.5513656       128000 
  282000    1.0257432   -2.0901661   -2.0901661  -0.55158353   0.15240972   -2.0901661    1.5385826       128000 
  283000    1.0297364    -2.093113    -2.093113  -0.54854075   0.16288052    -2.093113    1.5445723       128000 
  284000    1.0303576    -2.094267    -2.094267  -0.54876289   0.14348652    -2.094267    1.5455041       128000 
  285000    1.0286489   -2.0910761   -2.0910761  -0.54813499    0.1465706   -2.0910761    1.5429411       128000 
  286000    1.0277188   -2.0894987   -2.0894987  -0.54795273   0.15722005   -2.0894987    1.5415459       128000 
  287000    1.0262965   -2.0900377   -2.0900377   -0.5506251    0.1466025   -2.0900377    1.5394126       128000 
  288000    1.0270631   -2.0949728   -2.0949728  -0.55441041   0.14607389   -2.0949728    1.5405624       128000 
  289000    1.0247333   -2.0986952   -2.0986952  -0.56162736   0.15174342   -2.0986952    1.5370678       128000 
  290000    1.0281879   -2.0926676   -2.0926676  -0.55041801   0.15484373   -2.0926676    1.5422495       128000 
  291000    1.0254109   -2.0940268   -2.0940268   -0.5559426   0.15386196   -2.0940268    1.5380842       128000 
  292000    1.0274882   -2.0963641   -2.0963641  -0.55516404   0.14525885   -2.0963641    1.5412001       128000 
  293000    1.0304555   -2.0920522   -2.0920522  -0.54640126   0.16162197   -2.0920522    1.5456509       128000 
  294000     1.027104   -2.0892982   -2.0892982  -0.54867447   0.15029937   -2.0892982    1.5406237       128000 
  295000    1.0298009   -2.0936378   -2.0936378   -0.5489688   0.14845109   -2.0936378     1.544669       128000 
  296000    1.0278283   -2.0886311   -2.0886311  -0.54692096   0.14826012   -2.0886311    1.5417102       128000 
  297000    1.0301122   -2.0954204   -2.0954204  -0.55028454   0.15925623   -2.0954204    1.5451359       128000 
  298000    1.0333528   -2.0998578   -2.0998578  -0.54986108   0.14500735   -2.0998578    1.5499967       128000 
  299000    1.0260086   -2.0897431   -2.0897431  -0.55076251   0.15197983   -2.0897431    1.5389806       128000 
  300000    1.0283757   -2.0944181   -2.0944181  -0.55188679   0.14569516   -2.0944181    1.5425313       128000 
  301000    1.0332379   -2.0888423   -2.0888423  -0.53901787   0.15265732   -2.0888423    1.5498245       128000 
  302000    1.0326895   -2.0915842   -2.0915842  -0.54258244   0.14887332   -2.0915842    1.5490018       128000 
  303000    1.0338155   -2.0995232   -2.0995232  -0.54883234   0.15034186   -2.0995232    1.5506909       128000 
  304000    1.0364978   -2.0904288   -2.0904288  -0.53571467   0.16078546   -2.0904288    1.5547142       128000 
  305000    1.0276232   -2.0881245   -2.0881245  -0.54672206   0.15217673   -2.0881245    1.5414025       128000 
  306000    1.0294497   -2.0913635   -2.0913635  -0.54722129   0.15563396   -2.0913635    1.5441422       128000 
  307000    1.0269859   -2.0974886   -2.0974886  -0.55704194   0.14600977   -2.0974886    1.5404467       128000 
  308000    1.0297266    -2.096094    -2.096094  -0.55153646    0.1487394    -2.096094    1.5445576       128000 
  309000    1.0295382   -2.0936207   -2.0936207  -0.54934581   0.16478295   -2.0936207    1.5442749       128000 
  310000    1.0303422   -2.0908121   -2.0908121  -0.54533116   0.14588726   -2.0908121    1.5454809       128000 
  311000    1.0276849   -2.0936411   -2.0936411  -0.55214604   0.15086756   -2.0936411    1.5414951       128000 
  312000     1.027851   -2.0966532   -2.0966532  -0.55490897   0.15832332   -2.0966532    1.5417443       128000 
  313000    1.0319317    -2.090152    -2.090152  -0.54228681   0.14404357    -2.090152    1.5478652       128000 
  314000    1.0400286   -2.0947665   -2.0947665  -0.53475621    0.1619088   -2.0947665    1.5600103       128000 
  315000    1.0325012   -2.0898861   -2.0898861  -0.54116681   0.15501506   -2.0898861    1.5487193       128000 
  316000    1.0322996   -2.0895797   -2.0895797  -0.54116274   0.14683015   -2.0895797    1.5484169       128000 
  317000    1.0356642   -2.0959249   -2.0959249  -0.54246119   0.16465315   -2.0959249    1.5534637       128000 
  318000    1.0330618   -2.0934427   -2.0934427  -0.54388252   0.15529762   -2.0934427    1.5495602       128000 
  319000    1.0342656   -2.0919206   -2.0919206  -0.54055469   0.14995053   -2.0919206    1.5513659       128000 
  320000    1.0295448   -2.0829445   -2.0829445  -0.53865962   0.17370205   -2.0829445    1.5442849       128000 
  321000    1.0298239   -2.0819021   -2.0819021  -0.53719865   0.16140931   -2.0819021    1.5447035       128000 
  322000    1.0323571   -2.0940018   -2.0940018  -0.54549856   0.15088643   -2.0940018    1.5485033       128000 
  323000    1.0331562   -2.0950667   -2.0950667  -0.54536492   0.13900732   -2.0950667    1.5497018       128000 
  324000    1.0331901   -2.0923493   -2.0923493  -0.54259658   0.14743931   -2.0923493    1.5497527       128000 
  325000    1.0315305   -2.0916118   -2.0916118  -0.54434837   0.15269284   -2.0916118    1.5472634       128000 
  326000    1.0339964   -2.0973606   -2.0973606  -0.54639845    0.1491036   -2.0973606    1.5509622       128000 
  327000    1.0284598   -2.0869826   -2.0869826  -0.54432526   0.15038179   -2.0869826    1.5426574       128000 
  328000    1.0311609   -2.0891044   -2.0891044  -0.54239547   0.15601015   -2.0891044     1.546709       128000 
  329000    1.0309713   -2.0936449   -2.0936449  -0.54722034   0.15219442   -2.0936449    1.5464245       128000 
  330000    1.0262868   -2.0897171   -2.0897171  -0.55031906   0.15652595   -2.0897171     1.539398       128000 
  331000    1.0248585    -2.085986    -2.085986   -0.5487305   0.14737606    -2.085986    1.5372555       128000 
  332000    1.0299007   -2.0905821   -2.0905821   -0.5457634    0.1615973   -2.0905821    1.5448187       128000 
  333000    1.0285324   -2.0902273   -2.0902273  -0.54746101   0.16195703   -2.0902273    1.5427663       128000 
  334000    1.0325826   -2.0933044   -2.0933044  -0.54446296   0.14655129   -2.0933044    1.5488415       128000 
  335000    1.0328599   -2.0939238   -2.0939238  -0.54466642   0.15331753   -2.0939238    1.5492574       128000 
  336000    1.0268024   -2.0940361   -2.0940361  -0.55386478   0.13762866   -2.0940361    1.5401714       128000 
  337000    1.0342083   -2.0965118   -2.0965118  -0.54523183   0.15716496   -2.0965118    1.5512799       128000 
  338000    1.0346226   -2.0885398   -2.0885398  -0.53663842    0.1514719   -2.0885398    1.5519014       128000 
  339000    1.0315556   -2.0837188   -2.0837188  -0.53641768   0.15567013   -2.0837188    1.5473011       128000 
  340000    1.0338883   -2.0843096   -2.0843096   -0.5335096   0.15277041   -2.0843096       1.5508       128000 
  341000    1.0349539   -2.0945327   -2.0945327  -0.54213433   0.14465213   -2.0945327    1.5523984       128000 
  342000    1.0362247   -2.0889206   -2.0889206   -0.5346161   0.14614035   -2.0889206    1.5543045       128000 
  343000    1.0356506   -2.0922595   -2.0922595  -0.53881615   0.15239417   -2.0922595    1.5534433       128000 
  344000    1.0321336   -2.0801345   -2.0801345  -0.53196646   0.16236992   -2.0801345     1.548168       128000 
  345000    1.0318439    -2.075738    -2.075738  -0.52800444   0.15618806    -2.075738    1.5477335       128000 
  346000    1.0291287   -2.0754092   -2.0754092   -0.5317484   0.15911808   -2.0754092    1.5436608       128000 
  347000    1.0296646   -2.0807228   -2.0807228  -0.53625826   0.14737551   -2.0807228    1.5444645       128000 
  348000    1.0383349   -2.0797062   -2.0797062  -0.52223644   0.15737459   -2.0797062    1.5574697       128000 
  349000    1.0329612   -2.0760866   -2.0760866  -0.52667723   0.16022399   -2.0760866    1.5494094       128000 
  350000    1.0308305   -2.0804647   -2.0804647  -0.53425127   0.15816728   -2.0804647    1.5462134       128000 
  351000    1.0348172   -2.0831461   -2.0831461  -0.53095276   0.15393986   -2.0831461    1.5521933       128000 
  352000    1.0323298   -2.0785335   -2.0785335  -0.53007111   0.15131539   -2.0785335    1.5484624       128000 
  353000    1.0309261   -2.0758817   -2.0758817  -0.52952496   0.14670004   -2.0758817    1.5463567       128000 
  354000    1.0376442   -2.0733058   -2.0733058  -0.51687205   0.16721334   -2.0733058    1.5564337       128000 
  355000    1.0440365   -2.0800784   -2.0800784  -0.51405643   0.15730736   -2.0800784     1.566022       128000 
  356000    1.0356686   -2.0769588   -2.0769588  -0.52348846   0.15093445   -2.0769588    1.5534704       128000 
  357000    1.0392075   -2.0785016   -2.0785016  -0.51972292    0.1596461   -2.0785016    1.5587787       128000 
  358000     1.034272   -2.0810892   -2.0810892  -0.52971363   0.15891039   -2.0810892    1.5513756       128000 
  359000    1.0398698   -2.0806995   -2.0806995  -0.52092749   0.16100842   -2.0806995     1.559772       128000 
  360000    1.0376576   -2.0810829   -2.0810829  -0.52462907   0.14859792   -2.0810829    1.5564538       128000 
  361000     1.033448   -2.0811925   -2.0811925  -0.53105299   0.16780533   -2.0811925    1.5501395       128000 
  362000    1.0357405   -2.0857474   -2.0857474  -0.53216914    0.1587503   -2.0857474    1.5535783       128000 
  363000    1.0358012   -2.0844013   -2.0844013  -0.53073196   0.16278524   -2.0844013    1.5536693       128000 
  364000    1.0334432   -2.0833992   -2.0833992  -0.53326679   0.15714771   -2.0833992    1.5501324       128000 
  365000    1.0295727   -2.0822522   -2.0822522  -0.53792542   0.14924783   -2.0822522    1.5443268       128000 
  366000    1.0376615   -2.0860571   -2.0860571   -0.5295975   0.16101256   -2.0860571    1.5564597       128000 
  367000    1.0338932   -2.0825502   -2.0825502  -0.53174279   0.16730624   -2.0825502    1.5508074       128000 
  368000    1.0389902   -2.0817026   -2.0817026  -0.52324983   0.16282882   -2.0817026    1.5584527       128000 
  369000    1.0405473   -2.0807594   -2.0807594  -0.51997114   0.15990379   -2.0807594    1.5607882       128000 
  370000    1.0411128   -2.0845458   -2.0845458  -0.52290922   0.15315986   -2.0845458    1.5616365       128000 
  371000    1.0394695   -2.0877733   -2.0877733  -0.52860172   0.15448719   -2.0877733    1.5591715       128000 
  372000    1.0367106   -2.0820578   -2.0820578  -0.52702448   0.16131829   -2.0820578    1.5550333       128000 
  373000    1.0358279   -2.0782213   -2.0782213  -0.52451192   0.16666324   -2.0782213    1.5537094       128000 
  374000    1.0356662    -2.081446    -2.081446  -0.52797914   0.16176057    -2.081446    1.5534668       128000 
  375000    1.0363265   -2.0816297   -2.0816297  -0.52717249   0.16560569   -2.0816297    1.5544572       128000 
  376000    1.0353378    -2.081454    -2.081454  -0.52847985   0.16995405    -2.081454    1.5529742       128000 
  377000    1.0350468   -2.0818263   -2.0818263  -0.52928855   0.13633255   -2.0818263    1.5525377       128000 
  378000    1.0445448   -2.0933098   -2.0933098  -0.52652541   0.15400873   -2.0933098    1.5667844       128000 
  379000    1.0398607   -2.0815829   -2.0815829  -0.52182459   0.16150515   -2.0815829    1.5597583       128000 
  380000    1.0465421   -2.0836155   -2.0836155  -0.51383526   0.15105827   -2.0836155    1.5697803       128000 
  381000    1.0446378   -2.0806237   -2.0806237  -0.51369986    0.1630253   -2.0806237    1.5669239       128000 
  382000    1.0392425   -2.0797973   -2.0797973  -0.52096623   0.16018933   -2.0797973    1.5588311       128000 
  383000    1.0311172   -2.0835971   -2.0835971  -0.53695371   0.15517165   -2.0835971    1.5466434       128000 
  384000    1.0343575   -2.0759528   -2.0759528  -0.52444899   0.16106628   -2.0759528    1.5515038       128000 
  385000    1.0386101   -2.0765651   -2.0765651  -0.51868253   0.16071041   -2.0765651    1.5578825       128000 
  386000    1.0403582   -2.0860716   -2.0860716  -0.52556693   0.15156147   -2.0860716    1.5605046       128000 
  387000    1.0399247   -2.0865033   -2.0865033  -0.52664886   0.16290612   -2.0865033    1.5598544       128000 
  388000    1.0345271   -2.0792302   -2.0792302  -0.52747209   0.16100769   -2.0792302    1.5517581       128000 
  389000    1.0391914   -2.0828055   -2.0828055  -0.52405109     0.157964   -2.0828055    1.5587544       128000 
  390000    1.0337223   -2.0801089   -2.0801089  -0.52955793   0.15346677   -2.0801089     1.550551       128000 
  391000     1.041193   -2.0839585   -2.0839585  -0.52220177   0.14480836   -2.0839585    1.5617568       128000 
  392000    1.0393505   -2.0805207   -2.0805207  -0.52152761   0.16481824   -2.0805207    1.5589931       128000 
  393000    1.0409266   -2.0770945   -2.0770945  -0.51573729   0.15628899   -2.0770945    1.5613572       128000 
  394000    1.0412139   -2.0782441   -2.0782441  -0.51645596    0.1633269   -2.0782441    1.5617881       128000 
  395000    1.0373603   -2.0741682   -2.0741682  -0.51816028    0.1530594   -2.0741682    1.5560079       128000 
  396000    1.0403349   -2.0830181   -2.0830181  -0.52254841   0.15912983   -2.0830181    1.5604697       128000 
  397000    1.0440131   -2.0843214   -2.0843214  -0.51833455   0.15877048   -2.0843214    1.5659868       128000 
  398000    1.0429595   -2.0805424   -2.0805424  -0.51613587   0.17086121   -2.0805424    1.5644066       128000 
  399000    1.0417092   -2.0812974   -2.0812974  -0.51876629   0.16435175   -2.0812974    1.5625311       128000 
  400000    1.0443668   -2.0778232   -2.0778232  -0.51130569   0.15731478   -2.0778232    1.5665175       128000 
  401000    1.0392057   -2.0808107   -2.0808107  -0.52203486    0.1515496   -2.0808107    1.5587759       128000 
  402000    1.0384744   -2.0805661   -2.0805661  -0.52288721   0.16173914   -2.0805661    1.5576789       128000 
  403000    1.0415294   -2.0879011   -2.0879011  -0.52563968   0.13671253   -2.0879011    1.5622614       128000 
  404000    1.0388964    -2.075884    -2.075884  -0.51757197   0.14807212    -2.075884     1.558312       128000 
  405000    1.0450632   -2.0785962   -2.0785962  -0.51103423   0.16598055   -2.0785962    1.5675619       128000 
  406000    1.0456554   -2.0855784   -2.0855784  -0.51712812   0.15051699   -2.0855784    1.5684503       128000 
  407000    1.0427822   -2.0805151   -2.0805151  -0.51637465   0.15419536   -2.0805151    1.5641405       128000 
  408000    1.0360562   -2.0725453   -2.0725453  -0.51849354   0.16868621   -2.0725453    1.5540518       128000 
  409000    1.0474422   -2.0777785   -2.0777785   -0.5066481   0.16854258   -2.0777785    1.5711305       128000 
  410000    1.0409743   -2.0775338   -2.0775338  -0.51610511   0.16346968   -2.0775338    1.5614287       128000 
  411000     1.041291    -2.085806    -2.085806  -0.52390212   0.15997383    -2.085806    1.5619039       128000 
  412000    1.0366499   -2.0713817   -2.0713817  -0.51643946   0.17390936   -2.0713817    1.5549422       128000 
  413000    1.0355773   -2.0776323   -2.0776323  -0.52429893   0.16428297   -2.0776323    1.5533334       128000 
  414000    1.0455142   -2.0798412   -2.0798412  -0.51160277   0.17298424   -2.0798412    1.5682384       128000 
  415000    1.0384843    -2.078421    -2.078421  -0.52072718   0.15991437    -2.078421    1.5576939       128000 
  416000    1.0430641   -2.0759938   -2.0759938  -0.51143043   0.16363578   -2.0759938    1.5645634       128000 
  417000    1.0408143   -2.0818611   -2.0818611  -0.52067234   0.15473478   -2.0818611    1.5611888       128000 
  418000    1.0420166    -2.079032    -2.079032  -0.51603974   0.16305815    -2.079032    1.5629922       128000 
  419000    1.0432013   -2.0776328   -2.0776328  -0.51286371   0.15989882   -2.0776328    1.5647691       128000 
  420000    1.0443152   -2.0799613   -2.0799613  -0.51352123    0.1615422   -2.0799613      1.56644       128000 
  421000    1.0434366   -2.0752492   -2.0752492  -0.51012698   0.15250841   -2.0752492    1.5651222       128000 
  422000    1.0379923   -2.0719729   -2.0719729  -0.51501702   0.15757172   -2.0719729    1.5569559       128000 
  423000    1.0383297   -2.0721864   -2.0721864  -0.51472446   0.15519241   -2.0721864     1.557462       128000 
  424000    1.0351677    -2.068123    -2.068123  -0.51540393   0.15670727    -2.068123     1.552719       128000 
  425000    1.0437335   -2.0750034   -2.0750034  -0.50943596   0.16079421   -2.0750034    1.5655674       128000 
  426000    1.0483189   -2.0727315   -2.0727315  -0.50028598   0.16769487   -2.0727315    1.5724455       128000 
  427000    1.0415923   -2.0716605   -2.0716605  -0.50930476   0.16665693   -2.0716605    1.5623557       128000 
  428000    1.0429077   -2.0758359   -2.0758359  -0.51150706   0.16022117   -2.0758359    1.5643289       128000 
  429000    1.0430417    -2.081703    -2.081703  -0.51717327    0.1580206    -2.081703    1.5645297       128000 
  430000     1.040373   -2.0730247   -2.0730247  -0.51249792   0.16792646   -2.0730247    1.5605268       128000 
  431000    1.0451087   -2.0752938   -2.0752938  -0.50766356   0.16278453   -2.0752938    1.5676303       128000 
  432000    1.0451761   -2.0757359   -2.0757359   -0.5080046   0.16657821   -2.0757359    1.5677313       128000 
  433000    1.0497247   -2.0762473   -2.0762473  -0.50169323   0.15662616   -2.0762473    1.5745541       128000 
  434000    1.0464371   -2.0791399   -2.0791399  -0.50951719   0.15702993   -2.0791399    1.5696228       128000 
  435000    1.0453931   -2.0765786   -2.0765786  -0.50852178   0.17600713   -2.0765786    1.5680568       128000 
  436000    1.0423711   -2.0751662   -2.0751662   -0.5116423   0.15165168   -2.0751662    1.5635239       128000 
  437000     1.037824   -2.0773672   -2.0773672  -0.52066378   0.16574866   -2.0773672    1.5567035       128000 
  438000    1.0344007    -2.071151    -2.071151  -0.51958237   0.17293565    -2.071151    1.5515686       128000 
  439000    1.0445493   -2.0791526   -2.0791526  -0.51236144   0.17045409   -2.0791526    1.5667912       128000 
  440000     1.038376   -2.0729341   -2.0729341  -0.51540272   0.16792196   -2.0729341    1.5575314       128000 
  441000    1.0464203   -2.0753468   -2.0753468  -0.50574918   0.15021243   -2.0753468    1.5695976       128000 
  442000    1.0364887   -2.0849627   -2.0849627  -0.53026225   0.14924431   -2.0849627    1.5547005       128000 
  443000    1.0369883   -2.0859375   -2.0859375  -0.53048758   0.14976922   -2.0859375    1.5554499       128000 
  444000    1.0356902   -2.0800975   -2.0800975  -0.52659477   0.15433459   -2.0800975    1.5535027       128000 
  445000    1.0385474   -2.0785709   -2.0785709  -0.52078241   0.15242416   -2.0785709    1.5577885       128000 
  446000     1.042565   -2.0795605   -2.0795605  -0.51574574   0.15656888   -2.0795605    1.5638148       128000 
  447000    1.0431259   -2.0775665   -2.0775665  -0.51291038   0.16564422   -2.0775665    1.5646561       128000 
  448000    1.0451439   -2.0769092   -2.0769092  -0.50922619   0.16739182   -2.0769092     1.567683       128000 
  449000    1.0473232   -2.0807571   -2.0807571  -0.50980521   0.16299877   -2.0807571    1.5709519       128000 
  450000    1.0446419   -2.0761603   -2.0761603  -0.50923022   0.16155525   -2.0761603    1.5669301       128000 
  451000    1.0378954   -2.0676757   -2.0676757  -0.51086516    0.1601698   -2.0676757    1.5568105       128000 
  452000    1.0351493    -2.071333    -2.071333  -0.51864159   0.16423205    -2.071333    1.5526914       128000 
  453000    1.0429914   -2.0735404   -2.0735404    -0.509086   0.16670793   -2.0735404    1.5644544       128000 
  454000    1.0455954   -2.0748335   -2.0748335  -0.50647326   0.15974925   -2.0748335    1.5683602       128000 
  455000     1.042254   -2.0737439   -2.0737439  -0.51039565   0.16707142   -2.0737439    1.5633482       128000 
  456000    1.0455671   -2.0754859   -2.0754859  -0.50716802    0.1583863   -2.0754859    1.5683179       128000 
  457000     1.043745   -2.0714164   -2.0714164  -0.50583174   0.16849273   -2.0714164    1.5655847       128000 
  458000    1.0486348   -2.0758033   -2.0758033  -0.50288394   0.17107597   -2.0758033    1.5729193       128000 
  459000    1.0522342   -2.0734826   -2.0734826  -0.49516426   0.17332303   -2.0734826    1.5783183       128000 
  460000    1.0498003   -2.0730004   -2.0730004   -0.4983329   0.16369739   -2.0730004    1.5746675       128000 
  461000     1.050833   -2.0780668   -2.0780668  -0.50185023   0.16851143   -2.0780668    1.5762166       128000 
  462000    1.0450922   -2.0763642   -2.0763642  -0.50875866   0.16657793   -2.0763642    1.5676055       128000 
  463000     1.043607   -2.0766963   -2.0766963  -0.51131859   0.16735229   -2.0766963    1.5653777       128000 
  464000    1.0470792    -2.077825    -2.077825  -0.50723901   0.15802881    -2.077825     1.570586       128000 
  465000    1.0441254   -2.0717049   -2.0717049  -0.50554958   0.15524679   -2.0717049    1.5661553       128000 
  466000    1.0397086   -2.0727267   -2.0727267  -0.51319647   0.16280364   -2.0727267    1.5595303       128000 
  467000    1.0432887   -2.0716045   -2.0716045  -0.50670426   0.17668025   -2.0716045    1.5649003       128000 
  468000    1.0465014    -2.069337    -2.069337  -0.49961771   0.15953195    -2.069337    1.5697193       128000 
  469000    1.0431524   -2.0749838   -2.0749838  -0.51028799   0.16932401   -2.0749838    1.5646958       128000 
  470000    1.0406557   -2.0690192   -2.0690192  -0.50806839   0.17083111   -2.0690192    1.5609508       128000 
  471000    1.0486725   -2.0716402   -2.0716402  -0.49866438   0.17325181   -2.0716402    1.5729758       128000 
  472000    1.0538729   -2.0690499   -2.0690499  -0.48827361   0.17041028   -2.0690499    1.5807762       128000 
  473000    1.0503051    -2.071519    -2.071519  -0.49609423   0.16295631    -2.071519    1.5754247       128000 
  474000    1.0506568     -2.07265     -2.07265  -0.49669781   0.17418653     -2.07265    1.5759522       128000 
  475000    1.0452067   -2.0775952   -2.0775952  -0.50981795   0.15979344   -2.0775952    1.5677773       128000 
  476000    1.0461949   -2.0758642   -2.0758642  -0.50660469   0.16099176   -2.0758642    1.5692595       128000 
  477000    1.0419567   -2.0721816   -2.0721816  -0.50927934   0.17295642   -2.0721816    1.5629023       128000 
  478000     1.043409   -2.0794216   -2.0794216  -0.51434086   0.15738728   -2.0794216    1.5650807       128000 
  479000     1.042531   -2.0767415   -2.0767415   -0.5129777   0.15660919   -2.0767415    1.5637638       128000 
  480000    1.0416647   -2.0792213   -2.0792213  -0.51675702   0.16937936   -2.0792213    1.5624643       128000 
  481000    1.0510349   -2.0784702   -2.0784702  -0.50195086   0.16006537   -2.0784702    1.5765193       128000 
  482000    1.0462432    -2.074647    -2.074647  -0.50531509   0.16456023    -2.074647    1.5693319       128000 
  483000    1.0498404   -2.0656034   -2.0656034  -0.49087584   0.15762678   -2.0656034    1.5747276       128000 
  484000    1.0457848   -2.0705883   -2.0705883    -0.501944   0.17939269   -2.0705883    1.5686444       128000 
  485000    1.0477907   -2.0720114   -2.0720114  -0.50035818   0.16293587   -2.0720114    1.5716532       128000 
  486000    1.0504744   -2.0708356   -2.0708356  -0.49515693   0.16394687   -2.0708356    1.5756787       128000 
  487000    1.0521054   -2.0730783   -2.0730783  -0.49495326   0.16286479   -2.0730783     1.578125       128000 
  488000    1.0502631   -2.0701308   -2.0701308  -0.49476912   0.16525802   -2.0701308    1.5753617       128000 
  489000    1.0494338   -2.0724454   -2.0724454  -0.49832759   0.15923223   -2.0724454    1.5741178       128000 
  490000    1.0493711   -2.0731308   -2.0731308  -0.49910711   0.16680835   -2.0731308    1.5740237       128000 
  491000    1.0524834   -2.0755295   -2.0755295  -0.49683738   0.15720037   -2.0755295    1.5786921       128000 
  492000    1.0446158   -2.0693013   -2.0693013  -0.50241037   0.15832897   -2.0693013     1.566891       128000 
  493000    1.0477219   -2.0752879   -2.0752879  -0.50373788   0.16319701   -2.0752879      1.57155       128000 
  494000     1.047121   -2.0616887   -2.0616887   -0.4910401   0.15874037   -2.0616887    1.5706486       128000 
  495000    1.0506426   -2.0737679   -2.0737679  -0.49783689   0.17173079   -2.0737679     1.575931       128000 
  496000    1.0496785    -2.065148    -2.065148  -0.49066315   0.17000807    -2.065148    1.5744848       128000 
  497000    1.0481093   -2.0654616   -2.0654616  -0.49333051    0.1591823   -2.0654616    1.5721311       128000 
  498000    1.0472357   -2.0594491   -2.0594491  -0.48862836   0.18366657   -2.0594491    1.5708207       128000 
  499000    1.0447182   -2.0703703   -2.0703703  -0.50332583   0.17249654   -2.0703703    1.5670445       128000 
  500000    1.0462072   -2.0726733   -2.0726733  -0.50339535   0.16544791   -2.0726733     1.569278       128000 
  501000    1.0476411   -2.0737135   -2.0737135  -0.50228473   0.17868459   -2.0737135    1.5714288       128000 
  502000    1.0476197   -2.0671416   -2.0671416  -0.49574497   0.16887579   -2.0671416    1.5713966       128000 
  503000    1.0481567   -2.0762045   -2.0762045  -0.50400232   0.15736071   -2.0762045    1.5722022       128000 
  504000    1.0433175   -2.0723583   -2.0723583  -0.50741487   0.16075706   -2.0723583    1.5649435       128000 
  505000    1.0489971   -2.0670809   -2.0670809  -0.49361816   0.15369429   -2.0670809    1.5734627       128000 
  506000    1.0463589   -2.0666303   -2.0666303  -0.49712474   0.16065302   -2.0666303    1.5695056       128000 
  507000     1.045788   -2.0677217   -2.0677217  -0.49907255   0.17215722   -2.0677217    1.5686491       128000 
  508000    1.0460356   -2.0665426   -2.0665426  -0.49752208   0.16758573   -2.0665426    1.5690205       128000 
  509000    1.0475435   -2.0728743   -2.0728743  -0.50159197   0.15895177   -2.0728743    1.5712823       128000 
  510000    1.0499281    -2.077472    -2.077472  -0.50261285   0.16228104    -2.077472    1.5748592       128000 
  511000    1.0485262     -2.07722     -2.07722  -0.50446357   0.17091965     -2.07722    1.5727564       128000 
  512000    1.0474877   -2.0679495   -2.0679495  -0.49675072   0.16055775   -2.0679495    1.5711987       128000 
  513000    1.0490643   -2.0727978   -2.0727978  -0.49923437   0.16350372   -2.0727978    1.5735635       128000 
  514000    1.0511229   -2.0778996   -2.0778996  -0.50124832   0.16509609   -2.0778996    1.5766513       128000 
  515000    1.0431491   -2.0736915   -2.0736915  -0.50900054   0.16828494   -2.0736915     1.564691       128000 
  516000    1.0480075   -2.0749592   -2.0749592  -0.50298087   0.15847806   -2.0749592    1.5719783       128000 
  517000    1.0507263   -2.0719196   -2.0719196  -0.49586314   0.16491557   -2.0719196    1.5760565       128000 
  518000    1.0487667   -2.0714094   -2.0714094  -0.49829223   0.17294496   -2.0714094    1.5731172       128000 
  519000    1.0489558     -2.07179     -2.07179  -0.49838924   0.16456571     -2.07179    1.5734008       128000 
  520000    1.0517822   -2.0666807   -2.0666807  -0.48904036   0.16316329   -2.0666807    1.5776403       128000 
  521000    1.0523607   -2.0646541   -2.0646541  -0.48614609   0.18350763   -2.0646541     1.578508       128000 
  522000    1.0443307   -2.0609806   -2.0609806  -0.49451726    0.1706559   -2.0609806    1.5664633       128000 
  523000    1.0484011    -2.062158    -2.062158  -0.48958926   0.17014134    -2.062158    1.5725687       128000 
  524000    1.0497253   -2.0657103   -2.0657103  -0.49115539   0.16661808   -2.0657103     1.574555       128000 
  525000    1.0569968   -2.0686984   -2.0686984  -0.48323646   0.16697013   -2.0686984     1.585462       128000 
  526000    1.0618737   -2.0683621   -2.0683621  -0.47558489   0.17582343   -2.0683621    1.5927772       128000 
  527000    1.0647544   -2.0638716   -2.0638716  -0.46677354   0.18082068   -2.0638716    1.5970981       128000 
  528000    1.0576132   -2.0575534   -2.0575534  -0.47116686    0.1740028   -2.0575534    1.5863865       128000 
  529000    1.0624713   -2.0586221   -2.0586221  -0.46494844   0.17489704   -2.0586221    1.5936736       128000 
  530000    1.0532243   -2.0623028   -2.0623028  -0.48249946   0.17543551   -2.0623028    1.5798034       128000 
  531000    1.0544063   -2.0628733   -2.0628733  -0.48129689    0.1707346   -2.0628733    1.5815764       128000 
  532000    1.0569538    -2.061659    -2.061659  -0.47626152   0.17298165    -2.061659    1.5853975       128000 
  533000    1.0595669   -2.0670794   -2.0670794  -0.47776229   0.16609267   -2.0670794    1.5893172       128000 
  534000    1.0554433   -2.0669866   -2.0669866  -0.48385487   0.16962021   -2.0669866    1.5831317       128000 
  535000    1.0552529   -2.0642426   -2.0642426  -0.48139638   0.17732338   -2.0642426    1.5828462       128000 
  536000    1.0576222   -2.0668572   -2.0668572  -0.48045717   0.15978249   -2.0668572       1.5864       128000 
  537000    1.0505861   -2.0610151   -2.0610151  -0.48516898   0.16659527   -2.0610151    1.5758461       128000 
  538000    1.0539235   -2.0644993   -2.0644993   -0.4836472   0.16425074   -2.0644993    1.5808522       128000 
  539000    1.0619718   -2.0682864   -2.0682864    -0.475362   0.18214287   -2.0682864    1.5929244       128000 
  540000    1.0542429   -2.0634919   -2.0634919  -0.48216061   0.17268426   -2.0634919    1.5813313       128000 
  541000    1.0492507   -2.0612583   -2.0612583  -0.48741521    0.1676364   -2.0612583    1.5738431       128000 
  542000    1.0603844   -2.0608581   -2.0608581  -0.47031485   0.19137035   -2.0608581    1.5905433       128000 
  543000     1.061095   -2.0579497   -2.0579497  -0.46634056    0.1689731   -2.0579497    1.5916091       128000 
  544000    1.0602012   -2.0574046   -2.0574046  -0.46713608   0.16256412   -2.0574046    1.5902685       128000 
  545000    1.0593689    -2.058086    -2.058086  -0.46906587   0.17927848    -2.058086    1.5890201       128000 
  546000    1.0619433   -2.0584989   -2.0584989   -0.4656173   0.17580166   -2.0584989    1.5928816       128000 
  547000    1.0578231   -2.0572654   -2.0572654  -0.47056394   0.17045855   -2.0572654    1.5867014       128000 
  548000    1.0576257   -2.0557161   -2.0557161  -0.46931073   0.17114197   -2.0557161    1.5864054       128000 
  549000    1.0558578   -2.0618347   -2.0618347  -0.47808111   0.16660635   -2.0618347    1.5837536       128000 
  550000    1.0607791   -2.0649905   -2.0649905  -0.47385518   0.17929015   -2.0649905    1.5911353       128000 
  551000    1.0582959   -2.0621478   -2.0621478  -0.47473717   0.16691058   -2.0621478    1.5874107       128000 
  552000    1.0557252   -2.0629098   -2.0629098  -0.47935514   0.17578747   -2.0629098    1.5835547       128000 
  553000    1.0515307   -2.0615657   -2.0615657  -0.48430262   0.17599578   -2.0615657    1.5772631       128000 
  554000    1.0551597   -2.0579224   -2.0579224  -0.47521598   0.18791446   -2.0579224    1.5827065       128000 
  555000      1.05815   -2.0631107   -2.0631107  -0.47591893   0.16464549   -2.0631107    1.5871917       128000 
  556000    1.0608907   -2.0615877   -2.0615877  -0.47028502   0.18388957   -2.0615877    1.5913027       128000 
  557000    1.0634667   -2.0582736   -2.0582736    -0.463107    0.1747201   -2.0582736    1.5951666       128000 
  558000    1.0631458   -2.0684483   -2.0684483  -0.47376301   0.17435541   -2.0684483    1.5946853       128000 
  559000    1.0578376   -2.0666928   -2.0666928   -0.4799697   0.17157992   -2.0666928    1.5867231       128000 
  560000    1.0568755   -2.0597107   -2.0597107  -0.47443053   0.18872815   -2.0597107    1.5852801       128000 
  561000    1.0599762   -2.0657189   -2.0657189  -0.47578779   0.16503747   -2.0657189    1.5899311       128000 
  562000     1.056684   -2.0606654   -2.0606654  -0.47567259   0.17427549   -2.0606654    1.5849929       128000 
  563000    1.0560559   -2.0636158   -2.0636158  -0.47956516   0.17364515   -2.0636158    1.5840506       128000 
  564000    1.0568638   -2.0604277   -2.0604277  -0.47516511   0.16997064   -2.0604277    1.5852626       128000 
  565000     1.054063   -2.0575059   -2.0575059  -0.47644449   0.18379266   -2.0575059    1.5810614       128000 
  566000    1.0560248   -2.0661149   -2.0661149  -0.48211087    0.1687201   -2.0661149     1.584004       128000 
  567000    1.0550856   -2.0652739   -2.0652739   -0.4826787   0.16920681   -2.0652739    1.5825952       128000 
  568000    1.0582667   -2.0733348   -2.0733348  -0.48596793   0.16179135   -2.0733348    1.5873668       128000 
  569000    1.0528203   -2.0657387   -2.0657387  -0.48654121   0.15768014   -2.0657387    1.5791975       128000 
  570000    1.0585584   -2.0666254   -2.0666254    -0.478821   0.17365777   -2.0666254    1.5878044       128000 
  571000     1.058703   -2.0658301   -2.0658301  -0.47780884   0.16745172   -2.0658301    1.5880213       128000 
  572000    1.0599274   -2.0703199   -2.0703199  -0.48046199   0.15278016   -2.0703199    1.5898579       128000 
  573000    1.0597549    -2.061384    -2.061384  -0.47178492   0.17351781    -2.061384    1.5895991       128000 
  574000    1.0602998   -2.0587104   -2.0587104  -0.46829391   0.17276904   -2.0587104    1.5904165       128000 
  575000    1.0496248   -2.0612466   -2.0612466  -0.48684235   0.17046841   -2.0612466    1.5744043       128000 
  576000    1.0530409   -2.0709232   -2.0709232  -0.49139494   0.16751064   -2.0709232    1.5795283       128000 
  577000    1.0522036   -2.0610236   -2.0610236  -0.48275121   0.16714608   -2.0610236    1.5782724       128000 
  578000    1.0547637   -2.0603786   -2.0603786  -0.47826621   0.15959295   -2.0603786    1.5821124       128000 
  579000    1.0556263   -2.0638632   -2.0638632  -0.48045697   0.17160097   -2.0638632    1.5834062       128000 
  580000    1.0596628   -2.0687074   -2.0687074  -0.47924638   0.17315544   -2.0687074     1.589461       128000 
  581000     1.054514   -2.0599362   -2.0599362  -0.47819832   0.17549391   -2.0599362    1.5817379       128000 
  582000    1.0612367   -2.0656651   -2.0656651  -0.47384344   0.16487022   -2.0656651    1.5918217       128000 
  583000    1.0579485   -2.0659061   -2.0659061  -0.47901654   0.17552765   -2.0659061    1.5868895       128000 
  584000    1.0579661   -2.0634394   -2.0634394  -0.47652343   0.17999972   -2.0634394     1.586916       128000 
  585000    1.0630988   -2.0637467   -2.0637467  -0.46913182   0.17982949   -2.0637467    1.5946148       128000 
  586000    1.0579219    -2.058399    -2.058399  -0.47154942   0.17481881    -2.058399    1.5868496       128000 
  587000    1.0575353   -2.0579105   -2.0579105   -0.4716408   0.18373307   -2.0579105    1.5862698       128000 
  588000    1.0593544   -2.0636721   -2.0636721  -0.47467377   0.17338364   -2.0636721    1.5889983       128000 
  589000    1.0577714   -2.0600863   -2.0600863   -0.4734625   0.16805391   -2.0600863    1.5866238       128000 
  590000    1.0605115   -2.0566606   -2.0566606  -0.46592672   0.17357376   -2.0566606    1.5907339       128000 
  591000    1.0622511   -2.0565151   -2.0565151  -0.46317174   0.17119544   -2.0565151    1.5933434       128000 
  592000    1.0606561   -2.0613774   -2.0613774  -0.47042656   0.16359747   -2.0613774    1.5909508       128000 
  593000    1.0617129   -2.0625155   -2.0625155  -0.46997954   0.16321788   -2.0625155     1.592536       128000 
  594000    1.0602038   -2.0613795   -2.0613795  -0.47110709   0.16834988   -2.0613795    1.5902724       128000 
  595000    1.0526826   -2.0582251   -2.0582251  -0.47923424   0.16335064   -2.0582251    1.5789908       128000 
  596000    1.0564917   -2.0599607   -2.0599607  -0.47525638   0.17185787   -2.0599607    1.5847043       128000 
  597000    1.0578006   -2.0653292   -2.0653292  -0.47866158   0.18258661   -2.0653292    1.5866676       128000 
  598000    1.0622651   -2.0617612   -2.0617612  -0.46839692   0.18579262   -2.0617612    1.5933643       128000 
  599000    1.0567956   -2.0616503   -2.0616503  -0.47649003   0.16954717   -2.0616503    1.5851602       128000 
  600000    1.0608063   -2.0615884   -2.0615884  -0.47041222   0.17480215   -2.0615884    1.5911762       128000 
  601000    1.0598999   -2.0586057   -2.0586057  -0.46878912   0.17541665   -2.0586057    1.5898166       128000 
  602000    1.0648372   -2.0644601   -2.0644601  -0.46723775   0.17402897   -2.0644601    1.5972223       128000 
  603000    1.0590704   -2.0599527   -2.0599527  -0.47138031   0.17571117   -2.0599527    1.5885724       128000 
  604000    1.0596866   -2.0555035   -2.0555035   -0.4660069   0.17527887   -2.0555035    1.5894966       128000 
  605000    1.0606308   -2.0603719   -2.0603719  -0.46945899   0.16748654   -2.0603719    1.5909129       128000 
  606000    1.0563913   -2.0583668   -2.0583668  -0.47381304   0.17070513   -2.0583668    1.5845538       128000 
  607000    1.0608937   -2.0545433   -2.0545433  -0.46323598    0.1708874   -2.0545433    1.5913073       128000 
  608000    1.0581105   -2.0610912   -2.0610912  -0.47395867   0.16576989   -2.0610912    1.5871325       128000 
  609000    1.0637188   -2.0648685   -2.0648685  -0.46932376   0.17813917   -2.0648685    1.5955448       128000 
  610000    1.0570361   -2.0581746   -2.0581746  -0.47265362   0.17029375   -2.0581746     1.585521       128000 
  611000    1.0564583    -2.059523    -2.059523  -0.47486877   0.18972628    -2.059523    1.5846542       128000 
  612000     1.058614   -2.0655684   -2.0655684  -0.47768064   0.18049134   -2.0655684    1.5878877       128000 
  613000     1.057886   -2.0585305   -2.0585305  -0.47173467   0.18211647   -2.0585305    1.5867959       128000 
  614000    1.0567723   -2.0554977   -2.0554977  -0.47037236   0.18695771   -2.0554977    1.5851253       128000 
  615000    1.0580966   -2.0584781   -2.0584781  -0.47136642   0.17662539   -2.0584781    1.5871117       128000 
  616000     1.054723   -2.0588961   -2.0588961  -0.47684472   0.17218453   -2.0588961    1.5820514       128000 
  617000    1.0627683   -2.0578123   -2.0578123  -0.46369311    0.1782301   -2.0578123    1.5941191       128000 
  618000    1.0562052   -2.0605829   -2.0605829  -0.47630831   0.18817995   -2.0605829    1.5842746       128000 
  619000    1.0645089   -2.0672466   -2.0672466  -0.47051661   0.16993509   -2.0672466      1.59673       128000 
  620000    1.0632122   -2.0519725   -2.0519725  -0.45718756    0.1796335   -2.0519725    1.5947849       128000 
  621000    1.0630735   -2.0580564   -2.0580564  -0.46347957   0.18014204   -2.0580564    1.5945768       128000 
  622000    1.0641798   -2.0621093   -2.0621093  -0.46587307   0.18141512   -2.0621093    1.5962363       128000 
  623000    1.0629775   -2.0563602   -2.0563602  -0.46192726   0.16193222   -2.0563602    1.5944329       128000 
  624000    1.0648025     -2.05682     -2.05682  -0.45964957   0.17426203     -2.05682    1.5971704       128000 
  625000    1.0639395   -2.0585164   -2.0585164  -0.46264045   0.18420755   -2.0585164    1.5958759       128000 
  626000    1.0637899   -2.0585814   -2.0585814  -0.46293005    0.1800719   -2.0585814    1.5956514       128000 
  627000    1.0640414   -2.0604515   -2.0604515  -0.46442285   0.16883366   -2.0604515    1.5960287       128000 
  628000    1.0584746   -2.0508708   -2.0508708  -0.46319216    0.1750706   -2.0508708    1.5876787       128000 
  629000    1.0589248   -2.0565726   -2.0565726  -0.46821862   0.17580938   -2.0565726     1.588354       128000 
  630000    1.0609549   -2.0541744   -2.0541744  -0.46277538   0.17666101   -2.0541744     1.591399       128000 
  631000    1.0653484   -2.0561347   -2.0561347   -0.4581455   0.18205678   -2.0561347    1.5979892       128000 
  632000    1.0587578   -2.0550096   -2.0550096  -0.46690615   0.17820647   -2.0550096    1.5881034       128000 
  633000    1.0605303   -2.0579247   -2.0579247  -0.46716265    0.1728698   -2.0579247    1.5907621       128000 
  634000    1.0660888   -2.0568862   -2.0568862  -0.45778645   0.17089649   -2.0568862    1.5990998       128000 
  635000    1.0676159    -2.063237    -2.063237  -0.46184674   0.18142661    -2.063237    1.6013903       128000 
  636000    1.0635866   -2.0585556   -2.0585556  -0.46320918   0.17488251   -2.0585556    1.5953464       128000 
  637000    1.0598689   -2.0665566   -2.0665566  -0.47678652   0.17107986   -2.0665566      1.58977       128000 
  638000     1.056661   -2.0588007   -2.0588007  -0.47384235   0.18066138   -2.0588007    1.5849584       128000 
  639000     1.059527    -2.063667    -2.063667  -0.47440973   0.18333076    -2.063667    1.5892573       128000 
  640000    1.0590668     -2.06034     -2.06034  -0.47177307   0.16965106     -2.06034     1.588567       128000 
  641000    1.0627893   -2.0671331   -2.0671331  -0.47298251   0.17099956   -2.0671331    1.5941506       128000 
  642000     1.061292   -2.0578702   -2.0578702  -0.46596551   0.17645841   -2.0578702    1.5919047       128000 
  643000    1.0610886   -2.0576611   -2.0576611  -0.46606155   0.17181029   -2.0576611    1.5915996       128000 
  644000    1.0652169   -2.0613664   -2.0613664   -0.4635745   0.17932495   -2.0613664    1.5977919       128000 
  645000    1.0613199    -2.058728    -2.058728  -0.46678153   0.17524115    -2.058728    1.5919465       128000 
  646000    1.0616444   -2.0587296   -2.0587296  -0.46629635    0.1797432   -2.0587296    1.5924333       128000 
  647000    1.0587697    -2.063836    -2.063836  -0.47571474     0.177545    -2.063836    1.5881213       128000 
  648000    1.0599538   -2.0515268   -2.0515268  -0.46162935   0.17220432   -2.0515268    1.5898974       128000 
  649000    1.0695123   -2.0469965   -2.0469965  -0.44276159   0.18642663   -2.0469965    1.6042349       128000 
  650000    1.0717159    -2.045947    -2.045947  -0.43840673   0.18591862    -2.045947    1.6075402       128000 
  651000    1.0610638   -2.0491485   -2.0491485  -0.45758619    0.1892292   -2.0491485    1.5915623       128000 
  652000    1.0638615    -2.047228    -2.047228  -0.45146919   0.17891447    -2.047228    1.5957588       128000 
  653000    1.0711729   -2.0567822   -2.0567822  -0.45005642    0.1888638   -2.0567822    1.6067258       128000 
  654000    1.0708995   -2.0487533   -2.0487533  -0.44243775   0.17813058   -2.0487533    1.6063156       128000 
  655000     1.069015   -2.0592294   -2.0592294  -0.45574044   0.17291226   -2.0592294     1.603489       128000 
  656000    1.0700289   -2.0610024   -2.0610024  -0.45599264   0.16505338   -2.0610024    1.6050098       128000 
  657000    1.0671648   -2.0555783   -2.0555783  -0.45486457   0.17507973   -2.0555783    1.6007137       128000 
  658000    1.0680705    -2.055983    -2.055983  -0.45391074   0.18201918    -2.055983    1.6020723       128000 
  659000    1.0609349   -2.0481392   -2.0481392  -0.45677022   0.18585486   -2.0481392     1.591369       128000 
  660000    1.0653052   -2.0538619   -2.0538619  -0.45593751   0.16005638   -2.0538619    1.5979244       128000 
  661000    1.0682455   -2.0452508   -2.0452508  -0.44291607   0.18590529   -2.0452508    1.6023347       128000 
  662000    1.0679763   -2.0550272   -2.0550272  -0.45309632   0.17412827   -2.0550272    1.6019309       128000 
  663000    1.0608366    -2.047615    -2.047615  -0.45639343   0.18738051    -2.047615    1.5912216       128000 
  664000     1.066664   -2.0546042   -2.0546042  -0.45464168   0.18152709   -2.0546042    1.5999625       128000 
  665000     1.058034   -2.0428459   -2.0428459  -0.45582811   0.18180834   -2.0428459    1.5870177       128000 
  666000    1.0666329   -2.0533265   -2.0533265  -0.45341068   0.17207861   -2.0533265    1.5999158       128000 
  667000    1.0727943   -2.0558813   -2.0558813  -0.44672349   0.17103019   -2.0558813    1.6091578       128000 
  668000    1.0658961   -2.0527462   -2.0527462  -0.45393547    0.1711169   -2.0527462    1.5988107       128000 
  669000    1.0627339   -2.0521615   -2.0521615  -0.45809399   0.17995079   -2.0521615    1.5940675       128000 
  670000    1.0623762   -2.0402459   -2.0402459  -0.44671495   0.18245635   -2.0402459    1.5935309       128000 
  671000    1.0725201   -2.0559765   -2.0559765  -0.44722997   0.17581127   -2.0559765    1.6087465       128000 
  672000    1.0628914   -2.0476411   -2.0476411  -0.45333736   0.18889497   -2.0476411    1.5943037       128000 
  673000    1.0634398   -2.0460872   -2.0460872  -0.45096083   0.17688464   -2.0460872    1.5951264       128000 
  674000    1.0738024   -2.0518064   -2.0518064  -0.44113659   0.18767529   -2.0518064    1.6106698       128000 
  675000     1.071455   -2.0435695   -2.0435695  -0.43642068   0.18240951   -2.0435695    1.6071488       128000 
  676000    1.0683888   -2.0532435   -2.0532435  -0.45069392   0.17584699   -2.0532435    1.6025496       128000 
  677000    1.0655528   -2.0538975   -2.0538975  -0.45560177   0.17606474   -2.0538975    1.5982957       128000 
  678000    1.0704509   -2.0632244   -2.0632244  -0.45758171   0.17310471   -2.0632244    1.6056427       128000 
  679000    1.0664757   -2.0544231   -2.0544231  -0.45474313   0.17734486   -2.0544231      1.59968       128000 
  680000    1.0656627   -2.0559041   -2.0559041  -0.45744356   0.17476386   -2.0559041    1.5984605       128000 
  681000    1.0593519   -2.0486288   -2.0486288  -0.45963416   0.19327855   -2.0486288    1.5889946       128000 
  682000     1.061677    -2.055973    -2.055973  -0.46349088   0.17620878    -2.055973    1.5924821       128000 
  683000    1.0680178   -2.0569788   -2.0569788  -0.45498562   0.18569113   -2.0569788    1.6019931       128000 
  684000    1.0722627   -2.0592019   -2.0592019   -0.4508415   0.18857469   -2.0592019    1.6083604       128000 
  685000    1.0746386   -2.0554632   -2.0554632   -0.4435391   0.19450654   -2.0554632    1.6119241       128000 
  686000    1.0744929    -2.045463    -2.045463  -0.43375746   0.18611363    -2.045463    1.6117056       128000 
  687000    1.0726875   -2.0526889   -2.0526889  -0.44369124   0.18687452   -2.0526889    1.6089976       128000 
  688000    1.0768608   -2.0528688   -2.0528688  -0.43761137   0.18291814   -2.0528688    1.6152575       128000 
  689000    1.0734139   -2.0520874   -2.0520874  -0.44200031   0.18181556   -2.0520874    1.6100871       128000 
  690000    1.0723493   -2.0550346   -2.0550346  -0.44654423   0.17376626   -2.0550346    1.6084903       128000 
  691000    1.0687217   -2.0510862   -2.0510862  -0.44803716    0.1878188   -2.0510862     1.603049       128000 
  692000    1.0691785   -2.0500829   -2.0500829  -0.44634864   0.17964691   -2.0500829    1.6037342       128000 
  693000    1.0656965   -2.0437544   -2.0437544  -0.44524308   0.17787718   -2.0437544    1.5985113       128000 
  694000    1.0710534   -2.0566335   -2.0566335  -0.45008704   0.16546508   -2.0566335    1.6065465       128000 
  695000    1.0710971   -2.0608913   -2.0608913  -0.45427923   0.17742735   -2.0608913    1.6066121       128000 
  696000    1.0684722   -2.0542252   -2.0542252  -0.45155048    0.1907916   -2.0542252    1.6026747       128000 
  697000    1.0717678   -2.0529566   -2.0529566   -0.4453385   0.17743801   -2.0529566    1.6076181       128000 
  698000    1.0691378   -2.0534947   -2.0534947   -0.4498215   0.18473651   -2.0534947    1.6036732       128000 
  699000    1.0697855   -2.0527591   -2.0527591  -0.44811451   0.17393403   -2.0527591    1.6046446       128000 
  700000     1.069639   -2.0485558   -2.0485558  -0.44413078   0.19202383   -2.0485558     1.604425       128000 
  701000    1.0743167   -2.0507888   -2.0507888  -0.43934753   0.18887348   -2.0507888    1.6114413       128000 
  702000    1.0731168   -2.0457466   -2.0457466  -0.43610506   0.17690734   -2.0457466    1.6096415       128000 
  703000    1.0712596    -2.050407    -2.050407  -0.44355116    0.1812804    -2.050407    1.6068558       128000 
  704000    1.0758146   -2.0546058   -2.0546058  -0.44091772   0.17949017   -2.0546058    1.6136881       128000 
  705000    1.0718182   -2.0508872   -2.0508872  -0.44319359   0.19387942   -2.0508872    1.6076936       128000 
  706000    1.0690405   -2.0520649   -2.0520649  -0.44853768   0.18303226   -2.0520649    1.6035272       128000 
  707000    1.0728347   -2.0547853   -2.0547853  -0.44556701   0.18038998   -2.0547853    1.6092183       128000 
  708000    1.0643809   -2.0466772   -2.0466772  -0.45013923   0.16719535   -2.0466772     1.596538       128000 
  709000    1.0580372   -2.0425775   -2.0425775  -0.45555483   0.18658091   -2.0425775    1.5870226       128000 
  710000    1.0702354    -2.053942    -2.053942  -0.44862258   0.19691067    -2.053942    1.6053194       128000 
  711000    1.0680617   -2.0560454   -2.0560454  -0.45398637   0.17847417   -2.0560454     1.602059       128000 
  712000    1.0641122   -2.0465555   -2.0465555  -0.45042064   0.18900167   -2.0465555    1.5961348       128000 
  713000    1.0635577   -2.0482274   -2.0482274  -0.45292432   0.17964114   -2.0482274    1.5953031       128000 
  714000    1.0740202   -2.0513127   -2.0513127  -0.44031617   0.18314052   -2.0513127    1.6109965       128000 
  715000    1.0664154   -2.0485808   -2.0485808  -0.44899118   0.17455669   -2.0485808    1.5995896       128000 
  716000     1.069988   -2.0488832   -2.0488832  -0.44393486   0.18342582   -2.0488832    1.6049484       128000 
  717000    1.0677206   -2.0494283   -2.0494283  -0.44788096   0.18085248   -2.0494283    1.6015473       128000 
  718000    1.0693338   -2.0469866   -2.0469866  -0.44301953   0.18576047   -2.0469866    1.6039671       128000 
  719000    1.0703003   -2.0448499   -2.0448499  -0.43943311   0.18576743   -2.0448499    1.6054168       128000 
  720000    1.0750193   -2.0446236   -2.0446236  -0.43212835   0.18993022   -2.0446236    1.6124952       128000 
  721000    1.0815097   -2.0446604   -2.0446604  -0.42242989   0.18063465   -2.0446604    1.6222306       128000 
  722000    1.0811534   -2.0389133   -2.0389133  -0.41721712   0.20671997   -2.0389133    1.6216962       128000 
  723000    1.0766685   -2.0402947   -2.0402947  -0.42532573   0.18239669   -2.0402947    1.6149689       128000 
  724000    1.0753084   -2.0428011   -2.0428011  -0.42987223   0.18154463   -2.0428011    1.6129288       128000 
  725000      1.07277   -2.0438423   -2.0438423  -0.43472099   0.18800928   -2.0438423    1.6091213       128000 
  726000    1.0711504   -2.0441437   -2.0441437  -0.43745174   0.18360391   -2.0441437     1.606692       128000 
  727000    1.0754988   -2.0454424   -2.0454424  -0.43222792   0.19257581   -2.0454424    1.6132145       128000 
  728000    1.0765088   -2.0386148   -2.0386148  -0.42388541    0.1988785   -2.0386148    1.6147294       128000 
  729000    1.0815996   -2.0449001   -2.0449001  -0.42253467   0.18122773   -2.0449001    1.6223654       128000 
  730000    1.0828615   -2.0410589   -2.0410589   -0.4168007   0.20220876   -2.0410589    1.6242582       128000 
  731000    1.0680657   -2.0386237   -2.0386237  -0.43655871   0.18622326   -2.0386237     1.602065       128000 
  732000    1.0708142   -2.0429971   -2.0429971  -0.43680938   0.19040425   -2.0429971    1.6061877       128000 
  733000     1.073369   -2.0363155   -2.0363155  -0.42629573     0.196633   -2.0363155    1.6100198       128000 
  734000    1.0866912   -2.0481406   -2.0481406  -0.41813795   0.19802782   -2.0481406    1.6300026       128000 
  735000    1.0739394    -2.039172    -2.039172  -0.42829669   0.18445116    -2.039172    1.6108753       128000 
  736000     1.068011   -2.0420497   -2.0420497  -0.44006683   0.18452304   -2.0420497    1.6019829       128000 
  737000    1.0747616   -2.0430381   -2.0430381  -0.43092942   0.18842275   -2.0430381    1.6121086       128000 
  738000    1.0765648   -2.0371637   -2.0371637  -0.42235034   0.19900012   -2.0371637    1.6148134       128000 
  739000    1.0717342   -2.0375032   -2.0375032  -0.42993555   0.19652617   -2.0375032    1.6075676       128000 
  740000     1.074083   -2.0445759   -2.0445759  -0.43348513   0.18359152   -2.0445759    1.6110908       128000 
  741000    1.0671473    -2.040092    -2.040092  -0.43940449   0.18803458    -2.040092    1.6006875       128000 
  742000    1.0769016     -2.05558     -2.05558  -0.44026147   0.16803617     -2.05558    1.6153186       128000 
  743000    1.0767321    -2.047455    -2.047455  -0.43239063    0.1904924    -2.047455    1.6150644       128000 
  744000    1.0727232   -2.0401091   -2.0401091  -0.43105799    0.1863519   -2.0401091    1.6090511       128000 
  745000    1.0832832   -2.0552933   -2.0552933  -0.43040257   0.17207462   -2.0552933    1.6248907       128000 
  746000    1.0701445   -2.0422839   -2.0422839  -0.43710075   0.18896547   -2.0422839    1.6051831       128000 
  747000    1.0748339   -2.0470815   -2.0470815  -0.43486447   0.18826436   -2.0470815     1.612217       128000 
  748000    1.0674288   -2.0445568   -2.0445568  -0.44344712   0.18079922   -2.0445568    1.6011096       128000 
  749000    1.0701349   -2.0461646   -2.0461646  -0.44099588   0.18486484   -2.0461646    1.6051687       128000 
  750000       1.0672   -2.0438077   -2.0438077  -0.44304123   0.19557437   -2.0438077    1.6007665       128000 
  751000    1.0709779   -2.0571989   -2.0571989  -0.45076564   0.18305262   -2.0571989    1.6064332       128000 
  752000    1.0702623   -2.0521621   -2.0521621  -0.44680235   0.18129055   -2.0521621    1.6053598       128000 
  753000    1.0630787   -2.0446353   -2.0446353  -0.45005059   0.18635579   -2.0446353    1.5945847       128000 
  754000    1.0700898   -2.0522921   -2.0522921  -0.44719108   0.18142675   -2.0522921    1.6051011       128000 
  755000    1.0715635   -2.0438662   -2.0438662   -0.4365546   0.18831689   -2.0438662    1.6073116       128000 
  756000    1.0786046   -2.0421516   -2.0421516  -0.42427857   0.19209395   -2.0421516     1.617873       128000 
  757000    1.0792376   -2.0462107   -2.0462107  -0.42738813   0.20131708   -2.0462107    1.6188226       128000 
  758000    1.0748854   -2.0355214   -2.0355214  -0.42322705    0.1801319   -2.0355214    1.6122943       128000 
  759000    1.0746446   -2.0403025   -2.0403025  -0.42836939   0.17933093   -2.0403025    1.6119332       128000 
  760000    1.0761069   -2.0389564   -2.0389564  -0.42482988   0.18381501   -2.0389564    1.6141265       128000 
  761000    1.0753564   -2.0359618   -2.0359618  -0.42296093   0.19525484   -2.0359618    1.6130008       128000 
  762000    1.0785709   -2.0466544   -2.0466544  -0.42883198    0.1851086   -2.0466544    1.6178224       128000 
  763000    1.0774666   -2.0433238   -2.0433238   -0.4271577   0.18521769   -2.0433238    1.6161661       128000 
  764000    1.0770041   -2.0454272   -2.0454272  -0.42995479   0.19930304   -2.0454272    1.6154724       128000 
  765000    1.0764985   -2.0432081   -2.0432081  -0.42849418   0.19579419   -2.0432081     1.614714       128000 
  766000    1.0728595   -2.0347709   -2.0347709  -0.42551526   0.19640072   -2.0347709    1.6092556       128000 
  767000    1.0769139   -2.0461627   -2.0461627  -0.43082565   0.18675677   -2.0461627    1.6153371       128000 
  768000    1.0777339   -2.0435893   -2.0435893  -0.42702232   0.18630774   -2.0435893     1.616567       128000 
  769000    1.0750441   -2.0443379   -2.0443379  -0.43180543   0.19080225   -2.0443379    1.6125325       128000 
  770000    1.0780364   -2.0500888   -2.0500888  -0.43306804   0.19121799   -2.0500888    1.6170208       128000 
  771000     1.078294   -2.0502836   -2.0502836  -0.43287644   0.18563989   -2.0502836    1.6174072       128000 
  772000    1.0704899   -2.0398229   -2.0398229   -0.4341216   0.18211188   -2.0398229    1.6057013       128000 
  773000    1.0773544   -2.0474244   -2.0474244  -0.43142669   0.18876154   -2.0474244    1.6159977       128000 
  774000    1.0760756   -2.0395141   -2.0395141  -0.42543448    0.1950084   -2.0395141    1.6140796       128000 
  775000    1.0785546   -2.0467272   -2.0467272  -0.42892916   0.19037435   -2.0467272     1.617798       128000 
  776000    1.0748749   -2.0422936   -2.0422936  -0.43001501   0.18367755   -2.0422936    1.6122786       128000 
  777000    1.0781198   -2.0459527   -2.0459527  -0.42880683   0.17030299   -2.0459527    1.6171459       128000 
  778000    1.0760366   -2.0448319   -2.0448319  -0.43081086   0.17706892   -2.0448319    1.6140211       128000 
  779000    1.0758792   -2.0465802   -2.0465802  -0.43279514   0.18840004   -2.0465802    1.6137851       128000 
  780000    1.0803718   -2.0466484   -2.0466484  -0.42612464   0.18908384   -2.0466484    1.6205238       128000 
  781000    1.0838036   -2.0452803   -2.0452803  -0.41960894   0.19096683   -2.0452803    1.6256714       128000 
  782000     1.076396   -2.0399138   -2.0399138  -0.42535364   0.19641379   -2.0399138    1.6145601       128000 
  783000    1.0771943   -2.0382445   -2.0382445  -0.42248677   0.19136809   -2.0382445    1.6157577       128000 
  784000    1.0768076   -2.0439712   -2.0439712  -0.42879366   0.18201266   -2.0439712    1.6151775       128000 
  785000    1.0774566   -2.0441115   -2.0441115  -0.42796045   0.19548622   -2.0441115    1.6161511       128000 
  786000     1.076518   -2.0372851   -2.0372851    -0.422542   0.18674728   -2.0372851    1.6147431       128000 
  787000    1.0768051   -2.0427898   -2.0427898  -0.42761607   0.19189372   -2.0427898    1.6151738       128000 
  788000    1.0837215   -2.0476528   -2.0476528  -0.42210464   0.18226115   -2.0476528    1.6255482       128000 
  789000     1.079477   -2.0438614   -2.0438614  -0.42467977    0.1826561   -2.0438614    1.6191816       128000 
  790000    1.0732072   -2.0417349   -2.0417349  -0.43195781   0.18969091   -2.0417349    1.6097771       128000 
  791000    1.0715602   -2.0391725   -2.0391725  -0.43186589   0.19073443   -2.0391725    1.6073066       128000 
  792000    1.0779606   -2.0428512   -2.0428512   -0.4259442   0.19260879   -2.0428512     1.616907       128000 
  793000     1.073025   -2.0400886   -2.0400886  -0.43058475   0.18845965   -2.0400886    1.6095038       128000 
  794000    1.0776389    -2.044869    -2.044869  -0.42844447   0.17571935    -2.044869    1.6164245       128000 
  795000    1.0739034   -2.0372599   -2.0372599  -0.42643849   0.19714193   -2.0372599    1.6108214       128000 
  796000    1.0765009    -2.041935    -2.041935  -0.42721744   0.18924018    -2.041935    1.6147175       128000 
  797000    1.0761902   -2.0417183   -2.0417183  -0.42746679   0.20182691   -2.0417183    1.6142515       128000 
  798000    1.0765303   -2.0313226   -2.0313226  -0.41656097   0.19957423   -2.0313226    1.6147617       128000 
  799000    1.0739659   -2.0322209   -2.0322209  -0.42130582   0.18895451   -2.0322209    1.6109151       128000 
  800000    1.0745213   -2.0301365   -2.0301365  -0.41838831   0.19078447   -2.0301365    1.6117482       128000 
  801000    1.0814551   -2.0370182   -2.0370182  -0.41486955   0.19263966   -2.0370182    1.6221487       128000 
  802000    1.0763704   -2.0373114   -2.0373114  -0.42278957   0.20567166   -2.0373114    1.6145218       128000 
  803000    1.0806523   -2.0381931   -2.0381931  -0.41724861   0.18388961   -2.0381931    1.6209445       128000 
  804000    1.0809703   -2.0384718   -2.0384718  -0.41705034   0.18730672   -2.0384718    1.6214215       128000 
  805000    1.0806242   -2.0369465   -2.0369465  -0.41604419   0.18982567   -2.0369465    1.6209024       128000 
  806000    1.0817249   -2.0431838   -2.0431838   -0.4206304   0.18360926   -2.0431838    1.6225534       128000 
  807000    1.0811189   -2.0427852   -2.0427852  -0.42114069   0.18335734   -2.0427852    1.6216445       128000 
  808000    1.0822309   -2.0395026   -2.0395026  -0.41619029     0.185685   -2.0395026    1.6233123       128000 
  809000    1.0800803   -2.0328569   -2.0328569  -0.41277038   0.18966721   -2.0328569    1.6200865       128000 
  810000    1.0841554   -2.0392704   -2.0392704  -0.41307126   0.18986142   -2.0392704    1.6261991       128000 
  811000    1.0850239   -2.0459936   -2.0459936  -0.41849183   0.19039648   -2.0459936    1.6275017       128000 
  812000    1.0783176   -2.0443278   -2.0443278  -0.42688522   0.17777797   -2.0443278    1.6174425       128000 
  813000    1.0794309   -2.0383219   -2.0383219  -0.41920941   0.19152115   -2.0383219    1.6191125       128000 
  814000    1.0771669   -2.0429421   -2.0429421  -0.42722552   0.19417382   -2.0429421    1.6157166       128000 
  815000    1.0740815   -2.0456681   -2.0456681  -0.43457955   0.18679225   -2.0456681    1.6110885       128000 
  816000    1.0751612   -2.0423293   -2.0423293  -0.42962127   0.19064457   -2.0423293     1.612708       128000 
  817000    1.0840052   -2.0426685   -2.0426685  -0.41669477   0.19842648   -2.0426685    1.6259737       128000 
  818000    1.0791108   -2.0365271   -2.0365271   -0.4178948   0.19467217   -2.0365271    1.6186323       128000 
  819000    1.0753745    -2.033172    -2.033172  -0.42014402    0.2005181    -2.033172     1.613028       128000 
  820000    1.0828915   -2.0365213   -2.0365213  -0.41221806   0.19268375   -2.0365213    1.6243032       128000 
  821000    1.0784966   -2.0373441   -2.0373441  -0.41963306   0.19535714   -2.0373441     1.617711       128000 
  822000    1.0789314    -2.034649    -2.034649  -0.41628574   0.18440381    -2.034649    1.6183632       128000 
  823000    1.0826657    -2.036357    -2.036357  -0.41239248   0.20752015    -2.036357    1.6239646       128000 
  824000    1.0833718   -2.0436254   -2.0436254   -0.4186018   0.18224957   -2.0436254    1.6250236       128000 
  825000    1.0833269   -2.0426561   -2.0426561  -0.41769975   0.19667705   -2.0426561    1.6249563       128000 
  826000    1.0774162   -2.0342783   -2.0342783  -0.41818786   0.18973634   -2.0342783    1.6160904       128000 
  827000    1.0774001   -2.0270634   -2.0270634  -0.41099713   0.19296182   -2.0270634    1.6160663       128000 
  828000    1.0856566   -2.0392392   -2.0392392  -0.41078839   0.18792385   -2.0392392    1.6284508       128000 
  829000     1.089809   -2.0374936   -2.0374936   -0.4028143   0.20602398   -2.0374936    1.6346793       128000 
  830000    1.0876479   -2.0352902   -2.0352902  -0.40385253   0.18551948   -2.0352902    1.6314377       128000 
  831000    1.0801765   -2.0354526   -2.0354526  -0.41522167   0.19682738   -2.0354526    1.6202309       128000 
  832000    1.0857745   -2.0374798   -2.0374798  -0.40885207   0.19731265   -2.0374798    1.6286277       128000 
  833000    1.0846906   -2.0374685   -2.0374685  -0.41046664   0.19975531   -2.0374685    1.6270018       128000 
  834000    1.0841011   -2.0376086   -2.0376086  -0.41149107   0.19348789   -2.0376086    1.6261175       128000 
  835000    1.0869772   -2.0382736   -2.0382736  -0.40784194   0.19477137   -2.0382736    1.6304316       128000 
  836000    1.0869399   -2.0357693   -2.0357693  -0.40539352   0.18408833   -2.0357693    1.6303758       128000 
  837000    1.0934985    -2.033298    -2.033298  -0.39308464   0.20317476    -2.033298    1.6402134       128000 
  838000    1.0905889   -2.0330988   -2.0330988  -0.39724976   0.20381552   -2.0330988    1.6358491       128000 
  839000    1.0847807   -2.0373151   -2.0373151  -0.41017808   0.18170044   -2.0373151    1.6271371       128000 
  840000    1.0856785   -2.0323859   -2.0323859  -0.40390221   0.19067508   -2.0323859    1.6284837       128000 
  841000    1.0882912   -2.0351186   -2.0351186  -0.40271598   0.19300237   -2.0351186    1.6324026       128000 
  842000    1.0878869   -2.0365223   -2.0365223  -0.40472617   0.18648077   -2.0365223    1.6317962       128000 
  843000    1.0839432   -2.0363889   -2.0363889  -0.41050817   0.19264774   -2.0363889    1.6258808       128000 
  844000    1.0886413   -2.0313039   -2.0313039   -0.3983761   0.19939416   -2.0313039    1.6329278       128000 
  845000    1.0924191    -2.024447    -2.024447  -0.38585259   0.20203251    -2.024447    1.6385944       128000 
  846000    1.0858424   -2.0350775   -2.0350775  -0.40634802   0.20126059   -2.0350775    1.6287295       128000 
  847000    1.0868422   -2.0332107   -2.0332107  -0.40298153   0.21526435   -2.0332107    1.6302292       128000 
  848000    1.0810072    -2.035042    -2.035042  -0.41356521   0.18484989    -2.035042    1.6214768       128000 
  849000    1.0789161   -2.0432818   -2.0432818  -0.42494156   0.18560513   -2.0432818    1.6183402       128000 
  850000    1.0826645   -2.0439682   -2.0439682  -0.42000544   0.18011208   -2.0439682    1.6239628       128000 
  851000     1.083246    -2.040249    -2.040249  -0.41541403   0.18730344    -2.040249     1.624835       128000 
  852000    1.0877255   -2.0385208   -2.0385208  -0.40696674   0.18592088   -2.0385208     1.631554       128000 
  853000    1.0850806   -2.0350563   -2.0350563  -0.40746956    0.1888298   -2.0350563    1.6275868       128000 
  854000    1.0902752   -2.0466856   -2.0466856  -0.41130702   0.18699349   -2.0466856    1.6353786       128000 
  855000    1.0780795   -2.0295881   -2.0295881  -0.41250277   0.18757654   -2.0295881    1.6170854       128000 
  856000    1.0792836   -2.0284876   -2.0284876  -0.40959607   0.19097759   -2.0284876    1.6188915       128000 
  857000    1.0867288   -2.0324554   -2.0324554   -0.4023963   0.19071133   -2.0324554    1.6300591       128000 
  858000     1.089169   -2.0335076   -2.0335076  -0.39978834   0.19549149   -2.0335076    1.6337193       128000 
  859000    1.0883467   -2.0330732   -2.0330732  -0.40058734   0.19837811   -2.0330732    1.6324859       128000 
  860000    1.0800942   -2.0302605   -2.0302605  -0.41015302    0.1824401   -2.0302605    1.6201074       128000 
  861000    1.0932145   -2.0397627   -2.0397627  -0.39997527   0.18547904   -2.0397627    1.6397874       128000 
  862000    1.0849542   -2.0364951   -2.0364951   -0.4090979   0.19722459   -2.0364951    1.6273972       128000 
  863000    1.0837466   -2.0385676   -2.0385676  -0.41298173   0.19497072   -2.0385676    1.6255859       128000 
  864000    1.0881227   -2.0372439   -2.0372439  -0.40509403   0.19580912   -2.0372439    1.6321499       128000 
  865000    1.0907891   -2.0338251   -2.0338251  -0.39767561   0.18764847   -2.0338251    1.6361495       128000 
  866000    1.0864857   -2.0280969   -2.0280969  -0.39840246   0.19826678   -2.0280969    1.6296945       128000 
  867000    1.0928229   -2.0324917   -2.0324917  -0.39329165    0.1947831   -2.0324917    1.6392001       128000 
  868000    1.0904941   -2.0300685   -2.0300685  -0.39436161   0.20240673   -2.0300685    1.6357068       128000 
  869000    1.0855971   -2.0227042   -2.0227042  -0.39434266   0.20019782   -2.0227042    1.6283616       128000 
  870000    1.0926457   -2.0336787   -2.0336787  -0.39474453   0.19381537   -2.0336787    1.6389342       128000 
  871000    1.0849423   -2.0330658   -2.0330658  -0.40568648   0.18613625   -2.0330658    1.6273793       128000 
  872000    1.0925867   -2.0357946   -2.0357946  -0.39694879   0.19345275   -2.0357946    1.6388458       128000 
  873000    1.0825385   -2.0273947   -2.0273947  -0.40362088   0.19610489   -2.0273947    1.6237738       128000 
  874000    1.0759391   -2.0352981   -2.0352981   -0.4214232   0.18445799   -2.0352981    1.6138749       128000 
  875000    1.0877138    -2.040036    -2.040036  -0.40849941   0.19604638    -2.040036    1.6315366       128000 
  876000    1.0905748   -2.0369382   -2.0369382   -0.4011102   0.19141593   -2.0369382     1.635828       128000 
  877000    1.0933033   -2.0355416   -2.0355416  -0.39562086   0.20276341   -2.0355416    1.6399207       128000 
  878000    1.0892142   -2.0399052   -2.0399052  -0.40611811   0.21224309   -2.0399052    1.6337871       128000 
  879000    1.0858869   -2.0375808   -2.0375808  -0.40878453     0.197251   -2.0375808    1.6287962       128000 
  880000    1.0836535   -2.0312913   -2.0312913  -0.40584509   0.19265542   -2.0312913    1.6254462       128000 
  881000    1.0804104   -2.0309126   -2.0309126  -0.41033094   0.19866437   -2.0309126    1.6205817       128000 
  882000    1.0798793   -2.0291698   -2.0291698  -0.40938476   0.19229686   -2.0291698     1.619785       128000 
  883000    1.0855452   -2.0330902   -2.0330902  -0.40480647    0.1987021   -2.0330902    1.6282837       128000 
  884000    1.0824147    -2.037579    -2.037579  -0.41399093   0.19402909    -2.037579    1.6235881       128000 
  885000    1.0811143   -2.0367693   -2.0367693  -0.41513171   0.20192047   -2.0367693    1.6216376       128000 
  886000    1.0854303    -2.041053    -2.041053  -0.41294166   0.19325032    -2.041053    1.6281114       128000 
  887000    1.0831703   -2.0321046   -2.0321046  -0.40738315   0.19740595   -2.0321046    1.6247214       128000 
  888000    1.0823281   -2.0362792   -2.0362792  -0.41282098   0.18940807   -2.0362792    1.6234582       128000 
  889000    1.0857387    -2.030701    -2.030701   -0.4021271   0.19246613    -2.030701    1.6285739       128000 
  890000    1.0915223   -2.0316087   -2.0316087  -0.39435958   0.19997589   -2.0316087    1.6372492       128000 
  891000    1.0867116   -2.0303963   -2.0303963   -0.4003631   0.19445411   -2.0303963    1.6300332       128000 
  892000    1.0851951   -2.0345181   -2.0345181  -0.40675959    0.1870104   -2.0345181    1.6277586       128000 
  893000     1.093199   -2.0418743   -2.0418743  -0.40211021   0.19847867   -2.0418743    1.6397641       128000 
  894000    1.0799949   -2.0286028   -2.0286028  -0.40864433   0.20377634   -2.0286028    1.6199584       128000 
  895000    1.0827699   -2.0360438   -2.0360438  -0.41192304    0.1889273   -2.0360438    1.6241208       128000 
  896000    1.0814121   -2.0319128   -2.0319128  -0.40982858    0.1922639   -2.0319128    1.6220843       128000 
  897000    1.0848029   -2.0298691   -2.0298691   -0.4026988   0.19714658   -2.0298691    1.6271703       128000 
  898000    1.0786966   -2.0342131   -2.0342131   -0.4162021    0.1887749   -2.0342131     1.618011       128000 
  899000     1.085983   -2.0319539   -2.0319539  -0.40301341    0.1948845   -2.0319539    1.6289405       128000 
  900000    1.0874481   -2.0315093   -2.0315093  -0.40037124   0.19651865   -2.0315093     1.631138       128000 
  901000    1.0898149   -2.0309416   -2.0309416  -0.39625343   0.18888689   -2.0309416    1.6346881       128000 
  902000    1.0853563   -2.0274762   -2.0274762  -0.39947589   0.19874009   -2.0274762    1.6280003       128000 
  903000     1.090993   -2.0321953   -2.0321953  -0.39574004   0.20221894   -2.0321953    1.6364553       128000 
  904000    1.0849312   -2.0267972   -2.0267972  -0.39943447   0.19314301   -2.0267972    1.6273627       128000 
  905000    1.0886647   -2.0366964   -2.0366964  -0.40373361   0.18909614   -2.0366964    1.6329628       128000 
  906000    1.0919639   -2.0244619   -2.0244619  -0.38655037    0.1996695   -2.0244619    1.6379116       128000 
  907000    1.0919091   -2.0260194   -2.0260194  -0.38819004   0.19960943   -2.0260194    1.6378294       128000 
  908000    1.0946029   -2.0290798   -2.0290798  -0.38720975    0.1928244   -2.0290798      1.64187       128000 
  909000    1.0929239   -2.0269961   -2.0269961  -0.38764467    0.1959593   -2.0269961    1.6393515       128000 
  910000    1.0924169   -2.0369805   -2.0369805  -0.39838943    0.2018172   -2.0369805    1.6385911       128000 
  911000    1.0864522   -2.0329365   -2.0329365  -0.40329233   0.18843327   -2.0329365    1.6296442       128000 
  912000    1.0826829   -2.0329607   -2.0329607  -0.40897043   0.19303048   -2.0329607    1.6239903       128000 
  913000    1.0843471   -2.0283862   -2.0283862  -0.40189967   0.19882189   -2.0283862    1.6264866       128000 
  914000    1.0875726   -2.0379793   -2.0379793  -0.40665446   0.19600317   -2.0379793    1.6313248       128000 
  915000    1.0838041   -2.0332234   -2.0332234  -0.40755127   0.20372094   -2.0332234    1.6256721       128000 
  916000    1.0861172   -2.0338759   -2.0338759  -0.40473426    0.1961093   -2.0338759    1.6291417       128000 
  917000    1.0869944   -2.0361331   -2.0361331   -0.4056756   0.19587295   -2.0361331    1.6304575       128000 
  918000    1.0834858   -2.0310851   -2.0310851  -0.40589033   0.18943274   -2.0310851    1.6251947       128000 
  919000    1.0827942   -2.0351509   -2.0351509  -0.41099365   0.19032747   -2.0351509    1.6241573       128000 
  920000     1.088337   -2.0403611   -2.0403611  -0.40788978   0.20305252   -2.0403611    1.6324714       128000 
  921000     1.091205   -2.0330443   -2.0330443  -0.39627099   0.18975936   -2.0330443    1.6367733       128000 
  922000    1.0936383   -2.0340454   -2.0340454  -0.39362226   0.19312523   -2.0340454    1.6404231       128000 
  923000    1.0932449   -2.0326185   -2.0326185  -0.39278544   0.19826768   -2.0326185    1.6398331       128000 
  924000    1.0982994   -2.0308394   -2.0308394  -0.38342482   0.21031584   -2.0308394    1.6474146       128000 
  925000    1.0925288   -2.0269439   -2.0269439  -0.38818503   0.20418885   -2.0269439    1.6387589       128000 
  926000    1.0944054   -2.0253781   -2.0253781  -0.38380444    0.1923183   -2.0253781    1.6415737       128000 
  927000    1.0932317   -2.0297021   -2.0297021  -0.38988886   0.20064943   -2.0297021    1.6398133       128000 
  928000    1.0926299   -2.0224263   -2.0224263  -0.38351573   0.19752846   -2.0224263    1.6389105       128000 
  929000    1.0996925   -2.0292308   -2.0292308  -0.37972653   0.20051077   -2.0292308    1.6495043       128000 
  930000    1.0954835   -2.0232228   -2.0232228  -0.38003199   0.20134272   -2.0232228    1.6431908       128000 
  931000    1.0979553   -2.0257592   -2.0257592  -0.37886071   0.19959485   -2.0257592    1.6468985       128000 
  932000    1.0930485   -2.0327018   -2.0327018  -0.39316336   0.19123947   -2.0327018    1.6395384       128000 
  933000    1.0995027   -2.0321782   -2.0321782  -0.38295862   0.20891072   -2.0321782    1.6492195       128000 
  934000    1.0893457   -2.0217641   -2.0217641  -0.38777967   0.19651559   -2.0217641    1.6339844       128000 
  935000    1.0894936   -2.0249495   -2.0249495  -0.39074328    0.2043464   -2.0249495    1.6342063       128000 
  936000    1.0933395   -2.0340907   -2.0340907  -0.39411578    0.1934074   -2.0340907     1.639975       128000 
  937000    1.0876082   -2.0283393   -2.0283393  -0.39696111   0.19201281   -2.0283393    1.6313782       128000 
  938000    1.0912139   -2.0310846   -2.0310846  -0.39429796   0.20151272   -2.0310846    1.6367866       128000 
  939000    1.0941696   -2.0289901   -2.0289901  -0.38777007   0.19355332   -2.0289901      1.64122       128000 
  940000    1.0965326   -2.0233648   -2.0233648   -0.3786003   0.20151391   -2.0233648    1.6447645       128000 
  941000    1.0925004   -2.0252736   -2.0252736  -0.38655738   0.20842477   -2.0252736    1.6387162       128000 
  942000    1.0920596   -2.0286509   -2.0286509  -0.39059579    0.1913429   -2.0286509    1.6380552       128000 
  943000    1.0991011   -2.0331873   -2.0331873  -0.38457016   0.19281053   -2.0331873    1.6486172       128000 
  944000      1.08895   -2.0275984   -2.0275984  -0.39420754   0.20615255   -2.0275984    1.6333909       128000 
  945000    1.0902477   -2.0289362   -2.0289362  -0.39359884   0.20302586   -2.0289362    1.6353374       128000 
  946000    1.0904547   -2.0237966   -2.0237966  -0.38814879    0.2160933   -2.0237966    1.6356479       128000 
  947000    1.0879602   -2.0316074   -2.0316074  -0.39970122   0.19000193   -2.0316074    1.6319062       128000 
  948000    1.0906336   -2.0345376   -2.0345376  -0.39862136   0.19049323   -2.0345376    1.6359162       128000 
  949000     1.088548   -2.0284374   -2.0284374   -0.3956496   0.19761065   -2.0284374    1.6327878       128000 
  950000    1.0944052   -2.0275816   -2.0275816  -0.38600818   0.19048521   -2.0275816    1.6415734       128000 
  951000    1.0940683   -2.0343916   -2.0343916  -0.39332353   0.19490747   -2.0343916     1.641068       128000 
  952000    1.0896912   -2.0283379   -2.0283379  -0.39383535   0.21284916   -2.0283379    1.6345026       128000 
  953000    1.0914131   -2.0368352   -2.0368352  -0.39974982   0.20092777   -2.0368352    1.6370854       128000 
  954000    1.0895693   -2.0363682   -2.0363682  -0.40204853   0.19526351   -2.0363682    1.6343197       128000 
  955000    1.0925025   -2.0316838   -2.0316838  -0.39296435   0.19632631   -2.0316838    1.6387195       128000 
  956000    1.0927843   -2.0276955   -2.0276955  -0.38855345   0.19259877   -2.0276955    1.6391421       128000 
  957000    1.0947026   -2.0311556   -2.0311556  -0.38913608   0.20039468   -2.0311556    1.6420195       128000 
  958000    1.0897737   -2.0224047   -2.0224047  -0.38777836    0.1996807   -2.0224047    1.6346264       128000 
  959000    1.0969859   -2.0285328   -2.0285328  -0.38308837   0.19910344   -2.0285328    1.6454444       128000 
  960000    1.0938366   -2.0225379   -2.0225379  -0.38181738   0.20632331   -2.0225379    1.6407205       128000 
  961000    1.0958527   -2.0174471   -2.0174471  -0.37370241   0.19869877   -2.0174471    1.6437447       128000 
  962000    1.0969024   -2.0161748   -2.0161748  -0.37085556   0.20058206   -2.0161748    1.6453192       128000 
  963000    1.1034844   -2.0212768   -2.0212768  -0.36608492   0.20008564   -2.0212768    1.6551919       128000 
  964000    1.0981723    -2.014643    -2.014643  -0.36741908   0.21638636    -2.014643    1.6472239       128000 
  965000     1.096292   -2.0193463   -2.0193463  -0.37494276    0.1979506   -2.0193463    1.6444035       128000 
  966000    1.0981675   -2.0168264   -2.0168264  -0.36960969   0.21807247   -2.0168264    1.6472167       128000 
  967000    1.1025073    -2.022828    -2.022828  -0.36910169   0.20261862    -2.022828    1.6537263       128000 
  968000    1.0996028   -2.0227194   -2.0227194  -0.37334972   0.19470216   -2.0227194    1.6493696       128000 
  969000    1.0976321   -2.0173486   -2.0173486  -0.37093485   0.20443408   -2.0173486    1.6464138       128000 
  970000    1.0977409   -2.0138516   -2.0138516  -0.36727474   0.20993592   -2.0138516    1.6465769       128000 
  971000    1.0946726   -2.0160754   -2.0160754  -0.37410091   0.20935259   -2.0160754    1.6419745       128000 
  972000    1.0992062   -2.0257118   -2.0257118  -0.37693697   0.20311634   -2.0257118    1.6487748       128000 
  973000     1.095789   -2.0264778   -2.0264778  -0.38282862    0.2088928   -2.0264778    1.6436491       128000 
  974000    1.0971335   -2.0235736   -2.0235736  -0.37790773   0.20576916   -2.0235736    1.6456659       128000 
  975000    1.0949832   -2.0278011   -2.0278011  -0.38536074     0.205516   -2.0278011    1.6424403       128000 
  976000    1.0965541   -2.0263564   -2.0263564  -0.38155964   0.19887525   -2.0263564    1.6447968       128000 
  977000     1.099546   -2.0317535   -2.0317535    -0.382469   0.19724984   -2.0317535    1.6492845       128000 
  978000    1.0965655   -2.0265599   -2.0265599  -0.38174618   0.20165304   -2.0265599    1.6448138       128000 
  979000    1.0907174   -2.0262983   -2.0262983   -0.3902564   0.19737557   -2.0262983    1.6360419       128000 
  980000    1.0995082   -2.0272342   -2.0272342  -0.37800632   0.19590224   -2.0272342    1.6492279       128000 
  981000    1.0966224    -2.023359    -2.023359  -0.37845984   0.20742425    -2.023359    1.6448991       128000 
  982000    1.0963418    -2.022917    -2.022917  -0.37843872   0.21381132    -2.022917    1.6444783       128000 
  983000    1.0953974   -2.0265334   -2.0265334  -0.38347174   0.20525801   -2.0265334    1.6430616       128000 
  984000    1.1042362   -2.0264878   -2.0264878  -0.37016815   0.22210536   -2.0264878    1.6563197       128000 
  985000    1.1036545   -2.0209298   -2.0209298  -0.36548278   0.21876764   -2.0209298    1.6554471       128000 
  986000    1.1014769   -2.0206017   -2.0206017  -0.36842099   0.20741645   -2.0206017    1.6521807       128000 
  987000    1.0995116   -2.0281455   -2.0281455  -0.37891257   0.20182809   -2.0281455    1.6492329       128000 
  988000    1.1027919   -2.0269186   -2.0269186  -0.37276534   0.20551601   -2.0269186    1.6541533       128000 
  989000      1.10406   -2.0231735   -2.0231735  -0.36711816   0.20851124   -2.0231735    1.6560554       128000 
  990000    1.1036147   -2.0261615   -2.0261615  -0.37077413   0.20644888   -2.0261615    1.6553874       128000 
  991000    1.0990745   -2.0157489   -2.0157489   -0.3671717   0.20601265   -2.0157489    1.6485772       128000 
  992000    1.1000702   -2.0206709   -2.0206709  -0.37060013   0.19911194   -2.0206709    1.6500708       128000 
  993000    1.1043029   -2.0250309   -2.0250309  -0.36861122   0.19562627   -2.0250309    1.6564197       128000 
  994000    1.1005686   -2.0144797   -2.0144797  -0.36366142   0.21390754   -2.0144797    1.6508183       128000 
  995000    1.1031305   -2.0228124   -2.0228124  -0.36815125   0.20630068   -2.0228124    1.6546612       128000 
  996000    1.1040999   -2.0197228   -2.0197228  -0.36360768   0.19496121   -2.0197228    1.6561151       128000 
  997000    1.1004844   -2.0140867   -2.0140867  -0.36339458    0.2002351   -2.0140867    1.6506921       128000 
  998000    1.1055757   -2.0183351   -2.0183351  -0.36000622    0.2110567   -2.0183351    1.6583288       128000 
  999000    1.0981203   -2.0144323   -2.0144323  -0.36728627   0.19834916   -2.0144323     1.647146       128000 
 1000000    1.1035007   -2.0209336   -2.0209336   -0.3657172   0.20684767   -2.0209336    1.6552164       128000 
Loop time of 2018.13 on 16 procs for 1000000 steps with 47775 atoms

Performance: 214059.657 tau/day, 495.508 timesteps/s
97.6% CPU use with 16 MPI tasks x 1 OpenMP threads

MPI task timing breakdown:
Section |  min time  |  avg time  |  max time  |%varavg|  %CPU | %total
-----------------------------------------------------------------------
Pair    | 918.29     | 1080.1     | 1168.2     | 276.1 |  97.7 | 53.52
Bond    | 0.3877     | 0.39601    | 0.40939    |   1.0 | 100.0 |  0.02
Neigh   | 320.9      | 358.5      | 373.58     | 104.0 |  97.7 | 17.76
Comm    | 237.36     | 374.6      | 672.45     | 860.1 |  97.3 | 18.56
Output  | 21.492     | 21.517     | 21.52      |   0.1 |  95.7 |  1.07
Modify  | 53.242     | 161.8      | 204.33     | 490.5 |  97.7 |  8.02
Other   |            | 21.18      |            |       |       |  1.05

Nlocal:        2985.94 ave        3110 max        2808 min
Histogram: 1 0 0 2 3 1 4 2 1 2
Nghost:        3082.25 ave        3520 max        2621 min
Histogram: 5 3 0 0 0 0 0 0 1 7
Neighs:        57872.4 ave       64710 max       50691 min
Histogram: 1 2 2 0 0 3 5 1 1 1

Total # of neighbors = 925958
Ave neighs/atom = 19.381643
Ave special neighs/atom = 0.0000000
Neighbor list builds = 100000
Dangerous builds = 98998
write_restart   restart_write.dat
System init for write_restart ...
write_data	data.write
System init for write_data ...

Total wall time: 0:33:39
