LAMMPS (24 Dec 2020)
OMP_NUM_THREADS environment is not set. Defaulting to 1 thread. (src/comm.cpp:94)
  using 1 OpenMP thread(s) per MPI task
#Read the equilibrated lj fluid and add nanocubes

units           lj
atom_style      full
atom_modify     map array first cubes
dimension       3
boundary        p p f
pair_style      lj/cut/opt 2.5

variable        sigma           equal 1.0
variable        epsilon         equal 1.0
read_restart	restart.dat.3000000
Reading restart file ...
  restart file = 24 Dec 2020, LAMMPS = 24 Dec 2020
WARNING: Restart file used different # of processors: 48 vs. 288 (src/read_restart.cpp:697)
  restoring atom style full from restart
  orthogonal box = (0.0000000 0.0000000 0.0000000) to (80.000000 80.000000 160.00000)
  6 by 4 by 12 MPI processor grid
  restoring pair style lj/cut/opt from restart
  518400 atoms
Finding 1-2 1-3 1-4 neighbors ...
  special bond factors lj:    0        0        0       
  special bond factors coul:  0        0        0       
     0 = max # of 1-2 neighbors
     0 = max # of 1-3 neighbors
     0 = max # of 1-4 neighbors
     1 = max # of special neighbors
  special bonds CPU = 2.391 seconds
  read_restart CPU = 2.769 seconds

group		solvent type 1
518400 atoms in group solvent

read_data	data_64.cubes group cubes add append
Reading data file ...
  orthogonal box = (0.0000000 0.0000000 0.0000000) to (80.000000 80.000000 160.00000)
  6 by 4 by 12 MPI processor grid
  reading atoms ...
  85184 atoms
  reading velocities ...
  85184 velocities
Finding 1-2 1-3 1-4 neighbors ...
  special bond factors lj:    0        0        0       
  special bond factors coul:  0        0        0       
     0 = max # of 1-2 neighbors
     0 = max # of 1-3 neighbors
     0 = max # of 1-4 neighbors
     1 = max # of special neighbors
  special bonds CPU = 0.061 seconds
  read_data CPU = 0.270 seconds

group 		hull  type 2
38528 atoms in group hull
group 		dummy type 3
46656 atoms in group dummy

neighbor      0.4 bin
neigh_modify  exclude molecule/intra cubes


pair_modify   shift yes

pair_coeff    1 1 1.0 1.0 #solvent
pair_coeff    2 2 1.0 1.0 1.0 #np
pair_coeff    3 3 0.0 0.0 0.0 #dummy
pair_coeff    2 3 0.0 0.0 0.0 #np dummy
pair_coeff    1 2 1.0 1.0 2.5 #np solvent
pair_coeff    1 3 0.0 0.0 2.5 #dummy solvent

# delete solvent where the cubes are
delete_atoms  overlap 1.0 solvent cubes
System init for delete_atoms ...
Neighbor list info ...
  update every 1 steps, delay 10 steps, check yes
  max neighbors/atom: 2000, page size: 100000
  master list distance cutoff = 2.9
  ghost atom cutoff = 2.9
  binsize = 1.45, bins = 56 56 111
  2 neighbor lists, perpetual/occasional/extra = 1 1 0
  (1) command delete_atoms, occasional
      attributes: full, newton on
      pair build: full/bin
      stencil: full/bin/3d
      bin: standard
  (2) pair lj/cut/opt, perpetual
      attributes: half, newton on
      pair build: half/bin/newton
      stencil: half/bin/3d/newton
      bin: standard
WARNING: Delete_atoms cutoff > minimum neighbor cutoff (src/delete_atoms.cpp:307)
WARNING: Ignoring 'compress yes' for molecular system (src/delete_atoms.cpp:125)
Deleted 56086 atoms, new total = 547498


pair_coeff    1 1 1.0 1.0 #solvent
pair_coeff    2 2 1.0 1.0 1.0 #np
pair_coeff    3 3 0.0 0.0 0.0 #dummy
pair_coeff    2 3 0.0 0.0 0.0 #np dummy
pair_coeff    1 2 1.0 1.0 2.5 #np solvent
pair_coeff    1 3 0.0 0.0 0.0 #dummy solvent


comm_modify   mode multi cutoff/multi 1 2.5 cutoff/multi 2 2.5 cutoff/multi 3 8.67

reset_timestep 	0

balance 	1.05 shift z 10 1.05
Balancing ...
Neighbor list info ...
  update every 1 steps, delay 10 steps, check yes
  max neighbors/atom: 2000, page size: 100000
  master list distance cutoff = 2.9
  ghost atom cutoff = 8.67
  binsize = 1.45, bins = 56 56 111
  1 neighbor lists, perpetual/occasional/extra = 1 0 0
  (1) pair lj/cut/opt, perpetual
      attributes: half, newton on
      pair build: half/bin/newton
      stencil: half/bin/3d/newton
      bin: standard
 rebalancing time: 0.006 seconds
  iteration count = 4
  initial/final maximal load/proc = 2540.0000 2922.0000
  initial/final imbalance factor  = 1.3361145 1.5370577
  x cuts: 0.0000000 0.16666667 0.33333333 0.50000000 0.66666667 0.83333333 1.0000000
  y cuts: 0.0000000 0.25000000 0.50000000 0.75000000 1.0000000
  z cuts: 0.0000000 0.078125000 0.15104167 0.25520833 0.34895833 0.42187500 0.48437500 0.55729167 0.63020833 0.71354167 0.78645833 0.85937500 1.0000000

####################### WALLS ###########################

variable       epsilonWall equal 2*${epsilon}
variable       epsilonWall equal 2*1
variable       repulsive   equal   0.7147*${sigma}
variable       repulsive   equal   0.7147*1
variable       full	   equal   3*${sigma}
variable       full	   equal   3*1
region         lowWall block EDGE EDGE EDGE EDGE EDGE 2

fix            topWall all wall/lj93 zhi EDGE 	       ${epsilonWall} ${sigma} ${repulsive} units box
fix            topWall all wall/lj93 zhi EDGE 	       2 ${sigma} ${repulsive} units box
fix            topWall all wall/lj93 zhi EDGE 	       2 1 ${repulsive} units box
fix            topWall all wall/lj93 zhi EDGE 	       2 1 0.7147 units box
fix            lowSol solvent wall/lj93 zlo EDGE                ${epsilonWall} ${sigma} ${full} units box
fix            lowSol solvent wall/lj93 zlo EDGE                2 ${sigma} ${full} units box
fix            lowSol solvent wall/lj93 zlo EDGE                2 1 ${full} units box
fix            lowSol solvent wall/lj93 zlo EDGE                2 1 3 units box
fix 	       lowCub cubes wall/lj93 zlo EDGE                ${epsilonWall} ${sigma} ${repulsive} units box
fix 	       lowCub cubes wall/lj93 zlo EDGE                2 ${sigma} ${repulsive} units box
fix 	       lowCub cubes wall/lj93 zlo EDGE                2 1 ${repulsive} units box
fix 	       lowCub cubes wall/lj93 zlo EDGE                2 1 0.7147 units box


###################### COMPUTES ##########################

compute        bin1 solvent chunk/atom bin/1d z lower 1.0 units box


######################  FIXES ############################


fix             peclet solvent ave/chunk 10 10 10000 bin1 density/number norm                  none ave one file density.profile

fix              temp solvent ave/chunk 10 10 10000 bin1 temp norm                  none ave one file temp.profile

fix             1 cubes rigid/nve/small molecule
  create bodies CPU = 0.001 seconds
  64 rigid bodies with 85184 atoms
  8.6602540 = max distance from body owner to body atom

fix             2 solvent nve# temp ${temp} ${temp} 10


## Thermostat
region          regthermo block EDGE EDGE EDGE EDGE 0 15
group           thermo dynamic solvent region regthermo every 1000
dynamic group thermo defined
fix             3 thermo langevin ${temp} ${temp} 10 156453
fix             3 thermo langevin 1.0 ${temp} 10 156453
fix             3 thermo langevin 1.0 1.0 10 156453


#### Load balancing

fix             bal all balance 1000 1.05 shift z 10 1.05

############### Diagnostics and computes ###################

compute        	com cubes          rigid/local   1 mol x y z
compute        	quat cubes         rigid/local   1 mol quatw quati quatj quatk

compute 	cc2 cubes 	   chunk/atom 	 molecule
compute 	msd cubes 	   msd/chunk 	 cc2

fix 		msd all ave/time  1 1 10000 c_msd[*] file dump.msd ave one mode vector

dump            1 all custom 500000 dump.lammpstrj id mol type x y z
dump		cubetrj hull custom 500000 cubes.lammpstrj id mol type x y z
dump            com cubes local 10000 dump.*.xyz c_com[*]
dump	        xyz hull xyz 100000 cubes.xyz
dump            quat cubes      local 10000 dump.*.quat c_quat[*]
#dump		mol cubes molfile 10000 mol.xyz xyz


dump            2 all image 10000 image.*.png type type zoom 2.0
dump_modify     2 pad 8
dump		image cubes image 10000 image_cubes.*.png type type zoom 2.0
dump_modify	image pad 8
dump            3 all movie 5000 movie.avi type type zoom 2.0
dump		4 cubes movie 5000 movie_cubes.avi type type zoom 2.0


thermo          1000
thermo_style    custom step temp epair evdwl etotal press pe ke atoms

restart         1000000 restart.dat
timestep        0.005
timer           full
New timer settings: style=full  mode=nosync  timeout=off

run 		4000000
Per MPI rank memory allocation (min/avg/max) = 14.71 | 18.86 | 23.07 Mbytes
Step Temp E_pair E_vdwl TotEng Press PotEng KinEng Atoms 
       0   0.98819495   -2.8594155   -2.8594155   -1.6074058 -0.093390046   -2.8594155    1.2520097   547498 
    1000    1.0065639   -2.8845418   -2.8845418   -1.6092593  0.054975781   -2.8845418    1.2752825   547498 
    2000    1.0086402   -2.8890228   -2.8890228   -1.6111097  0.050285937   -2.8890228    1.2779131   547498 
    3000    1.0072233   -2.8892182   -2.8892182   -1.6131003  0.079559723   -2.8892182    1.2761179   547498 
    4000    1.0091854   -2.8937339   -2.8937339     -1.61513  0.054014506   -2.8937339    1.2786039   547498 
    5000    1.0091375    -2.894707    -2.894707   -1.6161638  0.057529281    -2.894707    1.2785432   547498 
    6000     1.010372   -2.8977905   -2.8977905   -1.6176833  0.067615059   -2.8977905    1.2801072   547498 
    7000    1.0091377   -2.8979294   -2.8979294    -1.619386  0.062300401   -2.8979294    1.2785434   547498 
    8000    1.0093809   -2.8993815   -2.8993815   -1.6205299   0.05937877   -2.8993815    1.2788516   547498 
    9000    1.0088615   -2.8998143   -2.8998143   -1.6216208   0.05826765   -2.8998143    1.2781935   547498 
   10000    1.0078106   -2.8992848   -2.8992848   -1.6224228  0.059964268   -2.8992848     1.276862   547498 
   11000    1.0063912   -2.8994309   -2.8994309   -1.6243673  0.056936619   -2.8994309    1.2750637   547498 
   12000     1.007205   -2.9018649   -2.9018649   -1.6257701  0.056185528   -2.9018649    1.2760947   547498 
   13000    1.0058568   -2.9015833   -2.9015833   -1.6271967   0.06379382   -2.9015833    1.2743866   547498 
   14000    1.0043586   -2.9015093   -2.9015093   -1.6290209  0.061802832   -2.9015093    1.2724884   547498 
   15000    1.0065188   -2.9047197   -2.9047197   -1.6294943  0.055720645   -2.9047197    1.2752254   547498 
   16000    1.0064791   -2.9059459   -2.9059459   -1.6307708  0.059244104   -2.9059459    1.2751751   547498 
   17000    1.0066065   -2.9064763   -2.9064763   -1.6311398  0.067085709   -2.9064763    1.2753365   547498 
   18000    1.0050957   -2.9061071   -2.9061071   -1.6326847  0.063553597   -2.9061071    1.2734224   547498 
   19000    1.0048221    -2.906109    -2.906109   -1.6330333  0.067409223    -2.906109    1.2730757   547498 
   20000    1.0042423   -2.9061475   -2.9061475   -1.6338064  0.061362994   -2.9061475    1.2723411   547498 
   21000    1.0040036   -2.9074313   -2.9074313   -1.6353926  0.049989126   -2.9074313    1.2720387   547498 
   22000    1.0047844   -2.9091401   -2.9091401   -1.6361122  0.055143035   -2.9091401    1.2730279   547498 
   23000     1.003561   -2.9081922   -2.9081922   -1.6367143  0.052694201   -2.9081922     1.271478   547498 
   24000    1.0048507    -2.910253    -2.910253   -1.6371411  0.052585339    -2.910253    1.2731119   547498 
   25000    1.0038355    -2.909225    -2.909225   -1.6373993  0.063167694    -2.909225    1.2718257   547498 
   26000    1.0022787   -2.9065053   -2.9065053    -1.636652  0.046960923   -2.9065053    1.2698533   547498 
   27000    1.0068545   -2.9114818   -2.9114818   -1.6358312  0.053037356   -2.9114818    1.2756507   547498 
   28000    1.0030354   -2.9075035   -2.9075035   -1.6366915  0.060846742   -2.9075035     1.270812   547498 
   29000    1.0041218   -2.9090131   -2.9090131   -1.6368247  0.053168658   -2.9090131    1.2721884   547498 
   30000    1.0046867   -2.9088098   -2.9088098   -1.6359057  0.064949718   -2.9088098    1.2729041   547498 
   31000    1.0047505   -2.9091477   -2.9091477   -1.6361627  0.065651915   -2.9091477    1.2729851   547498 
   32000     1.004799    -2.910483    -2.910483   -1.6374365  0.056542867    -2.910483    1.2730465   547498 
   33000    1.0043965   -2.9105646   -2.9105646   -1.6380281  0.058057224   -2.9105646    1.2725365   547498 
   34000    1.0065463   -2.9131452   -2.9131452    -1.637885  0.072683164   -2.9131452    1.2752602   547498 
   35000    1.0060998   -2.9121539   -2.9121539   -1.6374594   0.05621469   -2.9121539    1.2746945   547498 
   36000    1.0061547   -2.9124126   -2.9124126   -1.6376486  0.058069594   -2.9124126    1.2747641   547498 
   37000    1.0075412   -2.9125662   -2.9125662   -1.6360455  0.062858446   -2.9125662    1.2765207   547498 
   38000    1.0051644   -2.9104945   -2.9104945   -1.6369851  0.066503519   -2.9104945    1.2735094   547498 
   39000    1.0063048   -2.9115314   -2.9115314   -1.6365772  0.064922915   -2.9115314    1.2749543   547498 
   40000      1.00729   -2.9118628   -2.9118628   -1.6356604  0.053961912   -2.9118628    1.2762024   547498 
   41000     1.004536   -2.9088982   -2.9088982    -1.636185  0.062063929   -2.9088982    1.2727132   547498 
   42000    1.0052928   -2.9094512   -2.9094512   -1.6357791  0.057348475   -2.9094512    1.2736721   547498 
   43000     1.005614   -2.9094826   -2.9094826   -1.6354036  0.053058778   -2.9094826    1.2740791   547498 
   44000    1.0036698   -2.9071685   -2.9071685   -1.6355527  0.059857858   -2.9071685    1.2716158   547498 
   45000    1.0067164   -2.9103671   -2.9103671   -1.6348913  0.052053363   -2.9103671    1.2754757   547498 
   46000     1.005685   -2.9101826   -2.9101826   -1.6360137  0.063963816   -2.9101826    1.2741689   547498 
   47000    1.0057064   -2.9111561   -2.9111561     -1.63696   0.05495444   -2.9111561     1.274196   547498 
   48000    1.0046405   -2.9101667   -2.9101667   -1.6373211   0.06878131   -2.9101667    1.2728456   547498 
   49000    1.0045738   -2.9104575   -2.9104575   -1.6376963  0.069998121   -2.9104575    1.2727611   547498 
   50000    1.0061172   -2.9115613   -2.9115613   -1.6368448  0.060938739   -2.9115613    1.2747166   547498 
   51000    1.0062876   -2.9121476   -2.9121476   -1.6372151  0.063996141   -2.9121476    1.2749325   547498 
   52000    1.0077171   -2.9136195   -2.9136195   -1.6368759  0.066539975   -2.9136195    1.2767435   547498 
   53000    1.0055416   -2.9113501   -2.9113501   -1.6373628  0.059687737   -2.9113501    1.2739872   547498 
   54000     1.004824   -2.9107405   -2.9107405   -1.6376624  0.062219254   -2.9107405    1.2730781   547498 
   55000    1.0045916   -2.9111469   -2.9111469   -1.6383633  0.060639483   -2.9111469    1.2727837   547498 
   56000    1.0040244   -2.9093035   -2.9093035   -1.6372384    0.0547579   -2.9093035    1.2720651   547498 
   57000     1.004234   -2.9101458   -2.9101458   -1.6378152  0.060729968   -2.9101458    1.2723306   547498 
   58000      1.00425   -2.9098864   -2.9098864   -1.6375356  0.053394527   -2.9098864    1.2723508   547498 
   59000    1.0025068   -2.9079622   -2.9079622   -1.6378198  0.064183992   -2.9079622    1.2701424   547498 
   60000    1.0023199   -2.9088342   -2.9088342   -1.6389287  0.054945313   -2.9088342    1.2699055   547498 
   61000     1.002786   -2.9096387   -2.9096387   -1.6391426  0.058211169   -2.9096387    1.2704961   547498 
   62000    1.0036629   -2.9107355   -2.9107355   -1.6391284  0.061166005   -2.9107355    1.2716071   547498 
   63000    1.0035535   -2.9107005   -2.9107005    -1.639232  0.060242628   -2.9107005    1.2714685   547498 
   64000    1.0025185   -2.9102845   -2.9102845   -1.6401274  0.044739365   -2.9102845    1.2701571   547498 
   65000    1.0036928   -2.9115959   -2.9115959    -1.639951  0.061735595   -2.9115959    1.2716449   547498 
   66000     1.003881   -2.9116378   -2.9116378   -1.6397544  0.054166287   -2.9116378    1.2718834   547498 
   67000    1.0050903   -2.9130731   -2.9130731   -1.6396576  0.057841656   -2.9130731    1.2734155   547498 
   68000    1.0034654   -2.9118351   -2.9118351   -1.6404783  0.064000475   -2.9118351    1.2713568   547498 
   69000    1.0042726   -2.9135796   -2.9135796      -1.6412  0.058790441   -2.9135796    1.2723795   547498 
   70000    1.0053571    -2.915514    -2.915514   -1.6417605  0.052184697    -2.915514    1.2737535   547498 
   71000    1.0031907   -2.9124514   -2.9124514   -1.6414426  0.059050106   -2.9124514    1.2710088   547498 
   72000    1.0043442   -2.9150313   -2.9150313    -1.642561  0.067981117   -2.9150313    1.2724703   547498 
   73000    1.0050503   -2.9155276   -2.9155276   -1.6421627  0.061496008   -2.9155276    1.2733648   547498 
   74000    1.0048334   -2.9150276   -2.9150276   -1.6419376  0.065599374   -2.9150276      1.27309   547498 
   75000    1.0041068   -2.9148586   -2.9148586   -1.6426891  0.062985649   -2.9148586    1.2721694   547498 
   76000    1.0047054   -2.9153112   -2.9153112   -1.6423833    0.0627499   -2.9153112    1.2729279   547498 
   77000    1.0061338   -2.9169768   -2.9169768   -1.6422392  0.064742386   -2.9169768    1.2747376   547498 
   78000    1.0043041   -2.9147498   -2.9147498   -1.6423304  0.069259386   -2.9147498    1.2724194   547498 
   79000    1.0053236    -2.915433    -2.915433   -1.6417219  0.060664459    -2.915433    1.2737111   547498 
   80000     1.004819    -2.914493    -2.914493   -1.6414213  0.063107797    -2.914493    1.2730717   547498 
   81000    1.0045266   -2.9136694   -2.9136694   -1.6409682  0.064283893   -2.9136694    1.2727013   547498 
   82000    1.0057329   -2.9153789   -2.9153789   -1.6411493  0.062317451   -2.9153789    1.2742297   547498 
   83000    1.0035109   -2.9129127   -2.9129127   -1.6414982  0.060642215   -2.9129127    1.2714145   547498 
   84000    1.0047296   -2.9143463   -2.9143463   -1.6413877  0.063040036   -2.9143463    1.2729586   547498 
   85000    1.0039485   -2.9134577   -2.9134577   -1.6414888  0.055245087   -2.9134577    1.2719689   547498 
   86000    1.0054027   -2.9146195   -2.9146195   -1.6408082  0.065126209   -2.9146195    1.2738112   547498 
   87000     1.004334   -2.9142882   -2.9142882   -1.6418309  0.055759555   -2.9142882    1.2724573   547498 
   88000    1.0030485    -2.913936    -2.913936   -1.6431074  0.064139278    -2.913936    1.2708286   547498 
   89000     1.002958   -2.9138393   -2.9138393   -1.6431253  0.053393375   -2.9138393     1.270714   547498 
   90000    1.0037966   -2.9142344   -2.9142344    -1.642458  0.059427766   -2.9142344    1.2717764   547498 
   91000    1.0031823   -2.9145855   -2.9145855   -1.6435874  0.060684368   -2.9145855    1.2709981   547498 
   92000    1.0029609   -2.9142532   -2.9142532   -1.6435355   0.06483884   -2.9142532    1.2707176   547498 
   93000    1.0039531   -2.9151628   -2.9151628   -1.6431881  0.063240893   -2.9151628    1.2719747   547498 
   94000    1.0035587   -2.9158392   -2.9158392   -1.6443641  0.047734497   -2.9158392    1.2714751   547498 
   95000    1.0040778   -2.9170902   -2.9170902   -1.6449576  0.064405777   -2.9170902    1.2721327   547498 
   96000    1.0041312   -2.9171323   -2.9171323   -1.6449319  0.058867593   -2.9171323    1.2722004   547498 
   97000    1.0036224   -2.9166242   -2.9166242   -1.6450684  0.059036201   -2.9166242    1.2715557   547498 
   98000    1.0026103   -2.9146747   -2.9146747   -1.6444012  0.059920822   -2.9146747    1.2702735   547498 
   99000    1.0030324   -2.9151729   -2.9151729   -1.6443646  0.060793128   -2.9151729    1.2708082   547498 
  100000    1.0035725   -2.9161622   -2.9161622   -1.6446697  0.065658358   -2.9161622    1.2714925   547498 
  101000    1.0050582   -2.9180736   -2.9180736   -1.6446988  0.060544727   -2.9180736    1.2733749   547498 
  102000    1.0038632   -2.9165886   -2.9165886   -1.6447278  0.055374387   -2.9165886    1.2718608   547498 
  103000    1.0048746   -2.9172121   -2.9172121   -1.6440698  0.057067319   -2.9172121    1.2731422   547498 
  104000    1.0047913   -2.9168557   -2.9168557    -1.643819  0.057525489   -2.9168557    1.2730367   547498 
  105000    1.0038838   -2.9155698   -2.9155698   -1.6436829  0.059249273   -2.9155698    1.2718869   547498 
  106000    1.0048142   -2.9171521   -2.9171521   -1.6440863  0.064935507   -2.9171521    1.2730658   547498 
  107000    1.0050415   -2.9167436   -2.9167436   -1.6433899  0.063826484   -2.9167436    1.2733537   547498 
  108000    1.0044558   -2.9163016   -2.9163016     -1.64369  0.057942298   -2.9163016    1.2726116   547498 
  109000     1.004782    -2.917256    -2.917256   -1.6442311  0.052051644    -2.917256    1.2730249   547498 
  110000    1.0042186   -2.9165473   -2.9165473   -1.6442362  0.060315517   -2.9165473     1.272311   547498 
  111000    1.0044832   -2.9163284   -2.9163284    -1.643682  0.054199619   -2.9163284    1.2726463   547498 
  112000     1.004003   -2.9147155   -2.9147155   -1.6426776  0.063802915   -2.9147155    1.2720379   547498 
  113000    1.0042371   -2.9152427   -2.9152427   -1.6429081  0.061561533   -2.9152427    1.2723346   547498 
  114000     1.001593   -2.9125532   -2.9125532   -1.6435686  0.062130736   -2.9125532    1.2689845   547498 
  115000    1.0033791   -2.9143688   -2.9143688   -1.6431214  0.060499679   -2.9143688    1.2712475   547498 
  116000    1.0020764   -2.9128556   -2.9128556   -1.6432586  0.059320499   -2.9128556     1.269597   547498 
  117000     1.003571   -2.9152215   -2.9152215   -1.6437309  0.065455966   -2.9152215    1.2714906   547498 
  118000    1.0029827   -2.9142542   -2.9142542    -1.643509  0.062808727   -2.9142542    1.2707453   547498 
  119000    1.0032781   -2.9159215   -2.9159215   -1.6448019  0.059692366   -2.9159215    1.2711195   547498 
  120000    1.0050434   -2.9182396   -2.9182396   -1.6448835    0.0609758   -2.9182396    1.2733561   547498 
  121000    1.0032716   -2.9171921   -2.9171921   -1.6460809   0.06034371   -2.9171921    1.2711112   547498 
  122000    1.0042423   -2.9191479   -2.9191479   -1.6468068  0.063117249   -2.9191479    1.2723411   547498 
  123000    1.0052932   -2.9199575   -2.9199575    -1.646285  0.062498893   -2.9199575    1.2736725   547498 
  124000    1.0045194   -2.9201357   -2.9201357   -1.6474435  0.065592338   -2.9201357    1.2726922   547498 
  125000    1.0051895   -2.9214589   -2.9214589   -1.6479177  0.055955369   -2.9214589    1.2735412   547498 
  126000    1.0036958   -2.9186311   -2.9186311   -1.6469823  0.057411456   -2.9186311    1.2716487   547498 
  127000    1.0034386   -2.9188592   -2.9188592   -1.6475363  0.063951057   -2.9188592    1.2713229   547498 
  128000    1.0029336   -2.9177826   -2.9177826   -1.6470995  0.055890993   -2.9177826    1.2706831   547498 
  129000    1.0051828   -2.9204538   -2.9204538    -1.646921   0.05470898   -2.9204538    1.2735327   547498 
  130000    1.0022975   -2.9161559   -2.9161559   -1.6462789  0.051381565   -2.9161559    1.2698771   547498 
  131000    1.0038523   -2.9178756   -2.9178756   -1.6460286  0.056145163   -2.9178756     1.271847   547498 
  132000    1.0006592   -2.9146684   -2.9146684    -1.646867  0.051391493   -2.9146684    1.2678014   547498 
  133000    1.0028821   -2.9181716   -2.9181716   -1.6475538  0.054142283   -2.9181716    1.2706178   547498 
  134000    1.0029113   -2.9180918   -2.9180918    -1.647437  0.063783525   -2.9180918    1.2706548   547498 
  135000    1.0043978   -2.9201758   -2.9201758   -1.6476376  0.063287523   -2.9201758    1.2725382   547498 
  136000    1.0035448   -2.9192831   -2.9192831   -1.6478257  0.062914532   -2.9192831    1.2714574   547498 
  137000    1.0037264   -2.9208517   -2.9208517   -1.6491642  0.060227728   -2.9208517    1.2716874   547498 
  138000    1.0014792   -2.9186729   -2.9186729   -1.6498325  0.060761115   -2.9186729    1.2688403   547498 
  139000     1.004183   -2.9212541   -2.9212541    -1.648988  0.062170622   -2.9212541     1.272266   547498 
  140000     1.004034   -2.9221731   -2.9221731   -1.6500959  0.061624315   -2.9221731    1.2720772   547498 
  141000    1.0031047   -2.9207575   -2.9207575   -1.6498576  0.059414393   -2.9207575    1.2708999   547498 
  142000    1.0038269   -2.9216886   -2.9216886   -1.6498738  0.066792311   -2.9216886    1.2718148   547498 
  143000    1.0022976   -2.9199017   -2.9199017   -1.6500245   0.05363701   -2.9199017    1.2698772   547498 
  144000    1.0034334    -2.920879    -2.920879   -1.6495628  0.058644754    -2.920879    1.2713162   547498 
  145000    1.0040017   -2.9214862   -2.9214862   -1.6494499  0.055627148   -2.9214862    1.2720363   547498 
  146000    1.0018424   -2.9187426   -2.9187426   -1.6494421  0.057213379   -2.9187426    1.2693005   547498 
  147000    1.0037852   -2.9210786   -2.9210786   -1.6493166  0.055175425   -2.9210786    1.2717619   547498 
  148000    1.0039254   -2.9211274   -2.9211274   -1.6491879  0.061621792   -2.9211274    1.2719396   547498 
  149000    1.0041207   -2.9206726   -2.9206726   -1.6484855  0.063248057   -2.9206726    1.2721871   547498 
  150000    1.0032715   -2.9201779   -2.9201779   -1.6490668  0.058449996   -2.9201779    1.2711111   547498 
  151000    1.0027989   -2.9207526   -2.9207526   -1.6502403  0.062282052   -2.9207526    1.2705123   547498 
  152000    1.0035754   -2.9216776   -2.9216776   -1.6501814  0.070888963   -2.9216776    1.2714962   547498 
  153000    1.0050947   -2.9227619   -2.9227619   -1.6493408  0.061426959   -2.9227619    1.2734211   547498 
  154000    1.0051509   -2.9232112   -2.9232112   -1.6497189  0.058646677   -2.9232112    1.2734923   547498 
  155000    1.0036276   -2.9218546   -2.9218546   -1.6502923  0.061759501   -2.9218546    1.2715623   547498 
  156000     1.004063   -2.9222122   -2.9222122   -1.6500983  0.065532958   -2.9222122     1.272114   547498 
  157000    1.0043391   -2.9221783   -2.9221783   -1.6497145  0.065810247   -2.9221783    1.2724638   547498 
  158000    1.0025521    -2.919835    -2.919835   -1.6496353  0.063571533    -2.919835    1.2701997   547498 
  159000    1.0023835    -2.920217    -2.920217    -1.650231  0.059911037    -2.920217     1.269986   547498 
  160000      1.00045   -2.9181952   -2.9181952   -1.6506588  0.057018774   -2.9181952    1.2675364   547498 
  161000    1.0012833   -2.9186682   -2.9186682   -1.6500759  0.048737212   -2.9186682    1.2685922   547498 
  162000    1.0026081   -2.9203531   -2.9203531   -1.6500824  0.058711884   -2.9203531    1.2702707   547498 
  163000    1.0023808   -2.9202659   -2.9202659   -1.6502832  0.052643064   -2.9202659    1.2699827   547498 
  164000    1.0030443   -2.9214321   -2.9214321   -1.6506088  0.058052634   -2.9214321    1.2708233   547498 
  165000    1.0029494   -2.9220141   -2.9220141    -1.651311  0.065551595   -2.9220141    1.2707031   547498 
  166000    1.0040664   -2.9235035   -2.9235035   -1.6513852  0.050481245   -2.9235035    1.2721183   547498 
  167000    1.0039219   -2.9228945   -2.9228945   -1.6509593  0.062152361   -2.9228945    1.2719352   547498 
  168000    1.0035675   -2.9225044   -2.9225044   -1.6510183  0.064170134   -2.9225044    1.2714861   547498 
  169000    1.0030061   -2.9218921   -2.9218921   -1.6511172   0.06440227   -2.9218921    1.2707749   547498 
  170000    1.0036567   -2.9227464   -2.9227464   -1.6511472  0.058016366   -2.9227464    1.2715992   547498 
  171000    1.0011219   -2.9200125   -2.9200125   -1.6516247  0.060780349   -2.9200125    1.2683877   547498 
  172000    1.0037228   -2.9230874   -2.9230874   -1.6514044  0.063773429   -2.9230874    1.2716829   547498 
  173000    1.0022579   -2.9205334   -2.9205334   -1.6507064  0.065248312   -2.9205334     1.269827   547498 
  174000     1.003062   -2.9225374   -2.9225374   -1.6516916  0.055249867   -2.9225374    1.2708458   547498 
  175000    1.0026608   -2.9218441   -2.9218441   -1.6515067  0.051550434   -2.9218441    1.2703375   547498 
  176000    1.0019877   -2.9209721   -2.9209721   -1.6514875  0.064949848   -2.9209721    1.2694846   547498 
  177000    1.0015248   -2.9209284   -2.9209284   -1.6520303   0.06567611   -2.9209284    1.2688982   547498 
  178000    1.0028974   -2.9221519   -2.9221519   -1.6515147  0.057105685   -2.9221519    1.2706371   547498 
  179000    1.0028549    -2.921797    -2.921797   -1.6512136  0.060619813    -2.921797    1.2705834   547498 
  180000    1.0037183   -2.9228072   -2.9228072   -1.6511299  0.070092983   -2.9228072    1.2716773   547498 
  181000    1.0012619   -2.9205948   -2.9205948   -1.6520298  0.060668949   -2.9205948     1.268565   547498 
  182000    1.0035285    -2.923532    -2.923532   -1.6520952  0.069205844    -2.923532    1.2714368   547498 
  183000    1.0051543   -2.9252539   -2.9252539   -1.6517573  0.061645978   -2.9252539    1.2734966   547498 
  184000    1.0030052   -2.9229206   -2.9229206   -1.6521469  0.064893426   -2.9229206    1.2707737   547498 
  185000    1.0036935   -2.9249579   -2.9249579   -1.6533121  0.064097387   -2.9249579    1.2716458   547498 
  186000    1.0051071   -2.9276797   -2.9276797   -1.6542429  0.054708897   -2.9276797    1.2734368   547498 
  187000    1.0043638   -2.9256507   -2.9256507   -1.6531557  0.058609034   -2.9256507    1.2724951   547498 
  188000    1.0036274   -2.9258285   -2.9258285   -1.6542665  0.060504083   -2.9258285    1.2715621   547498 
  189000    1.0038154   -2.9260169   -2.9260169   -1.6542167  0.063010588   -2.9260169    1.2718002   547498 
  190000    1.0026844   -2.9250108   -2.9250108   -1.6546434  0.058999576   -2.9250108    1.2703674   547498 
  191000    1.0029841   -2.9256169   -2.9256169   -1.6548699   0.05507518   -2.9256169     1.270747   547498 
  192000    1.0038854   -2.9262999   -2.9262999   -1.6544109  0.065736863   -2.9262999     1.271889   547498 
  193000    1.0034782   -2.9252271   -2.9252271   -1.6538541  0.064421098   -2.9252271     1.271373   547498 
  194000    1.0031086   -2.9254667   -2.9254667    -1.654562  0.061100797   -2.9254667    1.2709047   547498 
  195000    1.0027201   -2.9251582   -2.9251582   -1.6547456   0.05764974   -2.9251582    1.2704125   547498 
  196000    1.0015957   -2.9241685   -2.9241685   -1.6551805  0.056571285   -2.9241685     1.268988   547498 
  197000    1.0022342   -2.9248854   -2.9248854   -1.6550885  0.062409769   -2.9248854    1.2697969   547498 
  198000    1.0028771   -2.9262156   -2.9262156   -1.6556041  0.069560434   -2.9262156    1.2706115   547498 
  199000    1.0030944   -2.9261854   -2.9261854   -1.6552986  0.060190324   -2.9261854    1.2708868   547498 
  200000    1.0038728   -2.9267799   -2.9267799   -1.6549069  0.056406511   -2.9267799     1.271873   547498 
  201000     1.002988    -2.926677    -2.926677    -1.655925  0.059889988    -2.926677     1.270752   547498 
  202000    1.0029126   -2.9260283   -2.9260283   -1.6553718  0.058010638   -2.9260283    1.2706564   547498 
  203000    1.0020923   -2.9250211   -2.9250211    -1.655404  0.064878571   -2.9250211    1.2696171   547498 
  204000    1.0030123   -2.9260274   -2.9260274   -1.6552446   0.06434962   -2.9260274    1.2707828   547498 
  205000    1.0028642    -2.925926    -2.925926   -1.6553308  0.063550783    -2.925926    1.2705951   547498 
  206000    1.0046014   -2.9276698   -2.9276698   -1.6548737  0.059080788   -2.9276698    1.2727961   547498 
  207000    1.0045265   -2.9275976   -2.9275976   -1.6548965  0.067622225   -2.9275976    1.2727011   547498 
  208000    1.0028696   -2.9261681   -2.9261681   -1.6555662  0.058193537   -2.9261681     1.270602   547498 
  209000      1.00243     -2.92536     -2.92536    -1.655315  0.058056139     -2.92536     1.270045   547498 
  210000    1.0026504   -2.9263933   -2.9263933   -1.6560691  0.060974689   -2.9263933    1.2703242   547498 
  211000    1.0030015   -2.9258805   -2.9258805   -1.6551114  0.067560966   -2.9258805    1.2707691   547498 
  212000    1.0048572   -2.9290348   -2.9290348   -1.6559147  0.067801654   -2.9290348    1.2731201   547498 
  213000    1.0033354   -2.9269025   -2.9269025   -1.6557104  0.068985437   -2.9269025    1.2711921   547498 
  214000    1.0032341   -2.9263209   -2.9263209   -1.6552572   0.06277294   -2.9263209    1.2710637   547498 
  215000    1.0051178   -2.9284119   -2.9284119   -1.6549616  0.057676002   -2.9284119    1.2734503   547498 
  216000    1.0032054   -2.9267502   -2.9267502   -1.6557228  0.068922336   -2.9267502    1.2710274   547498 
  217000    1.0029748   -2.9276271   -2.9276271   -1.6568918  0.056137089   -2.9276271    1.2707353   547498 
  218000    1.0028954   -2.9277158   -2.9277158   -1.6570812  0.060106344   -2.9277158    1.2706346   547498 
  219000    1.0025713   -2.9272355   -2.9272355   -1.6570116  0.066222177   -2.9272355     1.270224   547498 
  220000    1.0039215   -2.9290364   -2.9290364   -1.6571016  0.062114708   -2.9290364    1.2719347   547498 
  221000    1.0045213   -2.9293341   -2.9293341   -1.6566395  0.064199387   -2.9293341    1.2726946   547498 
  222000     1.001225   -2.9263076   -2.9263076   -1.6577893  0.057934371   -2.9263076    1.2685183   547498 
  223000    1.0027728   -2.9275242   -2.9275242   -1.6570449  0.058066781   -2.9275242    1.2704793   547498 
  224000    1.0027969   -2.9279902   -2.9279902   -1.6574804  0.059029794   -2.9279902    1.2705098   547498 
  225000    1.0023333   -2.9274142   -2.9274142   -1.6574917  0.055575957   -2.9274142    1.2699225   547498 
  226000      1.00239   -2.9281599   -2.9281599   -1.6581655  0.064123532   -2.9281599    1.2699944   547498 
  227000    1.0025358   -2.9276291   -2.9276291   -1.6574501  0.053755661   -2.9276291    1.2701791   547498 
  228000    1.0052326   -2.9306615   -2.9306615   -1.6570658   0.06961688   -2.9306615    1.2735958   547498 
  229000    1.0021949   -2.9281051   -2.9281051   -1.6583579  0.058166643   -2.9281051    1.2697472   547498 
  230000    1.0034523   -2.9293898   -2.9293898   -1.6580496  0.058843081   -2.9293898    1.2713402   547498 
  231000     1.002332   -2.9282679   -2.9282679    -1.658347   0.05824624   -2.9282679    1.2699209   547498 
  232000    1.0017782   -2.9273961   -2.9273961   -1.6581769  0.064793277   -2.9273961    1.2692192   547498 
  233000    1.0036822   -2.9289562   -2.9289562   -1.6573247  0.058414083   -2.9289562    1.2716315   547498 
  234000    1.0034195   -2.9281114   -2.9281114   -1.6568127  0.063642405   -2.9281114    1.2712987   547498 
  235000    1.0043864   -2.9299311   -2.9299311   -1.6574075  0.057833079   -2.9299311    1.2725237   547498 
  236000    1.0032549   -2.9289622   -2.9289622   -1.6578721  0.065468728   -2.9289622    1.2710901   547498 
  237000    1.0035358   -2.9286732   -2.9286732   -1.6572272  0.063448313   -2.9286732     1.271446   547498 
  238000    1.0036048   -2.9295432   -2.9295432   -1.6580099  0.061995128   -2.9295432    1.2715334   547498 
  239000    1.0038998   -2.9298908   -2.9298908   -1.6579836  0.059408123   -2.9298908    1.2719072   547498 
  240000    1.0035621   -2.9296594   -2.9296594   -1.6581801  0.069908158   -2.9296594    1.2714793   547498 
  241000    1.0026176   -2.9285626   -2.9285626     -1.65828  0.062534147   -2.9285626    1.2702826   547498 
  242000    1.0033286   -2.9295662   -2.9295662   -1.6583828  0.062542305   -2.9295662    1.2711834   547498 
  243000    1.0031295   -2.9290963   -2.9290963    -1.658165  0.063727875   -2.9290963    1.2709312   547498 
  244000    1.0043379   -2.9309995   -2.9309995   -1.6585373  0.055845981   -2.9309995    1.2724622   547498 
  245000    1.0039134   -2.9301017   -2.9301017   -1.6581773  0.071217259   -2.9301017    1.2719244   547498 
  246000    1.0050832   -2.9312256   -2.9312256   -1.6578191   0.06193302   -2.9312256    1.2734065   547498 
  247000    1.0027431    -2.928757    -2.928757   -1.6583154  0.061216179    -2.928757    1.2704416   547498 
  248000    1.0029472   -2.9293438   -2.9293438   -1.6586435  0.060850568   -2.9293438    1.2707003   547498 
  249000    1.0013267   -2.9281882   -2.9281882    -1.659541   0.06497615   -2.9281882    1.2686472   547498 
  250000    1.0024045    -2.928752    -2.928752   -1.6587394  0.066714072    -2.928752    1.2700126   547498 
  251000    1.0017965   -2.9284174   -2.9284174    -1.659175  0.055475763   -2.9284174    1.2692424   547498 
  252000    1.0034209   -2.9302138   -2.9302138   -1.6589133  0.058405899   -2.9302138    1.2713005   547498 
  253000    1.0017568   -2.9281566   -2.9281566   -1.6589645  0.053506522   -2.9281566    1.2691921   547498 
  254000    1.0011097   -2.9278382   -2.9278382   -1.6594661  0.055964846   -2.9278382    1.2683722   547498 
  255000    1.0028867   -2.9298963   -2.9298963   -1.6592726  0.058096693   -2.9298963    1.2706236   547498 
  256000    1.0023946   -2.9294297   -2.9294297   -1.6594296  0.060638156   -2.9294297    1.2700001   547498 
  257000    1.0028674   -2.9312887   -2.9312887   -1.6606895  0.053701843   -2.9312887    1.2705992   547498 
  258000    1.0024319   -2.9311937   -2.9311937   -1.6611463  0.066334698   -2.9311937    1.2700474   547498 
  259000    1.0016525   -2.9290222   -2.9290222   -1.6599622  0.067093476   -2.9290222      1.26906   547498 
  260000    1.0032103   -2.9314953   -2.9314953   -1.6604617  0.070653484   -2.9314953    1.2710336   547498 
  261000    1.0025838   -2.9308207   -2.9308207   -1.6605808   0.05833026   -2.9308207    1.2702398   547498 
  262000    1.0038141   -2.9317393   -2.9317393   -1.6599407  0.061625333   -2.9317393    1.2717986   547498 
  263000    1.0028697   -2.9306822   -2.9306822   -1.6600801  0.057749123   -2.9306822    1.2706021   547498 
  264000     1.002157   -2.9294602   -2.9294602   -1.6597611  0.061502171   -2.9294602    1.2696991   547498 
  265000    1.0025188   -2.9304607   -2.9304607   -1.6603031   0.06405014   -2.9304607    1.2701576   547498 
  266000    1.0021167   -2.9304075   -2.9304075   -1.6607595  0.060365378   -2.9304075     1.269648   547498 
  267000    1.0018226   -2.9301538   -2.9301538   -1.6608784  0.049808053   -2.9301538    1.2692754   547498 
  268000     1.002405   -2.9302264   -2.9302264   -1.6602131  0.062992113   -2.9302264    1.2700133   547498 
  269000    1.0007471   -2.9281284   -2.9281284   -1.6602156  0.065273289   -2.9281284    1.2679128   547498 
  270000    1.0006033   -2.9287272   -2.9287272   -1.6609966   0.06161967   -2.9287272    1.2677307   547498 
  271000    1.0006612   -2.9289141   -2.9289141   -1.6611101  0.064969435   -2.9289141    1.2678039   547498 
  272000    1.0031412   -2.9315316   -2.9315316   -1.6605855  0.066340758   -2.9315316    1.2709461   547498 
  273000    1.0018096   -2.9314713   -2.9314713   -1.6622123  0.052506358   -2.9314713    1.2692589   547498 
  274000    1.0000789   -2.9296514   -2.9296514   -1.6625852  0.059056113   -2.9296514    1.2670662   547498 
  275000    1.0024135   -2.9324436   -2.9324436   -1.6624195  0.057965818   -2.9324436    1.2700241   547498 
  276000    1.0034425   -2.9334179   -2.9334179     -1.66209  0.057349342   -2.9334179    1.2713278   547498 
  277000    1.0016984   -2.9322238   -2.9322238   -1.6631057  0.053859469   -2.9322238    1.2691181   547498 
  278000    1.0011608      -2.9318      -2.9318    -1.663363  0.048426953      -2.9318     1.268437   547498 
  279000   0.99970243   -2.9305163   -2.9305163   -1.6639271  0.056995939   -2.9305163    1.2665893   547498 
  280000    1.0009659    -2.931569    -2.931569    -1.663379  0.056245841    -2.931569      1.26819   547498 
  281000    1.0021557    -2.933051    -2.933051   -1.6633535  0.064410889    -2.933051    1.2696975   547498 
  282000    1.0025558   -2.9325709   -2.9325709   -1.6623665  0.058673491   -2.9325709    1.2702044   547498 
  283000    1.0014325   -2.9310067   -2.9310067   -1.6622255   0.06330039   -2.9310067    1.2687812   547498 
  284000    1.0029427   -2.9328869   -2.9328869   -1.6621923  0.046078773   -2.9328869    1.2706946   547498 
  285000    1.0011215   -2.9312824   -2.9312824   -1.6628953  0.057441736   -2.9312824    1.2683871   547498 
  286000    1.0025883   -2.9312977   -2.9312977   -1.6610521  0.060262251   -2.9312977    1.2702455   547498 
  287000    1.0034544   -2.9323959   -2.9323959   -1.6610531  0.050599932   -2.9323959    1.2713429   547498 
  288000     1.002102   -2.9308356   -2.9308356   -1.6612062  0.047347852   -2.9308356    1.2696294   547498 
  289000     1.002721   -2.9320093   -2.9320093   -1.6615956  0.058186757   -2.9320093    1.2704137   547498 
  290000    1.0021072   -2.9316914   -2.9316914   -1.6620553  0.055986567   -2.9316914    1.2696361   547498 
  291000    1.0011095   -2.9304682   -2.9304682   -1.6620962  0.065961222   -2.9304682    1.2683719   547498 
  292000    1.0013424   -2.9301027   -2.9301027   -1.6614356   0.06169565   -2.9301027    1.2686671   547498 
  293000     1.001997   -2.9308011   -2.9308011   -1.6613047  0.061224178   -2.9308011    1.2694964   547498 
  294000    1.0005243   -2.9284103   -2.9284103   -1.6607798  0.065158576   -2.9284103    1.2676305   547498 
  295000    1.0027521   -2.9306739   -2.9306739   -1.6602208   0.05809743   -2.9306739    1.2704531   547498 
  296000    1.0028477   -2.9305942   -2.9305942     -1.66002  0.055103223   -2.9305942    1.2705743   547498 
  297000    1.0035995    -2.931909    -2.931909   -1.6603822   0.06162424    -2.931909    1.2715267   547498 
  298000     1.002169   -2.9301422   -2.9301422   -1.6604278  0.065622955   -2.9301422    1.2697144   547498 
  299000    1.0017605    -2.930777    -2.930777   -1.6615802  0.063414646    -2.930777    1.2691968   547498 
  300000     1.003216   -2.9317706   -2.9317706   -1.6607298  0.063155635   -2.9317706    1.2710408   547498 
  301000       1.0014   -2.9304955   -2.9304955   -1.6617554  0.068734602   -2.9304955    1.2687401   547498 
  302000    1.0001816   -2.9291009   -2.9291009   -1.6619046  0.062347528   -2.9291009    1.2671963   547498 
  303000    1.0022032    -2.931836    -2.931836   -1.6620783   0.05716222    -2.931836    1.2697576   547498 
  304000    1.0027929   -2.9330401   -2.9330401   -1.6625353  0.068337747   -2.9330401    1.2705048   547498 
  305000    1.0021335   -2.9331744   -2.9331744    -1.663505  0.064330492   -2.9331744    1.2696694   547498 
  306000    1.0034164   -2.9348096   -2.9348096   -1.6635149   0.05912682   -2.9348096    1.2712947   547498 
  307000     1.002328   -2.9335627   -2.9335627   -1.6636469  0.053666912   -2.9335627    1.2699158   547498 
  308000    1.0021825    -2.933275    -2.933275   -1.6635436  0.066971845    -2.933275    1.2697314   547498 
  309000   0.99927384   -2.9295165   -2.9295165   -1.6634703  0.058730251   -2.9295165    1.2660463   547498 
  310000    1.0007127    -2.930946    -2.930946   -1.6630768  0.054528641    -2.930946    1.2678692   547498 
  311000    1.0012417    -2.931004    -2.931004   -1.6624645  0.069120271    -2.931004    1.2685395   547498 
  312000    1.0013632   -2.9320023   -2.9320023   -1.6633089  0.060230626   -2.9320023    1.2686935   547498 
  313000   0.99998358   -2.9297215   -2.9297215    -1.662776  0.058977895   -2.9297215    1.2669455   547498 
  314000    1.0006008   -2.9312281   -2.9312281   -1.6635006  0.071688395   -2.9312281    1.2677275   547498 
  315000    1.0008898   -2.9311611   -2.9311611   -1.6630675   0.04817462   -2.9311611    1.2680936   547498 
  316000    1.0019666   -2.9326246   -2.9326246   -1.6631667  0.056050194   -2.9326246    1.2694579   547498 
  317000    1.0023963   -2.9329336   -2.9329336   -1.6629314  0.060794284   -2.9329336    1.2700023   547498 
  318000    1.0034728   -2.9347108   -2.9347108   -1.6633447  0.064694067   -2.9347108    1.2713662   547498 
  319000    1.0058713   -2.9373817   -2.9373817   -1.6629767  0.063570506   -2.9373817    1.2744051   547498 
  320000    1.0032493   -2.9342719   -2.9342719   -1.6631888  0.042188978   -2.9342719    1.2710831   547498 
  321000    1.0025884   -2.9329548   -2.9329548   -1.6627091  0.057027089   -2.9329548    1.2702457   547498 
  322000    1.0017835   -2.9314884   -2.9314884   -1.6622625  0.060268927   -2.9314884    1.2692259   547498 
  323000    1.0020854   -2.9319309   -2.9319309   -1.6623225   0.05992815   -2.9319309    1.2696084   547498 
  324000    1.0025204   -2.9318484   -2.9318484   -1.6616889  0.062040066   -2.9318484    1.2701595   547498 
  325000    1.0014288   -2.9312122   -2.9312122   -1.6624357  0.049770442   -2.9312122    1.2687765   547498 
  326000    1.0008199    -2.930785    -2.930785   -1.6627799  0.057765565    -2.930785    1.2680051   547498 
  327000    1.0014637   -2.9312377   -2.9312377   -1.6624169  0.058621583   -2.9312377    1.2688208   547498 
  328000    1.0010078   -2.9305867   -2.9305867   -1.6623435  0.064992608   -2.9305867    1.2682431   547498 
  329000    1.0018652   -2.9320524   -2.9320524    -1.662723    0.0563614   -2.9320524    1.2693294   547498 
  330000    1.0024073   -2.9338332   -2.9338332    -1.663817  0.055487587   -2.9338332    1.2700162   547498 
  331000    1.0018488   -2.9331802   -2.9331802   -1.6638715  0.058582895   -2.9331802    1.2693087   547498 
  332000    1.0022474   -2.9334465   -2.9334465   -1.6636329  0.053439923   -2.9334465    1.2698136   547498 
  333000    1.0028871   -2.9347067   -2.9347067   -1.6640826  0.064320752   -2.9347067    1.2706242   547498 
  334000    1.0022565   -2.9334723   -2.9334723   -1.6636471  0.061417852   -2.9334723    1.2698252   547498 
  335000    1.0023768    -2.934265    -2.934265   -1.6642874  0.070033417    -2.934265    1.2699776   547498 
  336000    1.0017061   -2.9333571   -2.9333571   -1.6642292  0.058934267   -2.9333571    1.2691279   547498 
  337000    1.0015952   -2.9331753   -2.9331753   -1.6641879  0.053018143   -2.9331753    1.2689873   547498 
  338000    1.0011828   -2.9332157   -2.9332157   -1.6647509   0.05830975   -2.9332157    1.2684648   547498 
  339000    1.0027324   -2.9345283   -2.9345283   -1.6641001  0.051642645   -2.9345283    1.2704281   547498 
  340000    1.0011598   -2.9327701   -2.9327701   -1.6643344   0.06889358   -2.9327701    1.2684357   547498 
  341000    1.0012582   -2.9335846   -2.9335846   -1.6650242  0.058274154   -2.9335846    1.2685604   547498 
  342000   0.99983829   -2.9320313   -2.9320313   -1.6652699   0.05554248   -2.9320313    1.2667614   547498 
  343000     1.000274   -2.9320555   -2.9320555   -1.6647421   0.05228738   -2.9320555    1.2673134   547498 
  344000    1.0014478   -2.9347773   -2.9347773   -1.6659767  0.049644268   -2.9347773    1.2688006   547498 
  345000    1.0008294   -2.9335627   -2.9335627   -1.6655456   0.06310589   -2.9335627    1.2680171   547498 
  346000    1.0005287   -2.9336126   -2.9336126   -1.6659765  0.058742566   -2.9336126    1.2676361   547498 
  347000    1.0012503   -2.9349424   -2.9349424    -1.666392   0.05608285   -2.9349424    1.2685503   547498 
  348000     1.003011   -2.9368363   -2.9368363   -1.6660552  0.065771792   -2.9368363    1.2707811   547498 
  349000    1.0041446   -2.9387731   -2.9387731   -1.6665558  0.060985545   -2.9387731    1.2722173   547498 
  350000    1.0038302   -2.9384028   -2.9384028   -1.6665838  0.052304826   -2.9384028     1.271819   547498 
  351000    1.0022304   -2.9357129   -2.9357129   -1.6659207  0.063103717   -2.9357129    1.2697922   547498 
  352000    1.0029593    -2.936909    -2.936909   -1.6661934  0.065993802    -2.936909    1.2707156   547498 
  353000    1.0020128   -2.9357577   -2.9357577   -1.6662413  0.050517179   -2.9357577    1.2695164   547498 
  354000    1.0023661   -2.9340285   -2.9340285   -1.6640644  0.049129206   -2.9340285    1.2699641   547498 
  355000    1.0024616   -2.9345327   -2.9345327   -1.6644477  0.062330194   -2.9345327     1.270085   547498 
  356000     1.000602   -2.9333171   -2.9333171   -1.6655881  0.056913018   -2.9333171     1.267729   547498 
  357000    0.9980332   -2.9299314   -2.9299314    -1.665457  0.059399331   -2.9299314    1.2644744   547498 
  358000    1.0000121   -2.9328806   -2.9328806    -1.665899  0.058644117   -2.9328806    1.2669816   547498 
  359000    1.0006785    -2.933363    -2.933363   -1.6655371  0.048269976    -2.933363    1.2678259   547498 
  360000    1.0007765    -2.933197    -2.933197    -1.665247  0.061526284    -2.933197      1.26795   547498 
  361000    1.0027802   -2.9360271   -2.9360271   -1.6655384  0.057048325   -2.9360271    1.2704887   547498 
  362000    1.0015325   -2.9352202   -2.9352202   -1.6663122   0.06255796   -2.9352202    1.2689079   547498 
  363000    1.0016028   -2.9346013   -2.9346013   -1.6656044  0.055713579   -2.9346013    1.2689969   547498 
  364000    1.0014098   -2.9346314   -2.9346314    -1.665879  0.062216485   -2.9346314    1.2687524   547498 
  365000    1.0007292   -2.9331711   -2.9331711    -1.665281  0.069318559   -2.9331711    1.2678901   547498 
  366000    1.0005114   -2.9332152   -2.9332152   -1.6656009  0.056229947   -2.9332152    1.2676142   547498 
  367000    1.0019918   -2.9350103   -2.9350103   -1.6655205  0.059868867   -2.9350103    1.2694898   547498 
  368000    1.0005671   -2.9336131   -2.9336131   -1.6659283  0.067085148   -2.9336131    1.2676848   547498 
  369000    1.0013005   -2.9344098   -2.9344098   -1.6657958  0.058347836   -2.9344098     1.268614   547498 
  370000    1.0014435   -2.9338667   -2.9338667   -1.6650716  0.058127269   -2.9338667    1.2687951   547498 
  371000    1.0004569   -2.9334603   -2.9334603   -1.6659152  0.064856712   -2.9334603    1.2675451   547498 
  372000    1.0020086   -2.9356627   -2.9356627   -1.6661516  0.066956946   -2.9356627    1.2695111   547498 
  373000    1.0011902   -2.9357708   -2.9357708   -1.6672966  0.060358915   -2.9357708    1.2684742   547498 
  374000    1.0017485   -2.9346378   -2.9346378   -1.6654563  0.055417188   -2.9346378    1.2691815   547498 
  375000    1.0014121   -2.9346056   -2.9346056   -1.6658503  0.058918318   -2.9346056    1.2687553   547498 
  376000    1.0021128   -2.9347392   -2.9347392   -1.6650961  0.060815905   -2.9347392    1.2696431   547498 
  377000     1.003867    -2.936622    -2.936622   -1.6647563  0.061054508    -2.936622    1.2718657   547498 
  378000    1.0019963   -2.9358968   -2.9358968   -1.6664013  0.061214608   -2.9358968    1.2694955   547498 
  379000    1.0014634   -2.9357499   -2.9357499   -1.6669295  0.065749687   -2.9357499    1.2688203   547498 
  380000    1.0020493   -2.9363927   -2.9363927     -1.66683  0.061913537   -2.9363927    1.2695626   547498 
  381000    1.0025728    -2.936776    -2.936776   -1.6665501  0.066112116    -2.936776    1.2702259   547498 
  382000    1.0011247   -2.9351325   -2.9351325   -1.6667412  0.072635874   -2.9351325    1.2683913   547498 
  383000    1.0021823   -2.9365136   -2.9365136   -1.6667824  0.067323639   -2.9365136    1.2697312   547498 
  384000    1.0019182   -2.9354701   -2.9354701   -1.6660735  0.067952428   -2.9354701    1.2693966   547498 
  385000    1.0025925   -2.9359519   -2.9359519    -1.665701  0.062203189   -2.9359519    1.2702509   547498 
  386000    1.0026145   -2.9358679   -2.9358679   -1.6655892   0.05500979   -2.9358679    1.2702787   547498 
  387000    1.0013466   -2.9335164   -2.9335164    -1.664844  0.060155859   -2.9335164    1.2686724   547498 
  388000    1.0009976   -2.9337116   -2.9337116   -1.6654814  0.066639495   -2.9337116    1.2682302   547498 
  389000    1.0017113   -2.9339343   -2.9339343   -1.6647999  0.051013353   -2.9339343    1.2691344   547498 
  390000    1.0006194   -2.9328489   -2.9328489   -1.6650979  0.064266172   -2.9328489     1.267751   547498 
  391000    1.0003456   -2.9324862   -2.9324862    -1.665082  0.066181172   -2.9324862    1.2674041   547498 
  392000    1.0012679   -2.9334569   -2.9334569   -1.6648842  0.057510285   -2.9334569    1.2685726   547498 
  393000    1.0018694   -2.9344548   -2.9344548   -1.6651201  0.060375152   -2.9344548    1.2693347   547498 
  394000    1.0006927   -2.9329135   -2.9329135   -1.6650696  0.065046561   -2.9329135    1.2678439   547498 
  395000    1.0016539   -2.9345206   -2.9345206   -1.6654589  0.046285958   -2.9345206    1.2690618   547498 
  396000    1.0016361   -2.9349212   -2.9349212    -1.665882  0.060748439   -2.9349212    1.2690392   547498 
  397000    1.0020586   -2.9349447   -2.9349447   -1.6653702  0.062639935   -2.9349447    1.2695745   547498 
  398000   0.99986239   -2.9314977   -2.9314977   -1.6647058  0.075280062   -2.9314977    1.2667919   547498 
  399000    1.0019082   -2.9333122   -2.9333122   -1.6639283  0.058959564   -2.9333122    1.2693838   547498 
  400000    1.0024959   -2.9348793   -2.9348793   -1.6647509  0.058811315   -2.9348793    1.2701284   547498 
  401000    1.0011668   -2.9335514   -2.9335514   -1.6651068  0.054622561   -2.9335514    1.2684446   547498 
  402000    1.0020123   -2.9336912   -2.9336912   -1.6641754  0.061094168   -2.9336912    1.2695158   547498 
  403000    1.0038985   -2.9359284   -2.9359284   -1.6640229  0.067007258   -2.9359284    1.2719055   547498 
  404000    1.0018382   -2.9336162   -2.9336162    -1.664321  0.056350241   -2.9336162    1.2692952   547498 
  405000    1.0032635    -2.935349    -2.935349    -1.664248  0.065531861    -2.935349     1.271101   547498 
  406000    1.0015856   -2.9339099   -2.9339099   -1.6649347  0.062144587   -2.9339099    1.2689751   547498 
  407000    1.0012778   -2.9335553   -2.9335553     -1.66497  0.057543419   -2.9335553    1.2685853   547498 
  408000    1.0009617   -2.9331435   -2.9331435   -1.6649587  0.058883486   -2.9331435    1.2681847   547498 
  409000    1.0001626   -2.9328136   -2.9328136   -1.6656413  0.059728317   -2.9328136    1.2671723   547498 
  410000    1.0010602   -2.9337021   -2.9337021   -1.6653927  0.061910721   -2.9337021    1.2683095   547498 
  411000    1.0005605   -2.9328268   -2.9328268   -1.6651504  0.062597713   -2.9328268    1.2676765   547498 
  412000    1.0017228    -2.933705    -2.933705    -1.664556  0.057568744    -2.933705     1.269149   547498 
  413000   0.99987812   -2.9320172   -2.9320172   -1.6652053  0.056625978   -2.9320172    1.2668119   547498 
  414000    1.0023389   -2.9358549   -2.9358549   -1.6659253  0.055946151   -2.9358549    1.2699296   547498 
  415000    1.0033842   -2.9357815   -2.9357815   -1.6645276  0.064155645   -2.9357815    1.2712539   547498 
  416000    1.0027777   -2.9350885   -2.9350885    -1.664603  0.061662117   -2.9350885    1.2704856   547498 
  417000    1.0025204   -2.9348168   -2.9348168   -1.6646573  0.070389956   -2.9348168    1.2701595   547498 
  418000    1.0015356   -2.9350583   -2.9350583   -1.6661465  0.060926013   -2.9350583    1.2689118   547498 
  419000    1.0003258   -2.9340105   -2.9340105   -1.6666315  0.066038142   -2.9340105     1.267379   547498 
  420000    1.0015943   -2.9350266   -2.9350266   -1.6660404  0.067814268   -2.9350266    1.2689862   547498 
  421000    1.0005537   -2.9344184   -2.9344184   -1.6667506  0.066573789   -2.9344184    1.2676678   547498 
  422000    1.0005801   -2.9340314   -2.9340314   -1.6663302   0.06075786   -2.9340314    1.2677012   547498 
  423000    1.0002066   -2.9345861   -2.9345861    -1.667358  0.061988567   -2.9345861    1.2672281   547498 
  424000   0.99916343   -2.9336979   -2.9336979   -1.6677916  0.056569577   -2.9336979    1.2659064   547498 
  425000    1.0004382   -2.9353599   -2.9353599   -1.6678384  0.054007106   -2.9353599    1.2675214   547498 
  426000    1.0015587    -2.936051    -2.936051   -1.6671099  0.051899764    -2.936051    1.2689411   547498 
  427000    1.0012049   -2.9360075   -2.9360075   -1.6675146  0.062378189   -2.9360075    1.2684929   547498 
  428000    1.0009524   -2.9347842   -2.9347842   -1.6666113  0.069261857   -2.9347842    1.2681729   547498 
  429000    1.0009823   -2.9347955   -2.9347955   -1.6665847  0.056056701   -2.9347955    1.2682108   547498 
  430000    1.0010232   -2.9361801   -2.9361801   -1.6679175  0.057411684   -2.9361801    1.2682626   547498 
  431000    1.0019073   -2.9377166   -2.9377166   -1.6683338  0.056990766   -2.9377166    1.2693828   547498 
  432000    1.0018466   -2.9380989   -2.9380989    -1.668793  0.062132239   -2.9380989    1.2693059   547498 
  433000    1.0022918   -2.9390972   -2.9390972   -1.6692273    0.0598323   -2.9390972    1.2698699   547498 
  434000   0.99873093   -2.9344569   -2.9344569   -1.6690985  0.067121033   -2.9344569    1.2653584   547498 
  435000    1.0008165   -2.9373116   -2.9373116   -1.6693109  0.073817985   -2.9373116    1.2680007   547498 
  436000    1.0021234   -2.9384948   -2.9384948   -1.6688383  0.064571811   -2.9384948    1.2696566   547498 
  437000    1.0014333   -2.9371802   -2.9371802    -1.668398  0.064382459   -2.9371802    1.2687822   547498 
  438000     1.001481   -2.9379896   -2.9379896   -1.6691469  0.052111996   -2.9379896    1.2688427   547498 
  439000    1.0005715   -2.9368245   -2.9368245   -1.6691341  0.062953865   -2.9368245    1.2676904   547498 
  440000   0.99962885   -2.9358286   -2.9358286   -1.6693325  0.063884057   -2.9358286     1.266496   547498 
  441000     1.001551   -2.9393858   -2.9393858   -1.6704545  0.060451451   -2.9393858    1.2689313   547498 
  442000    1.0018447   -2.9390116   -2.9390116   -1.6697082  0.061811115   -2.9390116    1.2693034   547498 
  443000     1.002598   -2.9396432   -2.9396432   -1.6693854  0.065244238   -2.9396432    1.2702578   547498 
  444000    1.0034647   -2.9408837   -2.9408837   -1.6695278  0.064018454   -2.9408837    1.2713559   547498 
  445000      1.00125   -2.9375636   -2.9375636   -1.6690136  0.063471924   -2.9375636      1.26855   547498 
  446000    1.0023095   -2.9388896   -2.9388896   -1.6689972  0.062246981   -2.9388896    1.2698924   547498 
  447000    1.0021298   -2.9385549   -2.9385549   -1.6688902  0.061280771   -2.9385549    1.2696647   547498 
  448000    1.0028001   -2.9390426   -2.9390426   -1.6685287  0.054385379   -2.9390426    1.2705139   547498 
  449000     1.001416   -2.9368479   -2.9368479   -1.6680876  0.057381716   -2.9368479    1.2687603   547498 
  450000    1.0003232   -2.9357282   -2.9357282   -1.6683525  0.051930177   -2.9357282    1.2673757   547498 
  451000    1.0008734   -2.9368707   -2.9368707   -1.6687978  0.060760925   -2.9368707    1.2680729   547498 
  452000    1.0009714   -2.9367837   -2.9367837   -1.6685866  0.057634688   -2.9367837     1.268197   547498 
  453000    1.0004867   -2.9363329   -2.9363329     -1.66875  0.058784288   -2.9363329    1.2675829   547498 
  454000    1.0007672   -2.9366143   -2.9366143    -1.668676   0.06052069   -2.9366143    1.2679383   547498 
  455000    1.0020574   -2.9391599   -2.9391599   -1.6695869  0.061738652   -2.9391599    1.2695729   547498 
  456000      1.00398   -2.9419544   -2.9419544   -1.6699455  0.056531635   -2.9419544    1.2720088   547498 
  457000    1.0042471   -2.9425773   -2.9425773   -1.6702301  0.060714073   -2.9425773    1.2723472   547498 
  458000    1.0016474   -2.9401312   -2.9401312   -1.6710777  0.074216357   -2.9401312    1.2690535   547498 
  459000    1.0019775   -2.9402399   -2.9402399   -1.6707682   0.06012906   -2.9402399    1.2694717   547498 
  460000    1.0033171   -2.9415875   -2.9415875   -1.6704186  0.053346648   -2.9415875    1.2711689   547498 
  461000    1.0021805   -2.9396067   -2.9396067   -1.6698778  0.070512152   -2.9396067    1.2697289   547498 
  462000    1.0028701   -2.9395426   -2.9395426     -1.66894  0.074034194   -2.9395426    1.2706026   547498 
  463000    1.0027835   -2.9394011   -2.9394011   -1.6689083  0.058073731   -2.9394011    1.2704928   547498 
  464000    1.0017109   -2.9377471   -2.9377471   -1.6686132  0.057517078   -2.9377471    1.2691339   547498 
  465000    1.0013655   -2.9377808   -2.9377808   -1.6690845  0.070330454   -2.9377808    1.2686964   547498 
  466000    1.0015182   -2.9379293   -2.9379293   -1.6690394  0.066500185   -2.9379293    1.2688898   547498 
  467000    1.0015545   -2.9371087   -2.9371087    -1.668173  0.069880863   -2.9371087    1.2689357   547498 
  468000    1.0006042   -2.9364939   -2.9364939   -1.6687622  0.063716891   -2.9364939    1.2677317   547498 
  469000   0.99903797    -2.934879    -2.934879   -1.6691316  0.058301547    -2.934879    1.2657474   547498 
  470000    1.0005693   -2.9369252   -2.9369252   -1.6692376  0.053483478   -2.9369252    1.2676875   547498 
  471000      1.00111   -2.9368596   -2.9368596    -1.668487  0.075369025   -2.9368596    1.2683726   547498 
  472000    1.0005087   -2.9364886   -2.9364886   -1.6688778  0.061572779   -2.9364886    1.2676107   547498 
  473000    1.0002734   -2.9359472   -2.9359472   -1.6686346  0.053591084   -2.9359472    1.2673126   547498 
  474000    1.0020572   -2.9388165   -2.9388165   -1.6692438   0.05446391   -2.9388165    1.2695727   547498 
  475000    1.0022382    -2.938218    -2.938218    -1.668416  0.065859527    -2.938218    1.2698019   547498 
  476000    1.0006408   -2.9364367   -2.9364367   -1.6686586  0.065995988   -2.9364367    1.2677781   547498 
  477000     1.000927   -2.9368384   -2.9368384   -1.6686977  0.059060999   -2.9368384    1.2681408   547498 
  478000    1.0011174   -2.9379865   -2.9379865   -1.6696045    0.0639679   -2.9379865    1.2683819   547498 
  479000   0.99970805   -2.9358995   -2.9358995   -1.6693032  0.057825289   -2.9358995    1.2665964   547498 
  480000    1.0018288     -2.93917     -2.93917   -1.6698867  0.061435943     -2.93917    1.2692833   547498 
  481000    1.0009806   -2.9381472   -2.9381472   -1.6699385  0.056810048   -2.9381472    1.2682087   547498 
  482000    1.0016495   -2.9395437   -2.9395437   -1.6704876   0.06291036   -2.9395437    1.2690561   547498 
  483000    1.0019322   -2.9396074   -2.9396074   -1.6701931  0.063347823   -2.9396074    1.2694143   547498 
  484000    1.0005743   -2.9394817   -2.9394817   -1.6717878  0.070510306   -2.9394817    1.2676939   547498 
  485000    1.0003229   -2.9396887   -2.9396887   -1.6723133  0.062935308   -2.9396887    1.2673754   547498 
  486000     1.000397   -2.9393948   -2.9393948   -1.6719255  0.057911918   -2.9393948    1.2674693   547498 
  487000   0.99982188   -2.9383044   -2.9383044   -1.6715638  0.056675464   -2.9383044    1.2667406   547498 
  488000    1.0008307   -2.9392474   -2.9392474   -1.6712286  0.069089531   -2.9392474    1.2680188   547498 
  489000    1.0005793   -2.9396543   -2.9396543    -1.671954  0.053999929   -2.9396543    1.2677003   547498 
  490000    1.0006545   -2.9388508   -2.9388508   -1.6710553  0.047542303   -2.9388508    1.2677955   547498 
  491000   0.99947367   -2.9370066   -2.9370066   -1.6707071  0.064951651   -2.9370066    1.2662994   547498 
  492000   0.99972658    -2.937654    -2.937654   -1.6710342  0.057397613    -2.937654    1.2666199   547498 
  493000    1.0013197   -2.9394816   -2.9394816   -1.6708433  0.056293211   -2.9394816    1.2686383   547498 
  494000    1.0006134   -2.9378347   -2.9378347   -1.6700912   0.05704839   -2.9378347    1.2677435   547498 
  495000   0.99987156     -2.93739     -2.93739   -1.6705865  0.056766901     -2.93739    1.2668035   547498 
  496000    1.0003672   -2.9397225   -2.9397225   -1.6722911   0.05870028   -2.9397225    1.2674315   547498 
  497000    1.0008637    -2.940539    -2.940539   -1.6724785  0.052015394    -2.940539    1.2680605   547498 
  498000    1.0001166   -2.9393648   -2.9393648   -1.6722507  0.058630933   -2.9393648     1.267114   547498 
  499000    1.0014422   -2.9419432   -2.9419432   -1.6731497  0.057157296   -2.9419432    1.2687935   547498 
  500000    1.0007836   -2.9420615   -2.9420615   -1.6741024   0.06457084   -2.9420615    1.2679591   547498 
  501000    1.0019325   -2.9436529   -2.9436529   -1.6742382  0.055003878   -2.9436529    1.2694147   547498 
  502000    1.0015063   -2.9428201   -2.9428201   -1.6739454  0.057454181   -2.9428201    1.2688747   547498 
  503000    1.0013012     -2.94343     -2.94343   -1.6748152  0.056685955     -2.94343    1.2686148   547498 
  504000    1.0003735    -2.943589    -2.943589   -1.6761495  0.056656154    -2.943589    1.2674395   547498 
  505000    1.0012749   -2.9441518   -2.9441518   -1.6755702  0.054121262   -2.9441518    1.2685816   547498 
  506000    1.0006229   -2.9432604   -2.9432604   -1.6755049  0.047746742   -2.9432604    1.2677554   547498 
  507000    1.0000714   -2.9420149   -2.9420149   -1.6749582  0.060279749   -2.9420149    1.2670567   547498 
  508000   0.99912903   -2.9415797   -2.9415797   -1.6757169  0.059130307   -2.9415797    1.2658628   547498 
  509000    1.0014822   -2.9433485   -2.9433485   -1.6745043  0.061230416   -2.9433485    1.2688442   547498 
  510000    1.0017537   -2.9432312   -2.9432312   -1.6740431  0.051343926   -2.9432312    1.2691882   547498 
  511000    1.0017225   -2.9434048   -2.9434048   -1.6742561  0.063657779   -2.9434048    1.2691487   547498 
  512000    1.0001129   -2.9413924   -2.9413924    -1.674283  0.063334223   -2.9413924    1.2671094   547498 
  513000   0.99937601   -2.9410083   -2.9410083   -1.6748326  0.069707577   -2.9410083    1.2661757   547498 
  514000    1.0006409   -2.9429554   -2.9429554   -1.6751771  0.055083252   -2.9429554    1.2677783   547498 
  515000    1.0025895   -2.9455821   -2.9455821    -1.675335  0.060865343   -2.9455821    1.2702471   547498 
  516000    1.0003468   -2.9427228   -2.9427228   -1.6753171  0.059704022   -2.9427228    1.2674057   547498 
  517000    1.0005538   -2.9428663   -2.9428663   -1.6751984   0.06770948   -2.9428663    1.2676679   547498 
  518000    1.0006941   -2.9425146   -2.9425146    -1.674669  0.068889209   -2.9425146    1.2678457   547498 
  519000    1.0023026   -2.9449429   -2.9449429   -1.6750592  0.060677557   -2.9449429    1.2698836   547498 
  520000    1.0005911   -2.9422908   -2.9422908   -1.6745756  0.057460807   -2.9422908    1.2677151   547498 
  521000   0.99868805   -2.9397178   -2.9397178   -1.6744137  0.066546056   -2.9397178    1.2653041   547498 
  522000   0.99992274   -2.9420014   -2.9420014   -1.6751331  0.057669407   -2.9420014    1.2668684   547498 
  523000   0.99890773   -2.9408045   -2.9408045   -1.6752221  0.055888203   -2.9408045    1.2655824   547498 
  524000    1.0000175   -2.9416403   -2.9416403   -1.6746518  0.058812517   -2.9416403    1.2669884   547498 
  525000    1.0003282   -2.9419974   -2.9419974   -1.6746153  0.061893408   -2.9419974    1.2673821   547498 
  526000    0.9996007   -2.9407116   -2.9407116   -1.6742512  0.044821686   -2.9407116    1.2664604   547498 
  527000    1.0003564   -2.9425038   -2.9425038    -1.675086  0.063176762   -2.9425038    1.2674178   547498 
  528000    1.0009291   -2.9426793   -2.9426793    -1.674536  0.049378154   -2.9426793    1.2681434   547498 
  529000    1.0008237   -2.9422807   -2.9422807   -1.6742709  0.064213632   -2.9422807    1.2680098   547498 
  530000    1.0013707   -2.9443486   -2.9443486   -1.6756457  0.051530641   -2.9443486    1.2687029   547498 
  531000    0.9998952   -2.9421874   -2.9421874   -1.6753539  0.057654505   -2.9421874    1.2668335   547498 
  532000   0.99979657   -2.9426674   -2.9426674   -1.6759588  0.060769519   -2.9426674    1.2667085   547498 
  533000    1.0003082    -2.942549    -2.942549   -1.6751922  0.066868203    -2.942549    1.2673568   547498 
  534000   0.99946111    -2.941321    -2.941321   -1.6750375     0.058274    -2.941321    1.2662835   547498 
  535000    1.0011789   -2.9438431   -2.9438431   -1.6753832  0.069453435   -2.9438431    1.2684599   547498 
  536000    1.0009029   -2.9439508   -2.9439508   -1.6758405   0.06403378   -2.9439508    1.2681103   547498 
  537000    1.0008201   -2.9439287   -2.9439287   -1.6759234  0.060223724   -2.9439287    1.2680053   547498 
  538000   0.99964743   -2.9433702   -2.9433702   -1.6768506  0.058468103   -2.9433702    1.2665196   547498 
  539000   0.99994131   -2.9432765   -2.9432765   -1.6763846   0.05762946   -2.9432765    1.2668919   547498 
  540000   0.99980501   -2.9422013   -2.9422013   -1.6754821  0.058407387   -2.9422013    1.2667192   547498 
  541000   0.99861129    -2.940362    -2.940362   -1.6751551  0.050030274    -2.940362    1.2652068   547498 
  542000    0.9994649   -2.9418384   -2.9418384   -1.6755501  0.052188639   -2.9418384    1.2662883   547498 
  543000   0.99946731   -2.9415737   -2.9415737   -1.6752824  0.055015273   -2.9415737    1.2662914   547498 
  544000   0.99889495   -2.9411169   -2.9411169   -1.6755507  0.062035751   -2.9411169    1.2655662   547498 
  545000   0.99847944   -2.9404581   -2.9404581   -1.6754183  0.054171853   -2.9404581    1.2650398   547498 
  546000   0.99862113   -2.9394414   -2.9394414   -1.6742221  0.056643964   -2.9394414    1.2652193   547498 
  547000    0.9992019   -2.9396998   -2.9396998   -1.6737447  0.057809319   -2.9396998    1.2659551   547498 
  548000   0.99750057   -2.9374058   -2.9374058   -1.6736062  0.065941753   -2.9374058    1.2637996   547498 
  549000   0.99863997   -2.9392965   -2.9392965   -1.6740533  0.044791696   -2.9392965    1.2652432   547498 
  550000    1.0006757   -2.9411444   -2.9411444    -1.673322  0.060810068   -2.9411444    1.2678223   547498 
  551000   0.99993607   -2.9403327   -2.9403327   -1.6734475   0.06006479   -2.9403327    1.2668853   547498 
  552000    1.0020554   -2.9432638   -2.9432638   -1.6736934  0.059332013   -2.9432638    1.2695704   547498 
  553000    1.0008596   -2.9420285   -2.9420285   -1.6739732  0.065426011   -2.9420285    1.2680553   547498 
  554000    1.0004067   -2.9421012   -2.9421012   -1.6746197  0.059057579   -2.9421012    1.2674815   547498 
  555000    1.0004612   -2.9412019   -2.9412019   -1.6736514  0.063113979   -2.9412019    1.2675506   547498 
  556000    1.0005369   -2.9415585   -2.9415585    -1.673912  0.072473642   -2.9415585    1.2676465   547498 
  557000    1.0009923   -2.9423647   -2.9423647   -1.6741412  0.051384848   -2.9423647    1.2682235   547498 
  558000    1.0008441   -2.9424155   -2.9424155   -1.6743798  0.047745122   -2.9424155    1.2680357   547498 
  559000   0.99783719   -2.9383412   -2.9383412   -1.6741151  0.059371536   -2.9383412    1.2642261   547498 
  560000   0.99963902   -2.9401002   -2.9401002   -1.6735913   0.05544915   -2.9401002    1.2665089   547498 
  561000    1.0001789   -2.9407779   -2.9407779    -1.673585  0.057038864   -2.9407779    1.2671929   547498 
  562000   0.99979802     -2.93977     -2.93977   -1.6730596   0.06412208     -2.93977    1.2667104   547498 
  563000    1.0028046   -2.9426506   -2.9426506    -1.672131  0.057991832   -2.9426506    1.2705197   547498 
  564000    1.0006448   -2.9412506   -2.9412506   -1.6734674  0.054280302   -2.9412506    1.2677832   547498 
  565000    1.0008389   -2.9411935   -2.9411935   -1.6731643  0.061614928   -2.9411935    1.2680292   547498 
  566000    1.0016646    -2.942579    -2.942579   -1.6735037  0.058738349    -2.942579    1.2690753   547498 
  567000    1.0032626   -2.9444286   -2.9444286   -1.6733288  0.061538188   -2.9444286    1.2710999   547498 
  568000    1.0026681   -2.9431463   -2.9431463   -1.6727996  0.071317499   -2.9431463    1.2703467   547498 
  569000    1.0021945   -2.9431676   -2.9431676    -1.673421  0.069113197   -2.9431676    1.2697466   547498 
  570000    1.0019897   -2.9429192   -2.9429192   -1.6734321  0.063152862   -2.9429192    1.2694872   547498 
  571000    1.0022645   -2.9437417   -2.9437417   -1.6739064  0.061228756   -2.9437417    1.2698353   547498 
  572000    1.0019647    -2.942937    -2.942937   -1.6734816  0.063528763    -2.942937    1.2694554   547498 
  573000    1.0028567   -2.9436731   -2.9436731   -1.6730875  0.063324065   -2.9436731    1.2705856   547498 
  574000    1.0015612   -2.9427105   -2.9427105   -1.6737663  0.049813309   -2.9427105    1.2689442   547498 
  575000    1.0013793   -2.9418092   -2.9418092   -1.6730954  0.060590205   -2.9418092    1.2687139   547498 
  576000   0.99988499   -2.9421082   -2.9421082   -1.6752877  0.056595318   -2.9421082    1.2668206   547498 
  577000   0.99999841   -2.9408337   -2.9408337   -1.6738694  0.060850663   -2.9408337    1.2669643   547498 
  578000    1.0004509    -2.941685    -2.941685   -1.6741475  0.053347236    -2.941685    1.2675375   547498 
  579000    1.0005926   -2.9416185   -2.9416185   -1.6739014  0.059065549   -2.9416185    1.2677171   547498 
  580000    1.0011039   -2.9421116   -2.9421116   -1.6737467  0.055942935   -2.9421116    1.2683649   547498 
  581000    1.0003581   -2.9415314   -2.9415314   -1.6741115  0.059225073   -2.9415314    1.2674199   547498 
  582000    1.0004824   -2.9426807   -2.9426807   -1.6751032  0.065058825   -2.9426807    1.2675774   547498 
  583000    1.0003773    -2.941833    -2.941833   -1.6743887  0.052370483    -2.941833    1.2674443   547498 
  584000   0.99993125   -2.9409471   -2.9409471    -1.674068  0.063854234   -2.9409471    1.2668792   547498 
  585000   0.99987551   -2.9422053   -2.9422053   -1.6753967  0.053431788   -2.9422053    1.2668085   547498 
  586000    1.0000429   -2.9429124   -2.9429124   -1.6758918  0.056816434   -2.9429124    1.2670206   547498 
  587000    1.0024753   -2.9452418   -2.9452418   -1.6751394    0.0562326   -2.9452418    1.2701024   547498 
  588000    1.0020741   -2.9442731   -2.9442731    -1.674679  0.060516885   -2.9442731     1.269594   547498 
  589000    1.0013627   -2.9446746   -2.9446746   -1.6759818  0.062095918   -2.9446746    1.2686928   547498 
  590000    1.0027302   -2.9474241   -2.9474241   -1.6769988  0.067051058   -2.9474241    1.2704253   547498 
  591000    1.0017927   -2.9460531   -2.9460531   -1.6768156  0.054676489   -2.9460531    1.2692375   547498 
  592000    1.0032543   -2.9480498   -2.9480498   -1.6769605  0.062290946   -2.9480498    1.2710893   547498 
  593000    1.0009759   -2.9447769   -2.9447769   -1.6765743  0.065023524   -2.9447769    1.2682026   547498 
  594000    1.0016258   -2.9455976   -2.9455976   -1.6765715  0.060494084   -2.9455976    1.2690261   547498 
  595000    1.0018215   -2.9445127   -2.9445127   -1.6752387   0.06658614   -2.9445127     1.269274   547498 
  596000    1.0004966   -2.9426055   -2.9426055   -1.6750101  0.055351622   -2.9426055    1.2675954   547498 
  597000    1.0027841   -2.9455314   -2.9455314   -1.6750377  0.068128526   -2.9455314    1.2704937   547498 
  598000    1.0016024    -2.944544    -2.944544   -1.6755475  0.061203869    -2.944544    1.2689965   547498 
  599000    1.0003058   -2.9420092   -2.9420092   -1.6746556  0.056643616   -2.9420092    1.2673537   547498 
  600000    1.0003483   -2.9414841   -2.9414841   -1.6740766  0.051591927   -2.9414841    1.2674076   547498 
  601000    1.0010535   -2.9424726   -2.9424726   -1.6741715  0.058072949   -2.9424726     1.268301   547498 
  602000    1.0006193   -2.9419157   -2.9419157   -1.6741648  0.051299743   -2.9419157    1.2677509   547498 
  603000     1.000323   -2.9415271   -2.9415271   -1.6741515  0.049395355   -2.9415271    1.2673755   547498 
  604000    1.0020863   -2.9438515   -2.9438515   -1.6742419  0.061678952   -2.9438515    1.2696096   547498 
  605000    1.0008583   -2.9427952   -2.9427952   -1.6747415  0.059893016   -2.9427952    1.2680537   547498 
  606000   0.99949183   -2.9418604   -2.9418604   -1.6755379   0.06672249   -2.9418604    1.2663224   547498 
  607000    1.0006171   -2.9436507   -2.9436507   -1.6759026  0.059538153   -2.9436507    1.2677481   547498 
  608000   0.99964485   -2.9422033   -2.9422033    -1.675687  0.061545673   -2.9422033    1.2665163   547498 
  609000    1.0011262   -2.9446926   -2.9446926   -1.6762995  0.064908947   -2.9446926    1.2683931   547498 
  610000    1.0012225   -2.9445845   -2.9445845   -1.6760693  0.068286594   -2.9445845    1.2685152   547498 
  611000    1.0007699    -2.943973    -2.943973   -1.6760313  0.056984243    -2.943973    1.2679417   547498 
  612000    1.0004236   -2.9433918   -2.9433918   -1.6758888  0.059591142   -2.9433918     1.267503   547498 
  613000   0.99969899   -2.9436758   -2.9436758   -1.6770909  0.069957857   -2.9436758    1.2665849   547498 
  614000   0.99887725   -2.9428779   -2.9428779   -1.6773341  0.069890324   -2.9428779    1.2655438   547498 
  615000    1.0004519   -2.9446578   -2.9446578   -1.6771191  0.065065512   -2.9446578    1.2675388   547498 
  616000   0.99984203   -2.9437192   -2.9437192    -1.676953  0.053666646   -2.9437192    1.2667661   547498 
  617000     1.000613   -2.9451056   -2.9451056   -1.6773626  0.059305823   -2.9451056     1.267743   547498 
  618000    1.0009654   -2.9457596   -2.9457596   -1.6775702  0.058105314   -2.9457596    1.2681894   547498 
  619000    1.0003144   -2.9449277   -2.9449277   -1.6775631  0.061543859   -2.9449277    1.2673646   547498 
  620000    1.0013002   -2.9463414   -2.9463414   -1.6777278  0.063803622   -2.9463414    1.2686136   547498 
  621000    1.0035329   -2.9497624   -2.9497624   -1.6783201   0.06260683   -2.9497624    1.2714423   547498 
  622000    1.0024265   -2.9486377   -2.9486377   -1.6785972  0.060070798   -2.9486377    1.2700405   547498 
  623000    1.0012247   -2.9463121   -2.9463121   -1.6777942  0.063022547   -2.9463121    1.2685179   547498 
  624000    1.0004453   -2.9457061   -2.9457061   -1.6781756  0.061406909   -2.9457061    1.2675305   547498 
  625000    1.0020309   -2.9472621   -2.9472621   -1.6777228  0.052785849   -2.9472621    1.2695393   547498 
  626000    1.0005268   -2.9443142   -2.9443142   -1.6766804  0.059488945   -2.9443142    1.2676338   547498 
  627000    1.0005098   -2.9444177   -2.9444177   -1.6768056  0.061950659   -2.9444177    1.2676121   547498 
  628000   0.99933047   -2.9446115   -2.9446115   -1.6784935  0.055621906   -2.9446115     1.266118   547498 
  629000    1.0009364   -2.9456928   -2.9456928   -1.6775402  0.057653505   -2.9456928    1.2681526   547498 
  630000     1.000819   -2.9450853   -2.9450853   -1.6770814  0.059985134   -2.9450853     1.268004   547498 
  631000     1.001816    -2.945583    -2.945583    -1.676316  0.057243123    -2.945583     1.269267   547498 
  632000     1.001328   -2.9445817   -2.9445817   -1.6759329  0.064843986   -2.9445817    1.2686488   547498 
  633000    1.0013743   -2.9447677   -2.9447677   -1.6760603   0.05548862   -2.9447677    1.2687074   547498 
  634000    1.0003418   -2.9439827   -2.9439827   -1.6765834  0.068151094   -2.9439827    1.2673993   547498 
  635000    1.0000341   -2.9432645   -2.9432645   -1.6762551  0.061776588   -2.9432645    1.2670095   547498 
  636000    1.0006463   -2.9449261   -2.9449261   -1.6771409  0.065379037   -2.9449261    1.2677851   547498 
  637000    1.0017846   -2.9464288   -2.9464288   -1.6772016  0.061164309   -2.9464288    1.2692273   547498 
  638000    1.0011699   -2.9458744   -2.9458744   -1.6774259  0.051028893   -2.9458744    1.2684485   547498 
  639000     1.000719   -2.9458849   -2.9458849   -1.6780076  0.063563469   -2.9458849    1.2678772   547498 
  640000    1.0005737   -2.9452672   -2.9452672   -1.6775741  0.058522862   -2.9452672    1.2676931   547498 
  641000    1.0010712   -2.9462971   -2.9462971   -1.6779736  0.055913904   -2.9462971    1.2683235   547498 
  642000    1.0006266   -2.9456822   -2.9456822   -1.6779221  0.058553818   -2.9456822    1.2677601   547498 
  643000    1.0001284   -2.9454708   -2.9454708   -1.6783418  0.051275339   -2.9454708     1.267129   547498 
  644000   0.99988938   -2.9453467   -2.9453467   -1.6785206  0.057335839   -2.9453467    1.2668261   547498 
  645000    1.0003033   -2.9459132   -2.9459132   -1.6785627  0.057143806   -2.9459132    1.2673505   547498 
  646000   0.99912461   -2.9444309   -2.9444309   -1.6785737  0.054400723   -2.9444309    1.2658572   547498 
  647000   0.99979517   -2.9445512   -2.9445512   -1.6778445  0.066304476   -2.9445512    1.2667068   547498 
  648000    1.0001699   -2.9447243   -2.9447243   -1.6775428  0.063379725   -2.9447243    1.2671815   547498 
  649000    1.0003836   -2.9452765   -2.9452765   -1.6778242  0.065893011   -2.9452765    1.2674523   547498 
  650000    1.0002838   -2.9449639   -2.9449639    -1.677638  0.058987377   -2.9449639    1.2673258   547498 
  651000   0.99976887   -2.9446696   -2.9446696   -1.6779962  0.069526025   -2.9446696    1.2666734   547498 
  652000   0.99987905   -2.9443377   -2.9443377   -1.6775247    0.0649416   -2.9443377     1.266813   547498 
  653000    1.0023279   -2.9470761   -2.9470761   -1.6771605  0.061274124   -2.9470761    1.2699156   547498 
  654000    1.0018177    -2.946682    -2.946682   -1.6774128  0.065464364    -2.946682    1.2692692   547498 
  655000    1.0004134   -2.9454183   -2.9454183   -1.6779282   0.06201571   -2.9454183    1.2674901   547498 
  656000    1.0001222    -2.945609    -2.945609    -1.678488  0.051422365    -2.945609     1.267121   547498 
  657000    1.0005501   -2.9460349   -2.9460349   -1.6783717  0.055721113   -2.9460349    1.2676632   547498 
  658000   0.99905729   -2.9449785   -2.9449785   -1.6792066  0.050917732   -2.9449785    1.2657719   547498 
  659000    1.0001515   -2.9464026   -2.9464026   -1.6792444  0.057262733   -2.9464026    1.2671582   547498 
  660000    0.9986602   -2.9460291   -2.9460291   -1.6807603  0.057933401   -2.9460291    1.2652688   547498 
  661000   0.99993057   -2.9468627   -2.9468627   -1.6799844  0.063730664   -2.9468627    1.2668783   547498 
  662000   0.99789192   -2.9445516   -2.9445516   -1.6802562  0.049964777   -2.9445516    1.2642954   547498 
  663000   0.99929071   -2.9458672   -2.9458672   -1.6797995  0.062349496   -2.9458672    1.2660676   547498 
  664000   0.99941105   -2.9463735   -2.9463735   -1.6801535  0.053434851   -2.9463735    1.2662201   547498 
  665000   0.99853842   -2.9456577   -2.9456577   -1.6805432  0.053295774   -2.9456577    1.2651145   547498 
  666000    1.0004251   -2.9484507   -2.9484507   -1.6809459  0.049270725   -2.9484507    1.2675048   547498 
  667000   0.99945488   -2.9469038   -2.9469038   -1.6806282  0.058929648   -2.9469038    1.2662756   547498 
  668000    1.0001947   -2.9478629   -2.9478629     -1.68065  0.058550275   -2.9478629    1.2672129   547498 
  669000    1.0013355   -2.9489843   -2.9489843    -1.680326  0.065219282   -2.9489843    1.2686583   547498 
  670000    1.0004022   -2.9473804   -2.9473804   -1.6799045   0.05592638   -2.9473804    1.2674759   547498 
  671000    1.0005406   -2.9473061   -2.9473061   -1.6796549  0.056187194   -2.9473061    1.2676512   547498 
  672000   0.99944355    -2.946307    -2.946307   -1.6800458  0.061443908    -2.946307    1.2662613   547498 
  673000    1.0009006   -2.9473436   -2.9473436   -1.6792363  0.067487101   -2.9473436    1.2681073   547498 
  674000    1.0017787   -2.9481577   -2.9481577   -1.6789379  0.058502869   -2.9481577    1.2692198   547498 
  675000    1.0008479   -2.9471271   -2.9471271   -1.6790866  0.066762376   -2.9471271    1.2680405   547498 
  676000    1.0008688   -2.9470857   -2.9470857   -1.6790187  0.062472457   -2.9470857     1.268067   547498 
  677000   0.99993147   -2.9459396   -2.9459396   -1.6790602  0.059950667   -2.9459396    1.2668794   547498 
  678000    1.0006334   -2.9465612   -2.9465612   -1.6787924  0.053442682   -2.9465612    1.2677688   547498 
  679000   0.99988745   -2.9452307   -2.9452307    -1.678407  0.060607627   -2.9452307    1.2668237   547498 
  680000   0.99992044   -2.9452942   -2.9452942   -1.6784287  0.059700445   -2.9452942    1.2668655   547498 
  681000   0.99917982   -2.9449665   -2.9449665   -1.6790393  0.054810371   -2.9449665    1.2659271   547498 
  682000    1.0004867   -2.9457334   -2.9457334   -1.6781505  0.074335305   -2.9457334     1.267583   547498 
  683000    1.0026395   -2.9485162   -2.9485162   -1.6782058  0.057331626   -2.9485162    1.2703104   547498 
  684000    1.0011211   -2.9472062   -2.9472062   -1.6788195  0.060535278   -2.9472062    1.2683867   547498 
  685000    0.9994756   -2.9451057   -2.9451057   -1.6788039  0.057710075   -2.9451057    1.2663019   547498 
  686000    1.0013156    -2.946827    -2.946827   -1.6781939  0.064306391    -2.946827    1.2686331   547498 
  687000    0.9996204   -2.9454602   -2.9454602   -1.6789748  0.055751919   -2.9454602    1.2664853   547498 
  688000   0.99963886   -2.9451613   -2.9451613   -1.6786526  0.063483467   -2.9451613    1.2665087   547498 
  689000   0.99978236    -2.945896    -2.945896   -1.6792054  0.051751137    -2.945896    1.2666905   547498 
  690000    1.0002003   -2.9453483   -2.9453483   -1.6781283  0.053212563   -2.9453483      1.26722   547498 
  691000    1.0015836   -2.9477449   -2.9477449   -1.6787723  0.066650064   -2.9477449    1.2689726   547498 
  692000    1.0005942   -2.9464507   -2.9464507   -1.6787316   0.06198007   -2.9464507    1.2677191   547498 
  693000   0.99996607   -2.9456504   -2.9456504   -1.6787271  0.059253818   -2.9456504    1.2669233   547498 
  694000   0.99907517   -2.9446034   -2.9446034   -1.6788088  0.061037309   -2.9446034    1.2657945   547498 
  695000   0.99951355   -2.9459436   -2.9459436   -1.6795936  0.058154295   -2.9459436      1.26635   547498 
  696000    1.0011577   -2.9473216   -2.9473216   -1.6788886  0.065580599   -2.9473216    1.2684331   547498 
  697000   0.99931229   -2.9452467   -2.9452467   -1.6791518  0.064015118   -2.9452467     1.266095   547498 
  698000   0.99717056    -2.943051    -2.943051   -1.6796696  0.063134896    -2.943051    1.2633815   547498 
  699000   0.99858008   -2.9445048   -2.9445048   -1.6793375  0.056898088   -2.9445048    1.2651673   547498 
  700000   0.99924941   -2.9445497   -2.9445497   -1.6785344  0.064772454   -2.9445497    1.2660153   547498 
  701000    1.0006964    -2.945532    -2.945532   -1.6776834  0.055730848    -2.945532    1.2678486   547498 
  702000   0.99878695   -2.9448911   -2.9448911   -1.6794617   0.04848811   -2.9448911    1.2654294   547498 
  703000   0.99888309   -2.9455123   -2.9455123   -1.6799611  0.054525848   -2.9455123    1.2655512   547498 
  704000   0.99982925   -2.9471558   -2.9471558   -1.6804058  0.064067081   -2.9471558    1.2667499   547498 
  705000    1.0005347   -2.9483776   -2.9483776   -1.6807339  0.066299004   -2.9483776    1.2676437   547498 
  706000    1.0003394   -2.9489419   -2.9489419   -1.6815455  0.060859987   -2.9489419    1.2673963   547498 
  707000    1.0016427   -2.9520471   -2.9520471   -1.6829997  0.056430924   -2.9520471    1.2690475   547498 
  708000    1.0015382   -2.9520218   -2.9520218   -1.6831066  0.066443944   -2.9520218    1.2689152   547498 
  709000    1.0005452   -2.9511259   -2.9511259   -1.6834689  0.062768547   -2.9511259     1.267657   547498 
  710000    1.0029288   -2.9531039   -2.9531039    -1.682427  0.066576054   -2.9531039    1.2706769   547498 
  711000    1.0009229     -2.95116     -2.95116   -1.6830244  0.061271922     -2.95116    1.2681356   547498 
  712000    0.9996233   -2.9490338   -2.9490338   -1.6825448  0.057660926   -2.9490338     1.266489   547498 
  713000   0.99979602   -2.9492861   -2.9492861   -1.6825782  0.061282905   -2.9492861    1.2667078   547498 
  714000    1.0003741   -2.9495891   -2.9495891   -1.6821489  0.057101323   -2.9495891    1.2674402   547498 
  715000   0.99874826   -2.9490257   -2.9490257   -1.6836453  0.052701215   -2.9490257    1.2653804   547498 
  716000   0.99901598    -2.949279    -2.949279   -1.6835595  0.052947325    -2.949279    1.2657196   547498 
  717000    0.9981351   -2.9478998   -2.9478998   -1.6832963  0.059414216   -2.9478998    1.2646035   547498 
  718000   0.99927185   -2.9501928   -2.9501928   -1.6841491  0.051095784   -2.9501928    1.2660437   547498 
  719000    1.0012735   -2.9529747   -2.9529747   -1.6843949  0.048930949   -2.9529747    1.2685798   547498 
  720000   0.99899771   -2.9506765   -2.9506765     -1.68498  0.063456904   -2.9506765    1.2656964   547498 
  721000   0.99896075   -2.9504733   -2.9504733   -1.6848237  0.056345192   -2.9504733    1.2656496   547498 
  722000    0.9994103   -2.9514717   -2.9514717   -1.6852526  0.057615137   -2.9514717    1.2662191   547498 
  723000    0.9987272   -2.9507613   -2.9507613   -1.6854076  0.052270502   -2.9507613    1.2653537   547498 
  724000   0.99956918   -2.9515364   -2.9515364    -1.685116   0.05395079   -2.9515364    1.2664204   547498 
  725000   0.99965031   -2.9515401   -2.9515401   -1.6850169  0.058936528   -2.9515401    1.2665232   547498 
  726000   0.99905877   -2.9500805   -2.9500805   -1.6843068   0.06912983   -2.9500805    1.2657738   547498 
  727000   0.99966055   -2.9504944   -2.9504944   -1.6839582  0.063392317   -2.9504944    1.2665362   547498 
  728000   0.99921036   -2.9492092   -2.9492092   -1.6832433  0.053139859   -2.9492092    1.2659658   547498 
  729000    1.0002044   -2.9490789   -2.9490789   -1.6818537  0.059066454   -2.9490789    1.2672252   547498 
  730000   0.99862756   -2.9481081   -2.9481081   -1.6828807  0.062972489   -2.9481081    1.2652274   547498 
  731000    0.9989841   -2.9488556   -2.9488556   -1.6831764  0.055840277   -2.9488556    1.2656792   547498 
  732000   0.99866402   -2.9487768   -2.9487768   -1.6835032  0.052673537   -2.9487768    1.2652736   547498 
  733000   0.99919892   -2.9486003   -2.9486003   -1.6826489  0.064095551   -2.9486003    1.2659513   547498 
  734000   0.99925428   -2.9481281   -2.9481281   -1.6821067  0.060391948   -2.9481281    1.2660215   547498 
  735000   0.99898766   -2.9483303   -2.9483303   -1.6826466  0.053178964   -2.9483303    1.2656837   547498 
  736000   0.99883081   -2.9496605   -2.9496605   -1.6841755  0.052851711   -2.9496605     1.265485   547498 
  737000   0.99750834   -2.9481061   -2.9481061   -1.6842967  0.064559789   -2.9481061    1.2638094   547498 
  738000   0.99919167   -2.9515214   -2.9515214   -1.6855793  0.062511155   -2.9515214    1.2659421   547498 
  739000   0.99929797   -2.9516633   -2.9516633   -1.6855865  0.060728467   -2.9516633    1.2660768   547498 
  740000    1.0006044   -2.9530776   -2.9530776   -1.6853455  0.066007424   -2.9530776    1.2677321   547498 
  741000    0.9995899   -2.9520777   -2.9520777    -1.685631  0.057733502   -2.9520777    1.2664467   547498 
  742000    1.0003908   -2.9526267   -2.9526267   -1.6851653  0.057849461   -2.9526267    1.2674614   547498 
  743000     1.000151   -2.9529161   -2.9529161   -1.6857586  0.065873328   -2.9529161    1.2671575   547498 
  744000   0.99908924   -2.9537341   -2.9537341   -1.6879217  0.057130236   -2.9537341    1.2658124   547498 
  745000   0.99923751   -2.9536919   -2.9536919   -1.6876917   0.06603419   -2.9536919    1.2660002   547498 
  746000    1.0002992   -2.9548345   -2.9548345   -1.6874892  0.061951475   -2.9548345    1.2673454   547498 
  747000   0.99955889   -2.9536032   -2.9536032   -1.6871958  0.059055613   -2.9536032    1.2664074   547498 
  748000   0.99828905   -2.9518827   -2.9518827   -1.6870842   0.06214076   -2.9518827    1.2647986   547498 
  749000   0.99811834   -2.9514046   -2.9514046   -1.6868223  0.062147722   -2.9514046    1.2645823   547498 
  750000    0.9974365   -2.9502895   -2.9502895   -1.6865711  0.052690739   -2.9502895    1.2637184   547498 
  751000    1.0002813   -2.9534778   -2.9534778   -1.6861552  0.058792029   -2.9534778    1.2673226   547498 
  752000    0.9987002   -2.9507667   -2.9507667   -1.6854472  0.067327158   -2.9507667    1.2653195   547498 
  753000   0.99879175   -2.9521448   -2.9521448   -1.6867093  0.061266755   -2.9521448    1.2654355   547498 
  754000   0.99936835   -2.9524914   -2.9524914   -1.6863254  0.053415055   -2.9524914     1.266166   547498 
  755000   0.99874265   -2.9503077   -2.9503077   -1.6849345  0.058987482   -2.9503077    1.2653732   547498 
  756000    0.9995974   -2.9521465   -2.9521465   -1.6856903  0.049747753   -2.9521465    1.2664562   547498 
  757000   0.99996992   -2.9521031   -2.9521031    -1.685175  0.059289904   -2.9521031    1.2669282   547498 
  758000    1.0006779   -2.9524408   -2.9524408   -1.6846156  0.050699691   -2.9524408    1.2678252   547498 
  759000    1.0002292   -2.9520952   -2.9520952   -1.6848385  0.048457795   -2.9520952    1.2672567   547498 
  760000   0.99974209   -2.9516413   -2.9516413   -1.6850018  0.057913828   -2.9516413    1.2666395   547498 
  761000    1.0000533   -2.9519287   -2.9519287   -1.6848949  0.057215223   -2.9519287    1.2670338   547498 
  762000    1.0022958   -2.9544352   -2.9544352   -1.6845602  0.062158327   -2.9544352     1.269875   547498 
  763000   0.99982071   -2.9510313   -2.9510313   -1.6842922  0.054111334   -2.9510313    1.2667391   547498 
  764000   0.99808558    -2.949313    -2.949313   -1.6847722  0.053259517    -2.949313    1.2645408   547498 
  765000   0.99841975   -2.9496819   -2.9496819   -1.6847177  0.048584771   -2.9496819    1.2649641   547498 
  766000   0.99835594   -2.9499395   -2.9499395   -1.6850562  0.066147143   -2.9499395    1.2648833   547498 
  767000   0.99636259   -2.9484213   -2.9484213   -1.6860635  0.052774982   -2.9484213    1.2623578   547498 
  768000   0.99903975   -2.9506454   -2.9506454   -1.6848958  0.053502238   -2.9506454    1.2657497   547498 
  769000   0.99831332   -2.9499488   -2.9499488   -1.6851195  0.055796928   -2.9499488    1.2648293   547498 
  770000   0.99737945   -2.9486961   -2.9486961     -1.68505  0.054426452   -2.9486961    1.2636461   547498 
  771000     0.998882   -2.9497756   -2.9497756   -1.6842258  0.055401892   -2.9497756    1.2655498   547498 
  772000    0.9992082   -2.9504417   -2.9504417   -1.6844786  0.069746284   -2.9504417    1.2659631   547498 
  773000   0.99943397   -2.9503674   -2.9503674   -1.6841183  0.051756951   -2.9503674    1.2662491   547498 
  774000    0.9995265   -2.9511632   -2.9511632   -1.6847968  0.058843252   -2.9511632    1.2663664   547498 
  775000   0.99909565   -2.9507501   -2.9507501   -1.6849296  0.059698159   -2.9507501    1.2658205   547498 
  776000   0.99900514   -2.9501205   -2.9501205   -1.6844147  0.054448815   -2.9501205    1.2657058   547498 
  777000   0.99863507   -2.9495963   -2.9495963   -1.6843594  0.059976677   -2.9495963     1.265237   547498 
  778000    1.0007674   -2.9529425   -2.9529425   -1.6850039  0.057445321   -2.9529425    1.2679385   547498 
  779000   0.99880864   -2.9508007   -2.9508007   -1.6853438  0.063499947   -2.9508007    1.2654569   547498 
  780000   0.99888645    -2.950885    -2.950885   -1.6853296  0.064015445    -2.950885    1.2655554   547498 
  781000   0.99811117   -2.9501854   -2.9501854   -1.6856122  0.052557729   -2.9501854    1.2645732   547498 
  782000    0.9993573   -2.9510241   -2.9510241   -1.6848721  0.052354822   -2.9510241     1.266152   547498 
  783000      0.99936   -2.9510061   -2.9510061   -1.6848507  0.050943955   -2.9510061    1.2661554   547498 
  784000   0.99876629   -2.9501422   -2.9501422    -1.684739  0.056952923   -2.9501422    1.2654032   547498 
  785000    0.9997439   -2.9515308   -2.9515308    -1.684889  0.054176362   -2.9515308    1.2666418   547498 
  786000   0.99971759    -2.951456    -2.951456   -1.6848476  0.067776472    -2.951456    1.2666085   547498 
  787000   0.99952409   -2.9505489   -2.9505489   -1.6841856  0.065207472   -2.9505489    1.2663633   547498 
  788000    1.0004053   -2.9514546   -2.9514546   -1.6839748  0.053169372   -2.9514546    1.2674797   547498 
  789000   0.99875227   -2.9495919   -2.9495919   -1.6842065  0.070448468   -2.9495919    1.2653854   547498 
  790000    1.0010297   -2.9521969   -2.9521969    -1.683926   0.05980595   -2.9521969    1.2682709   547498 
  791000       1.0007   -2.9519936   -2.9519936   -1.6841404  0.052653071   -2.9519936    1.2678532   547498 
  792000   0.99967922   -2.9513485   -2.9513485   -1.6847887  0.055584411   -2.9513485    1.2665599   547498 
  793000   0.99973772   -2.9514406   -2.9514406   -1.6848066  0.066512641   -2.9514406     1.266634   547498 
  794000   0.99885133   -2.9512059   -2.9512059    -1.685695  0.062577483   -2.9512059    1.2655109   547498 
  795000   0.99858955   -2.9502078   -2.9502078   -1.6850285   0.05028218   -2.9502078    1.2651793   547498 
  796000   0.99853146   -2.9501417   -2.9501417    -1.685036  0.064179731   -2.9501417    1.2651057   547498 
  797000   0.99821371   -2.9501074   -2.9501074   -1.6854043  0.055158462   -2.9501074    1.2647031   547498 
  798000    1.0008835   -2.9521585   -2.9521585   -1.6840728  0.056439306   -2.9521585    1.2680856   547498 
  799000   0.99973381    -2.951863    -2.951863    -1.685234  0.058685821    -2.951863     1.266629   547498 
  800000    1.0009708    -2.952868    -2.952868   -1.6846718   0.05549795    -2.952868    1.2681962   547498 
  801000    1.0016003   -2.9542783   -2.9542783   -1.6852844  0.065382304   -2.9542783    1.2689939   547498 
  802000   0.99883673    -2.951453    -2.951453   -1.6859605  0.062174362    -2.951453    1.2654924   547498 
  803000    1.0002337   -2.9534522   -2.9534522   -1.6861899  0.058359798   -2.9534522    1.2672623   547498 
  804000   0.99914627   -2.9522247   -2.9522247   -1.6863401  0.067816413   -2.9522247    1.2658846   547498 
  805000    1.0000966   -2.9541223   -2.9541223   -1.6870335  0.055821696   -2.9541223    1.2670887   547498 
  806000     1.001032   -2.9541659   -2.9541659   -1.6858921   0.06143891   -2.9541659    1.2682738   547498 
  807000    1.0001096   -2.9537553   -2.9537553   -1.6866501  0.054983113   -2.9537553    1.2671051   547498 
  808000   0.99966932   -2.9523048   -2.9523048   -1.6857575  0.056465982   -2.9523048    1.2665473   547498 
  809000   0.99955054   -2.9519475   -2.9519475   -1.6855506  0.062464425   -2.9519475    1.2663968   547498 
  810000     1.000578   -2.9528096   -2.9528096   -1.6851111   0.06071467   -2.9528096    1.2676986   547498 
  811000    1.0004178   -2.9530345   -2.9530345   -1.6855389  0.062756011   -2.9530345    1.2674956   547498 
  812000   0.99849313   -2.9512588   -2.9512588   -1.6862017  0.057975083   -2.9512588    1.2650571   547498 
  813000   0.99804048   -2.9499431   -2.9499431   -1.6854595   0.06149743   -2.9499431    1.2644836   547498 
  814000    1.0000099   -2.9524705   -2.9524705   -1.6854917   0.06129357   -2.9524705    1.2669789   547498 
  815000   0.99874691   -2.9512202   -2.9512202   -1.6858415  0.064959938   -2.9512202    1.2653787   547498 
  816000   0.99973977   -2.9530022   -2.9530022   -1.6863657  0.054784455   -2.9530022    1.2666366   547498 
  817000   0.99983334    -2.953671    -2.953671   -1.6869159  0.063377782    -2.953671    1.2667551   547498 
  818000    0.9988646   -2.9539679   -2.9539679   -1.6884402  0.064431656   -2.9539679    1.2655278   547498 
  819000   0.99741477   -2.9525148   -2.9525148   -1.6888239  0.056164255   -2.9525148    1.2636909   547498 
  820000   0.99901062   -2.9542686   -2.9542686   -1.6885558   0.05923319   -2.9542686    1.2657128   547498 
  821000   0.99954103   -2.9558551   -2.9558551   -1.6894703  0.058955302   -2.9558551    1.2663848   547498 
  822000   0.99992247   -2.9559492   -2.9559492   -1.6890811  0.059851756   -2.9559492     1.266868   547498 
  823000   0.99976599   -2.9551648   -2.9551648    -1.688495  0.056319249   -2.9551648    1.2666698   547498 
  824000    1.0008451   -2.9569042   -2.9569042   -1.6888672  0.055659437   -2.9569042     1.268037   547498 
  825000   0.99983884   -2.9558359   -2.9558359   -1.6890738  0.054553262   -2.9558359    1.2667621   547498 
  826000   0.99933144   -2.9554046   -2.9554046   -1.6892854  0.049062662   -2.9554046    1.2661192   547498 
  827000    0.9992061   -2.9543382   -2.9543382   -1.6883778  0.058260359   -2.9543382    1.2659604   547498 
  828000    1.0002081   -2.9548349   -2.9548349    -1.687605  0.061802359   -2.9548349    1.2672299   547498 
  829000    1.0006873   -2.9548627   -2.9548627   -1.6870256   0.06015681   -2.9548627    1.2678371   547498 
  830000    1.0011882   -2.9563749   -2.9563749   -1.6879032  0.055994603   -2.9563749    1.2684717   547498 
  831000    1.0008847   -2.9561808   -2.9561808   -1.6880936  0.056798092   -2.9561808    1.2680871   547498 
  832000    1.0003414    -2.955619    -2.955619   -1.6882202  0.062360892    -2.955619    1.2673988   547498 
  833000    1.0014818   -2.9576481   -2.9576481   -1.6888045  0.054647927   -2.9576481    1.2688436   547498 
  834000    1.0007429   -2.9561659   -2.9561659   -1.6882584  0.055081573   -2.9561659    1.2679075   547498 
  835000   0.99887271   -2.9542581   -2.9542581   -1.6887201  0.066534978   -2.9542581     1.265538   547498 
  836000    1.0026706    -2.957752    -2.957752   -1.6874022  0.065861477    -2.957752    1.2703498   547498 
  837000    1.0000522   -2.9548004   -2.9548004    -1.687768  0.066555265   -2.9548004    1.2670324   547498 
  838000    1.0015304   -2.9556117   -2.9556117   -1.6867065   0.06427045   -2.9556117    1.2689052   547498 
  839000   0.99795059   -2.9528165   -2.9528165   -1.6884468  0.058155584   -2.9528165    1.2643697   547498 
  840000    1.0009587   -2.9563951   -2.9563951   -1.6882141  0.059100938   -2.9563951     1.268181   547498 
  841000   0.99987586   -2.9547755   -2.9547755   -1.6879665  0.065458449   -2.9547755     1.266809   547498 
  842000   0.99992197   -2.9538894   -2.9538894    -1.687022  0.060221815   -2.9538894    1.2668674   547498 
  843000   0.99957829   -2.9543487   -2.9543487   -1.6879167  0.063002793   -2.9543487     1.266432   547498 
  844000   0.99966155   -2.9533799   -2.9533799   -1.6868425  0.065749958   -2.9533799    1.2665375   547498 
  845000   0.99960694   -2.9535418   -2.9535418   -1.6870735  0.053883429   -2.9535418    1.2664683   547498 
  846000   0.99963063   -2.9528981   -2.9528981   -1.6863998  0.057747446   -2.9528981    1.2664983   547498 
  847000    1.0006677   -2.9543702   -2.9543702    -1.686558  0.060322893   -2.9543702    1.2678123   547498 
  848000    1.0006211   -2.9539634   -2.9539634   -1.6862103  0.054357376   -2.9539634    1.2677531   547498 
  849000   0.99898823   -2.9518427   -2.9518427   -1.6861583   0.05256268   -2.9518427    1.2656844   547498 
  850000   0.99960497   -2.9534018   -2.9534018   -1.6869361  0.055878644   -2.9534018    1.2664658   547498 
  851000    1.0003097   -2.9546065   -2.9546065   -1.6872478  0.056044826   -2.9546065    1.2673587   547498 
  852000    1.0007477   -2.9552369   -2.9552369   -1.6873233  0.065077721   -2.9552369    1.2679136   547498 
  853000   0.99826245   -2.9528274   -2.9528274   -1.6880625   0.06121786   -2.9528274    1.2647649   547498 
  854000   0.99845172    -2.952632    -2.952632   -1.6876273  0.053818834    -2.952632    1.2650047   547498 
  855000    1.0000392   -2.9545226   -2.9545226   -1.6875066  0.065446236   -2.9545226     1.267016   547498 
  856000    1.0001057   -2.9557002   -2.9557002      -1.6886  0.055163843   -2.9557002    1.2671002   547498 
  857000   0.99992876   -2.9557018   -2.9557018   -1.6888258  0.058543599   -2.9557018     1.266876   547498 
  858000    1.0005988   -2.9566085   -2.9566085   -1.6888836  0.062333275   -2.9566085    1.2677249   547498 
  859000   0.99951191   -2.9536227   -2.9536227   -1.6872748  0.062668778   -2.9536227    1.2663479   547498 
  860000    1.0009408   -2.9557728   -2.9557728   -1.6876145  0.054710539   -2.9557728    1.2681583   547498 
  861000   0.99872177   -2.9519766   -2.9519766   -1.6866298  0.063945043   -2.9519766    1.2653468   547498 
  862000     1.000568    -2.954291    -2.954291   -1.6866051  0.058242913    -2.954291    1.2676859   547498 
  863000   0.99969763    -2.953599    -2.953599   -1.6870158   0.06051422    -2.953599    1.2665832   547498 
  864000    1.0006199   -2.9548864   -2.9548864   -1.6871347  0.056119856   -2.9548864    1.2677516   547498 
  865000    1.0006686   -2.9558953   -2.9558953   -1.6880819  0.058510064   -2.9558953    1.2678133   547498 
  866000   0.99994704   -2.9553985   -2.9553985   -1.6884993  0.057883955   -2.9553985    1.2668992   547498 
  867000   0.99972552   -2.9546534   -2.9546534   -1.6880349  0.054688394   -2.9546534    1.2666185   547498 
  868000   0.99962828   -2.9550766   -2.9550766   -1.6885813  0.051155671   -2.9550766    1.2664953   547498 
  869000   0.99885515   -2.9544119   -2.9544119   -1.6888961  0.068127178   -2.9544119    1.2655158   547498 
  870000    1.0002069   -2.9551847   -2.9551847   -1.6879563  0.051873903   -2.9551847    1.2672284   547498 
  871000   0.99985499   -2.9542552   -2.9542552   -1.6874726  0.049021187   -2.9542552    1.2667825   547498 
  872000   0.99904628   -2.9527633   -2.9527633   -1.6870053  0.059742345   -2.9527633    1.2657579   547498 
  873000   0.99905503   -2.9518551   -2.9518551   -1.6860861  0.051258871   -2.9518551     1.265769   547498 
  874000    0.9981926   -2.9515558   -2.9515558   -1.6868794  0.056482908   -2.9515558    1.2646764   547498 
  875000   0.99782899   -2.9511291   -2.9511291   -1.6869134  0.063656391   -2.9511291    1.2642157   547498 
  876000    1.0001905   -2.9533426   -2.9533426    -1.686135  0.056607775   -2.9533426    1.2672077   547498 
  877000   0.99972602    -2.952724    -2.952724   -1.6861048  0.050189874    -2.952724    1.2666192   547498 
  878000   0.99920864   -2.9518803   -2.9518803   -1.6859166  0.064423291   -2.9518803    1.2659636   547498 
  879000    1.0001187   -2.9536764   -2.9536764   -1.6865598   0.06419157   -2.9536764    1.2671166   547498 
  880000     1.001462   -2.9557913   -2.9557913   -1.6869727  0.061233227   -2.9557913    1.2688186   547498 
  881000    1.0015628   -2.9549621   -2.9549621   -1.6860159  0.058097881   -2.9549621    1.2689462   547498 
  882000   0.99902397   -2.9529574   -2.9529574   -1.6872277  0.057823758   -2.9529574    1.2657297   547498 
  883000   0.99991168   -2.9541998   -2.9541998   -1.6873455  0.058670405   -2.9541998    1.2668544   547498 
  884000    0.9998532   -2.9545141   -2.9545141   -1.6877338  0.048423101   -2.9545141    1.2667803   547498 
  885000   0.99906113   -2.9537852   -2.9537852   -1.6880085   0.06021676   -2.9537852    1.2657768   547498 
  886000   0.99881611   -2.9541189   -2.9541189   -1.6886526  0.055795208   -2.9541189    1.2654663   547498 
  887000    0.9988871   -2.9537199   -2.9537199   -1.6881636  0.054967927   -2.9537199    1.2655563   547498 
  888000   0.99876831   -2.9539812   -2.9539812   -1.6885755  0.054586656   -2.9539812    1.2654058   547498 
  889000    1.0002346   -2.9546496   -2.9546496   -1.6873861  0.060033074   -2.9546496    1.2672635   547498 
  890000   0.99906397   -2.9530174   -2.9530174    -1.687237   0.05949134   -2.9530174    1.2657804   547498 
  891000   0.99841595   -2.9530916   -2.9530916   -1.6881322  0.055799926   -2.9530916    1.2649593   547498 
  892000   0.99713862   -2.9514821   -2.9514821   -1.6881411  0.058671031   -2.9514821     1.263341   547498 
  893000   0.99838089   -2.9534988   -2.9534988   -1.6885839  0.055994455   -2.9534988    1.2649149   547498 
  894000   0.99902388   -2.9531187   -2.9531187   -1.6873891  0.070243841   -2.9531187    1.2657296   547498 
  895000   0.99947469   -2.9542953   -2.9542953   -1.6879945   0.05418626   -2.9542953    1.2663007   547498 
  896000   0.99980524   -2.9545913   -2.9545913   -1.6878717  0.061265468   -2.9545913    1.2667195   547498 
  897000    1.0021075   -2.9569499   -2.9569499   -1.6873135  0.060893322   -2.9569499    1.2696364   547498 
  898000    1.0011471   -2.9563396   -2.9563396   -1.6879201  0.060689884   -2.9563396    1.2684195   547498 
  899000     1.001138   -2.9563242   -2.9563242   -1.6879162  0.062581342   -2.9563242     1.268408   547498 
  900000    1.0008832   -2.9558786   -2.9558786   -1.6877933  0.055789578   -2.9558786    1.2680853   547498 
  901000    1.0001587   -2.9542875   -2.9542875   -1.6871202  0.052304681   -2.9542875    1.2671673   547498 
  902000    1.0003045   -2.9542499   -2.9542499   -1.6868979  0.052747135   -2.9542499     1.267352   547498 
  903000   0.99902979   -2.9529833   -2.9529833   -1.6872462  0.050115513   -2.9529833     1.265737   547498 
  904000    0.9982979    -2.952056    -2.952056   -1.6872462  0.053682287    -2.952056    1.2648098   547498 
  905000   0.99831178    -2.951084    -2.951084   -1.6862566   0.05527562    -2.951084    1.2648273   547498 
  906000   0.99992191   -2.9534034   -2.9534034    -1.686536  0.062926785   -2.9534034    1.2668673   547498 
  907000    1.0000175   -2.9530117   -2.9530117   -1.6860233  0.051013164   -2.9530117    1.2669884   547498 
  908000   0.99911143   -2.9516278   -2.9516278   -1.6857873  0.061341047   -2.9516278    1.2658405   547498 
  909000   0.99997575   -2.9541247   -2.9541247   -1.6871891  0.066912388   -2.9541247    1.2669355   547498 
  910000    1.0004863   -2.9552147   -2.9552147   -1.6876323   0.06267228   -2.9552147    1.2675824   547498 
  911000   0.99815048   -2.9536116   -2.9536116   -1.6889886  0.056922055   -2.9536116     1.264623   547498 
  912000     1.000682   -2.9571271   -2.9571271   -1.6892967  0.057020734   -2.9571271    1.2678304   547498 
  913000   0.99999791   -2.9562161   -2.9562161   -1.6892525  0.063211447   -2.9562161    1.2669636   547498 
  914000   0.99933056   -2.9556712   -2.9556712    -1.689553  0.064209987   -2.9556712    1.2661181   547498 
  915000    1.0003018    -2.956939    -2.956939   -1.6895903  0.061652743    -2.956939    1.2673487   547498 
  916000    1.0006071   -2.9575327   -2.9575327   -1.6897972  0.062276824   -2.9575327    1.2677355   547498 
  917000    1.0000873   -2.9572308   -2.9572308   -1.6901539  0.053854241   -2.9572308    1.2670769   547498 
  918000   0.99956095   -2.9565195   -2.9565195   -1.6901095  0.063894308   -2.9565195      1.26641   547498 
  919000   0.99877539    -2.955815    -2.955815   -1.6904003  0.060792177    -2.955815    1.2654147   547498 
  920000   0.99762414   -2.9541734   -2.9541734   -1.6902172  0.058632929   -2.9541734    1.2639561   547498 
  921000   0.99853999   -2.9548897   -2.9548897   -1.6897732  0.055663874   -2.9548897    1.2651165   547498 
  922000   0.99835745    -2.953925    -2.953925   -1.6890398  0.052540533    -2.953925    1.2648852   547498 
  923000   0.99939346   -2.9545779   -2.9545779   -1.6883801  0.048203208   -2.9545779    1.2661978   547498 
  924000   0.99836195     -2.95304     -2.95304   -1.6881491  0.066666654     -2.95304    1.2648909   547498 
  925000    1.0009184   -2.9557229   -2.9557229    -1.687593  0.057885527   -2.9557229    1.2681299   547498 
  926000    1.0011429   -2.9568933   -2.9568933   -1.6884789  0.058097853   -2.9568933    1.2684143   547498 
  927000    1.0005058   -2.9557485   -2.9557485   -1.6881415  0.072987038   -2.9557485     1.267607   547498 
  928000   0.99889123   -2.9549489   -2.9549489   -1.6893874  0.053836067   -2.9549489    1.2655615   547498 
  929000    1.0014361   -2.9568397   -2.9568397    -1.688054  0.062653109   -2.9568397    1.2687858   547498 
  930000    1.0026431   -2.9571942   -2.9571942   -1.6868792  0.062146241   -2.9571942    1.2703149   547498 
  931000    1.0017441   -2.9561775   -2.9561775   -1.6870015  0.064230634   -2.9561775     1.269176   547498 
  932000   0.99963918   -2.9539532   -2.9539532   -1.6874441  0.057329877   -2.9539532    1.2665091   547498 
  933000   0.99989272   -2.9535248   -2.9535248   -1.6866945  0.066668412   -2.9535248    1.2668303   547498 
  934000   0.99885063   -2.9517452   -2.9517452   -1.6862351  0.050726651   -2.9517452    1.2655101   547498 
  935000   0.99961365   -2.9522899   -2.9522899   -1.6858131  0.057286423   -2.9522899    1.2664768   547498 
  936000   0.99826635   -2.9518551   -2.9518551   -1.6870853   0.05778922   -2.9518551    1.2647698   547498 
  937000   0.99775354   -2.9504353   -2.9504353   -1.6863153  0.059663059   -2.9504353    1.2641201   547498 
  938000   0.99931053   -2.9524601   -2.9524601   -1.6863673  0.055877248   -2.9524601    1.2660927   547498 
  939000   0.99799033   -2.9510627   -2.9510627   -1.6866426  0.051949752   -2.9510627    1.2644201   547498 
  940000   0.99756306   -2.9509477   -2.9509477    -1.687069  0.055627332   -2.9509477    1.2638787   547498 
  941000   0.99825841   -2.9519419   -2.9519419   -1.6871821  0.057266648   -2.9519419    1.2647597   547498 
  942000   0.99947683    -2.951963    -2.951963   -1.6856596  0.061050162    -2.951963    1.2663034   547498 
  943000    1.0009788   -2.9532222   -2.9532222   -1.6850157  0.061883129   -2.9532222    1.2682064   547498 
  944000    1.0011126    -2.953414    -2.953414   -1.6850381  0.054990523    -2.953414    1.2683759   547498 
  945000    1.0007283   -2.9531601   -2.9531601    -1.685271  0.070030491   -2.9531601     1.267889   547498 
  946000   0.99975885   -2.9512599   -2.9512599   -1.6845991  0.060484332   -2.9512599    1.2666607   547498 
  947000    1.0001446   -2.9514849   -2.9514849   -1.6843354  0.063933205   -2.9514849    1.2671494   547498 
  948000    1.0003656   -2.9507503   -2.9507503   -1.6833208  0.060749798   -2.9507503    1.2674295   547498 
  949000    1.0002289   -2.9521391   -2.9521391   -1.6848827  0.058814514   -2.9521391    1.2672563   547498 
  950000   0.99945818   -2.9515992   -2.9515992   -1.6853194  0.060302174   -2.9515992    1.2662798   547498 
  951000   0.99977228   -2.9525102   -2.9525102   -1.6858324  0.064732675   -2.9525102    1.2666778   547498 
  952000   0.99948457   -2.9530537   -2.9530537   -1.6867405  0.059514084   -2.9530537    1.2663132   547498 
  953000   0.99894224    -2.951887    -2.951887   -1.6862608  0.066339285    -2.951887    1.2656261   547498 
  954000   0.99852312   -2.9518061   -2.9518061    -1.686711  0.062873702   -2.9518061    1.2650951   547498 
  955000   0.99883516    -2.952205    -2.952205   -1.6867146  0.064126034    -2.952205    1.2654905   547498 
  956000   0.99826644   -2.9514184   -2.9514184   -1.6866485   0.06088204   -2.9514184    1.2647699   547498 
  957000    1.0002587   -2.9535079   -2.9535079   -1.6862139   0.05854399   -2.9535079     1.267294   547498 
  958000    1.0008133   -2.9547864   -2.9547864   -1.6867897  0.065683611   -2.9547864    1.2679967   547498 
  959000      1.00002   -2.9541205   -2.9541205   -1.6871289   0.06658099   -2.9541205    1.2669916   547498 
  960000    1.0003015   -2.9555395   -2.9555395   -1.6881912  0.063056386   -2.9555395    1.2673483   547498 
  961000   0.99978917   -2.9550703   -2.9550703   -1.6883711  0.050070783   -2.9550703    1.2666992   547498 
  962000   0.99916323   -2.9551396   -2.9551396   -1.6892334  0.056062376   -2.9551396    1.2659061   547498 
  963000   0.99871331    -2.956398    -2.956398   -1.6910619  0.061560003    -2.956398    1.2653361   547498 
  964000   0.99961598   -2.9560961   -2.9560961   -1.6896164  0.055791167   -2.9560961    1.2664797   547498 
  965000   0.99790472   -2.9540548   -2.9540548   -1.6897431   0.06287382   -2.9540548    1.2643116   547498 
  966000   0.99999339   -2.9565418   -2.9565418   -1.6895839  0.058796182   -2.9565418    1.2669579   547498 
  967000   0.99984613    -2.955875    -2.955875   -1.6891037  0.051792956    -2.955875    1.2667713   547498 
  968000    1.0004626   -2.9563466   -2.9563466   -1.6887942  0.070348006   -2.9563466    1.2675524   547498 
  969000   0.99972523   -2.9557725   -2.9557725   -1.6891543   0.05456716   -2.9557725    1.2666181   547498 
  970000    0.9998715   -2.9567738   -2.9567738   -1.6899704  0.058732433   -2.9567738    1.2668035   547498 
  971000   0.99847565   -2.9551856   -2.9551856   -1.6901506  0.060933609   -2.9551856     1.265035   547498 
  972000    1.0011606   -2.9580147   -2.9580147    -1.689578  0.063792437   -2.9580147    1.2684367   547498 
  973000    1.0012616   -2.9573721   -2.9573721   -1.6888075  0.061873836   -2.9573721    1.2685646   547498 
  974000    1.0013564   -2.9575987   -2.9575987   -1.6889139  0.059786233   -2.9575987    1.2686848   547498 
  975000    1.0011019   -2.9580828   -2.9580828   -1.6897205  0.059250411   -2.9580828    1.2683623   547498 
  976000    1.0019822   -2.9585582   -2.9585582   -1.6890805  0.064054308   -2.9585582    1.2694777   547498 
  977000    1.0022993   -2.9587978   -2.9587978   -1.6889183  0.061046141   -2.9587978    1.2698795   547498 
  978000   0.99971675   -2.9558242   -2.9558242   -1.6892168  0.065296989   -2.9558242    1.2666074   547498 
  979000    1.0000875   -2.9566611   -2.9566611   -1.6895839  0.053957649   -2.9566611    1.2670772   547498 
  980000    1.0014796   -2.9584555   -2.9584555   -1.6896146  0.050270268   -2.9584555    1.2688409   547498 
  981000    1.0001881   -2.9567293   -2.9567293   -1.6895246  0.061462415   -2.9567293    1.2672046   547498 
  982000    1.0002625    -2.957104    -2.957104   -1.6898051  0.064169305    -2.957104    1.2672989   547498 
  983000    1.0006325   -2.9575936   -2.9575936    -1.689826  0.059095739   -2.9575936    1.2677676   547498 
  984000   0.99941698   -2.9572752   -2.9572752   -1.6910476  0.050078687   -2.9572752    1.2662276   547498 
  985000   0.99949759   -2.9577092   -2.9577092   -1.6913795  0.052716171   -2.9577092    1.2663297   547498 
  986000   0.99698459   -2.9548923   -2.9548923   -1.6917464  0.052957579   -2.9548923    1.2631458   547498 
  987000   0.99775533   -2.9552573   -2.9552573   -1.6911349  0.058235829   -2.9552573    1.2641223   547498 
  988000   0.99666106   -2.9540543   -2.9540543   -1.6913184  0.058399672   -2.9540543    1.2627359   547498 
  989000   0.99727259   -2.9540502   -2.9540502   -1.6905394  0.062541873   -2.9540502    1.2635107   547498 
  990000   0.99921242   -2.9569307   -2.9569307   -1.6909622  0.046420605   -2.9569307    1.2659684   547498 
  991000   0.99815553   -2.9552905   -2.9552905   -1.6906611  0.064958723   -2.9552905    1.2646294   547498 
  992000   0.99820493   -2.9555126   -2.9555126   -1.6908207  0.054449627   -2.9555126     1.264692   547498 
  993000   0.99741915    -2.955378    -2.955378   -1.6916816  0.050717973    -2.955378    1.2636964   547498 
  994000   0.99827536   -2.9549682   -2.9549682    -1.690187  0.059997877   -2.9549682    1.2647812   547498 
  995000    1.0003823   -2.9568737   -2.9568737   -1.6894231  0.058278431   -2.9568737    1.2674506   547498 
  996000    1.0003277    -2.956918    -2.956918   -1.6895366  0.065145318    -2.956918    1.2673815   547498 
  997000    1.0013355   -2.9578026   -2.9578026   -1.6891443  0.055483904   -2.9578026    1.2686583   547498 
  998000   0.99843799   -2.9549791   -2.9549791   -1.6899918  0.056497126   -2.9549791    1.2649873   547498 
  999000     1.000202   -2.9577215   -2.9577215   -1.6904992  0.063087525   -2.9577215    1.2672222   547498 
 1000000   0.99915324   -2.9558985   -2.9558985   -1.6900051  0.062193433   -2.9558985    1.2658935   547498 
 1001000   0.99992822   -2.9563732   -2.9563732   -1.6894978  0.064371449   -2.9563732    1.2668753   547498 
 1002000   0.99861096   -2.9561971   -2.9561971   -1.6909907  0.056386425   -2.9561971    1.2652064   547498 
 1003000   0.99887032   -2.9561143   -2.9561143   -1.6905793  0.050589827   -2.9561143     1.265535   547498 
 1004000   0.99890771   -2.9570181   -2.9570181   -1.6914357  0.058947662   -2.9570181    1.2655824   547498 
 1005000   0.99939166   -2.9580762   -2.9580762   -1.6918807  0.059629667   -2.9580762    1.2661955   547498 
 1006000   0.99888816   -2.9567173   -2.9567173   -1.6911597  0.053087973   -2.9567173    1.2655576   547498 
 1007000   0.99808651   -2.9566355   -2.9566355   -1.6920935  0.060289878   -2.9566355    1.2645419   547498 
 1008000   0.99664443   -2.9560778   -2.9560778   -1.6933629  0.048861492   -2.9560778    1.2627149   547498 
 1009000   0.99762032    -2.957288    -2.957288   -1.6933367  0.056437706    -2.957288    1.2639513   547498 
 1010000   0.99864339   -2.9580706   -2.9580706   -1.6928231  0.055655144   -2.9580706    1.2652475   547498 
 1011000   0.99954545   -2.9589568   -2.9589568   -1.6925664  0.051276193   -2.9589568    1.2663904   547498 
 1012000   0.99783271   -2.9562248   -2.9562248   -1.6920045  0.051599323   -2.9562248    1.2642204   547498 
 1013000   0.99768249   -2.9568019   -2.9568019   -1.6927718  0.061363043   -2.9568019    1.2640301   547498 
 1014000    0.9987113   -2.9569722   -2.9569722   -1.6916387  0.063300081   -2.9569722    1.2653335   547498 
 1015000   0.99994015   -2.9588478   -2.9588478   -1.6919573  0.051932988   -2.9588478    1.2668904   547498 
 1016000   0.99965434   -2.9591103   -2.9591103    -1.692582  0.053657684   -2.9591103    1.2665283   547498 
 1017000   0.99919022   -2.9580206   -2.9580206   -1.6920803  0.061477934   -2.9580206    1.2659403   547498 
 1018000   0.99907872    -2.957148    -2.957148   -1.6913489  0.064564144    -2.957148     1.265799   547498 
 1019000   0.99904862   -2.9577021   -2.9577021   -1.6919412  0.048736593   -2.9577021    1.2657609   547498 
 1020000   0.99906447   -2.9575772   -2.9575772   -1.6917962  0.061068374   -2.9575772     1.265781   547498 
 1021000   0.99995472    -2.958656    -2.958656   -1.6917471  0.061707572    -2.958656    1.2669089   547498 
 1022000   0.99815082   -2.9571824   -2.9571824    -1.692559  0.055994945   -2.9571824    1.2646234   547498 
 1023000   0.99949544   -2.9590184   -2.9590184   -1.6926913  0.053875781   -2.9590184     1.266327   547498 
 1024000   0.99990198   -2.9584117   -2.9584117   -1.6915696   0.05962805   -2.9584117    1.2668421   547498 
 1025000   0.99857011   -2.9578199   -2.9578199   -1.6926652  0.065958773   -2.9578199    1.2651546   547498 
 1026000   0.99919373   -2.9592325   -2.9592325   -1.6932877  0.057699548   -2.9592325    1.2659448   547498 
 1027000   0.99889986   -2.9579714   -2.9579714    -1.692399   0.05962495   -2.9579714    1.2655724   547498 
 1028000    0.9988532   -2.9575882   -2.9575882   -1.6920749  0.059384379   -2.9575882    1.2655133   547498 
 1029000    1.0003315   -2.9589841   -2.9589841   -1.6915978  0.050896711   -2.9589841    1.2673862   547498 
 1030000   0.99971056   -2.9583964   -2.9583964   -1.6917969  0.074764099   -2.9583964    1.2665996   547498 
 1031000    1.0004367    -2.958684    -2.958684   -1.6911645  0.059875033    -2.958684    1.2675195   547498 
 1032000    1.0006991   -2.9591749   -2.9591749    -1.691323  0.047612221   -2.9591749     1.267852   547498 
 1033000   0.99880641   -2.9572958   -2.9572958   -1.6918418  0.062966287   -2.9572958     1.265454   547498 
 1034000   0.99847223   -2.9580219   -2.9580219   -1.6929912  0.055446312   -2.9580219    1.2650306   547498 
 1035000   0.99744816   -2.9576857   -2.9576857   -1.6939525  0.054930841   -2.9576857    1.2637332   547498 
 1036000   0.99724644   -2.9578535   -2.9578535   -1.6943759  0.059078457   -2.9578535    1.2634776   547498 
 1037000   0.99861257   -2.9573548   -2.9573548   -1.6921464  0.058730685   -2.9573548    1.2652085   547498 
 1038000   0.99899015   -2.9586128   -2.9586128    -1.692926  0.055539606   -2.9586128    1.2656868   547498 
 1039000   0.99877621   -2.9583784   -2.9583784   -1.6929626  0.059228617   -2.9583784    1.2654158   547498 
 1040000    1.0005713   -2.9607148   -2.9607148   -1.6930247  0.062536909   -2.9607148    1.2676901   547498 
 1041000    0.9996995   -2.9602718   -2.9602718   -1.6936863  0.066105786   -2.9602718    1.2665856   547498 
 1042000    1.0003533   -2.9622654   -2.9622654   -1.6948515  0.060901521   -2.9622654    1.2674139   547498 
 1043000   0.99787064   -2.9595042   -2.9595042   -1.6952357  0.055915713   -2.9595042    1.2642684   547498 
 1044000   0.99881847   -2.9601836   -2.9601836   -1.6947143  0.059508695   -2.9601836    1.2654693   547498 
 1045000   0.99817936   -2.9594044   -2.9594044   -1.6947448  0.062966678   -2.9594044    1.2646596   547498 
 1046000   0.99976685    -2.961571    -2.961571   -1.6949002  0.052197646    -2.961571    1.2666709   547498 
 1047000   0.99921348   -2.9600326   -2.9600326   -1.6940628  0.065039069   -2.9600326    1.2659698   547498 
 1048000   0.99992064   -2.9603457   -2.9603457     -1.69348  0.063044978   -2.9603457    1.2668657   547498 
 1049000   0.99854706   -2.9588315   -2.9588315    -1.693706  0.055037053   -2.9588315    1.2651254   547498 
 1050000   0.99868016   -2.9592867   -2.9592867   -1.6939927  0.052985261   -2.9592867    1.2652941   547498 
 1051000   0.99806874   -2.9586925   -2.9586925   -1.6941731   0.05016041   -2.9586925    1.2645194   547498 
 1052000    1.0000809   -2.9616007   -2.9616007   -1.6945319  0.049751994   -2.9616007    1.2670688   547498 
 1053000   0.99854317   -2.9597754   -2.9597754   -1.6946548  0.054409912   -2.9597754    1.2651205   547498 
 1054000    0.9988731   -2.9591872   -2.9591872   -1.6936486  0.059118405   -2.9591872    1.2655385   547498 
 1055000   0.99905868   -2.9591511   -2.9591511   -1.6933775  0.048125625   -2.9591511    1.2657737   547498 
 1056000    1.0000314   -2.9601133   -2.9601133   -1.6931072  0.054773258   -2.9601133    1.2670061   547498 
 1057000    1.0002665   -2.9600258   -2.9600258   -1.6927218  0.049662543   -2.9600258     1.267304   547498 
 1058000   0.99860573   -2.9586029   -2.9586029   -1.6934031  0.062232971   -2.9586029    1.2651998   547498 
 1059000   0.99892112   -2.9592052   -2.9592052   -1.6936058  0.059064144   -2.9592052    1.2655994   547498 
 1060000   0.99878664   -2.9578158   -2.9578158   -1.6923868  0.055750978   -2.9578158     1.265429   547498 
 1061000   0.99849004    -2.957372    -2.957372   -1.6923188  0.066908411    -2.957372    1.2650532   547498 
 1062000    1.0002741    -2.958915    -2.958915   -1.6916015  0.059322334    -2.958915    1.2673135   547498 
 1063000   0.99891994   -2.9570311   -2.9570311   -1.6914333  0.051233544   -2.9570311    1.2655979   547498 
 1064000    0.9988278   -2.9573649   -2.9573649   -1.6918838  0.058518945   -2.9573649    1.2654811   547498 
 1065000    1.0010505   -2.9606604   -2.9606604   -1.6923631  0.052506472   -2.9606604    1.2682972   547498 
 1066000   0.99862415    -2.958576    -2.958576   -1.6933529  0.065962591    -2.958576    1.2652231   547498 
 1067000   0.99945994   -2.9594577   -2.9594577   -1.6931757  0.060281701   -2.9594577     1.266282   547498 
 1068000    0.9992571   -2.9597347   -2.9597347   -1.6937097  0.063331326   -2.9597347     1.266025   547498 
 1069000   0.99975957   -2.9598589   -2.9598589   -1.6931972  0.055638879   -2.9598589    1.2666617   547498 
 1070000    0.9993565    -2.960208    -2.960208    -1.694057  0.055110995    -2.960208     1.266151   547498 
 1071000    0.9996666   -2.9603837   -2.9603837   -1.6938398  0.064385769   -2.9603837    1.2665439   547498 
 1072000   0.99877144   -2.9594375   -2.9594375   -1.6940278  0.055550435   -2.9594375    1.2654097   547498 
 1073000   0.99866924   -2.9602383   -2.9602383   -1.6949581  0.051840162   -2.9602383    1.2652802   547498 
 1074000   0.99887557   -2.9614529   -2.9614529   -1.6959113  0.054081087   -2.9614529    1.2655417   547498 
 1075000   0.99899016   -2.9616611   -2.9616611   -1.6959742  0.052175545   -2.9616611    1.2656868   547498 
 1076000   0.99753539   -2.9597366   -2.9597366   -1.6958929   0.05133275   -2.9597366    1.2638437   547498 
 1077000   0.99890139   -2.9613435   -2.9613435   -1.6957691  0.057268485   -2.9613435    1.2655744   547498 
 1078000   0.99811557   -2.9610348   -2.9610348   -1.6964561   0.05874378   -2.9610348    1.2645788   547498 
 1079000   0.99985619   -2.9628605   -2.9628605   -1.6960765  0.060291262   -2.9628605    1.2667841   547498 
 1080000   0.99949921   -2.9614345   -2.9614345   -1.6951027  0.050842198   -2.9614345    1.2663318   547498 
 1081000    0.9990027   -2.9613709   -2.9613709   -1.6956682  0.059493193   -2.9613709    1.2657027   547498 
 1082000   0.99619165   -2.9585479   -2.9585479   -1.6964067  0.070505782   -2.9585479    1.2621412   547498 
 1083000   0.99692373   -2.9586287   -2.9586287     -1.69556  0.051982396   -2.9586287    1.2630687   547498 
 1084000   0.99613262    -2.958061    -2.958061   -1.6959946  0.062033038    -2.958061    1.2620664   547498 
 1085000    0.9989295   -2.9603723   -2.9603723   -1.6947623  0.066898727   -2.9603723      1.26561   547498 
 1086000   0.99836205   -2.9596251   -2.9596251    -1.694734  0.061204527   -2.9596251     1.264891   547498 
 1087000      1.00012   -2.9616765   -2.9616765   -1.6945583  0.061453671   -2.9616765    1.2671183   547498 
 1088000   0.99848488   -2.9587182   -2.9587182   -1.6936716  0.066032669   -2.9587182    1.2650467   547498 
 1089000    1.0004794    -2.960974    -2.960974   -1.6934003  0.047345475    -2.960974    1.2675737   547498 
 1090000    1.0000894   -2.9602435   -2.9602435    -1.693164   0.06143969   -2.9602435    1.2670795   547498 
 1091000    1.0007118   -2.9624884   -2.9624884   -1.6946203  0.059206917   -2.9624884    1.2678681   547498 
 1092000    1.0009951   -2.9629267   -2.9629267   -1.6946997  0.066802249   -2.9629267     1.268227   547498 
 1093000    1.0004352   -2.9622688   -2.9622688   -1.6947511  0.058258573   -2.9622688    1.2675177   547498 
 1094000    1.0001883   -2.9623467   -2.9623467   -1.6951419  0.059996342   -2.9623467    1.2672048   547498 
 1095000   0.99987014    -2.961424    -2.961424   -1.6946223  0.060081516    -2.961424    1.2668018   547498 
 1096000   0.99852546   -2.9609048   -2.9609048   -1.6958067  0.056806626   -2.9609048    1.2650981   547498 
 1097000   0.99835566   -2.9613997   -2.9613997   -1.6965167  0.058882026   -2.9613997     1.264883   547498 
 1098000   0.99897286   -2.9630508   -2.9630508   -1.6973859  0.068231966   -2.9630508    1.2656649   547498 
 1099000   0.99896075   -2.9623601   -2.9623601   -1.6967105  0.060810261   -2.9623601    1.2656496   547498 
 1100000   0.99845843   -2.9628304   -2.9628304   -1.6978172   0.05756819   -2.9628304    1.2650132   547498 
 1101000   0.99731797    -2.961629    -2.961629   -1.6980607  0.049199674    -2.961629    1.2635682   547498 
 1102000   0.99684672   -2.9617204   -2.9617204   -1.6987493  0.056905269   -2.9617204    1.2629712   547498 
 1103000   0.99859341   -2.9640932   -2.9640932    -1.698909  0.052234711   -2.9640932    1.2651842   547498 
 1104000   0.99847708   -2.9636035   -2.9636035   -1.6985667  0.057033322   -2.9636035    1.2650368   547498 
 1105000   0.99895616   -2.9633162   -2.9633162   -1.6976724  0.059056437   -2.9633162    1.2656438   547498 
 1106000   0.99898154   -2.9641954   -2.9641954   -1.6985195  0.054576982   -2.9641954    1.2656759   547498 
 1107000    0.9994666   -2.9656909   -2.9656909   -1.6994004  0.055217051   -2.9656909    1.2662905   547498 
 1108000    1.0015063    -2.967205    -2.967205   -1.6983302  0.058768917    -2.967205    1.2688747   547498 
 1109000   0.99987372   -2.9650016   -2.9650016   -1.6981953     0.064353   -2.9650016    1.2668063   547498 
 1110000   0.99960878    -2.964696    -2.964696   -1.6982254  0.060987604    -2.964696    1.2664706   547498 
 1111000    1.0000148   -2.9645654   -2.9645654   -1.6975804  0.062796363   -2.9645654     1.266985   547498 
 1112000   0.99864905   -2.9640985   -2.9640985   -1.6988438  0.063564061   -2.9640985    1.2652547   547498 
 1113000    1.0006623   -2.9660448   -2.9660448   -1.6982394  0.051232124   -2.9660448    1.2678054   547498 
 1114000    0.9977388   -2.9628406   -2.9628406   -1.6987391  0.055512881   -2.9628406    1.2641014   547498 
 1115000   0.99790749   -2.9635058   -2.9635058   -1.6991907  0.059287385   -2.9635058    1.2643151   547498 
 1116000   0.99779122   -2.9641522   -2.9641522   -1.6999844  0.049465568   -2.9641522    1.2641678   547498 
 1117000   0.99817933   -2.9641836   -2.9641836    -1.699524  0.059492358   -2.9641836    1.2646595   547498 
 1118000   0.99813176   -2.9638702   -2.9638702   -1.6992709  0.062295443   -2.9638702    1.2645993   547498 
 1119000   0.99918325   -2.9662489   -2.9662489   -1.7003174  0.054529933   -2.9662489    1.2659315   547498 
 1120000   0.99793299   -2.9650058   -2.9650058   -1.7006583  0.057304335   -2.9650058    1.2643474   547498 
 1121000   0.99976163   -2.9665495   -2.9665495   -1.6998853   0.05807536   -2.9665495    1.2666643   547498 
 1122000    1.0008633   -2.9682408   -2.9682408   -1.7001807  0.062115836   -2.9682408    1.2680601   547498 
 1123000    1.0022673   -2.9698702   -2.9698702   -1.7000313  0.061179327   -2.9698702    1.2698389   547498 
 1124000    1.0021515   -2.9691861   -2.9691861    -1.699494  0.056620615   -2.9691861    1.2696922   547498 
 1125000   0.99986999   -2.9662196   -2.9662196    -1.699418  0.065255895   -2.9662196    1.2668015   547498 
 1126000    1.0012557   -2.9686939   -2.9686939   -1.7001367  0.066310869   -2.9686939    1.2685572   547498 
 1127000    1.0001301    -2.967819    -2.967819   -1.7006879  0.066609845    -2.967819    1.2671312   547498 
 1128000   0.99980267   -2.9676072   -2.9676072   -1.7008909  0.066860209   -2.9676072    1.2667163   547498 
 1129000    1.0009376   -2.9681891   -2.9681891   -1.7000349  0.066007838   -2.9681891    1.2681542   547498 
 1130000   0.99949619   -2.9666591   -2.9666591   -1.7003311  0.063164744   -2.9666591     1.266328   547498 
 1131000    1.0000591   -2.9672849   -2.9672849   -1.7002437  0.059746418   -2.9672849    1.2670412   547498 
 1132000   0.99950476   -2.9680647   -2.9680647   -1.7017258   0.05598462   -2.9680647    1.2663388   547498 
 1133000   0.99879683   -2.9668611   -2.9668611   -1.7014192  0.058008494   -2.9668611    1.2654419   547498 
 1134000   0.99903857   -2.9667752   -2.9667752   -1.7010271  0.049940201   -2.9667752    1.2657482   547498 
 1135000   0.99841863   -2.9662321   -2.9662321   -1.7012694  0.058236303   -2.9662321    1.2649627   547498 
 1136000   0.99947262   -2.9677166   -2.9677166   -1.7014185  0.057657163   -2.9677166    1.2662981   547498 
 1137000   0.99946994   -2.9668495   -2.9668495   -1.7005548  0.053022665   -2.9668495    1.2662947   547498 
 1138000   0.99920811   -2.9665356   -2.9665356   -1.7005726  0.060871865   -2.9665356     1.265963   547498 
 1139000   0.99953016   -2.9669628   -2.9669628   -1.7005918   0.06003892   -2.9669628     1.266371   547498 
 1140000   0.99997624   -2.9686089   -2.9686089   -1.7016728  0.055822623   -2.9686089    1.2669362   547498 
 1141000    1.0015344   -2.9699654   -2.9699654   -1.7010551  0.060868017   -2.9699654    1.2689103   547498 
 1142000    1.0030315   -2.9713093   -2.9713093   -1.7005022  0.055285669   -2.9713093    1.2708071   547498 
 1143000    1.0003989   -2.9671199   -2.9671199   -1.6996482  0.065025588   -2.9671199    1.2674717   547498 
 1144000   0.99944191   -2.9659295   -2.9659295   -1.6996703   0.06281549   -2.9659295    1.2662592   547498 
 1145000   0.99899807   -2.9661765   -2.9661765   -1.7004797  0.057170645   -2.9661765    1.2656969   547498 
 1146000    0.9983873   -2.9658757   -2.9658757   -1.7009526  0.058675053   -2.9658757     1.264923   547498 
 1147000   0.99971183   -2.9668857   -2.9668857   -1.7002845  0.055995784   -2.9668857    1.2666012   547498 
 1148000   0.99723057   -2.9633381   -2.9633381   -1.6998806   0.05593539   -2.9633381    1.2634575   547498 
 1149000   0.99963843   -2.9667346   -2.9667346   -1.7002264  0.052479918   -2.9667346    1.2665082   547498 
 1150000   0.99965946   -2.9665524   -2.9665524   -1.7000176  0.053385118   -2.9665524    1.2665348   547498 
 1151000    1.0001156   -2.9667153   -2.9667153   -1.6996025  0.051878289   -2.9667153    1.2671127   547498 
 1152000   0.99840478   -2.9648792   -2.9648792    -1.699934  0.057840618   -2.9648792    1.2649452   547498 
 1153000   0.99880336   -2.9656009   -2.9656009   -1.7001508   0.05497838   -2.9656009    1.2654502   547498 
 1154000   0.99949362   -2.9651566   -2.9651566   -1.6988319  0.058870353   -2.9651566    1.2663247   547498 
 1155000   0.99980798   -2.9650357   -2.9650357   -1.6983127  0.066383525   -2.9650357     1.266723   547498 
 1156000   0.99961456   -2.9653436   -2.9653436   -1.6988657  0.058310018   -2.9653436    1.2664779   547498 
 1157000   0.99952694   -2.9646139   -2.9646139    -1.698247  0.061233545   -2.9646139    1.2663669   547498 
 1158000    1.0001661   -2.9639123   -2.9639123   -1.6967356  0.060961843   -2.9639123    1.2671767   547498 
 1159000   0.99860268   -2.9626069   -2.9626069    -1.697411  0.057581804   -2.9626069    1.2651959   547498 
 1160000    1.0001295   -2.9642261   -2.9642261   -1.6970957  0.054293568   -2.9642261    1.2671303   547498 
 1161000   0.99804453   -2.9625752   -2.9625752   -1.6980865  0.057844673   -2.9625752    1.2644888   547498 
 1162000   0.99908851   -2.9636643   -2.9636643   -1.6978529  0.049812011   -2.9636643    1.2658114   547498 
 1163000   0.99869685   -2.9626569   -2.9626569   -1.6973417  0.061578413   -2.9626569    1.2653152   547498 
 1164000    1.0004551   -2.9659776   -2.9659776   -1.6984347  0.065696311   -2.9659776    1.2675429   547498 
 1165000   0.99986088   -2.9656204   -2.9656204   -1.6988304  0.059462488   -2.9656204      1.26679   547498 
 1166000    1.0013881   -2.9674085   -2.9674085   -1.6986836  0.059305804   -2.9674085    1.2687249   547498 
 1167000    1.0016983   -2.9675137   -2.9675137   -1.6983957  0.062101489   -2.9675137    1.2691179   547498 
 1168000    1.0005428    -2.966154    -2.966154      -1.6985  0.065396209    -2.966154     1.267654   547498 
 1169000    1.0009616   -2.9670789   -2.9670789   -1.6988943  0.051586374   -2.9670789    1.2681846   547498 
 1170000     0.999513   -2.9667194   -2.9667194   -1.7003701  0.070498069   -2.9667194    1.2663493   547498 
 1171000      1.00051   -2.9672606   -2.9672606   -1.6996482  0.062489863   -2.9672606    1.2676124   547498 
 1172000   0.99958401   -2.9668732   -2.9668732   -1.7004339  0.061410566   -2.9668732    1.2664392   547498 
 1173000   0.99949067   -2.9668095   -2.9668095   -1.7004885   0.05483503   -2.9668095     1.266321   547498 
 1174000   0.99958186   -2.9669303   -2.9669303   -1.7004938  0.066514191   -2.9669303    1.2664365   547498 
 1175000   0.99987889   -2.9679235   -2.9679235   -1.7011107  0.065125839   -2.9679235    1.2668128   547498 
 1176000   0.99960898   -2.9675746   -2.9675746   -1.7011037  0.061750512   -2.9675746    1.2664709   547498 
 1177000    1.0009485   -2.9694006   -2.9694006   -1.7012327  0.060044518   -2.9694006    1.2681679   547498 
 1178000   0.99871397   -2.9681267   -2.9681267   -1.7027897  0.063268557   -2.9681267    1.2653369   547498 
 1179000    1.0001107   -2.9699584   -2.9699584   -1.7028519  0.059721803   -2.9699584    1.2671065   547498 
 1180000     1.000033   -2.9685412   -2.9685412   -1.7015331  0.063321951   -2.9685412     1.267008   547498 
 1181000   0.99945786   -2.9676743   -2.9676743   -1.7013949  0.061092945   -2.9676743    1.2662794   547498 
 1182000   0.99976842   -2.9696737   -2.9696737   -1.7030009  0.072063997   -2.9696737    1.2666729   547498 
 1183000   0.99977416   -2.9694904   -2.9694904   -1.7028103  0.053009352   -2.9694904    1.2666801   547498 
 1184000   0.99921888   -2.9681147   -2.9681147   -1.7021381  0.060296679   -2.9681147    1.2659766   547498 
 1185000   0.99916255   -2.9693506   -2.9693506   -1.7034453  0.053229393   -2.9693506    1.2659053   547498 
 1186000   0.99929803   -2.9695956   -2.9695956   -1.7035187  0.049571247   -2.9695956    1.2660769   547498 
 1187000     0.997554   -2.9667032   -2.9667032    -1.702836  0.058610479   -2.9667032    1.2638673   547498 
 1188000   0.99747837   -2.9673697   -2.9673697   -1.7035982  0.054775578   -2.9673697    1.2637715   547498 
 1189000   0.99889627   -2.9686235   -2.9686235   -1.7030556  0.056592545   -2.9686235    1.2655679   547498 
 1190000   0.99908469   -2.9688375   -2.9688375   -1.7030309  0.060949168   -2.9688375    1.2658066   547498 
 1191000   0.99869234   -2.9677914   -2.9677914   -1.7024819  0.063415787   -2.9677914    1.2653095   547498 
 1192000    1.0003328   -2.9704945   -2.9704945   -1.7031066  0.050186952   -2.9704945    1.2673879   547498 
 1193000    0.9996034   -2.9689267   -2.9689267   -1.7024629  0.053553717   -2.9689267    1.2664638   547498 
 1194000    1.0013521   -2.9701081   -2.9701081   -1.7014287  0.062145189   -2.9701081    1.2686794   547498 
 1195000    1.0000291   -2.9691094   -2.9691094   -1.7021062  0.062268723   -2.9691094    1.2670031   547498 
 1196000   0.99963251   -2.9686377   -2.9686377    -1.702137  0.064509287   -2.9686377    1.2665007   547498 
 1197000   0.99962971   -2.9687826   -2.9687826   -1.7022855  0.065373305   -2.9687826    1.2664971   547498 
 1198000    1.0002053   -2.9693412   -2.9693412   -1.7021148  0.060253078   -2.9693412    1.2672264   547498 
 1199000    1.0002175   -2.9687462   -2.9687462   -1.7015044  0.058257551   -2.9687462    1.2672418   547498 
 1200000   0.99967122   -2.9686247   -2.9686247    -1.702075  0.058004152   -2.9686247    1.2665497   547498 
 1201000    1.0008263   -2.9700259   -2.9700259   -1.7020127  0.060070448   -2.9700259    1.2680132   547498 
 1202000   0.99932642   -2.9684433   -2.9684433   -1.7023304   0.06079965   -2.9684433    1.2661129   547498 
 1203000   0.99908565    -2.969255    -2.969255   -1.7034472  0.065547764    -2.969255    1.2658078   547498 
 1204000   0.99930841   -2.9685971   -2.9685971    -1.702507   0.05703569   -2.9685971    1.2660901   547498 
 1205000   0.99897375   -2.9680567   -2.9680567   -1.7023906  0.070181428   -2.9680567     1.265666   547498 
 1206000   0.99998238   -2.9689316   -2.9689316   -1.7019877   0.06065028   -2.9689316     1.266944   547498 
 1207000   0.99865449   -2.9670453   -2.9670453   -1.7017837   0.05776678   -2.9670453    1.2652616   547498 
 1208000   0.99986684   -2.9684266   -2.9684266   -1.7016291  0.058111814   -2.9684266    1.2667976   547498 
 1209000    1.0003124   -2.9696145   -2.9696145   -1.7022524  0.054426442   -2.9696145    1.2673621   547498 
 1210000   0.99872931   -2.9674119   -2.9674119   -1.7020555  0.053115707   -2.9674119    1.2653563   547498 
 1211000    1.0005277    -2.969861    -2.969861   -1.7022261  0.050515587    -2.969861    1.2676349   547498 
 1212000   0.99981784   -2.9693827   -2.9693827   -1.7026473  0.060706746   -2.9693827    1.2667355   547498 
 1213000   0.99860981   -2.9672585   -2.9672585   -1.7020536  0.049597241   -2.9672585     1.265205   547498 
 1214000   0.99880085   -2.9678535   -2.9678535   -1.7024065  0.057693825   -2.9678535     1.265447   547498 
 1215000   0.99943434    -2.968416    -2.968416   -1.7021664  0.060689109    -2.968416    1.2662496   547498 
 1216000   0.99943821   -2.9680173   -2.9680173   -1.7017628  0.053511662   -2.9680173    1.2662545   547498 
 1217000   0.99798257   -2.9663041   -2.9663041   -1.7018939  0.053770829   -2.9663041    1.2644103   547498 
 1218000   0.99996508   -2.9689547   -2.9689547   -1.7020327  0.056273434   -2.9689547     1.266922   547498 
 1219000    1.0003398   -2.9683132   -2.9683132   -1.7009164  0.068061588   -2.9683132    1.2673968   547498 
 1220000   0.99911268   -2.9678645   -2.9678645   -1.7020224  0.058644426   -2.9678645    1.2658421   547498 
 1221000    1.0004001   -2.9692696   -2.9692696   -1.7017964  0.056359375   -2.9692696    1.2674732   547498 
 1222000    0.9982857   -2.9671739   -2.9671739   -1.7023796  0.056770622   -2.9671739    1.2647943   547498 
 1223000   0.99948416   -2.9681701   -2.9681701   -1.7018573  0.056951753   -2.9681701    1.2663127   547498 
 1224000   0.99856846   -2.9669232   -2.9669232   -1.7017706  0.055158892   -2.9669232    1.2651526   547498 
 1225000   0.99953806   -2.9681153   -2.9681153   -1.7017343  0.063678308   -2.9681153     1.266381   547498 
 1226000    1.0000564   -2.9680249   -2.9680249   -1.7009872  0.060344949   -2.9680249    1.2670377   547498 
 1227000     1.000452   -2.9679758   -2.9679758   -1.7004368  0.055988753   -2.9679758     1.267539   547498 
 1228000     1.000556   -2.9687112   -2.9687112   -1.7010405  0.055386846   -2.9687112    1.2676707   547498 
 1229000   0.99958565   -2.9674025   -2.9674025   -1.7009611  0.055888314   -2.9674025    1.2664413   547498 
 1230000    1.0005238   -2.9682564   -2.9682564   -1.7006266  0.056360791   -2.9682564    1.2676299   547498 
 1231000    1.0020444   -2.9696249   -2.9696249   -1.7000684  0.058168468   -2.9696249    1.2695564   547498 
 1232000    1.0001519    -2.967813    -2.967813   -1.7006543  0.060520815    -2.967813    1.2671587   547498 
 1233000    1.0018247   -2.9699392   -2.9699392   -1.7006611  0.057729494   -2.9699392    1.2692781   547498 
 1234000   0.99974771   -2.9674814   -2.9674814   -1.7008348  0.060626695   -2.9674814    1.2666466   547498 
 1235000   0.99985237   -2.9684845   -2.9684845   -1.7017053  0.054953141   -2.9684845    1.2667792   547498 
 1236000    1.0001863   -2.9691256   -2.9691256   -1.7019232  0.060238003   -2.9691256    1.2672024   547498 
 1237000   0.99952428   -2.9686568   -2.9686568   -1.7022932  0.052616809   -2.9686568    1.2663635   547498 
 1238000   0.99913362   -2.9674598   -2.9674598   -1.7015912  0.050450541   -2.9674598    1.2658686   547498 
 1239000   0.99787782   -2.9672322   -2.9672322   -1.7029546  0.060586468   -2.9672322    1.2642775   547498 
 1240000   0.99850644   -2.9680226   -2.9680226   -1.7029486  0.059628292   -2.9680226     1.265074   547498 
 1241000    1.0001163   -2.9701598   -2.9701598   -1.7030463  0.056003373   -2.9701598    1.2671136   547498 
 1242000   0.99989667    -2.969593    -2.969593   -1.7027577  0.052461314    -2.969593    1.2668354   547498 
 1243000   0.99841346   -2.9682853   -2.9682853   -1.7033291    0.0499115   -2.9682853    1.2649562   547498 
 1244000   0.99912005   -2.9686915   -2.9686915   -1.7028401  0.045522079   -2.9686915    1.2658514   547498 
 1245000   0.99920717   -2.9683938   -2.9683938    -1.702432  0.059632703   -2.9683938    1.2659618   547498 
 1246000    1.0002735   -2.9692282   -2.9692282   -1.7019153  0.064720697   -2.9692282    1.2673128   547498 
 1247000    1.0018648   -2.9710476   -2.9710476   -1.7017187  0.066415972   -2.9710476    1.2693289   547498 
 1248000    1.0010464   -2.9700596   -2.9700596   -1.7017676   0.06453322   -2.9700596     1.268292   547498 
 1249000    1.0008824   -2.9706815   -2.9706815   -1.7025973  0.058451228   -2.9706815    1.2680842   547498 
 1250000   0.99957889   -2.9692755   -2.9692755   -1.7028428  0.046334223   -2.9692755    1.2664327   547498 
 1251000   0.99942187   -2.9694303   -2.9694303   -1.7031965  0.056982753   -2.9694303    1.2662338   547498 
 1252000   0.99949121   -2.9701042   -2.9701042   -1.7037826  0.061453749   -2.9701042    1.2663216   547498 
 1253000   0.99797921   -2.9686337   -2.9686337   -1.7042277  0.062752468   -2.9686337     1.264406   547498 
 1254000   0.99949311    -2.971113    -2.971113    -1.704789  0.061199912    -2.971113    1.2663241   547498 
 1255000   0.99983639   -2.9718548   -2.9718548   -1.7050958  0.056322344   -2.9718548     1.266759   547498 
 1256000   0.99832683   -2.9693504   -2.9693504   -1.7045039  0.061775677   -2.9693504    1.2648464   547498 
 1257000    1.0013749   -2.9741769   -2.9741769   -1.7054686   0.05067563   -2.9741769    1.2687082   547498 
 1258000   0.99997746    -2.973021    -2.973021   -1.7060833  0.053903316    -2.973021    1.2669377   547498 
 1259000    0.9987684   -2.9713331   -2.9713331   -1.7059272  0.061213887   -2.9713331    1.2654059   547498 
 1260000    1.0008105   -2.9744442   -2.9744442    -1.706451    0.0646088   -2.9744442    1.2679931   547498 
 1261000    1.0003384   -2.9736545   -2.9736545   -1.7062596  0.065361186   -2.9736545     1.267395   547498 
 1262000    1.0016341   -2.9745869   -2.9745869   -1.7055502  0.058303271   -2.9745869    1.2690366   547498 
 1263000    1.0013805   -2.9741883   -2.9741883    -1.705473  0.051648863   -2.9741883    1.2687153   547498 
 1264000    0.9994068   -2.9723988   -2.9723988    -1.706184  0.062545719   -2.9723988    1.2662147   547498 
 1265000   0.99927694   -2.9718209   -2.9718209   -1.7057707  0.059371743   -2.9718209    1.2660502   547498 
 1266000    1.0005407   -2.9745732   -2.9745732   -1.7069219  0.053180911   -2.9745732    1.2676513   547498 
 1267000    1.0007469   -2.9749585   -2.9749585    -1.707046  0.061348528   -2.9749585    1.2679126   547498 
 1268000   0.99896015   -2.9735042   -2.9735042   -1.7078554  0.057105518   -2.9735042    1.2656488   547498 
 1269000   0.99900769    -2.973996    -2.973996   -1.7082869  0.047173536    -2.973996    1.2657091   547498 
 1270000   0.99751904   -2.9722012   -2.9722012   -1.7083782   0.06057968   -2.9722012     1.263823   547498 
 1271000   0.99909225   -2.9733854   -2.9733854   -1.7075692  0.056330414   -2.9733854    1.2658162   547498 
 1272000   0.99970692   -2.9743431   -2.9743431   -1.7077482  0.058267306   -2.9743431    1.2665949   547498 
 1273000   0.99935518   -2.9737177   -2.9737177   -1.7075683  0.061500092   -2.9737177    1.2661493   547498 
 1274000   0.99966624   -2.9738644   -2.9738644    -1.707321  0.060126036   -2.9738644    1.2665434   547498 
 1275000   0.99913644   -2.9737652   -2.9737652    -1.707893  0.063362526   -2.9737652    1.2658722   547498 
 1276000   0.99909935   -2.9746928   -2.9746928   -1.7088676  0.067230515   -2.9746928    1.2658252   547498 
 1277000   0.99893552   -2.9745279   -2.9745279   -1.7089103  0.063943737   -2.9745279    1.2656176   547498 
 1278000   0.99970652    -2.974731    -2.974731   -1.7081366  0.065770705    -2.974731    1.2665944   547498 
 1279000     1.001887   -2.9767401   -2.9767401   -1.7073831  0.053269857   -2.9767401    1.2693571   547498 
 1280000   0.99978266   -2.9743757   -2.9743757   -1.7076848  0.060256324   -2.9743757    1.2666909   547498 
 1281000    1.0002597   -2.9756292   -2.9756292   -1.7083338  0.064339808   -2.9756292    1.2672954   547498 
 1282000   0.99891287   -2.9746662   -2.9746662   -1.7090773  0.059581096   -2.9746662    1.2655889   547498 
 1283000    0.9979373   -2.9729039   -2.9729039    -1.708551  0.063079671   -2.9729039    1.2643529   547498 
 1284000   0.99950741   -2.9746273   -2.9746273   -1.7082852  0.058990796   -2.9746273    1.2663422   547498 
 1285000    1.0004321   -2.9758225   -2.9758225   -1.7083088  0.054798279   -2.9758225    1.2675137   547498 
 1286000   0.99987573   -2.9751081   -2.9751081   -1.7082992   0.06733299   -2.9751081    1.2668088   547498 
 1287000   0.99959938   -2.9750551   -2.9750551   -1.7085964  0.059201773   -2.9750551    1.2664587   547498 
 1288000   0.99884531   -2.9753818   -2.9753818   -1.7098785   0.05888666   -2.9753818    1.2655033   547498 
 1289000   0.99941889   -2.9760833   -2.9760833   -1.7098533  0.062276635   -2.9760833      1.26623   547498 
 1290000   0.99911461   -2.9758361   -2.9758361   -1.7099916  0.059198997   -2.9758361    1.2658445   547498 
 1291000    1.0000637   -2.9770669   -2.9770669     -1.71002   0.06828364   -2.9770669    1.2670469   547498 
 1292000   0.99979571   -2.9757142   -2.9757142   -1.7090068  0.061650301   -2.9757142    1.2667074   547498 
 1293000    1.0006127   -2.9766146   -2.9766146    -1.708872  0.063820171   -2.9766146    1.2677426   547498 
 1294000    1.0003133   -2.9765585   -2.9765585   -1.7091954  0.054907297   -2.9765585    1.2673632   547498 
 1295000   0.99972395   -2.9753289   -2.9753289   -1.7087124   0.05962979   -2.9753289    1.2666165   547498 
 1296000   0.99966292   -2.9759732   -2.9759732    -1.709434  0.060701247   -2.9759732    1.2665392   547498 
 1297000   0.99877358   -2.9742416   -2.9742416   -1.7088292  0.061845431   -2.9742416    1.2654124   547498 
 1298000   0.99866488   -2.9741771   -2.9741771   -1.7089023  0.066797833   -2.9741771    1.2652747   547498 
 1299000   0.99986186   -2.9749409   -2.9749409   -1.7081496  0.058713195   -2.9749409    1.2667913   547498 
 1300000   0.99989071   -2.9747659   -2.9747659   -1.7079381  0.059186896   -2.9747659    1.2668278   547498 
 1301000    1.0021277   -2.9770629   -2.9770629   -1.7074009  0.058306249   -2.9770629    1.2696619   547498 
 1302000   0.99980315   -2.9744815   -2.9744815   -1.7077646  0.061601395   -2.9744815    1.2667169   547498 
 1303000   0.99902607   -2.9735286   -2.9735286   -1.7077963  0.056396845   -2.9735286    1.2657323   547498 
 1304000   0.99871029   -2.9730011   -2.9730011   -1.7076688  0.059144843   -2.9730011    1.2653323   547498 
 1305000   0.99876249   -2.9742122   -2.9742122   -1.7088139  0.049738225   -2.9742122    1.2653984   547498 
 1306000    0.9992387   -2.9746033   -2.9746033   -1.7086016  0.054365453   -2.9746033    1.2660017   547498 
 1307000    0.9969581   -2.9717658   -2.9717658   -1.7086535  0.062845414   -2.9717658    1.2631123   547498 
 1308000   0.99892132   -2.9739586   -2.9739586   -1.7083589  0.062529085   -2.9739586    1.2655996   547498 
 1309000   0.99927856   -2.9747608   -2.9747608   -1.7087086  0.061105803   -2.9747608    1.2660522   547498 
 1310000   0.99895439   -2.9736647   -2.9736647   -1.7080232  0.065361577   -2.9736647    1.2656415   547498 
 1311000    1.0002445   -2.9755891   -2.9755891    -1.708313  0.054553946   -2.9755891    1.2672761   547498 
 1312000   0.99976699   -2.9747754   -2.9747754   -1.7081043  0.063045879   -2.9747754    1.2666711   547498 
 1313000   0.99837923   -2.9746755   -2.9746755   -1.7097627  0.057007015   -2.9746755    1.2649128   547498 
 1314000    0.9998576   -2.9749059   -2.9749059     -1.70812  0.056667691   -2.9749059    1.2667859   547498 
 1315000   0.99997843   -2.9756325   -2.9756325   -1.7086935  0.065045125   -2.9756325    1.2669389   547498 
 1316000   0.99879808   -2.9741502   -2.9741502   -1.7087067  0.063088353   -2.9741502    1.2654435   547498 
 1317000   0.99906887   -2.9739347   -2.9739347   -1.7081481  0.061622651   -2.9739347    1.2657866   547498 
 1318000   0.99920739   -2.9749651   -2.9749651    -1.709003  0.052537248   -2.9749651    1.2659621   547498 
 1319000   0.99971811    -2.974351    -2.974351   -1.7077419  0.056992946    -2.974351    1.2666091   547498 
 1320000   0.99923251   -2.9731364   -2.9731364   -1.7071425  0.065146478   -2.9731364    1.2659939   547498 
 1321000   0.99981867   -2.9739088   -2.9739088   -1.7071722  0.055184788   -2.9739088    1.2667365   547498 
 1322000    1.0005001   -2.9754131   -2.9754131   -1.7078132  0.067162641   -2.9754131    1.2675999   547498 
 1323000    1.0002681   -2.9756719   -2.9756719   -1.7083659  0.064531289   -2.9756719     1.267306   547498 
 1324000    0.9993373   -2.9749437   -2.9749437   -1.7088171  0.062436244   -2.9749437    1.2661266   547498 
 1325000    1.0007023   -2.9762038   -2.9762038   -1.7083477  0.060324452   -2.9762038    1.2678561   547498 
 1326000    1.0008075     -2.97576     -2.97576   -1.7077706  0.065710089     -2.97576    1.2679894   547498 
 1327000    1.0001791   -2.9748296   -2.9748296   -1.7076365  0.057689394   -2.9748296    1.2671932   547498 
 1328000    1.0006274   -2.9756971   -2.9756971   -1.7079359  0.063978557   -2.9756971    1.2677612   547498 
 1329000   0.99914748   -2.9745316   -2.9745316   -1.7086455  0.052434058   -2.9745316    1.2658862   547498 
 1330000   0.99848901   -2.9741911   -2.9741911   -1.7091392  0.062248989   -2.9741911    1.2650519   547498 
 1331000   0.99839212   -2.9745991   -2.9745991   -1.7096699  0.053426492   -2.9745991    1.2649291   547498 
 1332000   0.99830683   -2.9742771   -2.9742771    -1.709456  0.059574833   -2.9742771    1.2648211   547498 
 1333000   0.99907615   -2.9747692   -2.9747692   -1.7089734  0.062539517   -2.9747692    1.2657958   547498 
 1334000   0.99962952   -2.9752124   -2.9752124   -1.7087155  0.056754179   -2.9752124    1.2664969   547498 
 1335000   0.99922872   -2.9751326   -2.9751326   -1.7091435  0.070770285   -2.9751326    1.2659891   547498 
 1336000   0.99909433   -2.9738467   -2.9738467   -1.7080279  0.069858259   -2.9738467    1.2658188   547498 
 1337000   0.99997049   -2.9739849   -2.9739849    -1.707056  0.057575778   -2.9739849    1.2669289   547498 
 1338000    1.0023998     -2.97653     -2.97653   -1.7065233   0.05751137     -2.97653    1.2700067   547498 
 1339000    1.0003602   -2.9749699   -2.9749699   -1.7075473  0.069317199   -2.9749699    1.2674226   547498 
 1340000   0.99960683   -2.9744074   -2.9744074   -1.7079393  0.068465119   -2.9744074    1.2664681   547498 
 1341000    1.0007249   -2.9748469   -2.9748469   -1.7069622  0.065677419   -2.9748469    1.2678847   547498 
 1342000    1.0019191    -2.975935    -2.975935   -1.7065374   0.06037092    -2.975935    1.2693976   547498 
 1343000   0.99937616   -2.9730649   -2.9730649    -1.706889  0.057930578   -2.9730649    1.2661759   547498 
 1344000    1.0008559   -2.9748461   -2.9748461   -1.7067954  0.059457222   -2.9748461    1.2680507   547498 
 1345000   0.99963233    -2.973297    -2.973297   -1.7067966  0.065767831    -2.973297    1.2665004   547498 
 1346000    1.0004107   -2.9744654   -2.9744654   -1.7069788  0.063316369   -2.9744654    1.2674866   547498 
 1347000   0.99960497   -2.9727349   -2.9727349   -1.7062692  0.057860786   -2.9727349    1.2664658   547498 
 1348000   0.99925704   -2.9728592   -2.9728592   -1.7068342  0.060932087   -2.9728592     1.266025   547498 
 1349000     1.000348   -2.9746173   -2.9746173   -1.7072101  0.055605098   -2.9746173    1.2674072   547498 
 1350000   0.99988383   -2.9727267   -2.9727267   -1.7059076  0.065758121   -2.9727267    1.2668191   547498 
 1351000    1.0004661   -2.9732294   -2.9732294   -1.7056726  0.064218041   -2.9732294    1.2675569   547498 
 1352000    1.0010869   -2.9745619   -2.9745619   -1.7062186  0.061500642   -2.9745619    1.2683433   547498 
 1353000    1.0006972   -2.9738435   -2.9738435   -1.7059939  0.069619097   -2.9738435    1.2678495   547498 
 1354000    0.9998434   -2.9733243   -2.9733243   -1.7065564   0.06349171   -2.9733243    1.2667679   547498 
 1355000    1.0013639   -2.9752672   -2.9752672   -1.7065729  0.058849641   -2.9752672    1.2686943   547498 
 1356000    1.0004859   -2.9731192   -2.9731192   -1.7055373  0.074862136   -2.9731192    1.2675819   547498 
 1357000    1.0012604   -2.9739643   -2.9739643   -1.7054012  0.059721587   -2.9739643    1.2685631   547498 
 1358000    0.9996722   -2.9724854   -2.9724854   -1.7059345  0.069138636   -2.9724854     1.266551   547498 
 1359000    0.9988131   -2.9719181   -2.9719181   -1.7064556  0.060208987   -2.9719181    1.2654625   547498 
 1360000   0.99970857   -2.9726378   -2.9726378   -1.7060408  0.061712406   -2.9726378     1.266597   547498 
 1361000   0.99904155   -2.9720769   -2.9720769    -1.706325  0.058446181   -2.9720769    1.2657519   547498 
 1362000   0.99958275   -2.9727147   -2.9727147   -1.7062771  0.049545024   -2.9727147    1.2664376   547498 
 1363000    1.0005682   -2.9741949   -2.9741949   -1.7065087  0.052871215   -2.9741949    1.2676862   547498 
 1364000    1.0006536   -2.9741658   -2.9741658   -1.7063714  0.068814574   -2.9741658    1.2677944   547498 
 1365000    1.0015607   -2.9758212   -2.9758212   -1.7068776  0.057985514   -2.9758212    1.2689436   547498 
 1366000    1.0002222   -2.9736226   -2.9736226   -1.7063748  0.056819909   -2.9736226    1.2672478   547498 
 1367000    1.0004137   -2.9741536   -2.9741536   -1.7066632  0.054139492   -2.9741536    1.2674904   547498 
 1368000   0.99919094   -2.9727405   -2.9727405   -1.7067993  0.058207319   -2.9727405    1.2659412   547498 
 1369000   0.99893294   -2.9725284   -2.9725284   -1.7069141  0.062157525   -2.9725284    1.2656143   547498 
 1370000   0.99935836   -2.9736113   -2.9736113    -1.707458  0.056772824   -2.9736113    1.2661533   547498 
 1371000   0.99844467   -2.9719269   -2.9719269   -1.7069312  0.056890066   -2.9719269    1.2649957   547498 
 1372000   0.99859448   -2.9725368   -2.9725368   -1.7073513  0.062508098   -2.9725368    1.2651855   547498 
 1373000   0.99819271   -2.9720266   -2.9720266   -1.7073501  0.063695627   -2.9720266    1.2646765   547498 
 1374000   0.99874783   -2.9730788   -2.9730788    -1.707699   0.06130649   -2.9730788    1.2653798   547498 
 1375000   0.99967296   -2.9753871   -2.9753871   -1.7088352  0.057589239   -2.9753871    1.2665519   547498 
 1376000   0.99883858    -2.974811    -2.974811   -1.7093162    0.0648657    -2.974811    1.2654948   547498 
 1377000    0.9990878   -2.9743808   -2.9743808   -1.7085703  0.064906462   -2.9743808    1.2658105   547498 
 1378000   0.99941565   -2.9741355   -2.9741355   -1.7079095  0.069424952   -2.9741355    1.2662259   547498 
 1379000   0.99977941   -2.9748575   -2.9748575   -1.7081707  0.059273068   -2.9748575    1.2666868   547498 
 1380000   0.99797891   -2.9731069   -2.9731069   -1.7087013  0.066343932   -2.9731069    1.2644056   547498 
 1381000    0.9995144   -2.9739901   -2.9739901    -1.707639  0.057461041   -2.9739901     1.266351   547498 
 1382000    1.0005886   -2.9746689   -2.9746689   -1.7069569  0.059957553   -2.9746689     1.267712   547498 
 1383000    1.0000317   -2.9755157   -2.9755157   -1.7085092  0.061454188   -2.9755157    1.2670065   547498 
 1384000    1.0002498   -2.9753341   -2.9753341   -1.7080514   0.06460746   -2.9753341    1.2672827   547498 
 1385000    1.0019051   -2.9775772   -2.9775772   -1.7081972  0.069134328   -2.9775772      1.26938   547498 
 1386000   0.99885388   -2.9743735   -2.9743735   -1.7088593  0.065951346   -2.9743735    1.2655142   547498 
 1387000    1.0010345   -2.9771662   -2.9771662   -1.7088893  0.055798056   -2.9771662    1.2682769   547498 
 1388000   0.99978728   -2.9752984   -2.9752984   -1.7086017  0.065571082   -2.9752984    1.2666968   547498 
 1389000    1.0012907   -2.9762085   -2.9762085   -1.7076069  0.055045397   -2.9762085    1.2686016   547498 
 1390000    1.0014065   -2.9763067   -2.9763067   -1.7075585  0.053843085   -2.9763067    1.2687482   547498 
 1391000     1.000173   -2.9756138   -2.9756138   -1.7084283  0.054812258   -2.9756138    1.2671854   547498 
 1392000    1.0010129   -2.9770659   -2.9770659   -1.7088163  0.063909332   -2.9770659    1.2682496   547498 
 1393000    1.0010583   -2.9757241   -2.9757241    -1.707417   0.04977572   -2.9757241    1.2683071   547498 
 1394000    1.0027084   -2.9789149   -2.9789149   -1.7085171  0.047427438   -2.9789149    1.2703978   547498 
 1395000   0.99874042   -2.9748583   -2.9748583   -1.7094879  0.057336879   -2.9748583    1.2653704   547498 
 1396000    1.0004126   -2.9765968   -2.9765968   -1.7091078  0.063632434   -2.9765968     1.267489   547498 
 1397000   0.99941745   -2.9751827   -2.9751827   -1.7089545  0.072205239   -2.9751827    1.2662282   547498 
 1398000     1.000577   -2.9761677   -2.9761677   -1.7084705  0.056257241   -2.9761677    1.2676973   547498 
 1399000    1.0006154    -2.976137    -2.976137   -1.7083911   0.06126592    -2.976137     1.267746   547498 
 1400000    1.0001357   -2.9751117   -2.9751117   -1.7079735  0.057856579   -2.9751117    1.2671382   547498 
 1401000   0.99932064    -2.975455    -2.975455   -1.7093495  0.058849526    -2.975455    1.2661055   547498 
 1402000   0.99992867   -2.9770576   -2.9770576   -1.7101817   0.05827782   -2.9770576    1.2668759   547498 
 1403000   0.99896871    -2.975487    -2.975487   -1.7098273  0.053935784    -2.975487    1.2656597   547498 
 1404000   0.99853734   -2.9754113   -2.9754113   -1.7102981  0.060854871   -2.9754113    1.2651131   547498 
 1405000   0.99982211   -2.9767724   -2.9767724   -1.7100315  0.059720978   -2.9767724    1.2667409   547498 
 1406000    0.9981577   -2.9751025   -2.9751025   -1.7104703  0.060330727   -2.9751025    1.2646321   547498 
 1407000   0.99913605   -2.9754919   -2.9754919   -1.7096202  0.062421928   -2.9754919    1.2658717   547498 
 1408000   0.99956173   -2.9761302   -2.9761302   -1.7097192  0.061736096   -2.9761302     1.266411   547498 
 1409000   0.99945716   -2.9767446   -2.9767446   -1.7104661  0.055284223   -2.9767446    1.2662785   547498 
 1410000   0.99938974   -2.9776213   -2.9776213   -1.7114282  0.060486315   -2.9776213    1.2661931   547498 
 1411000   0.99947237   -2.9783373   -2.9783373   -1.7120395  0.059891751   -2.9783373    1.2662978   547498 
 1412000   0.99795358   -2.9765699   -2.9765699   -1.7121964  0.056201141   -2.9765699    1.2643735   547498 
 1413000    1.0007209   -2.9793897   -2.9793897     -1.71151  0.059617047   -2.9793897    1.2678797   547498 
 1414000   0.99891832   -2.9761726   -2.9761726   -1.7105768  0.057987864   -2.9761726    1.2655958   547498 
 1415000    1.0008814   -2.9785564   -2.9785564   -1.7104734  0.057051069   -2.9785564     1.268083   547498 
 1416000    0.9995815   -2.9769188   -2.9769188   -1.7104828  0.057564942   -2.9769188    1.2664361   547498 
 1417000   0.99927589   -2.9762805   -2.9762805   -1.7102316  0.066926563   -2.9762805    1.2660488   547498 
 1418000     0.999863   -2.9765284   -2.9765284   -1.7097357  0.061215744   -2.9765284    1.2667927   547498 
 1419000    1.0002949   -2.9767752   -2.9767752   -1.7094353   0.06515812   -2.9767752    1.2673399   547498 
 1420000    1.0006894   -2.9775643   -2.9775643   -1.7097246  0.059130992   -2.9775643    1.2678397   547498 
 1421000    1.0008499   -2.9779381   -2.9779381    -1.709895  0.065744596   -2.9779381    1.2680431   547498 
 1422000    1.0009565   -2.9782789   -2.9782789   -1.7101007  0.061866134   -2.9782789    1.2681782   547498 
 1423000    1.0013349   -2.9782085   -2.9782085    -1.709551  0.056197059   -2.9782085    1.2686575   547498 
 1424000    1.0015843   -2.9783743   -2.9783743   -1.7094009  0.062029422   -2.9783743    1.2689735   547498 
 1425000    1.0023925   -2.9797618   -2.9797618   -1.7097643  0.068146917   -2.9797618    1.2699975   547498 
 1426000    1.0013959   -2.9791884   -2.9791884   -1.7104536  0.059298579   -2.9791884    1.2687348   547498 
 1427000    1.0006595   -2.9775547   -2.9775547   -1.7097529  0.064466319   -2.9775547    1.2678018   547498 
 1428000   0.99910265   -2.9769323   -2.9769323   -1.7111029  0.062922878   -2.9769323    1.2658294   547498 
 1429000    1.0006833   -2.9781602   -2.9781602   -1.7103283  0.056540568   -2.9781602    1.2678319   547498 
 1430000   0.99967828   -2.9776334   -2.9776334   -1.7110747  0.060824788   -2.9776334    1.2665587   547498 
 1431000   0.99904334   -2.9763538   -2.9763538   -1.7105996  0.066359415   -2.9763538    1.2657542   547498 
 1432000   0.99978611   -2.9773481   -2.9773481   -1.7106528  0.061687631   -2.9773481    1.2666953   547498 
 1433000    1.0000979   -2.9785351   -2.9785351   -1.7114448  0.055150604   -2.9785351    1.2670904   547498 
 1434000   0.99921475    -2.976134    -2.976134   -1.7101626  0.072101157    -2.976134    1.2659714   547498 
 1435000    1.0008758   -2.9772626   -2.9772626   -1.7091867  0.060144462   -2.9772626    1.2680758   547498 
 1436000   0.99897309   -2.9763947   -2.9763947   -1.7107295  0.064468436   -2.9763947    1.2656652   547498 
 1437000   0.99965057   -2.9774205   -2.9774205   -1.7108969  0.065126364   -2.9774205    1.2665236   547498 
 1438000   0.99921242    -2.976904    -2.976904   -1.7109355  0.057189485    -2.976904    1.2659684   547498 
 1439000    1.0002995   -2.9776845   -2.9776845   -1.7103388  0.062831998   -2.9776845    1.2673457   547498 
 1440000    1.0005746   -2.9776973   -2.9776973   -1.7100031  0.057748847   -2.9776973    1.2676943   547498 
 1441000    1.0001263   -2.9759443   -2.9759443   -1.7088179  0.066119827   -2.9759443    1.2671263   547498 
 1442000    1.0008768   -2.9765955   -2.9765955   -1.7085183  0.051630872   -2.9765955    1.2680771   547498 
 1443000    1.0004793   -2.9770355   -2.9770355    -1.709462  0.068510487   -2.9770355    1.2675735   547498 
 1444000    1.0014175   -2.9779417   -2.9779417   -1.7091795  0.057849318   -2.9779417    1.2687622   547498 
 1445000    1.0021201   -2.9785027   -2.9785027   -1.7088503  0.060980377   -2.9785027    1.2696524   547498 
 1446000    1.0013616   -2.9772376   -2.9772376   -1.7085463  0.064590679   -2.9772376    1.2686913   547498 
 1447000    1.0025159   -2.9794373   -2.9794373   -1.7092836  0.057719553   -2.9794373    1.2701538   547498 
 1448000    1.0008729   -2.9776018   -2.9776018   -1.7095295  0.065653016   -2.9776018    1.2680723   547498 
 1449000   0.99986085   -2.9757994   -2.9757994   -1.7090095  0.064788444   -2.9757994      1.26679   547498 
 1450000    1.0016426   -2.9781306   -2.9781306   -1.7090833  0.062375594   -2.9781306    1.2690473   547498 
 1451000   0.99901285   -2.9756559   -2.9756559   -1.7099403  0.059626092   -2.9756559    1.2657156   547498 
 1452000    1.0000967   -2.9769577   -2.9769577   -1.7098689  0.073919706   -2.9769577    1.2670888   547498 
 1453000    1.0008588    -2.977196    -2.977196   -1.7091417  0.063766686    -2.977196    1.2680544   547498 
 1454000    1.0009791   -2.9776039   -2.9776039   -1.7093971  0.060605209   -2.9776039    1.2682067   547498 
 1455000   0.99962198   -2.9767367   -2.9767367   -1.7102494  0.060274574   -2.9767367    1.2664873   547498 
 1456000   0.99824584   -2.9761132   -2.9761132   -1.7113694  0.055347291   -2.9761132    1.2647438   547498 
 1457000   0.99826686   -2.9760334   -2.9760334    -1.711263   0.06161313   -2.9760334    1.2647704   547498 
 1458000   0.99800676   -2.9768726   -2.9768726   -1.7124317  0.057329602   -2.9768726    1.2644409   547498 
 1459000   0.99964952   -2.9795521   -2.9795521   -1.7130299  0.062510847   -2.9795521    1.2665222   547498 
 1460000   0.99938799   -2.9786784   -2.9786784   -1.7124875  0.053039843   -2.9786784    1.2661909   547498 
 1461000   0.99897554   -2.9779054   -2.9779054    -1.712237  0.058609121   -2.9779054    1.2656683   547498 
 1462000    0.9989515    -2.977882    -2.977882   -1.7122441  0.069345985    -2.977882    1.2656379   547498 
 1463000    1.0005075   -2.9798392   -2.9798392   -1.7122299  0.059434389   -2.9798392    1.2676093   547498 
 1464000    1.0010524   -2.9806063   -2.9806063   -1.7123067  0.052267868   -2.9806063    1.2682996   547498 
 1465000   0.99876903   -2.9780323   -2.9780323   -1.7126256  0.060629465   -2.9780323    1.2654067   547498 
 1466000   0.99835315   -2.9775569   -2.9775569   -1.7126772  0.064949008   -2.9775569    1.2648798   547498 
 1467000    1.0001809   -2.9805366   -2.9805366   -1.7133412  0.059838648   -2.9805366    1.2671954   547498 
 1468000   0.99881998   -2.9796026   -2.9796026   -1.7141313  0.058595798   -2.9796026    1.2654712   547498 
 1469000   0.99954907   -2.9797439   -2.9797439   -1.7133489  0.059259026   -2.9797439     1.266395   547498 
 1470000   0.99922489   -2.9790343   -2.9790343   -1.7130501  0.058644697   -2.9790343    1.2659842   547498 
 1471000   0.99920765   -2.9789677   -2.9789677   -1.7130053  0.057793417   -2.9789677    1.2659624   547498 
 1472000   0.99919681   -2.9797491   -2.9797491   -1.7138004  0.062366891   -2.9797491    1.2659487   547498 
 1473000    0.9992111   -2.9797712   -2.9797712   -1.7138044  0.060072368   -2.9797712    1.2659668   547498 
 1474000   0.99798595   -2.9782659   -2.9782659   -1.7138513  0.056253755   -2.9782659    1.2644145   547498 
 1475000   0.99788006    -2.977453    -2.977453   -1.7131726  0.064655528    -2.977453    1.2642804   547498 
 1476000   0.99869281   -2.9786958   -2.9786958   -1.7133857  0.067769378   -2.9786958    1.2653101   547498 
 1477000   0.99852102   -2.9789058   -2.9789058   -1.7138134  0.069897536   -2.9789058    1.2650925   547498 
 1478000   0.99987216   -2.9801245   -2.9801245   -1.7133202  0.060159967   -2.9801245    1.2668043   547498 
 1479000    1.0013666    -2.980946    -2.980946   -1.7122483  0.065532733    -2.980946    1.2686977   547498 
 1480000    1.0006833   -2.9797055   -2.9797055   -1.7118735  0.055303145   -2.9797055     1.267832   547498 
 1481000    1.0012869   -2.9811774   -2.9811774   -1.7125806  0.057705305   -2.9811774    1.2685967   547498 
 1482000   0.99897103   -2.9796613   -2.9796613   -1.7139987  0.063769747   -2.9796613    1.2656626   547498 
 1483000   0.99982624    -2.980295    -2.980295   -1.7135489  0.057833905    -2.980295    1.2667461   547498 
 1484000   0.99960825   -2.9798669   -2.9798669    -1.713397  0.055366514   -2.9798669    1.2664699   547498 
 1485000   0.99855576   -2.9787689   -2.9787689   -1.7136324  0.059330937   -2.9787689    1.2651365   547498 
 1486000    0.9985024   -2.9779632   -2.9779632   -1.7128943  0.054636376   -2.9779632    1.2650689   547498 
 1487000   0.99864872   -2.9783121   -2.9783121   -1.7130579  0.058934189   -2.9783121    1.2652542   547498 
 1488000   0.99930671   -2.9794196   -2.9794196   -1.7133317  0.065954865   -2.9794196    1.2660879   547498 
 1489000   0.99959012   -2.9803409   -2.9803409   -1.7138939  0.058924307   -2.9803409     1.266447   547498 
 1490000   0.99903233   -2.9800892   -2.9800892   -1.7143489   0.05453848   -2.9800892    1.2657403   547498 
 1491000   0.99943603   -2.9794706   -2.9794706   -1.7132188  0.067946241   -2.9794706    1.2662517   547498 
 1492000   0.99881294   -2.9776433   -2.9776433    -1.712181  0.067339521   -2.9776433    1.2654623   547498 
 1493000   0.99873422   -2.9787277   -2.9787277   -1.7133651  0.055190875   -2.9787277    1.2653626   547498 
 1494000   0.99855695   -2.9783823   -2.9783823   -1.7132443  0.069839955   -2.9783823     1.265138   547498 
 1495000    1.0004946   -2.9801859   -2.9801859    -1.712593  0.054532285   -2.9801859    1.2675929   547498 
 1496000   0.99832455   -2.9772529   -2.9772529   -1.7124094  0.059757852   -2.9772529    1.2648435   547498 
 1497000   0.99756184   -2.9773269   -2.9773269   -1.7134497  0.067189361   -2.9773269    1.2638772   547498 
 1498000   0.99929714   -2.9789448   -2.9789448    -1.712869  0.056413282   -2.9789448    1.2660758   547498 
 1499000   0.99806361   -2.9768867   -2.9768867   -1.7123738  0.074281331   -2.9768867    1.2645129   547498 
 1500000   0.99847731   -2.9776053   -2.9776053   -1.7125682  0.057660937   -2.9776053    1.2650371   547498 
 1501000   0.99900913   -2.9772434   -2.9772434   -1.7115326  0.061143469   -2.9772434    1.2657109   547498 
 1502000    0.9999921   -2.9789299   -2.9789299   -1.7119737  0.057954437   -2.9789299    1.2669563   547498 
 1503000    1.0010418   -2.9791146   -2.9791146   -1.7108285  0.061965195   -2.9791146    1.2682862   547498 
 1504000    1.0006333    -2.978409    -2.978409   -1.7106404  0.051908312    -2.978409    1.2677686   547498 
 1505000   0.99891672   -2.9764737   -2.9764737   -1.7108799  0.062344545   -2.9764737    1.2655938   547498 
 1506000   0.99838146   -2.9764907   -2.9764907    -1.711575  0.058310217   -2.9764907    1.2649156   547498 
 1507000   0.99846222   -2.9760298   -2.9760298   -1.7110118  0.055217178   -2.9760298     1.265018   547498 
 1508000    1.0000393   -2.9776476   -2.9776476   -1.7106315  0.065200883   -2.9776476    1.2670161   547498 
 1509000   0.99906768   -2.9763547   -2.9763547   -1.7105697  0.067183879   -2.9763547    1.2657851   547498 
 1510000    1.0002989   -2.9785291   -2.9785291   -1.7111841  0.053654499   -2.9785291     1.267345   547498 
 1511000    1.0000449    -2.977128    -2.977128   -1.7101048  0.058341317    -2.977128    1.2670232   547498 
 1512000    1.0005478   -2.9784169   -2.9784169   -1.7107567  0.056232993   -2.9784169    1.2676603   547498 
 1513000   0.99917262   -2.9773031   -2.9773031   -1.7113851  0.063767763   -2.9773031     1.265918   547498 
 1514000   0.99721746   -2.9751174   -2.9751174   -1.7116765  0.069079392   -2.9751174    1.2634409   547498 
 1515000   0.99809179   -2.9758211   -2.9758211   -1.7112724  0.061975689   -2.9758211    1.2645486   547498 
 1516000    0.9997948   -2.9782327   -2.9782327   -1.7115264  0.060506287   -2.9782327    1.2667063   547498 
 1517000    1.0005577   -2.9786498   -2.9786498    -1.710977  0.063517922   -2.9786498    1.2676729   547498 
 1518000   0.99817809   -2.9762393   -2.9762393   -1.7115813  0.060938231   -2.9762393     1.264658   547498 
 1519000   0.99925389   -2.9774275   -2.9774275   -1.7114065  0.056055766   -2.9774275     1.266021   547498 
 1520000   0.99775687   -2.9763338   -2.9763338   -1.7122095  0.056007927   -2.9763338    1.2641243   547498 
 1521000   0.99839659   -2.9767116   -2.9767116   -1.7117768  0.065524318   -2.9767116    1.2649348   547498 
 1522000   0.99781132   -2.9766606   -2.9766606   -1.7124673  0.056116565   -2.9766606    1.2641933   547498 
 1523000   0.99792883   -2.9763289   -2.9763289   -1.7119867  0.061341229   -2.9763289    1.2643422   547498 
 1524000   0.99848378   -2.9772995   -2.9772995   -1.7122542  0.058044511   -2.9772995    1.2650453   547498 
 1525000   0.99998102   -2.9801294   -2.9801294   -1.7131871  0.046176395   -2.9801294    1.2669422   547498 
 1526000   0.99889307     -2.97844     -2.97844   -1.7128761  0.063005233     -2.97844    1.2655638   547498 
 1527000    1.0005201   -2.9795913   -2.9795913   -1.7119661   0.06389168   -2.9795913    1.2676252   547498 
 1528000   0.99962998   -2.9792181   -2.9792181   -1.7127206  0.050344115   -2.9792181    1.2664975   547498 
 1529000    1.0002534   -2.9804935   -2.9804935   -1.7132061  0.058240936   -2.9804935    1.2672873   547498 
 1530000    1.0005027   -2.9805631   -2.9805631   -1.7129599   0.05654042   -2.9805631    1.2676032   547498 
 1531000   0.99974484    -2.979938    -2.979938    -1.713295  0.062970205    -2.979938     1.266643   547498 
 1532000    1.0000022   -2.9800313   -2.9800313   -1.7130623   0.07029285   -2.9800313     1.266969   547498 
 1533000   0.99950026   -2.9795068   -2.9795068   -1.7131737  0.055372741   -2.9795068    1.2663331   547498 
 1534000    1.0007944   -2.9807478   -2.9807478    -1.712775  0.068152396   -2.9807478    1.2679728   547498 
 1535000    1.0000846   -2.9806916   -2.9806916   -1.7136181  0.063760931   -2.9806916    1.2670735   547498 
 1536000   0.99930811   -2.9795379   -2.9795379   -1.7134483   0.07090404   -2.9795379    1.2660897   547498 
 1537000   0.99952071   -2.9805961   -2.9805961   -1.7142371  0.070020756   -2.9805961     1.266359   547498 
 1538000    1.0008931   -2.9820312   -2.9820312   -1.7139334  0.054121367   -2.9820312    1.2680978   547498 
 1539000     1.000869   -2.9826293   -2.9826293    -1.714562  0.065638455   -2.9826293    1.2680673   547498 
 1540000    1.0000357   -2.9813561   -2.9813561   -1.7143447  0.061535304   -2.9813561    1.2670114   547498 
 1541000    1.0002475   -2.9816211   -2.9816211   -1.7143413   0.06840259   -2.9816211    1.2672798   547498 
 1542000   0.99913898   -2.9798413   -2.9798413   -1.7139659  0.059335257   -2.9798413    1.2658754   547498 
 1543000    1.0002085   -2.9809169   -2.9809169   -1.7136865  0.061219551   -2.9809169    1.2672305   547498 
 1544000   0.99956331   -2.9797038   -2.9797038   -1.7132908  0.055502469   -2.9797038     1.266413   547498 
 1545000    1.0030621   -2.9839545   -2.9839545   -1.7131086  0.067476778   -2.9839545    1.2708459   547498 
 1546000   0.99983442   -2.9797471   -2.9797471   -1.7129906  0.070002772   -2.9797471    1.2667565   547498 
 1547000    1.0015099   -2.9818692   -2.9818692   -1.7129899  0.058640381   -2.9818692    1.2688793   547498 
 1548000    1.0012465   -2.9804275   -2.9804275    -1.711882  0.057200189   -2.9804275    1.2685455   547498 
 1549000    1.0003334   -2.9793887   -2.9793887       -1.712  0.058649156   -2.9793887    1.2673886   547498 
 1550000    1.0010668   -2.9798983   -2.9798983   -1.7115804  0.060586832   -2.9798983    1.2683178   547498 
 1551000   0.99959249   -2.9797205   -2.9797205   -1.7132706  0.054119206   -2.9797205      1.26645   547498 
 1552000   0.99840414   -2.9772133   -2.9772133    -1.712269  0.062959619   -2.9772133    1.2649444   547498 
 1553000    1.0013725   -2.9797807   -2.9797807   -1.7110755  0.062855535   -2.9797807    1.2687052   547498 
 1554000   0.99985404   -2.9782642   -2.9782642   -1.7114829  0.062034615   -2.9782642    1.2667813   547498 
 1555000   0.99982497   -2.9779443   -2.9779443   -1.7111998  0.064087669   -2.9779443    1.2667445   547498 
 1556000   0.99942714   -2.9767549   -2.9767549   -1.7105144  0.054607556   -2.9767549    1.2662405   547498 
 1557000   0.99825126   -2.9766199   -2.9766199   -1.7118692  0.068221793   -2.9766199    1.2647507   547498 
 1558000   0.99957823   -2.9769654   -2.9769654   -1.7105335  0.063928907   -2.9769654    1.2664319   547498 
 1559000    1.0013262   -2.9787831   -2.9787831   -1.7101365  0.056112411   -2.9787831    1.2686466   547498 
 1560000    1.0005434   -2.9783941   -2.9783941   -1.7107394  0.063347349   -2.9783941    1.2676547   547498 
 1561000   0.99958888   -2.9776226   -2.9776226   -1.7111772   0.06034137   -2.9776226    1.2664454   547498 
 1562000    0.9995048   -2.9767497   -2.9767497   -1.7104108  0.059462751   -2.9767497    1.2663389   547498 
 1563000   0.99924214   -2.9761688   -2.9761688   -1.7101627  0.062808149   -2.9761688    1.2660061   547498 
 1564000   0.99960565    -2.974708    -2.974708   -1.7082413  0.060169092    -2.974708    1.2664666   547498 
 1565000   0.99957737   -2.9767998   -2.9767998    -1.710369  0.064067407   -2.9767998    1.2664308   547498 
 1566000   0.99859494   -2.9752213   -2.9752213   -1.7100352  0.057852214   -2.9752213    1.2651861   547498 
 1567000   0.99813951   -2.9745999   -2.9745999   -1.7099908  0.070472193   -2.9745999    1.2646091   547498 
 1568000   0.99860105   -2.9765427   -2.9765427   -1.7113489  0.056506649   -2.9765427    1.2651939   547498 
 1569000   0.99890824   -2.9760979   -2.9760979   -1.7105149  0.056686922   -2.9760979     1.265583   547498 
 1570000   0.99957108    -2.977004    -2.977004   -1.7105811  0.055367169    -2.977004    1.2664228   547498 
 1571000   0.99954072   -2.9762514   -2.9762514   -1.7098671  0.046914657   -2.9762514    1.2663844   547498 
 1572000   0.99873261   -2.9758222   -2.9758222   -1.7104617  0.059786682   -2.9758222    1.2653605   547498 
 1573000   0.99910331   -2.9768584   -2.9768584   -1.7110283  0.067982098   -2.9768584    1.2658302   547498 
 1574000   0.99892568   -2.9771101   -2.9771101   -1.7115049  0.060423574   -2.9771101    1.2656051   547498 
 1575000    1.0000639    -2.978754    -2.978754   -1.7117068  0.059484539    -2.978754    1.2670472   547498 
 1576000   0.99969159   -2.9795296   -2.9795296   -1.7129541  0.052777188   -2.9795296    1.2665755   547498 
 1577000   0.99962422   -2.9782677   -2.9782677   -1.7117775  0.065848027   -2.9782677    1.2664902   547498 
 1578000   0.99940344   -2.9783855   -2.9783855   -1.7121751  0.064234439   -2.9783855    1.2662105   547498 
 1579000    1.0004232   -2.9801018   -2.9801018   -1.7125994  0.061273374   -2.9801018    1.2675024   547498 
 1580000    0.9990327   -2.9788064   -2.9788064   -1.7130657  0.070004741   -2.9788064    1.2657407   547498 
 1581000   0.99906642   -2.9783262   -2.9783262   -1.7125427  0.067116827   -2.9783262    1.2657835   547498 
 1582000   0.99954458   -2.9785111   -2.9785111   -1.7121218  0.067626004   -2.9785111    1.2663893   547498 
 1583000   0.99925877   -2.9784658   -2.9784658   -1.7124386  0.072668739   -2.9784658    1.2660272   547498 
 1584000    1.0004775   -2.9794716   -2.9794716   -1.7119003  0.061655423   -2.9794716    1.2675713   547498 
 1585000    1.0023488   -2.9820071   -2.9820071    -1.712065  0.063142464   -2.9820071    1.2699422   547498 
 1586000   0.99991434   -2.9790161   -2.9790161   -1.7121583   0.07311576   -2.9790161    1.2668577   547498 
 1587000    1.0008761   -2.9795374   -2.9795374   -1.7114611  0.064887582   -2.9795374    1.2680763   547498 
 1588000    1.0020428   -2.9810684   -2.9810684    -1.711514  0.053832914   -2.9810684    1.2695545   547498 
 1589000   0.99867225   -2.9773921   -2.9773921   -1.7121081  0.070562702   -2.9773921    1.2652841   547498 
 1590000    1.0002749   -2.9789912   -2.9789912   -1.7116766  0.060342478   -2.9789912    1.2673146   547498 
 1591000   0.99947213   -2.9781734   -2.9781734   -1.7118759  0.072458141   -2.9781734    1.2662975   547498 
 1592000   0.99986814   -2.9787928   -2.9787928   -1.7119936  0.075142607   -2.9787928    1.2667992   547498 
 1593000    1.0012451   -2.9802844   -2.9802844   -1.7117406  0.052669175   -2.9802844    1.2685438   547498 
 1594000    1.0014382   -2.9803749   -2.9803749   -1.7115864  0.060634035   -2.9803749    1.2687884   547498 
 1595000    1.0011619   -2.9802014   -2.9802014   -1.7117631  0.060453288   -2.9802014    1.2684384   547498 
 1596000    1.0012777   -2.9796466   -2.9796466   -1.7110616  0.060021753   -2.9796466     1.268585   547498 
 1597000   0.99964006   -2.9775794   -2.9775794   -1.7110691  0.069220686   -2.9775794    1.2665102   547498 
 1598000   0.99859574   -2.9770853   -2.9770853   -1.7118982  0.066111969   -2.9770853    1.2651871   547498 
 1599000    1.0001859   -2.9793339   -2.9793339   -1.7121321  0.053463673   -2.9793339    1.2672017   547498 
 1600000    1.0000563   -2.9793852   -2.9793852   -1.7123476  0.056508984   -2.9793852    1.2670377   547498 
 1601000   0.99898974   -2.9770186   -2.9770186   -1.7113323  0.061385124   -2.9770186    1.2656863   547498 
 1602000   0.99866401   -2.9773121   -2.9773121   -1.7120385  0.065788386   -2.9773121    1.2652736   547498 
 1603000   0.99898883    -2.978194    -2.978194   -1.7125089  0.058836764    -2.978194    1.2656852   547498 
 1604000   0.99779894      -2.9773      -2.9773   -1.7131224  0.061770037      -2.9773    1.2641776   547498 
 1605000   0.99828731   -2.9774155   -2.9774155   -1.7126191  0.056172255   -2.9774155    1.2647964   547498 
 1606000   0.99786666   -2.9764919   -2.9764919   -1.7122285  0.058278708   -2.9764919    1.2642634   547498 
 1607000   0.99841932   -2.9771692   -2.9771692   -1.7122056  0.062530875   -2.9771692    1.2649636   547498 
 1608000   0.99848552    -2.976771    -2.976771   -1.7117235  0.061751639    -2.976771    1.2650475   547498 
 1609000   0.99919528   -2.9775799   -2.9775799   -1.7116332  0.060705188   -2.9775799    1.2659467   547498 
 1610000   0.99849533   -2.9769436   -2.9769436   -1.7118837  0.062818201   -2.9769436    1.2650599   547498 
 1611000     1.000631   -2.9791051   -2.9791051   -1.7113394  0.058990918   -2.9791051    1.2677657   547498 
 1612000    1.0000823    -2.979455    -2.979455   -1.7123844  0.057270108    -2.979455    1.2670706   547498 
 1613000   0.99855923   -2.9769641   -2.9769641   -1.7118233   0.06084977   -2.9769641    1.2651409   547498 
 1614000   0.99965343   -2.9782285   -2.9782285   -1.7117013  0.057491704   -2.9782285    1.2665272   547498 
 1615000   0.99965885   -2.9784692   -2.9784692   -1.7119352  0.064275466   -2.9784692    1.2665341   547498 
 1616000    0.9995417   -2.9786358   -2.9786358   -1.7122502  0.064166436   -2.9786358    1.2663856   547498 
 1617000   0.99907463   -2.9783437   -2.9783437   -1.7125498  0.064217634   -2.9783437    1.2657939   547498 
 1618000    1.0002694   -2.9785201   -2.9785201   -1.7112124  0.064296027   -2.9785201    1.2673077   547498 
 1619000   0.99996467   -2.9788834   -2.9788834   -1.7119619  0.062147796   -2.9788834    1.2669215   547498 
 1620000    0.9989324   -2.9779297   -2.9779297    -1.712316   0.06458442   -2.9779297    1.2656137   547498 
 1621000   0.99800317   -2.9772396   -2.9772396   -1.7128032  0.055234839   -2.9772396    1.2644364   547498 
 1622000   0.99797791   -2.9772795   -2.9772795   -1.7128752  0.068827791   -2.9772795    1.2644044   547498 
 1623000   0.99973346   -2.9789293   -2.9789293   -1.7123007  0.061978913   -2.9789293    1.2666286   547498 
 1624000   0.99948844   -2.9795563   -2.9795563   -1.7132381  0.056168045   -2.9795563    1.2663181   547498 
 1625000   0.99970106   -2.9797111   -2.9797111   -1.7131236  0.057522332   -2.9797111    1.2665875   547498 
 1626000   0.99958332   -2.9783644   -2.9783644    -1.711926  0.065958517   -2.9783644    1.2664383   547498 
 1627000     1.000869   -2.9804754   -2.9804754   -1.7124081   0.05907661   -2.9804754    1.2680673   547498 
 1628000    0.9994722   -2.9799471   -2.9799471   -1.7136496  0.066875623   -2.9799471    1.2662976   547498 
 1629000    1.0001132   -2.9792183   -2.9792183   -1.7121086  0.065028761   -2.9792183    1.2671097   547498 
 1630000   0.99945095   -2.9790937   -2.9790937   -1.7128231  0.060024706   -2.9790937    1.2662706   547498 
 1631000   0.99997599   -2.9792579   -2.9792579   -1.7123221  0.062699462   -2.9792579    1.2669358   547498 
 1632000     1.000412   -2.9802876   -2.9802876   -1.7127994   0.05724202   -2.9802876    1.2674882   547498 
 1633000   0.99984382   -2.9787357   -2.9787357   -1.7119673  0.060080841   -2.9787357    1.2667684   547498 
 1634000   0.99924112    -2.979092    -2.979092   -1.7130872   0.06535066    -2.979092    1.2660048   547498 
 1635000   0.99982166   -2.9810945   -2.9810945   -1.7143542    0.0657141   -2.9810945    1.2667403   547498 
 1636000    1.0011498   -2.9821559   -2.9821559   -1.7137328  0.061241848   -2.9821559    1.2684231   547498 
 1637000    1.0013141   -2.9826392   -2.9826392    -1.714008  0.069178705   -2.9826392    1.2686311   547498 
 1638000     1.000646   -2.9818467   -2.9818467    -1.714062  0.060251585   -2.9818467    1.2677847   547498 
 1639000    1.0003154   -2.9807293   -2.9807293   -1.7133634  0.064114471   -2.9807293    1.2673659   547498 
 1640000   0.99967139   -2.9802817   -2.9802817   -1.7137318  0.065740037   -2.9802817    1.2665499   547498 
 1641000    0.9993408   -2.9792633   -2.9792633   -1.7131322   0.05596984   -2.9792633    1.2661311   547498 
 1642000    1.0001754   -2.9799145   -2.9799145    -1.712726  0.060329038   -2.9799145    1.2671885   547498 
 1643000    1.0000338    -2.980218    -2.980218    -1.713209  0.060502784    -2.980218     1.267009   547498 
 1644000   0.99981269   -2.9797544   -2.9797544   -1.7130254  0.062057945   -2.9797544     1.266729   547498 
 1645000   0.99866442     -2.97774     -2.97774   -1.7124659  0.061303779     -2.97774    1.2652741   547498 
 1646000   0.99990301   -2.9793126   -2.9793126   -1.7124692  0.060677784   -2.9793126    1.2668434   547498 
 1647000   0.99994991   -2.9789839   -2.9789839   -1.7120811  0.061733165   -2.9789839    1.2669028   547498 
 1648000    1.0004717   -2.9792072   -2.9792072   -1.7116433  0.060893521   -2.9792072    1.2675639   547498 
 1649000    1.0009712   -2.9794569   -2.9794569   -1.7112601  0.061746653   -2.9794569    1.2681968   547498 
 1650000   0.99985519   -2.9779087   -2.9779087   -1.7111259  0.066351593   -2.9779087    1.2667828   547498 
 1651000    1.0020477   -2.9800813   -2.9800813   -1.7105207   0.06441098   -2.9800813    1.2695606   547498 
 1652000    1.0003241   -2.9779546   -2.9779546   -1.7105776   0.06495509   -2.9779546     1.267377   547498 
 1653000    1.0015256   -2.9794589   -2.9794589   -1.7105597  0.064412052   -2.9794589    1.2688992   547498 
 1654000    1.0004014    -2.976599    -2.976599   -1.7091243  0.064074626    -2.976599    1.2674748   547498 
 1655000     1.000018   -2.9774917   -2.9774917   -1.7105026  0.067509193   -2.9774917    1.2669891   547498 
 1656000   0.99932388   -2.9772621   -2.9772621   -1.7111525  0.061896741   -2.9772621    1.2661096   547498 
 1657000    0.9971936   -2.9748347   -2.9748347   -1.7114241    0.0567138   -2.9748347    1.2634107   547498 
 1658000   0.99802928   -2.9766619   -2.9766619   -1.7121925  0.047499848   -2.9766619    1.2644694   547498 
 1659000   0.99893954   -2.9772982   -2.9772982   -1.7116755  0.048402083   -2.9772982    1.2656227   547498 
 1660000   0.99917714    -2.977604    -2.977604   -1.7116803  0.069176862    -2.977604    1.2659237   547498 
 1661000   0.99773943   -2.9751515   -2.9751515   -1.7110493  0.053817125   -2.9751515    1.2641022   547498 
 1662000    0.9967502   -2.9739944   -2.9739944   -1.7111456  0.061124355   -2.9739944    1.2628489   547498 
 1663000   0.99801196   -2.9760613   -2.9760613   -1.7116139  0.056004215   -2.9760613    1.2644475   547498 
 1664000   0.99799187   -2.9757001   -2.9757001   -1.7112781  0.056103663   -2.9757001     1.264422   547498 
 1665000   0.99942017   -2.9772102   -2.9772102   -1.7109786  0.055220732   -2.9772102    1.2662316   547498 
 1666000   0.99919505   -2.9772722   -2.9772722   -1.7113258  0.055070516   -2.9772722    1.2659464   547498 
 1667000   0.99931774   -2.9770602   -2.9770602   -1.7109584  0.060917844   -2.9770602    1.2661019   547498 
 1668000   0.99966254   -2.9767316   -2.9767316   -1.7101929  0.058659305   -2.9767316    1.2665387   547498 
 1669000    1.0012615   -2.9794462   -2.9794462   -1.7108816  0.065424828   -2.9794462    1.2685646   547498 
 1670000    1.0006965   -2.9785753   -2.9785753   -1.7107266  0.070557088   -2.9785753    1.2678487   547498 
 1671000    1.0000767    -2.977639    -2.977639   -1.7105755  0.065403636    -2.977639    1.2670635   547498 
 1672000   0.99921299   -2.9767644   -2.9767644   -1.7107952  0.063694758   -2.9767644    1.2659692   547498 
 1673000    1.0004027    -2.977112    -2.977112   -1.7096355  0.062137528    -2.977112    1.2674765   547498 
 1674000    1.0016775   -2.9777975   -2.9777975   -1.7087059  0.066822748   -2.9777975    1.2690916   547498 
 1675000    1.0003324   -2.9762883   -2.9762883   -1.7089009  0.060384502   -2.9762883    1.2673874   547498 
 1676000   0.99861186   -2.9747376   -2.9747376     -1.70953  0.063010935   -2.9747376    1.2652075   547498 
 1677000   0.99856878   -2.9752908   -2.9752908   -1.7101378  0.065323844   -2.9752908     1.265153   547498 
 1678000   0.99763422   -2.9742033   -2.9742033   -1.7102344   0.06801471   -2.9742033    1.2639689   547498 
 1679000    1.0000541   -2.9767164   -2.9767164   -1.7096815  0.057097257   -2.9767164    1.2670348   547498 
 1680000    0.9991346   -2.9768217   -2.9768217   -1.7109519  0.062558142   -2.9768217    1.2658698   547498 
 1681000   0.99976924   -2.9779693   -2.9779693   -1.7112954  0.061870405   -2.9779693    1.2666739   547498 
 1682000    1.0002579   -2.9770265   -2.9770265   -1.7097335  0.067586045   -2.9770265     1.267293   547498 
 1683000    1.0007669   -2.9781066   -2.9781066   -1.7101687   0.05737165   -2.9781066    1.2679379   547498 
 1684000   0.99900335   -2.9760811   -2.9760811   -1.7103776  0.058184295   -2.9760811    1.2657035   547498 
 1685000   0.99973565   -2.9762711   -2.9762711   -1.7096398  0.073142705   -2.9762711    1.2666314   547498 
 1686000   0.99976119   -2.9771268   -2.9771268   -1.7104631  0.058774643   -2.9771268    1.2666637   547498 
 1687000   0.99970063   -2.9765675   -2.9765675   -1.7099805  0.061564279   -2.9765675     1.266587   547498 
 1688000   0.99987748   -2.9765148   -2.9765148   -1.7097038  0.067236177   -2.9765148     1.266811   547498 
 1689000    1.0006477   -2.9791955   -2.9791955   -1.7114086  0.059206333   -2.9791955    1.2677869   547498 
 1690000   0.99948039   -2.9778112   -2.9778112   -1.7115032  0.064450275   -2.9778112    1.2663079   547498 
 1691000   0.99889578   -2.9776974   -2.9776974   -1.7121301  0.070065602   -2.9776974    1.2655673   547498 
 1692000   0.99889591   -2.9783032   -2.9783032   -1.7127358  0.062146385   -2.9783032    1.2655674   547498 
 1693000   0.99856476   -2.9779803   -2.9779803   -1.7128325  0.053512387   -2.9779803    1.2651479   547498 
 1694000   0.99816696   -2.9772127   -2.9772127   -1.7125688  0.070774654   -2.9772127    1.2646439   547498 
 1695000   0.99957814   -2.9776638   -2.9776638    -1.711232  0.057222082   -2.9776638    1.2664318   547498 
 1696000    1.0000824   -2.9779421   -2.9779421   -1.7108714  0.057405982   -2.9779421    1.2670706   547498 
 1697000   0.99827192   -2.9768389   -2.9768389    -1.712062  0.066018986   -2.9768389    1.2647769   547498 
 1698000    0.9999434   -2.9788502   -2.9788502   -1.7119556  0.065515088   -2.9788502    1.2668946   547498 
 1699000   0.99968107   -2.9785617   -2.9785617   -1.7119995  0.063217724   -2.9785617    1.2665622   547498 
 1700000    1.0000405   -2.9781382   -2.9781382   -1.7111207   0.07249013   -2.9781382    1.2670175   547498 
 1701000    1.0013553   -2.9801896   -2.9801896   -1.7115062  0.065784406   -2.9801896    1.2686834   547498 
 1702000    1.0011868    -2.979439    -2.979439   -1.7109691  0.066748475    -2.979439    1.2684699   547498 
 1703000   0.99957954   -2.9778962   -2.9778962   -1.7114626  0.065596436   -2.9778962    1.2664336   547498 
 1704000    1.0012802   -2.9799275   -2.9799275   -1.7113392  0.066434919   -2.9799275    1.2685883   547498 
 1705000   0.99999387   -2.9779093   -2.9779093   -1.7109508  0.061971041   -2.9779093    1.2669585   547498 
 1706000    1.0003284   -2.9783713   -2.9783713   -1.7109889  0.061914778   -2.9783713    1.2673824   547498 
 1707000   0.99874064   -2.9770231   -2.9770231   -1.7116524  0.063346658   -2.9770231    1.2653707   547498 
 1708000   0.99885814   -2.9774854   -2.9774854   -1.7119658  0.061907196   -2.9774854    1.2655196   547498 
 1709000    1.0002659   -2.9798839   -2.9798839   -1.7125808  0.065772436   -2.9798839    1.2673032   547498 
 1710000    1.0000951    -2.979423    -2.979423   -1.7123363  0.053056878    -2.979423    1.2670867   547498 
 1711000   0.99891221   -2.9779043   -2.9779043   -1.7123162  0.062785968   -2.9779043    1.2655881   547498 
 1712000   0.99864723   -2.9775374   -2.9775374   -1.7122851  0.070230842   -2.9775374    1.2652524   547498 
 1713000   0.99978386    -2.978677    -2.978677   -1.7119845  0.057225044    -2.978677    1.2666924   547498 
 1714000   0.99911477   -2.9785675   -2.9785675   -1.7127228  0.056095856   -2.9785675    1.2658447   547498 
 1715000    0.9998811   -2.9786605   -2.9786605   -1.7118449  0.065374676   -2.9786605    1.2668156   547498 
 1716000   0.99947583   -2.9785831   -2.9785831    -1.712281  0.059568944   -2.9785831    1.2663022   547498 
 1717000    1.0017715   -2.9811513   -2.9811513   -1.7119406  0.069119037   -2.9811513    1.2692107   547498 
 1718000    1.0010764   -2.9800107   -2.9800107   -1.7116807  0.062577286   -2.9800107      1.26833   547498 
 1719000    1.0004108    -2.978904    -2.978904   -1.7114173  0.062637797    -2.978904    1.2674867   547498 
 1720000   0.99886097   -2.9768348   -2.9768348   -1.7113116  0.069613131   -2.9768348    1.2655232   547498 
 1721000   0.99858019   -2.9754598   -2.9754598   -1.7102924  0.059993181   -2.9754598    1.2651674   547498 
 1722000   0.99904398   -2.9774246   -2.9774246   -1.7116696  0.057075091   -2.9774246     1.265755   547498 
 1723000   0.99825372   -2.9763137   -2.9763137     -1.71156  0.066101184   -2.9763137    1.2647538   547498 
 1724000   0.99871621   -2.9759244   -2.9759244   -1.7105847  0.065850794   -2.9759244    1.2653397   547498 
 1725000   0.99777142   -2.9745225   -2.9745225   -1.7103798  0.068272648   -2.9745225    1.2641427   547498 
 1726000   0.99859361   -2.9751576   -2.9751576   -1.7099731   0.06575143   -2.9751576    1.2651844   547498 
 1727000    1.0000057   -2.9768833   -2.9768833   -1.7099099  0.054836752   -2.9768833    1.2669734   547498 
 1728000   0.99813414   -2.9755845   -2.9755845   -1.7109823  0.067814031   -2.9755845    1.2646023   547498 
 1729000    1.0001755   -2.9773176   -2.9773176    -1.710129  0.055271997   -2.9773176    1.2671886   547498 
 1730000    1.0004293   -2.9767425   -2.9767425   -1.7092324  0.063267171   -2.9767425    1.2675102   547498 
 1731000    1.0002879    -2.977061    -2.977061   -1.7097299  0.056876988    -2.977061    1.2673311   547498 
 1732000     1.000569   -2.9769826   -2.9769826   -1.7092954   0.06573538   -2.9769826    1.2676872   547498 
 1733000    1.0001086   -2.9764959   -2.9764959    -1.709392  0.056761961   -2.9764959    1.2671039   547498 
 1734000    1.0003302   -2.9774764   -2.9774764   -1.7100918  0.063159606   -2.9774764    1.2673846   547498 
 1735000    1.0008628   -2.9779037   -2.9779037   -1.7098443  0.058264782   -2.9779037    1.2680594   547498 
 1736000   0.99986202   -2.9765526   -2.9765526   -1.7097612  0.066626565   -2.9765526    1.2667915   547498 
 1737000   0.99904691   -2.9755303   -2.9755303   -1.7097715  0.064030094   -2.9755303    1.2657587   547498 
 1738000    1.0002475   -2.9760269   -2.9760269   -1.7087471  0.064121233   -2.9760269    1.2672799   547498 
 1739000   0.99919782   -2.9752275   -2.9752275   -1.7092775  0.070243034   -2.9752275    1.2659499   547498 
 1740000   0.99992945   -2.9758571   -2.9758571   -1.7089803  0.060332759   -2.9758571    1.2668769   547498 
 1741000   0.99933606   -2.9762776   -2.9762776   -1.7101525  0.063866634   -2.9762776    1.2661251   547498 
 1742000   0.99866595   -2.9753239   -2.9753239   -1.7100478  0.064054722   -2.9753239    1.2652761   547498 
 1743000    1.0008681     -2.97785     -2.97785   -1.7097839  0.061941154     -2.97785    1.2680661   547498 
 1744000   0.99942165   -2.9759866   -2.9759866    -1.709753  0.056797658   -2.9759866    1.2662335   547498 
 1745000    1.0004902   -2.9778028   -2.9778028   -1.7102154  0.068233242   -2.9778028    1.2675874   547498 
 1746000    1.0004244   -2.9774981   -2.9774981   -1.7099942  0.066982457   -2.9774981     1.267504   547498 
 1747000    1.0008757   -2.9776723   -2.9776723   -1.7095966  0.066227059   -2.9776723    1.2680758   547498 
 1748000    1.0009863   -2.9774254   -2.9774254   -1.7092095   0.06399547   -2.9774254    1.2682158   547498 
 1749000    1.0002622    -2.976645    -2.976645   -1.7093466  0.067654527    -2.976645    1.2672984   547498 
 1750000    1.0006631   -2.9764047   -2.9764047   -1.7085983   0.06159035   -2.9764047    1.2678064   547498 
 1751000    1.0012785   -2.9770369   -2.9770369   -1.7084509  0.065040433   -2.9770369     1.268586   547498 
 1752000     1.000685    -2.976537    -2.976537   -1.7087028  0.069861696    -2.976537    1.2678342   547498 
 1753000   0.99970528   -2.9769303   -2.9769303   -1.7103374  0.057652957   -2.9769303    1.2665929   547498 
 1754000   0.99924222   -2.9768057   -2.9768057   -1.7107995  0.060129174   -2.9768057    1.2660062   547498 
 1755000    1.0005493   -2.9774184   -2.9774184   -1.7097562  0.057456752   -2.9774184    1.2676622   547498 
 1756000    1.0013816   -2.9790633   -2.9790633   -1.7103466  0.063428184   -2.9790633    1.2687167   547498 
 1757000   0.99975233   -2.9760414   -2.9760414   -1.7093889  0.058167733   -2.9760414    1.2666525   547498 
 1758000    1.0008703   -2.9787278   -2.9787278   -1.7106589  0.059244307   -2.9787278    1.2680689   547498 
 1759000   0.99833543   -2.9748625   -2.9748625   -1.7100052  0.069036491   -2.9748625    1.2648573   547498 
 1760000   0.99920471   -2.9755926   -2.9755926   -1.7096339  0.064822181   -2.9755926    1.2659587   547498 
 1761000   0.99955111   -2.9764344   -2.9764344   -1.7100368  0.063729462   -2.9764344    1.2663975   547498 
 1762000   0.99995482   -2.9771903   -2.9771903   -1.7102812  0.068043233   -2.9771903     1.266909   547498 
 1763000   0.99934656   -2.9768878   -2.9768878   -1.7107494  0.064991405   -2.9768878    1.2661384   547498 
 1764000    1.0003034   -2.9771199   -2.9771199   -1.7097692  0.067999618   -2.9771199    1.2673506   547498 
 1765000    1.0013037   -2.9788179   -2.9788179      -1.7102  0.066081958   -2.9788179     1.268618   547498 
 1766000    1.0003271   -2.9768988   -2.9768988   -1.7095181  0.061663921   -2.9768988    1.2673807   547498 
 1767000     1.000078   -2.9773612   -2.9773612   -1.7102962   0.06551222   -2.9773612    1.2670651   547498 
 1768000    1.0009485   -2.9780776   -2.9780776   -1.7099097  0.069750968   -2.9780776    1.2681679   547498 
 1769000    1.0010538   -2.9779028   -2.9779028   -1.7096013  0.057668679   -2.9779028    1.2683014   547498 
 1770000    1.0005012   -2.9780398   -2.9780398   -1.7104385  0.057134185   -2.9780398    1.2676013   547498 
 1771000   0.99973145    -2.977377    -2.977377   -1.7107509   0.05355891    -2.977377     1.266626   547498 
 1772000   0.99980055   -2.9776791   -2.9776791   -1.7109655  0.064021888   -2.9776791    1.2667136   547498 
 1773000      0.99751   -2.9751952   -2.9751952   -1.7113837   0.06142566   -2.9751952    1.2638115   547498 
 1774000   0.99834596   -2.9762025   -2.9762025   -1.7113319  0.058331314   -2.9762025    1.2648707   547498 
 1775000   0.99813529   -2.9757731   -2.9757731   -1.7111694  0.061229542   -2.9757731    1.2646038   547498 
 1776000   0.99954045   -2.9768458   -2.9768458   -1.7104617  0.055781196   -2.9768458     1.266384   547498 
 1777000    0.9989489   -2.9775658   -2.9775658   -1.7119312  0.062484896   -2.9775658    1.2656346   547498 
 1778000   0.99723175   -2.9752549   -2.9752549   -1.7117959  0.062468648   -2.9752549     1.263459   547498 
 1779000   0.99974787    -2.978383    -2.978383   -1.7117362  0.059538123    -2.978383    1.2666468   547498 
 1780000   0.99764691   -2.9759194   -2.9759194   -1.7119344  0.055004311   -2.9759194     1.263985   547498 
 1781000   0.99867034   -2.9771115   -2.9771115   -1.7118298  0.063141537   -2.9771115    1.2652816   547498 
 1782000   0.99891631   -2.9771477   -2.9771477   -1.7115544  0.066282503   -2.9771477    1.2655933   547498 
 1783000   0.99848386   -2.9768749   -2.9768749   -1.7118295  0.066216222   -2.9768749    1.2650454   547498 
 1784000    1.0010378   -2.9790784   -2.9790784   -1.7107974  0.064251953   -2.9790784    1.2682811   547498 
 1785000    1.0012401   -2.9794275   -2.9794275   -1.7108901  0.049499134   -2.9794275    1.2685374   547498 
 1786000    1.0004828   -2.9786531   -2.9786531   -1.7110751  0.066186475   -2.9786531     1.267578   547498 
 1787000   0.99936357    -2.978196    -2.978196    -1.712036  0.072033887    -2.978196    1.2661599   547498 
 1788000   0.99997607   -2.9791184   -2.9791184   -1.7121824  0.068275633   -2.9791184     1.266936   547498 
 1789000   0.99917304   -2.9782105   -2.9782105    -1.712292  0.065791956   -2.9782105    1.2659185   547498 
 1790000   0.99924739   -2.9785128   -2.9785128   -1.7125001  0.068538248   -2.9785128    1.2660127   547498 
 1791000   0.99973036    -2.979226    -2.979226   -1.7126014  0.061661348    -2.979226    1.2666246   547498 
 1792000   0.99866661   -2.9782321   -2.9782321   -1.7129552     0.065385   -2.9782321    1.2652769   547498 
 1793000   0.99775602   -2.9776268   -2.9776268   -1.7135036  0.069591379   -2.9776268    1.2641232   547498 
 1794000   0.99815954    -2.978059    -2.978059   -1.7134245   0.06570738    -2.978059    1.2646345   547498 
 1795000   0.99717799   -2.9766788   -2.9766788   -1.7132879  0.066128911   -2.9766788    1.2633909   547498 
 1796000    1.0002239   -2.9796742   -2.9796742   -1.7124243  0.060410594   -2.9796742    1.2672499   547498 
 1797000    1.0006245   -2.9798589   -2.9798589   -1.7121014  0.062966457   -2.9798589    1.2677575   547498 
 1798000   0.99967509   -2.9792053   -2.9792053   -1.7126506  0.060007981   -2.9792053    1.2665546   547498 
 1799000    1.0018101   -2.9815159   -2.9815159   -1.7122562  0.060533957   -2.9815159    1.2692597   547498 
 1800000    1.0002041   -2.9796274   -2.9796274   -1.7124025  0.063320134   -2.9796274    1.2672249   547498 
 1801000    1.0026995   -2.9812771   -2.9812771   -1.7108907  0.062016824   -2.9812771    1.2703865   547498 
 1802000    1.0015162   -2.9801103   -2.9801103   -1.7112232  0.067411401   -2.9801103    1.2688872   547498 
 1803000    1.0005959   -2.9785718   -2.9785718   -1.7108506  0.066549608   -2.9785718    1.2677212   547498 
 1804000    1.0004795   -2.9788032   -2.9788032   -1.7112295  0.063075813   -2.9788032    1.2675738   547498 
 1805000    1.0037426   -2.9825917   -2.9825917   -1.7108837  0.061464942   -2.9825917     1.271708   547498 
 1806000    1.0009931   -2.9795074   -2.9795074   -1.7112829  0.065312865   -2.9795074    1.2682245   547498 
 1807000   0.99991662   -2.9783304   -2.9783304   -1.7114698  0.068635221   -2.9783304    1.2668606   547498 
 1808000   0.99907337   -2.9774735   -2.9774735   -1.7116813  0.052316277   -2.9774735    1.2657923   547498 
 1809000   0.99934637   -2.9786848   -2.9786848   -1.7125466  0.067461271   -2.9786848    1.2661381   547498 
 1810000    1.0000681   -2.9789277   -2.9789277   -1.7118751   0.06558155   -2.9789277    1.2670525   547498 
 1811000    0.9976038   -2.9758505   -2.9758505   -1.7119201  0.065493571   -2.9758505    1.2639304   547498 
 1812000   0.99791936   -2.9764762   -2.9764762    -1.712146  0.065372987   -2.9764762    1.2643302   547498 
 1813000   0.99798627   -2.9761562   -2.9761562   -1.7117413   0.06379342   -2.9761562    1.2644149   547498 
 1814000   0.99894221   -2.9773187   -2.9773187   -1.7116926  0.055625218   -2.9773187    1.2656261   547498 
 1815000    1.0010962   -2.9792837   -2.9792837   -1.7109285  0.058912687   -2.9792837    1.2683552   547498 
 1816000    1.0007222   -2.9795091   -2.9795091   -1.7116277  0.070501914   -2.9795091    1.2678813   547498 
 1817000    1.0007259   -2.9794429   -2.9794429    -1.711557  0.062653371   -2.9794429     1.267886   547498 
 1818000    1.0002581   -2.9789347   -2.9789347   -1.7116414  0.059176907   -2.9789347    1.2672932   547498 
 1819000    1.0001502   -2.9781498   -2.9781498   -1.7109932  0.060936345   -2.9781498    1.2671566   547498 
 1820000    1.0002973   -2.9780289   -2.9780289    -1.710686  0.063073815   -2.9780289    1.2673429   547498 
 1821000    1.0008841   -2.9794199   -2.9794199   -1.7113335  0.067897234   -2.9794199    1.2680864   547498 
 1822000    1.0008607   -2.9791648   -2.9791648    -1.711108  0.057037561   -2.9791648    1.2680568   547498 
 1823000   0.99911619   -2.9771739   -2.9771739   -1.7113273   0.06796814   -2.9771739    1.2658465   547498 
 1824000   0.99889251   -2.9771841   -2.9771841    -1.711621  0.066018361   -2.9771841    1.2655631   547498 
 1825000    1.0006147   -2.9801845   -2.9801845   -1.7124395  0.052605866   -2.9801845     1.267745   547498 
 1826000   0.99950043   -2.9787793   -2.9787793    -1.712446  0.070270517   -2.9787793    1.2663333   547498 
 1827000   0.99918381   -2.9787065   -2.9787065   -1.7127743  0.065748877   -2.9787065    1.2659322   547498 
 1828000    1.0005897   -2.9798821   -2.9798821   -1.7121687  0.069787654   -2.9798821    1.2677134   547498 
 1829000    1.0000106   -2.9779298   -2.9779298   -1.7109501  0.064445282   -2.9779298    1.2669797   547498 
 1830000    1.0000106    -2.977839    -2.977839   -1.7108594  0.059810775    -2.977839    1.2669796   547498 
 1831000    1.0004145    -2.979003    -2.979003   -1.7115115  0.061630168    -2.979003    1.2674915   547498 
 1832000    1.0006614   -2.9786901   -2.9786901   -1.7108859  0.074805501   -2.9786901    1.2678042   547498 
 1833000    1.0008316   -2.9797531   -2.9797531   -1.7117332  0.060411978   -2.9797531    1.2680199   547498 
 1834000    1.0007398   -2.9798443   -2.9798443   -1.7119407  0.058110981   -2.9798443    1.2679036   547498 
 1835000    1.0016987   -2.9811688   -2.9811688   -1.7120503  0.063294685   -2.9811688    1.2691184   547498 
 1836000     1.000222   -2.9791257   -2.9791257   -1.7118782  0.064473835   -2.9791257    1.2672476   547498 
 1837000   0.99992844   -2.9793054   -2.9793054   -1.7124298  0.072316593   -2.9793054    1.2668756   547498 
 1838000   0.99885824     -2.97755     -2.97755   -1.7120303  0.060937489     -2.97755    1.2655197   547498 
 1839000   0.99918032   -2.9782337   -2.9782337    -1.712306  0.068167109   -2.9782337    1.2659278   547498 
 1840000    0.9992194   -2.9774275   -2.9774275   -1.7114502  0.069534338   -2.9774275    1.2659773   547498 
 1841000    1.0002113    -2.978742    -2.978742   -1.7115081  0.066000212    -2.978742    1.2672339   547498 
 1842000   0.99833322   -2.9774792   -2.9774792   -1.7126247  0.065921983   -2.9774792    1.2648545   547498 
 1843000   0.99956538   -2.9783736   -2.9783736   -1.7119579  0.065684633   -2.9783736    1.2664156   547498 
 1844000   0.99820327   -2.9773086   -2.9773086   -1.7126188  0.064155167   -2.9773086    1.2646899   547498 
 1845000   0.99769055     -2.97667     -2.97667   -1.7126298  0.066204723     -2.97667    1.2640403   547498 
 1846000   0.99927555   -2.9795325   -2.9795325   -1.7134841  0.062844122   -2.9795325    1.2660484   547498 
 1847000   0.99914815   -2.9783469   -2.9783469   -1.7124599  0.059283957   -2.9783469     1.265887   547498 
 1848000    1.0002732   -2.9798814   -2.9798814    -1.712569  0.068261429   -2.9798814    1.2673124   547498 
 1849000    1.0002299   -2.9795663   -2.9795663   -1.7123087   0.06142704   -2.9795663    1.2672576   547498 
 1850000   0.99942916   -2.9782622   -2.9782622   -1.7120192  0.064613399   -2.9782622     1.266243   547498 
 1851000    1.0000611   -2.9783686   -2.9783686   -1.7113248  0.067268737   -2.9783686    1.2670437   547498 
 1852000   0.99938717    -2.978532    -2.978532   -1.7123422   0.05649228    -2.978532    1.2661898   547498 
 1853000   0.99912883   -2.9774831   -2.9774831   -1.7116206  0.066290926   -2.9774831    1.2658625   547498 
 1854000    0.9990173   -2.9789945   -2.9789945   -1.7132732  0.062695067   -2.9789945    1.2657212   547498 
 1855000    0.9986523   -2.9772246   -2.9772246   -1.7119659  0.071235454   -2.9772246    1.2652588   547498 
 1856000   0.99950565   -2.9782517   -2.9782517   -1.7119118  0.069817975   -2.9782517    1.2663399   547498 
 1857000     1.000306   -2.9789099   -2.9789099   -1.7115559  0.057106221   -2.9789099     1.267354   547498 
 1858000    1.0017809   -2.9806099   -2.9806099   -1.7113873  0.069573836   -2.9806099    1.2692226   547498 
 1859000   0.99994853   -2.9801432   -2.9801432   -1.7132422    0.0633074   -2.9801432    1.2669011   547498 
 1860000    1.0005592    -2.980138    -2.980138   -1.7124632  0.063736714    -2.980138    1.2676748   547498 
 1861000   0.99986191   -2.9785067   -2.9785067   -1.7117154   0.05631943   -2.9785067    1.2667913   547498 
 1862000    1.0016406   -2.9802657   -2.9802657   -1.7112209  0.064268558   -2.9802657    1.2690448   547498 
 1863000   0.99975717   -2.9784702   -2.9784702   -1.7118116  0.071405236   -2.9784702    1.2666586   547498 
 1864000   0.99935998   -2.9777632   -2.9777632   -1.7116079   0.05355872   -2.9777632    1.2661554   547498 
 1865000   0.99931842   -2.9782366   -2.9782366   -1.7121339  0.051848841   -2.9782366    1.2661027   547498 
 1866000   0.99766498   -2.9769476   -2.9769476   -1.7129397  0.056986796   -2.9769476    1.2640079   547498 
 1867000   0.99889345   -2.9779539   -2.9779539   -1.7123896  0.061086378   -2.9779539    1.2655643   547498 
 1868000   0.99901182   -2.9783277   -2.9783277   -1.7126134  0.066407353   -2.9783277    1.2657143   547498 
 1869000    1.0006914   -2.9795124   -2.9795124   -1.7116702   0.06100361   -2.9795124    1.2678423   547498 
 1870000    1.0003182   -2.9797625   -2.9797625   -1.7123931   0.06187798   -2.9797625    1.2673695   547498 
 1871000    1.0006911   -2.9794937   -2.9794937   -1.7116519   0.05561774   -2.9794937    1.2678419   547498 
 1872000   0.99961885   -2.9786141   -2.9786141   -1.7121308  0.061216137   -2.9786141    1.2664834   547498 
 1873000    1.0004074   -2.9788526   -2.9788526   -1.7113702   0.07756992   -2.9788526    1.2674824   547498 
 1874000    1.0003878   -2.9790095   -2.9790095   -1.7115518  0.075423767   -2.9790095    1.2674577   547498 
 1875000    1.0010797   -2.9797814   -2.9797814   -1.7114472  0.052239717   -2.9797814    1.2683342   547498 
 1876000    1.0013456   -2.9799731   -2.9799731    -1.711302  0.066071948   -2.9799731    1.2686711   547498 
 1877000    1.0018036   -2.9807553   -2.9807553   -1.7115039  0.060338207   -2.9807553    1.2692514   547498 
 1878000    1.0012979   -2.9808722   -2.9808722   -1.7122615  0.067234141   -2.9808722    1.2686107   547498 
 1879000    1.0001182   -2.9794393   -2.9794393   -1.7123233  0.067786408   -2.9794393     1.267116   547498 
 1880000   0.99983653   -2.9795566   -2.9795566   -1.7127974  0.068290339   -2.9795566    1.2667592   547498 
 1881000    1.0000552   -2.9796469   -2.9796469   -1.7126107  0.060095613   -2.9796469    1.2670362   547498 
 1882000   0.99898865   -2.9785608   -2.9785608   -1.7128759  0.053339547   -2.9785608    1.2656849   547498 
 1883000   0.99801129   -2.9783268   -2.9783268   -1.7138801  0.061127389   -2.9783268    1.2644466   547498 
 1884000   0.99893741   -2.9788572   -2.9788572   -1.7132372  0.066383112   -2.9788572      1.26562   547498 
 1885000   0.99943749   -2.9789683   -2.9789683   -1.7127147   0.06380309   -2.9789683    1.2662536   547498 
 1886000   0.99905499   -2.9796613   -2.9796613   -1.7138923  0.072309691   -2.9796613     1.265769   547498 
 1887000   0.99877568   -2.9790016   -2.9790016   -1.7135865  0.058974736   -2.9790016    1.2654151   547498 
 1888000   0.99993835   -2.9805719   -2.9805719   -1.7136837  0.057515412   -2.9805719    1.2668882   547498 
 1889000   0.99935084   -2.9801114   -2.9801114   -1.7139676  0.065598887   -2.9801114    1.2661438   547498 
 1890000    1.0009585   -2.9816248   -2.9816248   -1.7134442   0.06723438   -2.9816248    1.2681806   547498 
 1891000    1.0009817   -2.9814182   -2.9814182   -1.7132082  0.065608989   -2.9814182    1.2682101   547498 
 1892000   0.99970665   -2.9801498   -2.9801498   -1.7135552  0.063145686   -2.9801498    1.2665946   547498 
 1893000   0.99898908   -2.9798498   -2.9798498   -1.7141644  0.060380511   -2.9798498    1.2656855   547498 
 1894000    1.0010639   -2.9823766   -2.9823766   -1.7140624  0.057558838   -2.9823766    1.2683142   547498 
 1895000    1.0011398   -2.9810256   -2.9810256   -1.7126152  0.064944555   -2.9810256    1.2684104   547498 
 1896000    1.0005231   -2.9809295   -2.9809295   -1.7133005  0.061861689   -2.9809295     1.267629   547498 
 1897000   0.99920311   -2.9799364   -2.9799364   -1.7139798  0.064988441   -2.9799364    1.2659566   547498 
 1898000    1.0002288   -2.9809539   -2.9809539   -1.7136977  0.061354799   -2.9809539    1.2672561   547498 
 1899000   0.99938921   -2.9798996   -2.9798996   -1.7137072  0.072251448   -2.9798996    1.2661924   547498 
 1900000    1.0003106   -2.9812038   -2.9812038    -1.713844  0.072842274   -2.9812038    1.2673598   547498 
 1901000    1.0020195   -2.9830057   -2.9830057   -1.7134808  0.057028187   -2.9830057    1.2695249   547498 
 1902000     1.001009   -2.9830638   -2.9830638   -1.7148192   0.06380431   -2.9830638    1.2682446   547498 
 1903000    1.0025645   -2.9839257   -2.9839257   -1.7137103  0.075223107   -2.9839257    1.2702154   547498 
 1904000    1.0031751   -2.9847038   -2.9847038   -1.7137148  0.066904928   -2.9847038    1.2709891   547498 
 1905000    1.0010747   -2.9823639   -2.9823639    -1.714036  0.073460707   -2.9823639    1.2683279   547498 
 1906000    1.0009437    -2.981503    -2.981503   -1.7133411  0.054685609    -2.981503    1.2681619   547498 
 1907000    1.0009563    -2.981325    -2.981325   -1.7131471  0.066408261    -2.981325    1.2681778   547498 
 1908000    1.0010143    -2.981724    -2.981724   -1.7134726  0.058502328    -2.981724    1.2682513   547498 
 1909000     1.000662   -2.9821909   -2.9821909   -1.7143858  0.061504158   -2.9821909     1.267805   547498 
 1910000    1.0001653   -2.9810467   -2.9810467    -1.713871   0.06320008   -2.9810467    1.2671757   547498 
 1911000    0.9988822   -2.9792898   -2.9792898   -1.7137397   0.07392874   -2.9792898    1.2655501   547498 
 1912000    1.0001235   -2.9805194   -2.9805194   -1.7133966  0.058682009   -2.9805194    1.2671228   547498 
 1913000    1.0007607   -2.9808923   -2.9808923   -1.7129622  0.063998239   -2.9808923    1.2679301   547498 
 1914000    1.0018753   -2.9818446   -2.9818446   -1.7125023  0.067944932   -2.9818446    1.2693423   547498 
 1915000    1.0007752    -2.979652    -2.979652   -1.7117036  0.063507881    -2.979652    1.2679484   547498 
 1916000    1.0005069   -2.9798898   -2.9798898   -1.7122814  0.063256376   -2.9798898    1.2676084   547498 
 1917000    1.0000299   -2.9791345   -2.9791345   -1.7121304   0.06098432   -2.9791345    1.2670042   547498 
 1918000    1.0011196   -2.9809276   -2.9809276   -1.7125428  0.055762932   -2.9809276    1.2683848   547498 
 1919000    1.0014864   -2.9802635   -2.9802635    -1.711414  0.067530548   -2.9802635    1.2688494   547498 
 1920000    1.0006389   -2.9793052   -2.9793052   -1.7115295  0.059730401   -2.9793052    1.2677757   547498 
 1921000    0.9995906   -2.9774729   -2.9774729   -1.7110253  0.066853969   -2.9774729    1.2664476   547498 
 1922000   0.99986179   -2.9777692   -2.9777692    -1.710978  0.062090442   -2.9777692    1.2667912   547498 
 1923000   0.99997305    -2.978245    -2.978245   -1.7113129  0.060602278    -2.978245    1.2669321   547498 
 1924000   0.99939573   -2.9768889   -2.9768889   -1.7106882  0.049603307   -2.9768889    1.2662007   547498 
 1925000   0.99942678   -2.9762386   -2.9762386   -1.7099985   0.06138702   -2.9762386      1.26624   547498 
 1926000   0.99951297   -2.9770793   -2.9770793   -1.7107301  0.058060054   -2.9770793    1.2663492   547498 
 1927000   0.99916668   -2.9768712   -2.9768712   -1.7109607  0.053924462   -2.9768712    1.2659105   547498 
 1928000   0.99914378   -2.9771455   -2.9771455    -1.711264  0.060352997   -2.9771455    1.2658815   547498 
 1929000   0.99818024   -2.9769605   -2.9769605   -1.7122998  0.057569385   -2.9769605    1.2646607   547498 
 1930000   0.99849535   -2.9766625   -2.9766625   -1.7116026  0.057355883   -2.9766625    1.2650599   547498 
 1931000   0.99852784   -2.9772804   -2.9772804   -1.7121793  0.062576216   -2.9772804    1.2651011   547498 
 1932000   0.99789076    -2.976189    -2.976189   -1.7118951  0.058460429    -2.976189    1.2642939   547498 
 1933000    0.9989175   -2.9785972   -2.9785972   -1.7130025    0.0636508   -2.9785972    1.2655948   547498 
 1934000   0.99783152   -2.9759071   -2.9759071   -1.7116882  0.054118303   -2.9759071    1.2642189   547498 
 1935000   0.99938087   -2.9771261   -2.9771261   -1.7109442  0.066317365   -2.9771261    1.2661819   547498 
 1936000    1.0010626   -2.9793626   -2.9793626     -1.71105  0.063091845   -2.9793626    1.2683126   547498 
 1937000   0.99991898   -2.9776203   -2.9776203   -1.7107567  0.062722629   -2.9776203    1.2668636   547498 
 1938000   0.99908316   -2.9768888   -2.9768888   -1.7110841  0.066627882   -2.9768888    1.2658047   547498 
 1939000    1.0018608   -2.9797843   -2.9797843   -1.7104604  0.069364713   -2.9797843    1.2693238   547498 
 1940000    1.0017195   -2.9798864   -2.9798864   -1.7107416   0.06002045   -2.9798864    1.2691448   547498 
 1941000    1.0009142   -2.9794424   -2.9794424   -1.7113179  0.059002648   -2.9794424    1.2681245   547498 
 1942000    1.0004821   -2.9792776   -2.9792776   -1.7117005   0.07017798   -2.9792776    1.2675771   547498 
 1943000    1.0004819   -2.9797387   -2.9797387   -1.7121619  0.069489619   -2.9797387    1.2675768   547498 
 1944000   0.99999351   -2.9787502   -2.9787502   -1.7117922  0.058193262   -2.9787502    1.2669581   547498 
 1945000   0.99790847   -2.9774335   -2.9774335   -1.7131171  0.060561131   -2.9774335    1.2643164   547498 
 1946000    0.9974969   -2.9782513   -2.9782513   -1.7144564  0.065003962   -2.9782513    1.2637949   547498 
 1947000   0.99890547   -2.9786539   -2.9786539   -1.7130743  0.065461607   -2.9786539    1.2655795   547498 
 1948000   0.99916487   -2.9794806   -2.9794806   -1.7135724  0.067158597   -2.9794806    1.2659082   547498 
 1949000   0.99774378   -2.9774412   -2.9774412   -1.7133335  0.068539791   -2.9774412    1.2641077   547498 
 1950000   0.99818351   -2.9785221   -2.9785221   -1.7138572  0.058431927   -2.9785221    1.2646648   547498 
 1951000   0.99735271   -2.9788049   -2.9788049   -1.7151926  0.068637265   -2.9788049    1.2636123   547498 
 1952000   0.99973739   -2.9818825   -2.9818825    -1.715249  0.060756935   -2.9818825    1.2666336   547498 
 1953000   0.99869876   -2.9803235   -2.9803235   -1.7150059  0.055500481   -2.9803235    1.2653176   547498 
 1954000   0.99943467   -2.9805029   -2.9805029   -1.7142528  0.056321858   -2.9805029      1.26625   547498 
 1955000    1.0005942   -2.9819715   -2.9819715   -1.7142524   0.06441544   -2.9819715    1.2677191   547498 
 1956000    1.0008107   -2.9810509   -2.9810509   -1.7130574  0.066937376   -2.9810509    1.2679935   547498 
 1957000     1.000096   -2.9801306   -2.9801306   -1.7130427  0.076259515   -2.9801306    1.2670879   547498 
 1958000   0.99988501   -2.9807995   -2.9807995   -1.7139789  0.053671686   -2.9807995    1.2668206   547498 
 1959000   0.99998114    -2.979734    -2.979734   -1.7127917  0.072055534    -2.979734    1.2669424   547498 
 1960000    1.0002443   -2.9805145   -2.9805145   -1.7132387  0.061857064   -2.9805145    1.2672758   547498 
 1961000    1.0006107    -2.982077    -2.982077    -1.714337  0.052237223    -2.982077      1.26774   547498 
 1962000   0.99982747   -2.9813796   -2.9813796   -1.7146319  0.059190359   -2.9813796    1.2667477   547498 
 1963000     1.000176    -2.980865    -2.980865   -1.7136757  0.068156539    -2.980865    1.2671892   547498 
 1964000   0.99999303   -2.9812077   -2.9812077   -1.7142503  0.056160095   -2.9812077    1.2669574   547498 
 1965000    1.0010159   -2.9814845   -2.9814845   -1.7132311  0.055670099   -2.9814845    1.2682534   547498 
 1966000    1.0012711   -2.9821689   -2.9821689   -1.7135921  0.064519534   -2.9821689    1.2685767   547498 
 1967000     1.000278   -2.9802557   -2.9802557   -1.7129372  0.060252097   -2.9802557    1.2673185   547498 
 1968000    1.0013129   -2.9822069   -2.9822069   -1.7135772  0.059416068   -2.9822069    1.2686297   547498 
 1969000   0.99944079   -2.9800794   -2.9800794   -1.7138216  0.064370221   -2.9800794    1.2662578   547498 
 1970000   0.99972766   -2.9793359   -2.9793359   -1.7127146  0.063727778   -2.9793359    1.2666212   547498 
 1971000    1.0016117    -2.981304    -2.981304   -1.7122958   0.06390638    -2.981304    1.2690082   547498 
 1972000    1.0007916   -2.9809164   -2.9809164   -1.7129472  0.062813993   -2.9809164    1.2679691   547498 
 1973000   0.99896731   -2.9783504   -2.9783504   -1.7126925   0.06962663   -2.9783504    1.2656579   547498 
 1974000    1.0006048   -2.9804812   -2.9804812   -1.7127487  0.057179182   -2.9804812    1.2677325   547498 
 1975000    1.0006587   -2.9806905   -2.9806905   -1.7128897  0.069280249   -2.9806905    1.2678008   547498 
 1976000   0.99971773    -2.980222    -2.980222   -1.7136133  0.062932963    -2.980222    1.2666086   547498 
 1977000    1.0002414   -2.9802448   -2.9802448   -1.7129727  0.059821134   -2.9802448    1.2672721   547498 
 1978000    1.0008943   -2.9806695   -2.9806695   -1.7125701  0.060175618   -2.9806695    1.2680993   547498 
 1979000   0.99905821   -2.9776581   -2.9776581    -1.711885   0.06521348   -2.9776581    1.2657731   547498 
 1980000    1.0002077   -2.9794873   -2.9794873    -1.712258  0.061670635   -2.9794873    1.2672294   547498 
 1981000    1.0004243   -2.9802263   -2.9802263   -1.7127225  0.066433246   -2.9802263    1.2675038   547498 
 1982000   0.99897621   -2.9782201   -2.9782201    -1.712551  0.063124943   -2.9782201    1.2656692   547498 
 1983000   0.99982658   -2.9793034   -2.9793034   -1.7125568  0.063529159   -2.9793034    1.2667466   547498 
 1984000    1.0000891   -2.9799374   -2.9799374   -1.7128583  0.068202299   -2.9799374    1.2670791   547498 
 1985000   0.99956495   -2.9787497   -2.9787497   -1.7123346   0.07326468   -2.9787497    1.2664151   547498 
 1986000   0.99914969   -2.9784811   -2.9784811   -1.7125921  0.070323006   -2.9784811     1.265889   547498 
 1987000    1.0004923   -2.9794883   -2.9794883   -1.7118983  0.068571072   -2.9794883      1.26759   547498 
 1988000   0.99933535   -2.9783239   -2.9783239   -1.7121997   0.06447558   -2.9783239    1.2661242   547498 
 1989000    1.0005088   -2.9797961   -2.9797961   -1.7121852  0.054243364   -2.9797961    1.2676109   547498 
 1990000    0.9991761   -2.9780258   -2.9780258   -1.7121033  0.065862399   -2.9780258    1.2659224   547498 
 1991000    1.0017307   -2.9806391   -2.9806391   -1.7114802   0.05669994   -2.9806391     1.269159   547498 
 1992000   0.99868265   -2.9780619   -2.9780619   -1.7127647  0.072109615   -2.9780619    1.2652972   547498 
 1993000   0.99867929   -2.9784057   -2.9784057   -1.7131127  0.066792197   -2.9784057     1.265293   547498 
 1994000   0.99889861   -2.9780981   -2.9780981   -1.7125272  0.052822984   -2.9780981    1.2655708   547498 
 1995000    0.9986965   -2.9784374   -2.9784374   -1.7131226  0.062380011   -2.9784374    1.2653148   547498 
 1996000   0.99994707   -2.9793142   -2.9793142   -1.7124149  0.063168119   -2.9793142    1.2668992   547498 
 1997000   0.99953127   -2.9789557   -2.9789557   -1.7125833   0.06076099   -2.9789557    1.2663724   547498 
 1998000   0.99865724   -2.9776295   -2.9776295   -1.7123645  0.053958109   -2.9776295     1.265265   547498 
 1999000   0.99893486    -2.976988    -2.976988   -1.7113713  0.071217297    -2.976988    1.2656168   547498 
 2000000   0.99838838   -2.9771275   -2.9771275   -1.7122031  0.074667686   -2.9771275    1.2649244   547498 
 2001000   0.99944318   -2.9778317   -2.9778317   -1.7115709  0.059012008   -2.9778317    1.2662608   547498 
 2002000   0.99936792   -2.9775889   -2.9775889   -1.7114235  0.056877523   -2.9775889    1.2661654   547498 
 2003000   0.99881216   -2.9773847   -2.9773847   -1.7119234  0.065376568   -2.9773847    1.2654613   547498 
 2004000    1.0000732   -2.9786595   -2.9786595   -1.7116005  0.064302945   -2.9786595     1.267059   547498 
 2005000   0.99969373   -2.9780194   -2.9780194   -1.7114412  0.066285076   -2.9780194    1.2665782   547498 
 2006000   0.99943359   -2.9779274   -2.9779274   -1.7116788  0.064113456   -2.9779274    1.2662486   547498 
 2007000   0.99884873   -2.9770659   -2.9770659   -1.7115582  0.057594249   -2.9770659    1.2655077   547498 
 2008000   0.99945185   -2.9776914   -2.9776914   -1.7114196  0.064706515   -2.9776914    1.2662718   547498 
 2009000    1.0003821   -2.9787139   -2.9787139   -1.7112635  0.065647449   -2.9787139    1.2674503   547498 
 2010000    1.0012236   -2.9794059   -2.9794059   -1.7108894  0.057107615   -2.9794059    1.2685165   547498 
 2011000   0.99919912   -2.9769776   -2.9769776    -1.711026  0.068704347   -2.9769776    1.2659516   547498 
 2012000    1.0016825   -2.9802417   -2.9802417   -1.7111437  0.069286888   -2.9802417     1.269098   547498 
 2013000    1.0006257    -2.978461    -2.978461   -1.7107019  0.069904802    -2.978461     1.267759   547498 
 2014000    1.0009717   -2.9787107   -2.9787107   -1.7105133  0.074217796   -2.9787107    1.2681974   547498 
 2015000    1.0012204   -2.9793627   -2.9793627   -1.7108503  0.061561689   -2.9793627    1.2685124   547498 
 2016000     1.001035   -2.9788982   -2.9788982   -1.7106206  0.065367146   -2.9788982    1.2682776   547498 
 2017000    1.0015211   -2.9792975   -2.9792975    -1.710404  0.065736608   -2.9792975    1.2688934   547498 
 2018000    1.0011157   -2.9788124   -2.9788124   -1.7104326  0.073255287   -2.9788124    1.2683798   547498 
 2019000     1.000245   -2.9776883   -2.9776883   -1.7104116  0.057052706   -2.9776883    1.2672767   547498 
 2020000   0.99949663   -2.9775394   -2.9775394   -1.7112109  0.063023796   -2.9775394    1.2663285   547498 
 2021000    1.0015984   -2.9798491   -2.9798491   -1.7108576  0.065742031   -2.9798491    1.2689914   547498 
 2022000    1.0003052   -2.9783867   -2.9783867   -1.7110337  0.066736575   -2.9783867     1.267353   547498 
 2023000    1.0022701   -2.9813204   -2.9813204    -1.711478   0.05555549   -2.9813204    1.2698424   547498 
 2024000    1.0010188   -2.9797808   -2.9797808   -1.7115238  0.065322923   -2.9797808     1.268257   547498 
 2025000   0.99899655   -2.9771486   -2.9771486   -1.7114537  0.067406409   -2.9771486    1.2656949   547498 
 2026000    1.0011569   -2.9791674   -2.9791674   -1.7107354   0.07419634   -2.9791674     1.268432   547498 
 2027000    1.0003466   -2.9783931   -2.9783931   -1.7109876  0.060964523   -2.9783931    1.2674054   547498 
 2028000    1.0017454   -2.9796663   -2.9796663   -1.7104887  0.058891257   -2.9796663    1.2691777   547498 
 2029000    1.0007642   -2.9775666   -2.9775666   -1.7096322   0.06047563   -2.9775666    1.2679344   547498 
 2030000    1.0002308    -2.977877    -2.977877   -1.7106183  0.071063142    -2.977877    1.2672587   547498 
 2031000    1.0006744   -2.9781543   -2.9781543   -1.7103336  0.064971515   -2.9781543    1.2678207   547498 
 2032000    1.0010104   -2.9791609   -2.9791609   -1.7109144  0.062377069   -2.9791609    1.2682465   547498 
 2033000    1.0004769   -2.9784917   -2.9784917   -1.7109212  0.068310279   -2.9784917    1.2675705   547498 
 2034000    1.0008453   -2.9776496   -2.9776496   -1.7096124  0.072861246   -2.9776496    1.2680372   547498 
 2035000    1.0013055    -2.978057    -2.978057   -1.7094367  0.070767265    -2.978057    1.2686202   547498 
 2036000    1.0003682   -2.9778822   -2.9778822   -1.7104494  0.066634672   -2.9778822    1.2674328   547498 
 2037000     1.001166   -2.9784082   -2.9784082   -1.7099647  0.065620727   -2.9784082    1.2684435   547498 
 2038000    1.0000351   -2.9773998   -2.9773998   -1.7103891   0.06280818   -2.9773998    1.2670107   547498 
 2039000    1.0002453   -2.9781636   -2.9781636   -1.7108865   0.06298537   -2.9781636    1.2672771   547498 
 2040000    1.0013562   -2.9805578   -2.9805578   -1.7118733  0.062095053   -2.9805578    1.2686845   547498 
 2041000    1.0004688    -2.979027    -2.979027   -1.7114667  0.074363935    -2.979027    1.2675602   547498 
 2042000   0.99999813   -2.9777116   -2.9777116   -1.7107477  0.071915388   -2.9777116    1.2669639   547498 
 2043000    1.0005475   -2.9785604   -2.9785604   -1.7109004  0.063833169   -2.9785604    1.2676599   547498 
 2044000    1.0014948   -2.9791053   -2.9791053   -1.7102452  0.051270728   -2.9791053    1.2688601   547498 
 2045000    1.0000973   -2.9766465   -2.9766465    -1.709557  0.061875361   -2.9766465    1.2670895   547498 
 2046000    1.0008602    -2.977692    -2.977692    -1.709636  0.068414752    -2.977692    1.2680561   547498 
 2047000    1.0032761    -2.979651    -2.979651   -1.7085341  0.067107934    -2.979651    1.2711169   547498 
 2048000    1.0017313   -2.9778224   -2.9778224   -1.7086626  0.068691772   -2.9778224    1.2691598   547498 
 2049000    1.0008881   -2.9763212   -2.9763212   -1.7082297  0.066243179   -2.9763212    1.2680915   547498 
 2050000    1.0006367   -2.9775175   -2.9775175   -1.7097446  0.055702663   -2.9775175    1.2677729   547498 
 2051000    1.0003696   -2.9774454   -2.9774454   -1.7100108  0.059406372   -2.9774454    1.2674345   547498 
 2052000   0.99927599   -2.9759063   -2.9759063   -1.7098574  0.067517718   -2.9759063     1.266049   547498 
 2053000   0.99919699   -2.9763203   -2.9763203   -1.7103714  0.058851827   -2.9763203    1.2659489   547498 
 2054000   0.99832846   -2.9750176   -2.9750176   -1.7101691  0.057109023   -2.9750176    1.2648485   547498 
 2055000   0.99904597   -2.9761226   -2.9761226   -1.7103651  0.059213508   -2.9761226    1.2657576   547498 
 2056000   0.99934125   -2.9756359   -2.9756359   -1.7095042  0.069422148   -2.9756359    1.2661317   547498 
 2057000   0.99791985   -2.9752631   -2.9752631   -1.7109324  0.068281251   -2.9752631    1.2643308   547498 
 2058000   0.99856782   -2.9762685   -2.9762685   -1.7111168  0.057982302   -2.9762685    1.2651517   547498 
 2059000   0.99934427   -2.9764905   -2.9764905    -1.710355  0.070062914   -2.9764905    1.2661355   547498 
 2060000   0.99933145    -2.976696    -2.976696   -1.7105768  0.060406553    -2.976696    1.2661192   547498 
 2061000   0.99969888   -2.9778717   -2.9778717   -1.7112869  0.060174818   -2.9778717    1.2665848   547498 
 2062000   0.99971232   -2.9779281   -2.9779281   -1.7113263   0.05604652   -2.9779281    1.2666018   547498 
 2063000   0.99930395   -2.9772094   -2.9772094    -1.711125  0.060549488   -2.9772094    1.2660844   547498 
 2064000    1.0010421   -2.9786972   -2.9786972   -1.7104107  0.062006908   -2.9786972    1.2682865   547498 
 2065000   0.99958564   -2.9775616   -2.9775616   -1.7111203  0.065300944   -2.9775616    1.2664413   547498 
 2066000   0.99974504   -2.9768435   -2.9768435   -1.7102003  0.063236031   -2.9768435    1.2666432   547498 
 2067000     1.001046   -2.9787795   -2.9787795    -1.710488  0.056094575   -2.9787795    1.2682915   547498 
 2068000   0.99985383   -2.9772462   -2.9772462   -1.7104651  0.057953188   -2.9772462    1.2667811   547498 
 2069000    1.0001022    -2.977146    -2.977146   -1.7100503  0.057003362    -2.977146    1.2670957   547498 
 2070000    1.0009244   -2.9776452   -2.9776452   -1.7095078   0.05883006   -2.9776452    1.2681374   547498 
 2071000    1.0008434   -2.9773911   -2.9773911   -1.7093562  0.068719904   -2.9773911    1.2680348   547498 
 2072000    1.0018368   -2.9789094   -2.9789094    -1.709616  0.061460598   -2.9789094    1.2692934   547498 
 2073000   0.99985933   -2.9774636   -2.9774636   -1.7106756   0.05945376   -2.9774636     1.266788   547498 
 2074000    1.0003152   -2.9768121   -2.9768121   -1.7094465  0.059720995   -2.9768121    1.2673657   547498 
 2075000   0.99987503   -2.9774082   -2.9774082   -1.7106002  0.067131262   -2.9774082    1.2668079   547498 
 2076000    1.0020826   -2.9802674   -2.9802674   -1.7106626  0.060285387   -2.9802674    1.2696048   547498 
 2077000    1.0003782   -2.9777929   -2.9777929   -1.7103474  0.076242882   -2.9777929    1.2674455   547498 
 2078000    1.0009269   -2.9778074   -2.9778074   -1.7096667   0.07125214   -2.9778074    1.2681406   547498 
 2079000    1.0019815   -2.9791151   -2.9791151   -1.7096384  0.067825509   -2.9791151    1.2694767   547498 
 2080000    1.0005504   -2.9769293   -2.9769293   -1.7092657  0.062789444   -2.9769293    1.2676636   547498 
 2081000    1.0005416   -2.9764241   -2.9764241   -1.7087716  0.067435499   -2.9764241    1.2676525   547498 
 2082000    1.0006329   -2.9760628   -2.9760628   -1.7082946  0.062979498   -2.9760628    1.2677682   547498 
 2083000    1.0011584   -2.9769288   -2.9769288   -1.7084948  0.068187846   -2.9769288     1.268434   547498 
 2084000    1.0014551   -2.9774793   -2.9774793   -1.7086694  0.071059065   -2.9774793    1.2688099   547498 
 2085000    1.0003312   -2.9771946   -2.9771946   -1.7098088  0.059982298   -2.9771946    1.2673859   547498 
 2086000    1.0020002    -2.977923    -2.977923   -1.7084225  0.066125097    -2.977923    1.2695005   547498 
 2087000   0.99932806   -2.9748971   -2.9748971   -1.7087822  0.065038428   -2.9748971    1.2661149   547498 
 2088000    1.0007307   -2.9771564   -2.9771564   -1.7092644  0.058991151   -2.9771564     1.267892   547498 
 2089000    1.0017725    -2.977721    -2.977721    -1.708509  0.069494733    -2.977721     1.269212   547498 
 2090000    1.0000459   -2.9753735   -2.9753735   -1.7083491  0.073523164   -2.9753735    1.2670244   547498 
 2091000    1.0012139   -2.9773206   -2.9773206   -1.7088164  0.072361648   -2.9773206    1.2685042   547498 
 2092000   0.99946242   -2.9750085   -2.9750085   -1.7087233  0.072569285   -2.9750085    1.2662852   547498 
 2093000    1.0013848   -2.9777525   -2.9777525   -1.7090317  0.058419258   -2.9777525    1.2687208   547498 
 2094000    1.0009997   -2.9771548   -2.9771548    -1.708922  0.065731027   -2.9771548    1.2682328   547498 
 2095000   0.99955632   -2.9757608   -2.9757608   -1.7093567  0.065942738   -2.9757608    1.2664041   547498 
 2096000   0.99847885   -2.9745106   -2.9745106   -1.7094715  0.060975677   -2.9745106     1.265039   547498 
 2097000   0.99988493   -2.9760135   -2.9760135   -1.7091931   0.06887268   -2.9760135    1.2668205   547498 
 2098000    1.0005343   -2.9766352   -2.9766352    -1.708992  0.051380105   -2.9766352    1.2676432   547498 
 2099000    0.9980735   -2.9725149   -2.9725149   -1.7079894  0.068096459   -2.9725149    1.2645255   547498 
 2100000   0.99829191   -2.9742758   -2.9742758   -1.7094736  0.065210145   -2.9742758    1.2648022   547498 
 2101000    1.0011871   -2.9769513   -2.9769513   -1.7084811  0.067364367   -2.9769513    1.2684703   547498 
 2102000    0.9990582   -2.9745876   -2.9745876   -1.7088146  0.063665718   -2.9745876     1.265773   547498 
 2103000     0.998764   -2.9745132   -2.9745132   -1.7091129  0.062146923   -2.9745132    1.2654003   547498 
 2104000   0.99894894   -2.9752272   -2.9752272   -1.7095926   0.05889617   -2.9752272    1.2656346   547498 
 2105000    1.0007346   -2.9765548   -2.9765548   -1.7086578  0.061975773   -2.9765548     1.267897   547498 
 2106000    1.0002464   -2.9747591   -2.9747591   -1.7074806  0.061578133   -2.9747591    1.2672785   547498 
 2107000   0.99921237   -2.9735644   -2.9735644   -1.7075961  0.065586908   -2.9735644    1.2659684   547498 
 2108000     1.001038   -2.9755923   -2.9755923   -1.7073109  0.067914823   -2.9755923    1.2682814   547498 
 2109000    1.0001591   -2.9753132   -2.9753132   -1.7081453  0.075042237   -2.9753132    1.2671679   547498 
 2110000    1.0001126    -2.975757    -2.975757   -1.7086481  0.061484364    -2.975757    1.2671089   547498 
 2111000    1.0019301   -2.9775407   -2.9775407    -1.708129    0.0637606   -2.9775407    1.2694117   547498 
 2112000    1.0017963   -2.9773997   -2.9773997   -1.7081576  0.057961935   -2.9773997    1.2692421   547498 
 2113000    1.0023949   -2.9779282   -2.9779282   -1.7079277   0.06397446   -2.9779282    1.2700005   547498 
 2114000    1.0029346   -2.9779511   -2.9779511   -1.7072669  0.058507949   -2.9779511    1.2706843   547498 
 2115000     1.000746   -2.9760503   -2.9760503   -1.7081388   0.06425651   -2.9760503    1.2679115   547498 
 2116000    1.0004557   -2.9769716   -2.9769716   -1.7094281  0.057261114   -2.9769716    1.2675436   547498 
 2117000    1.0017241   -2.9778356   -2.9778356   -1.7086849   0.06489523   -2.9778356    1.2691507   547498 
 2118000    1.0000774   -2.9754813   -2.9754813    -1.708417  0.067452745   -2.9754813    1.2670643   547498 
 2119000    1.0007064   -2.9760707   -2.9760707   -1.7082095  0.076267826   -2.9760707    1.2678613   547498 
 2120000   0.99980081    -2.976247    -2.976247   -1.7095331  0.067661947    -2.976247    1.2667139   547498 
 2121000    1.0007134   -2.9781316   -2.9781316   -1.7102615  0.060219365   -2.9781316    1.2678701   547498 
 2122000    1.0017606   -2.9781324   -2.9781324   -1.7089356  0.064619568   -2.9781324    1.2691968   547498 
 2123000     1.000899   -2.9782483   -2.9782483   -1.7101431  0.068746539   -2.9782483    1.2681053   547498 
 2124000    1.0015007   -2.9789707   -2.9789707   -1.7101031  0.067327042   -2.9789707    1.2688676   547498 
 2125000    1.0011627   -2.9784416   -2.9784416   -1.7100023  0.071265251   -2.9784416    1.2684393   547498 
 2126000   0.99962354   -2.9773382   -2.9773382   -1.7108489  0.064030713   -2.9773382    1.2664893   547498 
 2127000    1.0006392   -2.9776379   -2.9776379   -1.7098618  0.066594412   -2.9776379    1.2677762   547498 
 2128000   0.99997009   -2.9775545   -2.9775545   -1.7106261  0.061343229   -2.9775545    1.2669284   547498 
 2129000   0.99902529   -2.9763903   -2.9763903    -1.710659  0.065571183   -2.9763903    1.2657313   547498 
 2130000   0.99994727   -2.9781097   -2.9781097   -1.7112102  0.067529116   -2.9781097    1.2668995   547498 
 2131000   0.99929259   -2.9770173   -2.9770173   -1.7109473  0.066817773   -2.9770173      1.26607   547498 
 2132000   0.99981181   -2.9774947   -2.9774947   -1.7107669  0.060557602   -2.9774947    1.2667278   547498 
 2133000   0.99973847    -2.978572    -2.978572   -1.7119371  0.060636358    -2.978572    1.2666349   547498 
 2134000   0.99880887   -2.9768775   -2.9768775   -1.7114203  0.067215484   -2.9768775    1.2654571   547498 
 2135000   0.99894675   -2.9775359   -2.9775359    -1.711904    0.0680556   -2.9775359    1.2656318   547498 
 2136000   0.99964321   -2.9775755   -2.9775755   -1.7110612  0.063115492   -2.9775755    1.2665142   547498 
 2137000    1.0010269   -2.9790635   -2.9790635   -1.7107963  0.066103564   -2.9790635    1.2682673   547498 
 2138000    1.0004251   -2.9773395   -2.9773395   -1.7098346  0.064618908   -2.9773395    1.2675048   547498 
 2139000   0.99998885   -2.9770458   -2.9770458   -1.7100937  0.069501949   -2.9770458    1.2669521   547498 
 2140000    1.0007244   -2.9776203   -2.9776203   -1.7097363  0.073069252   -2.9776203     1.267884   547498 
 2141000    1.0008223   -2.9781142   -2.9781142   -1.7101062  0.061039058   -2.9781142    1.2680081   547498 
 2142000    1.0010868   -2.9774888   -2.9774888   -1.7091457  0.071227547   -2.9774888    1.2683432   547498 
 2143000     1.002205   -2.9782353   -2.9782353   -1.7084753  0.066149157   -2.9782353      1.26976   547498 
 2144000    1.0012137   -2.9771908   -2.9771908   -1.7086869  0.067413291   -2.9771908     1.268504   547498 
 2145000    1.0002718   -2.9773457   -2.9773457   -1.7100351  0.071808426   -2.9773457    1.2673106   547498 
 2146000    1.0001032   -2.9776103   -2.9776103   -1.7105134  0.057595297   -2.9776103     1.267097   547498 
 2147000   0.99973911   -2.9767551   -2.9767551   -1.7101193  0.061855613   -2.9767551    1.2666357   547498 
 2148000    0.9994354   -2.9766109   -2.9766109   -1.7103599  0.063288651   -2.9766109    1.2662509   547498 
 2149000   0.99926365   -2.9764861   -2.9764861   -1.7104528  0.060523912   -2.9764861    1.2660333   547498 
 2150000     1.000583   -2.9780037   -2.9780037   -1.7102989  0.068459541   -2.9780037    1.2677049   547498 
 2151000   0.99893447   -2.9763764   -2.9763764   -1.7107602  0.065604758   -2.9763764    1.2656163   547498 
 2152000    1.0001567   -2.9777545   -2.9777545   -1.7105897  0.067214401   -2.9777545    1.2671648   547498 
 2153000   0.99899535   -2.9768503   -2.9768503   -1.7111569  0.057002518   -2.9768503    1.2656934   547498 
 2154000   0.99948676    -2.977862    -2.977862   -1.7115459  0.063977324    -2.977862     1.266316   547498 
 2155000    0.9996949   -2.9775092   -2.9775092   -1.7109295  0.063013902   -2.9775092    1.2665797   547498 
 2156000   0.99890676   -2.9764059   -2.9764059   -1.7108247  0.063229351   -2.9764059    1.2655812   547498 
 2157000   0.99962582   -2.9773349   -2.9773349   -1.7108427  0.061772418   -2.9773349    1.2664922   547498 
 2158000    1.0010632   -2.9782969   -2.9782969   -1.7099836  0.060795055   -2.9782969    1.2683133   547498 
 2159000    1.0007554   -2.9783896   -2.9783896   -1.7104663  0.066609085   -2.9783896    1.2679233   547498 
 2160000    1.0006283   -2.9775933   -2.9775933    -1.709831  0.057418687   -2.9775933    1.2677623   547498 
 2161000    1.0015637   -2.9779606   -2.9779606   -1.7090132  0.064964798   -2.9779606    1.2689474   547498 
 2162000    1.0004171   -2.9769037   -2.9769037   -1.7094089  0.056999211   -2.9769037    1.2674948   547498 
 2163000    1.0009982   -2.9765956   -2.9765956   -1.7083647  0.065250194   -2.9765956     1.268231   547498 
 2164000    1.0026539   -2.9796188   -2.9796188     -1.70929  0.065269667   -2.9796188    1.2703287   547498 
 2165000    1.0014347   -2.9780385   -2.9780385   -1.7092544  0.067058718   -2.9780385     1.268784   547498 
 2166000    1.0013321   -2.9774488   -2.9774488   -1.7087949  0.068468895   -2.9774488    1.2686539   547498 
 2167000    1.0002562   -2.9765649   -2.9765649   -1.7092741  0.063711739   -2.9765649    1.2672908   547498 
 2168000    1.0008697   -2.9775583   -2.9775583   -1.7094901  0.068194894   -2.9775583    1.2680682   547498 
 2169000   0.99994414   -2.9765895   -2.9765895    -1.709694  0.059073226   -2.9765895    1.2668955   547498 
 2170000   0.99994034   -2.9760787   -2.9760787   -1.7091881  0.061088862   -2.9760787    1.2668907   547498 
 2171000    1.0016248   -2.9771686   -2.9771686   -1.7081438  0.063065181   -2.9771686    1.2690248   547498 
 2172000    1.0003805   -2.9758333   -2.9758333   -1.7083849  0.067612393   -2.9758333    1.2674484   547498 
 2173000   0.99993866   -2.9762314   -2.9762314   -1.7093428  0.063417871   -2.9762314    1.2668886   547498 
 2174000    1.0006449   -2.9769231   -2.9769231   -1.7091398   0.06401728   -2.9769231    1.2677833   547498 
 2175000   0.99996839   -2.9767697   -2.9767697   -1.7098435  0.058593199   -2.9767697    1.2669262   547498 
 2176000   0.99975344   -2.9758538   -2.9758538   -1.7091999  0.056026474   -2.9758538    1.2666539   547498 
 2177000    1.0024746   -2.9788866   -2.9788866   -1.7087851  0.058275422   -2.9788866    1.2701015   547498 
 2178000   0.99995046     -2.97581     -2.97581   -1.7089065  0.065691507     -2.97581    1.2669035   547498 
 2179000    1.0003572   -2.9760811   -2.9760811   -1.7086623  0.063787648   -2.9760811    1.2674188   547498 
 2180000    1.0006565   -2.9766712   -2.9766712   -1.7088731  0.063355506   -2.9766712     1.267798   547498 
 2181000    1.0001195   -2.9758973   -2.9758973   -1.7087796  0.064191564   -2.9758973    1.2671177   547498 
 2182000   0.99957822   -2.9747597   -2.9747597   -1.7083278   0.06605797   -2.9747597    1.2664319   547498 
 2183000   0.99950199   -2.9750225   -2.9750225   -1.7086872  0.067460758   -2.9750225    1.2663353   547498 
 2184000   0.99986392   -2.9760407   -2.9760407   -1.7092468  0.068294171   -2.9760407    1.2667939   547498 
 2185000    1.0008093   -2.9774886   -2.9774886    -1.709497  0.066628016   -2.9774886    1.2679917   547498 
 2186000   0.99881762   -2.9756688   -2.9756688   -1.7102006  0.056837464   -2.9756688    1.2654682   547498 
 2187000   0.99979775   -2.9765563   -2.9765563   -1.7098463  0.066424256   -2.9765563      1.26671   547498 
 2188000    0.9989271   -2.9761723   -2.9761723   -1.7105654  0.068588616   -2.9761723    1.2656069   547498 
 2189000   0.99769308   -2.9729917   -2.9729917   -1.7089482  0.071649916   -2.9729917    1.2640435   547498 
 2190000    1.0006952   -2.9770344   -2.9770344   -1.7091873  0.064642497   -2.9770344    1.2678471   547498 
 2191000    1.0009069    -2.977142    -2.977142   -1.7090268  0.065376727    -2.977142    1.2681153   547498 
 2192000   0.99987725   -2.9765511   -2.9765511   -1.7097403  0.064924279   -2.9765511    1.2668108   547498 
 2193000   0.99956856   -2.9752509   -2.9752509   -1.7088313  0.065898544   -2.9752509    1.2664197   547498 
 2194000    1.0024003   -2.9780942   -2.9780942   -1.7080868  0.070346678   -2.9780942    1.2700073   547498 
 2195000    1.0008173   -2.9773791   -2.9773791   -1.7093773  0.062452613   -2.9773791    1.2680018   547498 
 2196000   0.99987427   -2.9769462   -2.9769462   -1.7101392  0.067900344   -2.9769462     1.266807   547498 
 2197000    0.9997459   -2.9774788   -2.9774788   -1.7108344  0.060758493   -2.9774788    1.2666443   547498 
 2198000    1.0021984   -2.9794696   -2.9794696   -1.7097181  0.067306212   -2.9794696    1.2697516   547498 
 2199000    0.9993441    -2.975406    -2.975406   -1.7092708   0.06209878    -2.975406    1.2661353   547498 
 2200000   0.99903137   -2.9752474   -2.9752474   -1.7095083  0.064350632   -2.9752474    1.2657391   547498 
 2201000   0.99988149   -2.9767373   -2.9767373   -1.7099212  0.065568809   -2.9767373    1.2668161   547498 
 2202000   0.99997374   -2.9776893   -2.9776893   -1.7107563  0.059905203   -2.9776893     1.266933   547498 
 2203000   0.99848529   -2.9753398   -2.9753398   -1.7102926  0.069861071   -2.9753398    1.2650472   547498 
 2204000    1.0006206    -2.977545    -2.977545   -1.7097924  0.057405132    -2.977545    1.2677526   547498 
 2205000   0.99787302   -2.9741183   -2.9741183   -1.7098468   0.06513934   -2.9741183    1.2642715   547498 
 2206000    0.9996396   -2.9765628   -2.9765628   -1.7100532  0.061424227   -2.9765628    1.2665097   547498 
 2207000    1.0002172    -2.977621    -2.977621   -1.7103795  0.060475226    -2.977621    1.2672415   547498 
 2208000    1.0000843   -2.9777329   -2.9777329   -1.7106598  0.062398866   -2.9777329    1.2670731   547498 
 2209000    1.0003252   -2.9777017   -2.9777017   -1.7103235  0.055781182   -2.9777017    1.2673783   547498 
 2210000    1.0009622   -2.9772805   -2.9772805   -1.7090951  0.065566744   -2.9772805    1.2681854   547498 
 2211000    1.0002094   -2.9763292   -2.9763292   -1.7090976  0.059655393   -2.9763292    1.2672316   547498 
 2212000   0.99965143   -2.9758464   -2.9758464   -1.7093217  0.075820511   -2.9758464    1.2665246   547498 
 2213000    1.0000591   -2.9766516   -2.9766516   -1.7096104  0.066978372   -2.9766516    1.2670412   547498 
 2214000   0.99952329   -2.9757069   -2.9757069   -1.7093446  0.052083393   -2.9757069    1.2663623   547498 
 2215000   0.99900624   -2.9755864   -2.9755864   -1.7098791  0.054448707   -2.9755864    1.2657072   547498 
 2216000   0.99945161   -2.9761766   -2.9761766   -1.7099052  0.049981421   -2.9761766    1.2662715   547498 
 2217000    1.0000188   -2.9755773   -2.9755773   -1.7085872  0.063484234   -2.9755773    1.2669901   547498 
 2218000   0.99839464   -2.9742846   -2.9742846   -1.7093522  0.066551091   -2.9742846    1.2649323   547498 
 2219000    0.9997119   -2.9768419   -2.9768419   -1.7102406  0.051934317   -2.9768419    1.2666013   547498 
 2220000   0.99972827   -2.9758374   -2.9758374   -1.7092154   0.06937244   -2.9758374     1.266622   547498 
 2221000    1.0002558   -2.9768988   -2.9768988   -1.7096085  0.070537648   -2.9768988    1.2672903   547498 
 2222000   0.99997009   -2.9760309   -2.9760309   -1.7091025  0.069363985   -2.9760309    1.2669284   547498 
 2223000   0.99885015    -2.975814    -2.975814   -1.7103045  0.063716124    -2.975814    1.2655094   547498 
 2224000   0.99917323   -2.9769037   -2.9769037   -1.7109849  0.053204411   -2.9769037    1.2659188   547498 
 2225000     1.001058   -2.9781549   -2.9781549   -1.7098481  0.067153753   -2.9781549    1.2683068   547498 
 2226000    1.0016217   -2.9775479   -2.9775479    -1.708527  0.068603672   -2.9775479    1.2690209   547498 
 2227000   0.99907096   -2.9742103   -2.9742103   -1.7084211  0.059178894   -2.9742103    1.2657892   547498 
 2228000   0.99837053   -2.9743409   -2.9743409   -1.7094391  0.060549622   -2.9743409    1.2649018   547498 
 2229000    1.0013362   -2.9777884   -2.9777884   -1.7091292   0.05870256   -2.9777884    1.2686592   547498 
 2230000    1.0000996   -2.9769481   -2.9769481   -1.7098557  0.059340499   -2.9769481    1.2670924   547498 
 2231000   0.99991341   -2.9767887   -2.9767887   -1.7099322  0.062365004   -2.9767887    1.2668566   547498 
 2232000    1.0006125   -2.9767892   -2.9767892   -1.7090469  0.058147735   -2.9767892    1.2677423   547498 
 2233000   0.99949221   -2.9760954   -2.9760954   -1.7097725  0.063273081   -2.9760954    1.2663229   547498 
 2234000    1.0006276    -2.977141    -2.977141   -1.7093796  0.058994473    -2.977141    1.2677614   547498 
 2235000    1.0012001    -2.977148    -2.977148   -1.7086613  0.055757629    -2.977148    1.2684867   547498 
 2236000     1.000808   -2.9767135   -2.9767135   -1.7087235  0.069276859   -2.9767135      1.26799   547498 
 2237000    1.0004995   -2.9767669   -2.9767669   -1.7091678  0.053865767   -2.9767669    1.2675991   547498 
 2238000    1.0008397   -2.9783616   -2.9783616   -1.7103315  0.063919652   -2.9783616    1.2680301   547498 
 2239000   0.99984975   -2.9766486   -2.9766486   -1.7098727  0.067122742   -2.9766486    1.2667759   547498 
 2240000    1.0006021   -2.9771024   -2.9771024   -1.7093733  0.059247268   -2.9771024    1.2677291   547498 
 2241000   0.99935591   -2.9759947   -2.9759947   -1.7098445  0.074873144   -2.9759947    1.2661502   547498 
 2242000    1.0003252   -2.9766581   -2.9766581   -1.7092798  0.058357286   -2.9766581    1.2673783   547498 
 2243000    0.9995671   -2.9753907   -2.9753907   -1.7089729  0.059123506   -2.9753907    1.2664178   547498 
 2244000   0.99822712    -2.974094    -2.974094   -1.7093739   0.07094497    -2.974094    1.2647201   547498 
 2245000    1.0002932   -2.9768939   -2.9768939   -1.7095561  0.068069556   -2.9768939    1.2673378   547498 
 2246000    1.0001227   -2.9766996   -2.9766996   -1.7095778  0.063888598   -2.9766996    1.2671218   547498 
 2247000    1.0018432   -2.9788963   -2.9788963   -1.7095947   0.06317169   -2.9788963    1.2693015   547498 
 2248000   0.99873513   -2.9751266   -2.9751266   -1.7097629  0.071960163   -2.9751266    1.2653637   547498 
 2249000    1.0010648    -2.976692    -2.976692   -1.7083767  0.061847917    -2.976692    1.2683153   547498 
 2250000    1.0013279   -2.9769989   -2.9769989   -1.7083502  0.066707641   -2.9769989    1.2686487   547498 
 2251000   0.99996375   -2.9750077   -2.9750077   -1.7080874  0.070609025   -2.9750077    1.2669203   547498 
 2252000     1.001365   -2.9768244   -2.9768244   -1.7081287  0.061948171   -2.9768244    1.2686957   547498 
 2253000     1.001297   -2.9767357   -2.9767357   -1.7081261  0.049975919   -2.9767357    1.2686096   547498 
 2254000    1.0000324   -2.9748182   -2.9748182   -1.7078108    0.0622572   -2.9748182    1.2670074   547498 
 2255000     1.000686   -2.9754016   -2.9754016   -1.7075662   0.05829241   -2.9754016    1.2678355   547498 
 2256000     1.001718   -2.9762105   -2.9762105   -1.7070676  0.068188963   -2.9762105    1.2691429   547498 
 2257000    1.0004316    -2.975246    -2.975246   -1.7077329  0.068187665    -2.975246    1.2675131   547498 
 2258000   0.99966244   -2.9739563   -2.9739563   -1.7074177  0.071261443   -2.9739563    1.2665386   547498 
 2259000    0.9993731    -2.973869    -2.973869    -1.707697    0.0608737    -2.973869     1.266172   547498 
 2260000    1.0019619   -2.9770694   -2.9770694   -1.7076174  0.067074929   -2.9770694     1.269452   547498 
 2261000   0.99983519   -2.9743513   -2.9743513   -1.7075938  0.068472324   -2.9743513    1.2667575   547498 
 2262000    1.0009317   -2.9759858   -2.9759858   -1.7078391  0.070872659   -2.9759858    1.2681467   547498 
 2263000    1.0009491   -2.9759781   -2.9759781   -1.7078093   0.06343382   -2.9759781    1.2681687   547498 
 2264000    1.0005765   -2.9752299   -2.9752299   -1.7075333  0.065920222   -2.9752299    1.2676966   547498 
 2265000    1.0007845   -2.9753392   -2.9753392    -1.707379   0.07093714   -2.9753392    1.2679602   547498 
 2266000    1.0003433   -2.9750441   -2.9750441   -1.7076428   0.06730547   -2.9750441    1.2674013   547498 
 2267000    1.0010588   -2.9751501   -2.9751501   -1.7068425   0.06018129   -2.9751501    1.2683077   547498 
 2268000    1.0022357   -2.9770787   -2.9770787   -1.7072799  0.070157604   -2.9770787    1.2697989   547498 
 2269000    1.0009393   -2.9750487   -2.9750487   -1.7068924  0.061847764   -2.9750487    1.2681563   547498 
 2270000    1.0010563   -2.9756689   -2.9756689   -1.7073642  0.066118687   -2.9756689    1.2683046   547498 
 2271000    1.0018046   -2.9756628   -2.9756628   -1.7064102  0.065922843   -2.9756628    1.2692526   547498 
 2272000    1.0013987   -2.9760135   -2.9760135   -1.7072751  0.058283615   -2.9760135    1.2687384   547498 
 2273000    1.0013191   -2.9760453   -2.9760453   -1.7074077  0.063837519   -2.9760453    1.2686375   547498 
 2274000    1.0016238   -2.9756328   -2.9756328   -1.7066092  0.061361683   -2.9756328    1.2690235   547498 
 2275000   0.99979137   -2.9741346   -2.9741346   -1.7074327  0.061473482   -2.9741346    1.2667019   547498 
 2276000     0.999278   -2.9743615   -2.9743615   -1.7083099  0.057795138   -2.9743615    1.2660515   547498 
 2277000    1.0002479   -2.9767636   -2.9767636   -1.7094832  0.062265504   -2.9767636    1.2672803   547498 
 2278000   0.99995576   -2.9762957   -2.9762957   -1.7093855  0.051371134   -2.9762957    1.2669102   547498 
 2279000   0.99884748    -2.975287    -2.975287   -1.7097809  0.063397296    -2.975287    1.2655061   547498 
 2280000    1.0001617   -2.9761253   -2.9761253   -1.7089542  0.066729605   -2.9761253    1.2671711   547498 
 2281000   0.99911386   -2.9750831   -2.9750831   -1.7092395  0.061226869   -2.9750831    1.2658436   547498 
 2282000    0.9982497   -2.9737766   -2.9737766   -1.7090279   0.06606183   -2.9737766    1.2647487   547498 
 2283000   0.99887785   -2.9741774   -2.9741774   -1.7086329  0.070326624   -2.9741774    1.2655445   547498 
 2284000   0.99981521    -2.975371    -2.975371   -1.7086389  0.061598877    -2.975371    1.2667322   547498 
 2285000      0.99954   -2.9756192   -2.9756192   -1.7092357  0.062811563   -2.9756192    1.2663835   547498 
 2286000   0.99857363   -2.9747381   -2.9747381    -1.709579  0.060807529   -2.9747381    1.2651591   547498 
 2287000   0.99981064   -2.9763765   -2.9763765   -1.7096501   0.06160276   -2.9763765    1.2667264   547498 
 2288000   0.99964487   -2.9757497   -2.9757497   -1.7092334  0.055861513   -2.9757497    1.2665163   547498 
 2289000   0.99944676   -2.9748442   -2.9748442   -1.7085789  0.064490791   -2.9748442    1.2662653   547498 
 2290000    1.0006786   -2.9766367   -2.9766367   -1.7088107  0.063191802   -2.9766367    1.2678261   547498 
 2291000    1.0009718   -2.9773348   -2.9773348   -1.7091374  0.055761137   -2.9773348    1.2681974   547498 
 2292000    1.0007765   -2.9767878   -2.9767878   -1.7088377  0.063024528   -2.9767878    1.2679501   547498 
 2293000    1.0019069    -2.977979    -2.977979   -1.7085968  0.070374119    -2.977979    1.2693822   547498 
 2294000    1.0013275   -2.9767964   -2.9767964   -1.7081482  0.067795619   -2.9767964    1.2686481   547498 
 2295000    1.0006661   -2.9773798   -2.9773798   -1.7095696  0.065810432   -2.9773798    1.2678102   547498 
 2296000   0.99977633     -2.97696     -2.97696   -1.7102771  0.067705687     -2.97696    1.2666829   547498 
 2297000    1.0003085   -2.9774497   -2.9774497   -1.7100925  0.067165105   -2.9774497    1.2673572   547498 
 2298000    1.0007261   -2.9783988   -2.9783988   -1.7105126  0.060468873   -2.9783988    1.2678862   547498 
 2299000   0.99934525    -2.976355    -2.976355   -1.7102183   0.07748234    -2.976355    1.2661367   547498 
 2300000    1.0008066   -2.9780012   -2.9780012   -1.7100131  0.056298501   -2.9780012    1.2679882   547498 
 2301000    1.0021067   -2.9790871   -2.9790871   -1.7094517  0.067847946   -2.9790871    1.2696354   547498 
 2302000    1.0000613   -2.9773419   -2.9773419    -1.710298  0.063237167   -2.9773419    1.2670439   547498 
 2303000   0.99997911   -2.9771719   -2.9771719   -1.7102321  0.066403418   -2.9771719    1.2669398   547498 
 2304000    1.0001329   -2.9773448   -2.9773448   -1.7102101  0.072955029   -2.9773448    1.2671347   547498 
 2305000     1.000335   -2.9777065   -2.9777065   -1.7103158  0.068674909   -2.9777065    1.2673907   547498 
 2306000    1.0002084   -2.9783002   -2.9783002   -1.7110699   0.07261531   -2.9783002    1.2672303   547498 
 2307000    1.0007145   -2.9795535   -2.9795535   -1.7116821  0.065460111   -2.9795535    1.2678715   547498 
 2308000    1.0007336    -2.979925    -2.979925   -1.7120293  0.058920614    -2.979925    1.2678957   547498 
 2309000     1.000365   -2.9786446   -2.9786446   -1.7112159  0.059762963   -2.9786446    1.2674287   547498 
 2310000   0.99886465   -2.9765423   -2.9765423   -1.7110145  0.070730534   -2.9765423    1.2655278   547498 
 2311000    1.0013542   -2.9794724   -2.9794724   -1.7107904   0.06512733   -2.9794724     1.268682   547498 
 2312000    1.0003391   -2.9783606   -2.9783606   -1.7109647    0.0729427   -2.9783606    1.2673959   547498 
 2313000    1.0002195   -2.9787956   -2.9787956   -1.7115512  0.061193799   -2.9787956    1.2672444   547498 
 2314000    1.0008118   -2.9800498   -2.9800498    -1.712055  0.061193911   -2.9800498    1.2679948   547498 
 2315000   0.99937569   -2.9783973   -2.9783973    -1.712222  0.055971696   -2.9783973    1.2661753   547498 
 2316000   0.99992425   -2.9783976   -2.9783976   -1.7115273  0.064290612   -2.9783976    1.2668703   547498 
 2317000    1.0019683   -2.9808994   -2.9808994   -1.7114393  0.063265108   -2.9808994      1.26946   547498 
 2318000    1.0000658   -2.9785722   -2.9785722   -1.7115226   0.06126746   -2.9785722    1.2670497   547498 
 2319000    1.0008378   -2.9792189   -2.9792189   -1.7111912  0.062130559   -2.9792189    1.2680277   547498 
 2320000    1.0002845   -2.9773543   -2.9773543   -1.7100275  0.057285061   -2.9773543    1.2673267   547498 
 2321000    1.0019471   -2.9795903   -2.9795903   -1.7101571  0.061114125   -2.9795903    1.2694332   547498 
 2322000    1.0003133   -2.9783858   -2.9783858   -1.7110226  0.066899221   -2.9783858    1.2673632   547498 
 2323000    1.0020487   -2.9804269   -2.9804269    -1.710865  0.063700416   -2.9804269    1.2695619   547498 
 2324000    1.0034729   -2.9820507   -2.9820507   -1.7106843  0.066271533   -2.9820507    1.2713664   547498 
 2325000    1.0016276   -2.9803295   -2.9803295    -1.711301  0.067790308   -2.9803295    1.2690284   547498 
 2326000     1.000887   -2.9781458   -2.9781458   -1.7100557  0.072537258   -2.9781458    1.2680901   547498 
 2327000    1.0011846   -2.9788494   -2.9788494   -1.7103822  0.066445223   -2.9788494    1.2684672   547498 
 2328000    1.0006627   -2.9766497   -2.9766497   -1.7088438  0.068603592   -2.9766497    1.2678059   547498 
 2329000   0.99888807   -2.9759216   -2.9759216   -1.7103641  0.073376806   -2.9759216    1.2655575   547498 
 2330000   0.99967736   -2.9763299   -2.9763299   -1.7097724  0.067527308   -2.9763299    1.2665575   547498 
 2331000   0.99887452   -2.9759032   -2.9759032   -1.7103629  0.070748141   -2.9759032    1.2655403   547498 
 2332000    1.0018576   -2.9788052   -2.9788052   -1.7094855  0.059098418   -2.9788052    1.2693197   547498 
 2333000     1.001242   -2.9781291   -2.9781291   -1.7095892  0.064599419   -2.9781291    1.2685399   547498 
 2334000    1.0007435   -2.9775577   -2.9775577   -1.7096494  0.060228216   -2.9775577    1.2679082   547498 
 2335000    1.0002805   -2.9768327   -2.9768327    -1.709511  0.062285522   -2.9768327    1.2673217   547498 
 2336000    1.0020135   -2.9793175   -2.9793175   -1.7098002  0.060287229   -2.9793175    1.2695173   547498 
 2337000    1.0009368   -2.9772454   -2.9772454   -1.7090922  0.062640214   -2.9772454    1.2681532   547498 
 2338000   0.99986834   -2.9754797   -2.9754797   -1.7086802  0.055751083   -2.9754797    1.2667995   547498 
 2339000    1.0001613   -2.9757923   -2.9757923   -1.7086216  0.064844282   -2.9757923    1.2671706   547498 
 2340000   0.99964765   -2.9744688   -2.9744688    -1.707949  0.060700747   -2.9744688    1.2665199   547498 
 2341000   0.99814846    -2.972321    -2.972321   -1.7077005  0.060272645    -2.972321    1.2646204   547498 
 2342000    0.9994054   -2.9740948   -2.9740948   -1.7078818   0.05814821   -2.9740948    1.2662129   547498 
 2343000   0.99853874   -2.9740791   -2.9740791   -1.7089642   0.05930399   -2.9740791    1.2651149   547498 
 2344000    0.9986361   -2.9736804   -2.9736804   -1.7084422  0.063774905   -2.9736804    1.2652383   547498 
 2345000   0.99868419   -2.9744027   -2.9744027   -1.7091035  0.063338023   -2.9744027    1.2652992   547498 
 2346000    0.9981048   -2.9735402   -2.9735402    -1.708975   0.05521408   -2.9735402    1.2645651   547498 
 2347000   0.99875588   -2.9742681   -2.9742681   -1.7088781  0.059952394   -2.9742681      1.26539   547498 
 2348000   0.99993472   -2.9746947   -2.9746947   -1.7078112  0.065304872   -2.9746947    1.2668836   547498 
 2349000    1.0017584   -2.9761879   -2.9761879   -1.7069937  0.057299045   -2.9761879    1.2691942   547498 
 2350000    1.0016692   -2.9769391   -2.9769391    -1.707858  0.061843212   -2.9769391    1.2690811   547498 
 2351000    1.0001784   -2.9745261   -2.9745261   -1.7073338  0.067466205   -2.9745261    1.2671923   547498 
 2352000   0.99996252   -2.9753328   -2.9753328    -1.708414  0.064807684   -2.9753328    1.2669188   547498 
 2353000    1.0010545   -2.9767601   -2.9767601   -1.7084578  0.061300313   -2.9767601    1.2683023   547498 
 2354000    1.0000886   -2.9750003   -2.9750003   -1.7079218  0.065890288   -2.9750003    1.2670785   547498 
 2355000   0.99966498   -2.9751016   -2.9751016   -1.7085598  0.061516313   -2.9751016    1.2665418   547498 
 2356000   0.99980795   -2.9747815   -2.9747815   -1.7080586   0.06857626   -2.9747815     1.266723   547498 
 2357000    1.0006031    -2.975308    -2.975308   -1.7075776  0.062466435    -2.975308    1.2677304   547498 
 2358000    1.0006056   -2.9754189   -2.9754189   -1.7076853   0.06545526   -2.9754189    1.2677335   547498 
 2359000       1.0008    -2.976622    -2.976622   -1.7086421  0.073283679    -2.976622    1.2679799   547498 
 2360000    1.0006461   -2.9756192   -2.9756192   -1.7078343  0.068033761   -2.9756192    1.2677849   547498 
 2361000    1.0006828    -2.977403    -2.977403   -1.7095716  0.060726991    -2.977403    1.2678314   547498 
 2362000    1.0012159    -2.978088    -2.978088   -1.7095812  0.069071691    -2.978088    1.2685068   547498 
 2363000    1.0005264   -2.9776268   -2.9776268   -1.7099935  0.065414745   -2.9776268    1.2676332   547498 
 2364000    1.0013215   -2.9782758   -2.9782758   -1.7096352  0.053580173   -2.9782758    1.2686406   547498 
 2365000    1.0014903   -2.9790643   -2.9790643   -1.7102099  0.063672536   -2.9790643    1.2688544   547498 
 2366000    1.0010461     -2.97994     -2.97994   -1.7116483  0.065567317     -2.97994    1.2682916   547498 
 2367000    1.0021261   -2.9798602   -2.9798602   -1.7102003   0.06733796   -2.9798602    1.2696599   547498 
 2368000    1.0019276    -2.978685    -2.978685   -1.7092765  0.074000673    -2.978685    1.2694085   547498 
 2369000    1.0020076   -2.9792032   -2.9792032   -1.7096934  0.072525721   -2.9792032    1.2695098   547498 
 2370000    1.0017653   -2.9796145   -2.9796145   -1.7104117  0.068202308   -2.9796145    1.2692028   547498 
 2371000    1.0023645   -2.9806968   -2.9806968   -1.7107348  0.066225226   -2.9806968     1.269962   547498 
 2372000     1.000913   -2.9802621   -2.9802621    -1.712139   0.06966178   -2.9802621     1.268123   547498 
 2373000    1.0006882   -2.9798002   -2.9798002    -1.711962   0.06324225   -2.9798002    1.2678382   547498 
 2374000    1.0029819   -2.9829703   -2.9829703   -1.7122261  0.057441507   -2.9829703    1.2707442   547498 
 2375000    1.0031954   -2.9819636   -2.9819636   -1.7109489  0.065664358   -2.9819636    1.2710147   547498 
 2376000    1.0029183    -2.981693    -2.981693   -1.7110294   0.06829825    -2.981693    1.2706636   547498 
 2377000    1.0025266   -2.9810632   -2.9810632   -1.7108958  0.064384998   -2.9810632    1.2701674   547498 
 2378000    1.0024012   -2.9808413   -2.9808413   -1.7108328   0.06446358   -2.9808413    1.2700085   547498 
 2379000    1.0025495   -2.9802038   -2.9802038   -1.7100075  0.068319226   -2.9802038    1.2701964   547498 
 2380000      1.00394   -2.9817007   -2.9817007   -1.7097426   0.06092873   -2.9817007    1.2719581   547498 
 2381000     1.002748   -2.9807058   -2.9807058   -1.7102579   0.06336613   -2.9807058    1.2704479   547498 
 2382000    1.0030918   -2.9816139   -2.9816139   -1.7107305  0.079203042   -2.9816139    1.2708834   547498 
 2383000    1.0013249   -2.9797184   -2.9797184   -1.7110735   0.06713779   -2.9797184    1.2686449   547498 
 2384000    1.0012266   -2.9800026   -2.9800026   -1.7114822  0.056712184   -2.9800026    1.2685203   547498 
 2385000   0.99951584   -2.9791923   -2.9791923   -1.7128395  0.070141297   -2.9791923    1.2663529   547498 
 2386000   0.99904484   -2.9778967   -2.9778967   -1.7121406  0.068678129   -2.9778967    1.2657561   547498 
 2387000    1.0007789   -2.9793798   -2.9793798   -1.7114266  0.066403044   -2.9793798    1.2679532   547498 
 2388000    1.0016725   -2.9808654   -2.9808654   -1.7117802   0.05032476   -2.9808654    1.2690852   547498 
 2389000   0.99907959   -2.9771574   -2.9771574   -1.7113573  0.063723445   -2.9771574    1.2658001   547498 
 2390000    1.0012495   -2.9796222   -2.9796222   -1.7110728  0.063906628   -2.9796222    1.2685494   547498 
 2391000   0.99911264   -2.9776878   -2.9776878   -1.7118458  0.060804638   -2.9776878     1.265842   547498 
 2392000   0.99977405   -2.9788278   -2.9788278   -1.7121478  0.064923842   -2.9788278      1.26668   547498 
 2393000   0.99953343   -2.9769156   -2.9769156   -1.7105404  0.068529929   -2.9769156    1.2663751   547498 
 2394000    1.0003588   -2.9782736   -2.9782736   -1.7108527  0.064887371   -2.9782736    1.2674209   547498 
 2395000    1.0001524   -2.9783797   -2.9783797   -1.7112204  0.060754646   -2.9783797    1.2671594   547498 
 2396000    1.0003554   -2.9781598   -2.9781598   -1.7107432  0.057252461   -2.9781598    1.2674165   547498 
 2397000    1.0000074   -2.9772309   -2.9772309   -1.7102552  0.063591385   -2.9772309    1.2669757   547498 
 2398000    1.0015209   -2.9796645   -2.9796645   -1.7107713  0.066207768   -2.9796645    1.2688932   547498 
 2399000     1.000784   -2.9777113   -2.9777113   -1.7097518  0.069281642   -2.9777113    1.2679595   547498 
 2400000    1.0010476   -2.9795032   -2.9795032   -1.7112097  0.055810402   -2.9795032    1.2682935   547498 
 2401000    1.0005726   -2.9783557   -2.9783557    -1.710664  0.078098312   -2.9783557    1.2676917   547498 
 2402000    1.0016112   -2.9802479   -2.9802479   -1.7112402  0.069046486   -2.9802479    1.2690077   547498 
 2403000    1.0030695   -2.9816234   -2.9816234   -1.7107682   0.06165766   -2.9816234    1.2708552   547498 
 2404000    1.0000234   -2.9777239   -2.9777239    -1.710728  0.071871697   -2.9777239    1.2669959   547498 
 2405000    1.0011137   -2.9790107   -2.9790107   -1.7106333  0.061091804   -2.9790107    1.2683774   547498 
 2406000     1.001684    -2.979865    -2.979865   -1.7107651  0.067813841    -2.979865    1.2690999   547498 
 2407000    1.0013229   -2.9799303   -2.9799303   -1.7112879  0.062403254   -2.9799303    1.2686424   547498 
 2408000   0.99928686   -2.9774794   -2.9774794   -1.7114167  0.057858336   -2.9774794    1.2660627   547498 
 2409000   0.99922402   -2.9759773   -2.9759773   -1.7099942  0.064844694   -2.9759773    1.2659831   547498 
 2410000    1.0006438   -2.9780487   -2.9780487   -1.7102668  0.063785144   -2.9780487    1.2677819   547498 
 2411000    1.0013403   -2.9786133   -2.9786133   -1.7099489  0.073546669   -2.9786133    1.2686644   547498 
 2412000    1.0007507   -2.9780219   -2.9780219   -1.7101045  0.065296993   -2.9780219    1.2679173   547498 
 2413000    1.0002376   -2.9776596   -2.9776596   -1.7103924  0.075564693   -2.9776596    1.2672672   547498 
 2414000    1.0020278   -2.9802434   -2.9802434   -1.7107079  0.072329321   -2.9802434    1.2695355   547498 
 2415000    1.0022062   -2.9800385   -2.9800385    -1.710277  0.067320435   -2.9800385    1.2697614   547498 
 2416000    1.0002961   -2.9777237   -2.9777237   -1.7103823  0.065161779   -2.9777237    1.2673414   547498 
 2417000   0.99958611   -2.9766404   -2.9766404   -1.7101986  0.066156667   -2.9766404    1.2664419   547498 
 2418000    1.0020696   -2.9794159   -2.9794159   -1.7098275   0.06351062   -2.9794159    1.2695884   547498 
 2419000    1.0014537   -2.9781749   -2.9781749   -1.7093669  0.065353322   -2.9781749     1.268808   547498 
 2420000   0.99996946   -2.9759284   -2.9759284   -1.7090009  0.069494405   -2.9759284    1.2669276   547498 
 2421000    1.0012227   -2.9767938   -2.9767938   -1.7082784  0.075167335   -2.9767938    1.2685154   547498 
 2422000   0.99999287   -2.9756667   -2.9756667   -1.7087095  0.061885007   -2.9756667    1.2669572   547498 
 2423000    1.0027036   -2.9783196   -2.9783196   -1.7079279  0.055077078   -2.9783196    1.2703916   547498 
 2424000     1.000662   -2.9760132   -2.9760132   -1.7082083  0.066877887   -2.9760132     1.267805   547498 
 2425000   0.99873531    -2.974062    -2.974062   -1.7086981   0.05752845    -2.974062     1.265364   547498 
 2426000    1.0001401   -2.9751607   -2.9751607   -1.7080169   0.06358196   -2.9751607    1.2671437   547498 
 2427000   0.99963231   -2.9744867   -2.9744867   -1.7079863  0.061622569   -2.9744867    1.2665004   547498 
 2428000    1.0002106   -2.9754229   -2.9754229   -1.7081899  0.059634821   -2.9754229    1.2672331   547498 
 2429000    1.0003959   -2.9749534   -2.9749534   -1.7074855  0.058971756   -2.9749534    1.2674679   547498 
 2430000   0.99943775   -2.9745862   -2.9745862   -1.7083323  0.070067289   -2.9745862    1.2662539   547498 
 2431000    1.0006634   -2.9762311   -2.9762311   -1.7084244  0.059062053   -2.9762311    1.2678068   547498 
 2432000    1.0002143    -2.974741    -2.974741   -1.7075032  0.064487853    -2.974741    1.2672378   547498 
 2433000    1.0001391   -2.9736268   -2.9736268   -1.7064843  0.063628105   -2.9736268    1.2671425   547498 
 2434000   0.99854247   -2.9724454   -2.9724454   -1.7073257  0.060038331   -2.9724454    1.2651196   547498 
 2435000   0.99907246    -2.973097    -2.973097   -1.7073059  0.060836489    -2.973097    1.2657911   547498 
 2436000    1.0015479   -2.9766255   -2.9766255   -1.7076982  0.067278854   -2.9766255    1.2689274   547498 
 2437000    1.0009027   -2.9753708   -2.9753708   -1.7072608  0.064452421   -2.9753708      1.26811   547498 
 2438000   0.99949122   -2.9741232   -2.9741232   -1.7078015  0.068371064   -2.9741232    1.2663217   547498 
 2439000   0.99931845   -2.9738362   -2.9738362   -1.7077334  0.069684856   -2.9738362    1.2661028   547498 
 2440000   0.99977033   -2.9748551   -2.9748551   -1.7081799  0.062822181   -2.9748551    1.2666753   547498 
 2441000    1.0003192   -2.9747584   -2.9747584   -1.7073877  0.067905071   -2.9747584    1.2673707   547498 
 2442000    1.0010607   -2.9751494   -2.9751494   -1.7068392  0.063524524   -2.9751494    1.2683102   547498 
 2443000    1.0008824   -2.9754025   -2.9754025   -1.7073182  0.065492379   -2.9754025    1.2680843   547498 
 2444000    1.0012435   -2.9755962   -2.9755962   -1.7070544  0.065911043   -2.9755962    1.2685417   547498 
 2445000    1.0016383    -2.975181    -2.975181    -1.706139  0.064484015    -2.975181     1.269042   547498 
 2446000    1.0021302   -2.9768836   -2.9768836   -1.7072184  0.058653409   -2.9768836    1.2696652   547498 
 2447000    1.0020858   -2.9764978   -2.9764978    -1.706889  0.066957573   -2.9764978    1.2696089   547498 
 2448000    1.0010286    -2.976125    -2.976125   -1.7078556  0.065601904    -2.976125    1.2682694   547498 
 2449000     1.001922   -2.9767206   -2.9767206   -1.7073191  0.064926406   -2.9767206    1.2694014   547498 
 2450000    1.0012444   -2.9761291   -2.9761291   -1.7075862  0.071858923   -2.9761291    1.2685429   547498 
 2451000   0.99997786    -2.975439    -2.975439   -1.7085007   0.05310202    -2.975439    1.2669382   547498 
 2452000    1.0015927   -2.9774941   -2.9774941   -1.7085099  0.063341066   -2.9774941    1.2689842   547498 
 2453000    1.0003773   -2.9761356   -2.9761356   -1.7086912   0.06240314   -2.9761356    1.2674444   547498 
 2454000    1.0015221   -2.9788897   -2.9788897    -1.709995  0.069471706   -2.9788897    1.2688947   547498 
 2455000    1.0012577     -2.97737     -2.97737   -1.7088102  0.063287893     -2.97737    1.2685598   547498 
 2456000    1.0004228   -2.9770749   -2.9770749    -1.709573  0.071097633   -2.9770749    1.2675019   547498 
 2457000     1.001122   -2.9779682   -2.9779682   -1.7095804  0.064905498   -2.9779682    1.2683878   547498 
 2458000    1.0001889    -2.977812    -2.977812   -1.7106064  0.070845011    -2.977812    1.2672056   547498 
 2459000   0.99851089    -2.975586    -2.975586   -1.7105064   0.05550904    -2.975586    1.2650796   547498 
 2460000   0.99992731   -2.9780927   -2.9780927   -1.7112185  0.057675102   -2.9780927    1.2668742   547498 
 2461000    1.0012541   -2.9788818   -2.9788818   -1.7103266  0.064882385   -2.9788818    1.2685552   547498 
 2462000    1.0008809   -2.9794468   -2.9794468   -1.7113645   0.05706876   -2.9794468    1.2680823   547498 
 2463000    1.0016535   -2.9799065   -2.9799065   -1.7108453  0.065483749   -2.9799065    1.2690612   547498 
 2464000    1.0014235   -2.9794281   -2.9794281   -1.7106583  0.062548617   -2.9794281    1.2687698   547498 
 2465000    1.0033903   -2.9816856   -2.9816856   -1.7104239  0.080249236   -2.9816856    1.2712617   547498 
 2466000     1.001742   -2.9798983   -2.9798983    -1.710725  0.063434548   -2.9798983    1.2691733   547498 
 2467000    1.0012124   -2.9803647   -2.9803647   -1.7118623  0.070150811   -2.9803647    1.2685024   547498 
 2468000    1.0005483   -2.9792633   -2.9792633   -1.7116023  0.067044932   -2.9792633     1.267661   547498 
 2469000    1.0018705   -2.9809884   -2.9809884   -1.7116523  0.064702155   -2.9809884    1.2693362   547498 
 2470000    1.0004984   -2.9792812   -2.9792812   -1.7116835  0.066050668   -2.9792812    1.2675977   547498 
 2471000    1.0005614   -2.9799761   -2.9799761   -1.7122985  0.061747408   -2.9799761    1.2676776   547498 
 2472000   0.99905449   -2.9782177   -2.9782177   -1.7124494  0.059898883   -2.9782177    1.2657683   547498 
 2473000   0.99998528   -2.9782896   -2.9782896    -1.711342  0.070516082   -2.9782896    1.2669476   547498 
 2474000   0.99949475   -2.9781306   -2.9781306   -1.7118045  0.075390083   -2.9781306    1.2663261   547498 
 2475000   0.99997213   -2.9789511   -2.9789511   -1.7120202  0.071612132   -2.9789511     1.266931   547498 
 2476000      1.00113   -2.9785254   -2.9785254   -1.7101274  0.068054104   -2.9785254     1.268398   547498 
 2477000    1.0012103    -2.979607    -2.979607   -1.7111073  0.065609176    -2.979607    1.2684997   547498 
 2478000   0.99990563   -2.9770797   -2.9770797    -1.710233  0.062670183   -2.9770797    1.2668467   547498 
 2479000    1.0014623    -2.978009    -2.978009   -1.7091901  0.064301386    -2.978009    1.2688189   547498 
 2480000     1.002087   -2.9799461   -2.9799461   -1.7103357  0.067144641   -2.9799461    1.2696104   547498 
 2481000    1.0004794   -2.9767086   -2.9767086    -1.709135  0.064096234   -2.9767086    1.2675737   547498 
 2482000     1.000445   -2.9764842   -2.9764842   -1.7089541  0.064776721   -2.9764842    1.2675301   547498 
 2483000    1.0014992   -2.9776142   -2.9776142   -1.7087485   0.06420502   -2.9776142    1.2688657   547498 
 2484000    1.0001063   -2.9753099   -2.9753099    -1.708209  0.069591176   -2.9753099    1.2671009   547498 
 2485000    1.0003398    -2.976701    -2.976701   -1.7093042   0.06019816    -2.976701    1.2673968   547498 
 2486000    1.0007005   -2.9756437   -2.9756437   -1.7077899  0.069063821   -2.9756437    1.2678538   547498 
 2487000    1.0012689   -2.9768401   -2.9768401   -1.7082661  0.067505477   -2.9768401     1.268574   547498 
 2488000   0.99923803   -2.9751017   -2.9751017   -1.7091009  0.065060621   -2.9751017    1.2660009   547498 
 2489000     1.000559   -2.9765934   -2.9765934   -1.7089189  0.064611696   -2.9765934    1.2676745   547498 
 2490000   0.99885943   -2.9734641   -2.9734641   -1.7079429  0.067185177   -2.9734641    1.2655212   547498 
 2491000   0.99984072   -2.9741512   -2.9741512   -1.7073867  0.068440475   -2.9741512    1.2667645   547498 
 2492000   0.99951286   -2.9750325   -2.9750325   -1.7086835  0.067455019   -2.9750325    1.2663491   547498 
 2493000   0.99824414   -2.9730741   -2.9730741   -1.7083324  0.047771483   -2.9730741    1.2647417   547498 
 2494000   0.99976136   -2.9743903   -2.9743903   -1.7077264  0.057334412   -2.9743903    1.2666639   547498 
 2495000    0.9994406   -2.9724497   -2.9724497   -1.7061921  0.059647431   -2.9724497    1.2662575   547498 
 2496000    1.0006492   -2.9746412   -2.9746412   -1.7068525    0.0649096   -2.9746412    1.2677888   547498 
 2497000    1.0013445   -2.9749023   -2.9749023   -1.7062327  0.062541686   -2.9749023    1.2686697   547498 
 2498000    1.0014626   -2.9750498   -2.9750498   -1.7062305  0.057264523   -2.9750498    1.2688193   547498 
 2499000   0.99919022   -2.9722095   -2.9722095   -1.7062692  0.062688572   -2.9722095    1.2659403   547498 
 2500000     1.000448   -2.9728675   -2.9728675   -1.7053336  0.066738834   -2.9728675    1.2675339   547498 
 2501000    1.0007657   -2.9738565   -2.9738565   -1.7059201  0.063315348   -2.9738565    1.2679364   547498 
 2502000     1.000432   -2.9733924   -2.9733924   -1.7058788  0.062551901   -2.9733924    1.2675136   547498 
 2503000    1.0011081   -2.9732921   -2.9732921   -1.7049219  0.061344098   -2.9732921    1.2683702   547498 
 2504000     1.001197    -2.974315    -2.974315   -1.7058322  0.063939363    -2.974315    1.2684828   547498 
 2505000   0.99976189   -2.9727257   -2.9727257   -1.7060611  0.074893533   -2.9727257    1.2666646   547498 
 2506000    1.0002654   -2.9735843   -2.9735843   -1.7062819  0.061354196   -2.9735843    1.2673025   547498 
 2507000   0.99905681   -2.9723511   -2.9723511   -1.7065798  0.053364698   -2.9723511    1.2657713   547498 
 2508000     1.000028   -2.9737513   -2.9737513   -1.7067496  0.063372308   -2.9737513    1.2670017   547498 
 2509000   0.99876373   -2.9731962   -2.9731962   -1.7077962  0.060597625   -2.9731962       1.2654   547498 
 2510000    0.9992864    -2.972955    -2.972955   -1.7068928  0.061254196    -2.972955    1.2660622   547498 
 2511000   0.99854877   -2.9724969   -2.9724969   -1.7073693  0.060326244   -2.9724969    1.2651276   547498 
 2512000   0.99872097    -2.973002    -2.973002   -1.7076562  0.066709101    -2.973002    1.2653458   547498 
 2513000   0.99973408   -2.9754015   -2.9754015   -1.7087721  0.060434066   -2.9754015    1.2666294   547498 
 2514000   0.99886583   -2.9746599   -2.9746599   -1.7091306  0.067858368   -2.9746599    1.2655293   547498 
 2515000   0.99994645   -2.9754831   -2.9754831   -1.7085847  0.066294503   -2.9754831    1.2668984   547498 
 2516000    1.0006135   -2.9759941   -2.9759941   -1.7082505  0.062350832   -2.9759941    1.2677436   547498 
 2517000    1.0001772   -2.9744438   -2.9744438    -1.707253  0.072223045   -2.9744438    1.2671908   547498 
 2518000    1.0006222    -2.976324    -2.976324   -1.7085695  0.067555237    -2.976324    1.2677546   547498 
 2519000    1.0015046   -2.9774692   -2.9774692   -1.7085966  0.071049498   -2.9774692    1.2688726   547498 
 2520000    1.0031061   -2.9798724   -2.9798724   -1.7089708  0.066597319   -2.9798724    1.2709016   547498 
 2521000    1.0024095   -2.9782503   -2.9782503   -1.7082313  0.070121034   -2.9782503     1.270019   547498 
 2522000    1.0011942   -2.9770491   -2.9770491   -1.7085698   0.06626386   -2.9770491    1.2684793   547498 
 2523000    1.0035028   -2.9796214   -2.9796214   -1.7082172   0.06530763   -2.9796214    1.2714042   547498 
 2524000     1.003499   -2.9796975   -2.9796975   -1.7082981   0.07491442   -2.9796975    1.2713994   547498 
 2525000    1.0038768   -2.9805687   -2.9805687   -1.7086906  0.068998135   -2.9805687    1.2718781   547498 
 2526000    1.0022792   -2.9788268   -2.9788268   -1.7089729  0.063162225   -2.9788268    1.2698539   547498 
 2527000    1.0018667   -2.9784879   -2.9784879   -1.7091567   0.06115938   -2.9784879    1.2693313   547498 
 2528000    1.0027584   -2.9801541   -2.9801541   -1.7096931  0.058966859   -2.9801541     1.270461   547498 
 2529000    1.0018345   -2.9801705   -2.9801705     -1.71088  0.071807207   -2.9801705    1.2692905   547498 
 2530000     1.002822   -2.9818092   -2.9818092   -1.7112675  0.061692064   -2.9818092    1.2705417   547498 
 2531000    1.0028092    -2.981379    -2.981379   -1.7108536  0.075145405    -2.981379    1.2705254   547498 
 2532000    1.0020956   -2.9805688   -2.9805688   -1.7109475  0.065699782   -2.9805688    1.2696213   547498 
 2533000    1.0009071   -2.9798231   -2.9798231   -1.7117076  0.066324658   -2.9798231    1.2681155   547498 
 2534000    1.0015334   -2.9803769   -2.9803769   -1.7114678  0.072298283   -2.9803769    1.2689091   547498 
 2535000    1.0005434   -2.9797753   -2.9797753   -1.7121205  0.071514074   -2.9797753    1.2676547   547498 
 2536000    1.0017692    -2.981174    -2.981174   -1.7119662   0.06597579    -2.981174    1.2692078   547498 
 2537000    1.0008825   -2.9807095   -2.9807095   -1.7126251  0.061453848   -2.9807095    1.2680844   547498 
 2538000    1.0003138   -2.9809149   -2.9809149    -1.713551   0.06376684   -2.9809149    1.2673639   547498 
 2539000    0.9999422   -2.9797449   -2.9797449   -1.7128519  0.075581342   -2.9797449     1.266893   547498 
 2540000   0.99909456    -2.979306    -2.979306   -1.7134869   0.05280832    -2.979306    1.2658191   547498 
 2541000   0.99986396    -2.979136    -2.979136   -1.7123421  0.069118845    -2.979136    1.2667939   547498 
 2542000    1.0004509   -2.9795967   -2.9795967   -1.7120592  0.073602223   -2.9795967    1.2675375   547498 
 2543000    1.0008638   -2.9795592   -2.9795592   -1.7114985  0.066494726   -2.9795592    1.2680606   547498 
 2544000    1.0014656   -2.9805627   -2.9805627   -1.7117396  0.066717685   -2.9805627    1.2688231   547498 
 2545000    1.0008229    -2.979062    -2.979062   -1.7110531  0.058288078    -2.979062    1.2680088   547498 
 2546000     1.001394   -2.9803495   -2.9803495    -1.711617  0.064408342   -2.9803495    1.2687324   547498 
 2547000    1.0008407   -2.9790567   -2.9790567   -1.7110253  0.065613875   -2.9790567    1.2680315   547498 
 2548000    1.0018445   -2.9793204   -2.9793204   -1.7100173  0.063030673   -2.9793204    1.2693032   547498 
 2549000    1.0011141   -2.9791904   -2.9791904   -1.7108125  0.067264905   -2.9791904    1.2683778   547498 
 2550000    1.0015052   -2.9796304   -2.9796304    -1.710757  0.064347379   -2.9796304    1.2688734   547498 
 2551000   0.99915176   -2.9771876   -2.9771876    -1.711296  0.073031936   -2.9771876    1.2658916   547498 
 2552000   0.99926039   -2.9769651   -2.9769651   -1.7109359  0.061971373   -2.9769651    1.2660292   547498 
 2553000   0.99944191   -2.9767748   -2.9767748   -1.7105156  0.065766677   -2.9767748    1.2662592   547498 
 2554000   0.99962354   -2.9769645   -2.9769645   -1.7104752  0.062054273   -2.9769645    1.2664893   547498 
 2555000   0.99866303    -2.976452    -2.976452   -1.7111796  0.067459173    -2.976452    1.2652724   547498 
 2556000   0.99978071    -2.977443    -2.977443   -1.7107546  0.057198222    -2.977443    1.2666884   547498 
 2557000    1.0005758   -2.9778953   -2.9778953   -1.7101995  0.067665231   -2.9778953    1.2676958   547498 
 2558000    1.0008912   -2.9778932   -2.9778932   -1.7097978  0.057321406   -2.9778932    1.2680954   547498 
 2559000   0.99978893    -2.975547    -2.975547   -1.7088482  0.072961666    -2.975547    1.2666989   547498 
 2560000     1.001383   -2.9766663   -2.9766663   -1.7079478  0.058010756   -2.9766663    1.2687185   547498 
 2561000    1.0011009   -2.9763672   -2.9763672   -1.7080062  0.066336749   -2.9763672     1.268361   547498 
 2562000     1.000231   -2.9756465   -2.9756465   -1.7083876  0.055805409   -2.9756465    1.2672589   547498 
 2563000    1.0006679   -2.9764145   -2.9764145    -1.708602   0.06812908   -2.9764145    1.2678125   547498 
 2564000    1.0010689   -2.9760761   -2.9760761   -1.7077555  0.071589612   -2.9760761    1.2683206   547498 
 2565000     1.000562   -2.9755974   -2.9755974   -1.7079191  0.063655905   -2.9755974    1.2676783   547498 
 2566000   0.99884605   -2.9735701   -2.9735701   -1.7080659  0.064775091   -2.9735701    1.2655043   547498 
 2567000   0.99912823   -2.9743508   -2.9743508    -1.708489  0.070902206   -2.9743508    1.2658618   547498 
 2568000    1.0000479   -2.9759677   -2.9759677   -1.7089407  0.057392824   -2.9759677     1.267027   547498 
 2569000     1.001574   -2.9767494   -2.9767494   -1.7077889  0.055612249   -2.9767494    1.2689605   547498 
 2570000   0.99988921   -2.9745122   -2.9745122   -1.7076862  0.062336564   -2.9745122    1.2668259   547498 
 2571000   0.99975015   -2.9738347   -2.9738347    -1.707185  0.063366871   -2.9738347    1.2666497   547498 
 2572000     1.000302   -2.9745561   -2.9745561   -1.7072073  0.076861102   -2.9745561    1.2673489   547498 
 2573000    1.0010636    -2.975479    -2.975479   -1.7071652  0.058195677    -2.975479    1.2683138   547498 
 2574000    1.0021232   -2.9760566   -2.9760566   -1.7064004   0.06459984   -2.9760566    1.2696562   547498 
 2575000    1.0016169   -2.9763979   -2.9763979   -1.7073831  0.068478918   -2.9763979    1.2690148   547498 
 2576000    1.0006989   -2.9746519   -2.9746519   -1.7068001  0.067078035   -2.9746519    1.2678518   547498 
 2577000    1.0005797   -2.9751142   -2.9751142   -1.7074134  0.069257634   -2.9751142    1.2677008   547498 
 2578000    1.0004189    -2.974172    -2.974172    -1.706675  0.072914195    -2.974172     1.267497   547498 
 2579000    1.0009576   -2.9746387   -2.9746387   -1.7064591  0.061318073   -2.9746387    1.2681795   547498 
 2580000    1.0016338    -2.975093    -2.975093   -1.7060568  0.067485558    -2.975093    1.2690362   547498 
 2581000    1.0008195   -2.9744035   -2.9744035   -1.7063989   0.05962691   -2.9744035    1.2680046   547498 
 2582000    1.0000527   -2.9737499   -2.9737499   -1.7067168  0.061194347   -2.9737499     1.267033   547498 
 2583000    1.0000847   -2.9735794   -2.9735794   -1.7065058  0.067844862   -2.9735794    1.2670736   547498 
 2584000    1.0014773    -2.975862    -2.975862    -1.707024  0.064479429    -2.975862    1.2688379   547498 
 2585000    1.0013275   -2.9756071   -2.9756071    -1.706959  0.065674457   -2.9756071    1.2686481   547498 
 2586000    1.0014303   -2.9759491   -2.9759491   -1.7071707  0.063874763   -2.9759491    1.2687784   547498 
 2587000     1.001101   -2.9756198   -2.9756198   -1.7072586  0.064936301   -2.9756198    1.2683612   547498 
 2588000    1.0008792   -2.9761411   -2.9761411    -1.708061  0.063479612   -2.9761411    1.2680802   547498 
 2589000   0.99976112   -2.9745422   -2.9745422   -1.7078786  0.063200579   -2.9745422    1.2666636   547498 
 2590000    1.0012151   -2.9755943   -2.9755943   -1.7070886  0.070626996   -2.9755943    1.2685057   547498 
 2591000    1.0008319   -2.9750152   -2.9750152    -1.706995  0.078059773   -2.9750152    1.2680202   547498 
 2592000    1.0011786   -2.9753195   -2.9753195     -1.70686  0.067904886   -2.9753195    1.2684596   547498 
 2593000    1.0009193   -2.9746599   -2.9746599    -1.706529  0.072630483   -2.9746599     1.268131   547498 
 2594000    1.0010822   -2.9760103   -2.9760103   -1.7076729  0.063589817   -2.9760103    1.2683374   547498 
 2595000    1.0009515    -2.974896    -2.974896   -1.7067242  0.068483392    -2.974896    1.2681718   547498 
 2596000    1.0013261   -2.9753963   -2.9753963   -1.7067499  0.066231669   -2.9753963    1.2686464   547498 
 2597000    1.0012123   -2.9747267   -2.9747267   -1.7062245  0.065430724   -2.9747267    1.2685022   547498 
 2598000    0.9998204   -2.9737718   -2.9737718    -1.707033  0.066438252   -2.9737718    1.2667387   547498 
 2599000    1.0004457   -2.9745512   -2.9745512   -1.7070202  0.063807879   -2.9745512     1.267531   547498 
 2600000    1.0007268   -2.9746596   -2.9746596   -1.7067725      0.06655   -2.9746596    1.2678871   547498 
 2601000    1.0022111   -2.9765973   -2.9765973   -1.7068297  0.060255294   -2.9765973    1.2697676   547498 
 2602000    1.0014142   -2.9758931   -2.9758931    -1.707135  0.067056951   -2.9758931    1.2687581   547498 
 2603000     1.001629   -2.9771186   -2.9771186   -1.7080885  0.068045591   -2.9771186    1.2690301   547498 
 2604000    1.0007997   -2.9755441   -2.9755441   -1.7075647  0.073620073   -2.9755441    1.2679794   547498 
 2605000     1.002068   -2.9772951   -2.9772951   -1.7077087  0.065016196   -2.9772951    1.2695864   547498 
 2606000    1.0023952   -2.9777325   -2.9777325   -1.7077316  0.061670691   -2.9777325    1.2700009   547498 
 2607000    1.0013735   -2.9767371   -2.9767371   -1.7080307  0.065552862   -2.9767371    1.2687064   547498 
 2608000    1.0012392   -2.9759948   -2.9759948   -1.7074585  0.067721179   -2.9759948    1.2685363   547498 
 2609000    1.0015013   -2.9764202   -2.9764202   -1.7075518  0.065419392   -2.9764202    1.2688684   547498 
 2610000    1.0020593   -2.9775556   -2.9775556   -1.7079803  0.059731455   -2.9775556    1.2695753   547498 
 2611000    1.0024462   -2.9764199   -2.9764199   -1.7063543  0.069637484   -2.9764199    1.2700655   547498 
 2612000    1.0018281   -2.9769182   -2.9769182   -1.7076357  0.060286396   -2.9769182    1.2692824   547498 
 2613000    1.0019781   -2.9779012   -2.9779012   -1.7084287  0.071196746   -2.9779012    1.2694724   547498 
 2614000    1.0023289   -2.9776645   -2.9776645   -1.7077476  0.065666977   -2.9776645    1.2699169   547498 
 2615000    1.0016713   -2.9769074   -2.9769074   -1.7078236  0.059606968   -2.9769074    1.2690838   547498 
 2616000    1.0001682   -2.9751734   -2.9751734   -1.7079941   0.06397897   -2.9751734    1.2671793   547498 
 2617000     1.002167   -2.9782779   -2.9782779   -1.7085661  0.076004418   -2.9782779    1.2697117   547498 
 2618000    1.0004341   -2.9759491   -2.9759491   -1.7084328  0.072434849   -2.9759491    1.2675163   547498 
 2619000   0.99994785    -2.976251    -2.976251   -1.7093508  0.069362406    -2.976251    1.2669002   547498 
 2620000    1.0002438    -2.975952    -2.975952   -1.7086768  0.063043255    -2.975952    1.2672752   547498 
 2621000    0.9992403   -2.9755889   -2.9755889   -1.7095851  0.069491601   -2.9755889    1.2660038   547498 
 2622000    1.0009998   -2.9765446   -2.9765446   -1.7083116  0.064155724   -2.9765446     1.268233   547498 
 2623000    1.0012101   -2.9765697   -2.9765697   -1.7080703  0.063823206   -2.9765697    1.2684994   547498 
 2624000    1.0015562   -2.9765792   -2.9765792   -1.7076413  0.060568944   -2.9765792    1.2689379   547498 
 2625000    1.0023775   -2.9776005   -2.9776005   -1.7076221  0.064271265   -2.9776005    1.2699784   547498 
 2626000    1.0003068   -2.9756005   -2.9756005   -1.7082456  0.061879944   -2.9756005    1.2673549   547498 
 2627000    1.0005558    -2.975646    -2.975646   -1.7079755  0.073100357    -2.975646    1.2676705   547498 
 2628000    1.0007942   -2.9759291   -2.9759291   -1.7079566  0.068822255   -2.9759291    1.2679725   547498 
 2629000    1.0010975   -2.9763854   -2.9763854   -1.7080286  0.063531235   -2.9763854    1.2683568   547498 
 2630000    1.0007244   -2.9756063   -2.9756063   -1.7077222  0.062980751   -2.9756063    1.2678841   547498 
 2631000    1.0010364   -2.9762281   -2.9762281   -1.7079488  0.068502055   -2.9762281    1.2682794   547498 
 2632000    1.0006194   -2.9761167   -2.9761167   -1.7083657   0.06396521   -2.9761167     1.267751   547498 
 2633000     1.000983   -2.9769541   -2.9769541   -1.7087424  0.059544563   -2.9769541    1.2682117   547498 
 2634000    1.0009539   -2.9771628   -2.9771628    -1.708988  0.053733928   -2.9771628    1.2681748   547498 
 2635000   0.99893142   -2.9739919   -2.9739919   -1.7083795  0.066801676   -2.9739919    1.2656124   547498 
 2636000   0.99889819   -2.9740302   -2.9740302   -1.7084598     0.071015   -2.9740302    1.2655703   547498 
 2637000   0.99966524   -2.9743194   -2.9743194   -1.7077772  0.067819302   -2.9743194    1.2665421   547498 
 2638000    1.0002235   -2.9755209   -2.9755209   -1.7082715  0.066936882   -2.9755209    1.2672494   547498 
 2639000   0.99898001   -2.9741298   -2.9741298   -1.7084559  0.073203258   -2.9741298     1.265674   547498 
 2640000    1.0005202   -2.9744486   -2.9744486   -1.7068233  0.067577165   -2.9744486    1.2676253   547498 
 2641000    1.0018161   -2.9751611   -2.9751611   -1.7058939   0.06810831   -2.9751611    1.2692672   547498 
 2642000    1.0020023   -2.9757796   -2.9757796   -1.7062766  0.066382091   -2.9757796    1.2695031   547498 
 2643000    1.0016002   -2.9752103   -2.9752103   -1.7062166  0.065713831   -2.9752103    1.2689936   547498 
 2644000    1.0016136   -2.9765666   -2.9765666    -1.707556  0.064065337   -2.9765666    1.2690106   547498 
 2645000     1.000972   -2.9753583   -2.9753583   -1.7071605  0.062087042   -2.9753583    1.2681978   547498 
 2646000     1.001291   -2.9765173   -2.9765173   -1.7079153  0.062128771   -2.9765173     1.268602   547498 
 2647000    1.0011275   -2.9761305   -2.9761305   -1.7077357  0.071427266   -2.9761305    1.2683948   547498 
 2648000    1.0015003   -2.9769547   -2.9769547   -1.7080876  0.058383355   -2.9769547    1.2688672   547498 
 2649000    1.0015648   -2.9771996   -2.9771996   -1.7082508   0.06057926   -2.9771996    1.2689488   547498 
 2650000    1.0019528   -2.9772777   -2.9772777   -1.7078372   0.05918157   -2.9772777    1.2694405   547498 
 2651000    1.0014377   -2.9768984   -2.9768984   -1.7081107  0.065147805   -2.9768984    1.2687878   547498 
 2652000    1.0002877   -2.9749978   -2.9749978    -1.707667  0.064812877   -2.9749978    1.2673308   547498 
 2653000    1.0023093   -2.9774343   -2.9774343   -1.7075423  0.071285144   -2.9774343     1.269892   547498 
 2654000    1.0021003   -2.9768686   -2.9768686   -1.7072413  0.058085917   -2.9768686    1.2696273   547498 
 2655000    1.0005089   -2.9757242   -2.9757242   -1.7081132  0.070688908   -2.9757242     1.267611   547498 
 2656000    1.0027568   -2.9784771   -2.9784771    -1.708018  0.054712213   -2.9784771     1.270459   547498 
 2657000    1.0007764   -2.9757457   -2.9757457   -1.7077957  0.072020027   -2.9757457      1.26795   547498 
 2658000    1.0003685   -2.9756346   -2.9756346   -1.7082015  0.060952662   -2.9756346    1.2674331   547498 
 2659000    1.0031613   -2.9789504   -2.9789504   -1.7079789  0.060320732   -2.9789504    1.2709715   547498 
 2660000    1.0010518   -2.9772901   -2.9772901   -1.7089913   0.06367946   -2.9772901    1.2682988   547498 
 2661000     1.000201    -2.976464    -2.976464    -1.709243  0.063675388    -2.976464     1.267221   547498 
 2662000    1.0015145   -2.9765603   -2.9765603   -1.7076753  0.058064793   -2.9765603    1.2688851   547498 
 2663000    1.0016649   -2.9774517   -2.9774517    -1.708376  0.064531846   -2.9774517    1.2690757   547498 
 2664000    1.0014721   -2.9762838   -2.9762838   -1.7074525  0.062970423   -2.9762838    1.2688313   547498 
 2665000    1.0001278   -2.9750475   -2.9750475   -1.7079193  0.076675593   -2.9750475    1.2671281   547498 
 2666000    0.9993949   -2.9749675   -2.9749675   -1.7087679   0.06358998   -2.9749675    1.2661996   547498 
 2667000     1.000988   -2.9773393   -2.9773393   -1.7091213  0.066617376   -2.9773393     1.268218   547498 
 2668000    1.0012681   -2.9777301   -2.9777301   -1.7091572  0.061422344   -2.9777301     1.268573   547498 
 2669000   0.99995646   -2.9764241   -2.9764241    -1.709513  0.063793103   -2.9764241    1.2669111   547498 
 2670000    1.0004131   -2.9771619   -2.9771619   -1.7096723  0.059816025   -2.9771619    1.2674896   547498 
 2671000    1.0004399    -2.977539    -2.977539   -1.7100154  0.057436219    -2.977539    1.2675235   547498 
 2672000     1.002156   -2.9789641   -2.9789641   -1.7092663  0.068612422   -2.9789641    1.2696978   547498 
 2673000    1.0000132   -2.9758298   -2.9758298   -1.7088467  0.076632758   -2.9758298     1.266983   547498 
 2674000    1.0002648   -2.9767477   -2.9767477   -1.7094459  0.073246896   -2.9767477    1.2673018   547498 
 2675000    1.0011598   -2.9770482   -2.9770482   -1.7086125  0.072791603   -2.9770482    1.2684357   547498 
 2676000    1.0017728   -2.9776845   -2.9776845   -1.7084721  0.061203851   -2.9776845    1.2692124   547498 
 2677000    1.0016953   -2.9780308   -2.9780308   -1.7089167  0.070672983   -2.9780308    1.2691142   547498 
 2678000    1.0011522   -2.9778777   -2.9778777   -1.7094516  0.065278063   -2.9778777    1.2684261   547498 
 2679000     1.002015   -2.9784756   -2.9784756   -1.7089564  0.064374043   -2.9784756    1.2695192   547498 
 2680000    1.0022791   -2.9774212   -2.9774212   -1.7075674  0.074662442   -2.9774212    1.2698538   547498 
 2681000    1.0033984   -2.9796705   -2.9796705   -1.7083985   0.05864005   -2.9796705     1.271272   547498 
 2682000    1.0029572   -2.9795676   -2.9795676   -1.7088546  0.057182238   -2.9795676     1.270713   547498 
 2683000    1.0011491   -2.9776048   -2.9776048   -1.7091827  0.075030432   -2.9776048    1.2684221   547498 
 2684000    1.0021725   -2.9785493   -2.9785493   -1.7088305  0.070904548   -2.9785493    1.2697188   547498 
 2685000    1.0010328   -2.9770683   -2.9770683   -1.7087935  0.071248916   -2.9770683    1.2682748   547498 
 2686000     1.000687   -2.9759101   -2.9759101   -1.7080735  0.062646932   -2.9759101    1.2678366   547498 
 2687000   0.99879998   -2.9732229   -2.9732229    -1.707777   0.06781349   -2.9732229    1.2654459   547498 
 2688000    1.0008234   -2.9762066   -2.9762066   -1.7081972  0.072446766   -2.9762066    1.2680094   547498 
 2689000    1.0008908   -2.9763401   -2.9763401   -1.7082452  0.068784585   -2.9763401    1.2680949   547498 
 2690000    1.0019146   -2.9781982   -2.9781982   -1.7088062  0.054782166   -2.9781982     1.269392   547498 
 2691000   0.99939209   -2.9750243   -2.9750243   -1.7088282  0.069814956   -2.9750243    1.2661961   547498 
 2692000     1.000338    -2.977148    -2.977148   -1.7097535   0.05976006    -2.977148    1.2673945   547498 
 2693000   0.99954317   -2.9760977   -2.9760977   -1.7097102  0.061293833   -2.9760977    1.2663875   547498 
 2694000    1.0002949   -2.9772844   -2.9772844   -1.7099445  0.065166175   -2.9772844    1.2673399   547498 
 2695000    1.0001032   -2.9759322   -2.9759322   -1.7088351  0.063609732   -2.9759322    1.2670971   547498 
 2696000   0.99929734   -2.9750665   -2.9750665   -1.7089905  0.064686052   -2.9750665     1.266076   547498 
 2697000   0.99923491   -2.9747067   -2.9747067   -1.7087097  0.069037425   -2.9747067    1.2659969   547498 
 2698000   0.99977991   -2.9750867   -2.9750867   -1.7083993  0.063670175   -2.9750867    1.2666874   547498 
 2699000   0.99968337   -2.9742426   -2.9742426   -1.7076775  0.059569831   -2.9742426    1.2665651   547498 
 2700000   0.99900732   -2.9743689   -2.9743689   -1.7086603  0.064414793   -2.9743689    1.2657086   547498 
 2701000   0.99945524   -2.9745954   -2.9745954   -1.7083193   0.07375648   -2.9745954    1.2662761   547498 
 2702000   0.99907478     -2.97467     -2.97467   -1.7088759  0.067687555     -2.97467    1.2657941   547498 
 2703000   0.99971719    -2.974265    -2.974265   -1.7076571  0.063235321    -2.974265     1.266608   547498 
 2704000    1.0000872   -2.9744977   -2.9744977   -1.7074209  0.060930698   -2.9744977    1.2670768   547498 
 2705000    1.0004187   -2.9745374   -2.9745374   -1.7070406  0.064174621   -2.9745374    1.2674968   547498 
 2706000    1.0011917   -2.9752421   -2.9752421    -1.706766  0.072158903   -2.9752421    1.2684761   547498 
 2707000    1.0016297   -2.9766825   -2.9766825   -1.7076514  0.057283504   -2.9766825    1.2690311   547498 
 2708000    1.0010712   -2.9754627   -2.9754627   -1.7071392  0.064955803   -2.9754627    1.2683235   547498 
 2709000    1.0024503   -2.9764998   -2.9764998   -1.7064291   0.06455975   -2.9764998    1.2700707   547498 
 2710000    1.0015896   -2.9751346   -2.9751346   -1.7061544  0.060017097   -2.9751346    1.2689802   547498 
 2711000    1.0019486   -2.9761977   -2.9761977   -1.7067627  0.069418091   -2.9761977     1.269435   547498 
 2712000     1.001993    -2.976741    -2.976741   -1.7072497   0.07003497    -2.976741    1.2694913   547498 
 2713000    1.0015824   -2.9756471   -2.9756471    -1.706676  0.078260491   -2.9756471    1.2689711   547498 
 2714000    1.0017384   -2.9763312   -2.9763312   -1.7071624  0.058565431   -2.9763312    1.2691688   547498 
 2715000    1.0034185   -2.9771613   -2.9771613   -1.7058639  0.065641176   -2.9771613    1.2712974   547498 
 2716000    1.0018612    -2.976502    -2.976502   -1.7071777  0.070524148    -2.976502    1.2693244   547498 
 2717000    1.0010766   -2.9758813   -2.9758813    -1.707551  0.063959658   -2.9758813    1.2683303   547498 
 2718000    1.0024287   -2.9765153   -2.9765153   -1.7064719  0.059830507   -2.9765153    1.2700433   547498 
 2719000    1.0009939   -2.9753186   -2.9753186   -1.7070931  0.062794968   -2.9753186    1.2682255   547498 
 2720000     1.000824   -2.9749472   -2.9749472   -1.7069369   0.06600722   -2.9749472    1.2680103   547498 
 2721000   0.99961955   -2.9734261   -2.9734261   -1.7069419  0.072306874   -2.9734261    1.2664843   547498 
 2722000     1.000814   -2.9744529   -2.9744529   -1.7064554  0.065062098   -2.9744529    1.2679975   547498 
 2723000    1.0006555   -2.9752448   -2.9752448   -1.7074481  0.059096786   -2.9752448    1.2677967   547498 
 2724000   0.99981026   -2.9744043   -2.9744043   -1.7076784   0.05996186   -2.9744043    1.2667259   547498 
 2725000    1.0019417   -2.9770824   -2.9770824   -1.7076561  0.060334775   -2.9770824    1.2694263   547498 
 2726000    1.0013735   -2.9763836   -2.9763836   -1.7076772  0.062951932   -2.9763836    1.2687065   547498 
 2727000   0.99994644   -2.9747414   -2.9747414    -1.707843  0.055153838   -2.9747414    1.2668984   547498 
 2728000    1.0004238   -2.9758751   -2.9758751   -1.7083718  0.067733029   -2.9758751    1.2675033   547498 
 2729000    1.0006881      -2.9757      -2.9757   -1.7078619  0.065127789      -2.9757     1.267838   547498 
 2730000   0.99942864   -2.9743978   -2.9743978   -1.7081555  0.069055362   -2.9743978    1.2662424   547498 
 2731000   0.99999326   -2.9749731   -2.9749731   -1.7080154  0.073947345   -2.9749731    1.2669577   547498 
 2732000    1.0005304   -2.9750986   -2.9750986   -1.7074603  0.054871291   -2.9750986    1.2676383   547498 
 2733000    1.0002976   -2.9756539   -2.9756539   -1.7083106  0.058298189   -2.9756539    1.2673433   547498 
 2734000    1.0002941   -2.9741607   -2.9741607   -1.7068218   0.06963742   -2.9741607    1.2673389   547498 
 2735000    1.0010025   -2.9742303   -2.9742303   -1.7059939  0.063796283   -2.9742303    1.2682365   547498 
 2736000    1.0006128    -2.974527    -2.974527   -1.7067843  0.071729373    -2.974527    1.2677427   547498 
 2737000    1.0018655   -2.9764549   -2.9764549   -1.7071251  0.063903254   -2.9764549    1.2693298   547498 
 2738000    1.0008537   -2.9751229   -2.9751229    -1.707075  0.069093104   -2.9751229    1.2680479   547498 
 2739000    1.0013778   -2.9766203   -2.9766203   -1.7079084  0.063828394   -2.9766203    1.2687119   547498 
 2740000    1.0018058   -2.9774009   -2.9774009   -1.7081467  0.057391115   -2.9774009    1.2692541   547498 
 2741000    1.0008374   -2.9757886   -2.9757886   -1.7077614  0.072005682   -2.9757886    1.2680272   547498 
 2742000   0.99981912   -2.9757821   -2.9757821    -1.709045  0.058434739   -2.9757821    1.2667371   547498 
 2743000    1.0025457   -2.9786663   -2.9786663   -1.7084748  0.054663629   -2.9786663    1.2701916   547498 
 2744000    1.0003225   -2.9760718   -2.9760718    -1.708697  0.066684189   -2.9760718    1.2673748   547498 
 2745000    1.0004814   -2.9753966   -2.9753966   -1.7078204  0.062398815   -2.9753966    1.2675762   547498 
 2746000   0.99989852   -2.9749947   -2.9749947    -1.708157  0.061466217   -2.9749947    1.2668377   547498 
 2747000    1.0006652   -2.9776835   -2.9776835   -1.7098744  0.062068126   -2.9776835    1.2678091   547498 
 2748000   0.99749226     -2.97385     -2.97385   -1.7100609  0.060177182     -2.97385    1.2637891   547498 
 2749000    1.0001682   -2.9769984   -2.9769984    -1.709819  0.066748466   -2.9769984    1.2671794   547498 
 2750000   0.99965891   -2.9765625   -2.9765625   -1.7100284  0.063189592   -2.9765625    1.2665341   547498 
 2751000    1.0022143   -2.9798142   -2.9798142   -1.7100425  0.063900533   -2.9798142    1.2697717   547498 
 2752000   0.99996998   -2.9772924   -2.9772924   -1.7103641   0.06049365   -2.9772924    1.2669282   547498 
 2753000   0.99885641   -2.9760073   -2.9760073   -1.7104899  0.072623361   -2.9760073    1.2655174   547498 
 2754000    1.0008798   -2.9774342   -2.9774342   -1.7093533  0.059119321   -2.9774342    1.2680809   547498 
 2755000    1.0003968     -2.97745     -2.97745   -1.7099811  0.066722763     -2.97745    1.2674689   547498 
 2756000    1.0010502    -2.978121    -2.978121   -1.7098241  0.070559288    -2.978121    1.2682969   547498 
 2757000    1.0005728   -2.9758484   -2.9758484   -1.7081564  0.070228107   -2.9758484     1.267692   547498 
 2758000    1.0022594   -2.9775384   -2.9775384   -1.7077095  0.065303549   -2.9775384    1.2698288   547498 
 2759000    1.0016376   -2.9759703   -2.9759703   -1.7069292  0.064873281   -2.9759703     1.269041   547498 
 2760000    1.0007128   -2.9757332   -2.9757332   -1.7078639  0.063850241   -2.9757332    1.2678693   547498 
 2761000    1.0033412   -2.9783356   -2.9783356   -1.7071361  0.061140991   -2.9783356    1.2711995   547498 
 2762000     1.002948   -2.9775645   -2.9775645   -1.7068632  0.067204295   -2.9775645    1.2707013   547498 
 2763000     1.001393   -2.9766813   -2.9766813   -1.7079501   0.06556946   -2.9766813    1.2687311   547498 
 2764000    1.0019089   -2.9769785   -2.9769785   -1.7075938  0.074805364   -2.9769785    1.2693847   547498 
 2765000    1.0016024   -2.9768538   -2.9768538   -1.7078574  0.056905408   -2.9768538    1.2689964   547498 
 2766000    1.0000489   -2.9759617   -2.9759617   -1.7089335  0.054577852   -2.9759617    1.2670282   547498 
 2767000     1.001266   -2.9768425   -2.9768425   -1.7082721   0.06899138   -2.9768425    1.2685703   547498 
 2768000     1.000013   -2.9760951   -2.9760951   -1.7091123  0.066836575   -2.9760951    1.2669828   547498 
 2769000   0.99973212   -2.9756989   -2.9756989    -1.709072  0.077167457   -2.9756989    1.2666269   547498 
 2770000   0.99941732   -2.9743041   -2.9743041    -1.708076  0.059666308   -2.9743041     1.266228   547498 
 2771000     1.000303   -2.9747921   -2.9747921   -1.7074419  0.059997834   -2.9747921    1.2673502   547498 
 2772000    1.0001825   -2.9751397   -2.9751397   -1.7079422  0.067624462   -2.9751397    1.2671975   547498 
 2773000    0.9998337   -2.9739894   -2.9739894   -1.7072338  0.075407106   -2.9739894    1.2667556   547498 
 2774000    1.0007861   -2.9753577   -2.9753577   -1.7073955  0.060803918   -2.9753577    1.2679623   547498 
 2775000    1.0006737   -2.9741573   -2.9741573   -1.7063374  0.065527907   -2.9741573    1.2678199   547498 
 2776000    1.0002587   -2.9738347   -2.9738347   -1.7065407  0.058654291   -2.9738347     1.267294   547498 
 2777000    1.0005031   -2.9740723   -2.9740723   -1.7064685  0.066305859   -2.9740723    1.2676037   547498 
 2778000    1.0019726   -2.9759311   -2.9759311   -1.7064657  0.056228442   -2.9759311    1.2694654   547498 
 2779000    1.0008251   -2.9738403   -2.9738403   -1.7058287  0.068069523   -2.9738403    1.2680116   547498 
 2780000    1.0013731   -2.9742795   -2.9742795   -1.7055735  0.065722893   -2.9742795     1.268706   547498 
 2781000    1.0023047   -2.9756616   -2.9756616   -1.7057754   0.06887534   -2.9756616    1.2698862   547498 
 2782000     1.001007   -2.9734731   -2.9734731    -1.705231  0.062776486   -2.9734731    1.2682421   547498 
 2783000    1.0021005   -2.9746156   -2.9746156   -1.7049881  0.058222606   -2.9746156    1.2696275   547498 
 2784000    1.0016359   -2.9737792   -2.9737792   -1.7047404  0.067885384   -2.9737792    1.2690389   547498 
 2785000    1.0002433   -2.9723553   -2.9723553   -1.7050808  0.065547479   -2.9723553    1.2672745   547498 
 2786000    1.0006269   -2.9725267   -2.9725267   -1.7047661  0.056471748   -2.9725267    1.2677606   547498 
 2787000    1.0008459   -2.9731587   -2.9731587   -1.7051207  0.060590694   -2.9731587     1.268038   547498 
 2788000    1.0001513   -2.9731854   -2.9731854   -1.7060275  0.058239171   -2.9731854     1.267158   547498 
 2789000   0.99993851   -2.9730143   -2.9730143   -1.7061259   0.07403976   -2.9730143    1.2668884   547498 
 2790000   0.99993977   -2.9723417   -2.9723417   -1.7054517  0.064460282   -2.9723417      1.26689   547498 
 2791000    1.0000005   -2.9725766   -2.9725766   -1.7056097  0.063389829   -2.9725766    1.2669669   547498 
 2792000   0.99983198   -2.9730594   -2.9730594    -1.706306  0.061971472   -2.9730594    1.2667534   547498 
 2793000    1.0018676    -2.974563    -2.974563   -1.7052305  0.067380135    -2.974563    1.2693325   547498 
 2794000   0.99977908   -2.9718252   -2.9718252   -1.7051389  0.049954726   -2.9718252    1.2666864   547498 
 2795000    1.0005879   -2.9721139   -2.9721139   -1.7044027  0.072149954   -2.9721139    1.2677112   547498 
 2796000    1.0010465   -2.9727882   -2.9727882    -1.704496  0.069140869   -2.9727882    1.2682922   547498 
 2797000    1.0004251   -2.9712103   -2.9712103   -1.7037054  0.067586565   -2.9712103    1.2675048   547498 
 2798000   0.99959824   -2.9703169   -2.9703169   -1.7038596  0.074593846   -2.9703169    1.2664573   547498 
 2799000    1.0010467   -2.9731361   -2.9731361   -1.7048437  0.058898744   -2.9731361    1.2682924   547498 
 2800000    1.0011066   -2.9726911   -2.9726911   -1.7043228  0.066240612   -2.9726911    1.2683683   547498 
 2801000     1.000663   -2.9727832   -2.9727832   -1.7049769  0.061048668   -2.9727832    1.2678063   547498 
 2802000    1.0015306   -2.9738899   -2.9738899   -1.7049844  0.059997164   -2.9738899    1.2689055   547498 
 2803000    1.0011941   -2.9731953   -2.9731953   -1.7047161  0.061291573   -2.9731953    1.2684792   547498 
 2804000    1.0011497   -2.9744337   -2.9744337   -1.7060108  0.062888012   -2.9744337    1.2684229   547498 
 2805000   0.99911276   -2.9712586   -2.9712586   -1.7054165  0.067049507   -2.9712586    1.2658422   547498 
 2806000    1.0004993   -2.9732032   -2.9732032   -1.7056043  0.059870474   -2.9732032    1.2675988   547498 
 2807000    1.0006385   -2.9729776   -2.9729776   -1.7052024  0.060496064   -2.9729776    1.2677752   547498 
 2808000    1.0010051   -2.9741689   -2.9741689   -1.7059292  0.067397533   -2.9741689    1.2682397   547498 
 2809000   0.99927838   -2.9718386   -2.9718386   -1.7057866  0.074911359   -2.9718386     1.266052   547498 
 2810000    1.0009961   -2.9746749   -2.9746749   -1.7064467  0.060982556   -2.9746749    1.2682282   547498 
 2811000    1.0020363   -2.9753399   -2.9753399   -1.7057936  0.068737125   -2.9753399    1.2695462   547498 
 2812000    1.0010545   -2.9744618   -2.9744618   -1.7061595  0.064681381   -2.9744618    1.2683023   547498 
 2813000    1.0010065   -2.9748066   -2.9748066   -1.7065651  0.065883486   -2.9748066    1.2682415   547498 
 2814000     1.000541   -2.9738654   -2.9738654   -1.7062137  0.072171392   -2.9738654    1.2676517   547498 
 2815000    1.0007721   -2.9754012   -2.9754012   -1.7074567  0.070209702   -2.9754012    1.2679446   547498 
 2816000   0.99986628   -2.9744521   -2.9744521   -1.7076552   0.06068229   -2.9744521    1.2667969   547498 
 2817000   0.99846222   -2.9723495   -2.9723495   -1.7073316  0.066576341   -2.9723495     1.265018   547498 
 2818000    1.0005141   -2.9745245   -2.9745245   -1.7069068  0.059198011   -2.9745245    1.2676177   547498 
 2819000    1.0018647   -2.9768626   -2.9768626   -1.7075338  0.066133323   -2.9768626    1.2693288   547498 
 2820000    1.0002675   -2.9745974   -2.9745974   -1.7072922  0.061280217   -2.9745974    1.2673052   547498 
 2821000    1.0005369   -2.9747808   -2.9747808   -1.7071343   0.07288866   -2.9747808    1.2676465   547498 
 2822000    0.9996027    -2.973955    -2.973955   -1.7074921  0.064647132    -2.973955    1.2664629   547498 
 2823000    1.0005288   -2.9747926   -2.9747926   -1.7071563  0.068179235   -2.9747926    1.2676363   547498 
 2824000    1.0026264   -2.9772487   -2.9772487   -1.7069548  0.068630777   -2.9772487    1.2702939   547498 
 2825000    1.0010225   -2.9737536   -2.9737536   -1.7054918  0.072640205   -2.9737536    1.2682617   547498 
 2826000    1.0036375   -2.9767686   -2.9767686   -1.7051937  0.070755633   -2.9767686    1.2715749   547498 
 2827000    1.0037381   -2.9765139   -2.9765139   -1.7048117  0.061509907   -2.9765139    1.2717023   547498 
 2828000    1.0032342   -2.9760296   -2.9760296   -1.7049657  0.067365154   -2.9760296    1.2710639   547498 
 2829000     1.003645    -2.977753    -2.977753   -1.7061686  0.067544086    -2.977753    1.2715844   547498 
 2830000      1.00214   -2.9769725   -2.9769725   -1.7072949  0.067478305   -2.9769725    1.2696776   547498 
 2831000    1.0023601   -2.9764967   -2.9764967   -1.7065403  0.069619728   -2.9764967    1.2699564   547498 
 2832000    1.0010902   -2.9736497   -2.9736497   -1.7053022  0.072293434   -2.9736497    1.2683475   547498 
 2833000    1.0008191   -2.9732658   -2.9732658   -1.7052617  0.067505768   -2.9732658    1.2680041   547498 
 2834000    1.0010985   -2.9738572   -2.9738572   -1.7054993  0.058526738   -2.9738572     1.268358   547498 
 2835000   0.99945563   -2.9723142   -2.9723142   -1.7060376  0.063211314   -2.9723142    1.2662766   547498 
 2836000    1.0005431    -2.972912    -2.972912   -1.7052576  0.065666105    -2.972912    1.2676544   547498 
 2837000     1.000533   -2.9729339   -2.9729339   -1.7052923  0.062905795   -2.9729339    1.2676416   547498 
 2838000    1.0016702   -2.9746743   -2.9746743   -1.7055919  0.062547866   -2.9746743    1.2690823   547498 
 2839000    1.0003679   -2.9732125   -2.9732125   -1.7057801  0.065522841   -2.9732125    1.2674324   547498 
 2840000     1.002238   -2.9753721   -2.9753721   -1.7055703  0.070883592   -2.9753721    1.2698018   547498 
 2841000   0.99924784   -2.9716217   -2.9716217   -1.7056084  0.057443164   -2.9716217    1.2660133   547498 
 2842000    1.0003701   -2.9725623   -2.9725623   -1.7051272  0.054870588   -2.9725623    1.2674352   547498 
 2843000    1.0001452   -2.9720058   -2.9720058   -1.7048556    0.0590745   -2.9720058    1.2671502   547498 
 2844000    1.0000192   -2.9702068   -2.9702068   -1.7032162  0.057590728   -2.9702068    1.2669906   547498 
 2845000    1.0010692   -2.9711956   -2.9711956   -1.7028747  0.067345108   -2.9711956    1.2683209   547498 
 2846000    1.0012436   -2.9710398   -2.9710398   -1.7024979    0.0677922   -2.9710398    1.2685419   547498 
 2847000    1.0012819     -2.97083     -2.97083   -1.7022396  0.060624872     -2.97083    1.2685904   547498 
 2848000    1.0015413   -2.9715136   -2.9715136   -1.7025945  0.064152903   -2.9715136    1.2689191   547498 
 2849000    1.0011219   -2.9715658   -2.9715658   -1.7031781  0.061702351   -2.9715658    1.2683877   547498 
 2850000   0.99970805   -2.9709589   -2.9709589   -1.7043625  0.068925233   -2.9709589    1.2665964   547498 
 2851000    1.0017295   -2.9737723   -2.9737723   -1.7046148  0.049069669   -2.9737723    1.2691575   547498 
 2852000     1.001035   -2.9715796   -2.9715796    -1.703302  0.072676201   -2.9715796    1.2682776   547498 
 2853000      1.00247   -2.9734423   -2.9734423   -1.7033467  0.063200934   -2.9734423    1.2700956   547498 
 2854000    1.0015556   -2.9727728   -2.9727728   -1.7038356  0.065985222   -2.9727728    1.2689372   547498 
 2855000    1.0002948   -2.9712539   -2.9712539   -1.7039141  0.070326455   -2.9712539    1.2673398   547498 
 2856000    1.0013249   -2.9719967   -2.9719967   -1.7033518  0.067754291   -2.9719967    1.2686449   547498 
 2857000    1.0020427   -2.9723486   -2.9723486   -1.7027943  0.060196611   -2.9723486    1.2695543   547498 
 2858000    1.0007403   -2.9720215   -2.9720215   -1.7041173  0.056152827   -2.9720215    1.2679042   547498 
 2859000    1.0012563   -2.9727354   -2.9727354   -1.7041775  0.072190622   -2.9727354     1.268558   547498 
 2860000    1.0009368   -2.9720366   -2.9720366   -1.7038835  0.073149101   -2.9720366    1.2681531   547498 
 2861000    1.0008285   -2.9730954   -2.9730954   -1.7050795  0.074735247   -2.9730954     1.268016   547498 
 2862000    1.0010397   -2.9733699   -2.9733699   -1.7050864  0.064585031   -2.9733699    1.2682835   547498 
 2863000    1.0015884   -2.9748793   -2.9748793   -1.7059006  0.061975409   -2.9748793    1.2689787   547498 
 2864000    1.0006049   -2.9733548   -2.9733548   -1.7056221  0.059819805   -2.9733548    1.2677327   547498 
 2865000    1.0018527   -2.9755204   -2.9755204   -1.7062068  0.070840015   -2.9755204    1.2693136   547498 
 2866000    1.0025772   -2.9751239   -2.9751239   -1.7048924  0.068205534   -2.9751239    1.2702315   547498 
 2867000    1.0018105   -2.9744176   -2.9744176   -1.7051575  0.071252695   -2.9744176    1.2692601   547498 
 2868000    1.0022867   -2.9745048   -2.9745048   -1.7046413  0.069590007   -2.9745048    1.2698635   547498 
 2869000    1.0005381   -2.9721258   -2.9721258   -1.7044777  0.071056534   -2.9721258     1.267648   547498 
 2870000    1.0018219   -2.9737624   -2.9737624   -1.7044879  0.065713189   -2.9737624    1.2692746   547498 
 2871000    1.0025827   -2.9748931   -2.9748931   -1.7046546  0.069477066   -2.9748931    1.2702384   547498 
 2872000    1.0028786   -2.9753899   -2.9753899   -1.7047765  0.071974749   -2.9753899    1.2706134   547498 
 2873000    1.0024901   -2.9753437   -2.9753437   -1.7052226  0.067365397   -2.9753437    1.2701211   547498 
 2874000    1.0026262    -2.976304    -2.976304   -1.7060105  0.066286223    -2.976304    1.2702935   547498 
 2875000    1.0016983   -2.9756294   -2.9756294   -1.7065114  0.068591315   -2.9756294     1.269118   547498 
 2876000    1.0022155   -2.9754722   -2.9754722    -1.705699  0.070881433   -2.9754722    1.2697732   547498 
 2877000    1.0007293   -2.9734318   -2.9734318   -1.7055415  0.066176762   -2.9734318    1.2678903   547498 
 2878000    1.0021291   -2.9757816   -2.9757816   -1.7061179  0.066624935   -2.9757816    1.2696638   547498 
 2879000    1.0016898   -2.9747269   -2.9747269   -1.7056197  0.068433874   -2.9747269    1.2691072   547498 
 2880000    1.0005737   -2.9733167   -2.9733167   -1.7056236  0.062185021   -2.9733167    1.2676931   547498 
 2881000   0.99903409   -2.9716069   -2.9716069   -1.7058644   0.06504297   -2.9716069    1.2657425   547498 
 2882000    1.0008271   -2.9734445   -2.9734445   -1.7054304   0.06632191   -2.9734445    1.2680141   547498 
 2883000    1.0027214   -2.9752393   -2.9752393   -1.7048251  0.055688613   -2.9752393    1.2704142   547498 
 2884000    1.0009529   -2.9738651   -2.9738651   -1.7056915  0.066708387   -2.9738651    1.2681736   547498 
 2885000    1.0010368   -2.9732703   -2.9732703   -1.7049905  0.075735174   -2.9732703    1.2682798   547498 
 2886000   0.99906831   -2.9716167   -2.9716167   -1.7058309  0.061573934   -2.9716167    1.2657858   547498 
 2887000    1.0005681   -2.9734051   -2.9734051    -1.705719  0.057394987   -2.9734051    1.2676861   547498 
 2888000    1.0016202   -2.9737334   -2.9737334   -1.7047144  0.069028941   -2.9737334     1.269019   547498 
 2889000    1.0006062   -2.9728202   -2.9728202   -1.7050859  0.066647804   -2.9728202    1.2677343   547498 
 2890000   0.99951386   -2.9716418   -2.9716418   -1.7052914  0.055912251   -2.9716418    1.2663504   547498 
 2891000   0.99941336   -2.9716043   -2.9716043   -1.7053813    0.0616091   -2.9716043     1.266223   547498 
 2892000   0.99997933   -2.9713517   -2.9713517   -1.7044116  0.066522201   -2.9713517    1.2669401   547498 
 2893000    1.0017006   -2.9729996   -2.9729996   -1.7038787  0.063677019   -2.9729996    1.2691209   547498 
 2894000    1.0007966   -2.9727939   -2.9727939   -1.7048183  0.059802095   -2.9727939    1.2679755   547498 
 2895000    1.0005194   -2.9731573   -2.9731573    -1.705533  0.067889421   -2.9731573    1.2676243   547498 
 2896000   0.99976364   -2.9714633   -2.9714633   -1.7047964  0.061924715   -2.9714633    1.2666668   547498 
 2897000   0.99999668   -2.9720476   -2.9720476   -1.7050855  0.065697191   -2.9720476    1.2669621   547498 
 2898000     1.001433   -2.9737237   -2.9737237   -1.7049418    0.0491813   -2.9737237    1.2687819   547498 
 2899000    1.0011601   -2.9732265   -2.9732265   -1.7047904  0.068124817   -2.9732265    1.2684361   547498 
 2900000    1.0028365   -2.9755912   -2.9755912   -1.7050312  0.061223258   -2.9755912      1.27056   547498 
 2901000    1.0005511   -2.9733891   -2.9733891   -1.7057245  0.068072413   -2.9733891    1.2676645   547498 
 2902000    1.0010161   -2.9739629   -2.9739629   -1.7057092    0.0729684   -2.9739629    1.2682536   547498 
 2903000    1.0008362   -2.9746157   -2.9746157     -1.70659  0.052547396   -2.9746157    1.2680257   547498 
 2904000    1.0011237   -2.9751597   -2.9751597   -1.7067698  0.059895877   -2.9751597    1.2683899   547498 
 2905000    1.0000503   -2.9742539   -2.9742539   -1.7072238  0.066287896   -2.9742539      1.26703   547498 
 2906000    0.9997255   -2.9744603   -2.9744603   -1.7078418  0.062720587   -2.9744603    1.2666185   547498 
 2907000   0.99981158    -2.974444    -2.974444   -1.7077164  0.058811518    -2.974444    1.2667275   547498 
 2908000   0.99895649   -2.9727697   -2.9727697   -1.7071256  0.075038833   -2.9727697    1.2656442   547498 
 2909000    1.0017615   -2.9754747   -2.9754747   -1.7062767  0.063849221   -2.9754747     1.269198   547498 
 2910000    1.0007476   -2.9750265   -2.9750265    -1.707113   0.06683748   -2.9750265    1.2679135   547498 
 2911000    1.0003774   -2.9747549   -2.9747549   -1.7073105  0.059872458   -2.9747549    1.2674444   547498 
 2912000    1.0011675   -2.9746171   -2.9746171   -1.7061716  0.060931124   -2.9746171    1.2684455   547498 
 2913000    1.0019517   -2.9758623   -2.9758623   -1.7064233    0.0609228   -2.9758623     1.269439   547498 
 2914000    1.0022453   -2.9750229   -2.9750229    -1.705212  0.070439777   -2.9750229     1.269811   547498 
 2915000    1.0019854   -2.9742091   -2.9742091   -1.7047274  0.067096121   -2.9742091    1.2694817   547498 
 2916000    1.0016529   -2.9740341   -2.9740341   -1.7049736  0.067378506   -2.9740341    1.2690605   547498 
 2917000    1.0022674   -2.9754119   -2.9754119   -1.7055728  0.070114165   -2.9754119     1.269839   547498 
 2918000    1.0026514   -2.9759323   -2.9759323   -1.7056068  0.070655548   -2.9759323    1.2703255   547498 
 2919000    1.0023496    -2.975972    -2.975972   -1.7060289  0.068387664    -2.975972    1.2699431   547498 
 2920000    1.0032594   -2.9765659   -2.9765659   -1.7054701  0.065185596   -2.9765659    1.2710958   547498 
 2921000    1.0028168   -2.9754277   -2.9754277   -1.7048926  0.070132611   -2.9754277    1.2705351   547498 
 2922000    1.0015385   -2.9742105   -2.9742105   -1.7052951  0.062573619   -2.9742105    1.2689155   547498 
 2923000    1.0006074    -2.973279    -2.973279   -1.7055431   0.05901215    -2.973279    1.2677359   547498 
 2924000    0.9993544   -2.9717529   -2.9717529   -1.7056046  0.069660581   -2.9717529    1.2661483   547498 
 2925000      1.00122   -2.9732666   -2.9732666   -1.7047546  0.068085303   -2.9732666     1.268512   547498 
 2926000    0.9995932   -2.9720922   -2.9720922   -1.7056414  0.064697678   -2.9720922    1.2664509   547498 
 2927000    1.0014522   -2.9744985   -2.9744985   -1.7056923    0.0657611   -2.9744985    1.2688062   547498 
 2928000    1.0022082   -2.9749768   -2.9749768   -1.7052129  0.062304455   -2.9749768    1.2697639   547498 
 2929000   0.99918305    -2.971906    -2.971906   -1.7059748  0.061865262    -2.971906    1.2659312   547498 
 2930000    1.0015582   -2.9748131   -2.9748131   -1.7058727  0.058762527   -2.9748131    1.2689404   547498 
 2931000    1.0010541   -2.9738334   -2.9738334   -1.7055316  0.070390871   -2.9738334    1.2683018   547498 
 2932000    1.0001824   -2.9717983   -2.9717983   -1.7046009  0.061362498   -2.9717983    1.2671974   547498 
 2933000    1.0017752   -2.9740771   -2.9740771   -1.7048617  0.062044702   -2.9740771    1.2692154   547498 
 2934000    1.0018622   -2.9738677   -2.9738677   -1.7045421  0.061589493   -2.9738677    1.2693256   547498 
 2935000    1.0011316   -2.9733236   -2.9733236   -1.7049237   0.06189443   -2.9733236    1.2683999   547498 
 2936000    1.0016178   -2.9733719   -2.9733719    -1.704356   0.06610958   -2.9733719     1.269016   547498 
 2937000    1.0017505   -2.9737552   -2.9737552   -1.7045711  0.061796405   -2.9737552    1.2691842   547498 
 2938000    1.0014623   -2.9735399   -2.9735399   -1.7047209  0.062560799   -2.9735399     1.268819   547498 
 2939000    1.0019485   -2.9730198   -2.9730198   -1.7035848  0.062130304   -2.9730198    1.2694349   547498 
 2940000   0.99985717   -2.9712998   -2.9712998   -1.7045145  0.068799729   -2.9712998    1.2667853   547498 
 2941000   0.99975613   -2.9707964   -2.9707964   -1.7041391  0.071045795   -2.9707964    1.2666573   547498 
 2942000     1.001124   -2.9729741   -2.9729741   -1.7045838   0.06078637   -2.9729741    1.2683904   547498 
 2943000   0.99973995    -2.972087    -2.972087   -1.7054502  0.059729364    -2.972087    1.2666368   547498 
 2944000    1.0008348   -2.9732778   -2.9732778   -1.7052539  0.066433655   -2.9732778    1.2680239   547498 
 2945000    1.0023363     -2.97495     -2.97495   -1.7050236  0.068416707     -2.97495    1.2699263   547498 
 2946000    1.0021585   -2.9754411   -2.9754411   -1.7057401  0.062653507   -2.9754411     1.269701   547498 
 2947000    1.0017807   -2.9736837   -2.9736837   -1.7044612  0.068997249   -2.9736837    1.2692224   547498 
 2948000    1.0013289   -2.9741368   -2.9741368   -1.7054869  0.063285852   -2.9741368    1.2686499   547498 
 2949000    1.0011391   -2.9743487   -2.9743487   -1.7059393   0.06075073   -2.9743487    1.2684095   547498 
 2950000    1.0019797   -2.9745792   -2.9745792   -1.7051047  0.062984225   -2.9745792    1.2694745   547498 
 2951000    1.0010541   -2.9730842   -2.9730842   -1.7047824  0.073206119   -2.9730842    1.2683018   547498 
 2952000    1.0015415   -2.9732114   -2.9732114   -1.7042922  0.057660581   -2.9732114    1.2689193   547498 
 2953000    1.0003663   -2.9722641   -2.9722641   -1.7048337  0.059696243   -2.9722641    1.2674304   547498 
 2954000    1.0017175   -2.9745521   -2.9745521   -1.7054098  0.060264875   -2.9745521    1.2691423   547498 
 2955000    1.0009882    -2.973785    -2.973785   -1.7055667  0.058217677    -2.973785    1.2682183   547498 
 2956000    1.0025573   -2.9757561   -2.9757561   -1.7055498  0.053631818   -2.9757561    1.2702063   547498 
 2957000     1.003254   -2.9763382   -2.9763382   -1.7052492  0.067915719   -2.9763382    1.2710889   547498 
 2958000    1.0018839   -2.9741622   -2.9741622    -1.704809  0.061832828   -2.9741622    1.2693531   547498 
 2959000    1.0017884   -2.9737181   -2.9737181   -1.7044861  0.061817199   -2.9737181    1.2692321   547498 
 2960000    1.0009332   -2.9733673   -2.9733673   -1.7052188  0.065444615   -2.9733673    1.2681485   547498 
 2961000    1.0023672   -2.9753684   -2.9753684   -1.7054029  0.060685512   -2.9753684    1.2699655   547498 
 2962000    1.0033353    -2.975383    -2.975383   -1.7041911  0.066270569    -2.975383    1.2711919   547498 
 2963000    1.0025096   -2.9750962   -2.9750962   -1.7049503  0.060505225   -2.9750962    1.2701459   547498 
 2964000    1.0007843   -2.9728104   -2.9728104   -1.7048505   0.06462151   -2.9728104      1.26796   547498 
 2965000    1.0002621   -2.9724753   -2.9724753   -1.7051769  0.070256294   -2.9724753    1.2672984   547498 
 2966000    1.0003984   -2.9727116   -2.9727116   -1.7052406  0.069388336   -2.9727116     1.267471   547498 
 2967000      1.00072     -2.97299     -2.97299   -1.7051114  0.072578751     -2.97299    1.2678785   547498 
 2968000    1.0023555    -2.973743    -2.973743   -1.7037924  0.067252017    -2.973743    1.2699506   547498 
 2969000    1.0025625   -2.9744378   -2.9744378   -1.7042249  0.066825157   -2.9744378    1.2702129   547498 
 2970000    1.0018841   -2.9733739   -2.9733739   -1.7040204  0.068091337   -2.9733739    1.2693534   547498 
 2971000    1.0021795   -2.9744435   -2.9744435   -1.7047158   0.05938183   -2.9744435    1.2697277   547498 
 2972000    1.0004082   -2.9720964   -2.9720964    -1.704613  0.069001581   -2.9720964    1.2674835   547498 
 2973000    1.0012125   -2.9724277   -2.9724277   -1.7039253  0.060841228   -2.9724277    1.2685024   547498 
 2974000    1.0013236   -2.9731361   -2.9731361   -1.7044928  0.065777507   -2.9731361    1.2686432   547498 
 2975000    1.0018164   -2.9737395   -2.9737395    -1.704472  0.065084802   -2.9737395    1.2692675   547498 
 2976000    1.0036702   -2.9756855   -2.9756855   -1.7040692  0.060721893   -2.9756855    1.2716163   547498 
 2977000    1.0028886   -2.9748591   -2.9748591   -1.7042331  0.071783074   -2.9748591     1.270626   547498 
 2978000    1.0019175   -2.9742265   -2.9742265   -1.7048308  0.057931911   -2.9742265    1.2693957   547498 
 2979000    1.0026644   -2.9737503   -2.9737503   -1.7034084   0.06995289   -2.9737503    1.2703419   547498 
 2980000    1.0028137   -2.9746091   -2.9746091    -1.704078  0.055675104   -2.9746091    1.2705311   547498 
 2981000    1.0007391   -2.9720297   -2.9720297    -1.704127  0.067899209   -2.9720297    1.2679027   547498 
 2982000    1.0018007   -2.9728486   -2.9728486   -1.7036008  0.070203212   -2.9728486    1.2692478   547498 
 2983000    1.0018457   -2.9727461   -2.9727461   -1.7034414  0.066023443   -2.9727461    1.2693047   547498 
 2984000    1.0011982   -2.9723254   -2.9723254   -1.7038411  0.068768341   -2.9723254    1.2684844   547498 
 2985000    1.0015902   -2.9729778   -2.9729778   -1.7039969  0.067158742   -2.9729778    1.2689809   547498 
 2986000    1.0021483   -2.9731745   -2.9731745   -1.7034863  0.066197914   -2.9731745    1.2696881   547498 
 2987000    1.0003423   -2.9711914   -2.9711914   -1.7037914  0.061519619   -2.9711914    1.2673999   547498 
 2988000    1.0004543   -2.9715154   -2.9715154   -1.7039736  0.062204403   -2.9715154    1.2675418   547498 
 2989000    1.0007226   -2.9727654   -2.9727654   -1.7048837  0.068337254   -2.9727654    1.2678817   547498 
 2990000    1.0013165   -2.9734049   -2.9734049   -1.7047707  0.059685561   -2.9734049    1.2686342   547498 
 2991000    1.0002876   -2.9722552   -2.9722552   -1.7049245  0.061880499   -2.9722552    1.2673307   547498 
 2992000    1.0005626   -2.9725155   -2.9725155   -1.7048364  0.074972865   -2.9725155    1.2676791   547498 
 2993000   0.99954572   -2.9712387   -2.9712387    -1.704848  0.063152191   -2.9712387    1.2663907   547498 
 2994000   0.99919297   -2.9700167   -2.9700167   -1.7040729  0.073455831   -2.9700167    1.2659438   547498 
 2995000     1.001454   -2.9731384   -2.9731384     -1.70433  0.058348292   -2.9731384    1.2688084   547498 
 2996000    1.0010791   -2.9727994   -2.9727994   -1.7044659  0.064020331   -2.9727994    1.2683335   547498 
 2997000    1.0015825   -2.9736309   -2.9736309   -1.7046596  0.062970987   -2.9736309    1.2689713   547498 
 2998000     1.002554   -2.9738651   -2.9738651   -1.7036629  0.060214572   -2.9738651    1.2702022   547498 
 2999000    1.0035106   -2.9743555   -2.9743555   -1.7029415  0.064047388   -2.9743555     1.271414   547498 
 3000000    1.0024383   -2.9742131   -2.9742131   -1.7041577  0.068075826   -2.9742131    1.2700555   547498 
 3001000    1.0018341   -2.9729603   -2.9729603   -1.7036703  0.064470394   -2.9729603      1.26929   547498 
 3002000    1.0029987   -2.9739387   -2.9739387   -1.7031732  0.061826493   -2.9739387    1.2707655   547498 
 3003000      1.00238   -2.9730959   -2.9730959   -1.7031142  0.079859979   -2.9730959    1.2699817   547498 
 3004000    1.0030433   -2.9746928   -2.9746928   -1.7038708  0.056965524   -2.9746928     1.270822   547498 
 3005000     1.003783   -2.9742906   -2.9742906   -1.7025314  0.068132814   -2.9742906    1.2717592   547498 
 3006000    1.0030371   -2.9729246   -2.9729246   -1.7021104  0.067343188   -2.9729246    1.2708142   547498 
 3007000     1.002557   -2.9730217   -2.9730217   -1.7028158  0.065760168   -2.9730217    1.2702059   547498 
 3008000    1.0015536    -2.971707    -2.971707   -1.7027724  0.065935082    -2.971707    1.2689346   547498 
 3009000    1.0008878   -2.9719656   -2.9719656   -1.7038745  0.075063024   -2.9719656    1.2680911   547498 
 3010000    1.0017241   -2.9729764   -2.9729764   -1.7038258  0.059898845   -2.9729764    1.2691506   547498 
 3011000    1.0018545   -2.9722268   -2.9722268    -1.702911  0.070385964   -2.9722268    1.2693158   547498 
 3012000    1.0017924   -2.9732569   -2.9732569   -1.7040198  0.074392932   -2.9732569    1.2692372   547498 
 3013000    1.0023035   -2.9732881   -2.9732881   -1.7034034  0.058645768   -2.9732881    1.2698847   547498 
 3014000    1.0018377   -2.9725643   -2.9725643   -1.7032698  0.069129651   -2.9725643    1.2692946   547498 
 3015000    1.0020926   -2.9733753   -2.9733753   -1.7037577  0.062441048   -2.9733753    1.2696175   547498 
 3016000    0.9995949   -2.9709752   -2.9709752   -1.7045222  0.063946006   -2.9709752     1.266453   547498 
 3017000    1.0011161    -2.972945    -2.972945   -1.7045646  0.065189776    -2.972945    1.2683804   547498 
 3018000   0.99969676   -2.9711315   -2.9711315   -1.7045494  0.067982138   -2.9711315    1.2665821   547498 
 3019000    1.0003842   -2.9717197   -2.9717197   -1.7042667  0.065278089   -2.9717197     1.267453   547498 
 3020000    1.0007194   -2.9722498   -2.9722498   -1.7043721  0.055672445   -2.9722498    1.2678777   547498 
 3021000    1.0003512   -2.9729352   -2.9729352   -1.7055239  0.058532875   -2.9729352    1.2674113   547498 
 3022000    1.0002547   -2.9720382   -2.9720382   -1.7047493  0.066490851   -2.9720382     1.267289   547498 
 3023000    1.0013241   -2.9733085   -2.9733085   -1.7046646  0.067107686   -2.9733085    1.2686439   547498 
 3024000   0.99963873   -2.9716525   -2.9716525   -1.7051439  0.065922971   -2.9716525    1.2665086   547498 
 3025000    1.0006874   -2.9728052   -2.9728052    -1.704968  0.064427745   -2.9728052    1.2678372   547498 
 3026000    1.0007332   -2.9723235   -2.9723235   -1.7044283  0.062796743   -2.9723235    1.2678953   547498 
 3027000    1.0003008   -2.9718144   -2.9718144    -1.704467  0.071286916   -2.9718144    1.2673474   547498 
 3028000    1.0017575   -2.9729717   -2.9729717   -1.7037788  0.060384987   -2.9729717    1.2691929   547498 
 3029000    1.0016515   -2.9719272   -2.9719272   -1.7028686  0.071671611   -2.9719272    1.2690586   547498 
 3030000    1.0035064   -2.9735765   -2.9735765   -1.7021677  0.074763014   -2.9735765    1.2714088   547498 
 3031000    1.0026024   -2.9734369   -2.9734369   -1.7031734  0.061859248   -2.9734369    1.2702634   547498 
 3032000    1.0023935   -2.9722101   -2.9722101   -1.7022113  0.068145056   -2.9722101    1.2699988   547498 
 3033000    1.0008178   -2.9707018   -2.9707018   -1.7026994  0.069647686   -2.9707018    1.2680024   547498 
 3034000    1.0040505   -2.9750468   -2.9750468   -1.7029487  0.064281717   -2.9750468    1.2720981   547498 
 3035000    1.0024599   -2.9730867   -2.9730867   -1.7030038  0.068670319   -2.9730867    1.2700829   547498 
 3036000    1.0019062   -2.9718101   -2.9718101   -1.7024287  0.070015913   -2.9718101    1.2693814   547498 
 3037000     1.003107   -2.9734689   -2.9734689   -1.7025662  0.065169258   -2.9734689    1.2709028   547498 
 3038000     1.003752   -2.9748911   -2.9748911   -1.7031711  0.066085698   -2.9748911      1.27172   547498 
 3039000    1.0018421   -2.9727232   -2.9727232    -1.703423  0.070112287   -2.9727232    1.2693002   547498 
 3040000    1.0027509   -2.9741618   -2.9741618   -1.7037102  0.069199905   -2.9741618    1.2704516   547498 
 3041000    1.0028482   -2.9748558   -2.9748558   -1.7042809   0.05790309   -2.9748558    1.2705749   547498 
 3042000    1.0023547   -2.9731417   -2.9731417   -1.7031921  0.071544482   -2.9731417    1.2699497   547498 
 3043000    1.0025457   -2.9733879   -2.9733879   -1.7031963  0.075390084   -2.9733879    1.2701917   547498 
 3044000     1.003486   -2.9744672   -2.9744672   -1.7030843  0.060488259   -2.9744672    1.2713829   547498 
 3045000    1.0024795   -2.9732919   -2.9732919   -1.7031842  0.068617998   -2.9732919    1.2701078   547498 
 3046000    1.0020875   -2.9728043   -2.9728043   -1.7031932   0.06885449   -2.9728043    1.2696111   547498 
 3047000    1.0019402   -2.9728892   -2.9728892   -1.7034647  0.069211999   -2.9728892    1.2694244   547498 
 3048000    1.0019263   -2.9730646   -2.9730646   -1.7036578  0.074014351   -2.9730646    1.2694068   547498 
 3049000    1.0015248   -2.9730106   -2.9730106   -1.7041124  0.070726556   -2.9730106    1.2688982   547498 
 3050000    1.0021931   -2.9740122   -2.9740122   -1.7042673  0.065762018   -2.9740122    1.2697449   547498 
 3051000    1.0024111   -2.9739677   -2.9739677   -1.7039467  0.056591956   -2.9739677    1.2700211   547498 
 3052000    1.0011817   -2.9720475   -2.9720475   -1.7035841  0.066965724   -2.9720475    1.2684634   547498 
 3053000    1.0029853   -2.9743854   -2.9743854   -1.7036368  0.062501252   -2.9743854    1.2707486   547498 
 3054000    1.0014815   -2.9720248   -2.9720248   -1.7031815  0.072281025   -2.9720248    1.2688433   547498 
 3055000    1.0025125   -2.9732053   -2.9732053   -1.7030558  0.061234801   -2.9732053    1.2701495   547498 
 3056000      1.00248   -2.9720254   -2.9720254   -1.7019171  0.070277059   -2.9720254    1.2701083   547498 
 3057000    1.0020301    -2.972464    -2.972464   -1.7029256  0.057099732    -2.972464    1.2695384   547498 
 3058000    1.0017731    -2.971818    -2.971818   -1.7026053  0.066285283    -2.971818    1.2692128   547498 
 3059000    1.0022627   -2.9730184   -2.9730184   -1.7031853  0.067677506   -2.9730184     1.269833   547498 
 3060000    1.0035675   -2.9746698   -2.9746698   -1.7031836  0.058002801   -2.9746698    1.2714862   547498 
 3061000    1.0031784   -2.9735471   -2.9735471   -1.7025538  0.058826334   -2.9735471    1.2709932   547498 
 3062000    1.0017895    -2.971833    -2.971833   -1.7025995  0.063626143    -2.971833    1.2692335   547498 
 3063000    1.0007867   -2.9715514   -2.9715514   -1.7035885  0.061890343   -2.9715514     1.267963   547498 
 3064000    1.0017861   -2.9725772   -2.9725772   -1.7033481  0.061119498   -2.9725772    1.2692292   547498 
 3065000    1.0010996   -2.9715742   -2.9715742   -1.7032148  0.056833754   -2.9715742    1.2683594   547498 
 3066000    1.0016227   -2.9728845   -2.9728845   -1.7038624  0.069668258   -2.9728845    1.2690222   547498 
 3067000    1.0022336    -2.972913    -2.972913   -1.7031169  0.062443056    -2.972913    1.2697961   547498 
 3068000    1.0039104   -2.9743785   -2.9743785   -1.7024579  0.070267692   -2.9743785    1.2719206   547498 
 3069000    1.0018919   -2.9724389   -2.9724389   -1.7030756   0.06754298   -2.9724389    1.2693633   547498 
 3070000    1.0023077    -2.972892    -2.972892   -1.7030019  0.066915706    -2.972892    1.2698901   547498 
 3071000    1.0020967   -2.9727371   -2.9727371   -1.7031144  0.067971675   -2.9727371    1.2696228   547498 
 3072000    1.0024672   -2.9734849   -2.9734849   -1.7033928  0.063202668   -2.9734849    1.2700921   547498 
 3073000    1.0037623   -2.9741662   -2.9741662   -1.7024333     0.064784   -2.9741662     1.271733   547498 
 3074000    1.0016052   -2.9717413   -2.9717413   -1.7027413  0.075465029   -2.9717413        1.269   547498 
 3075000    1.0042346   -2.9749024   -2.9749024   -1.7025709  0.074382034   -2.9749024    1.2723314   547498 
 3076000    1.0034271   -2.9727838   -2.9727838   -1.7014755  0.077212381   -2.9727838    1.2713083   547498 
 3077000    1.0031184   -2.9736535   -2.9736535   -1.7027363  0.071776339   -2.9736535    1.2709172   547498 
 3078000    1.0027322   -2.9731125   -2.9731125   -1.7026845  0.070551351   -2.9731125    1.2704279   547498 
 3079000    1.0024624   -2.9728762   -2.9728762   -1.7027901  0.067204691   -2.9728762    1.2700861   547498 
 3080000    1.0020302   -2.9724883   -2.9724883   -1.7029498  0.073020566   -2.9724883    1.2695385   547498 
 3081000    1.0016364   -2.9716334   -2.9716334   -1.7025939  0.071968455   -2.9716334    1.2690395   547498 
 3082000    1.0022871   -2.9729881   -2.9729881   -1.7031241  0.075218573   -2.9729881    1.2698639   547498 
 3083000    1.0030992   -2.9740327   -2.9740327   -1.7031398  0.068187638   -2.9740327    1.2708929   547498 
 3084000    1.0030463   -2.9741199   -2.9741199   -1.7032941  0.067774583   -2.9741199    1.2708258   547498 
 3085000    1.0027016    -2.974352    -2.974352   -1.7039629  0.067327027    -2.974352    1.2703892   547498 
 3086000    1.0025843   -2.9746054   -2.9746054   -1.7043649  0.067530128   -2.9746054    1.2702406   547498 
 3087000    1.0021777   -2.9741199   -2.9741199   -1.7043946  0.072220358   -2.9741199    1.2697253   547498 
 3088000    1.0027019   -2.9738994   -2.9738994   -1.7035099  0.071971381   -2.9738994    1.2703895   547498 
 3089000    1.0016707   -2.9730278   -2.9730278   -1.7039448  0.063863002   -2.9730278     1.269083   547498 
 3090000     1.003147   -2.9747087   -2.9747087   -1.7037554  0.062026012   -2.9747087    1.2709534   547498 
 3091000    1.0019561   -2.9729862   -2.9729862   -1.7035417   0.06429212   -2.9729862    1.2694446   547498 
 3092000    1.0009734   -2.9712399   -2.9712399   -1.7030404  0.062832453   -2.9712399    1.2681995   547498 
 3093000    1.0017629   -2.9706473   -2.9706473   -1.7014475  0.068762525   -2.9706473    1.2691998   547498 
 3094000    1.0028364   -2.9724312   -2.9724312   -1.7018713  0.067079207   -2.9724312    1.2705599   547498 
 3095000    1.0027877   -2.9733264   -2.9733264   -1.7028283  0.061239726   -2.9733264    1.2704981   547498 
 3096000    1.0032898   -2.9741401   -2.9741401   -1.7030058   0.06586579   -2.9741401    1.2711343   547498 
 3097000    1.0027381   -2.9728486   -2.9728486   -1.7024133  0.066226657   -2.9728486    1.2704354   547498 
 3098000     1.001555    -2.970975    -2.970975   -1.7020386  0.061483414    -2.970975    1.2689365   547498 
 3099000    1.0017045   -2.9711293   -2.9711293   -1.7020035  0.058072243   -2.9711293    1.2691259   547498 
 3100000    1.0011003   -2.9700619   -2.9700619   -1.7017015  0.063390016   -2.9700619    1.2683604   547498 
 3101000    1.0010303   -2.9706428   -2.9706428   -1.7023712  0.052830109   -2.9706428    1.2682717   547498 
 3102000     1.001233   -2.9696809   -2.9696809   -1.7011525  0.068936649   -2.9696809    1.2685285   547498 
 3103000    1.0007058   -2.9683286   -2.9683286   -1.7004682  0.070221196   -2.9683286    1.2678605   547498 
 3104000    1.0019252   -2.9699179   -2.9699179   -1.7005125  0.071584191   -2.9699179    1.2694054   547498 
 3105000    1.0001325   -2.9682698   -2.9682698   -1.7011357  0.068267978   -2.9682698    1.2671341   547498 
 3106000    1.0017136   -2.9700892   -2.9700892   -1.7009518  0.072707293   -2.9700892    1.2691374   547498 
 3107000    1.0015975   -2.9701768   -2.9701768   -1.7011866  0.062781928   -2.9701768    1.2689902   547498 
 3108000    1.0020626   -2.9707207   -2.9707207   -1.7011412  0.070324197   -2.9707207    1.2695795   547498 
 3109000    1.0015095   -2.9705145   -2.9705145   -1.7016358  0.075243965   -2.9705145    1.2688787   547498 
 3110000    1.0008937   -2.9703744   -2.9703744   -1.7022757   0.06173533   -2.9703744    1.2680986   547498 
 3111000    1.0020301   -2.9712746   -2.9712746   -1.7017362  0.063301523   -2.9712746    1.2695384   547498 
 3112000    1.0006345    -2.969579    -2.969579   -1.7018088  0.075968717    -2.969579    1.2677702   547498 
 3113000    1.0026454   -2.9715546   -2.9715546   -1.7012367  0.069213091   -2.9715546    1.2703179   547498 
 3114000    1.0013588   -2.9701794   -2.9701794   -1.7014915  0.060927728   -2.9701794    1.2686879   547498 
 3115000    1.0016617   -2.9710931   -2.9710931   -1.7020215   0.06588265   -2.9710931    1.2690716   547498 
 3116000    1.0023489   -2.9722094   -2.9722094   -1.7022671  0.061179611   -2.9722094    1.2699423   547498 
 3117000    1.0023759   -2.9723224   -2.9723224    -1.702346  0.060182884   -2.9723224    1.2699764   547498 
 3118000    1.0008369   -2.9696322   -2.9696322   -1.7016056  0.066324763   -2.9696322    1.2680266   547498 
 3119000    1.0003416   -2.9699119   -2.9699119   -1.7025128   0.06074201   -2.9699119    1.2673991   547498 
 3120000    1.0027922   -2.9712431   -2.9712431   -1.7007392  0.062304489   -2.9712431    1.2705039   547498 
 3121000    1.0019594    -2.969847    -2.969847   -1.7003981  0.067505311    -2.969847    1.2694488   547498 
 3122000    1.0020038   -2.9709622   -2.9709622   -1.7014571  0.062285748   -2.9709622     1.269505   547498 
 3123000    1.0014138   -2.9712433   -2.9712433   -1.7024858  0.071774345   -2.9712433    1.2687575   547498 
 3124000    1.0027787   -2.9720081   -2.9720081   -1.7015213  0.064516557   -2.9720081    1.2704868   547498 
 3125000    1.0027684   -2.9725487   -2.9725487    -1.702075  0.063404264   -2.9725487    1.2704737   547498 
 3126000    1.0011644   -2.9705834   -2.9705834   -1.7021418  0.072955676   -2.9705834    1.2684416   547498 
 3127000    1.0012181   -2.9713282   -2.9713282   -1.7028186  0.064230859   -2.9713282    1.2685096   547498 
 3128000    1.0021402   -2.9717627   -2.9717627   -1.7020848  0.070484825   -2.9717627    1.2696779   547498 
 3129000    1.0026934   -2.9714599   -2.9714599   -1.7010812  0.067505029   -2.9714599    1.2703787   547498 
 3130000    1.0015179   -2.9701283   -2.9701283   -1.7012389  0.058986779   -2.9701283    1.2688893   547498 
 3131000    1.0021394   -2.9709615   -2.9709615   -1.7012847  0.068073367   -2.9709615    1.2696768   547498 
 3132000    1.0010696   -2.9693862   -2.9693862   -1.7010648  0.066449348   -2.9693862    1.2683214   547498 
 3133000    1.0029693   -2.9713697   -2.9713697   -1.7006413  0.066829129   -2.9713697    1.2707283   547498 
 3134000    1.0028372   -2.9699888   -2.9699888   -1.6994278  0.064098323   -2.9699888     1.270561   547498 
 3135000    1.0019921   -2.9686633   -2.9686633    -1.699173  0.068778671   -2.9686633    1.2694902   547498 
 3136000    1.0022446   -2.9697352   -2.9697352    -1.699925  0.072460642   -2.9697352    1.2698102   547498 
 3137000    1.0044933    -2.973874    -2.973874   -1.7012149  0.057319024    -2.973874    1.2726591   547498 
 3138000    1.0040704   -2.9723743   -2.9723743    -1.700251   0.06732528   -2.9723743    1.2721233   547498 
 3139000    1.0034561   -2.9712821   -2.9712821    -1.699937  0.064267148   -2.9712821    1.2713451   547498 
 3140000    1.0040486    -2.970401    -2.970401   -1.6983052  0.061845035    -2.970401    1.2720957   547498 
 3141000    1.0023412   -2.9692303   -2.9692303   -1.6992978  0.066314618   -2.9692303    1.2699324   547498 
 3142000    1.0021826   -2.9680824   -2.9680824   -1.6983508  0.074067701   -2.9680824    1.2697316   547498 
 3143000    1.0027744   -2.9687699   -2.9687699   -1.6982885  0.075523046   -2.9687699    1.2704813   547498 
 3144000    1.0018078   -2.9680593   -2.9680593   -1.6988026  0.063143314   -2.9680593    1.2692567   547498 
 3145000     1.001227   -2.9672377   -2.9672377   -1.6987169  0.075765631   -2.9672377    1.2685208   547498 
 3146000    1.0021708   -2.9682557   -2.9682557   -1.6985392  0.063643999   -2.9682557    1.2697166   547498 
 3147000    1.0017715   -2.9686049   -2.9686049   -1.6993942  0.058027978   -2.9686049    1.2692107   547498 
 3148000    1.0022247    -2.968545    -2.968545   -1.6987601  0.062180886    -2.968545    1.2697849   547498 
 3149000    1.0027425   -2.9692875   -2.9692875   -1.6988466  0.077847668   -2.9692875    1.2704409   547498 
 3150000    1.0028488   -2.9695633   -2.9695633   -1.6989877  0.058587055   -2.9695633    1.2705756   547498 
 3151000    1.0033091   -2.9696548   -2.9696548    -1.698496  0.067483035   -2.9696548    1.2711588   547498 
 3152000    1.0022927   -2.9680514   -2.9680514   -1.6981803   0.05959625   -2.9680514    1.2698711   547498 
 3153000    1.0017742   -2.9672667   -2.9672667   -1.6980526  0.062195105   -2.9672667    1.2692141   547498 
 3154000    1.0015622   -2.9662828   -2.9662828   -1.6973372  0.064026924   -2.9662828    1.2689456   547498 
 3155000    1.0014114   -2.9655657   -2.9655657   -1.6968112  0.061199782   -2.9655657    1.2687544   547498 
 3156000    1.0033863   -2.9681231   -2.9681231   -1.6968665   0.05129916   -2.9681231    1.2712566   547498 
 3157000    1.0019075   -2.9663194   -2.9663194   -1.6969364  0.066182437   -2.9663194     1.269383   547498 
 3158000    1.0023935   -2.9671886   -2.9671886   -1.6971899  0.066703719   -2.9671886    1.2699987   547498 
 3159000     1.002597   -2.9672747   -2.9672747   -1.6970181  0.069910875   -2.9672747    1.2702566   547498 
 3160000    1.0034379   -2.9675352   -2.9675352   -1.6962132  0.067432849   -2.9675352    1.2713219   547498 
 3161000    1.0022759   -2.9661286   -2.9661286   -1.6962789   0.06095943   -2.9661286    1.2698497   547498 
 3162000    1.0038891   -2.9683731   -2.9683731   -1.6964795  0.065032684   -2.9683731    1.2718936   547498 
 3163000    1.0025266   -2.9656071   -2.9656071   -1.6954397  0.073426915   -2.9656071    1.2701674   547498 
 3164000    1.0030537   -2.9665354   -2.9665354   -1.6957002  0.062420936   -2.9665354    1.2708352   547498 
 3165000     1.002986   -2.9671808   -2.9671808   -1.6964314  0.063749405   -2.9671808    1.2707494   547498 
 3166000    1.0026199   -2.9667473   -2.9667473   -1.6964617  0.060504357   -2.9667473    1.2702856   547498 
 3167000    1.0018159   -2.9658867   -2.9658867   -1.6966197  0.060753171   -2.9658867     1.269267   547498 
 3168000    1.0020124   -2.9656544   -2.9656544   -1.6961385  0.059281134   -2.9656544    1.2695159   547498 
 3169000    1.0022468   -2.9658535   -2.9658535   -1.6960405  0.056433931   -2.9658535    1.2698129   547498 
 3170000    1.0007737   -2.9645406   -2.9645406    -1.696594  0.062822294   -2.9645406    1.2679466   547498 
 3171000    1.0021287   -2.9663578   -2.9663578   -1.6966946  0.056710672   -2.9663578    1.2696632   547498 
 3172000    1.0024719   -2.9664839   -2.9664839   -1.6963859  0.060510472   -2.9664839     1.270098   547498 
 3173000    1.0017959   -2.9659411   -2.9659411   -1.6966994   0.06730408   -2.9659411    1.2692416   547498 
 3174000     1.001732   -2.9655031   -2.9655031   -1.6963424   0.07021374   -2.9655031    1.2691607   547498 
 3175000    1.0033371   -2.9674771   -2.9674771   -1.6962828  0.058968631   -2.9674771    1.2711943   547498 
 3176000    1.0030525   -2.9671335   -2.9671335   -1.6962998  0.064593475   -2.9671335    1.2708337   547498 
 3177000    1.0038157   -2.9688053   -2.9688053   -1.6970047  0.053829128   -2.9688053    1.2718006   547498 
 3178000    1.0021514   -2.9671676   -2.9671676   -1.6974755  0.051241174   -2.9671676     1.269692   547498 
 3179000    1.0029625   -2.9686513   -2.9686513   -1.6979317  0.061277777   -2.9686513    1.2707196   547498 
 3180000    1.0019586   -2.9674474   -2.9674474   -1.6979996  0.059548657   -2.9674474    1.2694478   547498 
 3181000    1.0021073    -2.967725    -2.967725   -1.6980888  0.063540055    -2.967725    1.2696362   547498 
 3182000    1.0019948    -2.968045    -2.968045   -1.6985515  0.060151026    -2.968045    1.2694936   547498 
 3183000    1.0015202    -2.966741    -2.966741   -1.6978487  0.069940288    -2.966741    1.2688923   547498 
 3184000    1.0043219   -2.9701698   -2.9701698   -1.6977278   0.06684811   -2.9701698     1.272442   547498 
 3185000    1.0032676   -2.9693766   -2.9693766   -1.6982704  0.063884871   -2.9693766    1.2711063   547498 
 3186000    1.0022861   -2.9677779   -2.9677779   -1.6979151  0.071732391   -2.9677779    1.2698627   547498 
 3187000    1.0034827   -2.9686541   -2.9686541   -1.6972753  0.076554652   -2.9686541    1.2713788   547498 
 3188000    1.0044032   -2.9696421   -2.9696421   -1.6970971  0.066726195   -2.9696421     1.272545   547498 
 3189000    1.0031327   -2.9689184   -2.9689184   -1.6979831  0.062000716   -2.9689184    1.2709353   547498 
 3190000    1.0036261   -2.9696403   -2.9696403   -1.6980799  0.071058416   -2.9696403    1.2715605   547498 
 3191000    1.0042193   -2.9708952   -2.9708952   -1.6985832  0.066006765   -2.9708952     1.272312   547498 
 3192000    1.0039968   -2.9707902   -2.9707902   -1.6987601  0.062085543   -2.9707902    1.2720301   547498 
 3193000    1.0028061   -2.9693125   -2.9693125    -1.698791  0.069315686   -2.9693125    1.2705214   547498 
 3194000    1.0024459   -2.9689913   -2.9689913   -1.6989262  0.067198029   -2.9689913    1.2700651   547498 
 3195000    1.0034972   -2.9707423   -2.9707423   -1.6993452  0.070376641   -2.9707423    1.2713972   547498 
 3196000    1.0022682   -2.9694203   -2.9694203   -1.6995803  0.072383353   -2.9694203      1.26984   547498 
 3197000    1.0040822   -2.9706131   -2.9706131   -1.6984748  0.069022474   -2.9706131    1.2721383   547498 
 3198000    1.0030106   -2.9689255   -2.9689255   -1.6981449  0.064685975   -2.9689255    1.2707806   547498 
 3199000    1.0022167   -2.9677357   -2.9677357   -1.6979609  0.078376799   -2.9677357    1.2697748   547498 
 3200000    1.0018386    -2.967913    -2.967913   -1.6986173  0.064807439    -2.967913    1.2692957   547498 
 3201000    1.0021243   -2.9688868   -2.9688868   -1.6992291  0.064256948   -2.9688868    1.2696577   547498 
 3202000    1.0035054   -2.9700823   -2.9700823   -1.6986748  0.070352408   -2.9700823    1.2714074   547498 
 3203000    1.0018785   -2.9686134   -2.9686134   -1.6992672  0.071521466   -2.9686134    1.2693462   547498 
 3204000    1.0019138   -2.9686733   -2.9686733   -1.6992824  0.067716524   -2.9686733    1.2693909   547498 
 3205000    1.0040685   -2.9699305   -2.9699305   -1.6978096  0.060088735   -2.9699305    1.2721209   547498 
 3206000    1.0040372    -2.969173    -2.969173   -1.6970918   0.06762498    -2.969173    1.2720812   547498 
 3207000    1.0050137   -2.9697698   -2.9697698   -1.6964513  0.072109709   -2.9697698    1.2733185   547498 
 3208000    1.0042317   -2.9685118   -2.9685118   -1.6961841  0.071342419   -2.9685118    1.2723277   547498 
 3209000    1.0044882   -2.9690546   -2.9690546   -1.6964019  0.057684479   -2.9690546    1.2726527   547498 
 3210000     1.002537   -2.9673377   -2.9673377   -1.6971571   0.06193873   -2.9673377    1.2701806   547498 
 3211000    1.0030292   -2.9683665   -2.9683665   -1.6975623  0.070399047   -2.9683665    1.2708042   547498 
 3212000    1.0021819   -2.9673233   -2.9673233   -1.6975926   0.07414727   -2.9673233    1.2697307   547498 
 3213000    1.0018397   -2.9675941   -2.9675941   -1.6982969  0.057681596   -2.9675941    1.2692972   547498 
 3214000    1.0009545   -2.9670854   -2.9670854   -1.6989098  0.059344727   -2.9670854    1.2681756   547498 
 3215000    1.0022225   -2.9683787   -2.9683787   -1.6985966  0.054646798   -2.9683787    1.2697821   547498 
 3216000    1.0035191   -2.9700157   -2.9700157   -1.6985909  0.064865528   -2.9700157    1.2714248   547498 
 3217000    1.0025702   -2.9685734   -2.9685734   -1.6983507  0.050054044   -2.9685734    1.2702226   547498 
 3218000    1.0006748   -2.9663352   -2.9663352    -1.698514  0.062538964   -2.9663352    1.2678212   547498 
 3219000    1.0006361    -2.966074    -2.966074   -1.6983018  0.057336894    -2.966074    1.2677722   547498 
 3220000   0.99984021   -2.9653338   -2.9653338     -1.69857  0.067831743   -2.9653338    1.2667638   547498 
 3221000    1.0006502   -2.9664713   -2.9664713   -1.6986811  0.062282707   -2.9664713    1.2677901   547498 
 3222000    1.0010623   -2.9676692   -2.9676692   -1.6993571  0.062927067   -2.9676692    1.2683121   547498 
 3223000    1.0019118   -2.9684904   -2.9684904    -1.699102    0.0571425   -2.9684904    1.2693884   547498 
 3224000    1.0020557    -2.968618    -2.968618   -1.6990472  0.064082321    -2.968618    1.2695707   547498 
 3225000    1.0021301    -2.967479    -2.967479   -1.6978139  0.063986314    -2.967479     1.269665   547498 
 3226000    1.0040193   -2.9686316   -2.9686316   -1.6965729  0.063590393   -2.9686316    1.2720586   547498 
 3227000    1.0032165   -2.9688248   -2.9688248   -1.6977833  0.071137478   -2.9688248    1.2710415   547498 
 3228000    1.0032122   -2.9697136   -2.9697136   -1.6986776  0.064156338   -2.9697136    1.2710361   547498 
 3229000    1.0024309   -2.9690064   -2.9690064   -1.6989603  0.065862959   -2.9690064    1.2700461   547498 
 3230000    1.0022791   -2.9691029   -2.9691029   -1.6992491  0.058138434   -2.9691029    1.2698538   547498 
 3231000    1.0030221   -2.9693777   -2.9693777   -1.6985826  0.062097061   -2.9693777    1.2707951   547498 
 3232000    1.0029481   -2.9696691   -2.9696691   -1.6989676  0.070429953   -2.9696691    1.2707015   547498 
 3233000    1.0028268   -2.9695012   -2.9695012   -1.6989534  0.066206161   -2.9695012    1.2705478   547498 
 3234000    1.0026843   -2.9693337   -2.9693337   -1.6989665  0.067371755   -2.9693337    1.2703672   547498 
 3235000    1.0039783   -2.9715504   -2.9715504   -1.6995437  0.070956304   -2.9715504    1.2720066   547498 
 3236000    1.0025779   -2.9700938   -2.9700938   -1.6998615  0.065134283   -2.9700938    1.2702324   547498 
 3237000    1.0026647   -2.9695056   -2.9695056   -1.6991633  0.068167565   -2.9695056    1.2703424   547498 
 3238000     1.003526   -2.9698116   -2.9698116    -1.698378  0.063860736   -2.9698116    1.2714336   547498 
 3239000    1.0018507    -2.967961    -2.967961     -1.69865  0.062766887    -2.967961     1.269311   547498 
 3240000    1.0028268   -2.9691955   -2.9691955   -1.6986479  0.067808909   -2.9691955    1.2705477   547498 
 3241000    1.0021459   -2.9689169   -2.9689169   -1.6992318  0.072739809   -2.9689169     1.269685   547498 
 3242000    1.0014335   -2.9690345   -2.9690345    -1.700252  0.069505938   -2.9690345    1.2687825   547498 
 3243000    1.0023204   -2.9709181   -2.9709181    -1.701012  0.071584675   -2.9709181    1.2699062   547498 
 3244000    1.0019766   -2.9697573   -2.9697573   -1.7002868  0.068508823   -2.9697573    1.2694705   547498 
 3245000    1.0014118   -2.9699767   -2.9699767   -1.7012218  0.066463759   -2.9699767    1.2687549   547498 
 3246000     1.001465    -2.969878    -2.969878   -1.7010555  0.056995733    -2.969878    1.2688224   547498 
 3247000    1.0017289   -2.9700763   -2.9700763   -1.7009196  0.067100828   -2.9700763    1.2691567   547498 
 3248000    1.0022822   -2.9701694   -2.9701694   -1.7003116  0.063885431   -2.9701694    1.2698577   547498 
 3249000    1.0021177   -2.9684865   -2.9684865   -1.6988372  0.068874485   -2.9684865    1.2696493   547498 
 3250000    1.0024803   -2.9690435   -2.9690435   -1.6989347  0.064234467   -2.9690435    1.2701087   547498 
 3251000    1.0021623   -2.9693561   -2.9693561   -1.6996502  0.064395481   -2.9693561    1.2697058   547498 
 3252000    1.0026563   -2.9695755   -2.9695755   -1.6992438  0.063957157   -2.9695755    1.2703317   547498 
 3253000    1.0016505   -2.9674422   -2.9674422   -1.6983849  0.069217878   -2.9674422    1.2690574   547498 
 3254000    1.0033757   -2.9699428   -2.9699428   -1.6986996  0.057706291   -2.9699428    1.2712432   547498 
 3255000    1.0034387   -2.9693115   -2.9693115   -1.6979884  0.064130125   -2.9693115     1.271323   547498 
 3256000    1.0030893   -2.9691609   -2.9691609   -1.6982807  0.070079713   -2.9691609    1.2708803   547498 
 3257000    1.0025436   -2.9686561   -2.9686561   -1.6984672  0.066700497   -2.9686561    1.2701889   547498 
 3258000    1.0020895   -2.9679139   -2.9679139   -1.6983003  0.064736155   -2.9679139    1.2696136   547498 
 3259000    1.0033647   -2.9695526   -2.9695526   -1.6983234  0.067309611   -2.9695526    1.2712292   547498 
 3260000    1.0025203   -2.9683972   -2.9683972   -1.6982378  0.068189857   -2.9683972    1.2701594   547498 
 3261000    1.0028696   -2.9698217   -2.9698217   -1.6992197  0.068396959   -2.9698217     1.270602   547498 
 3262000    1.0016153   -2.9680314   -2.9680314   -1.6990185  0.064433471   -2.9680314    1.2690129   547498 
 3263000    1.0019377   -2.9675761   -2.9675761   -1.6981548  0.070548384   -2.9675761    1.2694213   547498 
 3264000    1.0022634   -2.9685761   -2.9685761   -1.6987422  0.065271931   -2.9685761    1.2698339   547498 
 3265000    1.0025369   -2.9693973   -2.9693973   -1.6992168  0.068479983   -2.9693973    1.2701805   547498 
 3266000    1.0026615   -2.9691125   -2.9691125   -1.6987743  0.061982887   -2.9691125    1.2703383   547498 
 3267000    1.0023413    -2.967959    -2.967959   -1.6980264  0.073317499    -2.967959    1.2699326   547498 
 3268000    1.0033986   -2.9687244   -2.9687244   -1.6974523  0.066780658   -2.9687244    1.2712722   547498 
 3269000    1.0013162   -2.9671569   -2.9671569   -1.6985231  0.071894358   -2.9671569    1.2686338   547498 
 3270000    1.0022021   -2.9682197   -2.9682197   -1.6984634  0.064923172   -2.9682197    1.2697563   547498 
 3271000    1.0028503   -2.9683894   -2.9683894    -1.697812   0.05899542   -2.9683894    1.2705775   547498 
 3272000     1.001824    -2.967401    -2.967401   -1.6981238  0.069118553    -2.967401    1.2692772   547498 
 3273000    1.0026365   -2.9673791   -2.9673791   -1.6970726  0.075955483   -2.9673791    1.2703066   547498 
 3274000    1.0024065   -2.9676557   -2.9676557   -1.6976404  0.068196344   -2.9676557    1.2700152   547498 
 3275000     1.002864    -2.967238    -2.967238   -1.6966432  0.059559929    -2.967238    1.2705948   547498 
 3276000    1.0045366   -2.9700029   -2.9700029   -1.6972889  0.058019911   -2.9700029     1.272714   547498 
 3277000    1.0020578   -2.9664603   -2.9664603   -1.6968869  0.065022497   -2.9664603    1.2695734   547498 
 3278000    1.0021984    -2.966495    -2.966495   -1.6967434  0.075076668    -2.966495    1.2697516   547498 
 3279000    1.0026059   -2.9666991   -2.9666991   -1.6964312   0.06695478   -2.9666991    1.2702679   547498 
 3280000    1.0037193   -2.9676879   -2.9676879   -1.6960093   0.07365316   -2.9676879    1.2716785   547498 
 3281000    1.0031594   -2.9663935   -2.9663935   -1.6954244  0.060851671   -2.9663935    1.2709691   547498 
 3282000    1.0022416   -2.9656434   -2.9656434   -1.6958371  0.067411241   -2.9656434    1.2698063   547498 
 3283000     1.002918   -2.9666321   -2.9666321   -1.6959687  0.071167597   -2.9666321    1.2706633   547498 
 3284000    1.0025824   -2.9668885   -2.9668885   -1.6966504  0.072875984   -2.9668885    1.2702381   547498 
 3285000    1.0035693   -2.9694812   -2.9694812   -1.6979927  0.062309985   -2.9694812    1.2714885   547498 
 3286000    1.0025226   -2.9678639   -2.9678639   -1.6977016  0.058552458   -2.9678639    1.2701623   547498 
 3287000    1.0013266   -2.9662106   -2.9662106   -1.6975636  0.070147463   -2.9662106     1.268647   547498 
 3288000    1.0011673   -2.9660936   -2.9660936   -1.6976484  0.064990515   -2.9660936    1.2684452   547498 
 3289000    1.0006463   -2.9658809   -2.9658809   -1.6980958  0.055224569   -2.9658809    1.2677851   547498 
 3290000    1.0018535   -2.9667733   -2.9667733   -1.6974588  0.058648391   -2.9667733    1.2693146   547498 
 3291000    1.0008125   -2.9656197   -2.9656197   -1.6976239  0.054842533   -2.9656197    1.2679957   547498 
 3292000    1.0002067   -2.9648008   -2.9648008   -1.6975726  0.063422612   -2.9648008    1.2672282   547498 
 3293000    1.0007021   -2.9651369   -2.9651369   -1.6972812  0.061801917   -2.9651369    1.2678557   547498 
 3294000    1.0019971   -2.9674732   -2.9674732   -1.6979767  0.062686554   -2.9674732    1.2694966   547498 
 3295000    1.0017123   -2.9665674   -2.9665674   -1.6974317  0.068287211   -2.9665674    1.2691357   547498 
 3296000    1.0018269   -2.9667248   -2.9667248   -1.6974439  0.067561776   -2.9667248    1.2692809   547498 
 3297000    1.0013975   -2.9655115   -2.9655115   -1.6967746  0.079884463   -2.9655115    1.2687369   547498 
 3298000    1.0037448   -2.9679974   -2.9679974   -1.6962867  0.076371356   -2.9679974    1.2717108   547498 
 3299000    1.0031941   -2.9680075   -2.9680075   -1.6969945  0.066487766   -2.9680075     1.271013   547498 
 3300000    1.0028379   -2.9670899   -2.9670899   -1.6965281  0.069155569   -2.9670899    1.2705618   547498 
 3301000    1.0001531   -2.9641911   -2.9641911   -1.6970308  0.065501119   -2.9641911    1.2671603   547498 
 3302000    1.0024492   -2.9665147   -2.9665147   -1.6964453  0.074020425   -2.9665147    1.2700694   547498 
 3303000    1.0036385   -2.9684495   -2.9684495   -1.6968734  0.068453076   -2.9684495    1.2715761   547498 
 3304000    1.0021508   -2.9666152   -2.9666152   -1.6969239  0.065011286   -2.9666152    1.2696913   547498 
 3305000     1.001015   -2.9664798   -2.9664798   -1.6982275  0.069352705   -2.9664798    1.2682522   547498 
 3306000    1.0028342   -2.9684299   -2.9684299   -1.6978727  0.065392124   -2.9684299    1.2705572   547498 
 3307000    1.0018041   -2.9683664   -2.9683664   -1.6991144  0.067741294   -2.9683664     1.269252   547498 
 3308000    1.0033439   -2.9689414   -2.9689414   -1.6977385  0.070194255   -2.9689414    1.2712029   547498 
 3309000    1.0025891   -2.9683119   -2.9683119   -1.6980653  0.074126535   -2.9683119    1.2702466   547498 
 3310000    1.0020904   -2.9686509   -2.9686509   -1.6990361  0.068296265   -2.9686509    1.2696147   547498 
 3311000    1.0030206   -2.9695942   -2.9695942   -1.6988009  0.067318665   -2.9695942    1.2707933   547498 
 3312000    1.0019248   -2.9685374   -2.9685374   -1.6991325  0.068840035   -2.9685374    1.2694049   547498 
 3313000     1.004264   -2.9711314   -2.9711314   -1.6987627  0.071931348   -2.9711314    1.2723686   547498 
 3314000    1.0048158   -2.9708786   -2.9708786   -1.6978108  0.071346713   -2.9708786    1.2730677   547498 
 3315000    1.0038077    -2.969597    -2.969597   -1.6978065  0.067159969    -2.969597    1.2717905   547498 
 3316000    1.0047879    -2.970699    -2.970699   -1.6976666  0.064509619    -2.970699    1.2730324   547498 
 3317000    1.0026556   -2.9683433   -2.9683433   -1.6980125  0.071807578   -2.9683433    1.2703308   547498 
 3318000    1.0034568    -2.970305    -2.970305   -1.6989591  0.067601669    -2.970305    1.2713459   547498 
 3319000    1.0030435   -2.9694371   -2.9694371   -1.6986148  0.077254574   -2.9694371    1.2708223   547498 
 3320000    1.0034901   -2.9703507   -2.9703507   -1.6989626  0.067093577   -2.9703507    1.2713881   547498 
 3321000    1.0043329   -2.9709537   -2.9709537   -1.6984977  0.060546247   -2.9709537    1.2724559   547498 
 3322000    1.0031458   -2.9699097   -2.9699097   -1.6989579   0.06546096   -2.9699097    1.2709518   547498 
 3323000    1.0010754   -2.9676855   -2.9676855   -1.6993567  0.066086126   -2.9676855    1.2683288   547498 
 3324000    1.0021729   -2.9681352   -2.9681352   -1.6984159  0.069268077   -2.9681352    1.2697193   547498 
 3325000    1.0025951    -2.968567    -2.968567   -1.6983128  0.073998157    -2.968567    1.2702541   547498 
 3326000    1.0020516   -2.9671241   -2.9671241   -1.6975585  0.051922987   -2.9671241    1.2695656   547498 
 3327000    1.0028617   -2.9685276   -2.9685276   -1.6979356  0.067959105   -2.9685276     1.270592   547498 
 3328000    1.0035727   -2.9696654   -2.9696654   -1.6981726  0.070576836   -2.9696654    1.2714928   547498 
 3329000    1.0030657   -2.9696244   -2.9696244   -1.6987739  0.068820382   -2.9696244    1.2708504   547498 
 3330000    1.0034415   -2.9691067   -2.9691067   -1.6977801  0.069576878   -2.9691067    1.2713266   547498 
 3331000    1.0030166   -2.9680896   -2.9680896   -1.6973015  0.062357697   -2.9680896    1.2707882   547498 
 3332000    1.0029238   -2.9675221   -2.9675221   -1.6968516  0.062092938   -2.9675221    1.2706706   547498 
 3333000     1.003199   -2.9676195   -2.9676195   -1.6966003   0.05997679   -2.9676195    1.2710193   547498 
 3334000    1.0021688   -2.9668283   -2.9668283   -1.6971141  0.076359356   -2.9668283    1.2697141   547498 
 3335000    1.0029359   -2.9687034   -2.9687034   -1.6980175  0.066692069   -2.9687034    1.2706859   547498 
 3336000    1.0023152   -2.9678329   -2.9678329   -1.6979334   0.06694046   -2.9678329    1.2698995   547498 
 3337000    1.0024227   -2.9669627   -2.9669627    -1.696927  0.069275334   -2.9669627    1.2700357   547498 
 3338000    1.0028019   -2.9673179   -2.9673179   -1.6968018  0.066901909   -2.9673179    1.2705162   547498 
 3339000    1.0018769   -2.9660634   -2.9660634   -1.6967191  0.063973445   -2.9660634    1.2693443   547498 
 3340000    1.0037292   -2.9677893   -2.9677893   -1.6960983  0.068760296   -2.9677893    1.2716911   547498 
 3341000    1.0036089   -2.9669338   -2.9669338   -1.6953952  0.060127781   -2.9669338    1.2715386   547498 
 3342000    1.0027728   -2.9663193   -2.9663193   -1.6958399  0.067572434   -2.9663193    1.2704793   547498 
 3343000    1.0035602   -2.9674546   -2.9674546   -1.6959777  0.064770479   -2.9674546    1.2714769   547498 
 3344000    1.0017293   -2.9660852   -2.9660852    -1.696928  0.060543711   -2.9660852    1.2691572   547498 
 3345000    1.0020963   -2.9660333   -2.9660333    -1.696411  0.058828758   -2.9660333    1.2696223   547498 
 3346000    1.0029366   -2.9673462   -2.9673462   -1.6966593  0.057299577   -2.9673462    1.2706869   547498 
 3347000    1.0022633   -2.9662795   -2.9662795   -1.6964456  0.070369633   -2.9662795    1.2698338   547498 
 3348000    1.0027759   -2.9665637   -2.9665637   -1.6960805  0.066183108   -2.9665637    1.2704832   547498 
 3349000    1.0033002   -2.9667236   -2.9667236    -1.695576  0.064667363   -2.9667236    1.2711476   547498 
 3350000    1.0030322   -2.9666986   -2.9666986   -1.6958907  0.075328892   -2.9666986    1.2708079   547498 
 3351000     1.003417   -2.9679169   -2.9679169   -1.6966213  0.059638142   -2.9679169    1.2712955   547498 
 3352000     1.003845   -2.9688534   -2.9688534   -1.6970157  0.059181383   -2.9688534    1.2718378   547498 
 3353000    1.0019474    -2.966364    -2.966364   -1.6969304  0.075694239    -2.966364    1.2694336   547498 
 3354000    1.0016916   -2.9669015   -2.9669015    -1.697792  0.068922408   -2.9669015    1.2691095   547498 
 3355000    1.0026024   -2.9680668   -2.9680668   -1.6978033  0.067108693   -2.9680668    1.2702635   547498 
 3356000    1.0014531   -2.9671302   -2.9671302    -1.698323  0.069330487   -2.9671302    1.2688073   547498 
 3357000    1.0012354   -2.9673705   -2.9673705   -1.6988389  0.065445567   -2.9673705    1.2685315   547498 
 3358000    1.0003589   -2.9661024   -2.9661024   -1.6986815  0.069210779   -2.9661024     1.267421   547498 
 3359000    1.0025042   -2.9689826   -2.9689826   -1.6988436  0.063382801   -2.9689826     1.270139   547498 
 3360000    1.0022212    -2.969177    -2.969177   -1.6993966  0.067333333    -2.969177    1.2697805   547498 
 3361000     1.002582   -2.9685791   -2.9685791   -1.6983415  0.064784058   -2.9685791    1.2702376   547498 
 3362000    1.0024862   -2.9688367   -2.9688367   -1.6987204  0.066040742   -2.9688367    1.2701162   547498 
 3363000    1.0019698   -2.9682592   -2.9682592   -1.6987973  0.066645205   -2.9682592    1.2694619   547498 
 3364000    1.0005325   -2.9674603   -2.9674603   -1.6998194   0.06498183   -2.9674603    1.2676409   547498 
 3365000    1.0020965   -2.9694179   -2.9694179   -1.6997955  0.072226345   -2.9694179    1.2696224   547498 
 3366000    1.0037488   -2.9712067   -2.9712067   -1.6994908  0.061451827   -2.9712067    1.2717159   547498 
 3367000    1.0022338   -2.9697119   -2.9697119   -1.6999154  0.063788499   -2.9697119    1.2697964   547498 
 3368000    1.0017962   -2.9700774   -2.9700774   -1.7008354  0.071363979   -2.9700774     1.269242   547498 
 3369000    1.0028911   -2.9710504   -2.9710504   -1.7004212  0.078289213   -2.9710504    1.2706292   547498 
 3370000    1.0033717   -2.9708279   -2.9708279   -1.6995898  0.070887656   -2.9708279    1.2712381   547498 
 3371000    1.0018572   -2.9688726   -2.9688726   -1.6995532  0.068501913   -2.9688726    1.2693193   547498 
 3372000     1.002079   -2.9686378   -2.9686378   -1.6990375  0.069050385   -2.9686378    1.2696003   547498 
 3373000    1.0040123   -2.9713287   -2.9713287    -1.699279  0.063026158   -2.9713287    1.2720497   547498 
 3374000    1.0037101   -2.9700806   -2.9700806   -1.6984138   0.06939868   -2.9700806    1.2716668   547498 
 3375000      1.00359   -2.9693373   -2.9693373   -1.6978226  0.065467456   -2.9693373    1.2715146   547498 
 3376000    1.0056691   -2.9720406   -2.9720406   -1.6978917  0.066616377   -2.9720406    1.2741488   547498 
 3377000    1.0032231   -2.9685629   -2.9685629   -1.6975131   0.06613234   -2.9685629    1.2710498   547498 
 3378000    1.0033357   -2.9693833   -2.9693833   -1.6981908  0.069955927   -2.9693833    1.2711925   547498 
 3379000    1.0051185   -2.9709962   -2.9709962    -1.697545  0.067832099   -2.9709962    1.2734512   547498 
 3380000    1.0044262   -2.9701372   -2.9701372   -1.6975631  0.077094412   -2.9701372    1.2725741   547498 
 3381000    1.0047737   -2.9695732   -2.9695732   -1.6965588  0.075789858   -2.9695732    1.2730144   547498 
 3382000    1.0047924   -2.9698953   -2.9698953   -1.6968572  0.073465723   -2.9698953    1.2730381   547498 
 3383000    1.0037023   -2.9680354   -2.9680354   -1.6963784  0.062294627   -2.9680354     1.271657   547498 
 3384000    1.0030987   -2.9668303   -2.9668303    -1.695938  0.068368769   -2.9668303    1.2708923   547498 
 3385000    1.0030741   -2.9667728   -2.9667728   -1.6959118  0.064248583   -2.9667728     1.270861   547498 
 3386000    1.0015218   -2.9652256   -2.9652256   -1.6963313  0.057228127   -2.9652256    1.2688943   547498 
 3387000    1.0016967   -2.9655538   -2.9655538   -1.6964379  0.063726047   -2.9655538     1.269116   547498 
 3388000    1.0006508   -2.9658353   -2.9658353   -1.6980445  0.067658394   -2.9658353    1.2677908   547498 
 3389000    1.0006722   -2.9652868   -2.9652868   -1.6974688  0.061106453   -2.9652868     1.267818   547498 
 3390000    1.0014978   -2.9653059   -2.9653059    -1.696442  0.055506769   -2.9653059     1.268864   547498 
 3391000    1.0015015   -2.9659315   -2.9659315   -1.6970629  0.059281156   -2.9659315    1.2688686   547498 
 3392000    1.0005442     -2.96527     -2.96527   -1.6976142  0.061967835     -2.96527    1.2676558   547498 
 3393000    1.0003063   -2.9649714   -2.9649714    -1.697617  0.074692189   -2.9649714    1.2673544   547498 
 3394000    1.0023337   -2.9667526   -2.9667526   -1.6968296  0.063084163   -2.9667526     1.269923   547498 
 3395000    1.0020281   -2.9658456   -2.9658456   -1.6963098   0.06182299   -2.9658456    1.2695358   547498 
 3396000    1.0021363   -2.9660275   -2.9660275   -1.6963545  0.064218282   -2.9660275     1.269673   547498 
 3397000    1.0017694   -2.9656029   -2.9656029   -1.6963949  0.062456201   -2.9656029    1.2692081   547498 
 3398000    1.0014129   -2.9652589   -2.9652589   -1.6965025  0.057808947   -2.9652589    1.2687563   547498 
 3399000    1.0018791   -2.9667606   -2.9667606   -1.6974136  0.062311123   -2.9667606     1.269347   547498 
 3400000    1.0014179   -2.9659847   -2.9659847   -1.6972221  0.061753232   -2.9659847    1.2687626   547498 
 3401000    1.0002042   -2.9643278   -2.9643278   -1.6971028  0.067281085   -2.9643278     1.267225   547498 
 3402000    1.0018266   -2.9657298   -2.9657298   -1.6964493  0.064966524   -2.9657298    1.2692805   547498 
 3403000    1.0025301   -2.9664804   -2.9664804   -1.6963086  0.071877723   -2.9664804    1.2701718   547498 
 3404000    1.0034754   -2.9667494   -2.9667494     -1.69538  0.068265366   -2.9667494    1.2713695   547498 
 3405000    1.0035045   -2.9678439   -2.9678439   -1.6964376  0.062544841   -2.9678439    1.2714063   547498 
 3406000     1.003518   -2.9671728   -2.9671728   -1.6957493  0.071253752   -2.9671728    1.2714235   547498 
 3407000     1.003377     -2.96719     -2.96719   -1.6959452  0.066502436     -2.96719    1.2712449   547498 
 3408000    1.0036516   -2.9676744   -2.9676744   -1.6960816  0.062250251   -2.9676744    1.2715928   547498 
 3409000    1.0041429   -2.9676898   -2.9676898   -1.6954746  0.069446092   -2.9676898    1.2722152   547498 
 3410000    1.0054644   -2.9696382   -2.9696382   -1.6957488   0.06397127   -2.9696382    1.2738894   547498 
 3411000    1.0050075    -2.968731    -2.968731   -1.6954203  0.071100763    -2.968731    1.2733106   547498 
 3412000    1.0052925   -2.9698787   -2.9698787   -1.6962069  0.072556483   -2.9698787    1.2736717   547498 
 3413000    1.0052745   -2.9708788   -2.9708788     -1.69723  0.068455856   -2.9708788    1.2736489   547498 
 3414000    1.0048428   -2.9706593   -2.9706593   -1.6975573  0.056904518   -2.9706593     1.273102   547498 
 3415000    1.0033218   -2.9684326   -2.9684326   -1.6972577  0.074112178   -2.9684326    1.2711749   547498 
 3416000    1.0039219   -2.9699252   -2.9699252     -1.69799  0.067440537   -2.9699252    1.2719352   547498 
 3417000    1.0036048   -2.9692525   -2.9692525   -1.6977191  0.073201589   -2.9692525    1.2715334   547498 
 3418000    1.0016769   -2.9671114   -2.9671114   -1.6980205  0.072508224   -2.9671114    1.2690908   547498 
 3419000    1.0029304   -2.9688531   -2.9688531    -1.698174  0.065702302   -2.9688531     1.270679   547498 
 3420000    1.0032601   -2.9683346   -2.9683346   -1.6972378  0.074335581   -2.9683346    1.2710967   547498 
 3421000    1.0027923   -2.9692225   -2.9692225   -1.6987185  0.067921255   -2.9692225     1.270504   547498 
 3422000    1.0026829   -2.9675179   -2.9675179   -1.6971525  0.071300239   -2.9675179    1.2703654   547498 
 3423000    1.0036943    -2.968861    -2.968861   -1.6972142  0.069167688    -2.968861    1.2716469   547498 
 3424000    1.0041016   -2.9691721   -2.9691721   -1.6970092  0.070324521   -2.9691721    1.2721629   547498 
 3425000    1.0049802   -2.9704734   -2.9704734   -1.6971973  0.066163607   -2.9704734    1.2732761   547498 
 3426000    1.0039477   -2.9695423   -2.9695423   -1.6975745  0.073146157   -2.9695423    1.2719678   547498 
 3427000    1.0042161   -2.9692277   -2.9692277   -1.6969197  0.074757875   -2.9692277    1.2723079   547498 
 3428000    1.0038915   -2.9689523   -2.9689523   -1.6970557    0.0682388   -2.9689523    1.2718967   547498 
 3429000    1.0023572   -2.9670673   -2.9670673   -1.6971146  0.062101417   -2.9670673    1.2699527   547498 
 3430000    1.0019669   -2.9670776   -2.9670776   -1.6976193  0.075656644   -2.9670776    1.2694583   547498 
 3431000    1.0022153   -2.9677976   -2.9677976   -1.6980247  0.066519319   -2.9677976     1.269773   547498 
 3432000    1.0028457   -2.9691664   -2.9691664   -1.6985948  0.062612797   -2.9691664    1.2705717   547498 
 3433000    1.0012278   -2.9671107   -2.9671107   -1.6985888  0.068349443   -2.9671107    1.2685219   547498 
 3434000    1.0002359   -2.9648303   -2.9648303   -1.6975652  0.056854306   -2.9648303    1.2672652   547498 
 3435000    1.0022412   -2.9670301   -2.9670301   -1.6972242  0.057508519   -2.9670301    1.2698059   547498 
 3436000      1.00332   -2.9684824   -2.9684824   -1.6973099  0.059307446   -2.9684824    1.2711726   547498 
 3437000     1.002529   -2.9680536   -2.9680536   -1.6978831  0.054851586   -2.9680536    1.2701704   547498 
 3438000    1.0027019   -2.9683082   -2.9683082   -1.6979187   0.07196214   -2.9683082    1.2703896   547498 
 3439000    1.0026032   -2.9677652   -2.9677652   -1.6975008  0.056034986   -2.9677652    1.2702645   547498 
 3440000    1.0021183   -2.9672971   -2.9672971   -1.6976471   0.06829705   -2.9672971      1.26965   547498 
 3441000    1.0012111   -2.9664928   -2.9664928   -1.6979921  0.057700611   -2.9664928    1.2685007   547498 
 3442000    1.0014838   -2.9669451   -2.9669451   -1.6980989  0.065768317   -2.9669451    1.2688462   547498 
 3443000    1.0037467   -2.9701388   -2.9701388   -1.6984255  0.065591472   -2.9701388    1.2717132   547498 
 3444000    1.0018657   -2.9672855   -2.9672855   -1.6979554  0.068089303   -2.9672855    1.2693301   547498 
 3445000    1.0008378   -2.9651495   -2.9651495   -1.6971218  0.071412532   -2.9651495    1.2680277   547498 
 3446000    1.0017993   -2.9669944   -2.9669944   -1.6977484  0.069556025   -2.9669944     1.269246   547498 
 3447000    1.0012721   -2.9666374   -2.9666374   -1.6980594  0.066422603   -2.9666374     1.268578   547498 
 3448000    1.0015117   -2.9663666   -2.9663666    -1.697485  0.069103945   -2.9663666    1.2688815   547498 
 3449000    1.0014886   -2.9658501   -2.9658501   -1.6969978  0.067536959   -2.9658501    1.2688523   547498 
 3450000    1.0022677   -2.9674822   -2.9674822   -1.6976428  0.059087475   -2.9674822    1.2698394   547498 
 3451000    1.0039788   -2.9692342   -2.9692342   -1.6972269  0.066023027   -2.9692342    1.2720073   547498 
 3452000    1.0035413   -2.9680781   -2.9680781   -1.6966251  0.067451633   -2.9680781     1.271453   547498 
 3453000    1.0040803   -2.9687373   -2.9687373   -1.6966014  0.058105602   -2.9687373    1.2721358   547498 
 3454000    1.0035455   -2.9686253   -2.9686253    -1.697167  0.055883133   -2.9686253    1.2714583   547498 
 3455000    1.0032118   -2.9683075   -2.9683075    -1.697272  0.065529871   -2.9683075    1.2710355   547498 
 3456000    1.0032414   -2.9695283   -2.9695283   -1.6984553  0.065764808   -2.9695283     1.271073   547498 
 3457000    1.0036751   -2.9699654   -2.9699654   -1.6983429  0.058281099   -2.9699654    1.2716225   547498 
 3458000    1.0034533    -2.970697    -2.970697   -1.6993556  0.066145966    -2.970697    1.2713414   547498 
 3459000    1.0021248   -2.9693588   -2.9693588   -1.6997004  0.056321631   -2.9693588    1.2696584   547498 
 3460000    1.0013332   -2.9677734   -2.9677734    -1.699118  0.065885034   -2.9677734    1.2686553   547498 
 3461000    1.0015261   -2.9675584   -2.9675584   -1.6986586  0.067462296   -2.9675584    1.2688998   547498 
 3462000    1.0032144   -2.9701379   -2.9701379   -1.6990991  0.070290977   -2.9701379    1.2710388   547498 
 3463000    1.0017734   -2.9679873   -2.9679873   -1.6987742  0.067051686   -2.9679873    1.2692131   547498 
 3464000    1.0025245   -2.9694588   -2.9694588   -1.6992941  0.063226729   -2.9694588    1.2701647   547498 
 3465000    1.0014386   -2.9682688   -2.9682688   -1.6994798  0.066855836   -2.9682688     1.268789   547498 
 3466000    1.0025269   -2.9693234   -2.9693234   -1.6991556  0.055436432   -2.9693234    1.2701678   547498 
 3467000    1.0036814   -2.9706273   -2.9706273   -1.6989968  0.062100163   -2.9706273    1.2716305   547498 
 3468000     1.002698   -2.9696845   -2.9696845   -1.6992999  0.065282357   -2.9696845    1.2703846   547498 
 3469000    1.0028327   -2.9698098   -2.9698098   -1.6992545  0.068320771   -2.9698098    1.2705553   547498 
 3470000    1.0033545   -2.9697951   -2.9697951   -1.6985788  0.071726444   -2.9697951    1.2712163   547498 
 3471000    1.0019567   -2.9679561   -2.9679561   -1.6985108  0.065958969   -2.9679561    1.2694453   547498 
 3472000    1.0037324   -2.9695907   -2.9695907   -1.6978956   0.06728874   -2.9695907    1.2716951   547498 
 3473000    1.0018985   -2.9676738   -2.9676738   -1.6983021  0.069046639   -2.9676738    1.2693716   547498 
 3474000    1.0029925   -2.9702101   -2.9702101   -1.6994524  0.060276825   -2.9702101    1.2707577   547498 
 3475000    1.0017194   -2.9686579   -2.9686579   -1.6995132  0.054747452   -2.9686579    1.2691447   547498 
 3476000    1.0024808   -2.9691747   -2.9691747   -1.6990653  0.073789953   -2.9691747    1.2701094   547498 
 3477000    1.0018739    -2.969274    -2.969274   -1.6999336  0.071656789    -2.969274    1.2693405   547498 
 3478000    1.0025475   -2.9700388   -2.9700388    -1.699845  0.066894206   -2.9700388    1.2701938   547498 
 3479000    1.0026421   -2.9708839   -2.9708839   -1.7005702  0.069333509   -2.9708839    1.2703137   547498 
 3480000    1.0026393   -2.9709204   -2.9709204   -1.7006102  0.068585065   -2.9709204    1.2703102   547498 
 3481000    1.0025321   -2.9707152   -2.9707152   -1.7005409  0.059978282   -2.9707152    1.2701743   547498 
 3482000    1.0025916   -2.9714884   -2.9714884   -1.7012387  0.067508073   -2.9714884    1.2702497   547498 
 3483000    1.0047304   -2.9738363   -2.9738363   -1.7008768   0.06567866   -2.9738363    1.2729596   547498 
 3484000    1.0039518    -2.972322    -2.972322   -1.7003489  0.063915248    -2.972322    1.2719731   547498 
 3485000    1.0037167   -2.9715545   -2.9715545   -1.6998793  0.069670956   -2.9715545    1.2716752   547498 
 3486000     1.003086   -2.9711264   -2.9711264   -1.7002503  0.071136316   -2.9711264    1.2708761   547498 
 3487000    1.0022785   -2.9694298   -2.9694298   -1.6995768  0.066402827   -2.9694298     1.269853   547498 
 3488000    1.0033209   -2.9711536   -2.9711536   -1.6999799  0.062073885   -2.9711536    1.2711737   547498 
 3489000    1.0026702   -2.9706266   -2.9706266   -1.7002773  0.063620856   -2.9706266    1.2703493   547498 
 3490000    1.0028428   -2.9719041   -2.9719041   -1.7013362  0.070601283   -2.9719041     1.270568   547498 
 3491000     1.003002   -2.9714574   -2.9714574   -1.7006878  0.056098293   -2.9714574    1.2707697   547498 
 3492000    1.0015009   -2.9709259   -2.9709259   -1.7020581  0.071757928   -2.9709259    1.2688678   547498 
 3493000    1.0012878   -2.9704489   -2.9704489    -1.701851  0.061453523   -2.9704489    1.2685979   547498 
 3494000    1.0028281   -2.9717759   -2.9717759   -1.7012266  0.073051477   -2.9717759    1.2705494   547498 
 3495000    1.0031948   -2.9709352   -2.9709352   -1.6999212  0.068582661   -2.9709352     1.271014   547498 
 3496000     1.002517   -2.9709468   -2.9709468   -1.7007915   0.06391144   -2.9709468    1.2701553   547498 
 3497000    1.0025891   -2.9711604   -2.9711604   -1.7009138  0.067631142   -2.9711604    1.2702466   547498 
 3498000    1.0039827   -2.9724975   -2.9724975   -1.7004853  0.055393959   -2.9724975    1.2720122   547498 
 3499000     1.002022   -2.9690631   -2.9690631   -1.6995349  0.060790848   -2.9690631    1.2695281   547498 
 3500000    1.0024604   -2.9681196   -2.9681196   -1.6980361  0.061261483   -2.9681196    1.2700835   547498 
 3501000    1.0021991   -2.9684667   -2.9684667   -1.6987142  0.059489236   -2.9684667    1.2697524   547498 
 3502000    1.0021109   -2.9685168   -2.9685168   -1.6988761  0.071480548   -2.9685168    1.2696407   547498 
 3503000    1.0024488   -2.9686309   -2.9686309   -1.6985621  0.062814038   -2.9686309    1.2700688   547498 
 3504000    1.0018725   -2.9689315   -2.9689315   -1.6995929  0.067850486   -2.9689315    1.2693386   547498 
 3505000     1.002832   -2.9694793   -2.9694793    -1.698925  0.065978568   -2.9694793    1.2705543   547498 
 3506000    1.0021497   -2.9681019   -2.9681019    -1.698412  0.070464112   -2.9681019    1.2696899   547498 
 3507000    1.0025106   -2.9686758   -2.9686758   -1.6985287  0.057112973   -2.9686758    1.2701471   547498 
 3508000    1.0014985   -2.9676661   -2.9676661   -1.6988013  0.065209591   -2.9676661    1.2688648   547498 
 3509000    1.0017338   -2.9675965   -2.9675965   -1.6984336  0.069318486   -2.9675965     1.269163   547498 
 3510000    1.0019761   -2.9666285   -2.9666285   -1.6971586  0.069532963   -2.9666285    1.2694699   547498 
 3511000   0.99991244   -2.9656003   -2.9656003   -1.6987449  0.074267903   -2.9656003    1.2668553   547498 
 3512000    1.0002568    -2.965554    -2.965554   -1.6982624  0.066927238    -2.965554    1.2672916   547498 
 3513000    1.0016339    -2.967294    -2.967294   -1.6982576  0.049085224    -2.967294    1.2690364   547498 
 3514000     1.003066    -2.968842    -2.968842   -1.6979913   0.05879994    -2.968842    1.2708508   547498 
 3515000    1.0023193   -2.9661085   -2.9661085   -1.6962038  0.063564717   -2.9661085    1.2699047   547498 
 3516000     1.002584   -2.9680461   -2.9680461    -1.697806  0.057577276   -2.9680461    1.2702401   547498 
 3517000    1.0024266   -2.9673852   -2.9673852   -1.6973445  0.070895357   -2.9673852    1.2700407   547498 
 3518000    1.0034059   -2.9682204   -2.9682204   -1.6969389  0.062770668   -2.9682204    1.2712815   547498 
 3519000    1.0018484   -2.9669243   -2.9669243   -1.6976163  0.066818387   -2.9669243    1.2693081   547498 
 3520000     1.002098   -2.9666256   -2.9666256   -1.6970013  0.058816666   -2.9666256    1.2696244   547498 
 3521000    1.0027462   -2.9681348   -2.9681348   -1.6976892  0.075625134   -2.9681348    1.2704456   547498 
 3522000    1.0033835   -2.9684319   -2.9684319   -1.6971788  0.069859201   -2.9684319    1.2712531   547498 
 3523000    1.0028953   -2.9682496   -2.9682496   -1.6976151  0.060427916   -2.9682496    1.2706345   547498 
 3524000    1.0020866   -2.9670105   -2.9670105   -1.6974006  0.066917454   -2.9670105      1.26961   547498 
 3525000    1.0023988   -2.9678044   -2.9678044    -1.697799  0.061880231   -2.9678044    1.2700054   547498 
 3526000    1.0028684   -2.9692414   -2.9692414    -1.698641  0.067438002   -2.9692414    1.2706004   547498 
 3527000    1.0016912     -2.96693     -2.96693    -1.697821  0.067503802     -2.96693     1.269109   547498 
 3528000    1.0017165   -2.9665016   -2.9665016   -1.6973605  0.069228315   -2.9665016    1.2691411   547498 
 3529000    1.0022399   -2.9675505   -2.9675505   -1.6977464  0.057459842   -2.9675505    1.2698041   547498 
 3530000    1.0037327   -2.9706507   -2.9706507   -1.6989552  0.059778161   -2.9706507    1.2716955   547498 
 3531000    1.0030559   -2.9708659   -2.9708659   -1.7000279  0.062836256   -2.9708659     1.270838   547498 
 3532000    1.0032525   -2.9708558   -2.9708558   -1.6997688   0.06480324   -2.9708558    1.2710871   547498 
 3533000    1.0032945   -2.9704534   -2.9704534   -1.6993131  0.064263196   -2.9704534    1.2711403   547498 
 3534000    1.0024096   -2.9704651   -2.9704651   -1.7004459  0.070040887   -2.9704651    1.2700192   547498 
 3535000    1.0022851   -2.9701523   -2.9701523   -1.7002908  0.077101914   -2.9701523    1.2698615   547498 
 3536000    1.0030485   -2.9709451   -2.9709451   -1.7001164  0.068762766   -2.9709451    1.2708287   547498 
 3537000    1.0039777   -2.9719761   -2.9719761   -1.6999702   0.06922702   -2.9719761    1.2720059   547498 
 3538000    1.0012558   -2.9685978   -2.9685978   -1.7000405  0.067703097   -2.9685978    1.2685573   547498 
 3539000      1.00124   -2.9691767   -2.9691767   -1.7006394  0.063957144   -2.9691767    1.2685373   547498 
 3540000    1.0026099   -2.9706783   -2.9706783   -1.7004055  0.058048854   -2.9706783    1.2702729   547498 
 3541000    1.0021336   -2.9700214   -2.9700214    -1.700352  0.070790684   -2.9700214    1.2696694   547498 
 3542000    1.0020775   -2.9702783   -2.9702783   -1.7006799  0.075413301   -2.9702783    1.2695985   547498 
 3543000    1.0024144      -2.9711      -2.9711   -1.7010748  0.075188339      -2.9711    1.2700252   547498 
 3544000    1.0026489   -2.9705337   -2.9705337   -1.7002114   0.07082643   -2.9705337    1.2703223   547498 
 3545000    1.0017934   -2.9698394   -2.9698394    -1.700601  0.073444543   -2.9698394    1.2692384   547498 
 3546000    1.0040433   -2.9717296   -2.9717296   -1.6996406  0.061659202   -2.9717296     1.272089   547498 
 3547000    1.0031082   -2.9704232   -2.9704232   -1.6995189  0.068125872   -2.9704232    1.2709043   547498 
 3548000    1.0038811   -2.9710915   -2.9710915    -1.699208  0.075169916   -2.9710915    1.2718835   547498 
 3549000    1.0024177   -2.9699161   -2.9699161   -1.6998866   0.06796772   -2.9699161    1.2700295   547498 
 3550000    1.0015247   -2.9688535   -2.9688535   -1.6999555  0.071216322   -2.9688535    1.2688981   547498 
 3551000    1.0029802   -2.9703882   -2.9703882   -1.6996461  0.065186672   -2.9703882    1.2707421   547498 
 3552000    1.0030628   -2.9699782   -2.9699782   -1.6991315  0.063821399   -2.9699782    1.2708467   547498 
 3553000    1.0025847   -2.9693357   -2.9693357   -1.6990948  0.061533067   -2.9693357    1.2702409   547498 
 3554000    1.0022736   -2.9688452   -2.9688452   -1.6989983   0.06397879   -2.9688452    1.2698469   547498 
 3555000    1.0017543   -2.9683894   -2.9683894   -1.6992005  0.073713661   -2.9683894    1.2691889   547498 
 3556000    1.0027531   -2.9701147   -2.9701147   -1.6996603  0.065666782   -2.9701147    1.2704544   547498 
 3557000    1.0013559   -2.9685217   -2.9685217   -1.6998376  0.067551873   -2.9685217    1.2686841   547498 
 3558000    1.0035149   -2.9707713   -2.9707713   -1.6993517  0.068979144   -2.9707713    1.2714196   547498 
 3559000    1.0016546   -2.9688197   -2.9688197   -1.6997572  0.072961006   -2.9688197    1.2690625   547498 
 3560000    1.0042973   -2.9711428   -2.9711428   -1.6987319  0.073486924   -2.9711428    1.2724109   547498 
 3561000    1.0023174   -2.9693227   -2.9693227   -1.6994203  0.071843544   -2.9693227    1.2699023   547498 
 3562000    1.0041784   -2.9710872   -2.9710872   -1.6988271  0.078101812   -2.9710872    1.2722601   547498 
 3563000    1.0023208   -2.9685843   -2.9685843   -1.6986776  0.064660412   -2.9685843    1.2699067   547498 
 3564000    1.0029157   -2.9702645   -2.9702645   -1.6996042  0.066314111   -2.9702645    1.2706603   547498 
 3565000    1.0004515   -2.9681977   -2.9681977   -1.7006593   0.07371451   -2.9681977    1.2675383   547498 
 3566000    1.0015162   -2.9695299   -2.9695299   -1.7006426  0.053311326   -2.9695299    1.2688873   547498 
 3567000    1.0000024   -2.9683823   -2.9683823   -1.7014129  0.062583498   -2.9683823    1.2669693   547498 
 3568000   0.99954775   -2.9671928   -2.9671928   -1.7007996  0.062831093   -2.9671928    1.2663933   547498 
 3569000    1.0019424   -2.9693073   -2.9693073     -1.69988  0.061826957   -2.9693073    1.2694273   547498 
 3570000    1.0005454   -2.9670008   -2.9670008   -1.6993435  0.063911678   -2.9670008    1.2676573   547498 
 3571000    1.0018314   -2.9689387   -2.9689387   -1.6996522  0.066571268   -2.9689387    1.2692866   547498 
 3572000    1.0026883   -2.9698161   -2.9698161   -1.6994438  0.068047519   -2.9698161    1.2703723   547498 
 3573000    1.0004533   -2.9678824   -2.9678824   -1.7003418  0.062346897   -2.9678824    1.2675405   547498 
 3574000    1.0020349   -2.9692905   -2.9692905   -1.6997461   0.05902434   -2.9692905    1.2695444   547498 
 3575000    1.0025311   -2.9699108   -2.9699108   -1.6997377  0.064765604   -2.9699108    1.2701731   547498 
 3576000    1.0024919   -2.9695489   -2.9695489   -1.6994254  0.071564362   -2.9695489    1.2701234   547498 
 3577000    1.0031956   -2.9702119   -2.9702119   -1.6991968  0.065289755   -2.9702119     1.271015   547498 
 3578000    1.0040033   -2.9711742   -2.9711742   -1.6991358  0.064959241   -2.9711742    1.2720384   547498 
 3579000    1.0027778   -2.9688494   -2.9688494   -1.6983637  0.073011495   -2.9688494    1.2704857   547498 
 3580000    1.0028656   -2.9679136   -2.9679136   -1.6973167  0.073852471   -2.9679136    1.2705968   547498 
 3581000    1.0032525   -2.9690773   -2.9690773   -1.6979902  0.076422683   -2.9690773    1.2710871   547498 
 3582000    1.0026202   -2.9695785   -2.9695785   -1.6992925  0.069257792   -2.9695785     1.270286   547498 
 3583000     1.002737   -2.9700403   -2.9700403   -1.6996063  0.068657043   -2.9700403     1.270434   547498 
 3584000    1.0028739   -2.9694786   -2.9694786   -1.6988712  0.069459144   -2.9694786    1.2706074   547498 
 3585000    1.0031952    -2.969996    -2.969996   -1.6989815  0.060304452    -2.969996    1.2710145   547498 
 3586000    1.0028601   -2.9702757   -2.9702757   -1.6996858  0.058949261   -2.9702757    1.2705899   547498 
 3587000     1.002354   -2.9697801   -2.9697801   -1.6998314  0.061378961   -2.9697801    1.2699487   547498 
 3588000    1.0030889   -2.9704771   -2.9704771   -1.6995973  0.061816028   -2.9704771    1.2708798   547498 
 3589000    1.0041887   -2.9718378   -2.9718378   -1.6995646  0.060148406   -2.9718378    1.2722732   547498 
 3590000    1.0028632    -2.969709    -2.969709   -1.6991152  0.074307557    -2.969709    1.2705938   547498 
 3591000    1.0046022   -2.9719606   -2.9719606   -1.6991635  0.066141146   -2.9719606    1.2727971   547498 
 3592000    1.0046267   -2.9727043   -2.9727043   -1.6998761  0.066667925   -2.9727043    1.2728282   547498 
 3593000    1.0023083    -2.969574    -2.969574   -1.6996832  0.060899566    -2.969574    1.2698908   547498 
 3594000    1.0032007   -2.9712283   -2.9712283   -1.7002069  0.067577648   -2.9712283    1.2710214   547498 
 3595000    1.0010737   -2.9687307   -2.9687307   -1.7004041  0.070535524   -2.9687307    1.2683266   547498 
 3596000     1.003835   -2.9721187   -2.9721187   -1.7002937  0.066176609   -2.9721187    1.2718251   547498 
 3597000    1.0027475   -2.9701075   -2.9701075   -1.6996602  0.068700001   -2.9701075    1.2704472   547498 
 3598000    1.0039912    -2.971116    -2.971116    -1.699093  0.067509404    -2.971116     1.272023   547498 
 3599000    1.0021482   -2.9686301   -2.9686301   -1.6989422  0.072826064   -2.9686301    1.2696879   547498 
 3600000    1.0048747   -2.9714457   -2.9714457   -1.6983033  0.074528226   -2.9714457    1.2731424   547498 
 3601000    1.0022445   -2.9687843   -2.9687843   -1.6989744  0.070124973   -2.9687843    1.2698099   547498 
 3602000    1.0021321   -2.9697546   -2.9697546    -1.700087  0.072634026   -2.9697546    1.2696676   547498 
 3603000     1.002967   -2.9702262   -2.9702262   -1.6995009  0.069784758   -2.9702262    1.2707254   547498 
 3604000    1.0037109    -2.972009    -2.972009   -1.7003411  0.062832066    -2.972009    1.2716678   547498 
 3605000    1.0039884   -2.9728264   -2.9728264    -1.700807  0.067398734   -2.9728264    1.2720194   547498 
 3606000    1.0027352   -2.9706775   -2.9706775   -1.7002458  0.066141743   -2.9706775    1.2704317   547498 
 3607000    1.0037699   -2.9723938   -2.9723938   -1.7006511  0.059839532   -2.9723938    1.2717427   547498 
 3608000    1.0036288   -2.9709534   -2.9709534   -1.6993896  0.071874492   -2.9709534    1.2715638   547498 
 3609000    1.0012938   -2.9686085   -2.9686085   -1.7000031  0.064613233   -2.9686085    1.2686054   547498 
 3610000    1.0026601   -2.9707146   -2.9707146   -1.7003781  0.067658401   -2.9707146    1.2703365   547498 
 3611000    1.0028033   -2.9701124   -2.9701124   -1.6995943  0.062542005   -2.9701124     1.270518   547498 
 3612000    1.0026295   -2.9696934   -2.9696934   -1.6993956  0.059144085   -2.9696934    1.2702978   547498 
 3613000    1.0017569   -2.9697965   -2.9697965   -1.7006043  0.063062579   -2.9697965    1.2691922   547498 
 3614000    1.0028208   -2.9706893   -2.9706893   -1.7001492   0.05847435   -2.9706893    1.2705401   547498 
 3615000    1.0037848   -2.9716951   -2.9716951   -1.6999336  0.064935434   -2.9716951    1.2717615   547498 
 3616000    1.0027017   -2.9709194   -2.9709194   -1.7005301   0.05453739   -2.9709194    1.2703893   547498 
 3617000    1.0028302   -2.9703333   -2.9703333   -1.6997812  0.063377986   -2.9703333    1.2705521   547498 
 3618000    1.0028256    -2.970799    -2.970799   -1.7002529  0.064284456    -2.970799    1.2705462   547498 
 3619000    1.0041078   -2.9711548   -2.9711548   -1.6989841  0.067422914   -2.9711548    1.2721707   547498 
 3620000     1.004047   -2.9715071   -2.9715071   -1.6994134  0.070756857   -2.9715071    1.2720937   547498 
 3621000    1.0047375   -2.9728375   -2.9728375    -1.699869  0.064613241   -2.9728375    1.2729685   547498 
 3622000    1.0029384   -2.9713679   -2.9713679   -1.7006787  0.064851418   -2.9713679    1.2706891   547498 
 3623000    1.0023399   -2.9707634   -2.9707634   -1.7008325  0.063906191   -2.9707634    1.2699308   547498 
 3624000    1.0029467   -2.9713581   -2.9713581   -1.7006586  0.067051071   -2.9713581    1.2706996   547498 
 3625000    1.0012883    -2.970203    -2.970203   -1.7016044  0.064430705    -2.970203    1.2685985   547498 
 3626000    1.0019603   -2.9706696   -2.9706696   -1.7012197  0.072242529   -2.9706696    1.2694499   547498 
 3627000    1.0006043   -2.9694066   -2.9694066   -1.7016747  0.065162767   -2.9694066    1.2677319   547498 
 3628000    1.0001001   -2.9698685   -2.9698685   -1.7027755  0.063228817   -2.9698685     1.267093   547498 
 3629000   0.99979826   -2.9692375   -2.9692375   -1.7025268  0.063414149   -2.9692375    1.2667107   547498 
 3630000    1.0005903   -2.9697221   -2.9697221    -1.702008  0.064854968   -2.9697221    1.2677142   547498 
 3631000    1.0003861   -2.9696321   -2.9696321   -1.7021766  0.069354669   -2.9696321    1.2674554   547498 
 3632000    1.0016246   -2.9701829   -2.9701829   -1.7011583  0.069667867   -2.9701829    1.2690246   547498 
 3633000    1.0019646   -2.9702975   -2.9702975   -1.7008421  0.071797942   -2.9702975    1.2694554   547498 
 3634000    1.0020003   -2.9704793   -2.9704793   -1.7009786  0.064168976   -2.9704793    1.2695006   547498 
 3635000    1.0035769   -2.9727939   -2.9727939   -1.7012957  0.066742958   -2.9727939    1.2714981   547498 
 3636000    1.0045932   -2.9723833   -2.9723833   -1.6995976  0.064195298   -2.9723833    1.2727858   547498 
 3637000    1.0047101   -2.9723054   -2.9723054   -1.6993715  0.065256654   -2.9723054    1.2729339   547498 
 3638000    1.0019686    -2.968963    -2.968963   -1.6995026  0.067816602    -2.968963    1.2694604   547498 
 3639000    1.0035564   -2.9706045   -2.9706045   -1.6991324  0.073297821   -2.9706045    1.2714721   547498 
 3640000    1.0031339   -2.9707206   -2.9707206   -1.6997838  0.070100328   -2.9707206    1.2709368   547498 
 3641000     1.003161   -2.9706148   -2.9706148   -1.6996436  0.070317462   -2.9706148    1.2709712   547498 
 3642000     1.002478   -2.9700635   -2.9700635   -1.6999577  0.061419981   -2.9700635    1.2701058   547498 
 3643000    1.0033573   -2.9695845   -2.9695845   -1.6983647  0.068995717   -2.9695845    1.2712198   547498 
 3644000    1.0031998   -2.9700895   -2.9700895   -1.6990693  0.061647099   -2.9700895    1.2710203   547498 
 3645000    1.0019117   -2.9688407   -2.9688407   -1.6994524  0.070903379   -2.9688407    1.2693883   547498 
 3646000    1.0012097   -2.9682458   -2.9682458   -1.6997469  0.066701065   -2.9682458     1.268499   547498 
 3647000     1.003301   -2.9712867   -2.9712867   -1.7001382   0.07041286   -2.9712867    1.2711485   547498 
 3648000    1.0021772   -2.9696248   -2.9696248   -1.6999001  0.063936504   -2.9696248    1.2697248   547498 
 3649000     1.002346   -2.9699761   -2.9699761   -1.7000376  0.061170516   -2.9699761    1.2699386   547498 
 3650000    1.0013693   -2.9696483   -2.9696483   -1.7009472  0.066313032   -2.9696483    1.2687011   547498 
 3651000    1.0016568   -2.9689346   -2.9689346   -1.6998692  0.076305405   -2.9689346    1.2690654   547498 
 3652000    1.0023249     -2.97004     -2.97004   -1.7001281  0.067906562     -2.97004    1.2699119   547498 
 3653000    1.0022112   -2.9706614   -2.9706614   -1.7008936  0.062382927   -2.9706614    1.2697678   547498 
 3654000    1.0025375    -2.971463    -2.971463   -1.7012818  0.067401115    -2.971463    1.2701812   547498 
 3655000    1.0027837   -2.9710799   -2.9710799   -1.7005867  0.066853807   -2.9710799    1.2704932   547498 
 3656000    1.0033895   -2.9709248   -2.9709248   -1.6996641  0.056311852   -2.9709248    1.2712607   547498 
 3657000    1.0042152   -2.9711938   -2.9711938    -1.698887   0.05598689   -2.9711938    1.2723068   547498 
 3658000    1.0037549   -2.9713399   -2.9713399   -1.6996163  0.055321429   -2.9713399    1.2717236   547498 
 3659000    1.0028652   -2.9698387   -2.9698387   -1.6992422  0.072818735   -2.9698387    1.2705964   547498 
 3660000    1.0029108   -2.9708287   -2.9708287   -1.7001745  0.066743373   -2.9708287    1.2706542   547498 
 3661000    1.0031617    -2.971021    -2.971021    -1.700049  0.065577128    -2.971021     1.270972   547498 
 3662000    1.0027619   -2.9705879   -2.9705879   -1.7001225  0.071281989   -2.9705879    1.2704655   547498 
 3663000    1.0031094   -2.9710028   -2.9710028   -1.7000971  0.074466585   -2.9710028    1.2709058   547498 
 3664000    1.0035643   -2.9723939   -2.9723939   -1.7009118  0.065635737   -2.9723939    1.2714821   547498 
 3665000    1.0027434   -2.9727347   -2.9727347   -1.7022926  0.065270067   -2.9727347    1.2704421   547498 
 3666000    1.0040485    -2.973818    -2.973818   -1.7017223  0.067140781    -2.973818    1.2720956   547498 
 3667000    1.0018786   -2.9706985   -2.9706985   -1.7013521  0.071851123   -2.9706985    1.2693464   547498 
 3668000    1.0018512    -2.970674    -2.970674   -1.7013623  0.063939263    -2.970674    1.2693117   547498 
 3669000    1.0025921   -2.9725833   -2.9725833   -1.7023329  0.061753639   -2.9725833    1.2702504   547498 
 3670000    1.0013524    -2.971272    -2.971272   -1.7025924  0.067199778    -2.971272    1.2686797   547498 
 3671000    1.0031456    -2.972608    -2.972608   -1.7016564  0.064613537    -2.972608    1.2709516   547498 
 3672000    1.0017302   -2.9710752   -2.9710752   -1.7019169  0.062161976   -2.9710752    1.2691584   547498 
 3673000     1.002195   -2.9724056   -2.9724056   -1.7026583  0.067158892   -2.9724056    1.2697473   547498 
 3674000     1.001395   -2.9721388   -2.9721388   -1.7034052  0.070340116   -2.9721388    1.2687336   547498 
 3675000    1.0019313   -2.9726716   -2.9726716   -1.7032584  0.069692038   -2.9726716    1.2694131   547498 
 3676000    1.0028388   -2.9733325   -2.9733325   -1.7027695  0.064394131   -2.9733325     1.270563   547498 
 3677000    1.0019886   -2.9728777   -2.9728777   -1.7033919  0.069083259   -2.9728777    1.2694858   547498 
 3678000    1.0019235   -2.9726527   -2.9726527   -1.7032494  0.064611158   -2.9726527    1.2694033   547498 
 3679000    1.0009555   -2.9716739   -2.9716739   -1.7034971   0.06474623   -2.9716739    1.2681768   547498 
 3680000    1.0000408   -2.9701532   -2.9701532   -1.7031352  0.070201952   -2.9701532     1.267018   547498 
 3681000    1.0012641   -2.9709028   -2.9709028    -1.702335  0.067786226   -2.9709028    1.2685679   547498 
 3682000     1.002837   -2.9723083   -2.9723083   -1.7017476  0.069211134   -2.9723083    1.2705607   547498 
 3683000    1.0028826   -2.9715585   -2.9715585   -1.7009401   0.06463203   -2.9715585    1.2706184   547498 
 3684000    1.0029788   -2.9719001   -2.9719001   -1.7011598  0.060676233   -2.9719001    1.2707403   547498 
 3685000    1.0020213   -2.9704749   -2.9704749   -1.7009477  0.056828862   -2.9704749    1.2695272   547498 
 3686000    1.0015286   -2.9710565   -2.9710565   -1.7021536  0.061422694   -2.9710565    1.2689029   547498 
 3687000     1.003258    -2.972812    -2.972812    -1.701718  0.062131792    -2.972812     1.271094   547498 
 3688000    1.0024593   -2.9715162   -2.9715162    -1.701434  0.074028163   -2.9715162    1.2700822   547498 
 3689000    1.0013576   -2.9708298   -2.9708298   -1.7021435  0.071551326   -2.9708298    1.2686862   547498 
 3690000    1.0013904   -2.9708161   -2.9708161   -1.7020882  0.066283099   -2.9708161    1.2687278   547498 
 3691000    1.0012643   -2.9703639   -2.9703639   -1.7017957  0.071157884   -2.9703639    1.2685681   547498 
 3692000    1.0016416   -2.9709908   -2.9709908   -1.7019446  0.058570682   -2.9709908    1.2690462   547498 
 3693000    1.0006653   -2.9680135   -2.9680135   -1.7002043   0.06056581   -2.9680135    1.2678092   547498 
 3694000   0.99957038   -2.9672482   -2.9672482   -1.7008262  0.066396583   -2.9672482     1.266422   547498 
 3695000    1.0011568   -2.9697173   -2.9697173   -1.7012854  0.059538145   -2.9697173    1.2684319   547498 
 3696000    1.0007125    -2.968743    -2.968743    -1.700874  0.065803048    -2.968743     1.267869   547498 
 3697000    1.0014485   -2.9690753   -2.9690753   -1.7002738  0.062614902   -2.9690753    1.2688014   547498 
 3698000    1.0006527   -2.9684313   -2.9684313   -1.7006381  0.060570774   -2.9684313    1.2677932   547498 
 3699000    1.0014631   -2.9685771   -2.9685771   -1.6997572  0.059476908   -2.9685771    1.2688199   547498 
 3700000    1.0009366   -2.9688277   -2.9688277   -1.7006747  0.066306733   -2.9688277     1.268153   547498 
 3701000    1.0012748   -2.9681319   -2.9681319   -1.6995505  0.069236641   -2.9681319    1.2685814   547498 
 3702000    1.0015419    -2.968644    -2.968644   -1.6997242  0.064222368    -2.968644    1.2689198   547498 
 3703000    1.0003718   -2.9670636   -2.9670636   -1.6996263  0.065007989   -2.9670636    1.2674374   547498 
 3704000    1.0015167   -2.9694461   -2.9694461   -1.7005582  0.066664186   -2.9694461    1.2688879   547498 
 3705000    1.0011507   -2.9672242   -2.9672242   -1.6987999  0.056813272   -2.9672242    1.2684242   547498 
 3706000    1.0014273   -2.9682113   -2.9682113   -1.6994367   0.05823236   -2.9682113    1.2687747   547498 
 3707000    1.0014868   -2.9687113   -2.9687113   -1.6998613  0.068127212   -2.9687113      1.26885   547498 
 3708000    1.0011897   -2.9660997   -2.9660997   -1.6976261  0.061847673   -2.9660997    1.2684736   547498 
 3709000    1.0010041    -2.966114    -2.966114   -1.6978756  0.065300399    -2.966114    1.2682384   547498 
 3710000    1.0005335   -2.9657773   -2.9657773   -1.6981351  0.061778462   -2.9657773    1.2676422   547498 
 3711000    1.0015777    -2.967023    -2.967023   -1.6980579  0.062883061    -2.967023    1.2689651   547498 
 3712000    1.0010999    -2.966207    -2.966207   -1.6978471   0.06258401    -2.966207    1.2683599   547498 
 3713000     1.000158   -2.9656134   -2.9656134    -1.698447   0.06448331   -2.9656134    1.2671664   547498 
 3714000    1.0017177   -2.9669206   -2.9669206   -1.6977781  0.066811127   -2.9669206    1.2691425   547498 
 3715000    1.0022726   -2.9668992   -2.9668992   -1.6970537  0.069147897   -2.9668992    1.2698455   547498 
 3716000    1.0018579   -2.9668983   -2.9668983   -1.6975782   0.06492955   -2.9668983    1.2693201   547498 
 3717000    1.0023057   -2.9678765   -2.9678765   -1.6979889   0.05644399   -2.9678765    1.2698876   547498 
 3718000    1.0016541   -2.9662337   -2.9662337   -1.6971718  0.061275804   -2.9662337    1.2690619   547498 
 3719000    1.0018964   -2.9671417   -2.9671417   -1.6977728  0.065867043   -2.9671417    1.2693689   547498 
 3720000    1.0003945   -2.9658426   -2.9658426   -1.6983765  0.065539863   -2.9658426    1.2674661   547498 
 3721000    1.0005624   -2.9655778   -2.9655778    -1.697899  0.067254506   -2.9655778    1.2676788   547498 
 3722000    1.0014564   -2.9662884   -2.9662884   -1.6974769  0.064013304   -2.9662884    1.2688115   547498 
 3723000    1.0026655   -2.9684351   -2.9684351   -1.6980918  0.069863089   -2.9684351    1.2703433   547498 
 3724000    1.0021137   -2.9674249   -2.9674249   -1.6977806  0.064829909   -2.9674249    1.2696443   547498 
 3725000    1.0008819   -2.9662905   -2.9662905   -1.6982068  0.076207265   -2.9662905    1.2680837   547498 
 3726000    1.0012105   -2.9658252   -2.9658252   -1.6973253  0.064636493   -2.9658252    1.2684999   547498 
 3727000    1.0016951   -2.9670801   -2.9670801   -1.6979662  0.069859739   -2.9670801    1.2691138   547498 
 3728000    1.0024183   -2.9676567   -2.9676567   -1.6976265  0.064235426   -2.9676567    1.2700301   547498 
 3729000     1.001615   -2.9663665   -2.9663665   -1.6973541  0.061437245   -2.9663665    1.2690124   547498 
 3730000    1.0023417   -2.9672948   -2.9672948   -1.6973616  0.057431532   -2.9672948    1.2699332   547498 
 3731000    1.0010044   -2.9663191   -2.9663191   -1.6980803  0.076072132   -2.9663191    1.2682388   547498 
 3732000    1.0030769   -2.9682788   -2.9682788   -1.6974142   0.06066193   -2.9682788    1.2708647   547498 
 3733000    1.0049882   -2.9695128   -2.9695128   -1.6962268  0.079010282   -2.9695128    1.2732861   547498 
 3734000    1.0050142   -2.9691252   -2.9691252    -1.695806  0.069823565   -2.9691252    1.2733191   547498 
 3735000    1.0024179   -2.9675704   -2.9675704   -1.6975407  0.064980652   -2.9675704    1.2700297   547498 
 3736000    1.0034768   -2.9696053   -2.9696053    -1.698234  0.073263341   -2.9696053    1.2713713   547498 
 3737000    1.0035672   -2.9692274   -2.9692274   -1.6977417   0.06422324   -2.9692274    1.2714858   547498 
 3738000    1.0024222   -2.9686127   -2.9686127   -1.6985775  0.069299875   -2.9686127    1.2700351   547498 
 3739000    1.0027575   -2.9684646   -2.9684646   -1.6980046  0.069950194   -2.9684646      1.27046   547498 
 3740000    1.0021225   -2.9675154   -2.9675154   -1.6978599  0.070908258   -2.9675154    1.2696554   547498 
 3741000    1.0035708   -2.9694467   -2.9694467   -1.6979563  0.057674461   -2.9694467    1.2714904   547498 
 3742000    1.0021936   -2.9679088   -2.9679088   -1.6981634  0.063904732   -2.9679088    1.2697454   547498 
 3743000    1.0023584   -2.9679663   -2.9679663    -1.698012  0.063449399   -2.9679663    1.2699543   547498 
 3744000    1.0015756    -2.967099    -2.967099   -1.6981364   0.06712529    -2.967099    1.2689625   547498 
 3745000     1.002844   -2.9688785   -2.9688785    -1.698309  0.064043328   -2.9688785    1.2705695   547498 
 3746000    1.0011703   -2.9662349   -2.9662349    -1.697786  0.069529191   -2.9662349     1.268449   547498 
 3747000    1.0015145   -2.9666492   -2.9666492   -1.6977642  0.063603212   -2.9666492     1.268885   547498 
 3748000    1.0013853   -2.9651253   -2.9651253   -1.6964039  0.069319291   -2.9651253    1.2687214   547498 
 3749000    1.0024125   -2.9660185   -2.9660185   -1.6959956  0.069023971   -2.9660185    1.2700229   547498 
 3750000    1.0027902   -2.9666849   -2.9666849   -1.6961836  0.065987405   -2.9666849    1.2705013   547498 
 3751000    1.0028672   -2.9666034   -2.9666034   -1.6960045  0.067183657   -2.9666034    1.2705989   547498 
 3752000    1.0030204   -2.9671431   -2.9671431   -1.6963501  0.062756803   -2.9671431     1.270793   547498 
 3753000    1.0022085    -2.967532    -2.967532   -1.6977676  0.066421857    -2.967532    1.2697644   547498 
 3754000    1.0034287   -2.9687042   -2.9687042   -1.6973939  0.061728287   -2.9687042    1.2713104   547498 
 3755000    1.0034282   -2.9685885   -2.9685885   -1.6972788  0.068201523   -2.9685885    1.2713097   547498 
 3756000    1.0025334   -2.9676589   -2.9676589   -1.6974829  0.073751281   -2.9676589     1.270176   547498 
 3757000    1.0030872   -2.9687414   -2.9687414   -1.6978637  0.060066659   -2.9687414    1.2708777   547498 
 3758000    1.0029898   -2.9694022   -2.9694022    -1.698648   0.06670816   -2.9694022    1.2707542   547498 
 3759000    1.0029178   -2.9691963   -2.9691963   -1.6985333  0.069336133   -2.9691963     1.270663   547498 
 3760000    1.0031295   -2.9696314   -2.9696314   -1.6987002  0.067239097   -2.9696314    1.2709312   547498 
 3761000    1.0035689   -2.9702117   -2.9702117   -1.6987237  0.068451024   -2.9702117     1.271488   547498 
 3762000    1.0038459   -2.9698814   -2.9698814   -1.6980425  0.061720653   -2.9698814     1.271839   547498 
 3763000    1.0035308   -2.9693208   -2.9693208   -1.6978811  0.085245594   -2.9693208    1.2714397   547498 
 3764000    1.0035401   -2.9694014   -2.9694014   -1.6979499  0.070546635   -2.9694014    1.2714515   547498 
 3765000    1.0028845   -2.9689886   -2.9689886   -1.6983678  0.067111237   -2.9689886    1.2706209   547498 
 3766000    1.0017242   -2.9681291   -2.9681291   -1.6989782  0.076214757   -2.9681291    1.2691508   547498 
 3767000    1.0043534   -2.9704928   -2.9704928   -1.6980109  0.078392512   -2.9704928    1.2724819   547498 
 3768000    1.0032838   -2.9697933   -2.9697933   -1.6986666  0.066636083   -2.9697933    1.2711267   547498 
 3769000    1.0038709   -2.9709504   -2.9709504   -1.6990798  0.068167564   -2.9709504    1.2718706   547498 
 3770000    1.0021698    -2.968347    -2.968347   -1.6986317  0.072179995    -2.968347    1.2697154   547498 
 3771000     1.003622   -2.9711653   -2.9711653     -1.69961  0.077167058   -2.9711653    1.2715553   547498 
 3772000    1.0027409   -2.9700467   -2.9700467   -1.6996078  0.064672359   -2.9700467    1.2704389   547498 
 3773000    1.0043273   -2.9716021   -2.9716021   -1.6991533  0.066357224   -2.9716021    1.2724488   547498 
 3774000    1.0037214   -2.9707483   -2.9707483   -1.6990671  0.080859566   -2.9707483    1.2716812   547498 
 3775000     1.003624   -2.9720336   -2.9720336   -1.7004758  0.067500431   -2.9720336    1.2715578   547498 
 3776000      1.00386   -2.9720509   -2.9720509   -1.7001942  0.057551975   -2.9720509    1.2718567   547498 
 3777000    1.0015029    -2.969487    -2.969487   -1.7006166  0.060247877    -2.969487    1.2688704   547498 
 3778000    1.0020306   -2.9694983   -2.9694983   -1.6999593  0.058910244   -2.9694983     1.269539   547498 
 3779000    1.0034634   -2.9720323   -2.9720323    -1.700678  0.066416797   -2.9720323    1.2713543   547498 
 3780000    1.0031184   -2.9699425   -2.9699425   -1.6990253   0.07215535   -2.9699425    1.2709172   547498 
 3781000     1.003969   -2.9712291   -2.9712291   -1.6992342  0.072295658   -2.9712291    1.2719949   547498 
 3782000    1.0030478   -2.9698702   -2.9698702   -1.6990424  0.070400889   -2.9698702    1.2708277   547498 
 3783000    1.0025141    -2.968903    -2.968903   -1.6987515  0.065581919    -2.968903    1.2701515   547498 
 3784000    1.0038106   -2.9703788   -2.9703788   -1.6985846  0.065201363   -2.9703788    1.2717942   547498 
 3785000     1.004484   -2.9719299   -2.9719299   -1.6992826  0.065377659   -2.9719299    1.2726473   547498 
 3786000    1.0035221   -2.9710353   -2.9710353   -1.6996067  0.071172713   -2.9710353    1.2714287   547498 
 3787000    1.0028679   -2.9701984   -2.9701984   -1.6995986  0.066285822   -2.9701984    1.2705998   547498 
 3788000    1.0030045   -2.9700042   -2.9700042   -1.6992314  0.068883171   -2.9700042    1.2707728   547498 
 3789000    1.0042462   -2.9712683   -2.9712683   -1.6989222  0.063774533   -2.9712683     1.272346   547498 
 3790000    1.0040348   -2.9713599   -2.9713599   -1.6992817  0.064031382   -2.9713599    1.2720783   547498 
 3791000    1.0034196   -2.9703932   -2.9703932   -1.6990944  0.069617059   -2.9703932    1.2712988   547498 
 3792000    1.0032416   -2.9695717   -2.9695717   -1.6984985  0.061590447   -2.9695717    1.2710732   547498 
 3793000    1.0028523    -2.968915    -2.968915   -1.6983349  0.063928296    -2.968915    1.2705801   547498 
 3794000    1.0029495   -2.9685549   -2.9685549   -1.6978517  0.065087826   -2.9685549    1.2707032   547498 
 3795000    1.0025781   -2.9684918   -2.9684918   -1.6982592  0.070378018   -2.9684918    1.2702326   547498 
 3796000    1.0009325   -2.9655469   -2.9655469   -1.6973992  0.076361241   -2.9655469    1.2681477   547498 
 3797000    1.0031412   -2.9684857   -2.9684857   -1.6975396  0.060278395   -2.9684857    1.2709461   547498 
 3798000    1.0028064     -2.96753     -2.96753   -1.6970081  0.075934613     -2.96753    1.2705219   547498 
 3799000    1.0032046   -2.9674331   -2.9674331   -1.6964067  0.061102885   -2.9674331    1.2710264   547498 
 3800000    1.0036603   -2.9686651   -2.9686651   -1.6970613  0.071056489   -2.9686651    1.2716038   547498 
 3801000    1.0024845   -2.9674301   -2.9674301    -1.697316  0.068403514   -2.9674301    1.2701141   547498 
 3802000    1.0043006   -2.9685312   -2.9685312   -1.6961162  0.071226608   -2.9685312     1.272415   547498 
 3803000    1.0036678   -2.9680155   -2.9680155   -1.6964022  0.067816483   -2.9680155    1.2716133   547498 
 3804000    1.0024062   -2.9651686   -2.9651686   -1.6951537  0.067052197   -2.9651686    1.2700149   547498 
 3805000    1.0026047   -2.9658772   -2.9658772   -1.6956109  0.064275405   -2.9658772    1.2702663   547498 
 3806000    1.0043347   -2.9682121   -2.9682121   -1.6957539  0.060778778   -2.9682121    1.2724582   547498 
 3807000    1.0027761   -2.9659761   -2.9659761   -1.6954927  0.062757722   -2.9659761    1.2704835   547498 
 3808000    1.0025034   -2.9661761   -2.9661761   -1.6960381  0.066798499   -2.9661761     1.270138   547498 
 3809000    1.0032526   -2.9676645   -2.9676645   -1.6965773  0.065498523   -2.9676645    1.2710873   547498 
 3810000    1.0019706   -2.9646151   -2.9646151   -1.6951521  0.064450401   -2.9646151     1.269463   547498 
 3811000    1.0024695   -2.9657151   -2.9657151   -1.6956201   0.07770018   -2.9657151     1.270095   547498 
 3812000    1.0027667   -2.9664494   -2.9664494   -1.6959779  0.060553482   -2.9664494    1.2704716   547498 
 3813000    1.0001663   -2.9634722   -2.9634722   -1.6962953  0.069853766   -2.9634722    1.2671769   547498 
 3814000     1.001439   -2.9654968   -2.9654968   -1.6967074  0.070253491   -2.9654968    1.2687894   547498 
 3815000    1.0019073   -2.9663086   -2.9663086   -1.6969258  0.070957714   -2.9663086    1.2693828   547498 
 3816000     1.001099   -2.9646295   -2.9646295   -1.6962708  0.070273789   -2.9646295    1.2683587   547498 
 3817000     1.003706   -2.9670692   -2.9670692   -1.6954075  0.051549833   -2.9670692    1.2716617   547498 
 3818000    1.0033466   -2.9668582   -2.9668582   -1.6956519  0.062886846   -2.9668582    1.2712063   547498 
 3819000    1.0031362   -2.9664318   -2.9664318   -1.6954921  0.067281003   -2.9664318    1.2709397   547498 
 3820000    1.0033074   -2.9656788   -2.9656788   -1.6945221  0.059012288   -2.9656788    1.2711567   547498 
 3821000    1.0031792   -2.9660924   -2.9660924   -1.6950982  0.072428041   -2.9660924    1.2709942   547498 
 3822000     1.003573   -2.9671768   -2.9671768   -1.6956836  0.071390915   -2.9671768    1.2714932   547498 
 3823000    1.0022719   -2.9649306   -2.9649306    -1.695086  0.084364019   -2.9649306    1.2698446   547498 
 3824000    1.0042147   -2.9681041   -2.9681041    -1.695798   0.06717348   -2.9681041    1.2723061   547498 
 3825000    1.0045375   -2.9688357   -2.9688357   -1.6961206   0.05835559   -2.9688357    1.2727152   547498 
 3826000    1.0037822   -2.9685188   -2.9685188   -1.6967606  0.068888585   -2.9685188    1.2717582   547498 
 3827000    1.0041269   -2.9694552   -2.9694552   -1.6972602  0.064047106   -2.9694552     1.272195   547498 
 3828000    1.0035261   -2.9685361   -2.9685361   -1.6971023  0.074458658   -2.9685361    1.2714338   547498 
 3829000    1.0022838   -2.9669976   -2.9669976   -1.6971378  0.067773533   -2.9669976    1.2698598   547498 
 3830000    1.0021696   -2.9672644   -2.9672644   -1.6975493  0.076050334   -2.9672644    1.2697151   547498 
 3831000    1.0035105    -2.968939    -2.968939    -1.697525  0.067218629    -2.968939    1.2714139   547498 
 3832000    1.0029204   -2.9685968   -2.9685968   -1.6979305  0.074435128   -2.9685968    1.2706663   547498 
 3833000    1.0021163   -2.9678208   -2.9678208   -1.6981733  0.061736846   -2.9678208    1.2696476   547498 
 3834000    1.0031274   -2.9693724   -2.9693724   -1.6984438  0.070300125   -2.9693724    1.2709286   547498 
 3835000    1.0028728   -2.9697187   -2.9697187   -1.6991127  0.068551829   -2.9697187     1.270606   547498 
 3836000    1.0026704   -2.9694048   -2.9694048   -1.6990552  0.061831753   -2.9694048    1.2703496   547498 
 3837000    1.0018999   -2.9687587   -2.9687587   -1.6993853  0.058281817   -2.9687587    1.2693734   547498 
 3838000    1.0033458   -2.9704025   -2.9704025   -1.6991972  0.071784233   -2.9704025    1.2712053   547498 
 3839000    1.0025736   -2.9685787   -2.9685787   -1.6983518  0.077896615   -2.9685787    1.2702269   547498 
 3840000    1.0034689   -2.9698211   -2.9698211   -1.6984598  0.072711483   -2.9698211    1.2713613   547498 
 3841000    1.0024459   -2.9690248   -2.9690248   -1.6989597   0.07343327   -2.9690248    1.2700651   547498 
 3842000    1.0023978   -2.9684912   -2.9684912    -1.698487  0.073769706   -2.9684912    1.2700042   547498 
 3843000    1.0034111   -2.9697098   -2.9697098   -1.6984217  0.067468863   -2.9697098     1.271288   547498 
 3844000    1.0029546   -2.9690549   -2.9690549   -1.6983453  0.071643782   -2.9690549    1.2707096   547498 
 3845000     1.002645   -2.9688659   -2.9688659   -1.6985485  0.067301351   -2.9688659    1.2703175   547498 
 3846000    1.0024731   -2.9688888   -2.9688888   -1.6987892  0.067378085   -2.9688888    1.2700996   547498 
 3847000    1.0034018   -2.9693752   -2.9693752   -1.6980989  0.072236099   -2.9693752    1.2712763   547498 
 3848000    1.0026232   -2.9681747   -2.9681747    -1.697885   0.05898456   -2.9681747    1.2702897   547498 
 3849000    1.0037602   -2.9683398   -2.9683398   -1.6966095  0.065552772   -2.9683398    1.2717303   547498 
 3850000    1.0033722   -2.9684189   -2.9684189   -1.6971802  0.072519667   -2.9684189    1.2712387   547498 
 3851000    1.0049742   -2.9703959   -2.9703959   -1.6971274  0.070576857   -2.9703959    1.2732685   547498 
 3852000    1.0033604   -2.9689478   -2.9689478   -1.6977239  0.071651375   -2.9689478    1.2712238   547498 
 3853000    1.0018952   -2.9669133   -2.9669133   -1.6975459  0.074713842   -2.9669133    1.2693674   547498 
 3854000    1.0012803   -2.9668436   -2.9668436   -1.6982552  0.068644985   -2.9668436    1.2685884   547498 
 3855000    1.0002399    -2.966479    -2.966479   -1.6992087  0.064149444    -2.966479    1.2672703   547498 
 3856000    1.0018414   -2.9681193   -2.9681193     -1.69882  0.066751286   -2.9681193    1.2692993   547498 
 3857000    1.0035464   -2.9696238   -2.9696238   -1.6981644  0.062079479   -2.9696238    1.2714594   547498 
 3858000    1.0017451   -2.9675619   -2.9675619   -1.6983846  0.064130916   -2.9675619    1.2691773   547498 
 3859000     1.002862   -2.9683918   -2.9683918   -1.6977995  0.069692396   -2.9683918    1.2705923   547498 
 3860000    1.0031231   -2.9692038   -2.9692038   -1.6982806  0.060434797   -2.9692038    1.2709231   547498 
 3861000    1.0020644   -2.9677899   -2.9677899   -1.6982081  0.064548126   -2.9677899    1.2695818   547498 
 3862000    1.0004236   -2.9655226   -2.9655226   -1.6980197  0.068848605   -2.9655226    1.2675029   547498 
 3863000    1.0017714   -2.9663544   -2.9663544   -1.6971439   0.05859534   -2.9663544    1.2692105   547498 
 3864000    1.0034722   -2.9680305   -2.9680305   -1.6966651  0.065131645   -2.9680305    1.2713654   547498 
 3865000    1.0028688   -2.9668701   -2.9668701   -1.6962692  0.061100704   -2.9668701    1.2706009   547498 
 3866000    1.0028222   -2.9676357   -2.9676357   -1.6970938  0.061706111   -2.9676357    1.2705419   547498 
 3867000    1.0005347   -2.9650075   -2.9650075   -1.6973638  0.061884454   -2.9650075    1.2676437   547498 
 3868000     1.000288   -2.9648948   -2.9648948   -1.6975637  0.056390609   -2.9648948    1.2673311   547498 
 3869000    1.0014115   -2.9668302   -2.9668302   -1.6980756  0.068645059   -2.9668302    1.2687546   547498 
 3870000    1.0009966   -2.9659124   -2.9659124   -1.6976835  0.077426795   -2.9659124     1.268229   547498 
 3871000    1.0021464   -2.9688456   -2.9688456   -1.6991599  0.063572854   -2.9688456    1.2696857   547498 
 3872000    1.0020075   -2.9675085   -2.9675085   -1.6979989  0.075654184   -2.9675085    1.2695097   547498 
 3873000    1.0014344   -2.9666793   -2.9666793   -1.6978957  0.068767901   -2.9666793    1.2687836   547498 
 3874000    1.0013223   -2.9667052   -2.9667052   -1.6980635  0.066006764   -2.9667052    1.2686416   547498 
 3875000    1.0022228   -2.9677794   -2.9677794   -1.6979969   0.07230832   -2.9677794    1.2697825   547498 
 3876000    1.0023188   -2.9693323   -2.9693323   -1.6994282  0.068619077   -2.9693323    1.2699041   547498 
 3877000    1.0020914   -2.9696556   -2.9696556   -1.7000396  0.062306005   -2.9696556     1.269616   547498 
 3878000     1.001997    -2.968235    -2.968235   -1.6987387  0.064182732    -2.968235    1.2694964   547498 
 3879000    1.0021158   -2.9681893   -2.9681893   -1.6985423  0.064401911   -2.9681893     1.269647   547498 
 3880000    1.0029772   -2.9697046   -2.9697046   -1.6989664  0.072498819   -2.9697046    1.2707382   547498 
 3881000    1.0030779   -2.9701096   -2.9701096   -1.6992437  0.063744241   -2.9701096    1.2708659   547498 
 3882000     1.004029   -2.9709024   -2.9709024   -1.6988315  0.078842627   -2.9709024    1.2720709   547498 
 3883000    1.0035513    -2.970194    -2.970194   -1.6987283  0.076040816    -2.970194    1.2714657   547498 
 3884000    1.0037118   -2.9706007   -2.9706007   -1.6989317  0.058504202   -2.9706007     1.271669   547498 
 3885000    1.0027203   -2.9697191   -2.9697191   -1.6993063    0.0699209   -2.9697191    1.2704128   547498 
 3886000    1.0045334   -2.9721174   -2.9721174   -1.6994074  0.065196586   -2.9721174    1.2727099   547498 
 3887000    1.0022564   -2.9695908   -2.9695908   -1.6997658  0.060336021   -2.9695908     1.269825   547498 
 3888000    1.0040502   -2.9708105   -2.9708105   -1.6987127   0.06458999   -2.9708105    1.2720977   547498 
 3889000    1.0047011   -2.9717958   -2.9717958   -1.6988733  0.060660944   -2.9717958    1.2729225   547498 
 3890000    1.0028881   -2.9697448   -2.9697448   -1.6991194  0.075604327   -2.9697448    1.2706254   547498 
 3891000    1.0046001   -2.9716389   -2.9716389   -1.6988445  0.069369401   -2.9716389    1.2727944   547498 
 3892000    1.0059183   -2.9733556   -2.9733556    -1.698891  0.068831059   -2.9733556    1.2744646   547498 
 3893000    1.0053201    -2.972532    -2.972532   -1.6988254  0.072607682    -2.972532    1.2737066   547498 
 3894000    1.0046909   -2.9714205   -2.9714205    -1.698511  0.068044874   -2.9714205    1.2729095   547498 
 3895000    1.0037897   -2.9706942   -2.9706942   -1.6989265  0.072816501   -2.9706942    1.2717677   547498 
 3896000    1.0029279   -2.9705177   -2.9705177   -1.6998419  0.065731331   -2.9705177    1.2706758   547498 
 3897000    1.0038805   -2.9714352   -2.9714352   -1.6995524  0.065014484   -2.9714352    1.2718828   547498 
 3898000    1.0038388   -2.9713809   -2.9713809   -1.6995511  0.061938285   -2.9713809    1.2718298   547498 
 3899000    1.0031137   -2.9704856   -2.9704856   -1.6995744  0.068540947   -2.9704856    1.2709112   547498 
 3900000     1.003078   -2.9696509   -2.9696509   -1.6987848   0.06333483   -2.9696509    1.2708661   547498 
 3901000    1.0027596   -2.9687426   -2.9687426     -1.69828  0.065419317   -2.9687426    1.2704626   547498 
 3902000    1.0029936   -2.9692574   -2.9692574   -1.6984983  0.065590251   -2.9692574    1.2707591   547498 
 3903000    1.0033811   -2.9701806   -2.9701806   -1.6989306  0.071029595   -2.9701806      1.27125   547498 
 3904000    1.0028697   -2.9697889   -2.9697889   -1.6991868  0.063316469   -2.9697889    1.2706021   547498 
 3905000    1.0025229   -2.9698144   -2.9698144   -1.6996517  0.069604574   -2.9698144    1.2701627   547498 
 3906000    1.0039779   -2.9707138   -2.9707138   -1.6987077  0.063978925   -2.9707138    1.2720061   547498 
 3907000    1.0035596   -2.9702618   -2.9702618   -1.6987856  0.057832624   -2.9702618    1.2714762   547498 
 3908000    1.0023571   -2.9681585   -2.9681585   -1.6982059  0.072435706   -2.9681585    1.2699526   547498 
 3909000    1.0030505   -2.9682008   -2.9682008   -1.6973697  0.067964545   -2.9682008    1.2708311   547498 
 3910000     1.003481   -2.9693131   -2.9693131   -1.6979365  0.061182318   -2.9693131    1.2713766   547498 
 3911000    1.0029611   -2.9684027   -2.9684027   -1.6976848  0.067889062   -2.9684027    1.2707179   547498 
 3912000    1.0010503   -2.9663621   -2.9663621   -1.6980651  0.062704616   -2.9663621    1.2682969   547498 
 3913000    1.0021993    -2.967569    -2.967569   -1.6978162   0.06345127    -2.967569    1.2697528   547498 
 3914000    1.0041676    -2.968414    -2.968414   -1.6961674   0.06624488    -2.968414    1.2722465   547498 
 3915000     1.003886   -2.9666629   -2.9666629   -1.6947733  0.068616354   -2.9666629    1.2718897   547498 
 3916000    1.0046137    -2.968301    -2.968301   -1.6954894  0.067602876    -2.968301    1.2728116   547498 
 3917000    1.0049029    -2.968011    -2.968011    -1.694833  0.072936956    -2.968011    1.2731781   547498 
 3918000    1.0044181   -2.9679135   -2.9679135   -1.6953496  0.062947134   -2.9679135    1.2725638   547498 
 3919000    1.0041029   -2.9691006   -2.9691006   -1.6969361  0.063695521   -2.9691006    1.2721645   547498 
 3920000    1.0029875   -2.9673605   -2.9673605   -1.6966092  0.064225528   -2.9673605    1.2707513   547498 
 3921000    1.0021661   -2.9668302   -2.9668302   -1.6971195   0.06229431   -2.9668302    1.2697107   547498 
 3922000    1.0046319   -2.9693975   -2.9693975   -1.6965628  0.073635015   -2.9693975    1.2728347   547498 
 3923000    1.0033403   -2.9680239   -2.9680239   -1.6968255  0.060408131   -2.9680239    1.2711984   547498 
 3924000    1.0015639   -2.9664301   -2.9664301   -1.6974823  0.067758767   -2.9664301    1.2689477   547498 
 3925000    1.0008423   -2.9669647   -2.9669647   -1.6989313  0.061967409   -2.9669647    1.2680334   547498 
 3926000    1.0010566   -2.9665527   -2.9665527   -1.6982478  0.062343097   -2.9665527     1.268305   547498 
 3927000    1.0019192    -2.967739    -2.967739   -1.6983412  0.059043765    -2.967739    1.2693978   547498 
 3928000    1.0003421   -2.9659062   -2.9659062   -1.6985065  0.063610008   -2.9659062    1.2673997   547498 
 3929000    1.0016953   -2.9672602   -2.9672602   -1.6981461  0.058576484   -2.9672602    1.2691141   547498 
 3930000    1.0018297   -2.9678422   -2.9678422   -1.6985578   0.06596551   -2.9678422    1.2692844   547498 
 3931000    1.0029434   -2.9693619   -2.9693619   -1.6986665  0.069390898   -2.9693619    1.2706954   547498 
 3932000    1.0031552   -2.9696672   -2.9696672   -1.6987034  0.071488508   -2.9696672    1.2709638   547498 
 3933000    1.0050131   -2.9716394   -2.9716394   -1.6983217  0.055515083   -2.9716394    1.2733177   547498 
 3934000    1.0031203   -2.9684773   -2.9684773   -1.6975577  0.064691259   -2.9684773    1.2709196   547498 
 3935000    1.0044579   -2.9696835   -2.9696835   -1.6970692  0.071552027   -2.9696835    1.2726143   547498 
 3936000    1.0027979   -2.9676124   -2.9676124   -1.6971013  0.066296066   -2.9676124    1.2705111   547498 
 3937000    1.0047054   -2.9693259   -2.9693259   -1.6963981  0.066419716   -2.9693259    1.2729279   547498 
 3938000    1.0044755   -2.9689539   -2.9689539   -1.6963173  0.071794179   -2.9689539    1.2726366   547498 
 3939000    1.0058239   -2.9704815   -2.9704815   -1.6961366  0.070331985   -2.9704815    1.2743449   547498 
 3940000    1.0044793   -2.9685289   -2.9685289   -1.6958876  0.074232975   -2.9685289    1.2726414   547498 
 3941000    1.0057538   -2.9707808   -2.9707808   -1.6965247  0.065756815   -2.9707808    1.2742561   547498 
 3942000    1.0038334   -2.9682537   -2.9682537   -1.6964306  0.072407217   -2.9682537    1.2718231   547498 
 3943000    1.0029288   -2.9674635   -2.9674635   -1.6967865  0.070893126   -2.9674635     1.270677   547498 
 3944000      1.00314   -2.9685435   -2.9685435    -1.697599   0.06449048   -2.9685435    1.2709445   547498 
 3945000    1.0039107   -2.9688941   -2.9688941   -1.6969732  0.065152718   -2.9688941     1.271921   547498 
 3946000     1.003184   -2.9687235   -2.9687235   -1.6977233  0.064626543   -2.9687235    1.2710003   547498 
 3947000    1.0023286   -2.9677073   -2.9677073   -1.6977908  0.061114936   -2.9677073    1.2699165   547498 
 3948000    1.0042807   -2.9693131   -2.9693131   -1.6969234  0.064051643   -2.9693131    1.2723898   547498 
 3949000    1.0038708   -2.9694562   -2.9694562   -1.6975857  0.062755905   -2.9694562    1.2718704   547498 
 3950000    1.0022583   -2.9671439   -2.9671439   -1.6973164  0.073997648   -2.9671439    1.2698275   547498 
 3951000     1.001713   -2.9662968   -2.9662968   -1.6971602  0.065610001   -2.9662968    1.2691366   547498 
 3952000    1.0025527   -2.9675196   -2.9675196   -1.6973192  0.072164678   -2.9675196    1.2702004   547498 
 3953000      1.00309    -2.968507    -2.968507   -1.6976258   0.06525615    -2.968507    1.2708812   547498 
 3954000    1.0031705   -2.9679424   -2.9679424   -1.6969593  0.062801106   -2.9679424    1.2709832   547498 
 3955000    1.0033169   -2.9676112   -2.9676112   -1.6964425  0.063463832   -2.9676112    1.2711687   547498 
 3956000    1.0033807   -2.9683151   -2.9683151   -1.6970656  0.066500605   -2.9683151    1.2712496   547498 
 3957000    1.0036455   -2.9690452   -2.9690452   -1.6974602  0.066028231   -2.9690452     1.271585   547498 
 3958000    1.0038017   -2.9694877   -2.9694877   -1.6977049  0.066211939   -2.9694877    1.2717829   547498 
 3959000    1.0032747   -2.9683156   -2.9683156   -1.6972004  0.068297848   -2.9683156    1.2711152   547498 
 3960000    1.0031209   -2.9673354   -2.9673354   -1.6964151     0.064632   -2.9673354    1.2709203   547498 
 3961000    1.0034523   -2.9669995   -2.9669995   -1.6956592  0.067443925   -2.9669995    1.2713402   547498 
 3962000    1.0036831   -2.9690088   -2.9690088   -1.6973762  0.056031453   -2.9690088    1.2716327   547498 
 3963000    1.0029383   -2.9681011   -2.9681011    -1.697412  0.065788825   -2.9681011     1.270689   547498 
 3964000    1.0026371   -2.9678503   -2.9678503   -1.6975429  0.062613684   -2.9678503    1.2703074   547498 
 3965000     1.002304    -2.968371    -2.968371   -1.6984856  0.072094113    -2.968371    1.2698854   547498 
 3966000     1.003394   -2.9697053   -2.9697053   -1.6984389  0.064774326   -2.9697053    1.2712663   547498 
 3967000    1.0037212   -2.9694972   -2.9694972   -1.6978163  0.074243978   -2.9694972    1.2716809   547498 
 3968000    1.0047811   -2.9718459   -2.9718459   -1.6988221  0.058912808   -2.9718459    1.2730238   547498 
 3969000    1.0014791   -2.9682835   -2.9682835   -1.6994432  0.063986535   -2.9682835    1.2688403   547498 
 3970000    1.0021388   -2.9690022   -2.9690022   -1.6993262  0.064136218   -2.9690022     1.269676   547498 
 3971000    1.0022888   -2.9695722   -2.9695722   -1.6997061  0.066002806   -2.9695722    1.2698661   547498 
 3972000    1.0047297   -2.9719657   -2.9719657   -1.6990071  0.059976746   -2.9719657    1.2729586   547498 
 3973000    1.0041299   -2.9707323   -2.9707323   -1.6985336  0.072935346   -2.9707323    1.2721987   547498 
 3974000     1.003718   -2.9708873   -2.9708873   -1.6992104  0.069840913   -2.9708873    1.2716768   547498 
 3975000    1.0032662    -2.969993    -2.969993   -1.6988886  0.065888369    -2.969993    1.2711044   547498 
 3976000    1.0034457   -2.9695923   -2.9695923   -1.6982604  0.070159736   -2.9695923    1.2713318   547498 
 3977000    1.0030842   -2.9691629   -2.9691629    -1.698289  0.067048782   -2.9691629    1.2708739   547498 
 3978000    1.0038859   -2.9710948   -2.9710948   -1.6992052  0.070366639   -2.9710948    1.2718896   547498 
 3979000    1.0038675   -2.9714113   -2.9714113   -1.6995451  0.064545398   -2.9714113    1.2718663   547498 
 3980000    1.0041695   -2.9712286   -2.9712286   -1.6989798  0.073680758   -2.9712286    1.2722489   547498 
 3981000    1.0044737    -2.972289    -2.972289   -1.6996547  0.073714554    -2.972289    1.2726343   547498 
 3982000     1.002429   -2.9699964   -2.9699964   -1.6999526  0.069294962   -2.9699964    1.2700438   547498 
 3983000    1.0018376   -2.9704586   -2.9704586   -1.7011642  0.074010856   -2.9704586    1.2692944   547498 
 3984000    1.0029066    -2.972144    -2.972144   -1.7014952  0.060571363    -2.972144    1.2706488   547498 
 3985000    1.0031229   -2.9717271   -2.9717271   -1.7008042  0.060288567   -2.9717271    1.2709229   547498 
 3986000    1.0024554   -2.9708505   -2.9708505   -1.7007733  0.065769639   -2.9708505    1.2700772   547498 
 3987000    1.0027391   -2.9712928   -2.9712928   -1.7008562  0.076886088   -2.9712928    1.2704367   547498 
 3988000      1.00286   -2.9718655   -2.9718655   -1.7012756  0.064569687   -2.9718655    1.2705898   547498 
 3989000    1.0016111   -2.9695853   -2.9695853   -1.7005779  0.070591096   -2.9695853    1.2690074   547498 
 3990000    1.0025869   -2.9697742   -2.9697742   -1.6995304  0.066026309   -2.9697742    1.2702438   547498 
 3991000    1.0029597   -2.9697746   -2.9697746   -1.6990584  0.059652758   -2.9697746    1.2707162   547498 
 3992000    1.0025717   -2.9691966   -2.9691966   -1.6989721  0.062152294   -2.9691966    1.2702245   547498 
 3993000    1.0025172   -2.9681885   -2.9681885   -1.6980331  0.058674987   -2.9681885    1.2701554   547498 
 3994000    1.0020457   -2.9668133   -2.9668133   -1.6972553  0.078802185   -2.9668133     1.269558   547498 
 3995000    1.0020764   -2.9673536   -2.9673536   -1.6977566  0.071177615   -2.9673536    1.2695969   547498 
 3996000    1.0041084   -2.9697456   -2.9697456   -1.6975741  0.060403108   -2.9697456    1.2721715   547498 
 3997000    1.0033563   -2.9685671   -2.9685671   -1.6973486  0.070028444   -2.9685671    1.2712186   547498 
 3998000    1.0029051   -2.9683447   -2.9683447   -1.6976978   0.06393941   -2.9683447    1.2706469   547498 
 3999000    1.0023198   -2.9681776   -2.9681776   -1.6982722  0.064669846   -2.9681776    1.2699054   547498 
 4000000    1.0027601   -2.9683226   -2.9683226   -1.6978594  0.065393496   -2.9683226    1.2704632   547498 
Loop time of 7968.29 on 288 procs for 4000000 steps with 547498 atoms

Performance: 216859.597 tau/day, 501.990 timesteps/s
98.6% CPU use with 288 MPI tasks x 1 OpenMP threads

MPI task timing breakdown:
Section |  min time  |  avg time  |  max time  |%varavg|  %CPU | %total
-----------------------------------------------------------------------
Pair    | 1446.6     | 1975.4     | 2312.3     | 558.4 |  98.7 | 24.79
Bond    | 2.6276     | 2.7562     | 2.8766     |   3.1 | 100.0 |  0.03
Neigh   | 1002.9     | 1491.2     | 2299.7     | 574.4 |  99.5 | 18.71
Comm    | 1602.5     | 2526.4     | 3437.8     | 832.5 |  98.4 | 31.71
Output  | 210.17     | 211.66     | 215.42     |  11.2 |  97.5 |  2.66
Modify  | 874.52     | 1665       | 2460.9     |1003.5 |  98.4 | 20.90
Other   |            | 95.82      |            |       |       |  1.20

Nlocal:        1901.03 ave        2529 max        1554 min
Histogram: 21 39 49 90 41 20 12 9 5 2
Nghost:        4588.85 ave        8467 max        2246 min
Histogram: 37 64 24 29 39 36 28 12 16 3
Neighs:        47508.6 ave       59219 max       23839 min
Histogram: 3 5 9 12 16 36 70 57 56 24

Total # of neighbors = 13682463
Ave neighs/atom = 24.990891
Ave special neighs/atom = 0.0000000
Neighbor list builds = 400000
Dangerous builds = 396000

Total wall time: 2:12:53
