LAMMPS (24 Dec 2020)
OMP_NUM_THREADS environment is not set. Defaulting to 1 thread. (src/comm.cpp:94)
  using 1 OpenMP thread(s) per MPI task
#Read the equilibrated lj fluid and add nanocubes

units           lj
atom_style      full
atom_modify     map array first cubes
dimension       3
boundary        p p f
pair_style      lj/cut/opt 2.5

variable        sigma           equal 1.0
variable        epsilon         equal 1.0
read_data	data.lj_eqil
Reading data file ...
  orthogonal box = (0.0000000 0.0000000 0.0000000) to (160.00000 160.00000 320.00000)
  5 by 4 by 12 MPI processor grid
  reading atoms ...
  3993600 atoms
  reading velocities ...
  3993600 velocities
Finding 1-2 1-3 1-4 neighbors ...
  special bond factors lj:    0        0        0       
  special bond factors coul:  0        0        0       
     0 = max # of 1-2 neighbors
     0 = max # of 1-3 neighbors
     0 = max # of 1-4 neighbors
     1 = max # of special neighbors
  special bonds CPU = 1.896 seconds
  read_data CPU = 13.019 seconds

group		solvent type 1
3993600 atoms in group solvent

read_data	data.512seed1 group cubes add append
Reading data file ...
  orthogonal box = (0.0000000 0.0000000 0.0000000) to (160.00000 160.00000 320.00000)
  5 by 4 by 12 MPI processor grid
  reading atoms ...
  585216 atoms
  reading velocities ...
  585216 velocities
Finding 1-2 1-3 1-4 neighbors ...
  special bond factors lj:    0        0        0       
  special bond factors coul:  0        0        0       
     0 = max # of 1-2 neighbors
     0 = max # of 1-3 neighbors
     0 = max # of 1-4 neighbors
     1 = max # of special neighbors
  special bonds CPU = 0.063 seconds
  read_data CPU = 1.785 seconds

neighbor      0.4 bin
neigh_modify  exclude molecule/intra cubes


pair_modify   shift yes

pair_coeff    1 1 1.0 1.0 #solvent
pair_coeff    2 2 0.6 1.0 #np
pair_coeff    3 3 0.0 0.0 0.0 #dummy
pair_coeff    2 3 0.0 0.0 0.0 #np dummy
pair_coeff    1 2 0.8 1.0 #np solvent
pair_coeff    1 3 0.0 0.0 0.0 #dummy solvent


# delete solvent where the cubes are
delete_atoms  overlap 1.0 solvent cubes
System init for delete_atoms ...
Neighbor list info ...
  update every 1 steps, delay 10 steps, check yes
  max neighbors/atom: 2000, page size: 100000
  master list distance cutoff = 2.9
  ghost atom cutoff = 2.9
  binsize = 1.45, bins = 111 111 221
  2 neighbor lists, perpetual/occasional/extra = 1 1 0
  (1) command delete_atoms, occasional
      attributes: full, newton on
      pair build: full/bin
      stencil: full/bin/3d
      bin: standard
  (2) pair lj/cut/opt, perpetual
      attributes: half, newton on
      pair build: half/bin/newton
      stencil: half/bin/3d/newton
      bin: standard
WARNING: Delete_atoms cutoff > minimum neighbor cutoff (src/delete_atoms.cpp:307)
WARNING: Ignoring 'compress yes' for molecular system (src/delete_atoms.cpp:125)
Deleted 345403 atoms, new total = 4233413



comm_modify   mode multi cutoff/multi 1 2.5 cutoff/multi 2 2.5 cutoff/multi 3 6.95

reset_timestep 	0

balance 	1.05 shift z 10 1.05
Balancing ...
Neighbor list info ...
  update every 1 steps, delay 10 steps, check yes
  max neighbors/atom: 2000, page size: 100000
  master list distance cutoff = 2.9
  ghost atom cutoff = 6.95
  binsize = 1.45, bins = 111 111 221
  1 neighbor lists, perpetual/occasional/extra = 1 0 0
  (1) pair lj/cut/opt, perpetual
      attributes: half, newton on
      pair build: half/bin/newton
      stencil: half/bin/3d/newton
      bin: standard
 rebalancing time: 0.024 seconds
  iteration count = 5
  initial/final maximal load/proc = 29955.000 23345.000
  initial/final imbalance factor  = 1.6982043 1.3234712
  x cuts: 0.0000000 0.20000000 0.40000000 0.60000000 0.80000000 1.0000000
  y cuts: 0.0000000 0.25000000 0.50000000 0.75000000 1.0000000
  z cuts: 0.0000000 0.054687500 0.10156250 0.15104167 0.20312500 0.25520833 0.32031250 0.37239583 0.42447917 0.46875000 0.53125000 0.59375000 1.0000000

####################### WALLS ###########################

variable       epsilonWall equal 2*${epsilon}
variable       epsilonWall equal 2*1

variable       cutoffTop   equal   0.7147*${sigma}
variable       cutoffTop   equal   0.7147*1

variable       cutoffLow   equal   3*${sigma}
variable       cutoffLow   equal   3*1

region         lowWall block EDGE EDGE EDGE EDGE EDGE 2


fix            topWall all wall/lj93 zhi EDGE 	       ${epsilonWall} ${sigma} ${cutoffTop} units box
fix            topWall all wall/lj93 zhi EDGE 	       2 ${sigma} ${cutoffTop} units box
fix            topWall all wall/lj93 zhi EDGE 	       2 1 ${cutoffTop} units box
fix            topWall all wall/lj93 zhi EDGE 	       2 1 0.7147 units box

fix            lowWall all wall/lj93 zlo EDGE                ${epsilonWall} ${sigma} ${cutoffLow} units box
fix            lowWall all wall/lj93 zlo EDGE                2 ${sigma} ${cutoffLow} units box
fix            lowWall all wall/lj93 zlo EDGE                2 1 ${cutoffLow} units box
fix            lowWall all wall/lj93 zlo EDGE                2 1 3 units box


######################  FIXES ############################


fix             1 cubes rigid/nvt/small molecule temp 0.8 0.8 0.25
  create bodies CPU = 0.025 seconds
  512 rigid bodies with 585216 atoms
  6.9282032 = max distance from body owner to body atom

fix             2 solvent nve


## Thermostat

region          regthermo block EDGE EDGE EDGE EDGE 0 20

group           thermo dynamic solvent region regthermo every 1000
dynamic group thermo defined

fix             3 thermo langevin ${startTemp} ${temp} 0.1 156453
fix             3 thermo langevin 0.8 ${temp} 0.1 156453
fix             3 thermo langevin 0.8 0.8 0.1 156453




#### Load balancing

fix             bal all balance 1000 1.05 shift z 10 1.05

############### Diagnostics and computes ###################

compute        com cubes          rigid/local   1 mol x y z
compute        quat cubes         rigid/local   1 mol quatw quati quatj quatk
compute 	cc2 cubes chunk/atom molecule

compute 	msd cubes msd/chunk cc2

thermo          1000
thermo_style    custom step temp epair evdwl etotal press pe ke vol

dump            1 all custom 100000 dump.lammpstrj id mol type x y z
dump            2 all image 10000 image.*.png type type

dump_modify     2 pad 8


dump		image cubes image 10000 image.*.png type type

dump_modify	2 pad 8

dump            3 all movie 5000 movie.avi type type
dump           com cubes local 1000 dump.*.xyz c_com[*]
dump           quat cubes      local 1000 dump.*.quat c_quat[*]


restart         500000 restart.dat
timestep        0.005
timer           full
New timer settings: style=full  mode=nosync  timeout=off

run            1000000
Per MPI rank memory allocation (min/avg/max) = 43.28 | 57.99 | 67.36 Mbytes
Step Temp E_pair E_vdwl TotEng Press PotEng KinEng Volume 
       0   0.77232217   -3.9085463   -3.9085463   -2.9099288 -0.011748461   -3.9085463   0.99861749      8192000 
    1000   0.77674805    -3.894689    -3.894689   -2.8903489 -0.018148927    -3.894689    1.0043402      8192000 
    2000    0.7774715   -3.8928975   -3.8928975   -2.8876219 -0.014762643   -3.8928975    1.0052756      8192000 
    3000   0.77985127    -3.893429    -3.893429   -2.8850763 -0.013724094    -3.893429    1.0083527      8192000 
    4000   0.78214609   -3.8952663   -3.8952663   -2.8839464 -0.0068717322   -3.8952663    1.0113199      8192000 
    5000   0.78479552   -3.8973433   -3.8973433   -2.8825977 0.0026586089   -3.8973433    1.0147456      8192000 
    6000   0.78734411   -3.8992179   -3.8992179    -2.881177  0.012886269   -3.8992179     1.018041      8192000 
    7000   0.79008546   -3.9024421   -3.9024421   -2.8808565  0.022374447   -3.9024421    1.0215855      8192000 
    8000   0.79172589   -3.9042914   -3.9042914   -2.8805848  0.035309821   -3.9042914    1.0237066      8192000 
    9000    0.7941442   -3.9070348   -3.9070348   -2.8802013   0.04478477   -3.9070348    1.0268335      8192000 
   10000   0.79541113   -3.9078754   -3.9078754   -2.8794037   0.05229394   -3.9078754    1.0284717      8192000 
   11000   0.79624019   -3.9088302   -3.9088302   -2.8792866  0.049847357   -3.9088302    1.0295436      8192000 
   12000   0.79637593   -3.9096079   -3.9096079   -2.8798887  0.047684646   -3.9096079    1.0297192      8192000 
   13000   0.79724385   -3.9102888   -3.9102888   -2.8794475  0.056664477   -3.9102888    1.0308414      8192000 
   14000   0.79710882   -3.9108555   -3.9108555   -2.8801887  0.057307641   -3.9108555    1.0306668      8192000 
   15000   0.79730952    -3.911023    -3.911023   -2.8800967  0.060421032    -3.911023    1.0309263      8192000 
   16000   0.79714746   -3.9110673   -3.9110673   -2.8803505  0.060615102   -3.9110673    1.0307167      8192000 
   17000   0.79724005    -3.910679    -3.910679   -2.8798425  0.063362274    -3.910679    1.0308365      8192000 
   18000   0.79703095   -3.9105594   -3.9105594   -2.8799933   0.05643588   -3.9105594    1.0305661      8192000 
   19000   0.79663099   -3.9092284   -3.9092284   -2.8791794  0.056193128   -3.9092284    1.0300489      8192000 
   20000   0.79640884    -3.908687    -3.908687   -2.8789253  0.055049414    -3.908687    1.0297617      8192000 
   21000   0.79539686    -3.906861    -3.906861   -2.8784078  0.049055639    -3.906861    1.0284532      8192000 
   22000   0.79496819   -3.9055124   -3.9055124   -2.8776135  0.042346121   -3.9055124    1.0278989      8192000 
   23000   0.79415675   -3.9038764   -3.9038764   -2.8770266  0.033148759   -3.9038764    1.0268497      8192000 
   24000   0.79233805   -3.9013011   -3.9013011   -2.8768029  0.032968807   -3.9013011    1.0244981      8192000 
   25000   0.79151358   -3.8993132   -3.8993132   -2.8758811  0.025240806   -3.8993132    1.0234321      8192000 
   26000   0.79037941   -3.8972494   -3.8972494   -2.8752838  0.018799512   -3.8972494    1.0219656      8192000 
   27000   0.78966867   -3.8958386   -3.8958386   -2.8747919  0.014371837   -3.8958386    1.0210466      8192000 
   28000    0.7886928   -3.8946273   -3.8946273   -2.8748425  0.016986495   -3.8946273    1.0197848      8192000 
   29000    0.7882262   -3.8932857   -3.8932857   -2.8741042  0.012527867   -3.8932857    1.0191815      8192000 
   30000   0.78795626   -3.8922535   -3.8922535    -2.873421 0.0059197492   -3.8922535    1.0188325      8192000 
   31000   0.78812542   -3.8916001   -3.8916001   -2.8725489  0.008289203   -3.8916001    1.0190512      8192000 
   32000   0.78785662   -3.8905343   -3.8905343   -2.8718307 0.0035976698   -3.8905343    1.0187036      8192000 
   33000   0.78812075   -3.8893636   -3.8893636   -2.8703185 0.0085713952   -3.8893636    1.0190452      8192000 
   34000   0.78826142    -3.889521    -3.889521    -2.870294 0.0043663328    -3.889521     1.019227      8192000 
   35000   0.78784872   -3.8887526   -3.8887526   -2.8700592  0.004727369   -3.8887526    1.0186934      8192000 
   36000   0.78848925   -3.8889678   -3.8889678   -2.8694462 0.0042613301   -3.8889678    1.0195216      8192000 
   37000   0.78879599   -3.8888675   -3.8888675   -2.8689493 0.0070023074   -3.8888675    1.0199183      8192000 
   38000   0.78880077   -3.8887027   -3.8887027   -2.8687782 0.0081889288   -3.8887027    1.0199244      8192000 
   39000   0.78930733   -3.8892424   -3.8892424   -2.8686629  0.010952525   -3.8892424    1.0205794      8192000 
   40000   0.79012956   -3.8899732   -3.8899732   -2.8683306  0.013869164   -3.8899732    1.0216426      8192000 
   41000   0.79046879   -3.8899851   -3.8899851   -2.8679039  0.016362561   -3.8899851    1.0220812      8192000 
   42000   0.79144695   -3.8912959   -3.8912959   -2.8679499  0.019422112   -3.8912959     1.023346      8192000 
   43000   0.79214155   -3.8917489   -3.8917489   -2.8675048  0.022829285   -3.8917489    1.0242441      8192000 
   44000   0.79290618   -3.8929745   -3.8929745   -2.8677418  0.027674742   -3.8929745    1.0252328      8192000 
   45000   0.79367174   -3.8939549   -3.8939549   -2.8677322  0.031325988   -3.8939549    1.0262226      8192000 
   46000    0.7946172   -3.8946493   -3.8946493   -2.8672042  0.036080418   -3.8946493    1.0274451      8192000 
   47000   0.79524305   -3.8958643   -3.8958643     -2.86761  0.036709664   -3.8958643    1.0282543      8192000 
   48000   0.79553997    -3.896344    -3.896344   -2.8677057  0.035236393    -3.896344    1.0286383      8192000 
   49000   0.79537107   -3.8960925   -3.8960925   -2.8676726  0.041820873   -3.8960925    1.0284199      8192000 
   50000   0.79566371    -3.896544    -3.896544   -2.8677458  0.037745187    -3.896544    1.0287982      8192000 
   51000   0.79604972   -3.8966434   -3.8966434    -2.867346   0.03926624   -3.8966434    1.0292974      8192000 
   52000   0.79558631   -3.8966219   -3.8966219   -2.8679237  0.042094994   -3.8966219    1.0286982      8192000 
   53000    0.7951925   -3.8958563   -3.8958563   -2.8676673  0.038508365   -3.8958563     1.028189      8192000 
   54000   0.79515814   -3.8957692   -3.8957692   -2.8676246  0.041511974   -3.8957692    1.0281445      8192000 
   55000   0.79518806   -3.8957064   -3.8957064   -2.8675232  0.037771553   -3.8957064    1.0281832      8192000 
   56000   0.79493995   -3.8950586   -3.8950586   -2.8671962  0.039070258   -3.8950586    1.0278624      8192000 
   57000   0.79470087   -3.8948608   -3.8948608   -2.8673075  0.034861693   -3.8948608    1.0275533      8192000 
   58000   0.79398087   -3.8942671   -3.8942671   -2.8676448  0.033543693   -3.8942671    1.0266223      8192000 
   59000   0.79414484    -3.893737    -3.893737   -2.8669027  0.029885941    -3.893737    1.0268343      8192000 
   60000   0.79381727   -3.8930216   -3.8930216   -2.8666109  0.028295828   -3.8930216    1.0264108      8192000 
   61000   0.79270011   -3.8912144   -3.8912144   -2.8662481   0.02841206   -3.8912144    1.0249663      8192000 
   62000   0.79243096   -3.8906185   -3.8906185   -2.8660003  0.022664645   -3.8906185    1.0246183      8192000 
   63000   0.79198577   -3.8900348   -3.8900348   -2.8659921  0.019431604   -3.8900348    1.0240426      8192000 
   64000   0.79210338   -3.8892523   -3.8892523   -2.8650576  0.017377062   -3.8892523    1.0241947      8192000 
   65000   0.79140496   -3.8882745   -3.8882745   -2.8649829  0.021701993   -3.8882745    1.0232917      8192000 
   66000   0.79128817   -3.8880727   -3.8880727   -2.8649321  0.014985569   -3.8880727    1.0231407      8192000 
   67000   0.79131288   -3.8873539   -3.8873539   -2.8641813  0.014868266   -3.8873539    1.0231726      8192000 
   68000   0.79122537   -3.8871464   -3.8871464    -2.864087   0.01661259   -3.8871464    1.0230594      8192000 
   69000   0.79131947   -3.8868285   -3.8868285   -2.8636474  0.018114991   -3.8868285    1.0231811      8192000 
   70000   0.79114386   -3.8864176   -3.8864176   -2.8634635  0.015157192   -3.8864176    1.0229541      8192000 
   71000   0.79172678   -3.8864759   -3.8864759   -2.8627681   0.01793536   -3.8864759    1.0237078      8192000 
   72000   0.79155478   -3.8863563   -3.8863563   -2.8628709   0.01945157   -3.8863563    1.0234854      8192000 
   73000   0.79154561    -3.886225    -3.886225   -2.8627515  0.017559165    -3.886225    1.0234735      8192000 
   74000    0.7921128   -3.8866716   -3.8866716   -2.8624647  0.015755044   -3.8866716    1.0242069      8192000 
   75000   0.79231104   -3.8866724   -3.8866724   -2.8622092  0.021299036   -3.8866724    1.0244632      8192000 
   76000   0.79245939   -3.8866457   -3.8866457   -2.8619907  0.018404065   -3.8866457     1.024655      8192000 
   77000   0.79256098   -3.8870722   -3.8870722   -2.8622858  0.020873294   -3.8870722    1.0247864      8192000 
   78000   0.79289294   -3.8869047   -3.8869047   -2.8616891  0.020644581   -3.8869047    1.0252156      8192000 
   79000   0.79336999   -3.8873064   -3.8873064    -2.861474  0.025283988   -3.8873064    1.0258325      8192000 
   80000   0.79426435   -3.8884489   -3.8884489     -2.86146  0.022817614   -3.8884489    1.0269889      8192000 
   81000   0.79380205   -3.8883452   -3.8883452   -2.8619541  0.027694421   -3.8883452    1.0263911      8192000 
   82000   0.79474583   -3.8889284   -3.8889284    -2.861317   0.02538313   -3.8889284    1.0276114      8192000 
   83000   0.79472277   -3.8890088   -3.8890088   -2.8614272  0.029638356   -3.8890088    1.0275816      8192000 
   84000   0.79469132    -3.889055    -3.889055    -2.861514  0.031434882    -3.889055    1.0275409      8192000 
   85000   0.79510146   -3.8894933   -3.8894933   -2.8614221  0.028461103   -3.8894933    1.0280713      8192000 
   86000   0.79529361   -3.8893218   -3.8893218   -2.8610021   0.03056987   -3.8893218    1.0283197      8192000 
   87000   0.79502425   -3.8890232   -3.8890232   -2.8610518  0.031236219   -3.8890232    1.0279714      8192000 
   88000   0.79468696   -3.8887249   -3.8887249   -2.8611896  0.032864912   -3.8887249    1.0275353      8192000 
   89000   0.79470652   -3.8888755   -3.8888755   -2.8613149  0.032316655   -3.8888755    1.0275606      8192000 
   90000    0.7946981   -3.8888569   -3.8888569   -2.8613071  0.031499828   -3.8888569    1.0275497      8192000 
   91000   0.79481183   -3.8890254   -3.8890254   -2.8613286   0.03199904   -3.8890254    1.0276968      8192000 
   92000   0.79464286   -3.8889108   -3.8889108   -2.8614325  0.028334185   -3.8889108    1.0274783      8192000 
   93000   0.79449998   -3.8881398   -3.8881398   -2.8608463  0.029513506   -3.8881398    1.0272935      8192000 
   94000   0.79438484   -3.8876231   -3.8876231   -2.8604784  0.031043385   -3.8876231    1.0271447      8192000 
   95000    0.7944378    -3.887925    -3.887925   -2.8607118  0.027866615    -3.887925    1.0272131      8192000 
   96000   0.79436663   -3.8875834   -3.8875834   -2.8604623  0.027113463   -3.8875834    1.0271211      8192000 
   97000   0.79400264   -3.8869572   -3.8869572   -2.8603068  0.025527914   -3.8869572    1.0266505      8192000 
   98000   0.79413248   -3.8866855   -3.8866855   -2.8598671  0.025605367   -3.8866855    1.0268184      8192000 
   99000   0.79317877   -3.8852904   -3.8852904   -2.8597052  0.025808268   -3.8852904    1.0255852      8192000 
  100000   0.79370382   -3.8858945   -3.8858945   -2.8596304  0.022517346   -3.8858945    1.0262641      8192000 
  101000   0.79330942   -3.8852345   -3.8852345   -2.8594803  0.023227171   -3.8852345    1.0257541      8192000 
  102000   0.79334659   -3.8846227   -3.8846227   -2.8588205  0.020737133   -3.8846227    1.0258022      8192000 
  103000   0.79286618   -3.8840979   -3.8840979   -2.8589168  0.019061977   -3.8840979     1.025181      8192000 
  104000   0.79327072   -3.8843976   -3.8843976   -2.8586935  0.019748727   -3.8843976    1.0257041      8192000 
  105000   0.79298344   -3.8837819   -3.8837819   -2.8584492  0.018091793   -3.8837819    1.0253326      8192000 
  106000    0.7929154   -3.8837048   -3.8837048   -2.8584601  0.019457356   -3.8837048    1.0252447      8192000 
  107000   0.79302932   -3.8836178   -3.8836178   -2.8582258  0.018557723   -3.8836178     1.025392      8192000 
  108000   0.79247884   -3.8830945   -3.8830945   -2.8584143  0.020521992   -3.8830945    1.0246802      8192000 
  109000   0.79323095   -3.8836317   -3.8836317    -2.857979  0.015841507   -3.8836317    1.0256527      8192000 
  110000   0.79293134     -3.88331     -3.88331   -2.8580447  0.019769431     -3.88331    1.0252653      8192000 
  111000   0.79315809   -3.8832454   -3.8832454   -2.8576869  0.022287269   -3.8832454    1.0255585      8192000 
  112000    0.7930869   -3.8829249   -3.8829249   -2.8574585  0.019903946   -3.8829249    1.0254664      8192000 
  113000   0.79342759   -3.8836485   -3.8836485   -2.8577415   0.01896896   -3.8836485    1.0259069      8192000 
  114000   0.79379738   -3.8834784   -3.8834784   -2.8570933  0.021979821   -3.8834784    1.0263851      8192000 
  115000   0.79428743   -3.8840869   -3.8840869   -2.8570682  0.024303517   -3.8840869    1.0270187      8192000 
  116000   0.79400946    -3.883459    -3.883459   -2.8567997  0.025791023    -3.883459    1.0266593      8192000 
  117000   0.79421099   -3.8837737   -3.8837737   -2.8568538  0.028621033   -3.8837737    1.0269199      8192000 
  118000   0.79488353   -3.8843221   -3.8843221   -2.8565326  0.024958963   -3.8843221    1.0277895      8192000 
  119000   0.79473831   -3.8848289   -3.8848289   -2.8572272  0.024057427   -3.8848289    1.0276017      8192000 
  120000   0.79433764   -3.8839308   -3.8839308   -2.8568472  0.028045182   -3.8839308    1.0270836      8192000 
  121000   0.79457516   -3.8840265   -3.8840265   -2.8566358  0.032795351   -3.8840265    1.0273907      8192000 
  122000   0.79513473   -3.8849655   -3.8849655   -2.8568512  0.026351106   -3.8849655    1.0281143      8192000 
  123000   0.79465415   -3.8842375   -3.8842375   -2.8567446  0.027890221   -3.8842375    1.0274929      8192000 
  124000   0.79464914    -3.884271    -3.884271   -2.8567846  0.027788293    -3.884271    1.0274864      8192000 
  125000   0.79507701     -3.88494     -3.88494   -2.8569003  0.027311325     -3.88494    1.0280396      8192000 
  126000   0.79471952   -3.8845161   -3.8845161   -2.8569387  0.028470638   -3.8845161    1.0275774      8192000 
  127000   0.79486209   -3.8846408   -3.8846408   -2.8568791  0.027423169   -3.8846408    1.0277617      8192000 
  128000   0.79529113   -3.8849067   -3.8849067   -2.8565902  0.028831719   -3.8849067    1.0283165      8192000 
  129000   0.79445686   -3.8841245   -3.8841245   -2.8568867  0.029430394   -3.8841245    1.0272378      8192000 
  130000   0.79498984   -3.8844172   -3.8844172   -2.8564903  0.024949998   -3.8844172    1.0279269      8192000 
  131000   0.79440283   -3.8836036   -3.8836036   -2.8564357  0.030374562   -3.8836036    1.0271679      8192000 
  132000   0.79455468   -3.8835833   -3.8835833    -2.856219  0.026206107   -3.8835833    1.0273643      8192000 
  133000   0.79387223   -3.8829184   -3.8829184   -2.8564365  0.026552065   -3.8829184    1.0264819      8192000 
  134000   0.79428627   -3.8833941   -3.8833941   -2.8563769   0.02298057   -3.8833941    1.0270172      8192000 
  135000    0.7943328   -3.8828565   -3.8828565   -2.8557791  0.024796168   -3.8828565    1.0270774      8192000 
  136000   0.79391299   -3.8822375   -3.8822375   -2.8557029  0.022463216   -3.8822375    1.0265346      8192000 
  137000   0.79428193   -3.8825331   -3.8825331   -2.8555215  0.022211192   -3.8825331    1.0270116      8192000 
  138000   0.79381474   -3.8820266   -3.8820266    -2.855619  0.024830517   -3.8820266    1.0264075      8192000 
  139000   0.79404338    -3.881854    -3.881854   -2.8551508  0.024298884    -3.881854    1.0267032      8192000 
  140000   0.79365245   -3.8815052   -3.8815052   -2.8553075  0.023441913   -3.8815052    1.0261977      8192000 
  141000   0.79417807   -3.8819963   -3.8819963    -2.855119  0.022541511   -3.8819963    1.0268773      8192000 
  142000   0.79378443   -3.8814736   -3.8814736   -2.8551053  0.023748345   -3.8814736    1.0263683      8192000 
  143000   0.79381993   -3.8814558   -3.8814558   -2.8550415  0.020863927   -3.8814558    1.0264142      8192000 
  144000   0.79355268   -3.8810205   -3.8810205   -2.8549519  0.020762906   -3.8810205    1.0260687      8192000 
  145000   0.79356044    -3.881043    -3.881043   -2.8549643   0.02102744    -3.881043    1.0260787      8192000 
  146000   0.79376432   -3.8813824   -3.8813824     -2.85504  0.020981796   -3.8813824    1.0263423      8192000 
  147000   0.79376932   -3.8809962   -3.8809962   -2.8546474  0.020483603   -3.8809962    1.0263488      8192000 
  148000   0.79373831   -3.8807851   -3.8807851   -2.8544764  0.023540659   -3.8807851    1.0263087      8192000 
  149000   0.79403255   -3.8811856   -3.8811856   -2.8544964  0.021687775   -3.8811856    1.0266892      8192000 
  150000   0.79436797    -3.881596    -3.881596   -2.8544732  0.023193719    -3.881596    1.0271229      8192000 
  151000   0.79444704   -3.8815571   -3.8815571    -2.854332  0.026006637   -3.8815571    1.0272251      8192000 
  152000    0.7947945   -3.8815746   -3.8815746   -2.8539003  0.026475899   -3.8815746    1.0276744      8192000 
  153000   0.79462743   -3.8813635   -3.8813635   -2.8539052  0.026795203   -3.8813635    1.0274583      8192000 
  154000   0.79506071   -3.8822042   -3.8822042   -2.8541856  0.022628051   -3.8822042    1.0280186      8192000 
  155000   0.79476857   -3.8816058   -3.8816058   -2.8539649  0.027506613   -3.8816058    1.0276408      8192000 
  156000    0.7951017   -3.8817146   -3.8817146   -2.8536431  0.027159433   -3.8817146    1.0280716      8192000 
  157000   0.79477658   -3.8817398   -3.8817398   -2.8540886  0.024637224   -3.8817398    1.0276512      8192000 
  158000   0.79507044   -3.8814509   -3.8814509   -2.8534197  0.025506824   -3.8814509    1.0280312      8192000 
  159000   0.79520069   -3.8815761   -3.8815761   -2.8533766  0.026790624   -3.8815761    1.0281996      8192000 
  160000   0.79528323    -3.881962    -3.881962   -2.8536558  0.024537091    -3.881962    1.0283063      8192000 
  161000    0.7950799   -3.8819091   -3.8819091   -2.8538657  0.027028333   -3.8819091    1.0280434      8192000 
  162000   0.79537398   -3.8820135   -3.8820135   -2.8535899   0.02714388   -3.8820135    1.0284236      8192000 
  163000   0.79531648   -3.8817383   -3.8817383    -2.853389  0.025738444   -3.8817383    1.0283493      8192000 
  164000   0.79479551   -3.8818604   -3.8818604   -2.8541848  0.027714151   -3.8818604    1.0276757      8192000 
  165000   0.79537985   -3.8819568   -3.8819568   -2.8535256  0.027013093   -3.8819568    1.0284312      8192000 
  166000   0.79508003   -3.8816733   -3.8816733   -2.8536297  0.025357851   -3.8816733    1.0280435      8192000 
  167000   0.79490136    -3.881562    -3.881562   -2.8537495  0.025930489    -3.881562    1.0278125      8192000 
  168000   0.79501777   -3.8809869   -3.8809869   -2.8530239  0.027465109   -3.8809869     1.027963      8192000 
  169000   0.79483162   -3.8809826   -3.8809826   -2.8532602  0.026082687   -3.8809826    1.0277224      8192000 
  170000   0.79523444    -3.881234    -3.881234   -2.8529907  0.025480343    -3.881234    1.0282432      8192000 
  171000   0.79489799   -3.8807924   -3.8807924   -2.8529842  0.026345675   -3.8807924    1.0278082      8192000 
  172000   0.79498506   -3.8810206   -3.8810206   -2.8530998  0.024513417   -3.8810206    1.0279207      8192000 
  173000   0.79470632   -3.8803049   -3.8803049   -2.8527445  0.023840662   -3.8803049    1.0275603      8192000 
  174000   0.79445931   -3.8805159   -3.8805159   -2.8532749    0.0227495   -3.8805159     1.027241      8192000 
  175000   0.79467464   -3.8801326   -3.8801326   -2.8526132  0.027747944   -3.8801326    1.0275194      8192000 
  176000   0.79431278   -3.8796877   -3.8796877   -2.8526362   0.02098506   -3.8796877    1.0270515      8192000 
  177000    0.7944392   -3.8799888   -3.8799888   -2.8527738  0.022468526   -3.8799888     1.027215      8192000 
  178000   0.79466724   -3.8799337   -3.8799337   -2.8524239  0.024547232   -3.8799337    1.0275098      8192000 
  179000   0.79422712   -3.8796986   -3.8796986   -2.8527578  0.024557117   -3.8796986    1.0269407      8192000 
  180000   0.79460133   -3.8799256   -3.8799256    -2.852501  0.022784269   -3.8799256    1.0274246      8192000 
  181000   0.79480343   -3.8800674   -3.8800674   -2.8523815  0.022739718   -3.8800674    1.0276859      8192000 
  182000   0.79489883   -3.8800538   -3.8800538   -2.8522445   0.02561225   -3.8800538    1.0278093      8192000 
  183000   0.79458295   -3.8796936   -3.8796936   -2.8522928  0.021413166   -3.8796936    1.0274008      8192000 
  184000    0.7945067   -3.8795396   -3.8795396   -2.8522374  0.024865927   -3.8795396    1.0273022      8192000 
  185000   0.79500091   -3.8797646   -3.8797646   -2.8518234  0.024400812   -3.8797646    1.0279412      8192000 
  186000   0.79499332   -3.8799696   -3.8799696   -2.8520382  0.022732159   -3.8799696    1.0279314      8192000 
  187000   0.79487966   -3.8797382   -3.8797382   -2.8519537  0.024173268   -3.8797382    1.0277845      8192000 
  188000   0.79508191   -3.8798099   -3.8798099   -2.8517639  0.025602414   -3.8798099     1.028046      8192000 
  189000    0.7948623   -3.8797838   -3.8797838   -2.8520218  0.024268443   -3.8797838     1.027762      8192000 
  190000   0.79548308   -3.8804417   -3.8804417    -2.851877  0.024918463   -3.8804417    1.0285647      8192000 
  191000   0.79510977   -3.8799469   -3.8799469   -2.8518649  0.026955427   -3.8799469     1.028082      8192000 
  192000   0.79551325   -3.8803103   -3.8803103   -2.8517066  0.023466584   -3.8803103    1.0286037      8192000 
  193000   0.79525669   -3.8801873   -3.8801873   -2.8519153  0.027448167   -3.8801873     1.028272      8192000 
  194000   0.79501271   -3.8798113   -3.8798113   -2.8518548  0.026779713   -3.8798113    1.0279565      8192000 
  195000   0.79572717   -3.8809394   -3.8809394   -2.8520591  0.023079498   -3.8809394    1.0288803      8192000 
  196000   0.79469806   -3.8796218   -3.8796218   -2.8520721  0.024429147   -3.8796218    1.0275497      8192000 
  197000   0.79536401   -3.8802957   -3.8802957    -2.851885  0.029190723   -3.8802957    1.0284107      8192000 
  198000   0.79466365   -3.8799633   -3.8799633   -2.8524582  0.027409529   -3.8799633    1.0275052      8192000 
  199000   0.79460938   -3.8795694   -3.8795694   -2.8521344   0.02587489   -3.8795694     1.027435      8192000 
  200000   0.79502569   -3.8801895   -3.8801895   -2.8522163  0.024401451   -3.8801895    1.0279733      8192000 
  201000   0.79511637   -3.8802784   -3.8802784   -2.8521879  0.024699156   -3.8802784    1.0280905      8192000 
  202000   0.79510593   -3.8803306   -3.8803306   -2.8522536  0.029244494   -3.8803306     1.028077      8192000 
  203000    0.7948309   -3.8801654   -3.8801654    -2.852444  0.025284946   -3.8801654    1.0277214      8192000 
  204000   0.79496205   -3.8798206   -3.8798206   -2.8519296  0.024658177   -3.8798206     1.027891      8192000 
  205000    0.7952144   -3.8801607   -3.8801607   -2.8519434  0.026204379   -3.8801607    1.0282173      8192000 
  206000   0.79492147   -3.8798906   -3.8798906   -2.8520521  0.024099605   -3.8798906    1.0278385      8192000 
  207000   0.79534408   -3.8804611   -3.8804611   -2.8520761  0.025527219   -3.8804611     1.028385      8192000 
  208000   0.79520878   -3.8800985   -3.8800985   -2.8518885  0.025266897   -3.8800985      1.02821      8192000 
  209000   0.79501538   -3.8798438   -3.8798438   -2.8518838  0.027927667   -3.8798438      1.02796      8192000 
  210000    0.7951621   -3.8804622   -3.8804622   -2.8523125  0.025942712   -3.8804622    1.0281497      8192000 
  211000   0.79499614   -3.8798509   -3.8798509   -2.8519159  0.025572414   -3.8798509    1.0279351      8192000 
  212000   0.79469234   -3.8797402   -3.8797402   -2.8521979  0.025493896   -3.8797402    1.0275423      8192000 
  213000   0.79498496   -3.8797963   -3.8797963   -2.8518757  0.025250128   -3.8797963    1.0279206      8192000 
  214000   0.79462209   -3.8792881   -3.8792881   -2.8518367  0.023950467   -3.8792881    1.0274514      8192000 
  215000   0.79468011   -3.8795719   -3.8795719   -2.8520454  0.025822497   -3.8795719    1.0275265      8192000 
  216000   0.79517206   -3.8798561   -3.8798561   -2.8516936  0.024102889   -3.8798561    1.0281625      8192000 
  217000   0.79525896   -3.8799206   -3.8799206   -2.8516457  0.029788708   -3.8799206    1.0282749      8192000 
  218000   0.79504178   -3.8795954   -3.8795954   -2.8516013  0.025283436   -3.8795954    1.0279941      8192000 
  219000   0.79520787   -3.8798356   -3.8798356   -2.8516267  0.026140559   -3.8798356    1.0282089      8192000 
  220000   0.79570889   -3.8800995   -3.8800995   -2.8512429  0.025223965   -3.8800995    1.0288567      8192000 
  221000   0.79539876   -3.8795475   -3.8795475   -2.8510918  0.027464374   -3.8795475    1.0284557      8192000 
  222000   0.79530165   -3.8794251   -3.8794251    -2.851095  0.023941524   -3.8794251    1.0283301      8192000 
  223000   0.79515418   -3.8795993   -3.8795993   -2.8514598   0.02689152   -3.8795993    1.0281394      8192000 
  224000   0.79530201   -3.8795301   -3.8795301   -2.8511995  0.026442913   -3.8795301    1.0283306      8192000 
  225000   0.79534054   -3.8794159   -3.8794159   -2.8510355   0.02717628   -3.8794159    1.0283804      8192000 
  226000   0.79526719   -3.8795082   -3.8795082   -2.8512227  0.026680591   -3.8795082    1.0282855      8192000 
  227000   0.79503498   -3.8792556   -3.8792556   -2.8512703  0.024317096   -3.8792556    1.0279853      8192000 
  228000   0.79554657   -3.8792839   -3.8792839   -2.8506372  0.026230113   -3.8792839    1.0286468      8192000 
  229000   0.79531857   -3.8791551   -3.8791551   -2.8508031   0.02591989   -3.8791551     1.028352      8192000 
  230000   0.79503419   -3.8788701   -3.8788701   -2.8508859  0.026483076   -3.8788701    1.0279843      8192000 
  231000   0.79528473   -3.8793779   -3.8793779   -2.8510697  0.024473664   -3.8793779    1.0283082      8192000 
  232000   0.79543187   -3.8789348   -3.8789348   -2.8504364   0.02413002   -3.8789348    1.0284985      8192000 
  233000   0.79477234   -3.8785492   -3.8785492   -2.8509035  0.024553475   -3.8785492    1.0276457      8192000 
  234000   0.79519032   -3.8789518   -3.8789518   -2.8507657  0.022296659   -3.8789518    1.0281862      8192000 
  235000   0.79508727   -3.8786997   -3.8786997   -2.8506468   0.02482528   -3.8786997    1.0280529      8192000 
  236000   0.79491089   -3.8786926   -3.8786926   -2.8508677  0.024325612   -3.8786926    1.0278248      8192000 
  237000   0.79542686   -3.8788135   -3.8788135   -2.8503215  0.023480951   -3.8788135     1.028492      8192000 
  238000   0.79564075   -3.8793061   -3.8793061   -2.8505375  0.024152116   -3.8793061    1.0287686      8192000 
  239000   0.79529559   -3.8787955   -3.8787955   -2.8504732  0.025017085   -3.8787955    1.0283223      8192000 
  240000   0.79519979   -3.8787679   -3.8787679   -2.8505695  0.025112324   -3.8787679    1.0281984      8192000 
  241000   0.79558161   -3.8790804   -3.8790804   -2.8503883  0.021008062   -3.8790804    1.0286921      8192000 
  242000   0.79542692   -3.8784895   -3.8784895   -2.8499974  0.026924777   -3.8784895    1.0284921      8192000 
  243000   0.79537365   -3.8787955   -3.8787955   -2.8503723  0.025215906   -3.8787955    1.0284232      8192000 
  244000   0.79549211   -3.8785748   -3.8785748   -2.8499985  0.025873851   -3.8785748    1.0285764      8192000 
  245000   0.79504493   -3.8782951   -3.8782951   -2.8502969  0.027075824   -3.8782951    1.0279982      8192000 
  246000   0.79505017   -3.8780351   -3.8780351   -2.8500302  0.025407869   -3.8780351    1.0280049      8192000 
  247000   0.79495817   -3.8778852   -3.8778852   -2.8499992  0.026579683   -3.8778852     1.027886      8192000 
  248000   0.79507832   -3.8785897   -3.8785897   -2.8505484  0.022104301   -3.8785897    1.0280413      8192000 
  249000   0.79542834   -3.8784433   -3.8784433   -2.8499493  0.025776977   -3.8784433    1.0284939      8192000 
  250000   0.79571747    -3.878905    -3.878905   -2.8500372  0.025890707    -3.878905    1.0288678      8192000 
  251000   0.79564765   -3.8790643   -3.8790643   -2.8502868  0.024376186   -3.8790643    1.0287775      8192000 
  252000   0.79538928   -3.8787057   -3.8787057   -2.8502623  0.025564111   -3.8787057    1.0284434      8192000 
  253000   0.79550228   -3.8784633   -3.8784633   -2.8498738  0.025995443   -3.8784633    1.0285895      8192000 
  254000   0.79545727    -3.878374    -3.878374   -2.8498427  0.022411085    -3.878374    1.0285313      8192000 
  255000    0.7953223   -3.8782767   -3.8782767   -2.8499199  0.027102148   -3.8782767    1.0283568      8192000 
  256000   0.79541231   -3.8786795   -3.8786795   -2.8502063  0.028807909   -3.8786795    1.0284732      8192000 
  257000   0.79545537    -3.878363    -3.878363   -2.8498341  0.024404606    -3.878363    1.0285289      8192000 
  258000   0.79549083   -3.8785454   -3.8785454   -2.8499707  0.028592314   -3.8785454    1.0285747      8192000 
  259000   0.79471867   -3.8780982   -3.8780982   -2.8505219  0.025808129   -3.8780982    1.0275763      8192000 
  260000   0.79509845   -3.8784863   -3.8784863   -2.8504189  0.024125934   -3.8784863    1.0280674      8192000 
  261000   0.79519796   -3.8783118   -3.8783118   -2.8501158  0.022812174   -3.8783118     1.028196      8192000 
  262000   0.79474939   -3.8780256   -3.8780256   -2.8504095   0.02824986   -3.8780256     1.027616      8192000 
  263000   0.79498037   -3.8785638   -3.8785638   -2.8506491  0.026522854   -3.8785638    1.0279147      8192000 
  264000   0.79504826   -3.8785621   -3.8785621   -2.8505596  0.026827192   -3.8785621    1.0280025      8192000 
  265000   0.79551402   -3.8786043   -3.8786043   -2.8499996  0.026053184   -3.8786043    1.0286047      8192000 
  266000   0.79569273   -3.8792445   -3.8792445   -2.8504087    0.0227016   -3.8792445    1.0288358      8192000 
  267000   0.79547431   -3.8785979   -3.8785979   -2.8500445  0.024748675   -3.8785979    1.0285534      8192000 
  268000   0.79543685   -3.8784951   -3.8784951   -2.8499902  0.023404996   -3.8784951    1.0285049      8192000 
  269000   0.79517046   -3.8784244   -3.8784244    -2.850264   0.02879044   -3.8784244    1.0281605      8192000 
  270000   0.79519699   -3.8783836   -3.8783836   -2.8501888  0.026366554   -3.8783836    1.0281948      8192000 
  271000   0.79525875   -3.8781362   -3.8781362   -2.8498616  0.027983316   -3.8781362    1.0282746      8192000 
  272000     0.795255    -3.878483    -3.878483   -2.8502132  0.026081084    -3.878483    1.0282698      8192000 
  273000    0.7955415   -3.8785035   -3.8785035   -2.8498633   0.02865028   -3.8785035    1.0286402      8192000 
  274000   0.79524611   -3.8781421   -3.8781421   -2.8498838   0.02887435   -3.8781421    1.0282583      8192000 
  275000   0.79497033   -3.8782204   -3.8782204   -2.8503187  0.030838916   -3.8782204    1.0279017      8192000 
  276000   0.79545157    -3.878794    -3.878794   -2.8502701  0.026952479    -3.878794     1.028524      8192000 
  277000   0.79535455   -3.8789412   -3.8789412   -2.8505427  0.025033822   -3.8789412    1.0283985      8192000 
  278000    0.7951358   -3.8781177   -3.8781177   -2.8500021  0.025921906   -3.8781177    1.0281157      8192000 
  279000    0.7953881   -3.8785876   -3.8785876   -2.8501457  0.026376731   -3.8785876    1.0284419      8192000 
  280000     0.795614   -3.8793871   -3.8793871   -2.8506531  0.026288078   -3.8793871     1.028734      8192000 
  281000   0.79529875   -3.8781718   -3.8781718   -2.8498455   0.02865637   -3.8781718    1.0283264      8192000 
  282000   0.79547542   -3.8786805   -3.8786805   -2.8501258  0.026492185   -3.8786805    1.0285548      8192000 
  283000   0.79553501   -3.8785902   -3.8785902   -2.8499584  0.023402338   -3.8785902    1.0286318      8192000 
  284000   0.79532343   -3.8784627   -3.8784627   -2.8501044  0.025951757   -3.8784627    1.0283583      8192000 
  285000   0.79531535   -3.8782979   -3.8782979   -2.8499501  0.023780054   -3.8782979    1.0283478      8192000 
  286000   0.79500345   -3.8778041   -3.8778041   -2.8498595  0.023939471   -3.8778041    1.0279445      8192000 
  287000   0.79520293   -3.8780241   -3.8780241   -2.8498217  0.025616874   -3.8780241    1.0282025      8192000 
  288000   0.79551576   -3.8784918   -3.8784918   -2.8498848    0.0250511   -3.8784918     1.028607      8192000 
  289000   0.79551426   -3.8787703   -3.8787703   -2.8501653  0.026191695   -3.8787703     1.028605      8192000 
  290000   0.79521271   -3.8782371   -3.8782371    -2.850022  0.026763518   -3.8782371    1.0282151      8192000 
  291000   0.79570257   -3.8786494   -3.8786494   -2.8498009  0.023016293   -3.8786494    1.0288485      8192000 
  292000    0.7949325   -3.8776598   -3.8776598    -2.849807  0.027752165   -3.8776598    1.0278528      8192000 
  293000   0.79552123   -3.8781587   -3.8781587   -2.8495447  0.028813692   -3.8781587     1.028614      8192000 
  294000   0.79572142    -3.878669    -3.878669   -2.8497962  0.025156574    -3.878669    1.0288729      8192000 
  295000   0.79584187   -3.8785687   -3.8785687   -2.8495401  0.025956724   -3.8785687    1.0290286      8192000 
  296000   0.79560933   -3.8781066   -3.8781066   -2.8493786  0.026509837   -3.8781066    1.0287279      8192000 
  297000    0.7954176   -3.8781512   -3.8781512   -2.8496711  0.029168269   -3.8781512      1.02848      8192000 
  298000   0.79559752   -3.8781181   -3.8781181   -2.8494055  0.025061115   -3.8781181    1.0287127      8192000 
  299000   0.79557964   -3.8782347   -3.8782347   -2.8495452  0.023311973   -3.8782347    1.0286896      8192000 
  300000   0.79521807   -3.8780402   -3.8780402   -2.8498182  0.026242982   -3.8780402     1.028222      8192000 
  301000    0.7955111   -3.8781247   -3.8781247   -2.8495238  0.026233584   -3.8781247    1.0286009      8192000 
  302000    0.7954605   -3.8780207   -3.8780207   -2.8494852  0.026925916   -3.8780207    1.0285355      8192000 
  303000   0.79507368   -3.8776757   -3.8776757   -2.8496404  0.027422782   -3.8776757    1.0280353      8192000 
  304000   0.79546252   -3.8781549   -3.8781549   -2.8496167  0.024469057   -3.8781549    1.0285381      8192000 
  305000   0.79537742   -3.8776192   -3.8776192   -2.8491911  0.025286616   -3.8776192    1.0284281      8192000 
  306000   0.79557532   -3.8778191   -3.8778191   -2.8491352  0.023535898   -3.8778191     1.028684      8192000 
  307000   0.79613276   -3.8781661   -3.8781661   -2.8487613  0.024860289   -3.8781661    1.0294047      8192000 
  308000   0.79600789   -3.8782654   -3.8782654   -2.8490221  0.023732977   -3.8782654    1.0292433      8192000 
  309000   0.79516445    -3.877002    -3.877002   -2.8488492   0.02667481    -3.877002    1.0281527      8192000 
  310000   0.79534666   -3.8776825   -3.8776825   -2.8492942   0.02514861   -3.8776825    1.0283883      8192000 
  311000   0.79515244   -3.8773845   -3.8773845   -2.8492473  0.029958074   -3.8773845    1.0281372      8192000 
  312000   0.79519081    -3.877576    -3.877576   -2.8493892  0.023367224    -3.877576    1.0281868      8192000 
  313000   0.79493293   -3.8774445   -3.8774445   -2.8495911  0.023505011   -3.8774445    1.0278533      8192000 
  314000   0.79498921   -3.8771239   -3.8771239   -2.8491978  0.025764509   -3.8771239    1.0279261      8192000 
  315000   0.79520671    -3.877411    -3.877411   -2.8492037  0.027012938    -3.877411    1.0282074      8192000 
  316000   0.79516346   -3.8777944   -3.8777944    -2.849643   0.02290549   -3.8777944    1.0281514      8192000 
  317000   0.79511744   -3.8776992   -3.8776992   -2.8496073  0.024629649   -3.8776992    1.0280919      8192000 
  318000   0.79543224   -3.8777738   -3.8777738   -2.8492748  0.025911284   -3.8777738     1.028499      8192000 
  319000    0.7953118   -3.8776419   -3.8776419   -2.8492987  0.026413992   -3.8776419    1.0283432      8192000 
  320000   0.79549111   -3.8775375   -3.8775375   -2.8489624  0.029010062   -3.8775375    1.0285751      8192000 
  321000   0.79538535   -3.8774929   -3.8774929   -2.8490546  0.025227917   -3.8774929    1.0284383      8192000 
  322000   0.79620205   -3.8784162   -3.8784162   -2.8489219   0.02554459   -3.8784162    1.0294943      8192000 
  323000   0.79564721   -3.8780932   -3.8780932   -2.8493163  0.026253999   -3.8780932    1.0287769      8192000 
  324000   0.79597267   -3.8782154   -3.8782154   -2.8490177  0.027411039   -3.8782154    1.0291977      8192000 
  325000   0.79563992   -3.8778532   -3.8778532   -2.8490857  0.029548074   -3.8778532    1.0287675      8192000 
  326000   0.79584051    -3.878124    -3.878124   -2.8490971  0.027427562    -3.878124    1.0290269      8192000 
  327000   0.79595738   -3.8781742   -3.8781742   -2.8489962  0.025551115   -3.8781742     1.029178      8192000 
  328000   0.79563325   -3.8778392   -3.8778392   -2.8490803  0.028089551   -3.8778392    1.0287589      8192000 
  329000   0.79599013   -3.8781222   -3.8781222   -2.8489019  0.028383413   -3.8781222    1.0292203      8192000 
  330000   0.79607657   -3.8780138   -3.8780138   -2.8486817  0.029636805   -3.8780138    1.0293321      8192000 
  331000   0.79582326   -3.8779335   -3.8779335   -2.8489289  0.027282479   -3.8779335    1.0290045      8192000 
  332000   0.79575283   -3.8779185   -3.8779185    -2.849005  0.027909448   -3.8779185    1.0289135      8192000 
  333000   0.79574842   -3.8782519   -3.8782519   -2.8493441  0.026652505   -3.8782519    1.0289078      8192000 
  334000   0.79558429   -3.8777387   -3.8777387   -2.8490432   0.02764692   -3.8777387    1.0286956      8192000 
  335000   0.79568353   -3.8774212   -3.8774212   -2.8485973  0.026561891   -3.8774212    1.0288239      8192000 
  336000     0.795824   -3.8776785   -3.8776785    -2.848673  0.028311628   -3.8776785    1.0290055      8192000 
  337000   0.79602345   -3.8774059   -3.8774059   -2.8481425  0.026154341   -3.8774059    1.0292634      8192000 
  338000   0.79591448   -3.8776546   -3.8776546   -2.8485321  0.028650195   -3.8776546    1.0291225      8192000 
  339000   0.79602789   -3.8774344   -3.8774344   -2.8481653  0.028996357   -3.8774344    1.0292691      8192000 
  340000   0.79603156   -3.8776596   -3.8776596   -2.8483857  0.026691711   -3.8776596    1.0292739      8192000 
  341000   0.79602457   -3.8774621   -3.8774621   -2.8481972  0.025955694   -3.8774621    1.0292649      8192000 
  342000   0.79550611   -3.8770722   -3.8770722   -2.8484777  0.029981305   -3.8770722    1.0285945      8192000 
  343000   0.79595112   -3.8771491   -3.8771491   -2.8479792  0.026635634   -3.8771491    1.0291699      8192000 
  344000   0.79568341   -3.8769368   -3.8769368   -2.8481131   0.02761062   -3.8769368    1.0288237      8192000 
  345000   0.79564456   -3.8769887   -3.8769887   -2.8482152  0.025781494   -3.8769887    1.0287735      8192000 
  346000   0.79557496   -3.8768197   -3.8768197   -2.8481362  0.024339678   -3.8768197    1.0286835      8192000 
  347000   0.79548326   -3.8767071   -3.8767071   -2.8481421  0.024950097   -3.8767071    1.0285649      8192000 
  348000   0.79511026   -3.8760952   -3.8760952   -2.8480126  0.024962356   -3.8760952    1.0280826      8192000 
  349000   0.79556185   -3.8769828   -3.8769828   -2.8483162  0.021536219   -3.8769828    1.0286666      8192000 
  350000    0.7951732   -3.8762517   -3.8762517   -2.8480877  0.027087974   -3.8762517     1.028164      8192000 
  351000   0.79514988   -3.8761138   -3.8761138     -2.84798   0.02258175   -3.8761138    1.0281339      8192000 
  352000   0.79499616   -3.8760276   -3.8760276   -2.8480925   0.02306864   -3.8760276    1.0279351      8192000 
  353000   0.79587597   -3.8772291   -3.8772291   -2.8481564  0.021712225   -3.8772291    1.0290727      8192000 
  354000   0.79510638    -3.876388    -3.876388   -2.8483104  0.025280923    -3.876388    1.0280776      8192000 
  355000   0.79511664   -3.8761492   -3.8761492   -2.8480583  0.023366778   -3.8761492    1.0280909      8192000 
  356000   0.79549183   -3.8765849   -3.8765849   -2.8480089  0.024785433   -3.8765849     1.028576      8192000 
  357000   0.79538909   -3.8762573   -3.8762573   -2.8478141  0.027191032   -3.8762573    1.0284432      8192000 
  358000    0.7954439   -3.8765988   -3.8765988   -2.8480848  0.024546437   -3.8765988     1.028514      8192000 
  359000   0.79581536   -3.8767344   -3.8767344     -2.84774  0.024103493   -3.8767344    1.0289943      8192000 
  360000   0.79576358   -3.8765229   -3.8765229   -2.8475955  0.027828262   -3.8765229    1.0289274      8192000 
  361000   0.79575988   -3.8767828   -3.8767828   -2.8478602   0.02634183   -3.8767828    1.0289226      8192000 
  362000   0.79574535   -3.8764425   -3.8764425   -2.8475386  0.031245895   -3.8764425    1.0289038      8192000 
  363000   0.79618256   -3.8772451   -3.8772451    -2.847776   0.02788032   -3.8772451    1.0294691      8192000 
  364000   0.79611156   -3.8770231   -3.8770231   -2.8476458  0.028249533   -3.8770231    1.0293773      8192000 
  365000   0.79621309   -3.8774151   -3.8774151   -2.8479065  0.029399078   -3.8774151    1.0295086      8192000 
  366000   0.79580713    -3.876758    -3.876758   -2.8477743  0.028908624    -3.876758    1.0289837      8192000 
  367000   0.79627012    -3.877558    -3.877558   -2.8479757  0.026119315    -3.877558    1.0295823      8192000 
  368000    0.7960081   -3.8768538   -3.8768538   -2.8476103  0.026100439   -3.8768538    1.0292436      8192000 
  369000   0.79624203   -3.8772012   -3.8772012   -2.8476552  0.027402489   -3.8772012     1.029546      8192000 
  370000   0.79587451   -3.8769577   -3.8769577   -2.8478869  0.027663991   -3.8769577    1.0290708      8192000 
  371000   0.79582923   -3.8770822   -3.8770822   -2.8480699  0.024753806   -3.8770822    1.0290123      8192000 
  372000   0.79586332   -3.8768949   -3.8768949   -2.8478385  0.029651026   -3.8768949    1.0290563      8192000 
  373000   0.79575128     -3.87678     -3.87678   -2.8478685  0.027847197     -3.87678    1.0289115      8192000 
  374000   0.79615065   -3.8770057   -3.8770057   -2.8475778  0.024599532   -3.8770057    1.0294279      8192000 
  375000    0.7959004   -3.8768119   -3.8768119   -2.8477076  0.027806144   -3.8768119    1.0291043      8192000 
  376000   0.79574403   -3.8763925   -3.8763925   -2.8474904  0.026847803   -3.8763925    1.0289021      8192000 
  377000   0.79551511   -3.8762095   -3.8762095   -2.8476034  0.026636595   -3.8762095    1.0286061      8192000 
  378000   0.79552019    -3.876188    -3.876188   -2.8475753  0.024461496    -3.876188    1.0286127      8192000 
  379000    0.7955857   -3.8763666   -3.8763666   -2.8476693  0.025256505   -3.8763666    1.0286974      8192000 
  380000   0.79601242   -3.8764604   -3.8764604   -2.8472113  0.025769252   -3.8764604    1.0292491      8192000 
  381000   0.79580641    -3.876278    -3.876278   -2.8472953  0.023999847    -3.876278    1.0289828      8192000 
  382000   0.79609402   -3.8764676   -3.8764676    -2.847113  0.025559147   -3.8764676    1.0293546      8192000 
  383000   0.79578188   -3.8758122   -3.8758122   -2.8468612  0.027425302   -3.8758122     1.028951      8192000 
  384000   0.79544299    -3.875276    -3.875276   -2.8467631   0.02487566    -3.875276    1.0285129      8192000 
  385000   0.79552659   -3.8755463   -3.8755463   -2.8469254  0.025275747   -3.8755463    1.0286209      8192000 
  386000   0.79508131   -3.8754079   -3.8754079   -2.8473627  0.023408403   -3.8754079    1.0280452      8192000 
  387000   0.79577136   -3.8761394   -3.8761394    -2.847202  0.023247398   -3.8761394    1.0289374      8192000 
  388000   0.79523632   -3.8753855   -3.8753855   -2.8471399  0.023587642   -3.8753855    1.0282456      8192000 
  389000    0.7956579   -3.8757965   -3.8757965   -2.8470057  0.025200466   -3.8757965    1.0287907      8192000 
  390000   0.79545826   -3.8758713   -3.8758713   -2.8473387  0.023373959   -3.8758713    1.0285326      8192000 
  391000   0.79569944   -3.8761099   -3.8761099   -2.8472654  0.024382902   -3.8761099    1.0288445      8192000 
  392000   0.79551873   -3.8755063   -3.8755063   -2.8468955  0.028581112   -3.8755063    1.0286108      8192000 
  393000   0.79561947   -3.8756669   -3.8756669   -2.8469259  0.025989842   -3.8756669     1.028741      8192000 
  394000   0.79592328   -3.8760108   -3.8760108   -2.8468769  0.025620343   -3.8760108    1.0291339      8192000 
  395000   0.79597203   -3.8759024   -3.8759024   -2.8467054  0.027714835   -3.8759024    1.0291969      8192000 
  396000   0.79580933   -3.8757588   -3.8757588   -2.8467723  0.024420152   -3.8757588    1.0289865      8192000 
  397000   0.79562992   -3.8757657   -3.8757657   -2.8470111  0.026744236   -3.8757657    1.0287546      8192000 
  398000   0.79583088   -3.8757564   -3.8757564    -2.846742   0.02886184   -3.8757564    1.0290144      8192000 
  399000    0.7959303   -3.8761125   -3.8761125   -2.8469695  0.026388691   -3.8761125     1.029143      8192000 
  400000   0.79587418   -3.8761666   -3.8761666   -2.8470962  0.027166074   -3.8761666    1.0290704      8192000 
  401000   0.79623245   -3.8764038   -3.8764038   -2.8468701  0.024980592   -3.8764038    1.0295336      8192000 
  402000   0.79604435   -3.8764502   -3.8764502   -2.8471598   0.02951006   -3.8764502    1.0292904      8192000 
  403000   0.79574108   -3.8759026   -3.8759026   -2.8470043  0.029896359   -3.8759026    1.0288983      8192000 
  404000   0.79609488   -3.8759402   -3.8759402   -2.8465844  0.029122062   -3.8759402    1.0293558      8192000 
  405000   0.79548123   -3.8757826   -3.8757826   -2.8472203  0.028035251   -3.8757826    1.0285623      8192000 
  406000   0.79546448   -3.8756308   -3.8756308   -2.8470901  0.024906489   -3.8756308    1.0285406      8192000 
  407000   0.79569946   -3.8760399   -3.8760399   -2.8471955  0.024547736   -3.8760399    1.0288445      8192000 
  408000   0.79572403   -3.8759109   -3.8759109   -2.8470347  0.026767371   -3.8759109    1.0288762      8192000 
  409000   0.79587989   -3.8759954   -3.8759954   -2.8469177  0.027954991   -3.8759954    1.0290778      8192000 
  410000   0.79593781   -3.8758626   -3.8758626   -2.8467099  0.026979149   -3.8758626    1.0291527      8192000 
  411000   0.79648177   -3.8767244   -3.8767244   -2.8468684  0.024952325   -3.8767244     1.029856      8192000 
  412000   0.79613447   -3.8761884   -3.8761884   -2.8467815  0.026382865   -3.8761884    1.0294069      8192000 
  413000   0.79566203   -3.8751731   -3.8751731    -2.846377  0.028726506   -3.8751731    1.0287961      8192000 
  414000   0.79624122   -3.8763992   -3.8763992   -2.8468543  0.026354891   -3.8763992     1.029545      8192000 
  415000   0.79575765   -3.8756315   -3.8756315   -2.8467118  0.025083679   -3.8756315    1.0289197      8192000 
  416000   0.79547652   -3.8754417   -3.8754417   -2.8468855  0.027069883   -3.8754417    1.0285562      8192000 
  417000   0.79526162   -3.8754115   -3.8754115   -2.8471331  0.025878521   -3.8754115    1.0282784      8192000 
  418000    0.7953409   -3.8750845   -3.8750845   -2.8467037  0.026505506   -3.8750845    1.0283809      8192000 
  419000     0.795463   -3.8752145   -3.8752145   -2.8466758  0.024098951   -3.8752145    1.0285387      8192000 
  420000   0.79517566    -3.875174    -3.875174   -2.8470068  0.025166466    -3.875174    1.0281672      8192000 
  421000   0.79495953   -3.8751204   -3.8751204   -2.8472327  0.023352581   -3.8751204    1.0278877      8192000 
  422000   0.79502645   -3.8750471   -3.8750471   -2.8470728   0.02474307   -3.8750471    1.0279743      8192000 
  423000    0.7955909   -3.8752803   -3.8752803   -2.8465762  0.024053802   -3.8752803    1.0287041      8192000 
  424000   0.79530037   -3.8750754   -3.8750754    -2.846747  0.026590037   -3.8750754    1.0283285      8192000 
  425000   0.79556056   -3.8750275   -3.8750275   -2.8463626  0.023056737   -3.8750275    1.0286649      8192000 
  426000   0.79580715   -3.8755753   -3.8755753   -2.8465916  0.023996161   -3.8755753    1.0289837      8192000 
  427000   0.79575237   -3.8757218   -3.8757218   -2.8468089  0.025168924   -3.8757218    1.0289129      8192000 
  428000    0.7959631   -3.8758999   -3.8758999   -2.8467145  0.026792328   -3.8758999    1.0291854      8192000 
  429000   0.79571305    -3.875334    -3.875334   -2.8464719  0.029235604    -3.875334     1.028862      8192000 
  430000   0.79590551   -3.8758043   -3.8758043   -2.8466934  0.026068282   -3.8758043    1.0291109      8192000 
  431000   0.79607891   -3.8760991   -3.8760991    -2.846764  0.026810518   -3.8760991    1.0293351      8192000 
  432000   0.79563161   -3.8758564   -3.8758564   -2.8470996  0.028244339   -3.8758564    1.0287567      8192000 
  433000   0.79574893   -3.8756482   -3.8756482   -2.8467398  0.027047332   -3.8756482    1.0289084      8192000 
  434000   0.79571904   -3.8754441   -3.8754441   -2.8465743  0.029899569   -3.8754441    1.0288698      8192000 
  435000   0.79619887   -3.8761842   -3.8761842    -2.846694  0.026791403   -3.8761842    1.0294902      8192000 
  436000   0.79594749   -3.8762975   -3.8762975   -2.8471323  0.026552897   -3.8762975    1.0291652      8192000 
  437000   0.79613677   -3.8761234   -3.8761234   -2.8467135  0.027831272   -3.8761234    1.0294099      8192000 
  438000   0.79603085   -3.8763244   -3.8763244   -2.8470514  0.027615367   -3.8763244     1.029273      8192000 
  439000   0.79646314   -3.8764821   -3.8764821   -2.8466502   0.02975155   -3.8764821    1.0298319      8192000 
  440000   0.79591855   -3.8760591   -3.8760591   -2.8469313  0.027029162   -3.8760591    1.0291278      8192000 
  441000    0.7965477   -3.8763324   -3.8763324   -2.8463911  0.028660475   -3.8763324    1.0299413      8192000 
  442000   0.79588831   -3.8761293   -3.8761293   -2.8470406  0.026018077   -3.8761293    1.0290887      8192000 
  443000   0.79614501   -3.8759987   -3.8759987   -2.8465781  0.027934914   -3.8759987    1.0294206      8192000 
  444000   0.79584425   -3.8756573   -3.8756573   -2.8466256   0.03028545   -3.8756573    1.0290317      8192000 
  445000   0.79575204   -3.8755582   -3.8755582   -2.8466457  0.025582099   -3.8755582    1.0289125      8192000 
  446000   0.79589453   -3.8753573   -3.8753573   -2.8462606  0.028689536   -3.8753573    1.0290967      8192000 
  447000   0.79643596   -3.8765613   -3.8765613   -2.8467645  0.026554365   -3.8765613    1.0297968      8192000 
  448000   0.79647664   -3.8765708   -3.8765708   -2.8467214  0.023624059   -3.8765708    1.0298494      8192000 
  449000    0.7962227   -3.8760804   -3.8760804   -2.8465594  0.025054803   -3.8760804     1.029521      8192000 
  450000   0.79598188    -3.875417    -3.875417   -2.8462073  0.026173681    -3.875417    1.0292097      8192000 
  451000   0.79573699   -3.8752245   -3.8752245   -2.8463315  0.030584691   -3.8752245     1.028893      8192000 
  452000   0.79592586   -3.8752999   -3.8752999   -2.8461627  0.027239897   -3.8752999    1.0291372      8192000 
  453000   0.79553275   -3.8747993   -3.8747993   -2.8461704  0.028321799   -3.8747993    1.0286289      8192000 
  454000   0.79556504   -3.8750429   -3.8750429   -2.8463723  0.024156378   -3.8750429    1.0286707      8192000 
  455000   0.79577557   -3.8749679   -3.8749679    -2.846025  0.026005546   -3.8749679    1.0289429      8192000 
  456000   0.79580147   -3.8749098   -3.8749098   -2.8459334  0.025335478   -3.8749098    1.0289764      8192000 
  457000   0.79593842   -3.8750388   -3.8750388   -2.8458854  0.023507618   -3.8750388    1.0291534      8192000 
  458000    0.7954382   -3.8745339   -3.8745339   -2.8460272  0.026493145   -3.8745339    1.0285067      8192000 
  459000   0.79585329   -3.8749564   -3.8749564    -2.845913  0.026090156   -3.8749564    1.0290434      8192000 
  460000   0.79564798   -3.8747393   -3.8747393   -2.8459614  0.024315674   -3.8747393    1.0287779      8192000 
  461000   0.79601822   -3.8745551   -3.8745551   -2.8452985    0.0288595   -3.8745551    1.0292566      8192000 
  462000   0.79601049   -3.8747066   -3.8747066     -2.84546  0.027154223   -3.8747066    1.0292466      8192000 
  463000   0.79582509   -3.8743726   -3.8743726   -2.8453657  0.026181188   -3.8743726    1.0290069      8192000 
  464000   0.79567075   -3.8744991   -3.8744991   -2.8456917  0.025929232   -3.8744991    1.0288074      8192000 
  465000   0.79567251   -3.8743118   -3.8743118   -2.8455022  0.025146898   -3.8743118    1.0288096      8192000 
  466000   0.79592272   -3.8747957   -3.8747957   -2.8456626  0.021924168   -3.8747957    1.0291332      8192000 
  467000   0.79555881   -3.8739376   -3.8739376   -2.8452749  0.024519224   -3.8739376    1.0286626      8192000 
  468000   0.79579022   -3.8742157   -3.8742157   -2.8452538  0.026292432   -3.8742157    1.0289618      8192000 
  469000   0.79589981   -3.8743225   -3.8743225    -2.845219  0.022840656   -3.8743225    1.0291035      8192000 
  470000   0.79576273   -3.8741518   -3.8741518   -2.8452255  0.027529752   -3.8741518    1.0289263      8192000 
  471000    0.7958474   -3.8743678   -3.8743678   -2.8453321  0.025694403   -3.8743678    1.0290358      8192000 
  472000   0.79606993   -3.8744119   -3.8744119   -2.8450884  0.026218485   -3.8744119    1.0293235      8192000 
  473000   0.79625202   -3.8746596   -3.8746596   -2.8451007  0.023219423   -3.8746596    1.0295589      8192000 
  474000   0.79613402   -3.8744057   -3.8744057   -2.8449993  0.027817056   -3.8744057    1.0294064      8192000 
  475000   0.79612161   -3.8744571   -3.8744571   -2.8450667   0.02690978   -3.8744571    1.0293903      8192000 
  476000   0.79569715   -3.8743253   -3.8743253   -2.8454838  0.023717851   -3.8743253    1.0288415      8192000 
  477000   0.79587512   -3.8744085   -3.8744085   -2.8453369  0.027428721   -3.8744085    1.0290716      8192000 
  478000   0.79622539   -3.8750439   -3.8750439   -2.8455194  0.022692268   -3.8750439    1.0295245      8192000 
  479000   0.79608468    -3.874747    -3.874747   -2.8454044  0.028873237    -3.874747    1.0293426      8192000 
  480000    0.7960234   -3.8747741   -3.8747741   -2.8455107  0.025931967   -3.8747741    1.0292633      8192000 
  481000   0.79656452   -3.8752411   -3.8752411   -2.8452781  0.026439578   -3.8752411     1.029963      8192000 
  482000   0.79598213   -3.8747012   -3.8747012   -2.8454912  0.026242855   -3.8747012      1.02921      8192000 
  483000   0.79611329   -3.8746837   -3.8746837   -2.8453041  0.028057469   -3.8746837    1.0293796      8192000 
  484000   0.79632972   -3.8753063   -3.8753063   -2.8456469  0.024739003   -3.8753063    1.0296594      8192000 
  485000   0.79593407   -3.8748835   -3.8748835   -2.8457356  0.027284259   -3.8748835    1.0291478      8192000 
  486000   0.79615079   -3.8749048   -3.8749048   -2.8454767  0.026592134   -3.8749048    1.0294281      8192000 
  487000   0.79614945   -3.8749417   -3.8749417   -2.8455154  0.025151261   -3.8749417    1.0294263      8192000 
  488000   0.79592527   -3.8746135   -3.8746135    -2.845477  0.026569115   -3.8746135    1.0291365      8192000 
  489000   0.79610465   -3.8748157   -3.8748157   -2.8454473  0.027255136   -3.8748157    1.0293684      8192000 
  490000   0.79625878   -3.8746801   -3.8746801   -2.8451124  0.026111022   -3.8746801    1.0295677      8192000 
  491000   0.79649411   -3.8751868   -3.8751868   -2.8453149  0.023999717   -3.8751868     1.029872      8192000 
  492000   0.79600364   -3.8750734   -3.8750734   -2.8458356  0.025894223   -3.8750734    1.0292378      8192000 
  493000   0.79562486   -3.8738399   -3.8738399   -2.8450919  0.026917368   -3.8738399     1.028748      8192000 
  494000   0.79611162   -3.8747408   -3.8747408   -2.8453634  0.023345901   -3.8747408    1.0293774      8192000 
  495000   0.79593039   -3.8745103   -3.8745103   -2.8453672  0.028821871   -3.8745103    1.0291431      8192000 
  496000    0.7964854   -3.8753165   -3.8753165   -2.8454558  0.026113763   -3.8753165    1.0298607      8192000 
  497000   0.79639299   -3.8748034   -3.8748034   -2.8450621   0.02569095   -3.8748034    1.0297412      8192000 
  498000    0.7957366   -3.8740664   -3.8740664   -2.8451739  0.028077296   -3.8740664    1.0288925      8192000 
  499000   0.79596398   -3.8743559   -3.8743559   -2.8451694   0.02434895   -3.8743559    1.0291865      8192000 
  500000   0.79598722   -3.8744095   -3.8744095    -2.845193  0.028710853   -3.8744095    1.0292166      8192000 
  501000   0.79615741   -3.8746232   -3.8746232   -2.8451866  0.027120761   -3.8746232    1.0294366      8192000 
  502000   0.79584761   -3.8744662   -3.8744662   -2.8454302  0.026333046   -3.8744662     1.029036      8192000 
  503000   0.79560434    -3.874305    -3.874305   -2.8455835   0.02508159    -3.874305    1.0287215      8192000 
  504000   0.79568939   -3.8739064   -3.8739064   -2.8450749  0.023965937   -3.8739064    1.0288315      8192000 
  505000   0.79557021   -3.8735662   -3.8735662   -2.8448889  0.027115695   -3.8735662    1.0286774      8192000 
  506000   0.79564507   -3.8737622   -3.8737622   -2.8449881  0.026920757   -3.8737622    1.0287742      8192000 
  507000   0.79555793   -3.8735907   -3.8735907   -2.8449292  0.027470022   -3.8735907    1.0286615      8192000 
  508000   0.79572838   -3.8736979   -3.8736979   -2.8448161  0.027375715   -3.8736979    1.0288819      8192000 
  509000   0.79590078   -3.8740788   -3.8740788    -2.844974  0.025964559   -3.8740788    1.0291048      8192000 
  510000   0.79609251   -3.8744652   -3.8744652   -2.8451125  0.026474026   -3.8744652    1.0293527      8192000 
  511000   0.79561026   -3.8739487   -3.8739487   -2.8452196  0.027537481   -3.8739487    1.0287291      8192000 
  512000   0.79599034   -3.8742114   -3.8742114   -2.8449908  0.028031554   -3.8742114    1.0292206      8192000 
  513000   0.79584693   -3.8741184   -3.8741184   -2.8450832  0.023985843   -3.8741184    1.0290352      8192000 
  514000   0.79562274    -3.873902    -3.873902   -2.8451568   0.02644904    -3.873902    1.0287453      8192000 
  515000    0.7957155    -3.873818    -3.873818   -2.8449528  0.027209521    -3.873818    1.0288652      8192000 
  516000   0.79591751   -3.8742082   -3.8742082   -2.8450818  0.024033543   -3.8742082    1.0291264      8192000 
  517000   0.79606265   -3.8743904   -3.8743904   -2.8450763   0.02538757   -3.8743904    1.0293141      8192000 
  518000   0.79598292   -3.8740791   -3.8740791   -2.8448681  0.029105686   -3.8740791     1.029211      8192000 
  519000   0.79617556   -3.8744595   -3.8744595   -2.8449994  0.025580969   -3.8744595    1.0294601      8192000 
  520000   0.79635984    -3.874521    -3.874521   -2.8448226  0.027491495    -3.874521    1.0296984      8192000 
  521000   0.79631275   -3.8745107   -3.8745107   -2.8448732  0.026474251   -3.8745107    1.0296375      8192000 
  522000   0.79614541   -3.8743715   -3.8743715   -2.8449505  0.027122828   -3.8743715    1.0294211      8192000 
  523000   0.79626996   -3.8748593   -3.8748593   -2.8452771   0.02795337   -3.8748593    1.0295821      8192000 
  524000   0.79613247   -3.8744939   -3.8744939   -2.8450895  0.026968343   -3.8744939    1.0294044      8192000 
  525000   0.79608669    -3.874619    -3.874619   -2.8452738  0.029154877    -3.874619    1.0293452      8192000 
  526000   0.79613058   -3.8750251   -3.8750251   -2.8456232  0.026578463   -3.8750251    1.0294019      8192000 
  527000   0.79625903   -3.8752681   -3.8752681   -2.8457001  0.025415273   -3.8752681     1.029568      8192000 
  528000   0.79538071   -3.8739953   -3.8739953    -2.845563  0.030257902   -3.8739953    1.0284323      8192000 
  529000   0.79577062   -3.8742744   -3.8742744    -2.845338  0.024625364   -3.8742744    1.0289365      8192000 
  530000   0.79565541   -3.8742479   -3.8742479   -2.8454604  0.027075975   -3.8742479    1.0287875      8192000 
  531000   0.79621981   -3.8747151   -3.8747151   -2.8451978  0.025887509   -3.8747151    1.0295173      8192000 
  532000    0.7956661   -3.8738867   -3.8738867   -2.8450853  0.027837497   -3.8738867    1.0288013      8192000 
  533000   0.79660681   -3.8751367   -3.8751367   -2.8451191  0.025626979   -3.8751367    1.0300177      8192000 
  534000   0.79656119    -3.875351    -3.875351   -2.8453923  0.028805325    -3.875351    1.0299587      8192000 
  535000   0.79619696   -3.8750078   -3.8750078     -2.84552  0.026942135   -3.8750078    1.0294877      8192000 
  536000   0.79606406   -3.8751862   -3.8751862   -2.8458702  0.029927586   -3.8751862    1.0293159      8192000 
  537000   0.79625754   -3.8752063   -3.8752063   -2.8456402  0.027066257   -3.8752063    1.0295661      8192000 
  538000   0.79608949   -3.8745703   -3.8745703   -2.8452216  0.025954562   -3.8745703    1.0293488      8192000 
  539000   0.79641806   -3.8746104   -3.8746104   -2.8448367  0.029543435   -3.8746104    1.0297736      8192000 
  540000    0.7960038   -3.8741295   -3.8741295   -2.8448915  0.029006415   -3.8741295     1.029238      8192000 
  541000   0.79620011   -3.8747664   -3.8747664   -2.8452746  0.024775599   -3.8747664    1.0294918      8192000 
  542000   0.79606653   -3.8745473   -3.8745473   -2.8452282  0.025862393   -3.8745473    1.0293191      8192000 
  543000   0.79590512   -3.8740562   -3.8740562   -2.8449458  0.032128386   -3.8740562    1.0291104      8192000 
  544000   0.79647263   -3.8747923   -3.8747923   -2.8449481  0.029246771   -3.8747923    1.0298442      8192000 
  545000   0.79591036   -3.8738685   -3.8738685   -2.8447513   0.02554787   -3.8738685    1.0291172      8192000 
  546000   0.79625468   -3.8741413   -3.8741413   -2.8445789  0.028617428   -3.8741413    1.0295624      8192000 
  547000   0.79641817   -3.8745977   -3.8745977   -2.8448239  0.025612858   -3.8745977    1.0297738      8192000 
  548000   0.79596602   -3.8737564   -3.8737564   -2.8445673  0.030477558   -3.8737564    1.0291891      8192000 
  549000   0.79606963   -3.8743027   -3.8743027   -2.8449796  0.026008093   -3.8743027    1.0293231      8192000 
  550000    0.7958157   -3.8734368   -3.8734368   -2.8444421  0.027912702   -3.8734368    1.0289948      8192000 
  551000   0.79579815    -3.874093    -3.874093   -2.8451209   0.02486118    -3.874093    1.0289721      8192000 
  552000   0.79596013   -3.8739817   -3.8739817   -2.8448002  0.023723611   -3.8739817    1.0291815      8192000 
  553000    0.7957049   -3.8738126   -3.8738126   -2.8449611  0.025470268   -3.8738126    1.0288515      8192000 
  554000   0.79580566   -3.8737403   -3.8737403   -2.8447585  0.023757436   -3.8737403    1.0289818      8192000 
  555000   0.79578022   -3.8734722   -3.8734722   -2.8445233  0.026256389   -3.8734722    1.0289489      8192000 
  556000   0.79596195   -3.8735929   -3.8735929    -2.844409  0.026611046   -3.8735929    1.0291839      8192000 
  557000   0.79552039   -3.8732665   -3.8732665   -2.8446535  0.025894214   -3.8732665    1.0286129      8192000 
  558000   0.79617619   -3.8739854   -3.8739854   -2.8445246  0.027194314   -3.8739854    1.0294609      8192000 
  559000   0.79561984   -3.8735208   -3.8735208   -2.8447793  0.024821759   -3.8735208    1.0287415      8192000 
  560000   0.79580054   -3.8736001   -3.8736001    -2.844625  0.025535974   -3.8736001    1.0289752      8192000 
  561000   0.79620927   -3.8739816   -3.8739816    -2.844478  0.025017543   -3.8739816    1.0295037      8192000 
  562000   0.79553796   -3.8739618   -3.8739618   -2.8453261  0.025099141   -3.8739618    1.0286356      8192000 
  563000   0.79510408   -3.8732331   -3.8732331   -2.8451584  0.029492614   -3.8732331    1.0280746      8192000 
  564000   0.79581982   -3.8737116   -3.8737116   -2.8447115  0.024743048   -3.8737116    1.0290001      8192000 
  565000   0.79592103   -3.8736918   -3.8736918   -2.8445608  0.025969583   -3.8736918     1.029131      8192000 
  566000   0.79537981   -3.8731356   -3.8731356   -2.8447044  0.026482946   -3.8731356    1.0284312      8192000 
  567000   0.79575217   -3.8732285   -3.8732285   -2.8443159  0.027742766   -3.8732285    1.0289126      8192000 
  568000   0.79575526   -3.8733128   -3.8733128   -2.8443961  0.028445416   -3.8733128    1.0289166      8192000 
  569000   0.79595067   -3.8734438   -3.8734438   -2.8442745  0.028965078   -3.8734438    1.0291693      8192000 
  570000   0.79643231   -3.8740761   -3.8740761    -2.844284  0.030621702   -3.8740761    1.0297921      8192000 
  571000   0.79652219   -3.8741984   -3.8741984   -2.8442901  0.029078504   -3.8741984    1.0299083      8192000 
  572000   0.79632907   -3.8740002   -3.8740002   -2.8443417   0.02932468   -3.8740002    1.0296586      8192000 
  573000   0.79626122   -3.8740359   -3.8740359   -2.8444651  0.027211311   -3.8740359    1.0295708      8192000 
  574000   0.79627694   -3.8740853   -3.8740853   -2.8444941  0.028940952   -3.8740853    1.0295912      8192000 
  575000   0.79576734   -3.8733635   -3.8733635   -2.8444313  0.030069237   -3.8733635    1.0289322      8192000 
  576000   0.79601843   -3.8740564   -3.8740564   -2.8447995  0.029762537   -3.8740564    1.0292569      8192000 
  577000   0.79586827   -3.8740587   -3.8740587    -2.844996  0.026532181   -3.8740587    1.0290628      8192000 
  578000   0.79572318   -3.8733522   -3.8733522   -2.8444771  0.026073693   -3.8733522    1.0288752      8192000 
  579000   0.79619402   -3.8740738   -3.8740738   -2.8445899  0.027470335   -3.8740738    1.0294839      8192000 
  580000   0.79638467   -3.8741544   -3.8741544    -2.844424  0.025224775   -3.8741544    1.0297305      8192000 
  581000   0.79642526   -3.8743543   -3.8743543   -2.8445713  0.023857495   -3.8743543    1.0297829      8192000 
  582000   0.79651573   -3.8745122   -3.8745122   -2.8446123  0.024510966   -3.8745122    1.0298999      8192000 
  583000    0.7961388   -3.8735556   -3.8735556    -2.844143  0.025272011   -3.8735556    1.0294125      8192000 
  584000   0.79605319   -3.8735894   -3.8735894   -2.8442875  0.027758916   -3.8735894    1.0293019      8192000 
  585000   0.79588089   -3.8734798   -3.8734798   -2.8444007   0.03024705   -3.8734798    1.0290791      8192000 
  586000   0.79610054   -3.8732807   -3.8732807   -2.8439176  0.029445503   -3.8732807    1.0293631      8192000 
  587000   0.79602614   -3.8733957   -3.8733957   -2.8441289  0.025783357   -3.8733957    1.0292669      8192000 
  588000   0.79563323    -3.873048    -3.873048   -2.8442892   0.02768595    -3.873048    1.0287588      8192000 
  589000   0.79610334    -3.873203    -3.873203   -2.8438363  0.026863219    -3.873203    1.0293667      8192000 
  590000   0.79620514   -3.8737202   -3.8737202   -2.8442218  0.026254732   -3.8737202    1.0294983      8192000 
  591000   0.79578105   -3.8733763   -3.8733763   -2.8444264  0.025407754   -3.8733763      1.02895      8192000 
  592000    0.7962222   -3.8732344   -3.8732344    -2.843714  0.024218669   -3.8732344    1.0295204      8192000 
  593000    0.7957304   -3.8731069   -3.8731069   -2.8442224  0.027554121   -3.8731069    1.0288845      8192000 
  594000   0.79616297    -3.873351    -3.873351   -2.8439072  0.025936886    -3.873351    1.0294438      8192000 
  595000   0.79623008   -3.8733988   -3.8733988   -2.8438682  0.025748896   -3.8733988    1.0295306      8192000 
  596000   0.79602425    -3.873526    -3.873526   -2.8442615  0.025527459    -3.873526    1.0292644      8192000 
  597000   0.79619362   -3.8730612   -3.8730612   -2.8435777  0.025898524   -3.8730612    1.0294834      8192000 
  598000    0.7959089   -3.8730977   -3.8730977   -2.8439824   0.02557767   -3.8730977    1.0291153      8192000 
  599000   0.79628936   -3.8740737   -3.8740737   -2.8444665  0.027062129   -3.8740737    1.0296072      8192000 
  600000   0.79604069   -3.8739146   -3.8739146   -2.8446289  0.023488809   -3.8739146    1.0292857      8192000 
  601000   0.79589469    -3.873148    -3.873148   -2.8440511  0.029124391    -3.873148    1.0290969      8192000 
  602000   0.79562853   -3.8731114   -3.8731114   -2.8443586  0.025790313   -3.8731114    1.0287528      8192000 
  603000   0.79548834   -3.8732213   -3.8732213   -2.8446498    0.0282082   -3.8732213    1.0285715      8192000 
  604000   0.79622987   -3.8734837   -3.8734837   -2.8439535  0.027516753   -3.8734837    1.0295303      8192000 
  605000   0.79625583    -3.873797    -3.873797   -2.8442332  0.028401261    -3.873797    1.0295639      8192000 
  606000   0.79641716   -3.8736928   -3.8736928   -2.8439204  0.028470914   -3.8736928    1.0297725      8192000 
  607000   0.79628961   -3.8737777   -3.8737777   -2.8441701  0.027844014   -3.8737777    1.0296075      8192000 
  608000   0.79636497   -3.8738166   -3.8738166   -2.8441116  0.028740278   -3.8738166     1.029705      8192000 
  609000   0.79626662   -3.8735392   -3.8735392   -2.8439614  0.027314273   -3.8735392    1.0295778      8192000 
  610000    0.7962613   -3.8737186   -3.8737186   -2.8441476  0.025745671   -3.8737186    1.0295709      8192000 
  611000   0.79630187   -3.8737988   -3.8737988   -2.8441754  0.026019527   -3.8737988    1.0296234      8192000 
  612000   0.79659974    -3.874086    -3.874086   -2.8440775   0.02884146    -3.874086    1.0300085      8192000 
  613000   0.79659982    -3.873728    -3.873728   -2.8437194  0.028232275    -3.873728    1.0300087      8192000 
  614000   0.79622583      -3.8737      -3.8737   -2.8441749  0.027128015      -3.8737    1.0295251      8192000 
  615000   0.79636978    -3.873856    -3.873856   -2.8441448  0.025139471    -3.873856    1.0297112      8192000 
  616000   0.79611726   -3.8733807   -3.8733807    -2.843996  0.029181441   -3.8733807    1.0293847      8192000 
  617000   0.79625178   -3.8732792   -3.8732792   -2.8437205  0.028951498   -3.8732792    1.0295586      8192000 
  618000   0.79605482    -3.873407    -3.873407   -2.8441031  0.027580247    -3.873407     1.029304      8192000 
  619000    0.7956978   -3.8728263   -3.8728263    -2.843984  0.029082042   -3.8728263    1.0288423      8192000 
  620000   0.79579646   -3.8731158   -3.8731158   -2.8441459  0.028785125   -3.8731158    1.0289699      8192000 
  621000   0.79599014   -3.8735537   -3.8735537   -2.8443334  0.027960708   -3.8735537    1.0292203      8192000 
  622000   0.79622432   -3.8736212   -3.8736212    -2.844098  0.027256217   -3.8736212    1.0295231      8192000 
  623000   0.79610197   -3.8731745   -3.8731745   -2.8438095  0.026459136   -3.8731745    1.0293649      8192000 
  624000   0.79583988   -3.8734183   -3.8734183   -2.8443923  0.025930421   -3.8734183     1.029026      8192000 
  625000   0.79594802   -3.8727072   -3.8727072   -2.8435414   0.02728333   -3.8727072    1.0291659      8192000 
  626000   0.79594193   -3.8727962   -3.8727962   -2.8436382  0.026669397   -3.8727962     1.029158      8192000 
  627000    0.7963842   -3.8734388   -3.8734388    -2.843709  0.027243952   -3.8734388    1.0297299      8192000 
  628000   0.79559292   -3.8730186   -3.8730186   -2.8443118  0.026611874   -3.8730186    1.0287067      8192000 
  629000   0.79580368   -3.8730598   -3.8730598   -2.8440806  0.027465028   -3.8730598    1.0289792      8192000 
  630000   0.79607331   -3.8731765   -3.8731765   -2.8438486  0.027469622   -3.8731765    1.0293279      8192000 
  631000   0.79600906   -3.8733027   -3.8733027   -2.8440579  0.027521137   -3.8733027    1.0292448      8192000 
  632000   0.79605497   -3.8732394   -3.8732394   -2.8439352  0.026470213   -3.8732394    1.0293041      8192000 
  633000   0.79572456   -3.8728414   -3.8728414   -2.8439645  0.028545413   -3.8728414    1.0288769      8192000 
  634000    0.7960933   -3.8732489   -3.8732489   -2.8438952  0.026000771   -3.8732489    1.0293537      8192000 
  635000    0.7959699   -3.8732089   -3.8732089   -2.8440147  0.027971139   -3.8732089    1.0291941      8192000 
  636000   0.79626757   -3.8734884   -3.8734884   -2.8439093  0.025967111   -3.8734884     1.029579      8192000 
  637000   0.79603353   -3.8732254   -3.8732254    -2.843949  0.026580117   -3.8732254    1.0292764      8192000 
  638000   0.79625149   -3.8732176   -3.8732176   -2.8436593   0.02762243   -3.8732176    1.0295583      8192000 
  639000   0.79644088   -3.8733419   -3.8733419   -2.8435387  0.028849956   -3.8733419    1.0298031      8192000 
  640000   0.79610496   -3.8736227   -3.8736227   -2.8442539  0.028738469   -3.8736227    1.0293688      8192000 
  641000   0.79680989   -3.8737997   -3.8737997   -2.8435194  0.028131656   -3.8737997    1.0302803      8192000 
  642000   0.79664456   -3.8738103   -3.8738103   -2.8437438  0.027944523   -3.8738103    1.0300665      8192000 
  643000    0.7968874   -3.8740137   -3.8740137   -2.8436332  0.028385094   -3.8740137    1.0303805      8192000 
  644000    0.7963313   -3.8730781   -3.8730781   -2.8434166  0.030043049   -3.8730781    1.0296614      8192000 
  645000   0.79659596   -3.8738163   -3.8738163   -2.8438126  0.028733791   -3.8738163    1.0300037      8192000 
  646000   0.79672953   -3.8734992   -3.8734992   -2.8433229   0.03106167   -3.8734992    1.0301764      8192000 
  647000   0.79639814   -3.8733946   -3.8733946   -2.8436467  0.029453915   -3.8733946    1.0297479      8192000 
  648000   0.79638044   -3.8734327   -3.8734327   -2.8437077  0.028592123   -3.8734327     1.029725      8192000 
  649000   0.79649827   -3.8732569   -3.8732569   -2.8433796   0.02980691   -3.8732569    1.0298773      8192000 
  650000    0.7967654   -3.8738511   -3.8738511   -2.8436283  0.028473822   -3.8738511    1.0302227      8192000 
  651000   0.79635839   -3.8731736   -3.8731736   -2.8434771  0.028110121   -3.8731736    1.0296965      8192000 
  652000   0.79687102   -3.8732924   -3.8732924   -2.8429331  0.028684222   -3.8732924    1.0303593      8192000 
  653000   0.79673597   -3.8733173   -3.8733173   -2.8431327  0.027117455   -3.8733173    1.0301847      8192000 
  654000   0.79633301    -3.872794    -3.872794   -2.8431303  0.026482965    -3.872794    1.0296637      8192000 
  655000   0.79620467   -3.8728323   -3.8728323   -2.8433345  0.027649006   -3.8728323    1.0294977      8192000 
  656000   0.79595566   -3.8726073   -3.8726073   -2.8434316  0.024065932   -3.8726073    1.0291757      8192000 
  657000   0.79656406   -3.8729302   -3.8729302   -2.8429677  0.024781081   -3.8729302    1.0299624      8192000 
  658000   0.79621501   -3.8727634   -3.8727634   -2.8432523  0.022719459   -3.8727634    1.0295111      8192000 
  659000   0.79637674   -3.8728588   -3.8728588   -2.8431386  0.025832376   -3.8728588    1.0297202      8192000 
  660000   0.79658676   -3.8731645   -3.8731645   -2.8431727  0.026089444   -3.8731645    1.0299918      8192000 
  661000   0.79630511   -3.8730382   -3.8730382   -2.8434106   0.02233554   -3.8730382    1.0296276      8192000 
  662000   0.79599344   -3.8722512   -3.8722512   -2.8430266  0.027361123   -3.8722512    1.0292246      8192000 
  663000   0.79614474   -3.8719766   -3.8719766   -2.8425564  0.025215777   -3.8719766    1.0294202      8192000 
  664000    0.7960565   -3.8721769   -3.8721769   -2.8428708   0.02639237   -3.8721769    1.0293061      8192000 
  665000     0.796115   -3.8720665   -3.8720665   -2.8426847    0.0224077   -3.8720665    1.0293818      8192000 
  666000   0.79597706   -3.8718698   -3.8718698   -2.8426664  0.025477488   -3.8718698    1.0292034      8192000 
  667000   0.79610504   -3.8724195   -3.8724195   -2.8430506  0.026905813   -3.8724195    1.0293689      8192000 
  668000   0.79637364    -3.872723    -3.872723   -2.8430068  0.024147221    -3.872723    1.0297162      8192000 
  669000   0.79640551   -3.8727854   -3.8727854    -2.843028  0.026809795   -3.8727854    1.0297574      8192000 
  670000   0.79636504   -3.8728555   -3.8728555   -2.8431504  0.024149546   -3.8728555    1.0297051      8192000 
  671000   0.79621569   -3.8729916   -3.8729916   -2.8434797  0.023620877   -3.8729916     1.029512      8192000 
  672000   0.79565501   -3.8718682   -3.8718682   -2.8430812  0.029924742   -3.8718682     1.028787      8192000 
  673000   0.79595992   -3.8728304   -3.8728304   -2.8436491   0.02543375   -3.8728304    1.0291813      8192000 
  674000   0.79646322   -3.8731224   -3.8731224   -2.8432904  0.027731647   -3.8731224     1.029832      8192000 
  675000   0.79652691   -3.8730501   -3.8730501   -2.8431358  0.027114035   -3.8730501    1.0299144      8192000 
  676000   0.79625017   -3.8728568   -3.8728568   -2.8433002  0.028286177   -3.8728568    1.0295565      8192000 
  677000   0.79645743   -3.8727913   -3.8727913   -2.8429668  0.030853669   -3.8727913    1.0298245      8192000 
  678000   0.79664373   -3.8730233   -3.8730233   -2.8429579  0.025776331   -3.8730233    1.0300654      8192000 
  679000   0.79663806   -3.8726991   -3.8726991    -2.842641  0.030312125   -3.8726991    1.0300581      8192000 
  680000   0.79704662   -3.8734796   -3.8734796   -2.8428932  0.029217468   -3.8734796    1.0305864      8192000 
  681000   0.79691469   -3.8736617   -3.8736617   -2.8432459  0.027664517   -3.8736617    1.0304158      8192000 
  682000   0.79686697   -3.8736761   -3.8736761    -2.843322  0.025220805   -3.8736761    1.0303541      8192000 
  683000   0.79686118   -3.8736491   -3.8736491   -2.8433025  0.028005438   -3.8736491    1.0303466      8192000 
  684000   0.79661827    -3.873513    -3.873513   -2.8434805  0.028495296    -3.873513    1.0300325      8192000 
  685000   0.79704377   -3.8736406   -3.8736406   -2.8430579  0.030687039   -3.8736406    1.0305827      8192000 
  686000   0.79653653   -3.8735857   -3.8735857   -2.8436589  0.027014805   -3.8735857    1.0299268      8192000 
  687000   0.79639504   -3.8731217   -3.8731217   -2.8433779  0.030489317   -3.8731217    1.0297439      8192000 
  688000   0.79626617   -3.8729289   -3.8729289   -2.8433517  0.028660397   -3.8729289    1.0295772      8192000 
  689000   0.79634286   -3.8727457   -3.8727457   -2.8430693  0.030149396   -3.8727457    1.0296764      8192000 
  690000   0.79622255   -3.8730244   -3.8730244   -2.8435035  0.027120545   -3.8730244    1.0295208      8192000 
  691000   0.79666967   -3.8727976   -3.8727976   -2.8426986  0.028292181   -3.8727976     1.030099      8192000 
  692000    0.7966485   -3.8729959   -3.8729959   -2.8429243  0.027498257   -3.8729959    1.0300716      8192000 
  693000   0.79624691   -3.8727839   -3.8727839   -2.8432316  0.030918506   -3.8727839    1.0295523      8192000 
  694000   0.79617716   -3.8725324   -3.8725324   -2.8430703  0.028498853   -3.8725324    1.0294621      8192000 
  695000   0.79646476    -3.872809    -3.872809    -2.842975  0.027890436    -3.872809     1.029834      8192000 
  696000   0.79603995   -3.8726827   -3.8726827    -2.843398  0.027764224   -3.8726827    1.0292847      8192000 
  697000   0.79610377   -3.8719872   -3.8719872   -2.8426199  0.026886678   -3.8719872    1.0293672      8192000 
  698000   0.79631332   -3.8721621   -3.8721621   -2.8425239  0.026620258   -3.8721621    1.0296382      8192000 
  699000   0.79567262   -3.8715336   -3.8715336   -2.8427238  0.026461935   -3.8715336    1.0288098      8192000 
  700000   0.79628297   -3.8718889   -3.8718889     -2.84229   0.02625178   -3.8718889     1.029599      8192000 
  701000   0.79582393   -3.8717953   -3.8717953   -2.8427899   0.02406626   -3.8717953    1.0290054      8192000 
  702000   0.79613112   -3.8717961   -3.8717961   -2.8423935  0.026885993   -3.8717961    1.0294026      8192000 
  703000   0.79652898   -3.8719022   -3.8719022   -2.8419852   0.02660432   -3.8719022     1.029917      8192000 
  704000   0.79675871   -3.8724098   -3.8724098   -2.8421957   0.02474498   -3.8724098    1.0302141      8192000 
  705000    0.7964533   -3.8720411   -3.8720411   -2.8422219  0.028602748   -3.8720411    1.0298192      8192000 
  706000   0.79636651   -3.8722511   -3.8722511   -2.8425441  0.025203295   -3.8722511     1.029707      8192000 
  707000   0.79620881   -3.8718383   -3.8718383   -2.8423352  0.028041302   -3.8718383    1.0295031      8192000 
  708000    0.7963948   -3.8721515   -3.8721515   -2.8424079  0.026472566   -3.8721515    1.0297436      8192000 
  709000   0.79643602   -3.8721642   -3.8721642   -2.8423673  0.024603857   -3.8721642    1.0297969      8192000 
  710000   0.79584512   -3.8714118   -3.8714118   -2.8423789  0.027682032   -3.8714118    1.0290328      8192000 
  711000   0.79614685   -3.8720324   -3.8720324   -2.8426095  0.024797888   -3.8720324    1.0294229      8192000 
  712000   0.79590883   -3.8718786   -3.8718786   -2.8427634  0.023636718   -3.8718786    1.0291152      8192000 
  713000   0.79623085    -3.872294    -3.872294   -2.8427625  0.025872697    -3.872294    1.0295316      8192000 
  714000    0.7965258   -3.8723342   -3.8723342   -2.8424212  0.025090758   -3.8723342    1.0299129      8192000 
  715000   0.79612801   -3.8721389   -3.8721389   -2.8427403  0.029434639   -3.8721389    1.0293986      8192000 
  716000    0.7960041   -3.8723827   -3.8723827   -2.8431443  0.027300597   -3.8723827    1.0292384      8192000 
  717000   0.79662311   -3.8729939   -3.8729939   -2.8429552  0.027113528   -3.8729939    1.0300388      8192000 
  718000   0.79657633   -3.8727316   -3.8727316   -2.8427533  0.026822496   -3.8727316    1.0299783      8192000 
  719000   0.79678538   -3.8731842   -3.8731842   -2.8429356  0.027888646   -3.8731842    1.0302486      8192000 
  720000   0.79662341    -3.872863    -3.872863   -2.8428239  0.028024619    -3.872863    1.0300391      8192000 
  721000   0.79686334   -3.8729548   -3.8729548   -2.8426054  0.026235756   -3.8729548    1.0303494      8192000 
  722000   0.79667864   -3.8730396   -3.8730396    -2.842929  0.029349007   -3.8730396    1.0301106      8192000 
  723000   0.79678478   -3.8728534   -3.8728534   -2.8426056  0.029418989   -3.8728534    1.0302478      8192000 
  724000   0.79689753   -3.8730067   -3.8730067   -2.8426132  0.028294356   -3.8730067    1.0303936      8192000 
  725000   0.79671279   -3.8731964   -3.8731964   -2.8430417  0.029165647   -3.8731964    1.0301547      8192000 
  726000   0.79646158   -3.8726934   -3.8726934   -2.8428635  0.026818971   -3.8726934    1.0298299      8192000 
  727000   0.79646497   -3.8730269   -3.8730269   -2.8431926   0.02867397   -3.8730269    1.0298343      8192000 
  728000   0.79667694   -3.8729416   -3.8729416   -2.8428333  0.029418695   -3.8729416    1.0301084      8192000 
  729000   0.79680306   -3.8733448   -3.8733448   -2.8430734  0.028290406   -3.8733448    1.0302714      8192000 
  730000   0.79675949   -3.8730492   -3.8730492   -2.8428341  0.026863376   -3.8730492    1.0302151      8192000 
  731000   0.79681446   -3.8731658   -3.8731658   -2.8428796  0.025115307   -3.8731658    1.0302862      8192000 
  732000   0.79632823   -3.8727728   -3.8727728   -2.8431153  0.028011993   -3.8727728    1.0296575      8192000 
  733000   0.79614024   -3.8722768   -3.8722768   -2.8428623  0.028729759   -3.8722768    1.0294144      8192000 
  734000   0.79586105   -3.8721646   -3.8721646   -2.8431112  0.027700472   -3.8721646    1.0290534      8192000 
  735000   0.79609932   -3.8722212   -3.8722212   -2.8428597  0.027644526   -3.8722212    1.0293615      8192000 
  736000   0.79606189   -3.8724364   -3.8724364   -2.8431233  0.029590241   -3.8724364    1.0293131      8192000 
  737000   0.79598017   -3.8721662   -3.8721662   -2.8429588  0.025617294   -3.8721662    1.0292074      8192000 
  738000   0.79615975   -3.8718813   -3.8718813   -2.8424417  0.024847403   -3.8718813    1.0294396      8192000 
  739000   0.79563174   -3.8715249   -3.8715249    -2.842768  0.029019985   -3.8715249    1.0287569      8192000 
  740000   0.79547485   -3.8715727   -3.8715727   -2.8430186   0.02652523   -3.8715727    1.0285541      8192000 
  741000   0.79586322   -3.8717152   -3.8717152    -2.842659  0.026075231   -3.8717152    1.0290562      8192000 
  742000   0.79583285   -3.8717971   -3.8717971   -2.8427801  0.025910792   -3.8717971     1.029017      8192000 
  743000   0.79560738   -3.8713717   -3.8713717   -2.8426463  0.028436366   -3.8713717    1.0287254      8192000 
  744000   0.79596293   -3.8720541   -3.8720541   -2.8428689  0.025413958   -3.8720541    1.0291851      8192000 
  745000   0.79568462   -3.8716296   -3.8716296   -2.8428043  0.027864517   -3.8716296    1.0288253      8192000 
  746000   0.79602613    -3.871872    -3.871872   -2.8426052  0.024907269    -3.871872    1.0292669      8192000 
  747000   0.79624196   -3.8720431   -3.8720431   -2.8424972  0.027257584   -3.8720431    1.0295459      8192000 
  748000   0.79614195   -3.8718927   -3.8718927   -2.8424761  0.024586206   -3.8718927    1.0294166      8192000 
  749000   0.79593515   -3.8716576   -3.8716576   -2.8425084   0.02722765   -3.8716576    1.0291492      8192000 
  750000     0.796375   -3.8719902   -3.8719902   -2.8422723   0.02576931   -3.8719902     1.029718      8192000 
  751000   0.79657544   -3.8721587   -3.8721587   -2.8421816  0.026925615   -3.8721587    1.0299771      8192000 
  752000   0.79624359    -3.871783    -3.871783    -2.842235  0.027679135    -3.871783     1.029548      8192000 
  753000   0.79691967   -3.8723836   -3.8723836   -2.8419614  0.025157532   -3.8723836    1.0304222      8192000 
  754000   0.79695774   -3.8724508   -3.8724508   -2.8419793  0.027612929   -3.8724508    1.0304714      8192000 
  755000   0.79692652   -3.8728027   -3.8728027   -2.8423716  0.025238568   -3.8728027    1.0304311      8192000 
  756000   0.79689814    -3.872799    -3.872799   -2.8424046  0.026629476    -3.872799    1.0303944      8192000 
  757000   0.79668452   -3.8723686   -3.8723686   -2.8422505  0.028192933   -3.8723686    1.0301182      8192000 
  758000    0.7968824   -3.8725486   -3.8725486   -2.8421745  0.031501069   -3.8725486     1.030374      8192000 
  759000   0.79682537   -3.8727243   -3.8727243    -2.842424  0.026328905   -3.8727243    1.0303003      8192000 
  760000   0.79668698   -3.8725634   -3.8725634    -2.842442   0.02731181   -3.8725634    1.0301213      8192000 
  761000   0.79645148   -3.8728513   -3.8728513   -2.8430344  0.027857617   -3.8728513    1.0298168      8192000 
  762000   0.79617024    -3.872134    -3.872134   -2.8426808  0.026749194    -3.872134    1.0294532      8192000 
  763000   0.79600668    -3.872061    -3.872061   -2.8428193  0.025528637    -3.872061    1.0292417      8192000 
  764000   0.79612848   -3.8720698   -3.8720698   -2.8426706  0.025035517   -3.8720698    1.0293992      8192000 
  765000   0.79643427    -3.872489    -3.872489   -2.8426944  0.026245618    -3.872489    1.0297946      8192000 
  766000   0.79666758   -3.8723009   -3.8723009   -2.8422046  0.029924659   -3.8723009    1.0300963      8192000 
  767000    0.7966352   -3.8725342   -3.8725342   -2.8424798   0.02794457   -3.8725342    1.0300544      8192000 
  768000   0.79679802    -3.872864    -3.872864   -2.8425991  0.028894648    -3.872864    1.0302649      8192000 
  769000   0.79639161   -3.8718732   -3.8718732   -2.8421337  0.028908751   -3.8718732    1.0297394      8192000 
  770000   0.79669222   -3.8723822   -3.8723822   -2.8422541  0.028337614   -3.8723822    1.0301281      8192000 
  771000   0.79668795   -3.8724753   -3.8724753   -2.8423527  0.026408389   -3.8724753    1.0301226      8192000 
  772000   0.79639899   -3.8719529   -3.8719529    -2.842204  0.027856538   -3.8719529     1.029749      8192000 
  773000   0.79630852   -3.8719708   -3.8719708   -2.8423388  0.026988561   -3.8719708     1.029632      8192000 
  774000   0.79638817   -3.8718438   -3.8718438   -2.8421088  0.027707303   -3.8718438     1.029735      8192000 
  775000   0.79623818   -3.8722614   -3.8722614   -2.8427203  0.023310307   -3.8722614     1.029541      8192000 
  776000   0.79597143   -3.8722412   -3.8722412   -2.8430451  0.026358171   -3.8722412    1.0291961      8192000 
  777000   0.79583244   -3.8714415   -3.8714415    -2.842425  0.027684289   -3.8714415    1.0290164      8192000 
  778000   0.79581813    -3.871963    -3.871963   -2.8429651  0.025565567    -3.871963    1.0289979      8192000 
  779000   0.79650598   -3.8721636   -3.8721636   -2.8422763  0.023558154   -3.8721636    1.0298873      8192000 
  780000   0.79617031   -3.8719079   -3.8719079   -2.8424546  0.026047505   -3.8719079    1.0294533      8192000 
  781000   0.79580545   -3.8717601   -3.8717601   -2.8427785  0.024324191   -3.8717601    1.0289815      8192000 
  782000   0.79597706   -3.8717743   -3.8717743   -2.8425709   0.03181616   -3.8717743    1.0292034      8192000 
  783000   0.79657378   -3.8727075   -3.8727075   -2.8427325  0.024468771   -3.8727075     1.029975      8192000 
  784000    0.7962558   -3.8719596   -3.8719596   -2.8423958  0.029106366   -3.8719596    1.0295638      8192000 
  785000   0.79607855   -3.8721026   -3.8721026   -2.8427679  0.025633224   -3.8721026    1.0293346      8192000 
  786000   0.79643364   -3.8725926   -3.8725926   -2.8427989  0.024819989   -3.8725926    1.0297938      8192000 
  787000   0.79607291   -3.8720788   -3.8720788   -2.8427515    0.0278028   -3.8720788    1.0293274      8192000 
  788000   0.79640463   -3.8723331   -3.8723331   -2.8425769  0.026220562   -3.8723331    1.0297563      8192000 
  789000   0.79675605   -3.8724338   -3.8724338   -2.8422231  0.025447674   -3.8724338    1.0302107      8192000 
  790000   0.79649596    -3.872474    -3.872474   -2.8425996  0.027108339    -3.872474    1.0298743      8192000 
  791000   0.79629703   -3.8723167   -3.8723167   -2.8426996  0.030950195   -3.8723167    1.0296171      8192000 
  792000   0.79679091   -3.8730276   -3.8730276   -2.8427719  0.029605989   -3.8730276    1.0302557      8192000 
  793000   0.79640767   -3.8725287   -3.8725287   -2.8427686  0.029360303   -3.8725287    1.0297602      8192000 
  794000   0.79671271   -3.8725518   -3.8725518   -2.8423972  0.028282297   -3.8725518    1.0301546      8192000 
  795000   0.79701009   -3.8726308   -3.8726308   -2.8420916  0.029533906   -3.8726308    1.0305391      8192000 
  796000   0.79679175   -3.8727467   -3.8727467   -2.8424899  0.028898881   -3.8727467    1.0302568      8192000 
  797000   0.79659794   -3.8725013   -3.8725013   -2.8424951  0.028099004   -3.8725013    1.0300062      8192000 
  798000   0.79652507   -3.8722183   -3.8722183   -2.8423063  0.028643625   -3.8722183     1.029912      8192000 
  799000    0.7971722   -3.8729113   -3.8729113   -2.8421625  0.027101313   -3.8729113    1.0307487      8192000 
  800000   0.79667962   -3.8723569   -3.8723569    -2.842245  0.028662278   -3.8723569    1.0301118      8192000 
  801000   0.79674953   -3.8725923   -3.8725923   -2.8423901  0.029303011   -3.8725923    1.0302022      8192000 
  802000    0.7968401   -3.8725061   -3.8725061   -2.8421868  0.029500626   -3.8725061    1.0303193      8192000 
  803000   0.79652326   -3.8724091   -3.8724091   -2.8424995  0.026721737   -3.8724091    1.0299097      8192000 
  804000   0.79651129   -3.8721229   -3.8721229   -2.8422287  0.024720238   -3.8721229    1.0298942      8192000 
  805000   0.79637792   -3.8719518   -3.8719518   -2.8422301  0.028884376   -3.8719518    1.0297217      8192000 
  806000   0.79644829   -3.8719435   -3.8719435   -2.8421308  0.026988866   -3.8719435    1.0298127      8192000 
  807000   0.79676911   -3.8720374   -3.8720374   -2.8418099  0.027130096   -3.8720374    1.0302275      8192000 
  808000    0.7962775   -3.8717018   -3.8717018     -2.84211  0.026483894   -3.8717018    1.0295919      8192000 
  809000   0.79632648   -3.8714127   -3.8714127   -2.8417575  0.029088179   -3.8714127    1.0296552      8192000 
  810000   0.79633407   -3.8715198   -3.8715198   -2.8418548  0.026303015   -3.8715198     1.029665      8192000 
  811000   0.79646349    -3.871986    -3.871986   -2.8421536  0.024426898    -3.871986    1.0298324      8192000 
  812000   0.79641515   -3.8712396   -3.8712396   -2.8414698  0.026911514   -3.8712396    1.0297699      8192000 
  813000   0.79580536   -3.8711109   -3.8711109   -2.8421295  0.027019796   -3.8711109    1.0289814      8192000 
  814000   0.79614165   -3.8714888   -3.8714888   -2.8420725  0.025840727   -3.8714888    1.0294162      8192000 
  815000      0.79626   -3.8711195   -3.8711195   -2.8415503  0.027325041   -3.8711195    1.0295693      8192000 
  816000   0.79628257   -3.8714112   -3.8714112   -2.8418128  0.027889655   -3.8714112    1.0295984      8192000 
  817000   0.79657845   -3.8713776   -3.8713776   -2.8413965  0.026897793   -3.8713776     1.029981      8192000 
  818000   0.79657159   -3.8715488   -3.8715488   -2.8415767  0.025541988   -3.8715488    1.0299721      8192000 
  819000   0.79655706    -3.871391    -3.871391   -2.8414376  0.028378047    -3.871391    1.0299534      8192000 
  820000   0.79586295    -3.870951    -3.870951   -2.8418951  0.026630031    -3.870951    1.0290559      8192000 
  821000   0.79639798   -3.8715056   -3.8715056   -2.8417579  0.025708955   -3.8715056    1.0297477      8192000 
  822000   0.79643682   -3.8714601   -3.8714601   -2.8416622  0.026760415   -3.8714601    1.0297979      8192000 
  823000   0.79648508   -3.8716583   -3.8716583    -2.841798  0.027668475   -3.8716583    1.0298603      8192000 
  824000    0.7969157   -3.8717568   -3.8717568   -2.8413398  0.027293053   -3.8717568    1.0304171      8192000 
  825000   0.79623052   -3.8713407   -3.8713407   -2.8418095  0.028354565   -3.8713407    1.0295311      8192000 
  826000   0.79658023   -3.8717591   -3.8717591   -2.8417758  0.024907633   -3.8717591    1.0299833      8192000 
  827000   0.79633608   -3.8715295   -3.8715295   -2.8418619  0.027234944   -3.8715295    1.0296676      8192000 
  828000   0.79668879   -3.8719143   -3.8719143   -2.8417907  0.025814419   -3.8719143    1.0301237      8192000 
  829000   0.79685696   -3.8719152   -3.8719152   -2.8415741  0.024797237   -3.8719152    1.0303411      8192000 
  830000   0.79658467   -3.8714601   -3.8714601   -2.8414711  0.029868744   -3.8714601    1.0299891      8192000 
  831000   0.79709658   -3.8720888   -3.8720888   -2.8414378  0.027516548   -3.8720888     1.030651      8192000 
  832000   0.79673282   -3.8720617   -3.8720617   -2.8418811  0.031424485   -3.8720617    1.0301806      8192000 
  833000   0.79692122   -3.8720854   -3.8720854   -2.8416612  0.029278565   -3.8720854    1.0304242      8192000 
  834000   0.79702056   -3.8720634   -3.8720634   -2.8415107  0.028315035   -3.8720634    1.0305527      8192000 
  835000   0.79692021   -3.8720302   -3.8720302   -2.8416073  0.028531309   -3.8720302    1.0304229      8192000 
  836000   0.79715843   -3.8720708   -3.8720708   -2.8413399  0.030969373   -3.8720708    1.0307309      8192000 
  837000   0.79648195   -3.8718696   -3.8718696   -2.8420134  0.029529074   -3.8718696    1.0298562      8192000 
  838000    0.7968988   -3.8720421   -3.8720421   -2.8416469   0.02780799   -3.8720421    1.0303952      8192000 
  839000   0.79695867   -3.8718422   -3.8718422   -2.8413695  0.029204139   -3.8718422    1.0304726      8192000 
  840000   0.79654563   -3.8715962   -3.8715962   -2.8416576  0.027745863   -3.8715962    1.0299386      8192000 
  841000   0.79675199   -3.8716552   -3.8716552   -2.8414498  0.027529262   -3.8716552    1.0302054      8192000 
  842000   0.79681587   -3.8715516   -3.8715516   -2.8412636  0.027386264   -3.8715516     1.030288      8192000 
  843000   0.79671454   -3.8714135   -3.8714135   -2.8412565  0.028824796   -3.8714135     1.030157      8192000 
  844000   0.79658387   -3.8716772   -3.8716772   -2.8416891  0.027742786   -3.8716772     1.029988      8192000 
  845000   0.79703262   -3.8717306   -3.8717306   -2.8411623   0.02809231   -3.8717306    1.0305683      8192000 
  846000   0.79636266   -3.8708064   -3.8708064   -2.8411044  0.028186302   -3.8708064     1.029702      8192000 
  847000   0.79661642   -3.8711724   -3.8711724   -2.8411423  0.027471247   -3.8711724    1.0300301      8192000 
  848000   0.79677721   -3.8712474   -3.8712474   -2.8410093  0.030580447   -3.8712474     1.030238      8192000 
  849000   0.79700029   -3.8712297   -3.8712297   -2.8407032  0.024105148   -3.8712297    1.0305265      8192000 
  850000   0.79684328   -3.8713699   -3.8713699   -2.8410465  0.025612003   -3.8713699    1.0303234      8192000 
  851000   0.79683102   -3.8712635   -3.8712635   -2.8409559  0.024882933   -3.8712635    1.0303076      8192000 
  852000   0.79664074   -3.8711782   -3.8711782   -2.8411167  0.026000617   -3.8711782    1.0300615      8192000 
  853000   0.79633756   -3.8705604   -3.8705604   -2.8408909  0.027936616   -3.8705604    1.0296695      8192000 
  854000    0.7967245   -3.8710114   -3.8710114   -2.8408416  0.025889726   -3.8710114    1.0301699      8192000 
  855000   0.79666293   -3.8708308   -3.8708308   -2.8407405   0.02596085   -3.8708308    1.0300902      8192000 
  856000   0.79637712   -3.8701634   -3.8701634   -2.8404427  0.025220463   -3.8701634    1.0297207      8192000 
  857000   0.79600286   -3.8702846   -3.8702846   -2.8410478  0.026089187   -3.8702846    1.0292368      8192000 
  858000   0.79649031   -3.8711324   -3.8711324   -2.8412653  0.024892715   -3.8711324     1.029867      8192000 
  859000   0.79621372   -3.8703777   -3.8703777   -2.8408682  0.027603932   -3.8703777    1.0295094      8192000 
  860000   0.79629448   -3.8708931   -3.8708931   -2.8412792  0.027312238   -3.8708931    1.0296138      8192000 
  861000    0.7962835   -3.8708597   -3.8708597   -2.8412601  0.026805241   -3.8708597    1.0295996      8192000 
  862000   0.79625316   -3.8704828   -3.8704828   -2.8409223    0.0281527   -3.8704828    1.0295604      8192000 
  863000   0.79650415   -3.8709911   -3.8709911   -2.8411062  0.024315857   -3.8709911    1.0298849      8192000 
  864000   0.79663904   -3.8711683   -3.8711683   -2.8411089  0.025854404   -3.8711683    1.0300594      8192000 
  865000   0.79701641   -3.8711149   -3.8711149   -2.8405676  0.027932831   -3.8711149    1.0305473      8192000 
  866000   0.79680493   -3.8711181   -3.8711181   -2.8408443   0.02474513   -3.8711181    1.0302739      8192000 
  867000   0.79669647   -3.8711091   -3.8711091   -2.8409755  0.028523409   -3.8711091    1.0301336      8192000 
  868000   0.79712418   -3.8718061   -3.8718061   -2.8411194  0.026209264   -3.8718061    1.0306866      8192000 
  869000   0.79670878   -3.8709431   -3.8709431   -2.8407935  0.031413619   -3.8709431    1.0301495      8192000 
  870000   0.79687825   -3.8714328   -3.8714328   -2.8410642  0.028230388   -3.8714328    1.0303687      8192000 
  871000   0.79686411    -3.871372    -3.871372   -2.8410216  0.028328228    -3.871372    1.0303504      8192000 
  872000   0.79676828   -3.8714712   -3.8714712   -2.8412448   0.02679127   -3.8714712    1.0302265      8192000 
  873000   0.79674717   -3.8712826   -3.8712826   -2.8410834  0.026564808   -3.8712826    1.0301992      8192000 
  874000   0.79706694   -3.8713981   -3.8713981   -2.8407855  0.028505993   -3.8713981    1.0306126      8192000 
  875000   0.79714846    -3.871532    -3.871532   -2.8408139  0.029294304    -3.871532     1.030718      8192000 
  876000   0.79686585   -3.8716889   -3.8716889   -2.8413363  0.024915242   -3.8716889    1.0303526      8192000 
  877000    0.7968191   -3.8712519   -3.8712519   -2.8409597  0.027432881   -3.8712519    1.0302922      8192000 
  878000   0.79696291   -3.8718411   -3.8718411    -2.841363  0.026691954   -3.8718411    1.0304781      8192000 
  879000   0.79731492   -3.8717347   -3.8717347   -2.8408014  0.028168743   -3.8717347    1.0309333      8192000 
  880000   0.79719334   -3.8714929   -3.8714929   -2.8407168   0.02880086   -3.8714929    1.0307761      8192000 
  881000   0.79668001    -3.870908    -3.870908   -2.8407957  0.029925529    -3.870908    1.0301123      8192000 
  882000   0.79687766   -3.8711367   -3.8711367   -2.8407688  0.029043268   -3.8711367    1.0303679      8192000 
  883000   0.79656568   -3.8707645   -3.8707645      -2.8408  0.030239458   -3.8707645    1.0299645      8192000 
  884000   0.79733136    -3.871745    -3.871745   -2.8407905  0.025266024    -3.871745    1.0309545      8192000 
  885000   0.79650824   -3.8708127   -3.8708127   -2.8409224  0.027181203   -3.8708127    1.0298902      8192000 
  886000   0.79656136   -3.8709537   -3.8709537   -2.8409948  0.026676887   -3.8709537    1.0299589      8192000 
  887000   0.79686098   -3.8708552   -3.8708552   -2.8405089  0.028260153   -3.8708552    1.0303463      8192000 
  888000   0.79677812   -3.8706411   -3.8706411   -2.8404019  0.028699711   -3.8706411    1.0302392      8192000 
  889000   0.79690912   -3.8709981   -3.8709981   -2.8405896  0.025723925   -3.8709981    1.0304086      8192000 
  890000   0.79705078   -3.8714208   -3.8714208    -2.840829  0.026365094   -3.8714208    1.0305917      8192000 
  891000   0.79677992   -3.8707148   -3.8707148   -2.8404733  0.028683994   -3.8707148    1.0302415      8192000 
  892000   0.79680962   -3.8706283   -3.8706283   -2.8403484  0.021899159   -3.8706283    1.0302799      8192000 
  893000    0.7967495   -3.8704817   -3.8704817   -2.8402795   0.02630984   -3.8704817    1.0302022      8192000 
  894000    0.7962928   -3.8701268   -3.8701268   -2.8405152   0.02833727   -3.8701268    1.0296117      8192000 
  895000   0.79672486   -3.8708361   -3.8708361   -2.8406658  0.026916004   -3.8708361    1.0301703      8192000 
  896000   0.79681695   -3.8709459   -3.8709459   -2.8406565  0.025438079   -3.8709459    1.0302894      8192000 
  897000   0.79658902   -3.8705468   -3.8705468   -2.8405521  0.027273626   -3.8705468    1.0299947      8192000 
  898000   0.79650576   -3.8704147   -3.8704147   -2.8405277  0.026580064   -3.8704147     1.029887      8192000 
  899000   0.79655791   -3.8706415   -3.8706415   -2.8406871  0.024357801   -3.8706415    1.0299545      8192000 
  900000   0.79668955   -3.8704578   -3.8704578   -2.8403331  0.025570926   -3.8704578    1.0301247      8192000 
  901000   0.79668768    -3.870635    -3.870635   -2.8405127   0.02753179    -3.870635    1.0301222      8192000 
  902000   0.79680995   -3.8709582   -3.8709582   -2.8406778  0.024777734   -3.8709582    1.0302803      8192000 
  903000   0.79686461    -3.870651    -3.870651      -2.8403  0.028265956    -3.870651     1.030351      8192000 
  904000   0.79655657   -3.8709481   -3.8709481   -2.8409954  0.027765198   -3.8709481    1.0299527      8192000 
  905000   0.79636918    -3.870637    -3.870637   -2.8409266  0.030231625    -3.870637    1.0297104      8192000 
  906000   0.79662945   -3.8709478   -3.8709478   -2.8409009  0.025130689   -3.8709478     1.030047      8192000 
  907000   0.79668589   -3.8710626   -3.8710626   -2.8409427  0.027898438   -3.8710626    1.0301199      8192000 
  908000   0.79696628   -3.8709633   -3.8709633   -2.8404808  0.030048564   -3.8709633    1.0304825      8192000 
  909000   0.79762362   -3.8718663   -3.8718663   -2.8405338  0.026420453   -3.8718663    1.0313324      8192000 
  910000   0.79738889   -3.8716891   -3.8716891   -2.8406602   0.03163334   -3.8716891    1.0310289      8192000 
  911000    0.7975893   -3.8718371   -3.8718371   -2.8405491  0.029305013   -3.8718371     1.031288      8192000 
  912000   0.79715559   -3.8712888   -3.8712888   -2.8405616  0.027885964   -3.8712888    1.0307273      8192000 
  913000    0.7968894   -3.8710493   -3.8710493   -2.8406662  0.028179842   -3.8710493    1.0303831      8192000 
  914000   0.79679978   -3.8709904   -3.8709904   -2.8407232  0.028907753   -3.8709904    1.0302672      8192000 
  915000   0.79741396   -3.8716137   -3.8716137   -2.8405523  0.028285149   -3.8716137    1.0310613      8192000 
  916000   0.79718177   -3.8713367   -3.8713367   -2.8405756  0.027035446   -3.8713367    1.0307611      8192000 
  917000   0.79720242   -3.8709507   -3.8709507   -2.8401629  0.028541161   -3.8709507    1.0307878      8192000 
  918000   0.79723986   -3.8715105   -3.8715105   -2.8406743   0.02835552   -3.8715105    1.0308362      8192000 
  919000   0.79708184   -3.8711921   -3.8711921   -2.8405602  0.027572294   -3.8711921    1.0306319      8192000 
  920000   0.79640679   -3.8704034   -3.8704034   -2.8406444    0.0259492   -3.8704034    1.0297591      8192000 
  921000   0.79684759   -3.8709258   -3.8709258   -2.8405968  0.025785469   -3.8709258     1.030329      8192000 
  922000   0.79668185   -3.8705604   -3.8705604   -2.8404457  0.026428026   -3.8705604    1.0301147      8192000 
  923000    0.7959047   -3.8697999   -3.8697999     -2.84069  0.029364859   -3.8697999    1.0291099      8192000 
  924000   0.79682322   -3.8706409   -3.8706409   -2.8403434  0.025101353   -3.8706409    1.0302975      8192000 
  925000   0.79597252   -3.8700027   -3.8700027   -2.8408051  0.025729274   -3.8700027    1.0291975      8192000 
  926000   0.79619474   -3.8700587   -3.8700587   -2.8405739   0.02545935   -3.8700587    1.0294849      8192000 
  927000   0.79652569   -3.8704561   -3.8704561   -2.8405433   0.02413783   -3.8704561    1.0299128      8192000 
  928000   0.79677869   -3.8705317   -3.8705317   -2.8402918  0.024910153   -3.8705317    1.0302399      8192000 
  929000   0.79635699   -3.8700608   -3.8700608   -2.8403662  0.027649862   -3.8700608    1.0296947      8192000 
  930000   0.79627747   -3.8702502   -3.8702502   -2.8406583  0.025519491   -3.8702502    1.0295918      8192000 
  931000   0.79669814    -3.870546    -3.870546   -2.8404102  0.028148952    -3.870546    1.0301358      8192000 
  932000   0.79656449   -3.8704354   -3.8704354   -2.8404724   0.02712886   -3.8704354     1.029963      8192000 
  933000   0.79650046   -3.8704905   -3.8704905   -2.8406104  0.026468908   -3.8704905    1.0298802      8192000 
  934000   0.79684012   -3.8707435   -3.8707435   -2.8404242   0.02641607   -3.8707435    1.0303194      8192000 
  935000   0.79675222    -3.870828    -3.870828   -2.8406223  0.026711486    -3.870828    1.0302057      8192000 
  936000    0.7966158   -3.8707993   -3.8707993     -2.84077    0.0278818   -3.8707993    1.0300293      8192000 
  937000   0.79679164   -3.8707375   -3.8707375   -2.8404808  0.026869796   -3.8707375    1.0302567      8192000 
  938000   0.79700317   -3.8708059   -3.8708059   -2.8402758  0.029289373   -3.8708059    1.0305302      8192000 
  939000   0.79711689   -3.8708807   -3.8708807   -2.8402034  0.029424916   -3.8708807    1.0306772      8192000 
  940000   0.79761823   -3.8718398   -3.8718398   -2.8405144  0.027830625   -3.8718398    1.0313255      8192000 
  941000   0.79717589   -3.8712734   -3.8712734   -2.8405199  0.029088591   -3.8712734    1.0307535      8192000 
  942000   0.79744784   -3.8714063   -3.8714063   -2.8403012  0.027735217   -3.8714063    1.0311051      8192000 
  943000   0.79660441   -3.8707481   -3.8707481   -2.8407335  0.029683082   -3.8707481    1.0300146      8192000 
  944000   0.79689179   -3.8711478   -3.8711478   -2.8407616  0.028878063   -3.8711478    1.0303862      8192000 
  945000    0.7971257   -3.8711781   -3.8711781   -2.8404895  0.029348686   -3.8711781    1.0306886      8192000 
  946000   0.79712865   -3.8713002   -3.8713002   -2.8406078   0.02925534   -3.8713002    1.0306924      8192000 
  947000   0.79692086   -3.8710847   -3.8710847    -2.840661  0.026931807   -3.8710847    1.0304238      8192000 
  948000   0.79674859   -3.8707586   -3.8707586   -2.8405576  0.030734227   -3.8707586     1.030201      8192000 
  949000   0.79691053   -3.8708037   -3.8708037   -2.8403933  0.029057888   -3.8708037    1.0304104      8192000 
  950000   0.79716984   -3.8709373   -3.8709373   -2.8401916  0.027148382   -3.8709373    1.0307457      8192000 
  951000    0.7970027   -3.8707606   -3.8707606   -2.8402311  0.027364674   -3.8707606    1.0305296      8192000 
  952000   0.79692959   -3.8709737   -3.8709737   -2.8405387   0.02623401   -3.8709737     1.030435      8192000 
  953000   0.79728899   -3.8708852   -3.8708852   -2.8399855  0.026827638   -3.8708852    1.0308998      8192000 
  954000   0.79742027   -3.8716581   -3.8716581   -2.8405886    0.0262798   -3.8716581    1.0310695      8192000 
  955000   0.79709094   -3.8707316   -3.8707316   -2.8400879  0.026348018   -3.8707316    1.0306437      8192000 
  956000   0.79726495   -3.8710941   -3.8710941   -2.8402254   0.02486435   -3.8710941    1.0308687      8192000 
  957000   0.79660817   -3.8706436   -3.8706436   -2.8406242  0.023771013   -3.8706436    1.0300194      8192000 
  958000   0.79620255   -3.8701089   -3.8701089   -2.8406139  0.026564404   -3.8701089     1.029495      8192000 
  959000   0.79628238   -3.8701049   -3.8701049   -2.8405067   0.02482654   -3.8701049    1.0295982      8192000 
  960000    0.7965957   -3.8702148   -3.8702148   -2.8402115  0.025851876   -3.8702148    1.0300033      8192000 
  961000   0.79621838    -3.869891    -3.869891   -2.8403755  0.024553299    -3.869891    1.0295154      8192000 
  962000   0.79636286   -3.8700015   -3.8700015   -2.8402992   0.02563935   -3.8700015    1.0297023      8192000 
  963000   0.79614068   -3.8699041   -3.8699041   -2.8404891  0.026317643   -3.8699041     1.029415      8192000 
  964000   0.79624532   -3.8694341   -3.8694341   -2.8398838  0.025980213   -3.8694341    1.0295503      8192000 
  965000   0.79669311   -3.8696614   -3.8696614   -2.8395321  0.028688356   -3.8696614    1.0301293      8192000 
  966000   0.79683664   -3.8705815   -3.8705815   -2.8402666  0.027744378   -3.8705815    1.0303149      8192000 
  967000    0.7967913   -3.8703758   -3.8703758   -2.8401196  0.026969692   -3.8703758    1.0302562      8192000 
  968000   0.79687304    -3.870219    -3.870219    -2.839857  0.029652609    -3.870219    1.0303619      8192000 
  969000   0.79687152   -3.8707366   -3.8707366   -2.8403766  0.027382588   -3.8707366    1.0303599      8192000 
  970000   0.79714423   -3.8702259   -3.8702259   -2.8395133  0.027899054   -3.8702259    1.0307126      8192000 
  971000   0.79675269   -3.8702613   -3.8702613    -2.840055  0.027273914   -3.8702613    1.0302063      8192000 
  972000   0.79702798   -3.8705056   -3.8705056   -2.8399433  0.027870377   -3.8705056    1.0305623      8192000 
  973000   0.79703503     -3.87085     -3.87085   -2.8402786  0.025391494     -3.87085    1.0305714      8192000 
  974000   0.79691181   -3.8706666   -3.8706666   -2.8402546  0.024977045   -3.8706666     1.030412      8192000 
  975000   0.79669063    -3.870459    -3.870459   -2.8403329  0.024595492    -3.870459    1.0301261      8192000 
  976000   0.79659734   -3.8700982   -3.8700982   -2.8400928  0.027999827   -3.8700982    1.0300054      8192000 
  977000   0.79646351   -3.8703914   -3.8703914    -2.840559  0.027436195   -3.8703914    1.0298324      8192000 
  978000   0.79709448   -3.8708178   -3.8708178   -2.8401695  0.026746136   -3.8708178    1.0306482      8192000 
  979000   0.79710439   -3.8710885   -3.8710885   -2.8404275  0.028458165   -3.8710885    1.0306611      8192000 
  980000   0.79740291    -3.871259    -3.871259   -2.8402119  0.027720896    -3.871259     1.031047      8192000 
  981000   0.79666335   -3.8704775   -3.8704775   -2.8403867  0.027771004   -3.8704775    1.0300908      8192000 
  982000   0.79673792   -3.8704264   -3.8704264   -2.8402392   0.02974254   -3.8704264    1.0301872      8192000 
  983000   0.79682474    -3.870647    -3.870647   -2.8403475  0.029610136    -3.870647    1.0302995      8192000 
  984000   0.79707736   -3.8711524   -3.8711524   -2.8405263  0.027040347   -3.8711524    1.0306261      8192000 
  985000   0.79669319   -3.8704703   -3.8704703   -2.8403409  0.027592912   -3.8704703    1.0301294      8192000 
  986000   0.79703221    -3.871127    -3.871127   -2.8405592   0.02730068    -3.871127    1.0305677      8192000 
  987000   0.79663881   -3.8704991   -3.8704991   -2.8404401  0.031056685   -3.8704991    1.0300591      8192000 
  988000   0.79713364   -3.8711022   -3.8711022   -2.8404033  0.025267757   -3.8711022    1.0306989      8192000 
  989000   0.79688463   -3.8705905   -3.8705905   -2.8402136  0.030435479   -3.8705905    1.0303769      8192000 
  990000   0.79743447   -3.8711677   -3.8711677   -2.8400798  0.028675429   -3.8711677    1.0310879      8192000 
  991000   0.79706118   -3.8711133   -3.8711133   -2.8405081  0.025404539   -3.8711133    1.0306052      8192000 
  992000     0.797059   -3.8708669   -3.8708669   -2.8402646  0.025715292   -3.8708669    1.0306024      8192000 
  993000   0.79709966    -3.870645    -3.870645   -2.8399901  0.027409377    -3.870645    1.0306549      8192000 
  994000   0.79677951   -3.8707127   -3.8707127   -2.8404717  0.026826217   -3.8707127     1.030241      8192000 
  995000    0.7963562   -3.8705262   -3.8705262   -2.8408325  0.027347532   -3.8705262    1.0296936      8192000 
  996000   0.79643376     -3.87022     -3.87022   -2.8404261  0.025512633     -3.87022    1.0297939      8192000 
  997000   0.79648057   -3.8703312   -3.8703312   -2.8404768  0.025813653   -3.8703312    1.0298545      8192000 
  998000   0.79649933   -3.8704361   -3.8704361   -2.8405574   0.02426617   -3.8704361    1.0298787      8192000 
  999000     0.796321     -3.87016     -3.87016   -2.8405119  0.028757992     -3.87016    1.0296481      8192000 
 1000000   0.79666546   -3.8702449   -3.8702449   -2.8401514  0.027375737   -3.8702449    1.0300935      8192000 
Loop time of 19910.1 on 240 procs for 1000000 steps with 4233413 atoms

Performance: 21697.536 tau/day, 50.226 timesteps/s
97.6% CPU use with 240 MPI tasks x 1 OpenMP threads

MPI task timing breakdown:
Section |  min time  |  avg time  |  max time  |%varavg|  %CPU | %total
-----------------------------------------------------------------------
Pair    | 6670.5     | 7578.1     | 8980.3     | 627.7 |  99.4 | 38.06
Bond    | 0.82525    | 0.92627    | 1.0565     |   3.9 | 100.0 |  0.00
Neigh   | 4546.7     | 6040.7     | 7678.4     | 761.7 |  99.6 | 30.34
Comm    | 1710.1     | 3504.1     | 5346.9     |1274.6 |  93.8 | 17.60
Output  | 279.87     | 283.39     | 289.61     |  19.9 |  91.4 |  1.42
Modify  | 1513.5     | 2326.2     | 3147.9     | 780.1 |  93.6 | 11.68
Other   |            | 176.8      |            |       |       |  0.89

Nlocal:        17639.2 ave       19872 max       16122 min
Histogram: 11 19 33 52 64 33 15 6 6 1
Nghost:        16110.5 ave       21096 max        9494 min
Histogram: 21 12 7 20 14 28 47 52 31 8
Neighs:        569986.0 ave      654852 max      462737 min
Histogram: 3 4 4 22 89 55 3 10 29 21

Total # of neighbors = 1.3679668e+08
Ave neighs/atom = 32.313569
Ave special neighs/atom = 0.0000000
Neighbor list builds = 100000
Dangerous builds = 99000
Total wall time: 5:32:07
