LAMMPS (24 Dec 2020)
OMP_NUM_THREADS environment is not set. Defaulting to 1 thread. (src/comm.cpp:94)
  using 1 OpenMP thread(s) per MPI task
# Simple rigid body system
# needed variables:

#variable	startTemp equal 0.5
#variable 	temp 	  equal 0.8

units		lj
atom_style	full
dimension 	3
boundary	p p f
pair_style	lj/smooth ${cutin} ${cutout}
pair_style	lj/smooth 2.00 ${cutout}
pair_style	lj/smooth 2.00 3.00


variable 	sigma		equal 1.0
variable 	epsilon 	equal 1.0

region		box block 0 80 0 80 0 160
create_box 	3 box
Created orthogonal box = (0.0000000 0.0000000 0.0000000) to (80.000000 80.000000 160.00000)
  3 by 4 by 8 MPI processor grid



lattice 	sc 0.66
Lattice spacing in x,y,z = 1.1485556 1.1485556 1.1485556
region		fluid block EDGE EDGE EDGE EDGE 2 100 units box
create_atoms 	1 region fluid
Created 421400 atoms
  create_atoms CPU = 0.104 seconds

lattice 	sc 0.045
Lattice spacing in x,y,z = 2.8114422 2.8114422 2.8114422
region		gas block EDGE EDGE EDGE EDGE 101 158 units box
create_atoms    1 region gas
Created 17661 atoms
  create_atoms CPU = 0.004 seconds

group		solvent type 1
439061 atoms in group solvent

mass		1 1.0
mass		2 1.0
mass		3 1.0



neighbor 	0.4 bin

pair_coeff	1 1 1.0 1.0
pair_coeff	2 2 0.0 0.0
pair_coeff	3 3 0.0 0.0
pair_coeff	2 3 0.0 0.0
pair_coeff	1 2*3 0.0 0.0

pair_modify 	shift yes

delete_atoms	overlap 0.5 solvent solvent
System init for delete_atoms ...
Neighbor list info ...
  update every 1 steps, delay 10 steps, check yes
  max neighbors/atom: 2000, page size: 100000
  master list distance cutoff = 3.4
  ghost atom cutoff = 3.4
  binsize = 1.7, bins = 48 48 95
  2 neighbor lists, perpetual/occasional/extra = 1 1 0
  (1) command delete_atoms, occasional
      attributes: full, newton on
      pair build: full/bin
      stencil: full/bin/3d
      bin: standard
  (2) pair lj/smooth, perpetual
      attributes: half, newton on
      pair build: half/bin/newton
      stencil: half/bin/3d/newton
      bin: standard
WARNING: Ignoring 'compress yes' for molecular system (src/delete_atoms.cpp:125)
Deleted 0 atoms, new total = 439061

velocity 	solvent create ${startTemp} 563435 loop geom
velocity 	solvent create 1.0 563435 loop geom

balance 	1.05 shift z 10 1.05
Balancing ...
Neighbor list info ...
  update every 1 steps, delay 10 steps, check yes
  max neighbors/atom: 2000, page size: 100000
  master list distance cutoff = 3.4
  ghost atom cutoff = 3.4
  binsize = 1.7, bins = 48 48 95
  1 neighbor lists, perpetual/occasional/extra = 1 0 0
  (1) pair lj/smooth, perpetual
      attributes: half, newton on
      pair build: half/bin/newton
      stencil: half/bin/3d/newton
      bin: standard
 rebalancing time: 0.012 seconds
  iteration count = 5
  initial/final maximal load/proc = 7776.0000 5616.0000
  initial/final imbalance factor  = 1.7002102 1.2279296
  x cuts: 0.0000000 0.33333333 0.66666667 1.0000000
  y cuts: 0.0000000 0.25000000 0.50000000 0.75000000 1.0000000
  z cuts: 0.0000000 0.089843750 0.17578125 0.25390625 0.33593750 0.41406250 0.50390625 0.58203125 1.0000000


####################### WALLS ###########################


variable       epsilonWall equal 2*${epsilon}
variable       epsilonWall equal 2*1

variable       cutoffTop   equal   0.7147*${sigma}
variable       cutoffTop   equal   0.7147*1

variable       cutoffLow   equal   3*${sigma}
variable       cutoffLow   equal   3*1


fix            topWall all wall/lj93 zhi EDGE                ${epsilonWall} ${sigma} ${cutoffTop} units box
fix            topWall all wall/lj93 zhi EDGE                2 ${sigma} ${cutoffTop} units box
fix            topWall all wall/lj93 zhi EDGE                2 1 ${cutoffTop} units box
fix            topWall all wall/lj93 zhi EDGE                2 1 0.7147 units box

fix            lowWall all wall/lj93 zlo EDGE                ${epsilonWall} ${sigma} ${cutoffLow} units box
fix            lowWall all wall/lj93 zlo EDGE                2 ${sigma} ${cutoffLow} units box
fix            lowWall all wall/lj93 zlo EDGE                2 1 ${cutoffLow} units box
fix            lowWall all wall/lj93 zlo EDGE                2 1 3 units box


###################### COMPUTES ##########################

compute        bin1 solvent chunk/atom bin/1d z upper 1.0


######################	FIXES ############################


fix 		peclet solvent ave/chunk 1000 1 1000 bin1 density/number norm 		 none ave one file density.profile

fix 		 temp solvent ave/chunk 1000 1 1000 bin1 temp norm 		 none ave one file temp.profile

fix 		2 solvent nve


## Thermostat


region		regthermo block EDGE EDGE EDGE EDGE 0 20 units box

group 		thermo dynamic solvent region regthermo every 1000
dynamic group thermo defined

fix 		3 thermo langevin ${startTemp} ${temp} 10 156453
fix 		3 thermo langevin 1.0 ${temp} 10 156453
fix 		3 thermo langevin 1.0 1.0 10 156453



#### Load balancing


fix 		bal all balance 1000 1.05 shift z 10 1.05


############### Diagnostics and computes ###################
#compute 	com cube	  rigid/local	1 mol x y z
#compute 	quat cube	  rigid/local	1 mol quatw quati quatj quatk

thermo 		1000
thermo_style 	custom step temp epair evdwl etotal press pe ke atoms

dump		1 all custom 100000 dump.lammpstrj id mol type x y z
dump 		2 all image 10000 image.*.png type type
dump 		3 all movie 1000 movie.avi type type

#dump 		com cube local 1000 dump.*.xyz c_com[*]
#dump		quat cube      local 1000 dump.*.quat c_quat[*]


restart 	1000000 restart.dat
timestep 	0.005
timer 		full
New timer settings: style=full  mode=nosync  timeout=off

run		3000000
Per MPI rank memory allocation (min/avg/max) = 10.71 | 11.93 | 17.63 Mbytes
Step Temp E_pair E_vdwl TotEng Press PotEng KinEng Atoms 
       0            1   -1.1445448   -1.1445448   0.35545175     4.056778   -1.1445448    1.4999966   439061 
    1000    2.0022901   -3.1242699   -3.1242699   -0.1208416      2.09073   -3.1242699    3.0034283   439061 
    2000    1.8758852   -3.1152926   -3.1152926  -0.30147113     1.229161   -3.1152926    2.8138214   439061 
    3000    1.6946978    -3.001347    -3.001347  -0.45930606   0.88709824    -3.001347    2.5420409   439061 
    4000     1.602662   -2.9646762   -2.9646762  -0.56068866   0.69171476   -2.9646762    2.4039875   439061 
    5000    1.5514811   -2.9249494   -2.9249494  -0.59773297    0.5528988   -2.9249494    2.3272164   439061 
    6000    1.5127767   -2.8671517   -2.8671517  -0.59799188   0.45255446   -2.8671517    2.2691599   439061 
    7000    1.4892251   -2.8163577   -2.8163577  -0.58252509   0.43119371   -2.8163577    2.2338326   439061 
    8000    1.4751411    -2.776819    -2.776819  -0.56411244   0.45861906    -2.776819    2.2127066   439061 
    9000    1.4808035   -2.7658765   -2.7658765  -0.54467628   0.50559854   -2.7658765    2.2212002   439061 
   10000    1.4955077   -2.7699936   -2.7699936  -0.52673717   0.56283483   -2.7699936    2.2432565   439061 
   11000    1.5071465   -2.7732426   -2.7732426  -0.51252796   0.58837098   -2.7732426    2.2607146   439061 
   12000    1.5105485   -2.7682215   -2.7682215  -0.50240391    0.6038766   -2.7682215    2.2658176   439061 
   13000    1.5039676   -2.7497409   -2.7497409  -0.49379463   0.57751407   -2.7497409    2.2559462   439061 
   14000    1.4844271   -2.7121146   -2.7121146  -0.48547899    0.5258029   -2.7121146    2.2266356   439061 
   15000     1.462189   -2.6723921   -2.6723921  -0.47911366   0.48157011   -2.6723921    2.1932784   439061 
   16000    1.4464704   -2.6421485   -2.6421485  -0.47244786   0.45318919   -2.6421485    2.1697007   439061 
   17000     1.436558    -2.623607    -2.623607  -0.46877497   0.44387523    -2.623607    2.1548321   439061 
   18000    1.4325384   -2.6252389   -2.6252389  -0.47643623   0.46031092   -2.6252389    2.1488027   439061 
   19000    1.4213953   -2.6417406   -2.6417406  -0.50965252   0.47268964   -2.6417406    2.1320881   439061 
   20000    1.4023214   -2.6664097   -2.6664097  -0.56293233   0.48724256   -2.6664097    2.1034774   439061 
   21000    1.3814771   -2.6885001   -2.6885001  -0.61628914   0.49742327   -2.6885001     2.072211   439061 
   22000    1.3676522   -2.7101249   -2.7101249  -0.65865123   0.49393549   -2.7101249    2.0514736   439061 
   23000    1.3597583   -2.7326455   -2.7326455   -0.6930127   0.49952147   -2.7326455    2.0396328   439061 
   24000    1.3503159   -2.7481723   -2.7481723  -0.72270303   0.49800196   -2.7481723    2.0254693   439061 
   25000     1.343344   -2.7616867   -2.7616867  -0.74667538   0.49958832   -2.7616867    2.0150114   439061 
   26000    1.3340237   -2.7653725   -2.7653725  -0.76434147   0.48832016   -2.7653725    2.0010311   439061 
   27000    1.3230126   -2.7629425   -2.7629425  -0.77842812   0.46948378   -2.7629425    1.9845143   439061 
   28000    1.3134712   -2.7597739   -2.7597739  -0.78957154    0.4454659   -2.7597739    1.9702024   439061 
   29000    1.3008954   -2.7487709   -2.7487709  -0.79743224   0.41784591   -2.7487709    1.9513387   439061 
   30000    1.2876289   -2.7359984   -2.7359984  -0.80455951   0.39100596   -2.7359984    1.9314389   439061 
   31000    1.2745602   -2.7204387   -2.7204387  -0.80860272   0.36442811   -2.7204387     1.911836   439061 
   32000    1.2594289   -2.7014959   -2.7014959  -0.81235687   0.33598489   -2.7014959     1.889139   439061 
   33000    1.2469705   -2.6825692   -2.6825692  -0.81211771    0.3177563   -2.6825692    1.8704515   439061 
   34000    1.2381484   -2.6669119   -2.6669119  -0.80969343   0.30876598   -2.6669119    1.8572184   439061 
   35000     1.234244   -2.6581836   -2.6581836  -0.80682182   0.29145624   -2.6581836    1.8513617   439061 
   36000    1.2325784   -2.6524798   -2.6524798  -0.80361638   0.28642749   -2.6524798    1.8488634   439061 
   37000    1.2308901   -2.6453832   -2.6453832  -0.79905229   0.27836233   -2.6453832    1.8463309   439061 
   38000    1.2315543   -2.6413006   -2.6413006  -0.79397335   0.28543339   -2.6413006    1.8473273   439061 
   39000    1.2322011   -2.6374251   -2.6374251  -0.78912777   0.28642214   -2.6374251    1.8482974   439061 
   40000    1.2339389   -2.6350127   -2.6350127  -0.78410858   0.28998428   -2.6350127    1.8509042   439061 
   41000    1.2346989   -2.6323102   -2.6323102  -0.78026608    0.2901777   -2.6323102    1.8520441   439061 
   42000    1.2364195   -2.6296131   -2.6296131  -0.77498805   0.28398264   -2.6296131     1.854625   439061 
   43000    1.2361726   -2.6232414   -2.6232414   -0.7689867    0.2890302   -2.6232414    1.8542547   439061 
   44000    1.2323987   -2.6135716   -2.6135716  -0.76497779   0.28315841   -2.6135716    1.8485938   439061 
   45000     1.231747   -2.6080295   -2.6080295  -0.76041318   0.27211207   -2.6080295    1.8476163   439061 
   46000    1.2312499   -2.6036123   -2.6036123  -0.75674155   0.27012726   -2.6036123    1.8468707   439061 
   47000    1.2317594   -2.6027587   -2.6027587  -0.75512381   0.27035881   -2.6027587    1.8476349   439061 
   48000    1.2324341   -2.6046726   -2.6046726  -0.75602569   0.27969796   -2.6046726     1.848647   439061 
   49000      1.23335   -2.6137317   -2.6137317  -0.76371092   0.29177252   -2.6137317    1.8500208   439061 
   50000    1.2329689    -2.625499    -2.625499  -0.77604992   0.29741208    -2.625499    1.8494491   439061 
   51000    1.2298455   -2.6370993   -2.6370993  -0.79233533   0.30609183   -2.6370993     1.844764   439061 
   52000    1.2266559   -2.6485924   -2.6485924  -0.80861275   0.30622022   -2.6485924    1.8399796   439061 
   53000    1.2234168   -2.6566222   -2.6566222  -0.82150119   0.30309572   -2.6566222     1.835121   439061 
   54000    1.2192755   -2.6632924   -2.6632924   -0.8343833   0.30838334   -2.6632924    1.8289091   439061 
   55000    1.2192866   -2.6723354   -2.6723354  -0.84340968   0.30731872   -2.6723354    1.8289257   439061 
   56000    1.2159018   -2.6772781   -2.6772781  -0.85342948   0.30874318   -2.6772781    1.8238486   439061 
   57000    1.2151988   -2.6837815   -2.6837815  -0.86098744   0.30714069   -2.6837815     1.822794   439061 
   58000     1.213684   -2.6891405   -2.6891405  -0.86861863   0.30641268   -2.6891405    1.8205219   439061 
   59000    1.2103909   -2.6898348   -2.6898348   -0.8742526   0.30397008   -2.6898348    1.8155822   439061 
   60000    1.2050482   -2.6865324   -2.6865324   -0.8789642   0.30031186   -2.6865324    1.8075682   439061 
   61000    1.2022774   -2.6854549   -2.6854549    -0.882043   0.28890132   -2.6854549    1.8034119   439061 
   62000    1.1963761   -2.6785386   -2.6785386  -0.88397849    0.2847261   -2.6785386    1.7945601   439061 
   63000    1.1916487   -2.6742737   -2.6742737   -0.8868048   0.27157949   -2.6742737    1.7874689   439061 
   64000    1.1863875   -2.6672107   -2.6672107  -0.88763358   0.26335198   -2.6672107    1.7795772   439061 
   65000    1.1808988   -2.6598341   -2.6598341     -0.88849   0.25874821   -2.6598341    1.7713441   439061 
   66000    1.1780829   -2.6545913   -2.6545913  -0.88747094   0.24731776   -2.6545913    1.7671204   439061 
   67000    1.1760108   -2.6511024   -2.6511024  -0.88709015   0.23801438   -2.6511024    1.7640122   439061 
   68000    1.1715436   -2.6430674   -2.6430674  -0.88575597   0.23617496   -2.6430674    1.7573114   439061 
   69000    1.1725163    -2.642433    -2.642433  -0.88366257   0.23341742    -2.642433    1.7587705   439061 
   70000    1.1710375   -2.6381435   -2.6381435  -0.88159133   0.23010578   -2.6381435    1.7565522   439061 
   71000     1.169951   -2.6334621   -2.6334621  -0.87853969   0.22597617   -2.6334621    1.7549224   439061 
   72000    1.1685156   -2.6298405   -2.6298405  -0.87707107   0.22327806   -2.6298405    1.7527694   439061 
   73000    1.1712021   -2.6294872   -2.6294872  -0.87268797   0.22328098   -2.6294872    1.7567992   439061 
   74000    1.1710859   -2.6250344   -2.6250344  -0.86840951     0.223895   -2.6250344    1.7566249   439061 
   75000     1.172628   -2.6257684   -2.6257684  -0.86683038    0.2251614   -2.6257684     1.758938   439061 
   76000     1.170295   -2.6206349   -2.6206349  -0.86519637   0.22615062   -2.6206349    1.7554385   439061 
   77000    1.1720687   -2.6209768   -2.6209768  -0.86287769   0.22236784   -2.6209768    1.7580991   439061 
   78000    1.1723296   -2.6182641   -2.6182641  -0.85977374   0.22304609   -2.6182641    1.7584903   439061 
   79000    1.1719661   -2.6177022   -2.6177022  -0.85975706   0.22150018   -2.6177022    1.7579452   439061 
   80000     1.174258   -2.6192398   -2.6192398  -0.85785684   0.22858008   -2.6192398    1.7613829   439061 
   81000    1.1770464   -2.6246334   -2.6246334  -0.85906788   0.23394161   -2.6246334    1.7655655   439061 
   82000    1.1764515    -2.630304    -2.630304  -0.86563085   0.23909009    -2.630304    1.7646732   439061 
   83000    1.1762219   -2.6360482   -2.6360482  -0.87171935   0.23913267   -2.6360482    1.7643289   439061 
   84000    1.1754268    -2.641681    -2.641681   -0.8785448   0.24363668    -2.641681    1.7631362   439061 
   85000    1.1764235   -2.6476775   -2.6476775  -0.88304624   0.24779163   -2.6476775    1.7646313   439061 
   86000    1.1752551   -2.6524977   -2.6524977  -0.88961908   0.24824284   -2.6524977    1.7628787   439061 
   87000    1.1742519   -2.6563128   -2.6563128  -0.89493902   0.24981275   -2.6563128    1.7613738   439061 
   88000    1.1737327   -2.6619085   -2.6619085  -0.90131338   0.25229741   -2.6619085    1.7605951   439061 
   89000    1.1738446   -2.6669915   -2.6669915  -0.90622864   0.25299981   -2.6669915    1.7607628   439061 
   90000    1.1741518   -2.6714585   -2.6714585  -0.91023477   0.24528197   -2.6714585    1.7612237   439061 
   91000    1.1728369    -2.673513    -2.673513  -0.91426173   0.24844279    -2.673513    1.7592513   439061 
   92000    1.1692371   -2.6717411   -2.6717411  -0.91788945   0.24831781   -2.6717411    1.7538516   439061 
   93000    1.1666842   -2.6720416   -2.6720416   -0.9220192   0.24655564   -2.6720416    1.7500224   439061 
   94000    1.1651506   -2.6727628   -2.6727628  -0.92504084   0.24594158   -2.6727628     1.747722   439061 
   95000    1.1638364   -2.6721184   -2.6721184  -0.92636779   0.23471364   -2.6721184    1.7457506   439061 
   96000    1.1620573   -2.6704107   -2.6704107  -0.92732866   0.23466307   -2.6704107     1.743082   439061 
   97000    1.1584329   -2.6664715   -2.6664715  -0.92882606   0.23136329   -2.6664715    1.7376454   439061 
   98000    1.1580027   -2.6661808   -2.6661808   -0.9291807    0.2292099   -2.6661808    1.7370001   439061 
   99000    1.1551044   -2.6644358   -2.6644358  -0.93178311   0.22229679   -2.6644358    1.7326526   439061 
  100000    1.1521612   -2.6611033   -2.6611033  -0.93286537   0.21812501   -2.6611033    1.7282379   439061 
  101000    1.1516187   -2.6600202   -2.6600202  -0.93259615    0.2140905   -2.6600202    1.7274241   439061 
  102000    1.1491621   -2.6544325   -2.6544325  -0.93069325   0.21085663   -2.6544325    1.7237393   439061 
  103000    1.1474721   -2.6512258   -2.6512258  -0.93002157   0.20505524   -2.6512258    1.7212042   439061 
  104000    1.1468262   -2.6485696   -2.6485696   -0.9283343    0.2081941   -2.6485696    1.7202353   439061 
  105000    1.1466113    -2.646524    -2.646524  -0.92661098   0.20754814    -2.646524     1.719913   439061 
  106000    1.1474712   -2.6456298   -2.6456298  -0.92442702   0.20526329   -2.6456298    1.7212028   439061 
  107000    1.1468457   -2.6417586   -2.6417586  -0.92149402   0.20440678   -2.6417586    1.7202646   439061 
  108000    1.1486035   -2.6426756   -2.6426756  -0.91977431   0.20481449   -2.6426756    1.7229013   439061 
  109000    1.1479483   -2.6417609   -2.6417609  -0.91984232   0.20167831   -2.6417609    1.7219185   439061 
  110000    1.1478879   -2.6391164   -2.6391164  -0.91728842   0.20481422   -2.6391164    1.7218279   439061 
  111000    1.1475056   -2.6389982   -2.6389982  -0.91774363   0.20755921   -2.6389982    1.7212545   439061 
  112000    1.1476934   -2.6398288   -2.6398288  -0.91829256   0.20225847   -2.6398288    1.7215362   439061 
  113000    1.1505248   -2.6450254   -2.6450254  -0.91924215   0.20631095   -2.6450254    1.7257833   439061 
  114000    1.1487073   -2.6431931   -2.6431931  -0.92013601     0.205485   -2.6431931    1.7230571   439061 
  115000    1.1494681   -2.6456134   -2.6456134  -0.92141516   0.21266514   -2.6456134    1.7241982   439061 
  116000    1.1487935   -2.6477351   -2.6477351  -0.92454876   0.20984829   -2.6477351    1.7231864   439061 
  117000    1.1485004   -2.6500302   -2.6500302  -0.92728362   0.21924662   -2.6500302    1.7227466   439061 
  118000    1.1504238   -2.6558034   -2.6558034  -0.93017157   0.21966242   -2.6558034    1.7256318   439061 
  119000    1.1501805   -2.6585657   -2.6585657  -0.93329886   0.22174631   -2.6585657    1.7252668   439061 
  120000    1.1496555   -2.6609905   -2.6609905  -0.93651127    0.2211364   -2.6609905    1.7244793   439061 
  121000    1.1501375   -2.6648781   -2.6648781  -0.93967585   0.21894222   -2.6648781    1.7252023   439061 
  122000    1.1484682   -2.6649204   -2.6649204  -0.94222209   0.21865932   -2.6649204    1.7226983   439061 
  123000    1.1485951   -2.6684418   -2.6684418  -0.94555308   0.22302749   -2.6684418    1.7228887   439061 
  124000    1.1466975   -2.6683967   -2.6683967  -0.94835431   0.22546173   -2.6683967    1.7200423   439061 
  125000    1.1479599   -2.6732293   -2.6732293  -0.95129342   0.22194499   -2.6732293    1.7219359   439061 
  126000    1.1458044   -2.6725034   -2.6725034   -0.9538008   0.21982712   -2.6725034    1.7187026   439061 
  127000    1.1450528   -2.6720507   -2.6720507  -0.95447539    0.2224829   -2.6720507    1.7175753   439061 
  128000    1.1415407   -2.6686975   -2.6686975  -0.95639023   0.21742427   -2.6686975    1.7123072   439061 
  129000    1.1441948   -2.6746105   -2.6746105  -0.95832227   0.21048776   -2.6746105    1.7162883   439061 
  130000    1.1430528   -2.6733789   -2.6733789  -0.95880358   0.20771372   -2.6733789    1.7145753   439061 
  131000    1.1406445   -2.6682396   -2.6682396  -0.95727674   0.21501171   -2.6682396    1.7109629   439061 
  132000    1.1385031   -2.6668382   -2.6668382  -0.95908752   0.21167834   -2.6668382    1.7077507   439061 
  133000    1.1384993   -2.6642623   -2.6642623  -0.95651713   0.20434241   -2.6642623    1.7077451   439061 
  134000    1.1369656   -2.6629518   -2.6629518   -0.9575072   0.20408813   -2.6629518    1.7054446   439061 
  135000    1.1367085   -2.6620478   -2.6620478  -0.95698901   0.20183313   -2.6620478    1.7050588   439061 
  136000    1.1347193   -2.6600744   -2.6600744  -0.95799933   0.20142221   -2.6600744    1.7020751   439061 
  137000    1.1365949   -2.6619533   -2.6619533  -0.95706482   0.19569937   -2.6619533    1.7048885   439061 
  138000    1.1332247   -2.6574588   -2.6574588  -0.95762563   0.19786533   -2.6574588    1.6998332   439061 
  139000    1.1339362   -2.6591052   -2.6591052  -0.95820477   0.20036591   -2.6591052    1.7009004   439061 
  140000    1.1316066   -2.6556248   -2.6556248  -0.95821874    0.1948714   -2.6556248    1.6974061   439061 
  141000    1.1308014   -2.6551899   -2.6551899  -0.95899162   0.19257856   -2.6551899    1.6961983   439061 
  142000    1.1301272    -2.654399    -2.654399  -0.95921204   0.19544498    -2.654399     1.695187   439061 
  143000    1.1329713   -2.6576621   -2.6576621   -0.9582089   0.18850062   -2.6576621    1.6994532   439061 
  144000    1.1325079   -2.6572756   -2.6572756  -0.95851765     0.191589   -2.6572756     1.698758   439061 
  145000    1.1325877   -2.6567705   -2.6567705  -0.95789277   0.19774473   -2.6567705    1.6988777   439061 
  146000    1.1326622   -2.6578832   -2.6578832  -0.95889375   0.19423463   -2.6578832    1.6989895   439061 
  147000    1.1320514   -2.6586259   -2.6586259  -0.96055271    0.1968586   -2.6586259    1.6980732   439061 
  148000    1.1331361   -2.6614156   -2.6614156  -0.96171526   0.19363288   -2.6614156    1.6997003   439061 
  149000    1.1324832   -2.6617301   -2.6617301  -0.96300911   0.19549503   -2.6617301     1.698721   439061 
  150000    1.1325242   -2.6627554   -2.6627554  -0.96397294   0.19655324   -2.6627554    1.6987825   439061 
  151000    1.1311203   -2.6627437   -2.6627437  -0.96606708    0.1949408   -2.6627437    1.6966766   439061 
  152000    1.1336583   -2.6669922   -2.6669922  -0.96650862   0.19968535   -2.6669922    1.7004836   439061 
  153000    1.1332802   -2.6686512   -2.6686512  -0.96873485   0.20065174   -2.6686512    1.6999164   439061 
  154000    1.1347276   -2.6725417   -2.6725417  -0.97045421   0.20024121   -2.6725417    1.7020875   439061 
  155000    1.1341666   -2.6729258   -2.6729258  -0.97167973   0.20259879   -2.6729258    1.7012461   439061 
  156000    1.1334876    -2.673098    -2.673098  -0.97287049   0.20771289    -2.673098    1.7002275   439061 
  157000    1.1317358   -2.6736546   -2.6736546  -0.97605467   0.20627563   -2.6736546    1.6975999   439061 
  158000    1.1316846   -2.6769196   -2.6769196  -0.97939655   0.20155978   -2.6769196    1.6975231   439061 
  159000     1.132166   -2.6789137   -2.6789137  -0.98066859   0.20030974   -2.6789137    1.6982451   439061 
  160000    1.1311147     -2.68016     -2.68016   -0.9834919   0.20164768     -2.68016    1.6966681   439061 
  161000    1.1298762   -2.6792559   -2.6792559  -0.98444549   0.19603185   -2.6792559    1.6948104   439061 
  162000    1.1280855   -2.6767153   -2.6767153  -0.98459081   0.19920343   -2.6767153    1.6921244   439061 
  163000    1.1282358   -2.6787139   -2.6787139  -0.98636404   0.19662811   -2.6787139    1.6923499   439061 
  164000    1.1260321   -2.6774846   -2.6774846  -0.98844025   0.19245338   -2.6774846    1.6890443   439061 
  165000    1.1256705   -2.6774144   -2.6774144  -0.98891246    0.1920912   -2.6774144    1.6885019   439061 
  166000    1.1256446   -2.6771222   -2.6771222  -0.98865911   0.19316503   -2.6771222    1.6884631   439061 
  167000    1.1257494    -2.676799    -2.676799  -0.98817868   0.19056786    -2.676799    1.6886203   439061 
  168000    1.1246436   -2.6750161   -2.6750161   -0.9880545   0.19248698   -2.6750161    1.6869616   439061 
  169000    1.1237737   -2.6743473   -2.6743473  -0.98869058   0.18925374   -2.6743473    1.6856567   439061 
  170000    1.1223002   -2.6730759   -2.6730759  -0.98962941   0.19058939   -2.6730759    1.6834464   439061 
  171000    1.1209655   -2.6730322   -2.6730322   -0.9915877   0.18696325   -2.6730322    1.6814445   439061 
  172000    1.1204998   -2.6730038   -2.6730038  -0.99225794    0.1903464   -2.6730038    1.6807459   439061 
  173000    1.1206497   -2.6719647   -2.6719647  -0.99099399   0.18622922   -2.6719647    1.6809707   439061 
  174000    1.1212006   -2.6729079   -2.6729079  -0.99111089    0.1885415   -2.6729079    1.6817971   439061 
  175000    1.1202341   -2.6701371   -2.6701371  -0.98978969   0.18706468   -2.6701371    1.6803474   439061 
  176000    1.1220007   -2.6722697   -2.6722697  -0.98927249   0.18274711   -2.6722697    1.6829972   439061 
  177000    1.1231987   -2.6744981   -2.6744981  -0.98970391   0.18682101   -2.6744981    1.6847942   439061 
  178000    1.1213933   -2.6721393   -2.6721393  -0.99005326   0.18640962   -2.6721393    1.6820861   439061 
  179000    1.1228662   -2.6741972   -2.6741972  -0.98990171    0.1898967   -2.6741972    1.6842955   439061 
  180000    1.1229288   -2.6740806   -2.6740806   -0.9896912   0.18100238   -2.6740806    1.6843894   439061 
  181000     1.119888   -2.6705556   -2.6705556  -0.99072741   0.19108772   -2.6705556    1.6798282   439061 
  182000    1.1231914   -2.6750652   -2.6750652  -0.99028201   0.19121256   -2.6750652    1.6847832   439061 
  183000     1.122029   -2.6752826   -2.6752826    -0.992243   0.18902803   -2.6752826    1.6830396   439061 
  184000    1.1209181    -2.675289    -2.675289  -0.99391566   0.18765922    -2.675289    1.6813733   439061 
  185000    1.1220437   -2.6774344   -2.6774344   -0.9943727   0.18872988   -2.6774344    1.6830617   439061 
  186000    1.1213154   -2.6783278   -2.6783278  -0.99635853   0.19023248   -2.6783278    1.6819692   439061 
  187000    1.1189207   -2.6770472   -2.6770472  -0.99867001   0.19312068   -2.6770472    1.6783772   439061 
  188000    1.1204946   -2.6812697   -2.6812697   -1.0005315   0.18438837   -2.6812697    1.6807381   439061 
  189000    1.1214133   -2.6810294   -2.6810294  -0.99891321   0.18900909   -2.6810294    1.6821161   439061 
  190000    1.1210629   -2.6809919   -2.6809919  -0.99940144    0.1875128   -2.6809919    1.6815905   439061 
  191000    1.1213929   -2.6827114   -2.6827114   -1.0006258   0.19004903   -2.6827114    1.6820856   439061 
  192000    1.1209343   -2.6826685   -2.6826685   -1.0012709   0.19131075   -2.6826685    1.6813976   439061 
  193000    1.1201131   -2.6823802   -2.6823802   -1.0022144   0.18843516   -2.6823802    1.6801658   439061 
  194000    1.1191887   -2.6818702   -2.6818702   -1.0030909   0.19361665   -2.6818702    1.6787793   439061 
  195000    1.1187559       -2.682       -2.682   -1.0038699    0.1878455       -2.682    1.6781301   439061 
  196000    1.1176532   -2.6834356   -2.6834356   -1.0069595   0.18825998   -2.6834356     1.676476   439061 
  197000    1.1177201   -2.6844979   -2.6844979   -1.0079215   0.18265869   -2.6844979    1.6765764   439061 
  198000    1.1176688   -2.6847818   -2.6847818   -1.0082824   0.18324228   -2.6847818    1.6764994   439061 
  199000      1.11779   -2.6855995   -2.6855995   -1.0089184   0.18234754   -2.6855995    1.6766811   439061 
  200000     1.115872   -2.6840089   -2.6840089   -1.0102046   0.18924297   -2.6840089    1.6738043   439061 
  201000    1.1153492   -2.6847771   -2.6847771   -1.0117571   0.17815167   -2.6847771      1.67302   439061 
  202000     1.114989   -2.6842174   -2.6842174   -1.0117376    0.1855702   -2.6842174    1.6724798   439061 
  203000    1.1138063   -2.6833689   -2.6833689   -1.0126633   0.18508223   -2.6833689    1.6707056   439061 
  204000    1.1154625   -2.6853691   -2.6853691   -1.0121792   0.18024104   -2.6853691    1.6731899   439061 
  205000    1.1139361   -2.6845396   -2.6845396   -1.0136394   0.17673801   -2.6845396    1.6709003   439061 
  206000    1.1136379   -2.6841909   -2.6841909   -1.0137379    0.1794497   -2.6841909     1.670453   439061 
  207000    1.1133551   -2.6832345   -2.6832345   -1.0132057   0.17794216   -2.6832345    1.6700289   439061 
  208000    1.1130392   -2.6848056   -2.6848056   -1.0152507   0.18331863   -2.6848056    1.6695549   439061 
  209000    1.1141021   -2.6852552   -2.6852552   -1.0141059   0.18262926   -2.6852552    1.6711493   439061 
  210000    1.1120519   -2.6841589   -2.6841589    -1.016085   0.17958377   -2.6841589     1.668074   439061 
  211000    1.1108162   -2.6822127   -2.6822127   -1.0159922   0.18201664   -2.6822127    1.6662205   439061 
  212000    1.1127696   -2.6861015   -2.6861015    -1.016951   0.17633062   -2.6861015    1.6691505   439061 
  213000    1.1128102   -2.6862099   -2.6862099   -1.0169985   0.17679949   -2.6862099    1.6692114   439061 
  214000    1.1122886   -2.6858402   -2.6858402   -1.0174111   0.18035134   -2.6858402    1.6684291   439061 
  215000    1.1120589   -2.6862775   -2.6862775    -1.018193   0.17577224   -2.6862775    1.6680846   439061 
  216000    1.1121992   -2.6879024   -2.6879024   -1.0196074   0.18108468   -2.6879024     1.668295   439061 
  217000    1.1103833   -2.6849169   -2.6849169   -1.0193457   0.17941325   -2.6849169    1.6655712   439061 
  218000    1.1114852   -2.6871398   -2.6871398   -1.0199159   0.17588599   -2.6871398    1.6672239   439061 
  219000    1.1108488   -2.6870528   -2.6870528   -1.0207835   0.18017554   -2.6870528    1.6662693   439061 
  220000    1.1116489   -2.6880833   -2.6880833   -1.0206137   0.18157188   -2.6880833    1.6674696   439061 
  221000    1.1104825   -2.6873139   -2.6873139   -1.0215939   0.17928902   -2.6873139    1.6657199   439061 
  222000     1.111159   -2.6901908   -2.6901908   -1.0234562   0.17609681   -2.6901908    1.6667346   439061 
  223000    1.1089127   -2.6876389   -2.6876389   -1.0242736   0.17883664   -2.6876389    1.6633653   439061 
  224000    1.1102154   -2.6897043   -2.6897043    -1.024385   0.18151434   -2.6897043    1.6653193   439061 
  225000    1.1094564   -2.6889538   -2.6889538   -1.0247729   0.18293693   -2.6889538    1.6641809   439061 
  226000    1.1092775   -2.6889971   -2.6889971   -1.0250847   0.18075501   -2.6889971    1.6639125   439061 
  227000    1.1116437   -2.6925644   -2.6925644   -1.0251026   0.18177738   -2.6925644    1.6674618   439061 
  228000     1.108974   -2.6896861   -2.6896861   -1.0262289   0.18153437   -2.6896861    1.6634572   439061 
  229000    1.1103327    -2.692813    -2.692813   -1.0273177   0.18208659    -2.692813    1.6654953   439061 
  230000    1.1105522   -2.6935312   -2.6935312   -1.0277066    0.1753847   -2.6935312    1.6658246   439061 
  231000    1.1098722   -2.6935906   -2.6935906    -1.028786   0.17526853   -2.6935906    1.6648046   439061 
  232000    1.1074171   -2.6912845   -2.6912845   -1.0301626   0.17573983   -2.6912845    1.6611219   439061 
  233000    1.1074613   -2.6914185   -2.6914185   -1.0302304   0.17523526   -2.6914185    1.6611881   439061 
  234000    1.1090784   -2.6939531   -2.6939531   -1.0303392   0.17603023   -2.6939531    1.6636138   439061 
  235000     1.107168   -2.6922941   -2.6922941   -1.0315459   0.17254601   -2.6922941    1.6607482   439061 
  236000    1.1078315   -2.6918938   -2.6918938   -1.0301504   0.17878366   -2.6918938    1.6617435   439061 
  237000     1.106891   -2.6920175   -2.6920175   -1.0316848   0.17688261   -2.6920175    1.6603327   439061 
  238000    1.1061308   -2.6931751   -2.6931751   -1.0339827   0.17195806   -2.6931751    1.6591924   439061 
  239000    1.1068211   -2.6918863   -2.6918863   -1.0316584   0.17706344   -2.6918863    1.6602279   439061 
  240000    1.1070817   -2.6924308   -2.6924308   -1.0318121   0.17575911   -2.6924308    1.6606187   439061 
  241000    1.1058961   -2.6927305   -2.6927305   -1.0338901   0.16815054   -2.6927305    1.6588404   439061 
  242000    1.1049848   -2.6926268   -2.6926268   -1.0351534   0.17474614   -2.6926268    1.6574734   439061 
  243000     1.105721   -2.6928151   -2.6928151   -1.0342373   0.17553901   -2.6928151    1.6585778   439061 
  244000    1.1057449   -2.6935939   -2.6935939   -1.0349803   0.17452208   -2.6935939    1.6586136   439061 
  245000    1.1052988   -2.6931603   -2.6931603   -1.0352159   0.17615231   -2.6931603    1.6579444   439061 
  246000    1.1044247   -2.6920084   -2.6920084   -1.0353752   0.17774657   -2.6920084    1.6566332   439061 
  247000    1.1052587   -2.6934028   -2.6934028   -1.0355184    0.1704761   -2.6934028    1.6578843   439061 
  248000    1.1050548    -2.693138    -2.693138   -1.0355596   0.17169846    -2.693138    1.6575785   439061 
  249000    1.1055234   -2.6936379   -2.6936379   -1.0353566   0.17242243   -2.6936379    1.6582813   439061 
  250000    1.1060758   -2.6936191   -2.6936191   -1.0345091   0.17518057   -2.6936191      1.65911   439061 
  251000    1.1055834   -2.6936293   -2.6936293    -1.035258   0.17279745   -2.6936293    1.6583714   439061 
  252000    1.1052571   -2.6950079   -2.6950079    -1.037126   0.17809194   -2.6950079    1.6578819   439061 
  253000    1.1039245   -2.6936275   -2.6936275   -1.0377445    0.1731314   -2.6936275     1.655883   439061 
  254000    1.1046799   -2.6948347   -2.6948347   -1.0378187    0.1725646   -2.6948347     1.657016   439061 
  255000    1.1043657   -2.6962841   -2.6962841   -1.0397393    0.1757235   -2.6962841    1.6565448   439061 
  256000    1.1035412   -2.6963069   -2.6963069   -1.0409988   0.17366129   -2.6963069    1.6553081   439061 
  257000    1.1041371   -2.6970824   -2.6970824   -1.0408804   0.17733546   -2.6970824    1.6562019   439061 
  258000    1.1031883   -2.6969572   -2.6969572   -1.0421786   0.16885314   -2.6969572    1.6547786   439061 
  259000    1.1017706   -2.6946118   -2.6946118   -1.0419597   0.17774351   -2.6946118    1.6526521   439061 
  260000     1.104773   -2.6978763   -2.6978763   -1.0407205   0.17378931   -2.6978763    1.6571558   439061 
  261000    1.1044788   -2.6985008   -2.6985008   -1.0417863   0.17474673   -2.6985008    1.6567145   439061 
  262000    1.1036325   -2.6986719   -2.6986719   -1.0432269   0.16854649   -2.6986719    1.6554449   439061 
  263000    1.1026359    -2.697347    -2.697347   -1.0433969   0.17158257    -2.697347      1.65395   439061 
  264000    1.1018572   -2.6975147   -2.6975147   -1.0447327   0.17005626   -2.6975147     1.652782   439061 
  265000    1.1036183   -2.7007965   -2.7007965   -1.0453728   0.16945535   -2.7007965    1.6554238   439061 
  266000     1.101575   -2.6977558   -2.6977558   -1.0453971   0.16742501   -2.6977558    1.6523587   439061 
  267000    1.1009812   -2.6981531   -2.6981531    -1.046685     0.170239   -2.6981531    1.6514681   439061 
  268000    1.1034973   -2.7025681   -2.7025681    -1.047326   0.16583486   -2.7025681    1.6552421   439061 
  269000    1.1021515    -2.700642    -2.700642   -1.0474186   0.17019011    -2.700642    1.6532234   439061 
  270000    1.1018479   -2.7008581   -2.7008581   -1.0480901   0.16756234   -2.7008581     1.652768   439061 
  271000    1.1027091   -2.7028923   -2.7028923   -1.0488323    0.1642201   -2.7028923    1.6540599   439061 
  272000    1.1020952   -2.7011704   -2.7011704   -1.0480313   0.17033075   -2.7011704     1.653139   439061 
  273000    1.1006255   -2.6998243   -2.6998243   -1.0488898   0.16777544   -2.6998243    1.6509345   439061 
  274000    1.0994748   -2.6991854   -2.6991854   -1.0499769   0.17415354   -2.6991854    1.6492085   439061 
  275000    1.0992475    -2.699535    -2.699535   -1.0506675   0.16790453    -2.699535    1.6488675   439061 
  276000    1.0980551   -2.6985644   -2.6985644   -1.0514855   0.17127547   -2.6985644    1.6470789   439061 
  277000    1.0991794   -2.7007824   -2.7007824    -1.052017   0.16877103   -2.7007824    1.6487654   439061 
  278000    1.1001957   -2.7016477   -2.7016477    -1.051358   0.17179234   -2.7016477    1.6502898   439061 
  279000     1.100014    -2.701515    -2.701515   -1.0514977   0.16695426    -2.701515    1.6500173   439061 
  280000    1.1004775   -2.7034131   -2.7034131   -1.0527007   0.16929458   -2.7034131    1.6507124   439061 
  281000    1.0997439   -2.7017382   -2.7017382   -1.0521262   0.16604161   -2.7017382    1.6496121   439061 
  282000    1.1002139   -2.7033384   -2.7033384   -1.0530213   0.16991387   -2.7033384    1.6503171   439061 
  283000    1.0991472   -2.7041365   -2.7041365   -1.0554195   0.16670701   -2.7041365     1.648717   439061 
  284000    1.0978059   -2.7020014   -2.7020014   -1.0552963   0.17269133   -2.7020014    1.6467051   439061 
  285000    1.0987061   -2.7041976   -2.7041976   -1.0561422   0.16456433   -2.7041976    1.6480554   439061 
  286000    1.0968144   -2.7022215   -2.7022215   -1.0570037   0.16851355   -2.7022215    1.6452178   439061 
  287000    1.0982675   -2.7065157   -2.7065157   -1.0591182   0.16250342   -2.7065157    1.6473974   439061 
  288000    1.0970564   -2.7039783   -2.7039783   -1.0583975   0.16799339   -2.7039783    1.6455808   439061 
  289000    1.0978167   -2.7060531   -2.7060531   -1.0593318   0.16252736   -2.7060531    1.6467212   439061 
  290000    1.0967503   -2.7038482   -2.7038482   -1.0587265   0.16802115   -2.7038482    1.6451217   439061 
  291000    1.0968215   -2.7052512   -2.7052512   -1.0600228   0.16308605   -2.7052512    1.6452285   439061 
  292000    1.0963006   -2.7039284   -2.7039284   -1.0594812   0.16604442   -2.7039284    1.6444472   439061 
  293000    1.0973129   -2.7053071   -2.7053071   -1.0593415   0.16287416   -2.7053071    1.6459656   439061 
  294000    1.0968376   -2.7045045   -2.7045045   -1.0592519   0.16244036   -2.7045045    1.6452526   439061 
  295000    1.0963654   -2.7038138   -2.7038138   -1.0592695    0.1624417   -2.7038138    1.6445444   439061 
  296000    1.0961392   -2.7042237   -2.7042237   -1.0600187    0.1636577   -2.7042237     1.644205   439061 
  297000    1.0964688   -2.7037565   -2.7037565    -1.059057    0.1614564   -2.7037565    1.6446995   439061 
  298000      1.09706   -2.7041141   -2.7041141   -1.0585278    0.1623027   -2.7041141    1.6455863   439061 
  299000     1.097289   -2.7036803   -2.7036803   -1.0577506   0.16894246   -2.7036803    1.6459297   439061 
  300000    1.0971645   -2.7045549   -2.7045549   -1.0588119   0.16097503   -2.7045549     1.645743   439061 
  301000    1.0967925   -2.7052521   -2.7052521   -1.0600671   0.16481023   -2.7052521     1.645185   439061 
  302000     1.094832   -2.7053211   -2.7053211   -1.0630769   0.16234082   -2.7053211    1.6422442   439061 
  303000    1.0953914    -2.706524    -2.706524   -1.0634407   0.16093292    -2.706524    1.6430833   439061 
  304000    1.0958128    -2.706707    -2.706707   -1.0629915    0.1635864    -2.706707    1.6437155   439061 
  305000    1.0953047   -2.7078707   -2.7078707   -1.0649174   0.16473457   -2.7078707    1.6429533   439061 
  306000    1.0938441   -2.7072123   -2.7072123   -1.0664499   0.16495134   -2.7072123    1.6407624   439061 
  307000     1.095002    -2.709679    -2.709679   -1.0671798   0.16222051    -2.709679    1.6424992   439061 
  308000    1.0930237   -2.7071365   -2.7071365   -1.0676047   0.16316332   -2.7071365    1.6395318   439061 
  309000    1.0954504   -2.7110665   -2.7110665   -1.0678946   0.16493628   -2.7110665    1.6431719   439061 
  310000    1.0927759   -2.7082726   -2.7082726   -1.0691125   0.16118413   -2.7082726    1.6391601   439061 
  311000    1.0932265   -2.7079999   -2.7079999   -1.0681639   0.16440019   -2.7079999     1.639836   439061 
  312000    1.0929247   -2.7095676   -2.7095676   -1.0701843    0.1626828   -2.7095676    1.6393833   439061 
  313000    1.0921113   -2.7092864   -2.7092864   -1.0711232   0.15765828   -2.7092864    1.6381632   439061 
  314000    1.0910825   -2.7075921   -2.7075921   -1.0709721   0.16174996   -2.7075921      1.63662   439061 
  315000    1.0936372   -2.7101623   -2.7101623   -1.0697102   0.16467072   -2.7101623    1.6404521   439061 
  316000     1.094288   -2.7106466   -2.7106466   -1.0692183   0.16355502   -2.7106466    1.6414283   439061 
  317000    1.0937089   -2.7099172   -2.7099172   -1.0693576   0.16222125   -2.7099172    1.6405596   439061 
  318000    1.0933283   -2.7099707   -2.7099707    -1.069982   0.16083545   -2.7099707    1.6399888   439061 
  319000     1.091736   -2.7094426   -2.7094426   -1.0718424   0.16239574   -2.7094426    1.6376002   439061 
  320000    1.0922958   -2.7107818   -2.7107818   -1.0723419   0.15842339   -2.7107818    1.6384399   439061 
  321000    1.0921187    -2.710695    -2.710695   -1.0725207   0.16666671    -2.710695    1.6381743   439061 
  322000    1.0933339   -2.7115536   -2.7115536   -1.0715565   0.17007669   -2.7115536    1.6399971   439061 
  323000    1.0936149   -2.7124107   -2.7124107   -1.0719922   0.16065852   -2.7124107    1.6404185   439061 
  324000    1.0942075   -2.7132788   -2.7132788   -1.0719713   0.15895149   -2.7132788    1.6413075   439061 
  325000    1.0923597   -2.7118228   -2.7118228   -1.0732871   0.16647592   -2.7118228    1.6385358   439061 
  326000    1.0930077   -2.7138943   -2.7138943   -1.0743865   0.15912838   -2.7138943    1.6395078   439061 
  327000    1.0918768   -2.7121727   -2.7121727   -1.0743613   0.15826926   -2.7121727    1.6378114   439061 
  328000    1.0918861   -2.7120109   -2.7120109   -1.0741855   0.16172904   -2.7120109    1.6378253   439061 
  329000    1.0900426   -2.7106025   -2.7106025   -1.0755422   0.16410955   -2.7106025    1.6350602   439061 
  330000    1.0920404    -2.712905    -2.712905   -1.0748482   0.15885475    -2.712905    1.6380569   439061 
  331000    1.0906989   -2.7122473   -2.7122473   -1.0762027   0.15888234   -2.7122473    1.6360446   439061 
  332000    1.0887086    -2.709844    -2.709844   -1.0767848   0.16227217    -2.709844    1.6330592   439061 
  333000    1.0887295   -2.7101706   -2.7101706     -1.07708   0.15900044   -2.7101706    1.6330906   439061 
  334000    1.0897179   -2.7107248   -2.7107248   -1.0761516   0.15888161   -2.7107248    1.6345732   439061 
  335000    1.0905282   -2.7117862   -2.7117862   -1.0759975   0.16013282   -2.7117862    1.6357886   439061 
  336000    1.0906503   -2.7115182   -2.7115182   -1.0755464   0.15904126   -2.7115182    1.6359717   439061 
  337000    1.0907445   -2.7103911   -2.7103911    -1.074278   0.16547045   -2.7103911     1.636113   439061 
  338000    1.0908123   -2.7112195   -2.7112195   -1.0750048   0.15575449   -2.7112195    1.6362147   439061 
  339000    1.0888514   -2.7092062   -2.7092062   -1.0759329   0.16219828   -2.7092062    1.6332733   439061 
  340000    1.0890014    -2.709495    -2.709495   -1.0759967   0.16370273    -2.709495    1.6334983   439061 
  341000    1.0888759   -2.7109238   -2.7109238   -1.0776138   0.15832875   -2.7109238    1.6333101   439061 
  342000    1.0886768   -2.7112121   -2.7112121   -1.0782006    0.1555823   -2.7112121    1.6330115   439061 
  343000    1.0900927   -2.7122274   -2.7122274   -1.0770922    0.1581533   -2.7122274    1.6351353   439061 
  344000    1.0892425   -2.7125812   -2.7125812   -1.0787212   0.15363896   -2.7125812      1.63386   439061 
  345000    1.0897052   -2.7132469   -2.7132469   -1.0786928    0.1588341   -2.7132469    1.6345541   439061 
  346000    1.0887383   -2.7116692   -2.7116692   -1.0785655   0.15741721   -2.7116692    1.6331037   439061 
  347000    1.0898692   -2.7139156   -2.7139156   -1.0791156   0.15828423   -2.7139156       1.6348   439061 
  348000    1.0899234   -2.7132746   -2.7132746   -1.0783932   0.16351292   -2.7132746    1.6348813   439061 
  349000    1.0904063   -2.7153419   -2.7153419   -1.0797362   0.15837926   -2.7153419    1.6356057   439061 
  350000    1.0903265   -2.7158582   -2.7158582   -1.0803723    0.1593203   -2.7158582     1.635486   439061 
  351000    1.0882908   -2.7134365   -2.7134365    -1.081004   0.15357446   -2.7134365    1.6324324   439061 
  352000    1.0884034   -2.7146115   -2.7146115   -1.0820102    0.1603449   -2.7146115    1.6326013   439061 
  353000    1.0887981   -2.7171939   -2.7171939   -1.0840005   0.15300772   -2.7171939    1.6331934   439061 
  354000    1.0878809   -2.7143486   -2.7143486   -1.0825309   0.15989098   -2.7143486    1.6318176   439061 
  355000    1.0883111   -2.7150701   -2.7150701   -1.0826071    0.1567764   -2.7150701     1.632463   439061 
  356000    1.0875925   -2.7133657   -2.7133657   -1.0819807   0.15686528   -2.7133657     1.631385   439061 
  357000    1.0872701    -2.714573    -2.714573   -1.0836715   0.15662454    -2.714573    1.6309015   439061 
  358000     1.088317   -2.7155112   -2.7155112   -1.0830393   0.16030125   -2.7155112    1.6324718   439061 
  359000    1.0869029   -2.7142968   -2.7142968   -1.0839462    0.1583791   -2.7142968    1.6303507   439061 
  360000    1.0873685   -2.7160522   -2.7160522   -1.0850032   0.15448201   -2.7160522     1.631049   439061 
  361000     1.087153   -2.7160159   -2.7160159   -1.0852901    0.1597934   -2.7160159    1.6307258   439061 
  362000    1.0861268   -2.7139696   -2.7139696   -1.0847831   0.15871627   -2.7139696    1.6291865   439061 
  363000    1.0870381   -2.7164704   -2.7164704    -1.085917   0.15780168   -2.7164704    1.6305535   439061 
  364000    1.0862599   -2.7147477   -2.7147477   -1.0853616   0.15290104   -2.7147477    1.6293861   439061 
  365000    1.0873386   -2.7169738   -2.7169738   -1.0859695   0.15418125   -2.7169738    1.6310042   439061 
  366000    1.0848587   -2.7130509   -2.7130509   -1.0857665   0.15930189   -2.7130509    1.6272844   439061 
  367000    1.0861117   -2.7168818   -2.7168818    -1.087718   0.15411499   -2.7168818    1.6291638   439061 
  368000    1.0844507   -2.7145126   -2.7145126   -1.0878402   0.15293174   -2.7145126    1.6266724   439061 
  369000    1.0853237   -2.7171863   -2.7171863   -1.0892044   0.15046421   -2.7171863    1.6279818   439061 
  370000    1.0864793   -2.7173167   -2.7173167   -1.0876014   0.15263077   -2.7173167    1.6297153   439061 
  371000    1.0858598   -2.7169241   -2.7169241   -1.0881381   0.15498121   -2.7169241    1.6287861   439061 
  372000    1.0870524   -2.7186649   -2.7186649   -1.0880901   0.15556008   -2.7186649    1.6305749   439061 
  373000     1.086408   -2.7177227   -2.7177227   -1.0881144    0.1569735   -2.7177227    1.6296083   439061 
  374000    1.0855081   -2.7167575   -2.7167575   -1.0884991   0.15352473   -2.7167575    1.6282584   439061 
  375000    1.0859116   -2.7178443   -2.7178443   -1.0889806    0.1500711   -2.7178443    1.6288637   439061 
  376000    1.0859157   -2.7191627   -2.7191627   -1.0902929   0.15091746   -2.7191627    1.6288698   439061 
  377000    1.0840305   -2.7159193   -2.7159193   -1.0898774   0.15211198   -2.7159193     1.626042   439061 
  378000    1.0850612    -2.716617    -2.716617    -1.089029   0.15424294    -2.716617    1.6275881   439061 
  379000    1.0866386   -2.7199545   -2.7199545   -1.0900003    0.1484316   -2.7199545    1.6299542   439061 
  380000    1.0850575   -2.7182031   -2.7182031   -1.0906205   0.15847126   -2.7182031    1.6275826   439061 
  381000    1.0852939   -2.7196335   -2.7196335   -1.0916964    0.1521973   -2.7196335    1.6279371   439061 
  382000    1.0856766   -2.7207496   -2.7207496   -1.0922384   0.15708946   -2.7207496    1.6285111   439061 
  383000    1.0847102   -2.7189721   -2.7189721   -1.0919105   0.15393892   -2.7189721    1.6270616   439061 
  384000    1.0842706   -2.7195263   -2.7195263   -1.0931241    0.1548863   -2.7195263    1.6264021   439061 
  385000    1.0838352   -2.7200664   -2.7200664   -1.0943172    0.1525031   -2.7200664    1.6257492   439061 
  386000    1.0834754   -2.7198224   -2.7198224    -1.094613   0.15885812   -2.7198224    1.6252094   439061 
  387000    1.0847132   -2.7221284   -2.7221284   -1.0950623   0.15171326   -2.7221284    1.6270661   439061 
  388000    1.0830642   -2.7188608   -2.7188608   -1.0942682   0.15235718   -2.7188608    1.6245926   439061 
  389000    1.0824885   -2.7181457   -2.7181457   -1.0944167   0.15857198   -2.7181457     1.623729   439061 
  390000    1.0835308   -2.7201835   -2.7201835   -1.0948911   0.15354098   -2.7201835    1.6252925   439061 
  391000     1.082922   -2.7194218   -2.7194218   -1.0950426   0.15200159   -2.7194218    1.6243793   439061 
  392000    1.0838782   -2.7191592   -2.7191592   -1.0933456   0.15259175   -2.7191592    1.6258136   439061 
  393000    1.0829052   -2.7188075   -2.7188075   -1.0944534   0.15581643   -2.7188075    1.6243541   439061 
  394000    1.0829945   -2.7190787   -2.7190787   -1.0945906    0.1533051   -2.7190787    1.6244881   439061 
  395000    1.0837922   -2.7207481   -2.7207481   -1.0950635   0.14985644   -2.7207481    1.6256845   439061 
  396000    1.0801318   -2.7163811   -2.7163811   -1.0961872   0.15286759   -2.7163811     1.620194   439061 
  397000    1.0827323   -2.7212746   -2.7212746   -1.0971799   0.15395405   -2.7212746    1.6240947   439061 
  398000    1.0817647   -2.7201261   -2.7201261   -1.0974828   0.15486048   -2.7201261    1.6226433   439061 
  399000    1.0812609   -2.7206895   -2.7206895   -1.0988018   0.14577138   -2.7206895    1.6218876   439061 
  400000    1.0806951    -2.720297    -2.720297   -1.0992581   0.15242782    -2.720297    1.6210389   439061 
  401000    1.0813355   -2.7215067   -2.7215067   -1.0995071   0.15456406   -2.7215067    1.6219996   439061 
  402000    1.0815555    -2.724005    -2.724005   -1.1016754   0.15097255    -2.724005    1.6223296   439061 
  403000    1.0809409   -2.7220943   -2.7220943   -1.1006866    0.1492447   -2.7220943    1.6214077   439061 
  404000    1.0814199   -2.7233213   -2.7233213   -1.1011951   0.15118459   -2.7233213    1.6221262   439061 
  405000    1.0809755   -2.7229653   -2.7229653   -1.1015058    0.1499248   -2.7229653    1.6214595   439061 
  406000    1.0820435   -2.7240966   -2.7240966   -1.1010351   0.14898736   -2.7240966    1.6230615   439061 
  407000    1.0817812   -2.7241934   -2.7241934   -1.1015253   0.15208952   -2.7241934    1.6226681   439061 
  408000    1.0815593    -2.724221    -2.724221   -1.1018858   0.15173392    -2.724221    1.6223352   439061 
  409000    1.0802328   -2.7216032   -2.7216032   -1.1012577   0.15315854   -2.7216032    1.6203455   439061 
  410000    1.0810632   -2.7242609   -2.7242609   -1.1026697     0.149991   -2.7242609    1.6215911   439061 
  411000    1.0816754   -2.7260942   -2.7260942   -1.1035848   0.14263967   -2.7260942    1.6225094   439061 
  412000    1.0801009   -2.7242293   -2.7242293   -1.1040816   0.15645065   -2.7242293    1.6201477   439061 
  413000    1.0794993   -2.7242974   -2.7242974   -1.1050521   0.15226668   -2.7242974    1.6192453   439061 
  414000    1.0808977   -2.7268837   -2.7268837   -1.1055408   0.14966154   -2.7268837    1.6213429   439061 
  415000    1.0813833   -2.7264504   -2.7264504   -1.1043791   0.14542296   -2.7264504    1.6220713   439061 
  416000    1.0776371   -2.7224978   -2.7224978   -1.1060459    0.1521394   -2.7224978    1.6164519   439061 
  417000    1.0797193    -2.725388    -2.725388   -1.1058127   0.14943006    -2.725388    1.6195753   439061 
  418000    1.0796224   -2.7251024   -2.7251024   -1.1056725     0.150042   -2.7251024    1.6194299   439061 
  419000    1.0791973   -2.7242629   -2.7242629   -1.1054706   0.15065779   -2.7242629    1.6187923   439061 
  420000    1.0813978   -2.7272778   -2.7272778   -1.1051848     0.149222   -2.7272778    1.6220931   439061 
  421000    1.0789105   -2.7251257   -2.7251257   -1.1067636   0.14830064   -2.7251257     1.618362   439061 
  422000    1.0784828   -2.7240754   -2.7240754   -1.1063549   0.14863974   -2.7240754    1.6177205   439061 
  423000    1.0797309   -2.7259202   -2.7259202   -1.1063275   0.14577532   -2.7259202    1.6195927   439061 
  424000    1.0788798   -2.7258812   -2.7258812   -1.1075652   0.14368503   -2.7258812     1.618316   439061 
  425000     1.078952   -2.7256366   -2.7256366   -1.1072124   0.14885774   -2.7256366    1.6184243   439061 
  426000    1.0798503   -2.7259208   -2.7259208    -1.106149   0.15038931   -2.7259208    1.6197718   439061 
  427000    1.0786746   -2.7257988   -2.7257988   -1.1077906   0.14906359   -2.7257988    1.6180082   439061 
  428000    1.0795773   -2.7275937   -2.7275937   -1.1082315   0.15176508   -2.7275937    1.6193622   439061 
  429000    1.0778977   -2.7256652   -2.7256652   -1.1088224   0.15057038   -2.7256652    1.6168428   439061 
  430000    1.0786593   -2.7289199   -2.7289199   -1.1109347   0.14848395   -2.7289199    1.6179852   439061 
  431000    1.0765013   -2.7273197   -2.7273197   -1.1125714   0.14357956   -2.7273197    1.6147483   439061 
  432000    1.0774154   -2.7280508   -2.7280508   -1.1119314   0.15544661   -2.7280508    1.6161195   439061 
  433000    1.0785045    -2.730266    -2.730266   -1.1125129   0.14838201    -2.730266    1.6177531   439061 
  434000    1.0790015   -2.7292074   -2.7292074   -1.1107089   0.15142056   -2.7292074    1.6184985   439061 
  435000    1.0781232   -2.7285223   -2.7285223   -1.1113412   0.14508742   -2.7285223    1.6171811   439061 
  436000    1.0775451   -2.7286847   -2.7286847   -1.1123707    0.1522711   -2.7286847     1.616314   439061 
  437000    1.0778914   -2.7308795   -2.7308795    -1.114046   0.14859473   -2.7308795    1.6168335   439061 
  438000    1.0745268   -2.7259716   -2.7259716   -1.1141852   0.15049966   -2.7259716    1.6117865   439061 
  439000    1.0776448    -2.731272    -2.731272   -1.1148085   0.14806798    -2.731272    1.6164634   439061 
  440000    1.0777323   -2.7310084   -2.7310084   -1.1144136   0.14630957   -2.7310084    1.6165948   439061 
  441000    1.0766504   -2.7292807   -2.7292807   -1.1143088    0.1468336   -2.7292807    1.6149719   439061 
  442000     1.077224   -2.7317637   -2.7317637   -1.1159313   0.14797653   -2.7317637    1.6158323   439061 
  443000    1.0757873   -2.7313426   -2.7313426   -1.1176653   0.14623073   -2.7313426    1.6136772   439061 
  444000    1.0769916   -2.7316046   -2.7316046   -1.1161209   0.14395548   -2.7316046    1.6154837   439061 
  445000    1.0770703   -2.7318882   -2.7318882   -1.1162864   0.14530328   -2.7318882    1.6156018   439061 
  446000    1.0753212   -2.7307552   -2.7307552   -1.1177771   0.14815421   -2.7307552    1.6129781   439061 
  447000    1.0767089   -2.7314362   -2.7314362   -1.1163765   0.15267075   -2.7314362    1.6150596   439061 
  448000    1.0755932   -2.7304755   -2.7304755   -1.1170894   0.14610333   -2.7304755    1.6133861   439061 
  449000    1.0759673   -2.7304571   -2.7304571   -1.1165099   0.14558925   -2.7304571    1.6139473   439061 
  450000    1.0755533   -2.7309151   -2.7309151   -1.1175888   0.14528223   -2.7309151    1.6133263   439061 
  451000    1.0768335   -2.7323302   -2.7323302   -1.1170836   0.14645393   -2.7323302    1.6152466   439061 
  452000    1.0754109   -2.7301773   -2.7301773   -1.1170647   0.14278433   -2.7301773    1.6131126   439061 
  453000     1.076127   -2.7318943   -2.7318943   -1.1177074   0.14564342   -2.7318943    1.6141868   439061 
  454000    1.0749922   -2.7312338   -2.7312338   -1.1187492   0.14888155   -2.7312338    1.6124846   439061 
  455000    1.0733828   -2.7286302   -2.7286302   -1.1185596   0.14591071   -2.7286302    1.6100706   439061 
  456000    1.0757482   -2.7322737   -2.7322737   -1.1186551    0.1471896   -2.7322737    1.6136186   439061 
  457000    1.0763842   -2.7330134   -2.7330134   -1.1184409   0.14730435   -2.7330134    1.6145726   439061 
  458000    1.0762203   -2.7326965   -2.7326965   -1.1183698   0.14256291   -2.7326965    1.6143267   439061 
  459000    1.0740298    -2.731553    -2.731553    -1.120512   0.14018785    -2.731553     1.611041   439061 
  460000    1.0740392   -2.7316576   -2.7316576   -1.1206024   0.14760503   -2.7316576    1.6110551   439061 
  461000    1.0747025    -2.732532    -2.732532   -1.1204818   0.14522473    -2.732532    1.6120501   439061 
  462000    1.0754905   -2.7343901   -2.7343901    -1.121158     0.143966   -2.7343901    1.6132321   439061 
  463000    1.0750409   -2.7349112   -2.7349112   -1.1223535     0.147285   -2.7349112    1.6125577   439061 
  464000     1.074036   -2.7339999   -2.7339999   -1.1229495   0.14426458   -2.7339999    1.6110504   439061 
  465000    1.0728152   -2.7327422   -2.7327422    -1.123523   0.14426123   -2.7327422    1.6092192   439061 
  466000    1.0752469   -2.7350964   -2.7350964   -1.1222298     0.141954   -2.7350964    1.6128666   439061 
  467000    1.0740759   -2.7332763   -2.7332763   -1.1221661   0.14371076   -2.7332763    1.6111102   439061 
  468000    1.0750699   -2.7351498   -2.7351498   -1.1225486   0.14384422   -2.7351498    1.6126012   439061 
  469000    1.0745166   -2.7352715   -2.7352715   -1.1235003   0.14601598   -2.7352715    1.6117712   439061 
  470000     1.071822   -2.7320918   -2.7320918   -1.1243624   0.14417073   -2.7320918    1.6077294   439061 
  471000    1.0740152   -2.7356426   -2.7356426   -1.1246234   0.14062371   -2.7356426    1.6110192   439061 
  472000    1.0728253   -2.7352533   -2.7352533   -1.1260189   0.13832395   -2.7352533    1.6092344   439061 
  473000    1.0728398   -2.7353109   -2.7353109   -1.1260549   0.14231828   -2.7353109    1.6092561   439061 
  474000    1.0717401   -2.7331173   -2.7331173   -1.1255109   0.14452565   -2.7331173    1.6076064   439061 
  475000    1.0727482   -2.7346134   -2.7346134   -1.1254948    0.1378645   -2.7346134    1.6091186   439061 
  476000    1.0732763   -2.7348625   -2.7348625   -1.1249518   0.14298743   -2.7348625    1.6099107   439061 
  477000    1.0722649   -2.7338945   -2.7338945   -1.1255008   0.14228801   -2.7338945    1.6083937   439061 
  478000     1.069557    -2.730112    -2.730112   -1.1257801   0.14079635    -2.730112    1.6043318   439061 
  479000    1.0719274    -2.733194    -2.733194   -1.1253066   0.14384651    -2.733194    1.6078874   439061 
  480000    1.0726717   -2.7345653   -2.7345653   -1.1255614   0.14493782   -2.7345653    1.6090039   439061 
  481000    1.0731816   -2.7354645   -2.7354645   -1.1256957   0.14137378   -2.7354645    1.6097688   439061 
  482000    1.0736162   -2.7368153   -2.7368153   -1.1263948   0.14274289   -2.7368153    1.6104206   439061 
  483000    1.0723279   -2.7352727   -2.7352727   -1.1267846   0.14749435   -2.7352727    1.6084881   439061 
  484000    1.0735238   -2.7371906   -2.7371906   -1.1269086    0.1418817   -2.7371906     1.610282   439061 
  485000    1.0725033   -2.7365683   -2.7365683    -1.127817   0.14293437   -2.7365683    1.6087513   439061 
  486000    1.0721517   -2.7368677   -2.7368677   -1.1286439   0.14220946   -2.7368677    1.6082238   439061 
  487000    1.0724213   -2.7378386   -2.7378386   -1.1292103   0.14626925   -2.7378386    1.6086283   439061 
  488000    1.0723161   -2.7392225   -2.7392225    -1.130752   0.13999857   -2.7392225    1.6084705   439061 
  489000    1.0726898   -2.7391655   -2.7391655   -1.1301345   0.14763911   -2.7391655     1.609031   439061 
  490000    1.0705524   -2.7365687   -2.7365687   -1.1307437    0.1421945   -2.7365687    1.6058249   439061 
  491000    1.0705422   -2.7362291   -2.7362291   -1.1304194   0.14295103   -2.7362291    1.6058097   439061 
  492000    1.0718288   -2.7387998   -2.7387998   -1.1310603   0.14404976   -2.7387998    1.6077395   439061 
  493000    1.0718995   -2.7390815   -2.7390815    -1.131236   0.14218468   -2.7390815    1.6078455   439061 
  494000    1.0706086   -2.7380402   -2.7380402   -1.1321309   0.14047709   -2.7380402    1.6059093   439061 
  495000    1.0699797   -2.7370744   -2.7370744   -1.1321084   0.14625168   -2.7370744     1.604966   439061 
  496000    1.0711541   -2.7379546   -2.7379546    -1.131227   0.14047588   -2.7379546    1.6067275   439061 
  497000    1.0697697   -2.7382774   -2.7382774   -1.1336265   0.13897304   -2.7382774    1.6046509   439061 
  498000    1.0694828   -2.7391363   -2.7391363   -1.1349159   0.14084022   -2.7391363    1.6042205   439061 
  499000    1.0683995   -2.7378748   -2.7378748   -1.1352793   0.14158418   -2.7378748    1.6025955   439061 
  500000    1.0702883   -2.7403134   -2.7403134   -1.1348845   0.14076613   -2.7403134    1.6054289   439061 
  501000    1.0693925   -2.7393287   -2.7393287   -1.1352436    0.1382082   -2.7393287    1.6040851   439061 
  502000    1.0696021    -2.739494    -2.739494   -1.1350946   0.14199324    -2.739494    1.6043994   439061 
  503000    1.0691113   -2.7387223   -2.7387223    -1.135059   0.14112887   -2.7387223    1.6036633   439061 
  504000     1.068809      -2.7378      -2.7378   -1.1345901      0.14489      -2.7378    1.6032099   439061 
  505000    1.0703247   -2.7397227   -2.7397227   -1.1342392   0.14105327   -2.7397227    1.6054834   439061 
  506000     1.068886   -2.7382081   -2.7382081   -1.1348827   0.13766303   -2.7382081    1.6033253   439061 
  507000    1.0681663   -2.7385156   -2.7385156   -1.1362698   0.14150763   -2.7385156    1.6022458   439061 
  508000    1.0688913   -2.7392811   -2.7392811   -1.1359479   0.14299005   -2.7392811    1.6033333   439061 
  509000    1.0688973   -2.7393034   -2.7393034   -1.1359611   0.14260229   -2.7393034    1.6033423   439061 
  510000    1.0696923   -2.7398302   -2.7398302   -1.1352954   0.13815838   -2.7398302    1.6045348   439061 
  511000    1.0688058    -2.738736    -2.738736   -1.1355309   0.13802389    -2.738736    1.6032051   439061 
  512000    1.0687898   -2.7386466   -2.7386466   -1.1354655    0.1347921   -2.7386466    1.6031811   439061 
  513000     1.071426   -2.7417595   -2.7417595   -1.1346242   0.14060295   -2.7417595    1.6071353   439061 
  514000    1.0688606   -2.7385432   -2.7385432    -1.135256   0.13852561   -2.7385432    1.6032873   439061 
  515000    1.0684937   -2.7382438   -2.7382438   -1.1355069   0.14027609   -2.7382438    1.6027369   439061 
  516000    1.0683526   -2.7395191   -2.7395191   -1.1369938   0.13898597   -2.7395191    1.6025252   439061 
  517000     1.068347   -2.7387553   -2.7387553   -1.1362385   0.14534958   -2.7387553    1.6025168   439061 
  518000    1.0690676   -2.7395656   -2.7395656   -1.1359679   0.14306544   -2.7395656    1.6035977   439061 
  519000    1.0677476   -2.7373731   -2.7373731   -1.1357554   0.14510156   -2.7373731    1.6016177   439061 
  520000     1.069758   -2.7413231   -2.7413231   -1.1366897   0.13398576   -2.7413231    1.6046334   439061 
  521000    1.0681418   -2.7393286   -2.7393286   -1.1371196   0.14059112   -2.7393286     1.602209   439061 
  522000    1.0687221   -2.7395815   -2.7395815    -1.136502   0.13666931   -2.7395815    1.6030795   439061 
  523000     1.066749   -2.7381131   -2.7381131   -1.1379933   0.13846468   -2.7381131    1.6001199   439061 
  524000    1.0682036    -2.738673    -2.738673   -1.1363712   0.14068321    -2.738673    1.6023018   439061 
  525000    1.0686778   -2.7393736   -2.7393736   -1.1363605   0.14281222   -2.7393736    1.6030131   439061 
  526000    1.0690201   -2.7402309   -2.7402309   -1.1367044   0.13839118   -2.7402309    1.6035265   439061 
  527000    1.0684588   -2.7403812   -2.7403812   -1.1376967   0.13952112   -2.7403812    1.6026845   439061 
  528000    1.0691062   -2.7403062   -2.7403062   -1.1366505   0.14550347   -2.7403062    1.6036557   439061 
  529000    1.0696512   -2.7416891   -2.7416891    -1.137216   0.13555987   -2.7416891    1.6044731   439061 
  530000    1.0693726   -2.7411958   -2.7411958   -1.1371405   0.13825521   -2.7411958    1.6040553   439061 
  531000    1.0680646   -2.7401485   -2.7401485   -1.1380552   0.13430805   -2.7401485    1.6020933   439061 
  532000    1.0675921   -2.7392504   -2.7392504   -1.1378659   0.13709163   -2.7392504    1.6013845   439061 
  533000    1.0681186   -2.7411224   -2.7411224    -1.138948   0.13528345   -2.7411224    1.6021743   439061 
  534000    1.0677512   -2.7396416   -2.7396416   -1.1380185   0.13741755   -2.7396416    1.6016231   439061 
  535000    1.0682978   -2.7410103   -2.7410103   -1.1385672   0.14111189   -2.7410103    1.6024431   439061 
  536000    1.0689928   -2.7407305   -2.7407305   -1.1372449   0.13802695   -2.7407305    1.6034856   439061 
  537000    1.0668401   -2.7383384   -2.7383384   -1.1380819   0.13779061   -2.7383384    1.6002565   439061 
  538000     1.068149   -2.7407346   -2.7407346   -1.1385147   0.13805001   -2.7407346    1.6022199   439061 
  539000     1.067541   -2.7412119   -2.7412119   -1.1399041   0.14042672   -2.7412119    1.6013078   439061 
  540000    1.0655161   -2.7393165   -2.7393165   -1.1410461   0.13952228   -2.7393165    1.5982705   439061 
  541000    1.0659383   -2.7395555   -2.7395555   -1.1406518   0.13685405   -2.7395555    1.5989037   439061 
  542000    1.0683444    -2.744185    -2.744185   -1.1416721   0.13904515    -2.744185     1.602513   439061 
  543000    1.0668998   -2.7418166   -2.7418166   -1.1414705   0.13702681   -2.7418166    1.6003461   439061 
  544000    1.0664629   -2.7410422   -2.7410422   -1.1413514   0.14268739   -2.7410422    1.5996907   439061 
  545000    1.0668743   -2.7425148   -2.7425148    -1.142207   0.13054877   -2.7425148    1.6003078   439061 
  546000    1.0691754   -2.7460747   -2.7460747   -1.1423153   0.13512005   -2.7460747    1.6037595   439061 
  547000    1.0662564   -2.7425102   -2.7425102   -1.1431292   0.13633349   -2.7425102     1.599381   439061 
  548000    1.0649461   -2.7398839   -2.7398839   -1.1424685   0.13743156   -2.7398839    1.5974155   439061 
  549000    1.0670233   -2.7427618   -2.7427618   -1.1422305   0.13453258   -2.7427618    1.6005313   439061 
  550000     1.066911   -2.7439958   -2.7439958    -1.143633   0.13942496   -2.7439958    1.6003628   439061 
  551000    1.0660563   -2.7435088   -2.7435088   -1.1444279   0.13318756   -2.7435088    1.5990808   439061 
  552000    1.0661581   -2.7441259   -2.7441259   -1.1448924   0.14077353   -2.7441259    1.5992335   439061 
  553000    1.0663623   -2.7441668   -2.7441668    -1.144627   0.13344149   -2.7441668    1.5995398   439061 
  554000    1.0661185    -2.743355    -2.743355   -1.1441809   0.14034407    -2.743355    1.5991741   439061 
  555000    1.0649835   -2.7429533   -2.7429533   -1.1454818   0.14207508   -2.7429533    1.5974716   439061 
  556000    1.0655729   -2.7450571   -2.7450571   -1.1467014    0.1383567   -2.7450571    1.5983557   439061 
  557000    1.0655037   -2.7442081   -2.7442081   -1.1459562   0.13723134   -2.7442081    1.5982519   439061 
  558000    1.0654405   -2.7447497   -2.7447497   -1.1465925   0.13930656   -2.7447497    1.5981571   439061 
  559000    1.0654494   -2.7448524   -2.7448524   -1.1466819   0.13528088   -2.7448524    1.5981705   439061 
  560000    1.0661228   -2.7462008   -2.7462008   -1.1470202   0.13668403   -2.7462008    1.5991806   439061 
  561000    1.0669366   -2.7473772   -2.7473772   -1.1469759   0.14059977   -2.7473772    1.6004013   439061 
  562000    1.0658584   -2.7476462   -2.7476462   -1.1488622   0.13375363   -2.7476462     1.598784   439061 
  563000    1.0642634   -2.7469087   -2.7469087   -1.1505172   0.13757121   -2.7469087    1.5963914   439061 
  564000    1.0657728   -2.7482475   -2.7482475   -1.1495919   0.13254886   -2.7482475    1.5986556   439061 
  565000    1.0667002   -2.7488345   -2.7488345    -1.148788   0.13896184   -2.7488345    1.6000466   439061 
  566000    1.0653965   -2.7479687   -2.7479687   -1.1498776   0.13830954   -2.7479687    1.5980911   439061 
  567000    1.0653856   -2.7476921   -2.7476921   -1.1496173   0.13352777   -2.7476921    1.5980748   439061 
  568000    1.0643116   -2.7463953   -2.7463953   -1.1499315   0.13976056   -2.7463953    1.5964638   439061 
  569000    1.0658646   -2.7489519   -2.7489519   -1.1501587   0.13605455   -2.7489519    1.5987932   439061 
  570000    1.0636578   -2.7458915   -2.7458915   -1.1504083   0.13706571   -2.7458915    1.5954831   439061 
  571000    1.0635631   -2.7454676   -2.7454676   -1.1501265   0.13427095   -2.7454676    1.5953411   439061 
  572000    1.0634517   -2.7443215   -2.7443215   -1.1491475   0.13349408   -2.7443215    1.5951739   439061 
  573000    1.0643282   -2.7452378   -2.7452378   -1.1487492    0.1343051   -2.7452378    1.5964887   439061 
  574000    1.0653249   -2.7457262   -2.7457262   -1.1477424   0.13648751   -2.7457262    1.5979837   439061 
  575000    1.0650733    -2.744512    -2.744512   -1.1469056   0.13639909    -2.744512    1.5976063   439061 
  576000    1.0636987   -2.7431169   -2.7431169   -1.1475725   0.13476547   -2.7431169    1.5955444   439061 
  577000    1.0640088   -2.7448376   -2.7448376    -1.148828   0.13210664   -2.7448376    1.5960096   439061 
  578000     1.064119   -2.7455921   -2.7455921   -1.1494172    0.1323259   -2.7455921    1.5961749   439061 
  579000    1.0628533   -2.7438212   -2.7438212   -1.1495449   0.13136172   -2.7438212    1.5942763   439061 
  580000    1.0628005    -2.743782    -2.743782   -1.1495848   0.13809355    -2.743782    1.5941972   439061 
  581000     1.062765   -2.7446516   -2.7446516   -1.1505077   0.13198934   -2.7446516    1.5941439   439061 
  582000    1.0647289   -2.7460321   -2.7460321   -1.1489424   0.13264084   -2.7460321    1.5970897   439061 
  583000    1.0653598   -2.7476364   -2.7476364   -1.1496003   0.12613392   -2.7476364    1.5980361   439061 
  584000    1.0620408   -2.7440931   -2.7440931   -1.1510355   0.13290104   -2.7440931    1.5930575   439061 
  585000    1.0622358   -2.7460474   -2.7460474   -1.1526973   0.13030357   -2.7460474    1.5933501   439061 
  586000    1.0625286   -2.7462983   -2.7462983    -1.152509    0.1329002   -2.7462983    1.5937892   439061 
  587000    1.0637154   -2.7466627   -2.7466627   -1.1510933   0.13537155   -2.7466627    1.5955694   439061 
  588000    1.0643547   -2.7478451   -2.7478451   -1.1513167   0.13588456   -2.7478451    1.5965284   439061 
  589000    1.0638531   -2.7474366   -2.7474366   -1.1516606   0.13947159   -2.7474366    1.5957759   439061 
  590000    1.0634078   -2.7480327   -2.7480327   -1.1529247   0.13202215   -2.7480327     1.595108   439061 
  591000    1.0618918   -2.7474458   -2.7474458   -1.1546117   0.13608273   -2.7474458     1.592834   439061 
  592000    1.0616061   -2.7451724   -2.7451724   -1.1527669   0.13472149   -2.7451724    1.5924055   439061 
  593000    1.0638866   -2.7490823   -2.7490823   -1.1532561   0.13263595   -2.7490823    1.5958263   439061 
  594000    1.0632679   -2.7483975   -2.7483975   -1.1534993    0.1320636   -2.7483975    1.5948982   439061 
  595000    1.0626692   -2.7486773   -2.7486773   -1.1546771   0.13075416   -2.7486773    1.5940002   439061 
  596000    1.0630711   -2.7487658   -2.7487658   -1.1541628   0.13360613   -2.7487658    1.5946031   439061 
  597000    1.0633127   -2.7493418   -2.7493418   -1.1543764   0.12935723   -2.7493418    1.5949655   439061 
  598000    1.0633302   -2.7480964   -2.7480964   -1.1531046   0.13373228   -2.7480964    1.5949917   439061 
  599000     1.064363   -2.7500201   -2.7500201   -1.1534792   0.13911544   -2.7500201    1.5965409   439061 
  600000    1.0630906   -2.7484096   -2.7484096   -1.1537773   0.13382709   -2.7484096    1.5946322   439061 
  601000    1.0623183   -2.7474043   -2.7474043   -1.1539305   0.13629791   -2.7474043    1.5934739   439061 
  602000     1.062673   -2.7502939   -2.7502939    -1.156288   0.12768399   -2.7502939    1.5940059   439061 
  603000    1.0616379   -2.7492895   -2.7492895   -1.1568363   0.13158536   -2.7492895    1.5924532   439061 
  604000    1.0622608   -2.7510599   -2.7510599   -1.1576723   0.13229242   -2.7510599    1.5933876   439061 
  605000     1.062838   -2.7522189   -2.7522189   -1.1579655   0.13078884   -2.7522189    1.5942534   439061 
  606000    1.0609384   -2.7492423   -2.7492423   -1.1578384   0.13297701   -2.7492423    1.5914039   439061 
  607000    1.0612271   -2.7499514   -2.7499514   -1.1581144   0.13085423   -2.7499514     1.591837   439061 
  608000    1.0606415   -2.7512993   -2.7512993   -1.1603407    0.1303294   -2.7512993    1.5909587   439061 
  609000    1.0621515   -2.7521807   -2.7521807   -1.1589571   0.13419239   -2.7521807    1.5932236   439061 
  610000    1.0610951   -2.7520936   -2.7520936   -1.1604545   0.13191855   -2.7520936     1.591639   439061 
  611000    1.0611581   -2.7526006   -2.7526006   -1.1608671   0.13071828   -2.7526006    1.5917335   439061 
  612000    1.0611226   -2.7523867   -2.7523867   -1.1607065    0.1284692   -2.7523867    1.5916802   439061 
  613000    1.0607993   -2.7524253   -2.7524253     -1.16123   0.12450324   -2.7524253    1.5911953   439061 
  614000    1.0596578   -2.7491314   -2.7491314   -1.1596482   0.12886574   -2.7491314    1.5894831   439061 
  615000    1.0588985   -2.7492963   -2.7492963   -1.1609522   0.13031378   -2.7492963    1.5883441   439061 
  616000    1.0605935   -2.7503382   -2.7503382   -1.1594516    0.1299917   -2.7503382    1.5908867   439061 
  617000    1.0606366   -2.7495461   -2.7495461   -1.1585948   0.13009056   -2.7495461    1.5909512   439061 
  618000    1.0637144   -2.7532511   -2.7532511   -1.1576831   0.13438571   -2.7532511    1.5955679   439061 
  619000    1.0592998   -2.7483989   -2.7483989   -1.1594528   0.13273202   -2.7483989    1.5889461   439061 
  620000    1.0592856   -2.7507583   -2.7507583   -1.1618335   0.13286388   -2.7507583    1.5889248   439061 
  621000    1.0611474   -2.7518327   -2.7518327   -1.1601153   0.12835795   -2.7518327    1.5917174   439061 
  622000    1.0590202   -2.7492511   -2.7492511   -1.1607244   0.13399279   -2.7492511    1.5885267   439061 
  623000    1.0604457   -2.7502737   -2.7502737   -1.1596087    0.1313503   -2.7502737     1.590665   439061 
  624000    1.0602287   -2.7508075   -2.7508075   -1.1604682   0.13043122   -2.7508075    1.5903394   439061 
  625000    1.0610096   -2.7524683   -2.7524683   -1.1609575   0.13119131   -2.7524683    1.5915108   439061 
  626000    1.0589227   -2.7499461   -2.7499461   -1.1615657   0.13113425   -2.7499461    1.5883804   439061 
  627000    1.0598445   -2.7504731   -2.7504731     -1.16071    0.1282793   -2.7504731    1.5897631   439061 
  628000    1.0596805    -2.751381    -2.751381   -1.1618638   0.13079667    -2.751381    1.5895172   439061 
  629000    1.0606933   -2.7526569   -2.7526569   -1.1616206   0.13505364   -2.7526569    1.5910363   439061 
  630000    1.0610259    -2.753675    -2.753675   -1.1621398   0.12928809    -2.753675    1.5915352   439061 
  631000     1.061785   -2.7548201   -2.7548201   -1.1621463   0.12301759   -2.7548201    1.5926739   439061 
  632000    1.0595495   -2.7531376   -2.7531376    -1.163817   0.13114573   -2.7531376    1.5893206   439061 
  633000    1.0604198   -2.7523267   -2.7523267   -1.1617006   0.13161384   -2.7523267    1.5906261   439061 
  634000     1.061168   -2.7548046   -2.7548046   -1.1630562   0.13251795   -2.7548046    1.5917484   439061 
  635000    1.0587306   -2.7525014   -2.7525014   -1.1644092   0.13241479   -2.7525014    1.5880922   439061 
  636000    1.0593535   -2.7545357   -2.7545357    -1.165509   0.13158187   -2.7545357    1.5890267   439061 
  637000    1.0594044   -2.7558768   -2.7558768   -1.1667738   0.13076943   -2.7558768     1.589103   439061 
  638000    1.0594257   -2.7546516   -2.7546516   -1.1655166   0.12890686   -2.7546516    1.5891349   439061 
  639000    1.0588071   -2.7537662   -2.7537662   -1.1655592   0.13054215   -2.7537662     1.588207   439061 
  640000    1.0591711   -2.7545205   -2.7545205   -1.1657674   0.12993825   -2.7545205    1.5887531   439061 
  641000     1.058845   -2.7549402   -2.7549402   -1.1666764   0.12720239   -2.7549402    1.5882638   439061 
  642000    1.0592808   -2.7546847   -2.7546847   -1.1657672    0.1315775   -2.7546847    1.5889176   439061 
  643000    1.0589963   -2.7535399   -2.7535399   -1.1650491   0.13483731   -2.7535399    1.5884908   439061 
  644000    1.0597829   -2.7552101   -2.7552101   -1.1655394   0.12954786   -2.7552101    1.5896707   439061 
  645000    1.0578002   -2.7525023   -2.7525023   -1.1658056   0.12760797   -2.7525023    1.5866967   439061 
  646000    1.0579503    -2.753043    -2.753043   -1.1661212   0.12938595    -2.753043    1.5869218   439061 
  647000     1.057595   -2.7525513   -2.7525513   -1.1661624   0.12818406   -2.7525513    1.5863889   439061 
  648000    1.0585634   -2.7531565   -2.7531565   -1.1653151    0.1260306   -2.7531565    1.5878415   439061 
  649000    1.0586069    -2.753199    -2.753199   -1.1652923   0.13062503    -2.753199    1.5879068   439061 
  650000    1.0582307   -2.7528826   -2.7528826   -1.1655401   0.12753043   -2.7528826    1.5873424   439061 
  651000    1.0575971   -2.7514447   -2.7514447   -1.1650527   0.12550525   -2.7514447     1.586392   439061 
  652000      1.05951   -2.7539214   -2.7539214     -1.16466   0.12707528   -2.7539214    1.5892614   439061 
  653000    1.0581336   -2.7519426   -2.7519426   -1.1647458   0.13011667   -2.7519426    1.5871969   439061 
  654000    1.0594902   -2.7548834   -2.7548834   -1.1656518   0.12660346   -2.7548834    1.5892317   439061 
  655000    1.0574284   -2.7524367   -2.7524367   -1.1662977   0.12882022   -2.7524367     1.586139   439061 
  656000    1.0569207   -2.7530763   -2.7530763   -1.1676988   0.12478396   -2.7530763    1.5853774   439061 
  657000    1.0572536   -2.7542564   -2.7542564   -1.1683795   0.12691112   -2.7542564    1.5858768   439061 
  658000    1.0578944   -2.7534409   -2.7534409    -1.166603   0.12706172   -2.7534409    1.5868379   439061 
  659000    1.0581147   -2.7539266   -2.7539266   -1.1667581   0.12890937   -2.7539266    1.5871685   439061 
  660000    1.0586883    -2.756207    -2.756207   -1.1681782   0.13136366    -2.756207    1.5880288   439061 
  661000    1.0581471   -2.7568194   -2.7568194   -1.1696024   0.13259133   -2.7568194     1.587217   439061 
  662000    1.0577003   -2.7572515   -2.7572515   -1.1707047   0.12824121   -2.7572515    1.5865468   439061 
  663000    1.0569637   -2.7579293   -2.7579293   -1.1724874   0.12807386   -2.7579293     1.585442   439061 
  664000    1.0581079   -2.7578259   -2.7578259   -1.1706677    0.1265631   -2.7578259    1.5871582   439061 
  665000    1.0578137   -2.7583003   -2.7583003   -1.1715834   0.12645932   -2.7583003    1.5867169   439061 
  666000    1.0570276   -2.7569299   -2.7569299   -1.1713921   0.12827084   -2.7569299    1.5855378   439061 
  667000    1.0566114     -2.75794     -2.75794   -1.1730265   0.12330822     -2.75794    1.5849135   439061 
  668000    1.0582785   -2.7595324   -2.7595324   -1.1721182   0.13004451   -2.7595324    1.5874141   439061 
  669000    1.0568101   -2.7579921   -2.7579921   -1.1727806   0.13449895   -2.7579921    1.5852115   439061 
  670000    1.0572742   -2.7595651   -2.7595651   -1.1736574   0.13374681   -2.7595651    1.5859077   439061 
  671000    1.0566901   -2.7583546   -2.7583546   -1.1733231   0.13001914   -2.7583546    1.5850315   439061 
  672000    1.0586064   -2.7596871   -2.7596871   -1.1717811   0.13042815   -2.7596871     1.587906   439061 
  673000    1.0583526   -2.7576576   -2.7576576   -1.1701323   0.13210904   -2.7576576    1.5875253   439061 
  674000    1.0591157   -2.7581026   -2.7581026   -1.1694326   0.12922888   -2.7581026      1.58867   439061 
  675000    1.0582753   -2.7565771   -2.7565771   -1.1691679   0.13021301   -2.7565771    1.5874093   439061 
  676000    1.0573357   -2.7567285   -2.7567285   -1.1707286   0.12789966   -2.7567285        1.586   439061 
  677000    1.0570579   -2.7565501   -2.7565501   -1.1709669   0.12541709   -2.7565501    1.5855833   439061 
  678000    1.0557704   -2.7560847   -2.7560847   -1.1724327   0.12813038   -2.7560847     1.583652   439061 
  679000    1.0568969   -2.7564947   -2.7564947   -1.1711529   0.13009592   -2.7564947    1.5853417   439061 
  680000    1.0561022   -2.7552349   -2.7552349   -1.1710852   0.12926065   -2.7552349    1.5841496   439061 
  681000    1.0567926   -2.7565433   -2.7565433   -1.1713581   0.12213142   -2.7565433    1.5851852   439061 
  682000    1.0555209    -2.754108    -2.754108   -1.1708301   0.12534256    -2.754108    1.5832778   439061 
  683000    1.0549207    -2.754685    -2.754685   -1.1723076   0.12289845    -2.754685    1.5823775   439061 
  684000    1.0551986   -2.7542615   -2.7542615   -1.1714673   0.12664586   -2.7542615    1.5827943   439061 
  685000    1.0559252   -2.7570249   -2.7570249   -1.1731408   0.12399488   -2.7570249    1.5838841   439061 
  686000    1.0565664   -2.7570482   -2.7570482   -1.1722021   0.12377015   -2.7570482    1.5848461   439061 
  687000    1.0544373   -2.7554111   -2.7554111   -1.1737587   0.12574758   -2.7554111    1.5816524   439061 
  688000    1.0554761   -2.7550015   -2.7550015   -1.1717909    0.1235534   -2.7550015    1.5832106   439061 
  689000    1.0562255   -2.7553231   -2.7553231   -1.1709885   0.12278729   -2.7553231    1.5843346   439061 
  690000    1.0558818   -2.7560041   -2.7560041   -1.1721849   0.12408396   -2.7560041    1.5838192   439061 
  691000    1.0573949   -2.7592553   -2.7592553   -1.1731665   0.12888618   -2.7592553    1.5860888   439061 
  692000    1.0560183   -2.7576889   -2.7576889    -1.173665   0.12085084   -2.7576889    1.5840239   439061 
  693000    1.0567735   -2.7592777   -2.7592777   -1.1741211   0.12660918   -2.7592777    1.5851566   439061 
  694000    1.0543123   -2.7565604   -2.7565604   -1.1750955   0.12665851   -2.7565604    1.5814649   439061 
  695000    1.0550905   -2.7570798   -2.7570798   -1.1744476   0.12472922   -2.7570798    1.5826322   439061 
  696000    1.0557672    -2.758556    -2.758556   -1.1749089   0.13002028    -2.758556    1.5836472   439061 
  697000    1.0567551   -2.7601214   -2.7601214   -1.1749924    0.1222547   -2.7601214     1.585129   439061 
  698000     1.054877   -2.7578571   -2.7578571   -1.1755452   0.12235651   -2.7578571    1.5823119   439061 
  699000    1.0560861   -2.7595474   -2.7595474   -1.1754219   0.12628515   -2.7595474    1.5841255   439061 
  700000    1.0575448   -2.7606273   -2.7606273   -1.1743137   0.13101652   -2.7606273    1.5863136   439061 
  701000    1.0569039   -2.7610665   -2.7610665   -1.1757143   0.12433495   -2.7610665    1.5853522   439061 
  702000     1.054338   -2.7591898   -2.7591898   -1.1776864     0.127727   -2.7591898    1.5815034   439061 
  703000     1.055525   -2.7610983   -2.7610983   -1.1778145   0.12663841   -2.7610983    1.5832838   439061 
  704000    1.0542725   -2.7592832   -2.7592832    -1.177878   0.12921663   -2.7592832    1.5814051   439061 
  705000    1.0551305   -2.7602516   -2.7602516   -1.1775594   0.12768988   -2.7602516    1.5826922   439061 
  706000    1.0566725   -2.7614529   -2.7614529   -1.1764478   0.12369838   -2.7614529    1.5850051   439061 
  707000     1.055045   -2.7609319   -2.7609319    -1.178368   0.12044463   -2.7609319    1.5825639   439061 
  708000    1.0564225   -2.7628061   -2.7628061   -1.1781759   0.12957225   -2.7628061    1.5846302   439061 
  709000    1.0556735   -2.7615181   -2.7615181   -1.1780115   0.12340476   -2.7615181    1.5835067   439061 
  710000    1.0558754   -2.7627476   -2.7627476   -1.1789381   0.12319253   -2.7627476    1.5838095   439061 
  711000    1.0545099   -2.7619356   -2.7619356   -1.1801744   0.12092562   -2.7619356    1.5817612   439061 
  712000    1.0543991    -2.761083    -2.761083   -1.1794879   0.12698029    -2.761083    1.5815951   439061 
  713000     1.054149   -2.7605612   -2.7605612   -1.1793413   0.12323679   -2.7605612    1.5812199   439061 
  714000    1.0536142    -2.759467    -2.759467   -1.1790493   0.12151575    -2.759467    1.5804176   439061 
  715000    1.0546276   -2.7621235   -2.7621235   -1.1801857   0.12108144   -2.7621235    1.5819378   439061 
  716000    1.0561633   -2.7623561   -2.7623561   -1.1781147   0.12677786   -2.7623561    1.5842414   439061 
  717000    1.0544379   -2.7617264   -2.7617264   -1.1800733   0.12537698   -2.7617264    1.5816532   439061 
  718000    1.0538135   -2.7602014   -2.7602014   -1.1794847   0.12346382   -2.7602014    1.5807167   439061 
  719000    1.0538532   -2.7618118   -2.7618118   -1.1810356   0.12032316   -2.7618118    1.5807762   439061 
  720000    1.0545735   -2.7616761   -2.7616761   -1.1798195   0.12610039   -2.7616761    1.5818566   439061 
  721000    1.0539651   -2.7599554   -2.7599554   -1.1790113   0.12183809   -2.7599554     1.580944   439061 
  722000    1.0529837   -2.7592144   -2.7592144   -1.1797424   0.12296889   -2.7592144     1.579472   439061 
  723000    1.0539411   -2.7614891   -2.7614891   -1.1805811   0.12110139   -2.7614891     1.580908   439061 
  724000    1.0543365   -2.7606283   -2.7606283   -1.1791271   0.12616355   -2.7606283    1.5815012   439061 
  725000    1.0544898   -2.7615406   -2.7615406   -1.1798095   0.12161899   -2.7615406     1.581731   439061 
  726000    1.0544152   -2.7625977   -2.7625977   -1.1809785   0.12290559   -2.7625977    1.5816191   439061 
  727000    1.0530942   -2.7599802   -2.7599802   -1.1803425   0.12402926   -2.7599802    1.5796377   439061 
  728000    1.0540072   -2.7626032   -2.7626032    -1.181596   0.12372756   -2.7626032    1.5810072   439061 
  729000    1.0540016   -2.7631423   -2.7631423   -1.1821434   0.12194259   -2.7631423    1.5809989   439061 
  730000    1.0533561   -2.7619368   -2.7619368   -1.1819063   0.12414644   -2.7619368    1.5800306   439061 
  731000    1.0532789   -2.7616148   -2.7616148      -1.1817   0.12858495   -2.7616148    1.5799147   439061 
  732000     1.053796   -2.7624231   -2.7624231   -1.1817328   0.12594995   -2.7624231    1.5806904   439061 
  733000    1.0546568   -2.7630726   -2.7630726    -1.181091   0.12594424   -2.7630726    1.5819816   439061 
  734000    1.0552934   -2.7633571   -2.7633571   -1.1804206   0.12296059   -2.7633571    1.5829365   439061 
  735000    1.0526808   -2.7607968   -2.7607968   -1.1817792   0.12223683   -2.7607968    1.5790176   439061 
  736000    1.0534864   -2.7636956   -2.7636956   -1.1834695   0.12334175   -2.7636956    1.5802261   439061 
  737000    1.0521538    -2.761869    -2.761869    -1.183642   0.12383153    -2.761869    1.5782271   439061 
  738000    1.0531562   -2.7633538   -2.7633538    -1.183623   0.12743987   -2.7633538    1.5797308   439061 
  739000    1.0522175   -2.7611648   -2.7611648   -1.1828421    0.1192522   -2.7611648    1.5783226   439061 
  740000    1.0550119   -2.7662718   -2.7662718   -1.1837576   0.11898374   -2.7662718    1.5825142   439061 
  741000    1.0531042   -2.7638208   -2.7638208   -1.1841681   0.12412093   -2.7638208    1.5796528   439061 
  742000    1.0537643   -2.7640696   -2.7640696   -1.1834268   0.12602758   -2.7640696    1.5806428   439061 
  743000    1.0531874   -2.7647271   -2.7647271   -1.1849496   0.12305741   -2.7647271    1.5797775   439061 
  744000    1.0526741   -2.7637985   -2.7637985   -1.1847909   0.12356486   -2.7637985    1.5790076   439061 
  745000    1.0525167   -2.7639476   -2.7639476   -1.1851761   0.11981456   -2.7639476    1.5787715   439061 
  746000    1.0513021   -2.7622839   -2.7622839   -1.1853344   0.12419978   -2.7622839    1.5769495   439061 
  747000    1.0518248   -2.7638859   -2.7638859   -1.1861523   0.12420498   -2.7638859    1.5777336   439061 
  748000     1.052199   -2.7643322   -2.7643322   -1.1860373   0.12326652   -2.7643322    1.5782949   439061 
  749000    1.0528424   -2.7637605   -2.7637605   -1.1845005   0.12199584   -2.7637605      1.57926   439061 
  750000    1.0508751    -2.761742    -2.761742    -1.185433    0.1215677    -2.761742     1.576309   439061 
  751000     1.053724   -2.7657904   -2.7657904   -1.1852081   0.12016213   -2.7657904    1.5805824   439061 
  752000    1.0511547   -2.7625338   -2.7625338   -1.1858054   0.12607238   -2.7625338    1.5767284   439061 
  753000    1.0523696   -2.7658945   -2.7658945   -1.1873437   0.12437486   -2.7658945    1.5785508   439061 
  754000    1.0530947   -2.7665064   -2.7665064    -1.186868   0.12219016   -2.7665064    1.5796384   439061 
  755000    1.0509947   -2.7637789   -2.7637789   -1.1872905    0.1238187   -2.7637789    1.5764884   439061 
  756000    1.0513703   -2.7639109   -2.7639109   -1.1868591   0.12266313   -2.7639109    1.5770518   439061 
  757000     1.051024   -2.7640212   -2.7640212   -1.1874888   0.12368645   -2.7640212    1.5765324   439061 
  758000    1.0518578   -2.7672257   -2.7672257   -1.1894425   0.11964256   -2.7672257    1.5777832   439061 
  759000    1.0515533    -2.766372    -2.766372   -1.1890456   0.12448998    -2.766372    1.5773264   439061 
  760000    1.0528453    -2.767813    -2.767813   -1.1885486   0.12047323    -2.767813    1.5792644   439061 
  761000    1.0505234   -2.7644331   -2.7644331   -1.1886516   0.12427401   -2.7644331    1.5757815   439061 
  762000    1.0520138   -2.7662593   -2.7662593   -1.1882422   0.11573325   -2.7662593     1.578017   439061 
  763000    1.0492146   -2.7626943   -2.7626943    -1.188876   0.12402116   -2.7626943    1.5738183   439061 
  764000    1.0511577   -2.7670346   -2.7670346   -1.1903016   0.11805019   -2.7670346     1.576733   439061 
  765000    1.0509323   -2.7660643   -2.7660643   -1.1896695   0.12271217   -2.7660643    1.5763948   439061 
  766000    1.0518596   -2.7668436   -2.7668436   -1.1890578   0.12043212   -2.7668436    1.5777858   439061 
  767000    1.0512006   -2.7658124   -2.7658124   -1.1890151   0.12105273   -2.7658124    1.5767973   439061 
  768000    1.0504112   -2.7646094   -2.7646094   -1.1889962   0.12235845   -2.7646094    1.5756133   439061 
  769000    1.0518389   -2.7678964   -2.7678964   -1.1901416    0.1251921   -2.7678964    1.5777548   439061 
  770000    1.0520728   -2.7682141   -2.7682141   -1.1901085   0.12297568   -2.7682141    1.5781056   439061 
  771000    1.0492265    -2.765119    -2.765119   -1.1912828   0.12137146    -2.765119    1.5738362   439061 
  772000    1.0517046   -2.7683502   -2.7683502   -1.1907969   0.12395482   -2.7683502    1.5775533   439061 
  773000    1.0495761   -2.7658797   -2.7658797   -1.1915191   0.12028864   -2.7658797    1.5743606   439061 
  774000    1.0505446   -2.7674685   -2.7674685   -1.1916552    0.1195938   -2.7674685    1.5758133   439061 
  775000    1.0495582   -2.7651943   -2.7651943   -1.1908606   0.12073565   -2.7651943    1.5743337   439061 
  776000    1.0498442   -2.7664793   -2.7664793   -1.1917166   0.12400124   -2.7664793    1.5747627   439061 
  777000    1.0492938   -2.7656076   -2.7656076   -1.1916704   0.12153937   -2.7656076    1.5739372   439061 
  778000    1.0501186   -2.7670494   -2.7670494    -1.191875    0.1195657   -2.7670494    1.5751744   439061 
  779000    1.0492535   -2.7665496   -2.7665496    -1.192673   0.11978541   -2.7665496    1.5738766   439061 
  780000    1.0484916   -2.7672224   -2.7672224   -1.1944885   0.12426311   -2.7672224    1.5727339   439061 
  781000     1.049905    -2.767652    -2.767652   -1.1927982   0.11816963    -2.767652    1.5748539   439061 
  782000     1.049254   -2.7675639   -2.7675639   -1.1936865    0.1191853   -2.7675639    1.5738775   439061 
  783000    1.0481107   -2.7668601   -2.7668601   -1.1946976   0.11896705   -2.7668601    1.5721625   439061 
  784000    1.0496761   -2.7698804   -2.7698804   -1.1953698   0.11818877   -2.7698804    1.5745106   439061 
  785000    1.0498899   -2.7706508   -2.7706508   -1.1958196   0.11908867   -2.7706508    1.5748312   439061 
  786000     1.050062   -2.7704134   -2.7704134   -1.1953239   0.11959179   -2.7704134    1.5750894   439061 
  787000     1.049124   -2.7691184   -2.7691184    -1.195436   0.12036543   -2.7691184    1.5736824   439061 
  788000    1.0482522   -2.7666895   -2.7666895   -1.1943148   0.12775866   -2.7666895    1.5723747   439061 
  789000    1.0484605   -2.7674351   -2.7674351    -1.194748   0.12201303   -2.7674351    1.5726871   439061 
  790000     1.050034    -2.769761    -2.769761   -1.1947136    0.1152449    -2.769761    1.5750474   439061 
  791000    1.0497112   -2.7690977   -2.7690977   -1.1945344   0.12122152   -2.7690977    1.5745633   439061 
  792000      1.05113   -2.7718869   -2.7718869   -1.1951954   0.11456107   -2.7718869    1.5766915   439061 
  793000     1.048715   -2.7680822   -2.7680822   -1.1950132   0.12615872   -2.7680822     1.573069   439061 
  794000    1.0509582   -2.7695766   -2.7695766   -1.1931429   0.11997027   -2.7695766    1.5764337   439061 
  795000    1.0504762   -2.7686231   -2.7686231   -1.1929124   0.11938169   -2.7686231    1.5757107   439061 
  796000    1.0506211    -2.769482    -2.769482   -1.1935539   0.12174821    -2.769482     1.575928   439061 
  797000    1.0482717    -2.766427    -2.766427    -1.194023    0.1246043    -2.766427     1.572404   439061 
  798000    1.0489369   -2.7673114   -2.7673114   -1.1939097   0.12636969   -2.7673114    1.5734017   439061 
  799000    1.0506328   -2.7700924   -2.7700924   -1.1941468   0.12137157   -2.7700924    1.5759456   439061 
  800000    1.0500568   -2.7695032   -2.7695032   -1.1944216   0.11695609   -2.7695032    1.5750817   439061 
  801000    1.0473281   -2.7672112   -2.7672112   -1.1962226   0.12165501   -2.7672112    1.5709886   439061 
  802000    1.0485826   -2.7682845   -2.7682845   -1.1954142   0.12292746   -2.7682845    1.5728703   439061 
  803000     1.048748   -2.7689361   -2.7689361   -1.1958177   0.11824223   -2.7689361    1.5731184   439061 
  804000    1.0495133   -2.7710015   -2.7710015   -1.1967352   0.11550851   -2.7710015    1.5742663   439061 
  805000    1.0483063   -2.7687424   -2.7687424   -1.1962866   0.12259888   -2.7687424    1.5724558   439061 
  806000    1.0476717   -2.7691898   -2.7691898   -1.1976859   0.11729809   -2.7691898    1.5715039   439061 
  807000     1.046494   -2.7681174   -2.7681174     -1.19838   0.11713817   -2.7681174    1.5697374   439061 
  808000    1.0473828   -2.7696475   -2.7696475   -1.1985769   0.11709406   -2.7696475    1.5710706   439061 
  809000    1.0466088   -2.7695487   -2.7695487   -1.1996391   0.11656095   -2.7695487    1.5699096   439061 
  810000    1.0475377   -2.7697306   -2.7697306   -1.1984276   0.11801278   -2.7697306     1.571303   439061 
  811000     1.047669   -2.7699278   -2.7699278   -1.1984279   0.11816336   -2.7699278    1.5714999   439061 
  812000    1.0476777   -2.7701717   -2.7701717   -1.1986588   0.12227773   -2.7701717    1.5715129   439061 
  813000    1.0474957   -2.7704745   -2.7704745   -1.1992345   0.12001512   -2.7704745      1.57124   439061 
  814000    1.0481766   -2.7711712   -2.7711712   -1.1989099    0.1220752   -2.7711712    1.5722613   439061 
  815000    1.0475767    -2.770625    -2.770625   -1.1992635   0.11902426    -2.770625    1.5713615   439061 
  816000    1.0465177   -2.7697743   -2.7697743   -1.2000014   0.11721986   -2.7697743    1.5697729   439061 
  817000    1.0476352    -2.771682    -2.771682   -1.2002328   0.12153997    -2.771682    1.5714493   439061 
  818000    1.0468778   -2.7707215   -2.7707215   -1.2004084   0.12206413   -2.7707215    1.5703131   439061 
  819000    1.0479619   -2.7716908   -2.7716908   -1.1997516   0.12262934   -2.7716908    1.5719392   439061 
  820000    1.0485161    -2.773065    -2.773065   -1.2002945   0.11547622    -2.773065    1.5727705   439061 
  821000     1.048085   -2.7726922   -2.7726922   -1.2005683   0.12171903   -2.7726922    1.5721239   439061 
  822000    1.0477213   -2.7710487   -2.7710487   -1.1994704   0.12070808   -2.7710487    1.5715783   439061 
  823000    1.0482346   -2.7710304   -2.7710304   -1.1986821   0.12267293   -2.7710304    1.5723483   439061 
  824000    1.0482064   -2.7733539   -2.7733539   -1.2010478   0.12029254   -2.7733539    1.5723061   439061 
  825000    1.0481716   -2.7731109   -2.7731109   -1.2008571   0.12039079   -2.7731109    1.5722538   439061 
  826000    1.0468452   -2.7721142   -2.7721142     -1.20185   0.11779271   -2.7721142    1.5702642   439061 
  827000    1.0480093   -2.7735366   -2.7735366   -1.2015262   0.11937641   -2.7735366    1.5720104   439061 
  828000    1.0483361   -2.7749886   -2.7749886    -1.202488   0.12014834   -2.7749886    1.5725006   439061 
  829000    1.0484931   -2.7756044   -2.7756044   -1.2028683   0.11281199   -2.7756044    1.5727361   439061 
  830000    1.0471661   -2.7743038   -2.7743038   -1.2035582   0.11470421   -2.7743038    1.5707456   439061 
  831000    1.0454922   -2.7715993   -2.7715993   -1.2033646   0.11498371   -2.7715993    1.5682347   439061 
  832000    1.0474658   -2.7736872   -2.7736872   -1.2024921   0.12036867   -2.7736872    1.5711951   439061 
  833000    1.0454694   -2.7712895   -2.7712895    -1.203089   0.11934169   -2.7712895    1.5682005   439061 
  834000    1.0465435    -2.773527    -2.773527   -1.2037153   0.11676224    -2.773527    1.5698117   439061 
  835000    1.0450325   -2.7721817   -2.7721817   -1.2046366   0.11820888   -2.7721817    1.5675451   439061 
  836000    1.0457881   -2.7727784   -2.7727784   -1.2040998   0.11511446   -2.7727784    1.5686786   439061 
  837000     1.046547    -2.773579    -2.773579   -1.2037621   0.11685865    -2.773579    1.5698169   439061 
  838000    1.0463025   -2.7742658   -2.7742658   -1.2048157   0.11109467   -2.7742658    1.5694502   439061 
  839000    1.0464803   -2.7735729   -2.7735729    -1.203856    0.1195483   -2.7735729    1.5697169   439061 
  840000    1.0466527   -2.7738642   -2.7738642   -1.2038888   0.11866996   -2.7738642    1.5699755   439061 
  841000    1.0457393   -2.7714581   -2.7714581   -1.2028527   0.11945795   -2.7714581    1.5686054   439061 
  842000    1.0462935   -2.7726617   -2.7726617    -1.203225    0.1101113   -2.7726617    1.5694367   439061 
  843000     1.045882   -2.7729659   -2.7729659   -1.2041464   0.11305594   -2.7729659    1.5688195   439061 
  844000    1.0470221   -2.7733632   -2.7733632   -1.2028335   0.11577417   -2.7733632    1.5705296   439061 
  845000    1.0464817   -2.7717378   -2.7717378   -1.2020188   0.11793035   -2.7717378     1.569719   439061 
  846000    1.0477471   -2.7742441   -2.7742441    -1.202627   0.11300538   -2.7742441    1.5716171   439061 
  847000    1.0476293   -2.7761432   -2.7761432   -1.2047029   0.11236629   -2.7761432    1.5714403   439061 
  848000    1.0450856   -2.7732446   -2.7732446   -1.2056197   0.11618782   -2.7732446    1.5676249   439061 
  849000    1.0470201   -2.7759606   -2.7759606   -1.2054341   0.11985224   -2.7759606    1.5705265   439061 
  850000    1.0459901   -2.7739589   -2.7739589   -1.2049773   0.11908289   -2.7739589    1.5689816   439061 
  851000    1.0458699   -2.7743435   -2.7743435   -1.2055422   0.11343477   -2.7743435    1.5688013   439061 
  852000    1.0468007    -2.775721    -2.775721   -1.2055234   0.11546458    -2.775721    1.5701975   439061 
  853000    1.0452027   -2.7742979   -2.7742979   -1.2064975   0.11619735   -2.7742979    1.5678004   439061 
  854000    1.0470655    -2.775847    -2.775847   -1.2052524   0.11134372    -2.775847    1.5705946   439061 
  855000    1.0474439   -2.7772426   -2.7772426   -1.2060803   0.11765875   -2.7772426    1.5711623   439061 
  856000    1.0448048   -2.7740381   -2.7740381   -1.2068345   0.11292577   -2.7740381    1.5672037   439061 
  857000    1.0456306   -2.7757077   -2.7757077   -1.2072653    0.1177557   -2.7757077    1.5684424   439061 
  858000    1.0449517   -2.7752826   -2.7752826   -1.2078587   0.11712152   -2.7752826    1.5674239   439061 
  859000    1.0443706   -2.7749023   -2.7749023   -1.2083499    0.1205613   -2.7749023    1.5665524   439061 
  860000    1.0455875   -2.7755257   -2.7755257    -1.207148   0.11477179   -2.7755257    1.5683777   439061 
  861000    1.0454065   -2.7756151   -2.7756151    -1.207509   0.12007981   -2.7756151    1.5681062   439061 
  862000    1.0462528   -2.7763745   -2.7763745   -1.2069989   0.12006049   -2.7763745    1.5693757   439061 
  863000    1.0469316   -2.7781289   -2.7781289    -1.207735   0.11912336   -2.7781289    1.5703939   439061 
  864000    1.0465783   -2.7782608   -2.7782608    -1.208397   0.11706051   -2.7782608    1.5698639   439061 
  865000    1.0455902   -2.7774177   -2.7774177    -1.209036   0.11196638   -2.7774177    1.5683817   439061 
  866000    1.0460277   -2.7777344   -2.7777344   -1.2086965    0.1122241   -2.7777344    1.5690379   439061 
  867000    1.0448205   -2.7753276   -2.7753276   -1.2081004   0.11662687   -2.7753276    1.5672272   439061 
  868000    1.0443673   -2.7746533   -2.7746533   -1.2081059   0.12371592   -2.7746533    1.5665474   439061 
  869000    1.0458782   -2.7775512   -2.7775512   -1.2087375   0.12095315   -2.7775512    1.5688137   439061 
  870000    1.0446757   -2.7768146   -2.7768146   -1.2098045   0.11588029   -2.7768146    1.5670101   439061 
  871000     1.045186   -2.7760544   -2.7760544    -1.208279   0.11777539   -2.7760544    1.5677754   439061 
  872000    1.0466946   -2.7786004   -2.7786004   -1.2085621   0.11557615   -2.7786004    1.5700383   439061 
  873000    1.0441981   -2.7769388   -2.7769388   -1.2106452   0.11573003   -2.7769388    1.5662936   439061 
  874000    1.0448318   -2.7760139   -2.7760139   -1.2087698    0.1174627   -2.7760139    1.5672441   439061 
  875000    1.0449194   -2.7767677   -2.7767677   -1.2093922   0.11634572   -2.7767677    1.5673755   439061 
  876000    1.0453596   -2.7763951   -2.7763951   -1.2083592   0.11615293   -2.7763951    1.5680359   439061 
  877000    1.0448336   -2.7759706   -2.7759706   -1.2087238   0.11543146   -2.7759706    1.5672468   439061 
  878000    1.0442817   -2.7759598   -2.7759598   -1.2095408   0.11466138   -2.7759598     1.566419   439061 
  879000    1.0456257   -2.7769363   -2.7769363   -1.2085014   0.11482588   -2.7769363    1.5684349   439061 
  880000    1.0445158   -2.7771017   -2.7771017   -1.2103315   0.11347411   -2.7771017    1.5667701   439061 
  881000    1.0439697   -2.7745001   -2.7745001   -1.2085491   0.11773223   -2.7745001     1.565951   439061 
  882000    1.0436639   -2.7747942   -2.7747942   -1.2093019   0.11023554   -2.7747942    1.5654922   439061 
  883000    1.0449802   -2.7759188   -2.7759188   -1.2084521   0.11772385   -2.7759188    1.5674667   439061 
  884000    1.0438226   -2.7744279   -2.7744279   -1.2086976   0.11441335   -2.7744279    1.5657303   439061 
  885000    1.0443042   -2.7756097   -2.7756097    -1.209157   0.11741265   -2.7756097    1.5664527   439061 
  886000    1.0434294   -2.7741863   -2.7741863   -1.2090458   0.11122481   -2.7741863    1.5651405   439061 
  887000    1.0423232   -2.7724983   -2.7724983    -1.209017   0.11054106   -2.7724983    1.5634812   439061 
  888000    1.0428462      -2.7742      -2.7742   -1.2099342   0.11379564      -2.7742    1.5642658   439061 
  889000    1.0434669   -2.7750965   -2.7750965   -1.2098996   0.11252267   -2.7750965    1.5651968   439061 
  890000    1.0448615   -2.7762805   -2.7762805   -1.2089919   0.11539949   -2.7762805    1.5672886   439061 
  891000    1.0446941   -2.7767613   -2.7767613   -1.2097236   0.11015835   -2.7767613    1.5670376   439061 
  892000    1.0447503   -2.7770887   -2.7770887   -1.2099669   0.11381244   -2.7770887    1.5671218   439061 
  893000    1.0437586   -2.7756487   -2.7756487   -1.2100143   0.11630078   -2.7756487    1.5656344   439061 
  894000    1.0427676   -2.7748315   -2.7748315   -1.2106837   0.11412341   -2.7748315    1.5641479   439061 
  895000    1.0439806   -2.7768643   -2.7768643    -1.210897   0.11262041   -2.7768643    1.5659673   439061 
  896000    1.0428656   -2.7755875   -2.7755875   -1.2112926   0.10990551   -2.7755875    1.5642949   439061 
  897000     1.043639   -2.7777625   -2.7777625   -1.2123076   0.11950866   -2.7777625    1.5654549   439061 
  898000     1.043152   -2.7780196   -2.7780196   -1.2132951   0.11635634   -2.7780196    1.5647245   439061 
  899000    1.0437043    -2.779055    -2.779055   -1.2135021   0.11411535    -2.779055    1.5655529   439061 
  900000    1.0422192   -2.7772205   -2.7772205   -1.2138952   0.11448233   -2.7772205    1.5633253   439061 
  901000    1.0416242   -2.7779466   -2.7779466   -1.2155138   0.11937527   -2.7779466    1.5624328   439061 
  902000    1.0426641   -2.7783363   -2.7783363   -1.2143437   0.11114664   -2.7783363    1.5639926   439061 
  903000    1.0437463   -2.7803313   -2.7803313   -1.2147155   0.11172181   -2.7803313    1.5656158   439061 
  904000    1.0427861   -2.7797581   -2.7797581   -1.2155825   0.11256571   -2.7797581    1.5641756   439061 
  905000    1.0423475   -2.7798563   -2.7798563   -1.2163386     0.113058   -2.7798563    1.5635177   439061 
  906000    1.0430553   -2.7798476   -2.7798476   -1.2152682    0.1195676   -2.7798476    1.5645795   439061 
  907000    1.0436565   -2.7815891   -2.7815891   -1.2161079   0.11605979   -2.7815891    1.5654812   439061 
  908000    1.0460057   -2.7845815   -2.7845815   -1.2155765   0.11130758   -2.7845815     1.569005   439061 
  909000    1.0449676   -2.7833868   -2.7833868    -1.215939   0.11271639   -2.7833868    1.5674478   439061 
  910000    1.0443767   -2.7836059   -2.7836059   -1.2170444   0.11207408   -2.7836059    1.5665615   439061 
  911000    1.0448043   -2.7844593   -2.7844593   -1.2172565   0.11569901   -2.7844593    1.5672028   439061 
  912000    1.0426005    -2.781479    -2.781479   -1.2175818   0.12050725    -2.781479    1.5638972   439061 
  913000    1.0444399   -2.7840954   -2.7840954   -1.2174391   0.11407222   -2.7840954    1.5666563   439061 
  914000    1.0437596   -2.7840084   -2.7840084   -1.2183726   0.11776412   -2.7840084    1.5656358   439061 
  915000     1.043352   -2.7824106   -2.7824106   -1.2173861   0.11556382   -2.7824106    1.5650245   439061 
  916000    1.0426805   -2.7817601   -2.7817601   -1.2177429    0.1151339   -2.7817601    1.5640172   439061 
  917000    1.0440453   -2.7839434   -2.7839434   -1.2178791   0.11264407   -2.7839434    1.5660643   439061 
  918000    1.0426797   -2.7826944   -2.7826944   -1.2186784     0.116509   -2.7826944     1.564016   439061 
  919000     1.043388   -2.7839829   -2.7839829   -1.2189045   0.11567182   -2.7839829    1.5650784   439061 
  920000    1.0421067   -2.7814741   -2.7814741   -1.2183177   0.11677429   -2.7814741    1.5631564   439061 
  921000    1.0420704   -2.7806879   -2.7806879   -1.2175858   0.11438857   -2.7806879    1.5631021   439061 
  922000    1.0437127   -2.7836288   -2.7836288   -1.2180634   0.11386819   -2.7836288    1.5655655   439061 
  923000    1.0432056   -2.7829151   -2.7829151   -1.2181103   0.11799889   -2.7829151    1.5648049   439061 
  924000    1.0433857    -2.784572    -2.784572    -1.219497   0.11472704    -2.784572     1.565075   439061 
  925000    1.0418766   -2.7826994   -2.7826994   -1.2198881   0.11071574   -2.7826994    1.5628113   439061 
  926000    1.0406785   -2.7810687   -2.7810687   -1.2200545   0.10961032   -2.7810687    1.5610143   439061 
  927000    1.0410277   -2.7795128   -2.7795128   -1.2179748   0.11013054   -2.7795128     1.561538   439061 
  928000      1.04274   -2.7802673   -2.7802673   -1.2161609   0.10945778   -2.7802673    1.5641064   439061 
  929000    1.0423591   -2.7791832   -2.7791832   -1.2156482   0.11731799   -2.7791832     1.563535   439061 
  930000    1.0433347   -2.7811357   -2.7811357   -1.2161373   0.11227708   -2.7811357    1.5649984   439061 
  931000    1.0427654   -2.7800156   -2.7800156    -1.215871   0.11387579   -2.7800156    1.5641446   439061 
  932000    1.0414269   -2.7785728   -2.7785728    -1.216436   0.11355225   -2.7785728    1.5621368   439061 
  933000    1.0423378   -2.7800151   -2.7800151    -1.216512   0.11282485   -2.7800151    1.5635031   439061 
  934000    1.0405596   -2.7779525   -2.7779525   -1.2171167   0.11139389   -2.7779525    1.5608358   439061 
  935000    1.0449431   -2.7832646   -2.7832646   -1.2158536   0.11152801   -2.7832646    1.5674111   439061 
  936000     1.042474   -2.7802418   -2.7802418   -1.2165345   0.10872952   -2.7802418    1.5637074   439061 
  937000    1.0428399   -2.7804792   -2.7804792   -1.2162229   0.11096453   -2.7804792    1.5642563   439061 
  938000    1.0417095   -2.7798713   -2.7798713   -1.2173106    0.1102526   -2.7798713    1.5625607   439061 
  939000    1.0408329   -2.7777278   -2.7777278    -1.216482   0.11289147   -2.7777278    1.5612458   439061 
  940000    1.0412464   -2.7773602   -2.7773602   -1.2154941   0.11697344   -2.7773602     1.561866   439061 
  941000    1.0433322   -2.7801697   -2.7801697    -1.215175   0.11457668   -2.7801697    1.5649947   439061 
  942000    1.0414685   -2.7794136   -2.7794136   -1.2172144   0.11678276   -2.7794136    1.5621991   439061 
  943000    1.0426106   -2.7815975   -2.7815975   -1.2176852   0.10900657   -2.7815975    1.5639124   439061 
  944000    1.0426347   -2.7800366   -2.7800366   -1.2160881   0.11314946   -2.7800366    1.5639485   439061 
  945000    1.0420195   -2.7790044   -2.7790044   -1.2159787   0.11536967   -2.7790044    1.5630257   439061 
  946000    1.0434814   -2.7814895   -2.7814895    -1.216271   0.11430239   -2.7814895    1.5652185   439061 
  947000    1.0425947   -2.7807149   -2.7807149   -1.2168264   0.11061453   -2.7807149    1.5638885   439061 
  948000    1.0433253   -2.7823171   -2.7823171   -1.2173327   0.11064733   -2.7823171    1.5649844   439061 
  949000    1.0431425   -2.7818403   -2.7818403   -1.2171301   0.10833008   -2.7818403    1.5647102   439061 
  950000    1.0420534   -2.7811483   -2.7811483   -1.2180717   0.11153894   -2.7811483    1.5630766   439061 
  951000    1.0417468   -2.7804316   -2.7804316   -1.2178149   0.11669472   -2.7804316    1.5626167   439061 
  952000    1.0423709   -2.7815493   -2.7815493   -1.2179965   0.10946363   -2.7815493    1.5635529   439061 
  953000     1.042687   -2.7813825   -2.7813825   -1.2173555   0.11647264   -2.7813825     1.564027   439061 
  954000     1.042931   -2.7809601   -2.7809601   -1.2165672   0.11738269   -2.7809601    1.5643929   439061 
  955000    1.0410771   -2.7787806   -2.7787806   -1.2171686   0.11321181   -2.7787806     1.561612   439061 
  956000     1.041968   -2.7804637   -2.7804637   -1.2175152   0.11470386   -2.7804637    1.5629485   439061 
  957000    1.0426501   -2.7811193   -2.7811193   -1.2171477   0.11686424   -2.7811193    1.5639716   439061 
  958000    1.0412902   -2.7813292   -2.7813292   -1.2193974     0.109698   -2.7813292    1.5619318   439061 
  959000    1.0397536   -2.7793705   -2.7793705   -1.2197436   0.11144995   -2.7793705    1.5596269   439061 
  960000    1.0430846   -2.7837913   -2.7837913    -1.219168   0.11200367   -2.7837913    1.5646234   439061 
  961000    1.0396143   -2.7801579   -2.7801579   -1.2207399   0.10894033   -2.7801579     1.559418   439061 
  962000    1.0432043   -2.7845859   -2.7845859    -1.219783   0.11184019   -2.7845859    1.5648029   439061 
  963000    1.0417151   -2.7815689   -2.7815689   -1.2189998   0.11282551   -2.7815689    1.5625691   439061 
  964000    1.0417546   -2.7806421   -2.7806421   -1.2180137   0.11413283   -2.7806421    1.5626284   439061 
  965000    1.0410091    -2.779581    -2.779581   -1.2180709   0.10978841    -2.779581    1.5615101   439061 
  966000    1.0404353   -2.7790194   -2.7790194   -1.2183701   0.11391266   -2.7790194    1.5606493   439061 
  967000    1.0392684   -2.7801674   -2.7801674   -1.2212684   0.10698727   -2.7801674     1.558899   439061 
  968000    1.0410274   -2.7813627   -2.7813627   -1.2198252   0.11221016   -2.7813627    1.5615376   439061 
  969000    1.0424978   -2.7836103   -2.7836103   -1.2198672   0.11083896   -2.7836103    1.5637431   439061 
  970000    1.0422914   -2.7817079   -2.7817079   -1.2182743   0.11182856   -2.7817079    1.5634335   439061 
  971000    1.0421619    -2.782304    -2.782304   -1.2190647   0.11090506    -2.782304    1.5632393   439061 
  972000    1.0420851   -2.7824072   -2.7824072   -1.2192832   0.11192158   -2.7824072     1.563124   439061 
  973000    1.0404267   -2.7805667   -2.7805667   -1.2199302   0.11113487   -2.7805667    1.5606364   439061 
  974000    1.0406758   -2.7811731   -2.7811731   -1.2201629   0.11568183   -2.7811731    1.5610102   439061 
  975000    1.0401338   -2.7820155   -2.7820155   -1.2218184   0.10739376   -2.7820155    1.5601971   439061 
  976000    1.0401556   -2.7819595   -2.7819595   -1.2217296   0.11091883   -2.7819595    1.5602298   439061 
  977000    1.0405144   -2.7822329   -2.7822329   -1.2214649    0.1126123   -2.7822329     1.560768   439061 
  978000    1.0396893   -2.7814481   -2.7814481   -1.2219176   0.10758457   -2.7814481    1.5595304   439061 
  979000    1.0401158    -2.781552    -2.781552   -1.2213819   0.10447926    -2.781552    1.5601701   439061 
  980000    1.0406845   -2.7806289   -2.7806289   -1.2196056   0.11655578   -2.7806289    1.5610233   439061 
  981000    1.0409287   -2.7814306   -2.7814306   -1.2200411   0.11311385   -2.7814306    1.5613895   439061 
  982000    1.0406304   -2.7804272   -2.7804272   -1.2194852   0.10892777   -2.7804272     1.560942   439061 
  983000    1.0407891   -2.7816615   -2.7816615   -1.2204814    0.1076977   -2.7816615    1.5611801   439061 
  984000     1.040738   -2.7808116   -2.7808116   -1.2197081   0.10815956   -2.7808116    1.5611034   439061 
  985000    1.0408335   -2.7811616   -2.7811616   -1.2199149   0.11222522   -2.7811616    1.5612466   439061 
  986000    1.0405303   -2.7812169   -2.7812169   -1.2204249   0.11081631   -2.7812169    1.5607919   439061 
  987000    1.0403876   -2.7808104   -2.7808104   -1.2202325   0.10899261   -2.7808104    1.5605779   439061 
  988000    1.0411049   -2.7810411   -2.7810411   -1.2193874   0.11047606   -2.7810411    1.5616537   439061 
  989000     1.041139   -2.7809123   -2.7809123   -1.2192074   0.11034859   -2.7809123    1.5617049   439061 
  990000    1.0413224    -2.780455    -2.780455   -1.2184749   0.11476214    -2.780455      1.56198   439061 
  991000    1.0413041   -2.7816141   -2.7816141   -1.2196616   0.10872871   -2.7816141    1.5619525   439061 
  992000       1.0408   -2.7813002   -2.7813002   -1.2201038   0.11547251   -2.7813002    1.5611965   439061 
  993000    1.0408638   -2.7814891   -2.7814891    -1.220197   0.11108378   -2.7814891    1.5612921   439061 
  994000    1.0420988   -2.7824722   -2.7824722   -1.2193276   0.10523979   -2.7824722    1.5631446   439061 
  995000    1.0402146   -2.7799473   -2.7799473    -1.219629   0.11091008   -2.7799473    1.5603184   439061 
  996000    1.0411548   -2.7822962   -2.7822962   -1.2205675   0.10934202   -2.7822962    1.5617287   439061 
  997000    1.0417432   -2.7833114   -2.7833114   -1.2207002   0.11345082   -2.7833114    1.5626113   439061 
  998000      1.04031   -2.7815636   -2.7815636    -1.221102   0.11373678   -2.7815636    1.5604615   439061 
  999000    1.0410484   -2.7821749   -2.7821749   -1.2206058   0.10875192   -2.7821749    1.5615691   439061 
 1000000    1.0412902   -2.7830354   -2.7830354   -1.2211037    0.1127562   -2.7830354    1.5619317   439061 
 1001000    1.0396278   -2.7815848   -2.7815848   -1.2221466   0.11163064   -2.7815848    1.5594382   439061 
 1002000    1.0416977   -2.7840075   -2.7840075   -1.2214644   0.10936747   -2.7840075    1.5625431   439061 
 1003000    1.0407792   -2.7834417   -2.7834417   -1.2222765   0.10884627   -2.7834417    1.5611653   439061 
 1004000    1.0404964   -2.7841805   -2.7841805   -1.2234395     0.112177   -2.7841805     1.560741   439061 
 1005000    1.0399037   -2.7837354   -2.7837354   -1.2238834   0.11158131   -2.7837354     1.559852   439061 
 1006000    1.0396747   -2.7834273   -2.7834273   -1.2239188   0.10642685   -2.7834273    1.5595085   439061 
 1007000    1.0396445    -2.782469    -2.782469   -1.2230059   0.10728117    -2.782469    1.5594631   439061 
 1008000    1.0405248   -2.7838308   -2.7838308   -1.2230471   0.10977444   -2.7838308    1.5607837   439061 
 1009000    1.0407503    -2.782919    -2.782919    -1.221797   0.11082022    -2.782919     1.561122   439061 
 1010000    1.0394875   -2.7807646   -2.7807646   -1.2215369   0.10932277   -2.7807646    1.5592277   439061 
 1011000    1.0396604   -2.7822198   -2.7822198   -1.2227328   0.10351334   -2.7822198     1.559487   439061 
 1012000    1.0413698   -2.7842312   -2.7842312     -1.22218   0.10969212   -2.7842312    1.5620511   439061 
 1013000    1.0401137   -2.7829338   -2.7829338   -1.2227669   0.11433386   -2.7829338     1.560167   439061 
 1014000    1.0404389   -2.7842081   -2.7842081   -1.2235533   0.11132818   -2.7842081    1.5606548   439061 
 1015000    1.0394316   -2.7820933   -2.7820933   -1.2229494   0.10762055   -2.7820933    1.5591439   439061 
 1016000     1.039359   -2.7817436   -2.7817436   -1.2227087   0.11409455   -2.7817436    1.5590349   439061 
 1017000    1.0394134    -2.782714    -2.782714   -1.2235974   0.10563884    -2.782714    1.5591165   439061 
 1018000     1.039993   -2.7828874   -2.7828874   -1.2229015   0.11126067   -2.7828874    1.5599859   439061 
 1019000    1.0395307   -2.7828536   -2.7828536   -1.2235611   0.10727615   -2.7828536    1.5592925   439061 
 1020000    1.0396441   -2.7821267   -2.7821267   -1.2226642   0.10823159   -2.7821267    1.5594625   439061 
 1021000    1.0399552   -2.7830924   -2.7830924   -1.2231631   0.11425548   -2.7830924    1.5599293   439061 
 1022000     1.041592   -2.7847422   -2.7847422   -1.2223578   0.10412664   -2.7847422    1.5623844   439061 
 1023000    1.0401198   -2.7835923   -2.7835923   -1.2234162   0.10820014   -2.7835923    1.5601761   439061 
 1024000    1.0399844   -2.7839442   -2.7839442   -1.2239712   0.10553584   -2.7839442    1.5599731   439061 
 1025000    1.0384622   -2.7834886   -2.7834886   -1.2257988   0.10847258   -2.7834886    1.5576898   439061 
 1026000    1.0404636   -2.7870036   -2.7870036   -1.2263117   0.10667288   -2.7870036    1.5606919   439061 
 1027000    1.0387043   -2.7847044   -2.7847044   -1.2266515   0.10924336   -2.7847044    1.5580529   439061 
 1028000    1.0379385   -2.7842176   -2.7842176   -1.2273134   0.10914168   -2.7842176    1.5569042   439061 
 1029000    1.0383085   -2.7856506   -2.7856506   -1.2281914   0.10734032   -2.7856506    1.5574592   439061 
 1030000      1.03894   -2.7858493   -2.7858493   -1.2274429   0.10907465   -2.7858493    1.5584064   439061 
 1031000    1.0397781   -2.7884808   -2.7884808   -1.2288172    0.1074976   -2.7884808    1.5596636   439061 
 1032000    1.0400748     -2.78878     -2.78878   -1.2286713   0.11569931     -2.78878    1.5601087   439061 
 1033000    1.0399882   -2.7898669   -2.7898669   -1.2298882   0.10972308   -2.7898669    1.5599787   439061 
 1034000    1.0393044   -2.7897151   -2.7897151    -1.230762   0.11006702   -2.7897151    1.5589531   439061 
 1035000     1.037981   -2.7870176   -2.7870176   -1.2300497   0.10832307   -2.7870176     1.556968   439061 
 1036000    1.0375749   -2.7874593   -2.7874593   -1.2311004   0.10841787   -2.7874593    1.5563589   439061 
 1037000    1.0377645   -2.7884092   -2.7884092   -1.2317661   0.10742286   -2.7884092    1.5566431   439061 
 1038000    1.0374735   -2.7879924   -2.7879924   -1.2317857   0.11288443   -2.7879924    1.5562067   439061 
 1039000    1.0375805   -2.7888247   -2.7888247   -1.2324575   0.10846612   -2.7888247    1.5563672   439061 
 1040000     1.037475   -2.7870041   -2.7870041   -1.2307951   0.10982684   -2.7870041     1.556209   439061 
 1041000    1.0385399   -2.7888827   -2.7888827   -1.2310764   0.10712614   -2.7888827    1.5578063   439061 
 1042000    1.0387559   -2.7895642   -2.7895642    -1.231434   0.10532829   -2.7895642    1.5581302   439061 
 1043000    1.0382867   -2.7887616   -2.7887616   -1.2313351   0.11277954   -2.7887616    1.5574265   439061 
 1044000    1.0400132    -2.791212    -2.791212   -1.2311957   0.10849363    -2.791212    1.5600163   439061 
 1045000    1.0391907   -2.7900493   -2.7900493   -1.2312668   0.10945353   -2.7900493    1.5587825   439061 
 1046000    1.0389543   -2.7894105   -2.7894105   -1.2309826    0.1052414   -2.7894105    1.5584279   439061 
 1047000     1.039052   -2.7903222   -2.7903222   -1.2317477   0.10527532   -2.7903222    1.5585744   439061 
 1048000    1.0366931   -2.7873186   -2.7873186   -1.2322824   0.10633062   -2.7873186    1.5550362   439061 
 1049000    1.0362266   -2.7879845   -2.7879845   -1.2336481   0.10998486   -2.7879845    1.5543363   439061 
 1050000     1.036276   -2.7870769   -2.7870769   -1.2326664   0.10552451   -2.7870769    1.5544105   439061 
 1051000    1.0358879   -2.7861187   -2.7861187   -1.2322904    0.1088009   -2.7861187    1.5538283   439061 
 1052000    1.0364045   -2.7852249   -2.7852249   -1.2306216   0.10688401   -2.7852249    1.5546032   439061 
 1053000    1.0377596   -2.7872533   -2.7872533   -1.2306175   0.11030888   -2.7872533    1.5566358   439061 
 1054000    1.0374877    -2.786985    -2.786985   -1.2307571   0.11197025    -2.786985     1.556228   439061 
 1055000    1.0377269   -2.7879496   -2.7879496   -1.2313627   0.11062256   -2.7879496    1.5565869   439061 
 1056000    1.0370857    -2.786318    -2.786318    -1.230693   0.10996808    -2.786318     1.555625   439061 
 1057000    1.0353833   -2.7848294   -2.7848294    -1.231758   0.10549134   -2.7848294    1.5530714   439061 
 1058000    1.0370037   -2.7859813   -2.7859813   -1.2304792   0.10837422   -2.7859813    1.5555021   439061 
 1059000    1.0375061   -2.7864742   -2.7864742   -1.2302185   0.10745032   -2.7864742    1.5562557   439061 
 1060000     1.037206   -2.7868574   -2.7868574    -1.231052    0.1078399   -2.7868574    1.5558054   439061 
 1061000    1.0363459   -2.7855881   -2.7855881   -1.2310728    0.1033447   -2.7855881    1.5545153   439061 
 1062000    1.0368355    -2.787116    -2.787116   -1.2318663   0.10432975    -2.787116    1.5552497   439061 
 1063000    1.0359926   -2.7864577   -2.7864577   -1.2324722   0.10339925   -2.7864577    1.5539854   439061 
 1064000    1.0368901   -2.7869632   -2.7869632   -1.2316315   0.10600123   -2.7869632    1.5553317   439061 
 1065000    1.0351725   -2.7842958   -2.7842958   -1.2315405   0.10526589   -2.7842958    1.5527552   439061 
 1066000    1.0367678   -2.7858101   -2.7858101   -1.2306619   0.11208659   -2.7858101    1.5551481   439061 
 1067000    1.0360818   -2.7862696   -2.7862696   -1.2321505   0.10649899   -2.7862696    1.5541191   439061 
 1068000     1.037069   -2.7872494   -2.7872494   -1.2316495   0.10932981   -2.7872494    1.5555999   439061 
 1069000    1.0365139    -2.787809    -2.787809   -1.2330416   0.10865473    -2.787809    1.5547674   439061 
 1070000    1.0362955   -2.7867011   -2.7867011   -1.2322613   0.10546727   -2.7867011    1.5544398   439061 
 1071000    1.0343473   -2.7849198   -2.7849198   -1.2334023    0.1056098   -2.7849198    1.5515174   439061 
 1072000    1.0350202    -2.785898    -2.785898   -1.2333712   0.10652969    -2.785898    1.5525268   439061 
 1073000    1.0365914   -2.7880231   -2.7880231   -1.2331395   0.10308383   -2.7880231    1.5548835   439061 
 1074000    1.0360705   -2.7866039   -2.7866039   -1.2325018   0.10860361   -2.7866039    1.5541022   439061 
 1075000    1.0368772    -2.789267    -2.789267   -1.2339548   0.10752637    -2.789267    1.5553122   439061 
 1076000    1.0367834   -2.7910615   -2.7910615   -1.2358899   0.10556695   -2.7910615    1.5551716   439061 
 1077000    1.0353053   -2.7894292   -2.7894292   -1.2364748   0.11178765   -2.7894292    1.5529544   439061 
 1078000    1.0376701    -2.792835    -2.792835   -1.2363334   0.10831108    -2.792835    1.5565016   439061 
 1079000    1.0358931   -2.7901778   -2.7901778   -1.2363418   0.10905626   -2.7901778    1.5538361   439061 
 1080000    1.0361389   -2.7904491   -2.7904491   -1.2362442   0.10738557   -2.7904491    1.5542049   439061 
 1081000    1.0358335   -2.7908467   -2.7908467      -1.2371   0.10935143   -2.7908467    1.5537467   439061 
 1082000      1.03676   -2.7918417   -2.7918417   -1.2367053   0.10755652   -2.7918417    1.5551365   439061 
 1083000    1.0374203   -2.7930557   -2.7930557   -1.2369288   0.10976819   -2.7930557     1.556127   439061 
 1084000    1.0370625   -2.7929047   -2.7929047   -1.2373145   0.10749643   -2.7929047    1.5555901   439061 
 1085000    1.0351634   -2.7902592   -2.7902592   -1.2375176   0.10986937   -2.7902592    1.5527416   439061 
 1086000    1.0380644   -2.7940756   -2.7940756   -1.2369825   0.10459309   -2.7940756    1.5570931   439061 
 1087000    1.0373581   -2.7920618   -2.7920618   -1.2360281   0.11002713   -2.7920618    1.5560337   439061 
 1088000    1.0365768   -2.7914775   -2.7914775   -1.2366158   0.10444224   -2.7914775    1.5548617   439061 
 1089000    1.0387599   -2.7948434   -2.7948434   -1.2367071    0.1085539   -2.7948434    1.5581363   439061 
 1090000    1.0378352   -2.7938289   -2.7938289   -1.2370795   0.11092779   -2.7938289    1.5567493   439061 
 1091000    1.0358238   -2.7922257   -2.7922257   -1.2384935   0.10844204   -2.7922257    1.5537322   439061 
 1092000    1.0357619   -2.7911501   -2.7911501   -1.2375107   0.11030988   -2.7911501    1.5536394   439061 
 1093000    1.0355612   -2.7912917   -2.7912917   -1.2379535   0.10903336   -2.7912917    1.5533382   439061 
 1094000    1.0359955   -2.7917471   -2.7917471   -1.2377574   0.10821648   -2.7917471    1.5539897   439061 
 1095000    1.0362978   -2.7913777   -2.7913777   -1.2369346   0.10970386   -2.7913777    1.5544431   439061 
 1096000    1.0371468    -2.792735    -2.792735   -1.2370183   0.10640339    -2.792735    1.5557167   439061 
 1097000    1.0347044   -2.7891686   -2.7891686   -1.2371155     0.105291   -2.7891686    1.5520531   439061 
 1098000    1.0352679   -2.7915589   -2.7915589   -1.2386606   0.10514513   -2.7915589    1.5528983   439061 
 1099000    1.0334251   -2.7890649   -2.7890649   -1.2389308   0.11119247   -2.7890649    1.5501341   439061 
 1100000    1.0366865   -2.7929544   -2.7929544   -1.2379282   0.10345782   -2.7929544    1.5550262   439061 
 1101000    1.0359454   -2.7910567   -2.7910567   -1.2371421   0.10551374   -2.7910567    1.5539146   439061 
 1102000    1.0353238   -2.7902726   -2.7902726   -1.2372904    0.1078013   -2.7902726    1.5529822   439061 
 1103000    1.0352651   -2.7892827   -2.7892827   -1.2363886   0.10560618   -2.7892827    1.5528941   439061 
 1104000    1.0356613   -2.7906801   -2.7906801   -1.2371918   0.10753146   -2.7906801    1.5534884   439061 
 1105000    1.0351512   -2.7907509   -2.7907509   -1.2380277    0.1061059   -2.7907509    1.5527232   439061 
 1106000    1.0346527   -2.7886451   -2.7886451   -1.2366696   0.10632923   -2.7886451    1.5519756   439061 
 1107000    1.0343554   -2.7884074   -2.7884074   -1.2368779   0.10574069   -2.7884074    1.5515295   439061 
 1108000    1.0368884   -2.7929236   -2.7929236   -1.2375946   0.10705389   -2.7929236     1.555329   439061 
 1109000    1.0347418   -2.7896977   -2.7896977   -1.2375885   0.10594795   -2.7896977    1.5521091   439061 
 1110000    1.0360594   -2.7916508   -2.7916508   -1.2375653   0.10468742   -2.7916508    1.5540856   439061 
 1111000    1.0352956   -2.7918188   -2.7918188   -1.2388789   0.10908512   -2.7918188    1.5529399   439061 
 1112000    1.0367712   -2.7947178   -2.7947178   -1.2395646   0.10426583   -2.7947178    1.5551532   439061 
 1113000    1.0350695   -2.7913866   -2.7913866   -1.2387859   0.10651731   -2.7913866    1.5526007   439061 
 1114000    1.0341107   -2.7916298   -2.7916298   -1.2404672   0.10927228   -2.7916298    1.5511626   439061 
 1115000    1.0349623   -2.7915191   -2.7915191   -1.2390792    0.1082797   -2.7915191    1.5524399   439061 
 1116000    1.0338614   -2.7908178   -2.7908178   -1.2400292   0.10775336   -2.7908178    1.5507886   439061 
 1117000    1.0358465   -2.7932164   -2.7932164   -1.2394502   0.10681145   -2.7932164    1.5537662   439061 
 1118000    1.0357008   -2.7932762   -2.7932762   -1.2397285   0.10876509   -2.7932762    1.5535477   439061 
 1119000     1.035589   -2.7938619   -2.7938619   -1.2404818   0.10645808   -2.7938619      1.55338   439061 
 1120000    1.0345054   -2.7928164   -2.7928164   -1.2410619    0.1076211   -2.7928164    1.5517545   439061 
 1121000    1.0353842   -2.7928403   -2.7928403   -1.2397676   0.10074156   -2.7928403    1.5530727   439061 
 1122000    1.0355256    -2.793485    -2.793485   -1.2402002   0.10830116    -2.793485    1.5532848   439061 
 1123000    1.0352093   -2.7940281   -2.7940281   -1.2412176   0.10601052   -2.7940281    1.5528105   439061 
 1124000    1.0352386   -2.7941958   -2.7941958   -1.2413414   0.10691748   -2.7941958    1.5528543   439061 
 1125000    1.0352113   -2.7939031   -2.7939031   -1.2410896   0.10082826   -2.7939031    1.5528134   439061 
 1126000    1.0344793   -2.7933349   -2.7933349   -1.2416194   0.10551481   -2.7933349    1.5517155   439061 
 1127000    1.0349602   -2.7952096   -2.7952096   -1.2427728    0.1002479   -2.7952096    1.5524368   439061 
 1128000    1.0364269   -2.7970941   -2.7970941   -1.2424573   0.10578819   -2.7970941    1.5546368   439061 
 1129000     1.034799   -2.7944943   -2.7944943   -1.2422993   0.11006473   -2.7944943    1.5521949   439061 
 1130000    1.0344157   -2.7947798   -2.7947798   -1.2431598   0.10317003   -2.7947798      1.55162   439061 
 1131000    1.0349118   -2.7956451   -2.7956451    -1.243281   0.10371553   -2.7956451    1.5523641   439061 
 1132000    1.0341932   -2.7943497   -2.7943497   -1.2430634   0.10462957   -2.7943497    1.5512863   439061 
 1133000    1.0332952   -2.7941766   -2.7941766   -1.2442374   0.10805436   -2.7941766    1.5499392   439061 
 1134000    1.0342036    -2.794097    -2.794097   -1.2427952  0.099883923    -2.794097    1.5513018   439061 
 1135000    1.0331311   -2.7930407   -2.7930407   -1.2433476   0.10505774   -2.7930407    1.5496931   439061 
 1136000    1.0340761   -2.7954318   -2.7954318   -1.2443211   0.10302395   -2.7954318    1.5511106   439061 
 1137000    1.0340421   -2.7953498   -2.7953498   -1.2442902   0.10150759   -2.7953498    1.5510596   439061 
 1138000    1.0328901   -2.7945883   -2.7945883   -1.2452567   0.10256461   -2.7945883    1.5493316   439061 
 1139000    1.0331503   -2.7939226   -2.7939226   -1.2442007   0.10788944   -2.7939226    1.5497219   439061 
 1140000     1.032745    -2.794684    -2.794684   -1.2455701   0.10254911    -2.794684     1.549114   439061 
 1141000    1.0332318   -2.7933648   -2.7933648   -1.2435206   0.10993086   -2.7933648    1.5498442   439061 
 1142000    1.0334776   -2.7936742   -2.7936742   -1.2434614   0.10151109   -2.7936742    1.5502128   439061 
 1143000     1.032422    -2.793221    -2.793221   -1.2445915   0.10410326    -2.793221    1.5486295   439061 
 1144000      1.03454   -2.7960939   -2.7960939   -1.2442875   0.10808473   -2.7960939    1.5518064   439061 
 1145000    1.0358849   -2.7983929   -2.7983929    -1.244569   0.10328936   -2.7983929    1.5538239   439061 
 1146000    1.0359895    -2.797179    -2.797179   -1.2431982   0.10707273    -2.797179    1.5539807   439061 
 1147000     1.034398   -2.7949571   -2.7949571   -1.2433636   0.10596498   -2.7949571    1.5515935   439061 
 1148000    1.0334312   -2.7954565   -2.7954565   -1.2453132   0.10510203   -2.7954565    1.5501433   439061 
 1149000     1.034333   -2.7963896   -2.7963896   -1.2448937   0.10440301   -2.7963896    1.5514959   439061 
 1150000     1.033998   -2.7957104   -2.7957104   -1.2447169   0.10516326   -2.7957104    1.5509935   439061 
 1151000    1.0338095   -2.7950177   -2.7950177   -1.2443069   0.10610286   -2.7950177    1.5507108   439061 
 1152000     1.034924   -2.7963596   -2.7963596   -1.2439771   0.10349049   -2.7963596    1.5523824   439061 
 1153000    1.0366011    -2.799323    -2.799323   -1.2444248   0.10456834    -2.799323    1.5548982   439061 
 1154000    1.0350556   -2.7978753   -2.7978753   -1.2452955  0.099970743   -2.7978753    1.5525798   439061 
 1155000    1.0342934   -2.7963368   -2.7963368   -1.2449002   0.11044528   -2.7963368    1.5514365   439061 
 1156000    1.0350644   -2.7983939   -2.7983939   -1.2458008   0.10456391   -2.7983939    1.5525931   439061 
 1157000    1.0334191   -2.7945285   -2.7945285   -1.2444034   0.10836447   -2.7945285    1.5501251   439061 
 1158000    1.0334951   -2.7956599   -2.7956599   -1.2454208   0.10228443   -2.7956599    1.5502391   439061 
 1159000    1.0339621   -2.7969021   -2.7969021   -1.2459625   0.10065566   -2.7969021    1.5509396   439061 
 1160000    1.0340276    -2.796163    -2.796163   -1.2451251   0.10481399    -2.796163    1.5510379   439061 
 1161000    1.0339152   -2.7945392   -2.7945392     -1.24367    0.1020293   -2.7945392    1.5508692   439061 
 1162000    1.0327385   -2.7938645   -2.7938645   -1.2447603   0.10284163   -2.7938645    1.5491042   439061 
 1163000    1.0304592   -2.7923035   -2.7923035   -1.2466183    0.1041709   -2.7923035    1.5456852   439061 
 1164000    1.0326007    -2.795336    -2.795336   -1.2464384   0.10126524    -2.795336    1.5488976   439061 
 1165000     1.032765   -2.7939205   -2.7939205   -1.2447766   0.10131147   -2.7939205    1.5491439   439061 
 1166000    1.0332185   -2.7933477   -2.7933477   -1.2435235   0.10245015   -2.7933477    1.5498242   439061 
 1167000    1.0339409   -2.7931852   -2.7931852   -1.2422774   0.10772388   -2.7931852    1.5509078   439061 
 1168000    1.0347167    -2.795835    -2.795835   -1.2437636   0.10398525    -2.795835    1.5520715   439061 
 1169000     1.032416   -2.7940474   -2.7940474   -1.2454269   0.10510326   -2.7940474    1.5486205   439061 
 1170000     1.034748   -2.7963104   -2.7963104    -1.244192  0.099975959   -2.7963104    1.5521184   439061 
 1171000    1.0333908   -2.7955646   -2.7955646    -1.245482   0.10339644   -2.7955646    1.5500826   439061 
 1172000    1.0339303   -2.7978869   -2.7978869   -1.2469949   0.10320631   -2.7978869     1.550892   439061 
 1173000    1.0321592   -2.7965976   -2.7965976   -1.2483623  0.097165406   -2.7965976    1.5482353   439061 
 1174000    1.0316154   -2.7958246   -2.7958246   -1.2484049  0.096362615   -2.7958246    1.5474196   439061 
 1175000    1.0315581    -2.795152    -2.795152   -1.2478184   0.10098341    -2.795152    1.5473336   439061 
 1176000    1.0313052   -2.7947992   -2.7947992   -1.2478449   0.10135673   -2.7947992    1.5469543   439061 
 1177000    1.0331914   -2.7975289   -2.7975289   -1.2477454   0.10255467   -2.7975289    1.5497835   439061 
 1178000      1.03337   -2.7977699   -2.7977699   -1.2477184   0.10087331   -2.7977699    1.5500515   439061 
 1179000    1.0322825   -2.7941723   -2.7941723    -1.245752   0.10495436   -2.7941723    1.5484203   439061 
 1180000     1.034592   -2.7982752   -2.7982752   -1.2463908   0.10103954   -2.7982752    1.5518845   439061 
 1181000    1.0349031   -2.7982803   -2.7982803   -1.2459293   0.10498714   -2.7982803     1.552351   439061 
 1182000    1.0325616   -2.7963667   -2.7963667   -1.2475279   0.10534739   -2.7963667    1.5488388   439061 
 1183000    1.0319632   -2.7951843   -2.7951843    -1.247243   0.10653963   -2.7951843    1.5479413   439061 
 1184000    1.0337467   -2.7988046   -2.7988046   -1.2481881   0.09986816   -2.7988046    1.5506165   439061 
 1185000    1.0330955   -2.7973241   -2.7973241   -1.2476843   0.10085595   -2.7973241    1.5496398   439061 
 1186000    1.0331962   -2.7978711   -2.7978711   -1.2480804   0.10524806   -2.7978711    1.5497907   439061 
 1187000    1.0325085   -2.7968221   -2.7968221   -1.2480628   0.10697033   -2.7968221    1.5487593   439061 
 1188000     1.033769   -2.7981983   -2.7981983   -1.2475483   0.10322258   -2.7981983      1.55065   439061 
 1189000     1.033934   -2.7985413   -2.7985413   -1.2476439   0.10442301   -2.7985413    1.5508974   439061 
 1190000    1.0337211   -2.7963154   -2.7963154   -1.2457373   0.10495011   -2.7963154    1.5505781   439061 
 1191000    1.0337052   -2.7974526   -2.7974526   -1.2468983   0.10071108   -2.7974526    1.5505543   439061 
 1192000    1.0338753   -2.7975194   -2.7975194   -1.2467099   0.10823305   -2.7975194    1.5508094   439061 
 1193000    1.0354677   -2.8003112   -2.8003112   -1.2471133   0.10017935   -2.8003112     1.553198   439061 
 1194000    1.0330361   -2.7979045   -2.7979045   -1.2483538   0.10408522   -2.7979045    1.5495507   439061 
 1195000    1.0338433   -2.7997966   -2.7997966   -1.2490352   0.10481959   -2.7997966    1.5507614   439061 
 1196000    1.0333438   -2.7981425   -2.7981425   -1.2481304   0.10304133   -2.7981425    1.5500121   439061 
 1197000    1.0327232   -2.7998923   -2.7998923    -1.250811  0.098325668   -2.7998923    1.5490813   439061 
 1198000    1.0319787   -2.7991585   -2.7991585    -1.251194   0.10193229   -2.7991585    1.5479645   439061 
 1199000    1.0334953   -2.8009951   -2.8009951   -1.2507558   0.10096638   -2.8009951    1.5502394   439061 
 1200000    1.0333724   -2.8004856   -2.8004856   -1.2504306    0.1038061   -2.8004856     1.550055   439061 
 1201000    1.0308484   -2.7978616   -2.7978616   -1.2515925   0.10407094   -2.7978616    1.5462691   439061 
 1202000    1.0318538   -2.7990852   -2.7990852    -1.251308  0.098988592   -2.7990852    1.5477772   439061 
 1203000    1.0327832   -2.8000811   -2.8000811   -1.2509099   0.10535166   -2.8000811    1.5491712   439061 
 1204000    1.0312968   -2.7984515   -2.7984515   -1.2515099   0.10609519   -2.7984515    1.5469416   439061 
 1205000    1.0331176    -2.800762    -2.800762   -1.2510891   0.10253988    -2.800762    1.5496729   439061 
 1206000    1.0325226   -2.8002327   -2.8002327   -1.2514524   0.10332397   -2.8002327    1.5487803   439061 
 1207000    1.0329002    -2.800814    -2.800814   -1.2514673   0.10766967    -2.800814    1.5493467   439061 
 1208000    1.0329365   -2.8011039   -2.8011039   -1.2517026   0.10398095   -2.8011039    1.5494013   439061 
 1209000     1.031988   -2.7997167   -2.7997167   -1.2517382   0.09936997   -2.7997167    1.5479785   439061 
 1210000    1.0320633   -2.7986039   -2.7986039   -1.2505124   0.10310169   -2.7986039    1.5480915   439061 
 1211000    1.0331216    -2.801395    -2.801395   -1.2517161   0.10464539    -2.801395    1.5496789   439061 
 1212000    1.0311232   -2.7988063   -2.7988063   -1.2521251   0.10690853   -2.7988063    1.5466812   439061 
 1213000    1.0326975    -2.801584    -2.801584   -1.2525412  0.098222231    -2.801584    1.5490427   439061 
 1214000    1.0319014   -2.7993871   -2.7993871   -1.2515386     0.101813   -2.7993871    1.5478485   439061 
 1215000    1.0331489   -2.8017718   -2.8017718    -1.252052   0.10328725   -2.8017718    1.5497198   439061 
 1216000    1.0313782    -2.800265    -2.800265   -1.2532012   0.10031061    -2.800265    1.5470638   439061 
 1217000    1.0310855   -2.8005547   -2.8005547     -1.25393  0.096472478   -2.8005547    1.5466247   439061 
 1218000     1.031588   -2.7994339   -2.7994339   -1.2520555   0.10480916   -2.7994339    1.5473784   439061 
 1219000      1.03164   -2.8005722   -2.8005722   -1.2531158   0.10027093   -2.8005722    1.5474564   439061 
 1220000    1.0303452   -2.7983398   -2.7983398   -1.2528255   0.10164417   -2.7983398    1.5455143   439061 
 1221000    1.0315785   -2.7990958   -2.7990958   -1.2517316   0.10427988   -2.7990958    1.5473642   439061 
 1222000    1.0307943   -2.7977596   -2.7977596   -1.2515717   0.10274719   -2.7977596     1.546188   439061 
 1223000    1.0324757   -2.8005043   -2.8005043   -1.2517943   0.10302239   -2.8005043    1.5487101   439061 
 1224000    1.0314627   -2.7979841   -2.7979841   -1.2507936   0.10541471   -2.7979841    1.5471905   439061 
 1225000     1.032986    -2.801397    -2.801397   -1.2519215  0.097647876    -2.801397    1.5494754   439061 
 1226000      1.03183   -2.7982616   -2.7982616     -1.25052   0.10817527   -2.7982616    1.5477415   439061 
 1227000    1.0312799   -2.7979843   -2.7979843   -1.2510679    0.1048734   -2.7979843    1.5469164   439061 
 1228000    1.0332993   -2.7999054   -2.7999054   -1.2499601   0.10763319   -2.7999054    1.5499454   439061 
 1229000    1.0321951   -2.7976599   -2.7976599   -1.2493707  0.097901192   -2.7976599    1.5482891   439061 
 1230000    1.0313991    -2.798403    -2.798403   -1.2513079   0.10053932    -2.798403    1.5470951   439061 
 1231000    1.0316435   -2.7983485   -2.7983485   -1.2508868   0.10422027   -2.7983485    1.5474617   439061 
 1232000    1.0323359   -2.7998192   -2.7998192   -1.2513188   0.10275324   -2.7998192    1.5485004   439061 
 1233000    1.0317076   -2.7991249   -2.7991249    -1.251567   0.10190063   -2.7991249    1.5475579   439061 
 1234000    1.0330621    -2.800359    -2.800359   -1.2507694   0.10129468    -2.800359    1.5495896   439061 
 1235000    1.0340097    -2.800322    -2.800322   -1.2493109  0.099847818    -2.800322     1.551011   439061 
 1236000    1.0332771   -2.8005452   -2.8005452   -1.2506331  0.098569948   -2.8005452    1.5499121   439061 
 1237000    1.0330616   -2.7993249   -2.7993249    -1.249736  0.098223265   -2.7993249    1.5495889   439061 
 1238000    1.0351018   -2.8017019   -2.8017019   -1.2490528   0.10903193   -2.8017019    1.5526491   439061 
 1239000    1.0331437   -2.7988193   -2.7988193   -1.2491073  0.098797351   -2.7988193    1.5497121   439061 
 1240000    1.0321746   -2.7980641   -2.7980641   -1.2498058   0.10191866   -2.7980641    1.5482583   439061 
 1241000    1.0316317   -2.7981848   -2.7981848   -1.2507408    0.1034372   -2.7981848     1.547444   439061 
 1242000     1.031652   -2.7983214   -2.7983214   -1.2508469   0.10329168   -2.7983214    1.5474745   439061 
 1243000    1.0330088   -2.8002659   -2.8002659   -1.2507562  0.096517717   -2.8002659    1.5495097   439061 
 1244000    1.0309429    -2.798338    -2.798338   -1.2519272   0.10501031    -2.798338    1.5464108   439061 
 1245000    1.0310857   -2.7972551   -2.7972551   -1.2506301   0.10241731   -2.7972551    1.5466251   439061 
 1246000    1.0307629   -2.7961546   -2.7961546   -1.2500137   0.10206721   -2.7961546    1.5461409   439061 
 1247000    1.0327127   -2.7991547   -2.7991547   -1.2500891  0.095450683   -2.7991547    1.5490656   439061 
 1248000    1.0314943   -2.7981343   -2.7981343   -1.2508963   0.10562341   -2.7981343    1.5472379   439061 
 1249000    1.0328323    -2.798768    -2.798768   -1.2495232   0.10653679    -2.798768    1.5492449   439061 
 1250000    1.0319958   -2.7965307   -2.7965307   -1.2485405   0.10061805   -2.7965307    1.5479902   439061 
 1251000     1.032551   -2.7966936   -2.7966936   -1.2478706   0.10052314   -2.7966936     1.548823   439061 
 1252000     1.032844   -2.7993989   -2.7993989   -1.2501364   0.10729654   -2.7993989    1.5492625   439061 
 1253000    1.0326502   -2.7986313   -2.7986313   -1.2496596   0.10531083   -2.7986313    1.5489717   439061 
 1254000    1.0341401   -2.8012197   -2.8012197   -1.2500132   0.10486481   -2.8012197    1.5512066   439061 
 1255000    1.0328942   -2.7995242   -2.7995242   -1.2501865   0.10193314   -2.7995242    1.5493377   439061 
 1256000    1.0333799   -2.7988424   -2.7988424    -1.248776   0.10260841   -2.7988424    1.5500663   439061 
 1257000    1.0329542    -2.799562    -2.799562   -1.2501342    0.1009706    -2.799562    1.5494278   439061 
 1258000    1.0320875   -2.7988136   -2.7988136   -1.2506858  0.099418523   -2.7988136    1.5481277   439061 
 1259000    1.0309772   -2.7970396   -2.7970396   -1.2505773   0.10608956   -2.7970396    1.5464623   439061 
 1260000    1.0321861   -2.8004191   -2.8004191   -1.2521435   0.10054685   -2.8004191    1.5482756   439061 
 1261000    1.0331032   -2.8011772   -2.8011772   -1.2515259   0.10266997   -2.8011772    1.5496513   439061 
 1262000     1.033167   -2.8011518   -2.8011518   -1.2514048   0.10036067   -2.8011518     1.549747   439061 
 1263000    1.0308919   -2.7989755   -2.7989755   -1.2526411   0.10459547   -2.7989755    1.5463344   439061 
 1264000    1.0321139   -2.8008583   -2.8008583   -1.2526909  0.099782979   -2.8008583    1.5481674   439061 
 1265000    1.0322288   -2.8006194   -2.8006194   -1.2522797  0.098727618   -2.8006194    1.5483397   439061 
 1266000    1.0327148     -2.80129     -2.80129   -1.2522213  0.099040877     -2.80129    1.5490687   439061 
 1267000    1.0337477   -2.8018601   -2.8018601   -1.2512422  0.098681466   -2.8018601    1.5506179   439061 
 1268000    1.0321318   -2.8000504   -2.8000504   -1.2518562  0.097431689   -2.8000504    1.5481942   439061 
 1269000    1.0317843   -2.7991446   -2.7991446   -1.2514716  0.098926995   -2.7991446    1.5476729   439061 
 1270000    1.0322691   -2.8008499   -2.8008499   -1.2524497  0.098104864   -2.8008499    1.5484002   439061 
 1271000      1.03122   -2.7995078   -2.7995078   -1.2526813   0.10405312   -2.7995078    1.5468265   439061 
 1272000    1.0315676   -2.8010297   -2.8010297   -1.2536818   0.10267853   -2.8010297    1.5473478   439061 
 1273000    1.0316645   -2.8013976   -2.8013976   -1.2539044   0.10390515   -2.8013976    1.5474932   439061 
 1274000     1.030652   -2.8012464   -2.8012464    -1.255272   0.10134689   -2.8012464    1.5459744   439061 
 1275000    1.0306573   -2.8005939   -2.8005939   -1.2546115   0.10256376   -2.8005939    1.5459824   439061 
 1276000     1.030638   -2.8009959   -2.8009959   -1.2550424   0.10535814   -2.8009959    1.5459535   439061 
 1277000    1.0321907   -2.8017887   -2.8017887   -1.2535062  0.099031844   -2.8017887    1.5482825   439061 
 1278000    1.0320223   -2.8013276   -2.8013276   -1.2532977   0.10589225   -2.8013276      1.54803   439061 
 1279000    1.0316902   -2.8024555   -2.8024555   -1.2549238   0.10340834   -2.8024555    1.5475317   439061 
 1280000    1.0339933    -2.805348    -2.805348   -1.2543616  0.098536525    -2.805348    1.5509864   439061 
 1281000    1.0326551   -2.8033308   -2.8033308   -1.2543517   0.10216723   -2.8033308    1.5489791   439061 
 1282000    1.0324984   -2.8038857   -2.8038857   -1.2551417  0.098566126   -2.8038857    1.5487441   439061 
 1283000    1.0317368   -2.8040388   -2.8040388   -1.2564371   0.10354704   -2.8040388    1.5476017   439061 
 1284000    1.0329098   -2.8049104   -2.8049104   -1.2555491  0.096149213   -2.8049104    1.5493612   439061 
 1285000    1.0328743    -2.805161    -2.805161   -1.2558531   0.10180609    -2.805161    1.5493079   439061 
 1286000    1.0317373   -2.8048463   -2.8048463   -1.2572438   0.10582791   -2.8048463    1.5476025   439061 
 1287000    1.0316227   -2.8054113   -2.8054113   -1.2579808    0.1001157   -2.8054113    1.5474305   439061 
 1288000    1.0309269   -2.8038862   -2.8038862   -1.2574994  0.098171753   -2.8038862    1.5463868   439061 
 1289000     1.029003   -2.8036535   -2.8036535   -1.2601525  0.096517207   -2.8036535     1.543501   439061 
 1290000    1.0293737   -2.8047815   -2.8047815   -1.2607244  0.095687039   -2.8047815     1.544057   439061 
 1291000    1.0310725   -2.8059175   -2.8059175   -1.2593123   0.10157291   -2.8059175    1.5466052   439061 
 1292000    1.0318011   -2.8052037   -2.8052037   -1.2575056  0.099106988   -2.8052037    1.5476981   439061 
 1293000    1.0290487   -2.8026192   -2.8026192   -1.2590496  0.098965013   -2.8026192    1.5435696   439061 
 1294000    1.0290864   -2.8024149   -2.8024149   -1.2587888  0.096512851   -2.8024149    1.5436261   439061 
 1295000    1.0296817   -2.8030853   -2.8030853   -1.2585662  0.098110336   -2.8030853    1.5445191   439061 
 1296000    1.0295939   -2.8041455   -2.8041455   -1.2597582   0.09704204   -2.8041455    1.5443873   439061 
 1297000    1.0286674   -2.8025026   -2.8025026    -1.259505  0.097213497   -2.8025026    1.5429976   439061 
 1298000    1.0297373   -2.8031582   -2.8031582   -1.2585558   0.10003178   -2.8031582    1.5446024   439061 
 1299000    1.0299646   -2.8023459   -2.8023459   -1.2574025  0.095090364   -2.8023459    1.5449434   439061 
 1300000    1.0292357   -2.8000227   -2.8000227   -1.2561727   0.10501611   -2.8000227    1.5438501   439061 
 1301000    1.0308047   -2.8024264   -2.8024264   -1.2562228   0.10010734   -2.8024264    1.5462036   439061 
 1302000    1.0300056   -2.8022912   -2.8022912   -1.2572863  0.098415271   -2.8022912    1.5450049   439061 
 1303000    1.0312191   -2.8050058   -2.8050058   -1.2581807   0.10066081   -2.8050058    1.5468251   439061 
 1304000     1.031153   -2.8051402   -2.8051402   -1.2584142   0.10212115   -2.8051402     1.546726   439061 
 1305000    1.0299526   -2.8031594   -2.8031594   -1.2582341  0.099723327   -2.8031594    1.5449254   439061 
 1306000    1.0307636    -2.804795    -2.804795   -1.2586532  0.098530211    -2.804795    1.5461419   439061 
 1307000    1.0298776   -2.8038694   -2.8038694   -1.2590565   0.10017743   -2.8038694    1.5448129   439061 
 1308000    1.0304872   -2.8051748   -2.8051748   -1.2594475  0.094609658   -2.8051748    1.5457273   439061 
 1309000    1.0303756   -2.8056326   -2.8056326   -1.2600728    0.1031553   -2.8056326    1.5455598   439061 
 1310000    1.0294066   -2.8038137   -2.8038137   -1.2597072    0.1002638   -2.8038137    1.5441064   439061 
 1311000    1.0310883   -2.8071294   -2.8071294   -1.2605005  0.094662697   -2.8071294    1.5466289   439061 
 1312000    1.0293205   -2.8058795   -2.8058795   -1.2619022  0.096784105   -2.8058795    1.5439773   439061 
 1313000    1.0296429   -2.8058354   -2.8058354   -1.2613746  0.093199512   -2.8058354    1.5444608   439061 
 1314000    1.0284431   -2.8051937   -2.8051937   -1.2625325  0.099348612   -2.8051937    1.5426612   439061 
 1315000    1.0301663   -2.8083584   -2.8083584   -1.2631125  0.096684912   -2.8083584    1.5452459   439061 
 1316000    1.0285314   -2.8042213   -2.8042213   -1.2614277   0.10336708   -2.8042213    1.5427935   439061 
 1317000    1.0284164   -2.8032877   -2.8032877   -1.2606666   0.10269633   -2.8032877    1.5426211   439061 
 1318000    1.0296683   -2.8058575   -2.8058575   -1.2613586    0.1021824   -2.8058575     1.544499   439061 
 1319000    1.0300611   -2.8051619   -2.8051619   -1.2600737   0.10257921   -2.8051619    1.5450882   439061 
 1320000    1.0290369   -2.8038891   -2.8038891   -1.2603373   0.10143126   -2.8038891    1.5435518   439061 
 1321000    1.0284265    -2.802385    -2.802385   -1.2597488   0.09798661    -2.802385    1.5426362   439061 
 1322000    1.0310046   -2.8051884   -2.8051884    -1.258685   0.10498141   -2.8051884    1.5465034   439061 
 1323000    1.0312658   -2.8051752   -2.8051752   -1.2582801   0.10278556   -2.8051752    1.5468951   439061 
 1324000    1.0303013   -2.8048927   -2.8048927   -1.2594443   0.10585624   -2.8048927    1.5454484   439061 
 1325000    1.0302504   -2.8069154   -2.8069154   -1.2615434   0.09983111   -2.8069154    1.5453721   439061 
 1326000    1.0311347   -2.8065574   -2.8065574   -1.2598589   0.09933432   -2.8065574    1.5466985   439061 
 1327000    1.0298298   -2.8047822   -2.8047822    -1.260041   0.10127378   -2.8047822    1.5447411   439061 
 1328000    1.0294439   -2.8035388   -2.8035388   -1.2593765   0.10179274   -2.8035388    1.5441624   439061 
 1329000    1.0318502   -2.8072004   -2.8072004   -1.2594286   0.10120405   -2.8072004    1.5477718   439061 
 1330000    1.0305814   -2.8049324   -2.8049324   -1.2590638   0.10175651   -2.8049324    1.5458686   439061 
 1331000    1.0322301   -2.8071118   -2.8071118   -1.2587702   0.10467825   -2.8071118    1.5483417   439061 
 1332000    1.0321157   -2.8066819   -2.8066819   -1.2585119   0.10454822   -2.8066819      1.54817   439061 
 1333000    1.0305483   -2.8044778   -2.8044778   -1.2586588   0.09975809   -2.8044778     1.545819   439061 
 1334000    1.0304396   -2.8042658   -2.8042658     -1.25861   0.10088891   -2.8042658    1.5456558   439061 
 1335000    1.0311672   -2.8053282   -2.8053282   -1.2585809   0.10503564   -2.8053282    1.5467473   439061 
 1336000    1.0292142   -2.8036287   -2.8036287   -1.2598109  0.096117736   -2.8036287    1.5438178   439061 
 1337000    1.0292001   -2.8053085   -2.8053085   -1.2615118  0.097773484   -2.8053085    1.5437967   439061 
 1338000     1.029282   -2.8045068   -2.8045068   -1.2605873  0.099890938   -2.8045068    1.5439195   439061 
 1339000    1.0283533   -2.8038114   -2.8038114    -1.261285  0.099596091   -2.8038114    1.5425264   439061 
 1340000    1.0310251   -2.8068514   -2.8068514   -1.2603172  0.099980623   -2.8068514    1.5465342   439061 
 1341000    1.0277023   -2.8031959   -2.8031959    -1.261646  0.099582274   -2.8031959    1.5415499   439061 
 1342000    1.0299493   -2.8055646   -2.8055646   -1.2606442  0.096549972   -2.8055646    1.5449204   439061 
 1343000    1.0287376   -2.8035008   -2.8035008   -1.2603979   0.10228586   -2.8035008    1.5431029   439061 
 1344000      1.02914   -2.8053851   -2.8053851   -1.2616786  0.097488565   -2.8053851    1.5437065   439061 
 1345000    1.0297584   -2.8052698   -2.8052698   -1.2606358  0.096654294   -2.8052698    1.5446341   439061 
 1346000    1.0278352   -2.8016847   -2.8016847   -1.2599354   0.10231815   -2.8016847    1.5417493   439061 
 1347000    1.0287134   -2.8022374   -2.8022374   -1.2591708   0.10507957   -2.8022374    1.5430666   439061 
 1348000     1.030032   -2.8041648   -2.8041648   -1.2591204  0.098176744   -2.8041648    1.5450444   439061 
 1349000    1.0289666   -2.8038497   -2.8038497   -1.2604033    0.1014405   -2.8038497    1.5434464   439061 
 1350000    1.0299663   -2.8046329   -2.8046329    -1.259687  0.096654689   -2.8046329     1.544946   439061 
 1351000     1.030647   -2.8051358   -2.8051358   -1.2591688  0.094168231   -2.8051358     1.545967   439061 
 1352000    1.0286628   -2.8021202   -2.8021202   -1.2591295  0.096922479   -2.8021202    1.5429907   439061 
 1353000    1.0289093   -2.8031244   -2.8031244   -1.2597639   0.10243407   -2.8031244    1.5433604   439061 
 1354000    1.0292968   -2.8041824   -2.8041824   -1.2602407   0.10328093   -2.8041824    1.5439417   439061 
 1355000    1.0282641   -2.8027727   -2.8027727   -1.2603802  0.094603207   -2.8027727    1.5423926   439061 
 1356000    1.0307006   -2.8080848   -2.8080848   -1.2620375  0.097669561   -2.8080848    1.5460473   439061 
 1357000    1.0304325   -2.8076434   -2.8076434   -1.2619981  0.099937744   -2.8076434    1.5456453   439061 
 1358000    1.0295423   -2.8082945   -2.8082945   -1.2639845  0.098764021   -2.8082945      1.54431   439061 
 1359000     1.030413   -2.8103159   -2.8103159   -1.2646999  0.099249804   -2.8103159     1.545616   439061 
 1360000    1.0299489   -2.8106779   -2.8106779    -1.265758  0.099904721   -2.8106779    1.5449199   439061 
 1361000     1.029127   -2.8097878   -2.8097878   -1.2661008  0.099373386   -2.8097878     1.543687   439061 
 1362000    1.0292514   -2.8094085   -2.8094085   -1.2655348   0.10430729   -2.8094085    1.5438737   439061 
 1363000    1.0305283   -2.8122591   -2.8122591   -1.2664702   0.10048989   -2.8122591    1.5457889   439061 
 1364000    1.0287954    -2.811443    -2.811443   -1.2682534  0.099901249    -2.811443    1.5431896   439061 
 1365000    1.0284223   -2.8102935   -2.8102935   -1.2676635   0.10429932   -2.8102935      1.54263   439061 
 1366000    1.0301756     -2.81342     -2.81342   -1.2681601  0.098665342     -2.81342    1.5452599   439061 
 1367000     1.029577   -2.8123377   -2.8123377   -1.2679758  0.098961704   -2.8123377    1.5443619   439061 
 1368000    1.0287892   -2.8111639   -2.8111639   -1.2679836  0.099166903   -2.8111639    1.5431803   439061 
 1369000     1.029514   -2.8112125   -2.8112125   -1.2669451   0.10097603   -2.8112125    1.5442674   439061 
 1370000    1.0299885   -2.8113012   -2.8113012    -1.266322  0.099313236   -2.8113012    1.5449792   439061 
 1371000    1.0301218   -2.8136423   -2.8136423   -1.2684631   0.10368278   -2.8136423    1.5451792   439061 
 1372000    1.0284404    -2.812012    -2.812012    -1.269355    0.1009673    -2.812012     1.542657   439061 
 1373000    1.0289734   -2.8122809   -2.8122809   -1.2688243  0.097768299   -2.8122809    1.5434566   439061 
 1374000    1.0283271   -2.8107535   -2.8107535   -1.2682663  0.099336696   -2.8107535    1.5424872   439061 
 1375000    1.0283919   -2.8105605   -2.8105605   -1.2679761    0.1026132   -2.8105605    1.5425844   439061 
 1376000     1.028267   -2.8116344   -2.8116344   -1.2692375  0.098185811   -2.8116344    1.5423969   439061 
 1377000    1.0283439   -2.8110472   -2.8110472   -1.2685349   0.10261235   -2.8110472    1.5425123   439061 
 1378000    1.0284998   -2.8115536   -2.8115536   -1.2688074  0.099155129   -2.8115536    1.5427462   439061 
 1379000    1.0293026   -2.8116233   -2.8116233   -1.2676729   0.10179724   -2.8116233    1.5439504   439061 
 1380000    1.0283003   -2.8102911   -2.8102911   -1.2678441    0.1026177   -2.8102911    1.5424469   439061 
 1381000    1.0294157   -2.8115652   -2.8115652   -1.2674452   0.10232254   -2.8115652      1.54412   439061 
 1382000    1.0309218   -2.8128662   -2.8128662    -1.266487  0.095423905   -2.8128662    1.5463792   439061 
 1383000    1.0292319   -2.8111538   -2.8111538   -1.2673095  0.096905164   -2.8111538    1.5438444   439061 
 1384000    1.0284618    -2.810114    -2.810114   -1.2674248  0.091245363    -2.810114    1.5426892   439061 
 1385000    1.0310756   -2.8124119   -2.8124119    -1.265802   0.10000099   -2.8124119    1.5466098   439061 
 1386000     1.029924   -2.8092679   -2.8092679   -1.2643854   0.10139557   -2.8092679    1.5448825   439061 
 1387000    1.0307054   -2.8108831   -2.8108831   -1.2648285  0.099976521   -2.8108831    1.5460546   439061 
 1388000    1.0289725    -2.808876    -2.808876   -1.2654208   0.10464183    -2.808876    1.5434552   439061 
 1389000    1.0282933   -2.8079283   -2.8079283   -1.2654919   0.10338936   -2.8079283    1.5424365   439061 
 1390000    1.0294481   -2.8097718   -2.8097718   -1.2656032   0.10484703   -2.8097718    1.5441686   439061 
 1391000    1.0287578   -2.8087121   -2.8087121   -1.2655788   0.10194196   -2.8087121    1.5431332   439061 
 1392000    1.0283438   -2.8096166   -2.8096166   -1.2671044  0.097416844   -2.8096166    1.5425122   439061 
 1393000    1.0282927   -2.8095135   -2.8095135    -1.267078  0.093256688   -2.8095135    1.5424355   439061 
 1394000    1.0285282   -2.8096387   -2.8096387     -1.26685    0.1039804   -2.8096387    1.5427887   439061 
 1395000     1.026342   -2.8070095   -2.8070095      -1.2675  0.097583288   -2.8070095    1.5395096   439061 
 1396000    1.0271934    -2.808341    -2.808341   -1.2675545  0.095967946    -2.808341    1.5407865   439061 
 1397000    1.0260482   -2.8072404   -2.8072404   -1.2681716   0.10282121   -2.8072404    1.5390688   439061 
 1398000    1.0276591   -2.8098526   -2.8098526   -1.2683676  0.092041178   -2.8098526    1.5414851   439061 
 1399000    1.0270684   -2.8071133   -2.8071133   -1.2665143   0.10138698   -2.8071133     1.540599   439061 
 1400000    1.0258889   -2.8064395   -2.8064395   -1.2676097  0.095479429   -2.8064395    1.5388298   439061 
 1401000    1.0261908   -2.8078749   -2.8078749   -1.2685922  0.095361045   -2.8078749    1.5392827   439061 
 1402000    1.0248081   -2.8064434   -2.8064434   -1.2692347   0.10088531   -2.8064434    1.5372087   439061 
 1403000    1.0274261   -2.8089491   -2.8089491   -1.2678134  0.096324675   -2.8089491    1.5411356   439061 
 1404000    1.0274066   -2.8073594   -2.8073594   -1.2662531   0.10348669   -2.8073594    1.5411063   439061 
 1405000    1.0278109   -2.8068846   -2.8068846   -1.2651718  0.097561092   -2.8068846    1.5417128   439061 
 1406000     1.029607   -2.8079678   -2.8079678   -1.2635608  0.096159565   -2.8079678    1.5444069   439061 
 1407000    1.0276723   -2.8051345   -2.8051345   -1.2636295  0.097595806   -2.8051345    1.5415049   439061 
 1408000    1.0285878   -2.8060064   -2.8060064   -1.2631282  0.099359823   -2.8060064    1.5428782   439061 
 1409000    1.0299499   -2.8097754   -2.8097754   -1.2648541  0.097539887   -2.8097754    1.5449213   439061 
 1410000    1.0297518   -2.8096259   -2.8096259   -1.2650017   0.10195379   -2.8096259    1.5446242   439061 
 1411000    1.0297669   -2.8105599   -2.8105599    -1.265913  0.098866647   -2.8105599    1.5446468   439061 
 1412000    1.0302818   -2.8113342   -2.8113342   -1.2659151   0.10218003   -2.8113342    1.5454191   439061 
 1413000    1.0300383    -2.811808    -2.811808   -1.2667541   0.10181992    -2.811808    1.5450539   439061 
 1414000    1.0294163   -2.8107184   -2.8107184   -1.2665975   0.10016828   -2.8107184    1.5441209   439061 
 1415000     1.029684    -2.810737    -2.810737   -1.2662146   0.09871628    -2.810737    1.5445224   439061 
 1416000    1.0302407   -2.8127228   -2.8127228   -1.2673652  0.095186268   -2.8127228    1.5453576   439061 
 1417000    1.0270775   -2.8096054   -2.8096054   -1.2689926  0.096082395   -2.8096054    1.5406127   439061 
 1418000    1.0292645   -2.8126847   -2.8126847   -1.2687914  0.099125435   -2.8126847    1.5438933   439061 
 1419000    1.0287239   -2.8109838   -2.8109838   -1.2679015  0.098388979   -2.8109838    1.5430823   439061 
 1420000    1.0265495   -2.8085213   -2.8085213   -1.2687005  0.097349653   -2.8085213    1.5398208   439061 
 1421000    1.0279611   -2.8104536   -2.8104536   -1.2685155   0.09685097   -2.8104536    1.5419381   439061 
 1422000     1.027232   -2.8094938   -2.8094938   -1.2686493  0.099555917   -2.8094938    1.5408445   439061 
 1423000    1.0279226   -2.8115634   -2.8115634   -1.2696831   0.10004627   -2.8115634    1.5418803   439061 
 1424000    1.0277473   -2.8102235   -2.8102235   -1.2686061  0.099538366   -2.8102235    1.5416174   439061 
 1425000     1.027826   -2.8103447   -2.8103447   -1.2686091  0.099537931   -2.8103447    1.5417355   439061 
 1426000    1.0269198   -2.8104546   -2.8104546   -1.2700785  0.099451245   -2.8104546    1.5403761   439061 
 1427000    1.0281294   -2.8128549   -2.8128549   -1.2706644   0.10190535   -2.8128549    1.5421905   439061 
 1428000    1.0277509   -2.8103067   -2.8103067   -1.2686838  0.099055084   -2.8103067    1.5416229   439061 
 1429000    1.0273905    -2.811391    -2.811391   -1.2703088   0.09682161    -2.811391    1.5410822   439061 
 1430000    1.0279525   -2.8109169   -2.8109169   -1.2689917  0.090663252   -2.8109169    1.5419252   439061 
 1431000    1.0276336   -2.8118111   -2.8118111   -1.2703642  0.097608648   -2.8118111    1.5414469   439061 
 1432000    1.0271937   -2.8115092   -2.8115092   -1.2707222  0.098661619   -2.8115092     1.540787   439061 
 1433000    1.0272456   -2.8108301   -2.8108301   -1.2699651    0.1026071   -2.8108301    1.5408649   439061 
 1434000    1.0274644    -2.811938    -2.811938   -1.2707449   0.10048822    -2.811938    1.5411931   439061 
 1435000    1.0286662   -2.8133026   -2.8133026   -1.2703068  0.099758579   -2.8133026    1.5429958   439061 
 1436000    1.0283552   -2.8134663   -2.8134663   -1.2709371  0.096818984   -2.8134663    1.5425292   439061 
 1437000    1.0277525   -2.8139141   -2.8139141   -1.2722888  0.094636245   -2.8139141    1.5416253   439061 
 1438000    1.0256795    -2.810165    -2.810165   -1.2716492  0.098142368    -2.810165    1.5385158   439061 
 1439000    1.0276749   -2.8126626   -2.8126626   -1.2711538  0.097336333   -2.8126626    1.5415088   439061 
 1440000    1.0289559   -2.8156564   -2.8156564   -1.2722261  0.096219579   -2.8156564    1.5434303   439061 
 1441000    1.0278181   -2.8134087   -2.8134087   -1.2716852  0.096064887   -2.8134087    1.5417236   439061 
 1442000    1.0280289   -2.8152303   -2.8152303   -1.2731904  0.098262397   -2.8152303    1.5420399   439061 
 1443000    1.0265207   -2.8120594   -2.8120594    -1.272282   0.10231691   -2.8120594    1.5397775   439061 
 1444000    1.0273905   -2.8144476   -2.8144476   -1.2733654   0.10107381   -2.8144476    1.5410822   439061 
 1445000    1.0282435   -2.8157687   -2.8157687    -1.273407  0.097292243   -2.8157687    1.5423618   439061 
 1446000    1.0281289   -2.8150516   -2.8150516   -1.2728617  0.094019157   -2.8150516    1.5421898   439061 
 1447000    1.0264602   -2.8137343   -2.8137343   -1.2740476  0.096192951   -2.8137343    1.5396867   439061 
 1448000    1.0265035   -2.8146725   -2.8146725   -1.2749208  0.094348011   -2.8146725    1.5397517   439061 
 1449000    1.0266952   -2.8151555   -2.8151555   -1.2751162   0.10291793   -2.8151555    1.5400393   439061 
 1450000     1.028215    -2.817431    -2.817431    -1.275112  0.093491779    -2.817431     1.542319   439061 
 1451000    1.0266884   -2.8149662   -2.8149662   -1.2749371   0.10077966   -2.8149662    1.5400291   439061 
 1452000    1.0286691   -2.8171298   -2.8171298   -1.2741297  0.098535847   -2.8171298    1.5430001   439061 
 1453000    1.0265976   -2.8127216   -2.8127216   -1.2728286   0.09857765   -2.8127216    1.5398929   439061 
 1454000    1.0265157   -2.8136554   -2.8136554   -1.2738854  0.098806052   -2.8136554    1.5397701   439061 
 1455000    1.0281273   -2.8171484   -2.8171484    -1.274961   0.10263983   -2.8171484    1.5421874   439061 
 1456000    1.0273813   -2.8155229   -2.8155229   -1.2744544  0.091891517   -2.8155229    1.5410685   439061 
 1457000    1.0283807   -2.8174233   -2.8174233   -1.2748557  0.092962556   -2.8174233    1.5425676   439061 
 1458000    1.0287614   -2.8164777   -2.8164777   -1.2733392  0.096569179   -2.8164777    1.5431385   439061 
 1459000    1.0285071   -2.8146926   -2.8146926   -1.2719354   0.10056236   -2.8146926    1.5427572   439061 
 1460000    1.0299508   -2.8169964   -2.8169964   -1.2720738   0.10396741   -2.8169964    1.5449226   439061 
 1461000    1.0290413   -2.8161251   -2.8161251   -1.2725667  0.099184522   -2.8161251    1.5435585   439061 
 1462000    1.0273494   -2.8138588   -2.8138588   -1.2728382  0.098635482   -2.8138588    1.5410206   439061 
 1463000    1.0271532   -2.8147707   -2.8147707   -1.2740444  0.097696569   -2.8147707    1.5407263   439061 
 1464000    1.0261935   -2.8127173   -2.8127173   -1.2734306  0.097503446   -2.8127173    1.5392867   439061 
 1465000     1.026905   -2.8141811   -2.8141811   -1.2738271   0.10317239   -2.8141811     1.540354   439061 
 1466000    1.0269593    -2.814613    -2.814613   -1.2741776  0.089947565    -2.814613    1.5404354   439061 
 1467000    1.0264736   -2.8135567   -2.8135567   -1.2738497  0.094635282   -2.8135567     1.539707   439061 
 1468000    1.0259553    -2.813169    -2.813169   -1.2742395   0.10043358    -2.813169    1.5389295   439061 
 1469000    1.0262566   -2.8124805   -2.8124805    -1.273099  0.097001467   -2.8124805    1.5393814   439061 
 1470000    1.0283515   -2.8142255   -2.8142255   -1.2717019   0.10047138   -2.8142255    1.5425237   439061 
 1471000     1.028197   -2.8128882   -2.8128882   -1.2705963   0.09881036   -2.8128882    1.5422919   439061 
 1472000    1.0279946   -2.8126504   -2.8126504   -1.2706621  0.095823713   -2.8126504    1.5419883   439061 
 1473000    1.0271315   -2.8109188   -2.8109188   -1.2702251  0.099856498   -2.8109188    1.5406938   439061 
 1474000    1.0267992   -2.8118093   -2.8118093   -1.2716139  0.096846971   -2.8118093    1.5401953   439061 
 1475000    1.0287461   -2.8134502   -2.8134502   -1.2703346  0.092378142   -2.8134502    1.5431156   439061 
 1476000    1.0274404   -2.8112947   -2.8112947   -1.2701376  0.095802618   -2.8112947    1.5411571   439061 
 1477000     1.025782   -2.8096734   -2.8096734   -1.2710039   0.10001319   -2.8096734    1.5386696   439061 
 1478000    1.0280765   -2.8128372   -2.8128372    -1.270726  0.098965345   -2.8128372    1.5421113   439061 
 1479000    1.0283855   -2.8129722   -2.8129722   -1.2703974  0.097218387   -2.8129722    1.5425747   439061 
 1480000    1.0274834   -2.8113703   -2.8113703   -1.2701488  0.098266479   -2.8113703    1.5412216   439061 
 1481000    1.0277068   -2.8112084   -2.8112084   -1.2696517  0.098426669   -2.8112084    1.5415567   439061 
 1482000    1.0268923   -2.8105488   -2.8105488   -1.2702139  0.099550958   -2.8105488    1.5403349   439061 
 1483000    1.0256436   -2.8093228   -2.8093228    -1.270861   0.09667831   -2.8093228    1.5384619   439061 
 1484000    1.0265538   -2.8115159   -2.8115159   -1.2716887  0.099657645   -2.8115159    1.5398271   439061 
 1485000     1.028263    -2.812657    -2.812657    -1.270266  0.098023421    -2.812657     1.542391   439061 
 1486000    1.0273289   -2.8129488   -2.8129488    -1.271959  0.093561092   -2.8129488    1.5409899   439061 
 1487000    1.0278543   -2.8133847   -2.8133847   -1.2716067  0.097396594   -2.8133847     1.541778   439061 
 1488000    1.0268542   -2.8122971   -2.8122971   -1.2720193  0.093337641   -2.8122971    1.5402778   439061 
 1489000    1.0272848   -2.8126661   -2.8126661   -1.2717424  0.099888482   -2.8126661    1.5409238   439061 
 1490000    1.0272185   -2.8125963   -2.8125963   -1.2717721    0.1023284   -2.8125963    1.5408242   439061 
 1491000    1.0273614   -2.8135344   -2.8135344   -1.2724958  0.093927863   -2.8135344    1.5410386   439061 
 1492000    1.0245586   -2.8089145   -2.8089145     -1.27208  0.096431901   -2.8089145    1.5368345   439061 
 1493000    1.0265043   -2.8124775   -2.8124775   -1.2727245  0.095718799   -2.8124775     1.539753   439061 
 1494000    1.0266154   -2.8135659   -2.8135659   -1.2736463  0.097085309   -2.8135659    1.5399196   439061 
 1495000    1.0241865   -2.8114807   -2.8114807   -1.2752045   0.09760142   -2.8114807    1.5362762   439061 
 1496000    1.0263107   -2.8142213   -2.8142213   -1.2747587  0.094158533   -2.8142213    1.5394626   439061 
 1497000    1.0246267   -2.8113611   -2.8113611   -1.2744247  0.093124679   -2.8113611    1.5369365   439061 
 1498000    1.0273253    -2.813998    -2.813998   -1.2730135   0.09568874    -2.813998    1.5409844   439061 
 1499000    1.0280153   -2.8126365   -2.8126365   -1.2706171   0.09485879   -2.8126365    1.5420194   439061 
 1500000     1.027921   -2.8123843   -2.8123843   -1.2705063  0.097357188   -2.8123843     1.541878   439061 
 1501000    1.0286567   -2.8129111   -2.8129111   -1.2699297   0.10141248   -2.8129111    1.5429815   439061 
 1502000    1.0294844   -2.8150464   -2.8150464   -1.2708234  0.097140939   -2.8150464     1.544223   439061 
 1503000    1.0290784   -2.8150446   -2.8150446   -1.2714305  0.098150452   -2.8150446     1.543614   439061 
 1504000     1.029233   -2.8157665   -2.8157665   -1.2719205  0.095177023   -2.8157665     1.543846   439061 
 1505000    1.0280564   -2.8128826   -2.8128826   -1.2708015    0.1021175   -2.8128826    1.5420811   439061 
 1506000    1.0281398   -2.8127777   -2.8127777   -1.2705715  0.096689081   -2.8127777    1.5422062   439061 
 1507000    1.0285943   -2.8130663   -2.8130663   -1.2701783  0.096879272   -2.8130663     1.542888   439061 
 1508000    1.0300004   -2.8153787   -2.8153787   -1.2703816  0.094570054   -2.8153787    1.5449971   439061 
 1509000     1.027395   -2.8123085   -2.8123085   -1.2712196  0.098356601   -2.8123085    1.5410889   439061 
 1510000    1.0267928   -2.8106942   -2.8106942   -1.2705085    0.1027756   -2.8106942    1.5401857   439061 
 1511000    1.0280763   -2.8134303   -2.8134303   -1.2713194  0.094271656   -2.8134303    1.5421109   439061 
 1512000    1.0263644   -2.8118407   -2.8118407   -1.2722976  0.097631238   -2.8118407     1.539543   439061 
 1513000    1.0271379   -2.8127273   -2.8127273   -1.2720239  0.098449293   -2.8127273    1.5407034   439061 
 1514000    1.0268651    -2.813427    -2.813427   -1.2731328  0.096475332    -2.813427    1.5402942   439061 
 1515000    1.0267943   -2.8125686   -2.8125686   -1.2723806   0.10080065   -2.8125686     1.540188   439061 
 1516000    1.0268178   -2.8140756   -2.8140756   -1.2738524  0.098501678   -2.8140756    1.5402231   439061 
 1517000    1.0274311   -2.8143223   -2.8143223   -1.2731791  0.097720507   -2.8143223    1.5411431   439061 
 1518000    1.0281643   -2.8165588   -2.8165588    -1.274316  0.096417789   -2.8165588    1.5422429   439061 
 1519000    1.0255446   -2.8131555   -2.8131555   -1.2748421  0.095140658   -2.8131555    1.5383134   439061 
 1520000    1.0258042   -2.8130676   -2.8130676   -1.2743648   0.10034631   -2.8130676    1.5387028   439061 
 1521000    1.0268296   -2.8151412   -2.8151412   -1.2749003  0.098394454   -2.8151412    1.5402409   439061 
 1522000    1.0261641   -2.8139108   -2.8139108   -1.2746682  0.093513043   -2.8139108    1.5392426   439061 
 1523000    1.0260825   -2.8138368   -2.8138368   -1.2747165  0.099898611   -2.8138368    1.5391203   439061 
 1524000    1.0282373   -2.8170053   -2.8170053   -1.2746529   0.09841644   -2.8170053    1.5423524   439061 
 1525000    1.0271158   -2.8148853   -2.8148853    -1.274215  0.095810313   -2.8148853    1.5406702   439061 
 1526000    1.0281638   -2.8166424   -2.8166424   -1.2744003  0.096816913   -2.8166424    1.5422421   439061 
 1527000    1.0281243   -2.8170273   -2.8170273   -1.2748443  0.095140761   -2.8170273     1.542183   439061 
 1528000    1.0274441   -2.8171424   -2.8171424   -1.2759798  0.099342169   -2.8171424    1.5411626   439061 
 1529000     1.028223   -2.8175123   -2.8175123   -1.2751813  0.097909735   -2.8175123     1.542331   439061 
 1530000    1.0270077   -2.8149224   -2.8149224   -1.2744143  0.097268408   -2.8149224     1.540508   439061 
 1531000    1.0278223   -2.8159878   -2.8159878   -1.2742579   0.10246506   -2.8159878    1.5417299   439061 
 1532000    1.0283967   -2.8154862   -2.8154862   -1.2728946  0.099962796   -2.8154862    1.5425916   439061 
 1533000    1.0285868   -2.8149477   -2.8149477   -1.2720709  0.091405523   -2.8149477    1.5428767   439061 
 1534000    1.0273247   -2.8139209   -2.8139209   -1.2729374  0.096419353   -2.8139209    1.5409835   439061 
 1535000    1.0280142     -2.81498     -2.81498   -1.2729622   0.09919362     -2.81498    1.5420178   439061 
 1536000    1.0280894   -2.8165273   -2.8165273   -1.2743968  0.095601229   -2.8165273    1.5421306   439061 
 1537000     1.026582   -2.8164652   -2.8164652   -1.2765957  0.095698775   -2.8164652    1.5398695   439061 
 1538000    1.0280146   -2.8173909   -2.8173909   -1.2753725  0.097223071   -2.8173909    1.5420184   439061 
 1539000     1.028104   -2.8171113   -2.8171113   -1.2749587  0.095322175   -2.8171113    1.5421525   439061 
 1540000    1.0274023   -2.8163305   -2.8163305   -1.2752306  0.098510155   -2.8163305    1.5410999   439061 
 1541000    1.0289855   -2.8199688   -2.8199688   -1.2764941  0.096650385   -2.8199688    1.5434747   439061 
 1542000     1.027145   -2.8184586   -2.8184586   -1.2777447  0.097019326   -2.8184586    1.5407139   439061 
 1543000    1.0268639   -2.8172411   -2.8172411   -1.2769487  0.096915881   -2.8172411    1.5402923   439061 
 1544000    1.0273572   -2.8157071   -2.8157071   -1.2746749    0.1030193   -2.8157071    1.5410322   439061 
 1545000    1.0287584   -2.8186946   -2.8186946   -1.2755606  0.097213649   -2.8186946    1.5431341   439061 
 1546000    1.0264009   -2.8150496   -2.8150496   -1.2754518  0.098548494   -2.8150496    1.5395978   439061 
 1547000    1.0279082   -2.8174402   -2.8174402   -1.2755815   0.10070324   -2.8174402    1.5418588   439061 
 1548000    1.0258564   -2.8139239   -2.8139239   -1.2751429  0.098177236   -2.8139239    1.5387811   439061 
 1549000    1.0278483   -2.8165973   -2.8165973   -1.2748284   0.09425296   -2.8165973    1.5417689   439061 
 1550000    1.0262463   -2.8145051   -2.8145051   -1.2751391  0.095834367   -2.8145051     1.539366   439061 
 1551000    1.0251714    -2.813599    -2.813599   -1.2758454   0.10100188    -2.813599    1.5377536   439061 
 1552000    1.0260859   -2.8151387   -2.8151387   -1.2760133  0.094148261   -2.8151387    1.5391253   439061 
 1553000    1.0271984   -2.8161757   -2.8161757   -1.2753815  0.093460242   -2.8161757    1.5407941   439061 
 1554000     1.028545   -2.8185629   -2.8185629    -1.275749  0.094626887   -2.8185629    1.5428139   439061 
 1555000    1.0276355   -2.8171883   -2.8171883   -1.2757386  0.097606072   -2.8171883    1.5414497   439061 
 1556000     1.026721   -2.8165167   -2.8165167   -1.2764387  0.097364122   -2.8165167     1.540078   439061 
 1557000    1.0289904   -2.8197482   -2.8197482   -1.2762661  0.093018021   -2.8197482    1.5434821   439061 
 1558000    1.0270124    -2.814511    -2.814511   -1.2739959     0.096525    -2.814511    1.5405151   439061 
 1559000    1.0283177   -2.8173753   -2.8173753   -1.2749023  0.096959176   -2.8173753     1.542473   439061 
 1560000    1.0271596   -2.8152188   -2.8152188   -1.2744829   0.10069745   -2.8152188    1.5407359   439061 
 1561000      1.02762   -2.8172798   -2.8172798   -1.2758532  0.090760906   -2.8172798    1.5414265   439061 
 1562000     1.026805   -2.8157165   -2.8157165   -1.2755125  0.097804218   -2.8157165    1.5402039   439061 
 1563000    1.0273702   -2.8169846   -2.8169846   -1.2759327  0.095335195   -2.8169846    1.5410518   439061 
 1564000    1.0269467   -2.8165615   -2.8165615   -1.2761449  0.096597447   -2.8165615    1.5404166   439061 
 1565000    1.0264764   -2.8153473   -2.8153473   -1.2756363  0.094505014   -2.8153473    1.5397111   439061 
 1566000     1.026138   -2.8158999   -2.8158999   -1.2766964  0.098414202   -2.8158999    1.5392035   439061 
 1567000    1.0252281   -2.8139876   -2.8139876    -1.276149  0.098380747   -2.8139876    1.5378386   439061 
 1568000    1.0272299   -2.8175962   -2.8175962   -1.2767548  0.091879364   -2.8175962    1.5408414   439061 
 1569000    1.0275904   -2.8186402   -2.8186402   -1.2772581  0.094501066   -2.8186402    1.5413821   439061 
 1570000     1.026134   -2.8175966   -2.8175966    -1.278399  0.093452769   -2.8175966    1.5391976   439061 
 1571000    1.0255079   -2.8152009   -2.8152009   -1.2769425   0.10253777   -2.8152009    1.5382584   439061 
 1572000    1.0265646    -2.817788    -2.817788   -1.2779445  0.095734103    -2.817788    1.5398434   439061 
 1573000    1.0254816   -2.8162101   -2.8162101   -1.2779911  0.097114126   -2.8162101    1.5382189   439061 
 1574000    1.0250775   -2.8168833   -2.8168833   -1.2792705  0.095327752   -2.8168833    1.5376128   439061 
 1575000    1.0255642   -2.8167094   -2.8167094   -1.2783667  0.096238429   -2.8167094    1.5383427   439061 
 1576000    1.0258327   -2.8178788   -2.8178788   -1.2791332  0.089942424   -2.8178788    1.5387456   439061 
 1577000    1.0267163   -2.8180309   -2.8180309   -1.2779599  0.095937103   -2.8180309     1.540071   439061 
 1578000    1.0271272   -2.8173882   -2.8173882   -1.2767009  0.097863997   -2.8173882    1.5406873   439061 
 1579000    1.0270166   -2.8182138   -2.8182138   -1.2776924   0.10008697   -2.8182138    1.5405214   439061 
 1580000    1.0251678   -2.8147291   -2.8147291   -1.2769809  0.098743085   -2.8147291    1.5377482   439061 
 1581000    1.0280527   -2.8190811   -2.8190811   -1.2770057  0.096897809   -2.8190811    1.5420755   439061 
 1582000    1.0278138   -2.8194341   -2.8194341   -1.2777169   0.10185382   -2.8194341    1.5417172   439061 
 1583000    1.0281988   -2.8193724   -2.8193724   -1.2770777   0.10172154   -2.8193724    1.5422948   439061 
 1584000    1.0276197   -2.8205457   -2.8205457   -1.2791196  0.096813577   -2.8205457    1.5414261   439061 
 1585000    1.0278902   -2.8208577   -2.8208577    -1.279026  0.099733303   -2.8208577    1.5418317   439061 
 1586000    1.0272846   -2.8196518   -2.8196518   -1.2787284  0.096454106   -2.8196518    1.5409233   439061 
 1587000    1.0275256   -2.8214205   -2.8214205   -1.2801356   0.09377449   -2.8214205    1.5412849   439061 
 1588000    1.0278098   -2.8224941   -2.8224941   -1.2807829  0.096238421   -2.8224941    1.5417112   439061 
 1589000    1.0264113   -2.8199369   -2.8199369   -1.2803235  0.094952616   -2.8199369    1.5396134   439061 
 1590000     1.027738   -2.8208648   -2.8208648   -1.2792612  0.097537732   -2.8208648    1.5416035   439061 
 1591000    1.0251366   -2.8183789   -2.8183789   -1.2806775  0.096565757   -2.8183789    1.5377014   439061 
 1592000    1.0255187   -2.8201528   -2.8201528   -1.2818783   0.09768754   -2.8201528    1.5382745   439061 
 1593000    1.0263785   -2.8210064   -2.8210064   -1.2814422  0.094239626   -2.8210064    1.5395642   439061 
 1594000    1.0247556   -2.8183239   -2.8183239    -1.281194  0.098421407   -2.8183239    1.5371299   439061 
 1595000      1.02718   -2.8216667   -2.8216667   -1.2809003  0.091496783   -2.8216667    1.5407665   439061 
 1596000    1.0254557   -2.8191584   -2.8191584   -1.2809784  0.091803756   -2.8191584      1.53818   439061 
 1597000    1.0239408   -2.8170248   -2.8170248   -1.2811171  0.093562757   -2.8170248    1.5359077   439061 
 1598000    1.0240016     -2.81753     -2.81753   -1.2815311  0.095941624     -2.81753     1.535999   439061 
 1599000    1.0241361   -2.8181012   -2.8181012   -1.2819005  0.096620344   -2.8181012    1.5362007   439061 
 1600000    1.0234632   -2.8176081   -2.8176081   -1.2824167  0.091796695   -2.8176081    1.5351913   439061 
 1601000    1.0233816    -2.818419    -2.818419   -1.2833502  0.087399251    -2.818419    1.5350689   439061 
 1602000    1.0242116   -2.8177469   -2.8177469   -1.2814329  0.092035692   -2.8177469     1.536314   439061 
 1603000    1.0246591   -2.8166658   -2.8166658   -1.2796806  0.096519794   -2.8166658    1.5369852   439061 
 1604000    1.0250235   -2.8192713   -2.8192713   -1.2817395   0.09133809   -2.8192713    1.5375318   439061 
 1605000    1.0253375   -2.8206561   -2.8206561   -1.2826533   0.10104521   -2.8206561    1.5380028   439061 
 1606000    1.0239007   -2.8182347   -2.8182347   -1.2823871  0.099868447   -2.8182347    1.5358476   439061 
 1607000    1.0242117   -2.8186777   -2.8186777   -1.2823636  0.096444066   -2.8186777    1.5363141   439061 
 1608000    1.0250055   -2.8205714   -2.8205714   -1.2830667  0.095159948   -2.8205714    1.5375047   439061 
 1609000     1.024233   -2.8193949   -2.8193949   -1.2830489  0.098837344   -2.8193949     1.536346   439061 
 1610000    1.0234201   -2.8176642   -2.8176642   -1.2825377  0.099958114   -2.8176642    1.5351266   439061 
 1611000    1.0248319    -2.820088    -2.820088   -1.2828437  0.093130832    -2.820088    1.5372443   439061 
 1612000    1.0257481   -2.8208232   -2.8208232   -1.2822046  0.094001858   -2.8208232    1.5386186   439061 
 1613000    1.0248026   -2.8209428   -2.8209428   -1.2837424  0.093941852   -2.8209428    1.5372004   439061 
 1614000     1.026149    -2.822564    -2.822564   -1.2833441  0.091741728    -2.822564      1.53922   439061 
 1615000    1.0245605   -2.8198362   -2.8198362   -1.2829989  0.090999721   -2.8198362    1.5368373   439061 
 1616000    1.0255424    -2.821021    -2.821021   -1.2827109  0.095453152    -2.821021    1.5383101   439061 
 1617000    1.0272559   -2.8226381   -2.8226381   -1.2817577  0.092568685   -2.8226381    1.5408804   439061 
 1618000    1.0262866   -2.8227207   -2.8227207   -1.2832944  0.096041055   -2.8227207    1.5394264   439061 
 1619000    1.0260685   -2.8218045   -2.8218045   -1.2827053  0.095285283   -2.8218045    1.5390992   439061 
 1620000     1.025625   -2.8227928   -2.8227928   -1.2843588  0.090413397   -2.8227928     1.538434   439061 
 1621000     1.024386   -2.8205714   -2.8205714   -1.2839958  0.093424214   -2.8205714    1.5365755   439061 
 1622000    1.0240338   -2.8192563   -2.8192563   -1.2832091   0.09378132   -2.8192563    1.5360472   439061 
 1623000    1.0254325   -2.8225904   -2.8225904   -1.2844451  0.097112286   -2.8225904    1.5381453   439061 
 1624000    1.0260016   -2.8224714   -2.8224714   -1.2834726  0.095862239   -2.8224714    1.5389989   439061 
 1625000    1.0252318   -2.8203562   -2.8203562    -1.282512  0.096609739   -2.8203562    1.5378442   439061 
 1626000    1.0255548   -2.8218527   -2.8218527    -1.283524  0.097036993   -2.8218527    1.5383287   439061 
 1627000    1.0253769   -2.8223451   -2.8223451   -1.2842833  0.093581118   -2.8223451    1.5380618   439061 
 1628000     1.025746   -2.8230742   -2.8230742   -1.2844587  0.095399402   -2.8230742    1.5386155   439061 
 1629000    1.0250067   -2.8223148   -2.8223148   -1.2848082  0.098163594   -2.8223148    1.5375065   439061 
 1630000    1.0243896   -2.8222393   -2.8222393   -1.2856583  0.097544089   -2.8222393     1.536581   439061 
 1631000    1.0236952   -2.8229647   -2.8229647   -1.2874254  0.092338404   -2.8229647    1.5355393   439061 
 1632000    1.0256105    -2.824835    -2.824835   -1.2864228  0.089970098    -2.824835    1.5384122   439061 
 1633000    1.0254543   -2.8247367   -2.8247367   -1.2865588    0.0962781   -2.8247367    1.5381779   439061 
 1634000    1.0261082   -2.8247543   -2.8247543   -1.2855954  0.092663289   -2.8247543    1.5391588   439061 
 1635000    1.0246015   -2.8229784   -2.8229784   -1.2860797  0.095860838   -2.8229784    1.5368987   439061 
 1636000    1.0243587   -2.8242261   -2.8242261   -1.2876916  0.098235157   -2.8242261    1.5365346   439061 
 1637000    1.0240586   -2.8248493   -2.8248493   -1.2887649  0.093149962   -2.8248493    1.5360844   439061 
 1638000    1.0244281    -2.824777    -2.824777   -1.2881384  0.090618161    -2.824777    1.5366386   439061 
 1639000    1.0243019   -2.8240649   -2.8240649   -1.2876155  0.095607871   -2.8240649    1.5364494   439061 
 1640000    1.0248793   -2.8254192   -2.8254192   -1.2881038  0.098405952   -2.8254192    1.5373155   439061 
 1641000    1.0245115   -2.8267075   -2.8267075   -1.2899439  0.097998783   -2.8267075    1.5367637   439061 
 1642000    1.0254446    -2.827975    -2.827975   -1.2898115  0.095240793    -2.827975    1.5381635   439061 
 1643000    1.0243557   -2.8272713   -2.8272713   -1.2907413  0.091773232   -2.8272713    1.5365301   439061 
 1644000    1.0234484   -2.8243972   -2.8243972   -1.2892281  0.091964286   -2.8243972    1.5351691   439061 
 1645000    1.0262556   -2.8276516   -2.8276516   -1.2882717  0.094950547   -2.8276516    1.5393799   439061 
 1646000    1.0224707   -2.8232954   -2.8232954   -1.2895928   0.09604844   -2.8232954    1.5337026   439061 
 1647000    1.0264527   -2.8290093   -2.8290093   -1.2893338  0.092020188   -2.8290093    1.5396755   439061 
 1648000    1.0232476   -2.8251795   -2.8251795   -1.2903116  0.093701422   -2.8251795    1.5348679   439061 
 1649000    1.0246703   -2.8257832   -2.8257832   -1.2887812  0.092699773   -2.8257832     1.537002   439061 
 1650000    1.0247446   -2.8267058   -2.8267058   -1.2895924  0.091828705   -2.8267058    1.5371134   439061 
 1651000    1.0243694   -2.8272535   -2.8272535   -1.2907029  0.091367588   -2.8272535    1.5365506   439061 
 1652000    1.0260174   -2.8290929   -2.8290929   -1.2900703  0.095715795   -2.8290929    1.5390225   439061 
 1653000    1.0255336   -2.8281358   -2.8281358    -1.289839  0.091589492   -2.8281358    1.5382968   439061 
 1654000    1.0232432   -2.8250637   -2.8250637   -1.2902024  0.094663658   -2.8250637    1.5348613   439061 
 1655000    1.0247013   -2.8263042   -2.8263042   -1.2892558  0.094687436   -2.8263042    1.5370484   439061 
 1656000      1.02422   -2.8254179   -2.8254179   -1.2890915   0.08887924   -2.8254179    1.5363265   439061 
 1657000    1.0232076   -2.8229759   -2.8229759    -1.288168  0.092112569   -2.8229759    1.5348079   439061 
 1658000    1.0233889   -2.8224337   -2.8224337   -1.2873538  0.091604034   -2.8224337    1.5350799   439061 
 1659000    1.0233025   -2.8224206   -2.8224206   -1.2874703  0.093917061   -2.8224206    1.5349503   439061 
 1660000     1.026455   -2.8267797   -2.8267797   -1.2871008  0.090604438   -2.8267797     1.539679   439061 
 1661000    1.0253882   -2.8251017   -2.8251017   -1.2870229  0.097191945   -2.8251017    1.5380788   439061 
 1662000    1.0272565   -2.8277033   -2.8277033   -1.2868221  0.093830649   -2.8277033    1.5408813   439061 
 1663000    1.0261718   -2.8251408   -2.8251408   -1.2858866  0.093484175   -2.8251408    1.5392542   439061 
 1664000    1.0244717   -2.8229312   -2.8229312   -1.2862271  0.094015001   -2.8229312    1.5367041   439061 
 1665000    1.0246678   -2.8235247   -2.8235247   -1.2865265  0.093485107   -2.8235247    1.5369982   439061 
 1666000    1.0240203   -2.8236018   -2.8236018   -1.2875748  0.096706434   -2.8236018     1.536027   439061 
 1667000    1.0235629   -2.8228296   -2.8228296   -1.2874888  0.099956794   -2.8228296    1.5353408   439061 
 1668000    1.0258405   -2.8260193   -2.8260193    -1.287262  0.090725356   -2.8260193    1.5387573   439061 
 1669000    1.0245597   -2.8240594   -2.8240594   -1.2872233  0.090406038   -2.8240594    1.5368361   439061 
 1670000    1.0243674   -2.8235587   -2.8235587   -1.2870111  0.094594604   -2.8235587    1.5365477   439061 
 1671000    1.0239936   -2.8248814   -2.8248814   -1.2888946  0.097004313   -2.8248814    1.5359869   439061 
 1672000    1.0265111   -2.8270553   -2.8270553   -1.2872921  0.099594705   -2.8270553    1.5397631   439061 
 1673000     1.025577    -2.826465    -2.826465    -1.288103  0.091259436    -2.826465     1.538362   439061 
 1674000    1.0244538   -2.8255797   -2.8255797   -1.2889026  0.095792911   -2.8255797    1.5366772   439061 
 1675000    1.0238892   -2.8233638   -2.8233638   -1.2875335  0.090489794   -2.8233638    1.5358303   439061 
 1676000    1.0269585   -2.8261693   -2.8261693    -1.285735  0.092885526   -2.8261693    1.5404342   439061 
 1677000    1.0259918   -2.8231626   -2.8231626   -1.2841784  0.094559767   -2.8231626    1.5389842   439061 
 1678000    1.0238362   -2.8215588   -2.8215588    -1.285808  0.096066881   -2.8215588    1.5357509   439061 
 1679000    1.0249703   -2.8236147   -2.8236147   -1.2861628  0.095189629   -2.8236147    1.5374519   439061 
 1680000    1.0262397   -2.8245699   -2.8245699   -1.2852138  0.090148645   -2.8245699    1.5393561   439061 
 1681000    1.0243544   -2.8220595   -2.8220595   -1.2855314  0.097774277   -2.8220595    1.5365281   439061 
 1682000    1.0246757   -2.8231386   -2.8231386   -1.2861285  0.096791679   -2.8231386    1.5370101   439061 
 1683000    1.0244332   -2.8236939   -2.8236939   -1.2870475   0.10087659   -2.8236939    1.5366464   439061 
 1684000    1.0251016   -2.8260972   -2.8260972   -1.2884482  0.091440763   -2.8260972     1.537649   439061 
 1685000    1.0241097   -2.8251013   -2.8251013   -1.2889403  0.091088145   -2.8251013     1.536161   439061 
 1686000    1.0248112   -2.8256222   -2.8256222   -1.2884089  0.094310264   -2.8256222    1.5372133   439061 
 1687000    1.0239467   -2.8252146   -2.8252146   -1.2892981  0.092858928   -2.8252146    1.5359165   439061 
 1688000    1.0234451    -2.823991    -2.823991   -1.2888268  0.094629871    -2.823991    1.5351642   439061 
 1689000    1.0231526   -2.8234387   -2.8234387   -1.2887133  0.094621154   -2.8234387    1.5347254   439061 
 1690000    1.0239688   -2.8245765   -2.8245765   -1.2886267  0.094243745   -2.8245765    1.5359497   439061 
 1691000    1.0238471   -2.8245986   -2.8245986   -1.2888315   0.08878342   -2.8245986    1.5357671   439061 
 1692000    1.0222402   -2.8239788   -2.8239788    -1.290622  0.091970817   -2.8239788    1.5333568   439061 
 1693000       1.0237   -2.8256512   -2.8256512   -1.2901047  0.094914819   -2.8256512    1.5355466   439061 
 1694000    1.0237182   -2.8260033   -2.8260033   -1.2904296  0.097990141   -2.8260033    1.5355738   439061 
 1695000    1.0231546   -2.8252096   -2.8252096   -1.2904812  0.092713111   -2.8252096    1.5347284   439061 
 1696000    1.0246251   -2.8283727   -2.8283727   -1.2914385  0.098384241   -2.8283727    1.5369341   439061 
 1697000    1.0237388   -2.8279916   -2.8279916    -1.292387  0.094749351   -2.8279916    1.5356046   439061 
 1698000    1.0243143   -2.8289702   -2.8289702   -1.2925023  0.094276759   -2.8289702     1.536468   439061 
 1699000    1.0237096   -2.8272204   -2.8272204   -1.2916594  0.093025383   -2.8272204     1.535561   439061 
 1700000    1.0237583    -2.829085    -2.829085   -1.2934511   0.10025405    -2.829085     1.535634   439061 
 1701000    1.0238451   -2.8283677   -2.8283677   -1.2926036  0.096507894   -2.8283677    1.5357641   439061 
 1702000    1.0235459   -2.8292884   -2.8292884   -1.2939731  0.089230629   -2.8292884    1.5353153   439061 
 1703000    1.0238936   -2.8317162   -2.8317162   -1.2958793  0.094455539   -2.8317162    1.5358368   439061 
 1704000    1.0227537   -2.8301389   -2.8301389   -1.2960118  0.092181389   -2.8301389    1.5341271   439061 
 1705000    1.0221169   -2.8295063   -2.8295063   -1.2963345  0.096254067   -2.8295063    1.5331718   439061 
 1706000    1.0224569   -2.8303202   -2.8303202   -1.2966384   0.09910614   -2.8303202    1.5336818   439061 
 1707000    1.0221074   -2.8299351   -2.8299351   -1.2967776  0.095072629   -2.8299351    1.5331575   439061 
 1708000    1.0225764   -2.8306312   -2.8306312   -1.2967701  0.094965574   -2.8306312    1.5338611   439061 
 1709000    1.0228209   -2.8297026   -2.8297026   -1.2954748  0.093724759   -2.8297026    1.5342278   439061 
 1710000     1.020918   -2.8275505   -2.8275505    -1.296177  0.098018241   -2.8275505    1.5313735   439061 
 1711000    1.0220533   -2.8287934   -2.8287934   -1.2957169  0.099229249   -2.8287934    1.5330765   439061 
 1712000    1.0238492   -2.8319384   -2.8319384    -1.296168  0.094763812   -2.8319384    1.5357704   439061 
 1713000    1.0233173   -2.8303041   -2.8303041   -1.2953316  0.095332229   -2.8303041    1.5349725   439061 
 1714000    1.0234876    -2.829697    -2.829697   -1.2944692  0.097696775    -2.829697    1.5352279   439061 
 1715000    1.0247186   -2.8318086   -2.8318086   -1.2947342  0.094541266   -2.8318086    1.5370744   439061 
 1716000    1.0256889   -2.8327344   -2.8327344   -1.2942045  0.094376895   -2.8327344    1.5385299   439061 
 1717000    1.0222017   -2.8269551   -2.8269551   -1.2936561  0.094407325   -2.8269551     1.533299   439061 
 1718000     1.024972   -2.8318197   -2.8318197   -1.2943652  0.097491609   -2.8318197    1.5374545   439061 
 1719000    1.0238918   -2.8307271   -2.8307271   -1.2948929  0.094197667   -2.8307271    1.5358342   439061 
 1720000    1.0235485    -2.831337    -2.831337   -1.2960177  0.093518635    -2.831337    1.5353192   439061 
 1721000    1.0235116   -2.8309676   -2.8309676   -1.2957037  0.093849127   -2.8309676    1.5352639   439061 
 1722000    1.0221884    -2.829271    -2.829271   -1.2959919  0.089906691    -2.829271    1.5332791   439061 
 1723000    1.0231644   -2.8300125   -2.8300125   -1.2952694  0.097054211   -2.8300125    1.5347432   439061 
 1724000    1.0241439    -2.831758    -2.831758   -1.2955457  0.094735635    -2.831758    1.5362123   439061 
 1725000    1.0234856   -2.8311901   -2.8311901   -1.2959651  0.093681544   -2.8311901    1.5352249   439061 
 1726000    1.0230236   -2.8303868   -2.8303868   -1.2958548  0.096235995   -2.8303868    1.5345319   439061 
 1727000      1.02201   -2.8295589   -2.8295589   -1.2965475  0.090174193   -2.8295589    1.5330114   439061 
 1728000    1.0226975   -2.8294092   -2.8294092   -1.2953664  0.096030377   -2.8294092    1.5340428   439061 
 1729000    1.0224603   -2.8292525   -2.8292525   -1.2955655  0.091934845   -2.8292525     1.533687   439061 
 1730000    1.0238508   -2.8324673   -2.8324673   -1.2966945  0.097542211   -2.8324673    1.5357727   439061 
 1731000     1.021162   -2.8290705   -2.8290705   -1.2973309  0.096504166   -2.8290705    1.5317396   439061 
 1732000     1.022607    -2.830258    -2.830258    -1.296351  0.096802431    -2.830258     1.533907   439061 
 1733000    1.0236692   -2.8314877   -2.8314877   -1.2959875  0.089005243   -2.8314877    1.5355003   439061 
 1734000    1.0232976   -2.8301597   -2.8301597   -1.2952168  0.094860883   -2.8301597    1.5349429   439061 
 1735000     1.022393   -2.8301167   -2.8301167   -1.2965307  0.092144379   -2.8301167    1.5335861   439061 
 1736000    1.0218927   -2.8298191   -2.8298191   -1.2969835  0.089771944   -2.8298191    1.5328356   439061 
 1737000    1.0233698   -2.8324179   -2.8324179   -1.2973668  0.091200807   -2.8324179    1.5350512   439061 
 1738000    1.0228906   -2.8311675   -2.8311675   -1.2968351  0.090266719   -2.8311675    1.5343324   439061 
 1739000    1.0214369   -2.8302965   -2.8302965   -1.2981447  0.095857695   -2.8302965    1.5321518   439061 
 1740000    1.0224805   -2.8308585   -2.8308585   -1.2971413  0.090405883   -2.8308585    1.5337173   439061 
 1741000     1.022572   -2.8307545   -2.8307545      -1.2969  0.092626525   -2.8307545    1.5338545   439061 
 1742000    1.0232187   -2.8326561   -2.8326561   -1.2978316  0.095512896   -2.8326561    1.5348245   439061 
 1743000     1.022529   -2.8327337   -2.8327337   -1.2989437  0.095042688   -2.8327337      1.53379   439061 
 1744000    1.0236674   -2.8338443   -2.8338443   -1.2983468  0.090669434   -2.8338443    1.5354975   439061 
 1745000    1.0229667   -2.8325394   -2.8325394   -1.2980929  0.096236022   -2.8325394    1.5344465   439061 
 1746000    1.0246126   -2.8336053   -2.8336053   -1.2966899  0.097079551   -2.8336053    1.5369154   439061 
 1747000    1.0238481   -2.8324363   -2.8324363   -1.2966677   0.10126608   -2.8324363    1.5357686   439061 
 1748000    1.0231307    -2.832413    -2.832413   -1.2977204   0.09085115    -2.832413    1.5346926   439061 
 1749000     1.024113   -2.8336049   -2.8336049   -1.2974389   0.09539603   -2.8336049     1.536166   439061 
 1750000     1.026078   -2.8349089   -2.8349089   -1.2957953  0.095879328   -2.8349089    1.5391136   439061 
 1751000    1.0253358   -2.8332017   -2.8332017   -1.2952015   0.09838966   -2.8332017    1.5380002   439061 
 1752000    1.0245323   -2.8328184   -2.8328184   -1.2960234  0.093717866   -2.8328184     1.536795   439061 
 1753000    1.0239923   -2.8322237   -2.8322237   -1.2962387   0.09584261   -2.8322237     1.535985   439061 
 1754000    1.0251574   -2.8336685   -2.8336685   -1.2959359  0.098000997   -2.8336685    1.5377326   439061 
 1755000    1.0248794    -2.832727    -2.832727   -1.2954114  0.093366041    -2.832727    1.5373155   439061 
 1756000      1.02514   -2.8347975   -2.8347975   -1.2970909  0.095035591   -2.8347975    1.5377066   439061 
 1757000    1.0239549   -2.8342072   -2.8342072   -1.2982783  0.091922153   -2.8342072    1.5359289   439061 
 1758000    1.0235498   -2.8337482   -2.8337482   -1.2984269  0.099169675   -2.8337482    1.5353213   439061 
 1759000    1.0217526   -2.8314591   -2.8314591   -1.2988337   0.09331014   -2.8314591    1.5326253   439061 
 1760000     1.023123   -2.8332388   -2.8332388   -1.2985579  0.094877312   -2.8332388    1.5346809   439061 
 1761000    1.0237132   -2.8347721   -2.8347721   -1.2992058  0.095089279   -2.8347721    1.5355663   439061 
 1762000    1.0239902    -2.834602    -2.834602   -1.2986203  0.090680057    -2.834602    1.5359817   439061 
 1763000    1.0231306   -2.8325078   -2.8325078   -1.2978154    0.0916075   -2.8325078    1.5346924   439061 
 1764000    1.0236684   -2.8327639   -2.8327639   -1.2972648  0.095419246   -2.8327639    1.5354991   439061 
 1765000    1.0241678   -2.8337783   -2.8337783   -1.2975301  0.093056225   -2.8337783    1.5362482   439061 
 1766000    1.0242235   -2.8341793   -2.8341793   -1.2978475  0.094698811   -2.8341793    1.5363318   439061 
 1767000    1.0262512   -2.8359746   -2.8359746   -1.2966014  0.099484162   -2.8359746    1.5393732   439061 
 1768000    1.0244196   -2.8346282   -2.8346282   -1.2980023  0.093164489   -2.8346282    1.5366259   439061 
 1769000    1.0255659   -2.8340083   -2.8340083    -1.295663   0.09982565   -2.8340083    1.5383453   439061 
 1770000    1.0251831   -2.8336448   -2.8336448   -1.2958736  0.090729589   -2.8336448    1.5377712   439061 
 1771000    1.0239731   -2.8321418   -2.8321418   -1.2961856  0.095616962   -2.8321418    1.5359562   439061 
 1772000    1.0237479   -2.8316331   -2.8316331   -1.2960147  0.097237566   -2.8316331    1.5356183   439061 
 1773000    1.0236822   -2.8334784   -2.8334784   -1.2979586   0.08835023   -2.8334784    1.5355198   439061 
 1774000     1.023484   -2.8343086   -2.8343086   -1.2990861  0.095385951   -2.8343086    1.5352225   439061 
 1775000    1.0236186   -2.8341396   -2.8341396   -1.2987151  0.094710961   -2.8341396    1.5354245   439061 
 1776000     1.024072   -2.8351857   -2.8351857   -1.2990812  0.093521542   -2.8351857    1.5361045   439061 
 1777000    1.0236857   -2.8346685   -2.8346685   -1.2991435  0.095255924   -2.8346685     1.535525   439061 
 1778000    1.0241451   -2.8338821   -2.8338821   -1.2976679  0.098280093   -2.8338821    1.5362142   439061 
 1779000    1.0228898    -2.832811    -2.832811   -1.2984798  0.090699449    -2.832811    1.5343311   439061 
 1780000      1.02504   -2.8338958   -2.8338958   -1.2963393  0.095451442   -2.8338958    1.5375565   439061 
 1781000    1.0229382   -2.8317956   -2.8317956   -1.2973918  0.097117687   -2.8317956    1.5344038   439061 
 1782000    1.0237708   -2.8330719   -2.8330719   -1.2974193  0.093760957   -2.8330719    1.5356526   439061 
 1783000    1.0214819   -2.8301428   -2.8301428   -1.2979235  0.091338155   -2.8301428    1.5322193   439061 
 1784000    1.0238908   -2.8333114   -2.8333114   -1.2974787  0.093928053   -2.8333114    1.5358328   439061 
 1785000    1.0227665   -2.8328447   -2.8328447   -1.2986984  0.093073427   -2.8328447    1.5341462   439061 
 1786000     1.021573   -2.8323278   -2.8323278   -1.2999718  0.091962759   -2.8323278     1.532356   439061 
 1787000    1.0223037   -2.8320917   -2.8320917   -1.2986397  0.091930938   -2.8320917     1.533452   439061 
 1788000    1.0219006   -2.8325287   -2.8325287   -1.2996813  0.093473702   -2.8325287    1.5328474   439061 
 1789000    1.0214306    -2.831648    -2.831648   -1.2995055  0.093077176    -2.831648    1.5321425   439061 
 1790000    1.0226941   -2.8332622   -2.8332622   -1.2992245  0.096276273   -2.8332622    1.5340377   439061 
 1791000    1.0215989   -2.8320618   -2.8320618   -1.2996669  0.093192099   -2.8320618    1.5323949   439061 
 1792000    1.0237856   -2.8352996   -2.8352996   -1.2996246  0.092408074   -2.8352996    1.5356749   439061 
 1793000    1.0237542   -2.8351538   -2.8351538   -1.2995261  0.098780751   -2.8351538    1.5356278   439061 
 1794000    1.0226961   -2.8344265   -2.8344265   -1.3003859  0.091802186   -2.8344265    1.5340406   439061 
 1795000    1.0215378   -2.8319404   -2.8319404   -1.2996372  0.090673527   -2.8319404    1.5323032   439061 
 1796000    1.0233761   -2.8341396   -2.8341396    -1.299079  0.094720771   -2.8341396    1.5350606   439061 
 1797000    1.0219571    -2.831947    -2.831947   -1.2990149  0.092505978    -2.831947    1.5329321   439061 
 1798000    1.0226001   -2.8334151   -2.8334151   -1.2995184  0.097321363   -2.8334151    1.5338967   439061 
 1799000    1.0237901    -2.835352    -2.835352   -1.2996703  0.095124814    -2.835352    1.5356816   439061 
 1800000    1.0213838   -2.8325991   -2.8325991   -1.3005269  0.095975909   -2.8325991    1.5320722   439061 
 1801000    1.0232736   -2.8359827   -2.8359827   -1.3010758  0.091678533   -2.8359827    1.5349069   439061 
 1802000    1.0221556   -2.8338104   -2.8338104   -1.3005805   0.09285241   -2.8338104    1.5332299   439061 
 1803000    1.0248674   -2.8378681   -2.8378681   -1.3005706  0.091631492   -2.8378681    1.5372975   439061 
 1804000    1.0232165   -2.8361107   -2.8361107   -1.3012894  0.090320762   -2.8361107    1.5348213   439061 
 1805000    1.0234433   -2.8358743   -2.8358743   -1.3007128  0.095932903   -2.8358743    1.5351615   439061 
 1806000    1.0231291   -2.8360858   -2.8360858   -1.3013956    0.0955251   -2.8360858    1.5346902   439061 
 1807000    1.0228049   -2.8364279   -2.8364279    -1.302224  0.092734351   -2.8364279    1.5342039   439061 
 1808000    1.0231108   -2.8362451   -2.8362451   -1.3015824  0.094171464   -2.8362451    1.5346626   439061 
 1809000    1.0244538   -2.8383831   -2.8383831   -1.3017059   0.09500069   -2.8383831    1.5366773   439061 
 1810000    1.0231783   -2.8372724   -2.8372724   -1.3025084  0.097058239   -2.8372724     1.534764   439061 
 1811000    1.0227715   -2.8367832   -2.8367832   -1.3026295  0.094129122   -2.8367832    1.5341537   439061 
 1812000    1.0213661   -2.8359733   -2.8359733   -1.3039278  0.092668709   -2.8359733    1.5320456   439061 
 1813000    1.0230544   -2.8386078   -2.8386078   -1.3040297  0.095734291   -2.8386078    1.5345781   439061 
 1814000    1.0234459   -2.8397479   -2.8397479   -1.3045826  0.092576416   -2.8397479    1.5351653   439061 
 1815000    1.0220067   -2.8367322   -2.8367322   -1.3037256  0.094355989   -2.8367322    1.5330065   439061 
 1816000    1.0225395   -2.8369255   -2.8369255   -1.3031197  0.088760036   -2.8369255    1.5338058   439061 
 1817000    1.0220658    -2.835529    -2.835529   -1.3024338   0.09171958    -2.835529    1.5330953   439061 
 1818000    1.0203748   -2.8349146   -2.8349146   -1.3043559  0.094683591   -2.8349146    1.5305587   439061 
 1819000    1.0214335   -2.8358174   -2.8358174   -1.3036707  0.092542493   -2.8358174    1.5321468   439061 
 1820000     1.021679   -2.8374268   -2.8374268   -1.3049118  0.090813461   -2.8374268     1.532515   439061 
 1821000     1.021271   -2.8378619   -2.8378619   -1.3059588   0.09402178   -2.8378619    1.5319031   439061 
 1822000    1.0223123   -2.8366552   -2.8366552   -1.3031902   0.10042455   -2.8366552     1.533465   439061 
 1823000    1.0224334   -2.8387444   -2.8387444   -1.3050979  0.096403634   -2.8387444    1.5336466   439061 
 1824000    1.0215308   -2.8366954   -2.8366954   -1.3044026  0.089551566   -2.8366954    1.5322927   439061 
 1825000    1.0225777   -2.8380864   -2.8380864   -1.3042234  0.089710254   -2.8380864     1.533863   439061 
 1826000    1.0218401   -2.8367918   -2.8367918   -1.3040352  0.086787723   -2.8367918    1.5327566   439061 
 1827000    1.0229942    -2.837603    -2.837603   -1.3031151  0.090850566    -2.837603    1.5344879   439061 
 1828000     1.021461   -2.8360496   -2.8360496   -1.3038616  0.090156839   -2.8360496     1.532188   439061 
 1829000     1.021925   -2.8361251   -2.8361251    -1.303241  0.092735548   -2.8361251    1.5328841   439061 
 1830000    1.0242155   -2.8389354   -2.8389354   -1.3026156   0.09853654   -2.8389354    1.5363197   439061 
 1831000      1.02288   -2.8377448   -2.8377448   -1.3034284  0.089450862   -2.8377448    1.5343165   439061 
 1832000    1.0234332   -2.8363542   -2.8363542   -1.3012079  0.092876448   -2.8363542    1.5351463   439061 
 1833000    1.0213942   -2.8340117   -2.8340117   -1.3019239  0.091954376   -2.8340117    1.5320878   439061 
 1834000    1.0212409    -2.835408    -2.835408   -1.3035502  0.087741715    -2.835408    1.5318578   439061 
 1835000     1.022995    -2.837065    -2.837065    -1.302576   0.09622693    -2.837065     1.534489   439061 
 1836000    1.0229822   -2.8363822   -2.8363822   -1.3019124  0.096609984   -2.8363822    1.5344698   439061 
 1837000    1.0233965    -2.836248    -2.836248   -1.3011567  0.098730572    -2.836248    1.5350913   439061 
 1838000     1.022045   -2.8336594   -2.8336594   -1.3005954  0.091278951   -2.8336594    1.5330639   439061 
 1839000    1.0219951   -2.8344723   -2.8344723   -1.3014832  0.090165294   -2.8344723    1.5329891   439061 
 1840000     1.023604   -2.8368844   -2.8368844   -1.3014819   0.09137368   -2.8368844    1.5354025   439061 
 1841000    1.0231341   -2.8357726   -2.8357726   -1.3010749  0.094365095   -2.8357726    1.5346977   439061 
 1842000    1.0238267   -2.8385301   -2.8385301   -1.3027936  0.090465863   -2.8385301    1.5357365   439061 
 1843000    1.0223497   -2.8367576   -2.8367576   -1.3032365  0.091142417   -2.8367576    1.5335211   439061 
 1844000    1.0239016   -2.8375343   -2.8375343   -1.3016854  0.091274955   -2.8375343    1.5358488   439061 
 1845000    1.0218811   -2.8361739   -2.8361739   -1.3033557   0.09204939   -2.8361739    1.5328182   439061 
 1846000    1.0211883   -2.8359344   -2.8359344   -1.3041555  0.089575261   -2.8359344    1.5317789   439061 
 1847000    1.0213499   -2.8368035   -2.8368035   -1.3047822  0.092414917   -2.8368035    1.5320214   439061 
 1848000    1.0213099   -2.8364013   -2.8364013   -1.3044399  0.092362291   -2.8364013    1.5319613   439061 
 1849000     1.020279   -2.8339955   -2.8339955   -1.3035805   0.09623812   -2.8339955     1.530415   439061 
 1850000     1.022121   -2.8377544   -2.8377544   -1.3045764  0.093710024   -2.8377544     1.533178   439061 
 1851000    1.0212187   -2.8363181   -2.8363181   -1.3044935  0.090836747   -2.8363181    1.5318246   439061 
 1852000    1.0229944   -2.8382934   -2.8382934   -1.3038053  0.095701185   -2.8382934    1.5344881   439061 
 1853000    1.0220531   -2.8361574   -2.8361574   -1.3030813  0.095958279   -2.8361574    1.5330762   439061 
 1854000     1.022439   -2.8368994   -2.8368994   -1.3032443  0.095130839   -2.8368994     1.533655   439061 
 1855000    1.0218837   -2.8374434   -2.8374434   -1.3046213  0.095131746   -2.8374434     1.532822   439061 
 1856000    1.0212487   -2.8364897   -2.8364897   -1.3046202  0.093031386   -2.8364897    1.5318695   439061 
 1857000    1.0220051   -2.8376976   -2.8376976   -1.3046935  0.092889263   -2.8376976    1.5330041   439061 
 1858000    1.0221701   -2.8390733   -2.8390733   -1.3058216  0.094078645   -2.8390733    1.5332517   439061 
 1859000    1.0218396   -2.8386206   -2.8386206   -1.3058647  0.090020423   -2.8386206     1.532756   439061 
 1860000    1.0224193    -2.839353    -2.839353   -1.3057276  0.092114895    -2.839353    1.5336254   439061 
 1861000    1.0224166   -2.8375695   -2.8375695   -1.3039482  0.093384847   -2.8375695    1.5336214   439061 
 1862000    1.0231274    -2.838088    -2.838088   -1.3034003  0.096630238    -2.838088    1.5346876   439061 
 1863000    1.0225995   -2.8366358   -2.8366358   -1.3027401  0.092721917   -2.8366358    1.5338957   439061 
 1864000    1.0223092   -2.8369589   -2.8369589   -1.3034986  0.094898795   -2.8369589    1.5334603   439061 
 1865000    1.0224908   -2.8377929   -2.8377929   -1.3040602  0.098875815   -2.8377929    1.5337328   439061 
 1866000    1.0222875     -2.83655     -2.83655   -1.3031223  0.091997094     -2.83655    1.5334278   439061 
 1867000    1.0209895   -2.8338545   -2.8338545   -1.3023737  0.095056134   -2.8338545    1.5314808   439061 
 1868000    1.0232307   -2.8362082   -2.8362082   -1.3013656  0.096484012   -2.8362082    1.5348426   439061 
 1869000    1.0230599   -2.8374616   -2.8374616   -1.3028753  0.095314694   -2.8374616    1.5345863   439061 
 1870000    1.0236803   -2.8375691   -2.8375691   -1.3020521  0.091258017   -2.8375691     1.535517   439061 
 1871000    1.0205958   -2.8344041   -2.8344041    -1.303514  0.088636301   -2.8344041    1.5308901   439061 
 1872000    1.0218565   -2.8360635   -2.8360635   -1.3032822  0.088365676   -2.8360635    1.5327813   439061 
 1873000    1.0217717   -2.8352006   -2.8352006   -1.3025465   0.09116311   -2.8352006    1.5326541   439061 
 1874000    1.0222454   -2.8364721   -2.8364721   -1.3031075  0.089268364   -2.8364721    1.5333646   439061 
 1875000    1.0228908   -2.8371517   -2.8371517    -1.302819  0.093453317   -2.8371517    1.5343328   439061 
 1876000    1.0229266   -2.8363158   -2.8363158   -1.3019294  0.095274079   -2.8363158    1.5343864   439061 
 1877000    1.0233363    -2.836433    -2.836433    -1.301432  0.091324018    -2.836433    1.5350009   439061 
 1878000    1.0205468   -2.8332446   -2.8332446   -1.3024279  0.096533869   -2.8332446    1.5308167   439061 
 1879000    1.0230607   -2.8363865   -2.8363865    -1.301799  0.090370498   -2.8363865    1.5345875   439061 
 1880000     1.023802    -2.836718    -2.836718   -1.3010185  0.093853581    -2.836718    1.5356995   439061 
 1881000    1.0235923   -2.8369455   -2.8369455   -1.3015605  0.095583328   -2.8369455     1.535385   439061 
 1882000    1.0207649   -2.8320621   -2.8320621   -1.3009182  0.093207769   -2.8320621    1.5311439   439061 
 1883000     1.022448   -2.8329912   -2.8329912   -1.2993226  0.092001301   -2.8329912    1.5336686   439061 
 1884000    1.0237986   -2.8360684   -2.8360684    -1.300374  0.090894034   -2.8360684    1.5356945   439061 
 1885000    1.0227829   -2.8339562   -2.8339562   -1.2997853  0.094751231   -2.8339562    1.5341708   439061 
 1886000     1.023022    -2.832577    -2.832577   -1.2980474   0.10037758    -2.832577    1.5345296   439061 
 1887000    1.0224595   -2.8340765   -2.8340765   -1.3003907  0.090990193   -2.8340765    1.5336858   439061 
 1888000    1.0226545   -2.8336539   -2.8336539   -1.2996756  0.092071016   -2.8336539    1.5339783   439061 
 1889000    1.0220915   -2.8348483   -2.8348483   -1.3017146  0.093193775   -2.8348483    1.5331337   439061 
 1890000    1.0213841   -2.8359592   -2.8359592   -1.3038865  0.088985516   -2.8359592    1.5320727   439061 
 1891000     1.021873   -2.8345387   -2.8345387   -1.3017327  0.088770691   -2.8345387     1.532806   439061 
 1892000    1.0203622   -2.8345986   -2.8345986   -1.3040588  0.086695975   -2.8345986    1.5305398   439061 
 1893000    1.0202203   -2.8340298   -2.8340298   -1.3037027  0.094925366   -2.8340298     1.530327   439061 
 1894000    1.0204377   -2.8345913   -2.8345913   -1.3039382  0.088334957   -2.8345913    1.5306531   439061 
 1895000    1.0220692    -2.837043    -2.837043   -1.3039427  0.090423633    -2.837043    1.5331003   439061 
 1896000      1.02107   -2.8363862   -2.8363862   -1.3047846  0.091298133   -2.8363862    1.5316016   439061 
 1897000    1.0209888    -2.836278    -2.836278   -1.3047984   0.08979237    -2.836278    1.5314797   439061 
 1898000    1.0210842   -2.8358522   -2.8358522   -1.3042294  0.093753901   -2.8358522    1.5316228   439061 
 1899000    1.0226973   -2.8380393   -2.8380393   -1.3039969  0.087077241   -2.8380393    1.5340424   439061 
 1900000    1.0227878   -2.8376409   -2.8376409   -1.3034626  0.093334914   -2.8376409    1.5341782   439061 
 1901000    1.0230103   -2.8388586   -2.8388586   -1.3043466  0.093108593   -2.8388586     1.534512   439061 
 1902000    1.0217793   -2.8369827   -2.8369827   -1.3043173  0.091946958   -2.8369827    1.5326655   439061 
 1903000    1.0233389   -2.8392142   -2.8392142   -1.3042093  0.092395081   -2.8392142    1.5350049   439061 
 1904000    1.0229337   -2.8381171   -2.8381171   -1.3037201   0.09358496   -2.8381171    1.5343971   439061 
 1905000    1.0220271   -2.8384087   -2.8384087   -1.3053715  0.093365907   -2.8384087    1.5330372   439061 
 1906000    1.0218201    -2.838268    -2.838268   -1.3055414  0.091038349    -2.838268    1.5327266   439061 
 1907000     1.022113   -2.8392957   -2.8392957   -1.3061296  0.094930404   -2.8392957     1.533166   439061 
 1908000    1.0221309   -2.8399719   -2.8399719   -1.3067791  0.086127743   -2.8399719    1.5331928   439061 
 1909000    1.0220323   -2.8395483   -2.8395483   -1.3065035  0.090918216   -2.8395483    1.5330449   439061 
 1910000    1.0226895   -2.8411993   -2.8411993   -1.3071685  0.092714507   -2.8411993    1.5340308   439061 
 1911000    1.0237156   -2.8424358   -2.8424358   -1.3068658  0.091387349   -2.8424358      1.53557   439061 
 1912000    1.0213758   -2.8404916   -2.8404916   -1.3084314  0.097020064   -2.8404916    1.5320602   439061 
 1913000    1.0230875   -2.8425084   -2.8425084   -1.3078807  0.094161114   -2.8425084    1.5346277   439061 
 1914000    1.0207435   -2.8385443   -2.8385443   -1.3074325  0.094541305   -2.8385443    1.5311118   439061 
 1915000    1.0224187   -2.8411012   -2.8411012   -1.3074767  0.092340546   -2.8411012    1.5336246   439061 
 1916000    1.0222212   -2.8394752   -2.8394752   -1.3061469  0.094407491   -2.8394752    1.5333284   439061 
 1917000    1.0232697   -2.8410839   -2.8410839   -1.3061829  0.092297274   -2.8410839    1.5349011   439061 
 1918000    1.0208814   -2.8385317   -2.8385317   -1.3072131  0.089217754   -2.8385317    1.5313186   439061 
 1919000    1.0230278   -2.8399011   -2.8399011   -1.3053629  0.094970032   -2.8399011    1.5345382   439061 
 1920000    1.0221369   -2.8394591   -2.8394591   -1.3062572  0.093163234   -2.8394591    1.5332018   439061 
 1921000    1.0237133   -2.8415389   -2.8415389   -1.3059724   0.09534361   -2.8415389    1.5355664   439061 
 1922000    1.0224947   -2.8397416   -2.8397416    -1.306003  0.091255175   -2.8397416    1.5337386   439061 
 1923000    1.0216421   -2.8392139   -2.8392139   -1.3067543  0.096845697   -2.8392139    1.5324596   439061 
 1924000    1.0214703   -2.8404334   -2.8404334   -1.3082315  0.090413896   -2.8404334    1.5322019   439061 
 1925000    1.0210143   -2.8393223   -2.8393223   -1.3078044  0.093757804   -2.8393223    1.5315179   439061 
 1926000    1.0212147   -2.8401959   -2.8401959   -1.3083773  0.090924116   -2.8401959    1.5318186   439061 
 1927000    1.0221047   -2.8414022   -2.8414022   -1.3082486   0.09939635   -2.8414022    1.5331536   439061 
 1928000    1.0224821   -2.8421527   -2.8421527    -1.308433  0.088389799   -2.8421527    1.5337197   439061 
 1929000    1.0203237   -2.8408291   -2.8408291    -1.310347  0.088771008   -2.8408291    1.5304821   439061 
 1930000    1.0218921     -2.84289     -2.84289   -1.3100554  0.092876766     -2.84289    1.5328346   439061 
 1931000     1.022233   -2.8418531   -2.8418531   -1.3085071  0.090041031   -2.8418531    1.5333461   439061 
 1932000     1.021532   -2.8393059   -2.8393059   -1.3070114    0.0971964   -2.8393059    1.5322945   439061 
 1933000    1.0225376   -2.8402473   -2.8402473   -1.3064444  0.088916495   -2.8402473    1.5338029   439061 
 1934000    1.0232938   -2.8421176   -2.8421176   -1.3071803  0.092606106   -2.8421176    1.5349373   439061 
 1935000    1.0227748   -2.8419697   -2.8419697   -1.3078109   0.09191146   -2.8419697    1.5341587   439061 
 1936000    1.0211596   -2.8410381   -2.8410381   -1.3093022  0.092665275   -2.8410381    1.5317359   439061 
 1937000    1.0204022    -2.840933    -2.840933   -1.3103333  0.091245834    -2.840933    1.5305998   439061 
 1938000    1.0218783   -2.8427702   -2.8427702   -1.3099563  0.089244689   -2.8427702    1.5328139   439061 
 1939000    1.0234152   -2.8440621   -2.8440621   -1.3089428  0.096099245   -2.8440621    1.5351193   439061 
 1940000    1.0225204   -2.8434494   -2.8434494   -1.3096724  0.096078483   -2.8434494    1.5337771   439061 
 1941000    1.0225201   -2.8433409   -2.8433409   -1.3095643  0.094683007   -2.8433409    1.5337766   439061 
 1942000    1.0228785   -2.8431286   -2.8431286   -1.3088144  0.093116478   -2.8431286    1.5343142   439061 
 1943000    1.0235132    -2.844802    -2.844802   -1.3095357  0.091618542    -2.844802    1.5352663   439061 
 1944000    1.0212885   -2.8404803   -2.8404803    -1.308551  0.096917409   -2.8404803    1.5319293   439061 
 1945000    1.0216501   -2.8424854   -2.8424854   -1.3100137    0.0921405   -2.8424854    1.5324716   439061 
 1946000    1.0214179   -2.8433626   -2.8433626   -1.3112393  0.092339549   -2.8433626    1.5321233   439061 
 1947000     1.021773   -2.8428102   -2.8428102   -1.3101541  0.094736651   -2.8428102    1.5326561   439061 
 1948000    1.0222328   -2.8431947   -2.8431947    -1.309849   0.09286903   -2.8431947    1.5333457   439061 
 1949000    1.0233261   -2.8440261   -2.8440261   -1.3090405  0.096730157   -2.8440261    1.5349856   439061 
 1950000     1.023566   -2.8439151   -2.8439151   -1.3085696   0.10066597   -2.8439151    1.5353455   439061 
 1951000    1.0225779   -2.8423572   -2.8423572   -1.3084939   0.09467862   -2.8423572    1.5338633   439061 
 1952000    1.0227264   -2.8428953   -2.8428953   -1.3088092  0.094669145   -2.8428953    1.5340861   439061 
 1953000    1.0232261   -2.8438126   -2.8438126    -1.308977  0.094949518   -2.8438126    1.5348356   439061 
 1954000    1.0233162   -2.8428065   -2.8428065   -1.3078357  0.097674969   -2.8428065    1.5349708   439061 
 1955000    1.0236279   -2.8431914   -2.8431914   -1.3077531  0.093234453   -2.8431914    1.5354383   439061 
 1956000    1.0231812   -2.8440386   -2.8440386   -1.3092704  0.091730223   -2.8440386    1.5347682   439061 
 1957000    1.0227797   -2.8437171   -2.8437171    -1.309551  0.093017666   -2.8437171     1.534166   439061 
 1958000    1.0220368   -2.8420559   -2.8420559   -1.3090041  0.095599887   -2.8420559    1.5330517   439061 
 1959000    1.0217439   -2.8416009   -2.8416009   -1.3089885  0.095354333   -2.8416009    1.5326124   439061 
 1960000    1.0232562   -2.8448547   -2.8448547   -1.3099739  0.090435357   -2.8448547    1.5348808   439061 
 1961000     1.021476   -2.8439155   -2.8439155   -1.3117051  0.089797883   -2.8439155    1.5322105   439061 
 1962000    1.0206565   -2.8426278   -2.8426278   -1.3116465  0.091820391   -2.8426278    1.5309813   439061 
 1963000    1.0208716   -2.8418887   -2.8418887   -1.3105848  0.095584353   -2.8418887    1.5313039   439061 
 1964000    1.0222739   -2.8440465   -2.8440465   -1.3106392  0.092117135   -2.8440465    1.5334073   439061 
 1965000    1.0219169   -2.8431074   -2.8431074   -1.3102356  0.094841482   -2.8431074    1.5328718   439061 
 1966000    1.0212834   -2.8408611   -2.8408611   -1.3089395  0.091052124   -2.8408611    1.5319216   439061 
 1967000    1.0216593   -2.8418535   -2.8418535   -1.3093681  0.090581428   -2.8418535    1.5324854   439061 
 1968000    1.0228979   -2.8439791   -2.8439791   -1.3096358  0.095095855   -2.8439791    1.5343434   439061 
 1969000    1.0212681   -2.8405018   -2.8405018   -1.3086031  0.092794287   -2.8405018    1.5318987   439061 
 1970000    1.0217814   -2.8420974   -2.8420974   -1.3094288  0.088302308   -2.8420974    1.5326686   439061 
 1971000    1.0219973    -2.843196    -2.843196   -1.3102036  0.090888274    -2.843196    1.5329924   439061 
 1972000     1.023344   -2.8439269   -2.8439269   -1.3089145  0.089180411   -2.8439269    1.5350124   439061 
 1973000     1.022343    -2.843268    -2.843268    -1.309757  0.095120537    -2.843268     1.533511   439061 
 1974000     1.022251   -2.8432574   -2.8432574   -1.3098844  0.089421322   -2.8432574     1.533373   439061 
 1975000    1.0221234   -2.8427294   -2.8427294   -1.3095478  0.092732277   -2.8427294    1.5331816   439061 
 1976000    1.0207573   -2.8419713   -2.8419713   -1.3108388  0.096191892   -2.8419713    1.5311325   439061 
 1977000    1.0216796   -2.8422848   -2.8422848    -1.309769  0.090134807   -2.8422848    1.5325159   439061 
 1978000    1.0216424   -2.8424456   -2.8424456   -1.3099856  0.092748437   -2.8424456      1.53246   439061 
 1979000    1.0239377   -2.8464421   -2.8464421    -1.310539  0.093303007   -2.8464421     1.535903   439061 
 1980000    1.0226083   -2.8453563   -2.8453563   -1.3114473  0.088410092   -2.8453563     1.533909   439061 
 1981000    1.0223714   -2.8448341   -2.8448341   -1.3112806   0.09238558   -2.8448341    1.5335535   439061 
 1982000    1.0223848   -2.8430386   -2.8430386   -1.3094649  0.094666258   -2.8430386    1.5335737   439061 
 1983000    1.0232005   -2.8435391   -2.8435391   -1.3087418  0.097036254   -2.8435391    1.5347973   439061 
 1984000    1.0233681   -2.8434889   -2.8434889   -1.3084402  0.093834845   -2.8434889    1.5350487   439061 
 1985000    1.0221319   -2.8429272   -2.8429272   -1.3097329  0.091651117   -2.8429272    1.5331943   439061 
 1986000    1.0217347   -2.8433358   -2.8433358   -1.3107372  0.091538671   -2.8433358    1.5325986   439061 
 1987000    1.0207733   -2.8426354   -2.8426354   -1.3114789  0.093930007   -2.8426354    1.5311565   439061 
 1988000    1.0221654   -2.8439783   -2.8439783   -1.3107337   0.09376436   -2.8439783    1.5332446   439061 
 1989000    1.0225207   -2.8439766   -2.8439766   -1.3101991  0.093858994   -2.8439766    1.5337775   439061 
 1990000    1.0229095   -2.8457533   -2.8457533   -1.3113925  0.092718662   -2.8457533    1.5343607   439061 
 1991000    1.0225563   -2.8445592   -2.8445592   -1.3107282   0.09923898   -2.8445592    1.5338309   439061 
 1992000    1.0225676   -2.8443769   -2.8443769   -1.3105289  0.096514016   -2.8443769     1.533848   439061 
 1993000    1.0222626    -2.843989    -2.843989   -1.3105986  0.098845794    -2.843989    1.5333904   439061 
 1994000    1.0246806   -2.8483713   -2.8483713   -1.3113539  0.093032932   -2.8483713    1.5370174   439061 
 1995000     1.022316   -2.8452055   -2.8452055   -1.3117349  0.092872886   -2.8452055    1.5334706   439061 
 1996000    1.0206164   -2.8433659   -2.8433659   -1.3124447  0.097493618   -2.8433659    1.5309212   439061 
 1997000    1.0219912   -2.8448999   -2.8448999   -1.3119166  0.091091849   -2.8448999    1.5329833   439061 
 1998000    1.0222498   -2.8451646   -2.8451646   -1.3117934  0.099062185   -2.8451646    1.5333712   439061 
 1999000    1.0226635   -2.8464253   -2.8464253   -1.3124335  0.094666676   -2.8464253    1.5339918   439061 
 2000000    1.0221423   -2.8447214   -2.8447214   -1.3115114  0.088647201   -2.8447214    1.5332099   439061 
 2001000    1.0215098   -2.8446881   -2.8446881   -1.3124269  0.093671372   -2.8446881    1.5322612   439061 
 2002000    1.0224153   -2.8453845   -2.8453845    -1.311765  0.090193151   -2.8453845    1.5336195   439061 
 2003000    1.0226459    -2.845696    -2.845696   -1.3117307  0.090607437    -2.845696    1.5339653   439061 
 2004000    1.0213984   -2.8452215   -2.8452215   -1.3131275  0.092434131   -2.8452215     1.532094   439061 
 2005000    1.0190222   -2.8413622   -2.8413622   -1.3128323  0.090813857   -2.8413622    1.5285299   439061 
 2006000    1.0214443   -2.8454279   -2.8454279   -1.3132649  0.084913897   -2.8454279     1.532163   439061 
 2007000    1.0190383   -2.8421266   -2.8421266   -1.3135726  0.094107595   -2.8421266     1.528554   439061 
 2008000    1.0219978   -2.8467159   -2.8467159   -1.3137227  0.095137449   -2.8467159    1.5329932   439061 
 2009000    1.0208861   -2.8446527   -2.8446527    -1.313327  0.091941647   -2.8446527    1.5313257   439061 
 2010000    1.0215446   -2.8438114   -2.8438114    -1.311498  0.088458076   -2.8438114    1.5323134   439061 
 2011000    1.0210182   -2.8440882   -2.8440882   -1.3125644  0.091809401   -2.8440882    1.5315239   439061 
 2012000    1.0212362   -2.8451285   -2.8451285   -1.3132777  0.091215864   -2.8451285    1.5318508   439061 
 2013000    1.0208803   -2.8449951   -2.8449951   -1.3136781  0.091906881   -2.8449951    1.5313169   439061 
 2014000    1.0200965     -2.84427     -2.84427   -1.3141287  0.092577572     -2.84427    1.5301413   439061 
 2015000     1.020436   -2.8451865   -2.8451865   -1.3145359  0.089910029   -2.8451865    1.5306505   439061 
 2016000    1.0198189   -2.8433302   -2.8433302   -1.3136054  0.092983282   -2.8433302    1.5297248   439061 
 2017000    1.0207447   -2.8452832   -2.8452832   -1.3141696  0.093350579   -2.8452832    1.5311135   439061 
 2018000    1.0214143   -2.8459307   -2.8459307   -1.3138127  0.093559253   -2.8459307     1.532118   439061 
 2019000    1.0210555   -2.8461419   -2.8461419   -1.3145621  0.090833748   -2.8461419    1.5315797   439061 
 2020000    1.0212792   -2.8448618   -2.8448618   -1.3129466  0.091142643   -2.8448618    1.5319152   439061 
 2021000    1.0212607   -2.8454541   -2.8454541   -1.3135665  0.089009488   -2.8454541    1.5318875   439061 
 2022000    1.0194689   -2.8425458   -2.8425458   -1.3133459  0.091501427   -2.8425458    1.5291999   439061 
 2023000    1.0196115   -2.8446076   -2.8446076   -1.3151938    0.0911114   -2.8446076    1.5294138   439061 
 2024000     1.020247     -2.84444     -2.84444    -1.314073  0.094422019     -2.84444    1.5303671   439061 
 2025000    1.0209223   -2.8463542   -2.8463542   -1.3149742  0.091960341   -2.8463542      1.53138   439061 
 2026000     1.021626   -2.8484654   -2.8484654   -1.3160298  0.095785252   -2.8484654    1.5324355   439061 
 2027000     1.021214   -2.8481396   -2.8481396   -1.3163221  0.089600053   -2.8481396    1.5318175   439061 
 2028000     1.020096   -2.8476752   -2.8476752   -1.3175347  0.096550205   -2.8476752    1.5301406   439061 
 2029000    1.0215802   -2.8495953   -2.8495953   -1.3172286  0.094233455   -2.8495953    1.5323668   439061 
 2030000    1.0208424   -2.8477895   -2.8477895   -1.3165294  0.089213359   -2.8477895    1.5312601   439061 
 2031000    1.0205367   -2.8477592   -2.8477592   -1.3169576  0.096453801   -2.8477592    1.5308016   439061 
 2032000    1.0222398   -2.8497616   -2.8497616   -1.3164054  0.095653121   -2.8497616    1.5333562   439061 
 2033000    1.0223338   -2.8490123   -2.8490123   -1.3155151  0.092739815   -2.8490123    1.5334972   439061 
 2034000    1.0214964   -2.8482823   -2.8482823   -1.3160412  0.094017675   -2.8482823    1.5322411   439061 
 2035000     1.022075   -2.8490928   -2.8490928   -1.3159839  0.094859878   -2.8490928    1.5331089   439061 
 2036000    1.0208129   -2.8495056   -2.8495056   -1.3182897  0.089731747   -2.8495056    1.5312159   439061 
 2037000    1.0203529   -2.8487679   -2.8487679   -1.3182421  0.090903553   -2.8487679    1.5305258   439061 
 2038000    1.0225733   -2.8506081   -2.8506081   -1.3167517  0.093586074   -2.8506081    1.5338564   439061 
 2039000    1.0204988   -2.8483188   -2.8483188    -1.317574  0.092187556   -2.8483188    1.5307448   439061 
 2040000    1.0199196   -2.8474159   -2.8474159     -1.31754  0.095016979   -2.8474159    1.5298759   439061 
 2041000    1.0205643   -2.8484465   -2.8484465   -1.3176036  0.090911436   -2.8484465    1.5308429   439061 
 2042000    1.0199689   -2.8470018   -2.8470018   -1.3170519  0.095107958   -2.8470018    1.5299499   439061 
 2043000    1.0199632   -2.8473764   -2.8473764   -1.3174351  0.090251822   -2.8473764    1.5299413   439061 
 2044000    1.0214083   -2.8490089   -2.8490089   -1.3168999  0.094163856   -2.8490089    1.5321089   439061 
 2045000    1.0211323   -2.8489674   -2.8489674   -1.3172724   0.09361614   -2.8489674     1.531695   439061 
 2046000    1.0215636   -2.8506348   -2.8506348   -1.3182928  0.089711769   -2.8506348     1.532342   439061 
 2047000    1.0208788   -2.8480132   -2.8480132   -1.3166984  0.096318067   -2.8480132    1.5313148   439061 
 2048000    1.0204189   -2.8465671   -2.8465671   -1.3159422  0.090446863   -2.8465671    1.5306249   439061 
 2049000    1.0218082   -2.8481672   -2.8481672   -1.3154584  0.092452543   -2.8481672    1.5327088   439061 
 2050000     1.022327   -2.8489136   -2.8489136   -1.3154267  0.086246604   -2.8489136     1.533487   439061 
 2051000    1.0208957   -2.8465448   -2.8465448   -1.3152048  0.091826754   -2.8465448      1.53134   439061 
 2052000    1.0210456   -2.8481631   -2.8481631   -1.3165982  0.093161573   -2.8481631    1.5315649   439061 
 2053000    1.0188688   -2.8444509   -2.8444509   -1.3161512  0.086916724   -2.8444509    1.5282997   439061 
 2054000    1.0190249    -2.844273    -2.844273   -1.3157391  0.091068738    -2.844273    1.5285339   439061 
 2055000    1.0210553   -2.8469313   -2.8469313   -1.3153519  0.088523487   -2.8469313    1.5315794   439061 
 2056000    1.0212038   -2.8472944   -2.8472944   -1.3154923  0.096413678   -2.8472944    1.5318021   439061 
 2057000    1.0213889   -2.8482169   -2.8482169   -1.3161371  0.089378979   -2.8482169    1.5320798   439061 
 2058000    1.0204757   -2.8463044   -2.8463044   -1.3155944  0.090451667   -2.8463044      1.53071   439061 
 2059000    1.0197622   -2.8457888   -2.8457888    -1.316149  0.093943765   -2.8457888    1.5296398   439061 
 2060000    1.0203517   -2.8471289   -2.8471289   -1.3166048  0.090488596   -2.8471289    1.5305241   439061 
 2061000     1.017795   -2.8442785   -2.8442785   -1.3175894  0.088771237   -2.8442785    1.5266891   439061 
 2062000    1.0181441   -2.8457379   -2.8457379   -1.3185251  0.086546732   -2.8457379    1.5272127   439061 
 2063000    1.0179395   -2.8452014   -2.8452014   -1.3182956  0.087868918   -2.8452014    1.5269058   439061 
 2064000    1.0196377   -2.8475068   -2.8475068   -1.3180537  0.087597839   -2.8475068     1.529453   439061 
 2065000    1.0189577   -2.8458505   -2.8458505   -1.3174174  0.088786274   -2.8458505    1.5284331   439061 
 2066000    1.0202571   -2.8476329   -2.8476329   -1.3172507  0.088892835   -2.8476329    1.5303822   439061 
 2067000     1.020719   -2.8481696   -2.8481696   -1.3170945  0.092399882   -2.8481696    1.5310751   439061 
 2068000    1.0219097    -2.849534    -2.849534   -1.3166729   0.08769069    -2.849534    1.5328611   439061 
 2069000    1.0204933    -2.846935    -2.846935   -1.3161985  0.090187622    -2.846935    1.5307365   439061 
 2070000    1.0196012   -2.8455015   -2.8455015   -1.3161031  0.094696081   -2.8455015    1.5293984   439061 
 2071000    1.0214706   -2.8481646   -2.8481646   -1.3159622  0.095391372   -2.8481646    1.5322024   439061 
 2072000    1.0198314   -2.8482872   -2.8482872   -1.3185436  0.093327467   -2.8482872    1.5297436   439061 
 2073000    1.0196702   -2.8489762   -2.8489762   -1.3194744  0.086947541   -2.8489762    1.5295018   439061 
 2074000    1.0201682   -2.8495959   -2.8495959   -1.3193471  0.088103438   -2.8495959    1.5302488   439061 
 2075000    1.0208779   -2.8507388   -2.8507388   -1.3194255  0.093953145   -2.8507388    1.5313133   439061 
 2076000    1.0200157   -2.8482557   -2.8482557   -1.3182357  0.093876485   -2.8482557    1.5300201   439061 
 2077000    1.0219157   -2.8502877   -2.8502877   -1.3174176  0.093340568   -2.8502877      1.53287   439061 
 2078000    1.0211014   -2.8493701   -2.8493701   -1.3177215    0.0911134   -2.8493701    1.5316486   439061 
 2079000     1.022019     -2.84946     -2.84946   -1.3164349  0.088837734     -2.84946    1.5330251   439061 
 2080000    1.0210391   -2.8484004   -2.8484004   -1.3168452  0.095154194   -2.8484004    1.5315552   439061 
 2081000     1.022068   -2.8507446   -2.8507446    -1.317646   0.09913261   -2.8507446    1.5330986   439061 
 2082000    1.0228331   -2.8521197   -2.8521197   -1.3178735  0.092003646   -2.8521197    1.5342462   439061 
 2083000     1.021712   -2.8507066   -2.8507066   -1.3181421  0.097540115   -2.8507066    1.5325645   439061 
 2084000    1.0235702   -2.8535204   -2.8535204   -1.3181686  0.090140544   -2.8535204    1.5353517   439061 
 2085000    1.0218979   -2.8510799   -2.8510799   -1.3182366  0.091781335   -2.8510799    1.5328433   439061 
 2086000    1.0229091   -2.8543288   -2.8543288   -1.3199686  0.093884258   -2.8543288    1.5343602   439061 
 2087000    1.0224328   -2.8537646   -2.8537646   -1.3201189   0.09117271   -2.8537646    1.5336457   439061 
 2088000    1.0217823   -2.8527216   -2.8527216   -1.3200516  0.093410949   -2.8527216      1.53267   439061 
 2089000    1.0210359   -2.8525979   -2.8525979   -1.3210475   0.09742632   -2.8525979    1.5315504   439061 
 2090000    1.0208998   -2.8516776   -2.8516776   -1.3203314  0.094212535   -2.8516776    1.5313463   439061 
 2091000    1.0213546   -2.8533592   -2.8533592   -1.3213308  0.089830191   -2.8533592    1.5320284   439061 
 2092000    1.0208158   -2.8521397   -2.8521397   -1.3209194  0.092934187   -2.8521397    1.5312203   439061 
 2093000    1.0210336   -2.8509671   -2.8509671   -1.3194202  0.099127594   -2.8509671    1.5315469   439061 
 2094000    1.0205527   -2.8515527   -2.8515527   -1.3207271   0.09325174   -2.8515527    1.5308256   439061 
 2095000    1.0215058   -2.8516609   -2.8516609   -1.3194057  0.091864794   -2.8516609    1.5322552   439061 
 2096000    1.0211767   -2.8514504   -2.8514504   -1.3196889  0.092098397   -2.8514504    1.5317615   439061 
 2097000    1.0198197   -2.8487595   -2.8487595   -1.3190334  0.092858234   -2.8487595    1.5297261   439061 
 2098000     1.020891   -2.8507668   -2.8507668   -1.3194337  0.091512843   -2.8507668    1.5313331   439061 
 2099000    1.0217083   -2.8526913   -2.8526913   -1.3201324  0.087299612   -2.8526913    1.5325589   439061 
 2100000    1.0197686   -2.8493967   -2.8493967   -1.3197472  0.088761595   -2.8493967    1.5296494   439061 
 2101000    1.0191315   -2.8479786   -2.8479786   -1.3192848  0.088102403   -2.8479786    1.5286938   439061 
 2102000    1.0201957   -2.8505217   -2.8505217   -1.3202316  0.088010925   -2.8505217    1.5302901   439061 
 2103000    1.0205248   -2.8519452   -2.8519452   -1.3211614  0.092344474   -2.8519452    1.5307838   439061 
 2104000    1.0209228    -2.850836    -2.850836   -1.3194553  0.089140488    -2.850836    1.5313807   439061 
 2105000     1.020854   -2.8506052   -2.8506052   -1.3193277  0.084977388   -2.8506052    1.5312775   439061 
 2106000    1.0194766   -2.8477232   -2.8477232   -1.3185118  0.091636263   -2.8477232    1.5292114   439061 
 2107000    1.0212963   -2.8494205   -2.8494205   -1.3174797  0.090037557   -2.8494205    1.5319409   439061 
 2108000    1.0185271   -2.8457378   -2.8457378   -1.3179507   0.09274029   -2.8457378    1.5277872   439061 
 2109000    1.0193615   -2.8483708   -2.8483708   -1.3193321  0.091228116   -2.8483708    1.5290388   439061 
 2110000    1.0193159   -2.8476659   -2.8476659   -1.3186955  0.092339482   -2.8476659    1.5289704   439061 
 2111000    1.0190994   -2.8478295   -2.8478295   -1.3191838  0.086820082   -2.8478295    1.5286457   439061 
 2112000    1.0198385   -2.8501274   -2.8501274   -1.3203732  0.091198162   -2.8501274    1.5297542   439061 
 2113000    1.0200256   -2.8498895   -2.8498895   -1.3198545  0.089337612   -2.8498895     1.530035   439061 
 2114000    1.0205351   -2.8505295   -2.8505295   -1.3197304  0.089017669   -2.8505295    1.5307991   439061 
 2115000     1.019345    -2.849128    -2.849128   -1.3201139   0.08961616    -2.849128    1.5290141   439061 
 2116000    1.0195254   -2.8501848   -2.8501848   -1.3209001  0.088314709   -2.8501848    1.5292846   439061 
 2117000    1.0208416   -2.8524318   -2.8524318   -1.3211728  0.087971279   -2.8524318    1.5312589   439061 
 2118000    1.0199749   -2.8517882   -2.8517882   -1.3218293  0.087716035   -2.8517882    1.5299589   439061 
 2119000    1.0216407   -2.8533962   -2.8533962   -1.3209387  0.087504563   -2.8533962    1.5324575   439061 
 2120000    1.0188191   -2.8486933   -2.8486933   -1.3204681  0.091800419   -2.8486933    1.5282252   439061 
 2121000    1.0213287   -2.8512234   -2.8512234   -1.3192339  0.087961265   -2.8512234    1.5319895   439061 
 2122000    1.0192153   -2.8488124   -2.8488124    -1.319993  0.096453513   -2.8488124    1.5288194   439061 
 2123000    1.0195364   -2.8507645   -2.8507645   -1.3214633  0.090043764   -2.8507645    1.5293011   439061 
 2124000    1.0211734   -2.8532417   -2.8532417   -1.3214851  0.090007009   -2.8532417    1.5317565   439061 
 2125000    1.0231325   -2.8565706   -2.8565706   -1.3218753  0.090200154   -2.8565706    1.5346953   439061 
 2126000    1.0211463   -2.8535766   -2.8535766   -1.3218606   0.08959949   -2.8535766     1.531716   439061 
 2127000    1.0224526   -2.8550172   -2.8550172   -1.3213418  0.093843712   -2.8550172    1.5336754   439061 
 2128000    1.0226799   -2.8554695   -2.8554695   -1.3214531  0.091217511   -2.8554695    1.5340164   439061 
 2129000    1.0222747    -2.854399    -2.854399   -1.3209904  0.092265907    -2.854399    1.5334086   439061 
 2130000    1.0220947    -2.854742    -2.854742   -1.3216034  0.094132156    -2.854742    1.5331386   439061 
 2131000    1.0219789   -2.8548723   -2.8548723   -1.3219075  0.087153471   -2.8548723    1.5329649   439061 
 2132000    1.0208132   -2.8546511   -2.8546511   -1.3234348  0.088671421   -2.8546511    1.5312163   439061 
 2133000    1.0219651   -2.8572345   -2.8572345   -1.3242904  0.084857984   -2.8572345    1.5329441   439061 
 2134000    1.0200088   -2.8539331   -2.8539331   -1.3239234  0.089952748   -2.8539331    1.5300097   439061 
 2135000    1.0179242   -2.8518532   -2.8518532   -1.3249703  0.095266396   -2.8518532    1.5268829   439061 
 2136000    1.0199281    -2.853669    -2.853669   -1.3237803  0.087781788    -2.853669    1.5298887   439061 
 2137000     1.018807   -2.8517489   -2.8517489    -1.323542  0.085197075   -2.8517489     1.528207   439061 
 2138000    1.0197671   -2.8541225   -2.8541225   -1.3244752  0.092040974   -2.8541225    1.5296472   439061 
 2139000    1.0188494   -2.8516406   -2.8516406     -1.32337  0.089513358   -2.8516406    1.5282706   439061 
 2140000    1.0186182   -2.8512534   -2.8512534   -1.3233296  0.087485073   -2.8512534    1.5279238   439061 
 2141000    1.0196411   -2.8529316   -2.8529316   -1.3234735  0.091944597   -2.8529316    1.5294581   439061 
 2142000    1.0193374    -2.849777    -2.849777   -1.3207743  0.093276113    -2.849777    1.5290026   439061 
 2143000    1.0202453   -2.8515822   -2.8515822   -1.3212177  0.091024227   -2.8515822    1.5303645   439061 
 2144000    1.0181569    -2.849398    -2.849398   -1.3221662  0.089110451    -2.849398    1.5272318   439061 
 2145000    1.0208629    -2.854172    -2.854172   -1.3228812  0.086402972    -2.854172    1.5312908   439061 
 2146000    1.0205772   -2.8541561   -2.8541561   -1.3232938  0.090912182   -2.8541561    1.5308623   439061 
 2147000    1.0206224   -2.8523162   -2.8523162   -1.3213862  0.087790517   -2.8523162    1.5309301   439061 
 2148000    1.0191948   -2.8510116   -2.8510116   -1.3222229  0.090074919   -2.8510116    1.5287888   439061 
 2149000    1.0187914   -2.8515017   -2.8515017   -1.3233181  0.092321525   -2.8515017    1.5281836   439061 
 2150000    1.0199114   -2.8524643   -2.8524643   -1.3226007  0.091348458   -2.8524643    1.5298636   439061 
 2151000    1.0192851   -2.8509272   -2.8509272    -1.322003  0.091310009   -2.8509272    1.5289242   439061 
 2152000    1.0197775   -2.8522422   -2.8522422   -1.3225794  0.090858172   -2.8522422    1.5296627   439061 
 2153000    1.0187936   -2.8523362   -2.8523362   -1.3241492   0.09076214   -2.8523362     1.528187   439061 
 2154000    1.0200843   -2.8547666   -2.8547666   -1.3246437  0.091084995   -2.8547666    1.5301229   439061 
 2155000    1.0207449   -2.8543856   -2.8543856   -1.3232718  0.092886048   -2.8543856    1.5311138   439061 
 2156000    1.0197429   -2.8535457   -2.8535457   -1.3239349  0.092063151   -2.8535457    1.5296108   439061 
 2157000    1.0209614   -2.8555345   -2.8555345   -1.3240959  0.089791199   -2.8555345    1.5314386   439061 
 2158000    1.0199373   -2.8535101   -2.8535101   -1.3236076   0.09072066   -2.8535101    1.5299025   439061 
 2159000    1.0200612   -2.8531849   -2.8531849   -1.3230966  0.090838677   -2.8531849    1.5300883   439061 
 2160000     1.021167   -2.8537268   -2.8537268   -1.3219799  0.093093642   -2.8537268     1.531747   439061 
 2161000    1.0199496   -2.8536085   -2.8536085   -1.3236876   0.09187886   -2.8536085    1.5299209   439061 
 2162000    1.0213437   -2.8554862   -2.8554862   -1.3234741  0.090913781   -2.8554862    1.5320121   439061 
 2163000    1.0201349   -2.8543246   -2.8543246   -1.3241257  0.090289563   -2.8543246    1.5301988   439061 
 2164000    1.0195173   -2.8535643   -2.8535643   -1.3242918  0.088004408   -2.8535643    1.5292725   439061 
 2165000    1.0211655    -2.857217    -2.857217   -1.3254722   0.09545373    -2.857217    1.5317448   439061 
 2166000    1.0202861   -2.8551155   -2.8551155   -1.3246898  0.092203485   -2.8551155    1.5304256   439061 
 2167000     1.020994   -2.8554992   -2.8554992   -1.3240117  0.096979992   -2.8554992    1.5314875   439061 
 2168000    1.0221181   -2.8565417   -2.8565417    -1.323368  0.090880189   -2.8565417    1.5331737   439061 
 2169000    1.0222176   -2.8566186   -2.8566186   -1.3232957  0.095616603   -2.8566186    1.5333229   439061 
 2170000    1.0212111   -2.8547389   -2.8547389   -1.3229257  0.092405055   -2.8547389    1.5318132   439061 
 2171000    1.0200713   -2.8531606   -2.8531606   -1.3230572  0.090194729   -2.8531606    1.5301034   439061 
 2172000    1.0187302   -2.8530381   -2.8530381   -1.3249464  0.095551044   -2.8530381    1.5280918   439061 
 2173000    1.0205269   -2.8553645   -2.8553645   -1.3245775  0.091863734   -2.8553645    1.5307869   439061 
 2174000     1.020314   -2.8554276   -2.8554276     -1.32496  0.093656222   -2.8554276    1.5304675   439061 
 2175000    1.0213757   -2.8566107   -2.8566107   -1.3245506  0.086204015   -2.8566107      1.53206   439061 
 2176000    1.0215721   -2.8565343   -2.8565343   -1.3241796   0.09328161   -2.8565343    1.5323547   439061 
 2177000    1.0209292   -2.8550978   -2.8550978   -1.3237075  0.085564426   -2.8550978    1.5313903   439061 
 2178000    1.0219229   -2.8573156   -2.8573156   -1.3244347  0.084240003   -2.8573156    1.5328809   439061 
 2179000    1.0203613   -2.8556751   -2.8556751   -1.3251367  0.092219789   -2.8556751    1.5305384   439061 
 2180000    1.0194846   -2.8546097   -2.8546097   -1.3253862  0.092943192   -2.8546097    1.5292235   439061 
 2181000    1.0206125   -2.8556336   -2.8556336   -1.3247184  0.091610187   -2.8556336    1.5309152   439061 
 2182000    1.0186655    -2.852257    -2.852257   -1.3242623  0.095672732    -2.852257    1.5279947   439061 
 2183000    1.0200971   -2.8550969   -2.8550969   -1.3249548  0.090706831   -2.8550969    1.5301421   439061 
 2184000    1.0196371   -2.8542077   -2.8542077   -1.3247556   0.09513075   -2.8542077    1.5294521   439061 
 2185000    1.0197991   -2.8542176   -2.8542176   -1.3245224  0.086915978   -2.8542176    1.5296952   439061 
 2186000    1.0192712   -2.8536195   -2.8536195   -1.3247161  0.091554795   -2.8536195    1.5289034   439061 
 2187000    1.0181508   -2.8518657   -2.8518657    -1.324643  0.090834481   -2.8518657    1.5272227   439061 
 2188000    1.0205003   -2.8554606   -2.8554606   -1.3247136   0.08698121   -2.8554606     1.530747   439061 
 2189000    1.0194661   -2.8533484   -2.8533484   -1.3241528   0.09361765   -2.8533484    1.5291956   439061 
 2190000    1.0201857   -2.8548619   -2.8548619   -1.3245868  0.087727326   -2.8548619     1.530275   439061 
 2191000    1.0199267   -2.8545301   -2.8545301   -1.3246435  0.090359967   -2.8545301    1.5298866   439061 
 2192000    1.0189132   -2.8541156   -2.8541156   -1.3257492  0.088360207   -2.8541156    1.5283664   439061 
 2193000    1.0177794   -2.8520126   -2.8520126    -1.325347  0.088288809   -2.8520126    1.5266656   439061 
 2194000    1.0208184   -2.8553448   -2.8553448   -1.3241207  0.086580323   -2.8553448    1.5312241   439061 
 2195000    1.0176852   -2.8526073   -2.8526073   -1.3260829  0.090841633   -2.8526073    1.5265243   439061 
 2196000    1.0189445    -2.854062    -2.854062   -1.3256487  0.087532077    -2.854062    1.5284133   439061 
 2197000    1.0195433    -2.855748    -2.855748   -1.3264364  0.089071401    -2.855748    1.5293115   439061 
 2198000    1.0190375   -2.8547317   -2.8547317   -1.3261789  0.086877339   -2.8547317    1.5285528   439061 
 2199000    1.0181907   -2.8556181   -2.8556181   -1.3283356   0.09227846   -2.8556181    1.5272825   439061 
 2200000    1.0179952   -2.8541657   -2.8541657   -1.3271764  0.092622326   -2.8541657    1.5269893   439061 
 2201000    1.0196062   -2.8569182   -2.8569182   -1.3275124  0.091436769   -2.8569182    1.5294059   439061 
 2202000    1.0177479   -2.8539716   -2.8539716   -1.3273532  0.085413969   -2.8539716    1.5266184   439061 
 2203000    1.0197258   -2.8569883   -2.8569883    -1.327403   0.08753197   -2.8569883    1.5295853   439061 
 2204000    1.0175401   -2.8544903   -2.8544903   -1.3281835  0.094680481   -2.8544903    1.5263067   439061 
 2205000    1.0189238   -2.8567514   -2.8567514   -1.3283692  0.095774374   -2.8567514    1.5283822   439061 
 2206000    1.0185499   -2.8559657   -2.8559657   -1.3281444  0.085162452   -2.8559657    1.5278213   439061 
 2207000    1.0196359   -2.8570339   -2.8570339   -1.3275835  0.092376277   -2.8570339    1.5294504   439061 
 2208000     1.019292   -2.8565783   -2.8565783   -1.3276437  0.090714223   -2.8565783    1.5289346   439061 
 2209000    1.0210322   -2.8592442   -2.8592442   -1.3276994  0.092352628   -2.8592442    1.5315449   439061 
 2210000    1.0197471   -2.8563567   -2.8563567   -1.3267395  0.091091211   -2.8563567    1.5296172   439061 
 2211000    1.0217276   -2.8598463   -2.8598463   -1.3272585  0.086909753   -2.8598463    1.5325878   439061 
 2212000    1.0190105   -2.8568831   -2.8568831   -1.3283708  0.093985052   -2.8568831    1.5285123   439061 
 2213000     1.021029   -2.8599274   -2.8599274   -1.3283873  0.092758699   -2.8599274    1.5315401   439061 
 2214000    1.0190794   -2.8590562   -2.8590562   -1.3304406  0.086585102   -2.8590562    1.5286156   439061 
 2215000    1.0180132   -2.8580913   -2.8580913    -1.331075  0.094259601   -2.8580913    1.5270163   439061 
 2216000    1.0190909   -2.8591338   -2.8591338    -1.330501  0.089493635   -2.8591338    1.5286328   439061 
 2217000    1.0194598   -2.8594789   -2.8594789   -1.3302927  0.090314788   -2.8594789    1.5291862   439061 
 2218000    1.0186175   -2.8585755   -2.8585755   -1.3306528  0.092616241   -2.8585755    1.5279227   439061 
 2219000    1.0194179   -2.8582955   -2.8582955   -1.3291722  0.091560713   -2.8582955    1.5291233   439061 
 2220000    1.0200219   -2.8584295   -2.8584295      -1.3284  0.089335856   -2.8584295    1.5300294   439061 
 2221000    1.0194117   -2.8578443   -2.8578443   -1.3287303  0.089689553   -2.8578443     1.529114   439061 
 2222000    1.0194706   -2.8587297   -2.8587297   -1.3295273   0.08858987   -2.8587297    1.5292024   439061 
 2223000    1.0193849    -2.857892    -2.857892   -1.3288181  0.082728208    -2.857892    1.5290739   439061 
 2224000    1.0214585   -2.8614248   -2.8614248   -1.3292406  0.090391186   -2.8614248    1.5321843   439061 
 2225000    1.0207084   -2.8591477   -2.8591477   -1.3280886  0.092017381   -2.8591477     1.531059   439061 
 2226000    1.0204375   -2.8591578   -2.8591578    -1.328505  0.088449151   -2.8591578    1.5306528   439061 
 2227000    1.0216388   -2.8610642   -2.8610642   -1.3286095  0.086049013   -2.8610642    1.5324548   439061 
 2228000    1.0200366    -2.858835    -2.858835   -1.3287836  0.093442641    -2.858835    1.5300514   439061 
 2229000    1.0208209   -2.8589509   -2.8589509   -1.3277231  0.092433465   -2.8589509    1.5312278   439061 
 2230000    1.0205311   -2.8578786   -2.8578786   -1.3270855  0.093857981   -2.8578786    1.5307931   439061 
 2231000    1.0203311   -2.8580023   -2.8580023   -1.3275091  0.093627255   -2.8580023    1.5304932   439061 
 2232000    1.0208139   -2.8566911   -2.8566911   -1.3254737   0.09115189   -2.8566911    1.5312174   439061 
 2233000    1.0209747   -2.8581869   -2.8581869   -1.3267284  0.092805098   -2.8581869    1.5314585   439061 
 2234000    1.0211398    -2.859112    -2.859112   -1.3274058  0.092175033    -2.859112    1.5317062   439061 
 2235000    1.0203846   -2.8587029   -2.8587029   -1.3281294   0.09478074   -2.8587029    1.5305735   439061 
 2236000    1.0211671   -2.8596234   -2.8596234   -1.3278762  0.089994747   -2.8596234    1.5317472   439061 
 2237000      1.02092   -2.8585267   -2.8585267   -1.3271502  0.091354982   -2.8585267    1.5313765   439061 
 2238000    1.0192856   -2.8575855   -2.8575855   -1.3286605  0.087567354   -2.8575855    1.5289249   439061 
 2239000    1.0189805   -2.8568541   -2.8568541   -1.3283868  0.090687134   -2.8568541    1.5284673   439061 
 2240000    1.0190336   -2.8567688   -2.8567688   -1.3282219  0.091781196   -2.8567688    1.5285469   439061 
 2241000      1.01996   -2.8575614   -2.8575614    -1.327625  0.086608197   -2.8575614    1.5299364   439061 
 2242000    1.0193575   -2.8570442   -2.8570442   -1.3280115  0.094100034   -2.8570442    1.5290328   439061 
 2243000    1.0197106   -2.8568094   -2.8568094    -1.327247  0.088234761   -2.8568094    1.5295625   439061 
 2244000    1.0179328   -2.8537228   -2.8537228   -1.3268271  0.090723378   -2.8537228    1.5268958   439061 
 2245000    1.0195381   -2.8584153   -2.8584153   -1.3291115   0.08748283   -2.8584153    1.5293037   439061 
 2246000    1.0188981   -2.8575001   -2.8575001   -1.3291565  0.088361742   -2.8575001    1.5283436   439061 
 2247000    1.0198974   -2.8576728   -2.8576728   -1.3278303  0.091022242   -2.8576728    1.5298426   439061 
 2248000    1.0198533   -2.8578857   -2.8578857   -1.3281093  0.094254624   -2.8578857    1.5297764   439061 
 2249000    1.0176425   -2.8559694   -2.8559694   -1.3295091  0.087256372   -2.8559694    1.5264603   439061 
 2250000    1.0196245   -2.8583102   -2.8583102    -1.328877  0.095394625   -2.8583102    1.5294332   439061 
 2251000    1.0186762   -2.8569076   -2.8569076   -1.3288968  0.086982798   -2.8569076    1.5280108   439061 
 2252000    1.0199527   -2.8584334   -2.8584334   -1.3285078  0.088386544   -2.8584334    1.5299256   439061 
 2253000    1.0212737   -2.8596166   -2.8596166   -1.3277095  0.086848524   -2.8596166    1.5319071   439061 
 2254000     1.020157   -2.8583592   -2.8583592   -1.3281272  0.093233227   -2.8583592     1.530232   439061 
 2255000    1.0201298   -2.8589259   -2.8589259   -1.3287346  0.093964235   -2.8589259    1.5301913   439061 
 2256000    1.0190955     -2.85667     -2.85667   -1.3280303  0.093357811     -2.85667    1.5286397   439061 
 2257000    1.0199031   -2.8584245   -2.8584245   -1.3285733   0.09470035   -2.8584245    1.5298512   439061 
 2258000    1.0205386   -2.8597189   -2.8597189   -1.3289145  0.088239513   -2.8597189    1.5308044   439061 
 2259000    1.0205719   -2.8598978   -2.8598978   -1.3290435  0.091951203   -2.8598978    1.5308543   439061 
 2260000    1.0187261    -2.858716    -2.858716   -1.3306304  0.093427425    -2.858716    1.5280856   439061 
 2261000    1.0196852   -2.8591465   -2.8591465   -1.3296221  0.094580291   -2.8591465    1.5295244   439061 
 2262000    1.0197149   -2.8590322   -2.8590322   -1.3294633  0.092116447   -2.8590322    1.5295689   439061 
 2263000    1.0197611   -2.8595903   -2.8595903   -1.3299521  0.088658228   -2.8595903    1.5296382   439061 
 2264000    1.0211105   -2.8619704   -2.8619704   -1.3303082  0.090147821   -2.8619704    1.5316623   439061 
 2265000    1.0201179   -2.8597322   -2.8597322   -1.3295588  0.092218144   -2.8597322    1.5301734   439061 
 2266000    1.0180415   -2.8579084   -2.8579084   -1.3308495  0.088392999   -2.8579084    1.5270588   439061 
 2267000    1.0197987   -2.8595605   -2.8595605    -1.329866  0.091202987   -2.8595605    1.5296945   439061 
 2268000    1.0178172   -2.8585614   -2.8585614    -1.331839   0.08875153   -2.8585614    1.5267224   439061 
 2269000    1.0187121   -2.8583973   -2.8583973   -1.3303327  0.088360131   -2.8583973    1.5280646   439061 
 2270000    1.0195588    -2.858828    -2.858828   -1.3294933  0.094264992    -2.858828    1.5293348   439061 
 2271000    1.0194014   -2.8602926   -2.8602926   -1.3311941  0.088926873   -2.8602926    1.5290985   439061 
 2272000     1.019788   -2.8598531   -2.8598531   -1.3301746  0.090525591   -2.8598531    1.5296785   439061 
 2273000    1.0185687    -2.858107    -2.858107   -1.3302575  0.087094663    -2.858107    1.5278495   439061 
 2274000    1.0182975   -2.8578694   -2.8578694   -1.3304266  0.094491965   -2.8578694    1.5274428   439061 
 2275000    1.0196985   -2.8585909   -2.8585909   -1.3290466  0.093492099   -2.8585909    1.5295443   439061 
 2276000    1.0204926    -2.858877    -2.858877   -1.3281416  0.095786622    -2.858877    1.5307354   439061 
 2277000    1.0213365   -2.8589371   -2.8589371   -1.3269358  0.085238419   -2.8589371    1.5320013   439061 
 2278000    1.0198856   -2.8570806   -2.8570806   -1.3272557  0.087845478   -2.8570806    1.5298249   439061 
 2279000    1.0191705   -2.8555511   -2.8555511   -1.3267988  0.095638535   -2.8555511    1.5287523   439061 
 2280000    1.0203143   -2.8564833   -2.8564833   -1.3260153  0.090434571   -2.8564833     1.530468   439061 
 2281000    1.0204208   -2.8574911   -2.8574911   -1.3268634  0.087657728   -2.8574911    1.5306277   439061 
 2282000    1.0194814   -2.8571098   -2.8571098   -1.3278911  0.091968241   -2.8571098    1.5292187   439061 
 2283000    1.0180733   -2.8552254   -2.8552254   -1.3281189  0.088034319   -2.8552254    1.5271065   439061 
 2284000    1.0197386   -2.8574478   -2.8574478   -1.3278434  0.091259785   -2.8574478    1.5296045   439061 
 2285000       1.0184   -2.8547477   -2.8547477   -1.3271511  0.088467463   -2.8547477    1.5275966   439061 
 2286000    1.0187877   -2.8552597   -2.8552597   -1.3270816  0.093029857   -2.8552597    1.5281781   439061 
 2287000    1.0184926   -2.8548987   -2.8548987   -1.3271633  0.091419175   -2.8548987    1.5277354   439061 
 2288000    1.0194488   -2.8558468   -2.8558468   -1.3266771   0.08858532   -2.8558468    1.5291697   439061 
 2289000    1.0183871   -2.8550919   -2.8550919   -1.3275147  0.085380672   -2.8550919    1.5275772   439061 
 2290000    1.0181154   -2.8543723   -2.8543723   -1.3272026  0.089102371   -2.8543723    1.5271697   439061 
 2291000    1.0182147   -2.8545689   -2.8545689   -1.3272503  0.082558445   -2.8545689    1.5273185   439061 
 2292000    1.0194002   -2.8562305   -2.8562305   -1.3271337  0.084826481   -2.8562305    1.5290968   439061 
 2293000     1.018684   -2.8542861   -2.8542861   -1.3262636  0.091936735   -2.8542861    1.5280226   439061 
 2294000    1.0181324    -2.855173    -2.855173   -1.3279779  0.087311928    -2.855173    1.5271951   439061 
 2295000    1.0188127   -2.8556065   -2.8556065   -1.3273909   0.08952639   -2.8556065    1.5282156   439061 
 2296000    1.0200565   -2.8585528   -2.8585528   -1.3284716  0.085813224   -2.8585528    1.5300812   439061 
 2297000    1.0209122   -2.8584417   -2.8584417    -1.327077  0.088104912   -2.8584417    1.5313647   439061 
 2298000     1.020456    -2.857236    -2.857236   -1.3265555   0.09016289    -2.857236    1.5306805   439061 
 2299000    1.0198036   -2.8569434   -2.8569434   -1.3272414  0.092103685   -2.8569434     1.529702   439061 
 2300000    1.0205781   -2.8570115   -2.8570115   -1.3261478  0.090624269   -2.8570115    1.5308637   439061 
 2301000    1.0222152   -2.8588396   -2.8588396   -1.3255203  0.087994665   -2.8588396    1.5333194   439061 
 2302000    1.0213377   -2.8585971   -2.8585971    -1.326594  0.087091523   -2.8585971    1.5320031   439061 
 2303000    1.0203781   -2.8573703   -2.8573703   -1.3268067  0.086085812   -2.8573703    1.5305636   439061 
 2304000     1.019849   -2.8576651   -2.8576651   -1.3278951   0.08892656   -2.8576651      1.52977   439061 
 2305000    1.0186631   -2.8575302   -2.8575302    -1.329539  0.093467507   -2.8575302    1.5279912   439061 
 2306000    1.0196109   -2.8584922   -2.8584922   -1.3290793  0.084292821   -2.8584922    1.5294129   439061 
 2307000    1.0187879   -2.8567935   -2.8567935   -1.3286151  0.091259916   -2.8567935    1.5281784   439061 
 2308000    1.0190131   -2.8585629   -2.8585629   -1.3300467  0.087688316   -2.8585629    1.5285162   439061 
 2309000    1.0187427   -2.8575263   -2.8575263   -1.3294156  0.088393531   -2.8575263    1.5281106   439061 
 2310000    1.0199343   -2.8591042   -2.8591042   -1.3292062  0.083573899   -2.8591042    1.5298979   439061 
 2311000    1.0191265   -2.8591163   -2.8591163     -1.33043  0.089228622   -2.8591163    1.5286863   439061 
 2312000    1.0190805   -2.8598006   -2.8598006   -1.3311833  0.086774596   -2.8598006    1.5286173   439061 
 2313000    1.0186508   -2.8588331   -2.8588331   -1.3308604  0.089913029   -2.8588331    1.5279727   439061 
 2314000    1.0201818    -2.862046    -2.862046   -1.3317768    0.0901615    -2.862046    1.5302693   439061 
 2315000    1.0174553   -2.8580711   -2.8580711   -1.3318916  0.093800182   -2.8580711    1.5261795   439061 
 2316000    1.0199331   -2.8605402   -2.8605402   -1.3306441  0.089446625   -2.8605402    1.5298961   439061 
 2317000    1.0202153   -2.8597156   -2.8597156   -1.3293961  0.088978761   -2.8597156    1.5303195   439061 
 2318000    1.0197499   -2.8599702   -2.8599702   -1.3303489  0.090633519   -2.8599702    1.5296213   439061 
 2319000    1.0191571   -2.8582548   -2.8582548   -1.3295226  0.091171633   -2.8582548    1.5287322   439061 
 2320000    1.0197899   -2.8600639   -2.8600639   -1.3303826  0.090725419   -2.8600639    1.5296814   439061 
 2321000    1.0201403   -2.8594414   -2.8594414   -1.3292345  0.085870891   -2.8594414    1.5302069   439061 
 2322000    1.0198105   -2.8603662   -2.8603662   -1.3306539  0.092213065   -2.8603662    1.5297123   439061 
 2323000    1.0208741   -2.8617334   -2.8617334   -1.3304257  0.090583233   -2.8617334    1.5313077   439061 
 2324000    1.0206575   -2.8613772   -2.8613772   -1.3303944  0.089689692   -2.8613772    1.5309828   439061 
 2325000    1.0202292   -2.8608925   -2.8608925   -1.3305521   0.08815946   -2.8608925    1.5303404   439061 
 2326000    1.0178064   -2.8600769   -2.8600769   -1.3333708  0.083492203   -2.8600769    1.5267061   439061 
 2327000    1.0196131   -2.8615568   -2.8615568   -1.3321407   0.09025117   -2.8615568    1.5294162   439061 
 2328000      1.01871    -2.860454    -2.860454   -1.3323925  0.092881616    -2.860454    1.5280615   439061 
 2329000    1.0191655   -2.8611286   -2.8611286   -1.3323838  0.092461407   -2.8611286    1.5287448   439061 
 2330000    1.0199676   -2.8617537   -2.8617537   -1.3318057  0.089097886   -2.8617537     1.529948   439061 
 2331000    1.0172109    -2.857813    -2.857813   -1.3320001  0.089334561    -2.857813    1.5258129   439061 
 2332000    1.0196487   -2.8610638   -2.8610638   -1.3315942  0.095812978   -2.8610638    1.5294696   439061 
 2333000    1.0190592   -2.8606886   -2.8606886   -1.3321033  0.094013576   -2.8606886    1.5285852   439061 
 2334000    1.0171552   -2.8589032   -2.8589032   -1.3331739  0.089983998   -2.8589032    1.5257293   439061 
 2335000    1.0191271   -2.8611379   -2.8611379   -1.3324508  0.089453553   -2.8611379    1.5286871   439061 
 2336000    1.0173414   -2.8597738   -2.8597738   -1.3337652  0.089787609   -2.8597738    1.5260086   439061 
 2337000    1.0183674   -2.8614706   -2.8614706   -1.3339229  0.088881899   -2.8614706    1.5275477   439061 
 2338000    1.0183017   -2.8601978   -2.8601978   -1.3327487  0.090108368   -2.8601978    1.5274491   439061 
 2339000    1.0173494   -2.8607855   -2.8607855   -1.3347649  0.085520319   -2.8607855    1.5260206   439061 
 2340000    1.0168498   -2.8594238   -2.8594238   -1.3341526  0.089800083   -2.8594238    1.5252712   439061 
 2341000    1.0182732    -2.860771    -2.860771   -1.3333647  0.083180865    -2.860771    1.5274064   439061 
 2342000    1.0179371   -2.8594061   -2.8594061    -1.332504  0.090053963   -2.8594061    1.5269021   439061 
 2343000    1.0185502   -2.8604329   -2.8604329   -1.3326111  0.091696995   -2.8604329    1.5278218   439061 
 2344000    1.0189135   -2.8601081   -2.8601081   -1.3317414  0.088313178   -2.8601081    1.5283668   439061 
 2345000    1.0188886   -2.8617789   -2.8617789   -1.3334495  0.091866707   -2.8617789    1.5283294   439061 
 2346000    1.0198089   -2.8624733   -2.8624733   -1.3327634  0.088895023   -2.8624733    1.5297099   439061 
 2347000    1.0205392   -2.8632604   -2.8632604    -1.332455  0.089303093   -2.8632604    1.5308053   439061 
 2348000    1.0204786   -2.8632516   -2.8632516   -1.3325373  0.087747182   -2.8632516    1.5307144   439061 
 2349000    1.0189357     -2.86095     -2.86095     -1.33255  0.092249789     -2.86095       1.5284   439061 
 2350000    1.0190179    -2.861447    -2.861447   -1.3329237  0.090815933    -2.861447    1.5285233   439061 
 2351000    1.0186136   -2.8616892   -2.8616892   -1.3337722   0.08566378   -2.8616892    1.5279169   439061 
 2352000    1.0179052    -2.861827    -2.861827   -1.3349727  0.084028294    -2.861827    1.5268543   439061 
 2353000    1.0191747   -2.8634081   -2.8634081   -1.3346495  0.090757908   -2.8634081    1.5287586   439061 
 2354000    1.0190506   -2.8635565   -2.8635565    -1.334984  0.085233726   -2.8635565    1.5285725   439061 
 2355000    1.0189437   -2.8623631   -2.8623631    -1.333951  0.089224256   -2.8623631    1.5284121   439061 
 2356000    1.0191142   -2.8633112   -2.8633112   -1.3346434   0.08468129   -2.8633112    1.5286678   439061 
 2357000    1.0205107   -2.8650363   -2.8650363   -1.3342737  0.091523178   -2.8650363    1.5307626   439061 
 2358000    1.0187145   -2.8642608   -2.8642608   -1.3361925  0.088520585   -2.8642608    1.5280683   439061 
 2359000    1.0176392   -2.8615945   -2.8615945   -1.3351392  0.095143158   -2.8615945    1.5264553   439061 
 2360000    1.0176805   -2.8615621   -2.8615621   -1.3350448  0.091198143   -2.8615621    1.5265172   439061 
 2361000    1.0200139   -2.8655746   -2.8655746   -1.3355572  0.084277579   -2.8655746    1.5300174   439061 
 2362000    1.0192779   -2.8636135   -2.8636135   -1.3347002  0.091061237   -2.8636135    1.5289134   439061 
 2363000    1.0202868   -2.8645355   -2.8645355   -1.3341089  0.084239408   -2.8645355    1.5304266   439061 
 2364000    1.0203473   -2.8645062   -2.8645062   -1.3339887   0.08673857   -2.8645062    1.5305174   439061 
 2365000    1.0198281    -2.865205    -2.865205   -1.3354663  0.085078896    -2.865205    1.5297386   439061 
 2366000     1.017567   -2.8607401   -2.8607401   -1.3343931  0.095659489   -2.8607401     1.526347   439061 
 2367000    1.0179516   -2.8629983   -2.8629983   -1.3360744  0.088536702   -2.8629983    1.5269239   439061 
 2368000    1.0190112   -2.8633477   -2.8633477   -1.3348345  0.088348833   -2.8633477    1.5285133   439061 
 2369000     1.020035   -2.8665937   -2.8665937   -1.3365447  0.090333658   -2.8665937     1.530049   439061 
 2370000    1.0203795   -2.8657195   -2.8657195   -1.3351537  0.088050736   -2.8657195    1.5305658   439061 
 2371000    1.0202674   -2.8657366   -2.8657366    -1.335339  0.088949503   -2.8657366    1.5303976   439061 
 2372000    1.0197742   -2.8655742   -2.8655742   -1.3359164  0.092729705   -2.8655742    1.5296578   439061 
 2373000    1.0193947   -2.8649777   -2.8649777   -1.3358891  0.093618613   -2.8649777    1.5290886   439061 
 2374000    1.0216488   -2.8670781   -2.8670781   -1.3346085  0.091151942   -2.8670781    1.5324697   439061 
 2375000    1.0209728   -2.8656216   -2.8656216   -1.3341659  0.093339325   -2.8656216    1.5314557   439061 
 2376000    1.0199983   -2.8652365   -2.8652365   -1.3352425  0.086518731   -2.8652365     1.529994   439061 
 2377000    1.0206271   -2.8670386   -2.8670386   -1.3361015  0.088415895   -2.8670386    1.5309372   439061 
 2378000    1.0179172   -2.8620645   -2.8620645   -1.3351921  0.095109396   -2.8620645    1.5268724   439061 
 2379000    1.0185026   -2.8634968   -2.8634968   -1.3357465  0.088546802   -2.8634968    1.5277504   439061 
 2380000    1.0204719   -2.8652793   -2.8652793    -1.334575  0.091436154   -2.8652793    1.5307043   439061 
 2381000     1.019368   -2.8639678   -2.8639678   -1.3349192  0.088257401   -2.8639678    1.5290486   439061 
 2382000    1.0174337   -2.8623056   -2.8623056   -1.3361584  0.085243222   -2.8623056    1.5261471   439061 
 2383000    1.0175038   -2.8619128   -2.8619128   -1.3356606  0.087462108   -2.8619128    1.5262522   439061 
 2384000    1.0190391    -2.862669    -2.862669   -1.3341138  0.086038011    -2.862669    1.5285552   439061 
 2385000    1.0199299   -2.8646715   -2.8646715   -1.3347802   0.08739016   -2.8646715    1.5298913   439061 
 2386000     1.019844   -2.8654938   -2.8654938   -1.3357313  0.082759849   -2.8654938    1.5297625   439061 
 2387000    1.0169755   -2.8612842   -2.8612842   -1.3358244  0.090124062   -2.8612842    1.5254598   439061 
 2388000    1.0169645    -2.860184    -2.860184   -1.3347407  0.092061926    -2.860184    1.5254433   439061 
 2389000    1.0183523   -2.8633357   -2.8633357   -1.3358108  0.086237095   -2.8633357    1.5275249   439061 
 2390000    1.0177849   -2.8626838   -2.8626838   -1.3360099  0.092350978   -2.8626838    1.5266739   439061 
 2391000     1.018283   -2.8626331   -2.8626331   -1.3352121  0.086463477   -2.8626331    1.5274211   439061 
 2392000     1.017894   -2.8623692   -2.8623692   -1.3355317  0.085217629   -2.8623692    1.5268375   439061 
 2393000    1.0184654   -2.8626158   -2.8626158   -1.3349212  0.084630695   -2.8626158    1.5276946   439061 
 2394000    1.0191746   -2.8635117   -2.8635117   -1.3347532   0.09087775   -2.8635117    1.5287585   439061 
 2395000    1.0184128   -2.8636253   -2.8636253   -1.3360096   0.08602631   -2.8636253    1.5276158   439061 
 2396000    1.0174614   -2.8622496   -2.8622496   -1.3360611   0.09137047   -2.8622496    1.5261886   439061 
 2397000    1.0184585   -2.8634555   -2.8634555   -1.3357713  0.088243378   -2.8634555    1.5276842   439061 
 2398000    1.0194454   -2.8641884   -2.8641884   -1.3350238  0.092099056   -2.8641884    1.5291646   439061 
 2399000    1.0183234   -2.8637692   -2.8637692   -1.3362875  0.093316117   -2.8637692    1.5274816   439061 
 2400000    1.0192844   -2.8648722   -2.8648722   -1.3359491  0.086439498   -2.8648722    1.5289232   439061 
 2401000    1.0181985   -2.8652106   -2.8652106   -1.3379163  0.089117916   -2.8652106    1.5272943   439061 
 2402000    1.0184237    -2.865927    -2.865927   -1.3382949  0.089423759    -2.865927    1.5276321   439061 
 2403000    1.0183388   -2.8661616   -2.8661616   -1.3386568  0.088242511   -2.8661616    1.5275048   439061 
 2404000    1.0173666   -2.8652423   -2.8652423   -1.3391958  0.089591641   -2.8652423    1.5260465   439061 
 2405000     1.017381   -2.8657223   -2.8657223   -1.3396542  0.085542819   -2.8657223    1.5260681   439061 
 2406000    1.0190719   -2.8665621   -2.8665621   -1.3379577  0.086799119   -2.8665621    1.5286044   439061 
 2407000     1.016013   -2.8635179   -2.8635179   -1.3395018   0.08818705   -2.8635179    1.5240161   439061 
 2408000    1.0179504   -2.8656282   -2.8656282   -1.3387061  0.095117775   -2.8656282    1.5269221   439061 
 2409000    1.0181079   -2.8656576   -2.8656576   -1.3384992  0.090583981   -2.8656576    1.5271583   439061 
 2410000    1.0176637   -2.8647633   -2.8647633   -1.3382712  0.087559328   -2.8647633    1.5264921   439061 
 2411000    1.0196837   -2.8672366   -2.8672366   -1.3377146  0.091139342   -2.8672366     1.529522   439061 
 2412000    1.0194595   -2.8667435   -2.8667435   -1.3375577  0.097154959   -2.8667435    1.5291858   439061 
 2413000    1.0197808   -2.8675081   -2.8675081   -1.3378403  0.086935384   -2.8675081    1.5296678   439061 
 2414000    1.0184359    -2.866037    -2.866037   -1.3383866  0.089978035    -2.866037    1.5276504   439061 
 2415000    1.0165032    -2.864309    -2.864309   -1.3395578  0.087582837    -2.864309    1.5247513   439061 
 2416000    1.0197111   -2.8670638   -2.8670638   -1.3375007  0.092190374   -2.8670638    1.5295631   439061 
 2417000    1.0198592   -2.8681854   -2.8681854   -1.3384001  0.087786086   -2.8681854    1.5297853   439061 
 2418000    1.0203385   -2.8696232   -2.8696232   -1.3391189    0.0911925   -2.8696232    1.5305043   439061 
 2419000    1.0190708   -2.8693565   -2.8693565   -1.3407538  0.083196352   -2.8693565    1.5286027   439061 
 2420000    1.0191723   -2.8683776   -2.8683776   -1.3396226  0.085874224   -2.8683776    1.5287549   439061 
 2421000    1.0193405    -2.869462    -2.869462   -1.3404547  0.091635904    -2.869462    1.5290073   439061 
 2422000    1.0201911   -2.8689509   -2.8689509   -1.3386678  0.086861306   -2.8689509    1.5302831   439061 
 2423000    1.0177825   -2.8678726   -2.8678726   -1.3412024  0.093096423   -2.8678726    1.5266702   439061 
 2424000    1.0176796   -2.8679129   -2.8679129   -1.3413971  0.087998853   -2.8679129    1.5265159   439061 
 2425000     1.017836   -2.8686282   -2.8686282   -1.3418776  0.085738681   -2.8686282    1.5267506   439061 
 2426000    1.0182255    -2.869057    -2.869057   -1.3417222  0.088836744    -2.869057    1.5273348   439061 
 2427000    1.0163898   -2.8671003   -2.8671003   -1.3425191  0.084774867   -2.8671003    1.5245813   439061 
 2428000    1.0181821    -2.870437    -2.870437   -1.3431674  0.084927458    -2.870437    1.5272696   439061 
 2429000    1.0170666   -2.8679044   -2.8679044    -1.342308  0.086011131   -2.8679044    1.5255964   439061 
 2430000    1.0160071   -2.8669339   -2.8669339   -1.3429267  0.091967086   -2.8669339    1.5240071   439061 
 2431000    1.0174543   -2.8697126   -2.8697126   -1.3435347  0.086688477   -2.8697126    1.5261779   439061 
 2432000    1.0180638   -2.8682754   -2.8682754   -1.3411832  0.090037113   -2.8682754    1.5270922   439061 
 2433000    1.0181365    -2.868489    -2.868489   -1.3412877  0.093661329    -2.868489    1.5272013   439061 
 2434000    1.0180253   -2.8674529   -2.8674529   -1.3404184  0.091860387   -2.8674529    1.5270345   439061 
 2435000    1.0187476    -2.868131    -2.868131   -1.3400132  0.088678609    -2.868131    1.5281179   439061 
 2436000     1.018398   -2.8687744   -2.8687744   -1.3411809  0.087615487   -2.8687744    1.5275935   439061 
 2437000    1.0186481   -2.8679734   -2.8679734   -1.3400047  0.089320163   -2.8679734    1.5279687   439061 
 2438000    1.0191973   -2.8692087   -2.8692087   -1.3404162  0.091223698   -2.8692087    1.5287925   439061 
 2439000    1.0181764   -2.8687019   -2.8687019   -1.3414408  0.089383474   -2.8687019    1.5272611   439061 
 2440000    1.0179516    -2.868272    -2.868272   -1.3413481  0.088948883    -2.868272    1.5269239   439061 
 2441000    1.0189735   -2.8688453   -2.8688453   -1.3403884  0.094411759   -2.8688453    1.5284568   439061 
 2442000    1.0168931   -2.8650545   -2.8650545   -1.3397182  0.087699835   -2.8650545    1.5253362   439061 
 2443000    1.0191841   -2.8686788   -2.8686788   -1.3399061  0.084085877   -2.8686788    1.5287727   439061 
 2444000    1.0172146   -2.8652403   -2.8652403   -1.3394218  0.093965158   -2.8652403    1.5258184   439061 
 2445000    1.0191127   -2.8661717   -2.8661717   -1.3375062  0.094976346   -2.8661717    1.5286656   439061 
 2446000    1.0199781   -2.8681541   -2.8681541   -1.3381903  0.088851404   -2.8681541    1.5299637   439061 
 2447000    1.0194756   -2.8682793   -2.8682793   -1.3390693  0.089695026   -2.8682793      1.52921   439061 
 2448000    1.0190427   -2.8668184   -2.8668184   -1.3382579  0.087674773   -2.8668184    1.5285606   439061 
 2449000    1.0184065   -2.8670847   -2.8670847   -1.3394784  0.088249799   -2.8670847    1.5276063   439061 
 2450000    1.0190683   -2.8673851   -2.8673851   -1.3387862  0.093103811   -2.8673851     1.528599   439061 
 2451000     1.018755   -2.8674454   -2.8674454   -1.3393163  0.092717505   -2.8674454     1.528129   439061 
 2452000    1.0198111   -2.8682713   -2.8682713    -1.338558  0.087472469   -2.8682713    1.5297132   439061 
 2453000    1.0181142   -2.8675823   -2.8675823   -1.3404144  0.087083358   -2.8675823    1.5271679   439061 
 2454000    1.0187537   -2.8673536   -2.8673536   -1.3392266  0.089060739   -2.8673536     1.528127   439061 
 2455000    1.0193819   -2.8674994   -2.8674994     -1.33843  0.088592527   -2.8674994    1.5290694   439061 
 2456000    1.0186308   -2.8676793   -2.8676793   -1.3397366  0.088526486   -2.8676793    1.5279427   439061 
 2457000    1.0174162   -2.8672002   -2.8672002   -1.3410795   0.08870889   -2.8672002    1.5261208   439061 
 2458000    1.0184174   -2.8677771   -2.8677771   -1.3401545  0.084238687   -2.8677771    1.5276226   439061 
 2459000     1.015717   -2.8640517   -2.8640517   -1.3404796  0.087743061   -2.8640517    1.5235721   439061 
 2460000    1.0178925   -2.8672907   -2.8672907   -1.3404555  0.091595756   -2.8672907    1.5268352   439061 
 2461000    1.0163304   -2.8667871   -2.8667871   -1.3422949  0.085795107   -2.8667871    1.5244922   439061 
 2462000    1.0161184   -2.8646971   -2.8646971   -1.3405229  0.089908259   -2.8646971    1.5241742   439061 
 2463000    1.0154815   -2.8650256   -2.8650256   -1.3418068  0.091979052   -2.8650256    1.5232188   439061 
 2464000    1.0172226   -2.8669168   -2.8669168   -1.3410863  0.088299387   -2.8669168    1.5258304   439061 
 2465000    1.0179641    -2.869063    -2.869063   -1.3421203  0.087540967    -2.869063    1.5269426   439061 
 2466000    1.0182791   -2.8701552   -2.8701552     -1.34274  0.086237064   -2.8701552    1.5274152   439061 
 2467000    1.0166737   -2.8674743   -2.8674743   -1.3424672  0.089383244   -2.8674743    1.5250071   439061 
 2468000    1.0188631   -2.8697849   -2.8697849   -1.3414937  0.084343182   -2.8697849    1.5282911   439061 
 2469000    1.0183944   -2.8686615   -2.8686615   -1.3410733  0.088834299   -2.8686615    1.5275882   439061 
 2470000    1.0183931   -2.8686792   -2.8686792    -1.341093  0.091285771   -2.8686792    1.5275862   439061 
 2471000    1.0183502   -2.8708837   -2.8708837   -1.3433618  0.088893357   -2.8708837    1.5275219   439061 
 2472000    1.0191103   -2.8713911   -2.8713911   -1.3427291  0.088545314   -2.8713911     1.528662   439061 
 2473000    1.0179957   -2.8703778   -2.8703778   -1.3433877  0.087822078   -2.8703778    1.5269901   439061 
 2474000    1.0189558    -2.870895    -2.870895   -1.3424648  0.091457389    -2.870895    1.5284302   439061 
 2475000    1.0184839   -2.8697832   -2.8697832   -1.3420608  0.096554258   -2.8697832    1.5277224   439061 
 2476000    1.0193127   -2.8719688   -2.8719688   -1.3430033  0.093913639   -2.8719688    1.5289656   439061 
 2477000    1.0179535   -2.8702876   -2.8702876   -1.3433609  0.090398828   -2.8702876    1.5269267   439061 
 2478000    1.0181405   -2.8716093   -2.8716093   -1.3444021  0.089929713   -2.8716093    1.5272073   439061 
 2479000    1.0206335   -2.8730059   -2.8730059   -1.3420591  0.093398082   -2.8730059    1.5309468   439061 
 2480000    1.0182932    -2.871604    -2.871604   -1.3441677  0.089198633    -2.871604    1.5274363   439061 
 2481000    1.0181549   -2.8712235   -2.8712235   -1.3439947  0.088204194   -2.8712235    1.5272288   439061 
 2482000    1.0201887   -2.8721644   -2.8721644   -1.3418848  0.092053125   -2.8721644    1.5302796   439061 
 2483000    1.0182494   -2.8712756   -2.8712756   -1.3439051  0.088876073   -2.8712756    1.5273706   439061 
 2484000    1.0171514   -2.8710428   -2.8710428   -1.3453191  0.091794169   -2.8710428    1.5257237   439061 
 2485000    1.0170773   -2.8693226   -2.8693226   -1.3437101  0.088542561   -2.8693226    1.5256124   439061 
 2486000    1.0156889    -2.870362    -2.870362   -1.3468321  0.084855697    -2.870362    1.5235299   439061 
 2487000    1.0171983   -2.8721041   -2.8721041   -1.3463102  0.087553593   -2.8721041    1.5257939   439061 
 2488000    1.0165605   -2.8708347   -2.8708347   -1.3459974  0.088499259   -2.8708347    1.5248373   439061 
 2489000    1.0157533   -2.8704225   -2.8704225    -1.346796  0.087154357   -2.8704225    1.5236265   439061 
 2490000    1.0168393    -2.872827    -2.872827   -1.3475716  0.084467991    -2.872827    1.5252555   439061 
 2491000    1.0158527   -2.8702958   -2.8702958   -1.3465202  0.090146385   -2.8702958    1.5237756   439061 
 2492000    1.0159855   -2.8702887   -2.8702887   -1.3463139    0.0880708   -2.8702887    1.5239748   439061 
 2493000    1.0162203   -2.8695451   -2.8695451   -1.3452182  0.088434909   -2.8695451     1.524327   439061 
 2494000    1.0167228   -2.8694108   -2.8694108   -1.3443301  0.087056304   -2.8694108    1.5250807   439061 
 2495000    1.0192739   -2.8724005   -2.8724005    -1.343493  0.092091818   -2.8724005    1.5289074   439061 
 2496000    1.0183885   -2.8709872   -2.8709872   -1.3434079   0.08732317   -2.8709872    1.5275793   439061 
 2497000    1.0191051   -2.8715498   -2.8715498   -1.3428956    0.0829185   -2.8715498    1.5286542   439061 
 2498000    1.0180418   -2.8698359   -2.8698359   -1.3427767  0.083463882   -2.8698359    1.5270592   439061 
 2499000    1.0194412   -2.8725348   -2.8725348   -1.3433766  0.087569713   -2.8725348    1.5291583   439061 
 2500000    1.0178215   -2.8695929   -2.8695929   -1.3428642  0.093916059   -2.8695929    1.5267287   439061 
 2501000    1.0180115   -2.8683121   -2.8683121   -1.3412984  0.087839765   -2.8683121    1.5270137   439061 
 2502000      1.01802   -2.8684926   -2.8684926    -1.341466  0.094287102   -2.8684926    1.5270266   439061 
 2503000    1.0182498   -2.8689025   -2.8689025   -1.3415313  0.095563862   -2.8689025    1.5273712   439061 
 2504000    1.0179003   -2.8674449   -2.8674449    -1.340598  0.086938376   -2.8674449    1.5268469   439061 
 2505000    1.0177784   -2.8681074   -2.8681074   -1.3414433  0.089689656   -2.8681074    1.5266641   439061 
 2506000    1.0174396   -2.8673915   -2.8673915   -1.3412355  0.089761221   -2.8673915     1.526156   439061 
 2507000    1.0185921    -2.868331    -2.868331   -1.3404463  0.091656694    -2.868331    1.5278847   439061 
 2508000    1.0189681    -2.867553    -2.867553   -1.3391042  0.089405049    -2.867553    1.5284487   439061 
 2509000      1.01749   -2.8648197   -2.8648197   -1.3385882  0.089310157   -2.8648197    1.5262315   439061 
 2510000    1.0199194   -2.8684329   -2.8684329   -1.3385572  0.087545274   -2.8684329    1.5298757   439061 
 2511000     1.018672   -2.8673873   -2.8673873   -1.3393828  0.091342659   -2.8673873    1.5280045   439061 
 2512000    1.0176382   -2.8673247   -2.8673247   -1.3408709  0.093765445   -2.8673247    1.5264538   439061 
 2513000    1.0176146   -2.8666674   -2.8666674   -1.3402489  0.089869135   -2.8666674    1.5264185   439061 
 2514000    1.0180064   -2.8679197   -2.8679197   -1.3409136  0.090429328   -2.8679197    1.5270061   439061 
 2515000     1.017277   -2.8663931   -2.8663931   -1.3404811    0.0894954   -2.8663931     1.525912   439061 
 2516000     1.018096   -2.8673254   -2.8673254   -1.3401849  0.086729677   -2.8673254    1.5271406   439061 
 2517000     1.017222   -2.8669254   -2.8669254   -1.3410959  0.088677544   -2.8669254    1.5258295   439061 
 2518000    1.0170152   -2.8664969   -2.8664969   -1.3409775  0.092646455   -2.8664969    1.5255193   439061 
 2519000    1.0167861   -2.8658358   -2.8658358   -1.3406601  0.088807778   -2.8658358    1.5251757   439061 
 2520000    1.0167113   -2.8665683   -2.8665683   -1.3415048  0.084993081   -2.8665683    1.5250635   439061 
 2521000    1.0165886   -2.8663554   -2.8663554   -1.3414761  0.085834071   -2.8663554    1.5248794   439061 
 2522000    1.0155802   -2.8641348   -2.8641348   -1.3407679  0.089563522   -2.8641348    1.5233668   439061 
 2523000    1.0159852   -2.8654209   -2.8654209   -1.3414465  0.091124004   -2.8654209    1.5239743   439061 
 2524000    1.0168036   -2.8654655   -2.8654655   -1.3402636  0.091953579   -2.8654655    1.5252019   439061 
 2525000     1.017372   -2.8665109   -2.8665109   -1.3404563  0.087604298   -2.8665109    1.5260545   439061 
 2526000     1.017826   -2.8676163   -2.8676163   -1.3408807  0.088493839   -2.8676163    1.5267356   439061 
 2527000    1.0163482   -2.8653833   -2.8653833   -1.3408644  0.091050754   -2.8653833    1.5245189   439061 
 2528000    1.0180791   -2.8671724   -2.8671724   -1.3400572  0.090653577   -2.8671724    1.5271152   439061 
 2529000    1.0175024   -2.8663862   -2.8663862    -1.340136  0.087326566   -2.8663862    1.5262502   439061 
 2530000    1.0191081   -2.8691592   -2.8691592   -1.3405006  0.088637018   -2.8691592    1.5286586   439061 
 2531000    1.0181523   -2.8694065   -2.8694065   -1.3421816  0.090120673   -2.8694065    1.5272249   439061 
 2532000    1.0177188   -2.8691166   -2.8691166   -1.3425418  0.086121876   -2.8691166    1.5265748   439061 
 2533000    1.0181619   -2.8699611   -2.8699611   -1.3427218  0.090087218   -2.8699611    1.5272393   439061 
 2534000    1.0184218   -2.8696292   -2.8696292       -1.342   0.08674745   -2.8696292    1.5276293   439061 
 2535000    1.0172661    -2.867953    -2.867953   -1.3420573  0.090330259    -2.867953    1.5258957   439061 
 2536000    1.0169545    -2.869734    -2.869734   -1.3443057  0.088375798    -2.869734    1.5254283   439061 
 2537000    1.0185502   -2.8716168   -2.8716168   -1.3437949   0.09088868   -2.8716168    1.5278219   439061 
 2538000    1.0173453   -2.8710726   -2.8710726   -1.3450582  0.087832159   -2.8710726    1.5260144   439061 
 2539000    1.0171558   -2.8716495   -2.8716495   -1.3459194  0.092117052   -2.8716495    1.5257302   439061 
 2540000    1.0166347     -2.87275     -2.87275   -1.3478015  0.086071309     -2.87275    1.5249486   439061 
 2541000    1.0161296   -2.8727549   -2.8727549    -1.348564  0.086393742   -2.8727549    1.5241909   439061 
 2542000    1.0173533   -2.8731504   -2.8731504    -1.347124  0.090086065   -2.8731504    1.5260264   439061 
 2543000    1.0185668   -2.8732481   -2.8732481   -1.3454014  0.087168386   -2.8732481    1.5278468   439061 
 2544000     1.019077   -2.8745256   -2.8745256   -1.3459136  0.088747852   -2.8745256     1.528612   439061 
 2545000    1.0203026   -2.8768444   -2.8768444   -1.3463939  0.088873314   -2.8768444    1.5304505   439061 
 2546000    1.0195684   -2.8761438   -2.8761438   -1.3467947  0.085870085   -2.8761438    1.5293491   439061 
 2547000    1.0178558   -2.8732054   -2.8732054   -1.3464252  0.086581693   -2.8732054    1.5267802   439061 
 2548000    1.0179853   -2.8729723   -2.8729723   -1.3459978  0.090836863   -2.8729723    1.5269745   439061 
 2549000    1.0178108   -2.8738682   -2.8738682   -1.3471556  0.092843341   -2.8738682    1.5267127   439061 
 2550000    1.0181978   -2.8752655   -2.8752655   -1.3479722  0.087718845   -2.8752655    1.5272933   439061 
 2551000    1.0184575   -2.8757254   -2.8757254   -1.3480426  0.089188891   -2.8757254    1.5276827   439061 
 2552000    1.0189188   -2.8743152   -2.8743152   -1.3459405  0.089514781   -2.8743152    1.5283748   439061 
 2553000    1.0179843   -2.8737257   -2.8737257   -1.3467527  0.087743734   -2.8737257    1.5269729   439061 
 2554000    1.0193262   -2.8759273   -2.8759273   -1.3469415  0.094228498   -2.8759273    1.5289858   439061 
 2555000    1.0176995     -2.87272     -2.87272   -1.3461743  0.090980924     -2.87272    1.5265457   439061 
 2556000    1.0180661   -2.8728395   -2.8728395   -1.3457437  0.091649688   -2.8728395    1.5270957   439061 
 2557000    1.0182299   -2.8736988   -2.8736988   -1.3463575   0.09307532   -2.8736988    1.5273413   439061 
 2558000    1.0191232   -2.8746021   -2.8746021   -1.3459207  0.095108655   -2.8746021    1.5286814   439061 
 2559000    1.0187117    -2.871921    -2.871921    -1.343857  0.097543301    -2.871921     1.528064   439061 
 2560000    1.0185164   -2.8729257   -2.8729257   -1.3451546  0.085309417   -2.8729257    1.5277711   439061 
 2561000     1.017719    -2.872057    -2.872057    -1.345482  0.089232998    -2.872057     1.526575   439061 
 2562000    1.0199984   -2.8749851   -2.8749851    -1.344991  0.085506534   -2.8749851    1.5299941   439061 
 2563000    1.0176039    -2.871414    -2.871414   -1.3450115  0.092737308    -2.871414    1.5264024   439061 
 2564000    1.0169689     -2.87081     -2.87081   -1.3453601  0.088067206     -2.87081    1.5254499   439061 
 2565000    1.0176572   -2.8721369   -2.8721369   -1.3456546   0.09251086   -2.8721369    1.5264823   439061 
 2566000    1.0168923   -2.8713362   -2.8713362   -1.3460012   0.08572175   -2.8713362     1.525335   439061 
 2567000    1.0158331   -2.8690009   -2.8690009   -1.3452547  0.088037322   -2.8690009    1.5237462   439061 
 2568000    1.0167991    -2.870848    -2.870848   -1.3456529  0.087665905    -2.870848    1.5251951   439061 
 2569000    1.0159231   -2.8688189   -2.8688189   -1.3449377  0.086742929   -2.8688189    1.5238812   439061 
 2570000    1.0156644   -2.8690501   -2.8690501   -1.3455569  0.083712284   -2.8690501    1.5234932   439061 
 2571000    1.0169209   -2.8707373   -2.8707373   -1.3453594  0.087533436   -2.8707373    1.5253779   439061 
 2572000    1.0164257   -2.8685966   -2.8685966   -1.3439615   0.08518506   -2.8685966    1.5246351   439061 
 2573000    1.0174306   -2.8696505   -2.8696505   -1.3435081  0.084946683   -2.8696505    1.5261424   439061 
 2574000    1.0158734   -2.8678093   -2.8678093   -1.3440027  0.088057791   -2.8678093    1.5238066   439061 
 2575000    1.0159256   -2.8672549   -2.8672549   -1.3433699  0.085867077   -2.8672549     1.523885   439061 
 2576000    1.0159899   -2.8684784   -2.8684784    -1.344497  0.085612883   -2.8684784    1.5239814   439061 
 2577000    1.0177467   -2.8701545   -2.8701545   -1.3435379  0.085957559   -2.8701545    1.5266166   439061 
 2578000    1.0170146    -2.868485    -2.868485   -1.3429665  0.086665826    -2.868485    1.5255185   439061 
 2579000     1.016889   -2.8684858   -2.8684858   -1.3431557    0.0835369   -2.8684858    1.5253301   439061 
 2580000    1.0160184   -2.8680576   -2.8680576   -1.3440335  0.084902573   -2.8680576    1.5240241   439061 
 2581000    1.0151978   -2.8669912   -2.8669912    -1.344198  0.087909989   -2.8669912    1.5227932   439061 
 2582000    1.0164587   -2.8688489   -2.8688489   -1.3441643  0.083608068   -2.8688489    1.5246846   439061 
 2583000    1.0147077   -2.8664352   -2.8664352   -1.3443771  0.079929773   -2.8664352    1.5220581   439061 
 2584000    1.0148484   -2.8665647   -2.8665647   -1.3442955  0.086883823   -2.8665647    1.5222691   439061 
 2585000    1.0153913   -2.8681446   -2.8681446   -1.3450611   0.08316824   -2.8681446    1.5230835   439061 
 2586000    1.0147384   -2.8670005   -2.8670005   -1.3448964  0.085465828   -2.8670005    1.5221042   439061 
 2587000    1.0162751   -2.8679747   -2.8679747   -1.3435656  0.087927089   -2.8679747    1.5244091   439061 
 2588000    1.0165421   -2.8688031   -2.8688031   -1.3439934  0.085977322   -2.8688031    1.5248097   439061 
 2589000    1.0157443   -2.8685739   -2.8685739    -1.344961  0.086827662   -2.8685739    1.5236129   439061 
 2590000    1.0164059   -2.8685167   -2.8685167   -1.3439113  0.089309868   -2.8685167    1.5246054   439061 
 2591000    1.0188126   -2.8711414   -2.8711414    -1.342926  0.085982524   -2.8711414    1.5282154   439061 
 2592000    1.0168967   -2.8672525   -2.8672525   -1.3419109  0.092480726   -2.8672525    1.5253416   439061 
 2593000    1.0179911   -2.8691737   -2.8691737   -1.3421906  0.089947584   -2.8691737    1.5269831   439061 
 2594000     1.018019   -2.8706338   -2.8706338   -1.3436088  0.081443892   -2.8706338    1.5270251   439061 
 2595000    1.0163081   -2.8673561   -2.8673561   -1.3428974  0.089464001   -2.8673561    1.5244587   439061 
 2596000    1.0172494   -2.8694405   -2.8694405   -1.3435698  0.092551976   -2.8694405    1.5258707   439061 
 2597000    1.0188604   -2.8730288   -2.8730288   -1.3447416  0.084181355   -2.8730288    1.5282872   439061 
 2598000    1.0178364   -2.8730509   -2.8730509   -1.3462998  0.085003255   -2.8730509    1.5267511   439061 
 2599000    1.0183857   -2.8740118   -2.8740118   -1.3464367  0.087414273   -2.8740118    1.5275751   439061 
 2600000    1.0166516     -2.87182     -2.87182    -1.346846  0.088388436     -2.87182     1.524974   439061 
 2601000    1.0155953   -2.8685812   -2.8685812   -1.3451917  0.093235821   -2.8685812    1.5233895   439061 
 2602000    1.0169046   -2.8714899   -2.8714899   -1.3461365  0.084099079   -2.8714899    1.5253534   439061 
 2603000    1.0164532   -2.8712195   -2.8712195   -1.3465432  0.090986042   -2.8712195    1.5246763   439061 
 2604000    1.0169112   -2.8717003   -2.8717003   -1.3463369  0.086605307   -2.8717003    1.5253634   439061 
 2605000    1.0155532   -2.8703998   -2.8703998   -1.3470735  0.091580444   -2.8703998    1.5233263   439061 
 2606000    1.0173155   -2.8703693   -2.8703693   -1.3443995  0.089224314   -2.8703693    1.5259698   439061 
 2607000    1.0177274   -2.8721421   -2.8721421   -1.3455544  0.083500204   -2.8721421    1.5265877   439061 
 2608000    1.0176422   -2.8720509   -2.8720509   -1.3455911  0.089872045   -2.8720509    1.5264598   439061 
 2609000    1.0189917   -2.8736117   -2.8736117   -1.3451276  0.083188607   -2.8736117    1.5284841   439061 
 2610000    1.0186643   -2.8723078   -2.8723078   -1.3443149  0.087412903   -2.8723078    1.5279929   439061 
 2611000     1.019749    -2.873786    -2.873786    -1.344166   0.08764928    -2.873786      1.52962   439061 
 2612000    1.0193217   -2.8740518   -2.8740518   -1.3450727  0.082734246   -2.8740518    1.5289791   439061 
 2613000    1.0186492   -2.8726123   -2.8726123   -1.3446421  0.088109942   -2.8726123    1.5279703   439061 
 2614000    1.0179262    -2.872367    -2.872367   -1.3454812  0.092682709    -2.872367    1.5268858   439061 
 2615000    1.0172706   -2.8719211   -2.8719211   -1.3460186  0.087856886   -2.8719211    1.5259025   439061 
 2616000    1.0177287   -2.8736426   -2.8736426   -1.3470531  0.090144108   -2.8736426    1.5265895   439061 
 2617000    1.0160899     -2.87187     -2.87187   -1.3477386   0.09240183     -2.87187    1.5241314   439061 
 2618000    1.0166398   -2.8724402   -2.8724402    -1.347484  0.088935511   -2.8724402    1.5249563   439061 
 2619000    1.0180849   -2.8741668   -2.8741668   -1.3470428  0.088512048   -2.8741668    1.5271239   439061 
 2620000     1.017052   -2.8740022   -2.8740022   -1.3484276  0.089534189   -2.8740022    1.5255746   439061 
 2621000    1.0161345   -2.8731267   -2.8731267   -1.3489284  0.089992988   -2.8731267    1.5241982   439061 
 2622000    1.0184072   -2.8763212   -2.8763212   -1.3487138   0.08307415   -2.8763212    1.5276074   439061 
 2623000    1.0178908   -2.8752959   -2.8752959   -1.3484632  0.088197229   -2.8752959    1.5268327   439061 
 2624000    1.0163589   -2.8735765   -2.8735765   -1.3490415  0.085421949   -2.8735765    1.5245349   439061 
 2625000    1.0165875   -2.8739522   -2.8739522   -1.3490744  0.088122852   -2.8739522    1.5248778   439061 
 2626000    1.0168742   -2.8749812   -2.8749812   -1.3496734  0.085845658   -2.8749812    1.5253078   439061 
 2627000    1.0167854   -2.8742276   -2.8742276   -1.3490529  0.087098601   -2.8742276    1.5251747   439061 
 2628000    1.0179054   -2.8747195   -2.8747195   -1.3478648   0.08579064   -2.8747195    1.5268547   439061 
 2629000    1.0177117   -2.8751989   -2.8751989   -1.3486348  0.089832981   -2.8751989    1.5265641   439061 
 2630000    1.0169781   -2.8738566   -2.8738566   -1.3483929  0.092479553   -2.8738566    1.5254636   439061 
 2631000    1.0177213     -2.87497     -2.87497   -1.3483916  0.084015269     -2.87497    1.5265784   439061 
 2632000     1.017177   -2.8737557   -2.8737557   -1.3479937  0.083644699   -2.8737557     1.525762   439061 
 2633000    1.0167405   -2.8733865   -2.8733865   -1.3482792  0.092998619   -2.8733865    1.5251073   439061 
 2634000    1.0173357   -2.8737128   -2.8737128   -1.3477127  0.090193157   -2.8737128    1.5260001   439061 
 2635000    1.0173806   -2.8732384   -2.8732384    -1.347171  0.090210255   -2.8732384    1.5260674   439061 
 2636000    1.0184445   -2.8742734   -2.8742734   -1.3466101  0.084831551   -2.8742734    1.5276632   439061 
 2637000    1.0180312   -2.8744335   -2.8744335   -1.3473902  0.078614715   -2.8744335    1.5270433   439061 
 2638000    1.0183599   -2.8746054   -2.8746054    -1.347069  0.088654986   -2.8746054    1.5275364   439061 
 2639000    1.0170494   -2.8721533   -2.8721533   -1.3465827  0.089844466   -2.8721533    1.5255706   439061 
 2640000    1.0181718   -2.8745415   -2.8745415   -1.3472872  0.087382245   -2.8745415    1.5272542   439061 
 2641000    1.0183367   -2.8753472   -2.8753472   -1.3478456  0.089013271   -2.8753472    1.5275016   439061 
 2642000    1.0190483   -2.8763848   -2.8763848   -1.3478158  0.086046705   -2.8763848     1.528569   439061 
 2643000     1.016547   -2.8729268   -2.8729268   -1.3481097  0.087566358   -2.8729268    1.5248171   439061 
 2644000    1.0171956   -2.8742458   -2.8742458   -1.3484558  0.090288192   -2.8742458      1.52579   439061 
 2645000     1.018292   -2.8759097   -2.8759097   -1.3484751  0.086440765   -2.8759097    1.5274346   439061 
 2646000    1.0172537    -2.875085    -2.875085   -1.3492079   0.08490945    -2.875085     1.525877   439061 
 2647000    1.0162114   -2.8733953   -2.8733953   -1.3490817  0.082092327   -2.8733953    1.5243136   439061 
 2648000    1.0167673    -2.874845    -2.874845   -1.3496975  0.089135026    -2.874845    1.5251475   439061 
 2649000    1.0171899   -2.8746015   -2.8746015   -1.3488201  0.087943497   -2.8746015    1.5257814   439061 
 2650000    1.0170288   -2.8743043   -2.8743043   -1.3487645  0.089310143   -2.8743043    1.5255398   439061 
 2651000    1.0170068   -2.8749288   -2.8749288    -1.349422  0.082490256   -2.8749288    1.5255068   439061 
 2652000    1.0161935   -2.8757654   -2.8757654   -1.3514786  0.084366997   -2.8757654    1.5242868   439061 
 2653000    1.0159454   -2.8745308   -2.8745308   -1.3506162  0.087343936   -2.8745308    1.5239146   439061 
 2654000    1.0164128   -2.8759112   -2.8759112   -1.3512954  0.093999355   -2.8759112    1.5246158   439061 
 2655000    1.0166357   -2.8758265   -2.8758265   -1.3508765  0.087456824   -2.8758265    1.5249501   439061 
 2656000    1.0167585   -2.8754246   -2.8754246   -1.3502904  0.082180542   -2.8754246    1.5251342   439061 
 2657000    1.0171055   -2.8751994   -2.8751994   -1.3495447  0.083552167   -2.8751994    1.5256548   439061 
 2658000    1.0159396   -2.8743396   -2.8743396   -1.3504337  0.087166105   -2.8743396    1.5239059   439061 
 2659000    1.0181894   -2.8768893   -2.8768893   -1.3496087  0.086287703   -2.8768893    1.5272806   439061 
 2660000    1.0169685   -2.8744546   -2.8744546   -1.3490054  0.087047457   -2.8744546    1.5254492   439061 
 2661000    1.0169187   -2.8758257   -2.8758257   -1.3504511  0.086385499   -2.8758257    1.5253746   439061 
 2662000    1.0172069   -2.8758975   -2.8758975   -1.3500906  0.087424029   -2.8758975    1.5258069   439061 
 2663000    1.0167022   -2.8739871   -2.8739871   -1.3489373  0.087848091   -2.8739871    1.5250498   439061 
 2664000    1.0185848   -2.8761793   -2.8761793   -1.3483056  0.082849797   -2.8761793    1.5278738   439061 
 2665000    1.0173959   -2.8749587   -2.8749587   -1.3488683  0.089700007   -2.8749587    1.5260904   439061 
 2666000    1.0178288   -2.8764518   -2.8764518   -1.3497121  0.088106283   -2.8764518    1.5267397   439061 
 2667000    1.0177798   -2.8777969   -2.8777969   -1.3511307  0.090429025   -2.8777969    1.5266662   439061 
 2668000    1.0165864   -2.8769638   -2.8769638   -1.3520877  0.092374072   -2.8769638    1.5248762   439061 
 2669000     1.018496   -2.8802475   -2.8802475    -1.352507  0.084627449   -2.8802475    1.5277405   439061 
 2670000    1.0167233   -2.8768669   -2.8768669   -1.3517854  0.089852533   -2.8768669    1.5250815   439061 
 2671000    1.0175128   -2.8776532   -2.8776532   -1.3513876  0.088576403   -2.8776532    1.5262657   439061 
 2672000    1.0186453   -2.8799888   -2.8799888   -1.3520243  0.087638929   -2.8799888    1.5279645   439061 
 2673000    1.0172487   -2.8769492   -2.8769492   -1.3510796  0.090038436   -2.8769492    1.5258696   439061 
 2674000    1.0169797   -2.8784085   -2.8784085   -1.3529424  0.086190754   -2.8784085    1.5254661   439061 
 2675000    1.0157964   -2.8769966   -2.8769966   -1.3533054  0.090280794   -2.8769966    1.5236912   439061 
 2676000    1.0169881   -2.8800807   -2.8800807    -1.354602  0.085803834   -2.8800807    1.5254787   439061 
 2677000    1.0149333    -2.878584    -2.878584   -1.3561875  0.088373689    -2.878584    1.5223965   439061 
 2678000    1.0158484   -2.8788168   -2.8788168   -1.3550476  0.090700449   -2.8788168    1.5237692   439061 
 2679000    1.0162992   -2.8785764   -2.8785764   -1.3541311  0.090438276   -2.8785764    1.5244454   439061 
 2680000    1.0171391   -2.8802537   -2.8802537   -1.3545485  0.089727595   -2.8802537    1.5257052   439061 
 2681000    1.0169891   -2.8798406   -2.8798406   -1.3543604  0.089036811   -2.8798406    1.5254802   439061 
 2682000    1.0175163   -2.8796395   -2.8796395   -1.3533685  0.092855908   -2.8796395     1.526271   439061 
 2683000    1.0196079   -2.8827367   -2.8827367   -1.3533284  0.093153869   -2.8827367    1.5294083   439061 
 2684000    1.0187575   -2.8821488   -2.8821488   -1.3540161  0.086318951   -2.8821488    1.5281327   439061 
 2685000    1.0187115   -2.8825394   -2.8825394   -1.3544756  0.088217314   -2.8825394    1.5280637   439061 
 2686000    1.0194249   -2.8828084   -2.8828084   -1.3536745  0.089414311   -2.8828084    1.5291339   439061 
 2687000    1.0166606   -2.8800508   -2.8800508   -1.3550633  0.086754188   -2.8800508    1.5249874   439061 
 2688000      1.01883   -2.8818477   -2.8818477   -1.3536062  0.092570813   -2.8818477    1.5282416   439061 
 2689000    1.0185565   -2.8820621   -2.8820621   -1.3542308  0.085399808   -2.8820621    1.5278313   439061 
 2690000    1.0173145   -2.8808304   -2.8808304   -1.3548621  0.087025721   -2.8808304    1.5259683   439061 
 2691000    1.0166603   -2.8791463   -2.8791463   -1.3541593  0.091117327   -2.8791463     1.524987   439061 
 2692000    1.0179164   -2.8807055   -2.8807055   -1.3538344  0.090842191   -2.8807055    1.5268711   439061 
 2693000     1.017278   -2.8805395   -2.8805395    -1.354626  0.089785607   -2.8805395    1.5259135   439061 
 2694000    1.0168776   -2.8799143   -2.8799143   -1.3546013  0.086033414   -2.8799143     1.525313   439061 
 2695000    1.0173419   -2.8808128   -2.8808128   -1.3548033  0.086676272   -2.8808128    1.5260094   439061 
 2696000    1.0176437   -2.8807694   -2.8807694   -1.3543074  0.090214533   -2.8807694     1.526462   439061 
 2697000    1.0167468   -2.8794137   -2.8794137    -1.354297  0.091572654   -2.8794137    1.5251167   439061 
 2698000    1.0173824   -2.8818999   -2.8818999   -1.3558297  0.082782669   -2.8818999    1.5260701   439061 
 2699000    1.0161191   -2.8783755   -2.8783755   -1.3542003  0.093567702   -2.8783755    1.5241752   439061 
 2700000    1.0177209   -2.8818863   -2.8818863   -1.3553084   0.08586317   -2.8818863    1.5265779   439061 
 2701000    1.0169512   -2.8796082   -2.8796082   -1.3541849  0.086703966   -2.8796082    1.5254233   439061 
 2702000    1.0170166   -2.8792545   -2.8792545   -1.3537331  0.084340473   -2.8792545    1.5255214   439061 
 2703000    1.0184599   -2.8816352   -2.8816352   -1.3539488  0.090944633   -2.8816352    1.5276864   439061 
 2704000    1.0165573     -2.87851     -2.87851   -1.3536776  0.089001603     -2.87851    1.5248324   439061 
 2705000    1.0181402    -2.879764    -2.879764   -1.3525571  0.086250999    -2.879764    1.5272069   439061 
 2706000    1.0182308   -2.8798505   -2.8798505   -1.3525077  0.084324534   -2.8798505    1.5273428   439061 
 2707000     1.017955   -2.8805786   -2.8805786   -1.3536495  0.087162799   -2.8805786    1.5269291   439061 
 2708000    1.0180031    -2.880646    -2.880646   -1.3536449  0.083717015    -2.880646    1.5270011   439061 
 2709000    1.0167666   -2.8777145   -2.8777145   -1.3525681  0.088356049   -2.8777145    1.5251464   439061 
 2710000    1.0166683   -2.8776439   -2.8776439   -1.3526448  0.089635817   -2.8776439     1.524999   439061 
 2711000    1.0166528   -2.8775867   -2.8775867    -1.352611  0.089803065   -2.8775867    1.5249757   439061 
 2712000     1.017127   -2.8779367   -2.8779367   -1.3522496  0.089174829   -2.8779367    1.5256871   439061 
 2713000    1.0178739   -2.8797646   -2.8797646   -1.3529572  0.089910724   -2.8797646    1.5268074   439061 
 2714000    1.0175679   -2.8789262   -2.8789262   -1.3525778  0.085426771   -2.8789262    1.5263483   439061 
 2715000    1.0176535   -2.8783999   -2.8783999   -1.3519232  0.089148237   -2.8783999    1.5264767   439061 
 2716000    1.0172873   -2.8778811   -2.8778811   -1.3519536  0.088355048   -2.8778811    1.5259275   439061 
 2717000     1.017143   -2.8790902   -2.8790902   -1.3533792  0.091745225   -2.8790902     1.525711   439061 
 2718000     1.018998   -2.8815102   -2.8815102   -1.3530167  0.089790645   -2.8815102    1.5284935   439061 
 2719000    1.0175577   -2.8796905   -2.8796905   -1.3533574  0.085829615   -2.8796905    1.5263331   439061 
 2720000    1.0152858   -2.8785568   -2.8785568   -1.3556316  0.089433592   -2.8785568    1.5229253   439061 
 2721000    1.0162911   -2.8786302   -2.8786302    -1.354197  0.086025176   -2.8786302    1.5244332   439061 
 2722000    1.0165042   -2.8787419   -2.8787419   -1.3539891  0.090116469   -2.8787419    1.5247528   439061 
 2723000    1.0173906   -2.8809017   -2.8809017   -1.3548192  0.087014902   -2.8809017    1.5260825   439061 
 2724000    1.0174142   -2.8804917   -2.8804917   -1.3543738  0.090388122   -2.8804917    1.5261179   439061 
 2725000    1.0159322   -2.8781926   -2.8781926   -1.3542978  0.088710836   -2.8781926    1.5238948   439061 
 2726000    1.0156794   -2.8778828   -2.8778828   -1.3543672  0.082501352   -2.8778828    1.5235157   439061 
 2727000     1.017357   -2.8805595   -2.8805595   -1.3545275  0.089449563   -2.8805595     1.526032   439061 
 2728000    1.0174549   -2.8802218   -2.8802218   -1.3540429  0.093508851   -2.8802218    1.5261789   439061 
 2729000    1.0174999   -2.8815641   -2.8815641   -1.3553178  0.092899861   -2.8815641    1.5262463   439061 
 2730000    1.0166291   -2.8803139   -2.8803139   -1.3553738  0.086398485   -2.8803139    1.5249401   439061 
 2731000    1.0167422   -2.8810791   -2.8810791   -1.3559693    0.0917987   -2.8810791    1.5251098   439061 
 2732000    1.0161809   -2.8808949   -2.8808949    -1.356627  0.089809726   -2.8808949    1.5242679   439061 
 2733000    1.0170583   -2.8826693   -2.8826693   -1.3570854  0.089792869   -2.8826693    1.5255839   439061 
 2734000    1.0164363   -2.8810472   -2.8810472   -1.3563961  0.085520588   -2.8810472     1.524651   439061 
 2735000    1.0171672   -2.8821968   -2.8821968   -1.3564494  0.091801678   -2.8821968    1.5257474   439061 
 2736000     1.016178   -2.8807764   -2.8807764   -1.3565129  0.081778223   -2.8807764    1.5242635   439061 
 2737000    1.0147065    -2.878198    -2.878198   -1.3561417  0.087561663    -2.878198    1.5220563   439061 
 2738000    1.0169245   -2.8822284   -2.8822284   -1.3568452  0.087545909   -2.8822284    1.5253832   439061 
 2739000    1.0168434   -2.8819057   -2.8819057    -1.356644  0.092353967   -2.8819057    1.5252617   439061 
 2740000    1.0174669   -2.8810017   -2.8810017   -1.3548048  0.092012519   -2.8810017    1.5261969   439061 
 2741000    1.0164647   -2.8805488   -2.8805488   -1.3558552  0.087328808   -2.8805488    1.5246936   439061 
 2742000    1.0160067   -2.8802563   -2.8802563   -1.3562497  0.090324601   -2.8802563    1.5240066   439061 
 2743000    1.0176923   -2.8827062   -2.8827062   -1.3561712  0.083863742   -2.8827062     1.526535   439061 
 2744000    1.0170455   -2.8826766   -2.8826766   -1.3571118  0.086017917   -2.8826766    1.5255648   439061 
 2745000    1.0158096   -2.8808525   -2.8808525   -1.3571415  0.090274478   -2.8808525     1.523711   439061 
 2746000    1.0166915   -2.8816755   -2.8816755   -1.3566417  0.089705473   -2.8816755    1.5250338   439061 
 2747000    1.0169635   -2.8831549   -2.8831549   -1.3577132  0.088680666   -2.8831549    1.5254417   439061 
 2748000    1.0157826   -2.8799302   -2.8799302   -1.3562597  0.090701294   -2.8799302    1.5236705   439061 
 2749000    1.0178898   -2.8841833   -2.8841833    -1.357352  0.089481308   -2.8841833    1.5268313   439061 
 2750000    1.0166402   -2.8810214   -2.8810214   -1.3560645  0.091027836   -2.8810214    1.5249569   439061 
 2751000    1.0176182   -2.8821027   -2.8821027   -1.3556788  0.090544301   -2.8821027    1.5264238   439061 
 2752000    1.0166874   -2.8819207   -2.8819207   -1.3568931  0.090520729   -2.8819207    1.5250276   439061 
 2753000    1.0161672   -2.8824436   -2.8824436   -1.3581962  0.083282753   -2.8824436    1.5242473   439061 
 2754000    1.0168286   -2.8835072   -2.8835072   -1.3582678   0.08737504   -2.8835072    1.5252394   439061 
 2755000    1.0175413   -2.8856422   -2.8856422   -1.3593338  0.091148565   -2.8856422    1.5263084   439061 
 2756000    1.0171637   -2.8858507   -2.8858507   -1.3601086  0.082035324   -2.8858507    1.5257421   439061 
 2757000    1.0174001   -2.8845197   -2.8845197    -1.358423  0.091305611   -2.8845197    1.5260966   439061 
 2758000    1.0158422   -2.8833598   -2.8833598   -1.3595999  0.087846247   -2.8833598    1.5237599   439061 
 2759000     1.015804   -2.8830545   -2.8830545   -1.3593519  0.089921573   -2.8830545    1.5237026   439061 
 2760000    1.0151775    -2.883465    -2.883465   -1.3607022  0.088945253    -2.883465    1.5227627   439061 
 2761000    1.0168035   -2.8850419   -2.8850419   -1.3598401  0.085831361   -2.8850419    1.5252018   439061 
 2762000    1.0171457   -2.8843221   -2.8843221   -1.3586071  0.088190903   -2.8843221     1.525715   439061 
 2763000    1.0172065   -2.8855498   -2.8855498   -1.3597435  0.091271609   -2.8855498    1.5258063   439061 
 2764000    1.0155663   -2.8834997   -2.8834997   -1.3601537  0.085941677   -2.8834997     1.523346   439061 
 2765000     1.015514   -2.8855492   -2.8855492   -1.3622817  0.082198564   -2.8855492    1.5232675   439061 
 2766000    1.0155194   -2.8856478   -2.8856478   -1.3623722  0.091784772   -2.8856478    1.5232756   439061 
 2767000    1.0179897   -2.8880312   -2.8880312     -1.36105  0.089353991   -2.8880312    1.5269811   439061 
 2768000    1.0174309   -2.8853374   -2.8853374   -1.3591945  0.084844669   -2.8853374    1.5261429   439061 
 2769000    1.0179399   -2.8872158   -2.8872158   -1.3603095  0.091512705   -2.8872158    1.5269064   439061 
 2770000    1.0169529    -2.886031    -2.886031   -1.3606051  0.086691157    -2.886031    1.5254259   439061 
 2771000    1.0184327   -2.8874329   -2.8874329   -1.3597874  0.088043156   -2.8874329    1.5276455   439061 
 2772000    1.0170261   -2.8851721   -2.8851721   -1.3596364  0.090399464   -2.8851721    1.5255356   439061 
 2773000    1.0173546   -2.8852717   -2.8852717   -1.3592433  0.092161072   -2.8852717    1.5260284   439061 
 2774000    1.0177553   -2.8852725   -2.8852725    -1.358643  0.089346266   -2.8852725    1.5266295   439061 
 2775000    1.0174442   -2.8845751   -2.8845751   -1.3584122  0.092269593   -2.8845751    1.5261629   439061 
 2776000    1.0185436   -2.8860254   -2.8860254   -1.3582135  0.089026689   -2.8860254    1.5278119   439061 
 2777000    1.0169087   -2.8857409   -2.8857409   -1.3603813  0.090644162   -2.8857409    1.5253596   439061 
 2778000    1.0169893   -2.8871171   -2.8871171   -1.3616365  0.081205771   -2.8871171    1.5254805   439061 
 2779000    1.0155153   -2.8854061   -2.8854061   -1.3621367  0.086654757   -2.8854061    1.5232695   439061 
 2780000    1.0149852   -2.8829343   -2.8829343   -1.3604599  0.090061178   -2.8829343    1.5224744   439061 
 2781000    1.0166411   -2.8862251   -2.8862251   -1.3612669   0.08657144   -2.8862251    1.5249582   439061 
 2782000    1.0152672   -2.8834211   -2.8834211   -1.3605239   0.09354778   -2.8834211    1.5228973   439061 
 2783000    1.0161613   -2.8840094   -2.8840094   -1.3597709  0.091590918   -2.8840094    1.5242385   439061 
 2784000     1.016126   -2.8847825   -2.8847825   -1.3605969  0.089178626   -2.8847825    1.5241856   439061 
 2785000     1.017451   -2.8865354   -2.8865354   -1.3603623  0.080121305   -2.8865354    1.5261731   439061 
 2786000    1.0168836   -2.8846914   -2.8846914   -1.3593695  0.087694156   -2.8846914    1.5253219   439061 
 2787000    1.0166745   -2.8840131   -2.8840131   -1.3590048  0.082379227   -2.8840131    1.5250083   439061 
 2788000    1.0164341   -2.8840168   -2.8840168    -1.359369  0.091906773   -2.8840168    1.5246477   439061 
 2789000     1.016294   -2.8829946   -2.8829946   -1.3585571  0.085697093   -2.8829946    1.5244375   439061 
 2790000    1.0167424   -2.8837732   -2.8837732    -1.358663  0.085385633   -2.8837732    1.5251102   439061 
 2791000    1.0151221   -2.8822852   -2.8822852   -1.3596055  0.089633526   -2.8822852    1.5226797   439061 
 2792000    1.0146705   -2.8826684   -2.8826684   -1.3606661  0.089001849   -2.8826684    1.5220023   439061 
 2793000    1.0152852   -2.8835922   -2.8835922   -1.3606679  0.088753355   -2.8835922    1.5229243   439061 
 2794000    1.0159219   -2.8843151   -2.8843151   -1.3604358  0.089127056   -2.8843151    1.5238793   439061 
 2795000    1.0137852   -2.8821852   -2.8821852   -1.3615109  0.087388525   -2.8821852    1.5206743   439061 
 2796000    1.0155879   -2.8837989   -2.8837989   -1.3604205  0.088322824   -2.8837989    1.5233784   439061 
 2797000    1.0160612   -2.8847619   -2.8847619   -1.3606736  0.085373439   -2.8847619    1.5240883   439061 
 2798000    1.0165543   -2.8852946   -2.8852946   -1.3604666  0.086755737   -2.8852946     1.524828   439061 
 2799000    1.0159263   -2.8844845   -2.8844845   -1.3605985  0.084962265   -2.8844845    1.5238859   439061 
 2800000    1.0164625   -2.8846489   -2.8846489   -1.3599586  0.085462276   -2.8846489    1.5246903   439061 
 2801000    1.0155811   -2.8829424   -2.8829424   -1.3595742  0.087443726   -2.8829424    1.5233682   439061 
 2802000    1.0164838   -2.8852016   -2.8852016   -1.3604794  0.086648751   -2.8852016    1.5247222   439061 
 2803000    1.0155868   -2.8830022   -2.8830022   -1.3596254  0.084374845   -2.8830022    1.5233767   439061 
 2804000      1.01475   -2.8822563   -2.8822563   -1.3601348  0.090046056   -2.8822563    1.5221215   439061 
 2805000    1.0164659   -2.8847167   -2.8847167   -1.3600213  0.083285499   -2.8847167    1.5246954   439061 
 2806000    1.0158476   -2.8841414   -2.8841414   -1.3603736  0.086146817   -2.8841414    1.5237679   439061 
 2807000    1.0159618   -2.8845389   -2.8845389   -1.3605996  0.086802906   -2.8845389    1.5239393   439061 
 2808000    1.0143309    -2.883313    -2.883313   -1.3618201  0.083884232    -2.883313    1.5214929   439061 
 2809000    1.0154117   -2.8829169   -2.8829169   -1.3598027  0.087364318   -2.8829169    1.5231141   439061 
 2810000    1.0156874    -2.885327    -2.885327   -1.3617994  0.088525024    -2.885327    1.5235277   439061 
 2811000    1.0160516   -2.8852419   -2.8852419   -1.3611681  0.089522875   -2.8852419    1.5240739   439061 
 2812000    1.0151496    -2.885438    -2.885438   -1.3627171  0.083817597    -2.885438    1.5227209   439061 
 2813000    1.0134378   -2.8822966   -2.8822966   -1.3621433  0.086048882   -2.8822966    1.5201532   439061 
 2814000    1.0150531   -2.8846609   -2.8846609   -1.3620848  0.085423976   -2.8846609    1.5225761   439061 
 2815000    1.0166749   -2.8854253   -2.8854253   -1.3604164  0.083786888   -2.8854253    1.5250089   439061 
 2816000    1.0153742    -2.884784    -2.884784   -1.3617262  0.090291034    -2.884784    1.5230579   439061 
 2817000    1.0159061   -2.8865009   -2.8865009   -1.3626452  0.092099897   -2.8865009    1.5238557   439061 
 2818000    1.0165366   -2.8870807   -2.8870807   -1.3622793  0.087420213   -2.8870807    1.5248014   439061 
 2819000    1.0167084   -2.8864869   -2.8864869   -1.3614279  0.086375285   -2.8864869    1.5250591   439061 
 2820000    1.0161968   -2.8871926   -2.8871926   -1.3629008  0.089103941   -2.8871926    1.5242918   439061 
 2821000     1.015017   -2.8856359   -2.8856359   -1.3631138  0.088299957   -2.8856359    1.5225221   439061 
 2822000    1.0143893   -2.8846535   -2.8846535   -1.3630731   0.08991919   -2.8846535    1.5215804   439061 
 2823000    1.0152765   -2.8864204   -2.8864204   -1.3635092   0.09206133   -2.8864204    1.5229113   439061 
 2824000    1.0159252   -2.8868741   -2.8868741   -1.3629898  0.086368357   -2.8868741    1.5238843   439061 
 2825000    1.0150839   -2.8859456   -2.8859456   -1.3633232  0.088451218   -2.8859456    1.5226224   439061 
 2826000    1.0147032   -2.8855359   -2.8855359   -1.3634846    0.0948388   -2.8855359    1.5220513   439061 
 2827000    1.0155974   -2.8873279   -2.8873279   -1.3639353  0.088541918   -2.8873279    1.5233926   439061 
 2828000    1.0152324   -2.8873256   -2.8873256   -1.3644805  0.087391665   -2.8873256    1.5228451   439061 
 2829000    1.0146525   -2.8872123   -2.8872123    -1.365237  0.087779491   -2.8872123    1.5219753   439061 
 2830000    1.0151394    -2.888228    -2.888228   -1.3655224  0.085225018    -2.888228    1.5227056   439061 
 2831000    1.0149782   -2.8879379   -2.8879379   -1.3654741  0.085388709   -2.8879379    1.5224638   439061 
 2832000    1.0158972   -2.8882202   -2.8882202   -1.3643778  0.083214149   -2.8882202    1.5238424   439061 
 2833000    1.0157617   -2.8888343   -2.8888343   -1.3651952  0.082036318   -2.8888343    1.5236391   439061 
 2834000    1.0136942   -2.8867745   -2.8867745   -1.3662367  0.087573944   -2.8867745    1.5205378   439061 
 2835000    1.0153682   -2.8887392   -2.8887392   -1.3656904  0.087616075   -2.8887392    1.5230488   439061 
 2836000    1.0139882   -2.8870447   -2.8870447   -1.3660658  0.088209325   -2.8870447    1.5209789   439061 
 2837000    1.0157448   -2.8894876   -2.8894876   -1.3658738  0.083354428   -2.8894876    1.5236138   439061 
 2838000    1.0149991   -2.8877728   -2.8877728   -1.3652776  0.090894128   -2.8877728    1.5224952   439061 
 2839000    1.0165889   -2.8882949   -2.8882949    -1.363415   0.09009233   -2.8882949    1.5248798   439061 
 2840000    1.0164442   -2.8890104   -2.8890104   -1.3643477  0.088675976   -2.8890104    1.5246628   439061 
 2841000    1.0155113   -2.8870984   -2.8870984    -1.363835  0.091204638   -2.8870984    1.5232634   439061 
 2842000    1.0151129   -2.8866644   -2.8866644   -1.3639986  0.086547114   -2.8866644    1.5226658   439061 
 2843000    1.0163102   -2.8893575   -2.8893575   -1.3648956  0.086267248   -2.8893575    1.5244619   439061 
 2844000    1.0172293   -2.8904205   -2.8904205     -1.36458  0.086037326   -2.8904205    1.5258405   439061 
 2845000    1.0166795    -2.890095    -2.890095   -1.3650792   0.08651215    -2.890095    1.5250158   439061 
 2846000    1.0165662   -2.8906419   -2.8906419    -1.365796  0.084831774   -2.8906419    1.5248459   439061 
 2847000    1.0165415   -2.8899973   -2.8899973   -1.3651885  0.085584468   -2.8899973    1.5248088   439061 
 2848000    1.0171235    -2.890887    -2.890887   -1.3652051   0.08793122    -2.890887    1.5256818   439061 
 2849000    1.0169928   -2.8902761   -2.8902761   -1.3647905  0.087061769   -2.8902761    1.5254857   439061 
 2850000    1.0170428   -2.8885596   -2.8885596   -1.3629988  0.087941011   -2.8885596    1.5255607   439061 
 2851000    1.0150618   -2.8866993   -2.8866993   -1.3641101  0.086333109   -2.8866993    1.5225892   439061 
 2852000     1.016495    -2.887981    -2.887981   -1.3632419  0.090986286    -2.887981    1.5247391   439061 
 2853000     1.017023   -2.8879809   -2.8879809   -1.3624499  0.085661848   -2.8879809     1.525531   439061 
 2854000    1.0161299   -2.8884802   -2.8884802   -1.3642887  0.089628203   -2.8884802    1.5241914   439061 
 2855000    1.0150702    -2.885995    -2.885995   -1.3633933  0.080746058    -2.885995    1.5226018   439061 
 2856000    1.0159454   -2.8876197   -2.8876197    -1.363705  0.089204692   -2.8876197    1.5239147   439061 
 2857000    1.0149642   -2.8859236   -2.8859236   -1.3634808  0.083584872   -2.8859236    1.5224429   439061 
 2858000    1.0144385   -2.8843352   -2.8843352   -1.3626809  0.086219376   -2.8843352    1.5216543   439061 
 2859000    1.0153488   -2.8859108   -2.8859108   -1.3628912  0.080647021   -2.8859108    1.5230197   439061 
 2860000    1.0151174   -2.8847452   -2.8847452   -1.3620726  0.083683507   -2.8847452    1.5226726   439061 
 2861000    1.0164712   -2.8846029   -2.8846029   -1.3598996  0.088931039   -2.8846029    1.5247033   439061 
 2862000    1.0147673   -2.8829502   -2.8829502   -1.3608026   0.08751746   -2.8829502    1.5221476   439061 
 2863000    1.0157007   -2.8832305   -2.8832305   -1.3596829    0.0871254   -2.8832305    1.5235475   439061 
 2864000    1.0152932   -2.8824215   -2.8824215   -1.3594851  0.087320056   -2.8824215    1.5229364   439061 
 2865000    1.0153338   -2.8836173   -2.8836173   -1.3606201   0.08162827   -2.8836173    1.5229973   439061 
 2866000    1.0163884   -2.8855939   -2.8855939   -1.3610148  0.087817799   -2.8855939    1.5245791   439061 
 2867000    1.0163102   -2.8848274   -2.8848274   -1.3603655  0.083542766   -2.8848274    1.5244619   439061 
 2868000    1.0178162   -2.8869499   -2.8869499   -1.3602291  0.090034046   -2.8869499    1.5267208   439061 
 2869000    1.0160086   -2.8839474   -2.8839474    -1.359938  0.086458285   -2.8839474    1.5240094   439061 
 2870000    1.0144037   -2.8835965   -2.8835965   -1.3619944  0.088168966   -2.8835965    1.5216021   439061 
 2871000    1.0142797   -2.8838047   -2.8838047   -1.3623887  0.086216963   -2.8838047     1.521416   439061 
 2872000    1.0143973   -2.8840979   -2.8840979   -1.3625054  0.086703958   -2.8840979    1.5215925   439061 
 2873000    1.0148506   -2.8849205   -2.8849205    -1.362648  0.084198357   -2.8849205    1.5222725   439061 
 2874000    1.0152815    -2.884829    -2.884829   -1.3619102  0.086373118    -2.884829    1.5229188   439061 
 2875000    1.0144973    -2.884901    -2.884901   -1.3631586  0.082778748    -2.884901    1.5217424   439061 
 2876000     1.014816   -2.8848806   -2.8848806   -1.3626601  0.081297982   -2.8848806    1.5222206   439061 
 2877000    1.0145471   -2.8840829   -2.8840829   -1.3622657   0.08628069   -2.8840829    1.5218172   439061 
 2878000    1.0149553   -2.8844676   -2.8844676   -1.3620381    0.0827323   -2.8844676    1.5224295   439061 
 2879000    1.0154469   -2.8849793   -2.8849793   -1.3618125  0.083945456   -2.8849793    1.5231668   439061 
 2880000    1.0156434   -2.8855853   -2.8855853   -1.3621238  0.089166894   -2.8855853    1.5234616   439061 
 2881000    1.0164804   -2.8858726   -2.8858726   -1.3611554  0.085867491   -2.8858726    1.5247172   439061 
 2882000    1.0157004   -2.8847905   -2.8847905   -1.3612434  0.084953054   -2.8847905    1.5235471   439061 
 2883000    1.0152817   -2.8833626   -2.8833626   -1.3604434  0.089562107   -2.8833626    1.5229191   439061 
 2884000    1.0173054   -2.8860624   -2.8860624   -1.3601077  0.087715407   -2.8860624    1.5259546   439061 
 2885000    1.0171041   -2.8871006   -2.8871006   -1.3614479  0.090080646   -2.8871006    1.5256527   439061 
 2886000    1.0157377   -2.8858299   -2.8858299   -1.3622269  0.091049154   -2.8858299     1.523603   439061 
 2887000     1.016622   -2.8872134   -2.8872134   -1.3622839  0.085533306   -2.8872134    1.5249295   439061 
 2888000    1.0168237   -2.8876744   -2.8876744   -1.3624424  0.088446193   -2.8876744     1.525232   439061 
 2889000    1.0157172   -2.8866587   -2.8866587   -1.3630864  0.089522513   -2.8866587    1.5235723   439061 
 2890000    1.0160449   -2.8879398   -2.8879398   -1.3638759  0.087551919   -2.8879398    1.5240639   439061 
 2891000    1.0154828   -2.8872767   -2.8872767    -1.364056  0.089805506   -2.8872767    1.5232207   439061 
 2892000    1.0163754   -2.8877953   -2.8877953   -1.3632357  0.089300409   -2.8877953    1.5245597   439061 
 2893000     1.016542   -2.8878498   -2.8878498   -1.3630403  0.082584571   -2.8878498    1.5248095   439061 
 2894000    1.0166855   -2.8883542   -2.8883542   -1.3633293  0.090020898   -2.8883542    1.5250248   439061 
 2895000    1.0137744   -2.8846979   -2.8846979   -1.3640397  0.090660616   -2.8846979    1.5206582   439061 
 2896000    1.0146742    -2.886093    -2.886093   -1.3640852  0.091013758    -2.886093    1.5220078   439061 
 2897000    1.0161208   -2.8876966   -2.8876966   -1.3635189  0.087621667   -2.8876966    1.5241777   439061 
 2898000    1.0152012   -2.8864674   -2.8864674   -1.3636691  0.091976193   -2.8864674    1.5227984   439061 
 2899000    1.0149477   -2.8850554   -2.8850554   -1.3626374  0.084078125   -2.8850554     1.522418   439061 
 2900000    1.0168727   -2.8876383   -2.8876383   -1.3623327  0.085125983   -2.8876383    1.5253056   439061 
 2901000     1.015869   -2.8865628   -2.8865628   -1.3627628  0.088035718   -2.8865628       1.5238   439061 
 2902000    1.0155328   -2.8853803   -2.8853803   -1.3620847  0.089066642   -2.8853803    1.5232957   439061 
 2903000    1.0161851   -2.8878754   -2.8878754   -1.3636012  0.083474761   -2.8878754    1.5242742   439061 
 2904000    1.0143381   -2.8852826   -2.8852826   -1.3637789  0.086589823   -2.8852826    1.5215037   439061 
 2905000    1.0159264   -2.8872751   -2.8872751    -1.363389  0.089340567   -2.8872751    1.5238862   439061 
 2906000    1.0156902   -2.8867908   -2.8867908    -1.363259  0.085070878   -2.8867908    1.5235318   439061 
 2907000    1.0163211   -2.8880514   -2.8880514   -1.3635731  0.088912928   -2.8880514    1.5244783   439061 
 2908000    1.0158211   -2.8880084   -2.8880084   -1.3642802  0.085637863   -2.8880084    1.5237281   439061 
 2909000    1.0144723   -2.8850968   -2.8850968   -1.3633918  0.084635162   -2.8850968     1.521705   439061 
 2910000    1.0159949   -2.8861226   -2.8861226   -1.3621337  0.082445646   -2.8861226    1.5239889   439061 
 2911000     1.017046   -2.8871004   -2.8871004   -1.3615349  0.081550855   -2.8871004    1.5255655   439061 
 2912000    1.0141254   -2.8841174   -2.8841174   -1.3629328  0.085344103   -2.8841174    1.5211847   439061 
 2913000    1.0154983   -2.8868128   -2.8868128   -1.3635688  0.086881629   -2.8868128     1.523244   439061 
 2914000    1.0145702   -2.8859707   -2.8859707   -1.3641188  0.083483591   -2.8859707    1.5218519   439061 
 2915000    1.0142604   -2.8852401   -2.8852401    -1.363853  0.085323137   -2.8852401    1.5213871   439061 
 2916000     1.015358   -2.8864578   -2.8864578   -1.3634243  0.080998229   -2.8864578    1.5230335   439061 
 2917000    1.0148604   -2.8855435   -2.8855435   -1.3632564  0.082483649   -2.8855435    1.5222871   439061 
 2918000    1.0148733   -2.8840782   -2.8840782   -1.3617718  0.086014285   -2.8840782    1.5223064   439061 
 2919000    1.0152813   -2.8833412   -2.8833412   -1.3604228  0.084737735   -2.8833412    1.5229184   439061 
 2920000    1.0160106   -2.8865723   -2.8865723   -1.3625599  0.087172738   -2.8865723    1.5240125   439061 
 2921000    1.0160307   -2.8872269   -2.8872269   -1.3631843  0.087296372   -2.8872269    1.5240426   439061 
 2922000    1.0138694   -2.8853688   -2.8853688   -1.3645681  0.082247565   -2.8853688    1.5208007   439061 
 2923000    1.0161633   -2.8885585   -2.8885585   -1.3643171  0.086786323   -2.8885585    1.5242415   439061 
 2924000    1.0156743   -2.8883649   -2.8883649    -1.364857  0.083285893   -2.8883649    1.5235079   439061 
 2925000    1.0173358   -2.8900528   -2.8900528   -1.3640526  0.087315492   -2.8900528    1.5260002   439061 
 2926000    1.0165958   -2.8885731   -2.8885731    -1.363683  0.091590803   -2.8885731    1.5248902   439061 
 2927000    1.0166376   -2.8906561   -2.8906561   -1.3657032  0.090351998   -2.8906561    1.5249529   439061 
 2928000    1.0169847   -2.8911905   -2.8911905   -1.3657169  0.090716785   -2.8911905    1.5254736   439061 
 2929000    1.0166558   -2.8893185   -2.8893185   -1.3643382  0.090505888   -2.8893185    1.5249803   439061 
 2930000    1.0168266   -2.8912717   -2.8912717   -1.3660353  0.090849268   -2.8912717    1.5252364   439061 
 2931000    1.0176824   -2.8917014   -2.8917014   -1.3651813  0.090794272   -2.8917014    1.5265201   439061 
 2932000    1.0191445   -2.8940978   -2.8940978   -1.3653846  0.093805244   -2.8940978    1.5287132   439061 
 2933000    1.0158553   -2.8885064   -2.8885064   -1.3647269  0.087852015   -2.8885064    1.5237795   439061 
 2934000    1.0174726   -2.8926693   -2.8926693   -1.3664639  0.089121629   -2.8926693    1.5262054   439061 
 2935000     1.017133   -2.8916907   -2.8916907   -1.3659947  0.087424288   -2.8916907     1.525696   439061 
 2936000    1.0180789   -2.8940087   -2.8940087   -1.3668938  0.090676028   -2.8940087    1.5271149   439061 
 2937000    1.0178276   -2.8922107   -2.8922107   -1.3654727  0.091103469   -2.8922107     1.526738   439061 
 2938000    1.0172835   -2.8907594   -2.8907594   -1.3648375  0.092139937   -2.8907594    1.5259218   439061 
 2939000     1.016627   -2.8908167   -2.8908167   -1.3658797  0.089356679   -2.8908167     1.524937   439061 
 2940000    1.0156742   -2.8897589   -2.8897589   -1.3662512  0.088699622   -2.8897589    1.5235078   439061 
 2941000    1.0147099   -2.8874012   -2.8874012   -1.3653399    0.0869385   -2.8874012    1.5220613   439061 
 2942000    1.0142893   -2.8881977   -2.8881977   -1.3667671  0.086768703   -2.8881977    1.5214305   439061 
 2943000    1.0145068   -2.8884416   -2.8884416    -1.366685  0.086260209   -2.8884416    1.5217567   439061 
 2944000     1.015482   -2.8886019   -2.8886019   -1.3653823  0.086546564   -2.8886019    1.5232195   439061 
 2945000    1.0152884   -2.8882888   -2.8882888   -1.3653596  0.090677141   -2.8882888    1.5229292   439061 
 2946000    1.0150845   -2.8871612   -2.8871612   -1.3645379   0.08814094   -2.8871612    1.5226233   439061 
 2947000    1.0136201   -2.8863241   -2.8863241   -1.3658975   0.08559825   -2.8863241    1.5204267   439061 
 2948000    1.0151354   -2.8874563   -2.8874563   -1.3647567  0.088708614   -2.8874563    1.5226996   439061 
 2949000    1.0145054   -2.8865622   -2.8865622   -1.3648075  0.089318618   -2.8865622    1.5217547   439061 
 2950000    1.0154628   -2.8861427   -2.8861427   -1.3629519  0.086137095   -2.8861427    1.5231908   439061 
 2951000    1.0148802   -2.8858817   -2.8858817   -1.3635649  0.083840669   -2.8858817    1.5223168   439061 
 2952000    1.0149446   -2.8856433   -2.8856433   -1.3632299  0.082707169   -2.8856433    1.5224134   439061 
 2953000    1.0148854   -2.8844692   -2.8844692   -1.3621447  0.082709289   -2.8844692    1.5223246   439061 
 2954000    1.0144692     -2.88398     -2.88398   -1.3622797  0.089292214     -2.88398    1.5217003   439061 
 2955000    1.0154728   -2.8851922   -2.8851922   -1.3619866  0.086808273   -2.8851922    1.5232057   439061 
 2956000    1.0168658   -2.8867923   -2.8867923    -1.361497  0.083780449   -2.8867923    1.5252952   439061 
 2957000    1.0151119   -2.8846635   -2.8846635   -1.3619991  0.084569297   -2.8846635    1.5226644   439061 
 2958000    1.0160859   -2.8846567   -2.8846567   -1.3605313  0.086118183   -2.8846567    1.5241254   439061 
 2959000    1.0156001   -2.8848119   -2.8848119   -1.3614153  0.085398495   -2.8848119    1.5233966   439061 
 2960000    1.0158139   -2.8857077   -2.8857077   -1.3619904   0.08392109   -2.8857077    1.5237173   439061 
 2961000    1.0135564   -2.8827769   -2.8827769   -1.3624458  0.091617852   -2.8827769    1.5203311   439061 
 2962000    1.0154117   -2.8863001   -2.8863001   -1.3631861  0.087197772   -2.8863001    1.5231141   439061 
 2963000    1.0158118   -2.8884776   -2.8884776   -1.3647634  0.088623009   -2.8884776    1.5237142   439061 
 2964000    1.0137138   -2.8866785   -2.8866785   -1.3661113  0.084596991   -2.8866785    1.5205672   439061 
 2965000    1.0142911   -2.8872773   -2.8872773   -1.3658442  0.088998313   -2.8872773    1.5214332   439061 
 2966000    1.0151657   -2.8891205   -2.8891205   -1.3663754  0.086001596   -2.8891205     1.522745   439061 
 2967000    1.0152211   -2.8907401   -2.8907401   -1.3679119  0.088360562   -2.8907401    1.5228282   439061 
 2968000    1.0144822   -2.8886667   -2.8886667   -1.3669469  0.089093532   -2.8886667    1.5217198   439061 
 2969000    1.0159964   -2.8890518   -2.8890518   -1.3650607  0.088988454   -2.8890518    1.5239911   439061 
 2970000    1.0160444   -2.8899525   -2.8899525   -1.3658893  0.084544967   -2.8899525    1.5240632   439061 
 2971000    1.0148875   -2.8890914   -2.8890914   -1.3667637  0.089476091   -2.8890914    1.5223277   439061 
 2972000    1.0164965   -2.8917704   -2.8917704   -1.3670291  0.086220314   -2.8917704    1.5247413   439061 
 2973000    1.0168679   -2.8924032   -2.8924032   -1.3671049  0.088186333   -2.8924032    1.5252983   439061 
 2974000    1.0158901   -2.8899875   -2.8899875   -1.3661557  0.088258767   -2.8899875    1.5238317   439061 
 2975000    1.0153517   -2.8908711   -2.8908711   -1.3678469  0.087132227   -2.8908711    1.5230241   439061 
 2976000    1.0160136   -2.8901533   -2.8901533   -1.3661364  0.088494723   -2.8901533    1.5240169   439061 
 2977000     1.016003   -2.8914396   -2.8914396   -1.3674385  0.087773611   -2.8914396     1.524001   439061 
 2978000    1.0163037   -2.8926246   -2.8926246   -1.3681726  0.091756521   -2.8926246     1.524452   439061 
 2979000    1.0146449    -2.890121    -2.890121   -1.3681572  0.090752846    -2.890121    1.5219639   439061 
 2980000    1.0139563   -2.8909919   -2.8909919   -1.3700609  0.086755529   -2.8909919     1.520931   439061 
 2981000     1.014303   -2.8931582   -2.8931582   -1.3717071  0.082230061   -2.8931582    1.5214511   439061 
 2982000    1.0143632   -2.8918437   -2.8918437   -1.3703023  0.083559895   -2.8918437    1.5215414   439061 
 2983000     1.015287   -2.8925059   -2.8925059   -1.3695788  0.085333255   -2.8925059     1.522927   439061 
 2984000     1.013872    -2.890909    -2.890909   -1.3701045  0.081163139    -2.890909    1.5208045   439061 
 2985000     1.012674   -2.8891888   -2.8891888   -1.3701813  0.087567181   -2.8891888    1.5190075   439061 
 2986000    1.0133366   -2.8905718   -2.8905718   -1.3705703  0.084357188   -2.8905718    1.5200014   439061 
 2987000    1.0126341   -2.8906035   -2.8906035   -1.3716557  0.085549572   -2.8906035    1.5189477   439061 
 2988000    1.0132313   -2.8901642   -2.8901642   -1.3703208  0.089677571   -2.8901642    1.5198434   439061 
 2989000    1.0156548     -2.89234     -2.89234   -1.3688612   0.09016569     -2.89234    1.5234788   439061 
 2990000    1.0151514   -2.8913946   -2.8913946    -1.368671  0.090924892   -2.8913946    1.5227236   439061 
 2991000    1.0166997   -2.8939752   -2.8939752   -1.3689291   0.08524208   -2.8939752    1.5250461   439061 
 2992000    1.0154641   -2.8912515   -2.8912515   -1.3680588  0.090554989   -2.8912515    1.5231927   439061 
 2993000    1.0164074   -2.8930283   -2.8930283   -1.3684206  0.084031535   -2.8930283    1.5246077   439061 
 2994000    1.0153814   -2.8915135   -2.8915135   -1.3684448  0.088277948   -2.8915135    1.5230686   439061 
 2995000    1.0168707   -2.8920227   -2.8920227   -1.3667202  0.083779101   -2.8920227    1.5253026   439061 
 2996000    1.0158899   -2.8903017   -2.8903017   -1.3664702  0.090259629   -2.8903017    1.5238314   439061 
 2997000    1.0168119    -2.893042    -2.893042   -1.3678277  0.090392829    -2.893042    1.5252143   439061 
 2998000    1.0162498   -2.8910905   -2.8910905   -1.3667194   0.08276516   -2.8910905    1.5243712   439061 
 2999000    1.0145296   -2.8883838   -2.8883838   -1.3665929  0.090476685   -2.8883838    1.5217909   439061 
 3000000    1.0172545   -2.8922525   -2.8922525   -1.3663742  0.084998415   -2.8922525    1.5258782   439061 
Loop time of 15805.7 on 96 procs for 3000000 steps with 439061 atoms

Performance: 81995.481 tau/day, 189.804 timesteps/s
90.5% CPU use with 96 MPI tasks x 1 OpenMP threads

MPI task timing breakdown:
Section |  min time  |  avg time  |  max time  |%varavg|  %CPU | %total
-----------------------------------------------------------------------
Pair    | 4890.9     | 8996.1     | 10987      |1848.8 |  97.6 | 56.92
Bond    | 2.1256     | 2.2756     | 2.4586     |   4.3 | 100.0 |  0.01
Neigh   | 1641.9     | 2296.9     | 2573.7     | 536.1 |  99.4 | 14.53
Comm    | 1297.3     | 3832.6     | 8342.1     |3121.6 |  75.6 | 24.25
Output  | 112.63     | 112.85     | 112.86     |   0.2 |  67.8 |  0.71
Modify  | 168.35     | 280.02     | 788.53     |1148.4 |  83.6 |  1.77
Other   |            | 285        |            |       |       |  1.80

Nlocal:        4573.55 ave        5213 max        4018 min
Histogram: 3 3 2 16 39 21 7 3 1 1
Nghost:        5802.54 ave        6567 max        3591 min
Histogram: 3 1 2 7 11 3 2 6 20 41
Neighs:        183261.0 ave      217322 max       63465 min
Histogram: 5 2 4 1 0 3 3 7 37 34

Total # of neighbors = 17593040
Ave neighs/atom = 40.069694
Ave special neighs/atom = 0.0000000
Neighbor list builds = 300000
Dangerous builds = 297000

write_data	data.lj
System init for write_data ...
WARNING: Not all mixed pair coeffs generated from mixing. Use write_data with 'pair ij' option to store all pair coeffs. (src/write_data.cpp:312)
Total wall time: 4:23:28
