LAMMPS (24 Dec 2020)
OMP_NUM_THREADS environment is not set. Defaulting to 1 thread. (src/comm.cpp:94)
  using 1 OpenMP thread(s) per MPI task
# Simple rigid body system
# needed variables:

units		lj
atom_style	full
dimension 	3
boundary	p p f
pair_style	lj/cut/opt 2.5


variable 	sigma		equal 1.0
variable 	epsilon 	equal 1.0


region		box block 0 80 0 80 0 80
create_box 	3 box
Created orthogonal box = (0.0000000 0.0000000 0.0000000) to (80.000000 80.000000 80.000000)
  2 by 4 by 4 MPI processor grid
lattice 	sc 1.0
Lattice spacing in x,y,z = 1.0000000 1.0000000 1.0000000

create_atoms 	1 region box
Created 512000 atoms
  create_atoms CPU = 0.010 seconds

mass		1 1.0
mass		2 1.0
mass		3 1.0


group		solvent type 1
512000 atoms in group solvent


velocity 	solvent create ${startTemp} 563435 loop geom
velocity 	solvent create 0.5 563435 loop geom

read_data	data.vac add append
Reading data file ...
  orthogonal box = (0.0000000 0.0000000 0.0000000) to (80.000000 80.000000 160.00000)
  2 by 2 by 8 MPI processor grid
Finding 1-2 1-3 1-4 neighbors ...
  special bond factors lj:    0        0        0       
  special bond factors coul:  0        0        0       
     0 = max # of 1-2 neighbors
     0 = max # of 1-3 neighbors
     0 = max # of 1-4 neighbors
     1 = max # of special neighbors
  special bonds CPU = 0.080 seconds
  read_data CPU = 0.089 seconds

neighbor 	0.4 bin

pair_coeff	1 1 1.0 1.0
pair_coeff	2 2 0.0 0.0
pair_coeff	3 3 0.0 0.0
pair_coeff	2 3 0.0 0.0
pair_coeff	1 2*3 0.0 0.0

pair_modify 	shift yes


balance 	1.05 shift z 10 1.05
Balancing ...
Neighbor list info ...
  update every 1 steps, delay 10 steps, check yes
  max neighbors/atom: 2000, page size: 100000
  master list distance cutoff = 2.9
  ghost atom cutoff = 2.9
  binsize = 1.45, bins = 56 56 111
  1 neighbor lists, perpetual/occasional/extra = 1 0 0
  (1) pair lj/cut/opt, perpetual
      attributes: half, newton on
      pair build: half/bin/newton
      stencil: half/bin/3d/newton
      bin: standard
 rebalancing time: 0.017 seconds
  iteration count = 5
  initial/final maximal load/proc = 32000.000 19200.000
  initial/final imbalance factor  = 2.0000000 1.2000000
  x cuts: 0.0000000 0.50000000 1.0000000
  y cuts: 0.0000000 0.50000000 1.0000000
  z cuts: 0.0000000 0.062500000 0.12890625 0.18750000 0.25781250 0.30859375 0.38671875 0.43750000 1.0000000


####################### WALLS ###########################


region	       low block  EDGE EDGE EDGE EDGE 0 2

region 	       top block  EDGE EDGE EDGE EDGE 159 160


delete_atoms   region low
WARNING: Ignoring 'compress yes' for molecular system (src/delete_atoms.cpp:125)
Deleted 19200 atoms, new total = 492800

delete_atoms   region top
WARNING: Ignoring 'compress yes' for molecular system (src/delete_atoms.cpp:125)
Deleted 0 atoms, new total = 492800


variable       epsilonWall equal 2*${epsilon}
variable       epsilonWall equal 2*1

variable       cutoffTop   equal   0.7147*${sigma}
variable       cutoffTop   equal   0.7147*1

variable       cutoffLow   equal   3*${sigma}
variable       cutoffLow   equal   3*1


fix            topWall all wall/lj93 zhi EDGE                ${epsilonWall} ${sigma} ${cutoffTop} units box
fix            topWall all wall/lj93 zhi EDGE                2 ${sigma} ${cutoffTop} units box
fix            topWall all wall/lj93 zhi EDGE                2 1 ${cutoffTop} units box
fix            topWall all wall/lj93 zhi EDGE                2 1 0.7147 units box

fix            lowWall all wall/lj93 zlo EDGE                ${epsilonWall} ${sigma} ${cutoffLow} units box
fix            lowWall all wall/lj93 zlo EDGE                2 ${sigma} ${cutoffLow} units box
fix            lowWall all wall/lj93 zlo EDGE                2 1 ${cutoffLow} units box
fix            lowWall all wall/lj93 zlo EDGE                2 1 3 units box


###################### COMPUTES ##########################

compute        bin1 solvent chunk/atom bin/1d z upper 1.0



######################	FIXES ############################


fix 		peclet solvent ave/chunk 1000 1 1000 bin1 density/number norm 		 none ave one file density.profile

fix 		2 solvent nve

## Thermostat


region		regthermo block EDGE EDGE EDGE EDGE 0 20

group 		thermo dynamic solvent region regthermo every 1000
dynamic group thermo defined

fix 		3 thermo langevin ${startTemp} ${temp} 10 156453
fix 		3 thermo langevin 0.5 ${temp} 10 156453
fix 		3 thermo langevin 0.5 1.5 10 156453



#### Load balancing


fix 		bal all balance 1000 1.05 shift z 10 1.05


############### Diagnostics and computes ###################
#compute 	com cube	  rigid/local	1 mol x y z
#compute 	quat cube	  rigid/local	1 mol quatw quati quatj quatk

thermo 		1000
thermo_style 	custom step temp epair evdwl etotal press pe ke vol

dump		1 all custom 100000 dump.lammpstrj id mol type x y z
dump 		2 all image 10000 image.*.png type type
dump 		3 all movie 1000 movie.avi type type
#dump 		com cube local 1000 dump.*.xyz c_com[*]
#dump		quat cube      local 1000 dump.*.quat c_quat[*]


restart 	500000 restart.dat
timestep 	0.0025
timer 		full
New timer settings: style=full  mode=nosync  timeout=off


run		1000000
Per MPI rank memory allocation (min/avg/max) = 21.45 | 22.19 | 22.73 Mbytes
Step Temp E_pair E_vdwl TotEng Press PotEng KinEng Volume 
       0   0.49998514   -3.2974116   -3.2974116   -2.5474355    8.3319627   -3.2974116   0.74997619      1024000 
    1000    1.4275297   -4.8136518   -4.8136518   -2.6723616     3.687284   -4.8136518    2.1412903      1024000 
    2000    1.3665945   -4.8622843   -4.8622843   -2.8123967    2.4717599   -4.8622843    2.0498876      1024000 
    3000     1.264069   -4.8373831   -4.8373831   -2.9412834    1.6280297   -4.8373831    1.8960997      1024000 
    4000    1.2125951   -4.8472566   -4.8472566   -3.0283676   0.72266781   -4.8472566     1.818889      1024000 
    5000     1.141647   -4.7843394   -4.7843394   -3.0718723  0.084281083   -4.7843394    1.7124671      1024000 
    6000    1.0634161   -4.6817991   -4.6817991   -3.0866783  -0.25780977   -4.6817991    1.5951209      1024000 
    7000    1.0044664   -4.5945556   -4.5945556   -3.0878591  -0.35530379   -4.5945556    1.5066965      1024000 
    8000   0.98895697   -4.5709049   -4.5709049   -3.0874724   -0.2375833   -4.5709049    1.4834325      1024000 
    9000    1.0030712   -4.5969331   -4.5969331   -3.0923293  -0.10273505   -4.5969331    1.5046038      1024000 
   10000    1.0071419   -4.6130047   -4.6130047   -3.1022948 -0.030626381   -4.6130047    1.5107098      1024000 
   11000    1.0058202   -4.6221972   -4.6221972     -3.11347 0.0017519503   -4.6221972    1.5087273      1024000 
   12000    1.0040894   -4.6291333   -4.6291333   -3.1230023   0.01828915   -4.6291333     1.506131      1024000 
   13000    1.0053754   -4.6391098   -4.6391098   -3.1310497   0.04838316   -4.6391098    1.5080601      1024000 
   14000    1.0075919   -4.6500291   -4.6500291   -3.1386443  0.081719208   -4.6500291    1.5113848      1024000 
   15000    1.0079935   -4.6577165   -4.6577165   -3.1457293  0.088420451   -4.6577165    1.5119872      1024000 
   16000    1.0067191   -4.6615574   -4.6615574   -3.1514817   0.08680324   -4.6615574    1.5100756      1024000 
   17000    1.0019647   -4.6592273   -4.6592273   -3.1562832  0.081313629   -4.6592273    1.5029441      1024000 
   18000    1.0029062   -4.6647629   -4.6647629   -3.1604067  0.089960416   -4.6647629    1.5043562      1024000 
   19000    1.0052858   -4.6717784   -4.6717784   -3.1638527   0.10861759   -4.6717784    1.5079257      1024000 
   20000    1.0062804   -4.6767606   -4.6767606    -3.167343   0.11682268   -4.6767606    1.5094176      1024000 
   21000    1.0053522   -4.6779323   -4.6779323    -3.169907   0.11170979   -4.6779323    1.5080252      1024000 
   22000    1.0055658   -4.6809402   -4.6809402   -3.1725946   0.10783661   -4.6809402    1.5083456      1024000 
   23000    1.0045095   -4.6821047   -4.6821047   -3.1753435   0.12032402   -4.6821047    1.5067612      1024000 
   24000    1.0096789   -4.6933449   -4.6933449   -3.1788297   0.21517771   -4.6933449    1.5145153      1024000 
   25000    1.0241895   -4.7174043   -4.7174043   -3.1811232   0.64465113   -4.7174043    1.5362811      1024000 
   26000    1.0388347   -4.7407713   -4.7407713   -3.1825224    1.0120071   -4.7407713    1.5582489      1024000 
   27000    1.0494566   -4.7579955   -4.7579955   -3.1838138    1.3925557   -4.7579955    1.5741817      1024000 
   28000    1.0536965   -4.7659092   -4.7659092   -3.1853676    1.7842151   -4.7659092    1.5805416      1024000 
   29000    1.0401761   -4.7476752   -4.7476752   -3.1874142    1.4216053   -4.7476752    1.5602609      1024000 
   30000    1.0117783   -4.7062227   -4.7062227   -3.1885583    1.0516511   -4.7062227    1.5176644      1024000 
   31000   0.99919751   -4.6880411   -4.6880411   -3.1892478   0.65399426   -4.6880411    1.4987932      1024000 
   32000   0.97270435   -4.6490204   -4.6490204   -3.1899668   0.37929798   -4.6490204    1.4590536      1024000 
   33000   0.93682662   -4.5962235   -4.5962235   -3.1909864   0.20316435   -4.5962235    1.4052371      1024000 
   34000   0.89921937   -4.5405914   -4.5405914   -3.1917651  0.049133611   -4.5405914    1.3488263      1024000 
   35000   0.86750023   -4.4937599   -4.4937599   -3.1925122 -0.054128434   -4.4937599    1.3012477      1024000 
   36000   0.84750669   -4.4652812   -4.4652812   -3.1940237 -0.098808856   -4.4652812    1.2712574      1024000 
   37000   0.83849761   -4.4520588   -4.4520588   -3.1943149  -0.10490986   -4.4520588    1.2577439      1024000 
   38000   0.83808437   -4.4526098   -4.4526098   -3.1954858 -0.083851964   -4.4526098     1.257124      1024000 
   39000   0.84622775   -4.4656377   -4.4656377   -3.1962987 -0.053089453   -4.4656377    1.2693391      1024000 
   40000   0.85802979   -4.4839771   -4.4839771    -3.196935 -0.0068055566   -4.4839771    1.2870421      1024000 
   41000   0.87043485   -4.5030176   -4.5030176    -3.197368  0.037308098   -4.5030176    1.3056496      1024000 
   42000   0.88197743   -4.5211831   -4.5211831   -3.1982196  0.084449005   -4.5211831    1.3229635      1024000 
   43000   0.89061486   -4.5342028   -4.5342028   -3.1982832   0.13127361   -4.5342028    1.3359196      1024000 
   44000   0.89727917   -4.5447612   -4.5447612   -3.1988452   0.15711473   -4.5447612     1.345916      1024000 
   45000   0.89847983   -4.5474708   -4.5474708   -3.1997538   0.16838298   -4.5474708     1.347717      1024000 
   46000   0.89339794    -4.540872    -4.540872   -3.2007778    0.1420726    -4.540872    1.3400942      1024000 
   47000   0.88573778   -4.5295549   -4.5295549    -3.200951   0.11756107   -4.5295549     1.328604      1024000 
   48000   0.87590756   -4.5160215   -4.5160215   -3.2021628  0.072282982   -4.5160215    1.3138587      1024000 
   49000   0.86735155   -4.5040997   -4.5040997    -3.203075  0.029165097   -4.5040997    1.3010247      1024000 
   50000   0.85811784   -4.4913678   -4.4913678   -3.2041937 0.0059189686   -4.4913678    1.2871741      1024000 
   51000   0.85460389   -4.4867673   -4.4867673   -3.2048641 0.0022908204   -4.4867673    1.2819032      1024000 
   52000   0.85365893    -4.487039    -4.487039   -3.2065532 -1.4929851e-05    -4.487039    1.2804858      1024000 
   53000   0.85781356   -4.4943178   -4.4943178   -3.2076001  0.011240611   -4.4943178    1.2867177      1024000 
   54000   0.86365326   -4.5046595   -4.5046595   -3.2091823  0.037303014   -4.5046595    1.2954773      1024000 
   55000   0.87231068   -4.5193159   -4.5193159   -3.2108525  0.074357493   -4.5193159    1.3084634      1024000 
   56000   0.88178006   -4.5353693   -4.5353693   -3.2127019   0.11288215   -4.5353693    1.3226674      1024000 
   57000   0.88849843   -4.5476066   -4.5476066   -3.2148616   0.14903942   -4.5476066    1.3327449      1024000 
   58000   0.89334454   -4.5570171   -4.5570171    -3.217003   0.17293973   -4.5570171    1.3400141      1024000 
   59000   0.89410398   -4.5611905   -4.5611905   -3.2200373   0.17799155   -4.5611905    1.3411532      1024000 
   60000   0.89166029    -4.561175    -4.561175   -3.2236872   0.17595252    -4.561175    1.3374877      1024000 
   61000   0.88959169    -4.562221    -4.562221   -3.2278362   0.17193987    -4.562221    1.3343848      1024000 
   62000   0.88935061   -4.5654642   -4.5654642    -3.231441   0.18496439   -4.5654642    1.3340232      1024000 
   63000   0.89379344   -4.5767634   -4.5767634    -3.236076   0.23244872   -4.5767634    1.3406874      1024000 
   64000    0.9011905   -4.5946712   -4.5946712   -3.2428882   0.30936609   -4.5946712     1.351783      1024000 
   65000   0.90849152   -4.6143288   -4.6143288   -3.2515943   0.37332832   -4.6143288    1.3627345      1024000 
   66000    0.9093152    -4.627607    -4.627607   -3.2636369    0.4121749    -4.627607      1.36397      1024000 
   67000   0.90616709   -4.6351414   -4.6351414   -3.2758935   0.43327195   -4.6351414    1.3592479      1024000 
   68000   0.90045532   -4.6398144   -4.6398144   -3.2891341   0.44442728   -4.6398144    1.3506802      1024000 
   69000   0.88753941   -4.6376663   -4.6376663   -3.3063599   0.46645143   -4.6376663    1.3313064      1024000 
   70000   0.87416796   -4.6428123   -4.6428123    -3.331563   0.52856198   -4.6428123    1.3112493      1024000 
   71000   0.86442323   -4.6559167   -4.6559167   -3.3592845   0.56447869   -4.6559167    1.2966322      1024000 
   72000   0.86002139   -4.6734948   -4.6734948   -3.3834654   0.57568152   -4.6734948    1.2900295      1024000 
   73000   0.85901961   -4.6927303   -4.6927303   -3.4042035   0.56991978   -4.6927303    1.2885268      1024000 
   74000   0.86291785    -4.715286    -4.715286   -3.4209119   0.57219909    -4.715286    1.2943741      1024000 
   75000   0.86504154     -4.73083     -4.73083   -3.4332703    0.5794796     -4.73083    1.2975597      1024000 
   76000    0.8633271   -4.7364138   -4.7364138   -3.4414257   0.54712592   -4.7364138     1.294988      1024000 
   77000   0.84712841    -4.716651    -4.716651    -3.445961   0.43859397    -4.716651      1.27069      1024000 
   78000   0.82831384   -4.6905978   -4.6905978   -3.4481296   0.31102853   -4.6905978    1.2424682      1024000 
   79000   0.80879335   -4.6621953   -4.6621953   -3.4490078   0.20719428   -4.6621953    1.2131876      1024000 
   80000   0.78819057    -4.633757    -4.633757   -3.4514736   0.12858795    -4.633757    1.1822835      1024000 
   81000   0.76873456    -4.607537    -4.607537   -3.4544375  0.062288832    -4.607537    1.1530995      1024000 
   82000   0.75157903   -4.5856621   -4.5856621   -3.4582958 -0.0052414135   -4.5856621    1.1273663      1024000 
   83000    0.7379457   -4.5667745   -4.5667745   -3.4598582 -0.075922384   -4.5667745    1.1069163      1024000 
   84000   0.72529262   -4.5474037   -4.5474037   -3.4594669  -0.13997877   -4.5474037    1.0879367      1024000 
   85000   0.71659019   -4.5305696   -4.5305696   -3.4556865   -0.1952609   -4.5305696    1.0748831      1024000 
   86000   0.70847443   -4.5124014   -4.5124014   -3.4496919  -0.23280645   -4.5124014    1.0627095      1024000 
   87000    0.7024916   -4.4963757   -4.4963757   -3.4426404  -0.24606249   -4.4963757    1.0537353      1024000 
   88000   0.69975589    -4.485454    -4.485454   -3.4358223  -0.24981088    -4.485454    1.0496317      1024000 
   89000   0.70088793   -4.4800169   -4.4800169   -3.4286872  -0.24308419   -4.4800169    1.0513298      1024000 
   90000   0.70510619   -4.4802633   -4.4802633   -3.4226062  -0.22753727   -4.4802633    1.0576571      1024000 
   91000   0.71091471    -4.484133    -4.484133   -3.4177631   -0.1949698    -4.484133    1.0663699      1024000 
   92000   0.71931582   -4.4934356   -4.4934356    -3.414464  -0.16243899   -4.4934356    1.0789715      1024000 
   93000    0.7272842   -4.5037515   -4.5037515   -3.4128274  -0.12291731   -4.5037515    1.0909241      1024000 
   94000   0.73508195     -4.51614     -4.51614   -3.4135193 -0.073905697     -4.51614    1.1026207      1024000 
   95000   0.74236587   -4.5301654   -4.5301654   -3.4166188 -0.040365122   -4.5301654    1.1135465      1024000 
   96000   0.74785019   -4.5436212   -4.5436212   -3.4218482 -0.011365169   -4.5436212     1.121773      1024000 
   97000   0.75057039    -4.552921    -4.552921   -3.4270677  0.012288077    -4.552921    1.1258533      1024000 
   98000   0.75114085   -4.5590758   -4.5590758   -3.4323668  0.010895023   -4.5590758     1.126709      1024000 
   99000   0.74842562   -4.5584013   -4.5584013   -3.4357652 0.0095314389   -4.5584013    1.1226362      1024000 
  100000   0.74530262   -4.5570748   -4.5570748   -3.4391231 -0.011045814   -4.5570748    1.1179517      1024000 
  101000   0.74224061   -4.5545803   -4.5545803   -3.4412216 -0.024033434   -4.5545803    1.1133587      1024000 
  102000   0.74051407   -4.5528155   -4.5528155   -3.4420467 -0.034145505   -4.5528155    1.1107689      1024000 
  103000   0.73921875   -4.5513927   -4.5513927   -3.4425668 -0.045342489   -4.5513927    1.1088259      1024000 
  104000   0.73861373   -4.5510568   -4.5510568   -3.4431385 -0.041806726   -4.5510568    1.1079183      1024000 
  105000   0.73963748   -4.5534695   -4.5534695   -3.4440155 -0.031695645   -4.5534695     1.109454      1024000 
  106000   0.74204572   -4.5581836   -4.5581836   -3.4451173 -0.024728727   -4.5581836    1.1130663      1024000 
  107000   0.74377848   -4.5617498   -4.5617498   -3.4460844 -0.015033672   -4.5617498    1.1156654      1024000 
  108000   0.74576017   -4.5658502   -4.5658502   -3.4472122 -0.006886447   -4.5658502     1.118638      1024000 
  109000    0.7465014   -4.5687297   -4.5687297   -3.4489798 -0.0052692023   -4.5687297    1.1197498      1024000 
  110000   0.74611433   -4.5699055   -4.5699055   -3.4507363 0.0013158741   -4.5699055    1.1191692      1024000 
  111000   0.74536084   -4.5692903   -4.5692903   -3.4512513 -0.0030639103   -4.5692903     1.118039      1024000 
  112000   0.74451726   -4.5690602   -4.5690602   -3.4522866 -0.010696162   -4.5690602    1.1167736      1024000 
  113000   0.74284271   -4.5670455   -4.5670455   -3.4527837 -0.0091881327   -4.5670455    1.1142618      1024000 
  114000   0.74275311   -4.5672405   -4.5672405   -3.4531131 -0.016340717   -4.5672405    1.1141274      1024000 
  115000   0.74129993    -4.566143    -4.566143   -3.4541954 -0.016750095    -4.566143    1.1119476      1024000 
  116000   0.74309304   -4.5694432   -4.5694432   -3.4548059 -0.021000147   -4.5694432    1.1146373      1024000 
  117000   0.74167819    -4.567406    -4.567406    -3.454891 -0.011099315    -4.567406     1.112515      1024000 
  118000   0.74353605   -4.5699555   -4.5699555   -3.4546537 -0.014550067   -4.5699555    1.1153018      1024000 
  119000   0.74505955   -4.5723632   -4.5723632   -3.4547762 -0.011879246   -4.5723632    1.1175871      1024000 
  120000    0.7448261    -4.571728    -4.571728   -3.4544911 -0.0062193564    -4.571728    1.1172369      1024000 
  121000   0.74566901   -4.5739089   -4.5739089   -3.4554077 -0.0068361846   -4.5739089    1.1185012      1024000 
  122000   0.74460605   -4.5725876   -4.5725876   -3.4556808 -0.010401493   -4.5725876    1.1169068      1024000 
  123000   0.74369441   -4.5716089   -4.5716089   -3.4560696 -0.010692958   -4.5716089    1.1155394      1024000 
  124000   0.74355095   -4.5713988   -4.5713988   -3.4560746 -0.014726034   -4.5713988    1.1153242      1024000 
  125000   0.74265981   -4.5706869   -4.5706869   -3.4566994 -0.010622905   -4.5706869    1.1139874      1024000 
  126000   0.74432744   -4.5730085   -4.5730085   -3.4565196  -0.01299654   -4.5730085    1.1164889      1024000 
  127000   0.74310069   -4.5709619   -4.5709619   -3.4563131 -0.0091554275   -4.5709619    1.1146488      1024000 
  128000   0.74382775    -4.572583    -4.572583   -3.4568437  -0.01210245    -4.572583    1.1157394      1024000 
  129000   0.74464638   -4.5738893   -4.5738893    -3.456922 -0.0068869433   -4.5738893    1.1169673      1024000 
  130000   0.74460776   -4.5739716   -4.5739716   -3.4570622 4.1674047e-05   -4.5739716    1.1169094      1024000 
  131000   0.74463886   -4.5753444   -4.5753444   -3.4583884 -0.0020098297   -4.5753444     1.116956      1024000 
  132000   0.74533481   -4.5755089   -4.5755089   -3.4575089 -0.0017703842   -4.5755089        1.118      1024000 
  133000   0.74535456   -4.5767644   -4.5767644   -3.4587349 0.00099688407   -4.5767644    1.1180296      1024000 
  134000   0.74567372   -4.5770087   -4.5770087   -3.4585004 -0.0054024671   -4.5770087    1.1185083      1024000 
  135000   0.74524676   -4.5754785   -4.5754785   -3.4576106 0.0028177333   -4.5754785    1.1178679      1024000 
  136000   0.74649102   -4.5774824   -4.5774824   -3.4577482 -0.0086647065   -4.5774824    1.1197343      1024000 
  137000   0.74665965   -4.5773113   -4.5773113   -3.4573241 -0.0070918108   -4.5773113    1.1199872      1024000 
  138000   0.74698265   -4.5781114   -4.5781114   -3.4576397 -0.0092141524   -4.5781114    1.1204717      1024000 
  139000   0.74604938   -4.5769367   -4.5769367   -3.4578649 -0.0072924018   -4.5769367    1.1190718      1024000 
  140000   0.74582735   -4.5765005   -4.5765005   -3.4577617 -0.0040141207   -4.5765005    1.1187388      1024000 
  141000   0.74695383   -4.5775406   -4.5775406   -3.4571122 -0.0041369011   -4.5775406    1.1204285      1024000 
  142000   0.74683436   -4.5777715   -4.5777715   -3.4575222 -0.0074321944   -4.5777715    1.1202493      1024000 
  143000   0.74650924    -4.576543    -4.576543   -3.4567814 -0.0035977692    -4.576543    1.1197616      1024000 
  144000   0.74705971   -4.5770893   -4.5770893    -3.456502 -0.0059471564   -4.5770893    1.1205873      1024000 
  145000   0.74708472   -4.5768213   -4.5768213   -3.4561965 -0.0064740126   -4.5768213    1.1206248      1024000 
  146000   0.74693292   -4.5764626   -4.5764626   -3.4560655 -0.003840109   -4.5764626    1.1203971      1024000 
  147000   0.74739657   -4.5762066   -4.5762066    -3.455114 0.0032391644   -4.5762066    1.1210926      1024000 
  148000    0.7483142   -4.5782026   -4.5782026   -3.4557336 0.00047028985   -4.5782026     1.122469      1024000 
  149000   0.74904724   -4.5790798   -4.5790798   -3.4555113 -0.0015070819   -4.5790798    1.1235686      1024000 
  150000   0.75072845   -4.5813457   -4.5813457   -3.4552553 0.0012368753   -4.5813457    1.1260904      1024000 
  151000   0.75055757   -4.5814772   -4.5814772   -3.4556431  0.002092648   -4.5814772    1.1258341      1024000 
  152000   0.75052207   -4.5812091   -4.5812091   -3.4554283 0.0042544343   -4.5812091    1.1257808      1024000 
  153000   0.75207894   -4.5827491   -4.5827491    -3.454633 0.0064638232   -4.5827491    1.1281161      1024000 
  154000   0.75139442   -4.5812974   -4.5812974   -3.4542081 0.0067745625   -4.5812974    1.1270893      1024000 
  155000   0.75169118   -4.5814501   -4.5814501   -3.4539156 0.0049948625   -4.5814501    1.1275345      1024000 
  156000   0.75309721   -4.5832403   -4.5832403   -3.4535968 0.0083987568   -4.5832403    1.1296435      1024000 
  157000   0.75356854   -4.5842469   -4.5842469   -3.4538964 0.0080028431   -4.5842469    1.1303505      1024000 
  158000    0.7517354   -4.5810576   -4.5810576   -3.4534568  0.013798623   -4.5810576    1.1276008      1024000 
  159000   0.75300442   -4.5824145   -4.5824145   -3.4529102  0.012352635   -4.5824145    1.1295043      1024000 
  160000   0.75299993   -4.5824254   -4.5824254   -3.4529278  0.013770546   -4.5824254    1.1294976      1024000 
  161000   0.75367956   -4.5832492   -4.5832492   -3.4527321  0.018591239   -4.5832492     1.130517      1024000 
  162000   0.75563403   -4.5862633   -4.5862633   -3.4528146  0.014702371   -4.5862633    1.1334487      1024000 
  163000   0.75659333   -4.5866796   -4.5866796   -3.4517919  0.021244859   -4.5866796    1.1348877      1024000 
  164000   0.75607776   -4.5862325   -4.5862325   -3.4521182  0.030194399   -4.5862325    1.1341143      1024000 
  165000   0.75767034   -4.5897335   -4.5897335   -3.4532303   0.02823014   -4.5897335    1.1365032      1024000 
  166000   0.75853433   -4.5908355   -4.5908355   -3.4530363  0.031968006   -4.5908355    1.1377992      1024000 
  167000   0.76049763   -4.5936696   -4.5936696   -3.4529254  0.034255042   -4.5936696    1.1407441      1024000 
  168000   0.76150825   -4.5949175   -4.5949175   -3.4526575   0.04790135   -4.5949175      1.14226      1024000 
  169000   0.76415348   -4.5992662   -4.5992662   -3.4530383  0.053769017   -4.5992662    1.1462279      1024000 
  170000   0.76475836   -4.6007286   -4.6007286   -3.4535934  0.062221156   -4.6007286    1.1471352      1024000 
  171000   0.76676466   -4.6046202   -4.6046202   -3.4544755  0.068705789   -4.6046202    1.1501447      1024000 
  172000   0.76799591   -4.6072286   -4.6072286    -3.455237  0.077385997   -4.6072286    1.1519915      1024000 
  173000   0.76750422   -4.6077017   -4.6077017   -3.4564477  0.086306361   -4.6077017     1.151254      1024000 
  174000   0.76931414    -4.611204    -4.611204   -3.4572351  0.089317113    -4.611204    1.1539689      1024000 
  175000   0.76944422   -4.6123574   -4.6123574   -3.4581934  0.089846941   -4.6123574     1.154164      1024000 
  176000   0.76963663   -4.6130748   -4.6130748   -3.4586222  0.084213526   -4.6130748    1.1544526      1024000 
  177000   0.76847751   -4.6124672   -4.6124672   -3.4597533  0.078574818   -4.6124672    1.1527139      1024000 
  178000   0.76586306    -4.609273    -4.609273   -3.4604808   0.08046483    -4.609273    1.1487923      1024000 
  179000   0.76471596   -4.6072495   -4.6072495   -3.4601779  0.070991874   -4.6072495    1.1470716      1024000 
  180000   0.76299592    -4.604179    -4.604179   -3.4596874  0.060201336    -4.604179    1.1444916      1024000 
  181000   0.76171293   -4.6016184   -4.6016184   -3.4590513  0.052372471   -4.6016184    1.1425671      1024000 
  182000   0.75953934   -4.5975315   -4.5975315   -3.4582248  0.043122611   -4.5975315    1.1393067      1024000 
  183000   0.75702643   -4.5925719   -4.5925719   -3.4570346  0.030861314   -4.5925719    1.1355373      1024000 
  184000   0.75557811   -4.5890888   -4.5890888   -3.4557239  0.018802432   -4.5890888    1.1333649      1024000 
  185000   0.75417044   -4.5854369   -4.5854369   -3.4541835 0.0045041058   -4.5854369    1.1312534      1024000 
  186000    0.7517077   -4.5784437   -4.5784437   -3.4508845 0.0032865874   -4.5784437    1.1275593      1024000 
  187000   0.75113308   -4.5763305   -4.5763305   -3.4496332  -0.01278159   -4.5763305    1.1266973      1024000 
  188000   0.75021026   -4.5735658   -4.5735658   -3.4482527 -0.019600151   -4.5735658    1.1253131      1024000 
  189000   0.74840093   -4.5689096   -4.5689096   -3.4463105  -0.02818238   -4.5689096    1.1225991      1024000 
  190000   0.74649042   -4.5635761   -4.5635761   -3.4438427 -0.028478666   -4.5635761    1.1197334      1024000 
  191000   0.74647113   -4.5617416   -4.5617416   -3.4420372 -0.037072551   -4.5617416    1.1197044      1024000 
  192000   0.74588512   -4.5583521   -4.5583521   -3.4395267 -0.038510681   -4.5583521    1.1188254      1024000 
  193000   0.74608855   -4.5571293   -4.5571293   -3.4379987 -0.039866242   -4.5571293    1.1191306      1024000 
  194000   0.74646702   -4.5554362   -4.5554362   -3.4357379  -0.04046648   -4.5554362    1.1196983      1024000 
  195000   0.74649476   -4.5539905   -4.5539905   -3.4342506 -0.039035734   -4.5539905    1.1197399      1024000 
  196000   0.74791441   -4.5547592   -4.5547592   -3.4328899 -0.033791491   -4.5547592    1.1218693      1024000 
  197000   0.74813004   -4.5536782   -4.5536782   -3.4314854 -0.031424326   -4.5536782    1.1221928      1024000 
  198000   0.74940342   -4.5536402   -4.5536402   -3.4295374   -0.0254625   -4.5536402    1.1241028      1024000 
  199000   0.75171254   -4.5555342   -4.5555342   -3.4279677 -0.020627076   -4.5555342    1.1275665      1024000 
  200000   0.75298609   -4.5569012   -4.5569012   -3.4274243 -0.016104153   -4.5569012    1.1294768      1024000 
  201000   0.75499778   -4.5585761   -4.5585761   -3.4260817 -0.0076328846   -4.5585761    1.1324944      1024000 
  202000   0.75721402   -4.5612959   -4.5612959   -3.4254772 -0.0044577991   -4.5612959    1.1358187      1024000 
  203000   0.75794203   -4.5614834   -4.5614834   -3.4245727 0.0081096705   -4.5614834    1.1369107      1024000 
  204000   0.76013339   -4.5646116   -4.5646116   -3.4244138  0.014437594   -4.5646116    1.1401978      1024000 
  205000   0.76102656   -4.5654831   -4.5654831   -3.4239456  0.024839449   -4.5654831    1.1415375      1024000 
  206000   0.76236517    -4.567007    -4.567007   -3.4234616  0.033501714    -4.567007    1.1435454      1024000 
  207000   0.76485818   -4.5707683   -4.5707683   -3.4234834   0.03101593   -4.5707683    1.1472849      1024000 
  208000   0.76530709   -4.5717608   -4.5717608   -3.4238025  0.038996549   -4.5717608    1.1479583      1024000 
  209000   0.76624389   -4.5730375   -4.5730375    -3.423674  0.046084532   -4.5730375    1.1493635      1024000 
  210000   0.76703321   -4.5740526   -4.5740526   -3.4235052  0.048827081   -4.5740526    1.1505475      1024000 
  211000   0.76837158   -4.5763768   -4.5763768   -3.4238217  0.051875749   -4.5763768     1.152555      1024000 
  212000   0.76730952    -4.575427    -4.575427   -3.4244651  0.047893553    -4.575427    1.1509619      1024000 
  213000   0.76680122   -4.5753285   -4.5753285    -3.425129  0.053585311   -4.5753285    1.1501995      1024000 
  214000   0.76830145   -4.5770181   -4.5770181   -3.4245682  0.043076609   -4.5770181    1.1524498      1024000 
  215000    0.7662381   -4.5741707   -4.5741707   -3.4248159  0.047933659   -4.5741707    1.1493548      1024000 
  216000   0.76388734    -4.570468    -4.570468   -3.4246393  0.049662332    -4.570468    1.1458287      1024000 
  217000   0.76433926   -4.5703722   -4.5703722   -3.4238657  0.040169331   -4.5703722    1.1465066      1024000 
  218000   0.76373811   -4.5691498   -4.5691498    -3.423545  0.032567635   -4.5691498    1.1456048      1024000 
  219000   0.76329403   -4.5678886   -4.5678886   -3.4229499   0.02924172   -4.5678886    1.1449387      1024000 
  220000   0.76328521   -4.5658566   -4.5658566   -3.4209311  0.023165942   -4.5658566    1.1449255      1024000 
  221000   0.76199057   -4.5633792   -4.5633792   -3.4203957  0.018025636   -4.5633792    1.1429835      1024000 
  222000   0.76069188   -4.5612434   -4.5612434   -3.4202079  0.015588919   -4.5612434    1.1410355      1024000 
  223000   0.75998264   -4.5586392   -4.5586392   -3.4186675 0.0031787849   -4.5586392    1.1399716      1024000 
  224000   0.75932576   -4.5560145   -4.5560145   -3.4170282 0.00027655885   -4.5560145    1.1389863      1024000 
  225000   0.75928535   -4.5535353   -4.5535353   -3.4146096 -0.0002638836   -4.5535353    1.1389257      1024000 
  226000   0.75719738   -4.5486577   -4.5486577    -3.412864 0.00026037306   -4.5486577    1.1357938      1024000 
  227000   0.75796579   -4.5478437   -4.5478437   -3.4108973 -0.0022110396   -4.5478437    1.1369464      1024000 
  228000   0.75869976   -4.5460128   -4.5460128   -3.4079654 -0.0053005043   -4.5460128    1.1380473      1024000 
  229000   0.75866857   -4.5450118   -4.5450118   -3.4070112 -0.0086690942   -4.5450118    1.1380005      1024000 
  230000   0.75887623   -4.5424527   -4.5424527   -3.4041407 -0.0074503353   -4.5424527     1.138312      1024000 
  231000   0.75793968    -4.539858    -4.539858   -3.4029508 -0.0094037305    -4.539858    1.1369072      1024000 
  232000   0.75832553   -4.5386592   -4.5386592   -3.4011732 -0.0049749892   -4.5386592     1.137486      1024000 
  233000    0.7604856   -4.5401453   -4.5401453   -3.3994192 -0.010529218   -4.5401453    1.1407261      1024000 
  234000   0.75975224   -4.5375276   -4.5375276   -3.3979016 -0.0054140812   -4.5375276     1.139626      1024000 
  235000   0.76058009   -4.5374188   -4.5374188    -3.396551 -0.006411877   -4.5374188    1.1408678      1024000 
  236000   0.76121444   -4.5368269   -4.5368269   -3.3950076 -0.0066069525   -4.5368269    1.1418193      1024000 
  237000   0.76083836   -4.5356864   -4.5356864   -3.3944312 -0.00060233195   -4.5356864    1.1412552      1024000 
  238000   0.76114894   -4.5360436   -4.5360436   -3.3943225 0.0025764514   -4.5360436    1.1417211      1024000 
  239000   0.76153499   -4.5362464   -4.5362464   -3.3939463 -0.0021182547   -4.5362464    1.1423002      1024000 
  240000   0.76315577   -4.5370082   -4.5370082   -3.3922769 0.0052964063   -4.5370082    1.1447313      1024000 
  241000   0.76344873   -4.5356328   -4.5356328    -3.390462 0.0075150789   -4.5356328    1.1451708      1024000 
  242000   0.76512425   -4.5367348   -4.5367348   -3.3890507  0.010996928   -4.5367348     1.147684      1024000 
  243000   0.76614418   -4.5368696   -4.5368696   -3.3876557  0.013056178   -4.5368696    1.1492139      1024000 
  244000   0.76656811    -4.536499    -4.536499   -3.3866492  0.024385478    -4.536499    1.1498498      1024000 
  245000   0.76747139   -4.5373219   -4.5373219   -3.3861171  0.017298019   -4.5373219    1.1512048      1024000 
  246000   0.76741359   -4.5371006   -4.5371006   -3.3859825  0.025866357   -4.5371006     1.151118      1024000 
  247000   0.76937541   -4.5390619   -4.5390619   -3.3850011  0.022992472   -4.5390619    1.1540608      1024000 
  248000   0.76899903   -4.5370283   -4.5370283   -3.3835321  0.027051536   -4.5370283    1.1534962      1024000 
  249000   0.76991812   -4.5381505   -4.5381505   -3.3832756  0.023844347   -4.5381505    1.1548748      1024000 
  250000   0.76806857   -4.5362405   -4.5362405     -3.38414  0.024967948   -4.5362405    1.1521005      1024000 
  251000   0.76918656   -4.5368038   -4.5368038   -3.3830263  0.025755796   -4.5368038    1.1537775      1024000 
  252000   0.77017119   -4.5379546   -4.5379546   -3.3827002  0.022517702   -4.5379546    1.1552544      1024000 
  253000   0.76876034   -4.5351328   -4.5351328   -3.3819946  0.025241326   -4.5351328    1.1531382      1024000 
  254000   0.76939545   -4.5344195   -4.5344195   -3.3803287  0.021996229   -4.5344195    1.1540908      1024000 
  255000   0.76823268   -4.5322455   -4.5322455   -3.3798988  0.025936395   -4.5322455    1.1523467      1024000 
  256000   0.76853913   -4.5323175   -4.5323175   -3.3795111  0.021478413   -4.5323175    1.1528064      1024000 
  257000   0.76978302   -4.5331654   -4.5331654   -3.3784932  0.018729134   -4.5331654    1.1546722      1024000 
  258000   0.76763113   -4.5297727   -4.5297727   -3.3783284  0.023382519   -4.5297727    1.1514444      1024000 
  259000   0.76833813   -4.5289413   -4.5289413   -3.3764365  0.018192485   -4.5289413    1.1525049      1024000 
  260000   0.76801431   -4.5271108   -4.5271108   -3.3750917  0.019318902   -4.5271108    1.1520191      1024000 
  261000   0.76883473   -4.5278383   -4.5278383   -3.3745885  0.015404292   -4.5278383    1.1532498      1024000 
  262000   0.76853424   -4.5252348   -4.5252348   -3.3724357  0.014860666   -4.5252348     1.152799      1024000 
  263000   0.76879263   -4.5233478   -4.5233478   -3.3701612  0.012969184   -4.5233478    1.1531866      1024000 
  264000   0.76873589   -4.5206069   -4.5206069   -3.3675054  0.015288232   -4.5206069    1.1531015      1024000 
  265000   0.77002107   -4.5203794   -4.5203794   -3.3653501  0.014986807   -4.5203794    1.1550293      1024000 
  266000   0.77133037   -4.5214114   -4.5214114   -3.3644182  0.011188689   -4.5214114    1.1569932      1024000 
  267000   0.77010662   -4.5175995   -4.5175995   -3.3624419  0.011875374   -4.5175995    1.1551576      1024000 
  268000   0.77038312   -4.5158358   -4.5158358   -3.3602635  0.014803728   -4.5158358    1.1555723      1024000 
  269000   0.76928977   -4.5131367   -4.5131367   -3.3592044  0.012742084   -4.5131367    1.1539323      1024000 
  270000   0.76963561   -4.5127113   -4.5127113   -3.3582603  0.014378521   -4.5127113    1.1544511      1024000 
  271000    0.7702993   -4.5124189   -4.5124189   -3.3569723 0.0082472296   -4.5124189    1.1554466      1024000 
  272000   0.77085583   -4.5119068   -4.5119068   -3.3556254 0.0047565919   -4.5119068    1.1562814      1024000 
  273000   0.77012578   -4.5086643   -4.5086643    -3.353478 0.0097485872   -4.5086643    1.1551863      1024000 
  274000   0.77057971    -4.507854    -4.507854   -3.3519868 0.0067722098    -4.507854    1.1558672      1024000 
  275000   0.77068111    -4.506388    -4.506388   -3.3503687  0.010783119    -4.506388    1.1560193      1024000 
  276000   0.77089225   -4.5067124   -4.5067124   -3.3503764 0.0059453142   -4.5067124     1.156336      1024000 
  277000   0.77084191   -4.5038576   -4.5038576    -3.347597  0.010848601   -4.5038576    1.1562605      1024000 
  278000   0.77192991   -4.5042858   -4.5042858   -3.3463933  0.002677892   -4.5042858    1.1578925      1024000 
  279000   0.77202641   -4.5024067   -4.5024067   -3.3443695 0.0046950634   -4.5024067    1.1580373      1024000 
  280000   0.77165349   -4.4999246   -4.4999246   -3.3424467  0.011882794   -4.4999246    1.1574779      1024000 
  281000   0.77281741    -4.500209    -4.500209   -3.3409853  0.011160879    -4.500209    1.1592238      1024000 
  282000   0.77432685   -4.5012741   -4.5012741   -3.3397862  0.011694758   -4.5012741    1.1614879      1024000 
  283000   0.77461428   -4.5011472   -4.5011472   -3.3392281 0.0059367741   -4.5011472    1.1619191      1024000 
  284000    0.7735618   -4.4981767   -4.4981767   -3.3378364  0.010933009   -4.4981767    1.1603403      1024000 
  285000   0.77386239   -4.4970292   -4.4970292    -3.336238  0.014782407   -4.4970292    1.1607912      1024000 
  286000   0.77510161   -4.4968357   -4.4968357   -3.3341857  0.010868161   -4.4968357      1.16265      1024000 
  287000   0.77564078   -4.4957167   -4.4957167   -3.3322579   0.01408333   -4.4957167    1.1634588      1024000 
  288000   0.77554086   -4.4949982   -4.4949982   -3.3316893  0.014020554   -4.4949982    1.1633089      1024000 
  289000   0.77488865   -4.4932421   -4.4932421   -3.3309115  0.013801893   -4.4932421    1.1623306      1024000 
  290000   0.77582889    -4.493738    -4.493738    -3.329997  0.016132377    -4.493738     1.163741      1024000 
  291000   0.77585614   -4.4921596   -4.4921596   -3.3283777  0.015812594   -4.4921596    1.1637819      1024000 
  292000   0.77652928   -4.4923494   -4.4923494   -3.3275578  0.015240778   -4.4923494    1.1647916      1024000 
  293000   0.77702008   -4.4914855   -4.4914855   -3.3259578  0.010556309   -4.4914855    1.1655278      1024000 
  294000   0.77579809   -4.4888856   -4.4888856   -3.3251908   0.01337773   -4.4888856    1.1636948      1024000 
  295000   0.77698015   -4.4893933   -4.4893933   -3.3239254  0.017663766   -4.4893933    1.1654679      1024000 
  296000   0.77800614   -4.4892522   -4.4892522   -3.3222454  0.017219444   -4.4892522    1.1670068      1024000 
  297000   0.77770322   -4.4874897   -4.4874897   -3.3209372  0.017479222   -4.4874897    1.1665525      1024000 
  298000   0.77767194   -4.4869044   -4.4869044   -3.3203989  0.013318823   -4.4869044    1.1665055      1024000 
  299000   0.77744741   -4.4846544   -4.4846544   -3.3184857   0.01860744   -4.4846544    1.1661687      1024000 
  300000   0.77781794   -4.4841125   -4.4841125    -3.317388  0.017547029   -4.4841125    1.1667245      1024000 
  301000   0.77883453   -4.4852276   -4.4852276   -3.3169781  0.016550481   -4.4852276    1.1682494      1024000 
  302000   0.77832789   -4.4820472   -4.4820472   -3.3145578   0.01804198   -4.4820472    1.1674895      1024000 
  303000   0.77913392   -4.4822432   -4.4822432   -3.3135447  0.013306874   -4.4822432    1.1686985      1024000 
  304000   0.77959793   -4.4811329   -4.4811329   -3.3117383  0.016800762   -4.4811329    1.1693945      1024000 
  305000   0.78001241   -4.4806866   -4.4806866   -3.3106704  0.016869237   -4.4806866    1.1700162      1024000 
  306000   0.78023788   -4.4787158   -4.4787158   -3.3083613  0.017655571   -4.4787158    1.1703545      1024000 
  307000   0.78092651   -4.4782747   -4.4782747   -3.3068874  0.015961969   -4.4782747    1.1713874      1024000 
  308000   0.77915162   -4.4748981   -4.4748981    -3.306173  0.023216858   -4.4748981    1.1687251      1024000 
  309000   0.77976197   -4.4741232   -4.4741232   -3.3044826  0.017911386   -4.4741232    1.1696406      1024000 
  310000   0.78044401   -4.4726894   -4.4726894   -3.3020257  0.019041648   -4.4726894    1.1706636      1024000 
  311000    0.7820881   -4.4736844   -4.4736844   -3.3005546  0.011594894   -4.4736844    1.1731298      1024000 
  312000   0.78045833   -4.4709185   -4.4709185   -3.3002334  0.011483982   -4.4709185    1.1706851      1024000 
  313000   0.78046399   -4.4701503   -4.4701503   -3.2994567  0.016821732   -4.4701503    1.1706936      1024000 
  314000   0.78187405    -4.469572    -4.469572   -3.2967633   0.01538634    -4.469572    1.1728087      1024000 
  315000   0.78276926   -4.4686293   -4.4686293   -3.2944778  0.015259541   -4.4686293    1.1741515      1024000 
  316000    0.7816902   -4.4658391   -4.4658391   -3.2933062  0.012227103   -4.4658391    1.1725329      1024000 
  317000   0.78233826   -4.4656483   -4.4656483   -3.2921433  0.011585043   -4.4656483     1.173505      1024000 
  318000   0.78089009   -4.4628348   -4.4628348   -3.2915021  0.011734034   -4.4628348    1.1713328      1024000 
  319000    0.7821771   -4.4623056   -4.4623056   -3.2890424  0.013954141   -4.4623056    1.1732633      1024000 
  320000   0.78376735   -4.4619027   -4.4619027   -3.2862541 0.0079059827   -4.4619027    1.1756486      1024000 
  321000   0.78445627   -4.4608221   -4.4608221   -3.2841401  0.013460726   -4.4608221     1.176682      1024000 
  322000   0.78407029   -4.4584722   -4.4584722   -3.2823692  0.014929936   -4.4584722     1.176103      1024000 
  323000   0.78330095   -4.4551163   -4.4551163   -3.2801672  0.014375861   -4.4551163     1.174949      1024000 
  324000   0.78382565   -4.4542323   -4.4542323   -3.2784962  0.015947512   -4.4542323    1.1757361      1024000 
  325000   0.78472944   -4.4544094   -4.4544094   -3.2773176  0.011268485   -4.4544094    1.1770918      1024000 
  326000   0.78424629   -4.4531347   -4.4531347   -3.2767676  0.017645901   -4.4531347     1.176367      1024000 
  327000   0.78500678   -4.4528004   -4.4528004   -3.2752926  0.015162252   -4.4528004    1.1775078      1024000 
  328000   0.78527991   -4.4517007   -4.4517007   -3.2737832   0.01552431   -4.4517007    1.1779175      1024000 
  329000   0.78472732   -4.4493441   -4.4493441   -3.2722556   0.01118734   -4.4493441    1.1770886      1024000 
  330000    0.7848108   -4.4476328   -4.4476328    -3.270419  0.013955235   -4.4476328    1.1772138      1024000 
  331000   0.78652743   -4.4478433   -4.4478433   -3.2680546 0.0093043796   -4.4478433    1.1797887      1024000 
  332000   0.78555913   -4.4455985   -4.4455985   -3.2672622  0.012379839   -4.4455985    1.1783363      1024000 
  333000   0.78584446   -4.4439068   -4.4439068   -3.2651425  0.013011772   -4.4439068    1.1787643      1024000 
  334000   0.78593754   -4.4430868   -4.4430868   -3.2641828 0.0093136641   -4.4430868    1.1789039      1024000 
  335000    0.7863353   -4.4413668   -4.4413668   -3.2618662  0.013742004   -4.4413668    1.1795006      1024000 
  336000   0.78706869    -4.441066    -4.441066   -3.2604654  0.010871149    -4.441066    1.1806006      1024000 
  337000   0.78748847   -4.4389127   -4.4389127   -3.2576824  0.015920964   -4.4389127    1.1812303      1024000 
  338000   0.78839158   -4.4389843   -4.4389843   -3.2563993  0.015746745   -4.4389843     1.182585      1024000 
  339000   0.78846172   -4.4370365   -4.4370365   -3.2543463  0.020990991   -4.4370365    1.1826902      1024000 
  340000   0.78824723    -4.436098    -4.436098   -3.2537296  0.019741672    -4.436098    1.1823685      1024000 
  341000   0.79049676   -4.4372288   -4.4372288    -3.251486  0.019504905   -4.4372288    1.1857427      1024000 
  342000   0.78954569   -4.4347135   -4.4347135   -3.2503974  0.017563198   -4.4347135    1.1843161      1024000 
  343000   0.79054966   -4.4342869   -4.4342869   -3.2484649  0.017402782   -4.4342869    1.1858221      1024000 
  344000   0.79028366   -4.4319864   -4.4319864   -3.2465634  0.017249823   -4.4319864    1.1854231      1024000 
  345000   0.78957381   -4.4304749   -4.4304749   -3.2461166  0.020087358   -4.4304749    1.1843583      1024000 
  346000   0.79098308   -4.4300053   -4.4300053    -3.243533  0.015136637   -4.4300053    1.1864722      1024000 
  347000    0.7916855   -4.4294185   -4.4294185   -3.2418927  0.014216359   -4.4294185    1.1875258      1024000 
  348000   0.79125032    -4.427077    -4.427077   -3.2402039  0.014447689    -4.427077    1.1868731      1024000 
  349000   0.79154634   -4.4258201   -4.4258201    -3.238503  0.011165992   -4.4258201    1.1873171      1024000 
  350000   0.79024977   -4.4231381   -4.4231381   -3.2377659  0.013622639   -4.4231381    1.1853723      1024000 
  351000   0.79142551   -4.4233956   -4.4233956   -3.2362597  0.010756129   -4.4233956    1.1871359      1024000 
  352000   0.79186049   -4.4226312   -4.4226312   -3.2348429  0.011581725   -4.4226312    1.1877883      1024000 
  353000    0.7918442   -4.4204802   -4.4204802   -3.2327163  0.014570326   -4.4204802    1.1877639      1024000 
  354000    0.7931511   -4.4199786   -4.4199786   -3.2302543  0.014305349   -4.4199786    1.1897242      1024000 
  355000   0.79280411   -4.4181985   -4.4181985   -3.2289948  0.016128661   -4.4181985    1.1892038      1024000 
  356000   0.79210749   -4.4156544   -4.4156544   -3.2274956  0.012369407   -4.4156544    1.1881588      1024000 
  357000   0.79342662   -4.4154722   -4.4154722   -3.2253347  0.012663648   -4.4154722    1.1901375      1024000 
  358000    0.7942851    -4.415155    -4.415155   -3.2237298 0.0084693012    -4.415155    1.1914252      1024000 
  359000   0.79343714   -4.4121584   -4.4121584   -3.2220051  0.014064259   -4.4121584    1.1901533      1024000 
  360000   0.79304741   -4.4097068   -4.4097068   -3.2201381  0.019316517   -4.4097068    1.1895687      1024000 
  361000    0.7940533   -4.4092928   -4.4092928   -3.2182153  0.013934648   -4.4092928    1.1910775      1024000 
  362000   0.79517741    -4.408568    -4.408568   -3.2158043  0.013062878    -4.408568    1.1927637      1024000 
  363000   0.79673627   -4.4094798   -4.4094798   -3.2143778 0.0061630394   -4.4094798     1.195102      1024000 
  364000    0.7962558   -4.4067113   -4.4067113     -3.21233  0.015558748   -4.4067113    1.1943813      1024000 
  365000   0.79590762   -4.4042045   -4.4042045   -3.2103455  0.014956403   -4.4042045     1.193859      1024000 
  366000   0.79583123   -4.4023092   -4.4023092   -3.2085647  0.019613546   -4.4023092    1.1937444      1024000 
  367000   0.79690396   -4.4027407   -4.4027407   -3.2073872  0.012656734   -4.4027407    1.1953535      1024000 
  368000   0.79666416   -4.4010893   -4.4010893   -3.2060955  0.014049844   -4.4010893    1.1949938      1024000 
  369000   0.79532786   -4.3973496   -4.3973496   -3.2043602   0.01894679   -4.3973496    1.1929894      1024000 
  370000   0.79717025   -4.3982527   -4.3982527   -3.2024998  0.012892708   -4.3982527     1.195753      1024000 
  371000   0.79718683   -4.3971395   -4.3971395   -3.2013617  0.013284098   -4.3971395    1.1957778      1024000 
  372000   0.79769335   -4.3970474   -4.3970474   -3.2005098  0.010351595   -4.3970474    1.1965376      1024000 
  373000   0.79715411    -4.394207    -4.394207   -3.1984783 0.0088286872    -4.394207    1.1957287      1024000 
  374000   0.79622104   -4.3912292   -4.3912292   -3.1969001   0.01217253   -4.3912292    1.1943291      1024000 
  375000   0.79771462   -4.3924474   -4.3924474   -3.1958779 0.0064123458   -4.3924474    1.1965695      1024000 
  376000   0.79790725   -4.3901857   -4.3901857   -3.1933273  0.012221219   -4.3901857    1.1968585      1024000 
  377000   0.79721059   -4.3875008   -4.3875008   -3.1916873  0.014640288   -4.3875008    1.1958135      1024000 
  378000   0.79803511   -4.3880139   -4.3880139   -3.1909636  0.011681679   -4.3880139    1.1970502      1024000 
  379000   0.79942211   -4.3878312   -4.3878312   -3.1887005 0.0070557739   -4.3878312    1.1991307      1024000 
  380000   0.79987727   -4.3868008   -4.3868008   -3.1869874  0.012796842   -4.3868008    1.1998135      1024000 
  381000   0.80011657   -4.3848312   -4.3848312   -3.1846588  0.015816198   -4.3848312    1.2001724      1024000 
  382000   0.80103376   -4.3843466   -4.3843466   -3.1827984  0.015134383   -4.3843466    1.2015482      1024000 
  383000   0.80083522   -4.3817805   -4.3817805   -3.1805302  0.017731191   -4.3817805    1.2012504      1024000 
  384000   0.80180648    -4.380524    -4.380524   -3.1778167  0.015201558    -4.380524    1.2027073      1024000 
  385000   0.80187797   -4.3786884   -4.3786884   -3.1758739  0.020627411   -4.3786884    1.2028145      1024000 
  386000   0.80284239   -4.3781265   -4.3781265   -3.1738653  0.017819726   -4.3781265    1.2042611      1024000 
  387000   0.80354023   -4.3775628   -4.3775628   -3.1722549   0.01823539   -4.3775628    1.2053079      1024000 
  388000   0.80409858   -4.3765727   -4.3765727   -3.1704273    0.0172054   -4.3765727    1.2061454      1024000 
  389000   0.80317847    -4.373448    -4.373448   -3.1686828  0.024671285    -4.373448    1.2047653      1024000 
  390000   0.80336934   -4.3729386   -4.3729386    -3.167887  0.016110611   -4.3729386    1.2050516      1024000 
  391000   0.80417284   -4.3716301   -4.3716301   -3.1653732  0.015201206   -4.3716301    1.2062568      1024000 
  392000   0.80363511   -4.3697396   -4.3697396   -3.1642893  0.017462908   -4.3697396    1.2054502      1024000 
  393000   0.80463785   -4.3698263   -4.3698263    -3.162872 0.0078840569   -4.3698263    1.2069543      1024000 
  394000   0.80372442   -4.3664067   -4.3664067   -3.1608226  0.016726283   -4.3664067    1.2055842      1024000 
  395000    0.8047577   -4.3655653   -4.3655653   -3.1584312  0.012543121   -4.3655653    1.2071341      1024000 
  396000   0.80397092   -4.3638918   -4.3638918   -3.1579379  0.015344866   -4.3638918    1.2059539      1024000 
  397000   0.80514529   -4.3634895   -4.3634895    -3.155774   0.01292735   -4.3634895    1.2077155      1024000 
  398000    0.8048579   -4.3610853   -4.3610853   -3.1538009  0.019763327   -4.3610853    1.2072844      1024000 
  399000   0.80622183   -4.3611378   -4.3611378   -3.1518075  0.017442757   -4.3611378    1.2093303      1024000 
  400000   0.80676789   -4.3589844   -4.3589844    -3.148835  0.017337342   -4.3589844    1.2101494      1024000 
  401000   0.80711156   -4.3570969   -4.3570969    -3.146432  0.016117637   -4.3570969    1.2106649      1024000 
  402000   0.80685457   -4.3547505   -4.3547505   -3.1444711  0.016934387   -4.3547505    1.2102794      1024000 
  403000   0.80762899   -4.3536812   -4.3536812   -3.1422402  0.017683373   -4.3536812     1.211441      1024000 
  404000   0.80762779    -4.352088    -4.352088   -3.1406488  0.014918976    -4.352088    1.2114392      1024000 
  405000   0.80807657    -4.349661    -4.349661   -3.1375486  0.020254829    -4.349661    1.2121124      1024000 
  406000   0.80912201   -4.3490874   -4.3490874   -3.1354069  0.016713602   -4.3490874    1.2136806      1024000 
  407000   0.80790281   -4.3457205   -4.3457205   -3.1338688  0.016837137   -4.3457205    1.2118517      1024000 
  408000    0.8098818   -4.3468843   -4.3468843   -3.1320641  0.013221196   -4.3468843    1.2148202      1024000 
  409000    0.8083699   -4.3424077   -4.3424077   -3.1298553  0.021503138   -4.3424077    1.2125524      1024000 
  410000   0.80888492   -4.3419794   -4.3419794   -3.1286545   0.01919433   -4.3419794    1.2133249      1024000 
  411000   0.80896271   -4.3402752   -4.3402752   -3.1268336  0.018841456   -4.3402752    1.2134416      1024000 
  412000   0.80996458   -4.3394023   -4.3394023   -3.1244579  0.014047588   -4.3394023    1.2149444      1024000 
  413000   0.80997435   -4.3378325   -4.3378325   -3.1228734   0.01317637   -4.3378325    1.2149591      1024000 
  414000    0.8100251   -4.3368261   -4.3368261   -3.1217909  0.009861942   -4.3368261    1.2150352      1024000 
  415000   0.81005817   -4.3346486   -4.3346486   -3.1195638  0.012175858   -4.3346486    1.2150848      1024000 
  416000   0.80975731   -4.3326113   -4.3326113   -3.1179778  0.014640821   -4.3326113    1.2146335      1024000 
  417000   0.81069861   -4.3321654   -4.3321654   -3.1161199 0.0097700527   -4.3321654    1.2160455      1024000 
  418000   0.80992124   -4.3279568   -4.3279568   -3.1130774  0.015763668   -4.3279568    1.2148794      1024000 
  419000   0.81124703   -4.3276607   -4.3276607   -3.1107926 0.0074859638   -4.3276607    1.2168681      1024000 
  420000   0.81199131   -4.3266754   -4.3266754   -3.1086909 0.0090345359   -4.3266754    1.2179845      1024000 
  421000   0.81026881   -4.3231741   -4.3231741   -3.1077733  0.010506688   -4.3231741    1.2154007      1024000 
  422000   0.81137295   -4.3220249   -4.3220249   -3.1049679  0.011637029   -4.3220249     1.217057      1024000 
  423000   0.81148972   -4.3196774   -4.3196774   -3.1024453  0.012364614   -4.3196774    1.2172321      1024000 
  424000   0.81186453   -4.3179085   -4.3179085   -3.1001142  0.014080736   -4.3179085    1.2177943      1024000 
  425000   0.81432396   -4.3195208   -4.3195208   -3.0980373  0.013614776   -4.3195208    1.2214835      1024000 
  426000   0.81315154   -4.3162003   -4.3162003   -3.0964755  0.019540486   -4.3162003    1.2197248      1024000 
  427000    0.8145916   -4.3162476   -4.3162476   -3.0943626  0.010938899   -4.3162476    1.2218849      1024000 
  428000   0.81444375    -4.314658    -4.314658   -3.0929949  0.013750069    -4.314658    1.2216631      1024000 
  429000   0.81523996   -4.3138999   -4.3138999   -3.0910424  0.014156922   -4.3138999    1.2228575      1024000 
  430000   0.81521195    -4.311478    -4.311478   -3.0886626   0.01817824    -4.311478    1.2228154      1024000 
  431000   0.81587073   -4.3100327   -4.3100327   -3.0862291  0.018037576   -4.3100327    1.2238036      1024000 
  432000   0.81606396   -4.3097098   -4.3097098   -3.0856163  0.012465192   -4.3097098    1.2240935      1024000 
  433000   0.81513297   -4.3060346   -4.3060346   -3.0833376  0.016441428   -4.3060346     1.222697      1024000 
  434000   0.81657934   -4.3052444   -4.3052444   -3.0803779   0.01362572   -4.3052444    1.2248665      1024000 
  435000   0.81671725   -4.3043318   -4.3043318   -3.0792584  0.011340407   -4.3043318    1.2250734      1024000 
  436000   0.81614926   -4.3014847   -4.3014847   -3.0772633  0.018313136   -4.3014847    1.2242214      1024000 
  437000   0.81752908   -4.3019185   -4.3019185   -3.0756274  0.013513875   -4.3019185    1.2262911      1024000 
  438000   0.81904599   -4.3025303   -4.3025303   -3.0739638  0.010441225   -4.3025303    1.2285665      1024000 
  439000   0.81924683   -4.3004321   -4.3004321   -3.0715643  0.017163999   -4.3004321    1.2288678      1024000 
  440000   0.81813976    -4.297183    -4.297183   -3.0699759  0.022221591    -4.297183    1.2272072      1024000 
  441000   0.82009497   -4.2970819   -4.2970819   -3.0669419  0.016501982   -4.2970819      1.23014      1024000 
  442000   0.82068709   -4.2949461   -4.2949461   -3.0639179  0.020695592   -4.2949461    1.2310281      1024000 
  443000   0.82098662   -4.2940357   -4.2940357   -3.0625582   0.01663455   -4.2940357    1.2314774      1024000 
  444000   0.81947355   -4.2899871   -4.2899871   -3.0607793  0.023427411   -4.2899871    1.2292078      1024000 
  445000   0.82117989   -4.2906199   -4.2906199   -3.0588525  0.011822843   -4.2906199    1.2317673      1024000 
  446000   0.82105371    -4.287756    -4.287756   -3.0561779  0.015290896    -4.287756    1.2315781      1024000 
  447000   0.82072155   -4.2853062   -4.2853062   -3.0542264  0.016198027   -4.2853062    1.2310798      1024000 
  448000   0.82197935   -4.2857321   -4.2857321   -3.0527656  0.014706321   -4.2857321    1.2329665      1024000 
  449000   0.82234706   -4.2838055   -4.2838055   -3.0502875  0.014571349   -4.2838055    1.2335181      1024000 
  450000    0.8225691   -4.2822091   -4.2822091   -3.0483579  0.015994412   -4.2822091    1.2338511      1024000 
  451000   0.82272084   -4.2812064   -4.2812064   -3.0471276  0.014696726   -4.2812064    1.2340788      1024000 
  452000   0.82335005   -4.2796498   -4.2796498   -3.0446273  0.018716294   -4.2796498    1.2350226      1024000 
  453000   0.82339364   -4.2766774   -4.2766774   -3.0415895  0.025080365   -4.2766774     1.235088      1024000 
  454000   0.82489929   -4.2766449   -4.2766449   -3.0392985  0.023553437   -4.2766449    1.2373464      1024000 
  455000   0.82487173   -4.2747729   -4.2747729   -3.0374678  0.018239031   -4.2747729    1.2373051      1024000 
  456000   0.82477092    -4.273833    -4.273833   -3.0366791  0.012292314    -4.273833    1.2371539      1024000 
  457000   0.82435568    -4.270922    -4.270922    -3.034391  0.019745749    -4.270922     1.236531      1024000 
  458000   0.82438244   -4.2688321   -4.2688321   -3.0322609  0.016930804   -4.2688321    1.2365712      1024000 
  459000   0.82406439   -4.2655224   -4.2655224   -3.0294283  0.021189099   -4.2655224    1.2360941      1024000 
  460000   0.82505232    -4.264929    -4.264929   -3.0273531   0.01426969    -4.264929     1.237576      1024000 
  461000   0.82507085   -4.2637993   -4.2637993   -3.0261956 0.0099553012   -4.2637993    1.2376038      1024000 
  462000   0.82361146   -4.2605485   -4.2605485   -3.0251338  0.012959167   -4.2605485    1.2354147      1024000 
  463000   0.82439646   -4.2594135   -4.2594135   -3.0228214   0.01046998   -4.2594135    1.2365922      1024000 
  464000   0.82432069   -4.2570893   -4.2570893   -3.0206107  0.012883052   -4.2570893    1.2364785      1024000 
  465000   0.82562421   -4.2573008   -4.2573008    -3.018867 0.0068762442   -4.2573008    1.2384338      1024000 
  466000   0.82493746   -4.2545753   -4.2545753   -3.0171716 0.0093036358   -4.2545753    1.2374037      1024000 
  467000   0.82607061   -4.2533288   -4.2533288   -3.0142254 0.0099927629   -4.2533288    1.2391034      1024000 
  468000   0.82541412   -4.2502786   -4.2502786   -3.0121599  0.015542295   -4.2502786    1.2381187      1024000 
  469000   0.82676417   -4.2490424   -4.2490424   -3.0088986  0.017525487   -4.2490424    1.2401437      1024000 
  470000   0.82751863   -4.2487766   -4.2487766   -3.0075012   0.02448797   -4.2487766    1.2412754      1024000 
  471000   0.82871881   -4.2475587   -4.2475587    -3.004483  0.021684006   -4.2475587    1.2430757      1024000 
  472000   0.82875043   -4.2459156   -4.2459156   -3.0027925  0.025403934   -4.2459156    1.2431231      1024000 
  473000   0.82950387   -4.2449337   -4.2449337   -3.0006804  0.017966169   -4.2449337    1.2442533      1024000 
  474000   0.83040438   -4.2436965   -4.2436965   -2.9980925  0.015402956   -4.2436965     1.245604      1024000 
  475000   0.82959428   -4.2412766   -4.2412766   -2.9968877  0.016021742   -4.2412766    1.2443889      1024000 
  476000   0.83004299   -4.2387433   -4.2387433   -2.9936813  0.014048827   -4.2387433     1.245062      1024000 
  477000    0.8294773   -4.2361729   -4.2361729   -2.9919595  0.015141622   -4.2361729    1.2442134      1024000 
  478000   0.82999363   -4.2354121   -4.2354121   -2.9904242 0.0095208887   -4.2354121    1.2449879      1024000 
  479000   0.83024588   -4.2329221   -4.2329221   -2.9875558   0.01397447   -4.2329221    1.2453663      1024000 
  480000    0.8310075   -4.2328864   -4.2328864   -2.9863777  0.011413902   -4.2328864    1.2465087      1024000 
  481000   0.83163231   -4.2303215   -4.2303215   -2.9828755  0.012249969   -4.2303215    1.2474459      1024000 
  482000   0.83190229   -4.2284081   -4.2284081   -2.9805572  0.011833728   -4.2284081    1.2478509      1024000 
  483000   0.83196954   -4.2261768   -4.2261768    -2.978225  0.016790639   -4.2261768    1.2479518      1024000 
  484000   0.83220553   -4.2236295   -4.2236295   -2.9753238   0.02139845   -4.2236295    1.2483058      1024000 
  485000   0.83364962   -4.2243175   -4.2243175   -2.9738456  0.018148811   -4.2243175    1.2504719      1024000 
  486000   0.83348952   -4.2218217   -4.2218217   -2.9715899  0.021318182   -4.2218217    1.2502317      1024000 
  487000   0.83455055   -4.2220456   -4.2220456   -2.9702223  0.012256799   -4.2220456    1.2518233      1024000 
  488000   0.83347545   -4.2185651   -4.2185651   -2.9683545  0.022336686   -4.2185651    1.2502106      1024000 
  489000   0.83354037   -4.2167088   -4.2167088   -2.9664007  0.020494831   -4.2167088     1.250308      1024000 
  490000   0.83538356   -4.2165235   -4.2165235   -2.9634507   0.01413454   -4.2165235    1.2530728      1024000 
  491000   0.83473794   -4.2129907   -4.2129907   -2.9608864  0.019968238   -4.2129907    1.2521044      1024000 
  492000    0.8352568   -4.2118575   -4.2118575   -2.9589748  0.014617026   -4.2118575    1.2528827      1024000 
  493000   0.83488104   -4.2092527   -4.2092527   -2.9569336  0.014587446   -4.2092527     1.252319      1024000 
  494000   0.83520592    -4.207289    -4.207289   -2.9544826  0.015368274    -4.207289    1.2528063      1024000 
  495000   0.83500792   -4.2056509   -4.2056509   -2.9531416  0.015831522   -4.2056509    1.2525093      1024000 
  496000   0.83519895   -4.2045817   -4.2045817   -2.9517859  0.011801944   -4.2045817    1.2527959      1024000 
  497000   0.83525107   -4.2022462   -4.2022462   -2.9493721 0.0072617959   -4.2022462    1.2528741      1024000 
  498000   0.83522738   -4.2007428   -4.2007428   -2.9479043  0.011636558   -4.2007428    1.2528385      1024000 
  499000    0.8355308   -4.1980172   -4.1980172   -2.9447235 0.0087490052   -4.1980172    1.2532937      1024000 
  500000   0.83631209   -4.1974047   -4.1974047   -2.9429391  0.010495143   -4.1974047    1.2544656      1024000 
  501000   0.83588178   -4.1944701   -4.1944701     -2.94065  0.015083717   -4.1944701    1.2538201      1024000 
  502000    0.8366823   -4.1924223   -4.1924223   -2.9374014  0.016035241   -4.1924223    1.2550209      1024000 
  503000   0.83836708   -4.1922674   -4.1922674   -2.9347194  0.012780302   -4.1922674    1.2575481      1024000 
  504000     0.838743   -4.1904433   -4.1904433   -2.9323314  0.013808402   -4.1904433    1.2581119      1024000 
  505000   0.83938396   -4.1889236   -4.1889236   -2.9298503  0.015058091   -4.1889236    1.2590734      1024000 
  506000   0.83912877   -4.1871061   -4.1871061   -2.9284155  0.018937855   -4.1871061    1.2586906      1024000 
  507000   0.83957689   -4.1857604   -4.1857604   -2.9263976  0.023995699   -4.1857604    1.2593628      1024000 
  508000   0.83981857   -4.1837229   -4.1837229   -2.9239976  0.020712583   -4.1837229    1.2597253      1024000 
  509000   0.84018303   -4.1820176   -4.1820176   -2.9217456  0.018884548   -4.1820176     1.260272      1024000 
  510000   0.83923435   -4.1782379   -4.1782379   -2.9193889  0.020470732   -4.1782379     1.258849      1024000 
  511000   0.84127073   -4.1783139   -4.1783139   -2.9164104  0.014118023   -4.1783139    1.2619035      1024000 
  512000   0.84040226    -4.174353    -4.174353   -2.9137522  0.017857708    -4.174353    1.2606008      1024000 
  513000    0.8411458   -4.1740664   -4.1740664   -2.9123503  0.012641295   -4.1740664    1.2617161      1024000 
  514000   0.84043253   -4.1723471   -4.1723471   -2.9117009  0.014929362   -4.1723471    1.2606462      1024000 
  515000   0.84018811   -4.1693457   -4.1693457   -2.9090661  0.012456765   -4.1693457    1.2602796      1024000 
  516000    0.8415696   -4.1686301   -4.1686301   -2.9062782 0.0088616035   -4.1686301    1.2623518      1024000 
  517000   0.84134989   -4.1654672   -4.1654672   -2.9034449   0.01719104   -4.1654672    1.2620223      1024000 
  518000   0.84189579   -4.1641846   -4.1641846   -2.9013435  0.023022439   -4.1641846    1.2628411      1024000 
  519000   0.84257384    -4.163546    -4.163546   -2.8996878  0.019318486    -4.163546    1.2638582      1024000 
  520000   0.84378346   -4.1625497   -4.1625497   -2.8968771  0.020512153   -4.1625497    1.2656726      1024000 
  521000   0.84385243   -4.1601432   -4.1601432   -2.8943671  0.017885456   -4.1601432    1.2657761      1024000 
  522000   0.84417702   -4.1586609   -4.1586609    -2.892398  0.020393053   -4.1586609     1.266263      1024000 
  523000   0.84405705   -4.1568369   -4.1568369   -2.8907539   0.02039051   -4.1568369     1.266083      1024000 
  524000   0.84441231   -4.1541869   -4.1541869    -2.887571  0.022160506   -4.1541869    1.2666159      1024000 
  525000   0.84558681   -4.1535401   -4.1535401   -2.8851624  0.020431967   -4.1535401    1.2683776      1024000 
  526000    0.8458213   -4.1519293   -4.1519293   -2.8831999  0.026952365   -4.1519293    1.2687294      1024000 
  527000   0.84415139   -4.1483936   -4.1483936   -2.8821691  0.020572282   -4.1483936    1.2662245      1024000 
  528000   0.84462273   -4.1467247   -4.1467247   -2.8797932  0.015817418   -4.1467247    1.2669315      1024000 
  529000   0.84537685   -4.1453901   -4.1453901   -2.8773274  0.017963145   -4.1453901    1.2680627      1024000 
  530000   0.84474238   -4.1420984   -4.1420984   -2.8749874  0.023490686   -4.1420984     1.267111      1024000 
  531000   0.84478531    -4.140235    -4.140235   -2.8730596  0.018361939    -4.140235    1.2671754      1024000 
  532000   0.84519994   -4.1391524   -4.1391524   -2.8713551  0.014221342   -4.1391524    1.2677973      1024000 
  533000    0.8456216    -4.137489    -4.137489   -2.8690591  0.015960729    -4.137489    1.2684298      1024000 
  534000   0.84581011   -4.1360175   -4.1360175   -2.8673049  0.016436606   -4.1360175    1.2687126      1024000 
  535000   0.84739453   -4.1354324   -4.1354324   -2.8643432  0.021478008   -4.1354324    1.2710892      1024000 
  536000   0.84713368   -4.1327141   -4.1327141   -2.8620161  0.018683428   -4.1327141    1.2706979      1024000 
  537000   0.84718884   -4.1306662   -4.1306662   -2.8598855   0.02231945   -4.1306662    1.2707807      1024000 
  538000   0.84839527   -4.1292484   -4.1292484   -2.8566581  0.020467747   -4.1292484    1.2725903      1024000 
  539000   0.84888039   -4.1269176   -4.1269176   -2.8535996  0.022970761   -4.1269176     1.273318      1024000 
  540000   0.85003284   -4.1256694   -4.1256694   -2.8506227  0.021743331   -4.1256694    1.2750467      1024000 
  541000   0.85044786   -4.1236215   -4.1236215   -2.8479523  0.022675653   -4.1236215    1.2756692      1024000 
  542000   0.84986709   -4.1222489   -4.1222489   -2.8474508  0.021403566   -4.1222489     1.274798      1024000 
  543000   0.85037925   -4.1206331   -4.1206331   -2.8450668  0.020291405   -4.1206331    1.2755663      1024000 
  544000   0.85053791    -4.118805    -4.118805   -2.8430008  0.015170647    -4.118805    1.2758043      1024000 
  545000   0.84968661    -4.115421    -4.115421   -2.8408937  0.019020147    -4.115421    1.2745273      1024000 
  546000   0.85069681   -4.1154207   -4.1154207   -2.8393781  0.021448674   -4.1154207    1.2760426      1024000 
  547000   0.84970916   -4.1120967   -4.1120967   -2.8375355  0.020030698   -4.1120967    1.2745612      1024000 
  548000   0.84979277   -4.1109544   -4.1109544   -2.8362679   0.02795777   -4.1109544    1.2746866      1024000 
  549000   0.85176356   -4.1101522   -4.1101522   -2.8325094  0.023584543   -4.1101522    1.2776427      1024000 
  550000   0.85147703    -4.106738    -4.106738   -2.8295251  0.023568655    -4.106738     1.277213      1024000 
  551000   0.85086165   -4.1043622   -4.1043622   -2.8280723  0.020044604   -4.1043622    1.2762899      1024000 
  552000   0.85161254   -4.1036071   -4.1036071   -2.8261909  0.016245124   -4.1036071    1.2774162      1024000 
  553000   0.85221883   -4.1019323   -4.1019323   -2.8236066  0.023488481   -4.1019323    1.2783257      1024000 
  554000   0.85212873   -4.0986136   -4.0986136   -2.8204231  0.023201247   -4.0986136    1.2781905      1024000 
  555000   0.85288697   -4.0971796   -4.0971796   -2.8178518  0.021681739   -4.0971796    1.2793279      1024000 
  556000   0.85487536   -4.0968685   -4.0968685    -2.814558  0.022065518   -4.0968685    1.2823104      1024000 
  557000   0.85361524   -4.0931815   -4.0931815   -2.8127612  0.024068392   -4.0931815    1.2804203      1024000 
  558000   0.85458086   -4.0930703   -4.0930703   -2.8112016  0.025488563   -4.0930703    1.2818687      1024000 
  559000    0.8545881    -4.090175    -4.090175   -2.8082954   0.02866146    -4.090175    1.2818796      1024000 
  560000    0.8557761   -4.0893623   -4.0893623   -2.8057007  0.033611012   -4.0893623    1.2836615      1024000 
  561000   0.85648305    -4.088241    -4.088241    -2.803519  0.025706114    -4.088241     1.284722      1024000 
  562000   0.85569914   -4.0852169   -4.0852169   -2.8016708  0.029050386   -4.0852169    1.2835461      1024000 
  563000   0.85595229   -4.0831987   -4.0831987   -2.7992729  0.029843492   -4.0831987    1.2839258      1024000 
  564000   0.85607041   -4.0810244   -4.0810244   -2.7969214   0.02819961   -4.0810244     1.284103      1024000 
  565000   0.85503495   -4.0774192   -4.0774192   -2.7948694  0.029600827   -4.0774192    1.2825498      1024000 
  566000   0.85563578   -4.0769714   -4.0769714   -2.7935203   0.02822215   -4.0769714    1.2834511      1024000 
  567000   0.85744421   -4.0769456   -4.0769456   -2.7907819  0.022036051   -4.0769456    1.2861637      1024000 
  568000   0.85621067   -4.0728471   -4.0728471   -2.7885337  0.024328722   -4.0728471    1.2843134      1024000 
  569000   0.85694058   -4.0714619   -4.0714619   -2.7860536  0.024443281   -4.0714619    1.2854083      1024000 
  570000   0.85709399   -4.0692252   -4.0692252   -2.7835868  0.025833376   -4.0692252    1.2856384      1024000 
  571000   0.85813913   -4.0693378   -4.0693378   -2.7821317  0.023091371   -4.0693378    1.2872061      1024000 
  572000   0.85859475   -4.0677467   -4.0677467   -2.7798572  0.022571946   -4.0677467    1.2878895      1024000 
  573000   0.85852583   -4.0653178   -4.0653178   -2.7775317  0.031091394   -4.0653178    1.2877861      1024000 
  574000   0.85837816   -4.0626874   -4.0626874   -2.7751228  0.032298045   -4.0626874    1.2875646      1024000 
  575000   0.85831904   -4.0602792   -4.0602792   -2.7728032  0.033345718   -4.0602792     1.287476      1024000 
  576000   0.85834612   -4.0581944   -4.0581944   -2.7706778  0.028313019   -4.0581944    1.2875166      1024000 
  577000   0.85977684   -4.0580565   -4.0580565   -2.7683939  0.027167685   -4.0580565    1.2896626      1024000 
  578000    0.8597144     -4.05591     -4.05591    -2.766341  0.034888448     -4.05591     1.289569      1024000 
  579000   0.85953277   -4.0525801   -4.0525801   -2.7632835  0.031689781   -4.0525801    1.2892965      1024000 
  580000   0.86018198   -4.0513261   -4.0513261   -2.7610557  0.034801236   -4.0513261    1.2902704      1024000 
  581000    0.8613711   -4.0503673   -4.0503673   -2.7583133  0.032250939   -4.0503673     1.292054      1024000 
  582000   0.86065683     -4.04794     -4.04794   -2.7569574  0.029955673     -4.04794    1.2909826      1024000 
  583000   0.86101614   -4.0472729   -4.0472729   -2.7557513   0.03255401   -4.0472729    1.2915216      1024000 
  584000   0.86074853   -4.0450808   -4.0450808   -2.7539606  0.031780667   -4.0450808    1.2911202      1024000 
  585000   0.86075037   -4.0432439   -4.0432439    -2.752121   0.02814461   -4.0432439    1.2911229      1024000 
  586000   0.86062246   -4.0409809   -4.0409809   -2.7500498  0.030056451   -4.0409809    1.2909311      1024000 
  587000   0.86091916   -4.0394865   -4.0394865   -2.7481103  0.036282298   -4.0394865    1.2913761      1024000 
  588000   0.86280774   -4.0402433   -4.0402433   -2.7460343  0.026251309   -4.0402433     1.294209      1024000 
  589000   0.86121986   -4.0353049   -4.0353049   -2.7434777  0.034590025   -4.0353049    1.2918272      1024000 
  590000   0.86234202   -4.0352112   -4.0352112   -2.7417008  0.034951847   -4.0352112    1.2935104      1024000 
  591000   0.86244607   -4.0335639   -4.0335639   -2.7398974  0.032989954   -4.0335639    1.2936665      1024000 
  592000   0.86290849   -4.0318995   -4.0318995   -2.7375394  0.038279877   -4.0318995    1.2943601      1024000 
  593000   0.86277038   -4.0300476   -4.0300476   -2.7358947  0.034759001   -4.0300476    1.2941529      1024000 
  594000   0.86336877    -4.029158    -4.029158   -2.7341075  0.033190852    -4.029158    1.2950505      1024000 
  595000   0.86327669   -4.0261919   -4.0261919   -2.7312795  0.029914996   -4.0261919    1.2949124      1024000 
  596000   0.86455166    -4.025044    -4.025044   -2.7282191  0.039943387    -4.025044    1.2968249      1024000 
  597000   0.86415423   -4.0235286   -4.0235286   -2.7272999  0.037287716   -4.0235286    1.2962287      1024000 
  598000   0.86551136   -4.0230557   -4.0230557   -2.7247913  0.039780931   -4.0230557    1.2982644      1024000 
  599000   0.86504898   -4.0199784   -4.0199784   -2.7224076  0.033927293   -4.0199784    1.2975708      1024000 
  600000   0.86657825   -4.0208251   -4.0208251   -2.7209604  0.035165744   -4.0208251    1.2998647      1024000 
  601000   0.86565927   -4.0173951   -4.0173951   -2.7189089  0.048376493   -4.0173951    1.2984863      1024000 
  602000   0.86787507   -4.0186138   -4.0186138   -2.7168039  0.037323686   -4.0186138      1.30181      1024000 
  603000   0.86806969   -4.0166097   -4.0166097   -2.7145078  0.041277181   -4.0166097    1.3021019      1024000 
  604000   0.86814343    -4.015065    -4.015065   -2.7128525   0.04850022    -4.015065    1.3022125      1024000 
  605000   0.86949391   -4.0154526   -4.0154526   -2.7112143  0.038999706   -4.0154526    1.3042382      1024000 
  606000   0.86838508   -4.0114206   -4.0114206   -2.7088456  0.044542197   -4.0114206     1.302575      1024000 
  607000   0.86889209   -4.0097617   -4.0097617   -2.7064262  0.039520389   -4.0097617    1.3033355      1024000 
  608000   0.86801274   -4.0066926   -4.0066926   -2.7046761  0.041425298   -4.0066926    1.3020165      1024000 
  609000   0.86983051    -4.007659    -4.007659   -2.7029159  0.039236105    -4.007659    1.3047431      1024000 
  610000   0.86977812   -4.0060925   -4.0060925    -2.701428  0.039633436   -4.0060925    1.3046645      1024000 
  611000    0.8700238    -4.004366    -4.004366    -2.699333  0.039373197    -4.004366    1.3050331      1024000 
  612000   0.86844029   -4.0008801   -4.0008801   -2.6982223  0.045688584   -4.0008801    1.3026578      1024000 
  613000   0.86985965   -4.0002683   -4.0002683   -2.6954815  0.042092911   -4.0002683    1.3047868      1024000 
  614000   0.87109199   -4.0007441   -4.0007441   -2.6941088  0.040177264   -4.0007441    1.3066353      1024000 
  615000   0.87086502   -3.9984428   -3.9984428   -2.6921479  0.039583945   -3.9984428    1.3062949      1024000 
  616000   0.87154321   -3.9975513   -3.9975513   -2.6902391  0.045846539   -3.9975513    1.3073122      1024000 
  617000   0.87061543   -3.9949341   -3.9949341   -2.6890137  0.040554248   -3.9949341    1.3059205      1024000 
  618000   0.87235104   -3.9951676   -3.9951676   -2.6866437  0.043531986   -3.9951676    1.3085239      1024000 
  619000   0.87200829   -3.9926285   -3.9926285   -2.6846187  0.042739313   -3.9926285    1.3080098      1024000 
  620000   0.87210068    -3.990966    -3.990966   -2.6828176  0.047723625    -3.990966    1.3081484      1024000 
  621000   0.87288416   -3.9906276   -3.9906276    -2.681304  0.043798234   -3.9906276    1.3093236      1024000 
  622000   0.87284643   -3.9886445   -3.9886445   -2.6793775  0.049912509   -3.9886445     1.309267      1024000 
  623000    0.8745433   -3.9886947   -3.9886947   -2.6768824  0.047004832   -3.9886947    1.3118123      1024000 
  624000   0.87471758   -3.9876501   -3.9876501   -2.6755764  0.047870199   -3.9876501    1.3120737      1024000 
  625000   0.87435965   -3.9849617   -3.9849617   -2.6734249  0.055320078   -3.9849617    1.3115368      1024000 
  626000    0.8747339   -3.9835718   -3.9835718   -2.6714736  0.051242844   -3.9835718    1.3120982      1024000 
  627000   0.87497191   -3.9825804   -3.9825804   -2.6701252  0.045024491   -3.9825804    1.3124552      1024000 
  628000   0.87551264    -3.980866    -3.980866   -2.6675997  0.048506273    -3.980866    1.3132663      1024000 
  629000   0.87592297   -3.9804706   -3.9804706   -2.6665888   0.04885323   -3.9804706    1.3138818      1024000 
  630000   0.87504703   -3.9774033   -3.9774033   -2.6648354  0.049452041   -3.9774033    1.3125679      1024000 
  631000   0.87701404   -3.9782053   -3.9782053   -2.6626869  0.056015977   -3.9782053    1.3155184      1024000 
  632000   0.87636185   -3.9757773   -3.9757773   -2.6612372  0.048097654   -3.9757773    1.3145401      1024000 
  633000   0.87687262    -3.974265    -3.974265   -2.6589587  0.051191961    -3.974265    1.3153063      1024000 
  634000    0.8771398   -3.9727471   -3.9727471   -2.6570401  0.050616788   -3.9727471     1.315707      1024000 
  635000   0.87802588   -3.9729422   -3.9729422   -2.6559061  0.049268328   -3.9729422    1.3170361      1024000 
  636000   0.87675094   -3.9693799   -3.9693799   -2.6542562   0.04882504   -3.9693799    1.3151237      1024000 
  637000   0.87849681   -3.9697745   -3.9697745    -2.652032  0.050850338   -3.9697745    1.3177425      1024000 
  638000   0.87800679    -3.967653    -3.967653   -2.6506455  0.053077682    -3.967653    1.3170075      1024000 
  639000   0.87742426   -3.9657276   -3.9657276   -2.6495939  0.050873735   -3.9657276    1.3161337      1024000 
  640000   0.87809441   -3.9646521   -3.9646521   -2.6475131  0.052747917   -3.9646521    1.3171389      1024000 
  641000   0.87835179   -3.9628617   -3.9628617   -2.6453366  0.047248545   -3.9628617     1.317525      1024000 
  642000   0.87986547   -3.9634495   -3.9634495   -2.6436539  0.049911004   -3.9634495    1.3197955      1024000 
  643000    0.8792871   -3.9604035   -3.9604035   -2.6414755  0.054051039   -3.9604035     1.318928      1024000 
  644000   0.88024716   -3.9600942   -3.9600942   -2.6397261  0.053926728   -3.9600942    1.3203681      1024000 
  645000   0.88045613   -3.9595246   -3.9595246    -2.638843  0.055789769   -3.9595246    1.3206815      1024000 
  646000     0.880326   -3.9572765   -3.9572765   -2.6367902   0.05803934   -3.9572765    1.3204863      1024000 
  647000   0.88112848   -3.9578605   -3.9578605   -2.6361705  0.061108853   -3.9578605      1.32169      1024000 
  648000   0.88218332    -3.958507    -3.958507   -2.6352347  0.059292722    -3.958507    1.3232723      1024000 
  649000   0.88261267   -3.9567769   -3.9567769   -2.6328606  0.056262966   -3.9567769    1.3239163      1024000 
  650000   0.88162736   -3.9535794   -3.9535794    -2.631141  0.060433365   -3.9535794    1.3224384      1024000 
  651000   0.88316895   -3.9548084   -3.9548084   -2.6300577  0.055726089   -3.9548084    1.3247507      1024000 
  652000   0.88389114   -3.9539363   -3.9539363   -2.6281022  0.055299996   -3.9539363     1.325834      1024000 
  653000   0.88290976   -3.9505205   -3.9505205   -2.6261586  0.056049024   -3.9505205     1.324362      1024000 
  654000     0.882705   -3.9481523   -3.9481523   -2.6240975  0.050682747   -3.9481523    1.3240548      1024000 
  655000   0.88349826   -3.9476849   -3.9476849   -2.6224402  0.057194955   -3.9476849    1.3252447      1024000 
  656000   0.88365329   -3.9466278   -3.9466278   -2.6211505  0.053815152   -3.9466278    1.3254772      1024000 
  657000   0.88292801   -3.9441061   -3.9441061   -2.6197168   0.05533655   -3.9441061    1.3243893      1024000 
  658000   0.88348816   -3.9431207   -3.9431207   -2.6178911  0.053694196   -3.9431207    1.3252296      1024000 
  659000   0.88406365   -3.9418226   -3.9418226   -2.6157298  0.050304868   -3.9418226    1.3260928      1024000 
  660000   0.88384077   -3.9407256   -3.9407256   -2.6149671   0.05493454   -3.9407256    1.3257585      1024000 
  661000   0.88515345   -3.9413198   -3.9413198   -2.6135923  0.052727601   -3.9413198    1.3277275      1024000 
  662000   0.88527554   -3.9405059   -3.9405059   -2.6125952  0.056589525   -3.9405059    1.3279106      1024000 
  663000   0.88532313    -3.939232    -3.939232     -2.61125  0.058143215    -3.939232     1.327982      1024000 
  664000   0.88619636    -3.938483    -3.938483   -2.6091912  0.059816626    -3.938483    1.3292918      1024000 
  665000   0.88742757   -3.9387156   -3.9387156    -2.607577  0.064112763   -3.9387156    1.3311387      1024000 
  666000   0.88646334   -3.9364807   -3.9364807   -2.6067884  0.062476309   -3.9364807    1.3296923      1024000 
  667000   0.88901491   -3.9390595   -3.9390595   -2.6055399   0.06465887   -3.9390595    1.3335197      1024000 
  668000   0.88816788   -3.9365901   -3.9365901    -2.604341  0.062896167   -3.9365901    1.3322491      1024000 
  669000   0.88783214   -3.9349904   -3.9349904   -2.6032449  0.063988012   -3.9349904    1.3317455      1024000 
  670000    0.8888277   -3.9348963   -3.9348963   -2.6016574  0.058739555   -3.9348963    1.3332388      1024000 
  671000     0.888218   -3.9325317   -3.9325317   -2.6002074  0.062555806   -3.9325317    1.3323243      1024000 
  672000   0.88912172   -3.9324355   -3.9324355   -2.5987556  0.062710115   -3.9324355    1.3336799      1024000 
  673000    0.8883549   -3.9298507   -3.9298507   -2.5973211  0.068060738   -3.9298507    1.3325296      1024000 
  674000   0.88975463   -3.9305961   -3.9305961   -2.5959669  0.058034366   -3.9305961    1.3346292      1024000 
  675000   0.88864258   -3.9276553   -3.9276553   -2.5946941  0.059116048   -3.9276553    1.3329612      1024000 
  676000   0.88874335   -3.9266007   -3.9266007   -2.5934884  0.060752042   -3.9266007    1.3331123      1024000 
  677000   0.88985338   -3.9272278   -3.9272278   -2.5924505  0.058668537   -3.9272278    1.3347774      1024000 
  678000   0.89061644    -3.926859    -3.926859   -2.5909371  0.056952382    -3.926859    1.3359219      1024000 
  679000   0.89042298   -3.9255549   -3.9255549   -2.5899231   0.05895047   -3.9255549    1.3356318      1024000 
  680000   0.89105997   -3.9253759   -3.9253759   -2.5887887   0.05952405   -3.9253759    1.3365872      1024000 
  681000   0.89220551   -3.9263047   -3.9263047   -2.5879992  0.058678125   -3.9263047    1.3383055      1024000 
  682000   0.89285536   -3.9259019   -3.9259019   -2.5866215  0.057244469   -3.9259019    1.3392803      1024000 
  683000    0.8924071   -3.9237582   -3.9237582   -2.5851503  0.062413425   -3.9237582    1.3386079      1024000 
  684000   0.89347204    -3.923964    -3.923964   -2.5837586  0.064655457    -3.923964    1.3402053      1024000 
  685000   0.89426798   -3.9242194   -3.9242194   -2.5828202  0.065834203   -3.9242194    1.3413992      1024000 
  686000   0.89645566    -3.926103    -3.926103   -2.5814222  0.070383781    -3.926103    1.3446808      1024000 
  687000   0.89677798      -3.9259      -3.9259   -2.5807358  0.076133483      -3.9259    1.3451642      1024000 
  688000   0.89887714   -3.9283071   -3.9283071   -2.5799941  0.080047855   -3.9283071     1.348313      1024000 
  689000   0.90300604   -3.9335628   -3.9335628   -2.5790565  0.095482713   -3.9335628    1.3545063      1024000 
  690000    0.9080813   -3.9401966   -3.9401966   -2.5780774   0.11593958   -3.9401966    1.3621192      1024000 
  691000   0.91525034   -3.9501251   -3.9501251   -2.5772524   0.15200183   -3.9501251    1.3728727      1024000 
  692000   0.92369121    -3.962011    -3.962011    -2.576477   0.19254813    -3.962011     1.385534      1024000 
  693000   0.93129423   -3.9726766   -3.9726766   -2.5757381   0.23918598   -3.9726766    1.3969385      1024000 
  694000   0.93931381   -3.9840651   -3.9840651   -2.5750972    0.2812314   -3.9840651    1.4089679      1024000 
  695000   0.94762713   -3.9960793   -3.9960793   -2.5746415   0.32148301   -3.9960793    1.4214378      1024000 
  696000   0.95752496   -4.0093942   -4.0093942   -2.5731097    0.3584297   -4.0093942    1.4362845      1024000 
  697000   0.96519686   -4.0199379   -4.0199379   -2.5721455   0.38374891   -4.0199379    1.4477924      1024000 
  698000    0.9703655   -4.0266509   -4.0266509   -2.5711056   0.40193224   -4.0266509    1.4555453      1024000 
  699000   0.97216801   -4.0288064   -4.0288064   -2.5705574   0.40661418   -4.0288064    1.4582491      1024000 
  700000   0.96967212   -4.0240889   -4.0240889   -2.5695837   0.39547909   -4.0240889    1.4545052      1024000 
  701000   0.96536309   -4.0170271   -4.0170271   -2.5689854   0.36247296   -4.0170271    1.4480417      1024000 
  702000   0.95741754    -4.004356    -4.004356   -2.5682326   0.32966632    -4.004356    1.4361234      1024000 
  703000   0.94852503   -3.9902223   -3.9902223   -2.5674377   0.28916047   -3.9902223    1.4227847      1024000 
  704000    0.9391118   -3.9753977   -3.9753977   -2.5667328   0.24652671   -3.9753977    1.4086648      1024000 
  705000   0.93020654   -3.9620181   -3.9620181   -2.5667111   0.20006116   -3.9620181     1.395307      1024000 
  706000   0.92122458   -3.9473843   -3.9473843   -2.5655502   0.15790082   -3.9473843    1.3818341      1024000 
  707000   0.91395896   -3.9357758   -3.9357758   -2.5648402   0.11739411   -3.9357758    1.3709357      1024000 
  708000   0.90568548   -3.9225956   -3.9225956   -2.5640701   0.08860006   -3.9225956    1.3585255      1024000 
  709000   0.89885905   -3.9120885   -3.9120885   -2.5638027  0.064593875   -3.9120885    1.3482858      1024000 
  710000   0.89494154   -3.9052029   -3.9052029   -2.5627933  0.042461764   -3.9052029    1.3424096      1024000 
  711000   0.89199958   -3.9001405   -3.9001405   -2.5621438  0.027489635   -3.9001405    1.3379967      1024000 
  712000   0.88911384   -3.8960682   -3.8960682   -2.5624001  0.021230247   -3.8960682    1.3336681      1024000 
  713000   0.88833863   -3.8947656   -3.8947656   -2.5622604  0.023303507   -3.8947656    1.3325052      1024000 
  714000   0.88868544   -3.8953959   -3.8953959   -2.5623704  0.024621145   -3.8953959    1.3330255      1024000 
  715000   0.89124747   -3.8993343   -3.8993343   -2.5624658    0.0318596   -3.8993343    1.3368685      1024000 
  716000    0.8924649   -3.9022943   -3.9022943   -2.5635997  0.036709704   -3.9022943    1.3386946      1024000 
  717000   0.89249609   -3.9031753   -3.9031753   -2.5644339   0.05088295   -3.9031753    1.3387414      1024000 
  718000   0.89620233   -3.9089235   -3.9089235   -2.5646227  0.054758453   -3.9089235    1.3443008      1024000 
  719000   0.89765697   -3.9116268   -3.9116268   -2.5651441  0.067567676   -3.9116268    1.3464827      1024000 
  720000   0.90046155   -3.9164365   -3.9164365   -2.5657469  0.077809604   -3.9164365    1.3506896      1024000 
  721000    0.9020364   -3.9198676   -3.9198676   -2.5668157  0.077889578   -3.9198676    1.3530519      1024000 
  722000   0.90300958   -3.9218306   -3.9218306    -2.567319  0.085990657   -3.9218306    1.3545116      1024000 
  723000   0.90347756   -3.9228215   -3.9228215   -2.5676079  0.088107968   -3.9228215    1.3552136      1024000 
  724000   0.90368411    -3.923485    -3.923485   -2.5679616  0.090213122    -3.923485    1.3555234      1024000 
  725000   0.90311502   -3.9232897   -3.9232897   -2.5686199  0.085150954   -3.9232897    1.3546698      1024000 
  726000   0.90232383   -3.9218041   -3.9218041   -2.5683211   0.07972925   -3.9218041     1.353483      1024000 
  727000   0.90102507   -3.9200247   -3.9200247   -2.5684898  0.077271493   -3.9200247    1.3515349      1024000 
  728000   0.89941502   -3.9177293   -3.9177293   -2.5686095  0.069539962   -3.9177293    1.3491198      1024000 
  729000   0.89571787   -3.9128258   -3.9128258   -2.5692518  0.062773049   -3.9128258    1.3435741      1024000 
  730000   0.89458503   -3.9115077   -3.9115077   -2.5696329  0.050871309   -3.9115077    1.3418748      1024000 
  731000   0.89157892    -3.907425    -3.907425   -2.5700594  0.047909572    -3.907425    1.3373657      1024000 
  732000   0.88964292   -3.9049388   -3.9049388   -2.5704771  0.041367771   -3.9049388    1.3344617      1024000 
  733000   0.88975781   -3.9046782   -3.9046782   -2.5700442  0.036289227   -3.9046782     1.334634      1024000 
  734000   0.88844606    -3.902861    -3.902861   -2.5701946  0.036378399    -3.902861    1.3326664      1024000 
  735000   0.88908886   -3.9041169   -3.9041169   -2.5704863  0.029349905   -3.9041169    1.3336306      1024000 
  736000   0.88837625    -3.902946    -3.902946   -2.5703843   0.03404183    -3.902946    1.3325617      1024000 
  737000   0.88974802   -3.9054313   -3.9054313    -2.570812  0.036106862   -3.9054313    1.3346193      1024000 
  738000   0.89007016   -3.9062236   -3.9062236   -2.5711211  0.043938714   -3.9062236    1.3351025      1024000 
  739000   0.89122897   -3.9078804   -3.9078804   -2.5710397  0.053915599   -3.9078804    1.3368407      1024000 
  740000   0.89331149   -3.9110842   -3.9110842   -2.5711196  0.054890295   -3.9110842    1.3399645      1024000 
  741000   0.89427735    -3.912437    -3.912437   -2.5710237  0.064133615    -3.912437    1.3414133      1024000 
  742000   0.89606551   -3.9158167   -3.9158167   -2.5717211  0.066652537   -3.9158167    1.3440955      1024000 
  743000   0.89923782   -3.9203972   -3.9203972   -2.5715432  0.074291438   -3.9203972     1.348854      1024000 
  744000   0.89944337   -3.9212135   -3.9212135   -2.5720512  0.076216119   -3.9212135    1.3491623      1024000 
  745000   0.89862401   -3.9196567   -3.9196567   -2.5717234   0.08525139   -3.9196567    1.3479333      1024000 
  746000   0.90011574   -3.9221852   -3.9221852   -2.5720144  0.074678603   -3.9221852    1.3501709      1024000 
  747000   0.89950287   -3.9211228   -3.9211228   -2.5718712  0.081483964   -3.9211228    1.3492516      1024000 
  748000   0.89955383   -3.9213864   -3.9213864   -2.5720584  0.077215982   -3.9213864     1.349328      1024000 
  749000   0.89812761   -3.9189206   -3.9189206   -2.5717319   0.07999748   -3.9189206    1.3471887      1024000 
  750000   0.89698055   -3.9173785   -3.9173785   -2.5719104  0.068237131   -3.9173785    1.3454681      1024000 
  751000   0.89494395   -3.9145939   -3.9145939   -2.5721807  0.065237605   -3.9145939    1.3424132      1024000 
  752000   0.89356769   -3.9120975   -3.9120975   -2.5717487  0.058862528   -3.9120975    1.3403488      1024000 
  753000   0.89172048   -3.9091427   -3.9091427   -2.5715647   0.06040415   -3.9091427     1.337578      1024000 
  754000   0.89158301   -3.9090869   -3.9090869   -2.5717151  0.044918425   -3.9090869    1.3373718      1024000 
  755000   0.88972746   -3.9058495   -3.9058495    -2.571261  0.048276538   -3.9058495    1.3345885      1024000 
  756000   0.88964062   -3.9056306   -3.9056306   -2.5711724  0.042633854   -3.9056306    1.3344582      1024000 
  757000   0.88938209   -3.9048951   -3.9048951   -2.5708246  0.046369477   -3.9048951    1.3340704      1024000 
  758000   0.88835785    -3.903116    -3.903116   -2.5705819   0.04796426    -3.903116    1.3325341      1024000 
  759000    0.8889993   -3.9041248   -3.9041248   -2.5706285  0.043208809   -3.9041248    1.3334963      1024000 
  760000   0.89042199   -3.9061673   -3.9061673    -2.570537  0.042958538   -3.9061673    1.3356303      1024000 
  761000   0.89106656   -3.9070689   -3.9070689   -2.5704718  0.045181476   -3.9070689    1.3365971      1024000 
  762000   0.89165148    -3.907865    -3.907865   -2.5703905  0.050976412    -3.907865    1.3374745      1024000 
  763000   0.89332014   -3.9102187   -3.9102187   -2.5702412  0.054414205   -3.9102187    1.3399775      1024000 
  764000   0.89415237   -3.9110478   -3.9110478    -2.569822  0.061180856   -3.9110478    1.3412258      1024000 
  765000   0.89433497   -3.9111466   -3.9111466   -2.5696468  0.070897844   -3.9111466    1.3414997      1024000 
  766000   0.89610155   -3.9134204   -3.9134204   -2.5692708   0.06788287   -3.9134204    1.3441496      1024000 
  767000   0.89775626   -3.9157225   -3.9157225   -2.5690909  0.071770522   -3.9157225    1.3466317      1024000 
  768000   0.89664959   -3.9138443   -3.9138443   -2.5688726  0.079899025   -3.9138443    1.3449717      1024000 
  769000   0.89845589   -3.9161425   -3.9161425   -2.5684614  0.075316317   -3.9161425    1.3476811      1024000 
  770000   0.89821429    -3.915555    -3.915555   -2.5682363  0.076383468    -3.915555    1.3473187      1024000 
  771000   0.89912335   -3.9170222   -3.9170222   -2.5683399  0.069253123   -3.9170222    1.3486823      1024000 
  772000   0.89850414   -3.9159651   -3.9159651   -2.5682116  0.061074236   -3.9159651    1.3477535      1024000 
  773000   0.89489579   -3.9100126   -3.9100126   -2.5676717   0.06625271   -3.9100126     1.342341      1024000 
  774000   0.89610951    -3.911615    -3.911615   -2.5674534  0.058434759    -3.911615    1.3441615      1024000 
  775000   0.89327319   -3.9068467   -3.9068467   -2.5669396  0.059077447   -3.9068467    1.3399071      1024000 
  776000     0.893556   -3.9070451   -3.9070451   -2.5667138  0.054371135   -3.9070451    1.3403313      1024000 
  777000   0.89206809   -3.9049326   -3.9049326   -2.5668332   0.05126166   -3.9049326    1.3380994      1024000 
  778000   0.89077723   -3.9022864   -3.9022864   -2.5661233  0.051688004   -3.9022864    1.3361631      1024000 
  779000   0.89085017   -3.9021297   -3.9021297   -2.5658571  0.051253304   -3.9021297    1.3362725      1024000 
  780000   0.89095554   -3.9024477   -3.9024477   -2.5660171  0.047819385   -3.9024477    1.3364306      1024000 
  781000   0.89201336   -3.9035644   -3.9035644   -2.5655471  0.046298056   -3.9035644    1.3380173      1024000 
  782000   0.88948834   -3.8998007   -3.8998007   -2.5655709  0.054040186   -3.8998007    1.3342298      1024000 
  783000   0.89184501   -3.9035364   -3.9035364   -2.5657716  0.048425727   -3.9035364    1.3377648      1024000 
  784000   0.89226512    -3.903412    -3.903412   -2.5650171  0.050001277    -3.903412     1.338395      1024000 
  785000   0.89396127   -3.9058986   -3.9058986   -2.5649594  0.047056788   -3.9058986    1.3409392      1024000 
  786000   0.89372562    -3.904553    -3.904553   -2.5639673  0.059493598    -3.904553    1.3405857      1024000 
  787000   0.89482725   -3.9058874   -3.9058874   -2.5636493  0.058375149   -3.9058874    1.3422381      1024000 
  788000   0.89608299   -3.9071213   -3.9071213   -2.5629996  0.061706419   -3.9071213    1.3441218      1024000 
  789000   0.89651485   -3.9070946   -3.9070946    -2.562325  0.067515534   -3.9070946    1.3447695      1024000 
  790000   0.89716603   -3.9073909   -3.9073909   -2.5616446  0.068360528   -3.9073909    1.3457463      1024000 
  791000   0.89614113   -3.9055946   -3.9055946   -2.5613856  0.073448495   -3.9055946     1.344209      1024000 
  792000   0.89737368   -3.9072755   -3.9072755   -2.5612177   0.06971327   -3.9072755    1.3460578      1024000 
  793000    0.8964198   -3.9049155   -3.9049155   -2.5602885  0.064686287   -3.9049155     1.344627      1024000 
  794000   0.89840768   -3.9071372   -3.9071372   -2.5595284  0.059511163   -3.9071372    1.3476088      1024000 
  795000   0.89708436   -3.9045723   -3.9045723   -2.5589485  0.067855351   -3.9045723    1.3456238      1024000 
  796000    0.8967995   -3.9037843   -3.9037843   -2.5585878  0.063661513   -3.9037843    1.3451965      1024000 
  797000   0.89449158   -3.8998321   -3.8998321   -2.5580974  0.060090639   -3.8998321    1.3417346      1024000 
  798000   0.89566155   -3.9011879   -3.9011879   -2.5576983  0.052292792   -3.9011879    1.3434896      1024000 
  799000   0.89376016   -3.8977351   -3.8977351   -2.5570976  0.052200919   -3.8977351    1.3406375      1024000 
  800000   0.89440488   -3.8983316   -3.8983316    -2.556727  0.053701747   -3.8983316    1.3416046      1024000 
  801000   0.89364482   -3.8970206   -3.8970206   -2.5565561  0.049976992   -3.8970206    1.3404645      1024000 
  802000   0.89280938   -3.8955309   -3.8955309   -2.5563195  0.051394166   -3.8955309    1.3392114      1024000 
  803000   0.89281936   -3.8951812   -3.8951812   -2.5559549  0.046401809   -3.8951812    1.3392263      1024000 
  804000   0.89273786   -3.8952844   -3.8952844   -2.5561803  0.049582923   -3.8952844    1.3391041      1024000 
  805000   0.89391507   -3.8967747   -3.8967747   -2.5559048  0.044089633   -3.8967747    1.3408699      1024000 
  806000   0.89191471   -3.8931373   -3.8931373   -2.5552679  0.053121917   -3.8931373    1.3378693      1024000 
  807000    0.8942604   -3.8956951   -3.8956951   -2.5543072  0.054969864   -3.8956951    1.3413879      1024000 
  808000   0.89590696   -3.8975463   -3.8975463   -2.5536885  0.049085587   -3.8975463    1.3438577      1024000 
  809000   0.89601037   -3.8973531   -3.8973531   -2.5533402  0.052804239   -3.8973531    1.3440128      1024000 
  810000   0.89645347   -3.8976298   -3.8976298   -2.5529524   0.05465649   -3.8976298    1.3446775      1024000 
  811000     0.896541   -3.8969665   -3.8969665   -2.5521578  0.058966898   -3.8969665    1.3448088      1024000 
  812000   0.89811042   -3.8991462   -3.8991462   -2.5519833  0.058961387   -3.8991462    1.3471629      1024000 
  813000    0.8980705   -3.8982789   -3.8982789   -2.5511759  0.061640729   -3.8982789     1.347103      1024000 
  814000   0.89935142   -3.8993726   -3.8993726   -2.5503482  0.059241021   -3.8993726    1.3490244      1024000 
  815000   0.89885894   -3.8978973   -3.8978973   -2.5496116  0.057963767   -3.8978973    1.3482857      1024000 
  816000   0.89924607    -3.898048    -3.898048   -2.5491816  0.057569472    -3.898048    1.3488664      1024000 
  817000   0.89920254    -3.897156    -3.897156    -2.548355  0.058788549    -3.897156    1.3488011      1024000 
  818000   0.89904534   -3.8960483   -3.8960483    -2.547483  0.059073354   -3.8960483    1.3485653      1024000 
  819000   0.89814178   -3.8943326   -3.8943326   -2.5471226  0.060861027   -3.8943326    1.3472099      1024000 
  820000   0.89874007   -3.8949443   -3.8949443   -2.5468369  0.058766429   -3.8949443    1.3481074      1024000 
  821000   0.89824868   -3.8936696   -3.8936696   -2.5462993  0.058544138   -3.8936696    1.3473703      1024000 
  822000   0.89826994   -3.8931465   -3.8931465   -2.5457444  0.057942432   -3.8931465    1.3474022      1024000 
  823000   0.89718704   -3.8911605   -3.8911605   -2.5453826  0.053897646   -3.8911605    1.3457778      1024000 
  824000   0.89697084   -3.8905183   -3.8905183   -2.5450648  0.054284756   -3.8905183    1.3454535      1024000 
  825000    0.8966006   -3.8884511   -3.8884511   -2.5435529   0.05528364   -3.8884511    1.3448982      1024000 
  826000   0.89673213   -3.8882049   -3.8882049   -2.5431095  0.056404694   -3.8882049    1.3450955      1024000 
  827000   0.89761376   -3.8891492   -3.8891492   -2.5427313  0.052497295   -3.8891492    1.3464179      1024000 
  828000   0.89810291   -3.8896605   -3.8896605   -2.5425089  0.054289863   -3.8896605    1.3471516      1024000 
  829000   0.89795841    -3.888993    -3.888993   -2.5420581  0.051767218    -3.888993    1.3469349      1024000 
  830000   0.89759996   -3.8882713   -3.8882713   -2.5418741  0.054289238   -3.8882713    1.3463972      1024000 
  831000   0.89862333   -3.8890622   -3.8890622   -2.5411299  0.049904229   -3.8890622    1.3479323      1024000 
  832000   0.89768334    -3.887186    -3.887186   -2.5406638  0.052624656    -3.887186    1.3465223      1024000 
  833000   0.89909422   -3.8885878   -3.8885878   -2.5399493  0.051179143   -3.8885878    1.3486386      1024000 
  834000   0.89962173   -3.8889933   -3.8889933   -2.5395635  0.055940022   -3.8889933    1.3494299      1024000 
  835000   0.90112338   -3.8905004   -3.8905004   -2.5388181  0.052279388   -3.8905004    1.3516823      1024000 
  836000   0.90044284   -3.8895034   -3.8895034   -2.5388419  0.059756121   -3.8895034    1.3506615      1024000 
  837000    0.9011455   -3.8900751   -3.8900751   -2.5383596  0.055905143   -3.8900751    1.3517155      1024000 
  838000   0.90148438   -3.8900019   -3.8900019   -2.5377781  0.053793529   -3.8900019    1.3522238      1024000 
  839000   0.90102188    -3.889161    -3.889161   -2.5376309  0.051940713    -3.889161    1.3515301      1024000 
  840000   0.90033297   -3.8876488   -3.8876488   -2.5371521  0.059689368   -3.8876488    1.3504967      1024000 
  841000   0.90119036   -3.8879689   -3.8879689   -2.5361861  0.058733875   -3.8879689    1.3517828      1024000 
  842000   0.90174064   -3.8877977   -3.8877977   -2.5351895  0.055698419   -3.8877977    1.3526082      1024000 
  843000   0.90223652   -3.8884647   -3.8884647   -2.5351127  0.062208319   -3.8884647     1.353352      1024000 
  844000   0.90262325   -3.8881869   -3.8881869   -2.5342548  0.057649557   -3.8881869    1.3539321      1024000 
  845000   0.90246598   -3.8875719   -3.8875719   -2.5338757  0.057183551   -3.8875719    1.3536962      1024000 
  846000   0.90295682   -3.8882415   -3.8882415    -2.533809  0.057998626   -3.8882415    1.3544325      1024000 
  847000   0.90327237   -3.8880755   -3.8880755   -2.5331697  0.057161693   -3.8880755    1.3549058      1024000 
  848000   0.90441515    -3.889238    -3.889238    -2.532618  0.058409012    -3.889238      1.35662      1024000 
  849000   0.90458248   -3.8892306   -3.8892306   -2.5323596   0.06512204   -3.8892306     1.356871      1024000 
  850000   0.90534931   -3.8896076   -3.8896076   -2.5315864   0.06708673   -3.8896076    1.3580212      1024000 
  851000    0.9074998   -3.8914951   -3.8914951   -2.5302482  0.073665274   -3.8914951    1.3612469      1024000 
  852000   0.91183592   -3.8973436   -3.8973436   -2.5295925  0.082245331   -3.8973436    1.3677511      1024000 
  853000   0.91353824   -3.8999714   -3.8999714   -2.5296668  0.098185273   -3.8999714    1.3703046      1024000 
  854000   0.91744205   -3.9056863   -3.9056863    -2.529526   0.11675867   -3.9056863    1.3761603      1024000 
  855000   0.92275567   -3.9131382   -3.9131382   -2.5290075   0.13850649   -3.9131382    1.3841307      1024000 
  856000   0.92890672    -3.922108    -3.922108   -2.5287508   0.15664776    -3.922108    1.3933572      1024000 
  857000   0.93278205   -3.9281913   -3.9281913   -2.5290211   0.18666583   -3.9281913    1.3991702      1024000 
  858000   0.93905065   -3.9366938   -3.9366938   -2.5281207   0.20934765   -3.9366938    1.4085731      1024000 
  859000   0.94528294   -3.9456666   -3.9456666   -2.5277451   0.22387932   -3.9456666    1.4179215      1024000 
  860000   0.94978448   -3.9514644   -3.9514644   -2.5267906    0.2423254   -3.9514644    1.4246738      1024000 
  861000   0.95344874   -3.9568678   -3.9568678   -2.5266975   0.25614303   -3.9568678    1.4301702      1024000 
  862000   0.95699571   -3.9617904   -3.9617904   -2.5262997    0.2637011   -3.9617904    1.4354907      1024000 
  863000   0.95768124   -3.9624586   -3.9624586   -2.5259396   0.26647751   -3.9624586    1.4365189      1024000 
  864000   0.95635368   -3.9600751   -3.9600751   -2.5255474    0.2640319   -3.9600751    1.4345276      1024000 
  865000   0.95480478   -3.9574899   -3.9574899   -2.5252857   0.24603182   -3.9574899    1.4322043      1024000 
  866000   0.94884446   -3.9480715   -3.9480715   -2.5248077   0.23119686   -3.9480715    1.4232638      1024000 
  867000   0.94496052   -3.9417898   -3.9417898   -2.5243519    0.2139605   -3.9417898    1.4174379      1024000 
  868000   0.94046733   -3.9342732   -3.9342732   -2.5235751   0.19031256   -3.9342732    1.4106981      1024000 
  869000   0.93488688   -3.9258361   -3.9258361   -2.5235086   0.16613386   -3.9258361    1.4023275      1024000 
  870000   0.92964214   -3.9173468   -3.9173468   -2.5228864   0.14271918   -3.9173468    1.3944604      1024000 
  871000   0.92428646   -3.9089952   -3.9089952   -2.5225684   0.12465818   -3.9089952    1.3864269      1024000 
  872000   0.91905971   -3.9007973   -3.9007973   -2.5222106   0.10583279   -3.9007973    1.3785868      1024000 
  873000   0.91525275   -3.8945647   -3.8945647   -2.5216883  0.085614885   -3.8945647    1.3728763      1024000 
  874000   0.91140613   -3.8887946   -3.8887946   -2.5216882   0.06695353   -3.8887946    1.3671064      1024000 
  875000   0.90806624   -3.8838936   -3.8838936    -2.521797  0.057853737   -3.8838936    1.3620966      1024000 
  876000   0.90487926   -3.8791161   -3.8791161   -2.5217999  0.048547161   -3.8791161    1.3573161      1024000 
  877000   0.90278683   -3.8760066   -3.8760066   -2.5218291  0.041327009   -3.8760066    1.3541775      1024000 
  878000   0.90106579   -3.8736146   -3.8736146   -2.5220186  0.038190764   -3.8736146    1.3515959      1024000 
  879000   0.90076609    -3.872877    -3.872877   -2.5217306  0.039469026    -3.872877    1.3511464      1024000 
  880000   0.90043695   -3.8727336   -3.8727336   -2.5220809  0.037455596   -3.8727336    1.3506527      1024000 
  881000   0.90161205   -3.8745991   -3.8745991   -2.5221837  0.038388727   -3.8745991    1.3524153      1024000 
  882000   0.90193508   -3.8750382   -3.8750382   -2.5221383  0.044116389   -3.8750382    1.3528999      1024000 
  883000   0.90293552    -3.876468    -3.876468   -2.5220675  0.048820585    -3.876468    1.3544005      1024000 
  884000   0.90195865   -3.8755794   -3.8755794   -2.5226441  0.055595805   -3.8755794    1.3529352      1024000 
  885000   0.90477894   -3.8799907   -3.8799907    -2.522825  0.047093316   -3.8799907    1.3571656      1024000 
  886000   0.90542162   -3.8811344   -3.8811344   -2.5230047  0.055273692   -3.8811344    1.3581297      1024000 
  887000   0.90462742   -3.8800999   -3.8800999   -2.5231616  0.061250421   -3.8800999    1.3569384      1024000 
  888000   0.90660535   -3.8830238   -3.8830238   -2.5231185  0.059433987   -3.8830238    1.3599053      1024000 
  889000   0.90828593   -3.8847032   -3.8847032   -2.5222771  0.064900683   -3.8847032    1.3624261      1024000 
  890000   0.90834258   -3.8848371   -3.8848371    -2.522326  0.067003698   -3.8848371    1.3625111      1024000 
  891000   0.90942418   -3.8864932   -3.8864932   -2.5223597  0.065615966   -3.8864932    1.3641335      1024000 
  892000   0.90953028   -3.8868794   -3.8868794   -2.5225868  0.063137234   -3.8868794    1.3642927      1024000 
  893000   0.90739273    -3.883356    -3.883356   -2.5222697   0.06853475    -3.883356    1.3610863      1024000 
  894000   0.90678915   -3.8824573   -3.8824573   -2.5222764  0.066710201   -3.8824573     1.360181      1024000 
  895000   0.90731681   -3.8834242   -3.8834242   -2.5224517  0.061435368   -3.8834242    1.3609724      1024000 
  896000   0.90632169   -3.8817858   -3.8817858    -2.522306  0.064092829   -3.8817858    1.3594798      1024000 
  897000   0.90453639   -3.8789159   -3.8789159   -2.5221141  0.058551964   -3.8789159    1.3568018      1024000 
  898000   0.90406229   -3.8780147   -3.8780147    -2.521924  0.049813212   -3.8780147    1.3560907      1024000 
  899000   0.90399829   -3.8775815   -3.8775815   -2.5215869  0.053608472   -3.8775815    1.3559947      1024000 
  900000   0.90367883   -3.8771953   -3.8771953   -2.5216798  0.046886851   -3.8771953    1.3555155      1024000 
  901000   0.90255708    -3.875074    -3.875074   -2.5212411  0.050989738    -3.875074    1.3538329      1024000 
  902000   0.90114499   -3.8730219   -3.8730219   -2.5213071  0.043704899   -3.8730219    1.3517147      1024000 
  903000   0.90146468   -3.8728044   -3.8728044   -2.5206101  0.048168723   -3.8728044    1.3521943      1024000 
  904000   0.90066573   -3.8714103   -3.8714103   -2.5204144  0.041565321   -3.8714103    1.3509958      1024000 
  905000   0.90199401   -3.8734071   -3.8734071   -2.5204189  0.043290106   -3.8734071    1.3529883      1024000 
  906000   0.90331204   -3.8748268   -3.8748268   -2.5198615  0.047131006   -3.8748268    1.3549653      1024000 
  907000   0.90325057   -3.8748652   -3.8748652   -2.5199921  0.054329085   -3.8748652    1.3548731      1024000 
  908000   0.90435463    -3.876647    -3.876647   -2.5201178  0.051762661    -3.876647    1.3565292      1024000 
  909000   0.90483052   -3.8767829   -3.8767829   -2.5195399  0.053177859   -3.8767829     1.357243      1024000 
  910000   0.90606277   -3.8780693   -3.8780693   -2.5189779  0.054836541   -3.8780693    1.3590914      1024000 
  911000   0.90687474   -3.8794035   -3.8794035   -2.5190941  0.059368177   -3.8794035    1.3603094      1024000 
  912000   0.90687945     -3.87926     -3.87926   -2.5189436   0.06531015     -3.87926    1.3603164      1024000 
  913000   0.90720872   -3.8803474   -3.8803474   -2.5195371  0.061687379   -3.8803474    1.3608103      1024000 
  914000   0.90697357   -3.8796447   -3.8796447   -2.5191871  0.063948907   -3.8796447    1.3604576      1024000 
  915000   0.90762126   -3.8795301   -3.8795301    -2.518101  0.066910147   -3.8795301    1.3614291      1024000 
  916000   0.90830052   -3.8806689   -3.8806689   -2.5182209  0.062378433   -3.8806689     1.362448      1024000 
  917000   0.90767104   -3.8791973   -3.8791973   -2.5176935   0.06378118   -3.8791973    1.3615038      1024000 
  918000   0.90676744   -3.8780967   -3.8780967   -2.5179483  0.062156892   -3.8780967    1.3601484      1024000 
  919000   0.90723309    -3.878449    -3.878449   -2.5176022  0.064390282    -3.878449    1.3608469      1024000 
  920000   0.90653823   -3.8770217   -3.8770217   -2.5172171  0.058886724   -3.8770217    1.3598046      1024000 
  921000   0.90615307   -3.8762083   -3.8762083   -2.5169814  0.056664359   -3.8762083    1.3592268      1024000 
  922000   0.90504903   -3.8743895   -3.8743895   -2.5168187  0.056083042   -3.8743895    1.3575708      1024000 
  923000   0.90524992   -3.8738116   -3.8738116   -2.5159395  0.050889809   -3.8738116    1.3578721      1024000 
  924000    0.9051726   -3.8729746   -3.8729746   -2.5152185  0.050741173   -3.8729746    1.3577561      1024000 
  925000   0.90417666   -3.8709635   -3.8709635   -2.5147013  0.054250289   -3.8709635    1.3562622      1024000 
  926000   0.90322575   -3.8696443   -3.8696443   -2.5148085  0.053193069   -3.8696443    1.3548359      1024000 
  927000   0.90496423   -3.8717473   -3.8717473   -2.5143037  0.048625742   -3.8717473    1.3574436      1024000 
  928000    0.9030501   -3.8685842   -3.8685842   -2.5140117  0.049905619   -3.8685842    1.3545724      1024000 
  929000   0.90302411   -3.8682905   -3.8682905   -2.5137571  0.052419861   -3.8682905    1.3545334      1024000 
  930000   0.90380308   -3.8693188   -3.8693188   -2.5136169  0.052084759   -3.8693188    1.3557019      1024000 
  931000   0.90358887   -3.8690049   -3.8690049   -2.5136244  0.047269613   -3.8690049    1.3553806      1024000 
  932000   0.90447277   -3.8700614   -3.8700614    -2.513355  0.049333313   -3.8700614    1.3567064      1024000 
  933000   0.90344763    -3.868263    -3.868263   -2.5130943  0.052996492    -3.868263    1.3551687      1024000 
  934000   0.90317087   -3.8676151   -3.8676151   -2.5128616  0.057752056   -3.8676151    1.3547536      1024000 
  935000   0.90529346   -3.8708441   -3.8708441   -2.5129066  0.055747473   -3.8708441    1.3579374      1024000 
  936000    0.9055381   -3.8707863   -3.8707863   -2.5124819  0.058728334   -3.8707863    1.3583044      1024000 
  937000   0.90748219   -3.8732173   -3.8732173   -2.5119968  0.061794809   -3.8732173    1.3612205      1024000 
  938000   0.90724573   -3.8719282   -3.8719282   -2.5110623  0.068474732   -3.8719282    1.3608658      1024000 
  939000   0.90690505   -3.8715583   -3.8715583   -2.5112034  0.067464084   -3.8715583    1.3603548      1024000 
  940000    0.9092743   -3.8742973   -3.8742973   -2.5103886  0.059047418   -3.8742973    1.3639087      1024000 
  941000   0.90813468    -3.871904    -3.871904   -2.5097048  0.063078299    -3.871904    1.3621993      1024000 
  942000   0.90858581   -3.8723276   -3.8723276   -2.5094517  0.066761844   -3.8723276    1.3628759      1024000 
  943000   0.90680411   -3.8695524   -3.8695524    -2.509349  0.062812912   -3.8695524    1.3602034      1024000 
  944000   0.90639952   -3.8687848   -3.8687848   -2.5091882  0.059128499   -3.8687848    1.3595965      1024000 
  945000   0.90698397   -3.8688099   -3.8688099   -2.5083367  0.060730292   -3.8688099    1.3604732      1024000 
  946000   0.90682807   -3.8679738   -3.8679738   -2.5077344  0.059131215   -3.8679738    1.3602394      1024000 
  947000   0.90630192   -3.8667542   -3.8667542   -2.5073041  0.057663455   -3.8667542    1.3594501      1024000 
  948000   0.90684115    -3.866744    -3.866744    -2.506485  0.055284774    -3.866744     1.360259      1024000 
  949000   0.90660887   -3.8664301   -3.8664301   -2.5065196  0.052529061   -3.8664301    1.3599105      1024000 
  950000   0.90639144   -3.8656052   -3.8656052   -2.5060208  0.050683823   -3.8656052    1.3595844      1024000 
  951000   0.90673951   -3.8654474   -3.8654474   -2.5053409  0.045861894   -3.8654474    1.3601065      1024000 
  952000    0.9054011   -3.8633306   -3.8633306   -2.5052317  0.050050197   -3.8633306    1.3580989      1024000 
  953000    0.9048684   -3.8619977   -3.8619977   -2.5046978  0.054154148   -3.8619977    1.3572998      1024000 
  954000   0.90513185   -3.8620698   -3.8620698   -2.5043747  0.052158868   -3.8620698     1.357695      1024000 
  955000   0.90741811   -3.8648559   -3.8648559   -2.5037315  0.049338661   -3.8648559    1.3611244      1024000 
  956000   0.90667505   -3.8631651   -3.8631651   -2.5031553  0.053905597   -3.8631651    1.3600098      1024000 
  957000   0.90606946   -3.8619265   -3.8619265   -2.5028251  0.057131539   -3.8619265    1.3591014      1024000 
  958000   0.90837014   -3.8651281   -3.8651281   -2.5025757  0.056168148   -3.8651281    1.3625524      1024000 
  959000   0.90745809   -3.8637127   -3.8637127   -2.5025283  0.058647919   -3.8637127    1.3611844      1024000 
  960000    0.9084548   -3.8647255   -3.8647255    -2.502046  0.059948838   -3.8647255    1.3626794      1024000 
  961000   0.90904434    -3.865224    -3.865224   -2.5016603  0.058423408    -3.865224    1.3635637      1024000 
  962000   0.90848345   -3.8636419   -3.8636419   -2.5009195  0.057604593   -3.8636419    1.3627224      1024000 
  963000   0.91002193    -3.865771    -3.865771   -2.5007409  0.055362373    -3.865771    1.3650301      1024000 
  964000   0.91094081    -3.866624    -3.866624   -2.5002156  0.061448364    -3.866624    1.3664084      1024000 
  965000   0.91125273   -3.8666469   -3.8666469   -2.4997705  0.060305882   -3.8666469    1.3668763      1024000 
  966000   0.90967411   -3.8643774   -3.8643774    -2.499869  0.061929067   -3.8643774    1.3645084      1024000 
  967000   0.90975272   -3.8638779   -3.8638779   -2.4992516  0.061757717   -3.8638779    1.3646263      1024000 
  968000   0.90971564   -3.8630234   -3.8630234   -2.4984527   0.05932416   -3.8630234    1.3645707      1024000 
  969000   0.90967104   -3.8633431   -3.8633431   -2.4988394  0.059138908   -3.8633431    1.3645038      1024000 
  970000   0.90940115    -3.862476    -3.862476    -2.498377  0.050079994    -3.862476     1.364099      1024000 
  971000    0.9078405   -3.8593526   -3.8593526   -2.4975946  0.056780023   -3.8593526     1.361758      1024000 
  972000    0.9070024   -3.8573303   -3.8573303   -2.4968295  0.053444899   -3.8573303    1.3605008      1024000 
  973000   0.90831996   -3.8589375   -3.8589375   -2.4964603  0.051222417   -3.8589375    1.3624772      1024000 
  974000   0.90765658    -3.857201    -3.857201   -2.4957189  0.050385733    -3.857201    1.3614821      1024000 
  975000   0.90784305   -3.8571578   -3.8571578   -2.4953959  0.051808969   -3.8571578    1.3617618      1024000 
  976000   0.90882311   -3.8580179   -3.8580179    -2.494786  0.053400656   -3.8580179    1.3632319      1024000 
  977000   0.90944261   -3.8582432   -3.8582432    -2.494082  0.049627637   -3.8582432    1.3641611      1024000 
  978000   0.90921666   -3.8572894   -3.8572894   -2.4934672  0.054006532   -3.8572894    1.3638222      1024000 
  979000   0.91019675   -3.8585208   -3.8585208   -2.4932285  0.056074548   -3.8585208    1.3652923      1024000 
  980000   0.91074385   -3.8584766   -3.8584766   -2.4923636  0.055350814   -3.8584766     1.366113      1024000 
  981000   0.91111539   -3.8590044   -3.8590044    -2.492334  0.055029573   -3.8590044    1.3666703      1024000 
  982000    0.9121025   -3.8603805   -3.8603805   -2.4922295  0.051717553   -3.8603805     1.368151      1024000 
  983000   0.91242904   -3.8606476   -3.8606476   -2.4920069  0.056449606   -3.8606476    1.3686408      1024000 
  984000   0.91379902   -3.8617241   -3.8617241   -2.4910283  0.062317523   -3.8617241    1.3706958      1024000 
  985000   0.91568817   -3.8647482   -3.8647482   -2.4912187  0.064845562   -3.8647482    1.3735295      1024000 
  986000    0.9170216   -3.8659182   -3.8659182   -2.4903885  0.071500527   -3.8659182    1.3755296      1024000 
  987000   0.91836769   -3.8675749   -3.8675749   -2.4900261  0.077410954   -3.8675749    1.3775487      1024000 
  988000   0.91971547   -3.8690712   -3.8690712   -2.4895007   0.08257857   -3.8690712    1.3795704      1024000 
  989000   0.92103086   -3.8705664   -3.8705664   -2.4890229  0.085061689   -3.8705664    1.3815435      1024000 
  990000   0.92285955   -3.8728928   -3.8728928   -2.4886063  0.094695009   -3.8728928    1.3842865      1024000 
  991000   0.92575467   -3.8770276   -3.8770276   -2.4883984   0.10615398   -3.8770276    1.3886292      1024000 
  992000   0.92884163   -3.8813586   -3.8813586    -2.488099   0.11541622   -3.8813586    1.3932596      1024000 
  993000   0.93227911   -3.8860208   -3.8860208    -2.487605   0.13101927   -3.8860208    1.3984158      1024000 
  994000   0.93496097   -3.8890462   -3.8890462   -2.4866076   0.14879243   -3.8890462    1.4024386      1024000 
  995000   0.93842298   -3.8937252   -3.8937252   -2.4860936   0.16385954   -3.8937252    1.4076316      1024000 
  996000   0.94102894   -3.8971101   -3.8971101   -2.4855696   0.17436389   -3.8971101    1.4115405      1024000 
  997000   0.94658282   -3.9052008   -3.9052008   -2.4853295   0.17703621   -3.9052008    1.4198713      1024000 
  998000   0.94821425   -3.9074854   -3.9074854   -2.4851669   0.17973425   -3.9074854    1.4223185      1024000 
  999000   0.95044281   -3.9098773   -3.9098773   -2.4842159   0.19496509   -3.9098773    1.4256613      1024000 
 1000000   0.95175584   -3.9118794   -3.9118794   -2.4842485    0.2017905   -3.9118794    1.4276309      1024000 
Loop time of 7423.02 on 32 procs for 1000000 steps with 492800 atoms

Performance: 29098.661 tau/day, 134.716 timesteps/s
99.7% CPU use with 32 MPI tasks x 1 OpenMP threads

MPI task timing breakdown:
Section |  min time  |  avg time  |  max time  |%varavg|  %CPU | %total
-----------------------------------------------------------------------
Pair    | 3815.6     | 4664.8     | 5104.5     | 591.6 |  99.7 | 62.84
Bond    | 0.62724    | 0.64633    | 0.69807    |   1.5 | 100.0 |  0.01
Neigh   | 1106.2     | 1260.2     | 1343.1     | 228.3 |  99.8 | 16.98
Comm    | 579        | 1055       | 1742.5     |1216.6 |  99.5 | 14.21
Output  | 22.945     | 23.12      | 23.127     |   0.7 |  98.2 |  0.31
Modify  | 154.26     | 223.39     | 539.18     | 836.7 |  99.2 |  3.01
Other   |            | 195.9      |            |       |       |  2.64

Nlocal:        15400.0 ave       15899 max       14436 min
Histogram: 1 1 0 0 0 1 19 8 1 1
Nghost:        12071.8 ave       13647 max        8162 min
Histogram: 4 4 0 0 0 0 0 4 4 16
Neighs:        501275.0 ave      565002 max      275469 min
Histogram: 2 2 0 0 0 0 0 8 6 14

Total # of neighbors = 16040785
Ave neighs/atom = 32.550294
Ave special neighs/atom = 0.0000000
Neighbor list builds = 63536
Dangerous builds = 58
Total wall time: 2:03:44
