LAMMPS (3 Mar 2020)
  using 1 OpenMP thread(s) per MPI task
#Read the equilibrated lj fluid and add nanocubes



units           lj
atom_style      full
atom_modify     map array first cubes
dimension       3
boundary        p p f
pair_style      lj/cut/opt 4.4

variable        sigma           equal 1.0
variable        epsilon         equal 1.0
read_data	data.restart
Reading data file ...
  orthogonal box = (0 0 0) to (80 80 160)
  2 by 2 by 4 MPI processor grid
  reading atoms ...
  489200 atoms
  reading velocities ...
  489200 velocities
Finding 1-2 1-3 1-4 neighbors ...
  special bond factors lj:   0          0          0         
  special bond factors coul: 0          0          0         
  0 = max # of 1-2 neighbors
  0 = max # of 1-3 neighbors
  0 = max # of 1-4 neighbors
  1 = max # of special neighbors
  special bonds CPU = 0.114857 secs
  read_data CPU = 1.85978 secs

group		solvent type 1
489200 atoms in group solvent

read_data	data.cubes group cubes add append
Reading data file ...
  orthogonal box = (0 0 0) to (80 80 160)
  2 by 2 by 4 MPI processor grid
  reading atoms ...
  73152 atoms
  reading velocities ...
  73152 velocities
Finding 1-2 1-3 1-4 neighbors ...
  special bond factors lj:   0          0          0         
  special bond factors coul: 0          0          0         
  0 = max # of 1-2 neighbors
  0 = max # of 1-3 neighbors
  0 = max # of 1-4 neighbors
  1 = max # of special neighbors
  special bonds CPU = 0.0147507 secs
  read_data CPU = 0.25252 secs

neighbor      0.4 bin
neigh_modify  exclude molecule/intra cubes

pair_modify   shift yes
pair_coeff    1 1 1.0 1.0 4.4 #solvent
pair_coeff    2 2 0.6 1.0 2.2 #np
pair_coeff    3 3 0.0 0.0 0.0 #dummy
pair_coeff    2 3 0.0 0.0 0.0 #np dummy
pair_coeff    1 2 0.8 1.0 4.4 #np solvent
pair_coeff    1 3 0.0 0.0 0.0 #dummy solvent

delete_atoms  overlap 1.0 solvent cubes
System init for delete_atoms ...
Neighbor list info ...
  update every 1 steps, delay 10 steps, check yes
  max neighbors/atom: 2000, page size: 100000
  master list distance cutoff = 4.8
  ghost atom cutoff = 4.8
  binsize = 2.4, bins = 34 34 67
  2 neighbor lists, perpetual/occasional/extra = 1 1 0
  (1) command delete_atoms, occasional
      attributes: full, newton on
      pair build: full/bin
      stencil: full/bin/3d
      bin: standard
  (2) pair lj/cut/opt, perpetual
      attributes: half, newton on
      pair build: half/bin/newton
      stencil: half/bin/3d/newton
      bin: standard
WARNING: Delete_atoms cutoff > minimum neighbor cutoff (src/delete_atoms.cpp:338)
WARNING: Ignoring 'compress yes' for molecular system (src/delete_atoms.cpp:125)
Deleted 40261 atoms, new total = 522091

comm_modify     cutoff 6.95

reset_timestep 	0
balance 	1.05 shift z 10 1.05
Balancing ...
Neighbor list info ...
  update every 1 steps, delay 10 steps, check yes
  max neighbors/atom: 2000, page size: 100000
  master list distance cutoff = 4.8
  ghost atom cutoff = 6.95
  binsize = 2.4, bins = 34 34 67
  1 neighbor lists, perpetual/occasional/extra = 1 0 0
  (1) pair lj/cut/opt, perpetual
      attributes: half, newton on
      pair build: half/bin/newton
      stencil: half/bin/3d/newton
      bin: standard
  rebalancing time: 0.0349856 seconds
  iteration count = 4
  initial/final max load/proc = 48720 35698
  initial/final imbalance factor = 1.49307 1.094
  x cuts: 0 0.5 1
  y cuts: 0 0.5 1
  z cuts: 0 0.171875 0.328125 0.515625 1

####################### WALLS ###########################

variable       epsilonWall equal 2*${epsilon}
variable       epsilonWall equal 2*1

variable       cutoffTop   equal   0.7147*${sigma}
variable       cutoffTop   equal   0.7147*1

variable       cutoffLow   equal   3*${sigma}
variable       cutoffLow   equal   3*1

region         lowWall block EDGE EDGE EDGE EDGE EDGE 2

delete_atoms   region lowWall
WARNING: Ignoring 'compress yes' for molecular system (src/delete_atoms.cpp:125)
Deleted 6661 atoms, new total = 515430



fix            topWall all wall/lj93 zhi EDGE 	       ${epsilonWall} ${sigma} ${cutoffTop} units box
fix            topWall all wall/lj93 zhi EDGE 	       2 ${sigma} ${cutoffTop} units box
fix            topWall all wall/lj93 zhi EDGE 	       2 1 ${cutoffTop} units box
fix            topWall all wall/lj93 zhi EDGE 	       2 1 0.7147 units box

fix            lowWall all wall/lj93 zlo EDGE                ${epsilonWall} ${sigma} ${cutoffLow} units box
fix            lowWall all wall/lj93 zlo EDGE                2 ${sigma} ${cutoffLow} units box
fix            lowWall all wall/lj93 zlo EDGE                2 1 ${cutoffLow} units box
fix            lowWall all wall/lj93 zlo EDGE                2 1 3 units box


######################  FIXES ############################


fix             1 cubes rigid/nvt/small molecule temp 1.0 1.0 0.25
  create bodies CPU = 0.00345457 secs
64 rigid bodies with 73152 atoms
  6.94564 = max distance from body owner to body atom

fix             2 solvent nve


## Thermostat


region          regthermo block EDGE EDGE EDGE EDGE 0 20

group           thermo dynamic solvent region regthermo every 1000
dynamic group thermo defined

fix             3 thermo langevin 1.0 1.0 0.1 156453




#### Load balancing

fix             bal all balance 1000 1.05 shift z 10 1.05

############### Diagnostics and computes ###################
#compute        com cube          rigid/local   1 mol x y z
#compute        quat cube         rigid/local   1 mol quatw quati quatj quatk

thermo          1000
thermo_style    custom step temp epair evdwl etotal press pe ke vol

dump            1 all custom 100000 dump.lammpstrj id mol type x y z
dump            2 all image 10000 image.*.png type type

dump_modify     2 pad 8


dump		image cubes image 10000 image.*.png type type

dump_modify	2 pad 8

dump            3 all movie 5000 movie.avi type type
#dump           com cube local 1000 dump.*.xyz c_com[*]
#dump           quat cube      local 1000 dump.*.quat c_quat[*]


restart         500000 restart.dat
timestep        0.0025
timer           full
New timer settings: style=full  mode=nosync  timeout=off

run            1000000
Setting up Verlet run ...
  Unit style    : lj
  Current step  : 0
  Time step     : 0.0025
Per MPI rank memory allocation (min/avg/max) = 77.79 | 86.63 | 89.83 Mbytes
Step Temp E_pair E_vdwl TotEng Press PotEng KinEng Volume 
       0   0.98761916   -3.9573298   -3.9573298   -2.6857866 -0.012303543   -3.9573298    1.2715431      1024000 
    1000   0.98648242   -3.9500262   -3.9500262   -2.6799466 -0.012062099   -3.9500262    1.2700796      1024000 
    2000    0.9851048   -3.9453164   -3.9453164   -2.6770105 -0.016998662   -3.9453164    1.2683059      1024000 
    3000   0.98535183   -3.9414139   -3.9414139     -2.67279 -0.010750733   -3.9414139     1.268624      1024000 
    4000   0.98825428   -3.9452342   -3.9452342   -2.6728734 -0.0079004571   -3.9452342    1.2723609      1024000 
    5000   0.99093808   -3.9449934   -3.9449934   -2.6691773 -0.0046812981   -3.9449934    1.2758162      1024000 
    6000   0.99138653     -3.94606     -3.94606   -2.6696664 -0.0083325643     -3.94606    1.2763936      1024000 
    7000   0.99377275   -3.9480513   -3.9480513   -2.6685855  0.010695083   -3.9480513    1.2794658      1024000 
    8000   0.99569247   -3.9519016   -3.9519016   -2.6699642  0.015954171   -3.9519016    1.2819374      1024000 
    9000   0.99580077   -3.9522324   -3.9522324   -2.6701556  0.010569565   -3.9522324    1.2820768      1024000 
   10000    0.9984996   -3.9550988   -3.9550988   -2.6695473   0.03234849   -3.9550988    1.2855515      1024000 
   11000   0.99725453   -3.9546392   -3.9546392   -2.6706906  0.025600684   -3.9546392    1.2839485      1024000 
   12000   0.99894634   -3.9571717   -3.9571717    -2.671045  0.029832257   -3.9571717    1.2861267      1024000 
   13000   0.99946169   -3.9572653   -3.9572653   -2.6704751  0.039419642   -3.9572653    1.2867902      1024000 
   14000   0.99895868    -3.959989    -3.959989   -2.6738464  0.042512791    -3.959989    1.2861426      1024000 
   15000    1.0032061   -3.9635204   -3.9635204   -2.6719092  0.055221696   -3.9635204    1.2916111      1024000 
   16000    1.0030772   -3.9655695   -3.9655695   -2.6741244  0.036380832   -3.9655695    1.2914452      1024000 
   17000    1.0035366   -3.9684048   -3.9684048   -2.6763682  0.043324744   -3.9684048    1.2920366      1024000 
   18000    1.0025212   -3.9683767   -3.9683767   -2.6776475  0.050758931   -3.9683767    1.2907292      1024000 
   19000    1.0022275    -3.968436    -3.968436   -2.6780849  0.058381584    -3.968436    1.2903511      1024000 
   20000     1.002608   -3.9687142   -3.9687142   -2.6778732  0.053226128   -3.9687142     1.290841      1024000 
   21000    1.0035118   -3.9713847   -3.9713847     -2.67938  0.057219078   -3.9713847    1.2920047      1024000 
   22000    1.0028711   -3.9716562   -3.9716562   -2.6804765  0.049124678   -3.9716562    1.2911797      1024000 
   23000    1.0019038   -3.9720281   -3.9720281   -2.6820937  0.046458525   -3.9720281    1.2899344      1024000 
   24000    1.0010572   -3.9704217   -3.9704217   -2.6815773  0.046290722   -3.9704217    1.2888444      1024000 
   25000   0.99979782   -3.9713518   -3.9713518   -2.6841289  0.037172917   -3.9713518     1.287223      1024000 
   26000    1.0004783   -3.9714257   -3.9714257   -2.6833266  0.039146378   -3.9714257    1.2880991      1024000 
   27000   0.99960231   -3.9709237   -3.9709237   -2.6839525  0.034396034   -3.9709237    1.2869713      1024000 
   28000    1.0001796   -3.9709704   -3.9709704   -2.6832559  0.039960074   -3.9709704    1.2877145      1024000 
   29000   0.99727499   -3.9679556   -3.9679556   -2.6839807  0.043985644   -3.9679556    1.2839749      1024000 
   30000   0.99948356   -3.9701685   -3.9701685   -2.6833502   0.03881522   -3.9701685    1.2868184      1024000 
   31000   0.99865658   -3.9680928   -3.9680928   -2.6823391  0.032877159   -3.9680928    1.2857536      1024000 
   32000   0.99750851   -3.9663132   -3.9663132   -2.6820377   0.03317592   -3.9663132    1.2842755      1024000 
   33000   0.99611459   -3.9642612   -3.9642612   -2.6817803  0.027963505   -3.9642612    1.2824809      1024000 
   34000   0.99650492   -3.9645562   -3.9645562   -2.6815728  0.017112703   -3.9645562    1.2829834      1024000 
   35000   0.99606805   -3.9635259   -3.9635259    -2.681105  0.042545973   -3.9635259     1.282421      1024000 
   36000   0.99357153   -3.9608184   -3.9608184   -2.6816117  0.021976392   -3.9608184    1.2792067      1024000 
   37000   0.99477305   -3.9612745   -3.9612745   -2.6805208  0.027928836   -3.9612745    1.2807537      1024000 
   38000   0.99472822   -3.9603281   -3.9603281   -2.6796321  0.019262842   -3.9603281    1.2806959      1024000 
   39000   0.99178286   -3.9600478   -3.9600478    -2.683144  0.022262963   -3.9600478    1.2769038      1024000 
   40000   0.99338266   -3.9603343   -3.9603343   -2.6813707 0.0081059384   -3.9603343    1.2789636      1024000 
   41000    0.9929259    -3.958615    -3.958615   -2.6802395  0.017017495    -3.958615    1.2783755      1024000 
   42000   0.99251032   -3.9588181   -3.9588181   -2.6809777   0.01466508   -3.9588181    1.2778404      1024000 
   43000   0.99345719   -3.9602161   -3.9602161   -2.6811565  0.013064646   -3.9602161    1.2790595      1024000 
   44000   0.99325755   -3.9599535   -3.9599535    -2.681151  0.019656036   -3.9599535    1.2788025      1024000 
   45000   0.99269976   -3.9599451   -3.9599451   -2.6818608  0.013354705   -3.9599451    1.2780843      1024000 
   46000    0.9933174     -3.95855     -3.95855   -2.6796705   0.01792773     -3.95855    1.2788795      1024000 
   47000   0.99421272   -3.9590692   -3.9590692    -2.679037   0.02651107   -3.9590692    1.2800322      1024000 
   48000   0.99480434   -3.9601268   -3.9601268   -2.6793329  0.016334788   -3.9601268    1.2807939      1024000 
   49000   0.99485235   -3.9601308   -3.9601308   -2.6792751  0.025302871   -3.9601308    1.2808558      1024000 
   50000   0.99500533   -3.9623193   -3.9623193   -2.6812666  0.021371685   -3.9623193    1.2810527      1024000 
   51000    0.9946491   -3.9608756   -3.9608756   -2.6802815  0.025786972   -3.9608756    1.2805941      1024000 
   52000   0.99473408   -3.9640619   -3.9640619   -2.6833584  0.026804869   -3.9640619    1.2807035      1024000 
   53000   0.99638355   -3.9651024   -3.9651024   -2.6822753  0.029337152   -3.9651024    1.2828272      1024000 
   54000   0.99780886   -3.9672325   -3.9672325   -2.6825703  0.031137087   -3.9672325    1.2846622      1024000 
   55000   0.99490275   -3.9641968   -3.9641968   -2.6832761  0.025584906   -3.9641968    1.2809206      1024000 
   56000   0.99563907   -3.9662931   -3.9662931   -2.6844244  0.038690969   -3.9662931    1.2818686      1024000 
   57000   0.99724477   -3.9684984   -3.9684984   -2.6845624  0.027249161   -3.9684984     1.283936      1024000 
   58000   0.99587897   -3.9675378   -3.9675378   -2.6853603  0.037896721   -3.9675378    1.2821775      1024000 
   59000   0.99635888   -3.9700136   -3.9700136   -2.6872183  0.039612648   -3.9700136    1.2827954      1024000 
   60000   0.99827141   -3.9720941   -3.9720941   -2.6868363  0.031131232   -3.9720941    1.2852577      1024000 
   61000    0.9981023   -3.9728957   -3.9728957   -2.6878557  0.033984646   -3.9728957      1.28504      1024000 
   62000    0.9974707   -3.9718959   -3.9718959   -2.6876691  0.034482544   -3.9718959    1.2842268      1024000 
   63000   0.99899809   -3.9738985   -3.9738985   -2.6877052  0.033940536   -3.9738985    1.2861933      1024000 
   64000   0.99703422   -3.9723111   -3.9723111   -2.6886463  0.036754978   -3.9723111    1.2836649      1024000 
   65000   0.99675553   -3.9724048   -3.9724048   -2.6890987    0.0378574   -3.9724048    1.2833061      1024000 
   66000   0.99549207   -3.9725977   -3.9725977   -2.6909183  0.033958023   -3.9725977    1.2816794      1024000 
   67000   0.99667999    -3.974945    -3.974945   -2.6917362  0.031161342    -3.974945    1.2832088      1024000 
   68000   0.99703005    -3.973177    -3.973177   -2.6895175  0.041913479    -3.973177    1.2836595      1024000 
   69000   0.99605784   -3.9728399   -3.9728399   -2.6904321  0.039625031   -3.9728399    1.2824078      1024000 
   70000   0.99674568   -3.9741032   -3.9741032   -2.6908098  0.037275362   -3.9741032    1.2832934      1024000 
   71000   0.99618803   -3.9735117   -3.9735117   -2.6909363  0.036710631   -3.9735117    1.2825754      1024000 
   72000   0.99677929   -3.9747161   -3.9747161   -2.6913794  0.030015295   -3.9747161    1.2833367      1024000 
   73000   0.99633004   -3.9745638   -3.9745638   -2.6918055  0.033773489   -3.9745638    1.2827583      1024000 
   74000   0.99471687   -3.9744723   -3.9744723    -2.693791  0.035819563   -3.9744723    1.2806813      1024000 
   75000    0.9945244   -3.9739689   -3.9739689   -2.6935353  0.030358549   -3.9739689    1.2804335      1024000 
   76000   0.99597498   -3.9739512   -3.9739512     -2.69165  0.033812451   -3.9739512    1.2823011      1024000 
   77000   0.99372935   -3.9728873   -3.9728873   -2.6934774  0.033740273   -3.9728873    1.2794099      1024000 
   78000   0.99411503    -3.972296    -3.972296   -2.6923895  0.036666233    -3.972296    1.2799065      1024000 
   79000   0.99222497   -3.9721058   -3.9721058   -2.6946328  0.030580658   -3.9721058     1.277473      1024000 
   80000   0.99354846   -3.9740628   -3.9740628   -2.6948858  0.033882184   -3.9740628     1.279177      1024000 
   81000   0.99211545   -3.9731339   -3.9731339   -2.6958019  0.019086635   -3.9731339     1.277332      1024000 
   82000   0.99428675   -3.9748921   -3.9748921   -2.6947645  0.029567705   -3.9748921    1.2801276      1024000 
   83000    0.9943151   -3.9740471   -3.9740471   -2.6938831   0.03523073   -3.9740471     1.280164      1024000 
   84000   0.99296637   -3.9746045   -3.9746045    -2.696177  0.030953204   -3.9746045    1.2784276      1024000 
   85000   0.99354227   -3.9744772   -3.9744772   -2.6953081  0.030015197   -3.9744772    1.2791691      1024000 
   86000   0.99286662   -3.9750958   -3.9750958   -2.6967966  0.030960078   -3.9750958    1.2782992      1024000 
   87000   0.99503077   -3.9761581   -3.9761581   -2.6950726  0.029574096   -3.9761581    1.2810855      1024000 
   88000   0.99477037   -3.9769859   -3.9769859   -2.6962357  0.042463266   -3.9769859    1.2807502      1024000 
   89000   0.99481991   -3.9770331   -3.9770331   -2.6962192  0.034877266   -3.9770331     1.280814      1024000 
   90000    0.9946483   -3.9775904   -3.9775904   -2.6969974  0.028230935   -3.9775904     1.280593      1024000 
   91000   0.99472339   -3.9770955   -3.9770955   -2.6964058  0.030078147   -3.9770955    1.2806897      1024000 
   92000   0.99596583   -3.9788077   -3.9788077   -2.6965183  0.031519779   -3.9788077    1.2822893      1024000 
   93000   0.99309784   -3.9781131   -3.9781131   -2.6995163   0.03540306   -3.9781131    1.2785968      1024000 
   94000   0.99560888   -3.9802138   -3.9802138    -2.698384  0.039139049   -3.9802138    1.2818298      1024000 
   95000    0.9955013   -3.9791606   -3.9791606   -2.6974693  0.037884562   -3.9791606    1.2816913      1024000 
   96000   0.99586608   -3.9819517   -3.9819517   -2.6997908  0.027616331   -3.9819517    1.2821609      1024000 
   97000   0.99471016   -3.9820717   -3.9820717    -2.701399  0.040387976   -3.9820717    1.2806727      1024000 
   98000   0.99480585   -3.9824747   -3.9824747   -2.7016788  0.040313573   -3.9824747    1.2807959      1024000 
   99000   0.99484834   -3.9819458   -3.9819458   -2.7010952  0.041391316   -3.9819458    1.2808506      1024000 
  100000   0.99556912   -3.9822501   -3.9822501   -2.7004716  0.045235257   -3.9822501    1.2817786      1024000 
  101000   0.99620592   -3.9821472   -3.9821472   -2.6995487  0.037171121   -3.9821472    1.2825984      1024000 
  102000   0.99568109   -3.9837523   -3.9837523   -2.7018296  0.038064852   -3.9837523    1.2819227      1024000 
  103000   0.99430541   -3.9824382   -3.9824382   -2.7022866  0.045184691   -3.9824382    1.2801516      1024000 
  104000   0.99568274    -3.983423    -3.983423   -2.7014981  0.045572931    -3.983423    1.2819249      1024000 
  105000   0.99479142   -3.9842599   -3.9842599   -2.7034826  0.039618023   -3.9842599    1.2807773      1024000 
  106000   0.99580707    -3.985122    -3.985122   -2.7030371  0.045698698    -3.985122    1.2820849      1024000 
  107000   0.99606772   -3.9863854   -3.9863854   -2.7039649  0.047755879   -3.9863854    1.2824205      1024000 
  108000   0.99511702    -3.987159    -3.987159   -2.7059625  0.050514812    -3.987159    1.2811965      1024000 
  109000    0.9961053    -3.987279    -3.987279   -2.7048101  0.032332271    -3.987279    1.2824689      1024000 
  110000   0.99567457    -3.986943    -3.986943   -2.7050287  0.031614901    -3.986943    1.2819143      1024000 
  111000   0.99515855   -3.9854178   -3.9854178   -2.7041678  0.038066153   -3.9854178      1.28125      1024000 
  112000   0.99342405   -3.9832802   -3.9832802   -2.7042633  0.038597271   -3.9832802    1.2790168      1024000 
  113000   0.99305581   -3.9838416   -3.9838416   -2.7052989  0.043809137   -3.9838416    1.2785427      1024000 
  114000   0.99359186   -3.9837131   -3.9837131   -2.7044802  0.043105333   -3.9837131    1.2792329      1024000 
  115000   0.99233356   -3.9846713   -3.9846713   -2.7070584  0.038802673   -3.9846713    1.2776129      1024000 
  116000   0.99435477   -3.9857575   -3.9857575   -2.7055423  0.035889207   -3.9857575    1.2802151      1024000 
  117000   0.99377666   -3.9846477   -3.9846477   -2.7051769  0.051693595   -3.9846477    1.2794708      1024000 
  118000   0.99402617   -3.9857541   -3.9857541   -2.7059621  0.033520987   -3.9857541    1.2797921      1024000 
  119000   0.99359085   -3.9865563   -3.9865563   -2.7073247  0.038023491   -3.9865563    1.2792316      1024000 
  120000   0.99410185    -3.984775    -3.984775   -2.7048855  0.044514919    -3.984775    1.2798895      1024000 
  121000   0.99358499   -3.9853763   -3.9853763   -2.7061522  0.036205102   -3.9853763     1.279224      1024000 
  122000   0.99382766   -3.9854711   -3.9854711   -2.7059346  0.030681699   -3.9854711    1.2795365      1024000 
  123000   0.99237313   -3.9847244   -3.9847244   -2.7070606  0.043259265   -3.9847244    1.2776638      1024000 
  124000   0.99216122   -3.9851589   -3.9851589   -2.7077679  0.035348985   -3.9851589     1.277391      1024000 
  125000   0.99098538   -3.9843504   -3.9843504   -2.7084733  0.046654657   -3.9843504    1.2758771      1024000 
  126000   0.99202786    -3.985864    -3.985864   -2.7086447  0.037428469    -3.985864    1.2772193      1024000 
  127000   0.99295196   -3.9855338   -3.9855338   -2.7071248  0.041346263   -3.9855338     1.278409      1024000 
  128000   0.99114235   -3.9862086   -3.9862086   -2.7101294  0.042520907   -3.9862086    1.2760792      1024000 
  129000   0.99182485   -3.9882606   -3.9882606   -2.7113027   0.03528711   -3.9882606    1.2769579      1024000 
  130000   0.99202009   -3.9857812   -3.9857812   -2.7085719  0.042385666   -3.9857812    1.2772093      1024000 
  131000   0.99179186   -3.9867797   -3.9867797   -2.7098643  0.048667268   -3.9867797    1.2769154      1024000 
  132000   0.99368613   -3.9901571   -3.9901571   -2.7108028  0.037451495   -3.9901571    1.2793543      1024000 
  133000   0.99300978   -3.9898235   -3.9898235     -2.71134  0.040162832   -3.9898235    1.2784835      1024000 
  134000   0.99186744   -3.9888157   -3.9888157    -2.711803  0.042987674   -3.9888157    1.2770127      1024000 
  135000   0.99265916   -3.9888779   -3.9888779   -2.7108459  0.050811167   -3.9888779    1.2780321      1024000 
  136000   0.99536275   -3.9921935   -3.9921935   -2.7106806  0.035824102   -3.9921935    1.2815129      1024000 
  137000   0.99474534   -3.9900397   -3.9900397   -2.7093217  0.050427216   -3.9900397     1.280718      1024000 
  138000   0.99489041   -3.9912322   -3.9912322   -2.7103274  0.052310961   -3.9912322    1.2809047      1024000 
  139000   0.99380836   -3.9914722   -3.9914722   -2.7119605  0.050674213   -3.9914722    1.2795116      1024000 
  140000   0.99344081   -3.9913642   -3.9913642   -2.7123257  0.053974095   -3.9913642    1.2790384      1024000 
  141000   0.99384625   -3.9928293   -3.9928293   -2.7132689  0.055555874   -3.9928293    1.2795604      1024000 
  142000   0.99540762   -3.9938629   -3.9938629   -2.7122922  0.049527124   -3.9938629    1.2815707      1024000 
  143000   0.99380433   -3.9930011   -3.9930011   -2.7134947  0.047666981   -3.9930011    1.2795064      1024000 
  144000   0.99335029   -3.9927004   -3.9927004   -2.7137785  0.051830038   -3.9927004    1.2789219      1024000 
  145000   0.99453726   -3.9951462   -3.9951462   -2.7146962  0.053165527   -3.9951462    1.2804501      1024000 
  146000   0.99351823   -3.9932435   -3.9932435   -2.7141054  0.052119389   -3.9932435    1.2791381      1024000 
  147000   0.99415041   -3.9955304   -3.9955304   -2.7155784  0.038482665   -3.9955304     1.279952      1024000 
  148000   0.99383665    -3.993545    -3.993545    -2.713997  0.054289426    -3.993545    1.2795481      1024000 
  149000   0.99186117   -3.9935227   -3.9935227   -2.7165181  0.041108463   -3.9935227    1.2770047      1024000 
  150000   0.99245526   -3.9933362   -3.9933362   -2.7155667  0.051683074   -3.9933362    1.2777695      1024000 
  151000   0.99369906   -3.9942169   -3.9942169    -2.714846  0.044651236   -3.9942169    1.2793709      1024000 
  152000   0.99307278    -3.994687    -3.994687   -2.7161224  0.045862115    -3.994687    1.2785646      1024000 
  153000    0.9941938   -3.9959804   -3.9959804   -2.7159726  0.040172289   -3.9959804    1.2800079      1024000 
  154000   0.99345891   -3.9946715   -3.9946715   -2.7156098  0.049907549   -3.9946715    1.2790617      1024000 
  155000   0.99250199   -3.9934651   -3.9934651   -2.7156354  0.047101467   -3.9934651    1.2778297      1024000 
  156000   0.99269629   -3.9938658   -3.9938658   -2.7157859  0.053553828   -3.9938658    1.2780799      1024000 
  157000   0.99216017   -3.9941422   -3.9941422   -2.7167526  0.048361477   -3.9941422    1.2773896      1024000 
  158000   0.99196736   -3.9953288   -3.9953288   -2.7181874   0.04807348   -3.9953288    1.2771414      1024000 
  159000   0.99518781   -3.9974621   -3.9974621   -2.7161744    0.0396511   -3.9974621    1.2812877      1024000 
  160000   0.99241941   -3.9956662   -3.9956662   -2.7179428  0.057405342   -3.9956662    1.2777234      1024000 
  161000   0.99339097   -3.9966265   -3.9966265   -2.7176522   0.05251556   -3.9966265    1.2789743      1024000 
  162000   0.99235131   -3.9965874   -3.9965874   -2.7189517  0.048677896   -3.9965874    1.2776357      1024000 
  163000   0.99299872   -3.9966501   -3.9966501   -2.7181809  0.050636131   -3.9966501    1.2784692      1024000 
  164000   0.99127896   -3.9968418   -3.9968418   -2.7205868  0.042098676   -3.9968418    1.2762551      1024000 
  165000   0.99192387   -3.9960566   -3.9960566   -2.7189713  0.048943532   -3.9960566    1.2770854      1024000 
  166000   0.99102112    -3.996844    -3.996844   -2.7209209  0.044232261    -3.996844    1.2759231      1024000 
  167000   0.99104155   -3.9967126   -3.9967126   -2.7207632  0.045369764   -3.9967126    1.2759494      1024000 
  168000   0.99302679   -3.9996537   -3.9996537   -2.7211483  0.036205361   -3.9996537    1.2785054      1024000 
  169000   0.99213327   -3.9986983   -3.9986983   -2.7213434  0.041247438   -3.9986983     1.277355      1024000 
  170000   0.99229917   -3.9991054   -3.9991054   -2.7215369  0.037761351   -3.9991054    1.2775686      1024000 
  171000   0.99077573    -3.997316    -3.997316   -2.7217089  0.048633611    -3.997316    1.2756072      1024000 
  172000   0.99314508   -3.9993954   -3.9993954   -2.7207377  0.048627255   -3.9993954    1.2786577      1024000 
  173000   0.99378933   -3.9989337   -3.9989337   -2.7194466   0.05269941   -3.9989337    1.2794871      1024000 
  174000   0.99232014   -3.9989651   -3.9989651   -2.7213695  0.054153212   -3.9989651    1.2775956      1024000 
  175000    0.9934522    -4.000034    -4.000034   -2.7209809  0.056077019    -4.000034    1.2790531      1024000 
  176000   0.99425616   -4.0006954   -4.0006954   -2.7206072  0.058715914   -4.0006954    1.2800882      1024000 
  177000   0.99320265    -4.001949    -4.001949   -2.7232172  0.051932837    -4.001949    1.2787318      1024000 
  178000   0.99332116   -4.0017205   -4.0017205   -2.7228361  0.053855361   -4.0017205    1.2788844      1024000 
  179000   0.99223448   -3.9998653   -3.9998653     -2.72238   0.05530337   -3.9998653    1.2774853      1024000 
  180000   0.99171119   -3.9974016   -3.9974016     -2.72059  0.055374834   -3.9974016    1.2768116      1024000 
  181000   0.99349812   -4.0021248   -4.0021248   -2.7230126  0.053922818   -4.0021248    1.2791122      1024000 
  182000   0.99440299   -4.0007817   -4.0007817   -2.7205045  0.054169143   -4.0007817    1.2802772      1024000 
  183000   0.99388051   -4.0025474   -4.0025474   -2.7229428  0.055366405   -4.0025474    1.2796045      1024000 
  184000   0.99490314    -4.003743    -4.003743   -2.7228219  0.053443469    -4.003743    1.2809211      1024000 
  185000   0.99135383   -4.0003341   -4.0003341   -2.7239826  0.055864129   -4.0003341    1.2763515      1024000 
  186000   0.99281483   -4.0016793   -4.0016793   -2.7234468  0.055426204   -4.0016793    1.2782325      1024000 
  187000   0.99232647    -4.000813    -4.000813   -2.7232093   0.06064468    -4.000813    1.2776037      1024000 
  188000   0.99448969   -4.0012071   -4.0012071   -2.7208183  0.069681094   -4.0012071    1.2803888      1024000 
  189000   0.99388818   -4.0023056   -4.0023056   -2.7226912  0.049072683   -4.0023056    1.2796144      1024000 
  190000   0.99403971   -4.0026076   -4.0026076   -2.7227981  0.051155401   -4.0026076    1.2798095      1024000 
  191000    0.9937593   -4.0037801   -4.0037801   -2.7243317  0.050849957   -4.0037801    1.2794485      1024000 
  192000    0.9927897   -4.0019676   -4.0019676   -2.7237674  0.055130772   -4.0019676    1.2782001      1024000 
  193000   0.99274764   -4.0021487   -4.0021487   -2.7240027  0.055684199   -4.0021487     1.278146      1024000 
  194000   0.99199894   -4.0018013   -4.0018013   -2.7246193  0.054432417   -4.0018013     1.277182      1024000 
  195000   0.99176581   -4.0011544   -4.0011544   -2.7242725   0.05386882   -4.0011544    1.2768819      1024000 
  196000   0.99015222   -4.0015812   -4.0015812   -2.7267767  0.048419446   -4.0015812    1.2748044      1024000 
  197000   0.99107161    -4.000145    -4.000145   -2.7241568  0.053978009    -4.000145    1.2759881      1024000 
  198000   0.99313441   -4.0036035   -4.0036035   -2.7249595  0.042314674   -4.0036035    1.2786439      1024000 
  199000   0.99115577   -4.0008936   -4.0008936   -2.7247972  0.049757216   -4.0008936    1.2760965      1024000 
  200000    0.9940179   -4.0027908   -4.0027908   -2.7230094  0.056541708   -4.0027908    1.2797814      1024000 
  201000   0.99245313   -4.0008532   -4.0008532   -2.7230864  0.056907521   -4.0008532    1.2777668      1024000 
  202000   0.99345277    -4.002491    -4.002491   -2.7234372  0.056767448    -4.002491    1.2790538      1024000 
  203000   0.99222926   -4.0026174   -4.0026174   -2.7251388  0.055529706   -4.0026174    1.2774786      1024000 
  204000   0.99319846   -4.0037738   -4.0037738   -2.7250474  0.042970392   -4.0037738    1.2787264      1024000 
  205000   0.99294335   -4.0038904   -4.0038904   -2.7254925  0.052430437   -4.0038904    1.2783979      1024000 
  206000   0.99280178   -4.0031205   -4.0031205   -2.7249049  0.053971076   -4.0031205    1.2782157      1024000 
  207000   0.99313768   -4.0023955   -4.0023955   -2.7237474  0.056095738   -4.0023955    1.2786481      1024000 
  208000   0.99344344    -4.002486    -4.002486   -2.7234442  0.057288044    -4.002486    1.2790418      1024000 
  209000   0.99201166   -4.0030331   -4.0030331   -2.7258347  0.051662429   -4.0030331    1.2771984      1024000 
  210000    0.9906697   -4.0023112   -4.0023112   -2.7268405  0.063038667   -4.0023112    1.2754707      1024000 
  211000   0.99237218    -4.002885    -4.002885   -2.7252224   0.06996001    -4.002885    1.2776626      1024000 
  212000   0.99213081    -4.002414    -4.002414   -2.7250622  0.063951161    -4.002414    1.2773518      1024000 
  213000   0.99290121   -4.0038683   -4.0038683   -2.7255246  0.063731865   -4.0038683    1.2783437      1024000 
  214000   0.99292486   -4.0047422   -4.0047422   -2.7263681   0.06376278   -4.0047422    1.2783741      1024000 
  215000   0.99223677   -4.0047888   -4.0047888   -2.7273006  0.050630391   -4.0047888    1.2774882      1024000 
  216000   0.99284083   -4.0041932   -4.0041932   -2.7259272  0.064682861   -4.0041932     1.278266      1024000 
  217000   0.99340693   -4.0063306   -4.0063306   -2.7273358  0.064503072   -4.0063306    1.2789948      1024000 
  218000   0.99314199   -4.0047062   -4.0047062   -2.7260525  0.056391839   -4.0047062    1.2786537      1024000 
  219000   0.99266595   -4.0042091   -4.0042091   -2.7261683  0.059058644   -4.0042091    1.2780408      1024000 
  220000   0.99145958   -4.0037152   -4.0037152   -2.7272276  0.057370139   -4.0037152    1.2764876      1024000 
  221000   0.99210448   -4.0037247   -4.0037247   -2.7264068   0.04499461   -4.0037247    1.2773179      1024000 
  222000   0.99169018   -4.0044669   -4.0044669   -2.7276824   0.05309544   -4.0044669    1.2767845      1024000 
  223000    0.9928505   -4.0045446   -4.0045446   -2.7262662  0.062867204   -4.0045446    1.2782784      1024000 
  224000   0.99244424   -4.0047975   -4.0047975   -2.7270422  0.056276453   -4.0047975    1.2777553      1024000 
  225000   0.99073677   -4.0040628   -4.0040628   -2.7285058  0.051117633   -4.0040628     1.275557      1024000 
  226000   0.99311792   -4.0054929   -4.0054929   -2.7268702   0.05654595   -4.0054929    1.2786227      1024000 
  227000   0.99147614   -4.0058665   -4.0058665   -2.7293575  0.065510515   -4.0058665    1.2765089      1024000 
  228000   0.99157253   -4.0034143   -4.0034143   -2.7267813  0.055776983   -4.0034143     1.276633      1024000 
  229000    0.9926734   -4.0057491   -4.0057491   -2.7276987  0.057677949   -4.0057491    1.2780504      1024000 
  230000   0.99304141   -4.0055946   -4.0055946   -2.7270704   0.05627332   -4.0055946    1.2785242      1024000 
  231000   0.99103151   -4.0044488   -4.0044488   -2.7285123  0.049905561   -4.0044488    1.2759365      1024000 
  232000   0.99186335   -4.0045364   -4.0045364    -2.727529  0.056546561   -4.0045364    1.2770075      1024000 
  233000   0.99251038   -4.0059567   -4.0059567   -2.7281162  0.065902206   -4.0059567    1.2778405      1024000 
  234000   0.99299374   -4.0078919   -4.0078919   -2.7294291  0.055601639   -4.0078919    1.2784628      1024000 
  235000   0.99196356   -4.0076407   -4.0076407   -2.7305042  0.057601692   -4.0076407    1.2771365      1024000 
  236000   0.99284134   -4.0085588   -4.0085588   -2.7302922  0.060806196   -4.0085588    1.2782666      1024000 
  237000   0.99204217   -4.0079477   -4.0079477     -2.73071  0.060914891   -4.0079477    1.2772377      1024000 
  238000    0.9918625   -4.0091311   -4.0091311   -2.7321248  0.060711383   -4.0091311    1.2770064      1024000 
  239000   0.99233751   -4.0081866   -4.0081866   -2.7305686  0.062533654   -4.0081866    1.2776179      1024000 
  240000    0.9910944    -4.006412    -4.006412   -2.7303946  0.058518768    -4.006412    1.2760175      1024000 
  241000   0.99259909   -4.0074984   -4.0074984   -2.7295437   0.06185924   -4.0074984    1.2779547      1024000 
  242000   0.99061919    -4.006313    -4.006313   -2.7309074  0.060560162    -4.006313    1.2754056      1024000 
  243000   0.99251211    -4.009804    -4.009804   -2.7319613  0.063154584    -4.009804    1.2778427      1024000 
  244000   0.99241114   -4.0096387   -4.0096387    -2.731926   0.05353633   -4.0096387    1.2777127      1024000 
  245000   0.99337773   -4.0097963   -4.0097963   -2.7308391  0.068314865   -4.0097963    1.2789572      1024000 
  246000   0.99104196   -4.0086899   -4.0086899     -2.73274  0.064853246   -4.0086899    1.2759499      1024000 
  247000   0.99265641   -4.0111549   -4.0111549   -2.7331264   0.05480739   -4.0111549    1.2780285      1024000 
  248000   0.99457054   -4.0117275   -4.0117275   -2.7312346  0.055347871   -4.0117275    1.2804929      1024000 
  249000   0.99250499   -4.0081928   -4.0081928   -2.7303593  0.064993518   -4.0081928    1.2778336      1024000 
  250000   0.99384509   -4.0096087   -4.0096087   -2.7300497  0.069540386   -4.0096087    1.2795589      1024000 
  251000   0.99233478    -4.008307    -4.008307   -2.7306926  0.066055034    -4.008307    1.2776144      1024000 
  252000   0.99341451   -4.0096693   -4.0096693   -2.7306648  0.054690508   -4.0096693    1.2790046      1024000 
  253000   0.99177355   -4.0081962   -4.0081962   -2.7313044  0.063885877   -4.0081962    1.2768918      1024000 
  254000   0.99061284   -4.0075249   -4.0075249   -2.7321274  0.060736071   -4.0075249    1.2753975      1024000 
  255000   0.99360067    -4.008666    -4.008666   -2.7294218  0.053766826    -4.008666    1.2792442      1024000 
  256000   0.99104018   -4.0083202   -4.0083202   -2.7323726  0.064278144   -4.0083202    1.2759476      1024000 
  257000   0.99014783   -4.0070602   -4.0070602   -2.7322614  0.064250619   -4.0070602    1.2747988      1024000 
  258000   0.98925396   -4.0055027   -4.0055027   -2.7318548  0.058195681   -4.0055027    1.2736479      1024000 
  259000   0.99063628   -4.0085934   -4.0085934   -2.7331658  0.046756832   -4.0085934    1.2754276      1024000 
  260000   0.98923366   -4.0074821   -4.0074821   -2.7338603  0.055477075   -4.0074821    1.2736218      1024000 
  261000   0.98904237   -4.0069169   -4.0069169   -2.7335414  0.055728245   -4.0069169    1.2733755      1024000 
  262000   0.98802863   -4.0059986   -4.0059986   -2.7339282  0.046147024   -4.0059986    1.2720703      1024000 
  263000   0.98954205    -4.006075    -4.006075   -2.7320561  0.056298139    -4.006075    1.2740188      1024000 
  264000   0.98947882    -4.007559    -4.007559   -2.7336215  0.052408254    -4.007559    1.2739374      1024000 
  265000   0.99121005   -4.0072645   -4.0072645   -2.7310981  0.064300658   -4.0072645    1.2761664      1024000 
  266000   0.99082937   -4.0073738   -4.0073738   -2.7316975  0.063922521   -4.0073738    1.2756762      1024000 
  267000   0.99092407   -4.0070388   -4.0070388   -2.7312406  0.064015952   -4.0070388    1.2757982      1024000 
  268000   0.99074412   -4.0075273   -4.0075273   -2.7319608  0.074550453   -4.0075273    1.2755665      1024000 
  269000    0.9923581   -4.0088922   -4.0088922   -2.7312478  0.065209444   -4.0088922    1.2776445      1024000 
  270000   0.99230407   -4.0074443   -4.0074443   -2.7298694  0.064271747   -4.0074443    1.2775749      1024000 
  271000   0.99156378   -4.0079971   -4.0079971   -2.7313754  0.064943129   -4.0079971    1.2766218      1024000 
  272000   0.99228537   -4.0105324   -4.0105324   -2.7329816    0.0575395   -4.0105324    1.2775508      1024000 
  273000   0.99076353   -4.0081514   -4.0081514   -2.7325599  0.066610172   -4.0081514    1.2755915      1024000 
  274000   0.99202515   -4.0085243   -4.0085243   -2.7313085  0.069339516   -4.0085243    1.2772158      1024000 
  275000   0.99107331   -4.0084389   -4.0084389   -2.7324486  0.065571284   -4.0084389    1.2759903      1024000 
  276000   0.99193737   -4.0088974   -4.0088974   -2.7317946  0.060727019   -4.0088974    1.2771028      1024000 
  277000   0.99272016   -4.0099451   -4.0099451   -2.7318345  0.058078054   -4.0099451    1.2781106      1024000 
  278000   0.99314888   -4.0096779   -4.0096779   -2.7310154  0.065867766   -4.0096779    1.2786626      1024000 
  279000   0.99395035   -4.0109049   -4.0109049   -2.7312104  0.068447264   -4.0109049    1.2796944      1024000 
  280000   0.99354513   -4.0118373   -4.0118373   -2.7326645  0.060453536   -4.0118373    1.2791727      1024000 
  281000    0.9912435   -4.0090943   -4.0090943   -2.7328848  0.069737753   -4.0090943    1.2762094      1024000 
  282000   0.99034584   -4.0081583   -4.0081583   -2.7331046  0.076702376   -4.0081583    1.2750537      1024000 
  283000   0.99222523   -4.0097596   -4.0097596   -2.7322862  0.066621663   -4.0097596    1.2774734      1024000 
  284000   0.99236848   -4.0102826   -4.0102826   -2.7326248  0.066089395   -4.0102826    1.2776578      1024000 
  285000   0.99302539   -4.0096462   -4.0096462   -2.7311427  0.059379831   -4.0096462    1.2785036      1024000 
  286000   0.99090547   -4.0075918   -4.0075918   -2.7318176  0.067345604   -4.0075918    1.2757742      1024000 
  287000   0.99187231   -4.0090728   -4.0090728   -2.7320538  0.064028322   -4.0090728     1.277019      1024000 
  288000   0.99150443    -4.009744    -4.009744   -2.7331986   0.06817371    -4.009744    1.2765454      1024000 
  289000   0.99068949      -4.0076      -4.0076   -2.7321038  0.065166104      -4.0076    1.2754961      1024000 
  290000   0.99103135   -4.0094435   -4.0094435   -2.7335073  0.063140598   -4.0094435    1.2759363      1024000 
  291000   0.99224867   -4.0102651   -4.0102651   -2.7327615  0.057753171   -4.0102651    1.2775036      1024000 
  292000   0.99150221   -4.0080409   -4.0080409   -2.7314984   0.06164199   -4.0080409    1.2765425      1024000 
  293000   0.99186433    -4.009343    -4.009343   -2.7323343  0.063131219    -4.009343    1.2770087      1024000 
  294000   0.99013446    -4.007469    -4.007469   -2.7326875  0.059334974    -4.007469    1.2747816      1024000 
  295000   0.98917153   -4.0065588   -4.0065588    -2.733017  0.056199266   -4.0065588    1.2735418      1024000 
  296000   0.98966785   -4.0060358   -4.0060358    -2.731855  0.053264237   -4.0060358    1.2741808      1024000 
  297000   0.98993736   -4.0073638   -4.0073638    -2.732836   0.05698111   -4.0073638    1.2745278      1024000 
  298000   0.98998927   -4.0073081   -4.0073081   -2.7327135  0.057153958   -4.0073081    1.2745946      1024000 
  299000   0.98982778   -4.0061137   -4.0061137    -2.731727  0.061837468   -4.0061137    1.2743867      1024000 
  300000   0.99252317   -4.0097529   -4.0097529    -2.731896  0.056480786   -4.0097529     1.277857      1024000 
  301000   0.99265858   -4.0092326   -4.0092326   -2.7312013  0.060510742   -4.0092326    1.2780313      1024000 
  302000   0.99091055    -4.008447    -4.008447   -2.7326662  0.054341678    -4.008447    1.2757808      1024000 
  303000    0.9911006   -4.0078228   -4.0078228   -2.7317973  0.072089332   -4.0078228    1.2760254      1024000 
  304000   0.99171078   -4.0077878   -4.0077878   -2.7309767  0.061067748   -4.0077878     1.276811      1024000 
  305000   0.99165753   -4.0089023   -4.0089023   -2.7321598   0.06911221   -4.0089023    1.2767425      1024000 
  306000   0.99351601   -4.0113537   -4.0113537   -2.7322184  0.056230875   -4.0113537    1.2791352      1024000 
  307000   0.99163388   -4.0088023   -4.0088023   -2.7320903  0.054432821   -4.0088023     1.276712      1024000 
  308000   0.99018739   -4.0088289   -4.0088289   -2.7339792  0.069413239   -4.0088289    1.2748497      1024000 
  309000   0.99219094   -4.0103903   -4.0103903   -2.7329611  0.062819294   -4.0103903    1.2774292      1024000 
  310000   0.99070023   -4.0093919   -4.0093919   -2.7338819   0.06830986   -4.0093919      1.27551      1024000 
  311000   0.99222947   -4.0120997   -4.0120997   -2.7346209  0.068011545   -4.0120997    1.2774788      1024000 
  312000   0.99288723   -4.0113444   -4.0113444   -2.7330187  0.076097886   -4.0113444    1.2783257      1024000 
  313000    0.9909779   -4.0114387   -4.0114387   -2.7355712  0.070811361   -4.0114387    1.2758675      1024000 
  314000   0.99287134   -4.0125978   -4.0125978   -2.7342926  0.062855478   -4.0125978    1.2783052      1024000 
  315000   0.99302355    -4.011459    -4.011459   -2.7329578   0.06405107    -4.011459    1.2785012      1024000 
  316000   0.99294715   -4.0127171   -4.0127171   -2.7343142   0.06014268   -4.0127171    1.2784028      1024000 
  317000   0.99149308   -4.0117712   -4.0117712   -2.7352405  0.065501431   -4.0117712    1.2765308      1024000 
  318000   0.99149087   -4.0109527   -4.0109527   -2.7344248  0.068015333   -4.0109527    1.2765279      1024000 
  319000   0.99226925   -4.0110034   -4.0110034   -2.7334734  0.072892163   -4.0110034    1.2775301      1024000 
  320000    0.9926236   -4.0125197   -4.0125197   -2.7345334  0.068481998   -4.0125197    1.2779863      1024000 
  321000   0.99312563    -4.011919    -4.011919   -2.7332864  0.067133633    -4.011919    1.2786326      1024000 
  322000   0.99224208   -4.0132271   -4.0132271   -2.7357321  0.064048998   -4.0132271    1.2774951      1024000 
  323000   0.99182865   -4.0120212   -4.0120212   -2.7350584  0.067259464   -4.0120212    1.2769628      1024000 
  324000   0.99170227   -4.0121049   -4.0121049   -2.7353048  0.060449475   -4.0121049    1.2768001      1024000 
  325000   0.99276808   -4.0124513   -4.0124513    -2.734279  0.065176399   -4.0124513    1.2781723      1024000 
  326000   0.99345241   -4.0125923   -4.0125923   -2.7335389  0.067029999   -4.0125923    1.2790534      1024000 
  327000   0.99269272   -4.0114127   -4.0114127   -2.7333375    0.0680441   -4.0114127    1.2780753      1024000 
  328000   0.99296421   -4.0127973   -4.0127973   -2.7343725  0.063309646   -4.0127973    1.2784248      1024000 
  329000   0.99200393   -4.0097372   -4.0097372   -2.7325487  0.072476894   -4.0097372    1.2771885      1024000 
  330000   0.99180818   -4.0102469   -4.0102469   -2.7333104  0.069478858   -4.0102469    1.2769364      1024000 
  331000   0.98997823   -4.0085799   -4.0085799   -2.7339995  0.063404574   -4.0085799    1.2745804      1024000 
  332000   0.99054024   -4.0089883   -4.0089883   -2.7336843  0.066372413   -4.0089883     1.275304      1024000 
  333000   0.99058504   -4.0088067   -4.0088067    -2.733445  0.066766818   -4.0088067    1.2753617      1024000 
  334000   0.99127001   -4.0087836   -4.0087836     -2.73254  0.063726584   -4.0087836    1.2762435      1024000 
  335000   0.99085615   -4.0084187   -4.0084187    -2.732708  0.058486391   -4.0084187    1.2757107      1024000 
  336000   0.99053701   -4.0088652   -4.0088652   -2.7335654  0.054072127   -4.0088652    1.2752998      1024000 
  337000   0.99120185   -4.0086198   -4.0086198    -2.732464  0.063995668   -4.0086198    1.2761558      1024000 
  338000   0.99107833   -4.0104157   -4.0104157   -2.7344189  0.048099385   -4.0104157    1.2759968      1024000 
  339000   0.99076345   -4.0090842   -4.0090842   -2.7334928  0.059861285   -4.0090842    1.2755914      1024000 
  340000   0.99231934   -4.0100674   -4.0100674   -2.7324729  0.062618401   -4.0100674    1.2775945      1024000 
  341000   0.99046321   -4.0076571   -4.0076571   -2.7324522  0.060687469   -4.0076571    1.2752048      1024000 
  342000    0.9920674   -4.0088725   -4.0088725   -2.7316023  0.067342789   -4.0088725    1.2772702      1024000 
  343000    0.9925693   -4.0095569   -4.0095569   -2.7316406  0.059493128   -4.0095569    1.2779164      1024000 
  344000   0.99212319   -4.0101812   -4.0101812   -2.7328391  0.059957953   -4.0101812     1.277342      1024000 
  345000   0.99298472   -4.0098324   -4.0098324   -2.7313812  0.064853426   -4.0098324    1.2784512      1024000 
  346000    0.9913706   -4.0091757   -4.0091757   -2.7328027  0.075411937   -4.0091757    1.2763731      1024000 
  347000   0.99240713   -4.0089104   -4.0089104   -2.7312029  0.069845546   -4.0089104    1.2777076      1024000 
  348000   0.99026187   -4.0089947   -4.0089947   -2.7340491  0.056417873   -4.0089947    1.2749456      1024000 
  349000   0.99007149    -4.007937    -4.007937   -2.7332365   0.06311593    -4.007937    1.2747005      1024000 
  350000   0.99215174   -4.0098553   -4.0098553   -2.7324766  0.068230632   -4.0098553    1.2773788      1024000 
  351000   0.99077998   -4.0102744   -4.0102744   -2.7346617  0.056308224   -4.0102744    1.2756126      1024000 
  352000   0.99097062   -4.0110565   -4.0110565   -2.7351984  0.057673339   -4.0110565    1.2758581      1024000 
  353000   0.99085579   -4.0080932   -4.0080932    -2.732383  0.069396716   -4.0080932    1.2757102      1024000 
  354000   0.99131526   -4.0101669   -4.0101669   -2.7338651  0.068833096   -4.0101669    1.2763018      1024000 
  355000   0.99039121   -4.0085877   -4.0085877   -2.7334756   0.07037784   -4.0085877    1.2751121      1024000 
  356000    0.9914216   -4.0099971   -4.0099971   -2.7335584   0.05697491   -4.0099971    1.2764387      1024000 
  357000   0.99064716    -4.009001    -4.009001   -2.7335594  0.068985866    -4.009001    1.2754416      1024000 
  358000   0.99054455   -4.0089579   -4.0089579   -2.7336484  0.060881451   -4.0089579    1.2753095      1024000 
  359000   0.99155264   -4.0107995   -4.0107995   -2.7341921  0.057982251   -4.0107995    1.2766074      1024000 
  360000    0.9929466   -4.0120269   -4.0120269   -2.7336248  0.066722943   -4.0120269    1.2784021      1024000 
  361000   0.99270222   -4.0110299   -4.0110299   -2.7329424  0.074727256   -4.0110299    1.2780875      1024000 
  362000    0.9915578   -4.0113148   -4.0113148   -2.7347007  0.067549101   -4.0113148    1.2766141      1024000 
  363000   0.99021691   -4.0094969   -4.0094969   -2.7346092  0.062769599   -4.0094969    1.2748877      1024000 
  364000   0.99017236   -4.0092435   -4.0092435   -2.7344132  0.070233973   -4.0092435    1.2748303      1024000 
  365000   0.99161956   -4.0106642   -4.0106642   -2.7339706  0.069123855   -4.0106642    1.2766936      1024000 
  366000   0.99126558   -4.0106083   -4.0106083   -2.7343705  0.075826855   -4.0106083    1.2762378      1024000 
  367000   0.99083653   -4.0100993   -4.0100993   -2.7344139  0.064756237   -4.0100993    1.2756855      1024000 
  368000   0.99099719    -4.010615    -4.010615   -2.7347227  0.070652311    -4.010615    1.2758923      1024000 
  369000    0.9931172   -4.0125114   -4.0125114   -2.7338896  0.071420945   -4.0125114    1.2786218      1024000 
  370000   0.99106275   -4.0118363   -4.0118363   -2.7358596  0.080729919   -4.0118363    1.2759767      1024000 
  371000   0.99325386   -4.0140538   -4.0140538   -2.7352561  0.067631166   -4.0140538    1.2787977      1024000 
  372000   0.99165013   -4.0125989   -4.0125989    -2.735866  0.067484674   -4.0125989    1.2767329      1024000 
  373000   0.99249028   -4.0108737   -4.0108737   -2.7330591  0.062953661   -4.0108737    1.2778146      1024000 
  374000   0.99245736    -4.012142    -4.012142   -2.7343697  0.076188942    -4.012142    1.2777722      1024000 
  375000   0.99154486   -4.0119359   -4.0119359   -2.7353384  0.064040506   -4.0119359    1.2765974      1024000 
  376000   0.99165616   -4.0101401   -4.0101401   -2.7333994  0.064558035   -4.0101401    1.2767407      1024000 
  377000   0.99063282   -4.0114328   -4.0114328   -2.7360096   0.05628717   -4.0114328    1.2754232      1024000 
  378000   0.99035594   -4.0101595   -4.0101595   -2.7350929  0.068133033   -4.0101595    1.2750667      1024000 
  379000   0.99142159   -4.0110129   -4.0110129   -2.7345742  0.060092043   -4.0110129    1.2764387      1024000 
  380000     0.990791   -4.0113482   -4.0113482   -2.7357213  0.054298145   -4.0113482    1.2756268      1024000 
  381000   0.99113986   -4.0095084   -4.0095084   -2.7334324  0.066273522   -4.0095084     1.276076      1024000 
  382000   0.99185269    -4.009364    -4.009364   -2.7323703  0.073892235    -4.009364    1.2769937      1024000 
  383000   0.99133596   -4.0122715   -4.0122715    -2.735943  0.065632455   -4.0122715    1.2763285      1024000 
  384000   0.99147846   -4.0108895   -4.0108895   -2.7343776  0.069786646   -4.0108895    1.2765119      1024000 
  385000   0.99173473   -4.0104973   -4.0104973   -2.7336554   0.05647378   -4.0104973    1.2768419      1024000 
  386000   0.99062532   -4.0094972   -4.0094972   -2.7340837  0.063988933   -4.0094972    1.2754135      1024000 
  387000   0.99012276   -4.0093489   -4.0093489   -2.7345824  0.065699906   -4.0093489    1.2747665      1024000 
  388000   0.99032931   -4.0084272   -4.0084272   -2.7333947  0.061656424   -4.0084272    1.2750324      1024000 
  389000   0.99197192   -4.0102622   -4.0102622   -2.7331149  0.060717195   -4.0102622    1.2771472      1024000 
  390000   0.99039465    -4.008222    -4.008222   -2.7331055  0.066881321    -4.008222    1.2751165      1024000 
  391000   0.98986927   -4.0093963   -4.0093963   -2.7349562  0.059791498   -4.0093963    1.2744401      1024000 
  392000   0.98934102   -4.0096317   -4.0096317   -2.7358717  0.071589089   -4.0096317      1.27376      1024000 
  393000   0.99140767   -4.0120038   -4.0120038    -2.735583  0.059815162   -4.0120038    1.2764208      1024000 
  394000   0.99222958   -4.0116759   -4.0116759   -2.7341969  0.065794028   -4.0116759     1.277479      1024000 
  395000   0.99077147   -4.0101618   -4.0101618   -2.7345601  0.073068638   -4.0101618    1.2756017      1024000 
  396000   0.99117045   -4.0107181   -4.0107181   -2.7346028  0.073200993   -4.0107181    1.2761154      1024000 
  397000   0.99005282   -4.0101136   -4.0101136   -2.7354372  0.073083666   -4.0101136    1.2746764      1024000 
  398000   0.99013675    -4.009627    -4.009627   -2.7348425  0.071540951    -4.009627    1.2747845      1024000 
  399000   0.99065412   -4.0111945   -4.0111945   -2.7357439   0.06944397   -4.0111945    1.2754506      1024000 
  400000   0.98992726   -4.0104625   -4.0104625   -2.7359477  0.075710262   -4.0104625    1.2745148      1024000 
  401000   0.99236727   -4.0110422   -4.0110422    -2.733386  0.073552054   -4.0110422    1.2776563      1024000 
  402000   0.99130415   -4.0101828   -4.0101828   -2.7338953  0.077551968   -4.0101828    1.2762875      1024000 
  403000   0.99119013   -4.0099796   -4.0099796   -2.7338389   0.07561451   -4.0099796    1.2761407      1024000 
  404000   0.99128795   -4.0104755   -4.0104755   -2.7342089  0.061008792   -4.0104755    1.2762667      1024000 
  405000    0.9926849   -4.0125443   -4.0125443   -2.7344791  0.063707029   -4.0125443    1.2780652      1024000 
  406000   0.99239547   -4.0122124   -4.0122124   -2.7345198  0.066608383   -4.0122124    1.2776926      1024000 
  407000   0.99095041   -4.0083497   -4.0083497   -2.7325176  0.069480621   -4.0083497    1.2758321      1024000 
  408000   0.99264365   -4.0118855   -4.0118855   -2.7338734  0.065507461   -4.0118855    1.2780121      1024000 
  409000   0.99267208   -4.0117536   -4.0117536   -2.7337049  0.077683849   -4.0117536    1.2780487      1024000 
  410000   0.99128672   -4.0106027   -4.0106027   -2.7343376  0.068970314   -4.0106027    1.2762651      1024000 
  411000   0.99180232   -4.0112868   -4.0112868   -2.7343579  0.065145662   -4.0112868    1.2769289      1024000 
  412000    0.9915361   -4.0101795   -4.0101795   -2.7335934   0.06506475   -4.0101795    1.2765861      1024000 
  413000   0.99065172   -4.0086026   -4.0086026   -2.7331551  0.064171573   -4.0086026    1.2754475      1024000 
  414000   0.99138079   -4.0098577   -4.0098577   -2.7334715   0.06675065   -4.0098577    1.2763862      1024000 
  415000    0.9916909   -4.0082374   -4.0082374   -2.7314519  0.068439536   -4.0082374    1.2767854      1024000 
  416000   0.99005029   -4.0095182   -4.0095182    -2.734845   0.05765251   -4.0095182    1.2746732      1024000 
  417000   0.99204822   -4.0089746   -4.0089746   -2.7317292   0.06335259   -4.0089746    1.2772455      1024000 
  418000   0.99045889   -4.0079145   -4.0079145   -2.7327152  0.061026646   -4.0079145    1.2751992      1024000 
  419000    0.9913319   -4.0096118   -4.0096118   -2.7332886  0.062607293   -4.0096118    1.2763232      1024000 
  420000   0.98992265   -4.0054233   -4.0054233   -2.7309144  0.069868814   -4.0054233    1.2745089      1024000 
  421000   0.99139651   -4.0076756   -4.0076756   -2.7312691  0.063761107   -4.0076756    1.2764064      1024000 
  422000   0.99256797   -4.0092628   -4.0092628   -2.7313482  0.061497057   -4.0092628    1.2779146      1024000 
  423000    0.9909878   -4.0079512   -4.0079512   -2.7320709  0.059960813   -4.0079512    1.2758802      1024000 
  424000    0.9903543   -4.0069934   -4.0069934   -2.7319288  0.064515675   -4.0069934    1.2750646      1024000 
  425000   0.99039142   -4.0066629   -4.0066629   -2.7315505  0.066338492   -4.0066629    1.2751124      1024000 
  426000   0.99042948   -4.0062175   -4.0062175   -2.7310561  0.063783216   -4.0062175    1.2751614      1024000 
  427000   0.99102204   -4.0078767   -4.0078767   -2.7319524  0.065581235   -4.0078767    1.2759243      1024000 
  428000   0.99035173    -4.006447    -4.006447   -2.7313858  0.054143167    -4.006447    1.2750613      1024000 
  429000   0.98935648   -4.0063341   -4.0063341   -2.7325542  0.070514606   -4.0063341    1.2737799      1024000 
  430000   0.99164684   -4.0084609   -4.0084609   -2.7317322   0.06118238   -4.0084609    1.2767287      1024000 
  431000   0.99160096   -4.0082078   -4.0082078   -2.7315382  0.065106506   -4.0082078    1.2766696      1024000 
  432000    0.9919313   -4.0088521   -4.0088521   -2.7317571  0.062933872   -4.0088521    1.2770949      1024000 
  433000   0.98951962   -4.0057052   -4.0057052   -2.7317153  0.077901353   -4.0057052    1.2739899      1024000 
  434000   0.99189342   -4.0075669   -4.0075669   -2.7305208  0.061158113   -4.0075669    1.2770462      1024000 
  435000   0.99018158   -4.0073662   -4.0073662    -2.732524  0.071488765   -4.0073662    1.2748422      1024000 
  436000   0.99119538   -4.0067601   -4.0067601   -2.7306126  0.069946529   -4.0067601    1.2761475      1024000 
  437000   0.99217723   -4.0081476   -4.0081476    -2.730736  0.071225297   -4.0081476    1.2774116      1024000 
  438000   0.99107948   -4.0077802   -4.0077802    -2.731782  0.063373695   -4.0077802    1.2759982      1024000 
  439000   0.99116711   -4.0073595   -4.0073595   -2.7312485  0.062894247   -4.0073595    1.2761111      1024000 
  440000    0.9895238   -4.0075621   -4.0075621   -2.7335667  0.061349291   -4.0075621    1.2739953      1024000 
  441000    0.9912761   -4.0060224   -4.0060224   -2.7297711  0.064905913   -4.0060224    1.2762514      1024000 
  442000   0.99181099   -4.0065946   -4.0065946   -2.7296545  0.062351378   -4.0065946      1.27694      1024000 
  443000   0.99014078   -4.0065975   -4.0065975   -2.7318078  0.066677109   -4.0065975    1.2747897      1024000 
  444000   0.99240497   -4.0081914   -4.0081914   -2.7304866  0.065291094   -4.0081914    1.2777048      1024000 
  445000    0.9916287   -4.0083674   -4.0083674    -2.731662  0.069869131   -4.0083674    1.2767054      1024000 
  446000    0.9912026    -4.007648    -4.007648   -2.7314912  0.068129806    -4.007648    1.2761568      1024000 
  447000   0.99282277   -4.0081094   -4.0081094   -2.7298667  0.063976132   -4.0081094    1.2782427      1024000 
  448000   0.99263594   -4.0084672   -4.0084672    -2.730465  0.068062904   -4.0084672    1.2780022      1024000 
  449000   0.99149321   -4.0065327   -4.0065327   -2.7300017  0.081403934   -4.0065327    1.2765309      1024000 
  450000   0.99376689   -4.0091299   -4.0091299   -2.7296717  0.065688402   -4.0091299    1.2794582      1024000 
  451000   0.99202858   -4.0071518   -4.0071518   -2.7299316  0.069219929   -4.0071518    1.2772202      1024000 
  452000   0.99130294   -4.0063828   -4.0063828   -2.7300968  0.065252645   -4.0063828    1.2762859      1024000 
  453000   0.99167404   -4.0075306   -4.0075306   -2.7307668  0.068686031   -4.0075306    1.2767637      1024000 
  454000   0.99024784   -4.0056934   -4.0056934   -2.7307659  0.071858957   -4.0056934    1.2749275      1024000 
  455000   0.99326268   -4.0078517   -4.0078517   -2.7290426  0.060397755   -4.0078517    1.2788091      1024000 
  456000   0.99228684   -4.0089907   -4.0089907    -2.731438  0.069354637   -4.0089907    1.2775527      1024000 
  457000    0.9917879   -4.0079756   -4.0079756   -2.7310653  0.061407662   -4.0079756    1.2769103      1024000 
  458000   0.99063357   -4.0068398   -4.0068398   -2.7314157  0.064722122   -4.0068398    1.2754241      1024000 
  459000   0.99069277   -4.0079466   -4.0079466   -2.7324463  0.066816128   -4.0079466    1.2755004      1024000 
  460000    0.9894492    -4.005625    -4.005625   -2.7317257  0.067457068    -4.005625    1.2738993      1024000 
  461000   0.98960226   -4.0083147   -4.0083147   -2.7342183  0.068532892   -4.0083147    1.2740964      1024000 
  462000   0.98962479   -4.0059886   -4.0059886   -2.7318633  0.062635702   -4.0059886    1.2741254      1024000 
  463000   0.98900818   -4.0057579   -4.0057579   -2.7324264  0.059830777   -4.0057579    1.2733315      1024000 
  464000    0.9898076   -4.0067926   -4.0067926   -2.7324319  0.062150231   -4.0067926    1.2743607      1024000 
  465000   0.99174295   -4.0074816   -4.0074816   -2.7306292  0.064364614   -4.0074816    1.2768525      1024000 
  466000   0.99238368   -4.0084411   -4.0084411   -2.7307637  0.057580687   -4.0084411    1.2776774      1024000 
  467000     0.989474   -4.0052814   -4.0052814   -2.7313502  0.069737765   -4.0052814    1.2739312      1024000 
  468000   0.99066494   -4.0076824   -4.0076824   -2.7322179  0.065795206   -4.0076824    1.2754645      1024000 
  469000   0.99094663   -4.0081767   -4.0081767   -2.7323495  0.063304439   -4.0081767    1.2758272      1024000 
  470000   0.99046277   -4.0070924   -4.0070924   -2.7318881  0.073122574   -4.0070924    1.2752042      1024000 
  471000   0.99008229   -4.0059329   -4.0059329   -2.7312185  0.070155912   -4.0059329    1.2747144      1024000 
  472000   0.99188971   -4.0075299   -4.0075299   -2.7304885  0.076351749   -4.0075299    1.2770414      1024000 
  473000    0.9902897   -4.0067462   -4.0067462   -2.7317648  0.074170992   -4.0067462    1.2749814      1024000 
  474000   0.99042649   -4.0089385   -4.0089385    -2.733781  0.058917134   -4.0089385    1.2751575      1024000 
  475000   0.99173356   -4.0073744   -4.0073744   -2.7305341  0.076824533   -4.0073744    1.2768404      1024000 
  476000   0.99195511   -4.0079981   -4.0079981   -2.7308725  0.073558892   -4.0079981    1.2771256      1024000 
  477000   0.99377426   -4.0107311   -4.0107311   -2.7312634  0.068072025   -4.0107311    1.2794677      1024000 
  478000   0.99292899   -4.0097485   -4.0097485    -2.731369  0.072704882   -4.0097485    1.2783795      1024000 
  479000   0.99126171   -4.0094114   -4.0094114   -2.7331785  0.072321027   -4.0094114    1.2762329      1024000 
  480000   0.99294114   -4.0090231   -4.0090231    -2.730628  0.078585776   -4.0090231    1.2783951      1024000 
  481000   0.99216023   -4.0090833   -4.0090833   -2.7316936  0.076619112   -4.0090833    1.2773897      1024000 
  482000   0.99297111   -4.0108273   -4.0108273   -2.7323936  0.068122925   -4.0108273    1.2784337      1024000 
  483000    0.9936128   -4.0111892   -4.0111892   -2.7319293  0.069413397   -4.0111892    1.2792599      1024000 
  484000   0.99126084   -4.0097324   -4.0097324   -2.7335007  0.080381851   -4.0097324    1.2762317      1024000 
  485000   0.99093267   -4.0088835   -4.0088835   -2.7330742  0.069465713   -4.0088835    1.2758092      1024000 
  486000   0.99203324   -4.0097461   -4.0097461   -2.7325199  0.071512342   -4.0097461    1.2772262      1024000 
  487000   0.99325916   -4.0101299   -4.0101299   -2.7313254  0.064535092   -4.0101299    1.2788046      1024000 
  488000   0.99268929   -4.0089407   -4.0089407   -2.7308698  0.063921696   -4.0089407    1.2780709      1024000 
  489000   0.99132978   -4.0077458   -4.0077458   -2.7314253  0.071549802   -4.0077458    1.2763205      1024000 
  490000    0.9916694   -4.0078233   -4.0078233   -2.7310655  0.069289001   -4.0078233    1.2767578      1024000 
  491000   0.99271525   -4.0089319   -4.0089319   -2.7308276  0.073414342   -4.0089319    1.2781043      1024000 
  492000     0.990987     -4.00712     -4.00712   -2.7312408  0.063770619     -4.00712    1.2758792      1024000 
  493000   0.98942253   -4.0064574   -4.0064574   -2.7325925  0.068838248   -4.0064574     1.273865      1024000 
  494000   0.99012509   -4.0057869   -4.0057869   -2.7310174  0.065445201   -4.0057869    1.2747695      1024000 
  495000   0.98887752   -4.0060318   -4.0060318   -2.7328686  0.067207555   -4.0060318    1.2731633      1024000 
  496000   0.99015457   -4.0072325   -4.0072325   -2.7324251  0.065262032   -4.0072325    1.2748074      1024000 
  497000   0.98999282   -4.0067512   -4.0067512    -2.732152  0.063350455   -4.0067512    1.2745992      1024000 
  498000   0.98918518   -4.0048269   -4.0048269   -2.7312675  0.075514139   -4.0048269    1.2735594      1024000 
  499000    0.9909893   -4.0070585   -4.0070585   -2.7311763   0.06495878   -4.0070585    1.2758821      1024000 
  500000   0.99015884   -4.0054398   -4.0054398   -2.7306269  0.071187347   -4.0054398    1.2748129      1024000 
  501000   0.99104784   -4.0065088   -4.0065088   -2.7305513  0.064787942   -4.0065088    1.2759575      1024000 
  502000   0.99232948    -4.007236    -4.007236   -2.7296284  0.060629131    -4.007236    1.2776076      1024000 
  503000   0.99012658   -4.0059368   -4.0059368   -2.7311653  0.066305865   -4.0059368    1.2747714      1024000 
  504000   0.99165395   -4.0067386   -4.0067386   -2.7300007  0.073035111   -4.0067386    1.2767379      1024000 
  505000    0.9918788   -4.0083984   -4.0083984   -2.7313711  0.061548768   -4.0083984    1.2770274      1024000 
  506000   0.99297556   -4.0094585   -4.0094585    -2.731019   0.06143007   -4.0094585    1.2784394      1024000 
  507000   0.99176279   -4.0048184   -4.0048184   -2.7279404  0.074912098   -4.0048184     1.276878      1024000 
  508000    0.9900521   -4.0041354   -4.0041354   -2.7294598  0.074714522   -4.0041354    1.2746755      1024000 
  509000   0.98976094   -4.0049208   -4.0049208   -2.7306202  0.069805229   -4.0049208    1.2743006      1024000 
  510000   0.99135583   -4.0067834   -4.0067834   -2.7304294  0.066052103   -4.0067834     1.276354      1024000 
  511000   0.99084917   -4.0069505   -4.0069505   -2.7312488  0.066445759   -4.0069505    1.2757017      1024000 
  512000   0.99040618   -4.0055908   -4.0055908   -2.7304594  0.063391962   -4.0055908    1.2751314      1024000 
  513000   0.98839677   -4.0048254   -4.0048254   -2.7322811  0.062096423   -4.0048254    1.2725443      1024000 
  514000   0.99095029   -4.0050815   -4.0050815   -2.7292496  0.070760191   -4.0050815    1.2758319      1024000 
  515000   0.99005427   -4.0059211   -4.0059211   -2.7312428  0.063511503   -4.0059211    1.2746783      1024000 
  516000   0.99050927   -4.0060727   -4.0060727   -2.7308086  0.067862025   -4.0060727    1.2752641      1024000 
  517000   0.99040294   -4.0056147   -4.0056147   -2.7304874  0.080884573   -4.0056147    1.2751272      1024000 
  518000   0.99132791   -4.0062482   -4.0062482   -2.7299301  0.068880459   -4.0062482    1.2763181      1024000 
  519000   0.99129804   -4.0065325   -4.0065325   -2.7302529  0.069140961   -4.0065325    1.2762796      1024000 
  520000   0.99016552   -4.0047688   -4.0047688   -2.7299472  0.074818384   -4.0047688    1.2748215      1024000 
  521000   0.99114691   -4.0067863   -4.0067863   -2.7307012  0.073403801   -4.0067863    1.2760851      1024000 
  522000   0.99112223   -4.0070812   -4.0070812   -2.7310279  0.068391355   -4.0070812    1.2760533      1024000 
  523000   0.99120924   -4.0062036   -4.0062036   -2.7300383  0.074755906   -4.0062036    1.2761653      1024000 
  524000   0.99108563   -4.0055276   -4.0055276   -2.7295214   0.07908853   -4.0055276    1.2760062      1024000 
  525000   0.99283431   -4.0069212   -4.0069212   -2.7286636  0.076885351   -4.0069212    1.2782576      1024000 
  526000   0.99172625   -4.0065012   -4.0065012   -2.7296702  0.070528695   -4.0065012     1.276831      1024000 
  527000   0.99273204   -4.0091243   -4.0091243   -2.7309984  0.054769106   -4.0091243    1.2781259      1024000 
  528000   0.99211522      -4.0072      -4.0072   -2.7298683   0.07107228      -4.0072    1.2773317      1024000 
  529000    0.9914201   -4.0070693   -4.0070693   -2.7306325   0.07286561   -4.0070693    1.2764368      1024000 
  530000   0.99270475   -4.0090948   -4.0090948   -2.7310041  0.064543469   -4.0090948    1.2780908      1024000 
  531000   0.99304915   -4.0093973   -4.0093973   -2.7308631  0.062747116   -4.0093973    1.2785342      1024000 
  532000   0.99030568   -4.0058146   -4.0058146   -2.7308126  0.070097732   -4.0058146     1.275002      1024000 
  533000   0.99091989   -4.0071245   -4.0071245   -2.7313318  0.064521543   -4.0071245    1.2757928      1024000 
  534000   0.99188885   -4.0080691   -4.0080691   -2.7310288   0.06646574   -4.0080691    1.2770403      1024000 
  535000   0.98931017   -4.0059904   -4.0059904   -2.7322701  0.069165205   -4.0059904    1.2737203      1024000 
  536000   0.99055165   -4.0062601   -4.0062601   -2.7309415  0.070187808   -4.0062601    1.2753187      1024000 
  537000   0.99077953   -4.0086575   -4.0086575   -2.7330454   0.06480445   -4.0086575    1.2756121      1024000 
  538000   0.99072724   -4.0072582   -4.0072582   -2.7317134  0.075820294   -4.0072582    1.2755447      1024000 
  539000   0.99134842   -4.0091364   -4.0091364   -2.7327919  0.065344981   -4.0091364    1.2763445      1024000 
  540000   0.98914756   -4.0061027   -4.0061027   -2.7325918  0.076187444   -4.0061027    1.2735109      1024000 
  541000   0.99040269   -4.0073684   -4.0073684   -2.7322415  0.071518603   -4.0073684    1.2751269      1024000 
  542000   0.99064286   -4.0063923   -4.0063923   -2.7309562  0.068366472   -4.0063923    1.2754361      1024000 
  543000   0.99102182   -4.0091638   -4.0091638   -2.7332398  0.055268452   -4.0091638     1.275924      1024000 
  544000   0.99022081   -4.0063234   -4.0063234   -2.7314307  0.068569306   -4.0063234    1.2748927      1024000 
  545000   0.99144073   -4.0081048   -4.0081048   -2.7316415  0.073814799   -4.0081048    1.2764633      1024000 
  546000   0.99001325   -4.0072051   -4.0072051   -2.7325796  0.068854775   -4.0072051    1.2746255      1024000 
  547000   0.98912416   -4.0080666   -4.0080666   -2.7345858  0.065982054   -4.0080666    1.2734808      1024000 
  548000   0.99087001   -4.0080603   -4.0080603   -2.7323317  0.070807398   -4.0080603    1.2757286      1024000 
  549000   0.98867591    -4.006415    -4.006415   -2.7335113  0.071855977    -4.006415    1.2729037      1024000 
  550000   0.99082747   -4.0068371   -4.0068371   -2.7311633  0.076016459   -4.0068371    1.2756738      1024000 
  551000   0.98987476   -4.0058817   -4.0058817   -2.7314345  0.086095241   -4.0058817    1.2744472      1024000 
  552000   0.99085739    -4.006686    -4.006686   -2.7309737  0.074710305    -4.006686    1.2757123      1024000 
  553000   0.98937963   -4.0068384   -4.0068384   -2.7330286  0.069460384   -4.0068384    1.2738097      1024000 
  554000   0.98944259   -4.0074053   -4.0074053   -2.7335146  0.059632163   -4.0074053    1.2738908      1024000 
  555000   0.99240183   -4.0089199   -4.0089199   -2.7312191  0.067577445   -4.0089199    1.2777007      1024000 
  556000   0.99209792   -4.0090011   -4.0090011   -2.7316917  0.068472865   -4.0090011    1.2773095      1024000 
  557000   0.99159174    -4.008122    -4.008122   -2.7314642  0.067390554    -4.008122    1.2766578      1024000 
  558000   0.99109143   -4.0084698   -4.0084698   -2.7324561  0.067848834   -4.0084698    1.2760136      1024000 
  559000   0.99036872    -4.008285    -4.008285   -2.7332019  0.067627608    -4.008285    1.2750832      1024000 
  560000   0.99182773   -4.0080474   -4.0080474   -2.7310858  0.066253218   -4.0080474    1.2769616      1024000 
  561000   0.99042899    -4.006667    -4.006667   -2.7315062  0.063386461    -4.006667    1.2751608      1024000 
  562000   0.99208148   -4.0079132   -4.0079132   -2.7306249  0.061416797   -4.0079132    1.2772883      1024000 
  563000   0.99248696   -4.0069837   -4.0069837   -2.7291733  0.072414274   -4.0069837    1.2778104      1024000 
  564000   0.99220234   -4.0070749   -4.0070749    -2.729631  0.064302542   -4.0070749    1.2774439      1024000 
  565000   0.99064341   -4.0066956   -4.0066956   -2.7312587  0.064369397   -4.0066956    1.2754368      1024000 
  566000    0.9909306   -4.0056758   -4.0056758   -2.7298693  0.077166003   -4.0056758    1.2758066      1024000 
  567000   0.99198177   -4.0075168   -4.0075168   -2.7303568  0.058308406   -4.0075168    1.2771599      1024000 
  568000   0.99170105   -4.0061838   -4.0061838   -2.7293853  0.068562935   -4.0061838    1.2767985      1024000 
  569000   0.99330923   -4.0073597   -4.0073597   -2.7284907  0.066666901   -4.0073597     1.278869      1024000 
  570000   0.99261354    -4.005739    -4.005739   -2.7277657  0.078717114    -4.005739    1.2779733      1024000 
  571000    0.9919949   -4.0065929   -4.0065929   -2.7294161   0.07142477   -4.0065929    1.2771768      1024000 
  572000   0.99201617   -4.0065583   -4.0065583   -2.7293541  0.066794287   -4.0065583    1.2772042      1024000 
  573000   0.99234506   -4.0064935   -4.0064935   -2.7288658  0.070554105   -4.0064935    1.2776277      1024000 
  574000   0.99067041   -4.0054202   -4.0054202   -2.7299486  0.073060483   -4.0054202    1.2754716      1024000 
  575000   0.99064864   -4.0047695   -4.0047695   -2.7293259  0.064142024   -4.0047695    1.2754435      1024000 
  576000    0.9917312   -4.0074556   -4.0074556   -2.7306182  0.065991073   -4.0074556    1.2768373      1024000 
  577000   0.99092384   -4.0069422   -4.0069422   -2.7311443  0.060032029   -4.0069422    1.2757979      1024000 
  578000   0.98931277   -4.0039468   -4.0039468   -2.7302232  0.071649168   -4.0039468    1.2737236      1024000 
  579000   0.99036812   -4.0056908   -4.0056908   -2.7306084  0.055611143   -4.0056908    1.2750824      1024000 
  580000    0.9896894   -4.0043585   -4.0043585   -2.7301499  0.062297057   -4.0043585    1.2742085      1024000 
  581000   0.99172285   -4.0054721   -4.0054721   -2.7286455  0.060446882   -4.0054721    1.2768266      1024000 
  582000   0.99233632   -4.0062491   -4.0062491   -2.7286327  0.068892115   -4.0062491    1.2776164      1024000 
  583000   0.99084577   -4.0053629   -4.0053629   -2.7296656   0.06971259   -4.0053629    1.2756973      1024000 
  584000   0.99138735    -4.006214    -4.006214   -2.7298194  0.073181716    -4.006214    1.2763946      1024000 
  585000   0.99361573   -4.0072282   -4.0072282   -2.7279646  0.066907545   -4.0072282    1.2792636      1024000 
  586000   0.99189162   -4.0064296   -4.0064296   -2.7293858  0.063479576   -4.0064296    1.2770439      1024000 
  587000    0.9909555   -4.0034263   -4.0034263   -2.7275877  0.075197254   -4.0034263    1.2758386      1024000 
  588000   0.99103577    -4.004669    -4.004669   -2.7287271  0.072080872    -4.004669     1.275942      1024000 
  589000   0.98888388   -4.0033181   -4.0033181   -2.7301467  0.069797443   -4.0033181    1.2731715      1024000 
  590000   0.98927129   -4.0050028   -4.0050028   -2.7313326  0.067847081   -4.0050028    1.2736702      1024000 
  591000   0.99168012   -4.0065717   -4.0065717   -2.7298002  0.063121435   -4.0065717    1.2767716      1024000 
  592000   0.99141778   -4.0065884   -4.0065884   -2.7301546  0.067476067   -4.0065884    1.2764338      1024000 
  593000   0.99191964   -4.0072362   -4.0072362   -2.7301563  0.072960421   -4.0072362    1.2770799      1024000 
  594000   0.99194846   -4.0062029   -4.0062029   -2.7290858   0.07260368   -4.0062029     1.277117      1024000 
  595000   0.99123621   -4.0057281   -4.0057281    -2.729528  0.076392426   -4.0057281       1.2762      1024000 
  596000   0.99134642   -4.0074756   -4.0074756   -2.7311336  0.073263232   -4.0074756    1.2763419      1024000 
  597000   0.99214126   -4.0059579   -4.0059579   -2.7285927  0.067648052   -4.0059579    1.2773653      1024000 
  598000   0.99167488   -4.0054315   -4.0054315   -2.7286667  0.068548924   -4.0054315    1.2767648      1024000 
  599000   0.99218718   -4.0056649   -4.0056649   -2.7282405  0.068934556   -4.0056649    1.2774244      1024000 
  600000   0.99326194    -4.005895    -4.005895   -2.7270868  0.063728439    -4.005895    1.2788081      1024000 
  601000   0.99267984   -4.0047089   -4.0047089   -2.7266502  0.078654424   -4.0047089    1.2780587      1024000 
  602000   0.99103793   -4.0048483   -4.0048483   -2.7289035  0.076838798   -4.0048483    1.2759448      1024000 
  603000   0.99107589   -4.0040342   -4.0040342   -2.7280406  0.064235345   -4.0040342    1.2759936      1024000 
  604000   0.99153432    -4.005273    -4.005273   -2.7286892  0.068156808    -4.005273    1.2765838      1024000 
  605000   0.98893031   -4.0033197   -4.0033197   -2.7300885  0.072468134   -4.0033197    1.2732312      1024000 
  606000   0.99090397   -4.0049444   -4.0049444   -2.7291721  0.066084969   -4.0049444    1.2757723      1024000 
  607000   0.99058979   -4.0043981   -4.0043981   -2.7290303  0.056363335   -4.0043981    1.2753678      1024000 
  608000    0.9905903   -4.0046462   -4.0046462   -2.7292778  0.062794752   -4.0046462    1.2753684      1024000 
  609000   0.99203421   -4.0057939   -4.0057939   -2.7285665  0.062005185   -4.0057939    1.2772274      1024000 
  610000   0.99142707   -4.0060097   -4.0060097   -2.7295639  0.066875246   -4.0060097    1.2764458      1024000 
  611000   0.99222007   -4.0054767   -4.0054767   -2.7280099  0.066177457   -4.0054767    1.2774667      1024000 
  612000   0.99135877   -4.0058053   -4.0058053   -2.7294475  0.069513987   -4.0058053    1.2763578      1024000 
  613000   0.98977489    -4.004436    -4.004436   -2.7301174  0.068361261    -4.004436    1.2743186      1024000 
  614000   0.99163788   -4.0048729   -4.0048729   -2.7281557  0.064197587   -4.0048729    1.2767172      1024000 
  615000   0.99116791   -4.0039895   -4.0039895   -2.7278775  0.067363254   -4.0039895    1.2761121      1024000 
  616000   0.99003004   -4.0033256   -4.0033256   -2.7286785  0.081634161   -4.0033256    1.2746471      1024000 
  617000   0.99087855   -4.0050746   -4.0050746    -2.729335  0.066976928   -4.0050746    1.2757396      1024000 
  618000   0.99177502   -4.0057008   -4.0057008   -2.7288071  0.060605859   -4.0057008    1.2768937      1024000 
  619000   0.99115501   -4.0043509   -4.0043509   -2.7282555  0.062528202   -4.0043509    1.2760955      1024000 
  620000   0.99017689   -4.0037012   -4.0037012    -2.728865  0.065917028   -4.0037012    1.2748362      1024000 
  621000   0.99308075   -4.0051663   -4.0051663   -2.7265914  0.067453083   -4.0051663    1.2785749      1024000 
  622000   0.99058324   -4.0041179   -4.0041179   -2.7287585  0.080913008   -4.0041179    1.2753593      1024000 
  623000   0.99271886   -4.0068558   -4.0068558   -2.7287468  0.070666652   -4.0068558    1.2781089      1024000 
  624000   0.99111994   -4.0031164   -4.0031164   -2.7270661   0.06830794   -4.0031164    1.2760503      1024000 
  625000   0.99040916   -4.0029023   -4.0029023   -2.7277671  0.062291444   -4.0029023    1.2751352      1024000 
  626000   0.99110295   -4.0036274   -4.0036274   -2.7275989  0.067834365   -4.0036274    1.2760285      1024000 
  627000   0.99146811   -4.0038999   -4.0038999   -2.7274013  0.064197915   -4.0038999    1.2764986      1024000 
  628000   0.98936487   -4.0016785   -4.0016785   -2.7278878  0.063023821   -4.0016785    1.2737907      1024000 
  629000   0.99014296   -4.0028047   -4.0028047   -2.7280122  0.063674404   -4.0028047    1.2747925      1024000 
  630000    0.9902783   -4.0026378   -4.0026378    -2.727671  0.059421829   -4.0026378    1.2749667      1024000 
  631000   0.99037767   -4.0031621   -4.0031621   -2.7280675   0.06500746   -4.0031621    1.2750947      1024000 
  632000   0.99074056   -4.0031979   -4.0031979    -2.727636  0.074222181   -4.0031979    1.2755619      1024000 
  633000   0.99000349   -4.0031074   -4.0031074   -2.7284945  0.059581362   -4.0031074    1.2746129      1024000 
  634000   0.99039138   -4.0036556   -4.0036556   -2.7285432  0.060545947   -4.0036556    1.2751123      1024000 
  635000   0.99018179   -4.0030896   -4.0030896   -2.7282472  0.071302786   -4.0030896    1.2748425      1024000 
  636000   0.99102085   -4.0045379   -4.0045379   -2.7286151  0.060722927   -4.0045379    1.2759228      1024000 
  637000   0.99133187   -4.0036118   -4.0036118   -2.7272886  0.067317583   -4.0036118    1.2763232      1024000 
  638000   0.99171703   -4.0053541   -4.0053541   -2.7285351   0.06105254   -4.0053541    1.2768191      1024000 
  639000   0.99025213   -4.0032579   -4.0032579   -2.7283248  0.074625958   -4.0032579    1.2749331      1024000 
  640000   0.99176456   -4.0061289   -4.0061289   -2.7292487  0.064371806   -4.0061289    1.2768803      1024000 
  641000   0.99100995   -4.0048894   -4.0048894   -2.7289807   0.06078433   -4.0048894    1.2759087      1024000 
  642000   0.99060286   -4.0031786   -4.0031786    -2.727794  0.072214283   -4.0031786    1.2753846      1024000 
  643000   0.99106187   -4.0043549   -4.0043549   -2.7283793  0.072369817   -4.0043549    1.2759756      1024000 
  644000    0.9904266   -4.0046087   -4.0046087   -2.7294511  0.074702948   -4.0046087    1.2751577      1024000 
  645000   0.99350455   -4.0070152   -4.0070152   -2.7278947  0.067905464   -4.0070152    1.2791205      1024000 
  646000   0.99125271   -4.0047351   -4.0047351   -2.7285138  0.069900063   -4.0047351    1.2762213      1024000 
  647000   0.99340002   -4.0049109   -4.0049109    -2.725925  0.077340066   -4.0049109    1.2789859      1024000 
  648000   0.99097522   -4.0055675   -4.0055675   -2.7297035   0.06688243   -4.0055675     1.275864      1024000 
  649000   0.99091408   -4.0050664   -4.0050664   -2.7292811  0.069479985   -4.0050664    1.2757853      1024000 
  650000   0.99055827   -4.0041536   -4.0041536   -2.7288264  0.074883215   -4.0041536    1.2753272      1024000 
  651000   0.99100656   -4.0053287   -4.0053287   -2.7294243  0.077551371   -4.0053287    1.2759044      1024000 
  652000   0.99161769   -4.0050079   -4.0050079   -2.7283167  0.074186963   -4.0050079    1.2766912      1024000 
  653000   0.99114185   -4.0054735   -4.0054735   -2.7293949  0.071461392   -4.0054735    1.2760785      1024000 
  654000   0.99143531    -4.005465    -4.005465   -2.7290086  0.067848366    -4.005465    1.2764564      1024000 
  655000   0.99335053   -4.0067922   -4.0067922     -2.72787  0.077433425   -4.0067922    1.2789222      1024000 
  656000   0.99246536    -4.006174    -4.006174   -2.7283915  0.070250678    -4.006174    1.2777825      1024000 
  657000    0.9908112   -4.0050066   -4.0050066   -2.7293538  0.075572228   -4.0050066    1.2756528      1024000 
  658000   0.99170244   -4.0063166   -4.0063166   -2.7295163  0.073135127   -4.0063166    1.2768003      1024000 
  659000   0.99105185   -4.0059542   -4.0059542   -2.7299915  0.065361715   -4.0059542    1.2759627      1024000 
  660000   0.99086538   -4.0048232   -4.0048232   -2.7291006   0.07458981   -4.0048232    1.2757226      1024000 
  661000    0.9913844   -4.0044351   -4.0044351   -2.7280443  0.073294427   -4.0044351    1.2763908      1024000 
  662000   0.99132146   -4.0048638   -4.0048638    -2.728554  0.056993027   -4.0048638    1.2763098      1024000 
  663000   0.99091885   -4.0039333   -4.0039333   -2.7281418  0.071675263   -4.0039333    1.2757914      1024000 
  664000    0.9911929   -4.0040381   -4.0040381   -2.7278938  0.070649771   -4.0040381    1.2761443      1024000 
  665000   0.99091989   -4.0053282   -4.0053282   -2.7295354  0.062673458   -4.0053282    1.2757928      1024000 
  666000   0.98928693   -4.0036358   -4.0036358   -2.7299454   0.06001919   -4.0036358    1.2736904      1024000 
  667000   0.99100519    -4.003672    -4.003672   -2.7277694   0.07030284    -4.003672    1.2759026      1024000 
  668000   0.98993939   -4.0022785   -4.0022785   -2.7277481  0.060959714   -4.0022785    1.2745304      1024000 
  669000   0.98971009   -4.0025674   -4.0025674   -2.7283322  0.061627604   -4.0025674    1.2742352      1024000 
  670000    0.9893303   -4.0036229   -4.0036229   -2.7298767  0.067160897   -4.0036229    1.2737462      1024000 
  671000   0.98916331   -4.0031602   -4.0031602    -2.729629  0.061427308   -4.0031602    1.2735312      1024000 
  672000   0.99076144   -4.0017643   -4.0017643   -2.7261755  0.071831569   -4.0017643    1.2755888      1024000 
  673000   0.99246804   -4.0042061   -4.0042061   -2.7264201  0.058459148   -4.0042061     1.277786      1024000 
  674000   0.99063595   -4.0028295   -4.0028295   -2.7274023  0.065144279   -4.0028295    1.2754272      1024000 
  675000   0.99049158   -4.0006048   -4.0006048   -2.7253635  0.075028782   -4.0006048    1.2752413      1024000 
  676000   0.99319695   -4.0050179   -4.0050179   -2.7262934   0.07316631   -4.0050179    1.2787245      1024000 
  677000   0.99166667   -4.0049934   -4.0049934   -2.7282391  0.069831122   -4.0049934    1.2767542      1024000 
  678000   0.99173675   -4.0038328   -4.0038328   -2.7269883  0.070005643   -4.0038328    1.2768445      1024000 
  679000   0.99285425   -4.0044399   -4.0044399   -2.7261566  0.073105455   -4.0044399    1.2782832      1024000 
  680000   0.99363293   -4.0037164   -4.0037164   -2.7244306  0.069041263   -4.0037164    1.2792858      1024000 
  681000   0.99263786   -4.0030296   -4.0030296    -2.725025  0.070762609   -4.0030296    1.2780046      1024000 
  682000   0.99090286   -4.0026202   -4.0026202   -2.7268494  0.082179967   -4.0026202    1.2757709      1024000 
  683000   0.99081955   -4.0022467   -4.0022467   -2.7265831  0.070501339   -4.0022467    1.2756636      1024000 
  684000   0.99091049   -4.0024707   -4.0024707     -2.72669  0.071699855   -4.0024707    1.2757807      1024000 
  685000   0.99244123   -4.0032439   -4.0032439   -2.7254924  0.066152393   -4.0032439    1.2777515      1024000 
  686000   0.99300906   -4.0036962   -4.0036962   -2.7252137  0.074785685   -4.0036962    1.2784825      1024000 
  687000   0.99203706   -4.0042571   -4.0042571    -2.727026  0.066614675   -4.0042571    1.2772311      1024000 
  688000   0.99278757   -4.0031853   -4.0031853   -2.7249879  0.067723148   -4.0031853    1.2781974      1024000 
  689000   0.99149265   -4.0009695   -4.0009695   -2.7244393  0.079750345   -4.0009695    1.2765302      1024000 
  690000   0.99235828   -4.0035069   -4.0035069   -2.7258622  0.064641223   -4.0035069    1.2776447      1024000 
  691000   0.99066307    -4.001164    -4.001164   -2.7257019  0.069244001    -4.001164    1.2754621      1024000 
  692000    0.9906577   -4.0021995   -4.0021995   -2.7267443  0.061807389   -4.0021995    1.2754552      1024000 
  693000   0.99403216   -4.0032336   -4.0032336   -2.7234338  0.070563743   -4.0032336    1.2797998      1024000 
  694000   0.99211596   -4.0015823   -4.0015823   -2.7242496  0.059481904   -4.0015823    1.2773327      1024000 
  695000   0.99235739   -4.0009498   -4.0009498   -2.7233063   0.06575309   -4.0009498    1.2776435      1024000 
  696000   0.99104184   -4.0008601   -4.0008601   -2.7249103  0.065864706   -4.0008601    1.2759498      1024000 
  697000   0.99180811   -4.0015883   -4.0015883    -2.724652  0.054700835   -4.0015883    1.2769363      1024000 
  698000   0.99160606   -4.0005082   -4.0005082   -2.7238319  0.059067149   -4.0005082    1.2766762      1024000 
  699000   0.99193665   -4.0004455   -4.0004455   -2.7233436  0.060189427   -4.0004455    1.2771018      1024000 
  700000    0.9900615   -3.9979542   -3.9979542   -2.7232666  0.067221939   -3.9979542    1.2746876      1024000 
  701000   0.99073935   -4.0013424   -4.0013424   -2.7257821  0.059055384   -4.0013424    1.2755603      1024000 
  702000    0.9906694   -3.9999353   -3.9999353    -2.724465   0.06373389   -3.9999353    1.2754703      1024000 
  703000   0.99013899   -3.9985854   -3.9985854    -2.723798  0.055962269   -3.9985854    1.2747874      1024000 
  704000   0.99172819   -4.0006747   -4.0006747   -2.7238413  0.065676019   -4.0006747    1.2768334      1024000 
  705000   0.99124485    -4.001152    -4.001152   -2.7249408  0.067355035    -4.001152    1.2762112      1024000 
  706000   0.99183147    -4.001798    -4.001798   -2.7248315   0.06486298    -4.001798    1.2769664      1024000 
  707000   0.99225779   -4.0001255   -4.0001255   -2.7226102  0.069040791   -4.0001255    1.2775153      1024000 
  708000   0.99233178   -4.0008213   -4.0008213   -2.7232107   0.06579318   -4.0008213    1.2776106      1024000 
  709000   0.99293937   -4.0012488   -4.0012488    -2.722856  0.063588618   -4.0012488    1.2783928      1024000 
  710000   0.99252307   -4.0015585   -4.0015585   -2.7237016  0.068966769   -4.0015585    1.2778568      1024000 
  711000   0.99266073   -4.0005938   -4.0005938   -2.7225597  0.071281358   -4.0005938    1.2780341      1024000 
  712000   0.99323568   -4.0006965   -4.0006965   -2.7219221  0.062461005   -4.0006965    1.2787743      1024000 
  713000   0.99107566   -4.0009298   -4.0009298   -2.7249364   0.06556296   -4.0009298    1.2759933      1024000 
  714000   0.99187739   -4.0005001   -4.0005001   -2.7234746    0.0658848   -4.0005001    1.2770255      1024000 
  715000   0.99208172   -4.0025283   -4.0025283   -2.7252397  0.066433464   -4.0025283    1.2772886      1024000 
  716000   0.99193233   -3.9999123   -3.9999123    -2.722816  0.072532767   -3.9999123    1.2770963      1024000 
  717000   0.99223612   -4.0009433   -4.0009433   -2.7234559  0.072432148   -4.0009433    1.2774874      1024000 
  718000   0.99282105   -4.0012456   -4.0012456   -2.7230052  0.068816569   -4.0012456    1.2782405      1024000 
  719000   0.99274801   -4.0013125   -4.0013125   -2.7231661   0.07032432   -4.0013125    1.2781465      1024000 
  720000   0.99238428   -4.0022905   -4.0022905   -2.7246123  0.078085108   -4.0022905    1.2776782      1024000 
  721000   0.99164577   -3.9995986   -3.9995986   -2.7228713  0.072678654   -3.9995986    1.2767273      1024000 
  722000   0.99181754   -4.0006332   -4.0006332   -2.7236848  0.061871758   -4.0006332    1.2769485      1024000 
  723000   0.99134234   -3.9994403   -3.9994403   -2.7231037  0.071183568   -3.9994403    1.2763367      1024000 
  724000   0.99157036   -4.0006389   -4.0006389   -2.7240086  0.063091114   -4.0006389    1.2766303      1024000 
  725000   0.99192579   -4.0012255   -4.0012255   -2.7241377  0.073763547   -4.0012255    1.2770879      1024000 
  726000   0.99112907   -4.0006535   -4.0006535   -2.7245914  0.059084569   -4.0006535    1.2760621      1024000 
  727000   0.99111674    -4.000936    -4.000936   -2.7248898  0.060918636    -4.000936    1.2760462      1024000 
  728000   0.99001107   -3.9981118   -3.9981118   -2.7234891  0.064124699   -3.9981118    1.2746227      1024000 
  729000   0.99069531   -3.9995631   -3.9995631   -2.7240594   0.06969555   -3.9995631    1.2755036      1024000 
  730000   0.99131414   -4.0004912   -4.0004912   -2.7241909  0.068819889   -4.0004912    1.2763004      1024000 
  731000   0.99091485   -4.0011209   -4.0011209   -2.7253346  0.078252376   -4.0011209    1.2757863      1024000 
  732000   0.99217939   -4.0013733   -4.0013733    -2.723959  0.067247767   -4.0013733    1.2774144      1024000 
  733000   0.99146938   -4.0004507   -4.0004507   -2.7239505  0.066095954   -4.0004507    1.2765002      1024000 
  734000   0.99238881   -4.0005803   -4.0005803   -2.7228963  0.069875644   -4.0005803     1.277684      1024000 
  735000   0.99167692   -4.0006661   -4.0006661   -2.7238987  0.075829229   -4.0006661    1.2767674      1024000 
  736000   0.99144585   -4.0011425   -4.0011425   -2.7246726  0.063446101   -4.0011425    1.2764699      1024000 
  737000   0.99239201   -3.9998831   -3.9998831    -2.722195  0.075926109   -3.9998831    1.2776881      1024000 
  738000   0.99214166   -4.0025105   -4.0025105   -2.7251447  0.064049284   -4.0025105    1.2773658      1024000 
  739000   0.99191946   -4.0022864   -4.0022864   -2.7252067  0.060086417   -4.0022864    1.2770797      1024000 
  740000   0.99271303   -4.0025842   -4.0025842   -2.7244828  0.072521749   -4.0025842    1.2781014      1024000 
  741000    0.9910572   -3.9994776   -3.9994776   -2.7235081   0.08054735   -3.9994776    1.2759696      1024000 
  742000   0.99293871    -4.001867    -4.001867    -2.723475   0.07499939    -4.001867     1.278392      1024000 
  743000   0.99209492   -4.0007408   -4.0007408   -2.7234352  0.062865214   -4.0007408    1.2773056      1024000 
  744000    0.9905146   -3.9995476   -3.9995476   -2.7242766  0.073267954   -3.9995476     1.275271      1024000 
  745000   0.99151573   -4.0002116   -4.0002116   -2.7236517  0.067177082   -4.0002116    1.2765599      1024000 
  746000   0.99147674   -4.0001208   -4.0001208   -2.7236111  0.074196276   -4.0001208    1.2765097      1024000 
  747000   0.99151817   -4.0011259   -4.0011259   -2.7245629  0.073305591   -4.0011259    1.2765631      1024000 
  748000   0.99294843    -4.001519    -4.001519   -2.7231145  0.063817427    -4.001519    1.2784045      1024000 
  749000   0.99162359   -4.0014518   -4.0014518    -2.724753  0.075638143   -4.0014518    1.2766988      1024000 
  750000   0.99147318   -3.9997142   -3.9997142    -2.723209  0.066513496   -3.9997142    1.2765051      1024000 
  751000   0.99269858   -4.0014934   -4.0014934   -2.7234106   0.06502383   -4.0014934    1.2780828      1024000 
  752000   0.99220411   -4.0012501   -4.0012501   -2.7238039  0.062470547   -4.0012501    1.2774462      1024000 
  753000    0.9932087   -4.0026546   -4.0026546   -2.7239151  0.067954383   -4.0026546    1.2787396      1024000 
  754000   0.99091208   -4.0021396   -4.0021396   -2.7263569  0.067025514   -4.0021396    1.2757827      1024000 
  755000   0.99252608   -4.0020072   -4.0020072   -2.7241465  0.069786154   -4.0020072    1.2778607      1024000 
  756000   0.99077649   -4.0000893   -4.0000893   -2.7244811  0.076315301   -4.0000893    1.2756082      1024000 
  757000   0.99090578   -3.9994665   -3.9994665   -2.7236919  0.064104881   -3.9994665    1.2757746      1024000 
  758000   0.99061431   -3.9998063   -3.9998063    -2.724407  0.070347541   -3.9998063    1.2753993      1024000 
  759000   0.99036002   -4.0000077   -4.0000077   -2.7249357  0.065312982   -4.0000077    1.2750719      1024000 
  760000   0.99129464   -4.0003587   -4.0003587   -2.7240834  0.071965658   -4.0003587    1.2762753      1024000 
  761000   0.99308649   -4.0033069   -4.0033069   -2.7247247  0.063405339   -4.0033069    1.2785822      1024000 
  762000    0.9930827   -4.0025998   -4.0025998   -2.7240224   0.05317187   -4.0025998    1.2785774      1024000 
  763000   0.99139833   -4.0012343   -4.0012343   -2.7248255  0.063522706   -4.0012343    1.2764088      1024000 
  764000   0.99135565   -4.0006595   -4.0006595   -2.7243057  0.072989929   -4.0006595    1.2763538      1024000 
  765000   0.99220606   -4.0014342   -4.0014342   -2.7239855  0.063503225   -4.0014342    1.2774487      1024000 
  766000   0.99175313   -4.0018267   -4.0018267   -2.7249612  0.061678159   -4.0018267    1.2768656      1024000 
  767000   0.99217463   -3.9995311   -3.9995311   -2.7221228  0.068033072   -3.9995311    1.2774082      1024000 
  768000   0.99190718   -3.9994894   -3.9994894   -2.7224255   0.07396571   -3.9994894    1.2770639      1024000 
  769000   0.99214415    -4.000042    -4.000042    -2.722673  0.064130766    -4.000042     1.277369      1024000 
  770000    0.9934178   -4.0012121   -4.0012121   -2.7222033  0.071973453   -4.0012121    1.2790088      1024000 
  771000   0.99325458   -4.0011205   -4.0011205   -2.7223219  0.062745918   -4.0011205    1.2787987      1024000 
  772000   0.99196786   -4.0016448   -4.0016448   -2.7245028  0.068926233   -4.0016448     1.277142      1024000 
  773000   0.99233447    -3.999719    -3.999719   -2.7221049  0.069456249    -3.999719     1.277614      1024000 
  774000   0.99203176   -4.0017745   -4.0017745   -2.7245502  0.059033065   -4.0017745    1.2772243      1024000 
  775000   0.99207289   -4.0005229   -4.0005229   -2.7232456  0.074593041   -4.0005229    1.2772772      1024000 
  776000   0.99268615   -4.0000615   -4.0000615   -2.7219947  0.076270455   -4.0000615    1.2780668      1024000 
  777000   0.99381542   -4.0018564   -4.0018564   -2.7223357  0.066937217   -4.0018564    1.2795207      1024000 
  778000     0.990541    -3.998178    -3.998178   -2.7228731  0.071647933    -3.998178     1.275305      1024000 
  779000   0.99133578   -4.0004543   -4.0004543   -2.7241261  0.056798876   -4.0004543    1.2763282      1024000 
  780000     0.992212   -3.9993705   -3.9993705   -2.7219142  0.064894437   -3.9993705    1.2774563      1024000 
  781000    0.9921097   -4.0007995   -4.0007995   -2.7234749  0.065787742   -4.0007995    1.2773246      1024000 
  782000   0.99135888   -3.9992677   -3.9992677   -2.7229097  0.065630734   -3.9992677     1.276358      1024000 
  783000   0.99024011   -3.9986091   -3.9986091   -2.7236916   0.07187444   -3.9986091    1.2749176      1024000 
  784000    0.9909498   -3.9995023   -3.9995023    -2.723671  0.070234454   -3.9995023    1.2758313      1024000 
  785000   0.99131639   -3.9992805   -3.9992805   -2.7229773  0.072090854   -3.9992805    1.2763033      1024000 
  786000   0.99160446   -3.9996131   -3.9996131    -2.722939  0.074646221   -3.9996131    1.2766741      1024000 
  787000   0.99280678   -3.9994026   -3.9994026   -2.7211805  0.077240193   -3.9994026    1.2782221      1024000 
  788000   0.99258064   -4.0010468   -4.0010468   -2.7231158  0.051099626   -4.0010468     1.277931      1024000 
  789000   0.99181096   -4.0005863   -4.0005863   -2.7236462  0.064641336   -4.0005863      1.27694      1024000 
  790000   0.99279729   -3.9993376   -3.9993376   -2.7211277  0.065719029   -3.9993376    1.2782099      1024000 
  791000   0.99260142   -3.9990787   -3.9990787    -2.721121  0.064100007   -3.9990787    1.2779577      1024000 
  792000   0.99243544   -4.0005277   -4.0005277   -2.7227837  0.063738524   -4.0005277     1.277744      1024000 
  793000   0.99240258   -4.0005102   -4.0005102   -2.7228085  0.064638393   -4.0005102    1.2777017      1024000 
  794000   0.99409542   -4.0005424   -4.0005424   -2.7206612  0.070127488   -4.0005424    1.2798812      1024000 
  795000   0.99246642   -3.9996407   -3.9996407   -2.7218568   0.06577063   -3.9996407    1.2777839      1024000 
  796000   0.99121506   -3.9990145   -3.9990145   -2.7228417  0.075976336   -3.9990145    1.2761728      1024000 
  797000   0.99285233   -4.0001282   -4.0001282   -2.7218474  0.074767757   -4.0001282    1.2782808      1024000 
  798000   0.99271632   -4.0002084   -4.0002084   -2.7221027  0.070613728   -4.0002084    1.2781057      1024000 
  799000    0.9921594   -3.9994619   -3.9994619   -2.7220733    0.0671243   -3.9994619    1.2773886      1024000 
  800000   0.99272155   -3.9992535   -3.9992535   -2.7211411  0.069822276   -3.9992535    1.2781124      1024000 
  801000   0.99179497   -3.9992575   -3.9992575   -2.7223381    0.0666685   -3.9992575    1.2769194      1024000 
  802000   0.99131555   -3.9976134   -3.9976134   -2.7213112  0.066394033   -3.9976134    1.2763022      1024000 
  803000   0.99153686   -3.9985267   -3.9985267   -2.7219396  0.067679675   -3.9985267    1.2765871      1024000 
  804000   0.99168012   -3.9988244   -3.9988244   -2.7220529  0.068820085   -3.9988244    1.2767716      1024000 
  805000   0.99057254    -3.996712    -3.996712   -2.7213664   0.06898378    -3.996712    1.2753456      1024000 
  806000   0.99160045    -3.998267    -3.998267    -2.721598  0.069284077    -3.998267     1.276669      1024000 
  807000   0.99245243    -4.001394    -4.001394   -2.7236281  0.053082398    -4.001394    1.2777659      1024000 
  808000    0.9914414   -3.9993511   -3.9993511   -2.7228869  0.065356778   -3.9993511    1.2764642      1024000 
  809000   0.99078723   -3.9974706   -3.9974706   -2.7218486  0.071413899   -3.9974706     1.275622      1024000 
  810000   0.99211797   -3.9992169   -3.9992169   -2.7218816   0.06811312   -3.9992169    1.2773353      1024000 
  811000   0.99044554   -3.9973785   -3.9973785   -2.7221965  0.058481547   -3.9973785    1.2751821      1024000 
  812000   0.99181327   -3.9982255   -3.9982255   -2.7212825  0.075887759   -3.9982255     1.276943      1024000 
  813000   0.99257473   -3.9996376   -3.9996376   -2.7217142  0.059012892   -3.9996376    1.2779234      1024000 
  814000   0.99183924   -4.0005593   -4.0005593   -2.7235829  0.068401774   -4.0005593    1.2769764      1024000 
  815000   0.99243469   -3.9993833   -3.9993833   -2.7216402  0.073775689   -3.9993833    1.2777431      1024000 
  816000   0.99309986   -3.9990186   -3.9990186   -2.7204191  0.071165586   -3.9990186    1.2785995      1024000 
  817000   0.99196156   -3.9987697   -3.9987697   -2.7216358  0.070504403   -3.9987697    1.2771339      1024000 
  818000   0.99345841   -4.0006705   -4.0006705   -2.7216095  0.076069616   -4.0006705    1.2790611      1024000 
  819000   0.99216319   -3.9989911   -3.9989911   -2.7215976  0.076976893   -3.9989911    1.2773935      1024000 
  820000   0.99224065   -3.9982224   -3.9982224   -2.7207292  0.072493174   -3.9982224    1.2774932      1024000 
  821000   0.99417286   -4.0013911   -4.0013911   -2.7214102  0.069806925   -4.0013911    1.2799809      1024000 
  822000   0.99278762   -3.9997714   -3.9997714    -2.721574  0.066456199   -3.9997714    1.2781974      1024000 
  823000   0.99369819   -4.0006485   -4.0006485   -2.7212787  0.067916327   -4.0006485    1.2793698      1024000 
  824000   0.99337338   -4.0009694   -4.0009694   -2.7220178  0.065182778   -4.0009694    1.2789516      1024000 
  825000   0.99274163   -4.0010843   -4.0010843   -2.7229461  0.066481605   -4.0010843    1.2781382      1024000 
  826000   0.99144831   -3.9973268   -3.9973268   -2.7208537  0.075938933   -3.9973268    1.2764731      1024000 
  827000   0.99173407   -3.9975639   -3.9975639   -2.7207229  0.076722474   -3.9975639     1.276841      1024000 
  828000   0.99342992   -4.0000909   -4.0000909   -2.7210665  0.064568117   -4.0000909    1.2790244      1024000 
  829000   0.99132184    -3.999129    -3.999129   -2.7228187  0.066191068    -3.999129    1.2763103      1024000 
  830000   0.99192765    -3.999771    -3.999771   -2.7226807  0.066645133    -3.999771    1.2770903      1024000 
  831000   0.99079678   -3.9979758   -3.9979758   -2.7223415  0.058769293   -3.9979758    1.2756343      1024000 
  832000   0.99171425   -3.9989462   -3.9989462   -2.7221307  0.071581495   -3.9989462    1.2768155      1024000 
  833000   0.99257617    -3.999599    -3.999599   -2.7216738  0.062622915    -3.999599    1.2779252      1024000 
  834000   0.99173925   -3.9998546   -3.9998546    -2.723007  0.059890821   -3.9998546    1.2768477      1024000 
  835000   0.99209614   -3.9998801   -3.9998801   -2.7225729  0.054577846   -3.9998801    1.2773072      1024000 
  836000   0.99212976   -3.9985249   -3.9985249   -2.7211745  0.061935922   -3.9985249    1.2773505      1024000 
  837000   0.99099523   -3.9981829   -3.9981829   -2.7222931  0.074824954   -3.9981829    1.2758898      1024000 
  838000   0.99294158   -3.9994589   -3.9994589   -2.7210633  0.062863915   -3.9994589    1.2783957      1024000 
  839000   0.99283092   -3.9993685   -3.9993685   -2.7211153  0.066248314   -3.9993685    1.2782532      1024000 
  840000   0.99199217   -3.9970706   -3.9970706   -2.7198973   0.07165673   -3.9970706    1.2771733      1024000 
  841000   0.99393949   -3.9995379   -3.9995379   -2.7198574  0.063668056   -3.9995379    1.2796805      1024000 
  842000   0.99275613   -3.9991855   -3.9991855   -2.7210286  0.074533172   -3.9991855    1.2781569      1024000 
  843000   0.99379145   -3.9993186   -3.9993186   -2.7198288   0.06984027   -3.9993186    1.2794899      1024000 
  844000   0.99185997   -3.9977291   -3.9977291    -2.720726  0.072613817   -3.9977291    1.2770031      1024000 
  845000   0.99382415    -3.999181    -3.999181   -2.7196491  0.072964242    -3.999181     1.279532      1024000 
  846000   0.99515103   -4.0004515   -4.0004515   -2.7192112  0.076270291   -4.0004515    1.2812403      1024000 
  847000   0.99342603   -3.9999138   -3.9999138   -2.7208945  0.072710934   -3.9999138    1.2790194      1024000 
  848000   0.99371855   -4.0000954   -4.0000954   -2.7206994  0.070036503   -4.0000954     1.279396      1024000 
  849000    0.9922772   -3.9981162   -3.9981162   -2.7205759  0.091666235   -3.9981162    1.2775403      1024000 
  850000   0.99207783   -3.9986329   -3.9986329   -2.7213493  0.075977857   -3.9986329    1.2772836      1024000 
  851000   0.99266085   -3.9982977   -3.9982977   -2.7202634  0.085260146   -3.9982977    1.2780342      1024000 
  852000   0.99256643   -3.9989565   -3.9989565   -2.7210438  0.061440151   -3.9989565    1.2779127      1024000 
  853000   0.99346653   -3.9984736   -3.9984736   -2.7194021  0.077014118   -3.9984736    1.2790715      1024000 
  854000   0.99134946   -3.9980431   -3.9980431   -2.7216973  0.069907728   -3.9980431    1.2763458      1024000 
  855000   0.99288979   -4.0005819   -4.0005819   -2.7222529  0.063390266   -4.0005819     1.278329      1024000 
  856000   0.99269615   -3.9993945   -3.9993945   -2.7213148  0.064688392   -3.9993945    1.2780797      1024000 
  857000   0.98966255   -3.9977083   -3.9977083   -2.7235344  0.070787685   -3.9977083     1.274174      1024000 
  858000   0.99092785   -3.9979598   -3.9979598   -2.7221568  0.070807515   -3.9979598     1.275803      1024000 
  859000   0.99196703   -3.9981807   -3.9981807   -2.7210398  0.072583659   -3.9981807     1.277141      1024000 
  860000    0.9907683    -3.998886    -3.998886   -2.7232884  0.069871997    -3.998886    1.2755976      1024000 
  861000   0.99113904   -3.9989823   -3.9989823   -2.7229074  0.074497988   -3.9989823    1.2760749      1024000 
  862000   0.99312928   -3.9979776   -3.9979776   -2.7193402  0.074778373   -3.9979776    1.2786373      1024000 
  863000   0.99135568   -3.9980861   -3.9980861   -2.7217323  0.069562393   -3.9980861    1.2763538      1024000 
  864000   0.99305862   -3.9998617   -3.9998617   -2.7213153  0.065389166   -3.9998617    1.2785464      1024000 
  865000   0.99245878   -3.9990371   -3.9990371    -2.721263  0.071512796   -3.9990371    1.2777741      1024000 
  866000   0.99295189   -4.0002171   -4.0002171   -2.7218081  0.074646012   -4.0002171    1.2784089      1024000 
  867000   0.99453415   -4.0000929   -4.0000929   -2.7196468  0.071528342   -4.0000929    1.2804461      1024000 
  868000   0.99309428   -4.0004282   -4.0004282    -2.721836  0.079865956   -4.0004282    1.2785923      1024000 
  869000   0.99413366   -4.0005813   -4.0005813   -2.7206508  0.071733196   -4.0005813    1.2799305      1024000 
  870000   0.99554915   -4.0023551   -4.0023551   -2.7206022   0.06815085   -4.0023551    1.2817529      1024000 
  871000   0.99492815   -4.0011528   -4.0011528   -2.7201995  0.080427291   -4.0011528    1.2809533      1024000 
  872000   0.99419752   -4.0006097   -4.0006097    -2.720597  0.074813569   -4.0006097    1.2800127      1024000 
  873000   0.99425197   -3.9993332   -3.9993332   -2.7192505  0.077379569   -3.9993332    1.2800828      1024000 
  874000   0.99313644   -3.9978903   -3.9978903   -2.7192437  0.077737833   -3.9978903    1.2786466      1024000 
  875000    0.9928124   -3.9961253   -3.9961253   -2.7178959  0.075994116   -3.9961253    1.2782293      1024000 
  876000   0.99447858    -3.998242    -3.998242   -2.7178675  0.073174463    -3.998242    1.2803745      1024000 
  877000   0.99203555   -3.9974401   -3.9974401   -2.7202109  0.063410892   -3.9974401    1.2772292      1024000 
  878000   0.99391768   -3.9983652   -3.9983652   -2.7187128  0.074640989   -3.9983652    1.2796524      1024000 
  879000   0.99309904    -3.998215    -3.998215   -2.7196166  0.067164293    -3.998215    1.2785984      1024000 
  880000   0.99160101   -3.9974079   -3.9974079   -2.7207382  0.057990146   -3.9974079    1.2766697      1024000 
  881000   0.99160769   -3.9958935   -3.9958935   -2.7192152  0.068673679   -3.9958935    1.2766783      1024000 
  882000   0.99258481   -3.9974443   -3.9974443    -2.719508  0.062226765   -3.9974443    1.2779363      1024000 
  883000   0.99109005    -3.995558    -3.995558   -2.7195461  0.054741271    -3.995558    1.2760119      1024000 
  884000   0.99047787   -3.9950714   -3.9950714   -2.7198477  0.059012142   -3.9950714    1.2752237      1024000 
  885000   0.99010626   -3.9934647   -3.9934647   -2.7187195  0.064646302   -3.9934647    1.2747452      1024000 
  886000   0.98969541   -3.9942048   -3.9942048   -2.7199886  0.058097777   -3.9942048    1.2742163      1024000 
  887000     0.988495   -3.9960423   -3.9960423   -2.7233716  0.061523649   -3.9960423    1.2726708      1024000 
  888000     0.989734   -3.9945377   -3.9945377   -2.7202717  0.068063548   -3.9945377     1.274266      1024000 
  889000   0.99028032   -3.9953341   -3.9953341   -2.7203647  0.064556186   -3.9953341    1.2749693      1024000 
  890000    0.9925688   -3.9966131   -3.9966131   -2.7186974  0.065674943   -3.9966131    1.2779157      1024000 
  891000   0.99125554   -3.9969141   -3.9969141   -2.7206892  0.063739711   -3.9969141    1.2762249      1024000 
  892000   0.99225224   -3.9970499   -3.9970499   -2.7195418  0.069069586   -3.9970499    1.2775082      1024000 
  893000   0.99366873   -3.9984248   -3.9984248   -2.7190929  0.068743675   -3.9984248    1.2793319      1024000 
  894000   0.99254033   -3.9972648   -3.9972648   -2.7193857  0.074199871   -3.9972648    1.2778791      1024000 
  895000   0.99308681   -4.0001065   -4.0001065   -2.7215238  0.065664809   -4.0001065    1.2785826      1024000 
  896000   0.99338942   -3.9989096   -3.9989096   -2.7199373  0.078729691   -3.9989096    1.2789723      1024000 
  897000    0.9931937   -3.9975856   -3.9975856   -2.7188653  0.075377264   -3.9975856    1.2787203      1024000 
  898000   0.99405889   -3.9990247   -3.9990247   -2.7191905  0.069362072   -3.9990247    1.2798342      1024000 
  899000   0.99218755   -3.9992072   -3.9992072   -2.7217824   0.06046076   -3.9992072    1.2774249      1024000 
  900000   0.99330294   -3.9988722   -3.9988722   -2.7200113  0.080609899   -3.9988722    1.2788609      1024000 
  901000   0.99318806   -3.9981193   -3.9981193   -2.7194063  0.076504404   -3.9981193     1.278713      1024000 
  902000   0.99405566   -3.9994133   -3.9994133   -2.7195833  0.071167559   -3.9994133      1.27983      1024000 
  903000   0.99593943   -4.0026409   -4.0026409   -2.7203855  0.071021569   -4.0026409    1.2822554      1024000 
  904000    0.9929991   -3.9996066   -3.9996066   -2.7211369  0.076930684   -3.9996066    1.2784697      1024000 
  905000   0.99477447   -4.0008798   -4.0008798   -2.7201243   0.07207186   -4.0008798    1.2807555      1024000 
  906000   0.99337961   -3.9992289   -3.9992289   -2.7202693  0.065749997   -3.9992289    1.2789596      1024000 
  907000   0.99378558   -3.9979638   -3.9979638   -2.7184815  0.071394481   -3.9979638    1.2794823      1024000 
  908000   0.99310988   -3.9998127   -3.9998127   -2.7212003  0.067205974   -3.9998127    1.2786123      1024000 
  909000   0.99172022   -3.9980805   -3.9980805   -2.7212573  0.073128408   -3.9980805    1.2768232      1024000 
  910000   0.99309301   -3.9978186   -3.9978186   -2.7192279  0.064135688   -3.9978186    1.2785906      1024000 
  911000     0.991937    -3.998355    -3.998355   -2.7212527  0.062244235    -3.998355    1.2771023      1024000 
  912000   0.99182743   -3.9946513   -3.9946513   -2.7176901  0.072635452   -3.9946513    1.2769612      1024000 
  913000   0.99253142   -3.9972112   -3.9972112   -2.7193436  0.059292906   -3.9972112    1.2778676      1024000 
  914000   0.99175297   -3.9968659   -3.9968659   -2.7200006  0.068207235   -3.9968659    1.2768654      1024000 
  915000   0.99373391   -3.9989737   -3.9989737    -2.719558  0.065719848   -3.9989737    1.2794158      1024000 
  916000   0.99294869   -3.9972172   -3.9972172   -2.7188123  0.066939714   -3.9972172    1.2784048      1024000 
  917000   0.99075922   -3.9952802   -3.9952802   -2.7196943  0.066345418   -3.9952802    1.2755859      1024000 
  918000   0.99041183   -3.9944649   -3.9944649   -2.7193262   0.06536286   -3.9944649    1.2751387      1024000 
  919000   0.99138846   -3.9949292   -3.9949292   -2.7185332  0.064477666   -3.9949292     1.276396      1024000 
  920000   0.99067191   -3.9936491   -3.9936491   -2.7181755  0.067887625   -3.9936491    1.2754735      1024000 
  921000   0.99244701   -3.9979352   -3.9979352   -2.7201763  0.061439084   -3.9979352    1.2777589      1024000 
  922000   0.99120065   -3.9961232   -3.9961232    -2.719969   0.07198785   -3.9961232    1.2761543      1024000 
  923000   0.99134704    -3.995027    -3.995027   -2.7186843  0.065056974    -3.995027    1.2763427      1024000 
  924000   0.99310564   -3.9946935   -3.9946935   -2.7160866  0.065340948   -3.9946935    1.2786069      1024000 
  925000   0.99163952   -3.9955435   -3.9955435   -2.7188242   0.06730024   -3.9955435    1.2767193      1024000 
  926000   0.99194296   -3.9952793   -3.9952793   -2.7181693  0.066443298   -3.9952793      1.27711      1024000 
  927000   0.99157606   -3.9951225   -3.9951225   -2.7184849  0.061248182   -3.9951225    1.2766376      1024000 
  928000   0.99290889   -3.9958576   -3.9958576    -2.717504  0.072288819   -3.9958576    1.2783536      1024000 
  929000   0.99357956   -3.9973311   -3.9973311   -2.7181141  0.074593214   -3.9973311    1.2792171      1024000 
  930000    0.9932796   -3.9971571   -3.9971571   -2.7183262  0.070337897   -3.9971571    1.2788309      1024000 
  931000     0.993042   -3.9984626   -3.9984626   -2.7199377  0.071252124   -3.9984626     1.278525      1024000 
  932000   0.99392073   -3.9970078   -3.9970078   -2.7173515  0.071692224   -3.9970078    1.2796563      1024000 
  933000   0.99247167   -3.9973118   -3.9973118   -2.7195212   0.06975634   -3.9973118    1.2777907      1024000 
  934000    0.9930814   -3.9962374   -3.9962374   -2.7176617  0.072933228   -3.9962374    1.2785757      1024000 
  935000   0.99208749   -3.9958424   -3.9958424   -2.7185463  0.067290927   -3.9958424     1.277296      1024000 
  936000   0.99381812   -3.9969779   -3.9969779   -2.7174537  0.067832601   -3.9969779    1.2795242      1024000 
  937000   0.99382667   -3.9955722   -3.9955722    -2.716037  0.065595276   -3.9955722    1.2795352      1024000 
  938000     0.993767   -3.9973752   -3.9973752   -2.7179168  0.060435905   -3.9973752    1.2794584      1024000 
  939000   0.99306139   -3.9967085   -3.9967085   -2.7181585   0.07206445   -3.9967085    1.2785499      1024000 
  940000   0.99233621   -3.9971461   -3.9971461   -2.7195299  0.065775826   -3.9971461    1.2776163      1024000 
  941000   0.99301602   -3.9973395   -3.9973395    -2.718848  0.066965666   -3.9973395    1.2784915      1024000 
  942000   0.99417407   -3.9957748   -3.9957748   -2.7157923  0.078986136   -3.9957748    1.2799825      1024000 
  943000   0.99452816   -3.9981427   -3.9981427   -2.7177044   0.06723253   -3.9981427    1.2804384      1024000 
  944000   0.99168148   -3.9938004   -3.9938004   -2.7170271  0.077302881   -3.9938004    1.2767733      1024000 
  945000   0.99294388   -3.9955046   -3.9955046    -2.717106  0.075941492   -3.9955046    1.2783986      1024000 
  946000   0.99357834   -3.9961093   -3.9961093   -2.7168938  0.071791736   -3.9961093    1.2792155      1024000 
  947000   0.99307044   -3.9954479   -3.9954479   -2.7168863  0.077026723   -3.9954479    1.2785616      1024000 
  948000   0.99230761   -3.9941807   -3.9941807   -2.7166012  0.074492789   -3.9941807    1.2775794      1024000 
  949000   0.99327227   -3.9942966   -3.9942966   -2.7154752  0.074878451   -3.9942966    1.2788214      1024000 
  950000   0.99320275   -3.9950963   -3.9950963   -2.7163644  0.076738664   -3.9950963    1.2787319      1024000 
  951000   0.99453217    -3.996332    -3.996332   -2.7158884  0.073360377    -3.996332    1.2804435      1024000 
  952000   0.99341123   -3.9957596   -3.9957596   -2.7167592  0.073235535   -3.9957596    1.2790003      1024000 
  953000   0.99167343   -3.9952808   -3.9952808   -2.7185178  0.068676498   -3.9952808    1.2767629      1024000 
  954000   0.99181869   -3.9962764   -3.9962764   -2.7193264  0.069037013   -3.9962764      1.27695      1024000 
  955000   0.99297695   -3.9961013   -3.9961013   -2.7176601  0.068629478   -3.9961013    1.2784412      1024000 
  956000   0.99210569   -3.9943706   -3.9943706   -2.7170511  0.063983276   -3.9943706    1.2773195      1024000 
  957000   0.99123964   -3.9944211   -3.9944211   -2.7182167  0.071615601   -3.9944211    1.2762045      1024000 
  958000   0.99255117   -3.9955208   -3.9955208   -2.7176277  0.069695516   -3.9955208     1.277893      1024000 
  959000   0.99351932   -3.9962272   -3.9962272   -2.7170877  0.057663039   -3.9962272    1.2791395      1024000 
  960000   0.99131959   -3.9948709   -3.9948709   -2.7185635  0.068760898   -3.9948709    1.2763074      1024000 
  961000   0.99272956   -3.9962149   -3.9962149   -2.7180922  0.060519878   -3.9962149    1.2781227      1024000 
  962000   0.99250495   -3.9959699   -3.9959699   -2.7181364  0.056535717   -3.9959699    1.2778335      1024000 
  963000   0.99285098   -3.9975469   -3.9975469   -2.7192678  0.066114003   -3.9975469     1.278279      1024000 
  964000    0.9928129   -3.9970091   -3.9970091   -2.7187791  0.060767879   -3.9970091      1.27823      1024000 
  965000   0.99281748   -3.9963797   -3.9963797   -2.7181438  0.077233564   -3.9963797    1.2782359      1024000 
  966000   0.99349295   -3.9964445   -3.9964445   -2.7173389  0.069331285   -3.9964445    1.2791055      1024000 
  967000   0.99267972   -3.9968918   -3.9968918   -2.7188333  0.067691036   -3.9968918    1.2780585      1024000 
  968000   0.99286535   -3.9948668   -3.9948668   -2.7165693  0.067020139   -3.9948668    1.2782975      1024000 
  969000   0.99312727   -3.9959123   -3.9959123   -2.7172775  0.076667609   -3.9959123    1.2786347      1024000 
  970000   0.99195624   -3.9944692   -3.9944692   -2.7173422  0.064333194   -3.9944692    1.2771271      1024000 
  971000   0.99280181   -3.9952748   -3.9952748    -2.717059   0.06297624   -3.9952748    1.2782157      1024000 
  972000    0.9921821   -3.9947607   -3.9947607   -2.7173428  0.063290007   -3.9947607    1.2774179      1024000 
  973000   0.99324251   -3.9960914   -3.9960914   -2.7173083  0.060626435   -3.9960914    1.2787831      1024000 
  974000   0.99497909   -3.9967828   -3.9967828   -2.7157639  0.073029508   -3.9967828    1.2810189      1024000 
  975000   0.99260655   -3.9959465   -3.9959465   -2.7179822  0.067870564   -3.9959465    1.2779643      1024000 
  976000   0.99333156   -3.9963876   -3.9963876   -2.7174898  0.066629279   -3.9963876    1.2788978      1024000 
  977000   0.99391993   -3.9949488   -3.9949488   -2.7152936  0.076604545   -3.9949488    1.2796553      1024000 
  978000   0.99434912   -3.9968156   -3.9968156   -2.7166078  0.068126283   -3.9968156    1.2802079      1024000 
  979000   0.99296118   -3.9943482   -3.9943482   -2.7159273  0.071566392   -3.9943482    1.2784209      1024000 
  980000   0.99359976   -3.9962975   -3.9962975   -2.7170545  0.067665612   -3.9962975    1.2792431      1024000 
  981000   0.99361848    -3.997483    -3.997483   -2.7182159  0.066725969    -3.997483    1.2792672      1024000 
  982000   0.99559375   -3.9984108   -3.9984108   -2.7166005  0.075892449   -3.9984108    1.2818103      1024000 
  983000   0.99338924   -3.9962847   -3.9962847   -2.7173127  0.076163982   -3.9962847     1.278972      1024000 
  984000   0.99462862   -3.9967421   -3.9967421   -2.7161744  0.082544946   -3.9967421    1.2805677      1024000 
  985000   0.99367701   -3.9988212   -3.9988212   -2.7194787  0.072253561   -3.9988212    1.2793425      1024000 
  986000   0.99326003   -3.9974072   -3.9974072   -2.7186015  0.078294783   -3.9974072    1.2788057      1024000 
  987000   0.99426898    -3.997488    -3.997488   -2.7173833   0.07169497    -3.997488    1.2801047      1024000 
  988000   0.99578482   -3.9989674   -3.9989674   -2.7169111  0.071850371   -3.9989674    1.2820563      1024000 
  989000   0.99348783    -3.998325    -3.998325   -2.7192261  0.063873439    -3.998325     1.279099      1024000 
  990000   0.99494945   -3.9966258   -3.9966258    -2.715645  0.078010365   -3.9966258    1.2809808      1024000 
  991000   0.99209693   -3.9941159   -3.9941159   -2.7168077  0.078882422   -3.9941159    1.2773082      1024000 
  992000   0.99357009   -3.9955834   -3.9955834   -2.7163786  0.064063273   -3.9955834    1.2792049      1024000 
  993000   0.99155771   -3.9946722   -3.9946722   -2.7180582  0.074956986   -3.9946722     1.276614      1024000 
  994000   0.99323903   -3.9978191   -3.9978191   -2.7190405  0.060095069   -3.9978191    1.2787786      1024000 
  995000   0.99244175   -3.9968422   -3.9968422   -2.7190901  0.067772826   -3.9968422    1.2777521      1024000 
  996000   0.99322368   -3.9956613   -3.9956613   -2.7169025  0.070237813   -3.9956613    1.2787589      1024000 
  997000   0.99350048   -3.9966295   -3.9966295   -2.7175142  0.063618158   -3.9966295    1.2791152      1024000 
  998000   0.99356395   -3.9959412   -3.9959412   -2.7167442  0.061769177   -3.9959412     1.279197      1024000 
  999000   0.99268479   -3.9942031   -3.9942031   -2.7161381    0.0724782   -3.9942031    1.2780651      1024000 
 1000000   0.99394342    -3.994978    -3.994978   -2.7152925  0.069291031    -3.994978    1.2796855      1024000 
Loop time of 202550 on 16 procs for 1000000 steps with 515430 atoms

Performance: 1066.401 tau/day, 4.937 timesteps/s
99.7% CPU use with 16 MPI tasks x 1 OpenMP threads

MPI task timing breakdown:
Section |  min time  |  avg time  |  max time  |%varavg|  %CPU | %total
-----------------------------------------------------------------------
Pair    | 74963      | 91010      | 1.1317e+05 |4159.2 |  99.8 | 44.93
Bond    | 0.60179    | 0.76107    | 0.93393    |  11.4 | 100.0 |  0.00
Neigh   | 24076      | 36371      | 50447      |3374.6 | 100.0 | 17.96
Comm    | 35754      | 70696      | 99693      |6509.1 |  99.4 | 34.90
Output  | 21.055     | 21.423     | 22.046     |   7.3 | 100.0 |  0.01
Modify  | 2399.6     | 3959.7     | 8107.1     |3800.2 |  99.0 |  1.95
Other   |            | 491.9      |            |       |       |  0.24

Nlocal:    32214.4 ave 33126 max 31139 min
Histogram: 1 1 0 0 2 7 2 2 0 1
Nghost:    48584 ave 57384 max 40301 min
Histogram: 8 0 0 0 0 0 0 0 4 4
Neighs:    4.4692e+06 ave 4.73494e+06 max 4.17411e+06 min
Histogram: 1 3 2 2 0 0 2 2 1 3

Total # of neighbors = 71507276
Ave neighs/atom = 138.733
Ave special neighs/atom = 0
Neighbor list builds = 65477
Dangerous builds = 0
Total wall time: 56:15:56
