LAMMPS (29 Oct 2020)
  using 1 OpenMP thread(s) per MPI task
# Simple rigid body system
# needed variables:

#variable	startTemp equal 0.5
#variable 	temp 	  equal 0.8

units		lj
atom_style	full
dimension 	3
boundary	p p f
pair_style	lj/cut/opt 2.5


variable 	sigma		equal 1.0
variable 	epsilon 	equal 1.0

region		box block 0 100 0 100 0 200
create_box 	3 box
Created orthogonal box = (0.0000000 0.0000000 0.0000000) to (100.00000 100.00000 200.00000)
  4 by 5 by 12 MPI processor grid
lattice 	sc 1.0
Lattice spacing in x,y,z = 1.0000000 1.0000000 1.0000000

region		create block EDGE EDGE EDGE EDGE 2 102
create_atoms 	1 region create
Created 1010000 atoms
  create_atoms CPU = 0.321 seconds

mass		1 1.0
mass		2 1.0
mass		3 1.0

group		solvent type 1
1010000 atoms in group solvent

velocity 	solvent create ${startTemp} 563435 loop geom
velocity 	solvent create 0.8 563435 loop geom


neighbor 	0.4 bin

pair_coeff	1 1 1.0 1.0
pair_coeff	2 2 0.0 0.0
pair_coeff	3 3 0.0 0.0
pair_coeff	2 3 0.0 0.0
pair_coeff	1 2*3 0.0 0.0

pair_modify 	shift yes


balance 	1.05 shift z 10 1.05
Balancing ...
Neighbor list info ...
  update every 1 steps, delay 10 steps, check yes
  max neighbors/atom: 2000, page size: 100000
  master list distance cutoff = 2.9
  ghost atom cutoff = 2.9
  binsize = 1.45, bins = 69 69 138
  1 neighbor lists, perpetual/occasional/extra = 1 0 0
  (1) pair lj/cut/opt, perpetual
      attributes: half, newton on
      pair build: half/bin/newton
      stencil: half/bin/3d/newton
      bin: standard
 rebalancing time: 0.865 seconds
  iteration count = 5
  initial/final maximal load/proc = 8925.0000 5775.0000
  initial/final imbalance factor  = 2.1207921 1.3722772
  x cuts: 0.0000000 0.25 0.5 0.75 1.0000000
  y cuts: 0.0000000 0.2 0.4 0.6 0.8 1.0000000
  z cuts: 0.0000000 0.049479167 0.091145833 0.13020833 0.171875 0.22135417 0.2578125 0.30208333 0.34375 0.37239583 0.4296875 0.46354167 1.0000000


####################### WALLS ###########################


variable       epsilonWall equal 2*${epsilon}
variable       epsilonWall equal 2*1

variable       cutoffTop   equal   0.7147*${sigma}
variable       cutoffTop   equal   0.7147*1

variable       cutoffLow   equal   3*${sigma}
variable       cutoffLow   equal   3*1


fix            topWall all wall/lj93 zhi EDGE                ${epsilonWall} ${sigma} ${cutoffTop} units box
fix            topWall all wall/lj93 zhi EDGE                2 ${sigma} ${cutoffTop} units box
fix            topWall all wall/lj93 zhi EDGE                2 1 ${cutoffTop} units box
fix            topWall all wall/lj93 zhi EDGE                2 1 0.7147 units box

fix            lowWall all wall/lj93 zlo EDGE                ${epsilonWall} ${sigma} ${cutoffLow} units box
fix            lowWall all wall/lj93 zlo EDGE                2 ${sigma} ${cutoffLow} units box
fix            lowWall all wall/lj93 zlo EDGE                2 1 ${cutoffLow} units box
fix            lowWall all wall/lj93 zlo EDGE                2 1 3 units box


###################### COMPUTES ##########################

compute        bin1 solvent chunk/atom bin/1d z upper 1.0


######################	FIXES ############################


fix 		peclet solvent ave/chunk 1000 1 1000 bin1 density/number norm 		 none ave one file density.profile

fix 		 temp solvent ave/chunk 1000 1 1000 bin1 temp norm 		 none ave one file temp.profile

fix 		2 solvent nve


## Thermostat


region		regthermo block EDGE EDGE EDGE EDGE 0 20

group 		thermo dynamic solvent region regthermo every 1000
dynamic group thermo defined

fix 		3 thermo langevin ${startTemp} ${temp} 10 156453
fix 		3 thermo langevin 0.8 ${temp} 10 156453
fix 		3 thermo langevin 0.8 .9 10 156453



#### Load balancing


fix 		bal all balance 1000 1.05 shift z 10 1.05


############### Diagnostics and computes ###################
#compute 	com cube	  rigid/local	1 mol x y z
#compute 	quat cube	  rigid/local	1 mol quatw quati quatj quatk

thermo 		1000
thermo_style 	custom step temp epair evdwl etotal press pe ke atoms

dump		1 all custom 100000 dump.lammpstrj id mol type x y z
dump 		2 all image 10000 image.*.png type type
dump 		3 all movie 1000 movie.avi type type

#dump 		com cube local 1000 dump.*.xyz c_com[*]
#dump		quat cube      local 1000 dump.*.quat c_quat[*]


restart 	1000000 restart.dat
timestep 	0.005
timer 		full
New timer settings: style=full  mode=nosync  timeout=off

run		3000000
Per MPI rank memory allocation (min/avg/max) = 9.581 | 9.852 | 10.35 Mbytes
Step Temp E_pair E_vdwl TotEng Press PotEng KinEng Atoms 
       0          0.8   -3.3050748   -3.3050748    -2.105076    8.8982699   -3.3050748    1.1999988  1010000 
    1000    1.5958542   -4.6781227   -4.6781227   -2.2843438    3.9567316   -4.6781227     2.393779  1010000 
    2000    1.5388181   -4.7444966   -4.7444966   -2.4362717    2.0462207   -4.7444966    2.3082249  1010000 
    3000    1.4747949   -4.6983841   -4.6983841    -2.486194   0.51415935   -4.6983841    2.2121901  1010000 
    4000    1.3524615   -4.4901943   -4.4901943   -2.4615041 -0.079452249   -4.4901943    2.0286902  1010000 
    5000    1.3063896    -4.383409    -4.383409   -2.4238265 -0.037860414    -4.383409    1.9595825  1010000 
    6000    1.3189501    -4.376757    -4.376757   -2.3983338   0.10014524    -4.376757    1.9784232  1010000 
    7000    1.3217056   -4.3682719   -4.3682719   -2.3857155   0.15221033   -4.3682719    1.9825565  1010000 
    8000    1.3263489   -4.3667599   -4.3667599   -2.3772386    0.1982995   -4.3667599    1.9895213  1010000 
    9000    1.3315459   -4.3700608   -4.3700608   -2.3727439   0.24690414   -4.3700608    1.9973169  1010000 
   10000    1.3332679   -4.3689458   -4.3689458   -2.3690459   0.27592583   -4.3689458    1.9998999  1010000 
   11000    1.3310955   -4.3636273   -4.3636273   -2.3669861   0.28762173   -4.3636273    1.9966412  1010000 
   12000     1.322071   -4.3512944   -4.3512944   -2.3681898    1.0651779   -4.3512944    1.9831046  1010000 
   13000     1.315027   -4.3408273   -4.3408273   -2.3682888    2.3204501   -4.3408273    1.9725385  1010000 
   14000    1.3266295   -4.3566831   -4.3566831   -2.3667409    2.2726573   -4.3566831    1.9899422  1010000 
   15000    1.3158766    -4.339302    -4.339302    -2.365489    1.4031826    -4.339302     1.973813  1010000 
   16000    1.2530924    -4.244297    -4.244297   -2.3646602   0.76625724    -4.244297    1.8796368  1010000 
   17000    1.1624472   -4.1081442   -4.1081442   -2.3644751   0.34906276   -4.1081442    1.7436691  1010000 
   18000    1.0776368   -3.9815596   -3.9815596    -2.365106   0.10292038   -3.9815596    1.6164536  1010000 
   19000    1.0235119   -3.9010855   -3.9010855   -2.3658191 0.0080338216   -3.9010855    1.5352664  1010000 
   20000    1.0003151   -3.8667871   -3.8667871   -2.3663159 -0.0017836977   -3.8667871    1.5004712  1010000 
   21000   0.99807303   -3.8634701   -3.8634701    -2.366362  0.020078092   -3.8634701    1.4971081  1010000 
   22000    1.0024078   -3.8710247   -3.8710247   -2.3674145  0.063971158   -3.8710247    1.5036101  1010000 
   23000     1.009441   -3.8835411   -3.8835411   -2.3693811   0.12024394   -3.8835411      1.51416  1010000 
   24000    1.0182654   -3.8997443   -3.8997443   -2.3723476   0.19156656   -3.8997443    1.5273967  1010000 
   25000    1.0310191   -3.9269242   -3.9269242   -2.3803971   0.26004514   -3.9269242    1.5465271  1010000 
   26000    1.0300935   -3.9400667   -3.9400667   -2.3949279   0.26502129   -3.9400667    1.5451388  1010000 
   27000    1.0134372    -3.933713    -3.933713   -2.4135586   0.19380645    -3.933713    1.5201543  1010000 
   28000   0.98994291   -3.9173694   -3.9173694   -2.4324565   0.11784257   -3.9173694    1.4849129  1010000 
   29000   0.97265621   -3.9115632   -3.9115632   -2.4525803  0.070388588   -3.9115632    1.4589829  1010000 
   30000   0.96097789   -3.9141216   -3.9141216   -2.4726562  0.058419248   -3.9141216    1.4414654  1010000 
   31000   0.95714191    -3.927743    -3.927743   -2.4920315  0.063193192    -3.927743    1.4357114  1010000 
   32000   0.96513246   -3.9550893   -3.9550893   -2.5073921   0.10173759   -3.9550893    1.4476973  1010000 
   33000    0.9810337   -3.9935296   -3.9935296   -2.5219805   0.15905592   -3.9935296    1.4715491  1010000 
   34000   0.99652495   -4.0319807   -4.0319807   -2.5371947   0.22460325   -4.0319807    1.4947859  1010000 
   35000    1.0129749   -4.0697862   -4.0697862   -2.5503254   0.30029243   -4.0697862    1.5194608  1010000 
   36000    1.0312045    -4.107373    -4.107373   -2.5605679   0.40032611    -4.107373    1.5468052  1010000 
   37000    1.0490221   -4.1435787   -4.1435787   -2.5700471   0.49756402   -4.1435787    1.5735316  1010000 
   38000    1.0574679   -4.1706063   -4.1706063    -2.584406   0.56070018   -4.1706063    1.5862003  1010000 
   39000     1.049139   -4.1815448   -4.1815448   -2.6078379   0.58484788   -4.1815448    1.5737069  1010000 
   40000    1.0353965   -4.1900604   -4.1900604   -2.6369673   0.56574122   -4.1900604    1.5530932  1010000 
   41000    1.0215156   -4.1948372   -4.1948372   -2.6625653   0.54587971   -4.1948372    1.5322718  1010000 
   42000     1.013231   -4.2024121   -4.2024121    -2.682567   0.51793781   -4.2024121    1.5198451  1010000 
   43000    1.0065127   -4.2054234   -4.2054234   -2.6956559   0.48566083   -4.2054234    1.5097675  1010000 
   44000   0.99746435   -4.1978125   -4.1978125   -2.7016174   0.43956315   -4.1978125     1.496195  1010000 
   45000   0.97807905   -4.1711863   -4.1711863   -2.7040691   0.34905909   -4.1711863    1.4671171  1010000 
   46000   0.95522002   -4.1340834   -4.1340834   -2.7012548   0.23702653   -4.1340834    1.4328286  1010000 
   47000    0.9316177    -4.095807    -4.095807   -2.6983818   0.13672862    -4.095807    1.3974252  1010000 
   48000    0.9088187   -4.0588125   -4.0588125   -2.6955858  0.060386454   -4.0588125    1.3632267  1010000 
   49000   0.89102065   -4.0302582   -4.0302582   -2.6937286 0.0065562514   -4.0302582    1.3365296  1010000 
   50000   0.87734831   -4.0058508   -4.0058508   -2.6898297 -0.025103351   -4.0058508    1.3160212  1010000 
   51000   0.86751541   -3.9868284   -3.9868284   -2.6855566 -0.047731152   -3.9868284    1.3012718  1010000 
   52000   0.86399406   -3.9754657   -3.9754657   -2.6794759 -0.050280146   -3.9754657    1.2959898  1010000 
   53000   0.86533517   -3.9714759   -3.9714759   -2.6734744 -0.040577031   -3.9714759    1.2980015  1010000 
   54000   0.87109305   -3.9740246   -3.9740246   -2.6673863 -0.021864833   -3.9740246    1.3066383  1010000 
   55000     0.877048   -3.9792379   -3.9792379   -2.6636672 -0.0011254292   -3.9792379    1.3155707  1010000 
   56000   0.88297395   -3.9854946   -3.9854946    -2.661035  0.016644475   -3.9854946    1.3244596  1010000 
   57000   0.88517181   -3.9886053   -3.9886053   -2.6608488  0.023720718   -3.9886053    1.3277564  1010000 
   58000   0.88499268   -3.9900631   -3.9900631   -2.6625754  0.021328432   -3.9900631    1.3274877  1010000 
   59000   0.88267484    -3.989059    -3.989059    -2.665048  0.022500338    -3.989059    1.3240109  1010000 
   60000   0.88075074    -3.989941    -3.989941   -2.6688162  0.012347953    -3.989941    1.3211248  1010000 
   61000   0.87890775   -3.9893647   -3.9893647   -2.6710044   0.01029363   -3.9893647    1.3183603  1010000 
   62000   0.87968702   -3.9926381   -3.9926381   -2.6731088  0.012153579   -3.9926381    1.3195292  1010000 
   63000   0.88193807   -3.9979598   -3.9979598    -2.675054  0.026087798   -3.9979598    1.3229058  1010000 
   64000    0.8835125   -4.0009477   -4.0009477   -2.6756803  0.034146318   -4.0009477    1.3252674  1010000 
   65000   0.88378391   -4.0031469   -4.0031469   -2.6774723  0.037709633   -4.0031469    1.3256746  1010000 
   66000   0.88462459    -4.004722    -4.004722   -2.6777865  0.038345088    -4.004722    1.3269356  1010000 
   67000    0.8822096   -4.0027148   -4.0027148   -2.6794017  0.032338156   -4.0027148    1.3233131  1010000 
   68000   0.87959533   -4.0005681   -4.0005681   -2.6811764  0.028829071   -4.0005681    1.3193917  1010000 
   69000   0.87804703    -4.000171    -4.000171   -2.6831018  0.018681166    -4.000171    1.3170692  1010000 
   70000   0.87774166    -4.000184    -4.000184   -2.6835728   0.01802746    -4.000184    1.3166112  1010000 
   71000   0.87864092   -4.0028803   -4.0028803   -2.6849202  0.022340056   -4.0028803    1.3179601  1010000 
   72000   0.87956257   -4.0059823   -4.0059823   -2.6866398  0.031033214   -4.0059823    1.3193426  1010000 
   73000   0.88057397   -4.0085065   -4.0085065   -2.6876468  0.037254609   -4.0085065    1.3208597  1010000 
   74000   0.88063174    -4.009155    -4.009155   -2.6882087  0.043080355    -4.009155    1.3209463  1010000 
   75000   0.87979019   -4.0098352   -4.0098352   -2.6901513  0.038814689   -4.0098352     1.319684  1010000 
   76000   0.87867351   -4.0091915   -4.0091915   -2.6911826  0.035220362   -4.0091915     1.318009  1010000 
   77000   0.87798329   -4.0088375   -4.0088375   -2.6918639  0.033823251   -4.0088375    1.3169736  1010000 
   78000   0.87879379   -4.0094558   -4.0094558   -2.6912664  0.039967348   -4.0094558    1.3181894  1010000 
   79000   0.88033052   -4.0138944   -4.0138944   -2.6933999   0.04383417   -4.0138944    1.3204945  1010000 
   80000   0.88679712    -4.024952    -4.024952   -2.6947577  0.075460697    -4.024952    1.3301944  1010000 
   81000   0.89806931   -4.0429312   -4.0429312   -2.6958286   0.13039711   -4.0429312    1.3471026  1010000 
   82000   0.91197415   -4.0646981   -4.0646981   -2.6967382   0.19452279   -4.0646981    1.3679599  1010000 
   83000   0.92213041   -4.0812558   -4.0812558   -2.6980616   0.25120269   -4.0812558    1.3831942  1010000 
   84000   0.92668066   -4.0887255   -4.0887255   -2.6987059   0.26682098   -4.0887255    1.3900196  1010000 
   85000   0.92043422   -4.0795399   -4.0795399   -2.6988899   0.22946317   -4.0795399      1.38065  1010000 
   86000   0.90896782   -4.0639498   -4.0639498   -2.7004994    0.1658435   -4.0639498    1.3634504  1010000 
   87000   0.89472764   -4.0435298   -4.0435298   -2.7014396   0.11503547   -4.0435298    1.3420901  1010000 
   88000   0.88343859   -4.0277568   -4.0277568   -2.7026002   0.06625662   -4.0277568    1.3251566  1010000 
   89000   0.87544825   -4.0161888   -4.0161888   -2.7030178  0.032116706   -4.0161888    1.3131711  1010000 
   90000   0.87069266   -4.0100888   -4.0100888   -2.7040511  0.012591695   -4.0100888    1.3060377  1010000 
   91000   0.86795445   -4.0060428   -4.0060428   -2.7041124  0.011199463   -4.0060428    1.3019304  1010000 
   92000   0.86810665   -4.0074468   -4.0074468   -2.7052881  0.017893046   -4.0074468    1.3021587  1010000 
   93000   0.86973972   -4.0114968   -4.0114968   -2.7068885  0.019735719   -4.0114968    1.3046083  1010000 
   94000   0.87245533   -4.0163149   -4.0163149   -2.7076332  0.031642931   -4.0163149    1.3086817  1010000 
   95000   0.87585865   -4.0216265   -4.0216265   -2.7078398  0.042116211   -4.0216265    1.3137867  1010000 
   96000   0.87708008   -4.0250089   -4.0250089     -2.70939  0.048038215   -4.0250089    1.3156188  1010000 
   97000   0.87644864   -4.0249731   -4.0249731   -2.7103014  0.053169031   -4.0249731    1.3146717  1010000 
   98000   0.87619304    -4.025977    -4.025977   -2.7116887  0.042642166    -4.025977    1.3142883  1010000 
   99000    0.8721246   -4.0215596   -4.0215596    -2.713374  0.034399768   -4.0215596    1.3081856  1010000 
  100000   0.86884384   -4.0170763   -4.0170763   -2.7138118  0.023821664   -4.0170763    1.3032645  1010000 
  101000   0.86727954   -4.0157469   -4.0157469   -2.7148289  0.019529663   -4.0157469     1.300918  1010000 
  102000   0.86557163   -4.0142616   -4.0142616   -2.7159055  0.016313167   -4.0142616    1.2983562  1010000 
  103000   0.86710353    -4.016872    -4.016872    -2.716218  0.016093002    -4.016872     1.300654  1010000 
  104000   0.86842605   -4.0199432   -4.0199432   -2.7173054  0.029456227   -4.0199432    1.3026378  1010000 
  105000   0.87001649   -4.0234447   -4.0234447   -2.7184212  0.034550361   -4.0234447    1.3050234  1010000 
  106000   0.87319719   -4.0287666   -4.0287666   -2.7189721  0.041911184   -4.0287666    1.3097945  1010000 
  107000   0.87360324   -4.0305891   -4.0305891   -2.7201855  0.045951542   -4.0305891    1.3104036  1010000 
  108000   0.87405634   -4.0320141   -4.0320141   -2.7209308  0.046446157   -4.0320141    1.3110832  1010000 
  109000   0.87181773   -4.0294827   -4.0294827   -2.7217574  0.038440504   -4.0294827    1.3077253  1010000 
  110000   0.87035893   -4.0279045   -4.0279045   -2.7223674  0.033020768   -4.0279045    1.3055371  1010000 
  111000   0.86805236   -4.0251962   -4.0251962    -2.723119  0.025597745   -4.0251962    1.3020773  1010000 
  112000   0.86607702   -4.0229824   -4.0229824   -2.7238682  0.019342967   -4.0229824    1.2991142  1010000 
  113000   0.86627633   -4.0242877   -4.0242877   -2.7248745  0.018576534   -4.0242877    1.2994132  1010000 
  114000   0.86616536   -4.0252385   -4.0252385   -2.7259918  0.023616605   -4.0252385    1.2992468  1010000 
  115000    0.8684208   -4.0293142   -4.0293142   -2.7266843  0.027996777   -4.0293142    1.3026299  1010000 
  116000   0.87001806    -4.032213    -4.032213   -2.7271872   0.03751212    -4.032213    1.3050258  1010000 
  117000   0.87149509   -4.0353065   -4.0353065   -2.7280651  0.042069263   -4.0353065    1.3072413  1010000 
  118000   0.87169877   -4.0365782   -4.0365782   -2.7290313  0.039275731   -4.0365782    1.3075469  1010000 
  119000   0.87136069   -4.0375036   -4.0375036   -2.7304638  0.033844213   -4.0375036    1.3070397  1010000 
  120000   0.86988025    -4.035789    -4.035789   -2.7309699  0.032694172    -4.035789    1.3048191  1010000 
  121000   0.86868435   -4.0349311   -4.0349311   -2.7319059  0.026226854   -4.0349311    1.3030252  1010000 
  122000   0.86707502   -4.0337037   -4.0337037   -2.7330925  0.024491194   -4.0337037    1.3006112  1010000 
  123000   0.86687176   -4.0347694   -4.0347694   -2.7344631  0.024750842   -4.0347694    1.3003063  1010000 
  124000   0.86615497   -4.0333735   -4.0333735   -2.7341423  0.025079005   -4.0333735    1.2992312  1010000 
  125000   0.86735959    -4.036643    -4.036643   -2.7356049  0.026245543    -4.036643    1.3010381  1010000 
  126000   0.86866029     -4.03872     -4.03872   -2.7357308  0.034070517     -4.03872    1.3029891  1010000 
  127000   0.86877618   -4.0395755   -4.0395755   -2.7364126  0.036075571   -4.0395755     1.303163  1010000 
  128000   0.86922979   -4.0413978   -4.0413978   -2.7375544  0.035034071   -4.0413978    1.3038434  1010000 
  129000   0.86976033   -4.0428965   -4.0428965   -2.7382573  0.037289381   -4.0428965    1.3046392  1010000 
  130000   0.87007305   -4.0435135   -4.0435135   -2.7384052  0.038996288   -4.0435135    1.3051083  1010000 
  131000   0.86823201    -4.041371    -4.041371   -2.7390242  0.033867834    -4.041371    1.3023467  1010000 
  132000   0.86657757   -4.0404498   -4.0404498   -2.7405847  0.025028363   -4.0404498    1.2998651  1010000 
  133000   0.86509899   -4.0393097   -4.0393097   -2.7416625  0.025640522   -4.0393097    1.2976472  1010000 
  134000   0.86562143   -4.0399647   -4.0399647   -2.7415338  0.021790667   -4.0399647    1.2984309  1010000 
  135000   0.86581786   -4.0416154   -4.0416154   -2.7428899  0.027855895   -4.0416154    1.2987255  1010000 
  136000   0.86643937   -4.0441018   -4.0441018    -2.744444  0.026510235   -4.0441018    1.2996578  1010000 
  137000   0.86728899   -4.0465134   -4.0465134   -2.7455812  0.032711894   -4.0465134    1.3009322  1010000 
  138000   0.86804084   -4.0481752   -4.0481752   -2.7461153  0.036160567   -4.0481752      1.30206  1010000 
  139000    0.8688966    -4.050128    -4.050128   -2.7467844  0.038299038    -4.050128    1.3033436  1010000 
  140000   0.86817361   -4.0511944   -4.0511944   -2.7489353  0.033294755   -4.0511944    1.3022591  1010000 
  141000   0.86746802   -4.0495715   -4.0495715   -2.7483708  0.037068112   -4.0495715    1.3012007  1010000 
  142000   0.86603186   -4.0491078   -4.0491078   -2.7500613  0.031448562   -4.0491078    1.2990465  1010000 
  143000    0.8657561   -4.0494454   -4.0494454   -2.7508126  0.029763634   -4.0494454    1.2986329  1010000 
  144000   0.86438103   -4.0479647   -4.0479647   -2.7513945  0.023695919   -4.0479647    1.2965703  1010000 
  145000   0.86435401   -4.0478554   -4.0478554   -2.7513257  0.026665886   -4.0478554    1.2965297  1010000 
  146000   0.86571678     -4.05064     -4.05064   -2.7520662  0.022436529     -4.05064    1.2985739  1010000 
  147000   0.86491132   -4.0497509   -4.0497509   -2.7523852  0.027552859   -4.0497509    1.2973657  1010000 
  148000   0.86655477   -4.0532366   -4.0532366   -2.7534057  0.026852372   -4.0532366    1.2998309  1010000 
  149000   0.86627886    -4.054299    -4.054299    -2.754882  0.028863888    -4.054299     1.299417  1010000 
  150000   0.86575222   -4.0546019   -4.0546019   -2.7559749  0.032940611   -4.0546019     1.298627  1010000 
  151000   0.86657356   -4.0564344   -4.0564344   -2.7565753  0.033215788   -4.0564344     1.299859  1010000 
  152000   0.86594116    -4.056233    -4.056233   -2.7573225  0.033371645    -4.056233    1.2989104  1010000 
  153000   0.86536868    -4.056862    -4.056862   -2.7588102  0.031917413    -4.056862    1.2980517  1010000 
  154000   0.86537051   -4.0573303   -4.0573303   -2.7592758  0.025278255   -4.0573303    1.2980545  1010000 
  155000   0.86519975   -4.0584391   -4.0584391   -2.7606408  0.023243789   -4.0584391    1.2977983  1010000 
  156000   0.86380455    -4.057633    -4.057633   -2.7619274  0.022481736    -4.057633    1.2957055  1010000 
  157000   0.86346818   -4.0577684   -4.0577684   -2.7625674  0.024624658   -4.0577684     1.295201  1010000 
  158000    0.8643416   -4.0591446   -4.0591446   -2.7626335  0.024326121   -4.0591446    1.2965111  1010000 
  159000    0.8642533   -4.0602393   -4.0602393   -2.7638606   0.02730036   -4.0602393    1.2963787  1010000 
  160000   0.86516545   -4.0624754   -4.0624754   -2.7647285  0.028357438   -4.0624754    1.2977469  1010000 
  161000   0.86469033   -4.0614637   -4.0614637   -2.7644294  0.031073122   -4.0614637    1.2970342  1010000 
  162000   0.86501631   -4.0629169   -4.0629169   -2.7653938  0.027067407   -4.0629169    1.2975232  1010000 
  163000   0.86478937   -4.0634352   -4.0634352   -2.7662525  0.028892908   -4.0634352    1.2971828  1010000 
  164000   0.86566124   -4.0645747   -4.0645747   -2.7660841  0.026843052   -4.0645747    1.2984906  1010000 
  165000     0.863872   -4.0625587   -4.0625587    -2.766752   0.02882538   -4.0625587    1.2958067  1010000 
  166000   0.86351321   -4.0628663   -4.0628663   -2.7675977  0.023432561   -4.0628663    1.2952685  1010000 
  167000   0.86245077   -4.0621628   -4.0621628   -2.7684879  0.025598831   -4.0621628    1.2936749  1010000 
  168000   0.86190389   -4.0619883   -4.0619883   -2.7691337  0.026741758   -4.0619883    1.2928546  1010000 
  169000   0.86308849     -4.06436     -4.06436   -2.7697286  0.023098894     -4.06436    1.2946315  1010000 
  170000   0.86308938   -4.0649847   -4.0649847   -2.7703519  0.028065585   -4.0649847    1.2946328  1010000 
  171000   0.86349286   -4.0668234   -4.0668234   -2.7715854  0.026582873   -4.0668234     1.295238  1010000 
  172000   0.86368675   -4.0684271   -4.0684271   -2.7728982  0.026377448   -4.0684271    1.2955288  1010000 
  173000   0.86306596   -4.0690676   -4.0690676   -2.7744699  0.028399047   -4.0690676    1.2945977  1010000 
  174000   0.86259015    -4.069908    -4.069908    -2.776024   0.02761419    -4.069908    1.2938839  1010000 
  175000   0.86284407   -4.0708706   -4.0708706   -2.7766058  0.023979479   -4.0708706    1.2942648  1010000 
  176000   0.86190163   -4.0702564   -4.0702564   -2.7774053  0.021806759   -4.0702564    1.2928512  1010000 
  177000   0.86167818   -4.0705643   -4.0705643   -2.7780483  0.019853962   -4.0705643     1.292516  1010000 
  178000   0.86208239   -4.0721877   -4.0721877   -2.7790654  0.020930658   -4.0721877    1.2931223  1010000 
  179000   0.86154412   -4.0715875   -4.0715875   -2.7792726  0.024430386   -4.0715875    1.2923149  1010000 
  180000   0.86304409   -4.0748103   -4.0748103   -2.7802455  0.022555184   -4.0748103    1.2945648  1010000 
  181000   0.86169424   -4.0737286   -4.0737286   -2.7811885  0.025733716   -4.0737286    1.2925401  1010000 
  182000   0.86253423   -4.0759797   -4.0759797   -2.7821797  0.022781566   -4.0759797    1.2938001  1010000 
  183000   0.86137755   -4.0753192   -4.0753192   -2.7832541  0.021801706   -4.0753192     1.292065  1010000 
  184000   0.86148832   -4.0759094   -4.0759094   -2.7836782  0.023546386   -4.0759094    1.2922312  1010000 
  185000   0.86123974   -4.0758437   -4.0758437   -2.7839854  0.026662405   -4.0758437    1.2918583  1010000 
  186000   0.86158294   -4.0762166   -4.0762166   -2.7838434  0.024799483   -4.0762166    1.2923731  1010000 
  187000   0.86084564   -4.0759434   -4.0759434   -2.7846763  0.023916747   -4.0759434    1.2912672  1010000 
  188000   0.86125302   -4.0773672   -4.0773672   -2.7854889   0.02179542   -4.0773672    1.2918782  1010000 
  189000    0.8598016   -4.0766499   -4.0766499   -2.7869488   0.02065542   -4.0766499    1.2897011  1010000 
  190000   0.86010611   -4.0777943   -4.0777943   -2.7876364  0.018430239   -4.0777943    1.2901579  1010000 
  191000   0.86079474   -4.0791957   -4.0791957   -2.7880049  0.017220159   -4.0791957    1.2911908  1010000 
  192000   0.85991402   -4.0780413   -4.0780413   -2.7881715   0.01834037   -4.0780413    1.2898697  1010000 
  193000   0.86001132   -4.0793419   -4.0793419   -2.7893262  0.020504955   -4.0793419    1.2900157  1010000 
  194000   0.86001205   -4.0808321   -4.0808321   -2.7908153  0.019362925   -4.0808321    1.2900168  1010000 
  195000   0.85979542   -4.0809858   -4.0809858   -2.7912939  0.019688572   -4.0809858    1.2896918  1010000 
  196000   0.85998729   -4.0808992   -4.0808992   -2.7909195  0.020336077   -4.0808992    1.2899797  1010000 
  197000   0.86007929   -4.0815435   -4.0815435   -2.7914258  0.018913311   -4.0815435    1.2901177  1010000 
  198000   0.86083593   -4.0821835   -4.0821835   -2.7909309  0.020665904   -4.0821835    1.2912526  1010000 
  199000   0.85972792   -4.0813644   -4.0813644   -2.7917738  0.023141763   -4.0813644    1.2895906  1010000 
  200000   0.85937553    -4.081501    -4.081501    -2.792439  0.022203309    -4.081501     1.289062  1010000 
  201000   0.85898036   -4.0810631   -4.0810631   -2.7925938  0.017791133   -4.0810631    1.2884693  1010000 
  202000   0.85952682   -4.0821154   -4.0821154   -2.7928265  0.017484339   -4.0821154     1.289289  1010000 
  203000   0.85900546   -4.0828794   -4.0828794   -2.7943725   0.01508708   -4.0828794    1.2885069  1010000 
  204000    0.8586498   -4.0820567   -4.0820567   -2.7940832     0.018588   -4.0820567    1.2879734  1010000 
  205000   0.85785759   -4.0821241   -4.0821241    -2.795339  0.018893131   -4.0821241    1.2867851  1010000 
  206000   0.85906245   -4.0847657   -4.0847657   -2.7961733  0.019836538   -4.0847657    1.2885924  1010000 
  207000   0.85826334   -4.0838434   -4.0838434   -2.7964497  0.021266082   -4.0838434    1.2873937  1010000 
  208000   0.85961327   -4.0860125   -4.0860125   -2.7965939  0.019348303   -4.0860125    1.2894186  1010000 
  209000   0.85879331   -4.0857992   -4.0857992   -2.7976105  0.016517241   -4.0857992    1.2881887  1010000 
  210000   0.85938738   -4.0879938   -4.0879938   -2.7989141  0.016388466   -4.0879938    1.2890798  1010000 
  211000   0.85814594   -4.0869093   -4.0869093   -2.7996917  0.018894524   -4.0869093    1.2872176  1010000 
  212000   0.85797602   -4.0860664   -4.0860664   -2.7991037   0.02151474   -4.0860664    1.2869628  1010000 
  213000   0.85815294    -4.086511    -4.086511   -2.7992829  0.019171116    -4.086511    1.2872281  1010000 
  214000    0.8585633   -4.0873563   -4.0873563   -2.7995126  0.016641618   -4.0873563    1.2878437  1010000 
  215000   0.85778695   -4.0863506   -4.0863506   -2.7996715  0.012089781   -4.0863506    1.2866791  1010000 
  216000   0.85797445   -4.0866874   -4.0866874    -2.799727  0.015022336   -4.0866874    1.2869604  1010000 
  217000   0.85713521   -4.0865649   -4.0865649   -2.8008633  0.017444996   -4.0865649    1.2857015  1010000 
  218000   0.85791127   -4.0881741   -4.0881741   -2.8013085  0.017128282   -4.0881741    1.2868656  1010000 
  219000   0.85814374   -4.0886725   -4.0886725   -2.8014582  0.018275975   -4.0886725    1.2872143  1010000 
  220000   0.85772351   -4.0895545   -4.0895545   -2.8029705  0.018298822   -4.0895545     1.286584  1010000 
  221000   0.85838428   -4.0898853   -4.0898853   -2.8023101  0.023372793   -4.0898853    1.2875751  1010000 
  222000   0.85760798   -4.0897411   -4.0897411   -2.8033304  0.020348127   -4.0897411    1.2864107  1010000 
  223000   0.85725574   -4.0901696   -4.0901696   -2.8042872  0.019360715   -4.0901696    1.2858823  1010000 
  224000    0.8574886   -4.0906163   -4.0906163   -2.8043847   0.01712663   -4.0906163    1.2862316  1010000 
  225000   0.85788142   -4.0916679   -4.0916679   -2.8048471  0.018643435   -4.0916679    1.2868209  1010000 
  226000   0.85612103   -4.0903525   -4.0903525   -2.8061722  0.014693223   -4.0903525    1.2841803  1010000 
  227000   0.85645815   -4.0905738   -4.0905738   -2.8058878  0.015514868   -4.0905738     1.284686  1010000 
  228000   0.85650048   -4.0914622   -4.0914622   -2.8067128  0.013216725   -4.0914622    1.2847494  1010000 
  229000   0.85702483   -4.0928305   -4.0928305   -2.8072945  0.016898023   -4.0928305     1.285536  1010000 
  230000   0.85619763   -4.0923689   -4.0923689   -2.8080737  0.017204853   -4.0923689    1.2842952  1010000 
  231000   0.85616506   -4.0922578   -4.0922578   -2.8080115  0.017534955   -4.0922578    1.2842463  1010000 
  232000   0.85659764   -4.0937593   -4.0937593   -2.8088641  0.016290029   -4.0937593    1.2848952  1010000 
  233000    0.8551964    -4.092534    -4.092534   -2.8097407  0.016416363    -4.092534    1.2827933  1010000 
  234000   0.85517717   -4.0937717   -4.0937717   -2.8110072  0.017201996   -4.0937717    1.2827645  1010000 
  235000    0.8556423   -4.0952924   -4.0952924   -2.8118302   0.01469797   -4.0952924    1.2834622  1010000 
  236000   0.85619193   -4.0968528   -4.0968528   -2.8125662  0.014744175   -4.0968528    1.2842866  1010000 
  237000   0.85613718   -4.0977823   -4.0977823   -2.8135778  0.015029393   -4.0977823    1.2842045  1010000 
  238000    0.8553687   -4.0974455   -4.0974455   -2.8143937  0.018132377   -4.0974455    1.2830518  1010000 
  239000   0.85618951     -4.09907     -4.09907    -2.814787  0.015470903     -4.09907     1.284283  1010000 
  240000   0.85505069   -4.0976088   -4.0976088    -2.815034  0.019204875   -4.0976088    1.2825748  1010000 
  241000   0.85592854   -4.0986472   -4.0986472   -2.8147557  0.021153398   -4.0986472    1.2838915  1010000 
  242000   0.85564163   -4.0993353   -4.0993353   -2.8158741  0.015249565   -4.0993353    1.2834612  1010000 
  243000   0.85463949   -4.0985784   -4.0985784   -2.8166204  0.017082053   -4.0985784     1.281958  1010000 
  244000   0.85561439   -4.0999803   -4.0999803     -2.81656  0.014175518   -4.0999803    1.2834203  1010000 
  245000   0.85431389   -4.0990169   -4.0990169   -2.8175473   0.01419111   -4.0990169    1.2814696  1010000 
  246000   0.85488716   -4.0998268   -4.0998268   -2.8174974  0.018114612   -4.0998268    1.2823295  1010000 
  247000   0.85518788   -4.1013892   -4.1013892   -2.8186086  0.016555361   -4.1013892    1.2827805  1010000 
  248000   0.85367929    -4.100574    -4.100574   -2.8200563  0.014661745    -4.100574    1.2805177  1010000 
  249000   0.85422039   -4.1023098   -4.1023098   -2.8209804  0.013691582   -4.1023098    1.2813293  1010000 
  250000   0.85436213   -4.1028443   -4.1028443   -2.8213024  0.017009675   -4.1028443    1.2815419  1010000 
  251000   0.85475319   -4.1041737   -4.1041737   -2.8220451  0.015199532   -4.1041737    1.2821285  1010000 
  252000   0.85511159   -4.1046569   -4.1046569   -2.8219908  0.017621176   -4.1046569    1.2826661  1010000 
  253000   0.85543484   -4.1054021   -4.1054021   -2.8222511  0.016873793   -4.1054021     1.283151  1010000 
  254000   0.85492893   -4.1055323   -4.1055323   -2.8231402  0.017071081   -4.1055323    1.2823921  1010000 
  255000   0.85397302   -4.1042937   -4.1042937   -2.8233354  0.022071917   -4.1042937    1.2809583  1010000 
  256000   0.85509342   -4.1053218   -4.1053218    -2.822683  0.016391447   -4.1053218    1.2826389  1010000 
  257000   0.85468529   -4.1056853   -4.1056853   -2.8236586  0.016648471   -4.1056853    1.2820267  1010000 
  258000   0.85402533   -4.1059914   -4.1059914   -2.8249547  0.012554319   -4.1059914    1.2810367  1010000 
  259000   0.85233959   -4.1040841   -4.1040841    -2.825576  0.015562236   -4.1040841    1.2785081  1010000 
  260000   0.85324208    -4.105577    -4.105577   -2.8257152  0.014730362    -4.105577    1.2798618  1010000 
  261000   0.85364274   -4.1067527   -4.1067527   -2.8262899  0.013634595   -4.1067527    1.2804628  1010000 
  262000   0.85401158   -4.1077215   -4.1077215   -2.8267053  0.017900778   -4.1077215    1.2810161  1010000 
  263000   0.85533563   -4.1099771   -4.1099771   -2.8269749  0.015521759   -4.1099771    1.2830022  1010000 
  264000   0.85457671    -4.108808    -4.108808   -2.8269442  0.017787315    -4.108808    1.2818638  1010000 
  265000   0.85363798    -4.107177    -4.107177   -2.8267213  0.016303125    -4.107177    1.2804557  1010000 
  266000   0.85424534   -4.1089129   -4.1089129   -2.8275462  0.016623877   -4.1089129    1.2813667  1010000 
  267000   0.85281725   -4.1072028   -4.1072028   -2.8279782  0.017982267   -4.1072028    1.2792246  1010000 
  268000   0.85351461    -4.108232    -4.108232   -2.8279614  0.012743194    -4.108232    1.2802706  1010000 
  269000    0.8531147    -4.108427    -4.108427   -2.8287562  0.014367689    -4.108427    1.2796708  1010000 
  270000   0.85331657   -4.1083728   -4.1083728   -2.8283992  0.014140931   -4.1083728    1.2799736  1010000 
  271000    0.8534044   -4.1093363   -4.1093363   -2.8292309    0.0188819   -4.1093363    1.2801053  1010000 
  272000   0.85429418   -4.1113064   -4.1113064   -2.8298664  0.015725173   -4.1113064      1.28144  1010000 
  273000   0.85482014   -4.1126673   -4.1126673   -2.8304383  0.014827687   -4.1126673    1.2822289  1010000 
  274000   0.85363847   -4.1121368   -4.1121368   -2.8316804  0.016453629   -4.1121368    1.2804564  1010000 
  275000   0.85379187   -4.1127691   -4.1127691   -2.8320825   0.01881512   -4.1127691    1.2806865  1010000 
  276000   0.85447304   -4.1141228   -4.1141228   -2.8324145  0.017996873   -4.1141228    1.2817083  1010000 
  277000   0.85422065   -4.1145436   -4.1145436   -2.8332139  0.018912703   -4.1145436    1.2813297  1010000 
  278000   0.85348317   -4.1138466   -4.1138466   -2.8336231  0.013905516   -4.1138466    1.2802235  1010000 
  279000   0.85351478   -4.1144113   -4.1144113   -2.8341404  0.015345074   -4.1144113    1.2802709  1010000 
  280000   0.85248557   -4.1139941   -4.1139941    -2.835267  0.016686837   -4.1139941    1.2787271  1010000 
  281000   0.85302178   -4.1149965   -4.1149965   -2.8354651  0.012819749   -4.1149965    1.2795314  1010000 
  282000   0.85363566   -4.1159084   -4.1159084   -2.8354561  0.011701748   -4.1159084    1.2804522  1010000 
  283000   0.85322834   -4.1162459   -4.1162459   -2.8364047  0.016407792   -4.1162459    1.2798412  1010000 
  284000   0.85304935   -4.1166812   -4.1166812   -2.8371085  0.012547524   -4.1166812    1.2795728  1010000 
  285000   0.85287117   -4.1166256   -4.1166256   -2.8373201  0.020627322   -4.1166256    1.2793055  1010000 
  286000   0.85329345   -4.1177148   -4.1177148   -2.8377758    0.0169573   -4.1177148    1.2799389  1010000 
  287000   0.85497318   -4.1199026   -4.1199026   -2.8374441  0.015868849   -4.1199026    1.2824585  1010000 
  288000   0.85412887   -4.1190594   -4.1190594   -2.8378674  0.020705443   -4.1190594     1.281192  1010000 
  289000    0.8536887   -4.1188446   -4.1188446   -2.8383128   0.02038956   -4.1188446    1.2805318  1010000 
  290000   0.85286664   -4.1174968   -4.1174968   -2.8381981  0.019550441   -4.1174968    1.2792987  1010000 
  291000   0.85292882   -4.1185239   -4.1185239    -2.839132  0.017797049   -4.1185239     1.279392  1010000 
  292000   0.85276494   -4.1193661   -4.1193661   -2.8402199  0.017158614   -4.1193661    1.2791462  1010000 
  293000   0.85267606   -4.1198318   -4.1198318    -2.840819  0.017483693   -4.1198318    1.2790128  1010000 
  294000    0.8530336    -4.120247    -4.120247   -2.8406979  0.016727438    -4.120247    1.2795491  1010000 
  295000   0.85319726   -4.1209655   -4.1209655   -2.8411709  0.015315353   -4.1209655    1.2797946  1010000 
  296000   0.85262954   -4.1206593   -4.1206593   -2.8417162  0.016565332   -4.1206593     1.278943  1010000 
  297000   0.85372713   -4.1222916   -4.1222916   -2.8417022  0.015491675   -4.1222916    1.2805894  1010000 
  298000   0.85397394   -4.1229197   -4.1229197   -2.8419601  0.017497104   -4.1229197    1.2809596  1010000 
  299000   0.85295517   -4.1226837   -4.1226837   -2.8432523  0.017189072   -4.1226837    1.2794315  1010000 
  300000   0.85319173   -4.1230154   -4.1230154   -2.8432291  0.019346537   -4.1230154    1.2797863  1010000 
  301000   0.85288119   -4.1228475   -4.1228475    -2.843527  0.020244673   -4.1228475    1.2793205  1010000 
  302000   0.85373404   -4.1240915   -4.1240915   -2.8434917  0.017107801   -4.1240915    1.2805998  1010000 
  303000   0.85093256   -4.1212591   -4.1212591   -2.8448615  0.021361675   -4.1212591    1.2763976  1010000 
  304000   0.85263419   -4.1237682   -4.1237682   -2.8448182  0.017700291   -4.1237682      1.27895  1010000 
  305000   0.85305951   -4.1254649   -4.1254649   -2.8458769  0.015529133   -4.1254649     1.279588  1010000 
  306000   0.85328283   -4.1256751   -4.1256751   -2.8457521  0.017356152   -4.1256751     1.279923  1010000 
  307000   0.85425585   -4.1280724   -4.1280724   -2.8466899  0.017437542   -4.1280724    1.2813825  1010000 
  308000   0.85405115   -4.1282733   -4.1282733   -2.8471979  0.016972209   -4.1282733    1.2810755  1010000 
  309000   0.85405443    -4.128323    -4.128323   -2.8472426  0.019174327    -4.128323    1.2810804  1010000 
  310000   0.85448639   -4.1294294   -4.1294294   -2.8477011  0.022941763   -4.1294294    1.2817283  1010000 
  311000   0.85365188   -4.1289459   -4.1289459   -2.8484693  0.019631505   -4.1289459    1.2804766  1010000 
  312000   0.85416712   -4.1305391   -4.1305391   -2.8492897  0.022648965   -4.1305391    1.2812494  1010000 
  313000   0.85400186   -4.1303717   -4.1303717   -2.8493702  0.021532384   -4.1303717    1.2810015  1010000 
  314000   0.85295686   -4.1293755   -4.1293755   -2.8499415  0.023362069   -4.1293755     1.279434  1010000 
  315000   0.85356726   -4.1305396   -4.1305396     -2.85019   0.01917349   -4.1305396    1.2803496  1010000 
  316000   0.85383884   -4.1315288   -4.1315288   -2.8507719  0.017691267   -4.1315288     1.280757  1010000 
  317000   0.85377098   -4.1318329   -4.1318329   -2.8511777  0.019517534   -4.1318329    1.2806552  1010000 
  318000   0.85396903   -4.1327135   -4.1327135   -2.8517612  0.020853008   -4.1327135    1.2809523  1010000 
  319000    0.8543941   -4.1333685   -4.1333685   -2.8517787  0.019475842   -4.1333685    1.2815899  1010000 
  320000   0.85413471   -4.1338294   -4.1338294   -2.8526286  0.024133582   -4.1338294    1.2812008  1010000 
  321000   0.85443018     -4.13472     -4.13472    -2.853076  0.020144918     -4.13472     1.281644  1010000 
  322000   0.85483845   -4.1352579   -4.1352579   -2.8530015  0.021094103   -4.1352579    1.2822564  1010000 
  323000   0.85516861   -4.1355034   -4.1355034   -2.8527518   0.02500207   -4.1355034    1.2827516  1010000 
  324000   0.85505663   -4.1359072   -4.1359072   -2.8533235  0.024737041   -4.1359072    1.2825837  1010000 
  325000   0.85403624   -4.1355298   -4.1355298   -2.8544767  0.024603866   -4.1355298    1.2810531  1010000 
  326000    0.8540458   -4.1366144   -4.1366144    -2.855547  0.024520447   -4.1366144    1.2810674  1010000 
  327000   0.85359055   -4.1369692   -4.1369692   -2.8565846  0.022597301   -4.1369692    1.2803846  1010000 
  328000   0.85462662   -4.1385926   -4.1385926   -2.8566539  0.025414911   -4.1385926    1.2819387  1010000 
  329000   0.85574711   -4.1400756   -4.1400756   -2.8564562  0.020214816   -4.1400756    1.2836194  1010000 
  330000   0.85466127   -4.1393326   -4.1393326   -2.8573419  0.023292056   -4.1393326    1.2819906  1010000 
  331000   0.85470956   -4.1396424   -4.1396424   -2.8575794  0.023695894   -4.1396424    1.2820631  1010000 
  332000   0.85490919   -4.1413305   -4.1413305    -2.858968  0.023659499   -4.1413305    1.2823625  1010000 
  333000   0.85516073   -4.1418017   -4.1418017   -2.8590619  0.025663607   -4.1418017    1.2827398  1010000 
  334000   0.85547332   -4.1417562   -4.1417562   -2.8585475   0.02921349   -4.1417562    1.2832087  1010000 
  335000   0.85500533   -4.1422434   -4.1422434   -2.8597367  0.034644636   -4.1422434    1.2825067  1010000 
  336000    0.8557683   -4.1448383   -4.1448383   -2.8611871  0.031179049   -4.1448383    1.2836512  1010000 
  337000   0.85506295   -4.1448675   -4.1448675   -2.8622743  0.029902471   -4.1448675    1.2825932  1010000 
  338000   0.85448329   -4.1452014   -4.1452014   -2.8634778  0.029367562   -4.1452014    1.2817237  1010000 
  339000   0.85498375   -4.1460833   -4.1460833    -2.863609  0.025862447   -4.1460833    1.2824743  1010000 
  340000   0.85497228   -4.1466334   -4.1466334   -2.8641762  0.026460119   -4.1466334    1.2824571  1010000 
  341000   0.85366347   -4.1454974   -4.1454974   -2.8650035  0.030005859   -4.1454974    1.2804939  1010000 
  342000   0.85380031   -4.1468983   -4.1468983   -2.8661991  0.026680994   -4.1468983    1.2806992  1010000 
  343000   0.85380122   -4.1479322   -4.1479322   -2.8672316  0.027975747   -4.1479322    1.2807006  1010000 
  344000   0.85290229   -4.1466101   -4.1466101   -2.8672579   0.02976833   -4.1466101    1.2793522  1010000 
  345000   0.85263453   -4.1461595   -4.1461595    -2.867209  0.027582313   -4.1461595    1.2789505  1010000 
  346000   0.85370466   -4.1477456   -4.1477456   -2.8671899  0.026053248   -4.1477456    1.2805557  1010000 
  347000   0.85309038   -4.1476923   -4.1476923    -2.868058  0.024621542   -4.1476923    1.2796343  1010000 
  348000   0.85283768   -4.1474616   -4.1474616   -2.8682064  0.025351199   -4.1474616    1.2792553  1010000 
  349000   0.85229845   -4.1474207   -4.1474207   -2.8689743  0.022393943   -4.1474207    1.2784464  1010000 
  350000   0.85223602   -4.1471829   -4.1471829   -2.8688301  0.019637338   -4.1471829    1.2783528  1010000 
  351000   0.85249851   -4.1477472   -4.1477472   -2.8690008  0.018300251   -4.1477472    1.2787465  1010000 
  352000   0.85161724   -4.1464319   -4.1464319   -2.8690073  0.022228487   -4.1464319    1.2774246  1010000 
  353000   0.85165932   -4.1466022   -4.1466022   -2.8691145  0.020781848   -4.1466022    1.2774877  1010000 
  354000   0.85129329    -4.145927    -4.145927   -2.8689883  0.018582363    -4.145927    1.2769387  1010000 
  355000   0.85150919   -4.1468102   -4.1468102   -2.8695477  0.013703116   -4.1468102    1.2772625  1010000 
  356000   0.85113472   -4.1460412   -4.1460412   -2.8693404  0.019038409   -4.1460412    1.2767008  1010000 
  357000   0.85124309   -4.1453039   -4.1453039   -2.8684406  0.020130066   -4.1453039    1.2768634  1010000 
  358000   0.85042605   -4.1458049   -4.1458049    -2.870167   0.01648926   -4.1458049    1.2756378  1010000 
  359000   0.85068238   -4.1456714   -4.1456714   -2.8696491  0.017674297   -4.1456714    1.2760223  1010000 
  360000   0.85047563   -4.1454174   -4.1454174   -2.8697052   0.02002554   -4.1454174    1.2757122  1010000 
  361000   0.85076757   -4.1458107   -4.1458107   -2.8696606  0.015720338   -4.1458107    1.2761501  1010000 
  362000   0.85078156   -4.1456359   -4.1456359   -2.8694648  0.015502515   -4.1456359    1.2761711  1010000 
  363000   0.85047679   -4.1455119   -4.1455119    -2.869798  0.019577831   -4.1455119    1.2757139  1010000 
  364000   0.85115439   -4.1466834   -4.1466834    -2.869953  0.016406839   -4.1466834    1.2767303  1010000 
  365000   0.85091578   -4.1466786   -4.1466786   -2.8703062  0.017821011   -4.1466786    1.2763724  1010000 
  366000      0.85049   -4.1466505   -4.1466505   -2.8709168  0.018395413   -4.1466505    1.2757337  1010000 
  367000     0.851252   -4.1479616   -4.1479616   -2.8710849  0.018458537   -4.1479616    1.2768767  1010000 
  368000    0.8522037   -4.1493736   -4.1493736   -2.8710693  0.017326192   -4.1493736    1.2783043  1010000 
  369000   0.85142833   -4.1487867   -4.1487867   -2.8716455  0.019752154   -4.1487867    1.2771412  1010000 
  370000   0.85119077   -4.1483178   -4.1483178   -2.8715329  0.021750879   -4.1483178    1.2767849  1010000 
  371000   0.85125813   -4.1490545   -4.1490545   -2.8721686  0.021467827   -4.1490545    1.2768859  1010000 
  372000     0.851222   -4.1492325   -4.1492325   -2.8724008  0.020624257   -4.1492325    1.2768317  1010000 
  373000   0.85083187   -4.1495493   -4.1495493   -2.8733027  0.024131091   -4.1495493    1.2762465  1010000 
  374000   0.85153476   -4.1503861   -4.1503861   -2.8730852  0.022817117   -4.1503861    1.2773009  1010000 
  375000   0.85253725   -4.1528559   -4.1528559   -2.8740513  0.021183514   -4.1528559    1.2788046  1010000 
  376000   0.85175713     -4.15209     -4.15209   -2.8744555  0.021496934     -4.15209    1.2776344  1010000 
  377000   0.85102575   -4.1520342   -4.1520342   -2.8754968    0.0233165   -4.1520342    1.2765374  1010000 
  378000   0.85125297   -4.1530363   -4.1530363   -2.8761581  0.019942073   -4.1530363    1.2768782  1010000 
  379000   0.85067628   -4.1530134   -4.1530134   -2.8770002  0.019675194   -4.1530134    1.2760132  1010000 
  380000   0.85142214   -4.1546639   -4.1546639    -2.877532  0.017352196   -4.1546639     1.277132  1010000 
  381000   0.85037663   -4.1528611   -4.1528611   -2.8772974  0.022931222   -4.1528611    1.2755637  1010000 
  382000   0.85013861   -4.1527894   -4.1527894   -2.8775827  0.022369343   -4.1527894    1.2752066  1010000 
  383000   0.85076863   -4.1536774   -4.1536774   -2.8775257   0.02087508   -4.1536774    1.2761517  1010000 
  384000   0.85101579   -4.1550795   -4.1550795   -2.8785571  0.019030129   -4.1550795    1.2765224  1010000 
  385000    0.8505703   -4.1551741   -4.1551741   -2.8793199  0.021675086   -4.1551741    1.2758542  1010000 
  386000   0.85018298   -4.1538956   -4.1538956   -2.8786224  0.022844046   -4.1538956    1.2752732  1010000 
  387000   0.85041483   -4.1544976   -4.1544976   -2.8788767  0.021084851   -4.1544976     1.275621  1010000 
  388000   0.85076603   -4.1563115   -4.1563115   -2.8801637  0.020959533   -4.1563115    1.2761478  1010000 
  389000   0.85004456    -4.155298    -4.155298   -2.8802324   0.02062557    -4.155298    1.2750656  1010000 
  390000   0.85000399   -4.1550092   -4.1550092   -2.8800045   0.02402607   -4.1550092    1.2750047  1010000 
  391000   0.85030376   -4.1558003   -4.1558003   -2.8803459  0.023644502   -4.1558003    1.2754544  1010000 
  392000   0.85004716   -4.1560294   -4.1560294     -2.88096   0.02336602   -4.1560294    1.2750695  1010000 
  393000   0.85055091   -4.1564583   -4.1564583   -2.8806332  0.018026307   -4.1564583    1.2758251  1010000 
  394000   0.84974946   -4.1556547   -4.1556547   -2.8810318  0.023751253   -4.1556547    1.2746229  1010000 
  395000   0.84934695   -4.1549063   -4.1549063   -2.8808871  0.025977774   -4.1549063    1.2740192  1010000 
  396000   0.85007137   -4.1567504   -4.1567504   -2.8816446  0.018883035   -4.1567504    1.2751058  1010000 
  397000   0.85017038   -4.1578005   -4.1578005   -2.8825462  0.017888089   -4.1578005    1.2752543  1010000 
  398000   0.84989947   -4.1577982   -4.1577982   -2.8829502  0.021574411   -4.1577982    1.2748479  1010000 
  399000   0.84998793   -4.1576438   -4.1576438   -2.8826632  0.019981088   -4.1576438    1.2749806  1010000 
  400000   0.84962099   -4.1574865   -4.1574865   -2.8830563  0.020163446   -4.1574865    1.2744302  1010000 
  401000   0.85028592    -4.158984    -4.158984   -2.8835564  0.018083473    -4.158984    1.2754276  1010000 
  402000   0.84807415   -4.1567309   -4.1567309   -2.8846209  0.023403076   -4.1567309      1.27211  1010000 
  403000   0.84996594   -4.1593339   -4.1593339   -2.8843862  0.020912107   -4.1593339    1.2749476  1010000 
  404000   0.84932079    -4.158398    -4.158398   -2.8844181  0.020610262    -4.158398    1.2739799  1010000 
  405000   0.84867266   -4.1578816   -4.1578816   -2.8848739  0.021657327   -4.1578816    1.2730077  1010000 
  406000   0.84843125   -4.1581682   -4.1581682   -2.8855226  0.021440405   -4.1581682    1.2726456  1010000 
  407000   0.84985514   -4.1597086   -4.1597086   -2.8849271  0.021133728   -4.1597086    1.2747814  1010000 
  408000   0.84876131   -4.1594913   -4.1594913   -2.8863506  0.021391258   -4.1594913    1.2731407  1010000 
  409000   0.84877661    -4.159596    -4.159596   -2.8864324  0.024144362    -4.159596    1.2731637  1010000 
  410000   0.84876877   -4.1608975   -4.1608975   -2.8877456   0.01958544   -4.1608975    1.2731519  1010000 
  411000   0.84967119   -4.1622724   -4.1622724   -2.8877669  0.019973332   -4.1622724    1.2745055  1010000 
  412000   0.84981974   -4.1622762   -4.1622762   -2.8875478  0.022709637   -4.1622762    1.2747284  1010000 
  413000   0.84820823   -4.1602031   -4.1602031    -2.887892  0.022729192   -4.1602031    1.2723111  1010000 
  414000   0.84930896   -4.1611846   -4.1611846   -2.8872225  0.021389371   -4.1611846    1.2739622  1010000 
  415000    0.8491486   -4.1619547   -4.1619547    -2.888233  0.024675141   -4.1619547    1.2737216  1010000 
  416000   0.84922372   -4.1622674   -4.1622674    -2.888433  0.021679511   -4.1622674    1.2738343  1010000 
  417000   0.84903599   -4.1625397   -4.1625397    -2.888987  0.019294155   -4.1625397    1.2735527  1010000 
  418000   0.84792877   -4.1618889   -4.1618889    -2.889997  0.022514616   -4.1618889    1.2718919  1010000 
  419000   0.84874598   -4.1642771   -4.1642771   -2.8911594  0.017745044   -4.1642771    1.2731177  1010000 
  420000   0.84802618   -4.1630817   -4.1630817   -2.8910437  0.021301392   -4.1630817     1.272038  1010000 
  421000   0.84752354     -4.16342     -4.16342    -2.892136  0.022900129     -4.16342     1.271284  1010000 
  422000   0.84739491   -4.1634885   -4.1634885   -2.8923974  0.016672211   -4.1634885    1.2710911  1010000 
  423000   0.84716237   -4.1627622   -4.1627622     -2.89202  0.021552716   -4.1627622    1.2707423  1010000 
  424000    0.8476275   -4.1636756   -4.1636756   -2.8922356  0.017351441   -4.1636756      1.27144  1010000 
  425000   0.84865947   -4.1647111   -4.1647111   -2.8917231   0.02425046   -4.1647111    1.2729879  1010000 
  426000    0.8496992     -4.16637     -4.16637   -2.8918225  0.020289471     -4.16637    1.2745475  1010000 
  427000   0.84862432   -4.1657837   -4.1657837   -2.8928485  0.018763463   -4.1657837    1.2729352  1010000 
  428000   0.84835204   -4.1654111   -4.1654111   -2.8928843  0.020009543   -4.1654111    1.2725268  1010000 
  429000   0.84834878   -4.1658949   -4.1658949   -2.8933729  0.024413047   -4.1658949    1.2725219  1010000 
  430000   0.84825223   -4.1662882   -4.1662882   -2.8939111   0.02187724   -4.1662882    1.2723771  1010000 
  431000   0.84785207   -4.1655921   -4.1655921   -2.8938152  0.025119868   -4.1655921    1.2717769  1010000 
  432000   0.84808439   -4.1668891   -4.1668891   -2.8947637  0.022721172   -4.1668891    1.2721253  1010000 
  433000   0.84771626   -4.1669192   -4.1669192   -2.8953461  0.022748747   -4.1669192    1.2715731  1010000 
  434000   0.84744601   -4.1662701   -4.1662701   -2.8951023  0.024608954   -4.1662701    1.2711678  1010000 
  435000   0.84777176   -4.1668931   -4.1668931   -2.8952367  0.024014487   -4.1668931    1.2716564  1010000 
  436000   0.84840572   -4.1672644   -4.1672644    -2.894657  0.020274707   -4.1672644    1.2726073  1010000 
  437000    0.8476813   -4.1662903   -4.1662903   -2.8947696  0.022271218   -4.1662903    1.2715207  1010000 
  438000     0.847973   -4.1664305   -4.1664305   -2.8944723  0.021873273   -4.1664305    1.2719582  1010000 
  439000   0.84927928   -4.1687064   -4.1687064   -2.8947887  0.024423895   -4.1687064    1.2739177  1010000 
  440000   0.84841489   -4.1671088   -4.1671088   -2.8944877  0.024234133   -4.1671088    1.2726211  1010000 
  441000   0.84868369   -4.1674716   -4.1674716   -2.8944473  0.020950192   -4.1674716    1.2730243  1010000 
  442000   0.84851773   -4.1675318   -4.1675318   -2.8947565  0.022722322   -4.1675318    1.2727753  1010000 
  443000   0.84793873    -4.167747    -4.167747   -2.8958402   0.01976203    -4.167747    1.2719068  1010000 
  444000   0.84753686   -4.1674796   -4.1674796   -2.8961756  0.020542214   -4.1674796     1.271304  1010000 
  445000   0.84731553   -4.1677002   -4.1677002   -2.8967282  0.017331342   -4.1677002     1.270972  1010000 
  446000   0.84666596   -4.1670037   -4.1670037    -2.897006  0.018408271   -4.1670037    1.2699977  1010000 
  447000   0.84666035   -4.1668083   -4.1668083    -2.896819  0.021655783   -4.1668083    1.2699893  1010000 
  448000   0.84667764   -4.1665632   -4.1665632    -2.896548   0.02159102   -4.1665632    1.2700152  1010000 
  449000   0.84603893   -4.1663964   -4.1663964   -2.8973392  0.019951594   -4.1663964    1.2690571  1010000 
  450000   0.84643291   -4.1673961   -4.1673961    -2.897748  0.019793417   -4.1673961    1.2696481  1010000 
  451000   0.84645797    -4.167156    -4.167156   -2.8974703  0.020162775    -4.167156    1.2696857  1010000 
  452000   0.84660007    -4.166904    -4.166904   -2.8970051  0.022107491    -4.166904    1.2698988  1010000 
  453000   0.84621891   -4.1668373   -4.1668373   -2.8975102  0.024221284   -4.1668373    1.2693271  1010000 
  454000   0.84747957    -4.168491    -4.168491    -2.897273  0.023225253    -4.168491    1.2712181  1010000 
  455000   0.84697302   -4.1680829   -4.1680829   -2.8976246   0.02316493   -4.1680829    1.2704583  1010000 
  456000    0.8470104   -4.1686009   -4.1686009   -2.8980866  0.021811858   -4.1686009    1.2705143  1010000 
  457000   0.84688566   -4.1687645   -4.1687645   -2.8984373  0.022058981   -4.1687645    1.2703272  1010000 
  458000    0.8467472   -4.1692773   -4.1692773   -2.8991577  0.026506461   -4.1692773    1.2701195  1010000 
  459000   0.84680107   -4.1692204   -4.1692204     -2.89902  0.027095427   -4.1692204    1.2702004  1010000 
  460000   0.84710485   -4.1695193   -4.1695193   -2.8988633  0.026698988   -4.1695193     1.270656  1010000 
  461000   0.84731754   -4.1700566   -4.1700566   -2.8990815  0.021869716   -4.1700566     1.270975  1010000 
  462000   0.84746497   -4.1707985   -4.1707985   -2.8996024    0.0219639   -4.1707985    1.2711962  1010000 
  463000   0.84676912   -4.1702568   -4.1702568   -2.9001044  0.025527376   -4.1702568    1.2701524  1010000 
  464000   0.84732828   -4.1717215   -4.1717215   -2.9007303  0.021340948   -4.1717215    1.2709912  1010000 
  465000   0.84709451   -4.1716381   -4.1716381   -2.9009976  0.020775315   -4.1716381    1.2706405  1010000 
  466000   0.84648498   -4.1709004   -4.1709004   -2.9011742  0.022414045   -4.1709004    1.2697262  1010000 
  467000   0.84610065   -4.1705598   -4.1705598   -2.9014101  0.024200119   -4.1705598    1.2691497  1010000 
  468000   0.84772409   -4.1728531   -4.1728531   -2.9012682  0.019034173   -4.1728531    1.2715849  1010000 
  469000   0.84563669   -4.1703364   -4.1703364   -2.9018826  0.022418953   -4.1703364    1.2684538  1010000 
  470000   0.84551808   -4.1706648   -4.1706648   -2.9023889  0.023659944   -4.1706648    1.2682759  1010000 
  471000   0.84698869   -4.1731676   -4.1731676   -2.9026858  0.019884846   -4.1731676    1.2704818  1010000 
  472000    0.8460454   -4.1726915   -4.1726915   -2.9036247  0.016317131   -4.1726915    1.2690669  1010000 
  473000   0.84620676   -4.1726205   -4.1726205   -2.9033117  0.019906256   -4.1726205    1.2693089  1010000 
  474000   0.84547974   -4.1715272   -4.1715272   -2.9033088  0.026624991   -4.1715272    1.2682184  1010000 
  475000   0.84666486   -4.1737028   -4.1737028   -2.9037067  0.019734553   -4.1737028     1.269996  1010000 
  476000   0.84634731   -4.1728212   -4.1728212   -2.9033015  0.022871859   -4.1728212    1.2695197  1010000 
  477000    0.8465465   -4.1731913   -4.1731913   -2.9033728  0.024597641   -4.1731913    1.2698185  1010000 
  478000   0.84588194   -4.1727676   -4.1727676    -2.903946  0.019688873   -4.1727676    1.2688217  1010000 
  479000    0.8461096   -4.1738108   -4.1738108   -2.9046477  0.018040533   -4.1738108    1.2691631  1010000 
  480000   0.84613391   -4.1741275   -4.1741275   -2.9049279   0.02394045   -4.1741275    1.2691996  1010000 
  481000   0.84580399   -4.1738892   -4.1738892   -2.9051844  0.026273024   -4.1738892    1.2687047  1010000 
  482000   0.84590889   -4.1742802   -4.1742802   -2.9054181  0.022684767   -4.1742802    1.2688621  1010000 
  483000    0.8450932   -4.1734482   -4.1734482   -2.9058097  0.024295814   -4.1734482    1.2676385  1010000 
  484000   0.84591612   -4.1738562   -4.1738562   -2.9049833  0.021361093   -4.1738562    1.2688729  1010000 
  485000    0.8460278   -4.1742786   -4.1742786   -2.9052382  0.024094679   -4.1742786    1.2690404  1010000 
  486000   0.84566226   -4.1737997   -4.1737997   -2.9053075  0.021703643   -4.1737997    1.2684921  1010000 
  487000   0.84615795   -4.1745667   -4.1745667    -2.905331  0.023077038   -4.1745667    1.2692357  1010000 
  488000   0.84606131   -4.1742746   -4.1742746   -2.9051839  0.021619779   -4.1742746    1.2690907  1010000 
  489000   0.84594884   -4.1748674   -4.1748674   -2.9059454   0.02511617   -4.1748674     1.268922  1010000 
  490000   0.84543147   -4.1754808   -4.1754808   -2.9073349  0.020334802   -4.1754808    1.2681459  1010000 
  491000   0.84563991    -4.175485    -4.175485   -2.9070263  0.021138247    -4.175485    1.2684586  1010000 
  492000   0.84423641   -4.1736288   -4.1736288   -2.9072755  0.025761234   -4.1736288    1.2663534  1010000 
  493000   0.84553227   -4.1754438   -4.1754438   -2.9071466  0.022499574   -4.1754438    1.2682971  1010000 
  494000   0.84587204   -4.1764464   -4.1764464   -2.9076396  0.019592268   -4.1764464    1.2688068  1010000 
  495000   0.84479559   -4.1756133   -4.1756133   -2.9084212   0.02056584   -4.1756133    1.2671921  1010000 
  496000   0.84457747   -4.1753658   -4.1753658   -2.9085009  0.023175835   -4.1753658     1.266865  1010000 
  497000   0.84549341   -4.1760856   -4.1760856   -2.9078468  0.023446033   -4.1760856    1.2682389  1010000 
  498000   0.84632008   -4.1774699   -4.1774699    -2.907991  0.022364021   -4.1774699    1.2694789  1010000 
  499000   0.84512843   -4.1760533   -4.1760533   -2.9083619  0.023695988   -4.1760533    1.2676914  1010000 
  500000   0.84498521   -4.1761197   -4.1761197   -2.9086431  0.025454798   -4.1761197    1.2674766  1010000 
  501000   0.84440085   -4.1755633   -4.1755633   -2.9089633   0.02554553   -4.1755633       1.2666  1010000 
  502000   0.84495137   -4.1760692   -4.1760692   -2.9086434  0.026284379   -4.1760692    1.2674258  1010000 
  503000   0.84527806   -4.1766376   -4.1766376   -2.9087218  0.022925953   -4.1766376    1.2679158  1010000 
  504000   0.84542539   -4.1770017   -4.1770017   -2.9088649  0.024960357   -4.1770017    1.2681368  1010000 
  505000   0.84549835    -4.177406    -4.177406   -2.9091597  0.023274355    -4.177406    1.2682463  1010000 
  506000   0.84559538   -4.1777868   -4.1777868    -2.909395  0.021478018   -4.1777868    1.2683918  1010000 
  507000   0.84535773   -4.1781021   -4.1781021   -2.9100667  0.022764968   -4.1781021    1.2680353  1010000 
  508000   0.84514353   -4.1774945   -4.1774945   -2.9097804  0.023977001   -4.1774945     1.267714  1010000 
  509000   0.84492002   -4.1769492   -4.1769492   -2.9095704  0.023255903   -4.1769492    1.2673788  1010000 
  510000   0.84531049   -4.1778464   -4.1778464   -2.9098819  0.025843316   -4.1778464    1.2679645  1010000 
  511000   0.84577064   -4.1785279   -4.1785279   -2.9098732  0.021220618   -4.1785279    1.2686547  1010000 
  512000   0.84420234   -4.1764491   -4.1764491   -2.9101468  0.023407582   -4.1764491    1.2663023  1010000 
  513000   0.84458987   -4.1777627   -4.1777627   -2.9108791  0.023009585   -4.1777627    1.2668836  1010000 
  514000   0.84441513   -4.1777058   -4.1777058   -2.9110843  0.021573438   -4.1777058    1.2666214  1010000 
  515000   0.84471084   -4.1779304   -4.1779304   -2.9108654  0.021289693   -4.1779304     1.267065  1010000 
  516000   0.84440202   -4.1771998   -4.1771998   -2.9105981  0.021721624   -4.1771998    1.2666018  1010000 
  517000   0.84395454   -4.1769632   -4.1769632   -2.9110326   0.02222101   -4.1769632    1.2659306  1010000 
  518000   0.84350888   -4.1768379   -4.1768379   -2.9115759  0.019409993   -4.1768379    1.2652621  1010000 
  519000   0.84358823   -4.1770114   -4.1770114   -2.9116303  0.024621372   -4.1770114    1.2653811  1010000 
  520000   0.84444524   -4.1782555   -4.1782555   -2.9115889   0.02406073   -4.1782555    1.2666666  1010000 
  521000   0.84403519    -4.177882    -4.177882   -2.9118304  0.023086445    -4.177882    1.2660515  1010000 
  522000   0.84526266    -4.179818    -4.179818   -2.9119253  0.020838021    -4.179818    1.2678927  1010000 
  523000   0.84446324    -4.178449    -4.178449   -2.9117554  0.025703053    -4.178449    1.2666936  1010000 
  524000    0.8450421    -4.179238    -4.179238   -2.9116761  0.022504192    -4.179238    1.2675619  1010000 
  525000   0.84579838    -4.179662    -4.179662   -2.9109657  0.021011969    -4.179662    1.2686963  1010000 
  526000    0.8452051    -4.179195    -4.179195   -2.9113886  0.023842596    -4.179195    1.2678064  1010000 
  527000   0.84359585   -4.1779794   -4.1779794   -2.9125868  0.024590216   -4.1779794    1.2653925  1010000 
  528000   0.84440232   -4.1792388   -4.1792388   -2.9126366  0.022740382   -4.1792388    1.2666022  1010000 
  529000   0.84499531    -4.179993    -4.179993   -2.9125013  0.019950145    -4.179993    1.2674917  1010000 
  530000   0.84438031   -4.1803281   -4.1803281   -2.9137589  0.019009212   -4.1803281    1.2665692  1010000 
  531000   0.84406066   -4.1802438   -4.1802438   -2.9141541  0.020391973   -4.1802438    1.2660897  1010000 
  532000   0.84457988    -4.181208    -4.181208   -2.9143395  0.021991549    -4.181208    1.2668686  1010000 
  533000   0.84343547    -4.180088    -4.180088   -2.9149361  0.023299711    -4.180088    1.2651519  1010000 
  534000   0.84431486   -4.1806311   -4.1806311   -2.9141601   0.01976527   -4.1806311     1.266471  1010000 
  535000   0.84400853   -4.1802848   -4.1802848   -2.9142733   0.02328565   -4.1802848    1.2660115  1010000 
  536000   0.84498816   -4.1821568   -4.1821568   -2.9146758  0.022130783   -4.1821568     1.267481  1010000 
  537000   0.84435804   -4.1806788   -4.1806788    -2.914143  0.026262669   -4.1806788    1.2665358  1010000 
  538000    0.8441036   -4.1803048   -4.1803048   -2.9141506  0.028376097   -4.1803048    1.2661541  1010000 
  539000   0.84467583   -4.1814133   -4.1814133   -2.9144008  0.024581283   -4.1814133    1.2670125  1010000 
  540000   0.84541414   -4.1824539   -4.1824539    -2.914334  0.026715763   -4.1824539      1.26812  1010000 
  541000   0.84490516    -4.182095    -4.182095   -2.9147385  0.022857382    -4.182095    1.2673565  1010000 
  542000   0.84471172   -4.1815319   -4.1815319   -2.9144655  0.024581619   -4.1815319    1.2670663  1010000 
  543000   0.84426166   -4.1810632   -4.1810632   -2.9146719  0.024729301   -4.1810632    1.2663912  1010000 
  544000   0.84409331   -4.1812479   -4.1812479   -2.9151091  0.019870969   -4.1812479    1.2661387  1010000 
  545000   0.84353013   -4.1805625   -4.1805625   -2.9152686  0.020884697   -4.1805625    1.2652939  1010000 
  546000   0.84334793   -4.1805523   -4.1805523   -2.9155316  0.022519968   -4.1805523    1.2650206  1010000 
  547000   0.84401061   -4.1826242   -4.1826242   -2.9166096  0.016411831   -4.1826242    1.2660147  1010000 
  548000   0.84280794   -4.1803503   -4.1803503   -2.9161397  0.023111973   -4.1803503    1.2642107  1010000 
  549000   0.84353885   -4.1817982   -4.1817982   -2.9164912  0.019581765   -4.1817982     1.265307  1010000 
  550000   0.84385707    -4.181671    -4.181671   -2.9158866  0.022865491    -4.181671    1.2657843  1010000 
  551000   0.84340188   -4.1816111   -4.1816111   -2.9165095  0.018072076   -4.1816111    1.2651016  1010000 
  552000   0.84383285   -4.1823579   -4.1823579   -2.9166098  0.021922213   -4.1823579     1.265748  1010000 
  553000   0.84389778   -4.1822988   -4.1822988   -2.9164534  0.019690351   -4.1822988    1.2658454  1010000 
  554000   0.84422319    -4.182674    -4.182674   -2.9163405  0.023061804    -4.182674    1.2663335  1010000 
  555000   0.84368384   -4.1813845   -4.1813845     -2.91586  0.023088859   -4.1813845    1.2655245  1010000 
  556000   0.84451582   -4.1834669   -4.1834669   -2.9166944   0.02044105   -4.1834669    1.2667725  1010000 
  557000   0.84467052   -4.1841832   -4.1841832   -2.9171787  0.021831369   -4.1841832    1.2670045  1010000 
  558000   0.84304346   -4.1820577   -4.1820577   -2.9174937  0.025336882   -4.1820577    1.2645639  1010000 
  559000   0.84430279   -4.1841379   -4.1841379   -2.9176849  0.022916309   -4.1841379    1.2664529  1010000 
  560000   0.84359559   -4.1835864   -4.1835864   -2.9181943  0.022206769   -4.1835864    1.2653921  1010000 
  561000   0.84379873   -4.1836462   -4.1836462   -2.9179494  0.024181844   -4.1836462    1.2656968  1010000 
  562000   0.84417983   -4.1838508   -4.1838508   -2.9175823  0.024642295   -4.1838508    1.2662685  1010000 
  563000   0.84406477   -4.1840007   -4.1840007   -2.9179048   0.02503862   -4.1840007    1.2660959  1010000 
  564000   0.84440103   -4.1844863   -4.1844863    -2.917886  0.026093456   -4.1844863    1.2666003  1010000 
  565000   0.84432852   -4.1846778   -4.1846778   -2.9181862  0.028743701   -4.1846778    1.2664915  1010000 
  566000   0.84383076   -4.1843199   -4.1843199    -2.918575  0.028091784   -4.1843199    1.2657449  1010000 
  567000   0.84360963   -4.1843617   -4.1843617   -2.9189485   0.02813092   -4.1843617    1.2654132  1010000 
  568000   0.84405437   -4.1848614   -4.1848614   -2.9187811  0.023232091   -4.1848614    1.2660803  1010000 
  569000   0.84447098   -4.1845864   -4.1845864   -2.9178812  0.024602344   -4.1845864    1.2667052  1010000 
  570000   0.84383727   -4.1832477   -4.1832477    -2.917493  0.027653511   -4.1832477    1.2657547  1010000 
  571000   0.84441172   -4.1842975   -4.1842975   -2.9176812  0.018871088   -4.1842975    1.2666163  1010000 
  572000   0.84421712   -4.1846616   -4.1846616   -2.9183371  0.022956314   -4.1846616    1.2663244  1010000 
  573000   0.84320825    -4.183879    -4.183879   -2.9190679  0.019692997    -4.183879    1.2648111  1010000 
  574000   0.84348051   -4.1842594   -4.1842594   -2.9190398  0.021034221   -4.1842594    1.2652195  1010000 
  575000   0.84322581   -4.1838473   -4.1838473   -2.9190098   0.02141678   -4.1838473    1.2648375  1010000 
  576000     0.842518   -4.1825988   -4.1825988    -2.918823  0.021344635   -4.1825988    1.2637757  1010000 
  577000   0.84238307     -4.18314     -4.18314   -2.9195666  0.018877637     -4.18314    1.2635734  1010000 
  578000   0.84312675   -4.1838415   -4.1838415   -2.9191527  0.019446542   -4.1838415    1.2646889  1010000 
  579000   0.84211109   -4.1825736   -4.1825736   -2.9194082  0.017735864   -4.1825736    1.2631654  1010000 
  580000    0.8419321   -4.1816519   -4.1816519    -2.918755  0.022734727   -4.1816519    1.2628969  1010000 
  581000   0.84135625   -4.1813592   -4.1813592   -2.9193261  0.024922351   -4.1813592    1.2620331  1010000 
  582000   0.84288152   -4.1837312   -4.1837312   -2.9194102  0.018871253   -4.1837312     1.264321  1010000 
  583000   0.84263392   -4.1832223   -4.1832223   -2.9192727  0.021118981   -4.1832223    1.2639496  1010000 
  584000   0.84319206   -4.1844207   -4.1844207   -2.9196339  0.018092708   -4.1844207    1.2647868  1010000 
  585000   0.84313009   -4.1840432   -4.1840432   -2.9193493  0.022189719   -4.1840432    1.2646939  1010000 
  586000   0.84347198   -4.1851395   -4.1851395   -2.9199328  0.023263482   -4.1851395    1.2652067  1010000 
  587000   0.84334149   -4.1851952   -4.1851952   -2.9201842  0.022091486   -4.1851952     1.265011  1010000 
  588000   0.84327373   -4.1857826   -4.1857826   -2.9208733  0.021393137   -4.1857826    1.2649093  1010000 
  589000   0.84272323   -4.1851473   -4.1851473   -2.9210637  0.020736617   -4.1851473    1.2640836  1010000 
  590000   0.84196747   -4.1844491   -4.1844491   -2.9214992  0.025643064   -4.1844491      1.26295  1010000 
  591000    0.8434534   -4.1871981   -4.1871981   -2.9220193  0.019217006   -4.1871981    1.2651788  1010000 
  592000    0.8434014   -4.1869451   -4.1869451   -2.9218443  0.022444213   -4.1869451    1.2651008  1010000 
  593000   0.84373834    -4.187768    -4.187768   -2.9221618  0.022683366    -4.187768    1.2656063  1010000 
  594000   0.84384686   -4.1889348   -4.1889348   -2.9231658  0.021270005   -4.1889348     1.265769  1010000 
  595000   0.84322521   -4.1879892   -4.1879892   -2.9231527  0.024488219   -4.1879892    1.2648366  1010000 
  596000   0.84412242   -4.1883365   -4.1883365   -2.9221541  0.027726823   -4.1883365    1.2661824  1010000 
  597000    0.8439126   -4.1885985   -4.1885985   -2.9227308   0.02383863   -4.1885985    1.2658676  1010000 
  598000   0.84311987   -4.1873716   -4.1873716   -2.9226931  0.025477344   -4.1873716    1.2646786  1010000 
  599000    0.8437496   -4.1886599   -4.1886599   -2.9230367  0.022914559   -4.1886599    1.2656231  1010000 
  600000    0.8428953   -4.1881016   -4.1881016   -2.9237599  0.026414758   -4.1881016    1.2643417  1010000 
  601000   0.84301737   -4.1885598   -4.1885598    -2.924035  0.024260963   -4.1885598    1.2645248  1010000 
  602000   0.84288925   -4.1888138   -4.1888138   -2.9244812  0.024985848   -4.1888138    1.2643326  1010000 
  603000   0.84304067   -4.1885519   -4.1885519   -2.9239921  0.026711206   -4.1885519    1.2645597  1010000 
  604000   0.84244776   -4.1880179   -4.1880179   -2.9243475  0.025757955   -4.1880179    1.2636704  1010000 
  605000   0.84270264    -4.188308    -4.188308   -2.9242553  0.024572225    -4.188308    1.2640527  1010000 
  606000   0.84212813   -4.1873589   -4.1873589   -2.9241679  0.027047478   -4.1873589    1.2631909  1010000 
  607000   0.84298387   -4.1888373   -4.1888373   -2.9243628  0.022239221   -4.1888373    1.2644745  1010000 
  608000   0.84256179   -4.1881005   -4.1881005   -2.9242591  0.023299731   -4.1881005    1.2638414  1010000 
  609000   0.84256099    -4.188157    -4.188157   -2.9243168  0.019361236    -4.188157    1.2638402  1010000 
  610000   0.84242316   -4.1878685   -4.1878685    -2.924235  0.021022276   -4.1878685    1.2636335  1010000 
  611000    0.8412248    -4.186601    -4.186601   -2.9247651  0.022668699    -4.186601     1.261836  1010000 
  612000   0.84159956   -4.1870692   -4.1870692   -2.9246711   0.02023172   -4.1870692    1.2623981  1010000 
  613000   0.84134791   -4.1873074   -4.1873074   -2.9252868  0.023082954   -4.1873074    1.2620206  1010000 
  614000    0.8425737   -4.1891105   -4.1891105   -2.9252512  0.019108095   -4.1891105    1.2638593  1010000 
  615000    0.8424626   -4.1877857   -4.1877857   -2.9240931  0.026492554   -4.1877857    1.2636927  1010000 
  616000   0.84200102   -4.1874852   -4.1874852   -2.9244849  0.025586005   -4.1874852    1.2630003  1010000 
  617000   0.84250708   -4.1883156   -4.1883156   -2.9245562  0.023128067   -4.1883156    1.2637594  1010000 
  618000   0.84195006   -4.1872154   -4.1872154   -2.9242915  0.023870055   -4.1872154    1.2629238  1010000 
  619000   0.84262776   -4.1886429   -4.1886429   -2.9247026  0.023133614   -4.1886429    1.2639404  1010000 
  620000   0.84222698   -4.1885223   -4.1885223   -2.9251831  0.023363578   -4.1885223    1.2633392  1010000 
  621000   0.84261376   -4.1894448   -4.1894448   -2.9255254  0.022722641   -4.1894448    1.2639194  1010000 
  622000   0.84219649   -4.1878312   -4.1878312   -2.9245377  0.024313097   -4.1878312    1.2632935  1010000 
  623000   0.84247451   -4.1887311   -4.1887311   -2.9250206  0.020764089   -4.1887311    1.2637105  1010000 
  624000    0.8423476   -4.1883245   -4.1883245   -2.9248044   0.02437158   -4.1883245    1.2635201  1010000 
  625000    0.8430238   -4.1889302   -4.1889302   -2.9243958  0.025764226   -4.1889302    1.2645345  1010000 
  626000   0.84313491    -4.190078    -4.190078   -2.9253769   0.02569513    -4.190078    1.2647011  1010000 
  627000   0.84270944   -4.1900905   -4.1900905   -2.9260276  0.025998665   -4.1900905    1.2640629  1010000 
  628000   0.84254841   -4.1900461   -4.1900461   -2.9262247  0.022199127   -4.1900461    1.2638214  1010000 
  629000   0.84142415   -4.1888928   -4.1888928   -2.9267578  0.021233781   -4.1888928     1.262135  1010000 
  630000    0.8419345   -4.1891404   -4.1891404   -2.9262399  0.023385437   -4.1891404    1.2629005  1010000 
  631000    0.8418953   -4.1896605   -4.1896605   -2.9268188  0.021129391   -4.1896605    1.2628417  1010000 
  632000    0.8419745    -4.190108    -4.190108   -2.9271475  0.018778934    -4.190108    1.2629605  1010000 
  633000   0.84148722    -4.189283    -4.189283   -2.9270534    0.0229051    -4.189283    1.2622296  1010000 
  634000     0.842155    -4.189426    -4.189426   -2.9261947   0.02176977    -4.189426    1.2632312  1010000 
  635000   0.84224348   -4.1905069   -4.1905069   -2.9271429   0.02554313   -4.1905069     1.263364  1010000 
  636000   0.84242925   -4.1912316   -4.1912316    -2.927589  0.023609333   -4.1912316    1.2636426  1010000 
  637000   0.84331717   -4.1918602   -4.1918602   -2.9268857  0.022499721   -4.1918602    1.2649745  1010000 
  638000   0.84228678   -4.1903456   -4.1903456   -2.9269166  0.028352248   -4.1903456    1.2634289  1010000 
  639000   0.84255776   -4.1903342   -4.1903342   -2.9264988  0.026398694   -4.1903342    1.2638354  1010000 
  640000   0.84206653   -4.1899951   -4.1899951   -2.9268966  0.025136167   -4.1899951    1.2630985  1010000 
  641000   0.84218154   -4.1907412   -4.1907412   -2.9274701  0.021049408   -4.1907412    1.2632711  1010000 
  642000   0.84237717   -4.1911544   -4.1911544   -2.9275899  0.021422586   -4.1911544    1.2635645  1010000 
  643000   0.84191201   -4.1908548   -4.1908548    -2.927988   0.02314532   -4.1908548    1.2628668  1010000 
  644000   0.84119905    -4.189884    -4.189884   -2.9280867  0.027603014    -4.189884    1.2617973  1010000 
  645000   0.84165732   -4.1908323   -4.1908323   -2.9283476  0.020876823   -4.1908323    1.2624847  1010000 
  646000   0.84149403   -4.1897883   -4.1897883   -2.9275484  0.026848156   -4.1897883    1.2622398  1010000 
  647000   0.84105859   -4.1890783   -4.1890783   -2.9274917  0.024287366   -4.1890783    1.2615866  1010000 
  648000   0.84212043   -4.1908894   -4.1908894     -2.92771  0.021234509   -4.1908894    1.2631794  1010000 
  649000   0.84291666   -4.1919125   -4.1919125   -2.9275388  0.022825288   -4.1919125    1.2643737  1010000 
  650000   0.84162584   -4.1902125   -4.1902125    -2.927775  0.027381744   -4.1902125    1.2624375  1010000 
  651000   0.84119159    -4.190341    -4.190341   -2.9285548  0.022485378    -4.190341    1.2617861  1010000 
  652000   0.84129662   -4.1902963   -4.1902963   -2.9283526  0.021102012   -4.1902963    1.2619437  1010000 
  653000   0.84186007   -4.1908977   -4.1908977   -2.9281088  0.024227253   -4.1908977    1.2627889  1010000 
  654000   0.84146353   -4.1909243   -4.1909243   -2.9287302  0.024578517   -4.1909243     1.262194  1010000 
  655000   0.84138877   -4.1909636   -4.1909636   -2.9288817  0.021035703   -4.1909636    1.2620819  1010000 
  656000   0.84179001   -4.1911917   -4.1911917    -2.928508  0.023316983   -4.1911917    1.2626838  1010000 
  657000   0.84296042    -4.192815    -4.192815   -2.9283756  0.023937358    -4.192815    1.2644394  1010000 
  658000   0.84231039   -4.1917937   -4.1917937   -2.9283293    0.0236694   -4.1917937    1.2634643  1010000 
  659000   0.84260512   -4.1917265   -4.1917265   -2.9278201  0.025211049   -4.1917265    1.2639064  1010000 
  660000   0.84213286   -4.1912958   -4.1912958   -2.9280978  0.025273927   -4.1912958     1.263198  1010000 
  661000   0.84248376   -4.1915272   -4.1915272   -2.9278028   0.02596943   -4.1915272    1.2637244  1010000 
  662000   0.84278128   -4.1917006   -4.1917006   -2.9275299  0.022660762   -4.1917006    1.2641707  1010000 
  663000   0.84285859    -4.191344    -4.191344   -2.9270574  0.029376113    -4.191344    1.2642866  1010000 
  664000   0.84278262   -4.1913062   -4.1913062   -2.9271335  0.028211796   -4.1913062    1.2641727  1010000 
  665000   0.84221967   -4.1911114   -4.1911114   -2.9277831  0.026814122   -4.1911114    1.2633283  1010000 
  666000   0.84395025   -4.1936145   -4.1936145   -2.9276903  0.020693044   -4.1936145    1.2659241  1010000 
  667000   0.84253088   -4.1910683   -4.1910683   -2.9272732  0.026736844   -4.1910683    1.2637951  1010000 
  668000   0.84299538    -4.191957    -4.191957   -2.9274651  0.023002095    -4.191957    1.2644918  1010000 
  669000   0.84258347   -4.1911069   -4.1911069   -2.9272329  0.025508936   -4.1911069     1.263874  1010000 
  670000   0.84169853   -4.1903009   -4.1903009   -2.9277543  0.023159915   -4.1903009    1.2625466  1010000 
  671000   0.84204702   -4.1912548   -4.1912548   -2.9281855  0.018662849   -4.1912548    1.2630693  1010000 
  672000   0.84143496   -4.1897399   -4.1897399   -2.9275887  0.023418551   -4.1897399    1.2621512  1010000 
  673000   0.84114246   -4.1894214   -4.1894214    -2.927709  0.024925448   -4.1894214    1.2617124  1010000 
  674000   0.84056873   -4.1885678   -4.1885678    -2.927716  0.024777253   -4.1885678    1.2608518  1010000 
  675000   0.84179296   -4.1901374   -4.1901374   -2.9274492  0.021322992   -4.1901374    1.2626882  1010000 
  676000   0.84156345   -4.1895384   -4.1895384   -2.9271944  0.019359599   -4.1895384    1.2623439  1010000 
  677000   0.84164969   -4.1903097   -4.1903097   -2.9278364  0.020886766   -4.1903097    1.2624733  1010000 
  678000   0.84167029   -4.1899388   -4.1899388   -2.9274346  0.019675297   -4.1899388    1.2625042  1010000 
  679000   0.84178543   -4.1898667   -4.1898667   -2.9271898  0.019401984   -4.1898667    1.2626769  1010000 
  680000   0.84223685   -4.1909612   -4.1909612   -2.9276071  0.020185777   -4.1909612     1.263354  1010000 
  681000   0.84160514   -4.1901766   -4.1901766   -2.9277701  0.016741075   -4.1901766    1.2624065  1010000 
  682000   0.84121547   -4.1896026   -4.1896026   -2.9277806  0.023248654   -4.1896026     1.261822  1010000 
  683000   0.84091991   -4.1899383   -4.1899383   -2.9285597  0.020237619   -4.1899383    1.2613786  1010000 
  684000   0.84029491   -4.1888994   -4.1888994   -2.9284583   0.02213298   -4.1888994    1.2604411  1010000 
  685000   0.84159061   -4.1909241   -4.1909241   -2.9285395  0.021830348   -4.1909241    1.2623847  1010000 
  686000   0.84189422   -4.1916234   -4.1916234   -2.9287833  0.023778733   -4.1916234    1.2628401  1010000 
  687000   0.84170302     -4.19129     -4.19129   -2.9287367  0.023335305     -4.19129    1.2625533  1010000 
  688000   0.84131147   -4.1911242   -4.1911242   -2.9291582  0.025546783   -4.1911242     1.261966  1010000 
  689000   0.84175772   -4.1915794   -4.1915794   -2.9289441  0.023677409   -4.1915794    1.2626353  1010000 
  690000   0.84186521    -4.193022    -4.193022   -2.9302255  0.022414442    -4.193022    1.2627966  1010000 
  691000   0.84218685   -4.1935212   -4.1935212   -2.9302422  0.025360814   -4.1935212     1.263279  1010000 
  692000   0.84166521   -4.1939642   -4.1939642   -2.9314677  0.025516382   -4.1939642    1.2624966  1010000 
  693000    0.8415996   -4.1936321   -4.1936321    -2.931234  0.026988811   -4.1936321    1.2623981  1010000 
  694000   0.84165364   -4.1939919   -4.1939919   -2.9315127  0.025950964   -4.1939919    1.2624792  1010000 
  695000   0.84180834   -4.1941734   -4.1941734   -2.9314621  0.023086418   -4.1941734    1.2627113  1010000 
  696000    0.8421152   -4.1943533   -4.1943533   -2.9311818   0.02449581   -4.1943533    1.2631716  1010000 
  697000   0.84178813   -4.1943238   -4.1943238   -2.9316428  0.028268483   -4.1943238     1.262681  1010000 
  698000   0.84281645   -4.1956426   -4.1956426   -2.9314192  0.022684067   -4.1956426    1.2642234  1010000 
  699000   0.84175885   -4.1942617   -4.1942617   -2.9316247  0.025940289   -4.1942617     1.262637  1010000 
  700000   0.84164798   -4.1945047   -4.1945047    -2.932034  0.025884364   -4.1945047    1.2624707  1010000 
  701000   0.84147649    -4.193198    -4.193198   -2.9309846  0.025215919    -4.193198    1.2622135  1010000 
  702000   0.84241453   -4.1946239   -4.1946239   -2.9310033  0.024453561   -4.1946239    1.2636205  1010000 
  703000   0.84255389   -4.1949423   -4.1949423   -2.9311127  0.023174178   -4.1949423    1.2638296  1010000 
  704000   0.84134422   -4.1928051   -4.1928051     -2.93079  0.028410528   -4.1928051    1.2620151  1010000 
  705000   0.84183576   -4.1938097   -4.1938097   -2.9310573  0.025093534   -4.1938097    1.2627524  1010000 
  706000   0.84189807   -4.1928672   -4.1928672   -2.9300214  0.024998408   -4.1928672    1.2628459  1010000 
  707000   0.84165625   -4.1929461   -4.1929461    -2.930463  0.024016536   -4.1929461    1.2624831  1010000 
  708000   0.84151124   -4.1926199   -4.1926199   -2.9303543  0.022530211   -4.1926199    1.2622656  1010000 
  709000   0.84119362   -4.1922317   -4.1922317   -2.9304425  0.022598695   -4.1922317    1.2617892  1010000 
  710000    0.8407223   -4.1915238   -4.1915238   -2.9304416   0.02115625   -4.1915238    1.2610822  1010000 
  711000   0.84201638   -4.1929396   -4.1929396   -2.9299163  0.018596586   -4.1929396    1.2630233  1010000 
  712000   0.84222551   -4.1933712   -4.1933712   -2.9300342  0.023029816   -4.1933712     1.263337  1010000 
  713000   0.84072308   -4.1907392   -4.1907392   -2.9296558  0.024967292   -4.1907392    1.2610834  1010000 
  714000   0.84154276   -4.1912244   -4.1912244   -2.9289116  0.020239657   -4.1912244    1.2623129  1010000 
  715000    0.8413028   -4.1911047   -4.1911047   -2.9291517   0.02112933   -4.1911047     1.261953  1010000 
  716000   0.84207924   -4.1920397   -4.1920397   -2.9289221  0.017089319   -4.1920397    1.2631176  1010000 
  717000    0.8417206   -4.1928231   -4.1928231   -2.9302435  0.018913453   -4.1928231    1.2625796  1010000 
  718000    0.8411326   -4.1907945   -4.1907945   -2.9290969  0.023195598   -4.1907945    1.2616976  1010000 
  719000   0.84065659   -4.1901933   -4.1901933   -2.9292097  0.023845961   -4.1901933    1.2609836  1010000 
  720000   0.83986446    -4.189836    -4.189836   -2.9300405  0.022144898    -4.189836    1.2597954  1010000 
  721000   0.84036678   -4.1910995   -4.1910995   -2.9305505  0.016815371   -4.1910995    1.2605489  1010000 
  722000   0.84044584   -4.1912019   -4.1912019   -2.9305344  0.020416937   -4.1912019    1.2606675  1010000 
  723000    0.8408916   -4.1919531   -4.1919531   -2.9306169   0.02250202   -4.1919531    1.2613362  1010000 
  724000    0.8410315   -4.1921289   -4.1921289   -2.9305829  0.022569164   -4.1921289     1.261546  1010000 
  725000   0.84047189   -4.1917198   -4.1917198   -2.9310133  0.025494693   -4.1917198    1.2607066  1010000 
  726000   0.84177879    -4.193196    -4.193196    -2.930529  0.022283952    -4.193196    1.2626669  1010000 
  727000   0.84135319   -4.1925026   -4.1925026    -2.930474  0.026927311   -4.1925026    1.2620285  1010000 
  728000   0.84194453   -4.1934623   -4.1934623   -2.9305467  0.022789442   -4.1934623    1.2629155  1010000 
  729000   0.84205195   -4.1938742   -4.1938742   -2.9307975  0.023052893   -4.1938742    1.2630767  1010000 
  730000   0.84163362   -4.1938552   -4.1938552   -2.9314061  0.025869119   -4.1938552    1.2624492  1010000 
  731000   0.84213182   -4.1937866   -4.1937866   -2.9305901  0.024641303   -4.1937866    1.2631965  1010000 
  732000   0.84167331   -4.1938888   -4.1938888   -2.9313801  0.024717208   -4.1938888    1.2625087  1010000 
  733000   0.84175387   -4.1940353   -4.1940353   -2.9314057  0.027155194   -4.1940353    1.2626295  1010000 
  734000   0.84263107   -4.1951599   -4.1951599   -2.9312146  0.023144772   -4.1951599    1.2639454  1010000 
  735000   0.84208485   -4.1947083   -4.1947083   -2.9315822  0.024267227   -4.1947083     1.263126  1010000 
  736000   0.84088546    -4.193373    -4.193373   -2.9320461  0.025964785    -4.193373    1.2613269  1010000 
  737000   0.84121615   -4.1937739   -4.1937739   -2.9319509  0.024938784   -4.1937739     1.261823  1010000 
  738000   0.84107492    -4.194409    -4.194409   -2.9327979  0.021025227    -4.194409    1.2616111  1010000 
  739000   0.84112336   -4.1949357   -4.1949357   -2.9332519   0.02063734   -4.1949357    1.2616838  1010000 
  740000   0.84062285   -4.1941905   -4.1941905   -2.9332575  0.024950123   -4.1941905     1.260933  1010000 
  741000   0.84106138   -4.1948107   -4.1948107   -2.9332199  0.018919225   -4.1948107    1.2615908  1010000 
  742000   0.84131222   -4.1947237   -4.1947237   -2.9327566  0.020800691   -4.1947237    1.2619671  1010000 
  743000   0.84080777   -4.1940516   -4.1940516   -2.9328411  0.022167626   -4.1940516    1.2612104  1010000 
  744000   0.84106161   -4.1945566   -4.1945566   -2.9329655  0.023810511   -4.1945566    1.2615912  1010000 
  745000   0.84159812   -4.1953043   -4.1953043   -2.9329084  0.018591808   -4.1953043    1.2623959  1010000 
  746000   0.84080326   -4.1941358   -4.1941358   -2.9329322  0.024624227   -4.1941358    1.2612036  1010000 
  747000   0.84147354   -4.1950622   -4.1950622   -2.9328532  0.024041522   -4.1950622    1.2622091  1010000 
  748000   0.84092986   -4.1938271   -4.1938271   -2.9324335   0.02373428   -4.1938271    1.2613935  1010000 
  749000   0.84075336   -4.1940394   -4.1940394   -2.9329107  0.027641954   -4.1940394    1.2611288  1010000 
  750000   0.84126422   -4.1946514   -4.1946514   -2.9327563  0.024483571   -4.1946514    1.2618951  1010000 
  751000    0.8411265   -4.1938425   -4.1938425    -2.932154  0.024481424   -4.1938425    1.2616885  1010000 
  752000   0.84197536   -4.1952291   -4.1952291   -2.9322673  0.020631181   -4.1952291    1.2629618  1010000 
  753000   0.84117958   -4.1938117   -4.1938117   -2.9320436  0.023494382   -4.1938117    1.2617681  1010000 
  754000   0.84178978   -4.1944372   -4.1944372   -2.9317538  0.024027354   -4.1944372    1.2626834  1010000 
  755000   0.84099507   -4.1935405   -4.1935405   -2.9320492  0.025144802   -4.1935405    1.2614914  1010000 
  756000   0.84143707   -4.1941648   -4.1941648   -2.9320104  0.023314578   -4.1941648    1.2621544  1010000 
  757000   0.84080247   -4.1931393   -4.1931393   -2.9319369  0.022597873   -4.1931393    1.2612025  1010000 
  758000   0.84073265   -4.1933323   -4.1933323   -2.9322346  0.023169737   -4.1933323    1.2610977  1010000 
  759000   0.84104989   -4.1937886   -4.1937886    -2.932215   0.02115933   -4.1937886    1.2615736  1010000 
  760000   0.84080701   -4.1937589   -4.1937589   -2.9325496  0.020474646   -4.1937589    1.2612093  1010000 
  761000   0.84058588   -4.1934604   -4.1934604   -2.9325828  0.021161623   -4.1934604    1.2608776  1010000 
  762000   0.84068031   -4.1931935   -4.1931935   -2.9321743  0.023284238   -4.1931935    1.2610192  1010000 
  763000   0.84046553    -4.193095    -4.193095    -2.932398  0.023936003    -4.193095    1.2606971  1010000 
  764000   0.84068163   -4.1931542   -4.1931542    -2.932133  0.024158587   -4.1931542    1.2610212  1010000 
  765000   0.84135759   -4.1942463   -4.1942463   -2.9322111  0.021484997   -4.1942463    1.2620351  1010000 
  766000    0.8415502   -4.1947356   -4.1947356   -2.9324115  0.020287643   -4.1947356    1.2623241  1010000 
  767000   0.84094353   -4.1940575   -4.1940575   -2.9326434  0.022288732   -4.1940575     1.261414  1010000 
  768000    0.8404311   -4.1931242   -4.1931242   -2.9324788  0.023818482   -4.1931242    1.2606454  1010000 
  769000   0.84070968   -4.1940981   -4.1940981   -2.9330348  0.020921086   -4.1940981    1.2610633  1010000 
  770000   0.84075142   -4.1943083   -4.1943083   -2.9331824  0.020177883   -4.1943083    1.2611259  1010000 
  771000   0.84013651   -4.1935949   -4.1935949   -2.9333914  0.023987598   -4.1935949    1.2602035  1010000 
  772000   0.84169199   -4.1961724   -4.1961724   -2.9336356  0.018463264   -4.1961724    1.2625367  1010000 
  773000   0.84131261   -4.1960667   -4.1960667    -2.934099  0.024441967   -4.1960667    1.2619677  1010000 
  774000   0.84125289   -4.1959266   -4.1959266   -2.9340486  0.021456945   -4.1959266    1.2618781  1010000 
  775000   0.84168085   -4.1960949   -4.1960949   -2.9335748  0.022381379   -4.1960949      1.26252  1010000 
  776000   0.83991793   -4.1939127   -4.1939127    -2.934037  0.026369688   -4.1939127    1.2598757  1010000 
  777000   0.84120879   -4.1954386   -4.1954386   -2.9336266    0.0270472   -4.1954386    1.2618119  1010000 
  778000   0.84089874   -4.1949479   -4.1949479    -2.933601  0.027572038   -4.1949479    1.2613469  1010000 
  779000   0.84150008   -4.1964281   -4.1964281   -2.9341793  0.023386655   -4.1964281    1.2622489  1010000 
  780000   0.84118696    -4.196476    -4.196476   -2.9346968  0.025126107    -4.196476    1.2617792  1010000 
  781000   0.84114977   -4.1959892   -4.1959892   -2.9342658  0.024938903   -4.1959892    1.2617234  1010000 
  782000   0.84079139   -4.1948884   -4.1948884   -2.9337026  0.024753188   -4.1948884    1.2611858  1010000 
  783000   0.84100115   -4.1955192   -4.1955192   -2.9340187  0.025057627   -4.1955192    1.2615005  1010000 
  784000   0.84193902   -4.1972703   -4.1972703    -2.934363  0.021463448   -4.1972703    1.2629073  1010000 
  785000   0.84092894   -4.1959034   -4.1959034   -2.9345112  0.022022795   -4.1959034    1.2613922  1010000 
  786000   0.84106712    -4.196476    -4.196476   -2.9348765   0.02583975    -4.196476    1.2615994  1010000 
  787000   0.84125463   -4.1961218   -4.1961218   -2.9342411  0.022128443   -4.1961218    1.2618807  1010000 
  788000   0.84066007    -4.194887    -4.194887   -2.9338982  0.023023128    -4.194887    1.2609889  1010000 
  789000    0.8411749   -4.1957547   -4.1957547   -2.9339936  0.016821725   -4.1957547    1.2617611  1010000 
  790000    0.8398864   -4.1937879   -4.1937879   -2.9339595  0.025839379   -4.1937879    1.2598284  1010000 
  791000   0.84103421   -4.1955184   -4.1955184   -2.9339684  0.019084522   -4.1955184    1.2615501  1010000 
  792000   0.84017727   -4.1945238   -4.1945238   -2.9342591  0.021042175   -4.1945238    1.2602647  1010000 
  793000   0.84090581   -4.1949446   -4.1949446   -2.9335871  0.020877803   -4.1949446    1.2613575  1010000 
  794000   0.83954461   -4.1930378   -4.1930378   -2.9337221  0.022639213   -4.1930378    1.2593157  1010000 
  795000   0.84125756   -4.1954591   -4.1954591    -2.933574  0.017345468   -4.1954591    1.2618851  1010000 
  796000   0.83991914   -4.1936686   -4.1936686   -2.9337912  0.024147724   -4.1936686    1.2598775  1010000 
  797000   0.84031458   -4.1946145   -4.1946145   -2.9341439  0.018876502   -4.1946145    1.2604706  1010000 
  798000   0.83931431   -4.1929473   -4.1929473   -2.9339771  0.024348674   -4.1929473    1.2589702  1010000 
  799000   0.83968654   -4.1940467   -4.1940467   -2.9345181  0.024131184   -4.1940467    1.2595286  1010000 
  800000   0.83898223   -4.1938568   -4.1938568   -2.9353847   0.02319327   -4.1938568    1.2584721  1010000 
  801000    0.8402541   -4.1949141   -4.1949141   -2.9345342  0.019194966   -4.1949141    1.2603799  1010000 
  802000   0.84056154    -4.194886    -4.194886   -2.9340449    0.0194248    -4.194886    1.2608411  1010000 
  803000   0.84022393   -4.1944687   -4.1944687   -2.9341341  0.021469381   -4.1944687    1.2603346  1010000 
  804000   0.84002041   -4.1945437   -4.1945437   -2.9345144  0.022554288   -4.1945437    1.2600294  1010000 
  805000   0.84034277   -4.1955219   -4.1955219    -2.935009  0.020776785   -4.1955219    1.2605129  1010000 
  806000   0.84103928   -4.1965744   -4.1965744   -2.9350167  0.020632879   -4.1965744    1.2615577  1010000 
  807000   0.84067058   -4.1964083   -4.1964083   -2.9354036  0.021513785   -4.1964083    1.2610046  1010000 
  808000   0.84071327   -4.1961146   -4.1961146   -2.9350459  0.021552514   -4.1961146    1.2610687  1010000 
  809000   0.84124786   -4.1973052   -4.1973052   -2.9354346  0.022195938   -4.1973052    1.2618705  1010000 
  810000   0.84113586   -4.1973664   -4.1973664   -2.9356638  0.024004027   -4.1973664    1.2617025  1010000 
  811000   0.84102516   -4.1969986   -4.1969986   -2.9354621  0.021451827   -4.1969986    1.2615365  1010000 
  812000   0.84190322   -4.1977605   -4.1977605    -2.934907  0.025383478   -4.1977605    1.2628536  1010000 
  813000   0.84124707   -4.1975219   -4.1975219   -2.9356525  0.023049488   -4.1975219    1.2618693  1010000 
  814000   0.84059024   -4.1970007   -4.1970007   -2.9361165  0.026926675   -4.1970007    1.2608841  1010000 
  815000   0.84089419    -4.197842    -4.197842   -2.9365019  0.023158071    -4.197842      1.26134  1010000 
  816000   0.84077004   -4.1977663   -4.1977663   -2.9366125  0.025351565   -4.1977663    1.2611538  1010000 
  817000   0.84072025   -4.1972035   -4.1972035   -2.9361244  0.026494122   -4.1972035    1.2610791  1010000 
  818000   0.84120432   -4.1977196   -4.1977196   -2.9359144  0.025713039   -4.1977196    1.2618052  1010000 
  819000   0.84099877   -4.1971499   -4.1971499    -2.935653  0.025750486   -4.1971499    1.2614969  1010000 
  820000   0.83941245   -4.1957438   -4.1957438   -2.9366264  0.023683314   -4.1957438    1.2591174  1010000 
  821000   0.84040309   -4.1968119   -4.1968119   -2.9362085  0.024499059   -4.1968119    1.2606034  1010000 
  822000   0.83957134   -4.1961017   -4.1961017   -2.9367459  0.024397111   -4.1961017    1.2593558  1010000 
  823000   0.84026175   -4.1968108   -4.1968108   -2.9364194  0.024377936   -4.1968108    1.2603914  1010000 
  824000   0.84033664   -4.1964273   -4.1964273   -2.9359236  0.022655725   -4.1964273    1.2605037  1010000 
  825000   0.84027199    -4.196006    -4.196006   -2.9355993  0.023918703    -4.196006    1.2604067  1010000 
  826000   0.84089219   -4.1969985   -4.1969985   -2.9356614   0.02183389   -4.1969985     1.261337  1010000 
  827000   0.84040926   -4.1962477   -4.1962477   -2.9356351  0.024934946   -4.1962477    1.2606126  1010000 
  828000   0.83998353   -4.1948239   -4.1948239   -2.9348499  0.026233536   -4.1948239    1.2599741  1010000 
  829000   0.84127794   -4.1971232   -4.1971232   -2.9352075   0.02352191   -4.1971232    1.2619157  1010000 
  830000   0.84061383   -4.1974732   -4.1974732   -2.9365537  0.019000406   -4.1974732    1.2609195  1010000 
  831000   0.84080766   -4.1972468   -4.1972468   -2.9360365  0.017702446   -4.1972468    1.2612102  1010000 
  832000   0.83993586   -4.1955949   -4.1955949   -2.9356923  0.018013553   -4.1955949    1.2599025  1010000 
  833000   0.84031818   -4.1955987   -4.1955987   -2.9351227  0.020825066   -4.1955987     1.260476  1010000 
  834000   0.84027856   -4.1962457   -4.1962457   -2.9358291  0.020097711   -4.1962457    1.2604166  1010000 
  835000   0.83989585   -4.1956481   -4.1956481   -2.9358056  0.020164367   -4.1956481    1.2598425  1010000 
  836000   0.83997722   -4.1956925   -4.1956925   -2.9357279   0.02317576   -4.1956925    1.2599646  1010000 
  837000   0.84001418   -4.1960637   -4.1960637   -2.9360437  0.023814653   -4.1960637      1.26002  1010000 
  838000   0.83982042   -4.1960239   -4.1960239   -2.9362946  0.023141454   -4.1960239    1.2597294  1010000 
  839000   0.84057104   -4.1973087   -4.1973087   -2.9364534  0.019921264   -4.1973087    1.2608553  1010000 
  840000   0.84083306   -4.1979853   -4.1979853    -2.936737  0.020181934   -4.1979853    1.2612483  1010000 
  841000   0.84032388   -4.1965969   -4.1965969   -2.9361124  0.025816497   -4.1965969    1.2604846  1010000 
  842000    0.8409539   -4.1973335   -4.1973335   -2.9359039  0.026478838   -4.1973335    1.2614296  1010000 
  843000   0.84135389   -4.1976188   -4.1976188   -2.9355892  0.023980751   -4.1976188    1.2620296  1010000 
  844000   0.84094464    -4.197452    -4.197452   -2.9360363  0.027317669    -4.197452    1.2614157  1010000 
  845000   0.84094245   -4.1976987   -4.1976987   -2.9362862  0.025249034   -4.1976987    1.2614124  1010000 
  846000   0.84164647   -4.1986486   -4.1986486   -2.9361801  0.024088839   -4.1986486    1.2624685  1010000 
  847000   0.84121818   -4.1974671   -4.1974671   -2.9356411  0.027273223   -4.1974671     1.261826  1010000 
  848000   0.84069953   -4.1969419   -4.1969419   -2.9358939  0.024801882   -4.1969419     1.261048  1010000 
  849000   0.84129352   -4.1978548   -4.1978548   -2.9359157  0.023779193   -4.1978548     1.261939  1010000 
  850000   0.84005252   -4.1961973   -4.1961973   -2.9361198  0.024316952   -4.1961973    1.2600775  1010000 
  851000   0.84136352   -4.1979584   -4.1979584   -2.9359144  0.022081029   -4.1979584     1.262044  1010000 
  852000   0.84036518   -4.1967528   -4.1967528   -2.9362062   0.02516086   -4.1967528    1.2605465  1010000 
  853000     0.839269   -4.1952107   -4.1952107   -2.9363085  0.027763729   -4.1952107    1.2589023  1010000 
  854000   0.84015165   -4.1969026   -4.1969026   -2.9366763  0.022721541   -4.1969026    1.2602262  1010000 
  855000   0.84017302   -4.1958265   -4.1958265   -2.9355682  0.027823707   -4.1958265    1.2602583  1010000 
  856000   0.84148692   -4.1979851   -4.1979851   -2.9357559  0.019772054   -4.1979851    1.2622291  1010000 
  857000   0.84019819   -4.1963127   -4.1963127   -2.9360167  0.022128132   -4.1963127     1.260296  1010000 
  858000   0.83996668   -4.1957165   -4.1957165   -2.9357678  0.018912325   -4.1957165    1.2599488  1010000 
  859000   0.83996643   -4.1952536   -4.1952536   -2.9353052   0.01976737   -4.1952536    1.2599484  1010000 
  860000   0.84085279     -4.19587     -4.19587    -2.934592  0.021423066     -4.19587    1.2612779  1010000 
  861000   0.83990682   -4.1947147   -4.1947147   -2.9348558  0.024359178   -4.1947147     1.259859  1010000 
  862000   0.84039284   -4.1951353   -4.1951353   -2.9345473  0.022749035   -4.1951353     1.260588  1010000 
  863000   0.84032787   -4.1954305   -4.1954305   -2.9349399  0.023777697   -4.1954305    1.2604906  1010000 
  864000   0.84096648   -4.1964324   -4.1964324   -2.9349839  0.021003651   -4.1964324    1.2614485  1010000 
  865000   0.84000617   -4.1950331   -4.1950331   -2.9350251  0.022027638   -4.1950331     1.260008  1010000 
  866000   0.84015222   -4.1953073   -4.1953073   -2.9350802   0.02063398   -4.1953073    1.2602271  1010000 
  867000   0.84026641   -4.1953365   -4.1953365   -2.9349382  0.022968536   -4.1953365    1.2603984  1010000 
  868000   0.84048763   -4.1964818   -4.1964818   -2.9357516  0.018032953   -4.1964818    1.2607302  1010000 
  869000   0.84011492   -4.1959449   -4.1959449   -2.9357737  0.019272862   -4.1959449    1.2601711  1010000 
  870000   0.84028527   -4.1960438   -4.1960438   -2.9356172  0.024022235   -4.1960438    1.2604267  1010000 
  871000   0.84078263   -4.1968478   -4.1968478   -2.9356751  0.018654304   -4.1968478    1.2611727  1010000 
  872000   0.84025324   -4.1959284   -4.1959284   -2.9355498  0.025782586   -4.1959284    1.2603786  1010000 
  873000   0.84082357   -4.1959912   -4.1959912    -2.934757  0.025612535   -4.1959912    1.2612341  1010000 
  874000    0.8407679   -4.1960561   -4.1960561   -2.9349055  0.023698289   -4.1960561    1.2611506  1010000 
  875000   0.84095161   -4.1962078   -4.1962078   -2.9347817  0.027378464   -4.1962078    1.2614262  1010000 
  876000   0.84146934   -4.1959012   -4.1959012   -2.9336985  0.029137473   -4.1959012    1.2622028  1010000 
  877000   0.84029393   -4.1952117   -4.1952117   -2.9347721  0.024603047   -4.1952117    1.2604396  1010000 
  878000    0.8407738   -4.1958263   -4.1958263   -2.9346669  0.023762131   -4.1958263    1.2611594  1010000 
  879000   0.84049202   -4.1961141   -4.1961141   -2.9353773  0.023934392   -4.1961141    1.2607368  1010000 
  880000   0.84086804   -4.1974444   -4.1974444   -2.9361436  0.021602881   -4.1974444    1.2613008  1010000 
  881000   0.83974633   -4.1962708   -4.1962708   -2.9366526  0.024188861   -4.1962708    1.2596183  1010000 
  882000   0.84056725   -4.1971419   -4.1971419   -2.9362922  0.021120261   -4.1971419    1.2608496  1010000 
  883000   0.84036605   -4.1961135   -4.1961135   -2.9355657  0.021390083   -4.1961135    1.2605478  1010000 
  884000    0.8408476   -4.1961504   -4.1961504   -2.9348802  0.021766426   -4.1961504    1.2612702  1010000 
  885000   0.84079754   -4.1962759   -4.1962759   -2.9350808   0.02342783   -4.1962759    1.2611951  1010000 
  886000   0.84154095   -4.1975493   -4.1975493   -2.9352391  0.020529139   -4.1975493    1.2623102  1010000 
  887000   0.84119446   -4.1963959   -4.1963959   -2.9346054  0.025002185   -4.1963959    1.2617904  1010000 
  888000   0.84104948   -4.1958034   -4.1958034   -2.9342304  0.026401569   -4.1958034     1.261573  1010000 
  889000   0.84165312   -4.1972845   -4.1972845   -2.9348061  0.021954357   -4.1972845    1.2624784  1010000 
  890000   0.84077498   -4.1957312   -4.1957312     -2.93457  0.025155267   -4.1957312    1.2611612  1010000 
  891000   0.84098511   -4.1962907   -4.1962907   -2.9348142  0.021850183   -4.1962907    1.2614764  1010000 
  892000    0.8405978   -4.1955523   -4.1955523   -2.9346568  0.021795149   -4.1955523    1.2608955  1010000 
  893000   0.83974823   -4.1946591   -4.1946591    -2.935038  0.019405128   -4.1946591    1.2596211  1010000 
  894000   0.83907263   -4.1949689   -4.1949689   -2.9363612  0.021141423   -4.1949689    1.2586077  1010000 
  895000   0.83888696   -4.1947717   -4.1947717   -2.9364425  0.025995405   -4.1947717    1.2583292  1010000 
  896000   0.84060272     -4.19614     -4.19614   -2.9352372  0.020464334     -4.19614    1.2609028  1010000 
  897000   0.84024967    -4.195441    -4.195441   -2.9350677  0.021304784    -4.195441    1.2603733  1010000 
  898000   0.84030749   -4.1957411   -4.1957411   -2.9352811  0.020847836   -4.1957411      1.26046  1010000 
  899000   0.84108526   -4.1971874   -4.1971874   -2.9355608  0.020422599   -4.1971874    1.2616266  1010000 
  900000   0.84107692   -4.1973164   -4.1973164   -2.9357022  0.019658329   -4.1973164    1.2616141  1010000 
  901000   0.84051283   -4.1962296   -4.1962296   -2.9354616  0.023538738   -4.1962296     1.260768  1010000 
  902000   0.84090451   -4.1967171   -4.1967171   -2.9353615  0.025171958   -4.1967171    1.2613555  1010000 
  903000   0.84047525   -4.1971352   -4.1971352   -2.9364235  0.019903358   -4.1971352    1.2607116  1010000 
  904000    0.8396879   -4.1955552   -4.1955552   -2.9360246  0.023360076   -4.1955552    1.2595306  1010000 
  905000   0.84032435   -4.1965409   -4.1965409   -2.9360557  0.023988998   -4.1965409    1.2604853  1010000 
  906000   0.84071573   -4.1971013   -4.1971013   -2.9360289  0.020533397   -4.1971013    1.2610723  1010000 
  907000   0.84035106   -4.1977138   -4.1977138   -2.9371884  0.024100218   -4.1977138    1.2605253  1010000 
  908000   0.84071764   -4.1976816   -4.1976816   -2.9366064  0.021216026   -4.1976816    1.2610752  1010000 
  909000   0.84095797   -4.1976488   -4.1976488   -2.9362131  0.018469478   -4.1976488    1.2614357  1010000 
  910000   0.84080486    -4.197569    -4.197569    -2.936363  0.024116464    -4.197569     1.261206  1010000 
  911000   0.84117066     -4.19765     -4.19765   -2.9358953  0.023082093     -4.19765    1.2617547  1010000 
  912000   0.84097403    -4.197446    -4.197446   -2.9359863  0.026296242    -4.197446    1.2614598  1010000 
  913000   0.84130428   -4.1967912   -4.1967912    -2.934836  0.028245091   -4.1967912    1.2619552  1010000 
  914000   0.84148563   -4.1973857   -4.1973857   -2.9351585  0.027287359   -4.1973857    1.2622272  1010000 
  915000   0.84123283   -4.1971615   -4.1971615   -2.9353135  0.026251422   -4.1971615     1.261848  1010000 
  916000   0.84080865   -4.1973876   -4.1973876   -2.9361758  0.023690018   -4.1973876    1.2612117  1010000 
  917000   0.84110494   -4.1977509   -4.1977509   -2.9360947  0.026105847   -4.1977509    1.2616562  1010000 
  918000   0.84066763   -4.1970099   -4.1970099   -2.9360097  0.027165007   -4.1970099    1.2610002  1010000 
  919000   0.84041521   -4.1966422   -4.1966422   -2.9360206  0.020745637   -4.1966422    1.2606216  1010000 
  920000   0.84000953   -4.1967059   -4.1967059   -2.9366928  0.023458039   -4.1967059     1.260013  1010000 
  921000   0.84027107   -4.1967668   -4.1967668   -2.9363614  0.018387917   -4.1967668    1.2604054  1010000 
  922000   0.84029207   -4.1964708   -4.1964708    -2.936034  0.019806903   -4.1964708    1.2604369  1010000 
  923000   0.84025873   -4.1961215   -4.1961215   -2.9357347  0.021469126   -4.1961215    1.2603868  1010000 
  924000   0.83973978   -4.1956338   -4.1956338   -2.9360254  0.022071681   -4.1956338    1.2596084  1010000 
  925000   0.84004229   -4.1963377   -4.1963377   -2.9362755  0.020725994   -4.1963377    1.2600622  1010000 
  926000   0.83984457   -4.1961405   -4.1961405   -2.9363749  0.018139598   -4.1961405    1.2597656  1010000 
  927000   0.83971814    -4.195667    -4.195667    -2.936091  0.020544899    -4.195667     1.259576  1010000 
  928000   0.83966367   -4.1954331   -4.1954331   -2.9359388  0.017936543   -4.1954331    1.2594943  1010000 
  929000   0.83960576   -4.1946634   -4.1946634    -2.935256  0.020980707   -4.1946634    1.2594074  1010000 
  930000   0.84057429   -4.1957219   -4.1957219   -2.9348617  0.022159303   -4.1957219    1.2608602  1010000 
  931000   0.84017516   -4.1950203   -4.1950203   -2.9347588  0.020269969   -4.1950203    1.2602615  1010000 
  932000   0.84034571   -4.1956418   -4.1956418   -2.9351245  0.023182546   -4.1956418    1.2605173  1010000 
  933000   0.84050555   -4.1960885   -4.1960885   -2.9353314  0.021083645   -4.1960885    1.2607571  1010000 
  934000   0.83995505   -4.1956139   -4.1956139   -2.9356826   0.02529776   -4.1956139    1.2599313  1010000 
  935000   0.84004404   -4.1964615   -4.1964615   -2.9363967  0.022758026   -4.1964615    1.2600648  1010000 
  936000   0.83950373   -4.1951976   -4.1951976   -2.9359432   0.02425727   -4.1951976    1.2592544  1010000 
  937000   0.83934049   -4.1959911   -4.1959911   -2.9369816  0.021454902   -4.1959911    1.2590095  1010000 
  938000   0.83935659   -4.1969691   -4.1969691   -2.9379354  0.020638479   -4.1969691    1.2590336  1010000 
  939000   0.84047941   -4.1981703   -4.1981703   -2.9374524  0.021266076   -4.1981703    1.2607179  1010000 
  940000   0.84046208   -4.1974073   -4.1974073   -2.9367154  0.024468512   -4.1974073    1.2606919  1010000 
  941000   0.84079966   -4.1972816   -4.1972816   -2.9360833  0.026078685   -4.1972816    1.2611982  1010000 
  942000   0.84101642   -4.1976543   -4.1976543   -2.9361309  0.024182455   -4.1976543    1.2615234  1010000 
  943000   0.84116967   -4.1976909   -4.1976909   -2.9359376   0.02826225   -4.1976909    1.2617533  1010000 
  944000   0.84123308    -4.197289    -4.197289   -2.9354406  0.028263193    -4.197289    1.2618484  1010000 
  945000   0.84198458   -4.1983966   -4.1983966    -2.935421   0.02639973   -4.1983966    1.2629756  1010000 
  946000   0.84106848   -4.1976388   -4.1976388   -2.9360373  0.027078984   -4.1976388    1.2616015  1010000 
  947000   0.84158883    -4.199181    -4.199181    -2.936799  0.024377117    -4.199181     1.262382  1010000 
  948000    0.8404042   -4.1974486   -4.1974486   -2.9368435   0.02812092   -4.1974486    1.2606051  1010000 
  949000   0.84047013   -4.1980288   -4.1980288   -2.9373248  0.022721686   -4.1980288    1.2607039  1010000 
  950000   0.83994268   -4.1974204   -4.1974204   -2.9375076   0.02527756   -4.1974204    1.2599128  1010000 
  951000     0.839685   -4.1965906   -4.1965906   -2.9370643  0.026316341   -4.1965906    1.2595263  1010000 
  952000   0.84013306   -4.1976302   -4.1976302   -2.9374318  0.020746087   -4.1976302    1.2601983  1010000 
  953000   0.84059286   -4.1973601   -4.1973601    -2.936472  0.019671855   -4.1973601     1.260888  1010000 
  954000   0.84016088   -4.1970489   -4.1970489   -2.9368089  0.021480657   -4.1970489    1.2602401  1010000 
  955000   0.83994474   -4.1962699   -4.1962699    -2.936354   0.02042781   -4.1962699    1.2599159  1010000 
  956000   0.84033712   -4.1969482   -4.1969482   -2.9364438  0.019661393   -4.1969482    1.2605044  1010000 
  957000   0.84055573   -4.1969674   -4.1969674    -2.936135  0.021123749   -4.1969674    1.2608323  1010000 
  958000   0.84062283   -4.1971608   -4.1971608   -2.9362278  0.022142515   -4.1971608     1.260933  1010000 
  959000   0.83994442   -4.1955268   -4.1955268   -2.9356114   0.02497563   -4.1955268    1.2599154  1010000 
  960000   0.83952646   -4.1953644   -4.1953644   -2.9360759  0.021952161   -4.1953644    1.2592884  1010000 
  961000   0.84031004   -4.1961341   -4.1961341   -2.9356702  0.023009102   -4.1961341    1.2604638  1010000 
  962000   0.84033583    -4.195742    -4.195742   -2.9352395  0.020338664    -4.195742    1.2605025  1010000 
  963000    0.8398887   -4.1952732   -4.1952732   -2.9354414  0.023599821   -4.1952732    1.2598318  1010000 
  964000   0.83988911   -4.1956189   -4.1956189   -2.9357865  0.022309519   -4.1956189    1.2598324  1010000 
  965000   0.83997136   -4.1958298   -4.1958298    -2.935874  0.022027899   -4.1958298    1.2599558  1010000 
  966000   0.84132511   -4.1979119   -4.1979119   -2.9359255  0.021068748   -4.1979119    1.2619864  1010000 
  967000    0.8401675   -4.1957215   -4.1957215   -2.9354715  0.026098893   -4.1957215      1.26025  1010000 
  968000    0.8407815   -4.1965658   -4.1965658   -2.9353948   0.02350628   -4.1965658     1.261171  1010000 
  969000    0.8405669   -4.1961149   -4.1961149   -2.9352658  0.026013829   -4.1961149    1.2608491  1010000 
  970000   0.84065095   -4.1961793   -4.1961793   -2.9352041  0.023475526   -4.1961793    1.2609752  1010000 
  971000   0.84047357   -4.1957028   -4.1957028   -2.9349937  0.025401137   -4.1957028    1.2607091  1010000 
  972000   0.84068277   -4.1964336   -4.1964336   -2.9354107  0.022908181   -4.1964336    1.2610229  1010000 
  973000   0.84138432   -4.1968267   -4.1968267   -2.9347515  0.020514685   -4.1968267    1.2620752  1010000 
  974000   0.84074871   -4.1966927   -4.1966927   -2.9355709  0.022846327   -4.1966927    1.2611218  1010000 
  975000   0.84068976   -4.1962072   -4.1962072   -2.9351738  0.020453001   -4.1962072    1.2610334  1010000 
  976000   0.84053102   -4.1964414   -4.1964414   -2.9356461  0.026682749   -4.1964414    1.2607953  1010000 
  977000   0.83969917   -4.1954017   -4.1954017   -2.9358542  0.023661995   -4.1954017    1.2595475  1010000 
  978000   0.84021746   -4.1965431   -4.1965431   -2.9362181  0.021254097   -4.1965431    1.2603249  1010000 
  979000    0.8398027   -4.1960223   -4.1960223   -2.9363195  0.022699109   -4.1960223    1.2597028  1010000 
  980000   0.84058924   -4.1966228   -4.1966228   -2.9357402  0.019823243   -4.1966228    1.2608826  1010000 
  981000   0.83941612   -4.1953242   -4.1953242   -2.9362012  0.020791914   -4.1953242    1.2591229  1010000 
  982000   0.84018589   -4.1960171   -4.1960171   -2.9357395   0.02082447   -4.1960171    1.2602776  1010000 
  983000   0.83997859   -4.1960753   -4.1960753   -2.9361086  0.020123696   -4.1960753    1.2599666  1010000 
  984000   0.83989271   -4.1963176   -4.1963176   -2.9364798  0.021727561   -4.1963176    1.2598378  1010000 
  985000   0.84025903   -4.1970819   -4.1970819   -2.9366946   0.02105897   -4.1970819    1.2603873  1010000 
  986000   0.84001387   -4.1968495   -4.1968495     -2.93683  0.020597607   -4.1968495    1.2600196  1010000 
  987000   0.83992225   -4.1968389   -4.1968389   -2.9369568  0.020900522   -4.1968389    1.2598821  1010000 
  988000   0.84021113   -4.1967049   -4.1967049   -2.9363895  0.023758378   -4.1967049    1.2603154  1010000 
  989000   0.84001567    -4.196496    -4.196496   -2.9364738  0.022763496    -4.196496    1.2600223  1010000 
  990000    0.8412217   -4.1981434   -4.1981434   -2.9363121  0.021500566   -4.1981434    1.2618313  1010000 
  991000   0.84014952   -4.1965599   -4.1965599   -2.9363369  0.027146951   -4.1965599     1.260223  1010000 
  992000   0.84084114   -4.1975541   -4.1975541   -2.9362936   0.02164822   -4.1975541    1.2612605  1010000 
  993000   0.84053593   -4.1971578   -4.1971578   -2.9363551  0.026632177   -4.1971578    1.2608026  1010000 
  994000   0.84052382    -4.197204    -4.197204   -2.9364195  0.025824648    -4.197204    1.2607845  1010000 
  995000   0.84164023   -4.1983973   -4.1983973   -2.9359382  0.020507499   -4.1983973    1.2624591  1010000 
  996000   0.84106251   -4.1975397   -4.1975397   -2.9359472  0.027473753   -4.1975397    1.2615925  1010000 
  997000   0.84112215   -4.1979384   -4.1979384   -2.9362565  0.023636608   -4.1979384     1.261682  1010000 
  998000    0.8419582   -4.1981357   -4.1981357   -2.9351997  0.026913401   -4.1981357    1.2629361  1010000 
  999000   0.84192567   -4.1989359   -4.1989359   -2.9360486  0.026957291   -4.1989359    1.2628872  1010000 
 1000000   0.84083065   -4.1974231   -4.1974231   -2.9361784  0.024359642   -4.1974231    1.2612447  1010000 
 1001000   0.84037554   -4.1970556   -4.1970556   -2.9364935  0.024216838   -4.1970556    1.2605621  1010000 
 1002000   0.84000923   -4.1973485   -4.1973485   -2.9373359  0.021470705   -4.1973485    1.2600126  1010000 
 1003000   0.83923501   -4.1962005   -4.1962005   -2.9373492  0.023976672   -4.1962005    1.2588513  1010000 
 1004000   0.83963489    -4.196449    -4.196449   -2.9369979   0.02136606    -4.196449    1.2594511  1010000 
 1005000    0.8404596   -4.1968101   -4.1968101   -2.9361219  0.019376318   -4.1968101    1.2606882  1010000 
 1006000   0.83934826   -4.1952553   -4.1952553   -2.9362341   0.02746808   -4.1952553    1.2590211  1010000 
 1007000   0.84087321    -4.197991    -4.197991   -2.9366824  0.019919235    -4.197991    1.2613086  1010000 
 1008000   0.83995616   -4.1956395   -4.1956395   -2.9357065  0.026927666   -4.1956395     1.259933  1010000 
 1009000   0.84094453   -4.1968837   -4.1968837   -2.9354682  0.020728937   -4.1968837    1.2614155  1010000 
 1010000   0.83999443   -4.1955258   -4.1955258   -2.9355354  0.024734921   -4.1955258    1.2599904  1010000 
 1011000   0.84022777   -4.1956967   -4.1956967   -2.9353563  0.019648027   -4.1956967    1.2603404  1010000 
 1012000   0.83972908   -4.1949601   -4.1949601   -2.9353677  0.020236936   -4.1949601    1.2595924  1010000 
 1013000   0.83959141   -4.1946599   -4.1946599    -2.935274  0.021379599   -4.1946599    1.2593859  1010000 
 1014000   0.84063184   -4.1962513   -4.1962513   -2.9353048  0.016889568   -4.1962513    1.2609465  1010000 
 1015000   0.83992787    -4.195036    -4.195036   -2.9351455  0.024849688    -4.195036    1.2598906  1010000 
 1016000   0.84053463   -4.1953972   -4.1953972   -2.9345966  0.025229707   -4.1953972    1.2608007  1010000 
 1017000   0.84053077   -4.1952425   -4.1952425   -2.9344476  0.025907854   -4.1952425    1.2607949  1010000 
 1018000   0.84071723   -4.1954697   -4.1954697   -2.9343951  0.024329284   -4.1954697    1.2610746  1010000 
 1019000   0.84103744   -4.1955418   -4.1955418   -2.9339869   0.02066315   -4.1955418    1.2615549  1010000 
 1020000   0.84070615   -4.1945762   -4.1945762   -2.9335182  0.024232727   -4.1945762     1.261058  1010000 
 1021000   0.84102687   -4.1950231   -4.1950231    -2.933484  0.026138258   -4.1950231    1.2615391  1010000 
 1022000   0.84139357   -4.1948798   -4.1948798   -2.9327907  0.023290621   -4.1948798    1.2620891  1010000 
 1023000   0.84152275   -4.1953232   -4.1953232   -2.9330403  0.022469637   -4.1953232    1.2622829  1010000 
 1024000   0.84151299   -4.1946786   -4.1946786   -2.9324103  0.023671426   -4.1946786    1.2622682  1010000 
 1025000   0.84134494   -4.1951319   -4.1951319   -2.9331157  0.025524119   -4.1951319    1.2620162  1010000 
 1026000     0.841578   -4.1948402   -4.1948402   -2.9324745   0.02459012   -4.1948402    1.2623657  1010000 
 1027000   0.84148262   -4.1947557   -4.1947557    -2.932533  0.024700399   -4.1947557    1.2622227  1010000 
 1028000   0.84109233   -4.1943956   -4.1943956   -2.9327583    0.0237627   -4.1943956    1.2616372  1010000 
 1029000   0.84059569   -4.1938734   -4.1938734   -2.9329811  0.020700531   -4.1938734    1.2608923  1010000 
 1030000   0.84079416   -4.1938619   -4.1938619   -2.9326719  0.020945311   -4.1938619      1.26119  1010000 
 1031000   0.84010026   -4.1933453   -4.1933453   -2.9331961  0.021228629   -4.1933453    1.2601491  1010000 
 1032000    0.8403216   -4.1935856   -4.1935856   -2.9331045  0.018966535   -4.1935856    1.2604811  1010000 
 1033000   0.84060877   -4.1946461   -4.1946461   -2.9337342   0.01501773   -4.1946461    1.2609119  1010000 
 1034000   0.83968283    -4.193124    -4.193124    -2.933601  0.020930502    -4.193124     1.259523  1010000 
 1035000    0.8400085    -4.193696    -4.193696   -2.9336844  0.019550538    -4.193696    1.2600115  1010000 
 1036000   0.84020735   -4.1933278   -4.1933278    -2.933018  0.022154932   -4.1933278    1.2603098  1010000 
 1037000   0.84109992   -4.1938169   -4.1938169   -2.9321682  0.023832725   -4.1938169    1.2616486  1010000 
 1038000   0.84144838   -4.1942123   -4.1942123   -2.9320409  0.022182518   -4.1942123    1.2621713  1010000 
 1039000   0.84180651   -4.1946043   -4.1946043   -2.9318958   0.02173959   -4.1946043    1.2627085  1010000 
 1040000   0.84134817   -4.1939229   -4.1939229   -2.9319019  0.024327175   -4.1939229     1.262021  1010000 
 1041000   0.84181181   -4.1940756   -4.1940756   -2.9313591  0.023401364   -4.1940756    1.2627165  1010000 
 1042000   0.84181533   -4.1947066   -4.1947066   -2.9319849  0.023720731   -4.1947066    1.2627217  1010000 
 1043000   0.84162892    -4.194252    -4.194252   -2.9318098  0.023901001    -4.194252    1.2624421  1010000 
 1044000   0.84179654   -4.1951705   -4.1951705    -2.932477  0.022150155   -4.1951705    1.2626936  1010000 
 1045000   0.84173964   -4.1953067   -4.1953067   -2.9326984  0.024375628   -4.1953067    1.2626082  1010000 
 1046000   0.84085185   -4.1939989   -4.1939989   -2.9327224  0.024013522   -4.1939989    1.2612765  1010000 
 1047000   0.84111585   -4.1953469   -4.1953469   -2.9336743   0.01976636   -4.1953469    1.2616725  1010000 
 1048000   0.84065514   -4.1948744   -4.1948744   -2.9338929  0.018936819   -4.1948744    1.2609815  1010000 
 1049000   0.83968698   -4.1938561   -4.1938561   -2.9343269   0.02055363   -4.1938561    1.2595292  1010000 
 1050000   0.84073931    -4.195327    -4.195327   -2.9342193  0.023337551    -4.195327    1.2611077  1010000 
 1051000   0.84071594   -4.1945484   -4.1945484   -2.9334758  0.024166421   -4.1945484    1.2610727  1010000 
 1052000   0.84056454   -4.1951131   -4.1951131   -2.9342675  0.019833467   -4.1951131    1.2608456  1010000 
 1053000   0.84162211   -4.1960023   -4.1960023   -2.9335704  0.019899317   -4.1960023    1.2624319  1010000 
 1054000   0.84209463   -4.1966912   -4.1966912   -2.9335505  0.021550134   -4.1966912    1.2631407  1010000 
 1055000   0.84183355   -4.1961524   -4.1961524   -2.9334033  0.023638325   -4.1961524    1.2627491  1010000 
 1056000   0.84242558   -4.1969541   -4.1969541    -2.933317  0.022555879   -4.1969541    1.2636371  1010000 
 1057000   0.84061509   -4.1950125   -4.1950125   -2.9340911  0.024652182   -4.1950125    1.2609214  1010000 
 1058000   0.84054472   -4.1960516   -4.1960516   -2.9352358  0.020691933   -4.1960516    1.2608158  1010000 
 1059000      0.84041   -4.1951676   -4.1951676   -2.9345538  0.023723143   -4.1951676    1.2606137  1010000 
 1060000   0.84048877   -4.1945868   -4.1945868   -2.9338549  0.023068941   -4.1945868    1.2607319  1010000 
 1061000   0.84148071   -4.1959367   -4.1959367   -2.9337169  0.018902247   -4.1959367    1.2622198  1010000 
 1062000   0.84059257   -4.1945265   -4.1945265   -2.9336389  0.025444898   -4.1945265    1.2608876  1010000 
 1063000   0.84196224   -4.1967551   -4.1967551    -2.933813   0.02423193   -4.1967551    1.2629421  1010000 
 1064000   0.84209613   -4.1963415   -4.1963415   -2.9331985  0.022120214   -4.1963415    1.2631429  1010000 
 1065000   0.84192459   -4.1960154   -4.1960154   -2.9331298  0.023325214   -4.1960154    1.2628856  1010000 
 1066000   0.84199059   -4.1958443   -4.1958443   -2.9328597  0.021215514   -4.1958443    1.2629846  1010000 
 1067000   0.84169378   -4.1953944   -4.1953944    -2.932855  0.022805923   -4.1953944    1.2625394  1010000 
 1068000   0.84108735   -4.1950355   -4.1950355   -2.9334057  0.020009638   -4.1950355    1.2616298  1010000 
 1069000   0.84011382   -4.1948248   -4.1948248   -2.9346553   0.02106435   -4.1948248    1.2601695  1010000 
 1070000   0.83924341   -4.1929781   -4.1929781   -2.9341143  0.024994886   -4.1929781    1.2588639  1010000 
 1071000   0.83930844   -4.1927973   -4.1927973   -2.9338358  0.023876199   -4.1927973    1.2589614  1010000 
 1072000   0.84078367   -4.1945624   -4.1945624   -2.9333882  0.020229581   -4.1945624    1.2611743  1010000 
 1073000   0.84038046   -4.1945085   -4.1945085    -2.933939  0.022217299   -4.1945085    1.2605694  1010000 
 1074000   0.84202105   -4.1959794   -4.1959794   -2.9329491  0.017865251   -4.1959794    1.2630303  1010000 
 1075000   0.84116093   -4.1939634   -4.1939634   -2.9322232  0.023382624   -4.1939634    1.2617401  1010000 
 1076000   0.84119077   -4.1942062   -4.1942062   -2.9324212  0.026073742   -4.1942062    1.2617849  1010000 
 1077000    0.8414303   -4.1951301   -4.1951301   -2.9329859  0.022606206   -4.1951301    1.2621442  1010000 
 1078000   0.84106324   -4.1954553   -4.1954553   -2.9338617  0.021692608   -4.1954553    1.2615936  1010000 
 1079000   0.84088268   -4.1955667   -4.1955667    -2.934244  0.016864152   -4.1955667    1.2613228  1010000 
 1080000   0.84066688   -4.1956154   -4.1956154   -2.9346163  0.020380191   -4.1956154    1.2609991  1010000 
 1081000   0.84043965   -4.1946958   -4.1946958   -2.9340375  0.020944635   -4.1946958    1.2606582  1010000 
 1082000   0.83917631   -4.1928317   -4.1928317   -2.9340685  0.022957975   -4.1928317    1.2587632  1010000 
 1083000   0.84013355   -4.1941807   -4.1941807   -2.9339816  0.019734514   -4.1941807    1.2601991  1010000 
 1084000   0.84100923    -4.195689    -4.195689   -2.9341764  0.022969969    -4.195689    1.2615126  1010000 
 1085000   0.84063871   -4.1954381   -4.1954381   -2.9344813   0.02260712   -4.1954381    1.2609568  1010000 
 1086000    0.8418807   -4.1971786   -4.1971786   -2.9343588  0.024993595   -4.1971786    1.2628198  1010000 
 1087000   0.84131637   -4.1964269   -4.1964269   -2.9344535   0.02539242   -4.1964269    1.2619733  1010000 
 1088000   0.84135213   -4.1966812   -4.1966812   -2.9346542  0.021333652   -4.1966812    1.2620269  1010000 
 1089000    0.8413027   -4.1962083   -4.1962083   -2.9342555  0.024106246   -4.1962083    1.2619528  1010000 
 1090000   0.84180245   -4.1965709   -4.1965709   -2.9338684  0.022406295   -4.1965709    1.2627024  1010000 
 1091000   0.84097026   -4.1954669   -4.1954669   -2.9340127  0.026653135   -4.1954669    1.2614541  1010000 
 1092000    0.8415018   -4.1962154   -4.1962154   -2.9339639  0.023427185   -4.1962154    1.2622515  1010000 
 1093000   0.84199278   -4.1966965   -4.1966965   -2.9337086  0.023144115   -4.1966965    1.2629879  1010000 
 1094000   0.84208736    -4.196496    -4.196496   -2.9333662  0.025207241    -4.196496    1.2631298  1010000 
 1095000   0.84136004   -4.1957686   -4.1957686   -2.9337298  0.023305671   -4.1957686    1.2620388  1010000 
 1096000   0.84224909   -4.1971664   -4.1971664    -2.933794  0.022279504   -4.1971664    1.2633724  1010000 
 1097000   0.84129408   -4.1959797   -4.1959797   -2.9340399  0.028502269   -4.1959797    1.2619399  1010000 
 1098000    0.8412964   -4.1961724   -4.1961724   -2.9342291  0.024645595   -4.1961724    1.2619434  1010000 
 1099000   0.84105269   -4.1960615   -4.1960615   -2.9344837  0.019195026   -4.1960615    1.2615778  1010000 
 1100000   0.83949176   -4.1938613   -4.1938613   -2.9346249  0.022636752   -4.1938613    1.2592364  1010000 
 1101000   0.84111741   -4.1955196   -4.1955196   -2.9338447  0.018207019   -4.1955196    1.2616749  1010000 
 1102000   0.84070461   -4.1948166   -4.1948166   -2.9337609   0.01625752   -4.1948166    1.2610557  1010000 
 1103000   0.84087804   -4.1950426   -4.1950426   -2.9337268  0.020719981   -4.1950426    1.2613158  1010000 
 1104000   0.84080606   -4.1951732   -4.1951732   -2.9339654   0.01919803   -4.1951732    1.2612078  1010000 
 1105000   0.84106327   -4.1952822   -4.1952822   -2.9336886  0.019601565   -4.1952822    1.2615937  1010000 
 1106000   0.84142972   -4.1958058   -4.1958058   -2.9336625   0.02205066   -4.1958058    1.2621433  1010000 
 1107000   0.84155472   -4.1950206   -4.1950206   -2.9326898  0.022811893   -4.1950206    1.2623308  1010000 
 1108000   0.84142642   -4.1947987   -4.1947987   -2.9326604  0.019648219   -4.1947987    1.2621384  1010000 
 1109000    0.8412391   -4.1948241   -4.1948241   -2.9329667  0.021102781   -4.1948241    1.2618574  1010000 
 1110000   0.84074551   -4.1942271   -4.1942271     -2.93311   0.02432417   -4.1942271     1.261117  1010000 
 1111000   0.84081477   -4.1942993   -4.1942993   -2.9330784  0.022552414   -4.1942993    1.2612209  1010000 
 1112000   0.84119587   -4.1952224   -4.1952224   -2.9334298  0.019596298   -4.1952224    1.2617926  1010000 
 1113000   0.84045258   -4.1941974   -4.1941974   -2.9335198  0.024555467   -4.1941974    1.2606776  1010000 
 1114000   0.84128434   -4.1949639   -4.1949639   -2.9330387  0.020031224   -4.1949639    1.2619253  1010000 
 1115000   0.84134889   -4.1951435   -4.1951435   -2.9331214  0.025730811   -4.1951435    1.2620221  1010000 
 1116000   0.84180558   -4.1960891   -4.1960891    -2.933382  0.019946376   -4.1960891    1.2627071  1010000 
 1117000   0.84183691   -4.1954953   -4.1954953   -2.9327412  0.020029049   -4.1954953    1.2627541  1010000 
 1118000   0.84140033   -4.1947989   -4.1947989   -2.9326997  0.021341178   -4.1947989    1.2620992  1010000 
 1119000   0.84126457   -4.1948865   -4.1948865   -2.9329909  0.023788039   -4.1948865    1.2618956  1010000 
 1120000   0.84122716    -4.194638    -4.194638   -2.9327985  0.026507308    -4.194638    1.2618395  1010000 
 1121000   0.84175941   -4.1953155   -4.1953155   -2.9326776  0.020998039   -4.1953155    1.2626379  1010000 
 1122000    0.8410567   -4.1942431   -4.1942431   -2.9326593  0.023593005   -4.1942431    1.2615838  1010000 
 1123000   0.84119965   -4.1943472   -4.1943472    -2.932549  0.024345765   -4.1943472    1.2617982  1010000 
 1124000   0.84152609     -4.19427     -4.19427   -2.9319821  0.023066537     -4.19427    1.2622879  1010000 
 1125000   0.84086662    -4.193338    -4.193338   -2.9320394  0.024101874    -4.193338    1.2612987  1010000 
 1126000   0.84158125   -4.1944205   -4.1944205   -2.9320499  0.023965418   -4.1944205    1.2623706  1010000 
 1127000   0.84211801   -4.1954325   -4.1954325   -2.9322567  0.022178144   -4.1954325    1.2631758  1010000 
 1128000   0.84179851   -4.1948235   -4.1948235    -2.932127  0.024587787   -4.1948235    1.2626965  1010000 
 1129000   0.84185044   -4.1942109   -4.1942109   -2.9314365  0.024991762   -4.1942109    1.2627744  1010000 
 1130000    0.8413056   -4.1939442   -4.1939442    -2.931987  0.019857852   -4.1939442    1.2619572  1010000 
 1131000   0.84041173   -4.1926654   -4.1926654   -2.9320491  0.024208457   -4.1926654    1.2606164  1010000 
 1132000   0.84086157   -4.1933139   -4.1933139   -2.9320228  0.022638465   -4.1933139    1.2612911  1010000 
 1133000   0.84094137   -4.1938426   -4.1938426   -2.9324318  0.019698364   -4.1938426    1.2614108  1010000 
 1134000   0.84071652   -4.1932606   -4.1932606    -2.932187  0.018946531   -4.1932606    1.2610735  1010000 
 1135000   0.84060194   -4.1933752   -4.1933752   -2.9324736  0.018863087   -4.1933752    1.2609017  1010000 
 1136000   0.84043836   -4.1928987   -4.1928987   -2.9322424   0.02332121   -4.1928987    1.2606563  1010000 
 1137000   0.83984569   -4.1921774   -4.1921774   -2.9324101   0.02457514   -4.1921774    1.2597673  1010000 
 1138000   0.84141664    -4.194671    -4.194671   -2.9325473  0.020414611    -4.194671    1.2621237  1010000 
 1139000   0.84146854   -4.1950155   -4.1950155   -2.9328139  0.019694168   -4.1950155    1.2622016  1010000 
 1140000   0.84092989   -4.1946849   -4.1946849   -2.9332913  0.021002201   -4.1946849    1.2613936  1010000 
 1141000   0.84040944   -4.1941999   -4.1941999    -2.933587  0.019204434   -4.1941999    1.2606129  1010000 
 1142000   0.84068199   -4.1941996   -4.1941996   -2.9331779  0.022116378   -4.1941996    1.2610217  1010000 
 1143000   0.84120989    -4.194685    -4.194685   -2.9328715  0.020294284    -4.194685    1.2618136  1010000 
 1144000   0.84057152    -4.193984    -4.193984    -2.933128  0.022703439    -4.193984     1.260856  1010000 
 1145000   0.84084001   -4.1938844   -4.1938844   -2.9326257  0.023390536   -4.1938844    1.2612588  1010000 
 1146000   0.84156181   -4.1952856   -4.1952856   -2.9329441   0.02135392   -4.1952856    1.2623415  1010000 
 1147000   0.84103413   -4.1944779   -4.1944779   -2.9329279  0.027733203   -4.1944779      1.26155  1010000 
 1148000   0.84209581   -4.1961104   -4.1961104   -2.9329679   0.02367685   -4.1961104    1.2631425  1010000 
 1149000   0.84183469   -4.1949235   -4.1949235   -2.9321727  0.024384237   -4.1949235    1.2627508  1010000 
 1150000   0.84160557   -4.1947178   -4.1947178   -2.9323107  0.023542114   -4.1947178    1.2624071  1010000 
 1151000   0.84232304   -4.1953841   -4.1953841   -2.9319008  0.026595413   -4.1953841    1.2634833  1010000 
 1152000    0.8414081   -4.1943345   -4.1943345   -2.9322236  0.026513422   -4.1943345    1.2621109  1010000 
 1153000   0.84132924   -4.1943995   -4.1943995   -2.9324069  0.024887729   -4.1943995    1.2619926  1010000 
 1154000     0.841865   -4.1955296   -4.1955296   -2.9327333  0.022900645   -4.1955296    1.2627962  1010000 
 1155000   0.84184641   -4.1954015   -4.1954015   -2.9326332  0.023954069   -4.1954015    1.2627684  1010000 
 1156000   0.84174115   -4.1947978   -4.1947978   -2.9321873  0.022511379   -4.1947978    1.2626105  1010000 
 1157000   0.84081168   -4.1934154   -4.1934154   -2.9321991  0.025198145   -4.1934154    1.2612163  1010000 
 1158000   0.84251612   -4.1955206   -4.1955206   -2.9317476  0.022178241   -4.1955206    1.2637729  1010000 
 1159000   0.84174881   -4.1941324   -4.1941324   -2.9315105  0.023969292   -4.1941324     1.262622  1010000 
 1160000   0.84226315   -4.1945691   -4.1945691   -2.9311756  0.023268173   -4.1945691    1.2633935  1010000 
 1161000   0.84160007   -4.1939034   -4.1939034   -2.9315045  0.020950003   -4.1939034    1.2623989  1010000 
 1162000   0.84236903    -4.194716    -4.194716   -2.9311637  0.018026217    -4.194716    1.2635523  1010000 
 1163000   0.84183681   -4.1932863   -4.1932863   -2.9305323  0.019631875   -4.1932863     1.262754  1010000 
 1164000   0.84085335   -4.1911979   -4.1911979   -2.9299191  0.022769015   -4.1911979    1.2612788  1010000 
 1165000   0.84153354   -4.1925847   -4.1925847   -2.9302857  0.021697623   -4.1925847    1.2622991  1010000 
 1166000   0.84177065   -4.1927159   -4.1927159   -2.9300612  0.017683237   -4.1927159    1.2626547  1010000 
 1167000   0.84070586   -4.1907934   -4.1907934   -2.9297359  0.026449061   -4.1907934    1.2610575  1010000 
 1168000    0.8418557   -4.1927378   -4.1927378   -2.9299555  0.021359702   -4.1927378    1.2627823  1010000 
 1169000   0.84162312   -4.1927597   -4.1927597   -2.9303263  0.020076134   -4.1927597    1.2624334  1010000 
 1170000   0.84052863   -4.1909237   -4.1909237    -2.930132  0.020569219   -4.1909237    1.2607917  1010000 
 1171000   0.84104164   -4.1916784   -4.1916784   -2.9301172  0.017832721   -4.1916784    1.2615612  1010000 
 1172000   0.84086576    -4.191541    -4.191541   -2.9302436   0.02092858    -4.191541    1.2612974  1010000 
 1173000   0.84074045    -4.192227    -4.192227   -2.9311176  0.016363072    -4.192227    1.2611094  1010000 
 1174000   0.83984694   -4.1919237   -4.1919237   -2.9321546  0.018319272   -4.1919237    1.2597692  1010000 
 1175000   0.84115878   -4.1933883   -4.1933883   -2.9316514  0.015111322   -4.1933883    1.2617369  1010000 
 1176000   0.84065164   -4.1922305   -4.1922305   -2.9312543  0.024409043   -4.1922305    1.2609762  1010000 
 1177000   0.84206162   -4.1935369   -4.1935369   -2.9304457  0.020698183   -4.1935369    1.2630912  1010000 
 1178000   0.84131383   -4.1922309   -4.1922309   -2.9302614  0.025067819   -4.1922309    1.2619695  1010000 
 1179000   0.84229004   -4.1932825   -4.1932825   -2.9298487  0.027216014   -4.1932825    1.2634338  1010000 
 1180000   0.84282688   -4.1933449   -4.1933449   -2.9291059  0.024729276   -4.1933449    1.2642391  1010000 
 1181000   0.84336994   -4.1946055   -4.1946055   -2.9295519  0.023342938   -4.1946055    1.2650537  1010000 
 1182000   0.84366561   -4.1950336   -4.1950336   -2.9295364  0.026762359   -4.1950336    1.2654972  1010000 
 1183000   0.84270276    -4.193627    -4.193627   -2.9295741  0.027693114    -4.193627    1.2640529  1010000 
 1184000   0.84303441    -4.193131    -4.193131   -2.9285807  0.026499603    -4.193131    1.2645504  1010000 
 1185000   0.84311845   -4.1935662   -4.1935662   -2.9288897  0.026230275   -4.1935662    1.2646764  1010000 
 1186000    0.8433772   -4.1940927   -4.1940927   -2.9290282  0.026773629   -4.1940927    1.2650645  1010000 
 1187000   0.84303591   -4.1931606   -4.1931606    -2.928608  0.026195317   -4.1931606    1.2645526  1010000 
 1188000   0.84269525   -4.1928693   -4.1928693   -2.9288276  0.022503193   -4.1928693    1.2640416  1010000 
 1189000   0.84309771    -4.193557    -4.193557   -2.9289117  0.024578388    -4.193557    1.2646453  1010000 
 1190000   0.84238721   -4.1929905   -4.1929905    -2.929411  0.029544973   -4.1929905    1.2635796  1010000 
 1191000   0.84208083   -4.1921711   -4.1921711   -2.9290511  0.026921303   -4.1921711      1.26312  1010000 
 1192000   0.84256296    -4.192535    -4.192535   -2.9286918  0.024477013    -4.192535    1.2638432  1010000 
 1193000   0.84077418   -4.1901855   -4.1901855   -2.9290255  0.022873215   -4.1901855      1.26116  1010000 
 1194000   0.84198072   -4.1913514   -4.1913514   -2.9283816  0.022287404   -4.1913514    1.2629698  1010000 
 1195000   0.84142038   -4.1895921   -4.1895921   -2.9274628   0.02589437   -4.1895921    1.2621293  1010000 
 1196000    0.8415831   -4.1900091   -4.1900091   -2.9276357  0.019080664   -4.1900091    1.2623734  1010000 
 1197000   0.84205614   -4.1905833   -4.1905833   -2.9275004  0.018273895   -4.1905833     1.263083  1010000 
 1198000   0.84071553   -4.1892133   -4.1892133   -2.9281412  0.017814753   -4.1892133     1.261072  1010000 
 1199000   0.84096686   -4.1901502   -4.1901502   -2.9287012  0.018626034   -4.1901502     1.261449  1010000 
 1200000   0.84127295   -4.1903121   -4.1903121    -2.928404  0.017958418   -4.1903121    1.2619082  1010000 
 1201000   0.84192049   -4.1910133   -4.1910133   -2.9281338  0.017927904   -4.1910133    1.2628795  1010000 
 1202000   0.84095617   -4.1892705   -4.1892705   -2.9278375  0.021674444   -4.1892705     1.261433  1010000 
 1203000   0.84173667    -4.190073    -4.190073   -2.9274693  0.018307921    -4.190073    1.2626038  1010000 
 1204000   0.84246798   -4.1909085   -4.1909085   -2.9272078  0.018883769   -4.1909085    1.2637007  1010000 
 1205000   0.84267921   -4.1912041   -4.1912041   -2.9271866  0.018636366   -4.1912041    1.2640176  1010000 
 1206000   0.84204156   -4.1910073   -4.1910073   -2.9279462  0.020593412   -4.1910073    1.2630611  1010000 
 1207000   0.84192347   -4.1915596   -4.1915596   -2.9286756  0.024661918   -4.1915596     1.262884  1010000 
 1208000   0.84284462   -4.1920685   -4.1920685   -2.9278029   0.02133133   -4.1920685    1.2642657  1010000 
 1209000   0.84173186   -4.1908587   -4.1908587   -2.9282622  0.022837983   -4.1908587    1.2625965  1010000 
 1210000   0.84205643   -4.1914184   -4.1914184    -2.928335  0.019551732   -4.1914184    1.2630834  1010000 
 1211000   0.84140934   -4.1905615   -4.1905615   -2.9284487  0.025354463   -4.1905615    1.2621128  1010000 
 1212000   0.84279112   -4.1927351   -4.1927351   -2.9285497  0.027402779   -4.1927351    1.2641854  1010000 
 1213000   0.84266878   -4.1927908   -4.1927908   -2.9287889   0.02703009   -4.1927908    1.2640019  1010000 
 1214000   0.84348829   -4.1940275   -4.1940275   -2.9287963  0.019025884   -4.1940275    1.2652312  1010000 
 1215000   0.84305573   -4.1934609   -4.1934609   -2.9288785  0.023812063   -4.1934609    1.2645823  1010000 
 1216000   0.84302792   -4.1938365   -4.1938365   -2.9292959  0.027589541   -4.1938365    1.2645406  1010000 
 1217000   0.84286751   -4.1937661   -4.1937661    -2.929466  0.023980175   -4.1937661       1.2643  1010000 
 1218000   0.84243404   -4.1925574   -4.1925574   -2.9289076  0.024168748   -4.1925574    1.2636498  1010000 
 1219000   0.84210122   -4.1919275   -4.1919275    -2.928777  0.023951537   -4.1919275    1.2631506  1010000 
 1220000   0.84197153   -4.1915052   -4.1915052   -2.9285492  0.027299625   -4.1915052     1.262956  1010000 
 1221000   0.84264614   -4.1924729   -4.1924729   -2.9285049  0.022963564   -4.1924729     1.263968  1010000 
 1222000    0.8424258   -4.1922733   -4.1922733   -2.9286358  0.022750163   -4.1922733    1.2636375  1010000 
 1223000   0.84271947   -4.1931133   -4.1931133   -2.9290353  0.023101772   -4.1931133     1.264078  1010000 
 1224000   0.84191062   -4.1922896   -4.1922896    -2.929425  0.024599477   -4.1922896    1.2628647  1010000 
 1225000   0.84233076   -4.1923313   -4.1923313   -2.9288364  0.021576289   -4.1923313    1.2634949  1010000 
 1226000    0.8418489   -4.1916964   -4.1916964   -2.9289243  0.018999985   -4.1916964    1.2627721  1010000 
 1227000   0.84191649   -4.1917493   -4.1917493   -2.9288758  0.018176133   -4.1917493    1.2628735  1010000 
 1228000   0.84145373   -4.1909417   -4.1909417   -2.9287624  0.019218344   -4.1909417    1.2621793  1010000 
 1229000   0.84129677   -4.1899887   -4.1899887   -2.9280448  0.019185497   -4.1899887    1.2619439  1010000 
 1230000     0.841218   -4.1898561   -4.1898561   -2.9280303  0.020482277   -4.1898561    1.2618257  1010000 
 1231000   0.84203407   -4.1903497   -4.1903497   -2.9272998  0.021945615   -4.1903497    1.2630499  1010000 
 1232000   0.84274558   -4.1912439   -4.1912439   -2.9271268  0.024036124   -4.1912439    1.2641171  1010000 
 1233000   0.84289483   -4.1910298   -4.1910298   -2.9266888  0.023123324   -4.1910298     1.264341  1010000 
 1234000   0.84300324   -4.1908583   -4.1908583   -2.9263547  0.023233068   -4.1908583    1.2645036  1010000 
 1235000   0.84294367   -4.1907678   -4.1907678   -2.9263535  0.022735864   -4.1907678    1.2644143  1010000 
 1236000   0.84343761   -4.1919213   -4.1919213   -2.9267661  0.020070954   -4.1919213    1.2651552  1010000 
 1237000   0.84199288   -4.1898204   -4.1898204   -2.9268324   0.02348919   -4.1898204    1.2629881  1010000 
 1238000   0.84187997   -4.1893039   -4.1893039   -2.9264852  0.021698395   -4.1893039    1.2628187  1010000 
 1239000   0.84231657   -4.1906592   -4.1906592   -2.9271856  0.020128332   -4.1906592    1.2634736  1010000 
 1240000   0.84201412   -4.1900022   -4.1900022   -2.9269822  0.019889843   -4.1900022    1.2630199  1010000 
 1241000   0.84176222    -4.189704    -4.189704   -2.9270619  0.019994256    -4.189704    1.2626421  1010000 
 1242000   0.84188749    -4.190192    -4.190192   -2.9273621  0.019369156    -4.190192      1.26283  1010000 
 1243000   0.84218258   -4.1905112   -4.1905112   -2.9272386  0.018435568   -4.1905112    1.2632726  1010000 
 1244000   0.84288217   -4.1914031   -4.1914031   -2.9270811  0.019739466   -4.1914031     1.264322  1010000 
 1245000   0.84152443   -4.1896853   -4.1896853   -2.9273999  0.024054413   -4.1896853    1.2622854  1010000 
 1246000   0.84256909   -4.1910767   -4.1910767   -2.9272243  0.021021258   -4.1910767    1.2638524  1010000 
 1247000   0.84187822   -4.1895388   -4.1895388   -2.9267228  0.025980907   -4.1895388    1.2628161  1010000 
 1248000   0.84296293   -4.1916717   -4.1916717   -2.9272285  0.021394356   -4.1916717    1.2644431  1010000 
 1249000   0.84280993   -4.1914739   -4.1914739   -2.9272603   0.02628558   -4.1914739    1.2642136  1010000 
 1250000   0.84280978   -4.1913168   -4.1913168   -2.9271034  0.022204309   -4.1913168    1.2642134  1010000 
 1251000   0.84270706   -4.1918098   -4.1918098   -2.9277504  0.022360675   -4.1918098    1.2640593  1010000 
 1252000   0.84217727   -4.1912893   -4.1912893   -2.9280246  0.025341924   -4.1912893    1.2632647  1010000 
 1253000   0.84233575   -4.1906244   -4.1906244    -2.927122  0.024805161   -4.1906244    1.2635024  1010000 
 1254000   0.84260626   -4.1903484   -4.1903484   -2.9264402  0.025991964   -4.1903484    1.2639081  1010000 
 1255000   0.84270124   -4.1909633   -4.1909633   -2.9269127  0.023472162   -4.1909633    1.2640506  1010000 
 1256000   0.84304102   -4.1906736   -4.1906736   -2.9261133  0.027897791   -4.1906736    1.2645603  1010000 
 1257000   0.84360546   -4.1919968   -4.1919968   -2.9265898   0.02411727   -4.1919968    1.2654069  1010000 
 1258000   0.84350507   -4.1912416   -4.1912416   -2.9259852  0.022997182   -4.1912416    1.2652564  1010000 
 1259000   0.84216045   -4.1893845   -4.1893845    -2.926145  0.029255039   -4.1893845    1.2632394  1010000 
 1260000   0.84351218   -4.1909153   -4.1909153   -2.9256483  0.021711589   -4.1909153     1.265267  1010000 
 1261000   0.84310089   -4.1900867   -4.1900867   -2.9254366   0.02619567   -4.1900867    1.2646501  1010000 
 1262000   0.84228794   -4.1890245   -4.1890245   -2.9255939  0.027515138   -4.1890245    1.2634307  1010000 
 1263000   0.84262227   -4.1895605   -4.1895605   -2.9256283  0.022732167   -4.1895605    1.2639322  1010000 
 1264000   0.84261611   -4.1897004   -4.1897004   -2.9257775  0.015888793   -4.1897004    1.2639229  1010000 
 1265000   0.84165824    -4.188113    -4.188113   -2.9256269  0.022504874    -4.188113    1.2624861  1010000 
 1266000   0.84229303   -4.1886313   -4.1886313    -2.925193  0.022458376   -4.1886313    1.2634383  1010000 
 1267000   0.84274175   -4.1888688   -4.1888688   -2.9247574  0.020355271   -4.1888688    1.2641114  1010000 
 1268000    0.8416579    -4.187009    -4.187009   -2.9245234  0.025092428    -4.187009    1.2624856  1010000 
 1269000   0.84222706   -4.1874025   -4.1874025   -2.9240631  0.024806651   -4.1874025    1.2633393  1010000 
 1270000   0.84205425   -4.1878119   -4.1878119   -2.9247318  0.022212955   -4.1878119    1.2630801  1010000 
 1271000   0.84314206   -4.1885718   -4.1885718     -2.92386  0.024302242   -4.1885718    1.2647118  1010000 
 1272000    0.8421631   -4.1868292   -4.1868292   -2.9235858    0.0293017   -4.1868292    1.2632434  1010000 
 1273000   0.84256307   -4.1868422   -4.1868422   -2.9229988  0.027090897   -4.1868422    1.2638434  1010000 
 1274000   0.84371609   -4.1892957   -4.1892957   -2.9237229  0.021194133   -4.1892957    1.2655729  1010000 
 1275000   0.84216856   -4.1876581   -4.1876581   -2.9244065   0.01941981   -4.1876581    1.2632516  1010000 
 1276000   0.84250694   -4.1882644   -4.1882644   -2.9245052  0.022726099   -4.1882644    1.2637592  1010000 
 1277000   0.84251724   -4.1878416   -4.1878416    -2.924067  0.022161895   -4.1878416    1.2637746  1010000 
 1278000   0.84234818   -4.1872147   -4.1872147   -2.9236937  0.023041428   -4.1872147     1.263521  1010000 
 1279000   0.84236904    -4.187767    -4.187767   -2.9242147  0.021999706    -4.187767    1.2635523  1010000 
 1280000   0.84257365   -4.1887893   -4.1887893   -2.9249301  0.021110501   -4.1887893    1.2638592  1010000 
 1281000    0.8419558   -4.1877098   -4.1877098   -2.9247773  0.024987201   -4.1877098    1.2629324  1010000 
 1282000   0.84284896   -4.1888515   -4.1888515   -2.9245793   0.02012416   -4.1888515    1.2642722  1010000 
 1283000   0.84215722   -4.1872205   -4.1872205   -2.9239859  0.024359414   -4.1872205    1.2632346  1010000 
 1284000    0.8424076   -4.1875901   -4.1875901     -2.92398  0.021044863   -4.1875901    1.2636101  1010000 
 1285000   0.84300305   -4.1886221   -4.1886221   -2.9241188  0.020889814   -4.1886221    1.2645033  1010000 
 1286000   0.84360298   -4.1891773   -4.1891773   -2.9237741  0.021017325   -4.1891773    1.2654032  1010000 
 1287000   0.84229162   -4.1876831   -4.1876831   -2.9242469  0.023833963   -4.1876831    1.2634362  1010000 
 1288000   0.84283178   -4.1882666   -4.1882666   -2.9240202  0.023426863   -4.1882666    1.2642464  1010000 
 1289000   0.84291592   -4.1888168   -4.1888168   -2.9244442  0.021635974   -4.1888168    1.2643726  1010000 
 1290000   0.84250088   -4.1890865   -4.1890865   -2.9253365  0.020847011   -4.1890865    1.2637501  1010000 
 1291000   0.84272864   -4.1885545   -4.1885545   -2.9244628  0.024510858   -4.1885545    1.2640917  1010000 
 1292000   0.84323228   -4.1893453   -4.1893453   -2.9244981  0.018778873   -4.1893453    1.2648472  1010000 
 1293000   0.84205692   -4.1876953   -4.1876953   -2.9246112  0.021450433   -4.1876953    1.2630841  1010000 
 1294000   0.84299563   -4.1900068   -4.1900068   -2.9255146  0.017808866   -4.1900068    1.2644922  1010000 
 1295000    0.8421356   -4.1880347   -4.1880347   -2.9248326   0.02067572   -4.1880347    1.2632021  1010000 
 1296000   0.84258449     -4.18818     -4.18818   -2.9243046  0.024050102     -4.18818    1.2638755  1010000 
 1297000   0.84255396   -4.1886925   -4.1886925   -2.9248628  0.021887186   -4.1886925    1.2638297  1010000 
 1298000   0.84282694   -4.1882137   -4.1882137   -2.9239746   0.02345954   -4.1882137    1.2642392  1010000 
 1299000    0.8428037   -4.1880076   -4.1880076   -2.9238033  0.022977745   -4.1880076    1.2642043  1010000 
 1300000   0.84347336    -4.189688    -4.189688   -2.9244792  0.023373544    -4.189688    1.2652088  1010000 
 1301000   0.84302093   -4.1886027   -4.1886027   -2.9240725  0.022422052   -4.1886027    1.2645301  1010000 
 1302000   0.84425225   -4.1896318   -4.1896318   -2.9232547  0.019527041   -4.1896318    1.2663771  1010000 
 1303000   0.84400413    -4.189085    -4.189085   -2.9230801  0.018618798    -4.189085    1.2660049  1010000 
 1304000   0.84366889   -4.1884688   -4.1884688   -2.9229668  0.019702923   -4.1884688    1.2655021  1010000 
 1305000   0.84368367   -4.1886185   -4.1886185   -2.9230942  0.020511493   -4.1886185    1.2655242  1010000 
 1306000   0.84367632   -4.1880066   -4.1880066   -2.9224934  0.021355277   -4.1880066    1.2655132  1010000 
 1307000   0.84423798   -4.1884366   -4.1884366   -2.9220809  0.025066768   -4.1884366    1.2663557  1010000 
 1308000   0.84347167   -4.1873882   -4.1873882    -2.922182  0.021068649   -4.1873882    1.2652063  1010000 
 1309000   0.84300864   -4.1862644   -4.1862644   -2.9217527  0.026615214   -4.1862644    1.2645117  1010000 
 1310000   0.84345759   -4.1872656   -4.1872656   -2.9220805  0.023908279   -4.1872656    1.2651851  1010000 
 1311000   0.84386257   -4.1877268   -4.1877268   -2.9219342  0.021827909   -4.1877268    1.2657926  1010000 
 1312000   0.84293603   -4.1854652   -4.1854652   -2.9210624  0.026326283   -4.1854652    1.2644028  1010000 
 1313000   0.84312617   -4.1861289   -4.1861289   -2.9214409  0.023220145   -4.1861289     1.264688  1010000 
 1314000   0.84318915   -4.1866222   -4.1866222   -2.9218397  0.022958081   -4.1866222    1.2647825  1010000 
 1315000    0.8423321   -4.1855955   -4.1855955   -2.9220986  0.023914162   -4.1855955    1.2634969  1010000 
 1316000     0.842772   -4.1867469   -4.1867469   -2.9225902  0.018795546   -4.1867469    1.2641567  1010000 
 1317000   0.84223354   -4.1857115   -4.1857115   -2.9223624  0.022021846   -4.1857115    1.2633491  1010000 
 1318000   0.84239169   -4.1845025   -4.1845025   -2.9209162  0.023835736   -4.1845025    1.2635863  1010000 
 1319000   0.84310501     -4.18586     -4.18586   -2.9212037  0.020706974     -4.18586    1.2646563  1010000 
 1320000   0.84350315   -4.1864389   -4.1864389   -2.9211854  0.019775153   -4.1864389    1.2652535  1010000 
 1321000   0.84193956   -4.1841626   -4.1841626   -2.9212545  0.021568391   -4.1841626    1.2629081  1010000 
 1322000   0.84275817   -4.1856833   -4.1856833   -2.9215473  0.020896975   -4.1856833     1.264136  1010000 
 1323000    0.8426262   -4.1852953   -4.1852953   -2.9213573  0.024128617   -4.1852953     1.263938  1010000 
 1324000   0.84388713   -4.1867881   -4.1867881   -2.9209587  0.021708624   -4.1867881    1.2658294  1010000 
 1325000   0.84366457   -4.1861122   -4.1861122   -2.9206166  0.022433451   -4.1861122    1.2654956  1010000 
 1326000   0.84288583   -4.1850434   -4.1850434   -2.9207159   0.02219202   -4.1850434    1.2643275  1010000 
 1327000   0.84254034    -4.184565    -4.184565   -2.9207558  0.025031894    -4.184565    1.2638093  1010000 
 1328000   0.84284055   -4.1850389   -4.1850389   -2.9207793  0.025615261   -4.1850389    1.2642596  1010000 
 1329000   0.84333835   -4.1858443   -4.1858443   -2.9208381  0.023258014   -4.1858443    1.2650063  1010000 
 1330000   0.84344557   -4.1856494   -4.1856494   -2.9204823  0.021154997   -4.1856494    1.2651671  1010000 
 1331000   0.84258559   -4.1842906   -4.1842906   -2.9204135  0.025885691   -4.1842906    1.2638771  1010000 
 1332000   0.84301949   -4.1854368   -4.1854368   -2.9209088  0.019862716   -4.1854368     1.264528  1010000 
 1333000   0.84278721   -4.1844934   -4.1844934   -2.9203139  0.025415421   -4.1844934    1.2641796  1010000 
 1334000   0.84361675   -4.1855916   -4.1855916   -2.9201678  0.023250611   -4.1855916    1.2654239  1010000 
 1335000   0.84375589   -4.1864034   -4.1864034   -2.9207709  0.017503657   -4.1864034    1.2656326  1010000 
 1336000   0.84340291   -4.1857439   -4.1857439   -2.9206408  0.025234586   -4.1857439    1.2651031  1010000 
 1337000   0.84372583   -4.1869775   -4.1869775     -2.92139  0.022599326   -4.1869775    1.2655875  1010000 
 1338000   0.84380836   -4.1863413   -4.1863413     -2.92063  0.022221572   -4.1863413    1.2657113  1010000 
 1339000   0.84341274   -4.1857114   -4.1857114   -2.9205935  0.020114903   -4.1857114    1.2651179  1010000 
 1340000   0.84358211    -4.185758    -4.185758   -2.9203861  0.021595668    -4.185758    1.2653719  1010000 
 1341000   0.84232371   -4.1841637   -4.1841637   -2.9206794  0.024764331   -4.1841637    1.2634843  1010000 
 1342000   0.84345491   -4.1860317   -4.1860317   -2.9208506  0.020012552   -4.1860317    1.2651811  1010000 
 1343000   0.84233752   -4.1843856   -4.1843856   -2.9208806  0.027356499   -4.1843856     1.263505  1010000 
 1344000   0.84377418   -4.1865135   -4.1865135   -2.9208534  0.024024745   -4.1865135      1.26566  1010000 
 1345000   0.84354147   -4.1858649   -4.1858649    -2.920554  0.022391489   -4.1858649     1.265311  1010000 
 1346000   0.84321695   -4.1852043   -4.1852043   -2.9203801   0.02324958   -4.1852043    1.2648242  1010000 
 1347000   0.84278465   -4.1847091   -4.1847091   -2.9205333  0.022557419   -4.1847091    1.2641757  1010000 
 1348000   0.84372412    -4.186187    -4.186187    -2.920602  0.019520637    -4.186187    1.2655849  1010000 
 1349000     0.843947   -4.1865564   -4.1865564   -2.9206371   0.01848301   -4.1865564    1.2659192  1010000 
 1350000   0.84326996   -4.1850096   -4.1850096   -2.9201059  0.023856293   -4.1850096    1.2649037  1010000 
 1351000   0.84338158   -4.1847422   -4.1847422   -2.9196711  0.021996989   -4.1847422    1.2650711  1010000 
 1352000   0.84404018   -4.1857358   -4.1857358   -2.9196768  0.021176258   -4.1857358     1.266059  1010000 
 1353000   0.84341745   -4.1849794   -4.1849794   -2.9198544  0.020943143   -4.1849794    1.2651249  1010000 
 1354000    0.8440402   -4.1849574   -4.1849574   -2.9188983  0.021446115   -4.1849574     1.266059  1010000 
 1355000   0.84349862   -4.1841955   -4.1841955   -2.9189488  0.023524534   -4.1841955    1.2652467  1010000 
 1356000   0.84281214   -4.1842875   -4.1842875   -2.9200705  0.024719919   -4.1842875     1.264217  1010000 
 1357000   0.84292039   -4.1848167   -4.1848167   -2.9204374  0.022444375   -4.1848167    1.2643793  1010000 
 1358000   0.84354022   -4.1861211   -4.1861211    -2.920812  0.014123862   -4.1861211    1.2653091  1010000 
 1359000   0.84210171   -4.1833093   -4.1833093   -2.9201579  0.020690815   -4.1833093    1.2631513  1010000 
 1360000   0.84243299   -4.1834378   -4.1834378   -2.9197896  0.023969342   -4.1834378    1.2636482  1010000 
 1361000   0.84296934   -4.1837793   -4.1837793   -2.9193265  0.021825043   -4.1837793    1.2644528  1010000 
 1362000   0.84305012   -4.1842031   -4.1842031   -2.9196292  0.021655326   -4.1842031    1.2645739  1010000 
 1363000   0.84285635   -4.1840314   -4.1840314   -2.9197481  0.022636908   -4.1840314    1.2642833  1010000 
 1364000    0.8429723   -4.1846245   -4.1846245   -2.9201673  0.022340676   -4.1846245    1.2644572  1010000 
 1365000   0.84335977   -4.1848387   -4.1848387   -2.9198003   0.02395055   -4.1848387    1.2650384  1010000 
 1366000   0.84215904   -4.1829277   -4.1829277   -2.9196904  0.023922666   -4.1829277    1.2632373  1010000 
 1367000   0.84354081   -4.1849278   -4.1849278   -2.9196179  0.021239468   -4.1849278      1.26531  1010000 
 1368000   0.84419451   -4.1851261   -4.1851261   -2.9188356  0.020439032   -4.1851261    1.2662905  1010000 
 1369000   0.84381863   -4.1850362   -4.1850362   -2.9193095  0.022059621   -4.1850362    1.2657267  1010000 
 1370000    0.8439013   -4.1844502   -4.1844502   -2.9185995  0.026618729   -4.1844502    1.2658507  1010000 
 1371000   0.84466883     -4.18581     -4.18581    -2.918808  0.020443665     -4.18581     1.267002  1010000 
 1372000   0.84346584   -4.1843245   -4.1843245   -2.9191269  0.026274117   -4.1843245    1.2651975  1010000 
 1373000   0.84396625   -4.1852527   -4.1852527   -2.9193046  0.022807937   -4.1852527    1.2659481  1010000 
 1374000   0.84376913   -4.1849244   -4.1849244    -2.919272  0.023375663   -4.1849244    1.2656524  1010000 
 1375000   0.84369835   -4.1850548   -4.1850548   -2.9195086  0.023880452   -4.1850548    1.2655463  1010000 
 1376000   0.84298264   -4.1839871   -4.1839871   -2.9195144  0.026370837   -4.1839871    1.2644727  1010000 
 1377000   0.84221484   -4.1838267   -4.1838267   -2.9205057  0.019780719   -4.1838267     1.263321  1010000 
 1378000   0.84252149   -4.1840516   -4.1840516   -2.9202706  0.020306852   -4.1840516     1.263781  1010000 
 1379000   0.84274402   -4.1845005   -4.1845005   -2.9203857  0.021574669   -4.1845005    1.2641148  1010000 
 1380000   0.84346826    -4.185599    -4.185599   -2.9203978  0.019605296    -4.185599    1.2652011  1010000 
 1381000   0.84369105   -4.1855702   -4.1855702   -2.9200349  0.023301046   -4.1855702    1.2655353  1010000 
 1382000   0.84402297   -4.1859025   -4.1859025   -2.9198693  0.018383764   -4.1859025    1.2660332  1010000 
 1383000   0.84407873   -4.1856431   -4.1856431   -2.9195262  0.021147533   -4.1856431    1.2661168  1010000 
 1384000   0.84392854   -4.1846066   -4.1846066   -2.9187151   0.02183715   -4.1846066    1.2658915  1010000 
 1385000   0.84378027   -4.1842645   -4.1842645   -2.9185953  0.020451674   -4.1842645    1.2656692  1010000 
 1386000   0.84369267    -4.184261    -4.184261   -2.9187232  0.022068046    -4.184261    1.2655378  1010000 
 1387000   0.84411221   -4.1844221   -4.1844221    -2.918255  0.022156925   -4.1844221    1.2661671  1010000 
 1388000   0.84379746   -4.1850456   -4.1850456   -2.9193507  0.021766034   -4.1850456    1.2656949  1010000 
 1389000   0.84358564    -4.184141    -4.184141   -2.9187637  0.020290186    -4.184141    1.2653772  1010000 
 1390000   0.84318936   -4.1834122   -4.1834122   -2.9186294  0.022218662   -4.1834122    1.2647828  1010000 
 1391000   0.84296466   -4.1831324   -4.1831324   -2.9186867   0.02183209   -4.1831324    1.2644457  1010000 
 1392000   0.84293689   -4.1826082   -4.1826082   -2.9182041  0.022681997   -4.1826082    1.2644041  1010000 
 1393000   0.84323101   -4.1833531   -4.1833531   -2.9185078  0.023281487   -4.1833531    1.2648453  1010000 
 1394000   0.84308819    -4.183003    -4.183003   -2.9183719  0.025020483    -4.183003     1.264631  1010000 
 1395000    0.8444829   -4.1847343   -4.1847343   -2.9180112  0.021645374   -4.1847343    1.2667231  1010000 
 1396000   0.84437576   -4.1843801   -4.1843801   -2.9178177  0.023011529   -4.1843801    1.2665624  1010000 
 1397000   0.84338195   -4.1825789   -4.1825789   -2.9175072  0.024177719   -4.1825789    1.2650717  1010000 
 1398000   0.84387491   -4.1836709   -4.1836709   -2.9178598  0.023933847   -4.1836709    1.2658111  1010000 
 1399000   0.84398895   -4.1836372   -4.1836372    -2.917655  0.021166161   -4.1836372    1.2659822  1010000 
 1400000   0.84404583   -4.1837916   -4.1837916   -2.9177241   0.01541143   -4.1837916    1.2660675  1010000 
 1401000   0.84389388   -4.1834291   -4.1834291   -2.9175896  0.022698396   -4.1834291    1.2658396  1010000 
 1402000   0.84283128    -4.182535    -4.182535   -2.9182894  0.025002391    -4.182535    1.2642457  1010000 
 1403000   0.84305859   -4.1826019   -4.1826019   -2.9180152   0.01865658   -4.1826019    1.2645866  1010000 
 1404000    0.8427317   -4.1825527   -4.1825527   -2.9184564  0.021752257   -4.1825527    1.2640963  1010000 
 1405000   0.84365629   -4.1830099   -4.1830099   -2.9175267  0.022087909   -4.1830099    1.2654832  1010000 
 1406000   0.84450579   -4.1842235   -4.1842235   -2.9174661  0.022230654   -4.1842235    1.2667574  1010000 
 1407000   0.84387924   -4.1828366   -4.1828366    -2.917019  0.021142492   -4.1828366    1.2658176  1010000 
 1408000   0.84414004     -4.18446     -4.18446   -2.9182511  0.020489179     -4.18446    1.2662088  1010000 
 1409000   0.84437181   -4.1834672   -4.1834672   -2.9169107  0.025985802   -4.1834672    1.2665565  1010000 
 1410000   0.84440885   -4.1838033   -4.1838033   -2.9171913  0.025519587   -4.1838033     1.266612  1010000 
 1411000   0.84468894   -4.1838189   -4.1838189   -2.9167868  0.023196551   -4.1838189    1.2670322  1010000 
 1412000   0.84421528   -4.1828391   -4.1828391   -2.9165175  0.025778488   -4.1828391    1.2663217  1010000 
 1413000   0.84446127   -4.1829056   -4.1829056    -2.916215  0.024938024   -4.1829056    1.2666907  1010000 
 1414000   0.84470195   -4.1836274   -4.1836274   -2.9165758  0.023474693   -4.1836274    1.2670517  1010000 
 1415000   0.84420226    -4.182823    -4.182823   -2.9165209  0.020061221    -4.182823    1.2663021  1010000 
 1416000    0.8444062   -4.1833308   -4.1833308   -2.9167228   0.02436199   -4.1833308     1.266608  1010000 
 1417000   0.84263045   -4.1818381   -4.1818381   -2.9178937  0.022287385   -4.1818381    1.2639444  1010000 
 1418000   0.84242542   -4.1815709   -4.1815709    -2.917934   0.02016572   -4.1815709    1.2636369  1010000 
 1419000   0.84305557   -4.1823289   -4.1823289   -2.9177468   0.02065386   -4.1823289    1.2645821  1010000 
 1420000   0.84330505   -4.1833458   -4.1833458   -2.9183894  0.019200781   -4.1833458    1.2649563  1010000 
 1421000   0.84386918   -4.1831772   -4.1831772   -2.9173747  0.018489472   -4.1831772    1.2658025  1010000 
 1422000   0.84368074   -4.1828952   -4.1828952   -2.9173754  0.016302086   -4.1828952    1.2655199  1010000 
 1423000   0.84268113    -4.180358    -4.180358   -2.9163376  0.026558171    -4.180358    1.2640204  1010000 
 1424000   0.84444618   -4.1830272   -4.1830272   -2.9163591  0.019952574   -4.1830272     1.266668  1010000 
 1425000   0.84437182   -4.1822807   -4.1822807   -2.9157242  0.021962548   -4.1822807    1.2665565  1010000 
 1426000   0.84407688   -4.1821407   -4.1821407   -2.9160267  0.024909812   -4.1821407    1.2661141  1010000 
 1427000   0.84412842   -4.1820192   -4.1820192   -2.9158278  0.025413249   -4.1820192    1.2661914  1010000 
 1428000   0.84472926    -4.182416    -4.182416   -2.9153233  0.022220836    -4.182416    1.2670926  1010000 
 1429000   0.84355267    -4.181037    -4.181037   -2.9157093  0.022677239    -4.181037    1.2653277  1010000 
 1430000   0.84426862   -4.1819461   -4.1819461   -2.9155444  0.020776876   -4.1819461    1.2664017  1010000 
 1431000   0.84464121   -4.1824711   -4.1824711   -2.9155105  0.022530986   -4.1824711    1.2669606  1010000 
 1432000   0.84413513   -4.1816538   -4.1816538   -2.9154523  0.020779837   -4.1816538    1.2662014  1010000 
 1433000    0.8442581   -4.1809323   -4.1809323   -2.9145464  0.024087014   -4.1809323    1.2663859  1010000 
 1434000   0.84493111   -4.1823643   -4.1823643   -2.9149688  0.019948346   -4.1823643    1.2673954  1010000 
 1435000   0.84475453    -4.182241    -4.182241   -2.9151105  0.021092745    -4.182241    1.2671305  1010000 
 1436000   0.84434807     -4.18107     -4.18107   -2.9145491  0.024047343     -4.18107    1.2665209  1010000 
 1437000   0.84468291   -4.1814224   -4.1814224   -2.9143992  0.020480829   -4.1814224    1.2670231  1010000 
 1438000   0.84515631   -4.1816804   -4.1816804   -2.9139472  0.022943198   -4.1816804    1.2677332  1010000 
 1439000   0.84485039   -4.1813829   -4.1813829   -2.9141086  0.024243377   -4.1813829    1.2672743  1010000 
 1440000   0.84524261   -4.1819888   -4.1819888   -2.9141261  0.022738561   -4.1819888    1.2678627  1010000 
 1441000    0.8442519   -4.1813208   -4.1813208   -2.9149442  0.020112475   -4.1813208    1.2663766  1010000 
 1442000   0.84426843   -4.1808653   -4.1808653   -2.9144639  0.018621964   -4.1808653    1.2664014  1010000 
 1443000   0.84493937   -4.1812378   -4.1812378     -2.91383  0.019977692   -4.1812378    1.2674078  1010000 
 1444000   0.84426842   -4.1804954   -4.1804954    -2.914094  0.022508038   -4.1804954    1.2664014  1010000 
 1445000   0.84384584   -4.1803241   -4.1803241   -2.9145566  0.016694964   -4.1803241    1.2657675  1010000 
 1446000   0.84392149   -4.1804286   -4.1804286   -2.9145476  0.019791638   -4.1804286     1.265881  1010000 
 1447000   0.84419777   -4.1794938   -4.1794938   -2.9131984  0.022680022   -4.1794938    1.2662954  1010000 
 1448000   0.84504452   -4.1811877   -4.1811877   -2.9136222  0.020604525   -4.1811877    1.2675655  1010000 
 1449000    0.8446079   -4.1807834   -4.1807834   -2.9138728  0.020713038   -4.1807834    1.2669106  1010000 
 1450000   0.84505123    -4.180471    -4.180471   -2.9128954  0.021790276    -4.180471    1.2675756  1010000 
 1451000   0.84380318   -4.1793022   -4.1793022   -2.9135986  0.023098534   -4.1793022    1.2657035  1010000 
 1452000   0.84430413   -4.1793544   -4.1793544   -2.9128995  0.021273352   -4.1793544    1.2664549  1010000 
 1453000   0.84531974   -4.1808993   -4.1808993   -2.9129209  0.020795827   -4.1808993    1.2679784  1010000 
 1454000   0.84355083   -4.1782455   -4.1782455   -2.9129206  0.024959799   -4.1782455     1.265325  1010000 
 1455000    0.8442735   -4.1788667   -4.1788667   -2.9124577  0.024720562   -4.1788667     1.266409  1010000 
 1456000   0.84530773   -4.1799432   -4.1799432   -2.9119828  0.024427476   -4.1799432    1.2679603  1010000 
 1457000   0.84470488   -4.1794943   -4.1794943   -2.9124383  0.023811983   -4.1794943    1.2670561  1010000 
 1458000   0.84480717   -4.1796883   -4.1796883   -2.9124788  0.026741921   -4.1796883    1.2672095  1010000 
 1459000    0.8451112    -4.179803    -4.179803   -2.9121374  0.022490421    -4.179803    1.2676655  1010000 
 1460000   0.84579745   -4.1799581   -4.1799581   -2.9112632  0.024644321   -4.1799581    1.2686949  1010000 
 1461000   0.84508584   -4.1790977   -4.1790977   -2.9114702  0.025815602   -4.1790977    1.2676275  1010000 
 1462000   0.84426085   -4.1777304   -4.1777304   -2.9113403  0.028479586   -4.1777304      1.26639  1010000 
 1463000   0.84437076   -4.1778319   -4.1778319    -2.911277  0.024156534   -4.1778319    1.2665549  1010000 
 1464000   0.84433701   -4.1774636   -4.1774636   -2.9109593  0.022313019   -4.1774636    1.2665043  1010000 
 1465000   0.84490537   -4.1790197   -4.1790197   -2.9116629  0.020799774   -4.1790197    1.2673568  1010000 
 1466000   0.84419621   -4.1784185   -4.1784185   -2.9121254  0.022952116   -4.1784185    1.2662931  1010000 
 1467000   0.84434106   -4.1783384   -4.1783384   -2.9118281  0.021298274   -4.1783384    1.2665103  1010000 
 1468000   0.84442604   -4.1781998   -4.1781998    -2.911562  0.018529106   -4.1781998    1.2666378  1010000 
 1469000   0.84397505   -4.1778287   -4.1778287   -2.9118674  0.019721228   -4.1778287    1.2659613  1010000 
 1470000   0.84440108   -4.1788591   -4.1788591   -2.9122588   0.01665524   -4.1788591    1.2666004  1010000 
 1471000   0.84407206   -4.1779855   -4.1779855   -2.9118787   0.01895359   -4.1779855    1.2661068  1010000 
 1472000   0.84419775   -4.1781142   -4.1781142   -2.9118188  0.019725364   -4.1781142    1.2662954  1010000 
 1473000   0.84416934   -4.1783713   -4.1783713   -2.9121186  0.018030665   -4.1783713    1.2662528  1010000 
 1474000   0.84449091   -4.1780453   -4.1780453   -2.9113102  0.019081027   -4.1780453    1.2667351  1010000 
 1475000   0.84460388   -4.1770817   -4.1770817   -2.9101771  0.023924387   -4.1770817    1.2669046  1010000 
 1476000   0.84496648   -4.1779758   -4.1779758   -2.9105274  0.019868011   -4.1779758    1.2674485  1010000 
 1477000   0.84548229   -4.1785104   -4.1785104   -2.9102882  0.022984889   -4.1785104    1.2682222  1010000 
 1478000   0.84555762   -4.1787586   -4.1787586   -2.9104235  0.023838844   -4.1787586    1.2683352  1010000 
 1479000   0.84579966    -4.179655    -4.179655   -2.9109568  0.022381511    -4.179655    1.2686982  1010000 
 1480000   0.84584246   -4.1796235   -4.1796235   -2.9108611  0.022662001   -4.1796235    1.2687624  1010000 
 1481000   0.84521911   -4.1788804   -4.1788804    -2.911053  0.019397039   -4.1788804    1.2678274  1010000 
 1482000   0.84523605   -4.1790349   -4.1790349   -2.9111821  0.018168957   -4.1790349    1.2678528  1010000 
 1483000   0.84464245   -4.1772543   -4.1772543   -2.9102918  0.020342363   -4.1772543    1.2669624  1010000 
 1484000   0.84592074   -4.1788829   -4.1788829   -2.9100031  0.020377693   -4.1788829    1.2688799  1010000 
 1485000    0.8457166   -4.1788047   -4.1788047    -2.910231  0.023914544   -4.1788047    1.2685736  1010000 
 1486000   0.84649855   -4.1798913   -4.1798913   -2.9101447  0.025402391   -4.1798913    1.2697466  1010000 
 1487000   0.84581894    -4.178152    -4.178152   -2.9094249  0.029468219    -4.178152    1.2687272  1010000 
 1488000   0.84473747   -4.1777245   -4.1777245   -2.9106196  0.025070709   -4.1777245     1.267105  1010000 
 1489000   0.84483295   -4.1767794   -4.1767794   -2.9095312  0.027239284   -4.1767794    1.2672482  1010000 
 1490000   0.84512347   -4.1768862   -4.1768862   -2.9092023  0.029073933   -4.1768862     1.267684  1010000 
 1491000   0.84612503   -4.1786734   -4.1786734   -2.9094871  0.019482769   -4.1786734    1.2691863  1010000 
 1492000   0.84539854   -4.1769563   -4.1769563   -2.9088597  0.019613848   -4.1769563    1.2680966  1010000 
 1493000   0.84517595   -4.1768286   -4.1768286   -2.9090659  0.021685667   -4.1768286    1.2677627  1010000 
 1494000   0.84509959   -4.1767644   -4.1767644   -2.9091162  0.018171246   -4.1767644    1.2676481  1010000 
 1495000   0.84455954   -4.1764848   -4.1764848   -2.9096468  0.020907339   -4.1764848    1.2668381  1010000 
 1496000    0.8451843   -4.1764281   -4.1764281   -2.9086529  0.023744307   -4.1764281    1.2677752  1010000 
 1497000   0.84518325   -4.1764336   -4.1764336   -2.9086599  0.020134809   -4.1764336    1.2677736  1010000 
 1498000   0.84481841   -4.1758777   -4.1758777   -2.9086514  0.019344916   -4.1758777    1.2672264  1010000 
 1499000   0.84518376   -4.1765187   -4.1765187   -2.9087443  0.018771549   -4.1765187    1.2677744  1010000 
 1500000   0.84496247   -4.1758885   -4.1758885    -2.908446  0.017886347   -4.1758885    1.2674424  1010000 
 1501000   0.84441225   -4.1748214   -4.1748214   -2.9082043  0.022428334   -4.1748214    1.2666171  1010000 
 1502000   0.84417953   -4.1738931   -4.1738931   -2.9076251  0.027191234   -4.1738931     1.266268  1010000 
 1503000   0.84510143   -4.1749226   -4.1749226   -2.9072717  0.020157086   -4.1749226    1.2676509  1010000 
 1504000    0.8446164   -4.1741363   -4.1741363   -2.9072129  0.024108849   -4.1741363    1.2669233  1010000 
 1505000   0.84586081    -4.175922    -4.175922    -2.907132   0.02056495    -4.175922      1.26879  1010000 
 1506000    0.8451015   -4.1752603   -4.1752603   -2.9076093   0.02311472   -4.1752603     1.267651  1010000 
 1507000   0.84468711   -4.1737972   -4.1737972   -2.9067678  0.026697298   -4.1737972    1.2670294  1010000 
 1508000   0.84506705   -4.1747213   -4.1747213    -2.907122  0.019958386   -4.1747213    1.2675993  1010000 
 1509000   0.84458869   -4.1742904   -4.1742904   -2.9074086  0.024230845   -4.1742904    1.2668818  1010000 
 1510000   0.84570557   -4.1755684   -4.1755684   -2.9070113  0.017782138   -4.1755684    1.2685571  1010000 
 1511000   0.84621987   -4.1764264   -4.1764264   -2.9070979  0.017670769   -4.1764264    1.2693285  1010000 
 1512000   0.84581115   -4.1755199   -4.1755199   -2.9068044  0.021569864   -4.1755199    1.2687155  1010000 
 1513000   0.84627864   -4.1765849   -4.1765849   -2.9071682   0.01856239   -4.1765849    1.2694167  1010000 
 1514000   0.84456686   -4.1742643   -4.1742643   -2.9074153  0.021835724   -4.1742643     1.266849  1010000 
 1515000   0.84582476   -4.1754363   -4.1754363   -2.9067004  0.022052932   -4.1754363    1.2687359  1010000 
 1516000   0.84565489   -4.1745355   -4.1745355   -2.9060544  0.026224368   -4.1745355    1.2684811  1010000 
 1517000   0.84682403   -4.1759777   -4.1759777   -2.9057429  0.024298162   -4.1759777    1.2702348  1010000 
 1518000   0.84648383   -4.1749982   -4.1749982   -2.9052737  0.026931822   -4.1749982    1.2697245  1010000 
 1519000   0.84600067   -4.1739197   -4.1739197   -2.9049199  0.027554307   -4.1739197    1.2689997  1010000 
 1520000    0.8465357   -4.1748549   -4.1748549   -2.9050526   0.02653459   -4.1748549    1.2698023  1010000 
 1521000   0.84617222   -4.1739967   -4.1739967   -2.9047397  0.026507506   -4.1739967    1.2692571  1010000 
 1522000     0.846259   -4.1747293   -4.1747293    -2.905342  0.020384186   -4.1747293    1.2693872  1010000 
 1523000   0.84610325   -4.1749439   -4.1749439   -2.9057903  0.018270749   -4.1749439    1.2691536  1010000 
 1524000   0.84527171   -4.1735585   -4.1735585   -2.9056522  0.023359256   -4.1735585    1.2679063  1010000 
 1525000    0.8458505    -4.174445    -4.174445   -2.9056705  0.018945924    -4.174445    1.2687745  1010000 
 1526000   0.84584227   -4.1741635   -4.1741635   -2.9054014  0.018533426   -4.1741635    1.2687621  1010000 
 1527000    0.8446307   -4.1726202   -4.1726202   -2.9056754  0.018037801   -4.1726202    1.2669448  1010000 
 1528000   0.84550599   -4.1732256   -4.1732256   -2.9049679  0.017113173   -4.1732256    1.2682577  1010000 
 1529000   0.84514768   -4.1727768   -4.1727768   -2.9050565  0.018364506   -4.1727768    1.2677203  1010000 
 1530000   0.84602386   -4.1731873   -4.1731873   -2.9041528  0.020721539   -4.1731873    1.2690345  1010000 
 1531000   0.84607554   -4.1727716   -4.1727716   -2.9036596  0.022317271   -4.1727716    1.2691121  1010000 
 1532000   0.84577377   -4.1729783   -4.1729783   -2.9043189  0.020255171   -4.1729783    1.2686594  1010000 
 1533000   0.84637813    -4.173175    -4.173175   -2.9036091  0.021361766    -4.173175    1.2695659  1010000 
 1534000   0.84638424   -4.1736415   -4.1736415   -2.9040664  0.020496067   -4.1736415    1.2695751  1010000 
 1535000    0.8463069   -4.1730921   -4.1730921    -2.903633  0.020559402   -4.1730921    1.2694591  1010000 
 1536000     0.845433   -4.1716599   -4.1716599   -2.9035116  0.021727771   -4.1716599    1.2681482  1010000 
 1537000   0.84478564   -4.1711606   -4.1711606   -2.9039834  0.024171744   -4.1711606    1.2671772  1010000 
 1538000   0.84530882   -4.1715964   -4.1715964   -2.9036344  0.022347108   -4.1715964     1.267962  1010000 
 1539000   0.84609027   -4.1733599   -4.1733599   -2.9042257  0.020054085   -4.1733599    1.2691341  1010000 
 1540000   0.84652456   -4.1730258   -4.1730258   -2.9032402  0.020351673   -4.1730258    1.2697856  1010000 
 1541000   0.84614778   -4.1726064   -4.1726064    -2.903386  0.023659507   -4.1726064    1.2692204  1010000 
 1542000   0.84696872   -4.1740672   -4.1740672   -2.9036154  0.022006632   -4.1740672    1.2704518  1010000 
 1543000   0.84636433    -4.173448    -4.173448   -2.9039028  0.020798725    -4.173448    1.2695452  1010000 
 1544000   0.84682911   -4.1740549   -4.1740549   -2.9038125  0.020289176   -4.1740549    1.2702424  1010000 
 1545000   0.84592658   -4.1729278   -4.1729278   -2.9040392  0.023517973   -4.1729278    1.2688886  1010000 
 1546000   0.84554371   -4.1725232   -4.1725232   -2.9042089  0.023306995   -4.1725232    1.2683143  1010000 
 1547000   0.84623311   -4.1740374   -4.1740374    -2.904689  0.018321852   -4.1740374    1.2693484  1010000 
 1548000   0.84663179   -4.1745745   -4.1745745   -2.9046281  0.019033065   -4.1745745    1.2699464  1010000 
 1549000   0.84507777     -4.17268     -4.17268   -2.9050646  0.023220895     -4.17268    1.2676154  1010000 
 1550000   0.84521566   -4.1725306   -4.1725306   -2.9047084  0.021552154   -4.1725306    1.2678222  1010000 
 1551000   0.84596285   -4.1735341   -4.1735341   -2.9045911  0.024650772   -4.1735341     1.268943  1010000 
 1552000   0.84676748   -4.1741913   -4.1741913   -2.9040413  0.021615188   -4.1741913      1.27015  1010000 
 1553000   0.84669174   -4.1737191   -4.1737191   -2.9036828  0.021752651   -4.1737191    1.2700363  1010000 
 1554000   0.84701848    -4.173748    -4.173748   -2.9032216  0.021010175    -4.173748    1.2705265  1010000 
 1555000   0.84673807   -4.1730152   -4.1730152   -2.9029093  0.026366646   -4.1730152    1.2701059  1010000 
 1556000   0.84662963   -4.1720825   -4.1720825   -2.9021393  0.024379672   -4.1720825    1.2699432  1010000 
 1557000    0.8471095   -4.1726799   -4.1726799   -2.9020169  0.027032428   -4.1726799     1.270663  1010000 
 1558000   0.84683631   -4.1723493   -4.1723493   -2.9020961  0.025801543   -4.1723493    1.2702532  1010000 
 1559000   0.84690327   -4.1729303   -4.1729303   -2.9025767  0.019589743   -4.1729303    1.2703537  1010000 
 1560000   0.84565212   -4.1710659   -4.1710659    -2.902589  0.019785525   -4.1710659    1.2684769  1010000 
 1561000     0.845532   -4.1709217   -4.1709217   -2.9026249  0.023844022   -4.1709217    1.2682967  1010000 
 1562000   0.84598947   -4.1705599   -4.1705599   -2.9015769  0.024408088   -4.1705599     1.268983  1010000 
 1563000   0.84652142   -4.1718415   -4.1718415   -2.9020607  0.018669508   -4.1718415    1.2697809  1010000 
 1564000   0.84551824   -4.1699344   -4.1699344   -2.9016583  0.019129546   -4.1699344    1.2682761  1010000 
 1565000   0.84574985   -4.1702726   -4.1702726    -2.901649   0.02006355   -4.1702726    1.2686235  1010000 
 1566000   0.84646471   -4.1705497   -4.1705497   -2.9008539  0.018294285   -4.1705497    1.2696958  1010000 
 1567000   0.84584245   -4.1699118   -4.1699118   -2.9011494  0.021725567   -4.1699118    1.2687624  1010000 
 1568000   0.84597842   -4.1698626   -4.1698626   -2.9008962   0.02189007   -4.1698626    1.2689664  1010000 
 1569000   0.84709671      -4.1713      -4.1713   -2.9006562  0.019332063      -4.1713    1.2706438  1010000 
 1570000     0.846627    -4.170026    -4.170026   -2.9000868  0.019606221    -4.170026    1.2699392  1010000 
 1571000   0.84693517   -4.1702655   -4.1702655    -2.899864  0.021685777   -4.1702655    1.2704015  1010000 
 1572000   0.84649037    -4.169695    -4.169695   -2.8999607  0.019267004    -4.169695    1.2697343  1010000 
 1573000   0.84705617   -4.1701663   -4.1701663   -2.8995833  0.018209663   -4.1701663     1.270583  1010000 
 1574000    0.8470428   -4.1704347   -4.1704347   -2.8998717  0.019751667   -4.1704347    1.2705629  1010000 
 1575000   0.84670466   -4.1696965   -4.1696965   -2.8996408  0.025433094   -4.1696965    1.2700557  1010000 
 1576000   0.84600903    -4.168261    -4.168261   -2.8992487  0.026558759    -4.168261    1.2690123  1010000 
 1577000    0.8472477   -4.1703449   -4.1703449   -2.8994746    0.0206791   -4.1703449    1.2708703  1010000 
 1578000   0.84711373    -4.169629    -4.169629   -2.8989597  0.027175338    -4.169629    1.2706693  1010000 
 1579000   0.84799617    -4.171663    -4.171663     -2.89967  0.022148574    -4.171663     1.271993  1010000 
 1580000   0.84818338   -4.1713315   -4.1713315   -2.8990577  0.022009658   -4.1713315    1.2722738  1010000 
 1581000   0.84709433   -4.1697785   -4.1697785   -2.8991382  0.025437973   -4.1697785    1.2706402  1010000 
 1582000   0.84717938   -4.1692301   -4.1692301   -2.8984623  0.025181752   -4.1692301    1.2707678  1010000 
 1583000   0.84688429   -4.1683488   -4.1683488   -2.8980236  0.021459038   -4.1683488    1.2703252  1010000 
 1584000   0.84739241   -4.1688468   -4.1688468   -2.8977594  0.023220919   -4.1688468    1.2710874  1010000 
 1585000   0.84804492   -4.1703726   -4.1703726   -2.8983065  0.023201706   -4.1703726    1.2720661  1010000 
 1586000   0.84687193   -4.1689186   -4.1689186   -2.8986119  0.025125939   -4.1689186    1.2703066  1010000 
 1587000   0.84719332   -4.1693128   -4.1693128   -2.8985241  0.022957707   -4.1693128    1.2707887  1010000 
 1588000   0.84748098   -4.1701355   -4.1701355   -2.8989153  0.017752195   -4.1701355    1.2712202  1010000 
 1589000   0.84661545   -4.1685171   -4.1685171   -2.8985952  0.023342871   -4.1685171    1.2699219  1010000 
 1590000   0.84690547   -4.1688461   -4.1688461   -2.8984892  0.019015687   -4.1688461     1.270357  1010000 
 1591000   0.84603672   -4.1669599   -4.1669599   -2.8979061  0.026849163   -4.1669599    1.2690538  1010000 
 1592000   0.84667571   -4.1674262   -4.1674262   -2.8974139  0.025390365   -4.1674262    1.2700123  1010000 
 1593000   0.84661966   -4.1671917   -4.1671917   -2.8972635  0.022455782   -4.1671917    1.2699282  1010000 
 1594000   0.84675783   -4.1677845   -4.1677845    -2.897649  0.021187484   -4.1677845    1.2701355  1010000 
 1595000   0.84693397   -4.1684258   -4.1684258   -2.8980261  0.019706495   -4.1684258    1.2703997  1010000 
 1596000   0.84700974   -4.1675593   -4.1675593    -2.897046  0.020894805   -4.1675593    1.2705134  1010000 
 1597000   0.84694957   -4.1688387   -4.1688387   -2.8984156  0.018213446   -4.1688387    1.2704231  1010000 
 1598000    0.8465531   -4.1677373   -4.1677373   -2.8979089   0.02046823   -4.1677373    1.2698284  1010000 
 1599000   0.84731667   -4.1691517   -4.1691517   -2.8981779  0.017715088   -4.1691517    1.2709737  1010000 
 1600000   0.84662895   -4.1681601   -4.1681601    -2.898218  0.021428919   -4.1681601    1.2699422  1010000 
 1601000   0.84632567   -4.1676958   -4.1676958   -2.8982086  0.021615224   -4.1676958    1.2694872  1010000 
 1602000   0.84707341   -4.1683007   -4.1683007   -2.8976918  0.023625522   -4.1683007    1.2706089  1010000 
 1603000   0.84775721    -4.169231    -4.169231   -2.8975964  0.019730553    -4.169231    1.2716346  1010000 
 1604000   0.84721468    -4.168737    -4.168737   -2.8979163  0.024416604    -4.168737    1.2708208  1010000 
 1605000   0.84870923   -4.1698479   -4.1698479   -2.8967853  0.024727795   -4.1698479    1.2730626  1010000 
 1606000   0.84865595   -4.1693848   -4.1693848   -2.8964021  0.029081813   -4.1693848    1.2729827  1010000 
 1607000   0.84922155   -4.1707302   -4.1707302   -2.8968992  0.023007911   -4.1707302    1.2738311  1010000 
 1608000   0.84760131   -4.1686215   -4.1686215   -2.8972208  0.026905702   -4.1686215    1.2714007  1010000 
 1609000   0.84858811   -4.1699747   -4.1699747   -2.8970938  0.024557274   -4.1699747    1.2728809  1010000 
 1610000   0.84791988   -4.1683109   -4.1683109   -2.8964323  0.028990442   -4.1683109    1.2718786  1010000 
 1611000   0.84831132    -4.169352    -4.169352   -2.8968863  0.024202282    -4.169352    1.2724657  1010000 
 1612000   0.84838554   -4.1695587   -4.1695587   -2.8969817   0.02428349   -4.1695587     1.272577  1010000 
 1613000   0.84732019   -4.1680481   -4.1680481   -2.8970691  0.023362235   -4.1680481     1.270979  1010000 
 1614000   0.84799219   -4.1688717   -4.1688717   -2.8968847  0.023565505   -4.1688717     1.271987  1010000 
 1615000   0.84776836   -4.1686821   -4.1686821   -2.8970308  0.019942654   -4.1686821    1.2716513  1010000 
 1616000   0.84768066    -4.167747    -4.167747   -2.8962273  0.021946796    -4.167747    1.2715197  1010000 
 1617000   0.84698347   -4.1667276   -4.1667276   -2.8962537  0.020718899   -4.1667276    1.2704739  1010000 
 1618000   0.84703393   -4.1665655   -4.1665655   -2.8960159  0.020720964   -4.1665655    1.2705496  1010000 
 1619000   0.84789747   -4.1675963   -4.1675963   -2.8957513  0.018762412   -4.1675963    1.2718449  1010000 
 1620000   0.84769087   -4.1675138   -4.1675138   -2.8959788  0.019540378   -4.1675138     1.271535  1010000 
 1621000   0.84838404     -4.16855     -4.16855   -2.8959752  0.017204484     -4.16855    1.2725748  1010000 
 1622000   0.84774009   -4.1675613   -4.1675613   -2.8959525  0.020902505   -4.1675613    1.2716089  1010000 
 1623000    0.8472531   -4.1670139   -4.1670139   -2.8961355   0.02112468   -4.1670139    1.2708784  1010000 
 1624000   0.84713631   -4.1664013   -4.1664013   -2.8956981  0.016846027   -4.1664013    1.2707032  1010000 
 1625000   0.84729141    -4.166124    -4.166124   -2.8951882  0.016979273    -4.166124    1.2709359  1010000 
 1626000   0.84683596   -4.1652269   -4.1652269   -2.8949742  0.020092481   -4.1652269    1.2702527  1010000 
 1627000   0.84835373   -4.1671004   -4.1671004    -2.894571  0.017296543   -4.1671004    1.2725293  1010000 
 1628000   0.84720058   -4.1655283   -4.1655283   -2.8947287  0.015353834   -4.1655283    1.2707996  1010000 
 1629000   0.84720857   -4.1660587   -4.1660587   -2.8952471  0.017544186   -4.1660587    1.2708116  1010000 
 1630000    0.8465551    -4.164168    -4.164168   -2.8943366  0.021602564    -4.164168    1.2698314  1010000 
 1631000   0.84721983   -4.1649738   -4.1649738   -2.8941453  0.020055625   -4.1649738    1.2708285  1010000 
 1632000   0.84779265   -4.1656499   -4.1656499   -2.8939621  0.022161165   -4.1656499    1.2716877  1010000 
 1633000   0.84857034   -4.1670002   -4.1670002   -2.8941459  0.024520981   -4.1670002    1.2728542  1010000 
 1634000    0.8480662   -4.1659516   -4.1659516   -2.8938536  0.021355681   -4.1659516     1.272098  1010000 
 1635000    0.8489436   -4.1674938   -4.1674938   -2.8940797   0.02092521   -4.1674938    1.2734141  1010000 
 1636000   0.84856318   -4.1664471   -4.1664471   -2.8936036  0.020168485   -4.1664471    1.2728435  1010000 
 1637000    0.8482507   -4.1656705   -4.1656705   -2.8932957  0.022646613   -4.1656705    1.2723748  1010000 
 1638000   0.84890213   -4.1665013   -4.1665013   -2.8931494  0.019177093   -4.1665013    1.2733519  1010000 
 1639000   0.84746554   -4.1654947   -4.1654947   -2.8942977  0.024421473   -4.1654947    1.2711971  1010000 
 1640000   0.84774213    -4.166573    -4.166573   -2.8949611  0.023160427    -4.166573    1.2716119  1010000 
 1641000   0.84766971   -4.1666798   -4.1666798   -2.8951765  0.020271543   -4.1666798    1.2715033  1010000 
 1642000   0.84809458   -4.1667158   -4.1667158   -2.8945752  0.016945248   -4.1667158    1.2721406  1010000 
 1643000   0.84747948   -4.1656792   -4.1656792   -2.8944612  0.024152453   -4.1656792     1.271218  1010000 
 1644000   0.84815089    -4.166428    -4.166428   -2.8942029  0.021181708    -4.166428    1.2722251  1010000 
 1645000   0.84848284   -4.1664987   -4.1664987   -2.8937757  0.025564983   -4.1664987     1.272723  1010000 
 1646000   0.84821619   -4.1660776   -4.1660776   -2.8937545  0.024265077   -4.1660776     1.272323  1010000 
 1647000   0.84756553   -4.1651557   -4.1651557   -2.8938087  0.023956422   -4.1651557     1.271347  1010000 
 1648000   0.84793902   -4.1661227   -4.1661227   -2.8942154   0.01944284   -4.1661227    1.2719073  1010000 
 1649000   0.84820915   -4.1664752   -4.1664752   -2.8941627  0.020240583   -4.1664752    1.2723125  1010000 
 1650000   0.84781335   -4.1657594   -4.1657594   -2.8940407    0.0194663   -4.1657594    1.2717188  1010000 
 1651000   0.84764255   -4.1651589   -4.1651589   -2.8936963  0.025212242   -4.1651589    1.2714626  1010000 
 1652000   0.84870584   -4.1662836   -4.1662836   -2.8932261  0.020253157   -4.1662836    1.2730575  1010000 
 1653000   0.84769864   -4.1650221   -4.1650221   -2.8934754  0.024263724   -4.1650221    1.2715467  1010000 
 1654000   0.84682773   -4.1638555   -4.1638555   -2.8936152  0.026282833   -4.1638555    1.2702403  1010000 
 1655000    0.8475109   -4.1650998   -4.1650998   -2.8938347  0.024377282   -4.1650998    1.2712651  1010000 
 1656000   0.84811409   -4.1648907   -4.1648907   -2.8927208  0.021868888   -4.1648907    1.2721699  1010000 
 1657000   0.84864342   -4.1657663   -4.1657663   -2.8928024  0.020887482   -4.1657663    1.2729639  1010000 
 1658000   0.84866649   -4.1652273   -4.1652273   -2.8922288  0.022022243   -4.1652273    1.2729985  1010000 
 1659000   0.84871032   -4.1654212   -4.1654212    -2.892357   0.02038412   -4.1654212    1.2730642  1010000 
 1660000   0.84739931   -4.1633528   -4.1633528   -2.8922551  0.020001037   -4.1633528    1.2710977  1010000 
 1661000   0.84750639   -4.1639135   -4.1639135   -2.8926552  0.022417011   -4.1639135    1.2712583  1010000 
 1662000   0.84787318   -4.1646417   -4.1646417   -2.8928332  0.021777772   -4.1646417    1.2718085  1010000 
 1663000   0.84878214   -4.1652383   -4.1652383   -2.8920663  0.024596459   -4.1652383     1.273172  1010000 
 1664000   0.84848882   -4.1646248   -4.1646248   -2.8918928  0.020591035   -4.1646248     1.272732  1010000 
 1665000   0.84850538   -4.1638448   -4.1638448    -2.891088  0.020064974   -4.1638448    1.2727568  1010000 
 1666000   0.84819846   -4.1635001   -4.1635001   -2.8912037  0.018715193   -4.1635001    1.2722964  1010000 
 1667000   0.84850439   -4.1630602   -4.1630602   -2.8903049  0.024814164   -4.1630602    1.2727553  1010000 
 1668000   0.84828674   -4.1625503   -4.1625503   -2.8901215  0.024422735   -4.1625503    1.2724288  1010000 
 1669000   0.84862984   -4.1629251   -4.1629251   -2.8899816   0.02054576   -4.1629251    1.2729435  1010000 
 1670000   0.84819491   -4.1618901   -4.1618901    -2.889599  0.021889545   -4.1618901    1.2722911  1010000 
 1671000   0.84959632   -4.1642996   -4.1642996   -2.8899064  0.018147407   -4.1642996    1.2743932  1010000 
 1672000   0.84786889   -4.1617807   -4.1617807   -2.8899786  0.024003503   -4.1617807    1.2718021  1010000 
 1673000   0.84789023   -4.1616328   -4.1616328   -2.8897987  0.024582713   -4.1616328    1.2718341  1010000 
 1674000   0.84860752   -4.1621661   -4.1621661   -2.8892561  0.020324388   -4.1621661      1.27291  1010000 
 1675000   0.84858226   -4.1617729   -4.1617729   -2.8889008  0.019015341   -4.1617729    1.2728721  1010000 
 1676000   0.84858212   -4.1616917   -4.1616917   -2.8888198   0.02291043   -4.1616917    1.2728719  1010000 
 1677000   0.84819226   -4.1617176   -4.1617176   -2.8894305  0.017689292   -4.1617176    1.2722871  1010000 
 1678000   0.84816904   -4.1616352   -4.1616352   -2.8893829  0.018044811   -4.1616352    1.2722523  1010000 
 1679000   0.84802884   -4.1617714   -4.1617714   -2.8897294  0.017345058   -4.1617714     1.272042  1010000 
 1680000   0.84835792   -4.1625443   -4.1625443   -2.8900086  0.019473673   -4.1625443    1.2725356  1010000 
 1681000    0.8476298    -4.161091    -4.161091   -2.8896475    0.0214862    -4.161091    1.2714434  1010000 
 1682000   0.84885274   -4.1636342   -4.1636342   -2.8903564  0.016583164   -4.1636342    1.2732778  1010000 
 1683000   0.84797452   -4.1622115   -4.1622115    -2.890251  0.020111951   -4.1622115    1.2719605  1010000 
 1684000   0.84842225   -4.1621981   -4.1621981    -2.889566  0.022482309   -4.1621981    1.2726321  1010000 
 1685000   0.84916997   -4.1632392   -4.1632392   -2.8894855  0.020138545   -4.1632392    1.2737537  1010000 
 1686000   0.84912593    -4.163474    -4.163474   -2.8897863  0.024211067    -4.163474    1.2736876  1010000 
 1687000   0.84745954    -4.161138    -4.161138     -2.88995  0.029174876    -4.161138     1.271188  1010000 
 1688000     0.849211   -4.1635873   -4.1635873   -2.8897721  0.021534798   -4.1635873    1.2738152  1010000 
 1689000   0.84841193   -4.1621231   -4.1621231   -2.8895065  0.023351723   -4.1621231    1.2726166  1010000 
 1690000   0.84935116   -4.1636689   -4.1636689   -2.8896434  0.024220973   -4.1636689    1.2740255  1010000 
 1691000   0.84824649   -4.1609674   -4.1609674    -2.888599  0.027753497   -4.1609674    1.2723685  1010000 
 1692000   0.84881578   -4.1620294   -4.1620294    -2.888807  0.022801099   -4.1620294    1.2732224  1010000 
 1693000   0.84878502    -4.162477    -4.162477   -2.8893008  0.023815145    -4.162477    1.2731763  1010000 
 1694000   0.84842545   -4.1622243   -4.1622243   -2.8895873  0.022140433   -4.1622243    1.2726369  1010000 
 1695000   0.84864576   -4.1617409   -4.1617409   -2.8887735  0.023788706   -4.1617409    1.2729674  1010000 
 1696000    0.8488599   -4.1618469   -4.1618469   -2.8885583  0.022696859   -4.1618469    1.2732886  1010000 
 1697000   0.84834158   -4.1610305   -4.1610305   -2.8885194  0.023080601   -4.1610305    1.2725111  1010000 
 1698000   0.84876145   -4.1617354   -4.1617354   -2.8885944  0.022440511   -4.1617354    1.2731409  1010000 
 1699000   0.84812893   -4.1610105   -4.1610105   -2.8888184  0.018930081   -4.1610105    1.2721921  1010000 
 1700000   0.84824441   -4.1607213   -4.1607213    -2.888356  0.018920758   -4.1607213    1.2723654  1010000 
 1701000   0.84802048   -4.1608586   -4.1608586   -2.8888291  0.023259575   -4.1608586    1.2720295  1010000 
 1702000   0.84714102   -4.1591689   -4.1591689   -2.8884587  0.020360379   -4.1591689    1.2707103  1010000 
 1703000   0.84814633   -4.1607368   -4.1607368   -2.8885186  0.019232802   -4.1607368    1.2722182  1010000 
 1704000   0.84842533   -4.1608704   -4.1608704   -2.8882337  0.018077102   -4.1608704    1.2726367  1010000 
 1705000   0.84830459    -4.160224    -4.160224   -2.8877684  0.021109553    -4.160224    1.2724556  1010000 
 1706000    0.8488809   -4.1607238   -4.1607238   -2.8874037  0.020406879   -4.1607238    1.2733201  1010000 
 1707000   0.84805489   -4.1593356   -4.1593356   -2.8872545  0.023350104   -4.1593356    1.2720811  1010000 
 1708000   0.84867523   -4.1599577   -4.1599577   -2.8869461  0.022329425   -4.1599577    1.2730116  1010000 
 1709000   0.84813747   -4.1589829   -4.1589829    -2.886778  0.020161577   -4.1589829    1.2722049  1010000 
 1710000   0.84881661   -4.1596962   -4.1596962   -2.8864725  0.024863909   -4.1596962    1.2732237  1010000 
 1711000   0.84828292   -4.1588595   -4.1588595   -2.8864363  0.020052491   -4.1588595    1.2724231  1010000 
 1712000   0.84877518   -4.1603608   -4.1603608   -2.8871993  0.021455605   -4.1603608    1.2731615  1010000 
 1713000   0.84795492   -4.1585008   -4.1585008   -2.8865696  0.026519743   -4.1585008    1.2719311  1010000 
 1714000   0.84815716    -4.159446    -4.159446   -2.8872116  0.023736301    -4.159446    1.2722345  1010000 
 1715000   0.84829941   -4.1586905   -4.1586905   -2.8862426  0.023662392   -4.1586905    1.2724479  1010000 
 1716000   0.84884647    -4.159478    -4.159478   -2.8862096  0.018858903    -4.159478    1.2732684  1010000 
 1717000   0.84853974   -4.1589499   -4.1589499   -2.8861415  0.023297616   -4.1589499    1.2728084  1010000 
 1718000   0.84906355   -4.1589447   -4.1589447   -2.8853506  0.022019761   -4.1589447    1.2735941  1010000 
 1719000   0.84953249   -4.1605721   -4.1605721   -2.8862746  0.019606836   -4.1605721    1.2742975  1010000 
 1720000    0.8501127   -4.1617914   -4.1617914   -2.8866236  0.016508714   -4.1617914    1.2751678  1010000 
 1721000   0.84860839   -4.1588974   -4.1588974   -2.8859861  0.026233779   -4.1588974    1.2729113  1010000 
 1722000    0.8489308   -4.1589782   -4.1589782   -2.8855832  0.024642438   -4.1589782    1.2733949  1010000 
 1723000   0.84976743   -4.1600286   -4.1600286   -2.8853787  0.021202033   -4.1600286    1.2746499  1010000 
 1724000   0.84963569   -4.1593091   -4.1593091   -2.8848568  0.021363418   -4.1593091    1.2744523  1010000 
 1725000     0.849689   -4.1594396   -4.1594396   -2.8849074  0.022332956   -4.1594396    1.2745322  1010000 
 1726000   0.84883842   -4.1593047   -4.1593047   -2.8860483  0.025023717   -4.1593047    1.2732564  1010000 
 1727000   0.84895598   -4.1596877   -4.1596877    -2.886255  0.022750286   -4.1596877    1.2734327  1010000 
 1728000   0.84912701   -4.1595491   -4.1595491   -2.8858599  0.020149943   -4.1595491    1.2736893  1010000 
 1729000   0.84837326   -4.1585206   -4.1585206    -2.885962  0.023545318   -4.1585206    1.2725586  1010000 
 1730000   0.84901993    -4.159119    -4.159119   -2.8855904  0.019049255    -4.159119    1.2735286  1010000 
 1731000    0.8491177   -4.1588068   -4.1588068   -2.8851315  0.020849145   -4.1588068    1.2736753  1010000 
 1732000   0.84930617   -4.1587913   -4.1587913   -2.8848333  0.020788915   -4.1587913     1.273958  1010000 
 1733000   0.84944756   -4.1592411   -4.1592411   -2.8850711  0.020598673   -4.1592411    1.2741701  1010000 
 1734000   0.84885302   -4.1586433   -4.1586433    -2.885365  0.022707152   -4.1586433    1.2732783  1010000 
 1735000   0.84979423    -4.160152    -4.160152   -2.8854619  0.020601334    -4.160152    1.2746901  1010000 
 1736000   0.84911329   -4.1595777   -4.1595777    -2.885909  0.021759003   -4.1595777    1.2736687  1010000 
 1737000   0.84875031   -4.1580236   -4.1580236   -2.8848994   0.02126993   -4.1580236    1.2731242  1010000 
 1738000   0.84930037   -4.1585621   -4.1585621   -2.8846129  0.022033535   -4.1585621    1.2739493  1010000 
 1739000   0.84921466   -4.1588333   -4.1588333   -2.8850126   0.02142997   -4.1588333    1.2738207  1010000 
 1740000   0.84913819   -4.1585521   -4.1585521   -2.8848461  0.023445699   -4.1585521     1.273706  1010000 
 1741000   0.84911152   -4.1581479   -4.1581479   -2.8844818   0.02288799   -4.1581479     1.273666  1010000 
 1742000   0.84948138   -4.1591523   -4.1591523   -2.8849315  0.024938231   -4.1591523    1.2742208  1010000 
 1743000   0.84944206    -4.158305    -4.158305   -2.8841431  0.024604479    -4.158305    1.2741618  1010000 
 1744000   0.84917013   -4.1578103   -4.1578103   -2.8840563  0.025133045   -4.1578103    1.2737539  1010000 
 1745000   0.84907987   -4.1572633   -4.1572633   -2.8836448  0.024923107   -4.1572633    1.2736185  1010000 
 1746000   0.84994096   -4.1582353   -4.1582353   -2.8833252  0.024332128   -4.1582353    1.2749102  1010000 
 1747000   0.84984137   -4.1584264   -4.1584264   -2.8836656  0.024333002   -4.1584264    1.2747608  1010000 
 1748000   0.84959099   -4.1583457   -4.1583457   -2.8839604  0.019541923   -4.1583457    1.2743852  1010000 
 1749000    0.8488268   -4.1577174   -4.1577174   -2.8844785  0.021664755   -4.1577174    1.2732389  1010000 
 1750000   0.84883247   -4.1574507   -4.1574507   -2.8842033  0.023271231   -4.1574507    1.2732474  1010000 
 1751000   0.84893941   -4.1571357   -4.1571357   -2.8837278  0.022461463   -4.1571357    1.2734079  1010000 
 1752000   0.84919605   -4.1574528   -4.1574528     -2.88366  0.024257245   -4.1574528    1.2737928  1010000 
 1753000   0.84872751   -4.1566407   -4.1566407   -2.8835507  0.022341873   -4.1566407      1.27309  1010000 
 1754000   0.84987669   -4.1579204   -4.1579204   -2.8831066  0.021386529   -4.1579204    1.2748138  1010000 
 1755000   0.85022194    -4.158321    -4.158321   -2.8829893  0.020360363    -4.158321    1.2753316  1010000 
 1756000   0.84978086   -4.1573604   -4.1573604   -2.8826903  0.024796966   -4.1573604      1.27467  1010000 
 1757000   0.84941949   -4.1567337   -4.1567337   -2.8826058    0.0238045   -4.1567337     1.274128  1010000 
 1758000   0.84986285   -4.1572494   -4.1572494   -2.8824564  0.024226522   -4.1572494     1.274793  1010000 
 1759000   0.85065442   -4.1577721   -4.1577721   -2.8817917  0.019445526   -4.1577721    1.2759804  1010000 
 1760000   0.84950123   -4.1567185   -4.1567185   -2.8824679  0.024457506   -4.1567185    1.2742506  1010000 
 1761000   0.85045339   -4.1571528   -4.1571528    -2.881474  0.024405957   -4.1571528    1.2756788  1010000 
 1762000   0.84959114   -4.1559096   -4.1559096   -2.8815242  0.022098532   -4.1559096    1.2743855  1010000 
 1763000    0.8498466   -4.1555185   -4.1555185   -2.8807499  0.024562503   -4.1555185    1.2747686  1010000 
 1764000   0.84972563   -4.1559604   -4.1559604   -2.8813732  0.021710113   -4.1559604    1.2745872  1010000 
 1765000   0.84984145   -4.1557774   -4.1557774   -2.8810165  0.020678151   -4.1557774    1.2747609  1010000 
 1766000   0.84927794   -4.1553034   -4.1553034   -2.8813878  0.020723192   -4.1553034    1.2739156  1010000 
 1767000   0.84895648   -4.1552939   -4.1552939   -2.8818605   0.02298735   -4.1552939    1.2734335  1010000 
 1768000   0.84967966   -4.1557424   -4.1557424   -2.8812242  0.024967042   -4.1557424    1.2745182  1010000 
 1769000   0.84907221   -4.1549725   -4.1549725   -2.8813654  0.023306687   -4.1549725    1.2736071  1010000 
 1770000   0.84931343   -4.1557539   -4.1557539    -2.881785  0.017645013   -4.1557539    1.2739689  1010000 
 1771000   0.84947195   -4.1554687   -4.1554687    -2.881262  0.014511444   -4.1554687    1.2742067  1010000 
 1772000   0.84936333   -4.1548899   -4.1548899   -2.8808461  0.019298538   -4.1548899    1.2740437  1010000 
 1773000    0.8481629   -4.1534176   -4.1534176   -2.8811745  0.023913396   -4.1534176    1.2722431  1010000 
 1774000   0.84852884   -4.1545631   -4.1545631   -2.8817711   0.01450134   -4.1545631     1.272792  1010000 
 1775000   0.84857042   -4.1548658   -4.1548658   -2.8820115  0.020231457   -4.1548658    1.2728544  1010000 
 1776000   0.84900869   -4.1545085   -4.1545085   -2.8809967   0.02220049   -4.1545085    1.2735118  1010000 
 1777000   0.85018547   -4.1563344   -4.1563344   -2.8810575  0.017380383   -4.1563344    1.2752769  1010000 
 1778000   0.84942217   -4.1549771   -4.1549771   -2.8808451  0.021914485   -4.1549771     1.274132  1010000 
 1779000   0.85008868   -4.1559711   -4.1559711   -2.8808394  0.020030305   -4.1559711    1.2751318  1010000 
 1780000   0.85001949     -4.15508     -4.15508    -2.880052  0.027877458     -4.15508     1.275028  1010000 
 1781000   0.85051123   -4.1553581   -4.1553581   -2.8795925   0.02623507   -4.1553581    1.2757656  1010000 
 1782000   0.85094829    -4.155917    -4.155917   -2.8794958  0.026044868    -4.155917    1.2764212  1010000 
 1783000   0.85113674   -4.1556807   -4.1556807   -2.8789768   0.02588221   -4.1556807    1.2767038  1010000 
 1784000   0.85117253   -4.1558696   -4.1558696    -2.879112   0.02533266   -4.1558696    1.2767575  1010000 
 1785000   0.85078068   -4.1555938   -4.1555938    -2.879424  0.026605129   -4.1555938    1.2761698  1010000 
 1786000   0.85037449   -4.1547475   -4.1547475    -2.879187  0.026186921   -4.1547475    1.2755605  1010000 
 1787000   0.85061731   -4.1549094   -4.1549094   -2.8789847  0.025342276   -4.1549094    1.2759247  1010000 
 1788000    0.8507944   -4.1561795   -4.1561795   -2.8799892  0.019056197   -4.1561795    1.2761903  1010000 
 1789000   0.85114363   -4.1559521   -4.1559521   -2.8792379  0.020332345   -4.1559521    1.2767142  1010000 
 1790000     0.849683   -4.1541993   -4.1541993   -2.8796761  0.023505025   -4.1541993    1.2745232  1010000 
 1791000   0.85010212   -4.1553716   -4.1553716   -2.8802197  0.022339916   -4.1553716    1.2751519  1010000 
 1792000   0.85009715   -4.1551574   -4.1551574   -2.8800129  0.020152954   -4.1551574    1.2751445  1010000 
 1793000    0.8505696   -4.1548588   -4.1548588   -2.8790057  0.020586397   -4.1548588    1.2758531  1010000 
 1794000   0.84964541   -4.1537045   -4.1537045   -2.8792376  0.024004838   -4.1537045    1.2744669  1010000 
 1795000   0.84978103   -4.1534553   -4.1534553    -2.878785  0.020769261   -4.1534553    1.2746703  1010000 
 1796000   0.85066104   -4.1532296   -4.1532296   -2.8772393  0.025486348   -4.1532296    1.2759903  1010000 
 1797000   0.84998651   -4.1524875   -4.1524875    -2.877509  0.024747308   -4.1524875    1.2749785  1010000 
 1798000   0.85108999    -4.154144    -4.154144   -2.8775102  0.020151864    -4.154144    1.2766337  1010000 
 1799000   0.85122801   -4.1550383   -4.1550383   -2.8781975  0.020505865   -4.1550383    1.2768408  1010000 
 1800000   0.85081187   -4.1528725   -4.1528725   -2.8766559  0.027675828   -4.1528725    1.2762165  1010000 
 1801000   0.85024104   -4.1525384   -4.1525384   -2.8771781  0.023063907   -4.1525384    1.2753603  1010000 
 1802000   0.85062695   -4.1526042   -4.1526042    -2.876665  0.019885583   -4.1526042    1.2759392  1010000 
 1803000   0.85079744   -4.1522467   -4.1522467   -2.8760518  0.020511047   -4.1522467    1.2761949  1010000 
 1804000   0.85032687   -4.1519429   -4.1519429   -2.8764538  0.024899807   -4.1519429     1.275489  1010000 
 1805000   0.84960844   -4.1514184   -4.1514184    -2.877007  0.020756559   -4.1514184    1.2744114  1010000 
 1806000   0.84978741   -4.1515083   -4.1515083   -2.8768284  0.020037496   -4.1515083    1.2746798  1010000 
 1807000   0.84988879   -4.1511138   -4.1511138   -2.8762818  0.018086376   -4.1511138    1.2748319  1010000 
 1808000   0.84992665   -4.1517468   -4.1517468   -2.8768581   0.01951671   -4.1517468    1.2748887  1010000 
 1809000   0.84965268   -4.1519756   -4.1519756   -2.8774979  0.018543594   -4.1519756    1.2744778  1010000 
 1810000   0.84933738   -4.1513319   -4.1513319   -2.8773271   0.02098157   -4.1513319    1.2740048  1010000 
 1811000   0.85006666   -4.1519712   -4.1519712   -2.8768724  0.020195311   -4.1519712    1.2750987  1010000 
 1812000   0.84943134    -4.151809    -4.151809   -2.8776633  0.019664681    -4.151809    1.2741457  1010000 
 1813000   0.85011065   -4.1521353   -4.1521353   -2.8769706  0.021483247   -4.1521353    1.2751647  1010000 
 1814000   0.84905767   -4.1510506   -4.1510506   -2.8774653  0.022019199   -4.1510506    1.2735852  1010000 
 1815000   0.85059224   -4.1526419   -4.1526419   -2.8767548  0.022714959   -4.1526419    1.2758871  1010000 
 1816000   0.85075944   -4.1532122   -4.1532122   -2.8770744   0.02085697   -4.1532122    1.2761379  1010000 
 1817000   0.85079191   -4.1538822   -4.1538822   -2.8776956  0.019789855   -4.1538822    1.2761866  1010000 
 1818000   0.85058682   -4.1533551   -4.1533551   -2.8774761  0.024174556   -4.1533551     1.275879  1010000 
 1819000   0.85159768   -4.1539984   -4.1539984   -2.8766031  0.023356722   -4.1539984    1.2773953  1010000 
 1820000   0.85160845   -4.1540745   -4.1540745    -2.876663  0.020735474   -4.1540745    1.2774114  1010000 
 1821000   0.85135223   -4.1539441   -4.1539441    -2.876917  0.023218754   -4.1539441    1.2770271  1010000 
 1822000   0.85123236    -4.153788    -4.153788   -2.8769408  0.026413308    -4.153788    1.2768473  1010000 
 1823000   0.85138759   -4.1545382   -4.1545382   -2.8774581  0.022215913   -4.1545382    1.2770801  1010000 
 1824000     0.851587   -4.1537726   -4.1537726   -2.8763934  0.023231604   -4.1537726    1.2773792  1010000 
 1825000   0.85142946   -4.1530632   -4.1530632   -2.8759203  0.026388391   -4.1530632    1.2771429  1010000 
 1826000   0.85159015   -4.1531848   -4.1531848   -2.8758008  0.027311449   -4.1531848     1.277384  1010000 
 1827000   0.85151749   -4.1532599   -4.1532599   -2.8759849  0.027783704   -4.1532599     1.277275  1010000 
 1828000    0.8520906   -4.1538298   -4.1538298   -2.8756951  0.023847339   -4.1538298    1.2781346  1010000 
 1829000   0.85139702   -4.1534161   -4.1534161   -2.8763218  0.026664762   -4.1534161    1.2770943  1010000 
 1830000   0.85079976   -4.1530733   -4.1530733   -2.8768749  0.022764704   -4.1530733    1.2761984  1010000 
 1831000   0.85077483   -4.1518212   -4.1518212   -2.8756602  0.024651838   -4.1518212     1.276161  1010000 
 1832000   0.85093696   -4.1516721   -4.1516721    -2.875268   0.02009471   -4.1516721    1.2764042  1010000 
 1833000   0.85088691   -4.1517757   -4.1517757   -2.8754466  0.022174992   -4.1517757    1.2763291  1010000 
 1834000   0.85055595   -4.1514884   -4.1514884   -2.8756557  0.018425313   -4.1514884    1.2758327  1010000 
 1835000   0.85066869   -4.1515245   -4.1515245   -2.8755228  0.015494578   -4.1515245    1.2760018  1010000 
 1836000   0.85101481    -4.151232    -4.151232    -2.874711  0.020533291    -4.151232    1.2765209  1010000 
 1837000   0.84993386   -4.1503199   -4.1503199   -2.8754204  0.018936344   -4.1503199    1.2748995  1010000 
 1838000   0.84939433   -4.1497758   -4.1497758   -2.8756856  0.022503079   -4.1497758    1.2740902  1010000 
 1839000   0.84927128   -4.1494267   -4.1494267   -2.8755211  0.015998518   -4.1494267    1.2739057  1010000 
 1840000   0.84988415   -4.1499904   -4.1499904   -2.8751654  0.019134648   -4.1499904     1.274825  1010000 
 1841000   0.84956226   -4.1500441   -4.1500441    -2.875702  0.019054449   -4.1500441    1.2743421  1010000 
 1842000   0.84911744   -4.1484763   -4.1484763   -2.8748014  0.021958686   -4.1484763    1.2736749  1010000 
 1843000   0.84966916   -4.1492736   -4.1492736   -2.8747711  0.018183912   -4.1492736    1.2745025  1010000 
 1844000   0.85007026   -4.1490052   -4.1490052   -2.8739011  0.022419118   -4.1490052    1.2751041  1010000 
 1845000   0.85061164   -4.1493011   -4.1493011   -2.8733849  0.023223045   -4.1493011    1.2759162  1010000 
 1846000   0.85103561     -4.14979     -4.14979   -2.8732379   0.02081186     -4.14979    1.2765522  1010000 
 1847000   0.85240929   -4.1515473   -4.1515473   -2.8729347  0.018484117   -4.1515473    1.2786127  1010000 
 1848000   0.85222382   -4.1506779   -4.1506779   -2.8723435  0.022598659   -4.1506779    1.2783345  1010000 
 1849000   0.85194315   -4.1505207   -4.1505207   -2.8726073  0.023875633   -4.1505207    1.2779135  1010000 
 1850000   0.85221514   -4.1501389   -4.1501389   -2.8718175  0.023379059   -4.1501389    1.2783214  1010000 
 1851000    0.8518669   -4.1490405   -4.1490405   -2.8712414  0.025137764   -4.1490405    1.2777991  1010000 
 1852000   0.85119033   -4.1484269   -4.1484269   -2.8716427  0.027530629   -4.1484269    1.2767842  1010000 
 1853000   0.85219128   -4.1503375   -4.1503375   -2.8720518  0.025083354   -4.1503375    1.2782857  1010000 
 1854000    0.8515349   -4.1499254   -4.1499254   -2.8726243  0.023681103   -4.1499254    1.2773011  1010000 
 1855000   0.85076397   -4.1485484   -4.1485484   -2.8724037  0.022278031   -4.1485484    1.2761447  1010000 
 1856000   0.85160151   -4.1500338   -4.1500338   -2.8726328  0.020998031   -4.1500338     1.277401  1010000 
 1857000   0.85100733   -4.1486995   -4.1486995   -2.8721897  0.020271775   -4.1486995    1.2765097  1010000 
 1858000   0.85169092   -4.1490925   -4.1490925   -2.8715574  0.023070196   -4.1490925    1.2775351  1010000 
 1859000   0.85078095   -4.1484621   -4.1484621    -2.872292  0.022178515   -4.1484621    1.2761702  1010000 
 1860000   0.85121124   -4.1481751   -4.1481751   -2.8713595  0.025231238   -4.1481751    1.2768156  1010000 
 1861000   0.85216554   -4.1490465   -4.1490465   -2.8707995   0.02424151   -4.1490465     1.278247  1010000 
 1862000   0.85196502   -4.1491081   -4.1491081   -2.8711618  0.026223768   -4.1491081    1.2779463  1010000 
 1863000     0.851145   -4.1483331   -4.1483331   -2.8716169   0.02330991   -4.1483331    1.2767162  1010000 
 1864000   0.85099684   -4.1473766   -4.1473766   -2.8708826  0.019476717   -4.1473766     1.276494  1010000 
 1865000   0.85051043   -4.1466613   -4.1466613   -2.8708969  0.022121649   -4.1466613    1.2757644  1010000 
 1866000   0.85087391   -4.1476851   -4.1476851   -2.8713755  0.016829397   -4.1476851    1.2763096  1010000 
 1867000   0.85047758   -4.1471762   -4.1471762   -2.8714611  0.020415242   -4.1471762    1.2757151  1010000 
 1868000   0.85057398   -4.1471342   -4.1471342   -2.8712745  0.019598358   -4.1471342    1.2758597  1010000 
 1869000   0.85091436   -4.1473372   -4.1473372   -2.8709669  0.020375615   -4.1473372    1.2763703  1010000 
 1870000   0.85071884   -4.1470347   -4.1470347   -2.8709577  0.018834234   -4.1470347     1.276077  1010000 
 1871000   0.85103798   -4.1466879   -4.1466879   -2.8701322  0.020686418   -4.1466879    1.2765557  1010000 
 1872000   0.85153783   -4.1477784   -4.1477784    -2.870473  0.022475056   -4.1477784    1.2773055  1010000 
 1873000   0.85120966   -4.1464437   -4.1464437   -2.8696304  0.023187425   -4.1464437    1.2768132  1010000 
 1874000   0.85115334   -4.1465882   -4.1465882   -2.8698594  0.024566708   -4.1465882    1.2767287  1010000 
 1875000   0.85185817   -4.1469883   -4.1469883   -2.8692023  0.022960778   -4.1469883     1.277786  1010000 
 1876000   0.85186772   -4.1472191   -4.1472191   -2.8694188  0.021872612   -4.1472191    1.2778003  1010000 
 1877000   0.85169281   -4.1464122   -4.1464122   -2.8688743  0.022059352   -4.1464122    1.2775379  1010000 
 1878000   0.85178824   -4.1472271   -4.1472271    -2.869546  0.019236323   -4.1472271    1.2776811  1010000 
 1879000   0.85129595   -4.1466642   -4.1466642   -2.8697215  0.021710658   -4.1466642    1.2769427  1010000 
 1880000   0.85082976   -4.1463624   -4.1463624   -2.8701191  0.024986267   -4.1463624    1.2762434  1010000 
 1881000   0.85051415   -4.1461877   -4.1461877   -2.8704178  0.023752519   -4.1461877      1.27577  1010000 
 1882000   0.85054834   -4.1460731   -4.1460731   -2.8702518   0.02242795   -4.1460731    1.2758212  1010000 
 1883000   0.85164709   -4.1473382   -4.1473382   -2.8698688   0.02229484   -4.1473382    1.2774694  1010000 
 1884000   0.85118944   -4.1469806   -4.1469806   -2.8701978  0.017894137   -4.1469806    1.2767829  1010000 
 1885000   0.85137251   -4.1463645   -4.1463645    -2.869307  0.021616896   -4.1463645    1.2770575  1010000 
 1886000   0.85265877   -4.1477962   -4.1477962   -2.8688093   0.01906992   -4.1477962    1.2789869  1010000 
 1887000   0.85214665   -4.1474943   -4.1474943   -2.8692756  0.022174553   -4.1474943    1.2782187  1010000 
 1888000   0.85210772   -4.1471951   -4.1471951   -2.8690348  0.023182434   -4.1471951    1.2781603  1010000 
 1889000   0.85260833   -4.1477543   -4.1477543   -2.8688431  0.022337975   -4.1477543    1.2789112  1010000 
 1890000   0.85206004   -4.1466082   -4.1466082   -2.8685194   0.02520535   -4.1466082    1.2780888  1010000 
 1891000   0.85236259   -4.1465858   -4.1465858   -2.8680432   0.02334811   -4.1465858    1.2785426  1010000 
 1892000   0.85215899   -4.1457387   -4.1457387   -2.8675014  0.024536495   -4.1457387    1.2782372  1010000 
 1893000   0.85181216    -4.145481    -4.145481    -2.867764  0.025171169    -4.145481     1.277717  1010000 
 1894000   0.85194451   -4.1460028   -4.1460028   -2.8680873  0.026550703   -4.1460028    1.2779155  1010000 
 1895000   0.85187334   -4.1457771   -4.1457771   -2.8679683  0.025318802   -4.1457771    1.2778087  1010000 
 1896000   0.85160112    -4.145048    -4.145048   -2.8676476  0.026002958    -4.145048    1.2774004  1010000 
 1897000    0.8519838   -4.1460563   -4.1460563   -2.8680818  0.024488238   -4.1460563    1.2779744  1010000 
 1898000   0.85160946   -4.1453252   -4.1453252   -2.8679122  0.025346599   -4.1453252    1.2774129  1010000 
 1899000   0.85193128   -4.1457015   -4.1457015   -2.8678059  0.025443337   -4.1457015    1.2778957  1010000 
 1900000   0.85257941   -4.1453305   -4.1453305   -2.8664626  0.023912839   -4.1453305    1.2788678  1010000 
 1901000    0.8524328   -4.1447696   -4.1447696   -2.8661216  0.025040456   -4.1447696    1.2786479  1010000 
 1902000   0.85278744   -4.1455174   -4.1455174   -2.8663376   0.02001055   -4.1455174    1.2791799  1010000 
 1903000   0.85164896    -4.143837    -4.143837   -2.8663648  0.025810829    -4.143837    1.2774722  1010000 
 1904000   0.85245821   -4.1442297   -4.1442297   -2.8655437   0.02201522   -4.1442297     1.278686  1010000 
 1905000   0.85206803   -4.1435214   -4.1435214   -2.8654206  0.025724192   -4.1435214    1.2781008  1010000 
 1906000   0.85271803   -4.1441118   -4.1441118    -2.865036  0.022467189   -4.1441118    1.2790758  1010000 
 1907000   0.85370667   -4.1453703   -4.1453703   -2.8648115  0.021977922   -4.1453703    1.2805587  1010000 
 1908000   0.85273561   -4.1435412   -4.1435412   -2.8644391  0.023404874   -4.1435412    1.2791022  1010000 
 1909000   0.85361151   -4.1441156   -4.1441156   -2.8636996  0.020727031   -4.1441156     1.280416  1010000 
 1910000   0.85263484   -4.1431644   -4.1431644   -2.8642134  0.021490684   -4.1431644     1.278951  1010000 
 1911000   0.85141349   -4.1421306   -4.1421306   -2.8650117    0.0200452   -4.1421306     1.277119  1010000 
 1912000   0.85185999   -4.1427859   -4.1427859   -2.8649972  0.015134602   -4.1427859    1.2777887  1010000 
 1913000   0.85167239   -4.1421111   -4.1421111   -2.8646038  0.016205656   -4.1421111    1.2775073  1010000 
 1914000   0.85086325   -4.1409465   -4.1409465   -2.8646529  0.017717449   -4.1409465    1.2762936  1010000 
 1915000   0.85147284   -4.1420821   -4.1420821   -2.8648741  0.015369822   -4.1420821     1.277208  1010000 
 1916000   0.85170536   -4.1422916   -4.1422916   -2.8647348  0.014946633   -4.1422916    1.2775568  1010000 
 1917000   0.85234739   -4.1424033   -4.1424033   -2.8638835  0.017794208   -4.1424033    1.2785198  1010000 
 1918000    0.8521159   -4.1420898   -4.1420898   -2.8639172  0.019514546   -4.1420898    1.2781726  1010000 
 1919000   0.85252197   -4.1425466   -4.1425466   -2.8637649  0.019883017   -4.1425466    1.2787817  1010000 
 1920000   0.85203595   -4.1411791   -4.1411791   -2.8631264  0.024488492   -4.1411791    1.2780527  1010000 
 1921000   0.85316881   -4.1426718   -4.1426718   -2.8629198  0.023677733   -4.1426718     1.279752  1010000 
 1922000   0.85302903   -4.1430147   -4.1430147   -2.8634724  0.025707638   -4.1430147    1.2795423  1010000 
 1923000    0.8529899   -4.1428495   -4.1428495   -2.8633659  0.024124996   -4.1428495    1.2794836  1010000 
 1924000   0.85277981   -4.1429583   -4.1429583   -2.8637898  0.021298298   -4.1429583    1.2791684  1010000 
 1925000   0.85235977   -4.1427463   -4.1427463   -2.8642079  0.026956881   -4.1427463    1.2785384  1010000 
 1926000   0.85222129   -4.1427377   -4.1427377   -2.8644071  0.024914753   -4.1427377    1.2783307  1010000 
 1927000   0.85275637   -4.1437625   -4.1437625   -2.8646293  0.022377654   -4.1437625    1.2791333  1010000 
 1928000   0.85284622   -4.1437708   -4.1437708   -2.8645027   0.02352271   -4.1437708    1.2792681  1010000 
 1929000   0.85285761   -4.1435864   -4.1435864   -2.8643013  0.023660985   -4.1435864    1.2792851  1010000 
 1930000   0.85400545   -4.1459124   -4.1459124   -2.8649055  0.024778084   -4.1459124    1.2810069  1010000 
 1931000   0.85283886   -4.1441181   -4.1441181   -2.8648611  0.026412787   -4.1441181     1.279257  1010000 
 1932000   0.85335287   -4.1438311   -4.1438311   -2.8638031  0.027377557   -4.1438311     1.280028  1010000 
 1933000   0.85200538   -4.1414114   -4.1414114   -2.8634046  0.032114257   -4.1414114    1.2780068  1010000 
 1934000   0.85365085   -4.1436442   -4.1436442   -2.8631692  0.026095715   -4.1436442     1.280475  1010000 
 1935000   0.85351704   -4.1437018   -4.1437018   -2.8634275  0.027599297   -4.1437018    1.2802743  1010000 
 1936000   0.85351152   -4.1436168   -4.1436168   -2.8633508  0.024456113   -4.1436168     1.280266  1010000 
 1937000   0.85315792   -4.1435658   -4.1435658   -2.8638302  0.025680747   -4.1435658    1.2797356  1010000 
 1938000   0.85351087   -4.1445352   -4.1445352   -2.8642702  0.020012591   -4.1445352     1.280265  1010000 
 1939000   0.85333706   -4.1444606   -4.1444606   -2.8644563  0.020219759   -4.1444606    1.2800043  1010000 
 1940000   0.85276122   -4.1435084   -4.1435084   -2.8643678  0.024262561   -4.1435084    1.2791406  1010000 
 1941000   0.85269588   -4.1425656   -4.1425656   -2.8635231   0.02222794   -4.1425656    1.2790426  1010000 
 1942000   0.85263567   -4.1421919   -4.1421919   -2.8632396  0.019855522   -4.1421919    1.2789522  1010000 
 1943000    0.8524177   -4.1419887   -4.1419887   -2.8633634  0.021257466   -4.1419887    1.2786253  1010000 
 1944000   0.85282052   -4.1423989   -4.1423989   -2.8631694  0.020983369   -4.1423989    1.2792295  1010000 
 1945000   0.85184995   -4.1408449   -4.1408449   -2.8630713  0.023438274   -4.1408449    1.2777737  1010000 
 1946000   0.85295998   -4.1420901   -4.1420901   -2.8626514  0.021256129   -4.1420901    1.2794387  1010000 
 1947000   0.85338168   -4.1426836   -4.1426836   -2.8626123  0.023547482   -4.1426836    1.2800713  1010000 
 1948000   0.85361398    -4.142446    -4.142446   -2.8620263  0.020856939    -4.142446    1.2804197  1010000 
 1949000   0.85249255   -4.1407953   -4.1407953   -2.8620577  0.019817851   -4.1407953    1.2787376  1010000 
 1950000   0.85245835   -4.1407101   -4.1407101   -2.8620238  0.023105784   -4.1407101    1.2786863  1010000 
 1951000   0.85301112   -4.1412223   -4.1412223   -2.8617068  0.019423155   -4.1412223    1.2795154  1010000 
 1952000   0.85304572   -4.1413003   -4.1413003    -2.861733  0.021162618   -4.1413003    1.2795673  1010000 
 1953000   0.85315671    -4.141423    -4.141423   -2.8616892  0.021147405    -4.141423    1.2797338  1010000 
 1954000   0.85313814   -4.1415487   -4.1415487   -2.8618427  0.021590402   -4.1415487    1.2797059  1010000 
 1955000   0.85279304   -4.1407385   -4.1407385   -2.8615502   0.02113177   -4.1407385    1.2791883  1010000 
 1956000   0.85274542   -4.1406107   -4.1406107   -2.8614938  0.021370975   -4.1406107    1.2791169  1010000 
 1957000   0.85266546   -4.1409305   -4.1409305   -2.8619336  0.024746888   -4.1409305    1.2789969  1010000 
 1958000   0.85346012   -4.1412919   -4.1412919    -2.861103  0.023069122   -4.1412919    1.2801889  1010000 
 1959000   0.85265366   -4.1404206   -4.1404206   -2.8614414  0.024218977   -4.1404206    1.2789792  1010000 
 1960000    0.8527817   -4.1406567   -4.1406567   -2.8614854  0.022089386   -4.1406567    1.2791713  1010000 
 1961000   0.85297205   -4.1409067   -4.1409067   -2.8614499  0.023314659   -4.1409067    1.2794568  1010000 
 1962000   0.85309565   -4.1405605   -4.1405605   -2.8609183  0.026882585   -4.1405605    1.2796422  1010000 
 1963000   0.85360237   -4.1413963   -4.1413963    -2.860994   0.02269334   -4.1413963    1.2804023  1010000 
 1964000   0.85391535   -4.1414892   -4.1414892   -2.8606175   0.02225783   -4.1414892    1.2808718  1010000 
 1965000   0.85371164   -4.1412675   -4.1412675   -2.8607013  0.022978091   -4.1412675    1.2805662  1010000 
 1966000   0.85332521   -4.1401886   -4.1401886   -2.8602021   0.02308115   -4.1401886    1.2799866  1010000 
 1967000   0.85325016   -4.1396472   -4.1396472   -2.8597733  0.027658579   -4.1396472     1.279874  1010000 
 1968000   0.85315582   -4.1391797   -4.1391797   -2.8594473  0.027947642   -4.1391797    1.2797325  1010000 
 1969000   0.85423903   -4.1406053   -4.1406053    -2.859248  0.020287007   -4.1406053    1.2813573  1010000 
 1970000   0.85403542   -4.1405657   -4.1405657   -2.8595138  0.023335946   -4.1405657    1.2810519  1010000 
 1971000   0.85382536   -4.1405641   -4.1405641   -2.8598273  0.020861232   -4.1405641    1.2807368  1010000 
 1972000   0.85386319     -4.13946     -4.13946   -2.8586665  0.023758127     -4.13946    1.2807935  1010000 
 1973000   0.85392383   -4.1395297   -4.1395297   -2.8586452  0.024935033   -4.1395297    1.2808845  1010000 
 1974000   0.85325998   -4.1391096   -4.1391096   -2.8592209   0.02521488   -4.1391096    1.2798887  1010000 
 1975000   0.85276097   -4.1385215   -4.1385215   -2.8593813  0.023506096   -4.1385215    1.2791402  1010000 
 1976000   0.85351983   -4.1393342   -4.1393342   -2.8590557  0.023135863   -4.1393342    1.2802785  1010000 
 1977000   0.85281534     -4.13803     -4.13803   -2.8588083  0.023540753     -4.13803    1.2792217  1010000 
 1978000   0.85325793   -4.1379859   -4.1379859   -2.8581003  0.018416541   -4.1379859    1.2798856  1010000 
 1979000   0.85220297    -4.137151    -4.137151   -2.8588478  0.021375961    -4.137151    1.2783032  1010000 
 1980000   0.85271269   -4.1375543   -4.1375543   -2.8584865  0.023026057   -4.1375543    1.2790678  1010000 
 1981000   0.85246183   -4.1372684   -4.1372684   -2.8585769  0.020342013   -4.1372684    1.2786915  1010000 
 1982000   0.85277352     -4.13678     -4.13678    -2.857621  0.022300831     -4.13678     1.279159  1010000 
 1983000   0.85358943   -4.1383583   -4.1383583   -2.8579754  0.017993526   -4.1383583    1.2803829  1010000 
 1984000   0.85331712   -4.1375782   -4.1375782   -2.8576038  0.020119657   -4.1375782    1.2799744  1010000 
 1985000    0.8532861   -4.1378535   -4.1378535   -2.8579256  0.020295113   -4.1378535    1.2799279  1010000 
 1986000   0.85307305   -4.1373139   -4.1373139   -2.8577056  0.022254654   -4.1373139    1.2796083  1010000 
 1987000   0.85348139   -4.1380921   -4.1380921   -2.8578713  0.017832644   -4.1380921    1.2802208  1010000 
 1988000   0.85306816   -4.1366254   -4.1366254   -2.8570244  0.024659461   -4.1366254     1.279601  1010000 
 1989000   0.85355039   -4.1364895   -4.1364895   -2.8561652  0.022073893   -4.1364895    1.2803243  1010000 
 1990000   0.85362265   -4.1361402   -4.1361402   -2.8557075  0.024953467   -4.1361402    1.2804327  1010000 
 1991000   0.85404506   -4.1382409   -4.1382409   -2.8571746  0.022541591   -4.1382409    1.2810663  1010000 
 1992000   0.85387613   -4.1380711   -4.1380711   -2.8572582  0.021859893   -4.1380711    1.2808129  1010000 
 1993000   0.85412405    -4.138021    -4.138021   -2.8568362  0.024399024    -4.138021    1.2811848  1010000 
 1994000   0.85474113   -4.1382908   -4.1382908   -2.8561804  0.024584471   -4.1382908    1.2821104  1010000 
 1995000   0.85420769   -4.1374886   -4.1374886   -2.8561783  0.023282507   -4.1374886    1.2813103  1010000 
 1996000    0.8545682   -4.1382538   -4.1382538   -2.8564028  0.020617181   -4.1382538     1.281851  1010000 
 1997000   0.85400467   -4.1378547   -4.1378547    -2.856849  0.022392439   -4.1378547    1.2810057  1010000 
 1998000   0.85390375   -4.1378346   -4.1378346   -2.8569803  0.022418852   -4.1378346    1.2808543  1010000 
 1999000    0.8544074    -4.138436    -4.138436   -2.8568262  0.022038131    -4.138436    1.2816098  1010000 
 2000000   0.85418606   -4.1383958   -4.1383958    -2.857118  0.020959179   -4.1383958    1.2812778  1010000 
 2001000   0.85368458   -4.1381582   -4.1381582   -2.8576326  0.024269802   -4.1381582    1.2805256  1010000 
 2002000   0.85324683   -4.1375592   -4.1375592   -2.8576903  0.023355501   -4.1375592     1.279869  1010000 
 2003000   0.85401656    -4.138269    -4.138269   -2.8572455  0.023041652    -4.138269    1.2810236  1010000 
 2004000   0.85440691   -4.1382337   -4.1382337   -2.8566246  0.023367976   -4.1382337    1.2816091  1010000 
 2005000   0.85418639   -4.1375116   -4.1375116   -2.8562332  0.026679159   -4.1375116    1.2812783  1010000 
 2006000   0.85403184   -4.1372932   -4.1372932   -2.8562467  0.025102835   -4.1372932    1.2810465  1010000 
 2007000   0.85419335   -4.1376034   -4.1376034   -2.8563147  0.021077905   -4.1376034    1.2812887  1010000 
 2008000   0.85446503    -4.137521    -4.137521   -2.8558247  0.020228375    -4.137521    1.2816963  1010000 
 2009000   0.85422798   -4.1367973   -4.1367973   -2.8554566  0.019996524   -4.1367973    1.2813407  1010000 
 2010000   0.85439765   -4.1368936   -4.1368936   -2.8552984  0.023498254   -4.1368936    1.2815952  1010000 
 2011000   0.85459076   -4.1382291   -4.1382291   -2.8563442  0.019440449   -4.1382291    1.2818849  1010000 
 2012000   0.85388037     -4.13611     -4.13611   -2.8552907   0.02450614     -4.13611    1.2808193  1010000 
 2013000   0.85418185   -4.1367521   -4.1367521   -2.8554806  0.021673974   -4.1367521    1.2812715  1010000 
 2014000   0.85430695   -4.1364088   -4.1364088   -2.8549497  0.020959025   -4.1364088    1.2814592  1010000 
 2015000   0.85448002   -4.1368222   -4.1368222   -2.8551034  0.021355516   -4.1368222    1.2817188  1010000 
 2016000   0.85465044    -4.136905    -4.136905   -2.8549306  0.018692318    -4.136905    1.2819744  1010000 
 2017000   0.85419587   -4.1352599   -4.1352599   -2.8539673  0.023792571   -4.1352599    1.2812925  1010000 
 2018000   0.85465877   -4.1358847   -4.1358847   -2.8538978  0.021459321   -4.1358847    1.2819869  1010000 
 2019000   0.85370091    -4.134133    -4.134133   -2.8535829   0.02398019    -4.134133    1.2805501  1010000 
 2020000    0.8545912   -4.1350202   -4.1350202   -2.8531346  0.023281756   -4.1350202    1.2818855  1010000 
 2021000   0.85437074   -4.1348534   -4.1348534   -2.8532986  0.022011251   -4.1348534    1.2815548  1010000 
 2022000   0.85440748   -4.1345674   -4.1345674   -2.8529574  0.027299224   -4.1345674    1.2816099  1010000 
 2023000   0.85507133   -4.1352533   -4.1352533   -2.8526476  0.023161008   -4.1352533    1.2826057  1010000 
 2024000   0.85497792   -4.1345287   -4.1345287    -2.852063  0.024040271   -4.1345287    1.2824656  1010000 
 2025000   0.85437963   -4.1339938   -4.1339938   -2.8524256  0.023116907   -4.1339938    1.2815682  1010000 
 2026000   0.85434668   -4.1345533   -4.1345533   -2.8530346   0.02097923   -4.1345533    1.2815187  1010000 
 2027000   0.85442998   -4.1348047   -4.1348047    -2.853161  0.016277083   -4.1348047    1.2816437  1010000 
 2028000   0.85396596   -4.1329293   -4.1329293   -2.8519816  0.021544638   -4.1329293    1.2809477  1010000 
 2029000   0.85441756   -4.1336034   -4.1336034   -2.8519784  0.018213793   -4.1336034    1.2816251  1010000 
 2030000   0.85400945   -4.1335605   -4.1335605   -2.8525476  0.019899085   -4.1335605    1.2810129  1010000 
 2031000   0.85416589   -4.1340453   -4.1340453   -2.8527978  0.020963625   -4.1340453    1.2812476  1010000 
 2032000    0.8545127   -4.1339363   -4.1339363   -2.8521685  0.023676626   -4.1339363    1.2817678  1010000 
 2033000   0.85390541   -4.1329793   -4.1329793   -2.8521224  0.021301702   -4.1329793    1.2808569  1010000 
 2034000   0.85356771   -4.1327415   -4.1327415   -2.8523912  0.023779229   -4.1327415    1.2803503  1010000 
 2035000   0.85450848   -4.1332493   -4.1332493   -2.8514878  0.021526625   -4.1332493    1.2817615  1010000 
 2036000   0.85434317   -4.1327838   -4.1327838   -2.8512704  0.022945148   -4.1327838    1.2815135  1010000 
 2037000    0.8555675   -4.1340397   -4.1340397   -2.8506897  0.021482317   -4.1340397      1.28335  1010000 
 2038000   0.85441553   -4.1321068   -4.1321068   -2.8504848  0.024802723   -4.1321068     1.281622  1010000 
 2039000   0.85530573    -4.133331    -4.133331   -2.8503737  0.023392283    -4.133331    1.2829573  1010000 
 2040000   0.85506943   -4.1328269   -4.1328269    -2.850224  0.026676477   -4.1328269    1.2826029  1010000 
 2041000   0.85484372   -4.1329823   -4.1329823    -2.850718  0.025940223   -4.1329823    1.2822643  1010000 
 2042000   0.85528088   -4.1329392   -4.1329392   -2.8500192  0.024448464   -4.1329392    1.2829201  1010000 
 2043000   0.85456896   -4.1317206   -4.1317206   -2.8498684   0.02671404   -4.1317206    1.2818522  1010000 
 2044000   0.85465128   -4.1330994   -4.1330994   -2.8511238  0.019246902   -4.1330994    1.2819757  1010000 
 2045000   0.85441389   -4.1319502   -4.1319502   -2.8503306  0.020225527   -4.1319502    1.2816196  1010000 
 2046000   0.85485685   -4.1324487   -4.1324487   -2.8501647  0.019587418   -4.1324487     1.282284  1010000 
 2047000   0.85458883   -4.1318812   -4.1318812   -2.8499993  0.020527317   -4.1318812     1.281882  1010000 
 2048000   0.85475849   -4.1316211   -4.1316211   -2.8494846  0.024103761   -4.1316211    1.2821365  1010000 
 2049000   0.85456913   -4.1313549   -4.1313549   -2.8495025  0.023605106   -4.1313549    1.2818524  1010000 
 2050000   0.85539423    -4.132743    -4.132743    -2.849653  0.019268839    -4.132743    1.2830901  1010000 
 2051000   0.85436762   -4.1318488   -4.1318488   -2.8502987   0.02245678   -4.1318488    1.2815502  1010000 
 2052000   0.85511509   -4.1319077   -4.1319077   -2.8492363  0.022008763   -4.1319077    1.2826714  1010000 
 2053000   0.85513181   -4.1320773   -4.1320773   -2.8493809  0.021142638   -4.1320773    1.2826964  1010000 
 2054000   0.85480791   -4.1306691   -4.1306691   -2.8484585   0.02683023   -4.1306691    1.2822106  1010000 
 2055000   0.85519157   -4.1308868   -4.1308868   -2.8481008  0.022299836   -4.1308868    1.2827861  1010000 
 2056000   0.85468437   -4.1307431   -4.1307431   -2.8487178  0.020932495   -4.1307431    1.2820253  1010000 
 2057000   0.85512859   -4.1311036   -4.1311036    -2.848412  0.023398992   -4.1311036    1.2826916  1010000 
 2058000   0.85548508   -4.1310245   -4.1310245   -2.8477982  0.023183263   -4.1310245    1.2832263  1010000 
 2059000   0.85587851   -4.1319188   -4.1319188   -2.8481023  0.023425989   -4.1319188    1.2838165  1010000 
 2060000   0.85580003   -4.1314256   -4.1314256   -2.8477268  0.021225633   -4.1314256    1.2836988  1010000 
 2061000   0.85546659   -4.1305849   -4.1305849   -2.8473862  0.022174914   -4.1305849    1.2831986  1010000 
 2062000   0.85648451   -4.1317135   -4.1317135    -2.846988  0.021747736   -4.1317135    1.2847255  1010000 
 2063000   0.85673689   -4.1316684   -4.1316684   -2.8465644  0.020902535   -4.1316684    1.2851041  1010000 
 2064000   0.85556276   -4.1298599   -4.1298599    -2.846517  0.027585403   -4.1298599    1.2833429  1010000 
 2065000   0.85569848   -4.1300073   -4.1300073   -2.8464608  0.022573453   -4.1300073    1.2835465  1010000 
 2066000   0.85574355   -4.1301147   -4.1301147   -2.8465006  0.021424593   -4.1301147    1.2836141  1010000 
 2067000   0.85605968   -4.1294802   -4.1294802    -2.845392  0.019610288   -4.1294802    1.2840883  1010000 
 2068000   0.85515808   -4.1289007   -4.1289007   -2.8461648  0.021646119   -4.1289007    1.2827358  1010000 
 2069000   0.85510301   -4.1284528   -4.1284528   -2.8457995  0.022708131   -4.1284528    1.2826532  1010000 
 2070000   0.85466797   -4.1279643   -4.1279643   -2.8459637  0.020838078   -4.1279643    1.2820007  1010000 
 2071000   0.85401656   -4.1272146   -4.1272146   -2.8461911  0.024241199   -4.1272146    1.2810236  1010000 
 2072000   0.85451071   -4.1289627   -4.1289627   -2.8471979  0.020122369   -4.1289627    1.2817648  1010000 
 2073000   0.85469758   -4.1289094   -4.1289094   -2.8468643  0.016106498   -4.1289094    1.2820451  1010000 
 2074000   0.85459407    -4.128145    -4.128145   -2.8462552  0.019161672    -4.128145    1.2818898  1010000 
 2075000   0.85463198   -4.1285595   -4.1285595   -2.8466128  0.018581269   -4.1285595    1.2819467  1010000 
 2076000   0.85345507    -4.127407    -4.127407   -2.8472257  0.019728941    -4.127407    1.2801813  1010000 
 2077000   0.85368572   -4.1277284   -4.1277284   -2.8472011  0.018275863   -4.1277284    1.2805273  1010000 
 2078000   0.85437766   -4.1281292   -4.1281292   -2.8465639  0.020857898   -4.1281292    1.2815652  1010000 
 2079000   0.85394388   -4.1267825   -4.1267825    -2.845868   0.02519414   -4.1267825    1.2809146  1010000 
 2080000   0.85540467    -4.128775    -4.128775   -2.8456693  0.023258685    -4.128775    1.2831057  1010000 
 2081000    0.8561791    -4.129517    -4.129517   -2.8452496  0.024253165    -4.129517    1.2842674  1010000 
 2082000   0.85611809   -4.1292311   -4.1292311   -2.8450552   0.02268539   -4.1292311    1.2841759  1010000 
 2083000   0.85666175   -4.1303092   -4.1303092   -2.8453178   0.02707753   -4.1303092    1.2849914  1010000 
 2084000   0.85736715   -4.1307744   -4.1307744   -2.8447249   0.02795559   -4.1307744    1.2860495  1010000 
 2085000   0.85721417   -4.1310645   -4.1310645   -2.8452446  0.024421251   -4.1310645      1.28582  1010000 
 2086000   0.85663781   -4.1303918   -4.1303918   -2.8454363  0.027126068   -4.1303918    1.2849554  1010000 
 2087000   0.85586639   -4.1301571   -4.1301571   -2.8463588  0.023594222   -4.1301571    1.2837983  1010000 
 2088000    0.8557797   -4.1300627   -4.1300627   -2.8463944  0.027398673   -4.1300627    1.2836683  1010000 
 2089000   0.85513477   -4.1289627   -4.1289627   -2.8462618  0.025438759   -4.1289627    1.2827009  1010000 
 2090000   0.85576401   -4.1302812   -4.1302812   -2.8466365  0.019519198   -4.1302812    1.2836447  1010000 
 2091000   0.85532338   -4.1292984   -4.1292984   -2.8463146   0.02506406   -4.1292984    1.2829838  1010000 
 2092000   0.85615274     -4.12957     -4.12957   -2.8453422  0.024145359     -4.12957    1.2842278  1010000 
 2093000   0.85539194   -4.1291144   -4.1291144   -2.8460277  0.026363167   -4.1291144    1.2830866  1010000 
 2094000   0.85569958   -4.1291256   -4.1291256   -2.8455775  0.025056541   -4.1291256    1.2835481  1010000 
 2095000   0.85663601   -4.1304809   -4.1304809   -2.8455282   0.01866318   -4.1304809    1.2849527  1010000 
 2096000   0.85626847   -4.1295528   -4.1295528   -2.8451514  0.023101421   -4.1295528    1.2844014  1010000 
 2097000   0.85656089    -4.129222    -4.129222    -2.844382  0.022539192    -4.129222    1.2848401  1010000 
 2098000   0.85538072   -4.1283584   -4.1283584   -2.8452886  0.020112354   -4.1283584    1.2830698  1010000 
 2099000   0.85475531   -4.1271834   -4.1271834   -2.8450517  0.022684774   -4.1271834    1.2821317  1010000 
 2100000   0.85563987   -4.1274785   -4.1274785     -2.84402  0.020579969   -4.1274785    1.2834585  1010000 
 2101000   0.85383408   -4.1260407   -4.1260407   -2.8452908  0.017902985   -4.1260407    1.2807499  1010000 
 2102000   0.85418453    -4.126924    -4.126924   -2.8456485  0.017764219    -4.126924    1.2812755  1010000 
 2103000   0.85479013   -4.1272154   -4.1272154   -2.8450315  0.015475101   -4.1272154    1.2821839  1010000 
 2104000   0.85450725   -4.1267497   -4.1267497   -2.8449901  0.020431917   -4.1267497    1.2817596  1010000 
 2105000    0.8551651   -4.1272149   -4.1272149   -2.8444685  0.021670205   -4.1272149    1.2827464  1010000 
 2106000    0.8558112   -4.1275391   -4.1275391   -2.8438236  0.023129658   -4.1275391    1.2837155  1010000 
 2107000   0.85589055   -4.1267917   -4.1267917   -2.8429571   0.02179547   -4.1267917    1.2838346  1010000 
 2108000   0.85554896   -4.1263109   -4.1263109   -2.8429887  0.026798079   -4.1263109    1.2833222  1010000 
 2109000   0.85615508   -4.1275044   -4.1275044   -2.8432731  0.026281267   -4.1275044    1.2842313  1010000 
 2110000   0.85674421   -4.1279925   -4.1279925   -2.8428774  0.024633672   -4.1279925     1.285115  1010000 
 2111000   0.85633648   -4.1277862   -4.1277862   -2.8432827  0.026097991   -4.1277862    1.2845035  1010000 
 2112000   0.85612717   -4.1265094   -4.1265094   -2.8423199  0.024271071   -4.1265094    1.2841895  1010000 
 2113000   0.85677826   -4.1272997   -4.1272997   -2.8421335  0.022525626   -4.1272997    1.2851661  1010000 
 2114000   0.85577271   -4.1265671   -4.1265671   -2.8429093  0.021184807   -4.1265671    1.2836578  1010000 
 2115000   0.85596688   -4.1262884   -4.1262884   -2.8423394  0.027260227   -4.1262884    1.2839491  1010000 
 2116000   0.85666713   -4.1272729   -4.1272729   -2.8422735  0.024748248   -4.1272729    1.2849994  1010000 
 2117000   0.85613825   -4.1269998   -4.1269998   -2.8427937  0.022599766   -4.1269998    1.2842061  1010000 
 2118000   0.85667271    -4.127918    -4.127918   -2.8429102  0.023195032    -4.127918    1.2850078  1010000 
 2119000   0.85614369    -4.127096    -4.127096   -2.8428818  0.026018678    -4.127096    1.2842143  1010000 
 2120000   0.85664088   -4.1273802   -4.1273802   -2.8424201  0.026037005   -4.1273802      1.28496  1010000 
 2121000   0.85572111   -4.1263874   -4.1263874   -2.8428071  0.023837054   -4.1263874    1.2835804  1010000 
 2122000   0.85557355   -4.1267458   -4.1267458   -2.8433868  0.023019492   -4.1267458    1.2833591  1010000 
 2123000   0.85574415   -4.1262969   -4.1262969   -2.8426819  0.022204111   -4.1262969     1.283615  1010000 
 2124000   0.85529543   -4.1258717   -4.1258717   -2.8429298  0.019842268   -4.1258717    1.2829419  1010000 
 2125000   0.85569651   -4.1264863   -4.1264863   -2.8429428  0.019390514   -4.1264863    1.2835435  1010000 
 2126000   0.85445673   -4.1248699   -4.1248699   -2.8431861  0.022592361   -4.1248699    1.2816838  1010000 
 2127000    0.8554778   -4.1268834   -4.1268834    -2.843668  0.013593671   -4.1268834    1.2832154  1010000 
 2128000   0.85607551    -4.127825    -4.127825    -2.843713  0.017302486    -4.127825     1.284112  1010000 
 2129000   0.85548183   -4.1262376   -4.1262376   -2.8430162  0.022282246   -4.1262376    1.2832215  1010000 
 2130000   0.85525733   -4.1260564   -4.1260564   -2.8431717  0.026914163   -4.1260564    1.2828847  1010000 
 2131000   0.85651302   -4.1264383   -4.1264383     -2.84167  0.022635189   -4.1264383    1.2847683  1010000 
 2132000   0.85674522    -4.127357    -4.127357   -2.8422405  0.022875271    -4.127357    1.2851166  1010000 
 2133000   0.85734269   -4.1274505   -4.1274505   -2.8414377  0.021130668   -4.1274505    1.2860128  1010000 
 2134000   0.85659925    -4.126243    -4.126243   -2.8413454  0.023135592    -4.126243    1.2848976  1010000 
 2135000   0.85722912   -4.1277007   -4.1277007   -2.8418582  0.022986993   -4.1277007    1.2858424  1010000 
 2136000     0.856398   -4.1266091   -4.1266091   -2.8420134  0.028092835   -4.1266091    1.2845957  1010000 
 2137000     0.856682   -4.1270347   -4.1270347    -2.842013  0.025125186   -4.1270347    1.2850217  1010000 
 2138000    0.8564195   -4.1264517   -4.1264517   -2.8418238  0.023417285   -4.1264517     1.284628  1010000 
 2139000   0.85623465   -4.1255409   -4.1255409   -2.8411902  0.021187584   -4.1255409    1.2843507  1010000 
 2140000    0.8565795   -4.1254331   -4.1254331   -2.8405651   0.02605452   -4.1254331     1.284868  1010000 
 2141000   0.85730294   -4.1268074   -4.1268074   -2.8408542  0.022191178   -4.1268074    1.2859531  1010000 
 2142000   0.85718197   -4.1270175   -4.1270175   -2.8412458  0.025578449   -4.1270175    1.2857717  1010000 
 2143000   0.85729193   -4.1267547   -4.1267547   -2.8408181  0.020889898   -4.1267547    1.2859366  1010000 
 2144000   0.85715739   -4.1263555   -4.1263555   -2.8406207  0.021227986   -4.1263555    1.2857348  1010000 
 2145000   0.85584033   -4.1241408   -4.1241408   -2.8403816  0.028797828   -4.1241408    1.2837592  1010000 
 2146000   0.85719364    -4.125503    -4.125503   -2.8397138  0.019576628    -4.125503    1.2857892  1010000 
 2147000   0.85699545   -4.1255582   -4.1255582   -2.8400663  0.024373978   -4.1255582    1.2854919  1010000 
 2148000   0.85578742   -4.1237972   -4.1237972   -2.8401173  0.024478213   -4.1237972    1.2836799  1010000 
 2149000   0.85639251   -4.1243788   -4.1243788   -2.8397913   0.02330459   -4.1243788    1.2845875  1010000 
 2150000   0.85592167   -4.1239809   -4.1239809   -2.8400997  0.021752967   -4.1239809    1.2838812  1010000 
 2151000   0.85586041   -4.1234777   -4.1234777   -2.8396883  0.019645359   -4.1234777    1.2837893  1010000 
 2152000   0.85623756   -4.1243564   -4.1243564   -2.8400013  0.019134084   -4.1243564    1.2843551  1010000 
 2153000   0.85624203   -4.1240439   -4.1240439   -2.8396821  0.020701776   -4.1240439    1.2843618  1010000 
 2154000   0.85565738   -4.1232737   -4.1232737   -2.8397889  0.022538545   -4.1232737    1.2834848  1010000 
 2155000   0.85601243   -4.1225504   -4.1225504    -2.838533  0.026828499   -4.1225504    1.2840174  1010000 
 2156000   0.85618467    -4.122149    -4.122149   -2.8378733  0.024421314    -4.122149    1.2842757  1010000 
 2157000   0.85624328   -4.1220413   -4.1220413   -2.8376777  0.022407485   -4.1220413    1.2843637  1010000 
 2158000   0.85712485    -4.123896    -4.123896     -2.83821  0.021245243    -4.123896     1.285686  1010000 
 2159000   0.85667181   -4.1228325   -4.1228325    -2.837826  0.022002481   -4.1228325    1.2850064  1010000 
 2160000   0.85654341   -4.1222275   -4.1222275   -2.8374136  0.023787531   -4.1222275    1.2848138  1010000 
 2161000    0.8561644    -4.122342    -4.122342   -2.8380967  0.022415159    -4.122342    1.2842453  1010000 
 2162000    0.8569131   -4.1229382   -4.1229382   -2.8375698  0.019499716   -4.1229382    1.2853684  1010000 
 2163000     0.856326   -4.1224152   -4.1224152   -2.8379274  0.023798995   -4.1224152    1.2844877  1010000 
 2164000    0.8559425   -4.1215811   -4.1215811   -2.8376687  0.019358051   -4.1215811    1.2839125  1010000 
 2165000   0.85590683   -4.1214291   -4.1214291   -2.8375701   0.02215511   -4.1214291     1.283859  1010000 
 2166000   0.85710066   -4.1233945   -4.1233945   -2.8377448  0.023699829   -4.1233945    1.2856497  1010000 
 2167000   0.85693985    -4.122662    -4.122662   -2.8372534  0.024767656    -4.122662    1.2854085  1010000 
 2168000   0.85721205   -4.1230845   -4.1230845   -2.8372677  0.021875453   -4.1230845    1.2858168  1010000 
 2169000   0.85760944   -4.1234176   -4.1234176   -2.8370047  0.023855233   -4.1234176    1.2864129  1010000 
 2170000   0.85787194   -4.1230223   -4.1230223   -2.8362157  0.023530082   -4.1230223    1.2868066  1010000 
 2171000   0.85719981   -4.1219741   -4.1219741   -2.8361757  0.027125094   -4.1219741    1.2857984  1010000 
 2172000   0.85742991   -4.1231902   -4.1231902   -2.8370466  0.022114097   -4.1231902    1.2861436  1010000 
 2173000   0.85744728   -4.1229072   -4.1229072   -2.8367376  0.021780183   -4.1229072    1.2861696  1010000 
 2174000   0.85692132   -4.1223107   -4.1223107     -2.83693  0.026096608   -4.1223107    1.2853807  1010000 
 2175000   0.85590619   -4.1211627   -4.1211627   -2.8373047  0.028720776   -4.1211627     1.283858  1010000 
 2176000   0.85705393   -4.1225686   -4.1225686   -2.8369889  0.024624658   -4.1225686    1.2855796  1010000 
 2177000   0.85714553   -4.1221984   -4.1221984   -2.8364813  0.021752134   -4.1221984     1.285717  1010000 
 2178000   0.85693907   -4.1219123   -4.1219123    -2.836505  0.020491195   -4.1219123    1.2854073  1010000 
 2179000   0.85692274   -4.1220179   -4.1220179    -2.836635    0.0237267   -4.1220179    1.2853828  1010000 
 2180000   0.85675832   -4.1213355   -4.1213355   -2.8361993   0.02187098   -4.1213355    1.2851362  1010000 
 2181000   0.85699542   -4.1217205   -4.1217205   -2.8362286  0.023261405   -4.1217205    1.2854919  1010000 
 2182000   0.85812955   -4.1224298   -4.1224298   -2.8352368  0.018921902   -4.1224298    1.2871931  1010000 
 2183000    0.8570518   -4.1205284   -4.1205284    -2.834952  0.022686339   -4.1205284    1.2855764  1010000 
 2184000   0.85744324   -4.1213546   -4.1213546    -2.835191  0.026639507   -4.1213546    1.2861636  1010000 
 2185000     0.856869   -4.1210433   -4.1210433    -2.835741  0.023250101   -4.1210433    1.2853022  1010000 
 2186000   0.85644479   -4.1206738   -4.1206738   -2.8360079  0.024335885   -4.1206738    1.2846659  1010000 
 2187000   0.85640317   -4.1207406   -4.1207406   -2.8361371  0.020334488   -4.1207406    1.2846035  1010000 
 2188000   0.85672553    -4.120664    -4.120664    -2.835577  0.019974335    -4.120664     1.285087  1010000 
 2189000   0.85590621   -4.1201336   -4.1201336   -2.8362756  0.021433377   -4.1201336     1.283858  1010000 
 2190000   0.85587677   -4.1197323   -4.1197323   -2.8359184  0.022744885   -4.1197323    1.2838139  1010000 
 2191000   0.85622478   -4.1200226   -4.1200226   -2.8356867  0.019564034   -4.1200226    1.2843359  1010000 
 2192000   0.85634829   -4.1199458   -4.1199458   -2.8354246  0.024143081   -4.1199458    1.2845212  1010000 
 2193000   0.85647727   -4.1194162   -4.1194162   -2.8347016  0.025002759   -4.1194162    1.2847146  1010000 
 2194000   0.85712302   -4.1200419   -4.1200419   -2.8343587  0.024812933   -4.1200419    1.2856833  1010000 
 2195000   0.85716734   -4.1201323   -4.1201323   -2.8343826   0.02630117   -4.1201323    1.2857497  1010000 
 2196000   0.85713535   -4.1203616   -4.1203616   -2.8346599  0.025343006   -4.1203616    1.2857018  1010000 
 2197000    0.8582894   -4.1214216   -4.1214216   -2.8339888  0.021378498   -4.1214216    1.2874328  1010000 
 2198000   0.85815881   -4.1209213   -4.1209213   -2.8336844  0.025317167   -4.1209213    1.2872369  1010000 
 2199000   0.85748044   -4.1197539   -4.1197539   -2.8335345  0.025665917   -4.1197539    1.2862194  1010000 
 2200000   0.85714593   -4.1203756   -4.1203756    -2.834658  0.021244017   -4.1203756    1.2857176  1010000 
 2201000   0.85744538   -4.1204795   -4.1204795   -2.8343127  0.020263554   -4.1204795    1.2861668  1010000 
 2202000   0.85655183   -4.1198092   -4.1198092   -2.8349827  0.019395014   -4.1198092    1.2848265  1010000 
 2203000   0.85679452   -4.1199225   -4.1199225    -2.834732  0.021533195   -4.1199225    1.2851905  1010000 
 2204000   0.85641269   -4.1195797   -4.1195797   -2.8349619  0.020283912   -4.1195797    1.2846178  1010000 
 2205000   0.85648716   -4.1199185   -4.1199185   -2.8351891  0.018614668   -4.1199185    1.2847295  1010000 
 2206000   0.85657944   -4.1197438   -4.1197438   -2.8348759  0.018114809   -4.1197438    1.2848679  1010000 
 2207000   0.85718633   -4.1205089   -4.1205089   -2.8347306  0.019508192   -4.1205089    1.2857782  1010000 
 2208000   0.85740111   -4.1209117   -4.1209117   -2.8348113  0.022799189   -4.1209117    1.2861004  1010000 
 2209000   0.85820274   -4.1216466   -4.1216466   -2.8343438  0.020104217   -4.1216466    1.2873028  1010000 
 2210000   0.85743872   -4.1200645   -4.1200645   -2.8339077  0.022614624   -4.1200645    1.2861568  1010000 
 2211000   0.85751528   -4.1200383   -4.1200383   -2.8337667  0.023409727   -4.1200383    1.2862717  1010000 
 2212000    0.8570837   -4.1194059   -4.1194059   -2.8337816  0.023326671   -4.1194059    1.2856243  1010000 
 2213000   0.85779729    -4.120214    -4.120214   -2.8335194  0.024405098    -4.120214    1.2866947  1010000 
 2214000   0.85820786   -4.1206951   -4.1206951   -2.8333846  0.021552053   -4.1206951    1.2873105  1010000 
 2215000   0.85930762    -4.121656    -4.121656   -2.8326958   0.02470869    -4.121656    1.2889602  1010000 
 2216000   0.85795214   -4.1196504   -4.1196504   -2.8327234  0.027341332   -4.1196504    1.2869269  1010000 
 2217000   0.85842741   -4.1202427   -4.1202427   -2.8326028  0.025238723   -4.1202427    1.2876398  1010000 
 2218000   0.85854044    -4.119936    -4.119936   -2.8321266   0.02401559    -4.119936    1.2878094  1010000 
 2219000   0.85871533   -4.1207097   -4.1207097    -2.832638  0.021306953   -4.1207097    1.2880717  1010000 
 2220000   0.85901431   -4.1202282   -4.1202282    -2.831708  0.024372938   -4.1202282    1.2885202  1010000 
 2221000   0.85864741   -4.1203798   -4.1203798     -2.83241  0.023924937   -4.1203798    1.2879698  1010000 
 2222000   0.85792897    -4.119575    -4.119575   -2.8326828  0.022515847    -4.119575    1.2868922  1010000 
 2223000   0.85692864   -4.1186966   -4.1186966   -2.8333049  0.021228167   -4.1186966    1.2853917  1010000 
 2224000   0.85661336   -4.1171893   -4.1171893   -2.8322705  0.019652431   -4.1171893    1.2849188  1010000 
 2225000   0.85726636   -4.1178279   -4.1178279   -2.8319296  0.018266157   -4.1178279    1.2858983  1010000 
 2226000   0.85808966   -4.1184287   -4.1184287   -2.8312955  0.021543792   -4.1184287    1.2871332  1010000 
 2227000   0.85720784   -4.1175544   -4.1175544   -2.8317439  0.023221326   -4.1175544    1.2858105  1010000 
 2228000   0.85763878   -4.1177975   -4.1177975   -2.8313406  0.023138271   -4.1177975    1.2864569  1010000 
 2229000   0.85737201   -4.1170818   -4.1170818   -2.8310251  0.023863359   -4.1170818    1.2860567  1010000 
 2230000   0.85727381   -4.1170624   -4.1170624   -2.8311529  0.023092965   -4.1170624    1.2859094  1010000 
 2231000   0.85802685    -4.118052    -4.118052    -2.831013  0.021295094    -4.118052     1.287039  1010000 
 2232000   0.85715376   -4.1167614   -4.1167614   -2.8310321   0.02008508   -4.1167614    1.2857294  1010000 
 2233000   0.85733121   -4.1166954   -4.1166954   -2.8306999  0.020708894   -4.1166954    1.2859955  1010000 
 2234000   0.85682802   -4.1158911   -4.1158911   -2.8306503  0.022169577   -4.1158911    1.2852408  1010000 
 2235000   0.85696267   -4.1159351   -4.1159351   -2.8304924  0.020041753   -4.1159351    1.2854427  1010000 
 2236000   0.85823006    -4.117192    -4.117192   -2.8298482   0.02204371    -4.117192    1.2873438  1010000 
 2237000   0.85809544   -4.1175565   -4.1175565   -2.8304147   0.02008627   -4.1175565    1.2871419  1010000 
 2238000    0.8574238   -4.1162706   -4.1162706   -2.8301361  0.024102024   -4.1162706    1.2861344  1010000 
 2239000   0.85814597   -4.1159823   -4.1159823   -2.8287646  0.025930084   -4.1159823    1.2872177  1010000 
 2240000   0.85821642   -4.1165406   -4.1165406   -2.8292173  0.023293022   -4.1165406    1.2873234  1010000 
 2241000   0.85792014   -4.1155951   -4.1155951   -2.8287161  0.022085211   -4.1155951    1.2868789  1010000 
 2242000   0.85869441   -4.1165938   -4.1165938   -2.8285534  0.021141046   -4.1165938    1.2880403  1010000 
 2243000   0.85813412   -4.1158933   -4.1158933   -2.8286934  0.020068863   -4.1158933    1.2871999  1010000 
 2244000   0.85750163   -4.1149331   -4.1149331   -2.8286819  0.021469844   -4.1149331    1.2862512  1010000 
 2245000   0.85742306   -4.1148923   -4.1148923    -2.828759   0.02501493   -4.1148923    1.2861333  1010000 
 2246000   0.85767272   -4.1158285   -4.1158285   -2.8293207  0.021128581   -4.1158285    1.2865078  1010000 
 2247000   0.85718022   -4.1153828   -4.1153828   -2.8296137  0.022334669   -4.1153828    1.2857691  1010000 
 2248000   0.85782165   -4.1154624   -4.1154624   -2.8287312  0.023633633   -4.1154624    1.2867312  1010000 
 2249000   0.85864073   -4.1165781   -4.1165781   -2.8286182  0.022855243   -4.1165781    1.2879598  1010000 
 2250000   0.85825104    -4.115556    -4.115556   -2.8281807  0.027172203    -4.115556    1.2873753  1010000 
 2251000   0.85854556   -4.1166896   -4.1166896   -2.8288726  0.022627428   -4.1166896    1.2878171  1010000 
 2252000    0.8587274   -4.1162586   -4.1162586   -2.8281687  0.023448684   -4.1162586    1.2880898  1010000 
 2253000   0.85909687   -4.1164929   -4.1164929   -2.8278489  0.022790274   -4.1164929     1.288644  1010000 
 2254000   0.85912684   -4.1162121   -4.1162121   -2.8275231  0.025191356   -4.1162121     1.288689  1010000 
 2255000   0.85771745   -4.1142312   -4.1142312   -2.8276563  0.025413674   -4.1142312    1.2865749  1010000 
 2256000   0.85826934   -4.1145838   -4.1145838    -2.827181  0.027185934   -4.1145838    1.2874027  1010000 
 2257000   0.85869665   -4.1156196   -4.1156196   -2.8275759  0.022813226   -4.1156196    1.2880437  1010000 
 2258000   0.85844583   -4.1154537   -4.1154537   -2.8277862  0.026366062   -4.1154537    1.2876675  1010000 
 2259000   0.85782562   -4.1147264   -4.1147264   -2.8279892  0.028324136   -4.1147264    1.2867372  1010000 
 2260000   0.85761193   -4.1138296   -4.1138296   -2.8274129  0.024957808   -4.1138296    1.2864166  1010000 
 2261000   0.85778643   -4.1145003   -4.1145003    -2.827822  0.018110153   -4.1145003    1.2866784  1010000 
 2262000   0.85818444   -4.1137858   -4.1137858   -2.8265105  0.021483717   -4.1137858    1.2872754  1010000 
 2263000   0.85868671   -4.1147712   -4.1147712   -2.8267424   0.01994211   -4.1147712    1.2880288  1010000 
 2264000   0.85753905   -4.1142664   -4.1142664   -2.8279591  0.022380458   -4.1142664    1.2863073  1010000 
 2265000   0.85830607   -4.1150553   -4.1150553   -2.8275975   0.02042514   -4.1150553    1.2874578  1010000 
 2266000   0.85827525   -4.1149616   -4.1149616     -2.82755   0.02057565   -4.1149616    1.2874116  1010000 
 2267000   0.85805935   -4.1144844   -4.1144844   -2.8273967  0.022735744   -4.1144844    1.2870878  1010000 
 2268000   0.85821356   -4.1146987   -4.1146987   -2.8273797  0.021893899   -4.1146987    1.2873191  1010000 
 2269000    0.8578385   -4.1138696   -4.1138696   -2.8271131  0.022564172   -4.1138696    1.2867565  1010000 
 2270000   0.85808066   -4.1134093   -4.1134093   -2.8262896  0.024348052   -4.1134093    1.2871197  1010000 
 2271000   0.85779221   -4.1136736   -4.1136736   -2.8269866  0.024327124   -4.1136736     1.286687  1010000 
 2272000    0.8581157   -4.1143423   -4.1143423     -2.82717   0.01879848   -4.1143423    1.2871723  1010000 
 2273000   0.85812386   -4.1132206   -4.1132206   -2.8260361  0.023593768   -4.1132206    1.2871845  1010000 
 2274000   0.85906826   -4.1149746   -4.1149746   -2.8263735   0.01803156   -4.1149746    1.2886011  1010000 
 2275000   0.85825928   -4.1131997   -4.1131997   -2.8258121  0.022959176   -4.1131997    1.2873877  1010000 
 2276000   0.85901039   -4.1137858   -4.1137858   -2.8252715  0.021072744   -4.1137858    1.2885143  1010000 
 2277000   0.85912242   -4.1139617   -4.1139617   -2.8252793  0.026306169   -4.1139617    1.2886824  1010000 
 2278000   0.85973088   -4.1148416   -4.1148416   -2.8252465  0.024338793   -4.1148416     1.289595  1010000 
 2279000   0.85979648   -4.1143329   -4.1143329   -2.8246395  0.025427601   -4.1143329    1.2896934  1010000 
 2280000   0.85888148   -4.1125795   -4.1125795   -2.8242586  0.024800236   -4.1125795     1.288321  1010000 
 2281000   0.85924048   -4.1130147   -4.1130147   -2.8241552   0.02577578   -4.1130147    1.2888594  1010000 
 2282000   0.86002056   -4.1140384   -4.1140384   -2.8240088  0.019582252   -4.1140384    1.2900296  1010000 
 2283000   0.85942744   -4.1129569   -4.1129569    -2.823817  0.023428215   -4.1129569    1.2891399  1010000 
 2284000   0.85837903   -4.1113828   -4.1113828   -2.8238155  0.021770395   -4.1113828    1.2875673  1010000 
 2285000   0.85830194   -4.1108345   -4.1108345   -2.8233829  0.023046589   -4.1108345    1.2874516  1010000 
 2286000   0.85868773   -4.1122606   -4.1122606   -2.8242303   0.02178923   -4.1122606    1.2880303  1010000 
 2287000   0.85922102     -4.11258     -4.11258   -2.8237498  0.019795133     -4.11258    1.2888303  1010000 
 2288000   0.85858161   -4.1114822   -4.1114822    -2.823611   0.02497457   -4.1114822    1.2878711  1010000 
 2289000   0.85916075   -4.1115224   -4.1115224   -2.8227826  0.023947541   -4.1115224    1.2887398  1010000 
 2290000   0.85925411   -4.1101286   -4.1101286   -2.8212487  0.024007164   -4.1101286    1.2888799  1010000 
 2291000   0.85920033   -4.1102106   -4.1102106   -2.8214114   0.02437532   -4.1102106    1.2887992  1010000 
 2292000   0.85984347   -4.1104998   -4.1104998   -2.8207359  0.025797106   -4.1104998    1.2897639  1010000 
 2293000   0.85946708   -4.1102736   -4.1102736   -2.8210743  0.024411053   -4.1102736    1.2891993  1010000 
 2294000   0.85956689   -4.1106397   -4.1106397   -2.8212906  0.019902277   -4.1106397    1.2893491  1010000 
 2295000   0.85872652   -4.1096232   -4.1096232   -2.8215347  0.019804307   -4.1096232    1.2880885  1010000 
 2296000   0.85940807   -4.1107616   -4.1107616   -2.8216508   0.01777973   -4.1107616    1.2891108  1010000 
 2297000   0.85854448   -4.1094402   -4.1094402   -2.8216247  0.018022571   -4.1094402    1.2878154  1010000 
 2298000   0.85840695   -4.1090973   -4.1090973   -2.8214882  0.018372035   -4.1090973    1.2876092  1010000 
 2299000   0.85820556   -4.1083178   -4.1083178   -2.8210108  0.020678352   -4.1083178    1.2873071  1010000 
 2300000   0.85864223   -4.1084172   -4.1084172   -2.8204551  0.019259158   -4.1084172    1.2879621  1010000 
 2301000   0.85953182   -4.1096757   -4.1096757   -2.8203792  0.020770607   -4.1096757    1.2892965  1010000 
 2302000   0.85928276   -4.1085235   -4.1085235   -2.8196006  0.022040565   -4.1085235    1.2889229  1010000 
 2303000   0.85956106   -4.1093221   -4.1093221   -2.8199817  0.021182265   -4.1093221    1.2893403  1010000 
 2304000    0.8584759   -4.1077414   -4.1077414   -2.8200288  0.024910876   -4.1077414    1.2877126  1010000 
 2305000   0.85968629   -4.1097592   -4.1097592   -2.8202311  0.024191699   -4.1097592    1.2895282  1010000 
 2306000   0.85943374   -4.1098226   -4.1098226   -2.8206733  0.023682904   -4.1098226    1.2891493  1010000 
 2307000   0.85848848   -4.1087408   -4.1087408   -2.8210094  0.023849595   -4.1087408    1.2877314  1010000 
 2308000    0.8585921   -4.1089912   -4.1089912   -2.8211043   0.01916848   -4.1089912    1.2878869  1010000 
 2309000   0.85896051   -4.1092014   -4.1092014    -2.820762  0.021059336   -4.1092014    1.2884395  1010000 
 2310000   0.85945481   -4.1096087   -4.1096087   -2.8204278  0.019850733   -4.1096087    1.2891809  1010000 
 2311000   0.85967669   -4.1101056   -4.1101056   -2.8205918  0.021640024   -4.1101056    1.2895138  1010000 
 2312000   0.85899874   -4.1093803   -4.1093803   -2.8208834  0.028560774   -4.1093803    1.2884968  1010000 
 2313000   0.86043278   -4.1110676   -4.1110676   -2.8204197  0.025873964   -4.1110676    1.2906479  1010000 
 2314000   0.85933741   -4.1100411   -4.1100411   -2.8210363  0.025621281   -4.1100411    1.2890048  1010000 
 2315000   0.86005028   -4.1109954   -4.1109954   -2.8209213  0.025989569   -4.1109954    1.2900741  1010000 
 2316000   0.86028877   -4.1104834   -4.1104834   -2.8200516  0.028737106   -4.1104834    1.2904319  1010000 
 2317000    0.8611512   -4.1110755   -4.1110755     -2.81935  0.022396222   -4.1110755    1.2917255  1010000 
 2318000   0.86069906   -4.1105957   -4.1105957   -2.8195484  0.026928134   -4.1105957    1.2910473  1010000 
 2319000   0.86073964   -4.1099988   -4.1099988   -2.8188906  0.026160187   -4.1099988    1.2911082  1010000 
 2320000   0.86089746   -4.1105832   -4.1105832   -2.8192383  0.026093093   -4.1105832    1.2913449  1010000 
 2321000   0.86043412   -4.1103786   -4.1103786   -2.8197287  0.025569624   -4.1103786    1.2906499  1010000 
 2322000   0.86025527   -4.1096588   -4.1096588   -2.8192772  0.023676038   -4.1096588    1.2903816  1010000 
 2323000   0.86079464   -4.1100102   -4.1100102   -2.8188196  0.022583752   -4.1100102    1.2911907  1010000 
 2324000   0.86066634   -4.1097357   -4.1097357   -2.8187375  0.022037982   -4.1097357    1.2909982  1010000 
 2325000   0.86050996   -4.1094146   -4.1094146   -2.8186509  0.023774332   -4.1094146    1.2907637  1010000 
 2326000     0.859862   -4.1092316   -4.1092316   -2.8194399  0.023713179   -4.1092316    1.2897917  1010000 
 2327000   0.85901789   -4.1080724   -4.1080724   -2.8195469  0.023119219   -4.1080724    1.2885256  1010000 
 2328000   0.85898268   -4.1082378   -4.1082378   -2.8197651  0.017442242   -4.1082378    1.2884727  1010000 
 2329000   0.85879028   -4.1072228   -4.1072228   -2.8190387  0.020730862   -4.1072228    1.2881841  1010000 
 2330000   0.85871698   -4.1069805   -4.1069805   -2.8189063  0.020456692   -4.1069805    1.2880742  1010000 
 2331000   0.85990485   -4.1075763   -4.1075763   -2.8177203  0.020282611   -4.1075763     1.289856  1010000 
 2332000   0.85952072   -4.1064264   -4.1064264   -2.8171466  0.022002728   -4.1064264    1.2892798  1010000 
 2333000   0.86036146   -4.1079041   -4.1079041   -2.8173632  0.021918148   -4.1079041    1.2905409  1010000 
 2334000   0.85959906   -4.1062558   -4.1062558   -2.8168585  0.025152049   -4.1062558    1.2893973  1010000 
 2335000   0.85996369   -4.1064118   -4.1064118   -2.8164675  0.023733531   -4.1064118    1.2899443  1010000 
 2336000   0.86111375   -4.1079232   -4.1079232   -2.8162538  0.022631621   -4.1079232    1.2916693  1010000 
 2337000   0.86081812   -4.1075483   -4.1075483   -2.8163224  0.026331759   -4.1075483    1.2912259  1010000 
 2338000   0.86074782   -4.1069534   -4.1069534   -2.8158329  0.022743548   -4.1069534    1.2911204  1010000 
 2339000   0.86038857   -4.1068057   -4.1068057   -2.8162241  0.020292016   -4.1068057    1.2905816  1010000 
 2340000   0.86039272    -4.106286    -4.106286   -2.8156982  0.019893572    -4.106286    1.2905878  1010000 
 2341000   0.85962484   -4.1051561   -4.1051561   -2.8157201  0.021973624   -4.1051561     1.289436  1010000 
 2342000   0.86057132   -4.1069289   -4.1069289   -2.8160732  0.020828175   -4.1069289    1.2908557  1010000 
 2343000   0.85975246   -4.1055346   -4.1055346   -2.8159072  0.022461432   -4.1055346    1.2896274  1010000 
 2344000   0.86025643   -4.1057236   -4.1057236   -2.8153403  0.021042716   -4.1057236    1.2903834  1010000 
 2345000   0.86043425    -4.105752    -4.105752   -2.8151019   0.02316506    -4.105752    1.2906501  1010000 
 2346000   0.86132186   -4.1067153   -4.1067153   -2.8147338  0.023751968   -4.1067153    1.2919815  1010000 
 2347000   0.86211969   -4.1075517   -4.1075517   -2.8143734  0.020808175   -4.1075517    1.2931783  1010000 
 2348000   0.86100345   -4.1052398   -4.1052398   -2.8137359    0.0263887   -4.1052398    1.2915039  1010000 
 2349000   0.86050644   -4.1046629   -4.1046629   -2.8139046  0.026270466   -4.1046629    1.2907584  1010000 
 2350000   0.86130867   -4.1052916   -4.1052916   -2.8133299  0.021286248   -4.1052916    1.2919617  1010000 
 2351000   0.85959647   -4.1039398   -4.1039398   -2.8145463  0.022884088   -4.1039398    1.2893934  1010000 
 2352000   0.86004706   -4.1041504   -4.1041504   -2.8140811  0.024333205   -4.1041504    1.2900693  1010000 
 2353000   0.86054049   -4.1048655   -4.1048655   -2.8140561  0.022521614   -4.1048655    1.2908095  1010000 
 2354000   0.86018965   -4.1043009   -4.1043009   -2.8140177  0.022558303   -4.1043009    1.2902832  1010000 
 2355000   0.86002427   -4.1037402   -4.1037402   -2.8137051  0.024692069   -4.1037402    1.2900351  1010000 
 2356000   0.86104224   -4.1048321   -4.1048321     -2.81327  0.020570702   -4.1048321    1.2915621  1010000 
 2357000   0.86055208   -4.1043479   -4.1043479    -2.813521    0.0236632   -4.1043479    1.2908268  1010000 
 2358000   0.86119126   -4.1043933   -4.1043933   -2.8126077  0.024210137   -4.1043933    1.2917856  1010000 
 2359000   0.86111334   -4.1044763   -4.1044763   -2.8128076   0.02560185   -4.1044763    1.2916687  1010000 
 2360000   0.86163098   -4.1041055   -4.1041055   -2.8116604  0.025123983   -4.1041055    1.2924452  1010000 
 2361000   0.86033041   -4.1027755   -4.1027755   -2.8122811   0.02496283   -4.1027755    1.2904943  1010000 
 2362000   0.86098992   -4.1042744   -4.1042744   -2.8127908  0.020276647   -4.1042744    1.2914836  1010000 
 2363000   0.85987718    -4.102769    -4.102769   -2.8129545  0.023140318    -4.102769    1.2898145  1010000 
 2364000   0.85967658   -4.1021894   -4.1021894   -2.8126758  0.022045668   -4.1021894    1.2895136  1010000 
 2365000   0.86020194    -4.102653    -4.102653   -2.8123514  0.022067248    -4.102653    1.2903016  1010000 
 2366000    0.8603421   -4.1018866   -4.1018866   -2.8113748  0.024770949   -4.1018866    1.2905119  1010000 
 2367000   0.85971177   -4.1012188   -4.1012188   -2.8116524  0.021569206   -4.1012188    1.2895664  1010000 
 2368000   0.86067895   -4.1030576   -4.1030576   -2.8120404  0.022290485   -4.1030576    1.2910171  1010000 
 2369000   0.86035614   -4.1021752   -4.1021752   -2.8116423  0.022530547   -4.1021752    1.2905329  1010000 
 2370000   0.86020894   -4.1021777   -4.1021777   -2.8118656  0.022776388   -4.1021777    1.2903121  1010000 
 2371000    0.8603869   -4.1025941   -4.1025941    -2.812015  0.020157062   -4.1025941    1.2905791  1010000 
 2372000   0.86086116   -4.1025718   -4.1025718   -2.8112814  0.022321514   -4.1025718    1.2912905  1010000 
 2373000   0.85967523   -4.1011416   -4.1011416   -2.8116301   0.02464341   -4.1011416    1.2895116  1010000 
 2374000   0.86010743   -4.1018224   -4.1018224   -2.8116625  0.021891057   -4.1018224    1.2901599  1010000 
 2375000   0.86037346   -4.1024169   -4.1024169    -2.811858  0.022540357   -4.1024169    1.2905589  1010000 
 2376000     0.861046   -4.1029665   -4.1029665   -2.8113988  0.022967808   -4.1029665    1.2915677  1010000 
 2377000    0.8611092   -4.1027315   -4.1027315    -2.811069  0.023089787   -4.1027315    1.2916625  1010000 
 2378000   0.86134929   -4.1026187   -4.1026187    -2.810596  0.026578014   -4.1026187    1.2920226  1010000 
 2379000   0.86126131    -4.103024    -4.103024   -2.8111333  0.025401193    -4.103024    1.2918907  1010000 
 2380000   0.86128444   -4.1025248   -4.1025248   -2.8105995  0.026869417   -4.1025248    1.2919254  1010000 
 2381000   0.86179675   -4.1033859   -4.1033859    -2.810692  0.023087128   -4.1033859    1.2926938  1010000 
 2382000   0.86102979   -4.1015877   -4.1015877   -2.8100443  0.026582023   -4.1015877    1.2915434  1010000 
 2383000    0.8612438   -4.1022741   -4.1022741   -2.8104097  0.021655595   -4.1022741    1.2918644  1010000 
 2384000    0.8608175   -4.1014745   -4.1014745   -2.8102495  0.024618483   -4.1014745     1.291225  1010000 
 2385000   0.86113229   -4.1018832   -4.1018832    -2.810186   0.02668873   -4.1018832    1.2916972  1010000 
 2386000   0.86170901   -4.1021689   -4.1021689   -2.8096067  0.023290034   -4.1021689    1.2925622  1010000 
 2387000   0.86198668   -4.1029902   -4.1029902   -2.8100114  0.024080835   -4.1029902    1.2929787  1010000 
 2388000     0.861211   -4.1015724   -4.1015724   -2.8097572  0.028074521   -4.1015724    1.2918152  1010000 
 2389000   0.86050624   -4.0998719   -4.0998719   -2.8091138  0.027931137   -4.0998719    1.2907581  1010000 
 2390000   0.86151974   -4.1019515   -4.1019515   -2.8096732  0.022389205   -4.1019515    1.2922783  1010000 
 2391000   0.86146288   -4.1009229   -4.1009229   -2.8087298  0.027104083   -4.1009229     1.292193  1010000 
 2392000   0.86110978   -4.1005491   -4.1005491   -2.8088857  0.023335967   -4.1005491    1.2916634  1010000 
 2393000    0.8607874   -4.0996136   -4.0996136   -2.8084338  0.026250147   -4.0996136    1.2911798  1010000 
 2394000   0.86126609   -4.0999038   -4.0999038    -2.808006   0.02364096   -4.0999038    1.2918979  1010000 
 2395000   0.86196674   -4.0996258   -4.0996258   -2.8066769  0.024655112   -4.0996258    1.2929488  1010000 
 2396000   0.86187505   -4.1000558   -4.1000558   -2.8072445  0.022852489   -4.1000558    1.2928113  1010000 
 2397000   0.86225544   -4.1000803   -4.1000803   -2.8066984     0.023173   -4.1000803    1.2933819  1010000 
 2398000   0.86150816   -4.0988074   -4.0988074   -2.8065464   0.02300717   -4.0988074     1.292261  1010000 
 2399000   0.86228955   -4.0992086   -4.0992086   -2.8057756  0.020855313   -4.0992086     1.293433  1010000 
 2400000   0.86094359   -4.0976234   -4.0976234   -2.8062093   0.02534187   -4.0976234    1.2914141  1010000 
 2401000   0.86250529   -4.0997401   -4.0997401   -2.8059834  0.023854055   -4.0997401    1.2937567  1010000 
 2402000   0.86185023   -4.0979258   -4.0979258   -2.8051517  0.022625169   -4.0979258    1.2927741  1010000 
 2403000   0.86011285   -4.0964409   -4.0964409   -2.8062729  0.022293695   -4.0964409     1.290168  1010000 
 2404000   0.86068434   -4.0962884   -4.0962884   -2.8052632  0.024201641   -4.0962884    1.2910252  1010000 
 2405000   0.86082021    -4.096409    -4.096409   -2.8051799  0.017237526    -4.096409     1.291229  1010000 
 2406000   0.86012794   -4.0951525   -4.0951525   -2.8049619  0.022188352   -4.0951525    1.2901906  1010000 
 2407000   0.86131736   -4.0970761   -4.0970761   -2.8051013  0.018178111   -4.0970761    1.2919748  1010000 
 2408000   0.86149249   -4.0973601   -4.0973601   -2.8051226  0.019257864   -4.0973601    1.2922375  1010000 
 2409000   0.86057781   -4.0961295   -4.0961295   -2.8052641  0.021673603   -4.0961295    1.2908654  1010000 
 2410000   0.86129363   -4.0961875   -4.0961875   -2.8042484  0.020490423   -4.0961875    1.2919392  1010000 
 2411000   0.86035207   -4.0954823   -4.0954823   -2.8049555  0.024440133   -4.0954823    1.2905268  1010000 
 2412000   0.86118828   -4.0965692   -4.0965692    -2.804788  0.022243704   -4.0965692    1.2917811  1010000 
 2413000   0.86244562   -4.0975935   -4.0975935   -2.8039263  0.019616856   -4.0975935    1.2936671  1010000 
 2414000   0.86140236   -4.0960602   -4.0960602    -2.803958  0.025579637   -4.0960602    1.2921023  1010000 
 2415000   0.86224158   -4.0970026   -4.0970026   -2.8036415  0.025717016   -4.0970026    1.2933611  1010000 
 2416000   0.86222782   -4.0969882   -4.0969882   -2.8036477  0.025341636   -4.0969882    1.2933405  1010000 
 2417000   0.86293062   -4.0984967   -4.0984967    -2.804102  0.024990053   -4.0984967    1.2943946  1010000 
 2418000   0.86323271   -4.0988416   -4.0988416   -2.8039938  0.022587597   -4.0988416    1.2948478  1010000 
 2419000   0.86226795   -4.0981171   -4.0981171   -2.8047164  0.027525744   -4.0981171    1.2934006  1010000 
 2420000   0.86220876   -4.0983763   -4.0983763   -2.8050645  0.022137706   -4.0983763    1.2933119  1010000 
 2421000   0.86219922   -4.0986537   -4.0986537   -2.8053562  0.022550108   -4.0986537    1.2932976  1010000 
 2422000   0.86148842   -4.0972424   -4.0972424    -2.805011  0.024004736   -4.0972424    1.2922314  1010000 
 2423000   0.86265625   -4.0986414   -4.0986414   -2.8046583  0.023699494   -4.0986414    1.2939831  1010000 
 2424000   0.86194841   -4.0975823   -4.0975823   -2.8046609  0.025638786   -4.0975823    1.2929213  1010000 
 2425000   0.86150276   -4.0970141   -4.0970141   -2.8047613  0.021043451   -4.0970141    1.2922529  1010000 
 2426000   0.86222205   -4.0979522   -4.0979522   -2.8046204   0.02245937   -4.0979522    1.2933318  1010000 
 2427000   0.86181235   -4.0974251   -4.0974251   -2.8047078  0.027249064   -4.0974251    1.2927172  1010000 
 2428000   0.86288088   -4.0986531   -4.0986531    -2.804333  0.024898834   -4.0986531      1.29432  1010000 
 2429000   0.86153357   -4.0963557   -4.0963557   -2.8040566  0.026414074   -4.0963557    1.2922991  1010000 
 2430000   0.86239637   -4.0977028   -4.0977028   -2.8041095  0.021817416   -4.0977028    1.2935933  1010000 
 2431000   0.86241376    -4.097944    -4.097944   -2.8043247  0.021757665    -4.097944    1.2936194  1010000 
 2432000   0.86221567   -4.0969366   -4.0969366   -2.8036144   0.02518713   -4.0969366    1.2933222  1010000 
 2433000   0.86162845   -4.0963155   -4.0963155   -2.8038741  0.022806238   -4.0963155    1.2924414  1010000 
 2434000   0.86191472   -4.0968341   -4.0968341   -2.8039633    0.0180816   -4.0968341    1.2928708  1010000 
 2435000   0.86128301   -4.0967338   -4.0967338   -2.8048106   0.02062894   -4.0967338    1.2919232  1010000 
 2436000   0.86188122   -4.0975097   -4.0975097   -2.8046892  0.019387686   -4.0975097    1.2928205  1010000 
 2437000   0.86119223   -4.0965556   -4.0965556   -2.8047685  0.019259145   -4.0965556    1.2917871  1010000 
 2438000    0.8620743   -4.0975179   -4.0975179   -2.8044077  0.016370875   -4.0975179    1.2931102  1010000 
 2439000   0.86169236   -4.0965652   -4.0965652   -2.8040279  0.021568755   -4.0965652    1.2925373  1010000 
 2440000   0.86237579   -4.0967418   -4.0967418   -2.8031794  0.023093892   -4.0967418    1.2935624  1010000 
 2441000   0.86259077   -4.0968078   -4.0968078   -2.8029229  0.022518368   -4.0968078    1.2938849  1010000 
 2442000    0.8624814   -4.0959254   -4.0959254   -2.8022045  0.027080163   -4.0959254    1.2937208  1010000 
 2443000   0.86320908   -4.0962079   -4.0962079   -2.8013955  0.024099311   -4.0962079    1.2948123  1010000 
 2444000   0.86313738   -4.0963021   -4.0963021   -2.8015973  0.025558364   -4.0963021    1.2947048  1010000 
 2445000   0.86346371   -4.0970346   -4.0970346   -2.8018403  0.025165186   -4.0970346    1.2951943  1010000 
 2446000   0.86247638   -4.0955427   -4.0955427   -2.8018294  0.027765358   -4.0955427    1.2937133  1010000 
 2447000   0.86307564   -4.0963235   -4.0963235   -2.8017114  0.022536985   -4.0963235    1.2946122  1010000 
 2448000   0.86248795   -4.0950306   -4.0950306      -2.8013  0.024948952   -4.0950306    1.2937306  1010000 
 2449000   0.86231849   -4.0955827   -4.0955827   -2.8021062  0.020512211   -4.0955827    1.2934765  1010000 
 2450000   0.86233376   -4.0949108   -4.0949108   -2.8014115  0.023417897   -4.0949108    1.2934994  1010000 
 2451000   0.86221459   -4.0942786   -4.0942786    -2.800958  0.024752651   -4.0942786    1.2933206  1010000 
 2452000   0.86156917   -4.0939658   -4.0939658   -2.8016133  0.026111379   -4.0939658    1.2923525  1010000 
 2453000   0.86280003   -4.0952971   -4.0952971   -2.8010983  0.023143405   -4.0952971    1.2941988  1010000 
 2454000   0.86312978   -4.0949801   -4.0949801   -2.8002867  0.022360834   -4.0949801    1.2946934  1010000 
 2455000   0.86259504   -4.0943777   -4.0943777   -2.8004864  0.025016052   -4.0943777    1.2938913  1010000 
 2456000   0.86264089   -4.0942146   -4.0942146   -2.8002545  0.023323299   -4.0942146    1.2939601  1010000 
 2457000   0.86237106   -4.0937037   -4.0937037   -2.8001484  0.023879877   -4.0937037    1.2935553  1010000 
 2458000   0.86215186   -4.0935134   -4.0935134   -2.8002869   0.02375088   -4.0935134    1.2932265  1010000 
 2459000   0.86280576   -4.0940774   -4.0940774     -2.79987   0.01865811   -4.0940774    1.2942074  1010000 
 2460000   0.86235901   -4.0934272   -4.0934272   -2.7998899  0.022017469   -4.0934272    1.2935372  1010000 
 2461000   0.86148739   -4.0922871   -4.0922871   -2.8000573   0.02129261   -4.0922871    1.2922298  1010000 
 2462000   0.86234181   -4.0929822   -4.0929822   -2.7994707   0.02272836   -4.0929822    1.2935114  1010000 
 2463000   0.86257631    -4.093162    -4.093162   -2.7992988  0.022172663    -4.093162    1.2938632  1010000 
 2464000   0.86258383   -4.0934523   -4.0934523   -2.7995779  0.019862258   -4.0934523    1.2938745  1010000 
 2465000   0.86210226   -4.0916787   -4.0916787   -2.7985266  0.022302531   -4.0916787    1.2931521  1010000 
 2466000   0.86185714   -4.0915849   -4.0915849   -2.7988005  0.023237021   -4.0915849    1.2927844  1010000 
 2467000   0.86258494    -4.092234    -4.092234   -2.7983579  0.022016853    -4.092234    1.2938761  1010000 
 2468000   0.86281827   -4.0921607   -4.0921607   -2.7979345  0.025132195   -4.0921607    1.2942261  1010000 
 2469000    0.8630001   -4.0926159   -4.0926159    -2.798117   0.02230152   -4.0926159    1.2944989  1010000 
 2470000   0.86255405    -4.091955    -4.091955   -2.7981253  0.022676633    -4.091955    1.2938298  1010000 
 2471000   0.86297447   -4.0929774   -4.0929774    -2.798517  0.025820002   -4.0929774    1.2944604  1010000 
 2472000   0.86330993   -4.0925503   -4.0925503   -2.7975867  0.024112255   -4.0925503    1.2949636  1010000 
 2473000   0.86341439   -4.0926987   -4.0926987   -2.7975784  0.021930083   -4.0926987    1.2951203  1010000 
 2474000   0.86302072   -4.0923854   -4.0923854   -2.7978556  0.022566341   -4.0923854    1.2945298  1010000 
 2475000   0.86263137   -4.0916719   -4.0916719   -2.7977262  0.023476551   -4.0916719    1.2939458  1010000 
 2476000   0.86245444   -4.0924036   -4.0924036   -2.7987233  0.019414671   -4.0924036    1.2936804  1010000 
 2477000   0.86284223   -4.0921063   -4.0921063   -2.7978442  0.021289093   -4.0921063    1.2942621  1010000 
 2478000     0.863175   -4.0928866   -4.0928866   -2.7981254  0.020606169   -4.0928866    1.2947612  1010000 
 2479000   0.86336842   -4.0923341   -4.0923341   -2.7972827  0.025284089   -4.0923341    1.2950514  1010000 
 2480000    0.8643936   -4.0933131   -4.0933131    -2.796724  0.029963781   -4.0933131    1.2965891  1010000 
 2481000   0.86411962   -4.0926223   -4.0926223   -2.7964442  0.023794554   -4.0926223    1.2961781  1010000 
 2482000   0.86507291   -4.0934916   -4.0934916   -2.7958835  0.025426288   -4.0934916    1.2976081  1010000 
 2483000   0.86438681   -4.0927566   -4.0927566   -2.7961776  0.025700426   -4.0927566    1.2965789  1010000 
 2484000   0.86470815   -4.0932389   -4.0932389    -2.796178  0.027275257   -4.0932389    1.2970609  1010000 
 2485000   0.86422026   -4.0923001   -4.0923001    -2.795971  0.022291742   -4.0923001    1.2963291  1010000 
 2486000   0.86398463   -4.0922643   -4.0922643   -2.7962887  0.022718547   -4.0922643    1.2959757  1010000 
 2487000   0.86408064   -4.0923633   -4.0923633   -2.7962437   0.02447912   -4.0923633    1.2961197  1010000 
 2488000   0.86404965    -4.091754    -4.091754   -2.7956808  0.022714318    -4.091754    1.2960732  1010000 
 2489000   0.86352042   -4.0910678   -4.0910678   -2.7957884  0.023088225   -4.0910678    1.2952793  1010000 
 2490000   0.86374815   -4.0906675   -4.0906675   -2.7950466  0.024237635   -4.0906675    1.2956209  1010000 
 2491000   0.86363703   -4.0906823   -4.0906823   -2.7952281  0.027537583   -4.0906823    1.2954543  1010000 
 2492000   0.86391919   -4.0904043   -4.0904043   -2.7945268  0.024057779   -4.0904043    1.2958775  1010000 
 2493000   0.86415548   -4.0899232   -4.0899232   -2.7936912  0.026708145   -4.0899232    1.2962319  1010000 
 2494000   0.86463778   -4.0909421   -4.0909421   -2.7939867   0.02166847   -4.0909421    1.2969554  1010000 
 2495000    0.8639797   -4.0901626   -4.0901626   -2.7941943  0.022240879   -4.0901626    1.2959683  1010000 
 2496000   0.86382643   -4.0894032   -4.0894032   -2.7936649  0.025661105   -4.0894032    1.2957384  1010000 
 2497000   0.86307432   -4.0876476   -4.0876476   -2.7930374   0.02251127   -4.0876476    1.2946102  1010000 
 2498000   0.86369524   -4.0877998   -4.0877998   -2.7922582  0.022756174   -4.0877998    1.2955416  1010000 
 2499000   0.86389933   -4.0884279   -4.0884279   -2.7925802  0.023958749   -4.0884279    1.2958477  1010000 
 2500000   0.86332928   -4.0878822   -4.0878822   -2.7928896  0.024369646   -4.0878822    1.2949926  1010000 
 2501000   0.86330757   -4.0880648   -4.0880648   -2.7931048  0.019422446   -4.0880648    1.2949601  1010000 
 2502000   0.86300714   -4.0879175   -4.0879175   -2.7934081  0.017669119   -4.0879175    1.2945094  1010000 
 2503000   0.86410705   -4.0888994   -4.0888994   -2.7927401  0.022137932   -4.0888994    1.2961593  1010000 
 2504000   0.86350574   -4.0876012   -4.0876012   -2.7923439  0.019217291   -4.0876012    1.2952573  1010000 
 2505000   0.86301873   -4.0864896   -4.0864896   -2.7919628  0.020772037   -4.0864896    1.2945268  1010000 
 2506000    0.8637016   -4.0869322   -4.0869322   -2.7913811  0.023301123   -4.0869322    1.2955511  1010000 
 2507000   0.86395109     -4.08851     -4.08851   -2.7925847  0.021497138     -4.08851    1.2959253  1010000 
 2508000   0.86358836   -4.0873638   -4.0873638   -2.7919825  0.025636057   -4.0873638    1.2953813  1010000 
 2509000   0.86422442   -4.0875638   -4.0875638   -2.7912284  0.023404477   -4.0875638    1.2963353  1010000 
 2510000    0.8640946   -4.0871771   -4.0871771   -2.7910365  0.023208566   -4.0871771    1.2961406  1010000 
 2511000   0.86410667    -4.087665    -4.087665   -2.7915063   0.02244035    -4.087665    1.2961587  1010000 
 2512000    0.8645334   -4.0884213   -4.0884213   -2.7916225   0.02257427   -4.0884213    1.2967988  1010000 
 2513000   0.86425351   -4.0874116   -4.0874116   -2.7910326   0.02553244   -4.0874116     1.296379  1010000 
 2514000   0.86498338   -4.0887322   -4.0887322   -2.7912584  0.020174642   -4.0887322    1.2974738  1010000 
 2515000   0.86440053   -4.0883809   -4.0883809   -2.7917814  0.022599159   -4.0883809    1.2965995  1010000 
 2516000   0.86447004   -4.0885363   -4.0885363   -2.7918325  0.022535266   -4.0885363    1.2967038  1010000 
 2517000   0.86392564   -4.0879499   -4.0879499   -2.7920627  0.025730143   -4.0879499    1.2958872  1010000 
 2518000   0.86482225    -4.088659    -4.088659   -2.7914269  0.022659321    -4.088659    1.2972321  1010000 
 2519000   0.86475084   -4.0878898   -4.0878898   -2.7907648  0.025821763   -4.0878898     1.297125  1010000 
 2520000    0.8665904   -4.0894443   -4.0894443     -2.78956  0.025793181   -4.0894443    1.2998843  1010000 
 2521000   0.86509689   -4.0882038   -4.0882038   -2.7905598  0.023600211   -4.0882038    1.2976441  1010000 
 2522000   0.86458215   -4.0876983   -4.0876983   -2.7908264  0.026830888   -4.0876983    1.2968719  1010000 
 2523000    0.8644335    -4.087261    -4.087261    -2.790612   0.02757042    -4.087261     1.296649  1010000 
 2524000    0.8658273   -4.0889385   -4.0889385   -2.7901988  0.028826651   -4.0889385    1.2987397  1010000 
 2525000   0.86546836   -4.0880366   -4.0880366   -2.7898354   0.02411411   -4.0880366    1.2982013  1010000 
 2526000   0.86475268   -4.0867536   -4.0867536   -2.7896259  0.021385671   -4.0867536    1.2971277  1010000 
 2527000   0.86544625   -4.0869338   -4.0869338   -2.7887657  0.020254035   -4.0869338    1.2981681  1010000 
 2528000   0.86441329    -4.086006    -4.086006   -2.7893873  0.024100268    -4.086006    1.2966187  1010000 
 2529000   0.86401824   -4.0851727   -4.0851727   -2.7891466  0.024701063   -4.0851727    1.2960261  1010000 
 2530000   0.86428838   -4.0854496   -4.0854496   -2.7890184  0.028568333   -4.0854496    1.2964313  1010000 
 2531000   0.86496591   -4.0860725   -4.0860725   -2.7886249  0.025890774   -4.0860725    1.2974476  1010000 
 2532000   0.86523405   -4.0857001   -4.0857001   -2.7878503   0.02511936   -4.0857001    1.2978498  1010000 
 2533000   0.86473841   -4.0848276   -4.0848276   -2.7877213  0.026175546   -4.0848276    1.2971063  1010000 
 2534000   0.86468877   -4.0845131   -4.0845131   -2.7874813  0.025813871   -4.0845131    1.2970319  1010000 
 2535000   0.86401249   -4.0837829   -4.0837829   -2.7877654  0.021088868   -4.0837829    1.2960175  1010000 
 2536000   0.86506657   -4.0847264   -4.0847264   -2.7871278  0.021463933   -4.0847264    1.2975986  1010000 
 2537000   0.86438455   -4.0833567   -4.0833567   -2.7867812  0.025641975   -4.0833567    1.2965755  1010000 
 2538000     0.864202   -4.0832528   -4.0832528   -2.7869511  0.025211648   -4.0832528    1.2963017  1010000 
 2539000   0.86452814   -4.0839827   -4.0839827   -2.7871918  0.015021684   -4.0839827    1.2967909  1010000 
 2540000   0.86361936   -4.0829901   -4.0829901   -2.7875623  0.020904921   -4.0829901    1.2954278  1010000 
 2541000   0.86403512   -4.0831331   -4.0831331   -2.7870817  0.020452567   -4.0831331    1.2960514  1010000 
 2542000   0.86392942   -4.0828003   -4.0828003   -2.7869075  0.021996936   -4.0828003    1.2958928  1010000 
 2543000   0.86358157   -4.0822167   -4.0822167   -2.7868456  0.022188044   -4.0822167    1.2953711  1010000 
 2544000    0.8644407   -4.0831817   -4.0831817    -2.786522  0.021466436   -4.0831817    1.2966598  1010000 
 2545000   0.86500696   -4.0834004   -4.0834004   -2.7858912  0.022304641   -4.0834004    1.2975092  1010000 
 2546000   0.86443096    -4.083134    -4.083134   -2.7864888  0.023575179    -4.083134    1.2966452  1010000 
 2547000   0.86501578   -4.0831832   -4.0831832   -2.7856608  0.023981137   -4.0831832    1.2975224  1010000 
 2548000   0.86488544   -4.0835139   -4.0835139    -2.786187  0.020983063   -4.0835139    1.2973269  1010000 
 2549000   0.86520813   -4.0839379   -4.0839379    -2.786127  0.020738899   -4.0839379    1.2978109  1010000 
 2550000   0.86497351    -4.082932    -4.082932    -2.785473  0.024317613    -4.082932     1.297459  1010000 
 2551000   0.86530637   -4.0830532   -4.0830532   -2.7850949  0.025331683   -4.0830532    1.2979583  1010000 
 2552000   0.86565142    -4.083933    -4.083933   -2.7854571  0.022064229    -4.083933    1.2984758  1010000 
 2553000   0.86606211   -4.0841531   -4.0841531   -2.7850612  0.025274983   -4.0841531    1.2990919  1010000 
 2554000   0.86610033   -4.0841955   -4.0841955   -2.7850463  0.024253256   -4.0841955    1.2991492  1010000 
 2555000   0.86611465   -4.0850733   -4.0850733   -2.7859026  0.019873883   -4.0850733    1.2991707  1010000 
 2556000   0.86602352   -4.0844398   -4.0844398   -2.7854058  0.026853582   -4.0844398     1.299034  1010000 
 2557000   0.86600283   -4.0844879   -4.0844879    -2.785485  0.025947662   -4.0844879     1.299003  1010000 
 2558000   0.86587678   -4.0837415   -4.0837415   -2.7849276  0.026240181   -4.0837415    1.2988139  1010000 
 2559000   0.86561764    -4.082299    -4.082299   -2.7838738  0.029962555    -4.082299    1.2984252  1010000 
 2560000   0.86562814   -4.0826064   -4.0826064   -2.7841655  0.026133592   -4.0826064    1.2984409  1010000 
 2561000   0.86581688    -4.083077    -4.083077    -2.784353  0.021788423    -4.083077     1.298724  1010000 
 2562000   0.86514141   -4.0823954   -4.0823954   -2.7846846  0.022374307   -4.0823954    1.2977108  1010000 
 2563000   0.86542364    -4.082548    -4.082548   -2.7844138  0.026810504    -4.082548    1.2981342  1010000 
 2564000   0.86562621    -4.081735    -4.081735    -2.783297  0.027388567    -4.081735     1.298438  1010000 
 2565000   0.86582345   -4.0824032   -4.0824032   -2.7836694  0.025088592   -4.0824032    1.2987339  1010000 
 2566000   0.86574644   -4.0820623   -4.0820623    -2.783444  0.026943234   -4.0820623    1.2986184  1010000 
 2567000   0.86556643     -4.08165     -4.08165   -2.7833016  0.024521055     -4.08165    1.2983484  1010000 
 2568000   0.86535006   -4.0808346   -4.0808346   -2.7828108   0.02787475   -4.0808346    1.2980238  1010000 
 2569000   0.86489318   -4.0810589   -4.0810589   -2.7837204  0.023695608   -4.0810589    1.2973385  1010000 
 2570000   0.86545876   -4.0811995   -4.0811995   -2.7830126  0.024266418   -4.0811995    1.2981868  1010000 
 2571000   0.86415254   -4.0793713   -4.0793713   -2.7831437  0.020684896   -4.0793713    1.2962275  1010000 
 2572000   0.86397736   -4.0789871   -4.0789871   -2.7830223   0.01915831   -4.0789871    1.2959648  1010000 
 2573000   0.86450033   -4.0794486   -4.0794486   -2.7826994  0.021564871   -4.0794486    1.2967492  1010000 
 2574000   0.86490798   -4.0791212   -4.0791212   -2.7817605  0.023301794   -4.0791212    1.2973607  1010000 
 2575000   0.86600771   -4.0804889   -4.0804889   -2.7814786  0.021964805   -4.0804889    1.2990103  1010000 
 2576000   0.86522359   -4.0802022   -4.0802022   -2.7823681  0.022936771   -4.0802022    1.2978341  1010000 
 2577000   0.86522731   -4.0801893   -4.0801893   -2.7823496  0.025914303   -4.0801893    1.2978397  1010000 
 2578000    0.8658555   -4.0802988   -4.0802988   -2.7815168  0.023899201   -4.0802988     1.298782  1010000 
 2579000    0.8663441   -4.0806429   -4.0806429    -2.781128  0.022618164   -4.0806429    1.2995149  1010000 
 2580000   0.86644312   -4.0803691   -4.0803691   -2.7807057  0.024285637   -4.0803691    1.2996634  1010000 
 2581000   0.86497817   -4.0785037   -4.0785037   -2.7810378  0.026618679   -4.0785037     1.297466  1010000 
 2582000   0.86578261   -4.0796751   -4.0796751   -2.7810024  0.020844614   -4.0796751    1.2986726  1010000 
 2583000   0.86527676   -4.0792906   -4.0792906   -2.7813768  0.019357106   -4.0792906    1.2979138  1010000 
 2584000   0.86431946   -4.0778963   -4.0778963   -2.7814184  0.021396749   -4.0778963    1.2964779  1010000 
 2585000   0.86511811   -4.0785278   -4.0785278   -2.7808519  0.021289188   -4.0785278    1.2976759  1010000 
 2586000   0.86555604   -4.0794659   -4.0794659   -2.7811331  0.026215309   -4.0794659    1.2983328  1010000 
 2587000   0.86567428    -4.079452    -4.079452   -2.7809418  0.027153947    -4.079452    1.2985101  1010000 
 2588000   0.86616379   -4.0801849   -4.0801849   -2.7809405  0.019400941   -4.0801849    1.2992444  1010000 
 2589000   0.86657544   -4.0797875   -4.0797875   -2.7799257  0.024250456   -4.0797875    1.2998619  1010000 
 2590000    0.8657555   -4.0787143   -4.0787143   -2.7800823  0.026585015   -4.0787143     1.298632  1010000 
 2591000   0.86658623   -4.0799077   -4.0799077   -2.7800296  0.026226361   -4.0799077    1.2998781  1010000 
 2592000   0.86582311   -4.0787786   -4.0787786   -2.7800452  0.028699529   -4.0787786    1.2987334  1010000 
 2593000   0.86524772   -4.0779396   -4.0779396   -2.7800693  0.024889879   -4.0779396    1.2978703  1010000 
 2594000   0.86562945   -4.0794527   -4.0794527   -2.7810099  0.023051505   -4.0794527    1.2984429  1010000 
 2595000   0.86588638   -4.0793238   -4.0793238   -2.7804955  0.020843507   -4.0793238    1.2988283  1010000 
 2596000   0.86569392   -4.0793179   -4.0793179   -2.7807783  0.020956242   -4.0793179    1.2985396  1010000 
 2597000   0.86527846   -4.0784638   -4.0784638   -2.7805474  0.022236465   -4.0784638    1.2979164  1010000 
 2598000   0.86625465   -4.0787973   -4.0787973   -2.7794166  0.025288981   -4.0787973    1.2993807  1010000 
 2599000   0.86573518   -4.0779795   -4.0779795    -2.779378  0.026565737   -4.0779795    1.2986015  1010000 
 2600000   0.86669764   -4.0785783   -4.0785783   -2.7785332   0.02775715   -4.0785783    1.3000452  1010000 
 2601000   0.86675294   -4.0792254   -4.0792254   -2.7790973  0.026326874   -4.0792254    1.3001281  1010000 
 2602000    0.8673084   -4.0792577   -4.0792577   -2.7782964  0.025159558   -4.0792577    1.3009613  1010000 
 2603000   0.86653288   -4.0788502   -4.0788502   -2.7790522  0.021526438   -4.0788502     1.299798  1010000 
 2604000   0.86712789   -4.0785193   -4.0785193   -2.7778288  0.026003899   -4.0785193    1.3006905  1010000 
 2605000   0.86715175   -4.0791633   -4.0791633    -2.778437  0.023957808   -4.0791633    1.3007263  1010000 
 2606000   0.86687197   -4.0778625   -4.0778625   -2.7775559  0.023471814   -4.0778625    1.3003067  1010000 
 2607000   0.86554133   -4.0752623   -4.0752623   -2.7769516   0.02678726   -4.0752623    1.2983107  1010000 
 2608000   0.86547285   -4.0760982   -4.0760982   -2.7778903  0.023198565   -4.0760982     1.298208  1010000 
 2609000   0.86590874   -4.0761366   -4.0761366   -2.7772747  0.021356779   -4.0761366    1.2988618  1010000 
 2610000    0.8658862   -4.0767488   -4.0767488   -2.7779208  0.023352492   -4.0767488     1.298828  1010000 
 2611000   0.86613443   -4.0762291   -4.0762291   -2.7770287  0.028934703   -4.0762291    1.2992004  1010000 
 2612000   0.86679762    -4.076702    -4.076702   -2.7765069  0.021603908    -4.076702    1.3001951  1010000 
 2613000   0.86634959   -4.0756846   -4.0756846   -2.7761615  0.026712441   -4.0756846    1.2995231  1010000 
 2614000   0.86676872   -4.0758144   -4.0758144   -2.7756626  0.021585202   -4.0758144    1.3001518  1010000 
 2615000   0.86623111   -4.0745119   -4.0745119   -2.7751665  0.023394061   -4.0745119    1.2993454  1010000 
 2616000   0.86638689     -4.07527     -4.07527    -2.775691  0.019164902     -4.07527     1.299579  1010000 
 2617000    0.8662123    -4.074445    -4.074445   -2.7751278  0.022086675    -4.074445    1.2993172  1010000 
 2618000   0.86601111   -4.0747905   -4.0747905   -2.7757751   0.02051999   -4.0747905    1.2990154  1010000 
 2619000   0.86555912   -4.0746953   -4.0746953   -2.7763579  0.022673513   -4.0746953    1.2983374  1010000 
 2620000   0.86543486    -4.074093    -4.074093    -2.775942  0.020972955    -4.074093     1.298151  1010000 
 2621000   0.86581362   -4.0735062   -4.0735062    -2.774787  0.023698754   -4.0735062    1.2987191  1010000 
 2622000    0.8664298   -4.0740855   -4.0740855   -2.7744421  0.021732394   -4.0740855    1.2996434  1010000 
 2623000   0.86629095   -4.0737869   -4.0737869   -2.7743517  0.022709352   -4.0737869    1.2994351  1010000 
 2624000    0.8667266   -4.0741946   -4.0741946    -2.774106  0.027918282   -4.0741946    1.3000886  1010000 
 2625000   0.86625654   -4.0736719   -4.0736719   -2.7742884  0.027760266   -4.0736719    1.2993835  1010000 
 2626000   0.86622121   -4.0739187   -4.0739187   -2.7745881   0.02465421   -4.0739187    1.2993305  1010000 
 2627000    0.8662461   -4.0741211   -4.0741211   -2.7747532  0.023754257   -4.0741211    1.2993679  1010000 
 2628000    0.8659323   -4.0727507   -4.0727507   -2.7738535  0.022913545   -4.0727507    1.2988972  1010000 
 2629000   0.86668284   -4.0734447   -4.0734447   -2.7734217  0.025922692   -4.0734447     1.300023  1010000 
 2630000   0.86712532   -4.0744669   -4.0744669   -2.7737802  0.021352354   -4.0744669    1.3006867  1010000 
 2631000   0.86679335   -4.0736499   -4.0736499   -2.7734611  0.024108049   -4.0736499    1.3001887  1010000 
 2632000   0.86713086    -4.074602    -4.074602    -2.773907  0.025833019    -4.074602     1.300695  1010000 
 2633000    0.8667574   -4.0755179   -4.0755179   -2.7753831  0.020951882   -4.0755179    1.3001348  1010000 
 2634000   0.86610295    -4.073427    -4.073427   -2.7742739  0.029111377    -4.073427    1.2991531  1010000 
 2635000   0.86657444   -4.0738786   -4.0738786   -2.7740182  0.025811485   -4.0738786    1.2998604  1010000 
 2636000   0.86687954   -4.0742921   -4.0742921   -2.7739741  0.023634024   -4.0742921     1.300318  1010000 
 2637000   0.86725087   -4.0745348   -4.0745348   -2.7736597  0.024178704   -4.0745348     1.300875  1010000 
 2638000   0.86748412   -4.0741943   -4.0741943   -2.7729694  0.027640216   -4.0741943    1.3012249  1010000 
 2639000   0.86722382   -4.0742278   -4.0742278   -2.7733933  0.022898713   -4.0742278    1.3008344  1010000 
 2640000   0.86718226   -4.0743377   -4.0743377   -2.7735656  0.025937886   -4.0743377    1.3007721  1010000 
 2641000   0.86780825   -4.0744884   -4.0744884   -2.7727773  0.026113294   -4.0744884    1.3017111  1010000 
 2642000   0.86656568   -4.0730743   -4.0730743    -2.773227  0.028001044   -4.0730743    1.2998472  1010000 
 2643000   0.86726596   -4.0740818   -4.0740818   -2.7731841  0.024362172   -4.0740818    1.3008976  1010000 
 2644000    0.8676155   -4.0744651   -4.0744651   -2.7730432  0.025012319   -4.0744651     1.301422  1010000 
 2645000   0.86655695   -4.0726629   -4.0726629   -2.7728287  0.022833645   -4.0726629    1.2998341  1010000 
 2646000    0.8669837   -4.0727476   -4.0727476   -2.7722734  0.025228407   -4.0727476    1.3004743  1010000 
 2647000   0.86647552   -4.0718276   -4.0718276   -2.7721156  0.024593852   -4.0718276     1.299712  1010000 
 2648000   0.86690926   -4.0727257   -4.0727257   -2.7723631  0.019737338   -4.0727257    1.3003626  1010000 
 2649000   0.86625575   -4.0715915   -4.0715915   -2.7722092  0.023863743   -4.0715915    1.2993823  1010000 
 2650000   0.86644698   -4.0719869   -4.0719869   -2.7723177  0.022486765   -4.0719869    1.2996692  1010000 
 2651000   0.86678051   -4.0718812   -4.0718812   -2.7717117  0.023385166   -4.0718812    1.3001695  1010000 
 2652000   0.86674076   -4.0718581   -4.0718581   -2.7717483  0.018626614   -4.0718581    1.3001099  1010000 
 2653000   0.86674387    -4.071518    -4.071518   -2.7714035  0.022104888    -4.071518    1.3001145  1010000 
 2654000   0.86697839   -4.0716641   -4.0716641   -2.7711978  0.020988283   -4.0716641    1.3004663  1010000 
 2655000   0.86662706   -4.0706606   -4.0706606   -2.7707213  0.021985016   -4.0706606    1.2999393  1010000 
 2656000   0.86667878   -4.0706164   -4.0706164   -2.7705995  0.022833829   -4.0706164    1.3000169  1010000 
 2657000   0.86771314   -4.0715536   -4.0715536   -2.7699852  0.020659032   -4.0715536    1.3015684  1010000 
 2658000   0.86764337   -4.0718165   -4.0718165   -2.7703528  0.023543313   -4.0718165    1.3014638  1010000 
 2659000   0.86756394   -4.0704269   -4.0704269   -2.7690823  0.027409401   -4.0704269    1.3013446  1010000 
 2660000    0.8679205   -4.0702245   -4.0702245    -2.768345  0.025875067   -4.0702245    1.3018795  1010000 
 2661000   0.86838963   -4.0704445   -4.0704445   -2.7678613  0.022362804   -4.0704445    1.3025832  1010000 
 2662000   0.86800494   -4.0702582   -4.0702582   -2.7682521  0.024810734   -4.0702582    1.3020061  1010000 
 2663000   0.86707238   -4.0683629   -4.0683629   -2.7677556  0.025812916   -4.0683629    1.3006073  1010000 
 2664000    0.8673553   -4.0698094   -4.0698094   -2.7687777  0.023020919   -4.0698094    1.3010317  1010000 
 2665000    0.8668281   -4.0693252   -4.0693252   -2.7690844  0.021979323   -4.0693252    1.3002409  1010000 
 2666000   0.86695712    -4.069464    -4.069464   -2.7690296  0.021630195    -4.069464    1.3004344  1010000 
 2667000   0.86691221   -4.0694499   -4.0694499   -2.7690828  0.022787789   -4.0694499     1.300367  1010000 
 2668000   0.86718655   -4.0693909   -4.0693909   -2.7686124  0.023866067   -4.0693909    1.3007785  1010000 
 2669000   0.86686874   -4.0684439   -4.0684439    -2.768142  0.023694341   -4.0684439    1.3003018  1010000 
 2670000    0.8670267   -4.0691233   -4.0691233   -2.7685845  0.024771355   -4.0691233    1.3005388  1010000 
 2671000   0.86677226   -4.0699536   -4.0699536   -2.7697965  0.020085245   -4.0699536    1.3001571  1010000 
 2672000   0.86682312   -4.0687181   -4.0687181   -2.7684847  0.020637446   -4.0687181    1.3002334  1010000 
 2673000   0.86657721   -4.0687226   -4.0687226    -2.768858  0.017420055   -4.0687226    1.2998645  1010000 
 2674000   0.86762628   -4.0698425   -4.0698425   -2.7684043  0.022192382   -4.0698425    1.3014381  1010000 
 2675000   0.86725737   -4.0694009   -4.0694009   -2.7685162  0.023036582   -4.0694009    1.3008848  1010000 
 2676000   0.86774689   -4.0697086   -4.0697086   -2.7680896  0.021682715   -4.0697086    1.3016191  1010000 
 2677000   0.86772899   -4.0690379   -4.0690379   -2.7674457  0.024983609   -4.0690379    1.3015922  1010000 
 2678000   0.86794974   -4.0691791   -4.0691791   -2.7672557  0.026567276   -4.0691791    1.3019233  1010000 
 2679000   0.86852207   -4.0689465   -4.0689465   -2.7661647  0.026526735   -4.0689465    1.3027818  1010000 
 2680000    0.8684322    -4.069036    -4.069036    -2.766389  0.026372542    -4.069036     1.302647  1010000 
 2681000   0.86780731   -4.0686546   -4.0686546    -2.766945   0.02558785   -4.0686546    1.3017097  1010000 
 2682000   0.86811692   -4.0690957   -4.0690957   -2.7669216  0.024595478   -4.0690957    1.3021741  1010000 
 2683000   0.86879906   -4.0694303   -4.0694303    -2.766233  0.026854953   -4.0694303    1.3031973  1010000 
 2684000   0.86811782   -4.0681223   -4.0681223   -2.7659468  0.026677566   -4.0681223    1.3021754  1010000 
 2685000   0.86748642    -4.067865    -4.067865   -2.7666367  0.025974365    -4.067865    1.3012283  1010000 
 2686000   0.86790831   -4.0682968   -4.0682968   -2.7664356  0.022887812   -4.0682968    1.3018612  1010000 
 2687000   0.86759729   -4.0676135   -4.0676135   -2.7662188  0.024262061   -4.0676135    1.3013946  1010000 
 2688000   0.86774647   -4.0683012   -4.0683012   -2.7666828  0.021499084   -4.0683012    1.3016184  1010000 
 2689000   0.86682835   -4.0678573   -4.0678573    -2.767616   0.02112195   -4.0678573    1.3002412  1010000 
 2690000   0.86667579   -4.0669955   -4.0669955   -2.7669831   0.02314793   -4.0669955    1.3000124  1010000 
 2691000   0.86680076   -4.0667655   -4.0667655   -2.7665657  0.023510928   -4.0667655    1.3001999  1010000 
 2692000   0.86784518   -4.0679432   -4.0679432   -2.7661767  0.022380107   -4.0679432    1.3017665  1010000 
 2693000   0.86790756   -4.0680332   -4.0680332   -2.7661732  0.023851686   -4.0680332    1.3018601  1010000 
 2694000   0.86811975   -4.0681034   -4.0681034   -2.7659251  0.022007152   -4.0681034    1.3021783  1010000 
 2695000   0.86818532   -4.0670943   -4.0670943   -2.7648176  0.025253485   -4.0670943    1.3022767  1010000 
 2696000   0.86930715   -4.0681036   -4.0681036   -2.7641442  0.024520682   -4.0681036    1.3039594  1010000 
 2697000   0.86945555    -4.068109    -4.068109    -2.763927  0.029922228    -4.068109     1.304182  1010000 
 2698000   0.86941818   -4.0680905   -4.0680905   -2.7639645  0.024387639   -4.0680905     1.304126  1010000 
 2699000   0.86940319   -4.0671684   -4.0671684   -2.7630649   0.02389117   -4.0671684    1.3041035  1010000 
 2700000   0.86916175   -4.0662357   -4.0662357   -2.7624943  0.026627699   -4.0662357    1.3037413  1010000 
 2701000      0.86953   -4.0666444   -4.0666444   -2.7623507  0.028675958   -4.0666444    1.3042937  1010000 
 2702000   0.86749965   -4.0644216   -4.0644216   -2.7631734  0.028596593   -4.0644216    1.3012482  1010000 
 2703000   0.86730186   -4.0639862   -4.0639862   -2.7630347  0.027425935   -4.0639862    1.3009515  1010000 
 2704000   0.86884183   -4.0659573   -4.0659573   -2.7626958  0.021083413   -4.0659573    1.3032615  1010000 
 2705000   0.86870281   -4.0653192   -4.0653192   -2.7622662  0.023086388   -4.0653192    1.3030529  1010000 
 2706000   0.86851453   -4.0645962   -4.0645962   -2.7618257  0.021995535   -4.0645962    1.3027705  1010000 
 2707000   0.86846829   -4.0642682   -4.0642682   -2.7615671  0.022755401   -4.0642682    1.3027011  1010000 
 2708000   0.86744118   -4.0627921   -4.0627921   -2.7616316  0.025304723   -4.0627921    1.3011605  1010000 
 2709000   0.86768953   -4.0637381   -4.0637381   -2.7622051  0.018371113   -4.0637381     1.301533  1010000 
 2710000    0.8667742   -4.0624755   -4.0624755   -2.7623155   0.02506601   -4.0624755      1.30016  1010000 
 2711000    0.8674051   -4.0638491   -4.0638491   -2.7627427  0.019069074   -4.0638491    1.3011064  1010000 
 2712000   0.86726695   -4.0627284   -4.0627284   -2.7618292  0.016141155   -4.0627284    1.3008991  1010000 
 2713000   0.86663402   -4.0615967   -4.0615967   -2.7616469  0.022370168   -4.0615967    1.2999497  1010000 
 2714000   0.86722136   -4.0620672   -4.0620672   -2.7612365  0.020811593   -4.0620672    1.3008308  1010000 
 2715000   0.86802945   -4.0629219   -4.0629219    -2.760879  0.020904792   -4.0629219    1.3020429  1010000 
 2716000   0.86812407   -4.0624988   -4.0624988    -2.760314  0.019283165   -4.0624988    1.3021848  1010000 
 2717000   0.86844874   -4.0621049   -4.0621049   -2.7594331  0.023237546   -4.0621049    1.3026718  1010000 
 2718000    0.8696731   -4.0639421   -4.0639421   -2.7594338  0.023740208   -4.0639421    1.3045084  1010000 
 2719000    0.8695059    -4.063092    -4.063092   -2.7588344  0.027011401    -4.063092    1.3042576  1010000 
 2720000   0.86983311   -4.0635789   -4.0635789   -2.7588306  0.026374578   -4.0635789    1.3047484  1010000 
 2721000    0.8692007   -4.0634293   -4.0634293   -2.7596296  0.024900573   -4.0634293    1.3037998  1010000 
 2722000   0.86830386    -4.061615    -4.061615   -2.7591605  0.024358455    -4.061615    1.3024545  1010000 
 2723000   0.86940988   -4.0630589   -4.0630589   -2.7589453  0.023762032   -4.0630589    1.3041135  1010000 
 2724000   0.86850044   -4.0626319   -4.0626319   -2.7598826  0.028677836   -4.0626319    1.3027494  1010000 
 2725000   0.86877304   -4.0627002   -4.0627002   -2.7595419  0.024079436   -4.0627002    1.3031583  1010000 
 2726000   0.86870582   -4.0629126   -4.0629126   -2.7598551  0.028515449   -4.0629126    1.3030574  1010000 
 2727000   0.86972006   -4.0637732   -4.0637732   -2.7591944  0.019770675   -4.0637732    1.3045788  1010000 
 2728000   0.86979064   -4.0633544   -4.0633544   -2.7586697  0.025962278   -4.0633544    1.3046847  1010000 
 2729000   0.87021304   -4.0640362   -4.0640362   -2.7587179  0.024662971   -4.0640362    1.3053183  1010000 
 2730000   0.86970208   -4.0631273   -4.0631273   -2.7585755  0.024478911   -4.0631273    1.3045518  1010000 
 2731000   0.87014072   -4.0636787   -4.0636787   -2.7584689  0.026516927   -4.0636787    1.3052098  1010000 
 2732000   0.87032783   -4.0636325   -4.0636325   -2.7581421  0.024251756   -4.0636325    1.3054904  1010000 
 2733000   0.87014503   -4.0629248   -4.0629248   -2.7577085  0.027250172   -4.0629248    1.3052162  1010000 
 2734000   0.87012228   -4.0626529   -4.0626529   -2.7574708  0.026837665   -4.0626529    1.3051821  1010000 
 2735000   0.86967167   -4.0618352   -4.0618352    -2.757329  0.026606052   -4.0618352    1.3045062  1010000 
 2736000   0.86932497   -4.0619561   -4.0619561     -2.75797  0.024203198   -4.0619561    1.3039862  1010000 
 2737000   0.86976629   -4.0620731   -4.0620731    -2.757425  0.023682665   -4.0620731    1.3046481  1010000 
 2738000   0.86920327   -4.0610667   -4.0610667   -2.7572631  0.024857648   -4.0610667    1.3038036  1010000 
 2739000   0.87031946   -4.0622542   -4.0622542   -2.7567763  0.022431458   -4.0622542    1.3054779  1010000 
 2740000   0.86960241   -4.0612804   -4.0612804   -2.7568781  0.022104503   -4.0612804    1.3044023  1010000 
 2741000   0.86903108   -4.0604622   -4.0604622   -2.7569168  0.023995412   -4.0604622    1.3035453  1010000 
 2742000   0.86902368   -4.0599539   -4.0599539   -2.7564197  0.024165031   -4.0599539    1.3035342  1010000 
 2743000   0.86839557   -4.0591683   -4.0591683   -2.7565762  0.026422401   -4.0591683    1.3025921  1010000 
 2744000   0.86900584   -4.0601934   -4.0601934    -2.756686  0.022649703   -4.0601934    1.3035075  1010000 
 2745000   0.86856947   -4.0591736   -4.0591736   -2.7563206  0.021980631   -4.0591736    1.3028529  1010000 
 2746000   0.86920994   -4.0595675   -4.0595675   -2.7557539  0.020857236   -4.0595675    1.3038136  1010000 
 2747000   0.86851632   -4.0580648   -4.0580648   -2.7552916  0.023168984   -4.0580648    1.3027732  1010000 
 2748000   0.86779675   -4.0572388   -4.0572388    -2.755545  0.025068194   -4.0572388    1.3016938  1010000 
 2749000   0.86888041   -4.0587325   -4.0587325   -2.7554131  0.021573548   -4.0587325    1.3033193  1010000 
 2750000   0.86842056   -4.0579373   -4.0579373   -2.7553078  0.021798795   -4.0579373    1.3026295  1010000 
 2751000   0.86920287   -4.0585578   -4.0585578   -2.7547548  0.023248178   -4.0585578     1.303803  1010000 
 2752000   0.86974591   -4.0584543   -4.0584543   -2.7538368  0.021310882   -4.0584543    1.3046176  1010000 
 2753000   0.86907216   -4.0574789   -4.0574789    -2.753872  0.025399976   -4.0574789    1.3036069  1010000 
 2754000   0.86933158   -4.0581438   -4.0581438   -2.7541477  0.024485569   -4.0581438    1.3039961  1010000 
 2755000   0.87052521    -4.060139    -4.060139   -2.7543525  0.022681235    -4.060139    1.3057865  1010000 
 2756000   0.86900851   -4.0573803   -4.0573803   -2.7538688   0.02770109   -4.0573803    1.3035115  1010000 
 2757000   0.86866175   -4.0577742   -4.0577742   -2.7547829  0.026146849   -4.0577742    1.3029913  1010000 
 2758000   0.87019363    -4.060176    -4.060176   -2.7548868  0.021845353    -4.060176    1.3052891  1010000 
 2759000   0.86982958   -4.0593377   -4.0593377   -2.7545947  0.021717121   -4.0593377    1.3047431  1010000 
 2760000   0.86823347   -4.0566773   -4.0566773   -2.7543284  0.024303824   -4.0566773    1.3023489  1010000 
 2761000   0.86900369   -4.0590838   -4.0590838   -2.7555796  0.020659271   -4.0590838    1.3035042  1010000 
 2762000   0.87000255   -4.0597138   -4.0597138   -2.7547112  0.022826002   -4.0597138    1.3050025  1010000 
 2763000   0.87009948   -4.0592269   -4.0592269   -2.7540789  0.026205599   -4.0592269    1.3051479  1010000 
 2764000   0.87019604   -4.0590194   -4.0590194   -2.7537266  0.027686547   -4.0590194    1.3052928  1010000 
 2765000   0.87080981   -4.0602266   -4.0602266   -2.7540131  0.028501705   -4.0602266    1.3062134  1010000 
 2766000   0.87026822   -4.0594746   -4.0594746   -2.7540736  0.028934648   -4.0594746     1.305401  1010000 
 2767000   0.87114494   -4.0604235   -4.0604235   -2.7537073  0.025438991   -4.0604235    1.3067161  1010000 
 2768000   0.87037505   -4.0593262   -4.0593262    -2.753765  0.024677748   -4.0593262    1.3055613  1010000 
 2769000   0.87062107   -4.0596096   -4.0596096   -2.7536793  0.028441267   -4.0596096    1.3059303  1010000 
 2770000   0.86980804   -4.0582217   -4.0582217   -2.7535109  0.028660546   -4.0582217    1.3047108  1010000 
 2771000   0.87092664   -4.0596683   -4.0596683   -2.7532797  0.025108842   -4.0596683    1.3063887  1010000 
 2772000   0.87014907   -4.0586995   -4.0586995   -2.7534772  0.023315247   -4.0586995    1.3052223  1010000 
 2773000   0.86901158   -4.0576337   -4.0576337   -2.7541176  0.029376234   -4.0576337    1.3035161  1010000 
 2774000   0.87022368    -4.058635    -4.058635   -2.7533007  0.027278279    -4.058635    1.3053342  1010000 
 2775000   0.86991969   -4.0582347   -4.0582347   -2.7533564  0.026521183   -4.0582347    1.3048782  1010000 
 2776000    0.8703042   -4.0591609   -4.0591609   -2.7537059  0.022678331   -4.0591609     1.305455  1010000 
 2777000   0.86940711   -4.0573044   -4.0573044    -2.753195  0.027102613   -4.0573044    1.3041094  1010000 
 2778000   0.87038482   -4.0583909   -4.0583909    -2.752815  0.024579998   -4.0583909    1.3055759  1010000 
 2779000   0.86992272   -4.0570657   -4.0570657   -2.7521829  0.023943659   -4.0570657    1.3048828  1010000 
 2780000   0.86999385    -4.056773    -4.056773   -2.7517836  0.026946232    -4.056773    1.3049895  1010000 
 2781000   0.86946167   -4.0561331   -4.0561331   -2.7519418  0.021212645   -4.0561331    1.3041912  1010000 
 2782000   0.87004639   -4.0569419   -4.0569419   -2.7518737    0.0223369   -4.0569419    1.3050683  1010000 
 2783000   0.86916058   -4.0550826   -4.0550826   -2.7513431  0.024960434   -4.0550826    1.3037396  1010000 
 2784000   0.87013488   -4.0561985   -4.0561985   -2.7509975  0.024544373   -4.0561985     1.305201  1010000 
 2785000   0.87058671   -4.0564071   -4.0564071   -2.7505283  0.019203702   -4.0564071    1.3058788  1010000 
 2786000   0.86995488   -4.0551216   -4.0551216   -2.7501906  0.028869431   -4.0551216     1.304931  1010000 
 2787000   0.87001771   -4.0560738   -4.0560738   -2.7510485  0.024484127   -4.0560738    1.3050253  1010000 
 2788000   0.87038626   -4.0564128   -4.0564128   -2.7508347  0.023629846   -4.0564128    1.3055781  1010000 
 2789000   0.87058743   -4.0558177   -4.0558177   -2.7499378  0.021146575   -4.0558177    1.3058798  1010000 
 2790000   0.86973005   -4.0544982   -4.0544982   -2.7499044  0.021201695   -4.0544982    1.3045938  1010000 
 2791000   0.86996559   -4.0549119   -4.0549119   -2.7499648  0.022433426   -4.0549119    1.3049471  1010000 
 2792000   0.87046965   -4.0543221   -4.0543221   -2.7486189    0.0231821   -4.0543221    1.3057032  1010000 
 2793000   0.87005951   -4.0540493   -4.0540493   -2.7489613  0.022941957   -4.0540493     1.305088  1010000 
 2794000   0.87096144   -4.0549297   -4.0549297   -2.7484888  0.023375403   -4.0549297    1.3064409  1010000 
 2795000   0.87124591   -4.0558367   -4.0558367   -2.7489691  0.018554935   -4.0558367    1.3068676  1010000 
 2796000   0.87084714    -4.054628    -4.054628   -2.7483585  0.025131543    -4.054628    1.3062694  1010000 
 2797000   0.87157435   -4.0550749   -4.0550749   -2.7477147  0.026805668   -4.0550749    1.3073602  1010000 
 2798000   0.87065943   -4.0531328   -4.0531328    -2.747145  0.029196013   -4.0531328    1.3059879  1010000 
 2799000   0.87169993   -4.0549321   -4.0549321   -2.7473835  0.026273344   -4.0549321    1.3075486  1010000 
 2800000   0.87187976   -4.0539812   -4.0539812   -2.7461628  0.025663078   -4.0539812    1.3078183  1010000 
 2801000   0.87219032   -4.0541626   -4.0541626   -2.7458784  0.022913338   -4.0541626    1.3082842  1010000 
 2802000   0.87146162   -4.0537284   -4.0537284   -2.7465372  0.026748367   -4.0537284    1.3071911  1010000 
 2803000   0.87144846   -4.0540155   -4.0540155   -2.7468441  0.028025184   -4.0540155    1.3071714  1010000 
 2804000   0.87124939   -4.0533222   -4.0533222   -2.7464494  0.024768724   -4.0533222    1.3068728  1010000 
 2805000   0.87128489   -4.0536497   -4.0536497   -2.7467237  0.021124531   -4.0536497     1.306926  1010000 
 2806000   0.87104099   -4.0524248   -4.0524248   -2.7458646  0.026906327   -4.0524248    1.3065602  1010000 
 2807000   0.87062301   -4.0511877   -4.0511877   -2.7452544  0.026633186   -4.0511877    1.3059332  1010000 
 2808000    0.8711619   -4.0515986   -4.0515986    -2.744857  0.025003801   -4.0515986    1.3067416  1010000 
 2809000   0.87165384   -4.0524819   -4.0524819   -2.7450025  0.023622194   -4.0524819    1.3074795  1010000 
 2810000   0.87120002   -4.0521337   -4.0521337    -2.745335  0.023859368   -4.0521337    1.3067987  1010000 
 2811000   0.87035811   -4.0517795   -4.0517795   -2.7462436  0.022217792   -4.0517795    1.3055359  1010000 
 2812000   0.87129036   -4.0521443   -4.0521443     -2.74521  0.024571748   -4.0521443    1.3069342  1010000 
 2813000   0.87077661   -4.0516251   -4.0516251   -2.7454615  0.019754252   -4.0516251    1.3061636  1010000 
 2814000   0.87058392   -4.0501578   -4.0501578   -2.7442832   0.02571714   -4.0501578    1.3058746  1010000 
 2815000   0.87069259   -4.0497526   -4.0497526    -2.743715  0.024337868   -4.0497526    1.3060376  1010000 
 2816000   0.87133478   -4.0509821   -4.0509821   -2.7439812  0.019322548   -4.0509821    1.3070009  1010000 
 2817000   0.87106073   -4.0499381   -4.0499381   -2.7433483  0.023538477   -4.0499381    1.3065898  1010000 
 2818000    0.8716799   -4.0507156   -4.0507156   -2.7431971   0.02592448   -4.0507156    1.3075186  1010000 
 2819000   0.87077045   -4.0495068   -4.0495068   -2.7433524  0.023443395   -4.0495068    1.3061544  1010000 
 2820000   0.87158238   -4.0510046   -4.0510046   -2.7436323  0.023198663   -4.0510046    1.3073723  1010000 
 2821000   0.87170597   -4.0504588   -4.0504588   -2.7429011  0.019729008   -4.0504588    1.3075577  1010000 
 2822000   0.87196139   -4.0506684   -4.0506684   -2.7427276  0.021078115   -4.0506684    1.3079408  1010000 
 2823000    0.8707644   -4.0490068   -4.0490068   -2.7428615  0.024326905   -4.0490068    1.3061453  1010000 
 2824000   0.87111109   -4.0501495   -4.0501495   -2.7434842  0.026071513   -4.0501495    1.3066653  1010000 
 2825000    0.8712493   -4.0497316   -4.0497316    -2.742859  0.022217747   -4.0497316    1.3068727  1010000 
 2826000    0.8715799   -4.0509299   -4.0509299   -2.7435614  0.025756452   -4.0509299    1.3073685  1010000 
 2827000   0.87061137   -4.0489545   -4.0489545   -2.7430388  0.026609584   -4.0489545    1.3059158  1010000 
 2828000   0.87064529   -4.0491476   -4.0491476    -2.743181  0.027405137   -4.0491476    1.3059666  1010000 
 2829000   0.87209011   -4.0505638   -4.0505638   -2.7424299  0.023363804   -4.0505638    1.3081339  1010000 
 2830000   0.87179937   -4.0497807   -4.0497807    -2.742083  0.024471611   -4.0497807    1.3076978  1010000 
 2831000   0.87155934   -4.0491889   -4.0491889   -2.7418511  0.028011941   -4.0491889    1.3073377  1010000 
 2832000   0.87227378   -4.0497956   -4.0497956   -2.7413863  0.026232955   -4.0497956    1.3084094  1010000 
 2833000   0.87218692   -4.0497459   -4.0497459   -2.7414668    0.0291322   -4.0497459    1.3082791  1010000 
 2834000   0.87243188   -4.0506892   -4.0506892   -2.7420426  0.023674669   -4.0506892    1.3086465  1010000 
 2835000    0.8726245   -4.0501902   -4.0501902   -2.7412547  0.025642024   -4.0501902    1.3089354  1010000 
 2836000    0.8717401   -4.0488836   -4.0488836   -2.7412747  0.029447055   -4.0488836    1.3076089  1010000 
 2837000   0.87264658   -4.0502998   -4.0502998   -2.7413312  0.025066507   -4.0502998    1.3089686  1010000 
 2838000    0.8714601   -4.0483576   -4.0483576   -2.7411688  0.026272593   -4.0483576    1.3071889  1010000 
 2839000    0.8722251   -4.0491097   -4.0491097   -2.7407734  0.025736383   -4.0491097    1.3083364  1010000 
 2840000   0.87197914   -4.0487967   -4.0487967   -2.7408293  0.027971011   -4.0487967    1.3079674  1010000 
 2841000   0.87213343   -4.0497789   -4.0497789     -2.74158  0.025996904   -4.0497789    1.3081989  1010000 
 2842000   0.87129965   -4.0482409   -4.0482409   -2.7412927  0.024270454   -4.0482409    1.3069482  1010000 
 2843000     0.871933   -4.0482635   -4.0482635   -2.7403653   0.02655442   -4.0482635    1.3078982  1010000 
 2844000   0.87260248   -4.0490054   -4.0490054    -2.740103  0.023942023   -4.0490054    1.3089024  1010000 
 2845000   0.87223907   -4.0482647   -4.0482647   -2.7399074  0.023029783   -4.0482647    1.3083573  1010000 
 2846000   0.87168944   -4.0476704   -4.0476704   -2.7401375  0.024659762   -4.0476704    1.3075329  1010000 
 2847000   0.87048376     -4.04506     -4.04506   -2.7393356  0.027369194     -4.04506    1.3057244  1010000 
 2848000   0.87121568   -4.0466831   -4.0466831   -2.7398609  0.020262974   -4.0466831    1.3068222  1010000 
 2849000   0.87243988   -4.0475571   -4.0475571   -2.7388986   0.02293273   -4.0475571    1.3086585  1010000 
 2850000   0.87165595   -4.0466915   -4.0466915   -2.7392088  0.021575075   -4.0466915    1.3074826  1010000 
 2851000   0.87206139    -4.046841    -4.046841   -2.7387502   0.02425732    -4.046841    1.3080908  1010000 
 2852000   0.87108185   -4.0465723   -4.0465723   -2.7399509  0.024128959   -4.0465723    1.3066215  1010000 
 2853000   0.87084493   -4.0456896   -4.0456896   -2.7394235  0.026514389   -4.0456896    1.3062661  1010000 
 2854000   0.87227692   -4.0474883   -4.0474883   -2.7390742  0.023661791   -4.0474883    1.3084141  1010000 
 2855000   0.87166636   -4.0463714   -4.0463714   -2.7388732  0.023414244   -4.0463714    1.3074982  1010000 
 2856000   0.87199523   -4.0466759   -4.0466759   -2.7386844  0.020497455   -4.0466759    1.3079915  1010000 
 2857000   0.87194085   -4.0461302   -4.0461302   -2.7382202  0.019338985   -4.0461302      1.30791  1010000 
 2858000   0.87171211   -4.0460306   -4.0460306   -2.7384638  0.017972487   -4.0460306    1.3075669  1010000 
 2859000   0.87121762   -4.0446733   -4.0446733   -2.7378482  0.025931023   -4.0446733    1.3068251  1010000 
 2860000   0.87193555   -4.0458111   -4.0458111   -2.7379091  0.024865449   -4.0458111     1.307902  1010000 
 2861000   0.87181099   -4.0458024   -4.0458024   -2.7380872  0.025314021   -4.0458024    1.3077152  1010000 
 2862000    0.8721226    -4.045878    -4.045878   -2.7376954  0.025232081    -4.045878    1.3081826  1010000 
 2863000   0.87300628   -4.0467645   -4.0467645   -2.7372564  0.023592649   -4.0467645    1.3095081  1010000 
 2864000   0.87205375   -4.0457436   -4.0457436   -2.7376643  0.028292041   -4.0457436    1.3080793  1010000 
 2865000   0.87341086   -4.0474356   -4.0474356   -2.7373206  0.026175717   -4.0474356     1.310115  1010000 
 2866000   0.87242254   -4.0457788   -4.0457788   -2.7371462  0.025422751   -4.0457788    1.3086325  1010000 
 2867000   0.87323054   -4.0472786   -4.0472786   -2.7374341   0.02527933   -4.0472786    1.3098445  1010000 
 2868000   0.87199084   -4.0454591   -4.0454591   -2.7374741  0.025791655   -4.0454591     1.307985  1010000 
 2869000   0.87285478   -4.0463532   -4.0463532   -2.7370723  0.024105135   -4.0463532    1.3092809  1010000 
 2870000   0.87284085   -4.0463828   -4.0463828   -2.7371228  0.024363015   -4.0463828      1.30926  1010000 
 2871000   0.87322365   -4.0470741   -4.0470741   -2.7372399   0.02487238   -4.0470741    1.3098342  1010000 
 2872000   0.87325459   -4.0477327   -4.0477327   -2.7378521   0.02557328   -4.0477327    1.3098806  1010000 
 2873000   0.87315388   -4.0473238   -4.0473238   -2.7375943  0.024806372   -4.0473238    1.3097295  1010000 
 2874000   0.87299177   -4.0473243   -4.0473243   -2.7378379  0.026427352   -4.0473243    1.3094864  1010000 
 2875000   0.87281976   -4.0466361   -4.0466361   -2.7374078  0.030175098   -4.0466361    1.3092283  1010000 
 2876000   0.87362406    -4.047199    -4.047199   -2.7367642  0.025405141    -4.047199    1.3104348  1010000 
 2877000   0.87250365   -4.0453844   -4.0453844   -2.7366303  0.027787379   -4.0453844    1.3087542  1010000 
 2878000   0.87244467   -4.0450779   -4.0450779   -2.7364122  0.028685397   -4.0450779    1.3086657  1010000 
 2879000   0.87266525   -4.0457391   -4.0457391   -2.7367425  0.028046888   -4.0457391    1.3089966  1010000 
 2880000   0.87335549   -4.0460741   -4.0460741   -2.7360422  0.024434406   -4.0460741    1.3100319  1010000 
 2881000   0.87337071   -4.0461116   -4.0461116   -2.7360568  0.024518955   -4.0461116    1.3100548  1010000 
 2882000   0.87299996   -4.0453806   -4.0453806    -2.735882  0.027934934   -4.0453806    1.3094986  1010000 
 2883000   0.87300019   -4.0443553   -4.0443553   -2.7348563  0.026950782   -4.0443553     1.309499  1010000 
 2884000   0.87348084   -4.0442323   -4.0442323   -2.7340123  0.023885765   -4.0442323      1.31022  1010000 
 2885000   0.87425477   -4.0452824   -4.0452824   -2.7339015   0.02538064   -4.0452824    1.3113809  1010000 
 2886000   0.87315875   -4.0438454   -4.0438454   -2.7341085  0.029182876   -4.0438454    1.3097368  1010000 
 2887000   0.87380664   -4.0444239   -4.0444239   -2.7337153  0.022122232   -4.0444239    1.3107087  1010000 
 2888000   0.87353598   -4.0437512   -4.0437512   -2.7334485  0.024776267   -4.0437512    1.3103027  1010000 
 2889000   0.87271191   -4.0418346   -4.0418346    -2.732768  0.027839764   -4.0418346    1.3090666  1010000 
 2890000   0.87267823   -4.0412412   -4.0412412   -2.7322251  0.022623241   -4.0412412     1.309016  1010000 
 2891000   0.87373152   -4.0427715   -4.0427715   -2.7321755  0.020621612   -4.0427715     1.310596  1010000 
 2892000   0.87205284   -4.0401767   -4.0401767   -2.7320987   0.02103485   -4.0401767     1.308078  1010000 
 2893000    0.8732389    -4.042037    -4.042037     -2.73218  0.024157409    -4.042037     1.309857  1010000 
 2894000    0.8728714   -4.0408749   -4.0408749   -2.7315691  0.021088588   -4.0408749    1.3093058  1010000 
 2895000   0.87330761   -4.0417467   -4.0417467   -2.7317866  0.024062861   -4.0417467    1.3099601  1010000 
 2896000   0.87293836   -4.0403084   -4.0403084   -2.7309022   0.02591223   -4.0403084    1.3094063  1010000 
 2897000   0.87355154   -4.0407452   -4.0407452   -2.7304192  0.022119944   -4.0407452     1.310326  1010000 
 2898000   0.87353632   -4.0402487   -4.0402487   -2.7299455  0.022087807   -4.0402487    1.3103032  1010000 
 2899000    0.8738402   -4.0402891   -4.0402891   -2.7295301  0.023400788   -4.0402891     1.310759  1010000 
 2900000   0.87351625   -4.0402348   -4.0402348   -2.7299617  0.022982623   -4.0402348    1.3102731  1010000 
 2901000   0.87306513   -4.0392307   -4.0392307   -2.7296343  0.023630438   -4.0392307    1.3095964  1010000 
 2902000   0.87353998   -4.0401726   -4.0401726   -2.7298639  0.021313512   -4.0401726    1.3103087  1010000 
 2903000   0.87283756   -4.0395702   -4.0395702   -2.7303151  0.021153988   -4.0395702     1.309255  1010000 
 2904000   0.87313438   -4.0392232   -4.0392232   -2.7295229  0.024091502   -4.0392232    1.3097003  1010000 
 2905000   0.87359775   -4.0396828   -4.0396828   -2.7292875  0.027190632   -4.0396828    1.3103953  1010000 
 2906000    0.8744362   -4.0408831   -4.0408831   -2.7292301  0.025215198   -4.0408831     1.311653  1010000 
 2907000   0.87414591   -4.0405917   -4.0405917   -2.7293742  0.026287232   -4.0405917    1.3112176  1010000 
 2908000   0.87427819   -4.0406232   -4.0406232   -2.7292072  0.024319245   -4.0406232     1.311416  1010000 
 2909000   0.87465836   -4.0401709   -4.0401709   -2.7281847  0.029537118   -4.0401709    1.3119862  1010000 
 2910000   0.87420603   -4.0400165   -4.0400165   -2.7287087  0.024242163   -4.0400165    1.3113078  1010000 
 2911000   0.87420863   -4.0399155   -4.0399155   -2.7286039   0.02505102   -4.0399155    1.3113116  1010000 
 2912000   0.87348767   -4.0393753   -4.0393753   -2.7291451  0.023800491   -4.0393753    1.3102302  1010000 
 2913000   0.87448201   -4.0404899   -4.0404899   -2.7287682  0.025236408   -4.0404899    1.3117217  1010000 
 2914000   0.87436234   -4.0404141   -4.0404141   -2.7288718  0.025179676   -4.0404141    1.3115422  1010000 
 2915000   0.87313715   -4.0391313   -4.0391313   -2.7294268  0.026546016   -4.0391313    1.3097044  1010000 
 2916000   0.87362118   -4.0391301   -4.0391301   -2.7286996   0.02518841   -4.0391301    1.3104305  1010000 
 2917000   0.87429096   -4.0400032   -4.0400032   -2.7285681  0.023726954   -4.0400032    1.3114351  1010000 
 2918000   0.87437619   -4.0402233   -4.0402233   -2.7286603   0.02421871   -4.0402233     1.311563  1010000 
 2919000   0.87455811   -4.0401536   -4.0401536   -2.7283178  0.022993981   -4.0401536    1.3118359  1010000 
 2920000   0.87479645   -4.0401142   -4.0401142   -2.7279209  0.023977706   -4.0401142    1.3121934  1010000 
 2921000   0.87420919   -4.0397499   -4.0397499   -2.7284374  0.025358895   -4.0397499    1.3113125  1010000 
 2922000   0.87398848   -4.0387814   -4.0387814      -2.7278  0.026474805   -4.0387814    1.3109814  1010000 
 2923000   0.87433981   -4.0392426   -4.0392426   -2.7277342  0.025949715   -4.0392426    1.3115084  1010000 
 2924000    0.8736495   -4.0386585   -4.0386585   -2.7281855  0.024862835   -4.0386585     1.310473  1010000 
 2925000   0.87462423   -4.0392509   -4.0392509   -2.7273159  0.026555616   -4.0392509     1.311935  1010000 
 2926000    0.8738232   -4.0381565   -4.0381565    -2.727423  0.023971232   -4.0381565    1.3107335  1010000 
 2927000   0.87432492   -4.0386955   -4.0386955   -2.7272094  0.023061238   -4.0386955    1.3114861  1010000 
 2928000   0.87395487   -4.0386115   -4.0386115   -2.7276805  0.027854361   -4.0386115     1.310931  1010000 
 2929000   0.87450001   -4.0390568   -4.0390568   -2.7273081  0.024532102   -4.0390568    1.3117487  1010000 
 2930000   0.87455544   -4.0392264   -4.0392264   -2.7273945  0.024982921   -4.0392264    1.3118319  1010000 
 2931000   0.87403423   -4.0385132   -4.0385132   -2.7274631  0.022560838   -4.0385132    1.3110501  1010000 
 2932000   0.87373914   -4.0380616   -4.0380616   -2.7274542  0.022005738   -4.0380616    1.3106074  1010000 
 2933000   0.87355997   -4.0373179   -4.0373179   -2.7269792  0.024654266   -4.0373179    1.3103387  1010000 
 2934000   0.87469871   -4.0385387   -4.0385387    -2.726492  0.019030751   -4.0385387    1.3120468  1010000 
 2935000   0.87403932   -4.0375435   -4.0375435   -2.7264858  0.024403369   -4.0375435    1.3110577  1010000 
 2936000   0.87384733   -4.0373786   -4.0373786   -2.7266089  0.023428943   -4.0373786    1.3107697  1010000 
 2937000    0.8743113   -4.0376582   -4.0376582   -2.7261925  0.024534946   -4.0376582    1.3114656  1010000 
 2938000   0.87432799    -4.037801    -4.037801   -2.7263104  0.023998835    -4.037801    1.3114907  1010000 
 2939000   0.87423544   -4.0369368   -4.0369368   -2.7255849  0.030309805   -4.0369368    1.3113519  1010000 
 2940000   0.87538291   -4.0382186   -4.0382186   -2.7251456  0.025927015   -4.0382186    1.3130731  1010000 
 2941000   0.87423722   -4.0359976   -4.0359976   -2.7246431  0.029844786   -4.0359976    1.3113545  1010000 
 2942000   0.87420189   -4.0367408   -4.0367408   -2.7254393  0.023514689   -4.0367408    1.3113015  1010000 
 2943000   0.87372547   -4.0364717   -4.0364717   -2.7258848  0.026265001   -4.0364717    1.3105869  1010000 
 2944000    0.8742155   -4.0364765   -4.0364765   -2.7251546  0.024420483   -4.0364765     1.311322  1010000 
 2945000   0.87363683   -4.0353071   -4.0353071   -2.7248531  0.023724925   -4.0353071     1.310454  1010000 
 2946000   0.87419655   -4.0358341   -4.0358341   -2.7245405  0.025812117   -4.0358341    1.3112935  1010000 
 2947000   0.87463085   -4.0366504   -4.0366504   -2.7247054  0.022968519   -4.0366504     1.311945  1010000 
 2948000   0.87446629   -4.0355509   -4.0355509   -2.7238528   0.02418482   -4.0355509    1.3116981  1010000 
 2949000   0.87471312   -4.0355215   -4.0355215   -2.7234532  0.027516693   -4.0355215    1.3120684  1010000 
 2950000   0.87485114   -4.0359293   -4.0359293   -2.7236539  0.023935734   -4.0359293    1.3122754  1010000 
 2951000   0.87509589   -4.0364891   -4.0364891   -2.7238465  0.023445815   -4.0364891    1.3126425  1010000 
 2952000   0.87503327   -4.0355944   -4.0355944   -2.7230458  0.029355625   -4.0355944    1.3125486  1010000 
 2953000   0.87534771   -4.0363227   -4.0363227   -2.7233025  0.029494963   -4.0363227    1.3130203  1010000 
 2954000   0.87485924   -4.0356269   -4.0356269   -2.7233393  0.026040602   -4.0356269    1.3122876  1010000 
 2955000   0.87458202   -4.0353144   -4.0353144   -2.7234427  0.023622456   -4.0353144    1.3118717  1010000 
 2956000   0.87481642   -4.0357174   -4.0357174    -2.723494  0.020556247   -4.0357174    1.3122233  1010000 
 2957000   0.87387347   -4.0338237   -4.0338237   -2.7230148  0.022261078   -4.0338237    1.3108089  1010000 
 2958000   0.87356097   -4.0331747   -4.0331747   -2.7228346  0.020620733   -4.0331747    1.3103402  1010000 
 2959000   0.87403171   -4.0337412   -4.0337412   -2.7226949  0.026274828   -4.0337412    1.3110463  1010000 
 2960000   0.87449894   -4.0340118   -4.0340118   -2.7222647  0.027607304   -4.0340118    1.3117471  1010000 
 2961000   0.87357794   -4.0330348   -4.0330348   -2.7226692  0.025948983   -4.0330348    1.3103656  1010000 
 2962000    0.8744815   -4.0339344   -4.0339344   -2.7222134  0.025990732   -4.0339344     1.311721  1010000 
 2963000   0.87466242   -4.0338277   -4.0338277   -2.7218353  0.028117057   -4.0338277    1.3119923  1010000 
 2964000   0.87491284   -4.0337744   -4.0337744   -2.7214064  0.023377619   -4.0337744     1.312368  1010000 
 2965000   0.87528944   -4.0341347   -4.0341347   -2.7212018  0.021617677   -4.0341347    1.3129329  1010000 
 2966000    0.8748805   -4.0335336   -4.0335336   -2.7212142   0.03074244   -4.0335336    1.3123195  1010000 
 2967000   0.87556476   -4.0340605   -4.0340605   -2.7207146  0.027978953   -4.0340605    1.3133458  1010000 
 2968000   0.87426012   -4.0327494   -4.0327494   -2.7213605  0.029879114   -4.0327494    1.3113889  1010000 
 2969000   0.87502181   -4.0342478   -4.0342478   -2.7217163  0.026101805   -4.0342478    1.3125314  1010000 
 2970000   0.87467725   -4.0336398   -4.0336398   -2.7216253    0.0234453   -4.0336398    1.3120146  1010000 
 2971000   0.87466195   -4.0328006   -4.0328006   -2.7208089  0.025397452   -4.0328006    1.3119916  1010000 
 2972000   0.87480921    -4.032337    -4.032337   -2.7201245  0.024939602    -4.032337    1.3122125  1010000 
 2973000   0.87446493   -4.0322012   -4.0322012   -2.7205051  0.024943146   -4.0322012    1.3116961  1010000 
 2974000   0.87531737    -4.032736    -4.032736   -2.7197612  0.029641781    -4.032736    1.3129748  1010000 
 2975000   0.87592839   -4.0333195   -4.0333195   -2.7194282  0.030800848   -4.0333195    1.3138913  1010000 
 2976000   0.87551278   -4.0327224   -4.0327224   -2.7194546  0.027500551   -4.0327224    1.3132679  1010000 
 2977000    0.8753554   -4.0324569   -4.0324569   -2.7194251  0.029305607   -4.0324569    1.3130318  1010000 
 2978000   0.87597469     -4.03316     -4.03316   -2.7191992  0.028549995     -4.03316    1.3139607  1010000 
 2979000   0.87539201   -4.0326547   -4.0326547    -2.719568  0.025399066   -4.0326547    1.3130867  1010000 
 2980000   0.87590357   -4.0323827   -4.0323827   -2.7185286  0.022384572   -4.0323827    1.3138541  1010000 
 2981000   0.87575679   -4.0322984   -4.0322984   -2.7186645  0.023005014   -4.0322984    1.3136339  1010000 
 2982000   0.87474042   -4.0310246   -4.0310246   -2.7189153  0.021011488   -4.0310246    1.3121093  1010000 
 2983000   0.87630496   -4.0329583   -4.0329583   -2.7185022  0.019081636   -4.0329583    1.3144561  1010000 
 2984000   0.87521888   -4.0314844   -4.0314844   -2.7186574  0.024487949   -4.0314844     1.312827  1010000 
 2985000   0.87491697   -4.0301434   -4.0301434   -2.7177693  0.023861253   -4.0301434    1.3123742  1010000 
 2986000   0.87573932   -4.0304333   -4.0304333   -2.7168256  0.023670222   -4.0304333    1.3136077  1010000 
 2987000   0.87571593   -4.0304962   -4.0304962   -2.7169236  0.028888337   -4.0304962    1.3135726  1010000 
 2988000   0.87567411   -4.0299977   -4.0299977   -2.7164879  0.025883588   -4.0299977    1.3135099  1010000 
 2989000   0.87669966   -4.0312586   -4.0312586   -2.7162104  0.023736779   -4.0312586    1.3150482  1010000 
 2990000   0.87593763   -4.0306965   -4.0306965   -2.7167913  0.022466485   -4.0306965    1.3139051  1010000 
 2991000   0.87493542   -4.0286551   -4.0286551   -2.7162533   0.02823514   -4.0286551    1.3124018  1010000 
 2992000   0.87575001   -4.0296587   -4.0296587    -2.716035  0.020581399   -4.0296587    1.3136237  1010000 
 2993000   0.87545306   -4.0284216   -4.0284216   -2.7152433  0.025135886   -4.0284216    1.3131783  1010000 
 2994000   0.87489963   -4.0276734   -4.0276734   -2.7153252  0.021145833   -4.0276734    1.3123482  1010000 
 2995000   0.87508898   -4.0284367   -4.0284367   -2.7158045   0.02257054   -4.0284367    1.3126322  1010000 
 2996000   0.87428335   -4.0272406   -4.0272406   -2.7158169  0.025602212   -4.0272406    1.3114237  1010000 
 2997000   0.87505539   -4.0287383   -4.0287383   -2.7161566  0.025402592   -4.0287383    1.3125818  1010000 
 2998000    0.8747202   -4.0283321   -4.0283321   -2.7162531  0.022302717   -4.0283321     1.312079  1010000 
 2999000   0.87544077   -4.0285559   -4.0285559    -2.715396  0.022924489   -4.0285559    1.3131598  1010000 
 3000000   0.87614241    -4.028622    -4.028622   -2.7144097  0.022557781    -4.028622    1.3142123  1010000 
Loop time of 14766.1 on 240 procs for 3000000 steps with 1010000 atoms

Performance: 87768.849 tau/day, 203.169 timesteps/s
99.0% CPU use with 240 MPI tasks x 1 OpenMP threads

MPI task timing breakdown:
Section |  min time  |  avg time  |  max time  |%varavg|  %CPU | %total
-----------------------------------------------------------------------
Pair    | 3270.8     | 5340.9     | 8201.2     |1237.2 |  99.0 | 36.17
Bond    | 0.98824    | 1.313      | 2.0764     |  18.3 | 100.0 |  0.01
Neigh   | 1268.6     | 1992.3     | 3012.1     | 707.6 |  99.5 | 13.49
Comm    | 2864.4     | 6726.3     | 9576.9     |1533.3 |  98.8 | 45.55
Output  | 191.14     | 191.86     | 192.04     |   0.4 |  99.8 |  1.30
Modify  | 141.79     | 284.73     | 929.32     |1191.2 |  99.4 |  1.93
Other   |            | 228.7      |            |       |       |  1.55

Nlocal:        4208.33 ave        4824 max        3729 min
Histogram: 2 2 4 19 204 2 3 2 1 1
Nghost:        5357.93 ave        5771 max        3819 min
Histogram: 23 14 3 0 0 0 0 0 34 166
Neighs:       139713.0 ave      148806 max       84548 min
Histogram: 3 5 4 2 4 1 1 1 82 137

Total # of neighbors = 33531204
Ave neighs/atom = 33.199212
Ave special neighs/atom = 0.0000000
Neighbor list builds = 300000
Dangerous builds = 296999

write_data	data.lj
System init for write_data ...
WARNING: Not all mixed pair coeffs generated from mixing. Use write_data with 'pair ij' option to store all pair coeffs. (src/write_data.cpp:312)
Total wall time: 4:06:17
