LAMMPS (29 Oct 2020)
  using 1 OpenMP thread(s) per MPI task
# Simple rigid body system
# needed variables:

#variable	startTemp equal 0.5
#variable 	temp 	  equal 0.8

units		lj
atom_style	full
dimension 	3
boundary	p p f
pair_style	lj/cut/opt 2.5

variable 	sigma		equal 1.0
variable 	epsilon 	equal 1.0

region		box block 0 80 0 80 0 160
create_box 	3 box
Created orthogonal box = (0.0000000 0.0000000 0.0000000) to (80.000000 80.000000 160.00000)
  2 by 4 by 8 MPI processor grid



lattice 	sc 0.66
Lattice spacing in x,y,z = 1.1485556 1.1485556 1.1485556
region		fluid block EDGE EDGE EDGE EDGE 2 100 units box
create_atoms 	1 region fluid
Created 421400 atoms
  create_atoms CPU = 0.099 seconds

lattice 	sc 0.045
Lattice spacing in x,y,z = 2.8114422 2.8114422 2.8114422
region		gas block EDGE EDGE EDGE EDGE 101 158 units box
create_atoms    1 region gas
Created 17661 atoms
  create_atoms CPU = 0.030 seconds

group		solvent type 1
439061 atoms in group solvent

mass		1 1.0
mass		2 1.0
mass		3 1.0



neighbor 	0.4 bin

pair_coeff	1 1 1.0 1.0
pair_coeff	2 2 0.0 0.0
pair_coeff	3 3 0.0 0.0
pair_coeff	2 3 0.0 0.0
pair_coeff	1 2*3 0.0 0.0

pair_modify 	shift yes

delete_atoms	overlap 0.5 solvent solvent
System init for delete_atoms ...
Neighbor list info ...
  update every 1 steps, delay 10 steps, check yes
  max neighbors/atom: 2000, page size: 100000
  master list distance cutoff = 2.9
  ghost atom cutoff = 2.9
  binsize = 1.45, bins = 56 56 111
  2 neighbor lists, perpetual/occasional/extra = 1 1 0
  (1) command delete_atoms, occasional
      attributes: full, newton on
      pair build: full/bin
      stencil: full/bin/3d
      bin: standard
  (2) pair lj/cut/opt, perpetual
      attributes: half, newton on
      pair build: half/bin/newton
      stencil: half/bin/3d/newton
      bin: standard
WARNING: Ignoring 'compress yes' for molecular system (src/delete_atoms.cpp:125)
Deleted 0 atoms, new total = 439061

velocity 	solvent create ${startTemp} 563435 loop geom
velocity 	solvent create .55 563435 loop geom

balance 	1.05 shift z 10 1.05
Balancing ...
Neighbor list info ...
  update every 1 steps, delay 10 steps, check yes
  max neighbors/atom: 2000, page size: 100000
  master list distance cutoff = 2.9
  ghost atom cutoff = 2.9
  binsize = 1.45, bins = 56 56 111
  1 neighbor lists, perpetual/occasional/extra = 1 0 0
  (1) pair lj/cut/opt, perpetual
      attributes: half, newton on
      pair build: half/bin/newton
      stencil: half/bin/3d/newton
      bin: standard
 rebalancing time: 0.057 seconds
  iteration count = 5
  initial/final maximal load/proc = 11340.000 8190.0000
  initial/final imbalance factor  = 1.6529822 1.1938204
  x cuts: 0.0000000 0.5 1.0000000
  y cuts: 0.0000000 0.25 0.5 0.75 1.0000000
  z cuts: 0.0000000 0.08984375 0.17578125 0.25390625 0.3359375 0.4140625 0.50390625 0.58203125 1.0000000


####################### WALLS ###########################


variable       epsilonWall equal 2*${epsilon}
variable       epsilonWall equal 2*1

variable       cutoffTop   equal   0.7147*${sigma}
variable       cutoffTop   equal   0.7147*1

variable       cutoffLow   equal   3*${sigma}
variable       cutoffLow   equal   3*1


fix            topWall all wall/lj93 zhi EDGE                ${epsilonWall} ${sigma} ${cutoffTop} units box
fix            topWall all wall/lj93 zhi EDGE                2 ${sigma} ${cutoffTop} units box
fix            topWall all wall/lj93 zhi EDGE                2 1 ${cutoffTop} units box
fix            topWall all wall/lj93 zhi EDGE                2 1 0.7147 units box

fix            lowWall all wall/lj93 zlo EDGE                ${epsilonWall} ${sigma} ${cutoffLow} units box
fix            lowWall all wall/lj93 zlo EDGE                2 ${sigma} ${cutoffLow} units box
fix            lowWall all wall/lj93 zlo EDGE                2 1 ${cutoffLow} units box
fix            lowWall all wall/lj93 zlo EDGE                2 1 3 units box


###################### COMPUTES ##########################

compute        bin1 solvent chunk/atom bin/1d z upper 1.0


######################	FIXES ############################


fix 		peclet solvent ave/chunk 1000 1 1000 bin1 density/number norm 		 none ave one file density.profile

fix 		 temp solvent ave/chunk 1000 1 1000 bin1 temp norm 		 none ave one file temp.profile

fix 		2 solvent nve


## Thermostat


region		regthermo block EDGE EDGE EDGE EDGE 0 20 units box

group 		thermo dynamic solvent region regthermo every 1000
dynamic group thermo defined

fix 		3 thermo langevin ${startTemp} ${temp} 10 156453
fix 		3 thermo langevin .55 ${temp} 10 156453
fix 		3 thermo langevin .55 .55 10 156453



#### Load balancing


fix 		bal all balance 1000 1.05 shift z 10 1.05


############### Diagnostics and computes ###################
#compute 	com cube	  rigid/local	1 mol x y z
#compute 	quat cube	  rigid/local	1 mol quatw quati quatj quatk

thermo 		1000
thermo_style 	custom step temp epair evdwl etotal press pe ke atoms

dump		1 all custom 100000 dump.lammpstrj id mol type x y z
dump 		2 all image 10000 image.*.png type type
dump 		3 all movie 1000 movie.avi type type

#dump 		com cube local 1000 dump.*.xyz c_com[*]
#dump		quat cube      local 1000 dump.*.quat c_quat[*]


restart 	1000000 restart.dat
timestep 	0.005
timer 		full
New timer settings: style=full  mode=nosync  timeout=off

run		5000000
Per MPI rank memory allocation (min/avg/max) = 11.32 | 15.17 | 18.40 Mbytes
Step Temp E_pair E_vdwl TotEng Press PotEng KinEng Atoms 
       0         0.55   -1.2273921   -1.2273921  -0.40239393    3.8676771   -1.2273921   0.82499812   439061 
    1000    1.6790048   -3.4266517   -3.4266517  -0.90815029    1.7029866   -3.4266517    2.5185014   439061 
    2000    1.5591525   -3.4372234   -3.4372234      -1.0985   0.88241416   -3.4372234    2.3387234   439061 
    3000    1.3762415   -3.3433558   -3.3433558   -1.2789982   0.51904135   -3.3433558    2.0643576   439061 
    4000    1.2863388   -3.3514012   -3.3514012   -1.4218975   0.42963908   -3.3514012    1.9295038   439061 
    5000    1.2326057   -3.3675805   -3.3675805   -1.5186761   0.33067035   -3.3675805    1.8489043   439061 
    6000    1.1918846   -3.3619914   -3.3619914   -1.5741686   0.23779045   -3.3619914    1.7878228   439061 
    7000    1.1604809   -3.3558995   -3.3558995   -1.6151821   0.18134427   -3.3558995    1.7407174   439061 
    8000    1.1490931   -3.3724634   -3.3724634   -1.6488277    0.1953499   -3.3724634    1.7236357   439061 
    9000    1.1536421   -3.4099958   -3.4099958   -1.6795365   0.24595189   -3.4099958    1.7304593   439061 
   10000    1.1595529   -3.4474158   -3.4474158   -1.7080904   0.29467864   -3.4474158    1.7393254   439061 
   11000    1.1578231   -3.4696975   -3.4696975   -1.7329668   0.30581054   -3.4696975    1.7367307   439061 
   12000    1.1485586   -3.4784475   -3.4784475   -1.7556135   0.27945002   -3.4784475     1.722834   439061 
   13000    1.1360613   -3.4784389   -3.4784389   -1.7743507   0.27198217   -3.4784389    1.7040881   439061 
   14000    1.1265876   -3.4820514   -3.4820514   -1.7921739   0.26604657   -3.4820514    1.6898775   439061 
   15000    1.1162043   -3.4830849   -3.4830849   -1.8087823   0.26304617   -3.4830849    1.6743026   439061 
   16000    1.0990926   -3.4729108   -3.4729108   -1.8242758   0.23829172   -3.4729108    1.6486351   439061 
   17000    1.0783306   -3.4561417   -3.4561417   -1.8386495   0.20864451   -3.4561417    1.6174922   439061 
   18000    1.0589756    -3.438128    -3.438128   -1.8496682   0.18813551    -3.438128    1.5884598   439061 
   19000    1.0435119   -3.4259965   -3.4259965   -1.8607322   0.18190829   -3.4259965    1.5652643   439061 
   20000    1.0294961   -3.4179349   -3.4179349   -1.8736943   0.18700464   -3.4179349    1.5442406   439061 
   21000    1.0182062   -3.4177657   -3.4177657   -1.8904599   0.19095725   -3.4177657    1.5273058   439061 
   22000    1.0064067   -3.4185678   -3.4185678   -1.9089611   0.19290004   -3.4185678    1.5096066   439061 
   23000   0.99358634   -3.4192367   -3.4192367   -1.9288606   0.17318249   -3.4192367    1.4903761   439061 
   24000   0.98039164   -3.4184181   -3.4184181    -1.947834   0.16551964   -3.4184181    1.4705841   439061 
   25000   0.96960175   -3.4204474   -3.4204474   -1.9660481   0.15240529   -3.4204474    1.4543993   439061 
   26000   0.96105499   -3.4255726   -3.4255726   -1.9839934   0.14762398   -3.4255726    1.4415792   439061 
   27000   0.95539894    -3.433659    -3.433659   -2.0005639     0.138973    -3.433659    1.4330951   439061 
   28000   0.95031253   -3.4430519   -3.4430519   -2.0175864   0.13789148   -3.4430519    1.4254656   439061 
   29000   0.94540135   -3.4518621   -3.4518621   -2.0337633   0.13457408   -3.4518621    1.4180988   439061 
   30000    0.9394299   -3.4604479   -3.4604479   -2.0513063   0.12934637   -3.4604479    1.4091416   439061 
   31000   0.93351773   -3.4681965   -3.4681965   -2.0679231   0.12612434   -3.4681965    1.4002734   439061 
   32000   0.92953506   -3.4762375   -3.4762375   -2.0819381   0.12149079   -3.4762375    1.3942994   439061 
   33000   0.92859402   -3.4880986   -3.4880986   -2.0952107   0.11596294   -3.4880986    1.3928879   439061 
   34000   0.92464002   -3.4964909   -3.4964909    -2.109534   0.11315091   -3.4964909    1.3869569   439061 
   35000   0.92067144   -3.5040795   -3.5040795   -2.1230755   0.11100487   -3.5040795     1.381004   439061 
   36000   0.91779739   -3.5140771   -3.5140771   -2.1373842   0.10389172   -3.5140771    1.3766929   439061 
   37000   0.91377659   -3.5203741   -3.5203741   -2.1497123   0.10363536   -3.5203741    1.3706618   439061 
   38000   0.90976666   -3.5276758   -3.5276758   -2.1630289   0.10301842   -3.5276758    1.3646469   439061 
   39000   0.90628278   -3.5343945   -3.5343945   -2.1749734   0.10364394   -3.5343945    1.3594211   439061 
   40000   0.90167921   -3.5401486   -3.5401486   -2.1876329  0.095601653   -3.5401486    1.3525157   439061 
   41000   0.89928815     -3.54811     -3.54811   -2.1991808  0.090413393     -3.54811    1.3489292   439061 
   42000   0.89473076   -3.5533603   -3.5533603   -2.2112672   0.08670997   -3.5533603    1.3420931   439061 
   43000   0.89348658   -3.5622791   -3.5622791   -2.2220523  0.086120737   -3.5622791    1.3402268   439061 
   44000   0.89106591   -3.5698648   -3.5698648    -2.233269    0.0821718   -3.5698648    1.3365958   439061 
   45000   0.88821537   -3.5756429   -3.5756429   -2.2433229  0.085286319   -3.5756429      1.33232   439061 
   46000    0.8849091   -3.5804309   -3.5804309   -2.2530702  0.081558112   -3.5804309    1.3273606   439061 
   47000   0.88188537   -3.5859896   -3.5859896   -2.2631645   0.07888134   -3.5859896     1.322825   439061 
   48000   0.88106066    -3.594542    -3.594542    -2.272954  0.073490572    -3.594542     1.321588   439061 
   49000   0.87763412   -3.5995751   -3.5995751   -2.2831269   0.06996286   -3.5995751    1.3164482   439061 
   50000   0.87531325   -3.6063111   -3.6063111   -2.2933442  0.068278998   -3.6063111    1.3129669   439061 
   51000   0.87324643   -3.6133961   -3.6133961   -2.3035295   0.07088434   -3.6133961    1.3098667   439061 
   52000   0.87276696   -3.6222099   -3.6222099   -2.3130624  0.069896805   -3.6222099    1.3091475   439061 
   53000   0.87077715   -3.6285859   -3.6285859   -2.3224232    0.0731279   -3.6285859    1.3061627   439061 
   54000   0.87034988   -3.6360848   -3.6360848    -2.330563  0.069032692   -3.6360848    1.3055218   439061 
   55000   0.86886927   -3.6432714   -3.6432714   -2.3399705  0.067315485   -3.6432714    1.3033009   439061 
   56000   0.86618335   -3.6476438   -3.6476438   -2.3483718  0.066297291   -3.6476438    1.2992721   439061 
   57000   0.86573739     -3.65476     -3.65476   -2.3561569  0.061762797     -3.65476    1.2986031   439061 
   58000   0.86291555   -3.6596232   -3.6596232   -2.3652528  0.064697121   -3.6596232    1.2943704   439061 
   59000   0.86362088   -3.6682808   -3.6682808   -2.3728525  0.068222031   -3.6682808    1.2954284   439061 
   60000   0.86012824   -3.6722898   -3.6722898   -2.3821003   0.06240826   -3.6722898    1.2901894   439061 
   61000   0.86116157   -3.6836514   -3.6836514    -2.391912  0.061325736   -3.6836514    1.2917394   439061 
   62000    0.8615319   -3.6923925   -3.6923925   -2.4000976  0.063428564   -3.6923925    1.2922949   439061 
   63000   0.85897429   -3.6964838   -3.6964838   -2.4080253  0.060672825   -3.6964838    1.2884585   439061 
   64000    0.8577919    -3.702313    -3.702313   -2.4156281  0.061444465    -3.702313    1.2866849   439061 
   65000   0.85734861   -3.7085838   -3.7085838   -2.4225638  0.063730558   -3.7085838      1.28602   439061 
   66000    0.8561002   -3.7131678   -3.7131678   -2.4290204  0.060444674   -3.7131678    1.2841474   439061 
   67000   0.85420832   -3.7187746   -3.7187746   -2.4374651   0.06005478   -3.7187746    1.2813096   439061 
   68000   0.85234762   -3.7242872   -3.7242872   -2.4457687  0.060494948   -3.7242872    1.2785185   439061 
   69000   0.85228575     -3.73018     -3.73018   -2.4517543  0.064941781     -3.73018    1.2784257   439061 
   70000   0.85264444   -3.7388804   -3.7388804   -2.4599166  0.063108479   -3.7388804    1.2789637   439061 
   71000   0.85103563   -3.7445353   -3.7445353   -2.4679847  0.064764489   -3.7445353    1.2765505   439061 
   72000   0.84937163    -3.750154    -3.750154   -2.4760995  0.062400978    -3.750154    1.2740545   439061 
   73000   0.84899545   -3.7562281   -3.7562281   -2.4827379  0.063063616   -3.7562281    1.2734903   439061 
   74000   0.84831385   -3.7615748   -3.7615748    -2.489107  0.063459578   -3.7615748    1.2724679   439061 
   75000   0.84822565    -3.769631    -3.769631   -2.4972954  0.062970527    -3.769631    1.2723356   439061 
   76000   0.84541019   -3.7735172   -3.7735172   -2.5054048    0.0624468   -3.7735172    1.2681124   439061 
   77000   0.84638216   -3.7810586   -3.7810586   -2.5114882  0.063937341   -3.7810586    1.2695704   439061 
   78000   0.84477591    -3.785161    -3.785161       -2.518  0.062533845    -3.785161     1.267161   439061 
   79000    0.8455146   -3.7934949   -3.7934949   -2.5252259  0.064201698   -3.7934949     1.268269   439061 
   80000   0.84419783   -3.7981859   -3.7981859    -2.531892  0.066731676   -3.7981859    1.2662939   439061 
   81000   0.84325423   -3.8036425   -3.8036425    -2.538764  0.058664897   -3.8036425    1.2648785   439061 
   82000   0.84175875   -3.8083676   -3.8083676   -2.5457324  0.056867711   -3.8083676    1.2626352   439061 
   83000   0.84067946   -3.8129349   -3.8129349   -2.5519185  0.059299016   -3.8129349    1.2610163   439061 
   84000   0.84068695   -3.8189137   -3.8189137   -2.5578862  0.059007367   -3.8189137    1.2610275   439061 
   85000   0.83996293   -3.8248097   -3.8248097   -2.5648682  0.059543213   -3.8248097    1.2599415   439061 
   86000   0.83753763   -3.8287082   -3.8287082   -2.5724047  0.065451344   -3.8287082    1.2563036   439061 
   87000   0.83836747     -3.83654     -3.83654   -2.5789917  0.058582031     -3.83654    1.2575483   439061 
   88000   0.83613254   -3.8396179   -3.8396179   -2.5854219  0.064963732   -3.8396179     1.254196   439061 
   89000   0.83552241   -3.8445107   -3.8445107     -2.59123  0.064703024   -3.8445107    1.2532808   439061 
   90000   0.83510361   -3.8495688   -3.8495688   -2.5969162   0.05983574   -3.8495688    1.2526526   439061 
   91000   0.83487036   -3.8548977   -3.8548977    -2.602595  0.056658386   -3.8548977    1.2523027   439061 
   92000   0.83271711   -3.8579367   -3.8579367   -2.6088639  0.056804575   -3.8579367    1.2490728   439061 
   93000   0.83339733   -3.8648297   -3.8648297   -2.6147365  0.053544742   -3.8648297    1.2500931   439061 
   94000   0.83342005   -3.8709793   -3.8709793   -2.6208521  0.062588462   -3.8709793    1.2501272   439061 
   95000   0.83399679   -3.8781963   -3.8781963   -2.6272039  0.060309714   -3.8781963    1.2509923   439061 
   96000   0.83108104   -3.8794979   -3.8794979   -2.6328792   0.05805457   -3.8794979    1.2466187   439061 
   97000   0.82928194   -3.8835001   -3.8835001     -2.63958  0.057807152   -3.8835001    1.2439201   439061 
   98000    0.8297301   -3.8903779   -3.8903779   -2.6457856  0.058164942   -3.8903779    1.2445923   439061 
   99000   0.82809698    -3.892859    -3.892859   -2.6507164  0.063999073    -3.892859    1.2421426   439061 
  100000   0.82840612   -3.8992886   -3.8992886   -2.6566822  0.068541488   -3.8992886    1.2426063   439061 
  101000    0.8277104   -3.9051962   -3.9051962   -2.6636334  0.055568323   -3.9051962    1.2415628   439061 
  102000   0.82572193   -3.9083082   -3.9083082   -2.6697282   0.05125666   -3.9083082    1.2385801   439061 
  103000   0.82394274   -3.9126016   -3.9126016   -2.6766903  0.054770792   -3.9126016    1.2359113   439061 
  104000   0.82348252   -3.9172692   -3.9172692   -2.6820483  0.057587778   -3.9172692     1.235221   439061 
  105000   0.82478479   -3.9247158   -3.9247158   -2.6875414  0.065133389   -3.9247158    1.2371744   439061 
  106000   0.82333739   -3.9292311   -3.9292311   -2.6942278  0.065145574   -3.9292311    1.2350033   439061 
  107000   0.82197605   -3.9332135   -3.9332135   -2.7002523  0.058001242   -3.9332135    1.2329613   439061 
  108000   0.82195951   -3.9391224   -3.9391224   -2.7061859  0.055560323   -3.9391224    1.2329364   439061 
  109000   0.81981586    -3.941172    -3.941172    -2.711451  0.058974251    -3.941172     1.229721   439061 
  110000   0.81917868   -3.9443458   -3.9443458   -2.7155805  0.057451063   -3.9443458    1.2287652   439061 
  111000   0.81848244   -3.9477255   -3.9477255   -2.7200046   0.05766057   -3.9477255    1.2277209   439061 
  112000   0.81736055   -3.9522858   -3.9522858   -2.7262478  0.053717556   -3.9522858     1.226038   439061 
  113000   0.81666887   -3.9561327   -3.9561327   -2.7311322  0.057449159   -3.9561327    1.2250005   439061 
  114000   0.81802474   -3.9635835   -3.9635835   -2.7365491  0.059608903   -3.9635835    1.2270343   439061 
  115000   0.81674538   -3.9674152   -3.9674152   -2.7422999   0.05792498   -3.9674152    1.2251153   439061 
  116000   0.81744043   -3.9739281   -3.9739281   -2.7477702  0.057345864   -3.9739281    1.2261578   439061 
  117000   0.81572722   -3.9762312   -3.9762312   -2.7526432  0.063298841   -3.9762312     1.223588   439061 
  118000    0.8145993   -3.9800085   -3.9800085   -2.7581123  0.055939151   -3.9800085    1.2218962   439061 
  119000   0.81331845   -3.9829038   -3.9829038   -2.7629289  0.055661753   -3.9829038    1.2199749   439061 
  120000   0.81225478   -3.9871192   -3.9871192   -2.7687398  0.054418665   -3.9871192    1.2183794   439061 
  121000   0.81161895   -3.9916251   -3.9916251   -2.7741994  0.049896632   -3.9916251    1.2174256   439061 
  122000   0.81138791   -3.9947382   -3.9947382   -2.7776591  0.055685287   -3.9947382    1.2170791   439061 
  123000     0.810916   -3.9992794   -3.9992794   -2.7829081  0.055160693   -3.9992794    1.2163712   439061 
  124000   0.80927433   -4.0021104   -4.0021104   -2.7882017   0.05378609   -4.0021104    1.2139087   439061 
  125000   0.80934722   -4.0081683   -4.0081683   -2.7941503  0.061338967   -4.0081683    1.2140181   439061 
  126000    0.8093485   -4.0128752   -4.0128752   -2.7988552  0.057331814   -4.0128752      1.21402   439061 
  127000   0.80863215   -4.0178685   -4.0178685    -2.804923  0.052532177   -4.0178685    1.2129455   439061 
  128000   0.80877009   -4.0237812   -4.0237812   -2.8106288  0.054934093   -4.0237812    1.2131524   439061 
  129000   0.80761197   -4.0268872   -4.0268872    -2.815472  0.053901342   -4.0268872    1.2114152   439061 
  130000    0.8051178     -4.02924     -4.02924   -2.8215661  0.050348362     -4.02924    1.2076739   439061 
  131000   0.80384339   -4.0331819   -4.0331819   -2.8274195  0.051613995   -4.0331819    1.2057623   439061 
  132000   0.80424356   -4.0388355   -4.0388355   -2.8324729  0.055923486   -4.0388355    1.2063626   439061 
  133000   0.80317383   -4.0419729   -4.0419729   -2.8372148  0.056543005   -4.0419729     1.204758   439061 
  134000   0.80433047   -4.0488578   -4.0488578   -2.8423649  0.049264099   -4.0488578     1.206493   439061 
  135000   0.80207499   -4.0497322   -4.0497322   -2.8466225  0.056033233   -4.0497322    1.2031097   439061 
  136000   0.80114944   -4.0531547   -4.0531547   -2.8514332  0.056048107   -4.0531547    1.2017214   439061 
  137000   0.80271515   -4.0591204   -4.0591204   -2.8550504  0.054151724   -4.0591204      1.20407   439061 
  138000   0.80053476   -4.0615128   -4.0615128   -2.8607134  0.054138639   -4.0615128    1.2007994   439061 
  139000   0.80008172   -4.0646543   -4.0646543   -2.8645345  0.052850309   -4.0646543    1.2001199   439061 
  140000   0.79908934   -4.0673381   -4.0673381   -2.8687068   0.05109013   -4.0673381    1.1986313   439061 
  141000   0.79941372   -4.0729639   -4.0729639    -2.873846  0.049309781   -4.0729639    1.1991178   439061 
  142000   0.79995976   -4.0789675   -4.0789675   -2.8790306  0.055281158   -4.0789675    1.1999369   439061 
  143000   0.79871625   -4.0839687   -4.0839687   -2.8858971  0.050093811   -4.0839687    1.1980716   439061 
  144000   0.79640538   -4.0851331   -4.0851331   -2.8905277  0.054780113   -4.0851331    1.1946054   439061 
  145000   0.79628238   -4.0893051   -4.0893051   -2.8948842  0.055766552   -4.0893051    1.1944208   439061 
  146000   0.79591275   -4.0944785   -4.0944785   -2.9006121  0.051618073   -4.0944785    1.1938664   439061 
  147000   0.79526233   -4.0975472   -4.0975472   -2.9046565  0.052303484   -4.0975472    1.1928908   439061 
  148000   0.79403698   -4.0998769   -4.0998769   -2.9088241  0.050561239   -4.0998769    1.1910528   439061 
  149000   0.79464297   -4.1049633   -4.1049633   -2.9130016  0.044795211   -4.1049633    1.1919617   439061 
  150000   0.79208444   -4.1070568   -4.1070568   -2.9189328  0.046093094   -4.1070568     1.188124   439061 
  151000   0.79174612   -4.1107344   -4.1107344   -2.9231179  0.054064353   -4.1107344    1.1876165   439061 
  152000   0.79059671   -4.1134469   -4.1134469   -2.9275546  0.057800469   -4.1134469    1.1858924   439061 
  153000    0.7912024   -4.1189903   -4.1189903   -2.9321894  0.054441904   -4.1189903    1.1868009   439061 
  154000   0.78904829    -4.121183    -4.121183   -2.9376133  0.052635351    -4.121183    1.1835697   439061 
  155000   0.78851186    -4.125788    -4.125788   -2.9430229  0.052603981    -4.125788    1.1827651   439061 
  156000   0.78767535    -4.128352    -4.128352   -2.9468417  0.050568503    -4.128352    1.1815103   439061 
  157000    0.7875243   -4.1335135   -4.1335135   -2.9522297  0.051167475   -4.1335135    1.1812838   439061 
  158000   0.78743249   -4.1365324   -4.1365324   -2.9553864  0.053543521   -4.1365324     1.181146   439061 
  159000   0.78808778   -4.1421431   -4.1421431   -2.9600141  0.055131591   -4.1421431     1.182129   439061 
  160000   0.78770894   -4.1463308   -4.1463308   -2.9647701  0.053080084   -4.1463308    1.1815607   439061 
  161000   0.78615493   -4.1476308   -4.1476308   -2.9684011  0.051762479   -4.1476308    1.1792297   439061 
  162000    0.7877795   -4.1536335   -4.1536335   -2.9719669   0.04980443   -4.1536335    1.1816666   439061 
  163000   0.78598695   -4.1550325   -4.1550325   -2.9760548  0.053555057   -4.1550325    1.1789777   439061 
  164000   0.78575555   -4.1590322   -4.1590322   -2.9804016  0.050901083   -4.1590322    1.1786306   439061 
  165000   0.78356187   -4.1606867   -4.1606867   -2.9853466  0.048403746   -4.1606867    1.1753401   439061 
  166000   0.78290612   -4.1648711   -4.1648711   -2.9905146  0.047070386   -4.1648711    1.1743565   439061 
  167000    0.7816947   -4.1663897   -4.1663897   -2.9938504  0.046492693   -4.1663897    1.1725394   439061 
  168000   0.78136433   -4.1691882   -4.1691882   -2.9971444  0.047406931   -4.1691882    1.1720438   439061 
  169000   0.78168349   -4.1745612   -4.1745612   -3.0020386  0.045860294   -4.1745612    1.1725226   439061 
  170000   0.78063589   -4.1774082   -4.1774082   -3.0064571  0.045833643   -4.1774082    1.1709512   439061 
  171000   0.78165614   -4.1820597   -4.1820597   -3.0095781  0.047349586   -4.1820597    1.1724815   439061 
  172000   0.78059208   -4.1845502   -4.1845502   -3.0136647  0.051818672   -4.1845502    1.1708855   439061 
  173000   0.77938368    -4.186366    -4.186366   -3.0172932  0.057327216    -4.186366    1.1690729   439061 
  174000   0.77948792    -4.190912    -4.190912   -3.0216828  0.045491372    -4.190912    1.1692292   439061 
  175000     0.779069   -4.1953174   -4.1953174   -3.0267166  0.046900298   -4.1953174    1.1686008   439061 
  176000   0.77919587   -4.1991953   -4.1991953   -3.0304042  0.048165367   -4.1991953    1.1687911   439061 
  177000   0.77803142   -4.2008389   -4.2008389   -3.0337945  0.052884244   -4.2008389    1.1670445   439061 
  178000   0.77778934   -4.2047781   -4.2047781   -3.0380968  0.051175987   -4.2047781    1.1666814   439061 
  179000   0.77519665   -4.2056031   -4.2056031   -3.0428108  0.054279672   -4.2056031    1.1627923   439061 
  180000   0.77515433   -4.2100926   -4.2100926   -3.0473637  0.053349016   -4.2100926    1.1627288   439061 
  181000   0.77484603   -4.2136606   -4.2136606   -3.0513942  0.050321971   -4.2136606    1.1622664   439061 
  182000   0.77435949   -4.2165573   -4.2165573   -3.0550207  0.048197946   -4.2165573    1.1615366   439061 
  183000   0.77446073    -4.221809    -4.221809   -3.0601206  0.043333985    -4.221809    1.1616885   439061 
  184000   0.77228822    -4.223352    -4.223352   -3.0649223  0.045818318    -4.223352    1.1584297   439061 
  185000   0.77239027   -4.2279903   -4.2279903   -3.0694075  0.047134796   -4.2279903    1.1585828   439061 
  186000   0.77259464   -4.2317686   -4.2317686   -3.0728793  0.047900926   -4.2317686    1.1588893   439061 
  187000   0.77357879   -4.2365727   -4.2365727   -3.0762071  0.051307539   -4.2365727    1.1603655   439061 
  188000   0.77193991   -4.2386184   -4.2386184   -3.0807112  0.054095673   -4.2386184    1.1579072   439061 
  189000   0.77187227   -4.2422543   -4.2422543   -3.0844485  0.048214793   -4.2422543    1.1578058   439061 
  190000   0.76971791     -4.24284     -4.24284   -3.0882657  0.048089452     -4.24284    1.1545742   439061 
  191000   0.76992169   -4.2467613   -4.2467613   -3.0918814  0.041401085   -4.2467613    1.1548799   439061 
  192000   0.76948289   -4.2503087   -4.2503087    -3.096087   0.04541069   -4.2503087    1.1542217   439061 
  193000   0.76712074   -4.2509734   -4.2509734   -3.1002949  0.044079872   -4.2509734    1.1506785   439061 
  194000     0.768307   -4.2556852   -4.2556852   -3.1032273  0.046072363   -4.2556852    1.1524579   439061 
  195000   0.76987464   -4.2616357   -4.2616357   -3.1068264  0.053028815   -4.2616357    1.1548093   439061 
  196000   0.76777521    -4.262331    -4.262331   -3.1106708  0.052719245    -4.262331    1.1516602   439061 
  197000   0.76661049   -4.2651561   -4.2651561    -3.115243  0.055770408   -4.2651561    1.1499131   439061 
  198000   0.76720232   -4.2697856   -4.2697856   -3.1189847  0.050373973   -4.2697856    1.1508009   439061 
  199000   0.76543523   -4.2711285   -4.2711285   -3.1229782  0.049865829   -4.2711285    1.1481502   439061 
  200000   0.76400757   -4.2732784   -4.2732784   -3.1272696  0.042964615   -4.2732784    1.1460087   439061 
  201000   0.76345193   -4.2753929   -4.2753929   -3.1302176  0.043651337   -4.2753929    1.1451753   439061 
  202000    0.7635124   -4.2788899   -4.2788899   -3.1336239  0.046664083   -4.2788899     1.145266   439061 
  203000   0.76368909    -4.282042    -4.282042    -3.136511  0.042934506    -4.282042     1.145531   439061 
  204000   0.76374663   -4.2855818   -4.2855818   -3.1399644  0.044122255   -4.2855818    1.1456173   439061 
  205000    0.7614486   -4.2870391   -4.2870391   -3.1448688  0.044590197   -4.2870391    1.1421703   439061 
  206000   0.76242499   -4.2916473   -4.2916473   -3.1480125  0.050890043   -4.2916473    1.1436349   439061 
  207000   0.76134069   -4.2936014   -4.2936014   -3.1515929  0.045656145   -4.2936014    1.1420084   439061 
  208000   0.76295176   -4.3001679   -4.3001679   -3.1557428  0.042649101   -4.3001679     1.144425   439061 
  209000   0.75951443   -4.2996689   -4.2996689   -3.1603998  0.049901166   -4.2996689     1.139269   439061 
  210000   0.75900206   -4.3030859   -4.3030859   -3.1645854  0.043010958   -4.3030859    1.1385005   439061 
  211000   0.75934199   -4.3077599   -4.3077599   -3.1687495   0.04641323   -4.3077599    1.1390104   439061 
  212000   0.75942569   -4.3112621   -4.3112621   -3.1721261  0.046804921   -4.3112621    1.1391359   439061 
  213000   0.75876835   -4.3132933   -4.3132933   -3.1751433  0.047743045   -4.3132933    1.1381499   439061 
  214000   0.75764519   -4.3161644   -4.3161644   -3.1796992  0.051167942   -4.3161644    1.1364652   439061 
  215000   0.75766301     -4.31829     -4.31829    -3.181798  0.049178373     -4.31829    1.1364919   439061 
  216000   0.75797549   -4.3227145   -4.3227145   -3.1857539  0.047191839   -4.3227145    1.1369606   439061 
  217000   0.75710386   -4.3252947   -4.3252947   -3.1896415  0.047935235   -4.3252947    1.1356532   439061 
  218000   0.75584591   -4.3270698   -4.3270698   -3.1933035  0.046046196   -4.3270698    1.1337663   439061 
  219000   0.75552512   -4.3293866   -4.3293866   -3.1961015   0.04738857   -4.3293866    1.1332851   439061 
  220000   0.75544906   -4.3326841   -4.3326841   -3.1995131  0.046394106   -4.3326841     1.133171   439061 
  221000   0.75520727   -4.3351618   -4.3351618   -3.2023535  0.044936966   -4.3351618    1.1328083   439061 
  222000   0.75372871   -4.3369627   -4.3369627   -3.2063722  0.050533792   -4.3369627    1.1305905   439061 
  223000   0.75343837   -4.3410165   -4.3410165   -3.2108616  0.042965045   -4.3410165     1.130155   439061 
  224000   0.75421643   -4.3448141   -4.3448141   -3.2134921  0.042133477   -4.3448141    1.1313221   439061 
  225000   0.75481998   -4.3485921   -4.3485921   -3.2163647  0.039237436   -4.3485921    1.1322274   439061 
  226000   0.75316172    -4.349426    -4.349426    -3.219686  0.043764849    -4.349426      1.12974   439061 
  227000   0.75298329   -4.3527011   -4.3527011   -3.2232287  0.040969978   -4.3527011    1.1294724   439061 
  228000   0.75165748   -4.3532242   -4.3532242   -3.2257406  0.042254071   -4.3532242    1.1274837   439061 
  229000   0.75208145    -4.356731    -4.356731   -3.2286114  0.045199248    -4.356731    1.1281196   439061 
  230000   0.75297112   -4.3602301   -4.3602301    -3.230776   0.04426011   -4.3602301    1.1294541   439061 
  231000   0.75099539   -4.3616555   -4.3616555    -3.235165  0.043424355   -4.3616555    1.1264905   439061 
  232000   0.75045486   -4.3645694   -4.3645694   -3.2388897  0.042343828   -4.3645694    1.1256797   439061 
  233000    0.7478035   -4.3652693   -4.3652693   -3.2435666  0.042084817   -4.3652693    1.1217027   439061 
  234000   0.74831537   -4.3709483   -4.3709483   -3.2484778  0.040847353   -4.3709483    1.1224705   439061 
  235000   0.74831125   -4.3748808   -4.3748808   -3.2524164  0.040862917   -4.3748808    1.1224643   439061 
  236000   0.74775931   -4.3773959   -4.3773959   -3.2557595  0.041099329   -4.3773959    1.1216364   439061 
  237000   0.74715363   -4.3797966   -4.3797966   -3.2590687  0.042121207   -4.3797966    1.1207279   439061 
  238000   0.74711181   -4.3831939   -4.3831939   -3.2625287   0.04549565   -4.3831939    1.1206652   439061 
  239000   0.74781996   -4.3878532   -4.3878532   -3.2661258  0.048849404   -4.3878532    1.1217274   439061 
  240000   0.74751074   -4.3906589   -4.3906589   -3.2693953  0.041196654   -4.3906589    1.1212635   439061 
  241000   0.74487169   -4.3902419   -4.3902419   -3.2729369  0.049278571   -4.3902419     1.117305   439061 
  242000   0.74564815   -4.3943702   -4.3943702   -3.2759005  0.045536288   -4.3943702    1.1184697   439061 
  243000   0.74457862   -4.3965797   -4.3965797   -3.2797143  0.042244412   -4.3965797    1.1168654   439061 
  244000   0.74377408   -4.3994968   -4.3994968   -3.2838382   0.03743723   -4.3994968    1.1156586   439061 
  245000   0.74308945     -4.40148     -4.40148   -3.2868484  0.040029047     -4.40148    1.1146316   439061 
  246000   0.74223385   -4.4033684   -4.4033684   -3.2900202  0.040254046   -4.4033684    1.1133482   439061 
  247000   0.74251958   -4.4065349   -4.4065349   -3.2927581  0.045337887   -4.4065349    1.1137768   439061 
  248000    0.7410621   -4.4084717   -4.4084717    -3.296881  0.046254035   -4.4084717    1.1115906   439061 
  249000   0.74047866   -4.4115379   -4.4115379   -3.3008224   0.04118029   -4.4115379    1.1107155   439061 
  250000   0.74022697   -4.4154473   -4.4154473   -3.3051093  0.039451803   -4.4154473    1.1103379   439061 
  251000   0.74079942   -4.4196449   -4.4196449   -3.3084483  0.042981059   -4.4196449    1.1111966   439061 
  252000   0.74009045   -4.4211612   -4.4211612    -3.311028  0.042371714   -4.4211612    1.1101332   439061 
  253000   0.73968651   -4.4244476   -4.4244476   -3.3149203  0.042569624   -4.4244476    1.1095272   439061 
  254000    0.7392798   -4.4263523   -4.4263523   -3.3174351  0.046049962   -4.4263523    1.1089172   439061 
  255000   0.73912824   -4.4289958   -4.4289958    -3.320306  0.044676131   -4.4289958    1.1086898   439061 
  256000   0.73835861   -4.4313513   -4.4313513   -3.3238159  0.041677357   -4.4313513    1.1075354   439061 
  257000     0.737717   -4.4341054   -4.4341054   -3.3275324  0.044018579   -4.4341054     1.106573   439061 
  258000   0.73512791   -4.4353771   -4.4353771   -3.3326878  0.045686449   -4.4353771    1.1026893   439061 
  259000   0.73554969   -4.4390508   -4.4390508   -3.3357288  0.039455581   -4.4390508     1.103322   439061 
  260000   0.73390732   -4.4392279   -4.4392279   -3.3383694  0.043570602   -4.4392279    1.1008585   439061 
  261000   0.73476726   -4.4443737   -4.4443737   -3.3422253   0.04241548   -4.4443737    1.1021484   439061 
  262000     0.734118   -4.4463656   -4.4463656   -3.3451911   0.04201966   -4.4463656    1.1011745   439061 
  263000   0.73529148   -4.4519554   -4.4519554   -3.3490207  0.040903086   -4.4519554    1.1029347   439061 
  264000   0.73402896   -4.4526508   -4.4526508   -3.3516098  0.047587964   -4.4526508    1.1010409   439061 
  265000    0.7348897   -4.4574098   -4.4574098   -3.3550778  0.043342146   -4.4574098     1.102332   439061 
  266000   0.73397389   -4.4596211   -4.4596211   -3.3586627  0.040256031   -4.4596211    1.1009583   439061 
  267000   0.73330175   -4.4622779   -4.4622779   -3.3623278  0.042752876   -4.4622779    1.0999501   439061 
  268000   0.73305383   -4.4647733   -4.4647733    -3.365195  0.043490507   -4.4647733    1.0995782   439061 
  269000   0.73177143   -4.4665034   -4.4665034   -3.3688488  0.045606028   -4.4665034    1.0976546   439061 
  270000   0.73170897    -4.467896    -4.467896   -3.3703351  0.043375209    -4.467896     1.097561   439061 
  271000   0.73155325   -4.4703913   -4.4703913   -3.3730639   0.04009486   -4.4703913    1.0973274   439061 
  272000   0.73009799   -4.4721155   -4.4721155   -3.3769711   0.03797742   -4.4721155    1.0951445   439061 
  273000   0.73040766   -4.4748102   -4.4748102   -3.3792012  0.040959819   -4.4748102     1.095609   439061 
  274000   0.72868435   -4.4762532   -4.4762532   -3.3832292  0.035275899   -4.4762532     1.093024   439061 
  275000   0.72905263   -4.4799661   -4.4799661   -3.3863896  0.034422905   -4.4799661    1.0935765   439061 
  276000   0.72794797    -4.482375    -4.482375   -3.3904555  0.038503489    -4.482375    1.0919195   439061 
  277000   0.72848378   -4.4859609   -4.4859609   -3.3932377  0.040329914   -4.4859609    1.0927232   439061 
  278000   0.72701253   -4.4871322   -4.4871322   -3.3966159  0.041892295   -4.4871322    1.0905163   439061 
  279000   0.72759427   -4.4897172   -4.4897172   -3.3983283  0.048611894   -4.4897172    1.0913889   439061 
  280000   0.72785415   -4.4934518   -4.4934518    -3.401673  0.044776697   -4.4934518    1.0917787   439061 
  281000   0.72662653   -4.4950883   -4.4950883   -3.4051509  0.045206971   -4.4950883    1.0899373   439061 
  282000   0.72600779   -4.4972716   -4.4972716   -3.4082624  0.041505481   -4.4972716    1.0890092   439061 
  283000   0.72516358   -4.4986475   -4.4986475   -3.4109046  0.040299848   -4.4986475    1.0877429   439061 
  284000   0.72442394   -4.5000356   -4.5000356   -3.4134022  0.042399023   -4.5000356    1.0866334   439061 
  285000   0.72360407   -4.5020249   -4.5020249   -3.4166213   0.03645357   -4.5020249    1.0854036   439061 
  286000   0.72214107   -4.5024619   -4.5024619   -3.4192528  0.036467275   -4.5024619    1.0832091   439061 
  287000   0.72185518   -4.5047607   -4.5047607   -3.4219804   0.03888178   -4.5047607    1.0827803   439061 
  288000   0.72297325   -4.5096805   -4.5096805   -3.4252231  0.037121118   -4.5096805    1.0844574   439061 
  289000   0.72135963   -4.5099103   -4.5099103   -3.4278734  0.039402167   -4.5099103     1.082037   439061 
  290000   0.72088783   -4.5128612   -4.5128612   -3.4315319  0.041506686   -4.5128612    1.0813293   439061 
  291000   0.72079451   -4.5160958   -4.5160958   -3.4349065   0.03975969   -4.5160958    1.0811893   439061 
  292000   0.72100216   -4.5198822   -4.5198822   -3.4383814  0.037942801   -4.5198822    1.0815008   439061 
  293000   0.72042911   -4.5217304   -4.5217304   -3.4410892  0.043211406   -4.5217304    1.0806412   439061 
  294000   0.72152952   -4.5268486   -4.5268486   -3.4445568  0.036560141   -4.5268486    1.0822918   439061 
  295000   0.72086534   -4.5284664   -4.5284664   -3.4471709   0.04095425   -4.5284664    1.0812955   439061 
  296000   0.72108285   -4.5314675   -4.5314675   -3.4498457  0.040376565   -4.5314675    1.0816218   439061 
  297000   0.71916756   -4.5316004   -4.5316004   -3.4528515  0.040867008   -4.5316004    1.0787489   439061 
  298000   0.71880111   -4.5341238   -4.5341238   -3.4559246  0.036466745   -4.5341238    1.0781992   439061 
  299000   0.71704402   -4.5340233   -4.5340233   -3.4584597   0.03965684   -4.5340233    1.0755636   439061 
  300000   0.71656565   -4.5371114   -4.5371114   -3.4622654  0.035811174   -4.5371114     1.074846   439061 
  301000   0.71802833   -4.5408303   -4.5408303   -3.4637902  0.031081229   -4.5408303      1.07704   439061 
  302000   0.71635213   -4.5418299   -4.5418299   -3.4673042  0.034436505   -4.5418299    1.0745257   439061 
  303000   0.71498578    -4.543661    -4.543661   -3.4711847   0.03028218    -4.543661    1.0724762   439061 
  304000   0.71514657   -4.5464573   -4.5464573   -3.4737399  0.031847658   -4.5464573    1.0727174   439061 
  305000   0.71539948   -4.5496776   -4.5496776   -3.4765809     0.031916   -4.5496776    1.0730968   439061 
  306000   0.71565077   -4.5530471   -4.5530471   -3.4795734  0.037636636   -4.5530471    1.0734737   439061 
  307000   0.71494881   -4.5550318   -4.5550318    -3.482611  0.041325294   -4.5550318    1.0724208   439061 
  308000   0.71487243   -4.5573619   -4.5573619   -3.4850557  0.037841054   -4.5573619    1.0723062   439061 
  309000   0.71339234   -4.5584059   -4.5584059   -3.4883198  0.040219894   -4.5584059    1.0700861   439061 
  310000   0.71378937   -4.5622972   -4.5622972   -3.4916156  0.038166809   -4.5622972    1.0706816   439061 
  311000   0.71259127   -4.5636046   -4.5636046   -3.4947202  0.041957161   -4.5636046    1.0688845   439061 
  312000   0.71208792    -4.565657    -4.565657   -3.4975276  0.031910963    -4.565657    1.0681294   439061 
  313000   0.71106554   -4.5662969   -4.5662969    -3.499701  0.033001785   -4.5662969    1.0665959   439061 
  314000   0.70913471   -4.5672249   -4.5672249   -3.5035253  0.031976827   -4.5672249    1.0636996   439061 
  315000   0.71010032   -4.5703053   -4.5703053   -3.5051573  0.029189355   -4.5703053    1.0651481   439061 
  316000   0.70947446   -4.5727248   -4.5727248   -3.5085156  0.028339522   -4.5727248    1.0642093   439061 
  317000   0.70813164   -4.5740848   -4.5740848   -3.5118897  0.030784435   -4.5740848     1.062195   439061 
  318000   0.70819195   -4.5759772   -4.5759772   -3.5136917  0.036379119   -4.5759772    1.0622855   439061 
  319000   0.70927131   -4.5806972   -4.5806972   -3.5167927  0.035142845   -4.5806972    1.0639045   439061 
  320000   0.70843571   -4.5828558   -4.5828558   -3.5202047  0.036563324   -4.5828558    1.0626511   439061 
  321000   0.70831985   -4.5847953   -4.5847953    -3.522318  0.040906887   -4.5847953    1.0624774   439061 
  322000    0.7091331   -4.5892777   -4.5892777   -3.5255805  0.038416044   -4.5892777    1.0636972   439061 
  323000   0.70849537    -4.591579    -4.591579   -3.5288383  0.036005532    -4.591579    1.0627406   439061 
  324000   0.70720164   -4.5926911   -4.5926911   -3.5318911  0.037547239   -4.5926911       1.0608   439061 
  325000   0.70628011   -4.5944983   -4.5944983   -3.5350805  0.037009403   -4.5944983    1.0594178   439061 
  326000   0.70674837   -4.5965956   -4.5965956   -3.5364755  0.032495456   -4.5965956    1.0601201   439061 
  327000   0.70573573    -4.596343    -4.596343   -3.5377418  0.038150835    -4.596343    1.0586012   439061 
  328000   0.70584626   -4.6000327   -4.6000327   -3.5412657   0.03084255   -4.6000327     1.058767   439061 
  329000   0.70481336   -4.6015526   -4.6015526    -3.544335  0.028416098   -4.6015526    1.0572176   439061 
  330000   0.70424293   -4.6035158   -4.6035158   -3.5471538  0.026686592   -4.6035158     1.056362   439061 
  331000   0.70298345   -4.6044272   -4.6044272   -3.5499544  0.028311037   -4.6044272    1.0544728   439061 
  332000    0.7025371   -4.6080543   -4.6080543    -3.554251  0.028833004   -4.6080543    1.0538032   439061 
  333000   0.70294517   -4.6116451   -4.6116451   -3.5572297  0.029521618   -4.6116451    1.0544154   439061 
  334000   0.70233198   -4.6139357   -4.6139357   -3.5604401  0.030973495   -4.6139357    1.0534956   439061 
  335000   0.70322017   -4.6175484   -4.6175484   -3.5627206  0.034431037   -4.6175484    1.0548279   439061 
  336000   0.70288848   -4.6197784   -4.6197784   -3.5654481   0.03279982   -4.6197784    1.0543303   439061 
  337000   0.70236037   -4.6231987   -4.6231987   -3.5696606  0.035325474   -4.6231987    1.0535382   439061 
  338000   0.70056944   -4.6235713   -4.6235713   -3.5727196  0.039684505   -4.6235713    1.0508518   439061 
  339000   0.70056614   -4.6262219   -4.6262219   -3.5753751  0.033951012   -4.6262219    1.0508468   439061 
  340000    0.7002706   -4.6270882   -4.6270882   -3.5766847  0.031804673   -4.6270882    1.0504035   439061 
  341000   0.69906209   -4.6282259   -4.6282259   -3.5796352  0.030310014   -4.6282259    1.0485907   439061 
  342000   0.69916801   -4.6301127   -4.6301127   -3.5813631  0.027018315   -4.6301127    1.0487496   439061 
  343000   0.69844543   -4.6305932   -4.6305932   -3.5829275  0.026875378   -4.6305932    1.0476658   439061 
  344000   0.69769774   -4.6326499   -4.6326499   -3.5861057   0.02604183   -4.6326499    1.0465442   439061 
  345000   0.69728733    -4.634355    -4.634355   -3.5884264    0.0244524    -4.634355    1.0459286   439061 
  346000    0.6975645   -4.6369834   -4.6369834   -3.5906391  0.030503683   -4.6369834    1.0463444   439061 
  347000   0.69744139   -4.6394164   -4.6394164   -3.5932567  0.025116496   -4.6394164    1.0461597   439061 
  348000   0.69788052   -4.6414983   -4.6414983   -3.5946799  0.033941586   -4.6414983    1.0468184   439061 
  349000   0.69753474   -4.6438844   -4.6438844   -3.5975847  0.037462163   -4.6438844    1.0462997   439061 
  350000   0.69810816   -4.6472622   -4.6472622   -3.6001024   0.03402876   -4.6472622    1.0471599   439061 
  351000   0.69729848   -4.6498082   -4.6498082   -3.6038629   0.03142714   -4.6498082    1.0459453   439061 
  352000   0.69591938   -4.6500587   -4.6500587    -3.606182  0.034153959   -4.6500587    1.0438767   439061 
  353000   0.69454554   -4.6505968   -4.6505968   -3.6087809   0.03381793   -4.6505968    1.0418159   439061 
  354000   0.69435718   -4.6530078   -4.6530078   -3.6114744  0.029668687   -4.6530078    1.0415334   439061 
  355000    0.6958994   -4.6567867   -4.6567867     -3.61294  0.026956542   -4.6567867    1.0438467   439061 
  356000    0.6940975   -4.6566373   -4.6566373   -3.6154934  0.025199558   -4.6566373    1.0411439   439061 
  357000   0.69246835   -4.6572395   -4.6572395   -3.6185394  0.024263019   -4.6572395    1.0387002   439061 
  358000   0.69383676    -4.661834    -4.661834   -3.6210812  0.022266146    -4.661834    1.0407528   439061 
  359000   0.69261787   -4.6635277   -4.6635277   -3.6246033  0.025842705   -4.6635277    1.0389244   439061 
  360000   0.69183519   -4.6649862   -4.6649862   -3.6272358   0.03042678   -4.6649862    1.0377504   439061 
  361000   0.69246398   -4.6679352   -4.6679352   -3.6292416  0.029884221   -4.6679352    1.0386936   439061 
  362000   0.69238598   -4.6700009   -4.6700009   -3.6314243  0.033533717   -4.6700009    1.0385766   439061 
  363000   0.69204305   -4.6731749   -4.6731749   -3.6351126  0.031590639   -4.6731749    1.0380622   439061 
  364000   0.69225794   -4.6761983   -4.6761983   -3.6378138  0.029413664   -4.6761983    1.0383845   439061 
  365000   0.69242111   -4.6791873   -4.6791873    -3.640558   0.02822863   -4.6791873    1.0386293   439061 
  366000   0.69059483   -4.6783171   -4.6783171   -3.6424272  0.031367932   -4.6783171    1.0358899   439061 
  367000    0.6918121   -4.6823744   -4.6823744   -3.6446586  0.024682289   -4.6823744    1.0377158   439061 
  368000   0.68986676   -4.6823019   -4.6823019   -3.6475041  0.025509984   -4.6823019    1.0347978   439061 
  369000    0.6890453   -4.6838271   -4.6838271   -3.6502615  0.023238644   -4.6838271    1.0335656   439061 
  370000   0.68844653   -4.6844372   -4.6844372   -3.6517698  0.023903447   -4.6844372    1.0326675   439061 
  371000   0.68958944   -4.6886765   -4.6886765   -3.6542947  0.023227413   -4.6886765    1.0343818   439061 
  372000   0.68832431    -4.689122    -4.689122   -3.6566379  0.022678847    -4.689122    1.0324841   439061 
  373000   0.68803392   -4.6909468   -4.6909468   -3.6588982  0.028811377   -4.6909468    1.0320485   439061 
  374000    0.6878298   -4.6935307   -4.6935307   -3.6617883  0.028172948   -4.6935307    1.0317423   439061 
  375000   0.68715429   -4.6952446   -4.6952446   -3.6645155  0.029009774   -4.6952446    1.0307291   439061 
  376000   0.68692012   -4.6986384   -4.6986384   -3.6682606  0.025762365   -4.6986384    1.0303778   439061 
  377000   0.68614995   -4.6999713   -4.6999713   -3.6707488  0.027696766   -4.6999713    1.0292226   439061 
  378000   0.68574896   -4.7024509   -4.7024509   -3.6738298  0.025156873   -4.7024509    1.0286211   439061 
  379000    0.6859232   -4.7051776   -4.7051776   -3.6762951   0.02712918   -4.7051776    1.0288825   439061 
  380000    0.6862969   -4.7083916   -4.7083916   -3.6789486   0.02653812   -4.7083916     1.029443   439061 
  381000   0.68509613   -4.7084026   -4.7084026   -3.6807607  0.029373479   -4.7084026    1.0276419   439061 
  382000   0.68510131   -4.7128646   -4.7128646    -3.685215  0.021889089   -4.7128646    1.0276496   439061 
  383000   0.68472506   -4.7138197   -4.7138197   -3.6867345  0.023455543   -4.7138197    1.0270852   439061 
  384000   0.68680393   -4.7182586   -4.7182586   -3.6880551   0.02638865   -4.7182586    1.0302036   439061 
  385000   0.68491807   -4.7180432   -4.7180432   -3.6906685  0.027026027   -4.7180432    1.0273748   439061 
  386000   0.68492758   -4.7196186   -4.7196186   -3.6922296   0.02899883   -4.7196186     1.027389   439061 
  387000   0.68217075   -4.7189539   -4.7189539   -3.6957001  0.029641621   -4.7189539    1.0232538   439061 
  388000   0.68334271      -4.7235      -4.7235   -3.6984883  0.024337508      -4.7235    1.0250117   439061 
  389000   0.68328949   -4.7246852   -4.7246852   -3.6997533  0.025269884   -4.7246852    1.0249319   439061 
  390000   0.68276507   -4.7267427   -4.7267427   -3.7025975  0.020661124   -4.7267427    1.0241453   439061 
  391000   0.68326367   -4.7283037   -4.7283037   -3.7034106  0.024683308   -4.7283037    1.0248932   439061 
  392000   0.68216886   -4.7286728   -4.7286728   -3.7054218  0.022651883   -4.7286728     1.023251   439061 
  393000   0.68181397   -4.7302132   -4.7302132   -3.7074946  0.024358356   -4.7302132    1.0227186   439061 
  394000    0.6821969   -4.7334208   -4.7334208   -3.7101278  0.022332272   -4.7334208     1.023293   439061 
  395000   0.68006675   -4.7322802   -4.7322802   -3.7121824  0.027983448   -4.7322802    1.0200978   439061 
  396000   0.68043421   -4.7349162   -4.7349162   -3.7142672  0.023870947   -4.7349162     1.020649   439061 
  397000   0.68027452   -4.7376244   -4.7376244   -3.7172149  0.024051326   -4.7376244    1.0204095   439061 
  398000     0.680404   -4.7397414   -4.7397414   -3.7191377  0.027782634   -4.7397414    1.0206037   439061 
  399000   0.67908507   -4.7399394   -4.7399394   -3.7213141  0.030783171   -4.7399394    1.0186253   439061 
  400000   0.67924153   -4.7439383   -4.7439383   -3.7250784  0.023971348   -4.7439383      1.01886   439061 
  401000   0.67971338   -4.7475279   -4.7475279   -3.7279602  0.021390704   -4.7475279    1.0195677   439061 
  402000   0.67927202   -4.7477026   -4.7477026   -3.7287969  0.026653741   -4.7477026    1.0189057   439061 
  403000    0.6779142   -4.7489254   -4.7489254   -3.7320564  0.025331854   -4.7489254     1.016869   439061 
  404000   0.67848264   -4.7520714   -4.7520714   -3.7343497  0.023390243   -4.7520714    1.0177216   439061 
  405000   0.67718135   -4.7526959   -4.7526959   -3.7369261  0.024161929   -4.7526959    1.0157697   439061 
  406000   0.67756077   -4.7553672   -4.7553672   -3.7390284  0.022713785   -4.7553672    1.0163388   439061 
  407000   0.67691477     -4.75726     -4.75726   -3.7418902  0.022997886     -4.75726    1.0153698   439061 
  408000   0.67627734   -4.7581697   -4.7581697    -3.743756  0.023641682   -4.7581697    1.0144137   439061 
  409000   0.67534213    -4.759658    -4.759658   -3.7466471  0.020196347    -4.759658    1.0130109   439061 
  410000   0.67591339   -4.7616609   -4.7616609   -3.7477931   0.02172882   -4.7616609    1.0138678   439061 
  411000   0.67619689   -4.7645816   -4.7645816   -3.7502885  0.019590451   -4.7645816     1.014293   439061 
  412000   0.67560565   -4.7657674   -4.7657674   -3.7523612  0.018585793   -4.7657674    1.0134062   439061 
  413000   0.67458256   -4.7664207   -4.7664207   -3.7545491  0.024746757   -4.7664207    1.0118715   439061 
  414000   0.67550123   -4.7700875   -4.7700875    -3.756838   0.02000954   -4.7700875    1.0132495   439061 
  415000   0.67613244   -4.7721599   -4.7721599   -3.7579635  0.022653358   -4.7721599    1.0141964   439061 
  416000   0.67532299   -4.7728447   -4.7728447   -3.7598625  0.024596495   -4.7728447    1.0129822   439061 
  417000   0.67438852   -4.7744897   -4.7744897   -3.7629093  0.022261958   -4.7744897    1.0115805   439061 
  418000   0.67351734   -4.7761832   -4.7761832   -3.7659095  0.020831138   -4.7761832    1.0102737   439061 
  419000   0.67296849   -4.7774041   -4.7774041   -3.7679537   0.02138559   -4.7774041    1.0094504   439061 
  420000   0.67231485   -4.7784465   -4.7784465   -3.7699765  0.017437762   -4.7784465      1.00847   439061 
  421000   0.67222115   -4.7805497   -4.7805497   -3.7722202  0.019559856   -4.7805497    1.0083294   439061 
  422000   0.67162493   -4.7809582   -4.7809582   -3.7735231  0.021916386   -4.7809582    1.0074351   439061 
  423000    0.6725548   -4.7846681   -4.7846681   -3.7758382  0.016793165   -4.7846681    1.0088299   439061 
  424000   0.67298339   -4.7873724   -4.7873724   -3.7778996  0.018235471   -4.7873724    1.0094728   439061 
  425000   0.67196149   -4.7886175   -4.7886175   -3.7806776  0.018707335   -4.7886175    1.0079399   439061 
  426000   0.67148978   -4.7903643   -4.7903643   -3.7831319  0.022366795   -4.7903643    1.0072324   439061 
  427000   0.67076539   -4.7914727   -4.7914727   -3.7853269  0.020983432   -4.7914727    1.0061458   439061 
  428000   0.67110563   -4.7957351   -4.7957351   -3.7890789  0.016533536   -4.7957351    1.0066561   439061 
  429000    0.6709488   -4.7974162   -4.7974162   -3.7909953  0.018371643   -4.7974162    1.0064209   439061 
  430000   0.66993229   -4.7985036   -4.7985036   -3.7936074  0.018928173   -4.7985036    1.0048961   439061 
  431000   0.66913411   -4.7993297   -4.7993297   -3.7956308  0.021145054   -4.7993297    1.0036989   439061 
  432000   0.66995915   -4.8025005   -4.8025005    -3.797564   0.02182824   -4.8025005    1.0049364   439061 
  433000   0.67083498   -4.8051095   -4.8051095   -3.7988594  0.024253837   -4.8051095    1.0062502   439061 
  434000   0.67024576   -4.8057369   -4.8057369   -3.8003706  0.026044396   -4.8057369    1.0053663   439061 
  435000   0.66897457   -4.8067106   -4.8067106    -3.803251  0.020801503   -4.8067106    1.0034596   439061 
  436000   0.66775528   -4.8076623   -4.8076623   -3.8060317  0.021507199   -4.8076623    1.0016306   439061 
  437000   0.66845189    -4.810251    -4.810251   -3.8075754  0.014481845    -4.810251    1.0026755   439061 
  438000   0.66679725   -4.8110305   -4.8110305   -3.8108369  0.020531381   -4.8110305    1.0001936   439061 
  439000   0.66761835    -4.813806    -4.813806   -3.8123807  0.016523989    -4.813806    1.0014252   439061 
  440000   0.66702334   -4.8155223   -4.8155223   -3.8149896  0.018848812   -4.8155223    1.0005327   439061 
  441000   0.66729354    -4.817757    -4.817757    -3.816819  0.019767554    -4.817757     1.000938   439061 
  442000   0.66696989   -4.8183467   -4.8183467   -3.8178941  0.024586093   -4.8183467    1.0004526   439061 
  443000   0.66699221   -4.8208548   -4.8208548   -3.8203687  0.023229541   -4.8208548     1.000486   439061 
  444000   0.66642111   -4.8219399   -4.8219399   -3.8223105  0.019153767   -4.8219399   0.99962939   439061 
  445000    0.6652096   -4.8226856   -4.8226856   -3.8248735  0.017998549   -4.8226856   0.99781212   439061 
  446000   0.66644544    -4.826124    -4.826124   -3.8264581  0.010796269    -4.826124   0.99966589   439061 
  447000   0.66503271   -4.8268244   -4.8268244   -3.8292776  0.016881556   -4.8268244   0.99754679   439061 
  448000   0.66428493   -4.8283136   -4.8283136   -3.8318885  0.016765071   -4.8283136   0.99642513   439061 
  449000   0.66473179   -4.8315844   -4.8315844    -3.834489  0.014626941   -4.8315844   0.99709541   439061 
  450000   0.66514659   -4.8338617   -4.8338617    -3.836144  0.017991377   -4.8338617   0.99771761   439061 
  451000   0.66415937   -4.8350894   -4.8350894   -3.8388526  0.020684093   -4.8350894   0.99623679   439061 
  452000   0.66537137   -4.8389567   -4.8389567   -3.8409019  0.021456107   -4.8389567   0.99805478   439061 
  453000   0.66457932   -4.8398553   -4.8398553   -3.8429885  0.025748403   -4.8398553   0.99686671   439061 
  454000   0.66451583   -4.8424958   -4.8424958   -3.8457243  0.021389929   -4.8424958   0.99677148   439061 
  455000   0.66277929   -4.8423721   -4.8423721   -3.8482054  0.022051938   -4.8423721   0.99416667   439061 
  456000   0.66165452   -4.8426268   -4.8426268   -3.8501473  0.022338974   -4.8426268   0.99247951   439061 
  457000   0.66306083   -4.8452445   -4.8452445   -3.8506555  0.018787196   -4.8452445   0.99458898   439061 
  458000   0.66265561   -4.8455892   -4.8455892   -3.8516081  0.016100477   -4.8455892   0.99398115   439061 
  459000    0.6611791   -4.8445503   -4.8445503   -3.8527839  0.022739692   -4.8445503   0.99176639   439061 
  460000   0.66164465   -4.8484483   -4.8484483   -3.8559836  0.012829253   -4.8484483   0.99246471   439061 
  461000   0.66182004   -4.8491994   -4.8491994   -3.8564716  0.011154673   -4.8491994    0.9927278   439061 
  462000    0.6614201   -4.8511993   -4.8511993   -3.8590714  0.011335825   -4.8511993   0.99212789   439061 
  463000   0.66145744   -4.8527211   -4.8527211   -3.8605372  0.013473003   -4.8527211   0.99218391   439061 
  464000   0.66100321   -4.8529363   -4.8529363   -3.8614337  0.014763313   -4.8529363   0.99150256   439061 
  465000   0.66189241   -4.8574992   -4.8574992   -3.8646628  0.019338265   -4.8574992   0.99283635   439061 
  466000   0.66102047   -4.8583139   -4.8583139   -3.8667855   0.01852726   -4.8583139   0.99152845   439061 
  467000   0.66051164    -4.859897    -4.859897   -3.8691318   0.01941808    -4.859897    0.9907652   439061 
  468000   0.66010222   -4.8615539   -4.8615539   -3.8714029  0.014664335   -4.8615539   0.99015108   439061 
  469000   0.65915683   -4.8627703   -4.8627703   -3.8740373  0.017327739   -4.8627703     0.988733   439061 
  470000   0.65994234   -4.8660379   -4.8660379   -3.8761266  0.016050923   -4.8660379   0.98991125   439061 
  471000   0.65919445   -4.8673593   -4.8673593   -3.8785699  0.013158374   -4.8673593   0.98878942   439061 
  472000   0.65792646   -4.8683741   -4.8683741   -3.8814866  0.014800113   -4.8683741   0.98688745   439061 
  473000   0.65921069   -4.8718425   -4.8718425   -3.8830287  0.010505198   -4.8718425   0.98881378   439061 
  474000   0.65814297    -4.871711    -4.871711   -3.8844988  0.017352087    -4.871711    0.9872122   439061 
  475000   0.65823804   -4.8740393   -4.8740393   -3.8866845  0.017449368   -4.8740393    0.9873548   439061 
  476000   0.65826682   -4.8766705   -4.8766705   -3.8892725  0.015218895   -4.8766705   0.98739797   439061 
  477000   0.65656429   -4.8768044   -4.8768044   -3.8919602  0.014709265   -4.8768044   0.98484419   439061 
  478000   0.65747264   -4.8793837   -4.8793837    -3.893177  0.013836208   -4.8793837   0.98620671   439061 
  479000   0.65730694   -4.8807311   -4.8807311    -3.894773  0.019363062   -4.8807311   0.98595816   439061 
  480000   0.65703636   -4.8816668   -4.8816668   -3.8961145  0.016532569   -4.8816668    0.9855523   439061 
  481000   0.65631692   -4.8821853   -4.8821853   -3.8977122  0.017917021   -4.8821853   0.98447314   439061 
  482000   0.65645049   -4.8855242   -4.8855242   -3.9008507  0.012873549   -4.8855242    0.9846735   439061 
  483000   0.65601688   -4.8871273   -4.8871273   -3.9031043  0.011933628   -4.8871273   0.98402308   439061 
  484000    0.6554552   -4.8879956   -4.8879956    -3.904815  0.016254947   -4.8879956   0.98318056   439061 
  485000   0.65540246   -4.8910393   -4.8910393   -3.9079378   0.01483264   -4.8910393   0.98310145   439061 
  486000   0.65389317   -4.8905653   -4.8905653   -3.9097278  0.017147948   -4.8905653   0.98083753   439061 
  487000   0.65438768   -4.8930029   -4.8930029   -3.9114236  0.019108824   -4.8930029   0.98157929   439061 
  488000   0.65517656   -4.8965634   -4.8965634   -3.9138008  0.014292094   -4.8965634    0.9827626   439061 
  489000   0.65516981   -4.8973136   -4.8973136   -3.9145611  0.015569975   -4.8973136   0.98275248   439061 
  490000   0.65578107   -4.9006519   -4.9006519   -3.9169826  0.010384583   -4.9006519   0.98366937   439061 
  491000   0.65410031   -4.8993135   -4.8993135   -3.9181652  0.015472923   -4.8993135   0.98114823   439061 
  492000   0.65559858    -4.903417    -4.903417   -3.9200214  0.011548052    -4.903417   0.98339563   439061 
  493000   0.65388536   -4.9023614   -4.9023614   -3.9215356  0.016680978   -4.9023614    0.9808258   439061 
  494000   0.65360597   -4.9042045   -4.9042045   -3.9237978   0.01402057   -4.9042045   0.98040671   439061 
  495000   0.65164711    -4.904098    -4.904098   -3.9266295  0.012746323    -4.904098   0.97746844   439061 
  496000   0.65196564   -4.9060384   -4.9060384   -3.9280922 0.0060765764   -4.9060384   0.97794623   439061 
  497000   0.65149306   -4.9078964   -4.9078964   -3.9306591  0.010785113   -4.9078964   0.97723737   439061 
  498000   0.65181596   -4.9106246   -4.9106246   -3.9329029  0.011125981   -4.9106246   0.97772172   439061 
  499000   0.65084924   -4.9118451   -4.9118451   -3.9355734  0.010992436   -4.9118451   0.97627163   439061 
  500000   0.65238432   -4.9157779   -4.9157779   -3.9372036  0.010979446   -4.9157779   0.97857425   439061 
  501000   0.65276036   -4.9189542   -4.9189542   -3.9398159  0.017052091   -4.9189542   0.97913832   439061 
  502000   0.65223523     -4.91989     -4.91989   -3.9415394  0.018087106     -4.91989   0.97835062   439061 
  503000   0.65123271   -4.9199538   -4.9199538    -3.943107  0.018515055   -4.9199538   0.97684685   439061 
  504000   0.65059392   -4.9213489   -4.9213489   -3.9454603  0.017225123   -4.9213489   0.97588865   439061 
  505000   0.65112017   -4.9235743   -4.9235743   -3.9468963  0.015337269   -4.9235743   0.97667803   439061 
  506000   0.65109299   -4.9247135   -4.9247135   -3.9480763  0.013635303   -4.9247135   0.97663726   439061 
  507000   0.65010816   -4.9255264   -4.9255264   -3.9503664 0.0090717596   -4.9255264   0.97516002   439061 
  508000   0.64904779   -4.9259538   -4.9259538   -3.9523843  0.010457738   -4.9259538   0.97356947   439061 
  509000    0.6495788   -4.9277761   -4.9277761   -3.9534101 0.0085962209   -4.9277761   0.97436598   439061 
  510000   0.64912347   -4.9288238   -4.9288238   -3.9551408 0.0078887876   -4.9288238   0.97368299   439061 
  511000   0.64863569   -4.9309103   -4.9309103    -3.957959 0.0090191602   -4.9309103   0.97295132   439061 
  512000   0.64822602   -4.9328669   -4.9328669   -3.9605301  0.010605453   -4.9328669   0.97233682   439061 
  513000   0.64811944    -4.933757    -4.933757     -3.96158  0.012439511    -4.933757   0.97217694   439061 
  514000   0.64829105   -4.9360319   -4.9360319   -3.9635976  0.012353435   -4.9360319   0.97243435   439061 
  515000   0.64894063   -4.9384037   -4.9384037    -3.964995  0.016331779   -4.9384037   0.97340872   439061 
  516000   0.64945784   -4.9412475   -4.9412475   -3.9670629  0.013548728   -4.9412475   0.97418454   439061 
  517000   0.64751221   -4.9404931   -4.9404931    -3.969227  0.014368709   -4.9404931   0.97126611   439061 
  518000   0.64658347   -4.9413493   -4.9413493   -3.9714764  0.011281953   -4.9413493     0.969873   439061 
  519000   0.64706959   -4.9442179   -4.9442179   -3.9736157 0.0096613932   -4.9442179   0.97060218   439061 
  520000   0.64619874   -4.9445765   -4.9445765   -3.9752806  0.010200286   -4.9445765   0.96929591   439061 
  521000   0.64562345   -4.9460678   -4.9460678   -3.9776349  0.013057004   -4.9460678   0.96843297   439061 
  522000   0.64633884     -4.94832     -4.94832    -3.978814 0.0066768847     -4.94832   0.96950605   439061 
  523000   0.64604492    -4.950278    -4.950278   -3.9812129  0.010152045    -4.950278   0.96906517   439061 
  524000   0.64531317   -4.9521788   -4.9521788   -3.9842113  0.013581967   -4.9521788   0.96796755   439061 
  525000   0.64506223   -4.9539251   -4.9539251    -3.986334  0.010838671   -4.9539251   0.96759114   439061 
  526000   0.64485604   -4.9547862   -4.9547862   -3.9875044  0.019159189   -4.9547862   0.96728185   439061 
  527000   0.64457553   -4.9571833   -4.9571833   -3.9903222  0.014613726   -4.9571833   0.96686109   439061 
  528000   0.64548989   -4.9598584   -4.9598584   -3.9916258  0.013388339   -4.9598584   0.96823263   439061 
  529000   0.64505599   -4.9612021   -4.9612021   -3.9936203  0.018305317   -4.9612021   0.96758178   439061 
  530000   0.64422794   -4.9616303   -4.9616303   -3.9952906   0.01213075   -4.9616303   0.96633972   439061 
  531000   0.64349838   -4.9625709   -4.9625709   -3.9973255  0.012616152   -4.9625709   0.96524537   439061 
  532000   0.64335664   -4.9631008   -4.9631008    -3.998068  0.011498408   -4.9631008   0.96503275   439061 
  533000   0.64416366   -4.9661389   -4.9661389   -3.9998956 0.0083711047   -4.9661389    0.9662433   439061 
  534000   0.64305241   -4.9653051   -4.9653051   -4.0007286 0.0086969288   -4.9653051   0.96457642   439061 
  535000   0.64302697   -4.9668123   -4.9668123   -4.0022741  0.011098728   -4.9668123   0.96453826   439061 
  536000   0.64225347   -4.9678418   -4.9678418   -4.0044638  0.010840256   -4.9678418   0.96337801   439061 
  537000   0.64316913   -4.9714942   -4.9714942   -4.0067427 0.0065941832   -4.9714942   0.96475149   439061 
  538000   0.64184637   -4.9716095   -4.9716095   -4.0088422 0.0086987015   -4.9716095   0.96276736   439061 
  539000   0.64198284   -4.9726393   -4.9726393   -4.0096672  0.017974321   -4.9726393   0.96297206   439061 
  540000   0.64236892   -4.9754416   -4.9754416   -4.0118905  0.013375802   -4.9754416   0.96355119   439061 
  541000   0.64138562   -4.9754727   -4.9754727   -4.0133965  0.016478556   -4.9754727   0.96207624   439061 
  542000   0.64202805   -4.9775482   -4.9775482   -4.0145083  0.016146256   -4.9775482   0.96303987   439061 
  543000   0.64110651   -4.9779055   -4.9779055    -4.016248  0.015391873   -4.9779055   0.96165757   439061 
  544000   0.64134243   -4.9813127   -4.9813127   -4.0193012 0.0059689019   -4.9813127   0.96201146   439061 
  545000    0.6399829   -4.9800584   -4.9800584   -4.0200862  0.005654633   -4.9800584   0.95997217   439061 
  546000   0.63953116   -4.9812772   -4.9812772   -4.0219826 0.0042606641   -4.9812772   0.95929456   439061 
  547000   0.63999146   -4.9833992   -4.9833992   -4.0234142 0.0030989825   -4.9833992     0.959985   439061 
  548000   0.63890388   -4.9837782   -4.9837782   -4.0254245 0.0064842407   -4.9837782   0.95835364   439061 
  549000   0.64018326   -4.9871081   -4.9871081   -4.0268354 0.0063121594   -4.9871081   0.96027271   439061 
  550000   0.64025055   -4.9887604   -4.9887604   -4.0283868  0.010534273   -4.9887604   0.96037364   439061 
  551000   0.64050733   -4.9906762   -4.9906762   -4.0299173  0.012115923   -4.9906762   0.96075881   439061 
  552000   0.63984065   -4.9913499   -4.9913499   -4.0315911   0.01774949   -4.9913499   0.95975878   439061 
  553000   0.63993334   -4.9937727   -4.9937727   -4.0338749  0.015812927   -4.9937727   0.95989783   439061 
  554000   0.63941709   -4.9944305   -4.9944305   -4.0353071  0.011513962   -4.9944305   0.95912344   439061 
  555000    0.6388948   -4.9965576   -4.9965576   -4.0382175 0.0092007014   -4.9965576   0.95834002   439061 
  556000   0.63698441   -4.9956627   -4.9956627   -4.0401883 0.0092047885   -4.9956627   0.95547444   439061 
  557000   0.63690123   -4.9971337   -4.9971337   -4.0417841 0.0053437728   -4.9971337   0.95534967   439061 
  558000   0.63649594   -4.9977979   -4.9977979   -4.0430562 0.0066399892   -4.9977979   0.95474174   439061 
  559000   0.63694303   -4.9994633   -4.9994633   -4.0440509 0.0080922777   -4.9994633   0.95541237   439061 
  560000   0.63738163   -5.0020174   -5.0020174   -4.0459471 0.0079770997   -5.0020174   0.95607027   439061 
  561000   0.63784938   -5.0039317   -5.0039317   -4.0471598 0.0094400817   -5.0039317    0.9567719   439061 
  562000   0.63683274   -5.0041837   -5.0041837   -4.0489368 0.0097166604   -5.0041837   0.95524693   439061 
  563000   0.63773849   -5.0076488   -5.0076488   -4.0510432  0.008560444   -5.0076488   0.95660556   439061 
  564000   0.63549618   -5.0053823   -5.0053823   -4.0521402  0.015406187   -5.0053823   0.95324209   439061 
  565000   0.63662726   -5.0080053   -5.0080053   -4.0530665  0.016675985   -5.0080053   0.95493872   439061 
  566000   0.63589051   -5.0097099   -5.0097099   -4.0558764  0.015257716   -5.0097099   0.95383359   439061 
  567000   0.63647698   -5.0118936   -5.0118936   -4.0571803 0.0032983044   -5.0118936    0.9547133   439061 
  568000   0.63541919   -5.0117493   -5.0117493   -4.0586227 0.0094964993   -5.0117493   0.95312661   439061 
  569000   0.63438624   -5.0129745   -5.0129745   -4.0613973 0.0063984974   -5.0129745   0.95157719   439061 
  570000    0.6344074   -5.0147385   -5.0147385   -4.0631295 0.0062698768   -5.0147385   0.95160894   439061 
  571000   0.63351572   -5.0156114   -5.0156114     -4.06534 0.0046950414   -5.0156114   0.95027141   439061 
  572000    0.6344663   -5.0183339   -5.0183339   -4.0666367  0.004121201   -5.0183339   0.95169728   439061 
  573000   0.63409157    -5.019122    -5.019122   -4.0679868 0.0099578818    -5.019122   0.95113518   439061 
  574000   0.63400482   -5.0202902   -5.0202902   -4.0692852  0.011252745   -5.0202902   0.95100506   439061 
  575000    0.6339987   -5.0217929   -5.0217929   -4.0707971  0.014681451   -5.0217929   0.95099589   439061 
  576000   0.63517084   -5.0248199   -5.0248199   -4.0720658  0.011006108   -5.0248199    0.9527541   439061 
  577000   0.63446973   -5.0268875   -5.0268875    -4.075185 0.0091793156   -5.0268875   0.95170242   439061 
  578000   0.63383459   -5.0274555   -5.0274555   -4.0767057 0.0092885573   -5.0274555   0.95074972   439061 
  579000   0.63396233   -5.0287585   -5.0287585   -4.0778172 0.0088126254   -5.0287585   0.95094133   439061 
  580000    0.6332322    -5.028779    -5.028779   -4.0789329 0.0086910931    -5.028779   0.94984614   439061 
  581000    0.6333653   -5.0302886   -5.0302886   -4.0802429  0.008794061   -5.0302886   0.95004579   439061 
  582000   0.63225314   -5.0302133   -5.0302133   -4.0818358  0.007624091   -5.0302133   0.94837754   439061 
  583000   0.63379196   -5.0329863   -5.0329863   -4.0823006 0.0063555153   -5.0329863   0.95068578   439061 
  584000   0.63270882   -5.0327306   -5.0327306   -4.0836695 0.0093008497   -5.0327306   0.94906107   439061 
  585000   0.63258399   -5.0350372   -5.0350372   -4.0861634 0.0057895217   -5.0350372   0.94887383   439061 
  586000   0.63172493    -5.034977    -5.034977   -4.0873918 0.0083526969    -5.034977   0.94758523   439061 
  587000    0.6311778   -5.0355212   -5.0355212   -4.0887566 0.0067326948   -5.0355212   0.94676455   439061 
  588000    0.6303832   -5.0369711   -5.0369711   -4.0913985 0.0064321192   -5.0369711   0.94557265   439061 
  589000   0.63128931   -5.0389307   -5.0389307   -4.0919989  0.011006961   -5.0389307   0.94693181   439061 
  590000   0.63017783   -5.0402574   -5.0402574   -4.0949928 0.0087673192   -5.0402574    0.9452646   439061 
  591000   0.63020219    -5.040785    -5.040785   -4.0954839  0.011241418    -5.040785   0.94530114   439061 
  592000   0.63138365   -5.0439123   -5.0439123    -4.096839  0.009246054   -5.0439123   0.94707332   439061 
  593000   0.63129979   -5.0461297   -5.0461297   -4.0991822  0.010820395   -5.0461297   0.94694753   439061 
  594000   0.63177711   -5.0478295   -5.0478295    -4.100166 0.0073257863   -5.0478295    0.9476635   439061 
  595000   0.62879878    -5.045845    -5.045845   -4.1026489 0.0088379325    -5.045845   0.94319602   439061 
  596000   0.62893416   -5.0481045   -5.0481045   -4.1047054 0.0036599505   -5.0481045   0.94339909   439061 
  597000   0.62909175   -5.0500944   -5.0500944   -4.1064589 0.0030616677   -5.0500944   0.94363548   439061 
  598000   0.62896511   -5.0508651   -5.0508651   -4.1074195 0.0047013291   -5.0508651   0.94344552   439061 
  599000   0.62876611   -5.0525425   -5.0525425   -4.1093954  0.006597227   -5.0525425   0.94314702   439061 
  600000   0.62866243   -5.0541841   -5.0541841   -4.1111926  0.006009019   -5.0541841   0.94299149   439061 
  601000   0.62885766   -5.0547581   -5.0547581   -4.1114738 0.0069129378   -5.0547581   0.94328433   439061 
  602000   0.62877829   -5.0566049   -5.0566049   -4.1134396  0.011856358   -5.0566049   0.94316529   439061 
  603000   0.62927659   -5.0585468   -5.0585468    -4.114634  0.014424747   -5.0585468   0.94391273   439061 
  604000   0.62816419   -5.0592747   -5.0592747   -4.1170305 0.0099701859   -5.0592747   0.94224414   439061 
  605000    0.6276854   -5.0608106   -5.0608106   -4.1192847 0.0093175242   -5.0608106   0.94152595   439061 
  606000   0.62650102   -5.0601002   -5.0601002   -4.1203508 0.0099421317   -5.0601002   0.93974939   439061 
  607000   0.62697485   -5.0608986   -5.0608986   -4.1204385 0.0083026351   -5.0608986   0.94046013   439061 
  608000   0.62629831   -5.0624033   -5.0624033    -4.122958  0.006739513   -5.0624033   0.93944533   439061 
  609000    0.6260712   -5.0639841   -5.0639841   -4.1248794 0.0018394793   -5.0639841   0.93910466   439061 
  610000   0.62621286   -5.0636966   -5.0636966   -4.1243794 3.8558568e-05   -5.0636966   0.93931714   439061 
  611000   0.62722329   -5.0654162   -5.0654162   -4.1245834  0.005835305   -5.0654162   0.94083279   439061 
  612000   0.62609901     -5.06542     -5.06542   -4.1262736  0.011421808     -5.06542   0.93914638   439061 
  613000   0.62635063   -5.0667112   -5.0667112   -4.1271874 0.0055894852   -5.0667112   0.93952381   439061 
  614000   0.62619233   -5.0701558   -5.0701558   -4.1308694 0.0038704605   -5.0701558   0.93928635   439061 
  615000   0.62589917    -5.071547    -5.071547   -4.1327004 0.0037964365    -5.071547   0.93884662   439061 
  616000   0.62512007    -5.071494    -5.071494    -4.133816  0.006408662    -5.071494   0.93767796   439061 
  617000   0.62530039   -5.0734329   -5.0734329   -4.1354844  0.006459746   -5.0734329   0.93794844   439061 
  618000   0.62554588   -5.0758388   -5.0758388   -4.1375221 0.0072714683   -5.0758388   0.93831669   439061 
  619000   0.62483655   -5.0762055   -5.0762055   -4.1389529  0.010856187   -5.0762055   0.93725269   439061 
  620000   0.62621699   -5.0790439   -5.0790439   -4.1397206 0.0092466333   -5.0790439   0.93932335   439061 
  621000   0.62515574   -5.0783165   -5.0783165    -4.140585  0.010245784   -5.0783165   0.93773147   439061 
  622000   0.62504794   -5.0797455   -5.0797455   -4.1421757 0.0077206409   -5.0797455   0.93756977   439061 
  623000   0.62432053   -5.0791746   -5.0791746   -4.1426959   0.00915719   -5.0791746   0.93647866   439061 
  624000   0.62282986   -5.0782611   -5.0782611   -4.1440184 0.0076579876   -5.0782611   0.93424266   439061 
  625000   0.62401899   -5.0811957   -5.0811957   -4.1451694 0.0043031486   -5.0811957   0.93602636   439061 
  626000   0.62320894   -5.0816052   -5.0816052   -4.1467939 0.0041429827   -5.0816052   0.93481128   439061 
  627000   0.62215272   -5.0824178   -5.0824178   -4.1491909 -0.0012218227   -5.0824178   0.93322695   439061 
  628000   0.62290449   -5.0846168   -5.0846168   -4.1502622 0.00060933432   -5.0846168   0.93435461   439061 
  629000   0.62325022   -5.0857246   -5.0857246   -4.1508514 0.0042023553   -5.0857246    0.9348732   439061 
  630000    0.6241315   -5.0886733   -5.0886733   -4.1524782 0.0038616469   -5.0886733   0.93619511   439061 
  631000   0.62274477   -5.0881396   -5.0881396   -4.1540246  0.012060938   -5.0881396   0.93411503   439061 
  632000    0.6242875   -5.0917949   -5.0917949   -4.1553658  0.010447211   -5.0917949   0.93642911   439061 
  633000   0.62206429   -5.0907982   -5.0907982   -4.1577038 0.0094378779   -5.0907982    0.9330943   439061 
  634000   0.62209064   -5.0927363   -5.0927363   -4.1596024 0.0033002485   -5.0927363   0.93313383   439061 
  635000   0.62171326   -5.0942285   -5.0942285   -4.1616607 0.00039213763   -5.0942285   0.93256777   439061 
  636000   0.62143392    -5.095155    -5.095155   -4.1630062  0.002342231    -5.095155   0.93214875   439061 
  637000   0.62070137   -5.0951649   -5.0951649    -4.164115 0.0024654496   -5.0951649   0.93104993   439061 
  638000   0.62104783   -5.0970062   -5.0970062   -4.1654366 0.0030623645   -5.0970062   0.93156963   439061 
  639000   0.62152884   -5.0999212   -5.0999212   -4.1676301 -0.00085782363   -5.0999212   0.93229114   439061 
  640000   0.62129703   -5.1007123   -5.1007123   -4.1687689 0.0062403432   -5.1007123   0.93194342   439061 
  641000   0.62213141    -5.103907    -5.103907    -4.170712 0.0028580939    -5.103907   0.93319498   439061 
  642000   0.62060901   -5.1035154   -5.1035154    -4.172604 0.0049850756   -5.1035154   0.93091139   439061 
  643000   0.62044498   -5.1047666   -5.1047666   -4.1741012  0.010743238   -5.1047666   0.93066535   439061 
  644000   0.62031582   -5.1047795   -5.1047795   -4.1743079 0.0068385517   -5.1047795    0.9304716   439061 
  645000   0.62028794    -5.106721    -5.106721   -4.1762912 0.0066702835    -5.106721   0.93042979   439061 
  646000     0.619281   -5.1067849   -5.1067849   -4.1778655 0.0036807996   -5.1067849   0.92891938   439061 
  647000   0.61890183   -5.1067739   -5.1067739   -4.1784232 0.0071967224   -5.1067739   0.92835063   439061 
  648000   0.61884665   -5.1086493   -5.1086493   -4.1803815 -0.00020504232   -5.1086493   0.92826787   439061 
  649000   0.61944701   -5.1111099   -5.1111099   -4.1819415 -0.00019279625   -5.1111099    0.9291684   439061 
  650000   0.61743736   -5.1097098   -5.1097098   -4.1835559 0.0071710815   -5.1097098   0.92615393   439061 
  651000   0.61849939   -5.1121681   -5.1121681   -4.1844212 0.0014487082   -5.1121681   0.92774697   439061 
  652000   0.61805955   -5.1136082   -5.1136082    -4.186521 0.0035417396   -5.1136082   0.92708721   439061 
  653000   0.61739276   -5.1143131   -5.1143131   -4.1882261 0.0055313379   -5.1143131   0.92608703   439061 
  654000   0.61870507   -5.1168437   -5.1168437   -4.1887883 0.0062359281   -5.1168437   0.92805549   439061 
  655000   0.61814111   -5.1173784   -5.1173784   -4.1901688 0.0058576902   -5.1173784   0.92720956   439061 
  656000   0.61645203   -5.1160459   -5.1160459     -4.19137 0.0093836489   -5.1160459   0.92467594   439061 
  657000   0.61757351    -5.119312    -5.119312   -4.1929539 0.0030906922    -5.119312   0.92635815   439061 
  658000   0.61638001   -5.1186872   -5.1186872   -4.1941193 0.0077354122   -5.1186872   0.92456791   439061 
  659000   0.61671709   -5.1206466   -5.1206466   -4.1955731 0.0031291167   -5.1206466   0.92507353   439061 
  660000   0.61614171   -5.1223463   -5.1223463   -4.1981359 0.0022072726   -5.1223463   0.92421046   439061 
  661000   0.61544717   -5.1217388   -5.1217388   -4.1985701  0.005706757   -5.1217388   0.92316865   439061 
  662000   0.61564603   -5.1236112   -5.1236112   -4.2001442  0.004426129   -5.1236112   0.92346694   439061 
  663000   0.61608247   -5.1246197   -5.1246197   -4.2004981 0.0048811553   -5.1246197    0.9241216   439061 
  664000    0.6167182   -5.1264182   -5.1264182    -4.201343 0.0089816503   -5.1264182    0.9250752   439061 
  665000   0.61608819   -5.1271843   -5.1271843   -4.2030541 0.0062008428   -5.1271843   0.92413018   439061 
  666000   0.61637956    -5.129313    -5.129313   -4.2047458 0.0018964458    -5.129313   0.92456724   439061 
  667000   0.61473934   -5.1293281   -5.1293281   -4.2072211 0.0069807833   -5.1293281   0.92210692   439061 
  668000   0.61483173   -5.1313343   -5.1313343   -4.2090889 0.0024898012   -5.1313343    0.9222455   439061 
  669000   0.61514271   -5.1327365   -5.1327365   -4.2100245 0.0034715088   -5.1327365   0.92271196   439061 
  670000    0.6143665   -5.1329739   -5.1329739   -4.2114262 0.0062561883   -5.1329739   0.92154765   439061 
  671000   0.61581972   -5.1354288   -5.1354288   -4.2117013 0.0063351423   -5.1354288   0.92372747   439061 
  672000   0.61334455   -5.1335781   -5.1335781   -4.2135634  0.010590272   -5.1335781   0.92001473   439061 
  673000   0.61420953    -5.135054    -5.135054   -4.2137418 0.0080476483    -5.135054    0.9213122   439061 
  674000   0.61413669   -5.1362621   -5.1362621   -4.2150591 0.0068777985   -5.1362621   0.92120294   439061 
  675000   0.61493934   -5.1388263   -5.1388263   -4.2164193 0.0051323862   -5.1388263   0.92240691   439061 
  676000   0.61294643   -5.1376415   -5.1376415   -4.2182239 0.0055263824   -5.1376415   0.91941756   439061 
  677000     0.613301   -5.1387617   -5.1387617   -4.2188123 -0.0014888154   -5.1387617    0.9199494   439061 
  678000   0.61232112   -5.1396304   -5.1396304   -4.2211508 0.0052462487   -5.1396304   0.91847959   439061 
  679000   0.61223522   -5.1413852   -5.1413852   -4.2230345 -0.00041330373   -5.1413852   0.91835074   439061 
  680000   0.61207724   -5.1420962   -5.1420962   -4.2239824 0.00078682266   -5.1420962   0.91811376   439061 
  681000   0.61284358   -5.1436912   -5.1436912   -4.2244279 0.0041415756   -5.1436912   0.91926328   439061 
  682000   0.61341017    -5.145775    -5.145775   -4.2256619 0.0060451465    -5.145775   0.92011315   439061 
  683000   0.61373405   -5.1482921   -5.1482921   -4.2276932 0.0053974859   -5.1482921   0.92059898   439061 
  684000   0.61298248   -5.1479205   -5.1479205   -4.2284489  0.010651415   -5.1479205   0.91947163   439061 
  685000   0.61215945   -5.1491472   -5.1491472   -4.2309101 0.0077845216   -5.1491472   0.91823709   439061 
  686000    0.6131536   -5.1513204   -5.1513204   -4.2315921 0.0027238227   -5.1513204   0.91972831   439061 
  687000   0.61152175   -5.1506798   -5.1506798   -4.2333993 0.0055013454   -5.1506798   0.91728053   439061 
  688000   0.61196804   -5.1523847   -5.1523847   -4.2344347 0.0014957693   -5.1523847   0.91794997   439061 
  689000   0.61138942   -5.1522382   -5.1522382   -4.2351562 0.0015580208   -5.1522382   0.91708203   439061 
  690000   0.61064656   -5.1523203   -5.1523203   -4.2363526 -0.00037012602   -5.1523203   0.91596775   439061 
  691000   0.61117157   -5.1544006   -5.1544006   -4.2376453 0.0012872771   -5.1544006   0.91675526   439061 
  692000   0.61123909   -5.1549791   -5.1549791   -4.2381225 0.00023229558   -5.1549791   0.91685654   439061 
  693000   0.60963224   -5.1538615   -5.1538615   -4.2394152 0.0052470884   -5.1538615   0.91444627   439061 
  694000   0.61071052    -5.156564    -5.156564   -4.2405004 0.0055035946    -5.156564   0.91606369   439061 
  695000   0.61013892    -5.156686    -5.156686   -4.2414797  0.012933724    -5.156686   0.91520629   439061 
  696000   0.61049366   -5.1580611   -5.1580611   -4.2423227 0.0085727446   -5.1580611   0.91573841   439061 
  697000   0.60883872   -5.1569463   -5.1569463   -4.2436903 0.0086573794   -5.1569463     0.913256   439061 
  698000   0.60935983   -5.1608249   -5.1608249   -4.2467873 0.0052980992   -5.1608249   0.91403766   439061 
  699000   0.60945085   -5.1617139   -5.1617139   -4.2475397 0.0027402923   -5.1617139   0.91417419   439061 
  700000   0.60907755    -5.162332    -5.162332   -4.2487178 0.0011103782    -5.162332   0.91361424   439061 
  701000   0.60888694   -5.1630602   -5.1630602   -4.2497319 0.00068966815   -5.1630602   0.91332833   439061 
  702000   0.60867473   -5.1631916   -5.1631916   -4.2501816 0.0065029976   -5.1631916   0.91301002   439061 
  703000   0.60906626    -5.165775    -5.165775   -4.2521777 0.0033341133    -5.165775   0.91359731   439061 
  704000   0.60867341   -5.1669804   -5.1669804   -4.2539724 0.0080528202   -5.1669804   0.91300804   439061 
  705000   0.60852252   -5.1668926   -5.1668926   -4.2541109 0.0055485762   -5.1668926    0.9127817   439061 
  706000   0.60902892   -5.1698785   -5.1698785   -4.2563372 0.0020071017   -5.1698785    0.9135413   439061 
  707000   0.60791184   -5.1692824   -5.1692824   -4.2574167 0.0057120686   -5.1692824   0.91186568   439061 
  708000   0.60827174   -5.1703747   -5.1703747   -4.2579692 0.0039582118   -5.1703747   0.91240553   439061 
  709000   0.60640609   -5.1693949   -5.1693949   -4.2597879 0.0027090308   -5.1693949   0.90960706   439061 
  710000   0.60679918   -5.1714859   -5.1714859   -4.2612892 0.0025808818   -5.1714859   0.91019669   439061 
  711000   0.60731441   -5.1734226   -5.1734226   -4.2624531 0.0042647434   -5.1734226   0.91096954   439061 
  712000   0.60732479   -5.1744442   -5.1744442   -4.2634591 0.0026342802   -5.1744442   0.91098511   439061 
  713000   0.60751384    -5.175403    -5.175403   -4.2641343 0.0039115093    -5.175403   0.91126869   439061 
  714000   0.60696202   -5.1752559   -5.1752559   -4.2648149 0.0051419498   -5.1752559   0.91044095   439061 
  715000   0.60677175    -5.176469    -5.176469   -4.2663134 0.0087183415    -5.176469   0.91015556   439061 
  716000   0.60705062   -5.1773223   -5.1773223   -4.2667484 0.0069170556   -5.1773223   0.91057386   439061 
  717000   0.60722937   -5.1785653   -5.1785653   -4.2677234 0.0048851762   -5.1785653   0.91084198   439061 
  718000   0.60629429   -5.1777861   -5.1777861   -4.2683468 0.0026656394   -5.1777861   0.90943936   439061 
  719000   0.60588769   -5.1783837   -5.1783837   -4.2695542 0.0044172248   -5.1783837   0.90882947   439061 
  720000   0.60435314   -5.1787603   -5.1787603   -4.2722326 0.0023319287   -5.1787603   0.90652765   439061 
  721000   0.60582023   -5.1811519   -5.1811519   -4.2724236 -0.0030666196   -5.1811519   0.90872828   439061 
  722000   0.60506122   -5.1809045   -5.1809045   -4.2733147 -0.0022209468   -5.1809045   0.90758977   439061 
  723000   0.60502914   -5.1816383   -5.1816383   -4.2740966 0.0026482451   -5.1816383   0.90754165   439061 
  724000    0.6053661    -5.183717    -5.183717   -4.2756699 0.0062630038    -5.183717   0.90804709   439061 
  725000   0.60407071   -5.1834603   -5.1834603   -4.2773563 0.0042816093   -5.1834603     0.906104   439061 
  726000   0.60453511   -5.1851953   -5.1851953   -4.2783947 0.0050665174   -5.1851953    0.9068006   439061 
  727000   0.60632332   -5.1879305   -5.1879305   -4.2784476 0.0034248865   -5.1879305    0.9094829   439061 
  728000   0.60460914   -5.1859151   -5.1859151   -4.2790034  0.014783191   -5.1859151   0.90691165   439061 
  729000   0.60518333   -5.1868958   -5.1868958   -4.2791228  0.008570977   -5.1868958   0.90777293   439061 
  730000   0.60460544   -5.1874899   -5.1874899   -4.2805838 0.00076631518   -5.1874899   0.90690609   439061 
  731000   0.60446445   -5.1885141   -5.1885141   -4.2818195 -0.0042075374   -5.1885141   0.90669461   439061 
  732000   0.60414854   -5.1889723   -5.1889723   -4.2827516 -0.0031452631   -5.1889723   0.90622075   439061 
  733000   0.60385313   -5.1902369   -5.1902369   -4.2844593 -0.00087354289   -5.1902369   0.90577763   439061 
  734000   0.60414777   -5.1912394   -5.1912394   -4.2850198 0.0016777743   -5.1912394   0.90621958   439061 
  735000   0.60339605   -5.1921486   -5.1921486   -4.2870566 0.0015037511   -5.1921486   0.90509202   439061 
  736000   0.60448605   -5.1939072   -5.1939072   -4.2871802  0.006180651   -5.1939072   0.90672701   439061 
  737000   0.60333921   -5.1941051   -5.1941051   -4.2890984 0.0078092244   -5.1941051   0.90500675   439061 
  738000    0.6042094    -5.196408    -5.196408    -4.290096 0.0051297513    -5.196408   0.90631204   439061 
  739000   0.60448565   -5.1980438   -5.1980438   -4.2913174  0.006017889   -5.1980438   0.90672641   439061 
  740000   0.60405565   -5.1991302   -5.1991302   -4.2930488 0.0043880654   -5.1991302   0.90608142   439061 
  741000   0.60367232   -5.1990575   -5.1990575    -4.293551 0.0033822428   -5.1990575   0.90550641   439061 
  742000    0.6023945   -5.1984677   -5.1984677    -4.294878 0.0025525376   -5.1984677   0.90358969   439061 
  743000   0.60186329   -5.1980247   -5.1980247   -4.2952318 -4.6722333e-05   -5.1980247   0.90279288   439061 
  744000   0.60176468   -5.1996223   -5.1996223   -4.2969773 -0.0012454567   -5.1996223   0.90264496   439061 
  745000   0.60071775    -5.198953    -5.198953   -4.2978784 -0.00060444437    -5.198953   0.90107457   439061 
  746000   0.60215312   -5.2015011   -5.2015011   -4.2982735 -0.00030993275   -5.2015011   0.90322762   439061 
  747000   0.60178635   -5.2020349   -5.2020349   -4.2993574 0.0027007149   -5.2020349   0.90267747   439061 
  748000   0.60184112    -5.202902    -5.202902   -4.3001424 0.0017009575    -5.202902   0.90275963   439061 
  749000   0.60248573   -5.2041221   -5.2041221   -4.3003955 0.0085843317   -5.2041221   0.90372654   439061 
  750000   0.60056269   -5.2034474   -5.2034474   -4.3026054  0.012090051   -5.2034474   0.90084199   439061 
  751000   0.60211741   -5.2070322   -5.2070322   -4.3038582 0.0041077259   -5.2070322   0.90317406   439061 
  752000   0.60066696   -5.2058967   -5.2058967   -4.3048983  0.011343672   -5.2058967   0.90099838   439061 
  753000   0.60019263   -5.2066052   -5.2066052   -4.3063183 0.0078256376   -5.2066052    0.9002869   439061 
  754000   0.60099293   -5.2080109   -5.2080109   -4.3065236 0.0038090119   -5.2080109   0.90148734   439061 
  755000   0.59987723    -5.207577    -5.207577   -4.3077632 0.0025253973    -5.207577    0.8998138   439061 
  756000    0.6006013   -5.2081309   -5.2081309   -4.3072309 -0.0031127402   -5.2081309   0.90089991   439061 
  757000   0.60096899   -5.2111539   -5.2111539   -4.3097025 -0.0049028638   -5.2111539   0.90145144   439061 
  758000   0.59919997   -5.2094189   -5.2094189    -4.310621 8.3209248e-05   -5.2094189   0.89879791   439061 
  759000   0.60058956   -5.2114759   -5.2114759   -4.3105936 0.00053905606   -5.2114759   0.90088229   439061 
  760000   0.60066601   -5.2126423   -5.2126423   -4.3116453 -0.0010928886   -5.2126423   0.90099696   439061 
  761000   0.59993909   -5.2139453   -5.2139453   -4.3140387 0.0063220635   -5.2139453   0.89990658   439061 
  762000   0.59979541   -5.2141622   -5.2141622   -4.3144711 0.0099509879   -5.2141622   0.89969106   439061 
  763000   0.59992463   -5.2155221   -5.2155221   -4.3156372 0.0086341811   -5.2155221    0.8998849   439061 
  764000   0.59935825   -5.2160094   -5.2160094   -4.3169741 0.0058394355   -5.2160094   0.89903532   439061 
  765000   0.59925252   -5.2172237   -5.2172237    -4.318347 0.0024433792   -5.2172237   0.89887673   439061 
  766000   0.59917146   -5.2178117   -5.2178117   -4.3190566 0.00043169597   -5.2178117   0.89875514   439061 
  767000   0.59805155   -5.2170202   -5.2170202   -4.3199449 0.0040814184   -5.2170202   0.89707528   439061 
  768000   0.59809308   -5.2177579   -5.2177579   -4.3206203 1.0608631e-05   -5.2177579   0.89713757   439061 
  769000   0.59839213   -5.2195254   -5.2195254   -4.3219392 -0.0019282208   -5.2195254   0.89758615   439061 
  770000   0.59835254   -5.2212382   -5.2212382   -4.3237114 -0.00059260422   -5.2212382   0.89752676   439061 
  771000   0.59732127   -5.2211335   -5.2211335   -4.3251536 0.0030650963   -5.2211335   0.89597987   439061 
  772000   0.59760964   -5.2218889   -5.2218889   -4.3254765 0.0036572506   -5.2218889   0.89641243   439061 
  773000   0.59771767   -5.2234801   -5.2234801   -4.3269056 0.0058015853   -5.2234801   0.89657446   439061 
  774000    0.5978086   -5.2245761   -5.2245761   -4.3278652 0.0068935058   -5.2245761   0.89671086   439061 
  775000   0.59711798   -5.2253537   -5.2253537   -4.3296787 0.0099987621   -5.2253537   0.89567493   439061 
  776000   0.59870903   -5.2284299   -5.2284299   -4.3303684 0.0025320192   -5.2284299   0.89806149   439061 
  777000   0.59710597   -5.2268672   -5.2268672   -4.3312103 0.0053239704   -5.2268672   0.89565692   439061 
  778000   0.59637569   -5.2265661   -5.2265661   -4.3320046 0.0061144195   -5.2265661   0.89456149   439061 
  779000   0.59551625   -5.2258731   -5.2258731   -4.3326008 0.0019771269   -5.2258731   0.89327233   439061 
  780000   0.59686205   -5.2279195   -5.2279195   -4.3326284 -0.0022514875   -5.2279195   0.89529104   439061 
  781000   0.59574654   -5.2280328   -5.2280328   -4.3344151 -0.00017441638   -5.2280328   0.89361777   439061 
  782000   0.59591119   -5.2284569   -5.2284569   -4.3345921 -0.0020947282   -5.2284569   0.89386475   439061 
  783000   0.59512103   -5.2293425   -5.2293425    -4.336663 0.0021742959   -5.2293425   0.89267951   439061 
  784000   0.59538044   -5.2308721   -5.2308721   -4.3378035 0.00062847925   -5.2308721   0.89306863   439061 
  785000   0.59599848   -5.2325329   -5.2325329   -4.3385372 0.0038711243   -5.2325329   0.89399568   439061 
  786000   0.59492575   -5.2311602   -5.2311602   -4.3387736 0.0090290059   -5.2311602    0.8923866   439061 
  787000   0.59624593    -5.234403    -5.234403   -4.3400362 0.0077891895    -5.234403   0.89436685   439061 
  788000   0.59552043   -5.2347804   -5.2347804   -4.3415018 0.0047875416   -5.2347804   0.89327861   439061 
  789000   0.59581369   -5.2354924   -5.2354924   -4.3417739 0.00017987383   -5.2354924   0.89371851   439061 
  790000   0.59450603   -5.2351301   -5.2351301    -4.343373 -0.0022585736   -5.2351301   0.89175701   439061 
  791000   0.59484806   -5.2356016   -5.2356016   -4.3433316 0.00070954436   -5.2356016   0.89227005   439061 
  792000   0.59519768   -5.2366961   -5.2366961   -4.3439016 0.0034421883   -5.2366961   0.89279448   439061 
  793000   0.59416456   -5.2373303   -5.2373303   -4.3460855 0.00094046882   -5.2373303    0.8912448   439061 
  794000   0.59401227   -5.2374719   -5.2374719   -4.3464556 -2.3398077e-06   -5.2374719   0.89101638   439061 
  795000   0.59393767   -5.2392005   -5.2392005    -4.348296 0.0034438447   -5.2392005   0.89090448   439061 
  796000    0.5940699   -5.2409133   -5.2409133   -4.3498104 0.0080497644   -5.2409133   0.89110282   439061 
  797000   0.59449205   -5.2416561   -5.2416561     -4.34992 0.0038798587   -5.2416561   0.89173605   439061 
  798000   0.59389515   -5.2419911   -5.2419911   -4.3511504 0.0049194454   -5.2419911   0.89084069   439061 
  799000   0.59333585   -5.2414721   -5.2414721   -4.3514703 0.0023802331   -5.2414721   0.89000175   439061 
  800000   0.59458464   -5.2442129   -5.2442129   -4.3523379 0.0025249822   -5.2442129   0.89187493   439061 
  801000    0.5946981    -5.243672    -5.243672   -4.3516269 0.0067082788    -5.243672   0.89204512   439061 
  802000   0.59492371   -5.2439751   -5.2439751   -4.3515915 -0.00046671559   -5.2439751   0.89238354   439061 
  803000   0.59322456   -5.2429066   -5.2429066   -4.3530718 -0.0021481033   -5.2429066   0.88983481   439061 
  804000   0.59402033     -5.24456     -5.24456   -4.3535315 -0.0012017659     -5.24456   0.89102847   439061 
  805000   0.59338317   -5.2443062   -5.2443062   -4.3542335 -0.00080029478   -5.2443062   0.89007273   439061 
  806000   0.59314749   -5.2443524   -5.2443524   -4.3546332 0.0017752555   -5.2443524   0.88971921   439061 
  807000   0.59320188   -5.2453126   -5.2453126   -4.3555118 0.0011464826   -5.2453126   0.88980079   439061 
  808000   0.59293192    -5.246956    -5.246956   -4.3575601 -0.0027106225    -5.246956   0.88939585   439061 
  809000   0.59344357   -5.2486756   -5.2486756   -4.3585123  0.001540246   -5.2486756   0.89016333   439061 
  810000   0.59251686   -5.2487364   -5.2487364   -4.3599631 0.0058251824   -5.2487364   0.88877327   439061 
  811000   0.59393977   -5.2515134   -5.2515134   -4.3606058 0.0009463276   -5.2515134   0.89090762   439061 
  812000   0.59296228   -5.2507141   -5.2507141   -4.3612727 0.0051459254   -5.2507141    0.8894414   439061 
  813000   0.59249356   -5.2511128   -5.2511128   -4.3623745  0.005205233   -5.2511128   0.88873832   439061 
  814000     0.592673   -5.2523966   -5.2523966   -4.3633891 0.0029956086   -5.2523966   0.88900747   439061 
  815000   0.59266863   -5.2531355   -5.2531355   -4.3641346 0.00031177487   -5.2531355   0.88900092   439061 
  816000    0.5910846   -5.2532918   -5.2532918   -4.3666669 -0.00097241443   -5.2532918   0.88662488   439061 
  817000   0.59161586   -5.2535973   -5.2535973   -4.3661755 0.0012667426   -5.2535973   0.88742177   439061 
  818000   0.59099066   -5.2529138   -5.2529138   -4.3664298  0.001177518   -5.2529138   0.88648397   439061 
  819000   0.59230688   -5.2548665   -5.2548665   -4.3664082 0.00046810111   -5.2548665    0.8884583   439061 
  820000   0.59137261   -5.2536104   -5.2536104   -4.3665536 0.0081096851   -5.2536104   0.88705689   439061 
  821000   0.59184186    -5.254788    -5.254788   -4.3670272 0.0052825258    -5.254788   0.88776076   439061 
  822000   0.59159739     -5.25523     -5.25523   -4.3678359 -0.00087682426     -5.25523   0.88739407   439061 
  823000    0.5916242   -5.2569875   -5.2569875   -4.3695532 -0.0011175927   -5.2569875   0.88743428   439061 
  824000   0.59014926   -5.2565844   -5.2565844   -4.3713625 -0.0011109722   -5.2565844   0.88522187   439061 
  825000   0.58953324   -5.2562431   -5.2562431   -4.3719452 0.00020670391   -5.2562431   0.88429785   439061 
  826000   0.59001643   -5.2575699   -5.2575699   -4.3725473 -0.0020184794   -5.2575699   0.88502262   439061 
  827000   0.59165146   -5.2607573   -5.2607573   -4.3732821 -0.0024484907   -5.2607573   0.88747518   439061 
  828000   0.59046631   -5.2598148   -5.2598148   -4.3741173 0.0030301019   -5.2598148   0.88569745   439061 
  829000   0.58988693   -5.2609826   -5.2609826   -4.3761542 0.0012799382   -5.2609826   0.88482838   439061 
  830000   0.59084444   -5.2620515   -5.2620515   -4.3757869 0.0047978523   -5.2620515   0.88626465   439061 
  831000   0.59018029   -5.2624794   -5.2624794    -4.377211 0.00038552642   -5.2624794   0.88526842   439061 
  832000     0.589924   -5.2622446   -5.2622446   -4.3773606 0.0036021528   -5.2622446   0.88488398   439061 
  833000   0.58840359   -5.2616107   -5.2616107   -4.3790073 0.0010383813   -5.2616107   0.88260337   439061 
  834000   0.58973972   -5.2635768   -5.2635768   -4.3789692 -0.0043145733   -5.2635768   0.88460757   439061 
  835000   0.58895093   -5.2632995   -5.2632995   -4.3798751 0.0023667013   -5.2632995   0.88342439   439061 
  836000   0.58848446   -5.2635354   -5.2635354   -4.3808107 0.0020124932   -5.2635354   0.88272468   439061 
  837000   0.58861563   -5.2658051   -5.2658051   -4.3828836 -0.0022255006   -5.2658051   0.88292144   439061 
  838000   0.58922408   -5.2672725   -5.2672725   -4.3834384 -0.00032361914   -5.2672725    0.8838341   439061 
  839000   0.58771231   -5.2664426   -5.2664426   -4.3848761 0.0028859585   -5.2664426   0.88156645   439061 
  840000   0.58862673   -5.2688514   -5.2688514   -4.3859133 0.0028596279   -5.2688514   0.88293808   439061 
  841000   0.58842336   -5.2697489   -5.2697489   -4.3871158 0.0039492932   -5.2697489   0.88263303   439061 
  842000   0.58777474   -5.2700784   -5.2700784   -4.3884183 0.0061374243   -5.2700784    0.8816601   439061 
  843000   0.58849102   -5.2726037   -5.2726037   -4.3898692 0.0041882954   -5.2726037   0.88273451   439061 
  844000    0.5873143   -5.2724813   -5.2724813   -4.3915119 0.0059625341   -5.2724813   0.88096945   439061 
  845000   0.58803056   -5.2729896   -5.2729896   -4.3909457 0.0048211948   -5.2729896   0.88204383   439061 
  846000   0.58843639   -5.2748776   -5.2748776    -4.392225 -0.00020243308   -5.2748776   0.88265257   439061 
  847000   0.58719151   -5.2737656   -5.2737656   -4.3929803 -7.6894481e-05   -5.2737656   0.88078526   439061 
  848000   0.58647657   -5.2727462   -5.2727462   -4.3930334 0.0032909664   -5.2727462   0.87971285   439061 
  849000   0.58717265   -5.2744709   -5.2744709   -4.3937139 -0.0032439506   -5.2744709   0.88075696   439061 
  850000   0.58753055   -5.2752495   -5.2752495   -4.3939557 -0.0027044118   -5.2752495   0.88129382   439061 
  851000   0.58641618   -5.2745762   -5.2745762    -4.394954 -0.0035417478   -5.2745762   0.87962227   439061 
  852000   0.58635044   -5.2750544   -5.2750544   -4.3955308 -0.0049730544   -5.2750544   0.87952365   439061 
  853000   0.58726887   -5.2766288   -5.2766288   -4.3957275 -3.9346682e-05   -5.2766288    0.8809013   439061 
  854000   0.58734374   -5.2780908   -5.2780908   -4.3970772 2.833704e-05   -5.2780908    0.8810136   439061 
  855000   0.58705415   -5.2779046   -5.2779046   -4.3973253 0.0050553871   -5.2779046   0.88057923   439061 
  856000   0.58619978   -5.2775963   -5.2775963   -4.3982987 0.0054808449   -5.2775963   0.87929767   439061 
  857000   0.58638819   -5.2786554   -5.2786554   -4.3990751 0.0050594538   -5.2786554   0.87958027   439061 
  858000   0.58595502   -5.2802191   -5.2802191   -4.4012885 0.00091104917   -5.2802191   0.87893052   439061 
  859000   0.58561486   -5.2810424   -5.2810424   -4.4026221 0.00037491145   -5.2810424    0.8784203   439061 
  860000   0.58661851    -5.282399    -5.282399   -4.4024733 -0.0028127519    -5.282399   0.87992576   439061 
  861000   0.58640064   -5.2821961   -5.2821961   -4.4025971 -0.002598077   -5.2821961   0.87959896   439061 
  862000    0.5856977   -5.2815159   -5.2815159   -4.4029713  0.001178497   -5.2815159   0.87854456   439061 
  863000   0.58562726   -5.2818205   -5.2818205   -4.4033816 0.00083934856   -5.2818205   0.87843889   439061 
  864000   0.58604595   -5.2836856   -5.2836856   -4.4046187 -0.0043567962   -5.2836856   0.87906693   439061 
  865000   0.58480235   -5.2839673   -5.2839673   -4.4067657 -0.003194263   -5.2839673   0.87720152   439061 
  866000   0.58480947   -5.2847728   -5.2847728   -4.4075606 -0.0044575805   -5.2847728    0.8772122   439061 
  867000   0.58508852   -5.2850363   -5.2850363   -4.4074055 -0.0015628308   -5.2850363   0.87763079   439061 
  868000     0.585247   -5.2856649   -5.2856649   -4.4077964 -0.0018757174   -5.2856649    0.8778685   439061 
  869000   0.58510131   -5.2865906   -5.2865906   -4.4089407 0.0032019279   -5.2865906   0.87764996   439061 
  870000   0.58383213   -5.2854865   -5.2854865   -4.4097403 0.0037858742   -5.2854865    0.8757462   439061 
  871000   0.58535439   -5.2877548   -5.2877548   -4.4097252 -0.004333681   -5.2877548   0.87802959   439061 
  872000    0.5838583   -5.2864344   -5.2864344    -4.410649 0.00036675606   -5.2864344   0.87578545   439061 
  873000   0.58492413   -5.2884444   -5.2884444   -4.4110602 0.0012021282   -5.2884444   0.87738419   439061 
  874000   0.58378881   -5.2869779   -5.2869779   -4.4112966 0.0026091065   -5.2869779   0.87568121   439061 
  875000   0.58355297   -5.2878961   -5.2878961   -4.4125686 0.0056366146   -5.2878961   0.87532746   439061 
  876000   0.58407942    -5.288795    -5.288795   -4.4126779 0.0047002381    -5.288795   0.87611714   439061 
  877000   0.58383437   -5.2900421   -5.2900421   -4.4142925 0.00024673197   -5.2900421   0.87574956   439061 
  878000   0.58333411   -5.2904689   -5.2904689   -4.4154697 -0.00014720801   -5.2904689   0.87499918   439061 
  879000   0.58329799   -5.2905843   -5.2905843   -4.4156393 -0.0010968332   -5.2905843   0.87494499   439061 
  880000   0.58284108   -5.2903809   -5.2903809   -4.4161213 -0.0031324033   -5.2903809   0.87425962   439061 
  881000   0.58239062   -5.2915559   -5.2915559    -4.417972 0.0026125032   -5.2915559   0.87358394   439061 
  882000   0.58302967   -5.2926494   -5.2926494   -4.4181069 -0.0022320625   -5.2926494   0.87454251   439061 
  883000   0.58273552    -5.293131    -5.293131   -4.4190297 -0.00051739584    -5.293131   0.87410129   439061 
  884000   0.58268825   -5.2937357   -5.2937357   -4.4197053 0.0014385628   -5.2937357   0.87403039   439061 
  885000   0.58268379    -5.294018    -5.294018   -4.4199943 0.0065028458    -5.294018   0.87402369   439061 
  886000   0.58263445   -5.2943952   -5.2943952   -4.4204455  0.003706309   -5.2943952   0.87394969   439061 
  887000   0.58269419   -5.2957697   -5.2957697   -4.4217304 0.0038764835   -5.2957697   0.87403929   439061 
  888000   0.58325697   -5.2969102   -5.2969102   -4.4220267 0.0030427291   -5.2969102   0.87488346   439061 
  889000   0.58320255   -5.2966357   -5.2966357   -4.4218339  0.006849964   -5.2966357   0.87480183   439061 
  890000   0.58163011   -5.2951532   -5.2951532     -4.42271 0.0059115775   -5.2951532   0.87244318   439061 
  891000    0.5813793   -5.2957207   -5.2957207   -4.4236537 -0.0039491496   -5.2957207   0.87206697   439061 
  892000   0.58235422   -5.2974654   -5.2974654   -4.4239361 -0.0027309818   -5.2974654   0.87352934   439061 
  893000   0.58290616   -5.2986898   -5.2986898   -4.4243326 -0.0049700433   -5.2986898   0.87435724   439061 
  894000   0.58109352   -5.2963407   -5.2963407   -4.4247024 -0.0032574267   -5.2963407   0.87163829   439061 
  895000   0.58157112   -5.2981606   -5.2981606   -4.4258059 -0.00092965105   -5.2981606    0.8723547   439061 
  896000   0.58119223   -5.2986663   -5.2986663   -4.4268799 -0.001461928   -5.2986663   0.87178636   439061 
  897000   0.58301093   -5.3016088   -5.3016088   -4.4270944  0.003552132   -5.3016088    0.8745144   439061 
  898000   0.58257679    -5.301098    -5.301098   -4.4272348 0.0050534043    -5.301098   0.87386319   439061 
  899000   0.58268431   -5.3021379   -5.3021379   -4.4281134 0.0067099055   -5.3021379   0.87402447   439061 
  900000   0.58227322   -5.3033013   -5.3033013   -4.4298934 0.0052762538   -5.3033013   0.87340784   439061 
  901000   0.58128015   -5.3029987   -5.3029987   -4.4310804 -0.0015311501   -5.3029987   0.87191824   439061 
  902000   0.58076964   -5.3023513   -5.3023513   -4.4311989 0.0022343702   -5.3023513   0.87115247   439061 
  903000   0.57944469   -5.3012955   -5.3012955   -4.4321305 0.0031403556   -5.3012955   0.86916505   439061 
  904000   0.58010075   -5.3041051   -5.3041051    -4.433956 -0.0055621431   -5.3041051   0.87014914   439061 
  905000   0.57962875   -5.3038359   -5.3038359   -4.4343947 -0.0031697964   -5.3038359   0.86944115   439061 
  906000   0.57932903   -5.3052473   -5.3052473   -4.4362558  -0.00217146   -5.3052473   0.86899157   439061 
  907000   0.58032217   -5.3058361   -5.3058361   -4.4353548  0.001474612   -5.3058361   0.87048128   439061 
  908000   0.58048976   -5.3071947   -5.3071947    -4.436462 0.0011078211   -5.3071947   0.87073266   439061 
  909000   0.58120872   -5.3087196   -5.3087196   -4.4369085 0.0052067084   -5.3087196    0.8718111   439061 
  910000    0.5805735   -5.3089158   -5.3089158   -4.4380576 0.0078499513   -5.3089158   0.87085827   439061 
  911000   0.58044723   -5.3095311   -5.3095311   -4.4388622 0.0071143263   -5.3095311   0.87066886   439061 
  912000   0.57944822   -5.3083456   -5.3083456   -4.4391753 0.0065243399   -5.3083456   0.86917036   439061 
  913000   0.57904796   -5.3072038   -5.3072038   -4.4386339 0.0052436782   -5.3072038   0.86856996   439061 
  914000   0.58071097   -5.3103403   -5.3103403   -4.4392759 0.00015021079   -5.3103403   0.87106447   439061 
  915000   0.57861177    -5.308465    -5.308465   -4.4405494 -0.0015874448    -5.308465   0.86791568   439061 
  916000   0.57819409   -5.3078242   -5.3078242    -4.440535 -0.0035672482   -5.3078242   0.86728916   439061 
  917000   0.57812099   -5.3086623   -5.3086623   -4.4414828 -0.0051658569   -5.3086623   0.86717951   439061 
  918000   0.57854442   -5.3097824   -5.3097824   -4.4419677 -0.0060368972   -5.3097824   0.86781465   439061 
  919000   0.57900657   -5.3109425   -5.3109425   -4.4424346 0.00061588844   -5.3109425   0.86850787   439061 
  920000   0.57896063   -5.3126243   -5.3126243   -4.4441854 -0.00081064323   -5.3126243   0.86843896   439061 
  921000   0.57905614   -5.3133458   -5.3133458   -4.4447635 0.0061560755   -5.3133458   0.86858223   439061 
  922000   0.57833006   -5.3133399   -5.3133399   -4.4458468 0.0063384256   -5.3133399   0.86749311   439061 
  923000   0.57951592   -5.3156782   -5.3156782   -4.4464063 0.0047708781   -5.3156782   0.86927189   439061 
  924000    0.5787463   -5.3150963   -5.3150963   -4.4469788 0.0051250258   -5.3150963   0.86811747   439061 
  925000   0.57781381   -5.3153097   -5.3153097   -4.4485909 0.0048683631   -5.3153097   0.86671874   439061 
  926000   0.57737903    -5.315152    -5.315152   -4.4490855  0.001956071    -5.315152   0.86606657   439061 
  927000   0.57741272    -5.315313    -5.315313   -4.4491959 -0.0061600497    -5.315313   0.86611711   439061 
  928000   0.57761689   -5.3154384   -5.3154384    -4.449015 -0.0046274414   -5.3154384   0.86642337   439061 
  929000   0.57777274   -5.3167807   -5.3167807   -4.4501236 -0.0023796643   -5.3167807   0.86665714   439061 
  930000   0.57751047   -5.3165979   -5.3165979   -4.4503342 -0.0026789284   -5.3165979   0.86626374   439061 
  931000   0.57730264   -5.3172931   -5.3172931   -4.4513411 -0.0044822237   -5.3172931   0.86595199   439061 
  932000   0.57769996   -5.3173186   -5.3173186   -4.4507706 -0.00050610236   -5.3173186   0.86654797   439061 
  933000   0.57789035   -5.3180184   -5.3180184   -4.4511848  0.007221393   -5.3180184   0.86683355   439061 
  934000   0.57818335   -5.3182362   -5.3182362   -4.4509632 0.0034821064   -5.3182362   0.86727305   439061 
  935000   0.57803637   -5.3198087   -5.3198087   -4.4527562 0.0021286674   -5.3198087   0.86705258   439061 
  936000   0.57748531    -5.319996    -5.319996     -4.45377 0.0015701469    -5.319996   0.86622598   439061 
  937000   0.57767215   -5.3200119   -5.3200119   -4.4535056 0.0031047398   -5.3200119   0.86650625   439061 
  938000   0.57730783    -5.320036    -5.320036   -4.4540763 -0.0033858332    -5.320036   0.86595978   439061 
  939000   0.57609982   -5.3190523   -5.3190523   -4.4549046 -0.002541616   -5.3190523   0.86414776   439061 
  940000   0.57572826   -5.3204064   -5.3204064    -4.456816 -0.0069473688   -5.3204064   0.86359042   439061 
  941000   0.57618257   -5.3205342   -5.3205342   -4.4562623 -0.0040500792   -5.3205342   0.86427188   439061 
  942000   0.57566731   -5.3198333   -5.3198333   -4.4563343 -0.0013561943   -5.3198333     0.863499   439061 
  943000   0.57689248   -5.3220324   -5.3220324   -4.4566957 -0.0018724978   -5.3220324   0.86533676   439061 
  944000   0.57668999    -5.323072    -5.323072   -4.4580389 0.00096872988    -5.323072   0.86503301   439061 
  945000   0.57763983   -5.3236049   -5.3236049   -4.4571471 0.0039672119   -5.3236049   0.86645777   439061 
  946000   0.57696258   -5.3235385   -5.3235385   -4.4580966 0.0075486866   -5.3235385   0.86544189   439061 
  947000   0.57783338    -5.325754    -5.325754   -4.4590059 0.0028060072    -5.325754   0.86674809   439061 
  948000   0.57650162   -5.3235825   -5.3235825    -4.458832   0.00463064   -5.3235825   0.86475046   439061 
  949000   0.57517106   -5.3227017   -5.3227017    -4.459947 0.0030480334   -5.3227017   0.86275463   439061 
  950000   0.57674777   -5.3256368   -5.3256368   -4.4605171 -0.0037997848   -5.3256368   0.86511968   439061 
  951000   0.57527672   -5.3232242   -5.3232242   -4.4603111 0.00067402689   -5.3232242   0.86291311   439061 
  952000   0.57602164   -5.3249054   -5.3249054   -4.4608749 -0.0036564427   -5.3249054   0.86403049   439061 
  953000   0.57599929   -5.3251666   -5.3251666   -4.4611697 -0.0021092487   -5.3251666   0.86399697   439061 
  954000   0.57561967   -5.3242249   -5.3242249   -4.4607974 -0.0027860821   -5.3242249   0.86342754   439061 
  955000   0.57564718   -5.3256868   -5.3256868    -4.462218 0.00095252048   -5.3256868   0.86346881   439061 
  956000   0.57592523   -5.3265923   -5.3265923   -4.4627064 -0.0036029222   -5.3265923   0.86388588   439061 
  957000   0.57553935   -5.3256487   -5.3256487   -4.4623417 0.0045150562   -5.3256487   0.86330706   439061 
  958000   0.57580859   -5.3276597   -5.3276597   -4.4639488 -0.00020829829   -5.3276597   0.86371091   439061 
  959000   0.57650303   -5.3290395   -5.3290395    -4.464287 0.00099826487   -5.3290395   0.86475257   439061 
  960000   0.57540607   -5.3288142   -5.3288142   -4.4657071 -0.001804305   -5.3288142   0.86310714   439061 
  961000    0.5746469   -5.3285546   -5.3285546   -4.4665862 0.00059187358   -5.3285546   0.86196838   439061 
  962000   0.57497547   -5.3286813   -5.3286813   -4.4662201 0.0031632338   -5.3286813   0.86246124   439061 
  963000   0.57441966   -5.3284083   -5.3284083   -4.4667808 0.0016599982   -5.3284083   0.86162753   439061 
  964000   0.57432957   -5.3284395   -5.3284395   -4.4669471 -0.0025706634   -5.3284395    0.8614924   439061 
  965000   0.57420139   -5.3305004   -5.3305004   -4.4692002 -0.0042908365   -5.3305004   0.86130013   439061 
  966000   0.57371169   -5.3307394   -5.3307394   -4.4701738 -0.00087204175   -5.3307394   0.86056557   439061 
  967000   0.57343929   -5.3308834   -5.3308834   -4.4707264 0.0010087845   -5.3308834   0.86015698   439061 
  968000    0.5742064   -5.3335952   -5.3335952   -4.4722876 -0.00085053825   -5.3335952   0.86130764   439061 
  969000   0.57416201   -5.3340953   -5.3340953   -4.4728543 0.0016751712   -5.3340953   0.86124106   439061 
  970000   0.57534994    -5.335483    -5.335483     -4.47246 0.0060501767    -5.335483   0.86302294   439061 
  971000   0.57495926   -5.3355641   -5.3355641   -4.4731271  0.005435454   -5.3355641   0.86243692   439061 
  972000   0.57472786   -5.3354474   -5.3354474   -4.4733576 0.0031285333   -5.3354474   0.86208982   439061 
  973000   0.57415988   -5.3346396   -5.3346396   -4.4734017 0.0060880375   -5.3346396   0.86123786   439061 
  974000   0.57353855   -5.3338936   -5.3338936   -4.4735877 0.0033203952   -5.3338936   0.86030586   439061 
  975000   0.57415682   -5.3344715   -5.3344715   -4.4732382 -0.0017103827   -5.3344715   0.86123327   439061 
  976000   0.57329356   -5.3340956   -5.3340956   -4.4741573 -0.003754406   -5.3340956   0.85993838   439061 
  977000   0.57290002   -5.3339146   -5.3339146   -4.4745665 -0.0066799281   -5.3339146   0.85934807   439061 
  978000   0.57221609   -5.3333244   -5.3333244   -4.4750022 -0.0043243137   -5.3333244   0.85832218   439061 
  979000   0.57194615   -5.3335454   -5.3335454   -4.4756281 -0.002777625   -5.3335454   0.85791727   439061 
  980000   0.57382758   -5.3370927   -5.3370927   -4.4763532 0.0004730289   -5.3370927   0.86073941   439061 
  981000   0.57357132   -5.3370571   -5.3370571    -4.476702  0.003178618   -5.3370571   0.86035503   439061 
  982000   0.57363264   -5.3385849   -5.3385849   -4.4781379 0.0053504824   -5.3385849     0.860447   439061 
  983000   0.57314426   -5.3394232   -5.3394232   -4.4797088 0.0044143325   -5.3394232   0.85971444   439061 
  984000   0.57357096   -5.3408661   -5.3408661   -4.4805116 0.0044250482   -5.3408661   0.86035448   439061 
  985000   0.57321004   -5.3396066   -5.3396066   -4.4797935 0.0048722251   -5.3396066   0.85981309   439061 
  986000   0.57312803   -5.3401262   -5.3401262   -4.4804361 0.0027903619   -5.3401262   0.85969009   439061 
  987000    0.5724767   -5.3396827   -5.3396827   -4.4809697 -0.00036252717   -5.3396827   0.85871309   439061 
  988000   0.57271915   -5.3412422   -5.3412422   -4.4821654 -0.0092224828   -5.3412422   0.85907676   439061 
  989000   0.57140592   -5.3396197   -5.3396197   -4.4825127 -0.0023136093   -5.3396197   0.85710693   439061 
  990000   0.57120935   -5.3395846   -5.3395846   -4.4827725 -0.0044841085   -5.3395846   0.85681207   439061 
  991000   0.57150444   -5.3407014   -5.3407014   -4.4834467 -0.0053028423   -5.3407014   0.85725471   439061 
  992000   0.57131038   -5.3405496   -5.3405496    -4.483586 -0.00028477814   -5.3405496   0.85696361   439061 
  993000   0.57325915   -5.3426642   -5.3426642   -4.4827774 0.0047955789   -5.3426642   0.85988677   439061 
  994000   0.57247317   -5.3426419   -5.3426419   -4.4839341  0.007163258   -5.3426419    0.8587078   439061 
  995000    0.5726051    -5.343896    -5.343896   -4.4849903 0.0036018615    -5.343896   0.85890569   439061 
  996000   0.57219685   -5.3442966   -5.3442966   -4.4860033 -0.0010023186   -5.3442966   0.85829332   439061 
  997000   0.57183852    -5.344869    -5.344869   -4.4871132 -0.0054747981    -5.344869   0.85775582   439061 
  998000   0.57161758   -5.3460958   -5.3460958   -4.4886714 -0.0045335445   -5.3460958   0.85742442   439061 
  999000   0.57038532   -5.3442685   -5.3442685   -4.4886925 -0.0025721161   -5.3442685   0.85557602   439061 
 1000000   0.57005685   -5.3442739   -5.3442739   -4.4891905 0.0030393541   -5.3442739   0.85508333   439061 
 1001000   0.57193317    -5.347688    -5.347688   -4.4897902 -0.005373041    -5.347688    0.8578978   439061 
 1002000   0.57098037   -5.3463588   -5.3463588   -4.4898902 -0.0015783845   -5.3463588    0.8564686   439061 
 1003000   0.57074914     -5.34651     -5.34651   -4.4903882 0.0043729412     -5.34651   0.85612176   439061 
 1004000   0.57163796   -5.3478681   -5.3478681   -4.4904131 0.0042901484   -5.3478681   0.85745499   439061 
 1005000   0.57142875   -5.3489799   -5.3489799   -4.4918387 -0.0017149051   -5.3489799   0.85714117   439061 
 1006000   0.57082897   -5.3477296   -5.3477296   -4.4914881 -0.00044550173   -5.3477296    0.8562415   439061 
 1007000   0.57016818   -5.3464778   -5.3464778   -4.4912274 -0.001315066   -5.3464778   0.85525033   439061 
 1008000   0.57031001   -5.3479139   -5.3479139   -4.4924509 -0.0027709738   -5.3479139   0.85546307   439061 
 1009000   0.57066474    -5.347809    -5.347809   -4.4918139 -0.0035602302    -5.347809   0.85599516   439061 
 1010000   0.56994219   -5.3466492   -5.3466492   -4.4917379 0.0039054598   -5.3466492   0.85491134   439061 
 1011000   0.57151561    -5.349905    -5.349905   -4.4926336 0.00037590648    -5.349905   0.85727146   439061 
 1012000   0.57074904   -5.3493775   -5.3493775   -4.4932559 -0.00011041474   -5.3493775   0.85612161   439061 
 1013000   0.57015564    -5.349228    -5.349228   -4.4939965 0.0021447238    -5.349228   0.85523151   439061 
 1014000   0.57069303   -5.3500191   -5.3500191   -4.4939815 0.0031749767   -5.3500191    0.8560376   439061 
 1015000   0.57032244    -5.349909    -5.349909   -4.4944273  0.001268135    -5.349909   0.85548171   439061 
 1016000   0.57028899   -5.3500815   -5.3500815   -4.4946499 0.00015646242   -5.3500815   0.85543153   439061 
 1017000   0.57033521   -5.3515465   -5.3515465   -4.4960456 -0.0013377728   -5.3515465   0.85550087   439061 
 1018000   0.56975603   -5.3505863   -5.3505863   -4.4959542 -0.00046170838   -5.3505863   0.85463209   439061 
 1019000   0.56938927   -5.3514952   -5.3514952   -4.4974132 -0.0053044342   -5.3514952   0.85408196   439061 
 1020000   0.56986755   -5.3526975   -5.3526975   -4.4978981 -0.0040367276   -5.3526975   0.85479937   439061 
 1021000   0.57037724   -5.3526653   -5.3526653   -4.4971014 0.0015888857   -5.3526653   0.85556392   439061 
 1022000   0.56976715   -5.3519119   -5.3519119   -4.4972631 0.0053851077   -5.3519119   0.85464878   439061 
 1023000   0.56938493   -5.3516003   -5.3516003   -4.4975248 0.0062313075   -5.3516003   0.85407546   439061 
 1024000   0.57066758   -5.3544345   -5.3544345   -4.4984351 0.0028650035   -5.3544345   0.85599943   439061 
 1025000   0.57043033   -5.3552864   -5.3552864   -4.4996428 -0.00062195295   -5.3552864   0.85564354   439061 
 1026000    0.5695499   -5.3542577   -5.3542577   -4.4999348 -0.0010788966   -5.3542577    0.8543229   439061 
 1027000   0.56895584   -5.3534902   -5.3534902   -4.5000584 -0.0015913681   -5.3534902   0.85343182   439061 
 1028000   0.56855563   -5.3535532   -5.3535532   -4.5007217 0.00025233356   -5.3535532    0.8528315   439061 
 1029000   0.56940044    -5.355691    -5.355691   -4.5015923 -0.0010955291    -5.355691   0.85409871   439061 
 1030000   0.56911275   -5.3560383   -5.3560383   -4.5023712 -0.0012980131   -5.3560383   0.85366718   439061 
 1031000   0.56943962   -5.3565385   -5.3565385    -4.502381 0.0011672047   -5.3565385   0.85415748   439061 
 1032000   0.57014432   -5.3577617   -5.3577617   -4.5025471 0.0002783128   -5.3577617   0.85521454   439061 
 1033000   0.56937745   -5.3565406   -5.3565406   -4.5024764 0.0057484615   -5.3565406   0.85406422   439061 
 1034000   0.56898477   -5.3564755   -5.3564755   -4.5030002  0.001369664   -5.3564755   0.85347522   439061 
 1035000    0.5688739   -5.3565009   -5.3565009    -4.503192 -0.0016103837   -5.3565009    0.8533089   439061 
 1036000   0.56918531   -5.3567287   -5.3567287   -4.5029526 0.0017243085   -5.3567287   0.85377603   439061 
 1037000   0.56802739   -5.3557326   -5.3557326   -4.5036934 -0.0027538487   -5.3557326   0.85203915   439061 
 1038000   0.56856819   -5.3565983   -5.3565983    -4.503748 -0.0031723056   -5.3565983   0.85285034   439061 
 1039000   0.56799312   -5.3559999   -5.3559999   -4.5040122 -0.0027784008   -5.3559999   0.85198774   439061 
 1040000   0.56893296   -5.3564081   -5.3564081   -4.5030106 -0.0043705788   -5.3564081    0.8533975   439061 
 1041000   0.56814398   -5.3559664   -5.3559664   -4.5037524 -0.0017692212   -5.3559664   0.85221403   439061 
 1042000   0.56842347   -5.3564446   -5.3564446   -4.5038113 0.0016938499   -5.3564446   0.85263326   439061 
 1043000   0.56911422   -5.3572601   -5.3572601   -4.5035907 0.00063545695   -5.3572601   0.85366938   439061 
 1044000   0.56941994   -5.3599207   -5.3599207   -4.5057928 0.00076612986   -5.3599207   0.85412797   439061 
 1045000   0.56941897   -5.3590198   -5.3590198   -4.5048933 -0.00048603433   -5.3590198   0.85412651   439061 
 1046000   0.56860843    -5.359068    -5.359068   -4.5061573 0.0040990622    -5.359068    0.8529107   439061 
 1047000   0.56869244   -5.3590297   -5.3590297    -4.505993 0.0016068334   -5.3590297   0.85303672   439061 
 1048000   0.56894637   -5.3593449   -5.3593449   -4.5059273 0.0028914423   -5.3593449   0.85341761   439061 
 1049000   0.56898915   -5.3599179   -5.3599179   -4.5064361 -0.0017079988   -5.3599179   0.85348178   439061 
 1050000   0.56785646    -5.358319    -5.358319   -4.5065363 -0.0019593626    -5.358319   0.85178275   439061 
 1051000   0.56763517   -5.3584095   -5.3584095   -4.5069587 -0.00052627576   -5.3584095   0.85145081   439061 
 1052000   0.56832104   -5.3600182   -5.3600182   -4.5075386 -0.0039690276   -5.3600182   0.85247962   439061 
 1053000   0.56831849   -5.3610111   -5.3610111   -4.5085353 -0.0053741907   -5.3610111   0.85247579   439061 
 1054000   0.56736394   -5.3604619   -5.3604619    -4.509418 -0.0009946934   -5.3604619   0.85104397   439061 
 1055000   0.56657127   -5.3595398   -5.3595398   -4.5096848 0.0045749666   -5.3595398   0.84985497   439061 
 1056000   0.56753622   -5.3616532   -5.3616532   -4.5103508 -0.0013159176   -5.3616532   0.85130239   439061 
 1057000   0.56793049   -5.3623688   -5.3623688    -4.510475 0.0061375528   -5.3623688    0.8518938   439061 
 1058000   0.56782748    -5.362208    -5.362208   -4.5104688 -0.0014037833    -5.362208   0.85173928   439061 
 1059000   0.56798279   -5.3624965   -5.3624965   -4.5105243 0.00042733892   -5.3624965   0.85197224   439061 
 1060000   0.56709211   -5.3620889   -5.3620889   -4.5114526 0.0027345931   -5.3620889   0.85063622   439061 
 1061000   0.56767752   -5.3623878   -5.3623878   -4.5108735 0.0018332536   -5.3623878   0.85151434   439061 
 1062000   0.56687346   -5.3614123   -5.3614123    -4.511104  0.001049545   -5.3614123   0.85030826   439061 
 1063000   0.56741925   -5.3628025   -5.3628025   -4.5116755 -0.0011769929   -5.3628025   0.85112694   439061 
 1064000   0.56667822   -5.3622827   -5.3622827   -4.5122673 0.0025367656   -5.3622827   0.85001539   439061 
 1065000   0.56776193   -5.3634368   -5.3634368   -4.5117958 -0.00085958081   -5.3634368   0.85164096   439061 
 1066000   0.56706364   -5.3637112   -5.3637112   -4.5131176 -0.0019611065   -5.3637112   0.85059353   439061 
 1067000   0.56695118   -5.3635665   -5.3635665   -4.5131416 -0.00039438866   -5.3635665   0.85042484   439061 
 1068000   0.56690499   -5.3638745   -5.3638745    -4.513519 0.0061762459   -5.3638745   0.85035555   439061 
 1069000   0.56759243   -5.3653027   -5.3653027    -4.513916 -0.0039657722   -5.3653027    0.8513867   439061 
 1070000   0.56730168   -5.3651331   -5.3651331   -4.5141825  0.001527807   -5.3651331   0.85095059   439061 
 1071000   0.56728724   -5.3669344   -5.3669344   -4.5160055 0.0032070422   -5.3669344   0.85092892   439061 
 1072000   0.56706466   -5.3664208   -5.3664208   -4.5158258 -0.0025898138   -5.3664208   0.85059506   439061 
 1073000    0.5677715   -5.3681915   -5.3681915   -4.5165362 -0.0012822278   -5.3681915   0.85165531   439061 
 1074000   0.56641316   -5.3668661   -5.3668661   -4.5172483 0.00050739863   -5.3668661   0.84961781   439061 
 1075000   0.56681543   -5.3677778   -5.3677778   -4.5175566 -0.0025947016   -5.3677778   0.85022121   439061 
 1076000   0.56525993   -5.3672386   -5.3672386   -4.5193506 -0.0016843354   -5.3672386   0.84788797   439061 
 1077000   0.56545368   -5.3676288   -5.3676288   -4.5194502 0.00061280003   -5.3676288   0.84817859   439061 
 1078000   0.56621178   -5.3685439   -5.3685439   -4.5192282 0.0017434805   -5.3685439   0.84931573   439061 
 1079000   0.56654345   -5.3697972   -5.3697972    -4.519984 -0.00023289152   -5.3697972   0.84981325   439061 
 1080000   0.56551175   -5.3688846   -5.3688846   -4.5206189 0.0020252138   -5.3688846   0.84826569   439061 
 1081000   0.56545404    -5.368376    -5.368376   -4.5201968 0.0029875084    -5.368376   0.84817913   439061 
 1082000   0.56566479   -5.3692806   -5.3692806   -4.5207853  0.002668302   -5.3692806   0.84849526   439061 
 1083000   0.56539456   -5.3692456   -5.3692456   -4.5211557 -0.00021546832   -5.3692456   0.84808991   439061 
 1084000   0.56510822   -5.3699108   -5.3699108   -4.5222504 0.0028404003   -5.3699108    0.8476604   439061 
 1085000   0.56461078   -5.3696935   -5.3696935   -4.5227792 0.0012068018   -5.3696935   0.84691423   439061 
 1086000   0.56617785    -5.372122    -5.372122   -4.5228572 -0.0055509906    -5.372122   0.84926484   439061 
 1087000   0.56545571   -5.3711417   -5.3711417     -4.52296 0.0012622233   -5.3711417   0.84818163   439061 
 1088000   0.56546671   -5.3720152   -5.3720152   -4.5238171 -0.0029974455   -5.3720152   0.84819813   439061 
 1089000   0.56495618   -5.3712566   -5.3712566   -4.5238242 -0.00027732945   -5.3712566   0.84743234   439061 
 1090000     0.564687   -5.3708226   -5.3708226    -4.523794 0.0010480195   -5.3708226   0.84702857   439061 
 1091000   0.56509259   -5.3719245   -5.3719245   -4.5242876 0.0021663219   -5.3719245   0.84763696   439061 
 1092000   0.56593711   -5.3722155   -5.3722155   -4.5233117 0.00065668745   -5.3722155   0.84890374   439061 
 1093000   0.56585493   -5.3733934   -5.3733934    -4.524613  2.54967e-05   -5.3733934   0.84878046   439061 
 1094000   0.56436708    -5.372214    -5.372214   -4.5256653 0.0015396183    -5.372214    0.8465487   439061 
 1095000   0.56559635   -5.3742849   -5.3742849   -4.5258923 0.0001361659   -5.3742849    0.8483926   439061 
 1096000   0.56477824    -5.371668    -5.371668   -4.5245025 0.0021652305    -5.371668   0.84716544   439061 
 1097000   0.56553184   -5.3730816   -5.3730816   -4.5247858 -0.00037145397   -5.3730816   0.84829583   439061 
 1098000   0.56485007   -5.3727146   -5.3727146   -4.5254414  0.002851502   -5.3727146   0.84727318   439061 
 1099000   0.56378392   -5.3724468   -5.3724468   -4.5267728 0.0013413801   -5.3724468   0.84567395   439061 
 1100000   0.56379879   -5.3727539   -5.3727539   -4.5270576 -0.0025826916   -5.3727539   0.84569626   439061 
 1101000    0.5641464   -5.3733403   -5.3733403   -4.5271226 -0.0024541463   -5.3733403   0.84621767   439061 
 1102000   0.56412633   -5.3749732   -5.3749732   -4.5287856 0.0032489294   -5.3749732   0.84618757   439061 
 1103000    0.5645514   -5.3756865   -5.3756865   -4.5288613 -0.00069790729   -5.3756865   0.84682518   439061 
 1104000   0.56506625   -5.3759417   -5.3759417   -4.5283443 -0.0021581339   -5.3759417   0.84759744   439061 
 1105000   0.56463473   -5.3768871   -5.3768871   -4.5299369 -0.0019991954   -5.3768871   0.84695017   439061 
 1106000   0.56410576   -5.3754227   -5.3754227    -4.529266 0.0033654885   -5.3754227   0.84615671   439061 
 1107000   0.56522339   -5.3779293   -5.3779293   -4.5300961 -0.0016622189   -5.3779293   0.84783316   439061 
 1108000   0.56408208   -5.3763159   -5.3763159   -4.5301947 0.00023543459   -5.3763159   0.84612119   439061 
 1109000   0.56274854   -5.3748476   -5.3748476   -4.5307267 -0.00012054028   -5.3748476   0.84412089   439061 
 1110000   0.56423253   -5.3776718   -5.3776718    -4.531325 -0.0050441833   -5.3776718   0.84634686   439061 
 1111000   0.56333303   -5.3765104   -5.3765104   -4.5315127 -0.0030820247   -5.3765104   0.84499761   439061 
 1112000   0.56281111   -5.3759029   -5.3759029   -4.5316881 -0.0010323055   -5.3759029   0.84421474   439061 
 1113000   0.56400402   -5.3788087   -5.3788087   -4.5328046 -0.0026662262   -5.3788087   0.84600411   439061 
 1114000   0.56345017   -5.3785528   -5.3785528   -4.5333794 0.0044326697   -5.3785528   0.84517334   439061 
 1115000   0.56358902   -5.3797535   -5.3797535   -4.5343719 0.0029207532   -5.3797535    0.8453816   439061 
 1116000   0.56393669   -5.3809326   -5.3809326   -4.5350294  0.004040905   -5.3809326   0.84590311   439061 
 1117000   0.56405033   -5.3812064   -5.3812064   -4.5351328 0.0054781848   -5.3812064   0.84607356   439061 
 1118000   0.56464336   -5.3812406   -5.3812406   -4.5342775 0.0046311547   -5.3812406   0.84696311   439061 
 1119000   0.56479935   -5.3813962   -5.3813962   -4.5341992 2.9102619e-05   -5.3813962    0.8471971   439061 
 1120000     0.563591   -5.3795137   -5.3795137   -4.5341291 -0.0040811352   -5.3795137   0.84538458   439061 
 1121000   0.56321949    -5.378663    -5.378663   -4.5338357 -0.00043363509    -5.378663   0.84482731   439061 
 1122000   0.56297034   -5.3781161   -5.3781161   -4.5336625 0.00060711148   -5.3781161   0.84445358   439061 
 1123000   0.56283934   -5.3784018   -5.3784018   -4.5341447 -0.0038798053   -5.3784018   0.84425709   439061 
 1124000   0.56240577   -5.3780445   -5.3780445   -4.5344378 -0.0081953213   -5.3780445   0.84360674   439061 
 1125000   0.56235333   -5.3781612   -5.3781612   -4.5346332 -0.0036274558   -5.3781612   0.84352807   439061 
 1126000   0.56362873   -5.3792044   -5.3792044   -4.5337632 -0.00043862295   -5.3792044   0.84544118   439061 
 1127000   0.56402357   -5.3797102   -5.3797102   -4.5336768  0.005516121   -5.3797102   0.84603343   439061 
 1128000   0.56390268   -5.3806523   -5.3806523   -4.5348002 0.0052012248   -5.3806523    0.8458521   439061 
 1129000   0.56438339   -5.3812228   -5.3812228   -4.5346496 0.0046175648   -5.3812228   0.84657316   439061 
 1130000   0.56516278   -5.3829309   -5.3829309   -4.5351886 0.0032556667   -5.3829309   0.84774223   439061 
 1131000   0.56368018   -5.3798227   -5.3798227   -4.5343043 0.0068591394   -5.3798227   0.84551835   439061 
 1132000   0.56364127   -5.3796462   -5.3796462   -4.5341862 -0.00083976738   -5.3796462   0.84545998   439061 
 1133000   0.56354916   -5.3799861   -5.3799861   -4.5346643 -0.006042044   -5.3799861   0.84532182   439061 
 1134000   0.56279114   -5.3791257   -5.3791257    -4.534941 -0.0034323828   -5.3791257   0.84418479   439061 
 1135000   0.56224579   -5.3774679   -5.3774679   -4.5341011 -0.0046864743   -5.3774679   0.84336676   439061 
 1136000   0.56250135   -5.3791666   -5.3791666   -4.5354165 -0.0053428206   -5.3791666   0.84375011   439061 
 1137000   0.56286976   -5.3789566   -5.3789566   -4.5346539 -0.001432426   -5.3789566   0.84430271   439061 
 1138000    0.5641901   -5.3802936   -5.3802936   -4.5340103 0.0045664044   -5.3802936   0.84628322   439061 
 1139000   0.56407813   -5.3815114   -5.3815114   -4.5353961 0.0036169559   -5.3815114   0.84611526   439061 
 1140000   0.56311389   -5.3814129   -5.3814129    -4.536744 0.0011660309   -5.3814129   0.84466892   439061 
 1141000     0.563725   -5.3825836   -5.3825836    -4.536998 -0.00091531979   -5.3825836   0.84558557   439061 
 1142000   0.56444646   -5.3842283   -5.3842283   -4.5375605 -0.0013427426   -5.3842283   0.84666777   439061 
 1143000   0.56317367   -5.3820305   -5.3820305   -4.5372719 0.0026174105   -5.3820305   0.84475858   439061 
 1144000   0.56220131   -5.3815908   -5.3815908   -4.5382908 -0.0014535444   -5.3815908   0.84330004   439061 
 1145000   0.56170958   -5.3814614   -5.3814614    -4.538899 -0.0035476144   -5.3814614   0.84256244   439061 
 1146000   0.56190272   -5.3824847   -5.3824847   -4.5396326 -0.0012605686   -5.3824847   0.84285216   439061 
 1147000    0.5630094   -5.3841227   -5.3841227   -4.5396105 -0.0060643815   -5.3841227   0.84451218   439061 
 1148000   0.56194501   -5.3824316   -5.3824316    -4.539516 -0.0031483372   -5.3824316   0.84291559   439061 
 1149000   0.56223443   -5.3832397   -5.3832397     -4.53989 0.0020826251   -5.3832397   0.84334973   439061 
 1150000   0.56360324   -5.3853631   -5.3853631   -4.5399602 -0.0019166735   -5.3853631   0.84540293   439061 
 1151000   0.56299732   -5.3849785   -5.3849785   -4.5404845 0.0032539467   -5.3849785   0.84449406   439061 
 1152000   0.56337591   -5.3851708   -5.3851708   -4.5401088 -0.00069338993   -5.3851708   0.84506195   439061 
 1153000   0.56260886   -5.3838973   -5.3838973   -4.5399859 0.0017717962   -5.3838973   0.84391136   439061 
 1154000   0.56291542   -5.3851311   -5.3851311   -4.5407599 -0.003201281   -5.3851311   0.84437121   439061 
 1155000   0.56221741    -5.384256    -5.384256   -4.5409318 -0.0050317339    -5.384256    0.8433242   439061 
 1156000   0.56176048   -5.3835463   -5.3835463   -4.5409075 2.4220281e-05   -5.3835463    0.8426388   439061 
 1157000    0.5621775    -5.383841    -5.383841   -4.5405766 -0.0020547544    -5.383841   0.84326433   439061 
 1158000   0.56190495   -5.3842406   -5.3842406   -4.5413851 -0.00023564491   -5.3842406   0.84285551   439061 
 1159000   0.56281158   -5.3861641   -5.3861641   -4.5419487 -0.0024000885   -5.3861641   0.84421545   439061 
 1160000   0.56290468   -5.3872052   -5.3872052   -4.5428501 -0.0025469111   -5.3872052    0.8443551   439061 
 1161000   0.56141486   -5.3859561   -5.3859561   -4.5438357 -0.0012036978   -5.3859561   0.84212037   439061 
 1162000   0.56095632   -5.3847945   -5.3847945    -4.543362 0.0011343551   -5.3847945   0.84143257   439061 
 1163000   0.56199831   -5.3865588   -5.3865588   -4.5435632 -0.0010251115   -5.3865588   0.84299554   439061 
 1164000   0.56262553   -5.3875959   -5.3875959   -4.5436595 0.0012349783   -5.3875959   0.84393638   439061 
 1165000   0.56239217   -5.3880312   -5.3880312   -4.5444449 -0.00042281774   -5.3880312   0.84358634   439061 
 1166000   0.56166188   -5.3873196   -5.3873196   -4.5448287 0.0018590755   -5.3873196   0.84249091   439061 
 1167000   0.56152599   -5.3875607   -5.3875607   -4.5452736 -0.00073785723   -5.3875607   0.84228707   439061 
 1168000   0.56050245   -5.3862593   -5.3862593   -4.5455076 -0.00068331929   -5.3862593   0.84075176   439061 
 1169000   0.56074563   -5.3872562   -5.3872562   -4.5461396 -0.002204244   -5.3872562   0.84111653   439061 
 1170000    0.5614605   -5.3881275   -5.3881275   -4.5459387 -0.0018699442   -5.3881275   0.84218883   439061 
 1171000   0.56148787   -5.3892919   -5.3892919    -4.547062 -0.0031354194   -5.3892919   0.84222989   439061 
 1172000   0.56179782    -5.389683    -5.389683   -4.5469882 -0.00040846813    -5.389683   0.84269481   439061 
 1173000   0.56066048   -5.3888421   -5.3888421   -4.5478533 0.0020104234   -5.3888421    0.8409888   439061 
 1174000   0.56075317   -5.3898755   -5.3898755   -4.5487477 0.0036001864   -5.3898755   0.84112784   439061 
 1175000   0.56102145   -5.3907535   -5.3907535   -4.5492233 0.0012656224   -5.3907535   0.84153026   439061 
 1176000   0.56108667    -5.391335    -5.391335   -4.5497069  -0.00241165    -5.391335   0.84162808   439061 
 1177000   0.56079965   -5.3912022   -5.3912022   -4.5500046 0.0027578441   -5.3912022   0.84119756   439061 
 1178000   0.56140948   -5.3910527   -5.3910527   -4.5489404 0.0068216306   -5.3910527    0.8421123   439061 
 1179000   0.56136113   -5.3907643   -5.3907643   -4.5487245 0.0052844863   -5.3907643   0.84203978   439061 
 1180000   0.56060793   -5.3904161   -5.3904161   -4.5495061 0.0050632256   -5.3904161   0.84090998   439061 
 1181000   0.55987781   -5.3897911   -5.3897911   -4.5499763 -0.0017401229   -5.3897911    0.8398148   439061 
 1182000   0.55997431   -5.3900705   -5.3900705   -4.5501109 -0.0021672023   -5.3900705   0.83995955   439061 
 1183000   0.56109301   -5.3906389   -5.3906389   -4.5490013 -0.0014023875   -5.3906389    0.8416376   439061 
 1184000    0.5609768   -5.3907294   -5.3907294   -4.5492661 -0.0022014059   -5.3907294   0.84146328   439061 
 1185000   0.56107331   -5.3902626   -5.3902626   -4.5486546 -0.0013632146   -5.3902626   0.84160804   439061 
 1186000   0.56034482   -5.3896519   -5.3896519   -4.5491366  0.001606204   -5.3896519   0.84051531   439061 
 1187000   0.56029407   -5.3905512   -5.3905512    -4.550112 -0.0030853942   -5.3905512   0.84043918   439061 
 1188000    0.5606471   -5.3907357   -5.3907357   -4.5497669 -0.0019973647   -5.3907357   0.84096874   439061 
 1189000   0.56101013   -5.3912595   -5.3912595   -4.5497462 -0.00094819157   -5.3912595   0.84151328   439061 
 1190000   0.56109075   -5.3914497   -5.3914497   -4.5498155 -0.0018346554   -5.3914497   0.84163421   439061 
 1191000    0.5610188   -5.3908274   -5.3908274   -4.5493011 0.0033640671   -5.3908274   0.84152628   439061 
 1192000   0.56038634    -5.391102    -5.391102   -4.5505244 0.00086258918    -5.391102    0.8405776   439061 
 1193000   0.56022088   -5.3909011   -5.3909011   -4.5505717 -0.0032590418   -5.3909011   0.84032941   439061 
 1194000   0.56003854   -5.3914779   -5.3914779    -4.551422 0.00028574658   -5.3914779    0.8400559   439061 
 1195000   0.55995897   -5.3910326   -5.3910326    -4.551096 -0.0018403555   -5.3910326   0.83993654   439061 
 1196000    0.5590914   -5.3894803   -5.3894803   -4.5508451 0.0030124402   -5.3894803   0.83863519   439061 
 1197000    0.5607498   -5.3918206   -5.3918206   -4.5506978 -0.0027690206   -5.3918206   0.84112278   439061 
 1198000    0.5605799   -5.3915695   -5.3915695   -4.5507016 0.00091806379   -5.3915695   0.84086794   439061 
 1199000   0.56018657   -5.3920107   -5.3920107   -4.5517328 -0.001123492   -5.3920107   0.84027794   439061 
 1200000   0.55989433     -5.39235     -5.39235   -4.5525105 -0.0033637836     -5.39235   0.83983958   439061 
 1201000   0.55996826   -5.3930961   -5.3930961   -4.5531456 0.0012678353   -5.3930961   0.83995048   439061 
 1202000   0.56044724   -5.3937741   -5.3937741   -4.5531052 -0.0025697044   -5.3937741   0.84066895   439061 
 1203000   0.55983076   -5.3928952   -5.3928952   -4.5531509 -0.0024515811   -5.3928952   0.83974423   439061 
 1204000    0.5611426   -5.3951121   -5.3951121   -4.5534002 -0.0011177363   -5.3951121   0.84171198   439061 
 1205000    0.5601095   -5.3941458   -5.3941458   -4.5539834 0.0040657857   -5.3941458   0.84016233   439061 
 1206000   0.56106439   -5.3948574   -5.3948574   -4.5532628 0.0025238341   -5.3948574   0.84159467   439061 
 1207000   0.55934707   -5.3926645   -5.3926645   -4.5536458 0.0033598377   -5.3926645    0.8390187   439061 
 1208000   0.56049436   -5.3951712   -5.3951712   -4.5544316 0.0026208426   -5.3951712   0.84073963   439061 
 1209000   0.55998869   -5.3947637   -5.3947637   -4.5547826 -0.00096399615   -5.3947637   0.83998112   439061 
 1210000   0.55932272   -5.3943351   -5.3943351   -4.5553529 -0.0025263072   -5.3943351   0.83898217   439061 
 1211000   0.55929504   -5.3951612   -5.3951612   -4.5562206 -0.0036609541   -5.3951612   0.83894064   439061 
 1212000    0.5581869   -5.3937782   -5.3937782   -4.5564998 -0.0024538205   -5.3937782   0.83727845   439061 
 1213000    0.5592576   -5.3946127   -5.3946127   -4.5557282 -0.002645382   -5.3946127   0.83888449   439061 
 1214000   0.56100039     -5.39727     -5.39727   -4.5557713 -0.0035504226     -5.39727   0.84149867   439061 
 1215000   0.56070588   -5.3960039   -5.3960039    -4.554947 0.00026918469   -5.3960039   0.84105691   439061 
 1216000   0.56011337   -5.3957811   -5.3957811    -4.555613 0.0012768656   -5.3957811   0.84016814   439061 
 1217000   0.55941579   -5.3954387   -5.3954387    -4.556317 -0.0013109139   -5.3954387   0.83912177   439061 
 1218000   0.55909906   -5.3939146   -5.3939146   -4.5552679 0.0023337916   -5.3939146   0.83864668   439061 
 1219000   0.55999079    -5.394863    -5.394863   -4.5548787 0.0026002124    -5.394863   0.83998427   439061 
 1220000   0.55934119    -5.395363    -5.395363   -4.5563532  0.001120868    -5.395363   0.83900987   439061 
 1221000   0.55921638   -5.3951448   -5.3951448   -4.5563221 -0.0031980141   -5.3951448   0.83882265   439061 
 1222000   0.55948766   -5.3957497   -5.3957497   -4.5565201 0.00093609071   -5.3957497   0.83922958   439061 
 1223000   0.55951097   -5.3961594   -5.3961594   -4.5568949 -0.0033330651   -5.3961594   0.83926454   439061 
 1224000    0.5600751   -5.3971335   -5.3971335   -4.5570227 -0.0052723947   -5.3971335   0.84011074   439061 
 1225000    0.5592395   -5.3959499   -5.3959499   -4.5570925 0.0022792959   -5.3959499   0.83885734   439061 
 1226000   0.56026919    -5.397709    -5.397709   -4.5573071 -0.001757944    -5.397709   0.84040187   439061 
 1227000   0.55990024   -5.3980293   -5.3980293   -4.5581808 0.0045018011   -5.3980293   0.83984845   439061 
 1228000    0.5603543   -5.3985057   -5.3985057   -4.5579761 -7.940919e-05   -5.3985057   0.84052954   439061 
 1229000   0.55894861   -5.3965179   -5.3965179   -4.5580969 0.0017877675   -5.3965179   0.83842101   439061 
 1230000   0.55899423   -5.3972858   -5.3972858   -4.5587963 -0.0024156761   -5.3972858   0.83848944   439061 
 1231000   0.55912121   -5.3990058   -5.3990058   -4.5603259 -0.00053850811   -5.3990058    0.8386799   439061 
 1232000   0.55893495   -5.3975306   -5.3975306   -4.5591301 -0.0043526621   -5.3975306   0.83840051   439061 
 1233000   0.55966189   -5.3987215   -5.3987215   -4.5592306 -0.0080517509   -5.3987215   0.83949093   439061 
 1234000   0.55862004    -5.397335    -5.397335   -4.5594069 0.0018267111    -5.397335   0.83792815   439061 
 1235000   0.55907216   -5.3981205   -5.3981205   -4.5595141 0.0022169641   -5.3981205   0.83860633   439061 
 1236000   0.55875144   -5.3989941   -5.3989941   -4.5608688 -0.0013819369   -5.3989941   0.83812526   439061 
 1237000   0.55889705   -5.3997135   -5.3997135   -4.5613698  0.002097619   -5.3997135   0.83834367   439061 
 1238000   0.55988925   -5.4009822   -5.4009822   -4.5611502 0.0016404671   -5.4009822   0.83983196   439061 
 1239000   0.55892127   -5.4003953   -5.4003953   -4.5620153 0.0013764309   -5.4003953   0.83837999   439061 
 1240000   0.55876057   -5.3993479   -5.3993479   -4.5612089 0.00024925311   -5.3993479   0.83813895   439061 
 1241000   0.55925889   -5.4012955   -5.4012955   -4.5624091 -0.0061959704   -5.4012955   0.83888643   439061 
 1242000   0.55791743   -5.3989643   -5.3989643   -4.5620901 0.0016926398   -5.3989643   0.83687423   439061 
 1243000   0.55949861   -5.4005001   -5.4005001   -4.5612541 -0.0021284187   -5.4005001     0.839246   439061 
 1244000   0.55857639   -5.4000656   -5.4000656   -4.5622029 -0.0011244565   -5.4000656   0.83786268   439061 
 1245000   0.55873905   -5.4001332   -5.4001332   -4.5620265 -0.00020679231   -5.4001332   0.83810666   439061 
 1246000    0.5584526   -5.4003119   -5.4003119   -4.5626349 -0.0012396245   -5.4003119     0.837677   439061 
 1247000    0.5583918   -5.3998275   -5.3998275   -4.5622417 -0.00094916958   -5.3998275   0.83758579   439061 
 1248000   0.55806607   -5.4000319   -5.4000319   -4.5629347 0.0027488094   -5.4000319    0.8370972   439061 
 1249000   0.55927597   -5.4004796   -5.4004796   -4.5615675 0.00051024436   -5.4004796   0.83891204   439061 
 1250000   0.55950711   -5.4017811   -5.4017811   -4.5625224 -6.4315794e-05   -5.4017811   0.83925875   439061 
 1251000   0.55832696    -5.400532    -5.400532   -4.5630434 -0.0056403562    -5.400532   0.83748853   439061 
 1252000   0.55874984   -5.4014417   -5.4014417   -4.5633189 -0.0045763594   -5.4014417   0.83812285   439061 
 1253000   0.55889056   -5.4018689   -5.4018689    -4.563535 0.00061651479   -5.4018689   0.83833393   439061 
 1254000   0.55833822   -5.4014868   -5.4014868   -4.5639814 -0.0028048436   -5.4014868   0.83750543   439061 
 1255000   0.55879206   -5.4015268   -5.4015268   -4.5633406 -0.00077353639   -5.4015268   0.83818618   439061 
 1256000   0.55916816    -5.403177    -5.403177   -4.5644267 0.0021584857    -5.403177   0.83875033   439061 
 1257000   0.55801631   -5.4015679   -5.4015679   -4.5645454 0.0023062268   -5.4015679   0.83702255   439061 
 1258000   0.55793083   -5.4011352   -5.4011352   -4.5642409 -0.0013742773   -5.4011352   0.83689434   439061 
 1259000    0.5580196   -5.4015585   -5.4015585    -4.564531 0.0034808253   -5.4015585    0.8370275   439061 
 1260000   0.55837518   -5.4019999   -5.4019999   -4.5644391 0.00060322856   -5.4019999   0.83756086   439061 
 1261000   0.55848043   -5.4016995   -5.4016995   -4.5639808 -0.00082279058   -5.4016995   0.83771873   439061 
 1262000   0.55834734   -5.4018275   -5.4018275   -4.5643084 -0.0061189243   -5.4018275    0.8375191   439061 
 1263000   0.55826367   -5.4013391   -5.4013391   -4.5639455 -0.00032356265   -5.4013391    0.8373936   439061 
 1264000   0.55839606   -5.4016435   -5.4016435   -4.5640513 -0.001861323   -5.4016435   0.83759219   439061 
 1265000    0.5578847   -5.4000642   -5.4000642   -4.5632391 -0.0024318861   -5.4000642   0.83682515   439061 
 1266000   0.55871694   -5.4018893   -5.4018893   -4.5638158 -0.00054058887   -5.4018893    0.8380735   439061 
 1267000   0.55839953   -5.4012624   -5.4012624    -4.563665 0.0019431823   -5.4012624   0.83759738   439061 
 1268000   0.55786926   -5.4012534   -5.4012534   -4.5644514 -0.0036300931   -5.4012534   0.83680198   439061 
 1269000   0.55847864   -5.4019163   -5.4019163   -4.5642003 0.00028433953   -5.4019163   0.83771605   439061 
 1270000   0.55770873   -5.4015304   -5.4015304   -4.5649692 0.0020718435   -5.4015304   0.83656119   439061 
 1271000   0.55882327    -5.401974    -5.401974    -4.563741 0.0009450003    -5.401974     0.838233   439061 
 1272000   0.55832838   -5.4020839   -5.4020839   -4.5645933 -0.00036415908   -5.4020839   0.83749066   439061 
 1273000   0.55837844   -5.4008494   -5.4008494   -4.5632836 -0.0003904129   -5.4008494   0.83756575   439061 
 1274000   0.55846278   -5.4011359   -5.4011359   -4.5634436 -0.000405512   -5.4011359   0.83769226   439061 
 1275000   0.55745113   -5.4003951   -5.4003951   -4.5642203 0.0027455934   -5.4003951   0.83617478   439061 
 1276000   0.55778785    -5.401349    -5.401349   -4.5646692 -0.0031637143    -5.401349   0.83667987   439061 
 1277000   0.55756033   -5.4006698   -5.4006698   -4.5643312 0.0015430246   -5.4006698   0.83633859   439061 
 1278000   0.55867234   -5.4028113   -5.4028113   -4.5648047 -0.0038206926   -5.4028113    0.8380066   439061 
 1279000   0.55843585   -5.4035748   -5.4035748   -4.5659229 -0.00071174188   -5.4035748   0.83765187   439061 
 1280000   0.55760822   -5.4025232   -5.4025232   -4.5661128 0.0024802693   -5.4025232   0.83641042   439061 
 1281000   0.55747315   -5.4030989   -5.4030989   -4.5668911 0.0028300889   -5.4030989   0.83620782   439061 
 1282000   0.55881912   -5.4054544   -5.4054544   -4.5672277 -0.0022369564   -5.4054544   0.83822677   439061 
 1283000   0.55788457   -5.4040742   -5.4040742   -4.5672492 0.0032768526   -5.4040742   0.83682495   439061 
 1284000   0.55829187   -5.4045003   -5.4045003   -4.5670644 0.0058336167   -5.4045003    0.8374359   439061 
 1285000   0.55761071   -5.4044175   -5.4044175   -4.5680034 0.0018108454   -5.4044175   0.83641415   439061 
 1286000   0.55773835    -5.405265    -5.405265   -4.5686594 -0.0037849913    -5.405265   0.83660562   439061 
 1287000   0.55721725   -5.4041549   -5.4041549    -4.568331 -0.0018025391   -5.4041549   0.83582396   439061 
 1288000   0.55777731   -5.4038355   -5.4038355   -4.5671715 -0.0021402495   -5.4038355   0.83666406   439061 
 1289000   0.55774136   -5.4035783   -5.4035783   -4.5669682 -0.0030764131   -5.4035783   0.83661014   439061 
 1290000   0.55636567   -5.4020833   -5.4020833   -4.5675367 -0.00075828385   -5.4020833    0.8345466   439061 
 1291000   0.55687342   -5.4039636   -5.4039636   -4.5686553 -0.005971419   -5.4039636   0.83530823   439061 
 1292000   0.55773287   -5.4056533   -5.4056533   -4.5690559 -0.0061885263   -5.4056533   0.83659739   439061 
 1293000   0.55787472   -5.4061435   -5.4061435   -4.5693333 -0.0019166646   -5.4061435   0.83681017   439061 
 1294000   0.55763135   -5.4056828   -5.4056828   -4.5692377 0.0054125433   -5.4056828   0.83644511   439061 
 1295000   0.55791128   -5.4060854   -5.4060854   -4.5692204 0.0075391872   -5.4060854   0.83686501   439061 
 1296000   0.55720704   -5.4057073   -5.4057073   -4.5698986 0.0043868072   -5.4057073   0.83580865   439061 
 1297000   0.55803071   -5.4072041   -5.4072041     -4.57016 0.0034633026   -5.4072041   0.83704415   439061 
 1298000   0.55737226   -5.4068535   -5.4068535    -4.570797 0.0046073135   -5.4068535   0.83605649   439061 
 1299000   0.55659672   -5.4062692   -5.4062692    -4.571376 0.0015192011   -5.4062692   0.83489318   439061 
 1300000   0.55658844   -5.4068046   -5.4068046   -4.5719239 -0.0037494218   -5.4068046   0.83488076   439061 
 1301000   0.55708199   -5.4069921   -5.4069921    -4.571371 -0.0063681659   -5.4069921   0.83562109   439061 
 1302000   0.55506639   -5.4047755   -5.4047755   -4.5721778 -0.0077196343   -5.4047755   0.83259769   439061 
 1303000   0.55582265   -5.4059051   -5.4059051   -4.5721731 -0.0037938378   -5.4059051   0.83373208   439061 
 1304000   0.55637219   -5.4066243   -5.4066243   -4.5720679 -0.0026674854   -5.4066243   0.83455639   439061 
 1305000   0.55757054   -5.4091364   -5.4091364   -4.5727825 -0.0020918697   -5.4091364   0.83635391   439061 
 1306000   0.55693331   -5.4081646   -5.4081646   -4.5727666 0.0028954803   -5.4081646   0.83539807   439061 
 1307000   0.55714388    -5.408585    -5.408585   -4.5728711 0.0053810221    -5.408585   0.83571391   439061 
 1308000   0.55707041   -5.4090605   -5.4090605   -4.5734568 0.0027850446   -5.4090605   0.83560371   439061 
 1309000   0.55697281   -5.4091656   -5.4091656   -4.5737083 0.0057777602   -5.4091656   0.83545731   439061 
 1310000   0.55643735   -5.4094229   -5.4094229   -4.5747688 -0.0039106733   -5.4094229   0.83465412   439061 
 1311000   0.55656607   -5.4084888   -5.4084888   -4.5736416 1.5469607e-05   -5.4084888    0.8348472   439061 
 1312000   0.55630731   -5.4082246   -5.4082246   -4.5737655 -0.0029184253   -5.4082246   0.83445906   439061 
 1313000   0.55725129   -5.4090921   -5.4090921   -4.5732171 -0.0073451274   -5.4090921   0.83587503   439061 
 1314000   0.55711627   -5.4086927   -5.4086927   -4.5730202 -0.0077330202   -5.4086927    0.8356725   439061 
 1315000   0.55709634   -5.4087166   -5.4087166    -4.573074 -0.0017014622   -5.4087166   0.83564261   439061 
 1316000   0.55664192   -5.4080073   -5.4080073   -4.5730463 -0.00033074159   -5.4080073   0.83496098   439061 
 1317000   0.55648697   -5.4085467   -5.4085467   -4.5738182 -0.00055872822   -5.4085467   0.83472856   439061 
 1318000    0.5574637   -5.4094803   -5.4094803   -4.5732866 0.0004604858   -5.4094803   0.83619364   439061 
 1319000   0.55706339    -5.409609    -5.409609   -4.5740158  0.002931301    -5.409609   0.83559318   439061 
 1320000   0.55625969   -5.4095906   -5.4095906    -4.575203 0.0027361639   -5.4095906   0.83438764   439061 
 1321000   0.55643319   -5.4099081   -5.4099081   -4.5752602 0.00068056406   -5.4099081   0.83464788   439061 
 1322000   0.55681687   -5.4102237   -5.4102237   -4.5750003 -0.00073623725   -5.4102237    0.8352234   439061 
 1323000   0.55641182   -5.4103737   -5.4103737   -4.5757579 -0.0029002029   -5.4103737   0.83461583   439061 
 1324000   0.55612861   -5.4092906   -5.4092906   -4.5750995 0.00076448979   -5.4092906   0.83419101   439061 
 1325000   0.55662348   -5.4091713   -5.4091713    -4.574238 -0.0022487066   -5.4091713   0.83493332   439061 
 1326000   0.55631614    -5.408915    -5.408915   -4.5744426 0.0018598005    -5.408915   0.83447231   439061 
 1327000   0.55640033   -5.4091266   -5.4091266    -4.574528 -0.00094558522   -5.4091266   0.83459859   439061 
 1328000   0.55663015   -5.4091539   -5.4091539   -4.5742106 -0.0027473477   -5.4091539   0.83494333   439061 
 1329000   0.55585567   -5.4082117   -5.4082117   -4.5744301 -0.0032956184   -5.4082117   0.83378161   439061 
 1330000   0.55627029   -5.4091291   -5.4091291   -4.5747256 -0.0010052975   -5.4091291   0.83440353   439061 
 1331000    0.5565411   -5.4091898   -5.4091898     -4.57438 -0.0024448774   -5.4091898   0.83480975   439061 
 1332000   0.55632001   -5.4083422   -5.4083422   -4.5738641 0.0014188726   -5.4083422   0.83447812   439061 
 1333000   0.55713017   -5.4106577   -5.4106577   -4.5749643 -0.0021490604   -5.4106577   0.83569336   439061 
 1334000   0.55673862   -5.4104896   -5.4104896   -4.5753836 -0.00029631963   -5.4104896   0.83510604   439061 
 1335000    0.5563583   -5.4100492   -5.4100492   -4.5755136 -0.0017485912   -5.4100492   0.83453554   439061 
 1336000   0.55616402   -5.4095288   -5.4095288   -4.5752846 -0.0015991288   -5.4095288   0.83424414   439061 
 1337000   0.55561949   -5.4091593   -5.4091593    -4.575732 0.0013696377   -5.4091593   0.83342734   439061 
 1338000   0.55623877   -5.4100924   -5.4100924   -4.5757361 -0.0019059667   -5.4100924   0.83435626   439061 
 1339000   0.55534043   -5.4084067   -5.4084067    -4.575398 0.0016415239   -5.4084067   0.83300875   439061 
 1340000   0.55614957   -5.4099243   -5.4099243   -4.5757018 -0.0012888804   -5.4099243   0.83422245   439061 
 1341000   0.55499872   -5.4088044   -5.4088044   -4.5763083 -0.00062400521   -5.4088044   0.83249618   439061 
 1342000   0.55606222   -5.4111629   -5.4111629   -4.5770715 0.00010369011   -5.4111629   0.83409144   439061 
 1343000   0.55630599   -5.4103993   -5.4103993   -4.5759422 0.0024985458   -5.4103993   0.83445709   439061 
 1344000    0.5561054   -5.4104998   -5.4104998   -4.5763436 -0.00015666993   -5.4104998    0.8341562   439061 
 1345000   0.55490712   -5.4092579   -5.4092579   -4.5768991 -0.00050885641   -5.4092579   0.83235879   439061 
 1346000   0.55542438     -5.41038     -5.41038   -4.5772453 0.0007406745     -5.41038   0.83313467   439061 
 1347000   0.55536359   -5.4096275   -5.4096275    -4.576584 0.0009933643   -5.4096275   0.83304349   439061 
 1348000   0.55520443   -5.4100282   -5.4100282   -4.5772235 -7.8540434e-05   -5.4100282   0.83280475   439061 
 1349000   0.55597708   -5.4107574   -5.4107574   -4.5767937 -0.00062698713   -5.4107574   0.83396372   439061 
 1350000   0.55566885   -5.4099078   -5.4099078   -4.5764065 0.0029099013   -5.4099078   0.83350137   439061 
 1351000   0.55653624   -5.4108525   -5.4108525     -4.57605 0.0012630402   -5.4108525   0.83480246   439061 
 1352000   0.55629823   -5.4110138   -5.4110138   -4.5765683 0.00081770332   -5.4110138   0.83444545   439061 
 1353000   0.55543979   -5.4098469   -5.4098469   -4.5766891 -0.0011218446   -5.4098469   0.83315778   439061 
 1354000   0.55478024   -5.4094768   -5.4094768   -4.5773084 -0.0025679513   -5.4094768   0.83216846   439061 
 1355000   0.55566484   -5.4112213   -5.4112213   -4.5777259 -0.0012232446   -5.4112213   0.83349537   439061 
 1356000   0.55541181   -5.4106254   -5.4106254   -4.5775096 -0.0018435358   -5.4106254   0.83311582   439061 
 1357000   0.55536738   -5.4110359   -5.4110359   -4.5779867 -0.0019748467   -5.4110359   0.83304917   439061 
 1358000   0.55546381   -5.4114195   -5.4114195   -4.5782257 -0.0011583234   -5.4114195   0.83319381   439061 
 1359000   0.55596535   -5.4116409   -5.4116409   -4.5776948 -0.0022954028   -5.4116409   0.83394613   439061 
 1360000   0.55606861    -5.412787    -5.412787    -4.578686 -0.0022364092    -5.412787   0.83410102   439061 
 1361000   0.55544681    -5.412127    -5.412127   -4.5789586 0.0030098173    -5.412127   0.83316832   439061 
 1362000   0.55552033   -5.4126091   -5.4126091   -4.5793305 0.0018449641   -5.4126091    0.8332786   439061 
 1363000   0.55575009   -5.4136288   -5.4136288   -4.5800056 0.00015837274   -5.4136288   0.83362324   439061 
 1364000    0.5556437   -5.4133731   -5.4133731   -4.5799095 0.0019204396   -5.4133731   0.83346364   439061 
 1365000   0.55588416   -5.4139765   -5.4139765   -4.5801521 0.00015634968   -5.4139765   0.83382434   439061 
 1366000   0.55651755   -5.4149912   -5.4149912   -4.5802168 -0.0015074544   -5.4149912   0.83477443   439061 
 1367000   0.55497395   -5.4135242   -5.4135242   -4.5810651 -8.3183505e-05   -5.4135242   0.83245902   439061 
 1368000   0.55580613   -5.4150756   -5.4150756   -4.5813683 -0.0058211075   -5.4150756   0.83370729   439061 
 1369000   0.55516257   -5.4136951   -5.4136951   -4.5809532 -0.0020354484   -5.4136951   0.83274196   439061 
 1370000   0.55540301     -5.41367     -5.41367   -4.5805674 0.00054937391     -5.41367   0.83310261   439061 
 1371000     0.555666   -5.4136274   -5.4136274   -4.5801303 0.0043795985   -5.4136274   0.83349711   439061 
 1372000   0.55431247   -5.4130032   -5.4130032   -4.5815364 0.0015118055   -5.4130032    0.8314668   439061 
 1373000   0.55568811   -5.4142129   -5.4142129   -4.5806826 0.0031842413   -5.4142129   0.83353027   439061 
 1374000   0.55440571    -5.413483    -5.413483   -4.5818764 0.0013461429    -5.413483   0.83160667   439061 
 1375000   0.55517891   -5.4145827   -5.4145827   -4.5818162 -0.0013762203   -5.4145827   0.83276646   439061 
 1376000   0.55426129   -5.4135538   -5.4135538   -4.5821638 0.00028493686   -5.4135538   0.83139004   439061 
 1377000   0.55536585   -5.4145135   -5.4145135   -4.5814666 -0.0014131186   -5.4145135   0.83304688   439061 
 1378000   0.55486235   -5.4132219   -5.4132219   -4.5809303 0.00074416738   -5.4132219   0.83229163   439061 
 1379000   0.55573866   -5.4146389   -5.4146389   -4.5810328 0.0019084074   -5.4146389   0.83360609   439061 
 1380000   0.55550674   -5.4144243   -5.4144243   -4.5811661 0.0012475308   -5.4144243   0.83325821   439061 
 1381000   0.55541176   -5.4144692   -5.4144692   -4.5813534 9.4521863e-05   -5.4144692   0.83311575   439061 
 1382000   0.55533925   -5.4139978   -5.4139978   -4.5809908 0.0016697028   -5.4139978   0.83300698   439061 
 1383000    0.5547527   -5.4129015   -5.4129015   -4.5807743 -0.00032221712   -5.4129015   0.83212715   439061 
 1384000   0.55476149   -5.4126058   -5.4126058   -4.5804654 0.00071887726   -5.4126058   0.83214035   439061 
 1385000   0.55475518   -5.4130002   -5.4130002   -4.5808693 -0.0058390366   -5.4130002   0.83213088   439061 
 1386000   0.55400424   -5.4123977   -5.4123977   -4.5813932 -0.0034741562   -5.4123977   0.83100447   439061 
 1387000   0.55444709    -5.413375    -5.413375   -4.5817063 -0.0011796857    -5.413375   0.83166874   439061 
 1388000   0.55430345   -5.4134319   -5.4134319   -4.5819786 -0.0021218352   -5.4134319   0.83145328   439061 
 1389000   0.55466318   -5.4138463   -5.4138463   -4.5818535 -0.0026659401   -5.4138463   0.83199288   439061 
 1390000    0.5547837   -5.4136177   -5.4136177    -4.581444  0.002931578   -5.4136177   0.83217365   439061 
 1391000     0.554341   -5.4130668   -5.4130668   -4.5815572 0.0064710917   -5.4130668    0.8315096   439061 
 1392000   0.55550446   -5.4150241   -5.4150241   -4.5817693 0.0026788215   -5.4150241    0.8332548   439061 
 1393000   0.55496567   -5.4141727   -5.4141727   -4.5817261 0.0042796052   -5.4141727   0.83244661   439061 
 1394000   0.55496758   -5.4144761   -5.4144761   -4.5820266 0.00053365273   -5.4144761   0.83244948   439061 
 1395000   0.55496635   -5.4135739   -5.4135739   -4.5811263  0.002104302   -5.4135739   0.83244762   439061 
 1396000   0.55524486   -5.4139995   -5.4139995   -4.5811341 -0.0017173984   -5.4139995    0.8328654   439061 
 1397000   0.55529143   -5.4134694   -5.4134694   -4.5805342 -0.0078042997   -5.4134694   0.83293524   439061 
 1398000   0.55424596   -5.4130719   -5.4130719   -4.5817049 -0.0041362647   -5.4130719   0.83136704   439061 
 1399000   0.55455957   -5.4134784   -5.4134784    -4.581641 -0.0061078492   -5.4134784   0.83183747   439061 
 1400000   0.55437375   -5.4137538   -5.4137538   -4.5821951 -0.0029888003   -5.4137538   0.83155873   439061 
 1401000   0.55427933   -5.4150875   -5.4150875   -4.5836704 -0.0048689875   -5.4150875    0.8314171   439061 
 1402000   0.55457199   -5.4154687   -5.4154687   -4.5836126 0.0018746312   -5.4154687   0.83185609   439061 
 1403000   0.55538203   -5.4164736   -5.4164736   -4.5834025 0.0048780521   -5.4164736   0.83307115   439061 
 1404000   0.55540353   -5.4168188   -5.4168188   -4.5837154 0.0068597752   -5.4168188   0.83310339   439061 
 1405000   0.55569735   -5.4174038   -5.4174038   -4.5838597  0.008536237   -5.4174038   0.83354412   439061 
 1406000   0.55475732   -5.4162829   -5.4162829   -4.5841488   0.00396982   -5.4162829   0.83213409   439061 
 1407000   0.55513878   -5.4171212   -5.4171212   -4.5844149 -0.00047819429   -5.4171212   0.83270628   439061 
 1408000   0.55463947     -5.41618     -5.41618   -4.5842227 -0.0014380426     -5.41618   0.83195731   439061 
 1409000   0.55446213   -5.4163175   -5.4163175   -4.5846262 -0.0043988978   -5.4163175    0.8316913   439061 
 1410000   0.55439874   -5.4158793   -5.4158793    -4.584283 -0.0068421124   -5.4158793   0.83159622   439061 
 1411000   0.55416496   -5.4151067   -5.4151067   -4.5838612 -0.0044435723   -5.4151067   0.83124555   439061 
 1412000   0.55279725   -5.4136043   -5.4136043   -4.5844104 -0.0020300633   -5.4136043   0.82919399   439061 
 1413000   0.55351884   -5.4155353   -5.4155353   -4.5852589 -0.0055989387   -5.4155353   0.83027637   439061 
 1414000   0.55382656   -5.4160037   -5.4160037   -4.5852658 0.00033016279   -5.4160037   0.83073795   439061 
 1415000   0.55492168    -5.417832    -5.417832   -4.5854514 -0.0015276937    -5.417832   0.83238062   439061 
 1416000   0.55503017   -5.4183384   -5.4183384   -4.5857951 0.0048094684   -5.4183384   0.83254336   439061 
 1417000   0.55546042    -5.419204    -5.419204   -4.5860153 0.0081892993    -5.419204   0.83318874   439061 
 1418000   0.55422412   -5.4174785   -5.4174785   -4.5861442 0.0090062137   -5.4174785   0.83133429   439061 
 1419000   0.55528714   -5.4196367   -5.4196367   -4.5867079 0.0030380557   -5.4196367   0.83292882   439061 
 1420000   0.55505426   -5.4195595   -5.4195595     -4.58698 0.0042375885   -5.4195595   0.83257949   439061 
 1421000   0.55331915   -5.4167598   -5.4167598    -4.586783 -0.00043505417   -5.4167598   0.82997683   439061 
 1422000   0.55470946   -5.4178654   -5.4178654   -4.5858031 -0.0068358028   -5.4178654    0.8320623   439061 
 1423000   0.55373121   -5.4168509   -5.4168509    -4.586256 -0.0045117454   -5.4168509   0.83059492   439061 
 1424000   0.55339871   -5.4156948   -5.4156948   -4.5855986 -0.0078054632   -5.4156948   0.83009617   439061 
 1425000   0.55524417   -5.4175058   -5.4175058   -4.5846414 -0.0047517727   -5.4175058   0.83286436   439061 
 1426000   0.55401432   -5.4158433   -5.4158433   -4.5848237 -5.7743577e-05   -5.4158433   0.83101959   439061 
 1427000    0.5536971   -5.4157271   -5.4157271   -4.5851833  0.002993163   -5.4157271   0.83054376   439061 
 1428000   0.55354768   -5.4162498   -5.4162498   -4.5859302 0.0011139107   -5.4162498   0.83031962   439061 
 1429000   0.55429139   -5.4172303   -5.4172303   -4.5857951 0.0043192362   -5.4172303    0.8314352   439061 
 1430000   0.55379501   -5.4163884   -5.4163884   -4.5856978 0.0077692124   -5.4163884   0.83069062   439061 
 1431000   0.55414053   -5.4181308   -5.4181308   -4.5869219 0.00010513839   -5.4181308   0.83120891   439061 
 1432000   0.55461342   -5.4183031   -5.4183031   -4.5863848 0.0011948059   -5.4183031   0.83191823   439061 
 1433000    0.5540884   -5.4181533   -5.4181533   -4.5870226 -0.00029904284   -5.4181533   0.83113071   439061 
 1434000   0.55334935   -5.4168082   -5.4168082   -4.5867861 0.0029866165   -5.4168082   0.83002213   439061 
 1435000   0.55331987   -5.4172454   -5.4172454   -4.5872675 -0.0015660293   -5.4172454   0.82997792   439061 
 1436000   0.55428294   -5.4175572   -5.4175572   -4.5861347 -0.0042705867   -5.4175572   0.83142252   439061 
 1437000   0.55426271   -5.4180571   -5.4180571    -4.586665 -0.0036436875   -5.4180571   0.83139218   439061 
 1438000   0.55432158   -5.4175977   -5.4175977   -4.5861172 -0.00034624285   -5.4175977   0.83148047   439061 
 1439000   0.55354125    -5.416121    -5.416121    -4.585811 0.0025257591    -5.416121   0.83030999   439061 
 1440000    0.5533809   -5.4172247   -5.4172247   -4.5871552 -0.00048680481   -5.4172247   0.83006946   439061 
 1441000   0.55413315   -5.4184332   -5.4184332   -4.5872354 -0.000602967   -5.4184332   0.83119782   439061 
 1442000   0.55316449   -5.4174036   -5.4174036   -4.5876587 -0.0024193491   -5.4174036   0.82974485   439061 
 1443000   0.55336066   -5.4189533   -5.4189533   -4.5889142 -0.00067188248   -5.4189533   0.83003909   439061 
 1444000   0.55466377   -5.4204179   -5.4204179   -4.5884241 0.0042299659   -5.4204179   0.83199376   439061 
 1445000   0.55405625   -5.4196571   -5.4196571   -4.5885747 0.0020936514   -5.4196571   0.83108248   439061 
 1446000   0.55412787   -5.4189129   -5.4189129    -4.587723 0.0015699827   -5.4189129   0.83118992   439061 
 1447000    0.5542346   -5.4189661   -5.4189661   -4.5876161 0.00054101278   -5.4189661   0.83135001   439061 
 1448000   0.55378924   -5.4197433   -5.4197433   -4.5890613 0.0007581992   -5.4197433   0.83068197   439061 
 1449000   0.55382962   -5.4188665   -5.4188665    -4.588124 0.0020823008   -5.4188665   0.83074254   439061 
 1450000    0.5538115    -5.418489    -5.418489   -4.5877736 -0.0029041815    -5.418489   0.83071536   439061 
 1451000   0.55356233    -5.418655    -5.418655   -4.5883134 -0.0021495327    -5.418655    0.8303416   439061 
 1452000   0.55390986   -5.4184062   -5.4184062   -4.5875433 0.0020767878   -5.4184062    0.8308629   439061 
 1453000   0.55420211   -5.4190766   -5.4190766   -4.5877753 0.00032953797   -5.4190766   0.83130127   439061 
 1454000   0.55456387   -5.4194278   -5.4194278   -4.5875839 0.00082419275   -5.4194278    0.8318439   439061 
 1455000   0.55403711   -5.4193397   -5.4193397   -4.5882859 0.0016406388   -5.4193397   0.83105378   439061 
 1456000   0.55421444   -5.4192401   -5.4192401   -4.5879203 -0.0010516432   -5.4192401   0.83131977   439061 
 1457000   0.55368707   -5.4197733   -5.4197733   -4.5892446 -0.0034160082   -5.4197733   0.83052871   439061 
 1458000   0.55332834   -5.4194459   -5.4194459   -4.5894552 -0.0038577841   -5.4194459   0.82999061   439061 
 1459000   0.55315936    -5.419177    -5.419177   -4.5894398 -7.6663041e-05    -5.419177   0.82973715   439061 
 1460000   0.55373659   -5.4194733   -5.4194733   -4.5888703 -2.6543006e-05   -5.4194733   0.83060299   439061 
 1461000   0.55398735   -5.4206178   -5.4206178   -4.5896387 0.0010043397   -5.4206178   0.83097914   439061 
 1462000   0.55467378   -5.4214761   -5.4214761   -4.5894673 -0.0026582901   -5.4214761   0.83200878   439061 
 1463000   0.55419687   -5.4211499   -5.4211499   -4.5898565 -0.00011652728   -5.4211499   0.83129342   439061 
 1464000   0.55357206   -5.4206068   -5.4206068   -4.5902506 0.0010791054   -5.4206068   0.83035619   439061 
 1465000   0.55374611   -5.4214518   -5.4214518   -4.5908345 0.00074974669   -5.4214518   0.83061728   439061 
 1466000    0.5527687   -5.4207996   -5.4207996   -4.5916484 0.00090228413   -5.4207996   0.82915116   439061 
 1467000    0.5532789   -5.4215187   -5.4215187   -4.5916023 0.0022855811   -5.4215187   0.82991646   439061 
 1468000   0.55337114   -5.4218837   -5.4218837   -4.5918289 -0.0018407108   -5.4218837   0.83005481   439061 
 1469000   0.55322474   -5.4207217   -5.4207217   -4.5908864 -0.0012826467   -5.4207217   0.82983522   439061 
 1470000   0.55254831   -5.4202592   -5.4202592   -4.5914386 0.00052031126   -5.4202592   0.82882057   439061 
 1471000   0.55258062   -5.4217237   -5.4217237   -4.5928547 0.00035259867   -5.4217237   0.82886905   439061 
 1472000   0.55299156   -5.4229682   -5.4229682   -4.5934827 -0.0033444186   -5.4229682   0.82948545   439061 
 1473000   0.55265216   -5.4215855   -5.4215855   -4.5926091 -0.0012902213   -5.4215855   0.82897636   439061 
 1474000   0.55346609   -5.4225165   -5.4225165   -4.5923192 0.0044096142   -5.4225165   0.83019724   439061 
 1475000   0.55485303    -5.424975    -5.424975   -4.5926973 0.00027011013    -5.424975   0.83227765   439061 
 1476000   0.55383056   -5.4231052   -5.4231052   -4.5923612 0.00073185166   -5.4231052   0.83074395   439061 
 1477000   0.55295407   -5.4219111   -5.4219111   -4.5924819 -0.00060341483   -5.4219111   0.82942921   439061 
 1478000   0.55368645   -5.4226533   -5.4226533   -4.5921255 0.0032492266   -5.4226533   0.83052779   439061 
 1479000   0.55320152   -5.4224671   -5.4224671   -4.5926667 -0.0015904585   -5.4224671   0.82980039   439061 
 1480000   0.55255983   -5.4220189   -5.4220189    -4.593181 -0.0023355819   -5.4220189   0.82883786   439061 
 1481000   0.55275924    -5.422605    -5.422605    -4.593468 -0.0069554739    -5.422605   0.82913697   439061 
 1482000    0.5520793   -5.4226155   -5.4226155   -4.5944985 -0.004066554   -5.4226155   0.82811706   439061 
 1483000   0.55160702   -5.4215249   -5.4215249   -4.5941163 0.00046781705   -5.4215249   0.82740864   439061 
 1484000   0.55368086   -5.4240091   -5.4240091   -4.5934897 -0.0020200395   -5.4240091   0.83051939   439061 
 1485000   0.55344252   -5.4237462   -5.4237462   -4.5935843 0.0036740949   -5.4237462    0.8301619   439061 
 1486000   0.55289049   -5.4234108   -5.4234108   -4.5940769 0.0058141947   -5.4234108   0.82933384   439061 
 1487000   0.55312517   -5.4232991   -5.4232991   -4.5936133 0.0061017694   -5.4232991   0.82968586   439061 
 1488000   0.55357236   -5.4238471   -5.4238471   -4.5934905 -0.00073687095   -5.4238471   0.83035665   439061 
 1489000   0.55401911   -5.4250646   -5.4250646   -4.5940378 -0.00032682485   -5.4250646   0.83102678   439061 
 1490000   0.55257387   -5.4236959   -5.4236959    -4.594837 -0.0022287119   -5.4236959   0.82885891   439061 
 1491000    0.5518653   -5.4223035   -5.4223035   -4.5945074 -0.0048508199   -5.4223035   0.82779607   439061 
 1492000    0.5528473   -5.4227663   -5.4227663   -4.5934972 -0.0034069191   -5.4227663   0.82926906   439061 
 1493000   0.55264836   -5.4225544   -5.4225544   -4.5935837 -0.0055974692   -5.4225544   0.82897066   439061 
 1494000   0.55225486   -5.4217069   -5.4217069   -4.5933265 -0.00098739908   -5.4217069   0.82838041   439061 
 1495000   0.55252038   -5.4230778   -5.4230778   -4.5942991 -0.0034424999   -5.4230778   0.82877869   439061 
 1496000     0.552481   -5.4237211   -5.4237211   -4.5950015 -0.0059114504   -5.4237211   0.82871962   439061 
 1497000   0.55309902   -5.4246764   -5.4246764   -4.5950298 0.00052290958   -5.4246764   0.82964664   439061 
 1498000   0.55361374   -5.4253973   -5.4253973   -4.5949786 0.0043148532   -5.4253973   0.83041872   439061 
 1499000   0.55286469   -5.4234914   -5.4234914   -4.5941962 0.0055230793   -5.4234914   0.82929514   439061 
 1500000   0.55454899   -5.4253853   -5.4253853   -4.5935637 0.0048532404   -5.4253853   0.83182159   439061 
 1501000   0.55398691   -5.4241628   -5.4241628   -4.5931843 0.0024102602   -5.4241628   0.83097847   439061 
 1502000   0.55294593   -5.4238533   -5.4238533   -4.5944363 0.0047934772   -5.4238533     0.829417   439061 
 1503000   0.55227595   -5.4234002   -5.4234002   -4.5949882 -0.0025691907   -5.4234002   0.82841204   439061 
 1504000    0.5527509   -5.4235421   -5.4235421   -4.5944177 -0.0035951176   -5.4235421   0.82912446   439061 
 1505000   0.55238239   -5.4226383   -5.4226383   -4.5940666 -0.0040577199   -5.4226383    0.8285717   439061 
 1506000     0.552728   -5.4228803   -5.4228803   -4.5937902 0.00037582341   -5.4228803   0.82909011   439061 
 1507000   0.55319889   -5.4230755   -5.4230755   -4.5932791 -0.005869929   -5.4230755   0.82979645   439061 
 1508000   0.55370733   -5.4246901   -5.4246901    -4.594131 -0.0066565442   -5.4246901    0.8305591   439061 
 1509000   0.55323571     -5.42416     -5.42416   -4.5943084 0.00030069007     -5.42416   0.82985168   439061 
 1510000   0.55273544   -5.4236894   -5.4236894   -4.5945882  0.001316573   -5.4236894   0.82910127   439061 
 1511000   0.55296132   -5.4232954   -5.4232954   -4.5938553 0.0038590761   -5.4232954   0.82944009   439061 
 1512000    0.5543295   -5.4263584   -5.4263584    -4.594866 -0.00035273156   -5.4263584   0.83149236   439061 
 1513000   0.55222156   -5.4243789   -5.4243789   -4.5960484 0.0015438093   -5.4243789   0.82833046   439061 
 1514000   0.55290227    -5.425466    -5.425466   -4.5961145 -9.8003012e-05    -5.425466   0.82935151   439061 
 1515000   0.55226583   -5.4246716   -5.4246716   -4.5962747 -0.0053989714   -5.4246716   0.82839686   439061 
 1516000   0.55207275   -5.4250951   -5.4250951   -4.5969879 -0.006364064   -5.4250951   0.82810724   439061 
 1517000   0.55283993   -5.4263852   -5.4263852   -4.5971272 -0.0091104872   -5.4263852     0.829258   439061 
 1518000   0.55311361   -5.4257417   -5.4257417   -4.5960732 -0.0028989767   -5.4257417   0.82966852   439061 
 1519000   0.55219931   -5.4253752   -5.4253752   -4.5970781 -0.0014566521   -5.4253752   0.82829708   439061 
 1520000   0.55201303   -5.4254797   -5.4254797    -4.597462 0.00026134487   -5.4254797   0.82801765   439061 
 1521000   0.55266486   -5.4271302   -5.4271302   -4.5981348 3.7686627e-05   -5.4271302    0.8289954   439061 
 1522000   0.55210735   -5.4259325   -5.4259325   -4.5977733 0.0074479177   -5.4259325   0.82815914   439061 
 1523000   0.55308907   -5.4264177   -5.4264177    -4.596786 0.0021087141   -5.4264177   0.82963171   439061 
 1524000   0.55276169   -5.4259174   -5.4259174   -4.5967768  0.003383518   -5.4259174   0.82914065   439061 
 1525000   0.55226943   -5.4253702   -5.4253702   -4.5969679 0.0031748096   -5.4253702   0.82840226   439061 
 1526000   0.55287445   -5.4265244   -5.4265244   -4.5972146 -0.002833807   -5.4265244   0.82930979   439061 
 1527000   0.55134391   -5.4244432   -5.4244432   -4.5974292 -0.0024672201   -5.4244432   0.82701398   439061 
 1528000   0.55180633   -5.4249343   -5.4249343   -4.5972267 -0.0064692075   -5.4249343   0.82770761   439061 
 1529000   0.55147366   -5.4248841   -5.4248841   -4.5976755 -0.0044261218   -5.4248841   0.82720861   439061 
 1530000    0.5526077   -5.4262896   -5.4262896   -4.5973799 -0.003523775   -5.4262896   0.82890966   439061 
 1531000    0.5529538   -5.4263269   -5.4263269   -4.5968981 -5.776564e-05   -5.4263269   0.82942881   439061 
 1532000    0.5528577   -5.4264578   -5.4264578   -4.5971731 0.00024859762   -5.4264578   0.82928466   439061 
 1533000   0.55327548   -5.4264835   -5.4264835   -4.5965722 0.0044417296   -5.4264835   0.82991133   439061 
 1534000   0.55355056   -5.4271046   -5.4271046   -4.5967807 0.0045476104   -5.4271046   0.83032396   439061 
 1535000   0.55195218   -5.4262404   -5.4262404    -4.598314 0.0029645486   -5.4262404   0.82792638   439061 
 1536000   0.55353403   -5.4285918   -5.4285918   -4.5982926 -0.0059684289   -5.4285918   0.83029915   439061 
 1537000   0.55217971    -5.425506    -5.425506   -4.5972384 -0.0020758895    -5.425506   0.82826767   439061 
 1538000   0.55234168   -5.4260368   -5.4260368   -4.5975262 -0.0020428067   -5.4260368   0.82851063   439061 
 1539000   0.55227063   -5.4253683   -5.4253683   -4.5969642 -0.0061695132   -5.4253683   0.82840406   439061 
 1540000   0.55190882   -5.4252589   -5.4252589   -4.5973976 -0.0030797117   -5.4252589   0.82786135   439061 
 1541000   0.55160481   -5.4243479   -5.4243479   -4.5969426 -0.0018255782   -5.4243479   0.82740533   439061 
 1542000   0.55291927   -5.4263879   -5.4263879   -4.5970109 -0.0051280779   -5.4263879   0.82937702   439061 
 1543000   0.55224333   -5.4260617   -5.4260617   -4.5976986 -0.00057484308   -5.4260617   0.82836311   439061 
 1544000   0.55271242   -5.4265078   -5.4265078   -4.5974411 -0.0022147152   -5.4265078   0.82906674   439061 
 1545000   0.55338635   -5.4271615   -5.4271615   -4.5970839 0.00065640927   -5.4271615   0.83007763   439061 
 1546000   0.55277271   -5.4262385   -5.4262385   -4.5970813 0.0045221103   -5.4262385   0.82915717   439061 
 1547000    0.5521193   -5.4254384   -5.4254384   -4.5972613 0.0020982518   -5.4254384   0.82817706   439061 
 1548000   0.55306094   -5.4269504   -5.4269504   -4.5973608 -0.00042462037   -5.4269504   0.82958952   439061 
 1549000   0.55262199   -5.4261917   -5.4261917   -4.5972606 0.0012233173   -5.4261917    0.8289311   439061 
 1550000   0.55217108   -5.4255454   -5.4255454   -4.5972907 0.0018069748   -5.4255454   0.82825474   439061 
 1551000   0.55234378   -5.4259888   -5.4259888   -4.5974751 -0.00019172274   -5.4259888   0.82851378   439061 
 1552000   0.55207792   -5.4257752   -5.4257752   -4.5976602 0.0018221711   -5.4257752   0.82811499   439061 
 1553000   0.55246661   -5.4269333   -5.4269333   -4.5982353 -0.0043157693   -5.4269333   0.82869803   439061 
 1554000   0.55261685   -5.4253547   -5.4253547   -4.5964313 0.00023615357   -5.4253547   0.82892338   439061 
 1555000   0.55266643   -5.4260114   -5.4260114   -4.5970137 -0.0044163266   -5.4260114   0.82899775   439061 
 1556000   0.55263811   -5.4256789   -5.4256789   -4.5967236  0.001717298   -5.4256789   0.82895528   439061 
 1557000   0.55250667     -5.42577     -5.42577   -4.5970119 -0.00067750988     -5.42577   0.82875812   439061 
 1558000   0.55181407   -5.4247844   -5.4247844   -4.5970652 0.00062445215   -5.4247844   0.82771922   439061 
 1559000    0.5526215    -5.426748    -5.426748   -4.5978176 -0.0039510062    -5.426748   0.82893036   439061 
 1560000   0.55128812   -5.4247789   -5.4247789   -4.5978486 -0.00045942604   -5.4247789   0.82693029   439061 
 1561000   0.55261093    -5.426198    -5.426198   -4.5972835 -0.00037232003    -5.426198   0.82891451   439061 
 1562000   0.55261162   -5.4261028   -5.4261028   -4.5971873 0.0050674052   -5.4261028   0.82891555   439061 
 1563000    0.5526653   -5.4269241   -5.4269241   -4.5979281 -0.0025820408   -5.4269241   0.82899605   439061 
 1564000   0.55197402   -5.4267298   -5.4267298   -4.5987706 -6.8882489e-05   -5.4267298   0.82795914   439061 
 1565000   0.55317903   -5.4285356   -5.4285356   -4.5987689 -0.0037322595   -5.4285356   0.82976666   439061 
 1566000   0.55147143   -5.4256775   -5.4256775   -4.5984723 -0.0036098024   -5.4256775   0.82720526   439061 
 1567000   0.55229476   -5.4271379   -5.4271379   -4.5986977 -0.0052587775   -5.4271379   0.82844025   439061 
 1568000   0.55167109    -5.426943    -5.426943   -4.5994382 -0.0017461672    -5.426943   0.82750475   439061 
 1569000   0.55237516   -5.4288692   -5.4288692   -4.6003083 -0.002379161   -5.4288692   0.82856085   439061 
 1570000   0.55075328   -5.4270182   -5.4270182   -4.6008901 -0.0024617251   -5.4270182   0.82612803   439061 
 1571000   0.55311949   -5.4292293   -5.4292293    -4.599552 -0.003248632   -5.4292293   0.82967735   439061 
 1572000   0.55223794   -5.4278588   -5.4278588   -4.5995038 7.4429973e-05   -5.4278588   0.82835502   439061 
 1573000   0.55140899   -5.4264052   -5.4264052   -4.5992936 0.0068963674   -5.4264052   0.82711159   439061 
 1574000   0.55211861   -5.4263589   -5.4263589   -4.5981828 0.0070459247   -5.4263589   0.82817603   439061 
 1575000   0.55237734   -5.4286938   -5.4286938   -4.6001297 0.00016685813   -5.4286938   0.82856413   439061 
 1576000   0.55137655   -5.4275532   -5.4275532   -4.6004903 -0.0024077597   -5.4275532   0.82706294   439061 
 1577000   0.55169423    -5.427975    -5.427975   -4.6004355 -0.0042253001    -5.427975   0.82753946   439061 
 1578000    0.5511097   -5.4263168   -5.4263168   -4.5996541 0.00063680991   -5.4263168   0.82666267   439061 
 1579000   0.55280681   -5.4276015   -5.4276015   -4.5983932 -0.0010952309   -5.4276015   0.82920833   439061 
 1580000    0.5518948   -5.4258394   -5.4258394   -4.5979991 0.00012251191   -5.4258394   0.82784032   439061 
 1581000   0.55271686   -5.4280171   -5.4280171   -4.5989437 -0.0035002151   -5.4280171   0.82907341   439061 
 1582000   0.55260269   -5.4275799   -5.4275799   -4.5986777 -0.0012975975   -5.4275799   0.82890215   439061 
 1583000   0.55361188   -5.4280128   -5.4280128   -4.5975969 -0.0013375191   -5.4280128   0.83041592   439061 
 1584000    0.5523433   -5.4256738   -5.4256738   -4.5971607 0.0038297955   -5.4256738   0.82851306   439061 
 1585000   0.55178064   -5.4252342   -5.4252342   -4.5975652 0.0017537165   -5.4252342   0.82766908   439061 
 1586000   0.55227821   -5.4264224   -5.4264224    -4.598007 6.8228347e-05   -5.4264224   0.82841542   439061 
 1587000    0.5524877   -5.4272321   -5.4272321   -4.5985025 -0.0042159582   -5.4272321   0.82872966   439061 
 1588000   0.55151647   -5.4259922   -5.4259922   -4.5987193 -0.0036749399   -5.4259922   0.82727282   439061 
 1589000   0.55213557   -5.4283674   -5.4283674   -4.6001659 -0.0017888542   -5.4283674   0.82820146   439061 
 1590000   0.55204021   -5.4280449   -5.4280449   -4.5999865 -0.00014156239   -5.4280449   0.82805842   439061 
 1591000   0.55222947   -5.4282634   -5.4282634   -4.5999211 0.0016566213   -5.4282634   0.82834232   439061 
 1592000   0.55248527   -5.4289052   -5.4289052   -4.6001792 -0.00011285972   -5.4289052   0.82872601   439061 
 1593000   0.55150975   -5.4279289   -5.4279289   -4.6006661 0.0060372279   -5.4279289   0.82726275   439061 
 1594000    0.5522111   -5.4285647   -5.4285647   -4.6002499  0.005201729   -5.4285647   0.82831477   439061 
 1595000   0.55205024   -5.4287749   -5.4287749   -4.6007015 0.00034002552   -5.4287749   0.82807347   439061 
 1596000   0.55230297   -5.4294753   -5.4294753   -4.6010227 -0.0015497536   -5.4294753   0.82845257   439061 
 1597000   0.55156327   -5.4278907   -5.4278907   -4.6005477 0.0023552173   -5.4278907   0.82734302   439061 
 1598000   0.55131577   -5.4268428   -5.4268428    -4.599871 -0.0030944894   -5.4268428   0.82697178   439061 
 1599000   0.55186504   -5.4278937   -5.4278937    -4.600098 -0.0020969927   -5.4278937   0.82779567   439061 
 1600000   0.55150007   -5.4266158   -5.4266158   -4.5993676 -0.0027927917   -5.4266158   0.82724822   439061 
 1601000   0.55119728   -5.4258444   -5.4258444   -4.5990504 -0.00028099988   -5.4258444   0.82679404   439061 
 1602000   0.55234422   -5.4267353   -5.4267353   -4.5982209 -0.002996436   -5.4267353   0.82851444   439061 
 1603000   0.55179964   -5.4261782   -5.4261782   -4.5984806 -0.002682214   -5.4261782   0.82769757   439061 
 1604000    0.5523041   -5.4267623   -5.4267623   -4.5983081 -0.0047395469   -5.4267623   0.82845426   439061 
 1605000   0.55144534   -5.4259516   -5.4259516   -4.5987855 0.0019509893   -5.4259516   0.82716612   439061 
 1606000   0.55220372   -5.4264608   -5.4264608   -4.5981571 0.0024552199   -5.4264608    0.8283037   439061 
 1607000   0.55236944   -5.4263702   -5.4263702   -4.5978179 -0.0009699868   -5.4263702   0.82855227   439061 
 1608000   0.55270128    -5.427572    -5.427572    -4.598522 0.0014405387    -5.427572   0.82905004   439061 
 1609000   0.55152507   -5.4255679   -5.4255679   -4.5982822 -6.6211427e-05   -5.4255679   0.82728572   439061 
 1610000   0.55129435   -5.4255149   -5.4255149   -4.5985753 -0.0024685487   -5.4255149   0.82693964   439061 
 1611000   0.55061943   -5.4261541   -5.4261541   -4.6002269 0.0013516119   -5.4261541   0.82592727   439061 
 1612000   0.55164599   -5.4271231   -5.4271231    -4.599656 -0.001642359   -5.4271231    0.8274671   439061 
 1613000   0.55150402   -5.4264744   -5.4264744   -4.5992203 0.0011100023   -5.4264744   0.82725414   439061 
 1614000   0.55133983    -5.426689    -5.426689   -4.5996811 -0.00032455114    -5.426689   0.82700786   439061 
 1615000   0.55103686   -5.4264594   -5.4264594    -4.599906 0.0038395312   -5.4264594   0.82655341   439061 
 1616000   0.55189346   -5.4280454   -5.4280454   -4.6002071 -0.0028835716   -5.4280454   0.82783831   439061 
 1617000   0.55118414   -5.4270714   -5.4270714   -4.6002971 0.00046831533   -5.4270714   0.82677433   439061 
 1618000   0.55169868   -5.4283165   -5.4283165   -4.6007704 0.0002516787   -5.4283165   0.82754614   439061 
 1619000   0.55207596   -5.4301568   -5.4301568   -4.6020447 -0.0011191607   -5.4301568   0.82811205   439061 
 1620000   0.55113027   -5.4286361   -5.4286361   -4.6019426 0.00041130951   -5.4286361   0.82669352   439061 
 1621000   0.55131912   -5.4293269   -5.4293269   -4.6023501 -0.0018287106   -5.4293269    0.8269768   439061 
 1622000   0.55177277   -5.4292434   -5.4292434   -4.6015861 -0.0011676006   -5.4292434   0.82765726   439061 
 1623000   0.55174172   -5.4295994   -5.4295994   -4.6019887 0.0042928667   -5.4295994    0.8276107   439061 
 1624000   0.55098743    -5.428555    -5.428555   -4.6020757 0.00064135024    -5.428555   0.82647926   439061 
 1625000   0.55063035   -5.4288309   -5.4288309   -4.6028872 -0.0039196399   -5.4288309   0.82594365   439061 
 1626000   0.55172452   -5.4303343   -5.4303343   -4.6027494 -0.0025844821   -5.4303343   0.82758489   439061 
 1627000    0.5500347   -5.4282567   -5.4282567   -4.6032066 -0.0033605757   -5.4282567   0.82505017   439061 
 1628000   0.55068484   -5.4296189   -5.4296189   -4.6035935 -0.0019887227   -5.4296189   0.82602538   439061 
 1629000   0.55083536   -5.4299683   -5.4299683   -4.6037171 -0.0029626291   -5.4299683   0.82625115   439061 
 1630000   0.55220768   -5.4311963   -5.4311963   -4.6028867 -0.0024910079   -5.4311963   0.82830963   439061 
 1631000   0.55183741   -5.4307337   -5.4307337   -4.6029795 0.0034301811   -5.4307337   0.82775422   439061 
 1632000   0.55153509   -5.4316818   -5.4316818   -4.6043811 0.0037958218   -5.4316818   0.82730075   439061 
 1633000    0.5514194   -5.4312209   -5.4312209   -4.6040937 0.0028096247   -5.4312209   0.82712721   439061 
 1634000    0.5517592   -5.4316092   -5.4316092   -4.6039723 0.0021372341   -5.4316092   0.82763692   439061 
 1635000    0.5517349   -5.4320336   -5.4320336   -4.6044331 0.0010365826   -5.4320336   0.82760046   439061 
 1636000   0.55170996   -5.4320439   -5.4320439   -4.6044808 -0.0041508857   -5.4320439   0.82756305   439061 
 1637000   0.55023274   -5.4290272   -5.4290272   -4.6036799 0.0027204054   -5.4290272   0.82534722   439061 
 1638000   0.55174164   -5.4311099   -5.4311099   -4.6034993 -0.0032329246   -5.4311099   0.82761058   439061 
 1639000   0.55107182   -5.4301276   -5.4301276   -4.6035218 0.00085250977   -5.4301276   0.82660585   439061 
 1640000   0.55091245     -5.42963     -5.42963   -4.6032633 -0.0015974001     -5.42963   0.82636679   439061 
 1641000   0.55137859   -5.4300223   -5.4300223   -4.6029563 0.00039568131   -5.4300223     0.827066   439061 
 1642000   0.55189416   -5.4304158   -5.4304158   -4.6025764 0.00034506254   -5.4304158   0.82783935   439061 
 1643000   0.55185451   -5.4297137   -5.4297137   -4.6019338 -1.9977002e-05   -5.4297137   0.82777988   439061 
 1644000    0.5510366   -5.4279226   -5.4279226   -4.6013696 -0.0029324464   -5.4279226   0.82655301   439061 
 1645000   0.55129239   -5.4285338   -5.4285338   -4.6015971 -0.0024111056   -5.4285338    0.8269367   439061 
 1646000   0.55050149   -5.4273414   -5.4273414   -4.6015911 0.0022398627   -5.4273414   0.82575036   439061 
 1647000   0.55130883   -5.4281457   -5.4281457   -4.6011843 -0.0026361959   -5.4281457   0.82696137   439061 
 1648000   0.55159854   -5.4287471   -5.4287471   -4.6013511 -0.0006672157   -5.4287471   0.82739593   439061 
 1649000    0.5510668   -5.4282971   -5.4282971   -4.6016988 -0.0025949076   -5.4282971   0.82659832   439061 
 1650000    0.5520621   -5.4299415   -5.4299415   -4.6018503 -0.0049452595   -5.4299415   0.82809126   439061 
 1651000   0.55174667   -5.4296528   -5.4296528   -4.6020346 0.00016994972   -5.4296528   0.82761813   439061 
 1652000   0.55126724   -5.4299334   -5.4299334   -4.6030344 0.0015003012   -5.4299334   0.82689898   439061 
 1653000   0.55176631   -5.4298972   -5.4298972   -4.6022497 -0.0010608717   -5.4298972   0.82764758   439061 
 1654000   0.55133731   -5.4306226   -5.4306226   -4.6036186 0.00035626814   -5.4306226   0.82700409   439061 
 1655000    0.5524256   -5.4322875   -5.4322875    -4.603651 -4.1721135e-05   -5.4322875   0.82863652   439061 
 1656000   0.55080739   -5.4297477   -5.4297477   -4.6035385 -0.00021489114   -5.4297477   0.82620921   439061 
 1657000   0.55105954   -5.4314165   -5.4314165   -4.6048291 -0.0081250753   -5.4314165   0.82658743   439061 
 1658000   0.54950958   -5.4285936   -5.4285936   -4.6043311 0.0018364369   -5.4285936   0.82426249   439061 
 1659000   0.55095581   -5.4296054   -5.4296054   -4.6031735  0.001495159   -5.4296054   0.82643183   439061 
 1660000   0.55144313   -5.4303487   -5.4303487   -4.6031859 -0.00035874484   -5.4303487   0.82716281   439061 
 1661000   0.55167377   -5.4318079   -5.4318079   -4.6042991 -0.0023380638   -5.4318079   0.82750877   439061 
 1662000    0.5515566   -5.4313882   -5.4313882   -4.6040552 -0.00022260371   -5.4313882   0.82733302   439061 
 1663000   0.55123793   -5.4305468   -5.4305468   -4.6036918 0.0031036206   -5.4305468   0.82685501   439061 
 1664000   0.55157465   -5.4314347   -5.4314347   -4.6040746 2.8729827e-05   -5.4314347    0.8273601   439061 
 1665000   0.55036187   -5.4308161   -5.4308161   -4.6052751 -0.00018673943   -5.4308161   0.82554092   439061 
 1666000   0.55119362   -5.4312648   -5.4312648   -4.6044762 -0.0033045451   -5.4312648   0.82678855   439061 
 1667000   0.55208324    -5.431783    -5.431783   -4.6036601 0.0024373543    -5.431783   0.82812298   439061 
 1668000   0.55201726   -5.4308859   -5.4308859   -4.6028619 0.0040337482   -5.4308859     0.828024   439061 
 1669000   0.55164688   -5.4305256   -5.4305256   -4.6030572 0.0024644627   -5.4305256   0.82746844   439061 
 1670000   0.55170227   -5.4312742   -5.4312742   -4.6037227 -0.0028044811   -5.4312742   0.82755152   439061 
 1671000   0.55081196   -5.4298622   -5.4298622   -4.6036461 0.0018117848   -5.4298622   0.82621606   439061 
 1672000    0.5518203   -5.4308887   -5.4308887   -4.6031601 -0.00036166973   -5.4308887   0.82772857   439061 
 1673000    0.5509927   -5.4296413   -5.4296413   -4.6031541 0.00075022624   -5.4296413   0.82648717   439061 
 1674000   0.55121739   -5.4289543   -5.4289543   -4.6021301  0.003384419   -5.4289543   0.82682421   439061 
 1675000   0.55121521   -5.4289579   -5.4289579   -4.6021369 -0.00010926323   -5.4289579   0.82682094   439061 
 1676000   0.55070084   -5.4285403   -5.4285403   -4.6024909 -0.0026724875   -5.4285403   0.82604937   439061 
 1677000   0.55163071   -5.4296512   -5.4296512    -4.602207 -0.0034041799   -5.4296512   0.82744417   439061 
 1678000   0.55176552   -5.4299405   -5.4299405   -4.6022941 -0.005144128   -5.4299405    0.8276464   439061 
 1679000    0.5513463   -5.4296396   -5.4296396    -4.602622 -0.001490708   -5.4296396   0.82701757   439061 
 1680000   0.55064694   -5.4300023   -5.4300023   -4.6040338 -0.003580126   -5.4300023   0.82596853   439061 
 1681000   0.55019005   -5.4293995   -5.4293995   -4.6041163 -0.0012373943   -5.4293995   0.82528319   439061 
 1682000   0.55073293   -5.4296412   -5.4296412   -4.6035437 0.0016672394   -5.4296412   0.82609752   439061 
 1683000   0.55140506   -5.4319339   -5.4319339   -4.6048282 0.00085711956   -5.4319339    0.8271057   439061 
 1684000   0.55219917   -5.4327023   -5.4327023   -4.6044054  0.003046076   -5.4327023   0.82829687   439061 
 1685000   0.55207027   -5.4326052   -5.4326052   -4.6045016 0.0042947193   -5.4326052   0.82810351   439061 
 1686000   0.55191867   -5.4322769   -5.4322769   -4.6044008 0.0038069027   -5.4322769   0.82787612   439061 
 1687000   0.55144823   -5.4322016   -5.4322016   -4.6050311 -0.00017954639   -5.4322016   0.82717047   439061 
 1688000   0.55193221   -5.4322352   -5.4322352   -4.6043388 -0.0062047499   -5.4322352   0.82789642   439061 
 1689000   0.54985566   -5.4284308   -5.4284308   -4.6036492 -0.00068414562   -5.4284308   0.82478162   439061 
 1690000   0.55064366   -5.4307007   -5.4307007   -4.6047371 -0.0071286491   -5.4307007   0.82596361   439061 
 1691000   0.55096625   -5.4301669   -5.4301669   -4.6037194 -0.0072594078   -5.4301669   0.82644749   439061 
 1692000   0.55049839   -5.4291659   -5.4291659   -4.6034202 5.0701819e-05   -5.4291659    0.8257457   439061 
 1693000   0.55090755   -5.4297534   -5.4297534    -4.603394 0.00057040934   -5.4297534   0.82635944   439061 
 1694000   0.55121378   -5.4306622   -5.4306622   -4.6038434 -8.145271e-05   -5.4306622   0.82681879   439061 
 1695000    0.5518104   -5.4322607   -5.4322607    -4.604547 -0.001516286   -5.4322607   0.82771371   439061 
 1696000   0.55149274   -5.4313484   -5.4313484   -4.6041112 0.0022214752   -5.4313484   0.82723722   439061 
 1697000   0.55099966   -5.4297933   -5.4297933   -4.6032957 0.0053860551   -5.4297933   0.82649761   439061 
 1698000   0.55142341   -5.4309548   -5.4309548   -4.6038216 -0.00051235803   -5.4309548   0.82713323   439061 
 1699000   0.55141291    -5.431411    -5.431411   -4.6042935 -0.002562603    -5.431411   0.82711748   439061 
 1700000   0.55114075     -5.43044     -5.43044   -4.6037308 -0.00072036025     -5.43044   0.82670924   439061 
 1701000   0.55082406    -5.429382    -5.429382   -4.6031478 0.00090664376    -5.429382   0.82623421   439061 
 1702000   0.55208295   -5.4313038   -5.4313038   -4.6031813 -0.0042909873   -5.4313038   0.82812254   439061 
 1703000   0.55040984   -5.4295357   -5.4295357   -4.6039228 -0.00072124602   -5.4295357   0.82561288   439061 
 1704000   0.55024812   -5.4292331   -5.4292331   -4.6038628 7.4116041e-05   -5.4292331    0.8253703   439061 
 1705000   0.55085085   -5.4297034   -5.4297034    -4.603429 -0.0029943823   -5.4297034    0.8262744   439061 
 1706000   0.55082494   -5.4304494   -5.4304494   -4.6042139 0.00081535087   -5.4304494   0.82623552   439061 
 1707000   0.55117352   -5.4316337   -5.4316337   -4.6048753 -0.0011912478   -5.4316337   0.82675839   439061 
 1708000   0.55180648   -5.4323756   -5.4323756   -4.6046677 -0.0025606368   -5.4323756   0.82770783   439061 
 1709000   0.55081158   -5.4318949   -5.4318949   -4.6056794 -0.0025183084   -5.4318949   0.82621548   439061 
 1710000   0.55055052    -5.431587    -5.431587   -4.6057631 0.0010154406    -5.431587    0.8258239   439061 
 1711000   0.55147954   -5.4322216   -5.4322216   -4.6050042 -0.0030276334   -5.4322216   0.82721743   439061 
 1712000    0.5512013   -5.4321278   -5.4321278   -4.6053277 -0.0037833979   -5.4321278   0.82680007   439061 
 1713000   0.54990425    -5.430244    -5.430244   -4.6053895 0.0080219687    -5.430244    0.8248545   439061 
 1714000   0.55089472   -5.4320579   -5.4320579   -4.6057177 -0.0007214902   -5.4320579    0.8263402   439061 
 1715000   0.55032568   -5.4311931   -5.4311931   -4.6057064 -0.0022603953   -5.4311931   0.82548664   439061 
 1716000     0.550881   -5.4317185   -5.4317185   -4.6053989 0.0012103447   -5.4317185   0.82631962   439061 
 1717000   0.55125507   -5.4324026   -5.4324026   -4.6055219 0.0013487066   -5.4324026   0.82688072   439061 
 1718000   0.55084653   -5.4316321   -5.4316321   -4.6053642 -0.0025724088   -5.4316321   0.82626791   439061 
 1719000   0.54986576    -5.431267    -5.431267   -4.6064702 -0.0049825896    -5.431267   0.82479677   439061 
 1720000   0.55053438   -5.4324509   -5.4324509   -4.6066512 -0.0052787839   -5.4324509   0.82579968   439061 
 1721000   0.55103668   -5.4325651   -5.4325651    -4.606012 -0.001960268   -5.4325651   0.82655314   439061 
 1722000   0.55230722   -5.4353531   -5.4353531   -4.6068942 -0.0036553835   -5.4353531   0.82845895   439061 
 1723000   0.55108567   -5.4342108   -5.4342108   -4.6075842  0.002888765   -5.4342108   0.82662662   439061 
 1724000   0.55057023   -5.4323043   -5.4323043   -4.6064508 0.0058884411   -5.4323043   0.82585346   439061 
 1725000   0.55115032   -5.4335061   -5.4335061   -4.6067825 0.0013605949   -5.4335061    0.8267236   439061 
 1726000   0.55063237   -5.4321682   -5.4321682   -4.6062216 0.0011791329   -5.4321682   0.82594667   439061 
 1727000   0.55056241   -5.4320557   -5.4320557    -4.606214 -0.00056527043   -5.4320557   0.82584173   439061 
 1728000   0.55023557   -5.4318862   -5.4318862   -4.6065348 -0.0015539241   -5.4318862   0.82535147   439061 
 1729000   0.55068947   -5.4314313   -5.4314313   -4.6053989 -0.00013338665   -5.4314313   0.82603232   439061 
 1730000   0.55155317    -5.431471    -5.431471   -4.6041431 -0.00029539298    -5.431471   0.82732786   439061 
 1731000   0.55247337   -5.4321995   -5.4321995   -4.6034914 -0.00044524876   -5.4321995   0.82870816   439061 
 1732000   0.55238468   -5.4318039   -5.4318039   -4.6032288 -0.0031558668   -5.4318039   0.82857513   439061 
 1733000   0.55098823   -5.4302537   -5.4302537   -4.6037733 -0.0029708655   -5.4302537   0.82648047   439061 
 1734000   0.55083153   -5.4302291   -5.4302291   -4.6039836 -0.0073702798   -5.4302291   0.82624541   439061 
 1735000    0.5502618   -5.4293685   -5.4293685   -4.6039777 -0.0036658935   -5.4293685   0.82539082   439061 
 1736000   0.55113539   -5.4302831   -5.4302831   -4.6035819 -0.006113585   -5.4302831    0.8267012   439061 
 1737000   0.55147959   -5.4314154   -5.4314154   -4.6041978 -0.0018792417   -5.4314154   0.82721751   439061 
 1738000   0.55045886   -5.4310337   -5.4310337   -4.6053473 -0.0016047552   -5.4310337    0.8256864   439061 
 1739000   0.55063221   -5.4308344   -5.4308344   -4.6048879 0.0016345081   -5.4308344   0.82594643   439061 
 1740000    0.5517458   -5.4314956   -5.4314956   -4.6038788 0.0083899938   -5.4314956   0.82761682   439061 
 1741000   0.55284627   -5.4336355   -5.4336355    -4.604368 0.0078948738   -5.4336355   0.82926751   439061 
 1742000   0.55177593   -5.4321489   -5.4321489   -4.6044869 0.0038127406   -5.4321489   0.82766201   439061 
 1743000   0.55078528   -5.4321902   -5.4321902   -4.6060142 -0.0040347362   -5.4321902   0.82617603   439061 
 1744000   0.55056834   -5.4322173   -5.4322173   -4.6063666 -0.0078041777   -5.4322173   0.82585062   439061 
 1745000   0.55062194   -5.4317506   -5.4317506   -4.6058196 -0.0014220801   -5.4317506   0.82593103   439061 
 1746000   0.55083369   -5.4317319   -5.4317319   -4.6054833 -0.0024697004   -5.4317319   0.82624865   439061 
 1747000   0.55141086    -5.433051    -5.433051   -4.6059366 -0.0076433641    -5.433051   0.82711441   439061 
 1748000   0.55082387   -5.4323238   -5.4323238   -4.6060899 -0.0048138524   -5.4323238   0.82623393   439061 
 1749000   0.55072992   -5.4322447   -5.4322447   -4.6061517 1.056104e-05   -5.4322447     0.826093   439061 
 1750000   0.55185291   -5.4336642   -5.4336642   -4.6058867 -0.0024398548   -5.4336642   0.82777747   439061 
 1751000   0.55058333   -5.4313161   -5.4313161    -4.605443 0.0053737283   -5.4313161   0.82587311   439061 
 1752000   0.55188066   -5.4322287   -5.4322287   -4.6044096 0.0007724596   -5.4322287    0.8278191   439061 
 1753000   0.55258448    -5.433442    -5.433442   -4.6045671 -0.00039837103    -5.433442   0.82887483   439061 
 1754000   0.55117285    -5.432431    -5.432431   -4.6056736 -0.00082325941    -5.432431    0.8267574   439061 
 1755000   0.55163734   -5.4311538   -5.4311538   -4.6036996 -0.0041830266   -5.4311538   0.82745412   439061 
 1756000   0.55042949   -5.4310448   -5.4310448   -4.6054025 -0.0038455116   -5.4310448   0.82564235   439061 
 1757000   0.55128913   -5.4305655   -5.4305655   -4.6036337 -0.0049779134   -5.4305655   0.82693181   439061 
 1758000   0.54945113   -5.4290593   -5.4290593   -4.6048845 0.00024822064   -5.4290593   0.82417482   439061 
 1759000   0.55151118   -5.4319934   -5.4319934   -4.6047285 -0.0035772013   -5.4319934   0.82726488   439061 
 1760000   0.54986038   -5.4313016   -5.4313016   -4.6065129 0.00014597736   -5.4313016   0.82478869   439061 
 1761000   0.55174389   -5.4337312   -5.4337312   -4.6061172 -0.0011059542   -5.4337312   0.82761395   439061 
 1762000   0.55137234   -5.4326353   -5.4326353   -4.6055787 0.0016256509   -5.4326353   0.82705662   439061 
 1763000   0.55174943   -5.4333017   -5.4333017   -4.6056795 0.0040175504   -5.4333017   0.82762226   439061 
 1764000   0.55191172   -5.4331744   -5.4331744   -4.6053087 0.0070384441   -5.4331744    0.8278657   439061 
 1765000   0.55195705   -5.4326395   -5.4326395   -4.6047058 0.0016836988   -5.4326395   0.82793369   439061 
 1766000   0.55049521   -5.4301793   -5.4301793   -4.6044384 0.0033967857   -5.4301793   0.82574093   439061 
 1767000   0.55057546   -5.4317636   -5.4317636   -4.6059023 -0.0028283522   -5.4317636   0.82586131   439061 
 1768000   0.55035425   -5.4308353   -5.4308353   -4.6053058 -0.0061231179   -5.4308353   0.82552949   439061 
 1769000   0.55061113   -5.4308637   -5.4308637   -4.6049489 -0.0040086995   -5.4308637   0.82591482   439061 
 1770000   0.55059193   -5.4296591   -5.4296591   -4.6037731 -0.0022378597   -5.4296591   0.82588601   439061 
 1771000   0.55085589   -5.4294406   -5.4294406   -4.6031586 -0.0022432726   -5.4294406   0.82628195   439061 
 1772000   0.55116403   -5.4301571   -5.4301571   -4.6034129 8.8769391e-05   -5.4301571   0.82674417   439061 
 1773000   0.55009483   -5.4290657   -5.4290657   -4.6039254 0.0064712978   -5.4290657   0.82514037   439061 
 1774000   0.55234574   -5.4321673   -5.4321673   -4.6036506 0.0037853598   -5.4321673   0.82851672   439061 
 1775000   0.55134844   -5.4317293   -5.4317293   -4.6047085  0.003330973   -5.4317293   0.82702078   439061 
 1776000   0.55216749    -5.433094    -5.433094   -4.6048447 -0.0020353453    -5.433094   0.82824934   439061 
 1777000   0.55084884   -5.4314028   -5.4314028   -4.6051315 -0.0019806359   -5.4314028   0.82627137   439061 
 1778000   0.55073718   -5.4319902   -5.4319902   -4.6058863 -0.00070310703   -5.4319902   0.82610389   439061 
 1779000     0.550799     -5.43166     -5.43166   -4.6054634 -0.0033255834     -5.43166   0.82619661   439061 
 1780000   0.55046139   -5.4313189   -5.4313189   -4.6056287 -0.00028685126   -5.4313189    0.8256902   439061 
 1781000   0.55066237   -5.4320288   -5.4320288   -4.6060371 0.00042235165   -5.4320288   0.82599168   439061 
 1782000   0.55098043   -5.4318973   -5.4318973   -4.6054286 -0.00024177055   -5.4318973   0.82646876   439061 
 1783000   0.55143032   -5.4323168   -5.4323168   -4.6051732 -0.00081924241   -5.4323168   0.82714359   439061 
 1784000    0.5516963   -5.4317092   -5.4317092   -4.6041666 0.0024228662   -5.4317092   0.82754256   439061 
 1785000   0.55130698   -5.4317549   -5.4317549   -4.6047963 0.0014310797   -5.4317549   0.82695859   439061 
 1786000   0.55091135   -5.4301999   -5.4301999   -4.6038348 0.00026172222   -5.4301999   0.82636514   439061 
 1787000   0.55122428    -5.431506    -5.431506   -4.6046715 -0.0062343111    -5.431506   0.82683453   439061 
 1788000   0.55117419    -5.430866    -5.430866   -4.6041066 -0.00023656782    -5.430866    0.8267594   439061 
 1789000   0.55226827   -5.4318547   -5.4318547   -4.6034542 -0.0028273532   -5.4318547   0.82840052   439061 
 1790000   0.55145558   -5.4301304   -5.4301304   -4.6029489 -0.0025216527   -5.4301304   0.82718149   439061 
 1791000    0.5507443    -5.430363    -5.430363   -4.6042484 -0.0043844534    -5.430363   0.82611457   439061 
 1792000   0.55087403   -5.4304061   -5.4304061   -4.6040969 -0.0048301818   -5.4304061   0.82630916   439061 
 1793000    0.5510202    -5.430296    -5.430296   -4.6037676 0.0014038295    -5.430296   0.82652842   439061 
 1794000   0.55127619   -5.4296968   -5.4296968   -4.6027845 0.0023868519   -5.4296968    0.8269124   439061 
 1795000   0.55202504   -5.4316561   -5.4316561   -4.6036204 0.0007017184   -5.4316561   0.82803568   439061 
 1796000   0.55124597    -5.430689    -5.430689   -4.6038219 -0.0026652606    -5.430689   0.82686707   439061 
 1797000   0.55176791   -5.4308681   -5.4308681   -4.6032181 0.0017669681   -5.4308681   0.82764998   439061 
 1798000    0.5509489   -5.4297582   -5.4297582   -4.6033367 -0.0037837208   -5.4297582   0.82642148   439061 
 1799000   0.55226247   -5.4309797   -5.4309797   -4.6025879 -0.0019532039   -5.4309797   0.82839182   439061 
 1800000   0.55105428   -5.4302721   -5.4302721   -4.6036926 -0.0067413409   -5.4302721   0.82657954   439061 
 1801000   0.55046655   -5.4294577   -5.4294577   -4.6037598 -0.0018116056   -5.4294577   0.82569795   439061 
 1802000   0.54966558   -5.4294401   -5.4294401   -4.6049436 -0.0037374622   -5.4294401   0.82449649   439061 
 1803000   0.55071166   -5.4307496   -5.4307496    -4.604684 -0.0034302735   -5.4307496   0.82606561   439061 
 1804000   0.54986925   -5.4303195   -5.4303195   -4.6055175 0.0018232569   -5.4303195     0.824802   439061 
 1805000   0.55147366   -5.4324966   -5.4324966    -4.605288 0.0013934726   -5.4324966   0.82720861   439061 
 1806000    0.5508632    -5.431983    -5.431983   -4.6056901 0.0047703667    -5.431983   0.82629291   439061 
 1807000   0.55098113   -5.4328079   -5.4328079   -4.6063381 -0.0021465804   -5.4328079   0.82646981   439061 
 1808000     0.551299    -5.432679    -5.432679   -4.6057324 -0.00054385924    -5.432679   0.82694661   439061 
 1809000   0.55087752   -5.4313087   -5.4313087   -4.6049943 0.0065232551   -5.4313087   0.82631439   439061 
 1810000   0.55077842   -5.4310412   -5.4310412   -4.6048754 0.0028744667   -5.4310412   0.82616576   439061 
 1811000   0.55051132   -5.4321387   -5.4321387   -4.6063736 -0.0033466384   -5.4321387    0.8257651   439061 
 1812000   0.54911017   -5.4313999   -5.4313999   -4.6077366 -0.0044818537   -5.4313999   0.82366339   439061 
 1813000   0.55027103    -5.432121    -5.432121   -4.6067163 -0.0066815222    -5.432121   0.82540467   439061 
 1814000   0.55000712   -5.4322061   -5.4322061   -4.6071973 -0.0032016358   -5.4322061   0.82500881   439061 
 1815000   0.55043099   -5.4325106   -5.4325106    -4.606866 -0.0045678313   -5.4325106   0.82564461   439061 
 1816000   0.55019128   -5.4317288   -5.4317288   -4.6064437 0.00049901333   -5.4317288   0.82528504   439061 
 1817000   0.55111769    -5.434568    -5.434568   -4.6078934 0.0030957786    -5.434568   0.82667465   439061 
 1818000   0.55126007   -5.4346701   -5.4346701   -4.6077819 0.0020110136   -5.4346701   0.82688822   439061 
 1819000   0.55143869   -5.4349961   -5.4349961   -4.6078399   0.00561966   -5.4349961   0.82715615   439061 
 1820000   0.55197138   -5.4352428   -5.4352428   -4.6072876 0.0032060445   -5.4352428   0.82795519   439061 
 1821000   0.55063672   -5.4329661   -5.4329661   -4.6070129 0.0039007972   -5.4329661   0.82595319   439061 
 1822000   0.54978223   -5.4326308   -5.4326308   -4.6079594 -0.00056380213   -5.4326308   0.82467147   439061 
 1823000   0.54980838   -5.4320262   -5.4320262   -4.6073155 -0.0058801972   -5.4320262   0.82471069   439061 
 1824000   0.54973729   -5.4319043   -5.4319043   -4.6073002 -0.0060113391   -5.4319043   0.82460406   439061 
 1825000   0.54968872   -5.4313652   -5.4313652    -4.606834 -0.0063950427   -5.4313652   0.82453121   439061 
 1826000   0.54992127   -5.4318193   -5.4318193   -4.6069393 -0.0029748775   -5.4318193   0.82488003   439061 
 1827000   0.55036247   -5.4318484   -5.4318484   -4.6063066 -0.0012325508   -5.4318484   0.82554183   439061 
 1828000   0.55114551   -5.4328098   -5.4328098   -4.6060935 0.00064495487   -5.4328098   0.82671638   439061 
 1829000   0.55049538   -5.4325538   -5.4325538   -4.6068126 0.0017981549   -5.4325538    0.8257412   439061 
 1830000   0.55049501   -5.4321633   -5.4321633   -4.6064226 0.0041155764   -5.4321633   0.82574064   439061 
 1831000   0.55091703   -5.4326431   -5.4326431   -4.6062694 0.0044383188   -5.4326431   0.82637367   439061 
 1832000    0.5512167   -5.4347137   -5.4347137   -4.6078905 0.00018130881   -5.4347137   0.82682316   439061 
 1833000   0.54953917   -5.4321414   -5.4321414   -4.6078345 0.0013886592   -5.4321414   0.82430688   439061 
 1834000   0.55015446   -5.4322881   -5.4322881   -4.6070583 -0.00082989838   -5.4322881   0.82522982   439061 
 1835000   0.55010827   -5.4320193   -5.4320193   -4.6068588  0.000313253   -5.4320193   0.82516052   439061 
 1836000    0.5502812   -5.4318271   -5.4318271   -4.6064072 -0.00024575173   -5.4318271   0.82541992   439061 
 1837000    0.5512778   -5.4327555   -5.4327555   -4.6058406 -0.001172636   -5.4327555   0.82691481   439061 
 1838000   0.55019578   -5.4313774   -5.4313774   -4.6060856 0.0028636445   -5.4313774   0.82529179   439061 
 1839000   0.55138363   -5.4330707   -5.4330707   -4.6059971 0.0035292434   -5.4330707   0.82707356   439061 
 1840000   0.55053584   -5.4325004   -5.4325004   -4.6066985 -0.0023980782   -5.4325004   0.82580189   439061 
 1841000   0.55000495   -5.4317485   -5.4317485   -4.6067429 -0.0010601269   -5.4317485   0.82500554   439061 
 1842000   0.55088965   -5.4329896   -5.4329896    -4.606657 0.0015233877   -5.4329896   0.82633259   439061 
 1843000   0.55081691   -5.4333037   -5.4333037   -4.6070802 0.0014048842   -5.4333037   0.82622348   439061 
 1844000   0.55083128   -5.4327238   -5.4327238   -4.6064787 -0.0029350886   -5.4327238   0.82624504   439061 
 1845000   0.55088346   -5.4328138   -5.4328138   -4.6064905 -0.0024564029   -5.4328138    0.8263233   439061 
 1846000   0.55071335   -5.4328876   -5.4328876   -4.6068195 -0.00010113726   -5.4328876   0.82606814   439061 
 1847000   0.55082306   -5.4320042   -5.4320042   -4.6057715 0.0011489062   -5.4320042   0.82623271   439061 
 1848000   0.55068481   -5.4331425   -5.4331425   -4.6071172 -0.0048548954   -5.4331425   0.82602534   439061 
 1849000   0.55110017   -5.4333197   -5.4333197   -4.6066714 -0.0020377127   -5.4333197   0.82664838   439061 
 1850000   0.55074379   -5.4318085   -5.4318085   -4.6056947 0.0013930079   -5.4318085   0.82611381   439061 
 1851000   0.55128006   -5.4322062   -5.4322062    -4.605288 0.0012214408   -5.4322062    0.8269182   439061 
 1852000   0.55025473   -5.4304311   -5.4304311   -4.6050509 0.00022610204   -5.4304311   0.82538022   439061 
 1853000   0.55088041   -5.4316488   -5.4316488   -4.6053301 -0.0025142005   -5.4316488   0.82631873   439061 
 1854000   0.55124399   -5.4328266   -5.4328266   -4.6059625 -0.0026656655   -5.4328266   0.82686411   439061 
 1855000   0.55149947   -5.4327278   -5.4327278   -4.6054804 -0.0029037524   -5.4327278   0.82724732   439061 
 1856000   0.55033589   -5.4312741   -5.4312741   -4.6057721 -9.7447446e-05   -5.4312741   0.82550195   439061 
 1857000   0.55092927   -5.4315415   -5.4315415   -4.6051494 0.0014875409   -5.4315415   0.82639202   439061 
 1858000   0.55062198   -5.4314529   -5.4314529   -4.6055218 0.0030104701   -5.4314529   0.82593109   439061 
 1859000   0.55032978   -5.4311047   -5.4311047   -4.6056119 0.0011428054   -5.4311047   0.82549279   439061 
 1860000   0.55004453   -5.4310139   -5.4310139   -4.6059489 0.00092571768   -5.4310139   0.82506492   439061 
 1861000   0.55142232   -5.4326041   -5.4326041   -4.6054725 -0.0032065521   -5.4326041   0.82713159   439061 
 1862000   0.55158502   -5.4325953   -5.4325953   -4.6052197 -0.0036300141   -5.4325953   0.82737565   439061 
 1863000   0.55127084   -5.4327912   -5.4327912   -4.6058868 -0.00067123986   -5.4327912   0.82690437   439061 
 1864000   0.55076777   -5.4320309   -5.4320309   -4.6058811 0.00014210691   -5.4320309   0.82614977   439061 
 1865000    0.5514354    -5.433268    -5.433268   -4.6061168 -0.0025815049    -5.433268   0.82715122   439061 
 1866000   0.54995437   -5.4313214   -5.4313214   -4.6063917 0.0016828432   -5.4313214   0.82492968   439061 
 1867000   0.55101363   -5.4332171   -5.4332171   -4.6066986 -0.0012098044   -5.4332171   0.82651856   439061 
 1868000   0.55017905   -5.4323861   -5.4323861   -4.6071194 -0.001393874   -5.4323861   0.82526669   439061 
 1869000   0.54995395   -5.4315505   -5.4315505   -4.6066214 0.00059457246   -5.4315505   0.82492905   439061 
 1870000   0.55074465   -5.4322216   -5.4322216   -4.6061065 -0.00056603109   -5.4322216   0.82611509   439061 
 1871000   0.55121029    -5.433814    -5.433814   -4.6070004 -0.0025171543    -5.433814   0.82681356   439061 
 1872000   0.55021393   -5.4321127   -5.4321127   -4.6067937 -0.00032031993   -5.4321127   0.82531902   439061 
 1873000   0.55037551   -5.4319505   -5.4319505   -4.6063891 0.0001030993   -5.4319505   0.82556139   439061 
 1874000   0.55122586   -5.4327141   -5.4327141   -4.6058772 -0.0012851837   -5.4327141   0.82683691   439061 
 1875000   0.55084363   -5.4321409   -5.4321409   -4.6058773  0.001789563   -5.4321409   0.82626357   439061 
 1876000   0.55107475   -5.4327506   -5.4327506   -4.6061404  -0.00162546   -5.4327506   0.82661024   439061 
 1877000   0.54983662   -5.4312948   -5.4312948   -4.6065418 -0.0021938275   -5.4312948   0.82475305   439061 
 1878000   0.55057479   -5.4320873   -5.4320873    -4.606227 -0.0023100491   -5.4320873   0.82586031   439061 
 1879000   0.55077961   -5.4329267   -5.4329267   -4.6067592 -0.0012417601   -5.4329267   0.82616754   439061 
 1880000   0.55006733   -5.4334238   -5.4334238   -4.6083247 -0.0056553687   -5.4334238   0.82509911   439061 
 1881000   0.55152839   -5.4351064   -5.4351064   -4.6078157 -0.0048633693   -5.4351064   0.82729071   439061 
 1882000   0.55014825    -5.433853    -5.433853   -4.6086325 -0.00046243493    -5.433853   0.82522049   439061 
 1883000   0.55014762   -5.4336431   -5.4336431   -4.6084236 0.0040594625   -5.4336431   0.82521954   439061 
 1884000   0.55006577    -5.433452    -5.433452   -4.6083552 0.0038551412    -5.433452   0.82509677   439061 
 1885000   0.55020346   -5.4346403   -5.4346403    -4.609337 0.0032104081   -5.4346403   0.82530331   439061 
 1886000   0.55143567   -5.4361002   -5.4361002   -4.6089485 -0.001912668   -5.4361002   0.82715163   439061 
 1887000   0.55078694   -5.4353094   -5.4353094   -4.6091309 -0.0012302174   -5.4353094   0.82617853   439061 
 1888000   0.55027321   -5.4347489   -5.4347489    -4.609341 -0.0004134371   -5.4347489   0.82540794   439061 
 1889000   0.55063173   -5.4346013   -5.4346013   -4.6086556 -0.0013146377   -5.4346013   0.82594571   439061 
 1890000   0.55066466   -5.4347811   -5.4347811    -4.608786 -0.00020256157   -5.4347811    0.8259951   439061 
 1891000   0.55085351    -5.435357    -5.435357   -4.6090786 -0.0025876839    -5.435357   0.82627839   439061 
 1892000   0.54957818   -5.4333597   -5.4333597   -4.6089943 -0.002560504   -5.4333597   0.82436539   439061 
 1893000   0.55013824   -5.4334891   -5.4334891   -4.6082836 -0.00068265732   -5.4334891   0.82520548   439061 
 1894000   0.55032153   -5.4347559   -5.4347559   -4.6092755 -0.0057405292   -5.4347559   0.82548041   439061 
 1895000   0.55086128   -5.4349035   -5.4349035   -4.6086134 -0.0063345385   -5.4349035   0.82629004   439061 
 1896000   0.54998455   -5.4339579   -5.4339579   -4.6089829 -0.0022994157   -5.4339579   0.82497494   439061 
 1897000   0.54989027   -5.4350843   -5.4350843   -4.6102508 -0.0011185623   -5.4350843   0.82483353   439061 
 1898000    0.5498463   -5.4355955   -5.4355955    -4.610828 -0.0071924708   -5.4355955   0.82476758   439061 
 1899000   0.54961582   -5.4347448   -5.4347448    -4.610323 -0.0034318702   -5.4347448   0.82442185   439061 
 1900000   0.55049594   -5.4351126   -5.4351126   -4.6093706 0.0030988026   -5.4351126   0.82574203   439061 
 1901000   0.55075842   -5.4361387   -5.4361387    -4.610003 0.0028301644   -5.4361387   0.82613575   439061 
 1902000   0.55034233   -5.4353776   -5.4353776    -4.609866 0.0016140648   -5.4353776   0.82551161   439061 
 1903000   0.54937315   -5.4342425   -5.4342425   -4.6101847 0.0022886942   -5.4342425   0.82405785   439061 
 1904000   0.54960573   -5.4349269   -5.4349269   -4.6105202 0.0029773351   -5.4349269   0.82440671   439061 
 1905000   0.54942915   -5.4333147   -5.4333147   -4.6091728 0.0037308002   -5.4333147   0.82414184   439061 
 1906000   0.55018505   -5.4340267   -5.4340267    -4.608751 -0.00070671161   -5.4340267   0.82527569   439061 
 1907000   0.55007553    -5.433643    -5.433643   -4.6085316 -0.005118447    -5.433643   0.82511141   439061 
 1908000   0.54991356   -5.4327282   -5.4327282   -4.6078597 -0.0036280647   -5.4327282   0.82486846   439061 
 1909000   0.55077299   -5.4327609   -5.4327609   -4.6066033 0.0006056012   -5.4327609    0.8261576   439061 
 1910000   0.55063872   -5.4325148   -5.4325148   -4.6065586 -0.0042909198   -5.4325148    0.8259562   439061 
 1911000   0.55044784   -5.4329733   -5.4329733   -4.6073034 -0.0057993405   -5.4329733   0.82566987   439061 
 1912000   0.54999677   -5.4321596   -5.4321596   -4.6071664 -3.6799314e-05   -5.4321596   0.82499327   439061 
 1913000   0.55069859   -5.4339371   -5.4339371   -4.6078911 -0.0019395287   -5.4339371     0.826046   439061 
 1914000    0.5504197   -5.4331455   -5.4331455   -4.6075179 0.0028245832   -5.4331455   0.82562766   439061 
 1915000   0.55028748   -5.4343927   -5.4343927   -4.6089634 0.0020323284   -5.4343927   0.82542934   439061 
 1916000   0.54995442   -5.4343728   -5.4343728    -4.609443  0.002741557   -5.4343728   0.82492974   439061 
 1917000   0.55012967   -5.4350527   -5.4350527   -4.6098601 0.0037887319   -5.4350527   0.82519263   439061 
 1918000   0.55037087   -5.4353594   -5.4353594   -4.6098049 0.0017277961   -5.4353594   0.82555442   439061 
 1919000   0.54994947   -5.4349424   -5.4349424   -4.6100201 0.0036277814   -5.4349424   0.82492233   439061 
 1920000   0.55084268   -5.4359666   -5.4359666   -4.6097045 0.0038445369   -5.4359666   0.82626214   439061 
 1921000   0.55009769   -5.4349769   -5.4349769   -4.6098323 -0.003588289   -5.4349769   0.82514465   439061 
 1922000    0.5489497   -5.4343142   -5.4343142   -4.6108915 -0.0028386115   -5.4343142   0.82342268   439061 
 1923000   0.54965796   -5.4335367   -5.4335367   -4.6090516 -0.0040229777   -5.4335367   0.82448507   439061 
 1924000   0.54995487   -5.4346931   -5.4346931   -4.6097627 -0.0063931053   -5.4346931   0.82493043   439061 
 1925000   0.54970355   -5.4334635   -5.4334635     -4.60891 -0.0019390759   -5.4334635   0.82455344   439061 
 1926000   0.55180568   -5.4362679   -5.4362679   -4.6085613 -0.001499029   -5.4362679   0.82770664   439061 
 1927000   0.55038745   -5.4341194   -5.4341194   -4.6085401 0.0020092378   -5.4341194   0.82557929   439061 
 1928000   0.55030702   -5.4342626   -5.4342626    -4.608804 0.0038286313   -5.4342626   0.82545865   439061 
 1929000   0.54926631    -5.433112    -5.433112   -4.6092144 0.00086702033    -5.433112   0.82389758   439061 
 1930000   0.55000851   -5.4342478   -5.4342478   -4.6092369 0.0006872031   -5.4342478   0.82501089   439061 
 1931000   0.55039423   -5.4343871   -5.4343871   -4.6087976  0.000524188   -5.4343871   0.82558947   439061 
 1932000   0.54928596   -5.4337419   -5.4337419   -4.6098148 0.00067144994   -5.4337419   0.82392706   439061 
 1933000   0.54962765   -5.4349921   -5.4349921   -4.6105525 -0.0072933522   -5.4349921    0.8244396   439061 
 1934000   0.54956097   -5.4352258   -5.4352258   -4.6108862 -0.0047206889   -5.4352258   0.82433957   439061 
 1935000   0.54925818   -5.4344934   -5.4344934    -4.610608 -0.0025274816   -5.4344934   0.82388539   439061 
 1936000   0.55015599   -5.4356811   -5.4356811    -4.610449 0.0052489339   -5.4356811   0.82523211   439061 
 1937000   0.55075798   -5.4362094   -5.4362094   -4.6100743 0.0033786199   -5.4362094   0.82613509   439061 
 1938000   0.55045654   -5.4361841   -5.4361841   -4.6105012 -0.0031457359   -5.4361841   0.82568293   439061 
 1939000   0.55031151   -5.4365742   -5.4365742   -4.6111088 -0.00057240116   -5.4365742   0.82546538   439061 
 1940000    0.5496443    -5.434984    -5.434984   -4.6105195  0.003121302    -5.434984   0.82446457   439061 
 1941000   0.54875489   -5.4340686   -5.4340686   -4.6109381 0.0052250401   -5.4340686   0.82313046   439061 
 1942000   0.55024395   -5.4353101   -5.4353101   -4.6099461 -0.0024416468   -5.4353101   0.82536404   439061 
 1943000   0.55010917   -5.4361621   -5.4361621   -4.6110002 -0.0041450418   -5.4361621   0.82516188   439061 
 1944000   0.54958983   -5.4342263   -5.4342263   -4.6098434 0.00039113354   -5.4342263   0.82438286   439061 
 1945000   0.54982836   -5.4360833   -5.4360833   -4.6113426 -0.0038065303   -5.4360833   0.82474066   439061 
 1946000   0.54907976   -5.4349596   -5.4349596   -4.6113418 -0.0026224328   -5.4349596   0.82361777   439061 
 1947000   0.54975937   -5.4359464   -5.4359464   -4.6113092 -0.00026061109   -5.4359464   0.82463718   439061 
 1948000    0.5496709   -5.4348249   -5.4348249   -4.6103204 0.00053533368   -5.4348249   0.82450447   439061 
 1949000   0.55063623   -5.4355676   -5.4355676   -4.6096152 0.0028899802   -5.4355676   0.82595246   439061 
 1950000   0.55098991   -5.4371597   -5.4371597   -4.6106767 0.00024711306   -5.4371597   0.82648298   439061 
 1951000   0.54984769   -5.4358045   -5.4358045   -4.6110348 -0.00051725188   -5.4358045   0.82476965   439061 
 1952000   0.55030209   -5.4362685   -5.4362685   -4.6108173 0.0019794513   -5.4362685   0.82545125   439061 
 1953000   0.55025074   -5.4348344   -5.4348344   -4.6094602 -0.0025025353   -5.4348344   0.82537423   439061 
 1954000   0.54908995   -5.4337287   -5.4337287   -4.6100957 -0.00076586637   -5.4337287   0.82363304   439061 
 1955000   0.54944379   -5.4337723   -5.4337723   -4.6096085  -0.00447513   -5.4337723   0.82416381   439061 
 1956000   0.55000277   -5.4338387   -5.4338387   -4.6088365 -0.0024706253   -5.4338387   0.82500227   439061 
 1957000   0.54890932   -5.4332978   -5.4332978   -4.6099357 -0.0016177118   -5.4332978    0.8233621   439061 
 1958000   0.55040646   -5.4356906   -5.4356906   -4.6100828 -0.0092389737   -5.4356906   0.82560781   439061 
 1959000   0.54939332   -5.4345705   -5.4345705   -4.6104824 -0.0060203173   -5.4345705   0.82408811   439061 
 1960000   0.54938934   -5.4345914   -5.4345914   -4.6105092 -0.00045772898   -5.4345914   0.82408213   439061 
 1961000   0.55002649   -5.4345907   -5.4345907   -4.6095529 0.0059337351   -5.4345907   0.82503785   439061 
 1962000   0.54976905   -5.4349108   -5.4349108   -4.6102591  0.004217851   -5.4349108    0.8246517   439061 
 1963000   0.55021565   -5.4359223   -5.4359223   -4.6106007 0.0020863266   -5.4359223    0.8253216   439061 
 1964000    0.5506131    -5.436037    -5.436037   -4.6101192 -0.00066512535    -5.436037   0.82591777   439061 
 1965000   0.55009327   -5.4356583   -5.4356583   -4.6105203 0.0016592465   -5.4356583   0.82513802   439061 
 1966000   0.54947442   -5.4346761   -5.4346761   -4.6104664 0.0033264896   -5.4346761   0.82420976   439061 
 1967000   0.54985691   -5.4351474   -5.4351474    -4.610364 -0.0047352566   -5.4351474   0.82478349   439061 
 1968000   0.54975598   -5.4346436   -5.4346436   -4.6100115 -0.0030322328   -5.4346436    0.8246321   439061 
 1969000   0.55007066   -5.4342313   -5.4342313   -4.6091272 -0.0029709565   -5.4342313   0.82510411   439061 
 1970000   0.54940003   -5.4335144   -5.4335144   -4.6094162 -0.0016468538   -5.4335144   0.82409817   439061 
 1971000   0.54940185   -5.4324771   -5.4324771   -4.6083762 0.0001015767   -5.4324771    0.8241009   439061 
 1972000   0.54984856   -5.4325238   -5.4325238   -4.6077529 -0.0021569416   -5.4325238   0.82477096   439061 
 1973000    0.5502212   -5.4331869   -5.4331869    -4.607857 0.00033807294   -5.4331869   0.82532993   439061 
 1974000    0.5506594   -5.4345548   -5.4345548   -4.6085676 -0.0023503177   -5.4345548   0.82598722   439061 
 1975000   0.55006407   -5.4335627   -5.4335627   -4.6084685 -0.0041781882   -5.4335627   0.82509422   439061 
 1976000   0.55034126   -5.4337183   -5.4337183   -4.6082083 0.00078029301   -5.4337183   0.82551001   439061 
 1977000   0.55098936   -5.4349181   -5.4349181   -4.6084359 0.0032916774   -5.4349181   0.82648216   439061 
 1978000   0.54969689   -5.4331931   -5.4331931   -4.6086497  0.004623646   -5.4331931   0.82454346   439061 
 1979000    0.5500909   -5.4336386   -5.4336386   -4.6085042 -0.0013718286   -5.4336386   0.82513447   439061 
 1980000   0.55084768   -5.4344442   -5.4344442   -4.6081745 -0.00010187154   -5.4344442   0.82626964   439061 
 1981000   0.54960905   -5.4339314   -5.4339314   -4.6095197 0.0019917852   -5.4339314   0.82441169   439061 
 1982000   0.54878203   -5.4321254   -5.4321254   -4.6089542 -0.00064215447   -5.4321254   0.82317117   439061 
 1983000   0.54998353   -5.4346851   -5.4346851   -4.6097117 -0.0076089881   -5.4346851   0.82497341   439061 
 1984000   0.54894402   -5.4331902   -5.4331902    -4.609776 -0.00077391904   -5.4331902   0.82341415   439061 
 1985000   0.54991887   -5.4332935   -5.4332935   -4.6084171 0.00011883019   -5.4332935   0.82487642   439061 
 1986000   0.55054776   -5.4345036   -5.4345036   -4.6086838 0.0017287326   -5.4345036   0.82581976   439061 
 1987000   0.55038934   -5.4345127   -5.4345127   -4.6089306 0.0027676072   -5.4345127   0.82558212   439061 
 1988000   0.55070691   -5.4349427   -5.4349427   -4.6088842 0.00018414436   -5.4349427   0.82605848   439061 
 1989000   0.55025525   -5.4346308   -5.4346308   -4.6092498 0.0025713688   -5.4346308     0.825381   439061 
 1990000    0.5498308   -5.4349099   -5.4349099   -4.6101656 0.00033254589   -5.4349099   0.82474431   439061 
 1991000   0.55033699   -5.4362809   -5.4362809   -4.6107773 0.00098488043   -5.4362809   0.82550361   439061 
 1992000   0.55079423     -5.43683     -5.43683   -4.6106406 -0.0063123575     -5.43683   0.82618946   439061 
 1993000    0.5502499   -5.4354188   -5.4354188   -4.6100458 -0.0010567489   -5.4354188   0.82537298   439061 
 1994000   0.54944292   -5.4342662   -5.4342662   -4.6101037 -0.0032546795   -5.4342662    0.8241625   439061 
 1995000   0.54941813   -5.4342661   -5.4342661   -4.6101408 -0.0027549006   -5.4342661   0.82412532   439061 
 1996000   0.55044219   -5.4353869   -5.4353869   -4.6097255 -0.0017163509   -5.4353869    0.8256614   439061 
 1997000   0.54964622   -5.4341451   -5.4341451   -4.6096777 -0.00055827101   -5.4341451   0.82446746   439061 
 1998000   0.55017189   -5.4342635   -5.4342635   -4.6090076 -0.00041439781   -5.4342635   0.82525595   439061 
 1999000   0.55056806   -5.4353239   -5.4353239   -4.6094737 0.0017618538   -5.4353239    0.8258502   439061 
 2000000   0.55098006   -5.4370588   -5.4370588   -4.6105906 0.0011289187   -5.4370588   0.82646821   439061 
 2001000    0.5493358   -5.4345588   -5.4345588    -4.610557 0.00038234276   -5.4345588   0.82400182   439061 
 2002000   0.54971163   -5.4348125   -5.4348125    -4.610247 -0.0010691873   -5.4348125   0.82456557   439061 
 2003000   0.55029976   -5.4349875   -5.4349875   -4.6095397 0.00024490457   -5.4349875   0.82544776   439061 
 2004000   0.55042052   -5.4354828   -5.4354828   -4.6098539 6.3611894e-05   -5.4354828    0.8256289   439061 
 2005000   0.54974564   -5.4338813   -5.4338813   -4.6092647 0.00030491331   -5.4338813   0.82461658   439061 
 2006000   0.55094798   -5.4348035   -5.4348035   -4.6083834 -0.002324078   -5.4348035   0.82642008   439061 
 2007000   0.55015906   -5.4344404   -5.4344404   -4.6092036 0.00062540586   -5.4344404   0.82523671   439061 
 2008000   0.55019727   -5.4344661   -5.4344661   -4.6091721 -0.0018857143   -5.4344661   0.82529402   439061 
 2009000   0.55004478   -5.4339797   -5.4339797   -4.6089144 -0.0015678669   -5.4339797   0.82506529   439061 
 2010000     0.550188   -5.4347968   -5.4347968   -4.6095167 -0.002999287   -5.4347968   0.82528012   439061 
 2011000   0.55056544   -5.4354389   -5.4354389   -4.6095927 -0.0033964434   -5.4354389   0.82584628   439061 
 2012000   0.55044833    -5.435968    -5.435968   -4.6102974 -0.0054788652    -5.435968   0.82567062   439061 
 2013000   0.54965813   -5.4341333   -5.4341333    -4.609648 0.0022068079   -5.4341333   0.82448532   439061 
 2014000   0.55066962    -5.436309    -5.436309   -4.6103065 0.0025555943    -5.436309   0.82600254   439061 
 2015000   0.55056201   -5.4358077   -5.4358077   -4.6099665 0.0011933969   -5.4358077   0.82584114   439061 
 2016000   0.55054238   -5.4361976   -5.4361976   -4.6103859 0.00028900389   -5.4361976   0.82581169   439061 
 2017000   0.55033728   -5.4360328   -5.4360328   -4.6105287 -0.0021848379   -5.4360328   0.82550404   439061 
 2018000    0.5503892   -5.4363236   -5.4363236   -4.6107417 -0.0014859483   -5.4363236   0.82558193   439061 
 2019000   0.54974467   -5.4345329   -5.4345329   -4.6099177 0.0021621337   -5.4345329   0.82461513   439061 
 2020000   0.54948247   -5.4342211   -5.4342211   -4.6099993 -0.0028729313   -5.4342211   0.82422182   439061 
 2021000   0.54997864    -5.435624    -5.435624   -4.6106579 -0.0049005863    -5.435624   0.82496609   439061 
 2022000   0.54938435   -5.4349845   -5.4349845   -4.6109098 -0.0013641712   -5.4349845   0.82407464   439061 
 2023000   0.54973407   -5.4350411   -5.4350411   -4.6104419 -0.0035557786   -5.4350411   0.82459922   439061 
 2024000   0.55037676   -5.4346865   -5.4346865   -4.6091233 0.00040799507   -5.4346865   0.82556326   439061 
 2025000   0.55011951   -5.4348115   -5.4348115   -4.6096341 -0.0017791088   -5.4348115   0.82517739   439061 
 2026000   0.55011307   -5.4358559   -5.4358559   -4.6106881 0.0018115889   -5.4358559   0.82516772   439061 
 2027000   0.55123451   -5.4374247   -5.4374247   -4.6105749 0.0025843087   -5.4374247   0.82684989   439061 
 2028000   0.55013932   -5.4354963   -5.4354963   -4.6102892 0.0032106843   -5.4354963    0.8252071   439061 
 2029000   0.55046709   -5.4367579   -5.4367579   -4.6110592 -3.8414096e-05   -5.4367579   0.82569875   439061 
 2030000    0.5495249   -5.4357626   -5.4357626   -4.6114772 -0.002886942   -5.4357626   0.82428547   439061 
 2031000   0.54982854   -5.4361937   -5.4361937   -4.6114528 -0.0049253451   -5.4361937   0.82474092   439061 
 2032000   0.54904102   -5.4352757   -5.4352757   -4.6117161 -0.0044138455   -5.4352757   0.82355966   439061 
 2033000   0.54926332   -5.4352954   -5.4352954   -4.6114023 -0.0015109303   -5.4352954    0.8238931   439061 
 2034000   0.54899345   -5.4361213   -5.4361213    -4.612633 -0.0042412541   -5.4361213    0.8234883   439061 
 2035000   0.54992673   -5.4377542   -5.4377542    -4.612866 -0.0070574267   -5.4377542   0.82488821   439061 
 2036000   0.54925051   -5.4364792   -5.4364792   -4.6126053 -0.00026690424   -5.4364792   0.82387389   439061 
 2037000   0.54959061   -5.4364793   -5.4364793   -4.6120952 0.0030144705   -5.4364793   0.82438404   439061 
 2038000   0.54972547   -5.4362726   -5.4362726   -4.6116863 0.0086248387   -5.4362726   0.82458632   439061 
 2039000   0.54990995   -5.4372584   -5.4372584   -4.6123953  0.001380571   -5.4372584   0.82486305   439061 
 2040000   0.54904292   -5.4368356   -5.4368356   -4.6132731 -2.8514234e-05   -5.4368356   0.82356251   439061 
 2041000   0.54879933    -5.436495    -5.436495   -4.6132979 -0.0013127032    -5.436495   0.82319712   439061 
 2042000   0.54941955   -5.4373034   -5.4373034   -4.6131759 -0.0058949505   -5.4373034   0.82412745   439061 
 2043000   0.54975086   -5.4377562   -5.4377562   -4.6131318 -0.0078571831   -5.4377562   0.82462441   439061 
 2044000   0.54899034   -5.4369795   -5.4369795   -4.6134959 0.0014696861   -5.4369795   0.82348363   439061 
 2045000   0.54994031   -5.4379185   -5.4379185   -4.6130099 0.0021966487   -5.4379185   0.82490859   439061 
 2046000   0.55117859   -5.4392931   -5.4392931   -4.6125271 0.00044732632   -5.4392931   0.82676601   439061 
 2047000    0.5494965   -5.4366421   -5.4366421   -4.6123992 0.0037233158   -5.4366421   0.82424287   439061 
 2048000   0.55038399    -5.438336    -5.438336   -4.6127619 0.0018296071    -5.438336   0.82557411   439061 
 2049000   0.54963647   -5.4373385   -5.4373385   -4.6128857 0.00086393703   -5.4373385   0.82445283   439061 
 2050000   0.54970353    -5.437456    -5.437456   -4.6129026 -0.0016239175    -5.437456   0.82455341   439061 
 2051000   0.55130469   -5.4385164   -5.4385164   -4.6115612 -0.0023895907   -5.4385164   0.82695515   439061 
 2052000   0.54956782    -5.435193    -5.435193   -4.6108432 0.00032237789    -5.435193   0.82434985   439061 
 2053000    0.5501403   -5.4354182   -5.4354182   -4.6102096 -0.0024297065   -5.4354182   0.82520857   439061 
 2054000    0.5492229   -5.4342685   -5.4342685    -4.610436 -0.0041595616   -5.4342685   0.82383247   439061 
 2055000   0.54942257   -5.4354576   -5.4354576   -4.6113256 -0.0044521286   -5.4354576   0.82413198   439061 
 2056000   0.54939992    -5.434567    -5.434567    -4.610469 -0.00096117858    -5.434567     0.824098   439061 
 2057000   0.54922188    -5.434478    -5.434478    -4.610647 0.0040137618    -5.434478   0.82383094   439061 
 2058000   0.55076009   -5.4361502   -5.4361502    -4.610012 -0.0033737832   -5.4361502   0.82613826   439061 
 2059000   0.55096332   -5.4366136   -5.4366136   -4.6101705 0.0010778198   -5.4366136    0.8264431   439061 
 2060000    0.5494362   -5.4358972   -5.4358972   -4.6117448 0.0016079257   -5.4358972   0.82415242   439061 
 2061000   0.54992816   -5.4369391   -5.4369391   -4.6120487 -0.0014980633   -5.4369391   0.82489036   439061 
 2062000   0.55030011   -5.4371419   -5.4371419   -4.6116936 0.00090452224   -5.4371419   0.82544828   439061 
 2063000   0.55036678   -5.4381131   -5.4381131   -4.6125649 0.0039319852   -5.4381131   0.82554828   439061 
 2064000   0.55027764    -5.436525    -5.436525   -4.6111104 0.0038230433    -5.436525   0.82541458   439061 
 2065000   0.54851578   -5.4344937   -5.4344937   -4.6117219 -0.0011243028   -5.4344937    0.8227718   439061 
 2066000   0.54937484   -5.4354121   -5.4354121   -4.6113517  -0.00457894   -5.4354121   0.82406039   439061 
 2067000   0.54917753    -5.435471    -5.435471   -4.6117066 -0.0020508117    -5.435471   0.82376442   439061 
 2068000   0.54954866   -5.4348917   -5.4348917   -4.6105706 -0.0019001881   -5.4348917   0.82432111   439061 
 2069000   0.54985397   -5.4349399   -5.4349399   -4.6101609 -0.0035065573   -5.4349399   0.82477907   439061 
 2070000   0.54952776   -5.4353099   -5.4353099   -4.6110201 -0.00034294753   -5.4353099   0.82428976   439061 
 2071000   0.55017043   -5.4364481   -5.4364481   -4.6111943 -0.0038510464   -5.4364481   0.82525377   439061 
 2072000   0.54994462   -5.4375546   -5.4375546   -4.6126396 -0.0023775539   -5.4375546   0.82491505   439061 
 2073000   0.55039735   -5.4382586   -5.4382586   -4.6126645 0.0020171411   -5.4382586   0.82559414   439061 
 2074000   0.55037452   -5.4378688   -5.4378688   -4.6123089 0.0045052704   -5.4378688   0.82555989   439061 
 2075000   0.54919184   -5.4361536   -5.4361536   -4.6123677  0.010462912   -5.4361536   0.82378588   439061 
 2076000   0.54954841   -5.4368638   -5.4368638    -4.612543 0.00063679997   -5.4368638   0.82432073   439061 
 2077000   0.54978733   -5.4371968   -5.4371968   -4.6125177 -0.0013609871   -5.4371968   0.82467912   439061 
 2078000   0.55029856   -5.4371918   -5.4371918   -4.6117458 0.00033922147   -5.4371918   0.82544596   439061 
 2079000   0.54982984   -5.4369126   -5.4369126   -4.6121697 -0.0024471529   -5.4369126   0.82474289   439061 
 2080000   0.54934214   -5.4361419   -5.4361419   -4.6121305 -0.006477649   -5.4361419   0.82401134   439061 
 2081000   0.54870934   -5.4348304   -5.4348304   -4.6117683 0.00049700468   -5.4348304   0.82306214   439061 
 2082000   0.55027169   -5.4372607   -5.4372607   -4.6118551 -0.0039657644   -5.4372607   0.82540565   439061 
 2083000   0.54892001    -5.434094    -5.434094   -4.6107158 0.0021460967    -5.434094   0.82337814   439061 
 2084000   0.54989225   -5.4353961   -5.4353961   -4.6105596 -0.0023014944   -5.4353961   0.82483649   439061 
 2085000   0.54976317   -5.4349828   -5.4349828   -4.6103399 0.0020872567   -5.4349828   0.82464288   439061 
 2086000   0.55006129   -5.4359655   -5.4359655   -4.6108755 -0.0023326897   -5.4359655   0.82509006   439061 
 2087000   0.54989022   -5.4353609   -5.4353609   -4.6105274 -0.0036848558   -5.4353609   0.82483345   439061 
 2088000   0.54929354   -5.4344572   -5.4344572   -4.6105188 -0.0039823955   -5.4344572   0.82393843   439061 
 2089000   0.55021869    -5.435543    -5.435543   -4.6102169 -0.0031287158    -5.435543   0.82532615   439061 
 2090000   0.55005494   -5.4343727   -5.4343727   -4.6092922 0.0016767255   -5.4343727   0.82508054   439061 
 2091000   0.54989904   -5.4349138   -5.4349138   -4.6100671 -0.0012940722   -5.4349138   0.82484669   439061 
 2092000   0.55021157   -5.4356627   -5.4356627   -4.6103472 0.0037514268   -5.4356627   0.82531548   439061 
 2093000   0.55058551   -5.4364489   -5.4364489   -4.6105725 -0.0035756119   -5.4364489   0.82587639   439061 
 2094000   0.55047854   -5.4351273   -5.4351273   -4.6094114 0.0020568273   -5.4351273   0.82571593   439061 
 2095000   0.55022667   -5.4341255   -5.4341255   -4.6087874 0.0014340106   -5.4341255   0.82533812   439061 
 2096000   0.54924656    -5.434353    -5.434353    -4.610485 -0.0045100437    -5.434353   0.82386797   439061 
 2097000   0.54928489   -5.4354128   -5.4354128   -4.6114874 -0.0045060917   -5.4354128   0.82392546   439061 
 2098000   0.54916203   -5.4366617   -5.4366617   -4.6129205 -0.0057235865   -5.4366617   0.82374117   439061 
 2099000   0.54901572   -5.4358995   -5.4358995   -4.6123778 -0.0014242375   -5.4358995    0.8235217   439061 
 2100000   0.54911831   -5.4372009   -5.4372009   -4.6135254 -0.002547617   -5.4372009   0.82367558   439061 
 2101000    0.5500988   -5.4391332   -5.4391332   -4.6139869 -0.0044625272   -5.4391332   0.82514632   439061 
 2102000   0.54971404   -5.4386473   -5.4386473   -4.6140781 -0.0010372939   -5.4386473   0.82456918   439061 
 2103000   0.54988347   -5.4384543   -5.4384543   -4.6136309 0.0030187158   -5.4384543   0.82482332   439061 
 2104000   0.54980876   -5.4379605   -5.4379605   -4.6132493 0.0050776538   -5.4379605   0.82471127   439061 
 2105000   0.54949834   -5.4381557   -5.4381557     -4.61391 0.0042370729   -5.4381557   0.82424563   439061 
 2106000   0.55093801   -5.4398211   -5.4398211    -4.613416 -0.0015959798   -5.4398211   0.82640513   439061 
 2107000     0.550375   -5.4380305   -5.4380305   -4.6124699 -0.0046050776   -5.4380305   0.82556062   439061 
 2108000   0.54900768   -5.4367268   -5.4367268   -4.6132172 -0.00053936004   -5.4367268   0.82350964   439061 
 2109000   0.54967841   -5.4375494   -5.4375494   -4.6130337 -0.0045586972   -5.4375494   0.82451573   439061 
 2110000   0.54948173   -5.4374849   -5.4374849   -4.6132642 -0.010681779   -5.4374849   0.82422072   439061 
 2111000   0.54886495   -5.4362637   -5.4362637   -4.6129682 -0.0034587496   -5.4362637   0.82329554   439061 
 2112000   0.54915367   -5.4366982   -5.4366982   -4.6129696 -0.0074704958   -5.4366982   0.82372863   439061 
 2113000    0.5495703   -5.4363631   -5.4363631   -4.6120095 -0.0016036926   -5.4363631   0.82435357   439061 
 2114000    0.5503147   -5.4375817   -5.4375817   -4.6121115 -0.002708463   -5.4375817   0.82547017   439061 
 2115000   0.54932984   -5.4359983   -5.4359983   -4.6120054 0.0021168247   -5.4359983   0.82399288   439061 
 2116000   0.55024712   -5.4368666   -5.4368666   -4.6114979 0.0040682777   -5.4368666   0.82536879   439061 
 2117000   0.54980706   -5.4375036   -5.4375036   -4.6127949 0.0015470173   -5.4375036    0.8247087   439061 
 2118000   0.54924657   -5.4371535   -5.4371535   -4.6132855 -0.0018431689   -5.4371535   0.82386797   439061 
 2119000   0.54894511   -5.4365272   -5.4365272   -4.6131114 -0.0034680652   -5.4365272   0.82341578   439061 
 2120000   0.54903235   -5.4371231   -5.4371231   -4.6135764 2.1774165e-05   -5.4371231   0.82354665   439061 
 2121000   0.54893017   -5.4362335   -5.4362335   -4.6128402 0.0021711778   -5.4362335   0.82339338   439061 
 2122000   0.55008085   -5.4359315   -5.4359315   -4.6108121 0.0017246124   -5.4359315   0.82511939   439061 
 2123000   0.54948658   -5.4345767   -5.4345767   -4.6103487 0.0030086519   -5.4345767     0.824228   439061 
 2124000   0.54954253   -5.4342114   -5.4342114   -4.6098995  0.001144954   -5.4342114   0.82431192   439061 
 2125000    0.5494933   -5.4344945   -5.4344945   -4.6102565 -0.0032390175   -5.4344945   0.82423807   439061 
 2126000    0.5495823   -5.4340699   -5.4340699   -4.6096983 -0.0065123049   -5.4340699   0.82437157   439061 
 2127000   0.54947663    -5.434063    -5.434063     -4.60985 -0.004713894    -5.434063   0.82421307   439061 
 2128000   0.55040561   -5.4358706   -5.4358706   -4.6102641 -0.0055472646   -5.4358706   0.82560654   439061 
 2129000   0.54941914    -5.434943    -5.434943   -4.6108162 -0.0031360594    -5.434943   0.82412683   439061 
 2130000    0.5493913   -5.4352533   -5.4352533   -4.6111683 0.00086921191   -5.4352533   0.82408508   439061 
 2131000   0.55009676   -5.4366558   -5.4366558   -4.6115125  0.002747679   -5.4366558   0.82514326   439061 
 2132000   0.55062363   -5.4380289   -5.4380289   -4.6120954 0.0024956121   -5.4380289   0.82593356   439061 
 2133000   0.54905023    -5.436041    -5.436041   -4.6124676 0.0068971835    -5.436041   0.82357346   439061 
 2134000   0.54978721   -5.4378623   -5.4378623   -4.6131834 0.0034428383   -5.4378623   0.82467894   439061 
 2135000   0.55041605   -5.4381952   -5.4381952    -4.612573 0.0017736907   -5.4381952    0.8256222   439061 
 2136000   0.54986651   -5.4379092   -5.4379092   -4.6131114 -0.0021404132   -5.4379092   0.82479788   439061 
 2137000   0.55012716   -5.4387893   -5.4387893   -4.6136005 -0.0016435914   -5.4387893   0.82518886   439061 
 2138000   0.54944445   -5.4373628   -5.4373628    -4.613198 -0.0050783577   -5.4373628   0.82416479   439061 
 2139000   0.54893158   -5.4361949   -5.4361949   -4.6127994  -0.00445287   -5.4361949    0.8233955   439061 
 2140000   0.54926383   -5.4365091   -5.4365091   -4.6126152 -0.0027234205   -5.4365091   0.82389387   439061 
 2141000   0.55055735   -5.4373916   -5.4373916   -4.6115575 -0.0042663923   -5.4373916   0.82583415   439061 
 2142000   0.55027026   -5.4361516   -5.4361516   -4.6107481 0.00011972339   -5.4361516   0.82540351   439061 
 2143000   0.54975881    -5.435565    -5.435565   -4.6109287 -0.00082268815    -5.435565   0.82463633   439061 
 2144000   0.54931145   -5.4361093   -5.4361093    -4.612144 0.0019151379   -5.4361093   0.82396529   439061 
 2145000   0.55002314   -5.4378437   -5.4378437   -4.6128108 -0.00054112123   -5.4378437   0.82503284   439061 
 2146000   0.54847064    -5.435129    -5.435129   -4.6124249 0.0012644706    -5.435129   0.82270409   439061 
 2147000   0.54832084    -5.435531    -5.435531   -4.6130517 -0.0006160419    -5.435531   0.82247939   439061 
 2148000   0.54932011   -5.4368733   -5.4368733    -4.612895 0.0030950103   -5.4368733   0.82397828   439061 
 2149000   0.54940277   -5.4377365   -5.4377365   -4.6136342 -0.00015532284   -5.4377365   0.82410228   439061 
 2150000   0.54947084   -5.4366074   -5.4366074    -4.612403 0.00023837162   -5.4366074   0.82420438   439061 
 2151000   0.55002243   -5.4369231   -5.4369231   -4.6118913  0.002077743   -5.4369231   0.82503176   439061 
 2152000   0.54951398    -5.437094    -5.437094   -4.6128249 0.0054565494    -5.437094    0.8242691   439061 
 2153000   0.54946168   -5.4375386   -5.4375386    -4.613348 -5.189821e-05   -5.4375386   0.82419064   439061 
 2154000   0.55046023   -5.4376625   -5.4376625    -4.611974 -0.0040949837   -5.4376625   0.82568847   439061 
 2155000   0.54956238   -5.4366407   -5.4366407    -4.612299 -0.0036982639   -5.4366407   0.82434169   439061 
 2156000   0.54878818   -5.4348809   -5.4348809   -4.6117005 -0.00041059615   -5.4348809    0.8231804   439061 
 2157000   0.54983844   -5.4359715   -5.4359715   -4.6112157 -0.0015145251   -5.4359715   0.82475579   439061 
 2158000   0.54894739   -5.4341791   -5.4341791   -4.6107599 -0.0018401465   -5.4341791   0.82341921   439061 
 2159000   0.55050742   -5.4364343   -5.4364343    -4.610675 -0.00076466329   -5.4364343   0.82575925   439061 
 2160000   0.54951179   -5.4355286   -5.4355286   -4.6112628 -0.00018753006   -5.4355286   0.82426581   439061 
 2161000   0.55006496   -5.4366819   -5.4366819   -4.6115863 0.0014981103   -5.4366819   0.82509555   439061 
 2162000    0.5495788    -5.436752    -5.436752   -4.6123857 -0.0022061084    -5.436752   0.82436633   439061 
 2163000   0.54948341   -5.4366733   -5.4366733   -4.6124501 -0.00071775389   -5.4366733   0.82422324   439061 
 2164000   0.54937116    -5.436418    -5.436418   -4.6123631 -0.00064678433    -5.436418   0.82405486   439061 
 2165000   0.54953204   -5.4365252   -5.4365252    -4.612229 0.0029158395   -5.4365252   0.82429618   439061 
 2166000   0.54962483   -5.4372874   -5.4372874    -4.612852 -0.0011065303   -5.4372874   0.82443536   439061 
 2167000    0.5502025   -5.4373925   -5.4373925   -4.6120906 0.00065707808   -5.4373925   0.82530186   439061 
 2168000   0.55038984   -5.4366089   -5.4366089    -4.611026 -0.0014867443   -5.4366089   0.82558288   439061 
 2169000   0.54971406   -5.4376484   -5.4376484   -4.6130792 -0.0024983914   -5.4376484    0.8245692   439061 
 2170000   0.55002081   -5.4379449   -5.4379449   -4.6129156 -0.0032528039   -5.4379449   0.82502934   439061 
 2171000   0.55028253   -5.4372104   -5.4372104   -4.6117885  0.002375391   -5.4372104   0.82542192   439061 
 2172000    0.5499014   -5.4375306   -5.4375306   -4.6126804 -0.0009394673   -5.4375306   0.82485022   439061 
 2173000   0.54949404   -5.4366638   -5.4366638   -4.6124246 0.00030381394   -5.4366638   0.82423919   439061 
 2174000   0.54989993   -5.4371102   -5.4371102   -4.6122622 -0.0042942607   -5.4371102   0.82484801   439061 
 2175000   0.54889288    -5.436071    -5.436071   -4.6127336 0.0014024627    -5.436071   0.82333745   439061 
 2176000   0.54909992   -5.4358554   -5.4358554   -4.6122074 0.0050184327   -5.4358554   0.82364801   439061 
 2177000   0.54929034   -5.4357042   -5.4357042   -4.6117705 0.0063695687   -5.4357042   0.82393363   439061 
 2178000   0.55009034   -5.4374877   -5.4374877   -4.6123541 -5.8441515e-05   -5.4374877   0.82513364   439061 
 2179000   0.55014297   -5.4371868   -5.4371868   -4.6119742 0.0019808743   -5.4371868   0.82521258   439061 
 2180000   0.54905095   -5.4364094   -5.4364094   -4.6128349 0.0027857093   -5.4364094   0.82357455   439061 
 2181000   0.54958931   -5.4369766   -5.4369766   -4.6125945 -0.0027557047   -5.4369766   0.82438209   439061 
 2182000   0.55047896   -5.4374032   -5.4374032   -4.6116867 -0.002114522   -5.4374032   0.82571655   439061 
 2183000   0.55021309   -5.4368872   -5.4368872   -4.6115694 -0.001178745   -5.4368872   0.82531776   439061 
 2184000   0.55009419   -5.4365674   -5.4365674    -4.611428 -0.0013259252   -5.4365674    0.8251394   439061 
 2185000   0.54847547   -5.4344396   -5.4344396   -4.6117283 0.00053782685   -5.4344396   0.82271132   439061 
 2186000   0.54996654   -5.4370269   -5.4370269    -4.612079 -0.0076633023   -5.4370269   0.82494794   439061 
 2187000    0.5491347   -5.4354453   -5.4354453   -4.6117452 -0.002271902   -5.4354453   0.82370018   439061 
 2188000    0.5493767   -5.4352909   -5.4352909   -4.6112277 -0.00013135773   -5.4352909   0.82406317   439061 
 2189000   0.54976759   -5.4356571   -5.4356571   -4.6110076 0.0017116561   -5.4356571    0.8246495   439061 
 2190000   0.54970048   -5.4363846   -5.4363846   -4.6118358 -0.00088863573   -5.4363846   0.82454884   439061 
 2191000   0.54959422   -5.4362465   -5.4362465    -4.611857 0.0040976715   -5.4362465   0.82438945   439061 
 2192000   0.55013529   -5.4360693   -5.4360693   -4.6108683 0.0043606547   -5.4360693   0.82520105   439061 
 2193000    0.5508793   -5.4378363   -5.4378363   -4.6115192 -0.0039707387   -5.4378363   0.82631707   439061 
 2194000   0.54920538   -5.4345168   -5.4345168   -4.6107106 0.0021163871   -5.4345168    0.8238062   439061 
 2195000   0.54938493    -5.434619    -5.434619   -4.6105435 0.0040175344    -5.434619   0.82407552   439061 
 2196000   0.54894108   -5.4334875   -5.4334875   -4.6100777 0.0011083042   -5.4334875   0.82340974   439061 
 2197000   0.55007568   -5.4356327   -5.4356327   -4.6105211 -0.0062214607   -5.4356327   0.82511164   439061 
 2198000   0.54978854   -5.4348129   -5.4348129    -4.610132 -0.0040329093   -5.4348129   0.82468093   439061 
 2199000   0.55038739   -5.4345055   -5.4345055   -4.6089263 -0.0027266288   -5.4345055    0.8255792   439061 
 2200000   0.55090845   -5.4349677   -5.4349677   -4.6086069 -0.0034543982   -5.4349677    0.8263608   439061 
 2201000   0.54966766   -5.4330524   -5.4330524   -4.6085528 0.00063026963   -5.4330524   0.82449961   439061 
 2202000   0.54972533    -5.434581    -5.434581   -4.6099949 -0.0021472423    -5.434581   0.82458612   439061 
 2203000   0.54958605   -5.4340754   -5.4340754   -4.6096982 0.0019168773   -5.4340754    0.8243772   439061 
 2204000   0.54974785   -5.4343304   -5.4343304   -4.6097105 0.0033249447   -5.4343304    0.8246199   439061 
 2205000    0.5507072   -5.4358258   -5.4358258   -4.6097669 0.0027687167   -5.4358258   0.82605892   439061 
 2206000   0.55060686   -5.4358293   -5.4358293   -4.6099209 0.0027700087   -5.4358293   0.82590842   439061 
 2207000   0.55020731    -5.435844    -5.435844   -4.6105349 0.00062563161    -5.435844   0.82530909   439061 
 2208000   0.55025696   -5.4354916   -5.4354916   -4.6101081 0.00042053152   -5.4354916   0.82538357   439061 
 2209000    0.5502621   -5.4348623   -5.4348623    -4.609471 0.00026517121   -5.4348623   0.82539127   439061 
 2210000   0.55024602    -5.434908    -5.434908   -4.6095408 0.0035101397    -5.434908   0.82536715   439061 
 2211000    0.5504624   -5.4352562   -5.4352562   -4.6095645 -0.001309481   -5.4352562   0.82569171   439061 
 2212000   0.54921854   -5.4341901   -5.4341901   -4.6103642 -0.0031995778   -5.4341901   0.82382593   439061 
 2213000   0.54977841    -5.435218    -5.435218   -4.6105522 -0.005270868    -5.435218   0.82466573   439061 
 2214000   0.55011054   -5.4351573   -5.4351573   -4.6099934 -0.0041967806   -5.4351573   0.82516393   439061 
 2215000    0.5495805   -5.4346986   -5.4346986   -4.6103297 -0.0021930565   -5.4346986   0.82436887   439061 
 2216000   0.55035848   -5.4350646   -5.4350646   -4.6095287 -0.0024577181   -5.4350646   0.82553584   439061 
 2217000   0.54995677     -5.43563     -5.43563   -4.6106967 0.0008594523     -5.43563   0.82493328   439061 
 2218000   0.55017235   -5.4355624   -5.4355624   -4.6103058 7.1117276e-05   -5.4355624   0.82525664   439061 
 2219000    0.5507556    -5.435718    -5.435718   -4.6095864 0.0010605839    -5.435718   0.82613152   439061 
 2220000   0.55030545   -5.4345535   -5.4345535   -4.6090972  0.005332796   -5.4345535   0.82545629   439061 
 2221000   0.55072807   -5.4341862   -5.4341862    -4.608096 0.0047481119   -5.4341862   0.82609022   439061 
 2222000   0.55002782   -5.4343978   -5.4343978    -4.609358  0.001732504   -5.4343978   0.82503985   439061 
 2223000   0.54944575   -5.4326762   -5.4326762   -4.6085095 -0.0021306769   -5.4326762   0.82416674   439061 
 2224000   0.54956949   -5.4336323   -5.4336323     -4.60928 -0.0082821325   -5.4336323   0.82435236   439061 
 2225000   0.54960228   -5.4339304   -5.4339304   -4.6095288 -0.0088472799   -5.4339304   0.82440154   439061 
 2226000   0.55029458   -5.4351086   -5.4351086   -4.6096686 -0.0051703882   -5.4351086   0.82543999   439061 
 2227000   0.54894612   -5.4335359   -5.4335359   -4.6101186 0.0026275349   -5.4335359    0.8234173   439061 
 2228000    0.5510957   -5.4355341   -5.4355341   -4.6088924 0.00088954498   -5.4355341   0.82664166   439061 
 2229000   0.55077141   -5.4351457   -5.4351457   -4.6089904 0.0063297481   -5.4351457   0.82615524   439061 
 2230000   0.55107534   -5.4362663   -5.4362663   -4.6096552   0.00268693   -5.4362663   0.82661112   439061 
 2231000   0.55003747     -5.43507     -5.43507   -4.6100157 0.0053901957     -5.43507   0.82505432   439061 
 2232000   0.54969085     -5.43467     -5.43467   -4.6101356 0.0018897804     -5.43467   0.82453439   439061 
 2233000   0.54965781   -5.4344708   -5.4344708   -4.6099859 8.9949997e-05   -5.4344708   0.82448484   439061 
 2234000   0.54898729   -5.4330265   -5.4330265   -4.6095474 -0.0022220738   -5.4330265   0.82347906   439061 
 2235000   0.54981277   -5.4347074   -5.4347074   -4.6099901 -0.0053513095   -5.4347074   0.82471728   439061 
 2236000   0.55054133    -5.435218    -5.435218   -4.6094079 -0.0061958844    -5.435218   0.82581011   439061 
 2237000   0.55025531   -5.4339415   -5.4339415   -4.6085604  0.001524563   -5.4339415   0.82538109   439061 
 2238000   0.55047295   -5.4351248   -5.4351248   -4.6094172 -0.0049114403   -5.4351248   0.82570755   439061 
 2239000   0.54938164   -5.4334848   -5.4334848   -4.6094142 0.0019011701   -5.4334848   0.82407058   439061 
 2240000   0.55000983    -5.435346    -5.435346   -4.6103331 0.0030955463    -5.435346   0.82501286   439061 
 2241000   0.55036875   -5.4352429   -5.4352429   -4.6096916 0.0011579431   -5.4352429   0.82555124   439061 
 2242000   0.55070116   -5.4357778   -5.4357778    -4.609728 0.00022750875   -5.4357778   0.82604986   439061 
 2243000   0.55041495   -5.4355278   -5.4355278   -4.6099072 0.0066079124   -5.4355278   0.82562055   439061 
 2244000    0.5503952   -5.4356471   -5.4356471   -4.6100562 0.0019571881   -5.4356471   0.82559093   439061 
 2245000   0.54946736   -5.4345501   -5.4345501   -4.6103509 -8.3288009e-05   -5.4345501   0.82419916   439061 
 2246000   0.55007436   -5.4343168   -5.4343168   -4.6092072 -0.0042261629   -5.4343168   0.82510965   439061 
 2247000     0.550143   -5.4341646   -5.4341646    -4.608952 -0.0031120986   -5.4341646   0.82521262   439061 
 2248000   0.54900453   -5.4318849   -5.4318849     -4.60838 -0.0017950695   -5.4318849   0.82350491   439061 
 2249000   0.55052619   -5.4332813   -5.4332813   -4.6074939 -0.0064227385   -5.4332813    0.8257874   439061 
 2250000   0.54989791   -5.4339674   -5.4339674   -4.6091224 -0.0028189365   -5.4339674   0.82484499   439061 
 2251000   0.54988493   -5.4337435   -5.4337435    -4.608918 -0.0031234302   -5.4337435   0.82482552   439061 
 2252000   0.55005015    -5.433729    -5.433729   -4.6086556 -0.0027065142    -5.433729   0.82507335   439061 
 2253000   0.55036141     -5.43474     -5.43474   -4.6091998 0.0044042764     -5.43474   0.82554023   439061 
 2254000   0.55081729   -5.4346448   -5.4346448   -4.6084208 0.0040391415   -5.4346448   0.82622405   439061 
 2255000   0.55028956   -5.4341651   -5.4341651   -4.6087327 1.1034678e-05   -5.4341651   0.82543247   439061 
 2256000   0.54956711   -5.4336445   -5.4336445   -4.6092957 -0.00096417102   -5.4336445   0.82434878   439061 
 2257000    0.5499545   -5.4345939   -5.4345939   -4.6096641 0.0031482757   -5.4345939   0.82492987   439061 
 2258000   0.54988048   -5.4334787   -5.4334787   -4.6086599 -0.0023284027   -5.4334787   0.82481884   439061 
 2259000   0.54978637   -5.4334497   -5.4334497   -4.6087721 -0.0065533784   -5.4334497   0.82467767   439061 
 2260000   0.55013489   -5.4336394   -5.4336394   -4.6084389 0.0027835347   -5.4336394   0.82520045   439061 
 2261000   0.54949162   -5.4333359   -5.4333359   -4.6091003 0.0034911851   -5.4333359   0.82423555   439061 
 2262000   0.54912642   -5.4327071   -5.4327071   -4.6090193 -0.003443903   -5.4327071   0.82368775   439061 
 2263000    0.5499924   -5.4337078   -5.4337078   -4.6087211 -0.0018516464   -5.4337078   0.82498672   439061 
 2264000    0.5502338   -5.4348153   -5.4348153   -4.6094665 -0.0021376029   -5.4348153   0.82534882   439061 
 2265000   0.54996067     -5.43483     -5.43483   -4.6098908 -0.0013430958     -5.43483   0.82493912   439061 
 2266000    0.5491903    -5.434479    -5.434479   -4.6106954 -0.0028489456    -5.434479   0.82378357   439061 
 2267000   0.55028894   -5.4363895   -5.4363895    -4.610958 -0.0032104288   -5.4363895   0.82543153   439061 
 2268000    0.5508861   -5.4372488   -5.4372488   -4.6109215 -0.0068672987   -5.4372488   0.82632726   439061 
 2269000   0.54952386    -5.434742    -5.434742    -4.610458 0.0017264971    -5.434742   0.82428391   439061 
 2270000   0.55060382   -5.4358105   -5.4358105   -4.6099066 0.0010466387   -5.4358105   0.82590384   439061 
 2271000   0.54979777   -5.4355436   -5.4355436   -4.6108489 0.0056938418   -5.4355436   0.82469477   439061 
 2272000   0.55068354   -5.4365206   -5.4365206   -4.6104972 0.0039076922   -5.4365206   0.82602343   439061 
 2273000   0.54924439   -5.4331641   -5.4331641   -4.6092994 0.0028565271   -5.4331641   0.82386471   439061 
 2274000   0.54940191    -5.434735    -5.434735    -4.610634 -0.0052348811    -5.434735   0.82410099   439061 
 2275000   0.54890814     -5.43355     -5.43355   -4.6101897 -0.00091389952     -5.43355   0.82336033   439061 
 2276000   0.55000919   -5.4357041   -5.4357041   -4.6106922 -0.0022319447   -5.4357041   0.82501191   439061 
 2277000   0.55073008   -5.4367699   -5.4367699   -4.6106766 0.00026986973   -5.4367699   0.82609324   439061 
 2278000    0.5496436    -5.434204    -5.434204   -4.6097405 0.00059494105    -5.434204   0.82446352   439061 
 2279000   0.55030805   -5.4357038   -5.4357038   -4.6102436 -0.0016589038   -5.4357038   0.82546019   439061 
 2280000   0.55024862   -5.4350415   -5.4350415   -4.6096705 0.0037712694   -5.4350415   0.82537105   439061 
 2281000   0.55052443   -5.4359746   -5.4359746   -4.6101898 -0.0010333539   -5.4359746   0.82578476   439061 
 2282000    0.5498288   -5.4355532   -5.4355532   -4.6108118 -0.0037026677   -5.4355532   0.82474133   439061 
 2283000   0.55071322   -5.4349938   -5.4349938   -4.6089259 -0.00078721419   -5.4349938   0.82606795   439061 
 2284000   0.54993785   -5.4341617   -5.4341617   -4.6092568 -0.00029563902   -5.4341617    0.8249049   439061 
 2285000   0.54927152   -5.4334905   -5.4334905   -4.6095851 -0.00038937409   -5.4334905   0.82390541   439061 
 2286000   0.55035942    -5.435052    -5.435052   -4.6095147 -0.0043064698    -5.435052   0.82553725   439061 
 2287000   0.55057448   -5.4342281   -5.4342281   -4.6083682 -0.0013924465   -5.4342281   0.82585984   439061 
 2288000   0.55095232   -5.4340885   -5.4340885   -4.6076619 0.0019799875   -5.4340885   0.82642659   439061 
 2289000   0.55049282   -5.4346215   -5.4346215   -4.6088841 -0.0017214071   -5.4346215   0.82573736   439061 
 2290000   0.55001967   -5.4344029   -5.4344029   -4.6093753 -0.0014696602   -5.4344029   0.82502762   439061 
 2291000   0.55096762   -5.4360416   -5.4360416   -4.6095921 -0.00062451225   -5.4360416   0.82644956   439061 
 2292000   0.54976709   -5.4349622   -5.4349622   -4.6103135 -0.0031661248   -5.4349622   0.82464875   439061 
 2293000   0.55000891    -5.435446    -5.435446   -4.6104345 -0.0017249156    -5.435446   0.82501149   439061 
 2294000   0.54984471   -5.4349992   -5.4349992    -4.610234 0.0046425927   -5.4349992   0.82476519   439061 
 2295000   0.55046968   -5.4358757   -5.4358757    -4.610173 0.0021667184   -5.4358757   0.82570264   439061 
 2296000   0.55005204   -5.4352222   -5.4352222    -4.610146 0.0049382101   -5.4352222   0.82507618   439061 
 2297000   0.54910962   -5.4346834   -5.4346834   -4.6110209 0.00029270442   -5.4346834   0.82366256   439061 
 2298000   0.54968813   -5.4368186   -5.4368186   -4.6122883 -0.0050871936   -5.4368186   0.82453031   439061 
 2299000   0.55063314   -5.4371576   -5.4371576   -4.6112098 -0.0071460807   -5.4371576   0.82594782   439061 
 2300000   0.54971855   -5.4358116   -5.4358116   -4.6112356 -0.0019048669   -5.4358116   0.82457595   439061 
 2301000   0.54957383   -5.4352787   -5.4352787   -4.6109198 0.0030164403   -5.4352787   0.82435887   439061 
 2302000   0.55006188   -5.4362521   -5.4362521   -4.6111611 7.4763245e-05   -5.4362521   0.82509094   439061 
 2303000   0.55097853   -5.4371841   -5.4371841   -4.6107181  0.003473315   -5.4371841   0.82646592   439061 
 2304000   0.55083916   -5.4372611   -5.4372611   -4.6110042 0.00072989084   -5.4372611   0.82625686   439061 
 2305000   0.54896737   -5.4344311   -5.4344311    -4.610982 0.00098615523   -5.4344311   0.82344918   439061 
 2306000   0.55103047   -5.4356458   -5.4356458   -4.6091019 -0.0007018485   -5.4356458   0.82654383   439061 
 2307000   0.54971889   -5.4337587   -5.4337587   -4.6091823 0.0028639576   -5.4337587   0.82457646   439061 
 2308000   0.55047463   -5.4337476   -5.4337476   -4.6080376 -0.0036308437   -5.4337476   0.82571007   439061 
 2309000   0.54951686   -5.4329039   -5.4329039   -4.6086305 -0.0039405617   -5.4329039   0.82427341   439061 
 2310000   0.55016245   -5.4338068   -5.4338068    -4.608565 -0.0016913384   -5.4338068   0.82524179   439061 
 2311000    0.5502199   -5.4340817   -5.4340817   -4.6087537 -0.0051636374   -5.4340817   0.82532798   439061 
 2312000   0.55013973    -5.433335    -5.433335   -4.6081273 -0.0027386537    -5.433335   0.82520772   439061 
 2313000   0.54984529   -5.4334121   -5.4334121   -4.6086461 0.00023947251   -5.4334121   0.82476605   439061 
 2314000    0.5506959   -5.4344643   -5.4344643   -4.6084223 -0.00025823537   -5.4344643   0.82604196   439061 
 2315000   0.55088646   -5.4344652   -5.4344652   -4.6081374 -0.0045296045   -5.4344652   0.82632781   439061 
 2316000    0.5510309   -5.4347219   -5.4347219   -4.6081774  0.001444258   -5.4347219   0.82654447   439061 
 2317000   0.55011921   -5.4338678   -5.4338678   -4.6086909 0.0015941687   -5.4338678   0.82517693   439061 
 2318000   0.54986838   -5.4331537   -5.4331537   -4.6083531 0.0025985237   -5.4331537   0.82480069   439061 
 2319000   0.55093961   -5.4355324   -5.4355324   -4.6091248 0.0012436719   -5.4355324   0.82640753   439061 
 2320000   0.55083801   -5.4363764   -5.4363764   -4.6101213 -0.0052927361   -5.4363764   0.82625513   439061 
 2321000   0.54981827   -5.4358011   -5.4358011   -4.6110756 -0.0037934759   -5.4358011   0.82472553   439061 
 2322000   0.54959494   -5.4342852   -5.4342852   -4.6098946 -0.0061944649   -5.4342852   0.82439054   439061 
 2323000   0.54985855   -5.4347911   -5.4347911   -4.6100051 -0.0011683328   -5.4347911   0.82478595   439061 
 2324000   0.55063203   -5.4348327   -5.4348327   -4.6088865 -0.0029148207   -5.4348327   0.82594616   439061 
 2325000    0.5511162   -5.4348084   -5.4348084    -4.608136 0.00083859766   -5.4348084   0.82667241   439061 
 2326000   0.55108325   -5.4354659   -5.4354659   -4.6088429 0.0031137875   -5.4354659   0.82662299   439061 
 2327000   0.55068129   -5.4349195   -5.4349195   -4.6088995 7.5038564e-05   -5.4349195   0.82602005   439061 
 2328000   0.55035416     -5.43465     -5.43465   -4.6091207 -0.00099369355     -5.43465   0.82552936   439061 
 2329000   0.55078421   -5.4348912   -5.4348912   -4.6087167 0.0023267847   -5.4348912   0.82617443   439061 
 2330000   0.55172692   -5.4358939   -5.4358939   -4.6083054 -0.0035207309   -5.4358939   0.82758849   439061 
 2331000   0.55079886   -5.4352358   -5.4352358   -4.6090394 -0.0001961218   -5.4352358   0.82619641   439061 
 2332000   0.55078616   -5.4351243   -5.4351243   -4.6089469 -0.0047763659   -5.4351243   0.82617736   439061 
 2333000   0.55075136   -5.4341442   -5.4341442   -4.6080191 -0.0016977524   -5.4341442   0.82612517   439061 
 2334000   0.54988783   -5.4324746   -5.4324746   -4.6076448 -1.5766553e-05   -5.4324746   0.82482987   439061 
 2335000   0.55049106   -5.4333943   -5.4333943   -4.6076596 -0.00064651869   -5.4333943   0.82573471   439061 
 2336000   0.55075476   -5.4347693   -5.4347693    -4.608639 0.0010728139   -5.4347693   0.82613026   439061 
 2337000   0.54973291   -5.4337837   -5.4337837   -4.6091862 -0.0040745264   -5.4337837   0.82459748   439061 
 2338000   0.54911765   -5.4325356   -5.4325356    -4.608861 -0.0029737182   -5.4325356    0.8236746   439061 
 2339000   0.54979995   -5.4338046   -5.4338046   -4.6091066 0.00089962292   -5.4338046   0.82469805   439061 
 2340000    0.5516558   -5.4355399   -5.4355399   -4.6080581 -0.0015720894   -5.4355399   0.82748182   439061 
 2341000   0.55000334   -5.4340466   -5.4340466   -4.6090434 -0.0025786043   -5.4340466   0.82500314   439061 
 2342000   0.54978755   -5.4336261   -5.4336261   -4.6089467 0.0021156372   -5.4336261   0.82467945   439061 
 2343000   0.55097433   -5.4356801   -5.4356801   -4.6092205 0.0013975033   -5.4356801   0.82645961   439061 
 2344000   0.54987537    -5.433696    -5.433696   -4.6088848 -0.00049356601    -5.433696   0.82481118   439061 
 2345000    0.5502172   -5.4334202   -5.4334202   -4.6080963 -0.0033637705   -5.4334202   0.82532392   439061 
 2346000   0.54958019   -5.4328057   -5.4328057   -4.6084373 -0.0059851601   -5.4328057    0.8243684   439061 
 2347000   0.55049491   -5.4345435   -5.4345435    -4.608803 -0.005810951   -5.4345435   0.82574049   439061 
 2348000   0.55084816   -5.4338233   -5.4338233   -4.6075529 -0.0001205196   -5.4338233   0.82627036   439061 
 2349000   0.55017494   -5.4328668   -5.4328668   -4.6076063 0.0014137447   -5.4328668   0.82526053   439061 
 2350000   0.55085007    -5.434044    -5.434044   -4.6077708 -0.0024674088    -5.434044   0.82627323   439061 
 2351000   0.55082869   -5.4338572   -5.4338572   -4.6076161 0.0011051761   -5.4338572   0.82624116   439061 
 2352000   0.55041438   -5.4339772   -5.4339772   -4.6083575 0.0016113772   -5.4339772   0.82561969   439061 
 2353000   0.55018207   -5.4333845   -5.4333845   -4.6081133 -0.0045829953   -5.4333845   0.82527123   439061 
 2354000   0.55028816   -5.4329801   -5.4329801   -4.6075497 -0.0028271176   -5.4329801   0.82543036   439061 
 2355000   0.55056485   -5.4331784   -5.4331784    -4.607333 -0.0017883003   -5.4331784   0.82584539   439061 
 2356000   0.55013702   -5.4317916   -5.4317916    -4.606588 0.0038088402   -5.4317916   0.82520365   439061 
 2357000   0.55029286   -5.4328319   -5.4328319   -4.6073945 -0.0051141371   -5.4328319   0.82543741   439061 
 2358000   0.55033807   -5.4325241   -5.4325241   -4.6070189 -0.0040851004   -5.4325241   0.82550522   439061 
 2359000   0.54974491   -5.4319385   -5.4319385   -4.6073231 -0.001174253   -5.4319385   0.82461548   439061 
 2360000   0.54964699   -5.4322993   -5.4322993   -4.6078307 1.4263385e-05   -5.4322993   0.82446861   439061 
 2361000   0.54995974   -5.4326033   -5.4326033   -4.6076655 -0.0027446868   -5.4326033   0.82493774   439061 
 2362000   0.55110597   -5.4350023   -5.4350023   -4.6083453 -0.0043879657   -5.4350023   0.82665707   439061 
 2363000   0.55155672   -5.4352323   -5.4352323   -4.6078991  0.002863429   -5.4352323    0.8273332   439061 
 2364000   0.55079724   -5.4341295   -5.4341295   -4.6079356 0.0018729886   -5.4341295   0.82619398   439061 
 2365000   0.55162707   -5.4344959   -5.4344959   -4.6070572 0.0010450927   -5.4344959   0.82743872   439061 
 2366000   0.55044722   -5.4339948   -5.4339948   -4.6083259 0.0034271857   -5.4339948   0.82566894   439061 
 2367000   0.54973376   -5.4323131   -5.4323131   -4.6077143 0.0054220862   -5.4323131   0.82459877   439061 
 2368000   0.55127205   -5.4347156   -5.4347156   -4.6078094 -8.88955e-05   -5.4347156   0.82690619   439061 
 2369000   0.55083846   -5.4343747   -5.4343747   -4.6081189 -0.00094040692   -5.4343747   0.82625581   439061 
 2370000   0.54953059   -5.4321886   -5.4321886   -4.6078946 -0.00026282232   -5.4321886   0.82429401   439061 
 2371000   0.55044519   -5.4333263   -5.4333263   -4.6076604 -0.0050291465   -5.4333263    0.8256659   439061 
 2372000   0.54893214   -5.4321421   -5.4321421   -4.6087458 -0.0043461011   -5.4321421   0.82339633   439061 
 2373000   0.54984524   -5.4330963   -5.4330963   -4.6083303 -0.00064385354   -5.4330963   0.82476598   439061 
 2374000   0.55022841   -5.4336896   -5.4336896   -4.6083488 0.0032842898   -5.4336896   0.82534073   439061 
 2375000   0.55036095   -5.4352501   -5.4352501   -4.6097105 0.00070089133   -5.4352501   0.82553955   439061 
 2376000   0.54975692   -5.4349882   -5.4349882   -4.6103547 0.00022303174   -5.4349882    0.8246335   439061 
 2377000   0.55037888   -5.4356355   -5.4356355    -4.610069 0.0003144414   -5.4356355   0.82556643   439061 
 2378000   0.55050165   -5.4353412   -5.4353412   -4.6095906 0.0054781417   -5.4353412    0.8257506   439061 
 2379000   0.54923539   -5.4349817   -5.4349817   -4.6111305  0.001215305   -5.4349817   0.82385121   439061 
 2380000   0.55075176   -5.4387596   -5.4387596   -4.6126338 -0.0026054108   -5.4387596   0.82612576   439061 
 2381000   0.54920614   -5.4367146   -5.4367146   -4.6129073 -0.005777241   -5.4367146   0.82380733   439061 
 2382000   0.54881356   -5.4357295   -5.4357295    -4.612511 -0.0014727177   -5.4357295   0.82321846   439061 
 2383000   0.54875829   -5.4357944   -5.4357944   -4.6126588 0.00019993654   -5.4357944   0.82313557   439061 
 2384000   0.54861832   -5.4350685   -5.4350685   -4.6121429 0.0012057276   -5.4350685    0.8229256   439061 
 2385000   0.54886287   -5.4362899   -5.4362899   -4.6129975 0.0064146995   -5.4362899   0.82329243   439061 
 2386000   0.54956227   -5.4375293   -5.4375293   -4.6131878 0.0019056145   -5.4375293   0.82434153   439061 
 2387000   0.54917363   -5.4369374   -5.4369374   -4.6131789 0.00010783424   -5.4369374   0.82375858   439061 
 2388000   0.54960908   -5.4369746   -5.4369746   -4.6125629 0.0035525071   -5.4369746   0.82441174   439061 
 2389000   0.55087757   -5.4385945   -5.4385945   -4.6122801 0.0017169113   -5.4385945   0.82631447   439061 
 2390000   0.54997315   -5.4373084   -5.4373084   -4.6123506 0.0020252384   -5.4373084   0.82495785   439061 
 2391000   0.54867161   -5.4350491   -5.4350491   -4.6120436 0.0019497196   -5.4350491   0.82300554   439061 
 2392000   0.54984792   -5.4361256   -5.4361256   -4.6113556 -0.0020821376   -5.4361256   0.82477001   439061 
 2393000   0.54942619   -5.4354258   -5.4354258   -4.6112884 -0.0060481642   -5.4354258    0.8241374   439061 
 2394000   0.55007399   -5.4362302   -5.4362302   -4.6111211 -0.0047046917   -5.4362302   0.82510911   439061 
 2395000   0.55024271   -5.4352857   -5.4352857   -4.6099235 -0.004292595   -5.4352857   0.82536218   439061 
 2396000   0.55020709    -5.435044    -5.435044   -4.6097353 -0.00051541803    -5.435044   0.82530876   439061 
 2397000   0.55091621   -5.4358149   -5.4358149   -4.6094425 -0.0026686689   -5.4358149   0.82637243   439061 
 2398000   0.54998163   -5.4349239   -5.4349239   -4.6099533 -0.00018312656   -5.4349239   0.82497057   439061 
 2399000   0.54973731   -5.4354268   -5.4354268   -4.6108227 0.0015972065   -5.4354268   0.82460409   439061 
 2400000   0.54960615   -5.4357458   -5.4357458   -4.6113384 -0.0041805335   -5.4357458   0.82440735   439061 
 2401000   0.54958258   -5.4360835   -5.4360835   -4.6117115 -0.0022985543   -5.4360835     0.824372   439061 
 2402000   0.54979432   -5.4358139   -5.4358139   -4.6111243 0.0032094901   -5.4358139    0.8246896   439061 
 2403000   0.55076479   -5.4378096   -5.4378096   -4.6116643 -0.0021385025   -5.4378096   0.82614531   439061 
 2404000   0.55008586    -5.437166    -5.437166   -4.6120391 -0.00076262213    -5.437166   0.82512692   439061 
 2405000   0.54954565   -5.4359914   -5.4359914   -4.6116748  0.003070996   -5.4359914   0.82431659   439061 
 2406000   0.54998992   -5.4372011   -5.4372011   -4.6122181 0.00058221804   -5.4372011   0.82498299   439061 
 2407000   0.54965202    -5.436895    -5.436895   -4.6124188 -0.0013308279    -5.436895   0.82447616   439061 
 2408000   0.54963106   -5.4375246   -5.4375246   -4.6130799 -0.0059041642   -5.4375246   0.82444472   439061 
 2409000   0.54895482   -5.4361017   -5.4361017   -4.6126714 -0.005617636   -5.4361017   0.82343036   439061 
 2410000   0.54932755   -5.4365616   -5.4365616   -4.6125721 -0.0046878136   -5.4365616   0.82398945   439061 
 2411000   0.55050491   -5.4370491   -5.4370491   -4.6112936 0.0012530285   -5.4370491   0.82575548   439061 
 2412000   0.55119903   -5.4375775   -5.4375775   -4.6107809 0.00042531948   -5.4375775   0.82679666   439061 
 2413000   0.55075781   -5.4370787   -5.4370787   -4.6109439 0.0014170259   -5.4370787   0.82613484   439061 
 2414000   0.54940281   -5.4353067   -5.4353067   -4.6112043 0.0053830901   -5.4353067   0.82410234   439061 
 2415000    0.5496618   -5.4366201   -5.4366201   -4.6121293 0.0015073582   -5.4366201   0.82449082   439061 
 2416000   0.55007717   -5.4355011   -5.4355011   -4.6103872 -0.0020169003   -5.4355011   0.82511388   439061 
 2417000   0.54944576   -5.4355952   -5.4355952   -4.6114284 -0.0040314826   -5.4355952   0.82416676   439061 
 2418000   0.54927896    -5.435179    -5.435179   -4.6112625 -0.0036223608    -5.435179   0.82391656   439061 
 2419000   0.54895767   -5.4345125   -5.4345125   -4.6110779 -0.0041516484   -5.4345125   0.82343462   439061 
 2420000   0.54991467   -5.4352237   -5.4352237   -4.6103536 -0.0019588407   -5.4352237   0.82487013   439061 
 2421000   0.55081428   -5.4364389   -5.4364389   -4.6102193 -0.0020753883   -5.4364389   0.82621955   439061 
 2422000    0.5493232   -5.4344293   -5.4344293   -4.6104464  0.005158476   -5.4344293   0.82398292   439061 
 2423000   0.55068361   -5.4361867   -5.4361867   -4.6101632 0.0057141764   -5.4361867   0.82602353   439061 
 2424000   0.55120323   -5.4366181   -5.4366181   -4.6098151 4.7078216e-06   -5.4366181   0.82680297   439061 
 2425000   0.54955084   -5.4342924   -5.4342924    -4.609968 0.0024530182   -5.4342924   0.82432438   439061 
 2426000   0.54959019   -5.4338159   -5.4338159   -4.6094325 0.0035795181   -5.4338159   0.82438341   439061 
 2427000   0.55018904   -5.4350652   -5.4350652   -4.6097835 -0.0022316933   -5.4350652   0.82528168   439061 
 2428000   0.54933755   -5.4340359   -5.4340359   -4.6100314 -0.0063652398   -5.4340359   0.82400444   439061 
 2429000   0.54878234   -5.4330474   -5.4330474   -4.6098758 -0.0092536761   -5.4330474   0.82317163   439061 
 2430000   0.55019099   -5.4351335   -5.4351335   -4.6098489 -0.0049548492   -5.4351335    0.8252846   439061 
 2431000   0.54943349   -5.4327581   -5.4327581   -4.6086098 0.0024958011   -5.4327581   0.82414835   439061 
 2432000   0.55075033   -5.4347829   -5.4347829   -4.6086593 -0.0012699717   -5.4347829   0.82612362   439061 
 2433000   0.55142311   -5.4354652   -5.4354652   -4.6083324 0.0023242025   -5.4354652   0.82713277   439061 
 2434000   0.55078355   -5.4340376   -5.4340376   -4.6078642 0.0072283484   -5.4340376   0.82617345   439061 
 2435000   0.55068898   -5.4352735   -5.4352735   -4.6092419  0.001860497   -5.4352735   0.82603158   439061 
 2436000    0.5502654   -5.4353912   -5.4353912    -4.609995 -0.0013163656   -5.4353912   0.82539622   439061 
 2437000   0.54899458   -5.4332674   -5.4332674   -4.6097774 0.0032290268   -5.4332674   0.82348999   439061 
 2438000    0.5497998   -5.4345173   -5.4345173   -4.6098195 -0.0028553316   -5.4345173   0.82469782   439061 
 2439000   0.55050247    -5.435331    -5.435331   -4.6095791 -0.0030240043    -5.435331   0.82575183   439061 
 2440000   0.54905166   -5.4332761   -5.4332761   -4.6097005 -0.0028210324   -5.4332761   0.82357562   439061 
 2441000   0.54934949   -5.4332683   -5.4332683    -4.609246 -0.00014089004   -5.4332683   0.82402236   439061 
 2442000   0.54955934   -5.4340491   -5.4340491    -4.609712 0.00084965496   -5.4340491   0.82433713   439061 
 2443000   0.54951677   -5.4345062   -5.4345062    -4.610233 -0.0015103774   -5.4345062   0.82427328   439061 
 2444000   0.55138742   -5.4365192   -5.4365192   -4.6094399 -0.0021987206   -5.4365192   0.82707924   439061 
 2445000    0.5502486   -5.4353139   -5.4353139   -4.6099429 0.0033436888   -5.4353139   0.82537102   439061 
 2446000   0.55005679   -5.4360219   -5.4360219   -4.6109386 0.0021483794   -5.4360219   0.82508331   439061 
 2447000   0.54997724   -5.4344152   -5.4344152   -4.6094512 0.0074455246   -5.4344152   0.82496398   439061 
 2448000   0.54963267   -5.4350894   -5.4350894   -4.6106422  0.004641684   -5.4350894   0.82444713   439061 
 2449000   0.55089876   -5.4368754   -5.4368754   -4.6105292 0.0015051164   -5.4368754   0.82634626   439061 
 2450000   0.54901661   -5.4334757   -5.4334757   -4.6099527 0.0021604033   -5.4334757   0.82352303   439061 
 2451000   0.55009752   -5.4344676   -5.4344676   -4.6093232 -0.0030844963   -5.4344676    0.8251444   439061 
 2452000    0.5498339   -5.4338805   -5.4338805   -4.6091315 -0.003569792   -5.4338805   0.82474898   439061 
 2453000   0.54972916   -5.4341581   -5.4341581   -4.6095662 -0.0053204345   -5.4341581   0.82459187   439061 
 2454000   0.54946171   -5.4337077   -5.4337077    -4.609517 0.0024166097   -5.4337077   0.82419068   439061 
 2455000   0.54933655   -5.4338164   -5.4338164   -4.6098135  -0.00286744   -5.4338164   0.82400294   439061 
 2456000   0.54965502   -5.4348767   -5.4348767   -4.6103961 8.5218856e-05   -5.4348767   0.82448065   439061 
 2457000   0.55137529   -5.4367459   -5.4367459   -4.6096848 8.2454109e-05   -5.4367459   0.82706105   439061 
 2458000    0.5502481   -5.4346273   -5.4346273    -4.609257 -0.00021215957   -5.4346273   0.82537027   439061 
 2459000   0.54954036   -5.4348006   -5.4348006    -4.610492 0.0024076745   -5.4348006   0.82430866   439061 
 2460000   0.54991214   -5.4353424   -5.4353424   -4.6104761 0.0046532617   -5.4353424   0.82486633   439061 
 2461000   0.54988253     -5.43529     -5.43529   -4.6104681 0.00059997863     -5.43529   0.82482191   439061 
 2462000   0.55012925   -5.4349046   -5.4349046   -4.6097126 -0.00043580448   -5.4349046     0.825192   439061 
 2463000   0.55029943   -5.4354486   -5.4354486   -4.6100013 -3.7029054e-05   -5.4354486   0.82544726   439061 
 2464000   0.55139947   -5.4381157   -5.4381157   -4.6110184 -0.0045802456   -5.4381157   0.82709732   439061 
 2465000   0.54964098   -5.4354519   -5.4354519   -4.6109923 -0.0087350345   -5.4354519    0.8244596   439061 
 2466000   0.55004241   -5.4353558   -5.4353558   -4.6102941 -0.0048521517   -5.4353558   0.82506174   439061 
 2467000   0.55114533   -5.4366723   -5.4366723   -4.6099562 -0.0025389973   -5.4366723   0.82671611   439061 
 2468000   0.54937751   -5.4346641   -5.4346641   -4.6105997 0.0010358712   -5.4346641   0.82406438   439061 
 2469000   0.55031105   -5.4352607   -5.4352607    -4.609796 -0.00071736431   -5.4352607   0.82546469   439061 
 2470000   0.55055833   -5.4356536   -5.4356536    -4.609818 0.0023928559   -5.4356536   0.82583561   439061 
 2471000   0.55001478   -5.4348576   -5.4348576   -4.6098373 0.00046394556   -5.4348576   0.82502029   439061 
 2472000   0.55083084   -5.4364636   -5.4364636   -4.6102192 0.00044022349   -5.4364636   0.82624438   439061 
 2473000   0.54980378   -5.4352622   -5.4352622   -4.6105584 -0.0016219732   -5.4352622   0.82470379   439061 
 2474000   0.54971485   -5.4360041   -5.4360041   -4.6114337 0.00022367392   -5.4360041    0.8245704   439061 
 2475000   0.54943334   -5.4354093   -5.4354093   -4.6112612 -0.003077677   -5.4354093   0.82414814   439061 
 2476000   0.54996326   -5.4346541   -5.4346541   -4.6097111  0.002628924   -5.4346541   0.82494301   439061 
 2477000    0.5498904   -5.4341201   -5.4341201   -4.6092864  0.004263312   -5.4341201   0.82483372   439061 
 2478000   0.54965807   -5.4334594   -5.4334594   -4.6089742 0.0022390455   -5.4334594   0.82448523   439061 
 2479000   0.55106915   -5.4348194   -5.4348194   -4.6082175 -0.0050919209   -5.4348194   0.82660184   439061 
 2480000   0.55031934   -5.4340934   -5.4340934   -4.6086163 0.0022770443   -5.4340934   0.82547713   439061 
 2481000   0.55009079   -5.4357767   -5.4357767   -4.6106424 -0.0078774268   -5.4357767   0.82513431   439061 
 2482000   0.54860642   -5.4331443   -5.4331443   -4.6102365 -0.00066431779   -5.4331443   0.82290776   439061 
 2483000   0.55015813   -5.4348628   -5.4348628   -4.6096275 -0.0038738491   -5.4348628   0.82523532   439061 
 2484000   0.55035499   -5.4344743   -5.4344743   -4.6089436 0.0035572643   -5.4344743   0.82553061   439061 
 2485000   0.55110582   -5.4353582   -5.4353582   -4.6087013 0.0053100286   -5.4353582   0.82665685   439061 
 2486000   0.55038671   -5.4345824   -5.4345824   -4.6090043 0.0052648395   -5.4345824   0.82557818   439061 
 2487000   0.55046378   -5.4348593   -5.4348593   -4.6091655 0.0023042631   -5.4348593   0.82569378   439061 
 2488000   0.55028365   -5.4346095   -5.4346095   -4.6091859 0.00031732133   -5.4346095   0.82542359   439061 
 2489000   0.55140234   -5.4357968   -5.4357968   -4.6086952 -0.0011548023   -5.4357968   0.82710163   439061 
 2490000   0.55028209   -5.4339941   -5.4339941   -4.6085729 -0.0045284793   -5.4339941   0.82542126   439061 
 2491000    0.5493662   -5.4327351   -5.4327351   -4.6086876 -0.0035647289   -5.4327351   0.82404743   439061 
 2492000   0.54976702   -5.4337653   -5.4337653   -4.6091167 -0.0049575359   -5.4337653   0.82464865   439061 
 2493000   0.55086825   -5.4347851   -5.4347851   -4.6084846 -0.0064665333   -5.4347851   0.82630049   439061 
 2494000   0.55038282   -5.4332605   -5.4332605   -4.6076882 -0.0013128678   -5.4332605   0.82557235   439061 
 2495000   0.55059893   -5.4341282   -5.4341282   -4.6082317 -0.0026874951   -5.4341282   0.82589652   439061 
 2496000   0.55093867   -5.4345513   -5.4345513   -4.6081451 0.0014961104   -5.4345513   0.82640612   439061 
 2497000   0.55163955   -5.4350947   -5.4350947   -4.6076373 -0.0011275533   -5.4350947   0.82745744   439061 
 2498000   0.55015801    -5.432248    -5.432248   -4.6070128 0.0027121791    -5.432248   0.82523513   439061 
 2499000   0.55109603     -5.43359     -5.43359   -4.6069478 0.00071597156     -5.43359   0.82664216   439061 
 2500000   0.55072891   -5.4335202   -5.4335202   -4.6074287 -0.00049890068   -5.4335202   0.82609148   439061 
 2501000   0.55050091   -5.4328524   -5.4328524   -4.6071029 -0.004143737   -5.4328524   0.82574949   439061 
 2502000   0.55093179   -5.4333449   -5.4333449   -4.6069491 -0.0058010111   -5.4333449    0.8263958   439061 
 2503000   0.55084291   -5.4329199   -5.4329199   -4.6066575 -0.0057157253   -5.4329199   0.82626248   439061 
 2504000   0.55086289   -5.4339413   -5.4339413   -4.6076489 -0.0010482946   -5.4339413   0.82629246   439061 
 2505000   0.54924853   -5.4310797   -5.4310797   -4.6072088 0.00058689937   -5.4310797   0.82387092   439061 
 2506000   0.55083137   -5.4339672   -5.4339672    -4.607722 -0.0026715875   -5.4339672   0.82624517   439061 
 2507000   0.55129519   -5.4340313   -5.4340313   -4.6070904 0.0027876056   -5.4340313    0.8269409   439061 
 2508000   0.55021622   -5.4328999   -5.4328999   -4.6075775 0.0037761901   -5.4328999   0.82532245   439061 
 2509000   0.55065202   -5.4319018   -5.4319018   -4.6059256 0.0048620088   -5.4319018   0.82597615   439061 
 2510000   0.55069544    -5.432429    -5.432429   -4.6063877  0.001210842    -5.432429   0.82604127   439061 
 2511000   0.55047984   -5.4337452   -5.4337452   -4.6080273 -0.0012222502   -5.4337452   0.82571788   439061 
 2512000   0.55030778   -5.4328705   -5.4328705   -4.6074107 -0.002833864   -5.4328705   0.82545979   439061 
 2513000   0.55030788   -5.4333311   -5.4333311   -4.6078711 -0.0032704568   -5.4333311   0.82545994   439061 
 2514000   0.54978506   -5.4325932   -5.4325932   -4.6079175 -0.0050625116   -5.4325932   0.82467571   439061 
 2515000   0.55094522   -5.4340118   -5.4340118   -4.6075958 -0.0064276373   -5.4340118   0.82641595   439061 
 2516000   0.55005912   -5.4322435   -5.4322435   -4.6071567 -0.00045091568   -5.4322435    0.8250868   439061 
 2517000   0.54952716    -5.432636    -5.432636   -4.6083472 0.0030096282    -5.432636   0.82428886   439061 
 2518000   0.55090221   -5.4350911   -5.4350911   -4.6087397 0.0014871076   -5.4350911   0.82635143   439061 
 2519000   0.55046424   -5.4349022   -5.4349022   -4.6092077 0.0039398509   -5.4349022   0.82569449   439061 
 2520000   0.55062596   -5.4343272   -5.4343272   -4.6083901  0.002317958   -5.4343272   0.82593707   439061 
 2521000   0.55017328   -5.4338536   -5.4338536   -4.6085955   0.00472241   -5.4338536   0.82525804   439061 
 2522000   0.55047916   -5.4349216   -5.4349216   -4.6092047 -0.00098197094   -5.4349216   0.82571686   439061 
 2523000   0.54916054   -5.4336747   -5.4336747   -4.6099358 -0.003104751   -5.4336747   0.82373893   439061 
 2524000   0.55006864   -5.4349906   -5.4349906   -4.6098895 -0.0059308357   -5.4349906   0.82510108   439061 
 2525000   0.55034933   -5.4345964   -5.4345964   -4.6090742 -0.0042642881   -5.4345964   0.82552212   439061 
 2526000   0.55046288   -5.4345464   -5.4345464    -4.608854 -0.00066138464   -5.4345464   0.82569244   439061 
 2527000   0.55055905   -5.4345791   -5.4345791   -4.6087425 -0.0033287484   -5.4345791   0.82583669   439061 
 2528000   0.55157536    -5.435347    -5.435347   -4.6079859 -0.0034227207    -5.435347   0.82736116   439061 
 2529000   0.55057535   -5.4343931   -5.4343931    -4.608532 -0.0007064309   -5.4343931   0.82586114   439061 
 2530000   0.54896524   -5.4322934   -5.4322934   -4.6088474 0.00051689301   -5.4322934   0.82344599   439061 
 2531000   0.55007632   -5.4327337   -5.4327337   -4.6076211 0.00070492416   -5.4327337    0.8251126   439061 
 2532000   0.54989671   -5.4320099   -5.4320099   -4.6071667 -0.0020428776   -5.4320099   0.82484319   439061 
 2533000   0.55133814   -5.4338162   -5.4338162   -4.6068109 -0.0032706102   -5.4338162   0.82700533   439061 
 2534000   0.55104153   -5.4332574   -5.4332574    -4.606697 -0.0010784857   -5.4332574   0.82656042   439061 
 2535000   0.55061679   -5.4332208   -5.4332208   -4.6072975 -0.003503986   -5.4332208   0.82592331   439061 
 2536000   0.55089343   -5.4331268   -5.4331268   -4.6067886 -0.0026268463   -5.4331268   0.82633826   439061 
 2537000   0.54998277   -5.4322677   -5.4322677   -4.6072955 -0.0010400164   -5.4322677   0.82497228   439061 
 2538000   0.55026719    -5.432812    -5.432812   -4.6074131 -0.0038761697    -5.432812   0.82539891   439061 
 2539000   0.55090926   -5.4350254   -5.4350254   -4.6086634 -0.0022447542   -5.4350254     0.826362   439061 
 2540000   0.55086343   -5.4346698   -5.4346698   -4.6083765 0.00027511075   -5.4346698   0.82629326   439061 
 2541000   0.55045792   -5.4348376   -5.4348376   -4.6091526 0.0011053844   -5.4348376     0.825685   439061 
 2542000   0.55088221   -5.4356327   -5.4356327   -4.6093113 -0.00026510491   -5.4356327   0.82632143   439061 
 2543000   0.55066206   -5.4354042   -5.4354042    -4.609413 0.00036953357   -5.4354042   0.82599121   439061 
 2544000   0.55011418   -5.4338576   -5.4338576   -4.6086882 0.0049046192   -5.4338576   0.82516939   439061 
 2545000   0.54926448   -5.4334302   -5.4334302   -4.6095354 0.0027986845   -5.4334302   0.82389484   439061 
 2546000    0.5501702   -5.4343255   -5.4343255   -4.6090721 -0.00034417651   -5.4343255   0.82525342   439061 
 2547000   0.55017485   -5.4337638   -5.4337638   -4.6085034 -0.00087028467   -5.4337638   0.82526039   439061 
 2548000   0.54975315   -5.4331799   -5.4331799    -4.608552 -0.0015294478   -5.4331799   0.82462784   439061 
 2549000    0.5496058   -5.4329088   -5.4329088    -4.608502 0.0023139777   -5.4329088   0.82440682   439061 
 2550000   0.55001937   -5.4328174   -5.4328174   -4.6077902 0.00019118063   -5.4328174   0.82502717   439061 
 2551000   0.55051771   -5.4334101   -5.4334101   -4.6076354 -0.002493633   -5.4334101   0.82577469   439061 
 2552000   0.55017272   -5.4325412   -5.4325412    -4.607284 -0.0025913962   -5.4325412    0.8252572   439061 
 2553000   0.55065578   -5.4338119   -5.4338119   -4.6078302 -0.001590508   -5.4338119   0.82598178   439061 
 2554000   0.55030771   -5.4330017   -5.4330017    -4.607542 -0.0011978111   -5.4330017   0.82545969   439061 
 2555000   0.55082636   -5.4340304   -5.4340304   -4.6077927 -0.0045385751   -5.4340304   0.82623766   439061 
 2556000   0.55017136   -5.4340941   -5.4340941   -4.6088389 0.0019667459   -5.4340941   0.82525516   439061 
 2557000   0.55090593   -5.4345784   -5.4345784   -4.6082213 -5.854059e-05   -5.4345784   0.82635702   439061 
 2558000   0.54924139   -5.4328307   -5.4328307   -4.6089705 0.0037198777   -5.4328307   0.82386021   439061 
 2559000   0.55011075   -5.4354139   -5.4354139   -4.6102497 -0.0029886324   -5.4354139   0.82516425   439061 
 2560000   0.54912355   -5.4336795   -5.4336795    -4.609996 0.00038864774   -5.4336795   0.82368345   439061 
 2561000   0.55099486   -5.4354978   -5.4354978   -4.6090074 0.0038302913   -5.4354978    0.8264904   439061 
 2562000   0.55129313   -5.4348486   -5.4348486   -4.6079108 0.0045719293   -5.4348486   0.82693781   439061 
 2563000    0.5503086   -5.4333691   -5.4333691    -4.607908 0.0045480366   -5.4333691   0.82546102   439061 
 2564000   0.55004758   -5.4339165   -5.4339165    -4.608847 -0.0010098477   -5.4339165   0.82506949   439061 
 2565000   0.55048403   -5.4339715   -5.4339715   -4.6082473 -0.00030069763   -5.4339715   0.82572417   439061 
 2566000   0.55004385   -5.4338224   -5.4338224   -4.6087585 -0.0030246519   -5.4338224    0.8250639   439061 
 2567000   0.55026827   -5.4342228   -5.4342228   -4.6088223 -0.0066179212   -5.4342228   0.82540053   439061 
 2568000   0.55013336   -5.4348354   -5.4348354   -4.6096373 -0.0060647839   -5.4348354   0.82519816   439061 
 2569000   0.55021905   -5.4353081   -5.4353081   -4.6099814 -0.0081540154   -5.4353081   0.82532669   439061 
 2570000   0.54995406   -5.4353734   -5.4353734   -4.6104441 -0.0027120725   -5.4353734   0.82492922   439061 
 2571000   0.54995954   -5.4346944   -5.4346944    -4.609757 0.0025561396   -5.4346944   0.82493743   439061 
 2572000   0.55162303   -5.4383312   -5.4383312   -4.6108985 -4.0971386e-05   -5.4383312   0.82743266   439061 
 2573000   0.54898762   -5.4343649   -5.4343649   -4.6108853 0.0066119405   -5.4343649   0.82347956   439061 
 2574000   0.55044736   -5.4379112   -5.4379112    -4.612242 -0.0013980882   -5.4379112   0.82566916   439061 
 2575000   0.55067375   -5.4387136   -5.4387136   -4.6127049 0.0021208459   -5.4387136   0.82600874   439061 
 2576000   0.55001293   -5.4374143   -5.4374143   -4.6123968 0.0033669221   -5.4374143   0.82501752   439061 
 2577000   0.55076345   -5.4379447   -5.4379447   -4.6118014 0.00090627174   -5.4379447    0.8261433   439061 
 2578000   0.55025177   -5.4363085   -5.4363085   -4.6109327 -3.9408959e-05   -5.4363085   0.82537577   439061 
 2579000   0.55033129   -5.4356119   -5.4356119   -4.6101168 0.00060900262   -5.4356119   0.82549505   439061 
 2580000   0.54982401   -5.4344397   -5.4344397   -4.6097056 0.00031111293   -5.4344397   0.82473413   439061 
 2581000   0.55067016   -5.4357644   -5.4357644    -4.609761 -0.0044245995   -5.4357644   0.82600336   439061 
 2582000   0.54950687   -5.4340631   -5.4340631   -4.6098047 -0.0080958785   -5.4340631   0.82425843   439061 
 2583000    0.5495716   -5.4341663   -5.4341663   -4.6098108 -0.0050884355   -5.4341663   0.82435552   439061 
 2584000   0.55082676   -5.4348641   -5.4348641   -4.6086258  -0.00289024   -5.4348641   0.82623825   439061 
 2585000    0.5502446   -5.4338553   -5.4338553   -4.6084903 0.00050027343   -5.4338553   0.82536502   439061 
 2586000   0.55059363   -5.4349946   -5.4349946    -4.609106 0.0010261737   -5.4349946   0.82588856   439061 
 2587000   0.55064928    -5.434738    -5.434738    -4.608766 -0.00049798892    -5.434738   0.82597204   439061 
 2588000   0.55029063   -5.4341014   -5.4341014   -4.6086673 0.0050721062   -5.4341014   0.82543407   439061 
 2589000    0.5513163   -5.4349165   -5.4349165    -4.607944 0.0040072238   -5.4349165   0.82697256   439061 
 2590000   0.55138965   -5.4348814   -5.4348814   -4.6077988 -0.00098872793   -5.4348814    0.8270826   439061 
 2591000   0.55058133   -5.4333762   -5.4333762    -4.607506 0.00025813534   -5.4333762   0.82587012   439061 
 2592000   0.55028667   -5.4336331   -5.4336331    -4.608205 -0.0053781287   -5.4336331   0.82542813   439061 
 2593000   0.55062506   -5.4336816   -5.4336816   -4.6077459 -0.0038506268   -5.4336816   0.82593571   439061 
 2594000   0.55143713    -5.432844    -5.432844   -4.6056902 -0.001082853    -5.432844   0.82715381   439061 
 2595000   0.55105879   -5.4329299   -5.4329299   -4.6063436 -0.00098683281   -5.4329299    0.8265863   439061 
 2596000   0.55092693    -5.432541    -5.432541   -4.6061525 -0.0021206095    -5.432541   0.82638851   439061 
 2597000     0.549737   -5.4308264   -5.4308264   -4.6062227 -0.0011136745   -5.4308264   0.82460362   439061 
 2598000   0.55057898   -5.4316007   -5.4316007   -4.6057341 0.00085925694   -5.4316007   0.82586659   439061 
 2599000   0.55095545   -5.4325915   -5.4325915   -4.6061602 -0.0016653425   -5.4325915   0.82643129   439061 
 2600000   0.55122273   -5.4315401   -5.4315401   -4.6047079 -0.0012632709   -5.4315401   0.82683221   439061 
 2601000   0.55062077   -5.4314133   -5.4314133    -4.605484 0.0020566323   -5.4314133   0.82592927   439061 
 2602000   0.55087607   -5.4315746   -5.4315746   -4.6052624 0.00055508376   -5.4315746   0.82631222   439061 
 2603000   0.55157039   -5.4325361   -5.4325361   -4.6051824 0.0006371271   -5.4325361   0.82735371   439061 
 2604000   0.55137211   -5.4331814   -5.4331814   -4.6061251 -0.00062946682   -5.4331814   0.82705628   439061 
 2605000   0.55065165   -5.4332113   -5.4332113   -4.6072357 -0.0051093722   -5.4332113   0.82597559   439061 
 2606000   0.54896444   -5.4298564   -5.4298564   -4.6064116 0.0013883656   -5.4298564   0.82344479   439061 
 2607000   0.54975064   -5.4319134   -5.4319134   -4.6072893 -0.0001889641   -5.4319134   0.82462408   439061 
 2608000   0.55176697   -5.4338245   -5.4338245   -4.6061759 -0.0022190404   -5.4338245   0.82764857   439061 
 2609000   0.55081081   -5.4338601   -5.4338601   -4.6076458 0.00072775534   -5.4338601   0.82621434   439061 
 2610000   0.55115454   -5.4335813   -5.4335813   -4.6068514 0.0023993125   -5.4335813   0.82672993   439061 
 2611000    0.5495358   -5.4319981   -5.4319981   -4.6076963 0.0058804001   -5.4319981   0.82430182   439061 
 2612000   0.55040525   -5.4336723   -5.4336723   -4.6080663 0.00050981287   -5.4336723   0.82560599   439061 
 2613000   0.55079166   -5.4334762   -5.4334762   -4.6072906 0.0047482987   -5.4334762   0.82618562   439061 
 2614000   0.54978159   -5.4318691   -5.4318691   -4.6071986 0.00053799502   -5.4318691    0.8246705   439061 
 2615000   0.55048863   -5.4331727   -5.4331727   -4.6074416 -0.00097186982   -5.4331727   0.82573106   439061 
 2616000   0.54991574   -5.4320161   -5.4320161   -4.6071444 -0.0055388803   -5.4320161   0.82487173   439061 
 2617000   0.54968501   -5.4319753   -5.4319753   -4.6074497 0.00069697369   -5.4319753   0.82452564   439061 
 2618000   0.55030996   -5.4337856   -5.4337856   -4.6083225 -0.0038658525   -5.4337856   0.82546306   439061 
 2619000   0.55018854   -5.4335273   -5.4335273   -4.6082464 -0.0045914492   -5.4335273   0.82528093   439061 
 2620000     0.549785   -5.4326166   -5.4326166    -4.607941 -0.0014620224   -5.4326166   0.82467562   439061 
 2621000   0.55074594   -5.4343497   -5.4343497   -4.6082326 0.0020432703   -5.4343497   0.82611703   439061 
 2622000   0.55108331   -5.4339377   -5.4339377   -4.6073146 0.0023248095   -5.4339377   0.82662309   439061 
 2623000   0.55105554   -5.4341519   -5.4341519   -4.6075705 0.0053532739   -5.4341519   0.82658143   439061 
 2624000   0.55003363   -5.4334052   -5.4334052   -4.6083566 0.0020188199   -5.4334052   0.82504857   439061 
 2625000   0.55158538   -5.4347204   -5.4347204   -4.6073442 -0.00029131422   -5.4347204   0.82737619   439061 
 2626000   0.55018076   -5.4335762   -5.4335762    -4.608307 -0.0027092516   -5.4335762   0.82526926   439061 
 2627000   0.55026221   -5.4327219   -5.4327219   -4.6073305 -0.0034386818   -5.4327219   0.82539144   439061 
 2628000   0.54915306   -5.4314943   -5.4314943   -4.6077666 -0.0018890163   -5.4314943   0.82372771   439061 
 2629000   0.55047864   -5.4334458   -5.4334458   -4.6077298 -0.0030051035   -5.4334458   0.82571608   439061 
 2630000    0.5492502   -5.4324489   -5.4324489   -4.6085754 -0.0038735481   -5.4324489   0.82387343   439061 
 2631000   0.55019928   -5.4340346   -5.4340346   -4.6087376 -0.0036520746   -5.4340346   0.82529704   439061 
 2632000   0.55031966   -5.4339363   -5.4339363   -4.6084586 0.0074084645   -5.4339363   0.82547761   439061 
 2633000   0.55180342   -5.4359358   -5.4359358   -4.6082326 0.0024384256   -5.4359358   0.82770325   439061 
 2634000   0.55142859   -5.4360088   -5.4360088   -4.6088678 0.0028111601   -5.4360088     0.827141   439061 
 2635000   0.55041177   -5.4339937   -5.4339937    -4.608378 0.0037730994   -5.4339937   0.82561577   439061 
 2636000   0.54921188   -5.4329283   -5.4329283   -4.6091124 0.0019324561   -5.4329283   0.82381594   439061 
 2637000   0.54979159   -5.4331422   -5.4331422   -4.6084567 0.0023310584   -5.4331422   0.82468551   439061 
 2638000   0.54975513   -5.4325574   -5.4325574   -4.6079266 0.0017446733   -5.4325574   0.82463082   439061 
 2639000   0.55019517   -5.4329772   -5.4329772   -4.6076863 -0.0035384021   -5.4329772   0.82529088   439061 
 2640000   0.55031557   -5.4329085   -5.4329085    -4.607437 -0.0024949836   -5.4329085   0.82547147   439061 
 2641000   0.55019215    -5.432751    -5.432751   -4.6074646 -0.0054043629    -5.432751   0.82528635   439061 
 2642000    0.5504315     -5.43359     -5.43359   -4.6079446 -0.0038320751     -5.43359   0.82564536   439061 
 2643000   0.55137165   -5.4337425   -5.4337425   -4.6066869 -0.0019441109   -5.4337425    0.8270556   439061 
 2644000    0.5515669   -5.4339401   -5.4339401   -4.6065917 -0.0040537899   -5.4339401   0.82734846   439061 
 2645000   0.55119429   -5.4329481   -5.4329481   -4.6061586 0.0039084536   -5.4329481   0.82678954   439061 
 2646000   0.55154166   -5.4340042   -5.4340042   -4.6066936 -0.0040961837   -5.4340042    0.8273106   439061 
 2647000   0.55038423   -5.4326657   -5.4326657   -4.6070913 0.00028856882   -5.4326657   0.82557447   439061 
 2648000    0.5511181   -5.4338339   -5.4338339   -4.6071587 0.00015366713   -5.4338339   0.82667527   439061 
 2649000   0.54881301   -5.4314652   -5.4314652   -4.6082476 0.00040908349   -5.4314652   0.82321763   439061 
 2650000   0.54987916   -5.4339508   -5.4339508   -4.6091339 -0.0027985066   -5.4339508   0.82481687   439061 
 2651000   0.55045042   -5.4341998   -5.4341998    -4.608526 -0.0043596797   -5.4341998   0.82567374   439061 
 2652000   0.55036302   -5.4340534   -5.4340534   -4.6085108 0.0012504375   -5.4340534   0.82554264   439061 
 2653000   0.55056451   -5.4341705   -5.4341705   -4.6083256 -0.0020669393   -5.4341705   0.82584489   439061 
 2654000   0.55014518    -5.434192    -5.434192   -4.6089761 -3.4586001e-05    -5.434192    0.8252159   439061 
 2655000   0.55023962   -5.4339948   -5.4339948   -4.6086373 0.0047505047   -5.4339948   0.82535756   439061 
 2656000   0.54995776   -5.4335403   -5.4335403   -4.6086056 -0.00070380397   -5.4335403   0.82493476   439061 
 2657000   0.54906113   -5.4337243   -5.4337243   -4.6101344 0.0012752822   -5.4337243   0.82358982   439061 
 2658000    0.5500032   -5.4343525   -5.4343525   -4.6093496 0.0010159368   -5.4343525   0.82500292   439061 
 2659000   0.55068549   -5.4365828   -5.4365828   -4.6105565 -0.0061991593   -5.4365828   0.82602635   439061 
 2660000   0.55037055   -5.4357352   -5.4357352   -4.6101813 0.00059385582   -5.4357352   0.82555394   439061 
 2661000   0.54987572   -5.4350979   -5.4350979   -4.6102862 -0.0030135392   -5.4350979   0.82481171   439061 
 2662000   0.55068731   -5.4353155   -5.4353155   -4.6092865 -0.0037996695   -5.4353155   0.82602908   439061 
 2663000   0.54992698   -5.4339968   -5.4339968   -4.6091082 0.0022091181   -5.4339968   0.82488859   439061 
 2664000   0.55066232   -5.4353953   -5.4353953   -4.6094037 -0.0020945376   -5.4353953    0.8259916   439061 
 2665000   0.55070565   -5.4359361   -5.4359361   -4.6098795 -0.0044204768   -5.4359361    0.8260566   439061 
 2666000   0.55006879   -5.4352035   -5.4352035   -4.6101021 -0.00062493569   -5.4352035   0.82510131   439061 
 2667000   0.54982424   -5.4345666   -5.4345666   -4.6098321 0.0038293895   -5.4345666   0.82473447   439061 
 2668000   0.54969566   -5.4348368   -5.4348368   -4.6102952 -0.0013306461   -5.4348368   0.82454161   439061 
 2669000      0.54884   -5.4345823   -5.4345823   -4.6113242 -0.0022174156   -5.4345823   0.82325812   439061 
 2670000   0.54946642    -5.436042    -5.436042   -4.6118443 -0.0033679206    -5.436042   0.82419776   439061 
 2671000   0.54898389   -5.4349544   -5.4349544   -4.6114804 0.00018264409   -5.4349544   0.82347397   439061 
 2672000   0.55037753   -5.4363864   -5.4363864    -4.610822 -0.00054658072   -5.4363864   0.82556441   439061 
 2673000   0.55038265   -5.4360665   -5.4360665   -4.6104944 -0.0023705022   -5.4360665    0.8255721   439061 
 2674000   0.55090031   -5.4366608   -5.4366608   -4.6103122 0.0014520432   -5.4366608   0.82634858   439061 
 2675000    0.5510628   -5.4365383   -5.4365383   -4.6099459 0.0026074921   -5.4365383   0.82659232   439061 
 2676000   0.55028089   -5.4346253   -5.4346253   -4.6092059 0.0041494475   -5.4346253   0.82541945   439061 
 2677000   0.54946086   -5.4340954   -5.4340954    -4.609906 -0.00097681819   -5.4340954   0.82418941   439061 
 2678000   0.55133779   -5.4355901   -5.4355901   -4.6085852 -0.0054856368   -5.4355901   0.82700481   439061 
 2679000   0.55063323   -5.4328293   -5.4328293   -4.6068814 -0.0021673387   -5.4328293   0.82594796   439061 
 2680000   0.54997983   -5.4323434   -5.4323434   -4.6073756 -0.0050965989   -5.4323434   0.82496787   439061 
 2681000   0.55024326   -5.4323214   -5.4323214   -4.6069584 -0.0022577629   -5.4323214   0.82536302   439061 
 2682000   0.55000365   -5.4328574   -5.4328574   -4.6078538 -0.0072922857   -5.4328574    0.8250036   439061 
 2683000    0.5491333   -5.4314031   -5.4314031    -4.607705 -0.0010297543   -5.4314031   0.82369807   439061 
 2684000   0.55046531   -5.4334699   -5.4334699   -4.6077738 -0.0011814089   -5.4334699   0.82569608   439061 
 2685000   0.55111194   -5.4349313   -5.4349313   -4.6082653 0.0018527446   -5.4349313   0.82666603   439061 
 2686000   0.54933604    -5.434105    -5.434105   -4.6101029 0.0021025232    -5.434105   0.82400218   439061 
 2687000   0.55005107   -5.4352932   -5.4352932   -4.6102184 0.0047789708   -5.4352932   0.82507472   439061 
 2688000   0.55054118   -5.4353564   -5.4353564   -4.6095465 0.0019420437   -5.4353564   0.82580988   439061 
 2689000   0.54959277   -5.4341368   -5.4341368   -4.6097496 0.0025714442   -5.4341368   0.82438728   439061 
 2690000   0.55100954    -5.436649    -5.436649   -4.6101365 -0.0027531567    -5.436649   0.82651243   439061 
 2691000    0.5491446   -5.4329912   -5.4329912   -4.6092761 0.0037237038   -5.4329912   0.82371503   439061 
 2692000   0.54983867   -5.4349283   -5.4349283   -4.6101721 -0.0027785693   -5.4349283   0.82475612   439061 
 2693000   0.55045623   -5.4356822   -5.4356822   -4.6099998 -0.0051935102   -5.4356822   0.82568246   439061 
 2694000   0.54925436   -5.4324511   -5.4324511   -4.6085715 -0.001136066   -5.4324511   0.82387966   439061 
 2695000    0.5509442   -5.4347418   -5.4347418   -4.6083274 -0.00026192223   -5.4347418   0.82641442   439061 
 2696000   0.55075113   -5.4355621   -5.4355621   -4.6094373 -0.0023670809   -5.4355621   0.82612481   439061 
 2697000   0.55018542   -5.4339344   -5.4339344   -4.6086582 -0.0034494899   -5.4339344   0.82527624   439061 
 2698000   0.55041351   -5.4348479   -5.4348479   -4.6092295 -0.0040977783   -5.4348479   0.82561838   439061 
 2699000   0.55096158   -5.4352165   -5.4352165    -4.608776 9.8068688e-05   -5.4352165   0.82644049   439061 
 2700000   0.55040976   -5.4344086   -5.4344086   -4.6087959  0.004251928   -5.4344086   0.82561276   439061 
 2701000   0.54962156   -5.4327777   -5.4327777   -4.6083472 -0.0019969019   -5.4327777   0.82443046   439061 
 2702000   0.54930636   -5.4333118   -5.4333118   -4.6093541 -0.0028111447   -5.4333118   0.82395766   439061 
 2703000   0.54976355   -5.4340398   -5.4340398   -4.6093963 -0.00076953258   -5.4340398   0.82464344   439061 
 2704000   0.55087454   -5.4355022   -5.4355022   -4.6091923  0.003739692   -5.4355022   0.82630993   439061 
 2705000     0.550091   -5.4339451   -5.4339451   -4.6088104 0.0020684594   -5.4339451   0.82513462   439061 
 2706000   0.54955562   -5.4337982   -5.4337982   -4.6094666 0.0035720124   -5.4337982   0.82433155   439061 
 2707000   0.54921786   -5.4338255   -5.4338255   -4.6100006 0.0023597901   -5.4338255   0.82382491   439061 
 2708000   0.55069363   -5.4355478   -5.4355478   -4.6095092 0.0012583758   -5.4355478   0.82603856   439061 
 2709000    0.5486793   -5.4330201   -5.4330201    -4.610003 0.0039898629   -5.4330201   0.82301707   439061 
 2710000   0.55046506   -5.4350017   -5.4350017    -4.609306 -0.00077407652   -5.4350017   0.82569571   439061 
 2711000   0.54975894   -5.4342271   -5.4342271   -4.6095906 -0.00048486712   -5.4342271   0.82463654   439061 
 2712000   0.55045898   -5.4357026   -5.4357026    -4.610016 -0.0019161224   -5.4357026   0.82568659   439061 
 2713000   0.54957907    -5.433815    -5.433815   -4.6094483 -0.00030212183    -5.433815   0.82436673   439061 
 2714000   0.55085521   -5.4357173   -5.4357173   -4.6094364 -0.002295804   -5.4357173   0.82628094   439061 
 2715000   0.55080722   -5.4355831   -5.4355831   -4.6093742 -0.0012280711   -5.4355831   0.82620895   439061 
 2716000   0.55002828   -5.4338056   -5.4338056   -4.6087651 0.0021421379   -5.4338056   0.82504054   439061 
 2717000   0.55070757   -5.4340033   -5.4340033   -4.6079438 0.0029956108   -5.4340033   0.82605948   439061 
 2718000   0.55074332   -5.4328697   -5.4328697   -4.6067566 0.0057656658   -5.4328697   0.82611309   439061 
 2719000   0.55051349   -5.4330278   -5.4330278   -4.6072595 0.0015898966   -5.4330278   0.82576835   439061 
 2720000   0.55130395   -5.4351781   -5.4351781   -4.6082241 -0.0071068393   -5.4351781   0.82695404   439061 
 2721000    0.5487152   -5.4316287   -5.4316287   -4.6085578 -0.0014465362   -5.4316287   0.82307093   439061 
 2722000   0.54941846   -5.4329779   -5.4329779   -4.6088521 -0.0028390199   -5.4329779   0.82412582   439061 
 2723000   0.55105096    -5.435138    -5.435138   -4.6085634 -0.0066869289    -5.435138   0.82657455   439061 
 2724000   0.54988384   -5.4324371   -5.4324371   -4.6076132 0.0027813378   -5.4324371   0.82482388   439061 
 2725000   0.54981307   -5.4325961   -5.4325961   -4.6078784 0.0010689735   -5.4325961   0.82471773   439061 
 2726000    0.5508531   -5.4338809   -5.4338809   -4.6076031 0.0014265837   -5.4338809   0.82627777   439061 
 2727000   0.54981942   -5.4328877   -5.4328877   -4.6081604  0.005503391   -5.4328877   0.82472725   439061 
 2728000   0.55089344   -5.4351066   -5.4351066   -4.6087683 0.0036287583   -5.4351066   0.82633828   439061 
 2729000   0.55085658   -5.4353248   -5.4353248   -4.6090418 0.0020613843   -5.4353248   0.82628298   439061 
 2730000   0.55056484   -5.4346001   -5.4346001   -4.6087547 0.00088951874   -5.4346001   0.82584538   439061 
 2731000   0.55006852   -5.4340567   -5.4340567   -4.6089558 -0.0001078973   -5.4340567    0.8251009   439061 
 2732000   0.55037891   -5.4339012   -5.4339012   -4.6083347 0.00053720241   -5.4339012   0.82556648   439061 
 2733000   0.54971716   -5.4330806   -5.4330806   -4.6085067 -0.0027567396   -5.4330806   0.82457387   439061 
 2734000    0.5493568   -5.4318414   -5.4318414   -4.6078081 0.0021224658   -5.4318414   0.82403332   439061 
 2735000   0.54987421    -5.432651    -5.432651   -4.6078416 0.0014343296    -5.432651   0.82480944   439061 
 2736000   0.54991095   -5.4331361   -5.4331361   -4.6082715 -0.0026183241   -5.4331361   0.82486455   439061 
 2737000   0.55170118    -5.435301    -5.435301   -4.6077511 -0.0023402942    -5.435301   0.82754989   439061 
 2738000   0.55052642   -5.4330206   -5.4330206   -4.6072329 0.00083343097   -5.4330206   0.82578775   439061 
 2739000    0.5507539   -5.4340647   -5.4340647   -4.6079357 0.00056973954   -5.4340647   0.82612897   439061 
 2740000   0.55150968   -5.4346151   -5.4346151   -4.6073525 0.0016746797   -5.4346151   0.82726263   439061 
 2741000   0.55016325   -5.4343053   -5.4343053   -4.6090623 0.00015481801   -5.4343053   0.82524299   439061 
 2742000   0.55061183   -5.4351075   -5.4351075   -4.6091917 -0.00061832173   -5.4351075   0.82591587   439061 
 2743000   0.55051942   -5.4348619   -5.4348619   -4.6090846 -0.0018219899   -5.4348619   0.82577725   439061 
 2744000   0.55120391   -5.4359212   -5.4359212   -4.6091173 0.0029805598   -5.4359212   0.82680398   439061 
 2745000   0.55007768   -5.4347519   -5.4347519   -4.6096373 -0.00039472588   -5.4347519   0.82511465   439061 
 2746000   0.54887342   -5.4331028   -5.4331028   -4.6097946 -0.00044406685   -5.4331028   0.82330826   439061 
 2747000    0.5500663   -5.4349276   -5.4349276     -4.60983 -0.00041913705   -5.4349276   0.82509757   439061 
 2748000   0.54970435   -5.4336658   -5.4336658   -4.6091112 -0.00048670563   -5.4336658   0.82455464   439061 
 2749000   0.54966885   -5.4342992   -5.4342992   -4.6097978 0.00075499884   -5.4342992    0.8245014   439061 
 2750000   0.55061962   -5.4360935   -5.4360935    -4.610166  0.001799974   -5.4360935   0.82592755   439061 
 2751000   0.55198134   -5.4364596   -5.4364596   -4.6084895 0.0016694171   -5.4364596   0.82797012   439061 
 2752000    0.5509257   -5.4356159   -5.4356159   -4.6092292 0.0025194466   -5.4356159   0.82638667   439061 
 2753000   0.55015298   -5.4346229   -5.4346229   -4.6093953 0.00047311387   -5.4346229   0.82522759   439061 
 2754000   0.55115306   -5.4355355   -5.4355355   -4.6088078 -0.00021246589   -5.4355355   0.82672771   439061 
 2755000   0.55080036   -5.4344153   -5.4344153   -4.6082167 0.0024404041   -5.4344153   0.82619865   439061 
 2756000   0.54987585   -5.4331687   -5.4331687   -4.6083568 0.00097314667   -5.4331687    0.8248119   439061 
 2757000   0.54951036   -5.4317809   -5.4317809   -4.6075172 -0.00090927994   -5.4317809   0.82426366   439061 
 2758000   0.55014075   -5.4336935   -5.4336935   -4.6084842 -0.0031194101   -5.4336935   0.82520925   439061 
 2759000   0.54955145   -5.4330496   -5.4330496   -4.6087243 -0.0039944249   -5.4330496    0.8243253   439061 
 2760000   0.54941723   -5.4326098   -5.4326098   -4.6084858 0.0036374978   -5.4326098   0.82412396   439061 
 2761000    0.5501286   -5.4343207   -5.4343207   -4.6091297 -0.001780959   -5.4343207   0.82519102   439061 
 2762000   0.55075449   -5.4344033   -5.4344033   -4.6082735 -0.00026346738   -5.4344033   0.82612986   439061 
 2763000   0.55073757   -5.4353872   -5.4353872   -4.6092827 -0.0014502547   -5.4353872   0.82610448   439061 
 2764000   0.55022546   -5.4350959   -5.4350959   -4.6097596 0.0010700315   -5.4350959   0.82533632   439061 
 2765000   0.55084096   -5.4351397   -5.4351397   -4.6088802 0.0074462155   -5.4351397   0.82625956   439061 
 2766000   0.55061778   -5.4353912   -5.4353912   -4.6094664 0.00011519171   -5.4353912   0.82592479   439061 
 2767000    0.5505036   -5.4343182   -5.4343182   -4.6085647  -0.00129655   -5.4343182   0.82575352   439061 
 2768000   0.54921385     -5.43366     -5.43366   -4.6098411 -0.0029380371     -5.43366    0.8238189   439061 
 2769000   0.54953747   -5.4336536   -5.4336536   -4.6093493 -0.0026534709   -5.4336536   0.82430432   439061 
 2770000   0.55029406     -5.43357     -5.43357   -4.6081307 0.0025759937     -5.43357   0.82543921   439061 
 2771000   0.55059376    -5.434347    -5.434347   -4.6084582 0.00029411689    -5.434347   0.82588875   439061 
 2772000   0.55057652   -5.4345601   -5.4345601   -4.6086972 0.00076095515   -5.4345601    0.8258629   439061 
 2773000   0.54941707   -5.4331618   -5.4331618   -4.6090381 0.0010442752   -5.4331618   0.82412372   439061 
 2774000   0.55056081    -5.434866    -5.434866   -4.6090267 -0.0035967385    -5.434866   0.82583933   439061 
 2775000   0.54967799   -5.4335389   -5.4335389   -4.6090238 -0.002872588   -5.4335389   0.82451511   439061 
 2776000   0.55025386   -5.4340377   -5.4340377   -4.6086587 -0.0027839778   -5.4340377   0.82537891   439061 
 2777000    0.5501521   -5.4335666   -5.4335666   -4.6083403 -0.0037946327   -5.4335666   0.82522627   439061 
 2778000   0.55071001   -5.4332087   -5.4332087   -4.6071456 -0.0028826993   -5.4332087   0.82606313   439061 
 2779000   0.55216235   -5.4340251   -5.4340251   -4.6057835 -0.00096988601   -5.4340251   0.82824163   439061 
 2780000   0.55116108   -5.4323557   -5.4323557   -4.6056159 0.0016389549   -5.4323557   0.82673973   439061 
 2781000   0.54896004    -5.429249    -5.429249   -4.6058108 0.00014358298    -5.429249   0.82343818   439061 
 2782000   0.55036333   -5.4311501   -5.4311501    -4.605607 -0.0059562432   -5.4311501   0.82554311   439061 
 2783000   0.54991733   -5.4304711   -5.4304711    -4.605597 -0.0044385681   -5.4304711   0.82487411   439061 
 2784000   0.55114679   -5.4313815   -5.4313815   -4.6046632 -0.0036695318   -5.4313815    0.8267183   439061 
 2785000   0.55034915   -5.4311132   -5.4311132   -4.6055913 -0.0014901597   -5.4311132   0.82552184   439061 
 2786000   0.55072237   -5.4319805   -5.4319805   -4.6058988 -0.0035603767   -5.4319805   0.82608167   439061 
 2787000   0.55138652   -5.4326227   -5.4326227   -4.6055448 -3.9216439e-05   -5.4326227    0.8270779   439061 
 2788000   0.55096915   -5.4325344   -5.4325344   -4.6060826 -0.0042907072   -5.4325344   0.82645184   439061 
 2789000   0.55210105    -5.433969    -5.433969   -4.6058193 0.0022704944    -5.433969   0.82814969   439061 
 2790000   0.55132848   -5.4320297   -5.4320297   -4.6050388 0.0033987697   -5.4320297   0.82699084   439061 
 2791000    0.5501878   -5.4321868   -5.4321868    -4.606907 -0.0016520868   -5.4321868   0.82527982   439061 
 2792000   0.55049183   -5.4318982   -5.4318982   -4.6061623 0.0026213983   -5.4318982   0.82573586   439061 
 2793000   0.55062719   -5.4323679   -5.4323679    -4.606429 -0.0014759355   -5.4323679    0.8259389   439061 
 2794000   0.55027684   -5.4338144   -5.4338144    -4.608401 -0.0084733228   -5.4338144   0.82541338   439061 
 2795000   0.54926764   -5.4319241   -5.4319241   -4.6080245 -0.0077508766   -5.4319241   0.82389959   439061 
 2796000   0.54913017    -5.431735    -5.431735   -4.6080416 -0.0058537389    -5.431735   0.82369338   439061 
 2797000   0.55022325   -5.4330965   -5.4330965   -4.6077635 0.00066464759   -5.4330965     0.825333   439061 
 2798000   0.55015393   -5.4329173   -5.4329173   -4.6076883  0.003474958   -5.4329173   0.82522901   439061 
 2799000   0.55086037   -5.4344171   -5.4344171   -4.6081285 0.0017851851   -5.4344171   0.82628867   439061 
 2800000   0.55092577   -5.4348612   -5.4348612   -4.6084744 0.0047725085   -5.4348612   0.82638678   439061 
 2801000    0.5513082   -5.4352417   -5.4352417   -4.6082813 0.0029475508   -5.4352417   0.82696042   439061 
 2802000   0.55157949   -5.4355429   -5.4355429   -4.6081755 0.0023538618   -5.4355429   0.82736736   439061 
 2803000   0.55011324   -5.4329208   -5.4329208   -4.6077528 -0.00075808556   -5.4329208   0.82516798   439061 
 2804000   0.55005071   -5.4332057   -5.4332057   -4.6081315 -0.0025653741   -5.4332057   0.82507418   439061 
 2805000   0.55015203   -5.4333234   -5.4333234   -4.6080972 -0.0001637141   -5.4333234   0.82522617   439061 
 2806000   0.55123423   -5.4344114   -5.4344114   -4.6075619 -0.0022635323   -5.4344114   0.82684946   439061 
 2807000    0.5502206   -5.4323931   -5.4323931   -4.6070641 -0.0068334773   -5.4323931   0.82532901   439061 
 2808000   0.54904047   -5.4311766   -5.4311766   -4.6076178 0.0019303584   -5.4311766   0.82355882   439061 
 2809000   0.55086788    -5.434268    -5.434268   -4.6079681 -0.0010897582    -5.434268   0.82629994   439061 
 2810000   0.54974605   -5.4333778   -5.4333778   -4.6087606 0.00099482278   -5.4333778    0.8246172   439061 
 2811000   0.54996027   -5.4338111   -5.4338111   -4.6088726 -0.00016101847   -5.4338111   0.82493853   439061 
 2812000   0.54974217   -5.4338269   -5.4338269   -4.6092155 -0.0012184024   -5.4338269   0.82461137   439061 
 2813000   0.55028905   -5.4341973   -5.4341973   -4.6087656 0.0011467397   -5.4341973    0.8254317   439061 
 2814000   0.54956233   -5.4327637   -5.4327637   -4.6084221 0.0017804599   -5.4327637   0.82434161   439061 
 2815000   0.54947506    -5.432297    -5.432297   -4.6080863  0.001981918    -5.432297   0.82421071   439061 
 2816000   0.55001765   -5.4339803   -5.4339803   -4.6089557 -0.00073808246   -5.4339803    0.8250246   439061 
 2817000   0.54992848    -5.433872    -5.433872   -4.6089812 -0.00020666345    -5.433872   0.82489085   439061 
 2818000   0.55017775   -5.4345179   -5.4345179   -4.6092532 -0.00086277226   -5.4345179   0.82526474   439061 
 2819000   0.55068631    -5.435701    -5.435701   -4.6096734 -0.0031951692    -5.435701   0.82602758   439061 
 2820000   0.55003143   -5.4344422   -5.4344422    -4.609397 -0.0014360973   -5.4344422   0.82504526   439061 
 2821000   0.55013743   -5.4342978   -5.4342978   -4.6090935 -0.0045972984   -5.4342978   0.82520426   439061 
 2822000   0.54948779   -5.4336052   -5.4336052   -4.6093753 0.00067472667   -5.4336052   0.82422981   439061 
 2823000   0.55036732   -5.4352933   -5.4352933   -4.6097441 0.0010260721   -5.4352933   0.82554911   439061 
 2824000   0.55053737    -5.435574    -5.435574   -4.6097699 -0.001286092    -5.435574   0.82580417   439061 
 2825000   0.55030824   -5.4360724   -5.4360724   -4.6106119 -0.0013453589   -5.4360724   0.82546048   439061 
 2826000   0.54902687   -5.4340588   -5.4340588   -4.6105203  0.001971514   -5.4340588   0.82353842   439061 
 2827000   0.54968794   -5.4362022   -5.4362022   -4.6116722 -0.00061391147   -5.4362022   0.82453002   439061 
 2828000   0.55079572   -5.4372574   -5.4372574   -4.6110657 -0.0038895802   -5.4372574    0.8261917   439061 
 2829000    0.5499006   -5.4356769   -5.4356769   -4.6108278 0.0018309164   -5.4356769   0.82484903   439061 
 2830000   0.54995203   -5.4354221   -5.4354221    -4.610496 0.00051124567   -5.4354221   0.82492616   439061 
 2831000   0.54983677   -5.4354095   -5.4354095   -4.6106562 -0.00058360899   -5.4354095   0.82475328   439061 
 2832000   0.55035504   -5.4354433   -5.4354433   -4.6099126 -6.0954018e-05   -5.4354433   0.82553068   439061 
 2833000   0.55034685   -5.4347637   -5.4347637   -4.6092453 0.00097486388   -5.4347637   0.82551839   439061 
 2834000   0.55053728   -5.4354814   -5.4354814   -4.6096774 0.0015995586   -5.4354814   0.82580403   439061 
 2835000    0.5496501   -5.4336769   -5.4336769   -4.6092037 0.0030100153   -5.4336769   0.82447328   439061 
 2836000   0.54995746    -5.434332    -5.434332   -4.6093977 -0.0035029561    -5.434332   0.82493432   439061 
 2837000   0.55031083   -5.4347199   -5.4347199   -4.6092556 0.00080976172   -5.4347199   0.82546436   439061 
 2838000   0.54975524    -5.433988    -5.433988    -4.609357 -0.0037804521    -5.433988   0.82463098   439061 
 2839000   0.55038004   -5.4344459   -5.4344459   -4.6088777 -0.0026468352   -5.4344459   0.82556818   439061 
 2840000   0.54959388   -5.4342041   -5.4342041   -4.6098152 -0.0015297605   -5.4342041   0.82438894   439061 
 2841000   0.55022979   -5.4349199   -5.4349199   -4.6095771 -0.0014886363   -5.4349199    0.8253428   439061 
 2842000   0.55125989    -5.435702    -5.435702    -4.608814 -0.0030836105    -5.435702   0.82688795   439061 
 2843000   0.54970855   -5.4329581   -5.4329581   -4.6083971  0.003818865   -5.4329581   0.82456095   439061 
 2844000   0.54983912   -5.4336795   -5.4336795   -4.6089227 -0.0012802546   -5.4336795   0.82475681   439061 
 2845000   0.55008804   -5.4351475   -5.4351475   -4.6100173 -0.0074328353   -5.4351475   0.82513019   439061 
 2846000   0.54902607   -5.4341407   -5.4341407   -4.6106035 -0.0093624096   -5.4341407   0.82353723   439061 
 2847000   0.55029236   -5.4345381   -5.4345381   -4.6091015 -0.00055354344   -5.4345381   0.82543666   439061 
 2848000   0.55116269   -5.4357291   -5.4357291    -4.608987 0.0015340427   -5.4357291   0.82674215   439061 
 2849000   0.54967647   -5.4336762   -5.4336762   -4.6091633 0.0051887793   -5.4336762   0.82451282   439061 
 2850000   0.55071596    -5.435141    -5.435141   -4.6090689 0.00078072297    -5.435141   0.82607206   439061 
 2851000   0.54906156   -5.4336744   -5.4336744   -4.6100839 0.0022310132   -5.4336744   0.82359046   439061 
 2852000   0.54928361   -5.4342769   -5.4342769   -4.6103533 -9.1968392e-05   -5.4342769   0.82392354   439061 
 2853000   0.55015408   -5.4359604   -5.4359604   -4.6107311 -0.004399816   -5.4359604   0.82522924   439061 
 2854000    0.5502762   -5.4356876   -5.4356876   -4.6102752 -0.000632978   -5.4356876   0.82541242   439061 
 2855000   0.55068045   -5.4355935   -5.4355935   -4.6095748 -0.0014824766   -5.4355935   0.82601879   439061 
 2856000   0.55079502   -5.4356232   -5.4356232   -4.6094325 -0.0021444864   -5.4356232   0.82619065   439061 
 2857000   0.55068493   -5.4358065   -5.4358065    -4.609781 -0.0028878647   -5.4358065   0.82602551   439061 
 2858000   0.54925289   -5.4346217   -5.4346217   -4.6107442 -0.0017764503   -5.4346217   0.82387746   439061 
 2859000   0.55039814   -5.4355538   -5.4355538   -4.6099585 -0.0021810822   -5.4355538   0.82559534   439061 
 2860000   0.55001869   -5.4345764   -5.4345764   -4.6095502 7.7629778e-05   -5.4345764   0.82502615   439061 
 2861000   0.55089716   -5.4354358   -5.4354358    -4.609092 -0.0033638371   -5.4354358   0.82634386   439061 
 2862000   0.55062365   -5.4358711   -5.4358711   -4.6099375 -0.0010475356   -5.4358711    0.8259336   439061 
 2863000   0.54920168   -5.4333859   -5.4333859   -4.6095852 -0.00079333127   -5.4333859   0.82380064   439061 
 2864000   0.54954246   -5.4338404   -5.4338404   -4.6095286 0.0026997349   -5.4338404   0.82431181   439061 
 2865000   0.55010262   -5.4339449   -5.4339449   -4.6087929 0.0036495653   -5.4339449   0.82515205   439061 
 2866000   0.55074522   -5.4340348   -5.4340348   -4.6079189 0.0011641458   -5.4340348   0.82611594   439061 
 2867000   0.54954802   -5.4335667   -5.4335667   -4.6092466 -0.0023631867   -5.4335667   0.82432015   439061 
 2868000   0.54976801   -5.4334482   -5.4334482    -4.608798 -0.00038212419   -5.4334482   0.82465013   439061 
 2869000   0.55049433    -5.433896    -5.433896   -4.6081563 0.0016766911    -5.433896   0.82573961   439061 
 2870000   0.55047004   -5.4331796   -5.4331796   -4.6074764 -0.0029591237   -5.4331796   0.82570319   439061 
 2871000   0.54983687   -5.4331029   -5.4331029   -4.6083495 -0.00038642978   -5.4331029   0.82475342   439061 
 2872000   0.54990054   -5.4328451   -5.4328451   -4.6079962 -8.8773615e-05   -5.4328451   0.82484893   439061 
 2873000    0.5506511   -5.4338329   -5.4338329   -4.6078581 -0.0031820188   -5.4338329   0.82597476   439061 
 2874000   0.55050287   -5.4343588   -5.4343588   -4.6086063 -0.0053629308   -5.4343588   0.82575243   439061 
 2875000   0.55006939   -5.4340133   -5.4340133    -4.608911 -0.0023640988   -5.4340133   0.82510221   439061 
 2876000    0.5500247   -5.4332832   -5.4332832   -4.6082481 0.0038427478   -5.4332832   0.82503517   439061 
 2877000   0.55119871   -5.4354809   -5.4354809   -4.6086847 -0.00022275957   -5.4354809   0.82679618   439061 
 2878000   0.55044859    -5.433867    -5.433867    -4.608196 0.0029081442    -5.433867   0.82567101   439061 
 2879000   0.55028304     -5.43458     -5.43458   -4.6091573 0.0029202824     -5.43458   0.82542269   439061 
 2880000   0.55043944   -5.4357523   -5.4357523    -4.610095 0.00076277559   -5.4357523   0.82565729   439061 
 2881000   0.55080322   -5.4359085   -5.4359085   -4.6097056 -0.0069716068   -5.4359085   0.82620294   439061 
 2882000   0.55047205   -5.4354674   -5.4354674   -4.6097612 -0.00094076852   -5.4354674   0.82570619   439061 
 2883000   0.54921427   -5.4335502   -5.4335502   -4.6097307 -0.0053922082   -5.4335502   0.82381953   439061 
 2884000   0.54900018   -5.4329057   -5.4329057   -4.6094073 0.0012070013   -5.4329057   0.82349839   439061 
 2885000   0.55050688   -5.4344142   -5.4344142   -4.6086558 -0.0021727235   -5.4344142   0.82575844   439061 
 2886000   0.55046358   -5.4343705   -5.4343705    -4.608677 0.00047344716   -5.4343705   0.82569349   439061 
 2887000   0.55024499   -5.4333532   -5.4333532   -4.6079876 0.0083348961   -5.4333532    0.8253656   439061 
 2888000   0.55033984   -5.4342049   -5.4342049   -4.6086971 0.00083867109   -5.4342049   0.82550787   439061 
 2889000   0.54920257   -5.4334311   -5.4334311   -4.6096291 0.0020834673   -5.4334311   0.82380197   439061 
 2890000   0.55096608   -5.4348841   -5.4348841   -4.6084368 -0.0011637809   -5.4348841   0.82644724   439061 
 2891000   0.55034265   -5.4342442   -5.4342442   -4.6087321 -0.0010249216   -5.4342442    0.8255121   439061 
 2892000   0.55035903   -5.4344002   -5.4344002   -4.6088635 -0.00062081347   -5.4344002   0.82553666   439061 
 2893000    0.5497391   -5.4326484   -5.4326484   -4.6080416 0.0002882366   -5.4326484   0.82460677   439061 
 2894000   0.55070648   -5.4341721   -5.4341721   -4.6081143 -0.004403764   -5.4341721   0.82605784   439061 
 2895000   0.55019051   -5.4335911   -5.4335911   -4.6083072 -0.00015878501   -5.4335911   0.82528388   439061 
 2896000   0.54984583   -5.4324526   -5.4324526   -4.6076858 0.0030108413   -5.4324526   0.82476686   439061 
 2897000   0.54986473   -5.4334748   -5.4334748   -4.6086796  0.002762267   -5.4334748   0.82479522   439061 
 2898000   0.55053169   -5.4333051   -5.4333051   -4.6075094 0.0056513285   -5.4333051   0.82579566   439061 
 2899000   0.55051794   -5.4337282   -5.4337282   -4.6079532 0.0032139019   -5.4337282   0.82577503   439061 
 2900000   0.55037281   -5.4340351   -5.4340351   -4.6084778 -0.0043764333   -5.4340351   0.82555733   439061 
 2901000   0.54895575    -5.432192    -5.432192   -4.6087602 0.0014437374    -5.432192   0.82343174   439061 
 2902000   0.55013998   -5.4338307   -5.4338307   -4.6086226 -0.0015368823   -5.4338307   0.82520809   439061 
 2903000   0.54992087   -5.4340749   -5.4340749   -4.6091954 -0.0040784299   -5.4340749   0.82487942   439061 
 2904000   0.55145568   -5.4353459   -5.4353459   -4.6081643 -0.0038242098   -5.4353459   0.82718163   439061 
 2905000   0.55002681   -5.4331951   -5.4331951   -4.6081567 0.0010163557   -5.4331951   0.82503833   439061 
 2906000    0.5508111   -5.4340957   -5.4340957   -4.6078809 -0.00042963013   -5.4340957   0.82621477   439061 
 2907000   0.55010073   -5.4337578   -5.4337578   -4.6086086 0.00077205338   -5.4337578   0.82514921   439061 
 2908000    0.5502601   -5.4354818   -5.4354818   -4.6100935 -0.003203235   -5.4354818   0.82538827   439061 
 2909000   0.54954673    -5.435188    -5.435188   -4.6108697 -0.0017737048    -5.435188   0.82431821   439061 
 2910000   0.54891755   -5.4331147   -5.4331147   -4.6097402 0.0025069469   -5.4331147   0.82337444   439061 
 2911000   0.54987888   -5.4346184   -5.4346184    -4.609802 0.00040470347   -5.4346184   0.82481644   439061 
 2912000   0.55039591   -5.4345534   -5.4345534   -4.6089614 0.0015556653   -5.4345534   0.82559198   439061 
 2913000   0.55009773   -5.4355926   -5.4355926   -4.6104479 0.00014362293   -5.4355926   0.82514472   439061 
 2914000    0.5504718   -5.4352665   -5.4352665   -4.6095607 -0.0036218386   -5.4352665   0.82570582   439061 
 2915000   0.55031718   -5.4339714   -5.4339714   -4.6084975 -0.0032625729   -5.4339714    0.8254739   439061 
 2916000   0.54922055   -5.4338447   -5.4338447   -4.6100158 -0.0019440265   -5.4338447   0.82382895   439061 
 2917000   0.54955659   -5.4347617   -5.4347617   -4.6104287 -0.0067357643   -5.4347617   0.82433301   439061 
 2918000   0.54997958    -5.435685    -5.435685   -4.6107175 -0.0065814337    -5.435685   0.82496749   439061 
 2919000   0.54934842   -5.4353215   -5.4353215   -4.6113008 -0.0024610355   -5.4353215   0.82402075   439061 
 2920000   0.54888135   -5.4344917   -5.4344917   -4.6111715 0.0024867305   -5.4344917   0.82332016   439061 
 2921000   0.54897673   -5.4349137   -5.4349137   -4.6114505 0.0041710475   -5.4349137   0.82346322   439061 
 2922000   0.54995836   -5.4363287   -5.4363287    -4.611393 0.0050785231   -5.4363287   0.82493566   439061 
 2923000   0.55029772   -5.4375055   -5.4375055   -4.6120608 0.0041181814   -5.4375055   0.82544469   439061 
 2924000   0.55026692   -5.4373825   -5.4373825    -4.611984 0.0035357926   -5.4373825    0.8253985   439061 
 2925000   0.55013916   -5.4373118   -5.4373118    -4.612105 0.00068812962   -5.4373118   0.82520686   439061 
 2926000    0.5496329   -5.4362316   -5.4362316   -4.6117841 0.00087699237   -5.4362316   0.82444747   439061 
 2927000   0.54966574     -5.43572     -5.43572   -4.6112233 0.00036375368     -5.43572   0.82449673   439061 
 2928000   0.55037621   -5.4358305   -5.4358305   -4.6102681 0.0016336856   -5.4358305   0.82556243   439061 
 2929000   0.55060921    -5.436232    -5.436232     -4.61032 -0.0031762559    -5.436232   0.82591193   439061 
 2930000   0.55028892   -5.4344108   -5.4344108   -4.6089793 -0.002517897   -5.4344108    0.8254315   439061 
 2931000   0.55013433   -5.4349813   -5.4349813   -4.6097817 -0.0011694733   -5.4349813   0.82519962   439061 
 2932000   0.54998716   -5.4347141   -5.4347141   -4.6097353 -0.0040593258   -5.4347141   0.82497886   439061 
 2933000   0.55064333   -5.4354282   -5.4354282   -4.6094651 -0.001922413   -5.4354282   0.82596312   439061 
 2934000   0.54952655   -5.4331485   -5.4331485   -4.6088606 -0.00066622451   -5.4331485   0.82428795   439061 
 2935000   0.54965605   -5.4329204   -5.4329204   -4.6084381 0.0037288175   -5.4329204    0.8244822   439061 
 2936000   0.55135988   -5.4355798   -5.4355798   -4.6085419 -6.8227721e-05   -5.4355798   0.82703794   439061 
 2937000   0.54981525   -5.4341694   -5.4341694   -4.6094484 -0.0017605721   -5.4341694     0.824721   439061 
 2938000   0.54786104   -5.4322342   -5.4322342   -4.6104445 0.0010736112   -5.4322342   0.82178968   439061 
 2939000   0.54964605   -5.4346214   -5.4346214   -4.6101542 -0.00053850381   -5.4346214    0.8244672   439061 
 2940000     0.549855   -5.4346645   -5.4346645   -4.6098839 -2.753691e-05   -5.4346645   0.82478062   439061 
 2941000   0.55013197   -5.4342746   -5.4342746   -4.6090785 0.0024631821   -5.4342746   0.82519607   439061 
 2942000   0.55047466   -5.4348671   -5.4348671    -4.609157 0.0015750093   -5.4348671   0.82571011   439061 
 2943000   0.54971131   -5.4339926   -5.4339926   -4.6094275 0.0013879147   -5.4339926   0.82456509   439061 
 2944000   0.55153117   -5.4356881   -5.4356881   -4.6083932 0.0038248842   -5.4356881   0.82729487   439061 
 2945000   0.55061057   -5.4351489   -5.4351489   -4.6092349 0.00012023673   -5.4351489   0.82591398   439061 
 2946000   0.55017516   -5.4348847   -5.4348847   -4.6096239 -0.0082169664   -5.4348847   0.82526086   439061 
 2947000   0.54921887   -5.4329412   -5.4329412   -4.6091147 -0.0016151106   -5.4329412   0.82382643   439061 
 2948000   0.54974127   -5.4328086   -5.4328086   -4.6081985 -0.0033938696   -5.4328086   0.82461002   439061 
 2949000   0.54969198   -5.4341557   -5.4341557   -4.6096196 -0.0079450736   -5.4341557   0.82453609   439061 
 2950000   0.54982664    -5.434195    -5.434195    -4.609457 -0.0036597659    -5.434195   0.82473808   439061 
 2951000   0.54998369    -5.434475    -5.434475   -4.6095013 -0.0035843882    -5.434475   0.82497366   439061 
 2952000   0.55062612   -5.4358688   -5.4358688   -4.6099315 -0.0027450654   -5.4358688    0.8259373   439061 
 2953000   0.55015113   -5.4361426   -5.4361426   -4.6109178  0.001253467   -5.4361426   0.82522481   439061 
 2954000   0.55007009   -5.4352386   -5.4352386   -4.6101354 0.0066804158   -5.4352386   0.82510325   439061 
 2955000   0.55103037   -5.4370784   -5.4370784   -4.6105347 0.0010957277   -5.4370784   0.82654367   439061 
 2956000   0.55129925   -5.4382238   -5.4382238   -4.6112768  0.003445422   -5.4382238   0.82694699   439061 
 2957000   0.55039988   -5.4366599   -5.4366599    -4.611062 0.0004858331   -5.4366599   0.82559794   439061 
 2958000   0.54987427   -5.4355685   -5.4355685    -4.610759 0.0016457723   -5.4355685   0.82480952   439061 
 2959000   0.55060609   -5.4360372   -5.4360372     -4.61013 -0.0023739025   -5.4360372   0.82590726   439061 
 2960000   0.54976558   -5.4352239   -5.4352239   -4.6105774 -0.0032076368   -5.4352239   0.82464649   439061 
 2961000    0.5500133   -5.4349307   -5.4349307   -4.6099126 -0.0019215725   -5.4349307   0.82501807   439061 
 2962000    0.5492782   -5.4338052   -5.4338052   -4.6098898 -0.0070466493   -5.4338052   0.82391543   439061 
 2963000   0.54976846   -5.4342264   -5.4342264   -4.6095756 -0.0033039334   -5.4342264   0.82465081   439061 
 2964000   0.54925986   -5.4334816   -5.4334816   -4.6095937 -0.0052596097   -5.4334816   0.82388791   439061 
 2965000   0.54954792   -5.4337185   -5.4337185   -4.6093985 -0.0020551373   -5.4337185      0.82432   439061 
 2966000   0.54940012   -5.4337907   -5.4337907   -4.6096924 0.00048573012   -5.4337907    0.8240983   439061 
 2967000   0.55051192   -5.4347807   -5.4347807   -4.6090147 0.0011856962   -5.4347807     0.825766   439061 
 2968000   0.55061431   -5.4360115   -5.4360115   -4.6100919 0.0021854061   -5.4360115   0.82591958   439061 
 2969000   0.55029039   -5.4361463   -5.4361463   -4.6107126 0.0039881868   -5.4361463    0.8254337   439061 
 2970000    0.5496069   -5.4351157   -5.4351157   -4.6107072 0.0021232209   -5.4351157   0.82440847   439061 
 2971000   0.55011952   -5.4364534   -5.4364534    -4.611276 -0.00053855754   -5.4364534    0.8251774   439061 
 2972000   0.54990051   -5.4358794   -5.4358794   -4.6110305 -0.0015023379   -5.4358794   0.82484888   439061 
 2973000   0.55074123   -5.4360742   -5.4360742   -4.6099642 0.00011824073   -5.4360742   0.82610997   439061 
 2974000   0.55050702   -5.4357093   -5.4357093   -4.6099507 -0.003773039   -5.4357093   0.82575865   439061 
 2975000   0.54983377   -5.4350457   -5.4350457   -4.6102969 -0.006523027   -5.4350457   0.82474878   439061 
 2976000    0.5493367   -5.4351914   -5.4351914   -4.6111883 -0.0049434379   -5.4351914   0.82400317   439061 
 2977000   0.54977768     -5.43538     -5.43538   -4.6107154 0.00017424156     -5.43538   0.82466464   439061 
 2978000   0.54992498    -5.435722    -5.435722   -4.6108364 0.00082403306    -5.435722   0.82488559   439061 
 2979000   0.54994577   -5.4356245   -5.4356245   -4.6107078 -0.00028757862   -5.4356245   0.82491678   439061 
 2980000   0.55045073   -5.4365425   -5.4365425   -4.6108683 -0.0013028869   -5.4365425   0.82567422   439061 
 2981000   0.54953544   -5.4349112   -5.4349112   -4.6106099 0.0069941738   -5.4349112   0.82430129   439061 
 2982000   0.55031909    -5.435661    -5.435661   -4.6101843 0.0015293998    -5.435661   0.82547675   439061 
 2983000   0.55056492   -5.4347342   -5.4347342   -4.6088887 0.0032827185   -5.4347342   0.82584549   439061 
 2984000   0.55047099   -5.4356118   -5.4356118   -4.6099072 -0.0019971635   -5.4356118   0.82570461   439061 
 2985000   0.54942884   -5.4340659   -5.4340659   -4.6099245 -0.0055007034   -5.4340659   0.82414139   439061 
 2986000   0.54877601    -5.432655    -5.432655   -4.6094929 -0.0034414473    -5.432655   0.82316214   439061 
 2987000   0.54861642   -5.4330275   -5.4330275   -4.6101047 -0.0077617616   -5.4330275   0.82292276   439061 
 2988000   0.54946985   -5.4349281   -5.4349281   -4.6107252 -0.0083970307   -5.4349281    0.8242029   439061 
 2989000   0.54900772   -5.4339993   -5.4339993   -4.6104896 -0.00095185226   -5.4339993   0.82350971   439061 
 2990000    0.5492889   -5.4345546   -5.4345546   -4.6106231 0.0037660418   -5.4345546   0.82393148   439061 
 2991000   0.55111353   -5.4374557   -5.4374557   -4.6107872 0.0084320015   -5.4374557   0.82666842   439061 
 2992000   0.55102591     -5.43783     -5.43783    -4.611293 0.0017067016     -5.43783   0.82653699   439061 
 2993000    0.5506567   -5.4378147   -5.4378147   -4.6118316 0.0029017637   -5.4378147   0.82598317   439061 
 2994000   0.55031799   -5.4371852   -5.4371852   -4.6117101 0.00036470075   -5.4371852   0.82547511   439061 
 2995000   0.55069376   -5.4383841   -5.4383841   -4.6123453 0.0011569126   -5.4383841   0.82603876   439061 
 2996000   0.54936018   -5.4360684   -5.4360684     -4.61203 0.00057817252   -5.4360684   0.82403839   439061 
 2997000   0.54918999    -5.435167    -5.435167   -4.6113839 -0.0022136533    -5.435167   0.82378311   439061 
 2998000   0.54839599   -5.4332867   -5.4332867   -4.6106946 0.0010878629   -5.4332867   0.82259211   439061 
 2999000   0.54965301   -5.4349076   -5.4349076   -4.6104299 -0.0025679982   -5.4349076   0.82447763   439061 
 3000000   0.55020194   -5.4353234   -5.4353234   -4.6100224 -0.0057507108   -5.4353234   0.82530103   439061 
 3001000   0.54922988   -5.4357079   -5.4357079    -4.611865 -0.0042533849   -5.4357079   0.82384295   439061 
 3002000   0.55000392   -5.4352053   -5.4352053   -4.6102013 -0.00086266536   -5.4352053     0.825004   439061 
 3003000   0.55079764   -5.4367338   -5.4367338   -4.6105392 0.0032687452   -5.4367338   0.82619458   439061 
 3004000   0.54960708   -5.4353627   -5.4353627   -4.6109539 0.0050900178   -5.4353627   0.82440874   439061 
 3005000      0.54974   -5.4368232   -5.4368232   -4.6122151 -0.00072737228   -5.4368232   0.82460812   439061 
 3006000   0.54950471   -5.4371386   -5.4371386   -4.6128834 -0.0021617775   -5.4371386   0.82425518   439061 
 3007000   0.55039312   -5.4376294   -5.4376294   -4.6120416 -0.00056377758   -5.4376294   0.82558779   439061 
 3008000   0.54997004   -5.4378795   -5.4378795   -4.6129263 0.00013486851   -5.4378795   0.82495319   439061 
 3009000   0.54976957   -5.4371173   -5.4371173   -4.6124649 -0.0039734033   -5.4371173   0.82465248   439061 
 3010000   0.55017061   -5.4377098   -5.4377098   -4.6124557 0.0013245689   -5.4377098   0.82525404   439061 
 3011000   0.54966333   -5.4361134   -5.4361134   -4.6116203 0.0024357735   -5.4361134   0.82449312   439061 
 3012000   0.55013109   -5.4364677   -5.4364677   -4.6112729 -0.0024589089   -5.4364677   0.82519476   439061 
 3013000   0.54935227   -5.4345656   -5.4345656   -4.6105391 0.00076808938   -5.4345656   0.82402653   439061 
 3014000   0.54947131   -5.4360762   -5.4360762   -4.6118711 -0.0015494589   -5.4360762   0.82420508   439061 
 3015000   0.54922353   -5.4363062   -5.4363062   -4.6124728 -0.0021608232   -5.4363062   0.82383342   439061 
 3016000    0.5482693   -5.4343821   -5.4343821     -4.61198 -0.00075254414   -5.4343821   0.82240208   439061 
 3017000   0.54916322   -5.4356386   -5.4356386   -4.6118957 -0.00050930947   -5.4356386   0.82374295   439061 
 3018000   0.54935893   -5.4358341   -5.4358341   -4.6117976 -0.0021618829   -5.4358341   0.82403652   439061 
 3019000   0.54999788   -5.4361029   -5.4361029    -4.611108 0.0015254431   -5.4361029   0.82499494   439061 
 3020000   0.54902852   -5.4350895   -5.4350895   -4.6115486 0.00089751649   -5.4350895    0.8235409   439061 
 3021000   0.54985944   -5.4374729   -5.4374729   -4.6126856 7.4965466e-05   -5.4374729   0.82478727   439061 
 3022000   0.54938654    -5.436836    -5.436836   -4.6127581 0.0017356994    -5.436836   0.82407794   439061 
 3023000   0.54993441   -5.4371608   -5.4371608   -4.6122611 0.0010557478   -5.4371608   0.82489974   439061 
 3024000   0.54917084   -5.4363487   -5.4363487   -4.6125943 -0.00054612622   -5.4363487   0.82375438   439061 
 3025000    0.5498211   -5.4375498   -5.4375498     -4.61282 -0.0031954422   -5.4375498   0.82472978   439061 
 3026000   0.55016805   -5.4378483   -5.4378483   -4.6125982 0.0011682561   -5.4378483   0.82525019   439061 
 3027000     0.548029   -5.4355783   -5.4355783   -4.6135366 0.00020550443   -5.4355783   0.82204162   439061 
 3028000   0.54944384   -5.4380322   -5.4380322   -4.6138683 -0.0037461633   -5.4380322   0.82416389   439061 
 3029000   0.54808253   -5.4360583   -5.4360583   -4.6139363 0.00092993279   -5.4360583   0.82212192   439061 
 3030000     0.548893   -5.4373733   -5.4373733   -4.6140357 -0.00045075834   -5.4373733   0.82333762   439061 
 3031000   0.54917802   -5.4372014   -5.4372014   -4.6134363 0.00044296302   -5.4372014   0.82376515   439061 
 3032000   0.55038469   -5.4384885   -5.4384885   -4.6129134 0.0019900342   -5.4384885   0.82557515   439061 
 3033000   0.55050015   -5.4391131   -5.4391131   -4.6133647 0.0034224507   -5.4391131   0.82574834   439061 
 3034000   0.54945769   -5.4375897   -5.4375897    -4.613405 0.0038353804   -5.4375897   0.82418465   439061 
 3035000   0.54951157   -5.4373577   -5.4373577   -4.6130923 -0.00092861141   -5.4373577   0.82426548   439061 
 3036000   0.54996024   -5.4372096   -5.4372096   -4.6122711 5.8120431e-06   -5.4372096   0.82493848   439061 
 3037000   0.54937609    -5.436173    -5.436173   -4.6121108 0.0010920711    -5.436173   0.82406226   439061 
 3038000   0.54983478    -5.436648    -5.436648   -4.6118977 -0.0046353184    -5.436648   0.82475029   439061 
 3039000   0.54913069   -5.4348693   -5.4348693   -4.6111752 -0.0036387698   -5.4348693   0.82369415   439061 
 3040000    0.5490757   -5.4351318   -5.4351318   -4.6115201 -0.0051345865   -5.4351318   0.82361168   439061 
 3041000   0.54895464   -5.4342182   -5.4342182   -4.6107881 -0.0016503659   -5.4342182   0.82343009   439061 
 3042000   0.54956376   -5.4345601   -5.4345601   -4.6102164 0.0031769947   -5.4345601   0.82434376   439061 
 3043000   0.54981021   -5.4352704   -5.4352704   -4.6105569 0.0042170488   -5.4352704   0.82471344   439061 
 3044000   0.55052564   -5.4361351   -5.4361351   -4.6103486 0.0021653663   -5.4361351   0.82578658   439061 
 3045000   0.54962799   -5.4351535   -5.4351535   -4.6107134 0.0026605854   -5.4351535   0.82444011   439061 
 3046000   0.54954253   -5.4358661   -5.4358661   -4.6115542 -0.00046179037   -5.4358661   0.82431192   439061 
 3047000   0.54966465    -5.436966    -5.436966   -4.6124709 -0.0018393023    -5.436966    0.8244951   439061 
 3048000   0.54854271   -5.4363734   -5.4363734   -4.6135612 -0.003637287   -5.4363734   0.82281218   439061 
 3049000   0.54885495   -5.4371847   -5.4371847   -4.6139041 -0.0044610137   -5.4371847   0.82328054   439061 
 3050000   0.54847455   -5.4362954   -5.4362954   -4.6135854 5.8094572e-05   -5.4362954   0.82270995   439061 
 3051000    0.5501156   -5.4383036   -5.4383036    -4.613132 0.00038244368   -5.4383036   0.82517152   439061 
 3052000     0.550175   -5.4388581   -5.4388581   -4.6135975 0.0007592596   -5.4388581   0.82526062   439061 
 3053000   0.54930432   -5.4368134   -5.4368134   -4.6128588 0.0068146129   -5.4368134    0.8239546   439061 
 3054000   0.55005125   -5.4384476   -5.4384476   -4.6133726 0.0056343536   -5.4384476     0.825075   439061 
 3055000   0.54901488   -5.4367957   -5.4367957   -4.6132752 0.0046244728   -5.4367957   0.82352044   439061 
 3056000   0.54897728   -5.4373992   -5.4373992   -4.6139352 -0.0025589176   -5.4373992   0.82346404   439061 
 3057000   0.54943849   -5.4366023   -5.4366023   -4.6124464 -0.00075308338   -5.4366023   0.82415585   439061 
 3058000   0.54864875   -5.4363602   -5.4363602    -4.613389 -0.0040070357   -5.4363602   0.82297125   439061 
 3059000   0.54953673    -5.437133    -5.437133   -4.6128297 -0.0034448403    -5.437133   0.82430322   439061 
 3060000   0.54909765   -5.4355802   -5.4355802   -4.6119356 -0.0019192846   -5.4355802   0.82364459   439061 
 3061000   0.55006215   -5.4367266   -5.4367266   -4.6116352 0.00016335975   -5.4367266   0.82509134   439061 
 3062000   0.55096871   -5.4376811   -5.4376811     -4.61123 0.0043482195   -5.4376811   0.82645118   439061 
 3063000   0.55039849   -5.4368774   -5.4368774   -4.6112815 0.00080380685   -5.4368774   0.82559586   439061 
 3064000   0.54975915    -5.436612    -5.436612   -4.6119751 0.0019219049    -5.436612   0.82463684   439061 
 3065000    0.5500978   -5.4370035   -5.4370035   -4.6118586 0.0019580449   -5.4370035   0.82514482   439061 
 3066000   0.55027768   -5.4373819   -5.4373819   -4.6119673 -0.0048046643   -5.4373819   0.82541464   439061 
 3067000   0.54968322   -5.4371495   -5.4371495   -4.6126265 -0.00083674761   -5.4371495   0.82452295   439061 
 3068000   0.54963116   -5.4381882   -5.4381882   -4.6137434 -0.003792034   -5.4381882   0.82444486   439061 
 3069000   0.54861507   -5.4366605   -5.4366605   -4.6137397 -0.0028438825   -5.4366605   0.82292073   439061 
 3070000   0.54980327   -5.4377921   -5.4377921   -4.6130891 -0.00022157505   -5.4377921   0.82470302   439061 
 3071000   0.54986838   -5.4378117   -5.4378117    -4.613011 0.0027958833   -5.4378117   0.82480069   439061 
 3072000   0.55007113   -5.4378154   -5.4378154   -4.6127106 0.0021977844   -5.4378154   0.82510482   439061 
 3073000    0.5499989   -5.4379387   -5.4379387   -4.6129423 0.00028010585   -5.4379387   0.82499648   439061 
 3074000   0.55001224   -5.4365336   -5.4365336   -4.6115171 0.0035950537   -5.4365336   0.82501648   439061 
 3075000    0.5494797   -5.4369051   -5.4369051   -4.6126874 -0.0030049695   -5.4369051   0.82421767   439061 
 3076000   0.54896175   -5.4362019   -5.4362019   -4.6127612 -0.00025024515   -5.4362019   0.82344074   439061 
 3077000   0.54863464   -5.4357051   -5.4357051   -4.6127551 -0.0061596966   -5.4357051   0.82295008   439061 
 3078000   0.54882575   -5.4355207   -5.4355207   -4.6122839 -0.0047440329   -5.4355207   0.82323676   439061 
 3079000    0.5486216   -5.4351622   -5.4351622   -4.6122317 0.00043103091   -5.4351622   0.82293052   439061 
 3080000   0.54983789   -5.4356438   -5.4356438   -4.6108889 -0.0022055954   -5.4356438   0.82475495   439061 
 3081000   0.54997064   -5.4359658   -5.4359658   -4.6110117 -0.0033515444   -5.4359658   0.82495409   439061 
 3082000   0.54893685   -5.4355341   -5.4355341   -4.6121307 0.0017937824   -5.4355341   0.82340341   439061 
 3083000   0.55002005   -5.4365354   -5.4365354   -4.6115072 0.00038469865   -5.4365354    0.8250282   439061 
 3084000   0.54908712   -5.4350855   -5.4350855   -4.6114567 0.0012030733   -5.4350855   0.82362881   439061 
 3085000   0.55011979   -5.4359383   -5.4359383   -4.6107605 0.0031977209   -5.4359383   0.82517781   439061 
 3086000   0.54987874   -5.4362158   -5.4362158   -4.6113996 0.00046641584   -5.4362158   0.82481623   439061 
 3087000   0.54966908   -5.4358121   -5.4358121   -4.6113103 -0.0013021994   -5.4358121   0.82450174   439061 
 3088000   0.54921137    -5.436168    -5.436168   -4.6123528 -0.0005622489    -5.436168   0.82381518   439061 
 3089000   0.55056238   -5.4371777   -5.4371777    -4.611336 -0.0033700477   -5.4371777   0.82584169   439061 
 3090000   0.55016401   -5.4362391   -5.4362391    -4.610995 -0.00056429534   -5.4362391   0.82524414   439061 
 3091000   0.54990714   -5.4353692   -5.4353692   -4.6105104 -0.00047301662   -5.4353692   0.82485883   439061 
 3092000    0.5493786   -5.4347942   -5.4347942   -4.6107282 0.00024936816   -5.4347942   0.82406602   439061 
 3093000   0.55000284   -5.4360507   -5.4360507   -4.6110483 0.0032603071   -5.4360507   0.82500237   439061 
 3094000   0.55064105   -5.4359067   -5.4359067    -4.609947 -0.0013646886   -5.4359067   0.82595969   439061 
 3095000   0.54993198   -5.4350312   -5.4350312   -4.6101351 0.0023860526   -5.4350312   0.82489609   439061 
 3096000   0.54943073   -5.4336699   -5.4336699   -4.6095257 0.0024999894   -5.4336699   0.82414422   439061 
 3097000   0.55073523   -5.4357324   -5.4357324   -4.6096315 -0.0055636709   -5.4357324   0.82610097   439061 
 3098000   0.54897432   -5.4331864   -5.4331864   -4.6097268 -0.0011516348   -5.4331864    0.8234596   439061 
 3099000   0.54938296   -5.4344391   -5.4344391   -4.6103666 -0.0072271887   -5.4344391   0.82407257   439061 
 3100000   0.54933064   -5.4339123   -5.4339123   -4.6099182 -0.0010051238   -5.4339123   0.82399408   439061 
 3101000   0.55000365   -5.4350385   -5.4350385   -4.6100349 -0.0016429436   -5.4350385    0.8250036   439061 
 3102000   0.55031151   -5.4350165   -5.4350165   -4.6095511 0.0014372397   -5.4350165   0.82546538   439061 
 3103000   0.55065681   -5.4360617   -5.4360617   -4.6100784 0.0026054802   -5.4360617   0.82598333   439061 
 3104000   0.55023531   -5.4360982   -5.4360982   -4.6107471 -0.0015086142   -5.4360982   0.82535108   439061 
 3105000   0.54994551   -5.4358803   -5.4358803   -4.6109639 0.0014655468   -5.4358803   0.82491639   439061 
 3106000    0.5497969   -5.4357135   -5.4357135   -4.6110201 0.0051381886   -5.4357135   0.82469347   439061 
 3107000   0.55003188   -5.4364992   -5.4364992   -4.6114532 0.0018202317   -5.4364992   0.82504594   439061 
 3108000   0.54871454   -5.4348705   -5.4348705   -4.6118006 0.0012858032   -5.4348705   0.82306993   439061 
 3109000   0.55051362   -5.4380196   -5.4380196   -4.6122511 -0.0065787663   -5.4380196   0.82576855   439061 
 3110000    0.5506441   -5.4377593   -5.4377593    -4.611795 -0.00088080632   -5.4377593   0.82596427   439061 
 3111000   0.54938723   -5.4359809   -5.4359809    -4.611902 0.0044102284   -5.4359809   0.82407898   439061 
 3112000   0.54982623   -5.4353883   -5.4353883   -4.6106509 0.0040841231   -5.4353883   0.82473747   439061 
 3113000   0.55159074   -5.4370952   -5.4370952    -4.609711 0.0034854525   -5.4370952   0.82738422   439061 
 3114000   0.55094201   -5.4355693   -5.4355693   -4.6091582 0.00094926317   -5.4355693   0.82641114   439061 
 3115000    0.5497694   -5.4341401   -5.4341401   -4.6094879 0.0025468048   -5.4341401   0.82465223   439061 
 3116000   0.54958977   -5.4338467   -5.4338467    -4.609464 6.9178861e-05   -5.4338467   0.82438278   439061 
 3117000   0.54920507   -5.4334593   -5.4334593   -4.6096536 -0.0013528158   -5.4334593   0.82380572   439061 
 3118000   0.54986219   -5.4340536   -5.4340536   -4.6092622 -0.0062623806   -5.4340536   0.82479141   439061 
 3119000   0.54975156   -5.4336137   -5.4336137   -4.6089882  -0.00370688   -5.4336137   0.82462546   439061 
 3120000   0.55043284   -5.4340123   -5.4340123   -4.6083649 -0.00048227171   -5.4340123   0.82564738   439061 
 3121000   0.54987367    -5.433544    -5.433544   -4.6087354 -0.0012573113    -5.433544   0.82480863   439061 
 3122000    0.5494845   -5.4335047   -5.4335047   -4.6092799 -0.0038933896   -5.4335047   0.82422487   439061 
 3123000   0.55017181   -5.4352647   -5.4352647   -4.6100089 0.00039475615   -5.4352647   0.82525584   439061 
 3124000   0.55119733   -5.4371028   -5.4371028   -4.6103087 0.0014242885   -5.4371028   0.82679411   439061 
 3125000   0.55158653   -5.4364932   -5.4364932   -4.6091153  0.001240018   -5.4364932    0.8273779   439061 
 3126000    0.5504548   -5.4358317   -5.4358317   -4.6101513 0.0061007927   -5.4358317   0.82568031   439061 
 3127000   0.55098914   -5.4361746   -5.4361746   -4.6096928 0.0046264072   -5.4361746   0.82648183   439061 
 3128000   0.55074235   -5.4355546   -5.4355546   -4.6094429 0.0024481154   -5.4355546   0.82611164   439061 
 3129000   0.55064434   -5.4368018   -5.4368018   -4.6108372 -0.0025044501   -5.4368018   0.82596462   439061 
 3130000   0.54878932   -5.4343907   -5.4343907   -4.6112086 -0.0073076626   -5.4343907    0.8231821   439061 
 3131000   0.54931991   -5.4345509   -5.4345509   -4.6105729 -0.0070248582   -5.4345509   0.82397799   439061 
 3132000   0.55048137   -5.4363179   -5.4363179   -4.6105977 -0.0075155528   -5.4363179   0.82572017   439061 
 3133000   0.54903643   -5.4333249   -5.4333249   -4.6097721 -0.0021527828   -5.4333249   0.82355277   439061 
 3134000   0.54955137   -5.4342023   -5.4342023   -4.6098771 6.9441085e-05   -5.4342023   0.82432518   439061 
 3135000   0.55010387   -5.4342576   -5.4342576   -4.6091036 0.0040083338   -5.4342576   0.82515392   439061 
 3136000    0.5502091   -5.4348229   -5.4348229   -4.6095111 0.0027853701   -5.4348229   0.82531177   439061 
 3137000   0.55073897   -5.4355698   -5.4355698   -4.6094633 0.0048906527   -5.4355698   0.82610657   439061 
 3138000   0.55087899   -5.4349551   -5.4349551   -4.6086385 0.0052159117   -5.4349551    0.8263166   439061 
 3139000   0.55030459   -5.4345776   -5.4345776   -4.6091226 0.0011440616   -5.4345776     0.825455   439061 
 3140000   0.55050775   -5.4349942   -5.4349942   -4.6092345 -0.00098558226   -5.4349942   0.82575975   439061 
 3141000   0.55025735   -5.4340683   -5.4340683   -4.6086842 -0.0012609702   -5.4340683   0.82538415   439061 
 3142000   0.55082206   -5.4351232   -5.4351232    -4.608892 -0.004780732   -5.4351232   0.82623121   439061 
 3143000     0.549012   -5.4324438   -5.4324438   -4.6089277 -0.0058025968   -5.4324438   0.82351612   439061 
 3144000   0.54983375   -5.4339154   -5.4339154   -4.6091667 -0.011343076   -5.4339154   0.82474875   439061 
 3145000   0.54976643   -5.4335015   -5.4335015   -4.6088537 -0.0032575197   -5.4335015   0.82464777   439061 
 3146000   0.55073879   -5.4351038   -5.4351038   -4.6089975 -0.0018741304   -5.4351038   0.82610631   439061 
 3147000   0.54999359   -5.4348493   -5.4348493   -4.6098608 -0.00015197555   -5.4348493    0.8249885   439061 
 3148000    0.5507911   -5.4362206   -5.4362206   -4.6100359 0.0027398397   -5.4362206   0.82618477   439061 
 3149000   0.55121299   -5.4375458   -5.4375458   -4.6107282 0.0054624458   -5.4375458    0.8268176   439061 
 3150000   0.55058751   -5.4357957   -5.4357957   -4.6099163 0.0096747785   -5.4357957   0.82587938   439061 
 3151000   0.55052271   -5.4351507   -5.4351507   -4.6093685  0.006644507   -5.4351507   0.82578219   439061 
 3152000   0.54922592   -5.4331649   -5.4331649   -4.6093279 0.0060206632   -5.4331649   0.82383701   439061 
 3153000   0.55037467   -5.4358794   -5.4358794   -4.6103193 -0.0048785067   -5.4358794   0.82556013   439061 
 3154000   0.54979543   -5.4339789   -5.4339789   -4.6092877 -0.0031334856   -5.4339789   0.82469126   439061 
 3155000   0.54844484   -5.4319111   -5.4319111   -4.6092457 -0.0058115095   -5.4319111   0.82266538   439061 
 3156000   0.54957103   -5.4331652   -5.4331652   -4.6088106 -0.0065926203   -5.4331652   0.82435466   439061 
 3157000   0.54985761   -5.4321676   -5.4321676   -4.6073831 -0.0034432955   -5.4321676   0.82478454   439061 
 3158000    0.5506675   -5.4330956   -5.4330956   -4.6070962 -0.0019610008   -5.4330956   0.82599936   439061 
 3159000   0.55041114   -5.4330059   -5.4330059   -4.6073911 0.00042929431   -5.4330059   0.82561483   439061 
 3160000   0.55128105   -5.4346753   -5.4346753   -4.6077556 -0.00097931771   -5.4346753   0.82691969   439061 
 3161000   0.55082529   -5.4343564   -5.4343564   -4.6081203 -0.0011801887   -5.4343564   0.82623605   439061 
 3162000   0.55092998   -5.4344013   -5.4344013   -4.6080082 0.0022093984   -5.4344013   0.82639309   439061 
 3163000     0.551446   -5.4346088   -5.4346088   -4.6074416 -0.00088904439   -5.4346088   0.82716711   439061 
 3164000   0.55070142   -5.4333745   -5.4333745   -4.6073243 -0.0019279101   -5.4333745   0.82605025   439061 
 3165000   0.55110277   -5.4336449   -5.4336449   -4.6069927 -0.0015155577   -5.4336449   0.82665227   439061 
 3166000   0.55018292   -5.4335254   -5.4335254   -4.6082529 -0.00038548515   -5.4335254   0.82527251   439061 
 3167000   0.55022923   -5.4332858   -5.4332858   -4.6079438 -0.0020147499   -5.4332858   0.82534196   439061 
 3168000   0.54975903   -5.4332578   -5.4332578   -4.6086211 -0.0024852994   -5.4332578   0.82463667   439061 
 3169000   0.55033982   -5.4336085   -5.4336085   -4.6081007 0.0031263217   -5.4336085   0.82550785   439061 
 3170000   0.55101205    -5.434536    -5.434536   -4.6080199 0.0043340381    -5.434536   0.82651619   439061 
 3171000   0.55097169   -5.4346411   -5.4346411   -4.6081854 -0.00044572319   -5.4346411   0.82645566   439061 
 3172000   0.55086745   -5.4340416   -5.4340416   -4.6077423 0.00071804659   -5.4340416   0.82629929   439061 
 3173000    0.5508615   -5.4336492   -5.4336492   -4.6073588 -0.0019481598   -5.4336492   0.82629038   439061 
 3174000   0.55075909    -5.433199    -5.433199   -4.6070623 -0.0041512909    -5.433199   0.82613676   439061 
 3175000   0.55001713   -5.4328696   -5.4328696   -4.6078458 -0.0058721096   -5.4328696   0.82502382   439061 
 3176000   0.55025226   -5.4333552   -5.4333552   -4.6079787 -0.0060194011   -5.4333552    0.8253765   439061 
 3177000   0.55064262   -5.4342542   -5.4342542   -4.6082922 -0.0056581841   -5.4342542   0.82596205   439061 
 3178000   0.54933195    -5.432138    -5.432138    -4.608142 -0.00028934038    -5.432138   0.82399605   439061 
 3179000   0.55005802   -5.4339831   -5.4339831   -4.6088979 -0.0045439997   -5.4339831   0.82508516   439061 
 3180000   0.55123546   -5.4347349   -5.4347349   -4.6078836 0.0018605584   -5.4347349   0.82685131   439061 
 3181000    0.5522304   -5.4360748   -5.4360748    -4.607731 0.0047084246   -5.4360748   0.82834371   439061 
 3182000   0.55179505   -5.4354702   -5.4354702   -4.6077795 0.0034839979   -5.4354702   0.82769069   439061 
 3183000   0.55088545   -5.4351641   -5.4351641   -4.6088378 -0.00026817447   -5.4351641    0.8263263   439061 
 3184000   0.55003896   -5.4342817   -5.4342817   -4.6092252 -0.0051795208   -5.4342817   0.82505656   439061 
 3185000   0.55076837   -5.4348088   -5.4348088   -4.6086581 -0.0009187778   -5.4348088   0.82615067   439061 
 3186000   0.55057098   -5.4345724   -5.4345724   -4.6087178 0.00056856432   -5.4345724   0.82585459   439061 
 3187000   0.54996972   -5.4349986   -5.4349986   -4.6100459 -0.0037549752   -5.4349986   0.82495271   439061 
 3188000   0.54897984    -5.433008    -5.433008   -4.6095401 -0.005405681    -5.433008   0.82346788   439061 
 3189000   0.55097244    -5.435892    -5.435892   -4.6094352 -0.0027872912    -5.435892   0.82645678   439061 
 3190000    0.5507422    -5.436096    -5.436096   -4.6099846 -0.00064729583    -5.436096   0.82611142   439061 
 3191000   0.54993569   -5.4344587   -5.4344587    -4.609557 0.0026210121   -5.4344587   0.82490166   439061 
 3192000   0.55093673   -5.4357921   -5.4357921   -4.6093889 -0.00048211339   -5.4357921   0.82640321   439061 
 3193000   0.54940624   -5.4357647   -5.4357647   -4.6116572  0.003390766   -5.4357647   0.82410748   439061 
 3194000   0.55041562   -5.4358827   -5.4358827   -4.6102611 0.0001308977   -5.4358827   0.82562156   439061 
 3195000   0.55006192   -5.4353947   -5.4353947   -4.6103037 -0.00067630694   -5.4353947     0.825091   439061 
 3196000   0.54908416   -5.4342958   -5.4342958   -4.6106715 0.0020908338   -5.4342958   0.82362437   439061 
 3197000   0.55027446   -5.4345698   -5.4345698     -4.60916 -0.00066960274   -5.4345698   0.82540982   439061 
 3198000   0.55074851   -5.4342574   -5.4342574   -4.6081365 -0.0016988074   -5.4342574   0.82612088   439061 
 3199000   0.55033263   -5.4334943   -5.4334943   -4.6079973 -0.0015071014   -5.4334943   0.82549706   439061 
 3200000   0.55001941   -5.4339097   -5.4339097   -4.6088824 -0.0042811649   -5.4339097   0.82502723   439061 
 3201000   0.55057057    -5.434116    -5.434116    -4.608262 0.0022044616    -5.434116   0.82585397   439061 
 3202000   0.54972893   -5.4323662   -5.4323662   -4.6077746 -4.8294322e-05   -5.4323662   0.82459152   439061 
 3203000   0.55066264   -5.4346983   -5.4346983   -4.6087063 0.0006023234   -5.4346983   0.82599209   439061 
 3204000   0.55022047   -5.4335657   -5.4335657   -4.6082369 0.00042744109   -5.4335657   0.82532883   439061 
 3205000   0.55027047   -5.4346783   -5.4346783   -4.6092745 -0.0026348346   -5.4346783   0.82540382   439061 
 3206000   0.55069658   -5.4348471   -5.4348471   -4.6088041 -0.00032516594   -5.4348471   0.82604299   439061 
 3207000   0.55060903   -5.4345888   -5.4345888   -4.6086771 0.0014698157   -5.4345888   0.82591166   439061 
 3208000   0.55080175   -5.4350937   -5.4350937   -4.6088929 -0.0013454968   -5.4350937   0.82620074   439061 
 3209000   0.54924858   -5.4337579   -5.4337579   -4.6098869 0.0028368257   -5.4337579   0.82387099   439061 
 3210000   0.54946867   -5.4349803   -5.4349803   -4.6107792 -0.0034342557   -5.4349803   0.82420113   439061 
 3211000   0.55010314   -5.4353436   -5.4353436   -4.6101908 -0.0010638014   -5.4353436   0.82515283   439061 
 3212000   0.55031741   -5.4353007   -5.4353007   -4.6098265 0.00066104605   -5.4353007   0.82547424   439061 
 3213000   0.55065753   -5.4355746   -5.4355746   -4.6095902 -0.0036652124   -5.4355746   0.82598441   439061 
 3214000   0.54955438   -5.4332841   -5.4332841   -4.6089544 -0.00037929812   -5.4332841   0.82432969   439061 
 3215000   0.54936644   -5.4337895   -5.4337895   -4.6097418 0.00011916284   -5.4337895   0.82404778   439061 
 3216000   0.55135367   -5.4348862   -5.4348862   -4.6078576 0.0018622462   -5.4348862   0.82702863   439061 
 3217000   0.55034833   -5.4342208   -5.4342208   -4.6087002 0.00017323966   -5.4342208   0.82552061   439061 
 3218000   0.54881847   -5.4322295   -5.4322295   -4.6090037  0.003190207   -5.4322295   0.82322582   439061 
 3219000   0.55042639   -5.4342974   -5.4342974   -4.6086597 -0.0011716729   -5.4342974   0.82563771   439061 
 3220000   0.55031863   -5.4339507   -5.4339507   -4.6084746 -0.0024137546   -5.4339507   0.82547606   439061 
 3221000   0.54985024   -5.4338725   -5.4338725    -4.609099 -0.0034547764   -5.4338725   0.82477348   439061 
 3222000   0.54991608   -5.4333376   -5.4333376   -4.6084654 -0.0014414956   -5.4333376   0.82487224   439061 
 3223000   0.55013838   -5.4335612   -5.4335612   -4.6083555 -0.00035555531   -5.4335612    0.8252057   439061 
 3224000   0.55075284   -5.4341418   -5.4341418   -4.6080145 0.0025500607   -5.4341418   0.82612738   439061 
 3225000   0.54995666   -5.4337402   -5.4337402   -4.6088071 0.00044977978   -5.4337402   0.82493312   439061 
 3226000   0.55010644   -5.4345464   -5.4345464   -4.6093886 -0.0033886173   -5.4345464   0.82515778   439061 
 3227000   0.54952001   -5.4339448   -5.4339448   -4.6096667 -0.00011173983   -5.4339448   0.82427814   439061 
 3228000   0.54936819    -5.434558    -5.434558   -4.6105076 -0.00060463112    -5.434558   0.82405041   439061 
 3229000   0.54975301   -5.4357169   -5.4357169   -4.6110892 -0.0019182216   -5.4357169   0.82462764   439061 
 3230000   0.54914102   -5.4337715   -5.4337715   -4.6100619 -0.0010451459   -5.4337715   0.82370965   439061 
 3231000   0.54969113   -5.4355482   -5.4355482   -4.6110134 0.0009705384   -5.4355482   0.82453481   439061 
 3232000   0.55070646   -5.4362402   -5.4362402   -4.6101824 -0.00065529536   -5.4362402   0.82605781   439061 
 3233000   0.55026955   -5.4357814   -5.4357814    -4.610379 0.0009259519   -5.4357814   0.82540244   439061 
 3234000   0.54979591   -5.4352502   -5.4352502   -4.6105582 -0.0013439896   -5.4352502   0.82469199   439061 
 3235000   0.55027107   -5.4357946   -5.4357946   -4.6103898 -0.0017182142   -5.4357946   0.82540473   439061 
 3236000   0.54957304   -5.4353167   -5.4353167    -4.610959 -0.0027483868   -5.4353167   0.82435769   439061 
 3237000   0.54961135   -5.4350844   -5.4350844   -4.6106693   0.00060332   -5.4350844   0.82441514   439061 
 3238000   0.54921077   -5.4348068   -5.4348068   -4.6109926  -0.00198008   -5.4348068   0.82381428   439061 
 3239000   0.54957306   -5.4347223   -5.4347223   -4.6103646 -0.0010230837   -5.4347223   0.82435771   439061 
 3240000   0.55045755   -5.4353203   -5.4353203   -4.6096358 -0.0010973052   -5.4353203   0.82568444   439061 
 3241000   0.55015266   -5.4339668   -5.4339668   -4.6087397 0.0011029944   -5.4339668   0.82522711   439061 
 3242000   0.55057181   -5.4344442   -5.4344442   -4.6085884 -7.1730651e-05   -5.4344442   0.82585584   439061 
 3243000   0.55050565   -5.4345003   -5.4345003   -4.6087437 -0.0021728843   -5.4345003   0.82575659   439061 
 3244000   0.54931226   -5.4320555   -5.4320555    -4.608089 0.0053477082   -5.4320555   0.82396651   439061 
 3245000   0.54994786    -5.433574    -5.433574   -4.6086541 -0.0040859494    -5.433574   0.82491992   439061 
 3246000   0.55044929   -5.4339047   -5.4339047   -4.6082326 -0.0040767062   -5.4339047   0.82567206   439061 
 3247000   0.54989268   -5.4331159   -5.4331159   -4.6082788 -0.0076194969   -5.4331159   0.82483714   439061 
 3248000   0.54977072   -5.4338838   -5.4338838   -4.6092296 -0.0069589211   -5.4338838    0.8246542   439061 
 3249000   0.54883671   -5.4339251   -5.4339251   -4.6106719 -0.0027808161   -5.4339251   0.82325319   439061 
 3250000   0.55122834   -5.4365431   -5.4365431   -4.6097025 -0.00067700473   -5.4365431   0.82684062   439061 
 3251000    0.5495794    -5.434253    -5.434253   -4.6098858 0.0088301365    -5.434253   0.82436722   439061 
 3252000   0.55210249   -5.4376884   -5.4376884   -4.6095365 0.0036046109   -5.4376884   0.82815185   439061 
 3253000   0.54977265   -5.4346479   -5.4346479   -4.6099908 0.0066033502   -5.4346479   0.82465709   439061 
 3254000    0.5504025   -5.4348375   -5.4348375   -4.6092356 0.0072170352   -5.4348375   0.82560187   439061 
 3255000   0.55061474    -5.433692    -5.433692   -4.6077717 0.0025570365    -5.433692   0.82592023   439061 
 3256000   0.55007094   -5.4334976   -5.4334976    -4.608393 -0.0028877797   -5.4334976   0.82510454   439061 
 3257000   0.54908898   -5.4315333   -5.4315333   -4.6079017 -0.00071417967   -5.4315333    0.8236316   439061 
 3258000   0.54966129   -5.4323919   -5.4323919   -4.6079018 -0.007603893   -5.4323919   0.82449005   439061 
 3259000   0.54987548   -5.4322484   -5.4322484    -4.607437 -0.0077634896   -5.4322484   0.82481135   439061 
 3260000   0.54962594   -5.4313014   -5.4313014   -4.6068643 -0.0033109271   -5.4313014   0.82443703   439061 
 3261000     0.551184   -5.4331994   -5.4331994   -4.6064253 0.0018793521   -5.4331994   0.82677411   439061 
 3262000   0.55139089    -5.433931    -5.433931   -4.6068466  0.003942105    -5.433931   0.82708445   439061 
 3263000   0.55057018   -5.4335203   -5.4335203   -4.6076669 0.0064314401   -5.4335203   0.82585338   439061 
 3264000   0.55083069   -5.4340838   -5.4340838   -4.6078396 0.0024097855   -5.4340838   0.82624416   439061 
 3265000   0.55105106   -5.4339236   -5.4339236   -4.6073489 0.0016643171   -5.4339236   0.82657471   439061 
 3266000   0.55029175   -5.4332417   -5.4332417   -4.6078059 0.0035255419   -5.4332417   0.82543574   439061 
 3267000   0.55091291   -5.4335062   -5.4335062   -4.6071387 -0.0025634344   -5.4335062   0.82636748   439061 
 3268000   0.55117896   -5.4342541   -5.4342541   -4.6074875 -0.0050539989   -5.4342541   0.82676656   439061 
 3269000   0.54935792   -5.4310388   -5.4310388   -4.6070038 1.6253017e-05   -5.4310388     0.824035   439061 
 3270000   0.55036764   -5.4337151   -5.4337151   -4.6081655 -0.0047676385   -5.4337151   0.82554958   439061 
 3271000   0.55052744   -5.4341749   -5.4341749   -4.6083856 -0.0029517842   -5.4341749   0.82578928   439061 
 3272000   0.54882801   -5.4330022   -5.4330022    -4.609762 -0.0036413096   -5.4330022   0.82324014   439061 
 3273000   0.55033024   -5.4340234   -5.4340234   -4.6085299 -0.0037026028   -5.4340234   0.82549348   439061 
 3274000   0.55109439   -5.4337141   -5.4337141   -4.6070744 0.0059907621   -5.4337141   0.82663969   439061 
 3275000   0.55111802   -5.4339818   -5.4339818   -4.6073067 0.0073835111   -5.4339818   0.82667514   439061 
 3276000   0.55129087   -5.4352898   -5.4352898   -4.6083554 0.0034280034   -5.4352898   0.82693442   439061 
 3277000    0.5503486   -5.4336081   -5.4336081   -4.6080871 0.0020781694   -5.4336081   0.82552103   439061 
 3278000   0.55064684   -5.4343261   -5.4343261   -4.6083577 -0.0035561188   -5.4343261   0.82596837   439061 
 3279000   0.55173154   -5.4353778   -5.4353778   -4.6077823 -0.0035350148   -5.4353778   0.82759542   439061 
 3280000   0.54997283    -5.432888    -5.432888   -4.6079307 0.00011056841    -5.432888   0.82495737   439061 
 3281000   0.55041383   -5.4317946   -5.4317946   -4.6061757 -0.0035484615   -5.4317946   0.82561886   439061 
 3282000   0.54977854   -5.4312295   -5.4312295   -4.6065636 0.0036745992   -5.4312295   0.82466593   439061 
 3283000   0.55088843   -5.4328712   -5.4328712   -4.6065405 -0.00039690596   -5.4328712   0.82633076   439061 
 3284000   0.55040323   -5.4319262   -5.4319262   -4.6063232 -0.005243022   -5.4319262   0.82560297   439061 
 3285000   0.55086948   -5.4324844   -5.4324844    -4.606182 -0.0016552925   -5.4324844   0.82630234   439061 
 3286000   0.55086666   -5.4323409   -5.4323409   -4.6060428 -0.0012489334   -5.4323409   0.82629811   439061 
 3287000   0.55107262    -5.431288    -5.431288    -4.604681 0.0053626307    -5.431288   0.82660705   439061 
 3288000     0.552007   -5.4331701   -5.4331701   -4.6051615 0.0039196212   -5.4331701   0.82800862   439061 
 3289000   0.55110569    -5.432319    -5.432319   -4.6056623  0.001294516    -5.432319   0.82665665   439061 
 3290000    0.5511543   -5.4314521   -5.4314521   -4.6047226 -0.0020067124   -5.4314521   0.82672956   439061 
 3291000    0.5499341   -5.4302947   -5.4302947   -4.6053955 -0.0024439946   -5.4302947   0.82489927   439061 
 3292000   0.54943254   -5.4297317   -5.4297317   -4.6055848 -0.0065458891   -5.4297317   0.82414693   439061 
 3293000    0.5504438   -5.4316957   -5.4316957   -4.6060319 -0.010240965   -5.4316957   0.82566382   439061 
 3294000   0.55022971   -5.4308105   -5.4308105   -4.6054678 -0.0071451592   -5.4308105   0.82534268   439061 
 3295000     0.550768   -5.4325704   -5.4325704   -4.6064202 -0.0064885053   -5.4325704   0.82615011   439061 
 3296000   0.55166064   -5.4334533   -5.4334533   -4.6059642 0.00057588825   -5.4334533   0.82748908   439061 
 3297000   0.55114738   -5.4337533   -5.4337533   -4.6070341 0.0026925482   -5.4337533   0.82671919   439061 
 3298000   0.55146758   -5.4342414   -5.4342414    -4.607042 0.0048232215   -5.4342414   0.82719948   439061 
 3299000   0.55161084   -5.4340116   -5.4340116   -4.6065973 0.0056386992   -5.4340116   0.82741438   439061 
 3300000   0.55156052   -5.4351003   -5.4351003   -4.6077614 0.0003875764   -5.4351003    0.8273389   439061 
 3301000   0.55114388   -5.4343782   -5.4343782   -4.6076642 0.0009196946   -5.4343782   0.82671394   439061 
 3302000    0.5498239   -5.4324269   -5.4324269    -4.607693 0.00038932048   -5.4324269   0.82473397   439061 
 3303000   0.55076838   -5.4335579   -5.4335579   -4.6074072 -0.0028902576   -5.4335579   0.82615068   439061 
 3304000   0.55015611   -5.4328162   -5.4328162   -4.6075839 -0.0062105232   -5.4328162   0.82523228   439061 
 3305000   0.54965155   -5.4322221   -5.4322221   -4.6077467 -0.011537777   -5.4322221   0.82447545   439061 
 3306000    0.5492756   -5.4311543   -5.4311543   -4.6072428  -0.00226034   -5.4311543   0.82391153   439061 
 3307000    0.5509384   -5.4324771   -5.4324771   -4.6060714 0.00038293194   -5.4324771   0.82640572   439061 
 3308000   0.55156417   -5.4345008   -5.4345008   -4.6071565 -0.0011904898   -5.4345008   0.82734437   439061 
 3309000   0.55104161   -5.4338379   -5.4338379   -4.6072774 0.0021923563   -5.4338379   0.82656054   439061 
 3310000   0.55093983   -5.4345349   -5.4345349   -4.6081271 0.0023047927   -5.4345349   0.82640787   439061 
 3311000   0.55089367   -5.4342694   -5.4342694   -4.6079307 0.0033041185   -5.4342694   0.82633863   439061 
 3312000   0.55133298   -5.4348572   -5.4348572   -4.6078596 0.0033389609   -5.4348572   0.82699758   439061 
 3313000   0.55055523    -5.432837    -5.432837   -4.6070061 0.0050461959    -5.432837   0.82583096   439061 
 3314000   0.55123814    -5.434271    -5.434271   -4.6074157 -0.0027471267    -5.434271   0.82685533   439061 
 3315000   0.55016479   -5.4319791   -5.4319791   -4.6067338 0.00030502725   -5.4319791   0.82524531   439061 
 3316000   0.55046956   -5.4323508   -5.4323508   -4.6066483 -0.0012100598   -5.4323508   0.82570246   439061 
 3317000   0.55087845   -5.4325605   -5.4325605   -4.6062447 -0.0062325175   -5.4325605    0.8263158   439061 
 3318000   0.55012458   -5.4308589   -5.4308589    -4.605674 -0.0010239168   -5.4308589     0.825185   439061 
 3319000   0.55063004   -5.4323614   -5.4323614   -4.6064183 -0.0023114793   -5.4323614   0.82594318   439061 
 3320000   0.55044603   -5.4311501   -5.4311501    -4.605483 0.00029308201   -5.4311501   0.82566716   439061 
 3321000   0.55119398   -5.4326087   -5.4326087   -4.6058197 -0.00031588075   -5.4326087   0.82678908   439061 
 3322000   0.55010999   -5.4319672   -5.4319672   -4.6068041 -0.0011622253   -5.4319672   0.82516311   439061 
 3323000   0.55115764   -5.4329866   -5.4329866    -4.606252 -0.0029369977   -5.4329866   0.82673457   439061 
 3324000    0.5505991   -5.4325194   -5.4325194   -4.6066226 0.0014284031   -5.4325194   0.82589676   439061 
 3325000   0.55082268   -5.4326169   -5.4326169   -4.6063848 0.0012926686   -5.4326169   0.82623214   439061 
 3326000    0.5511015   -5.4326483   -5.4326483   -4.6059979 -8.3578048e-06   -5.4326483   0.82665037   439061 
 3327000   0.55010906   -5.4311632   -5.4311632   -4.6060015  0.002825812   -5.4311632   0.82516171   439061 
 3328000   0.55071851   -5.4326558   -5.4326558   -4.6065799 -0.0020418502   -5.4326558   0.82607589   439061 
 3329000   0.55084745   -5.4324155   -5.4324155   -4.6061462 -0.0027335409   -5.4324155    0.8262693   439061 
 3330000   0.55054327   -5.4324524   -5.4324524   -4.6066393 -0.00091000375   -5.4324524   0.82581302   439061 
 3331000   0.55073687   -5.4324674   -5.4324674    -4.606364 0.00035618896   -5.4324674   0.82610342   439061 
 3332000    0.5497329   -5.4310512   -5.4310512   -4.6064538 0.00056637307   -5.4310512   0.82459748   439061 
 3333000   0.55132237   -5.4339047   -5.4339047   -4.6069231 -0.0063859624   -5.4339047   0.82698167   439061 
 3334000   0.55137693    -5.432981    -5.432981   -4.6059175 -0.00047945403    -5.432981   0.82706352   439061 
 3335000   0.55093009   -5.4333166   -5.4333166   -4.6069234 0.0033082148   -5.4333166   0.82639325   439061 
 3336000   0.55051129   -5.4331778   -5.4331778   -4.6074127 -0.003843603   -5.4331778   0.82576506   439061 
 3337000   0.54993481   -5.4319215   -5.4319215   -4.6070211 -0.00042900408   -5.4319215   0.82490034   439061 
 3338000   0.54978655    -5.432897    -5.432897    -4.608219 -0.0023300269    -5.432897   0.82467794   439061 
 3339000   0.55067921   -5.4339964   -5.4339964   -4.6079794 0.00089014665   -5.4339964   0.82601693   439061 
 3340000   0.55039032   -5.4331934   -5.4331934   -4.6076098 -0.0030302292   -5.4331934    0.8255836   439061 
 3341000   0.55070131   -5.4339474   -5.4339474   -4.6078973 -0.0027457348   -5.4339474   0.82605008   439061 
 3342000   0.55137531    -5.435311    -5.435311   -4.6082499 -0.0031956418    -5.435311   0.82706107   439061 
 3343000   0.55022791   -5.4332818   -5.4332818   -4.6079418 0.0027425211   -5.4332818   0.82533998   439061 
 3344000    0.5511193   -5.4341674   -5.4341674   -4.6074903 -0.0010937051   -5.4341674   0.82667707   439061 
 3345000   0.54946529   -5.4312343   -5.4312343   -4.6070383 0.0030463393   -5.4312343   0.82419605   439061 
 3346000    0.5506705   -5.4328603   -5.4328603   -4.6068564 0.00069006519   -5.4328603   0.82600387   439061 
 3347000   0.55019658   -5.4334384   -5.4334384   -4.6081454 -5.9212647e-05   -5.4334384   0.82529299   439061 
 3348000   0.55160686   -5.4350845   -5.4350845    -4.607676 -0.0034573471   -5.4350845   0.82740841   439061 
 3349000    0.5510293   -5.4333017   -5.4333017   -4.6067596 -0.0019798127   -5.4333017   0.82654207   439061 
 3350000   0.55087319   -5.4330631   -5.4330631   -4.6067552 0.00062367915   -5.4330631    0.8263079   439061 
 3351000   0.54950969   -5.4313389   -5.4313389   -4.6070762 0.0034306323   -5.4313389   0.82426266   439061 
 3352000   0.55005366   -5.4322987   -5.4322987   -4.6072201 -0.0034711115   -5.4322987   0.82507861   439061 
 3353000   0.55018033   -5.4326984   -5.4326984   -4.6074298 -0.0087779556   -5.4326984   0.82526862   439061 
 3354000   0.54988576    -5.431928    -5.431928   -4.6071012 -0.0016869852    -5.431928   0.82482677   439061 
 3355000   0.54965326   -5.4332448   -5.4332448   -4.6087668 0.0040845705   -5.4332448   0.82447801   439061 
 3356000   0.55089233   -5.4341126   -5.4341126    -4.607776 0.00095912382   -5.4341126   0.82633662   439061 
 3357000   0.55057829   -5.4341502   -5.4341502   -4.6082847 0.0022757524   -5.4341502   0.82586556   439061 
 3358000    0.5502751   -5.4339277   -5.4339277    -4.608517 0.0059797181   -5.4339277   0.82541077   439061 
 3359000    0.5500275   -5.4333765   -5.4333765   -4.6083371 0.0051240884   -5.4333765   0.82503937   439061 
 3360000   0.55038374   -5.4335199   -5.4335199   -4.6079461 0.0030327569   -5.4335199   0.82557373   439061 
 3361000   0.55125768   -5.4341342   -5.4341342   -4.6072495 -0.00044589573   -5.4341342   0.82688464   439061 
 3362000   0.55044133   -5.4330002   -5.4330002     -4.60734 -0.00033537501   -5.4330002   0.82566012   439061 
 3363000   0.54980492   -5.4323008   -5.4323008   -4.6075953 -0.0073074633   -5.4323008    0.8247055   439061 
 3364000    0.5495367   -5.4320685   -5.4320685   -4.6077654 -0.010514457   -5.4320685   0.82430317   439061 
 3365000   0.54880815   -5.4310387   -5.4310387   -4.6078283 -0.0064213979   -5.4310387   0.82321035   439061 
 3366000   0.55024525   -5.4328099   -5.4328099   -4.6074439 -0.0041944772   -5.4328099     0.825366   439061 
 3367000   0.54984701   -5.4330019   -5.4330019   -4.6082333 -0.0021142217   -5.4330019   0.82476863   439061 
 3368000   0.55063777   -5.4343658   -5.4343658    -4.608411  0.002088957   -5.4343658   0.82595478   439061 
 3369000   0.55098964   -5.4354733   -5.4354733   -4.6089908 0.0060410546   -5.4354733   0.82648258   439061 
 3370000   0.55077478   -5.4340739   -5.4340739   -4.6079136   0.01184851   -5.4340739   0.82616028   439061 
 3371000   0.55083229   -5.4357745   -5.4357745   -4.6095279 0.0066456542   -5.4357745   0.82624655   439061 
 3372000   0.55013136   -5.4349355   -5.4349355   -4.6097403 0.0056458769   -5.4349355   0.82519516   439061 
 3373000   0.54962619   -5.4347904   -5.4347904    -4.610353 -0.0041526063   -5.4347904   0.82443741   439061 
 3374000   0.54953612    -5.433692    -5.433692   -4.6093897 -0.0045829023    -5.433692    0.8243023   439061 
 3375000    0.5492969   -5.4335586   -5.4335586   -4.6096151 -0.0050386252   -5.4335586   0.82394347   439061 
 3376000   0.55059205   -5.4356024   -5.4356024   -4.6097162 -0.0027448107   -5.4356024   0.82588619   439061 
 3377000   0.54931585   -5.4332232   -5.4332232   -4.6092513 -0.0025520008   -5.4332232   0.82397189   439061 
 3378000   0.55070964   -5.4349848   -5.4349848   -4.6089223 -0.0023806977   -5.4349848   0.82606258   439061 
 3379000   0.55018443   -5.4342517   -5.4342517    -4.608977 -0.00020563321   -5.4342517   0.82527477   439061 
 3380000   0.55092048   -5.4348766   -5.4348766   -4.6084977 0.0036277765   -5.4348766   0.82637884   439061 
 3381000   0.55031248   -5.4345487   -5.4345487   -4.6090818 0.0020606218   -5.4345487   0.82546684   439061 
 3382000   0.55110065   -5.4351182   -5.4351182   -4.6084691 0.0051133324   -5.4351182   0.82664909   439061 
 3383000   0.55102995   -5.4350603   -5.4350603   -4.6085172 0.0014516391   -5.4350603   0.82654305   439061 
 3384000   0.54968663   -5.4330178   -5.4330178   -4.6084897 0.00027382692   -5.4330178   0.82452806   439061 
 3385000   0.55006406   -5.4337896   -5.4337896   -4.6086954 -0.0063771764   -5.4337896   0.82509421   439061 
 3386000   0.55050634   -5.4333025   -5.4333025   -4.6075448 -0.0037406682   -5.4333025   0.82575763   439061 
 3387000    0.5507934   -5.4335818   -5.4335818   -4.6073936 -0.00051465752   -5.4335818   0.82618821   439061 
 3388000   0.54965386   -5.4321734   -5.4321734   -4.6076945 -0.0023824067   -5.4321734   0.82447891   439061 
 3389000   0.55035848   -5.4335754   -5.4335754   -4.6080396 -0.0026790478   -5.4335754   0.82553584   439061 
 3390000   0.55122297   -5.4347562   -5.4347562   -4.6079236 -0.0013004177   -5.4347562   0.82683257   439061 
 3391000   0.55022162   -5.4342143   -5.4342143   -4.6088837 0.0016176352   -5.4342143   0.82533054   439061 
 3392000    0.5508851    -5.434921    -5.434921   -4.6085952 -0.0092406158    -5.434921   0.82632577   439061 
 3393000    0.5490166   -5.4335121   -5.4335121   -4.6099891 -6.1664925e-05   -5.4335121   0.82352303   439061 
 3394000   0.55040521   -5.4355091   -5.4355091   -4.6099031 0.00054905549   -5.4355091   0.82560593   439061 
 3395000   0.55012531   -5.4345162   -5.4345162   -4.6093301 0.0036739809   -5.4345162   0.82518609   439061 
 3396000   0.55135911    -5.436411    -5.436411   -4.6093742 -0.0019381034    -5.436411   0.82703678   439061 
 3397000   0.54989654    -5.434094    -5.434094   -4.6092511 0.0020080181    -5.434094   0.82484293   439061 
 3398000   0.55086032   -5.4357932   -5.4357932   -4.6095046 0.0053703233   -5.4357932    0.8262886   439061 
 3399000    0.5506264   -5.4344389   -5.4344389   -4.6085012 0.0026308291   -5.4344389   0.82593772   439061 
 3400000    0.5495307   -5.4333744   -5.4333744   -4.6090802 0.00060892853   -5.4333744   0.82429417   439061 
 3401000   0.55024793   -5.4347692   -5.4347692   -4.6093992 -0.0022949073   -5.4347692   0.82537001   439061 
 3402000    0.5495863   -5.4332106   -5.4332106    -4.608833 1.3241183e-05   -5.4332106   0.82437757   439061 
 3403000    0.5509035   -5.4345659   -5.4345659   -4.6082125 -0.0030424998   -5.4345659   0.82635337   439061 
 3404000   0.55034395   -5.4324521   -5.4324521   -4.6069381 -0.0011574647   -5.4324521   0.82551405   439061 
 3405000   0.54981253   -5.4321332   -5.4321332   -4.6074163 0.0017561329   -5.4321332   0.82471691   439061 
 3406000   0.55041762   -5.4337547   -5.4337547   -4.6081302 -0.001311596   -5.4337547   0.82562455   439061 
 3407000   0.55087157   -5.4347999   -5.4347999   -4.6084944 -0.0034020342   -5.4347999   0.82630547   439061 
 3408000   0.55090735   -5.4351221   -5.4351221    -4.608763 -0.0043676092   -5.4351221   0.82635915   439061 
 3409000   0.55043181   -5.4337865   -5.4337865   -4.6081406 0.0021519058   -5.4337865   0.82564583   439061 
 3410000   0.55008046    -5.434343    -5.434343   -4.6092241 0.0014894057    -5.434343   0.82511882   439061 
 3411000   0.55096455   -5.4356405   -5.4356405   -4.6091956 -0.0040557553   -5.4356405   0.82644495   439061 
 3412000   0.55075801   -5.4347405   -5.4347405   -4.6086054 0.0032994518   -5.4347405   0.82613513   439061 
 3413000   0.55096975   -5.4356415   -5.4356415   -4.6091888 -0.0034906475   -5.4356415   0.82645275   439061 
 3414000   0.55046046   -5.4348566   -5.4348566   -4.6091678 0.00031052642   -5.4348566   0.82568881   439061 
 3415000   0.54925844   -5.4333008   -5.4333008    -4.609415 -0.001305363   -5.4333008   0.82388579   439061 
 3416000   0.55109935    -5.435653    -5.435653   -4.6090059 -0.0037029727    -5.435653   0.82664714   439061 
 3417000   0.55059724   -5.4343559   -5.4343559    -4.608462 0.0018502124   -5.4343559   0.82589398   439061 
 3418000   0.55085982   -5.4350606   -5.4350606   -4.6087728 -0.004951947   -5.4350606   0.82628784   439061 
 3419000   0.55036854   -5.4352547   -5.4352547   -4.6097038 -0.0044986739   -5.4352547   0.82555093   439061 
 3420000    0.5505139   -5.4345799   -5.4345799    -4.608811 -0.00013391532   -5.4345799   0.82576897   439061 
 3421000   0.55073699   -5.4355615   -5.4355615   -4.6094579 -0.0041989431   -5.4355615    0.8261036   439061 
 3422000   0.55139708   -5.4359486   -5.4359486   -4.6088549 -0.00093128176   -5.4359486   0.82709374   439061 
 3423000   0.55054236     -5.43499     -5.43499   -4.6091783 -0.00021980889     -5.43499   0.82581165   439061 
 3424000   0.55066393   -5.4351007   -5.4351007   -4.6091067 0.0038148708   -5.4351007   0.82599401   439061 
 3425000   0.54945601   -5.4340241   -5.4340241    -4.609842 -0.0027772461   -5.4340241   0.82418214   439061 
 3426000   0.55027088   -5.4340484   -5.4340484    -4.608644 -0.0021520149   -5.4340484   0.82540444   439061 
 3427000   0.54957367   -5.4332749   -5.4332749   -4.6089162 -0.00024423882   -5.4332749   0.82435863   439061 
 3428000   0.55064708   -5.4340089   -5.4340089   -4.6080402 0.0012062082   -5.4340089   0.82596875   439061 
 3429000   0.55091885   -5.4340374   -5.4340374    -4.607661 -0.0030599218   -5.4340374    0.8263764   439061 
 3430000   0.55069921    -5.432122    -5.432122   -4.6060751 0.0036020462    -5.432122   0.82604694   439061 
 3431000   0.55068814   -5.4329423   -5.4329423    -4.606912 0.0010469502   -5.4329423   0.82603033   439061 
 3432000   0.54943174   -5.4314898   -5.4314898   -4.6073441  0.001198943   -5.4314898   0.82414573   439061 
 3433000   0.55087645    -5.433118    -5.433118   -4.6068052 -0.0045064178    -5.433118   0.82631279   439061 
 3434000   0.55007011   -5.4314318   -5.4314318   -4.6063286 -0.00082804921   -5.4314318   0.82510329   439061 
 3435000   0.55067768   -5.4317378   -5.4317378   -4.6057232 -0.00095184818   -5.4317378   0.82601463   439061 
 3436000    0.5502678   -5.4321143   -5.4321143   -4.6067145 -0.003263936   -5.4321143   0.82539982   439061 
 3437000   0.55171853   -5.4331382   -5.4331382   -4.6055623 -0.0018874741   -5.4331382   0.82757591   439061 
 3438000   0.55102056   -5.4321834   -5.4321834   -4.6056545 -0.0011278641   -5.4321834   0.82652896   439061 
 3439000   0.55010242   -5.4309731   -5.4309731   -4.6058214 -0.0006356674   -5.4309731   0.82515174   439061 
 3440000   0.54989392   -5.4314605   -5.4314605   -4.6066215 -0.0035105407   -5.4314605   0.82483901   439061 
 3441000   0.55096162   -5.4335537   -5.4335537   -4.6071132 -0.0021821149   -5.4335537   0.82644055   439061 
 3442000    0.5500347   -5.4314916   -5.4314916   -4.6064414 0.0051945956   -5.4314916   0.82505017   439061 
 3443000   0.55093974   -5.4336814   -5.4336814   -4.6072737 0.0006886081   -5.4336814   0.82640773   439061 
 3444000   0.55116113   -5.4333047   -5.4333047   -4.6065649 0.0012379188   -5.4333047   0.82673981   439061 
 3445000   0.55098031   -5.4330829   -5.4330829   -4.6066144 0.0024324108   -5.4330829   0.82646858   439061 
 3446000   0.55026813   -5.4323401   -5.4323401   -4.6069398 0.0029672968   -5.4323401   0.82540031   439061 
 3447000   0.55074003   -5.4334026   -5.4334026   -4.6072944 -0.0028555595   -5.4334026   0.82610817   439061 
 3448000   0.55036638   -5.4339666   -5.4339666   -4.6084189 -0.005516924   -5.4339666   0.82554769   439061 
 3449000   0.54975662   -5.4331886   -5.4331886   -4.6085555 -0.0035140036   -5.4331886   0.82463305   439061 
 3450000   0.54963197   -5.4320525   -5.4320525   -4.6076064 -0.00068405786   -5.4320525   0.82444607   439061 
 3451000   0.55003801   -5.4330523   -5.4330523   -4.6079971 -0.0039233129   -5.4330523   0.82505514   439061 
 3452000   0.55017105   -5.4327494   -5.4327494   -4.6074947 -0.00086193326   -5.4327494    0.8252547   439061 
 3453000   0.55120927   -5.4351943   -5.4351943   -4.6083823 5.0912643e-05   -5.4351943   0.82681202   439061 
 3454000   0.55182161   -5.4352118   -5.4352118   -4.6074812 0.0041535554   -5.4352118   0.82773053   439061 
 3455000   0.55068748   -5.4332143   -5.4332143   -4.6071849 0.0091574652   -5.4332143   0.82602933   439061 
 3456000   0.55042453   -5.4328808   -5.4328808   -4.6072459 0.0030291309   -5.4328808   0.82563491   439061 
 3457000   0.55066432   -5.4335622   -5.4335622   -4.6075676 0.0041308762   -5.4335622    0.8259946   439061 
 3458000   0.55094594   -5.4340753   -5.4340753   -4.6076582 -0.00047001545   -5.4340753   0.82641703   439061 
 3459000   0.54979977   -5.4317292   -5.4317292   -4.6070314 -0.0017555795   -5.4317292   0.82469778   439061 
 3460000   0.55007086   -5.4327401   -5.4327401   -4.6076356 -0.0068755105   -5.4327401   0.82510441   439061 
 3461000   0.54893089   -5.4315048   -5.4315048   -4.6081104 -0.0051899599   -5.4315048   0.82339446   439061 
 3462000   0.54990975   -5.4328962   -5.4328962   -4.6080334 -0.0044746058   -5.4328962   0.82486275   439061 
 3463000    0.5497803   -5.4334837   -5.4334837   -4.6088151 -0.001877769   -5.4334837   0.82466857   439061 
 3464000   0.55071853   -5.4343879   -5.4343879    -4.608312 0.0040871781   -5.4343879   0.82607591   439061 
 3465000   0.55111381   -5.4359343   -5.4359343   -4.6092654 0.00072512152   -5.4359343   0.82666883   439061 
 3466000   0.55025111   -5.4348501   -5.4348501   -4.6094753 0.0015473753   -5.4348501   0.82537478   439061 
 3467000   0.55057773   -5.4356453   -5.4356453   -4.6097806 0.0054506832   -5.4356453   0.82586472   439061 
 3468000   0.55019064   -5.4351557   -5.4351557   -4.6098716 0.0079078547   -5.4351557   0.82528407   439061 
 3469000   0.55007116   -5.4354689   -5.4354689    -4.610364  -0.00132181   -5.4354689   0.82510486   439061 
 3470000   0.54878825    -5.433974    -5.433974   -4.6107935 0.0031875769    -5.433974    0.8231805   439061 
 3471000    0.5499829   -5.4364577   -5.4364577   -4.6114852 -0.0047123929   -5.4364577   0.82497247   439061 
 3472000   0.55102205   -5.4364953   -5.4364953   -4.6099641 -0.0058846291   -5.4364953   0.82653119   439061 
 3473000    0.5504212   -5.4357681   -5.4357681   -4.6101382 -0.0036733788   -5.4357681   0.82562992   439061 
 3474000   0.55078233   -5.4354434   -5.4354434   -4.6092718 -0.0018158511   -5.4354434   0.82617162   439061 
 3475000   0.54984552   -5.4345659   -5.4345659   -4.6097995 0.0026035257   -5.4345659   0.82476641   439061 
 3476000   0.55046875   -5.4356349   -5.4356349   -4.6099336 0.00093412755   -5.4356349   0.82570124   439061 
 3477000   0.55098477   -5.4359613   -5.4359613    -4.609486 -0.0008649971   -5.4359613   0.82647527   439061 
 3478000   0.55092969   -5.4352958   -5.4352958   -4.6089032 0.0018141378   -5.4352958   0.82639265   439061 
 3479000   0.55000555   -5.4341971   -5.4341971   -4.6091906 0.00069088356   -5.4341971   0.82500644   439061 
 3480000   0.54999589   -5.4340106   -5.4340106   -4.6090187 -0.0031965821   -5.4340106   0.82499195   439061 
 3481000    0.5493584   -5.4333046   -5.4333046   -4.6092689 -0.0032042912   -5.4333046   0.82403573   439061 
 3482000   0.54968941    -5.433813    -5.433813   -4.6092808 -0.0065872829    -5.433813   0.82453224   439061 
 3483000   0.55094241   -5.4355216   -5.4355216   -4.6091099 -0.0086871633   -5.4355216   0.82641173   439061 
 3484000   0.55040529   -5.4337522   -5.4337522   -4.6081461 -0.0011464899   -5.4337522   0.82560606   439061 
 3485000   0.55148622   -5.4361678   -5.4361678   -4.6089404 0.00012349266   -5.4361678   0.82722745   439061 
 3486000   0.55049184   -5.4355785   -5.4355785   -4.6098426 0.00035882505   -5.4355785   0.82573588   439061 
 3487000   0.55033846    -5.435821    -5.435821   -4.6103152 -0.00050021364    -5.435821   0.82550582   439061 
 3488000   0.54966588   -5.4348385   -5.4348385   -4.6103416 0.0020839817   -5.4348385   0.82449695   439061 
 3489000   0.55105416   -5.4363439   -5.4363439   -4.6097645 0.0039198791   -5.4363439   0.82657936   439061 
 3490000   0.55048624   -5.4362425   -5.4362425   -4.6105151 0.0007528006   -5.4362425   0.82572748   439061 
 3491000    0.5491767   -5.4350746   -5.4350746   -4.6113114 -0.00023175619   -5.4350746   0.82376317   439061 
 3492000    0.5489308   -5.4342092   -5.4342092   -4.6108148 -0.0017050145   -5.4342092   0.82339433   439061 
 3493000   0.55030863   -5.4362722   -5.4362722   -4.6108111 -0.0011126471   -5.4362722   0.82546106   439061 
 3494000   0.54986226   -5.4348443   -5.4348443   -4.6100528 0.0010127792   -5.4348443   0.82479152   439061 
 3495000   0.55057965   -5.4356018   -5.4356018   -4.6097342 -0.0013919429   -5.4356018   0.82586759   439061 
 3496000   0.55022232   -5.4350383   -5.4350383   -4.6097067 0.00071124409   -5.4350383    0.8253316   439061 
 3497000   0.54981195   -5.4343129   -5.4343129   -4.6095969 3.1136531e-05   -5.4343129   0.82471604   439061 
 3498000   0.55002886   -5.4339905   -5.4339905   -4.6089491 -0.0011844414   -5.4339905   0.82504142   439061 
 3499000   0.55041979   -5.4347699   -5.4347699   -4.6091421 -0.0019265682   -5.4347699    0.8256278   439061 
 3500000   0.55016019   -5.4334542   -5.4334542   -4.6082158 -0.00064944093   -5.4334542   0.82523841   439061 
 3501000    0.5498168   -5.4336103   -5.4336103    -4.608887 -0.0012134425   -5.4336103   0.82472332   439061 
 3502000   0.55100613   -5.4357022   -5.4357022   -4.6091949 -0.005691695   -5.4357022   0.82650731   439061 
 3503000    0.5501635   -5.4346039   -5.4346039   -4.6093605 0.0014444515   -5.4346039   0.82524336   439061 
 3504000   0.55009362   -5.4335521   -5.4335521   -4.6084135 -0.0015286319   -5.4335521   0.82513856   439061 
 3505000   0.54938691   -5.4327191   -5.4327191   -4.6086406 0.00059433845   -5.4327191   0.82407849   439061 
 3506000   0.54986922    -5.433355    -5.433355    -4.608553   0.00191814    -5.433355   0.82480196   439061 
 3507000   0.55007475   -5.4339252   -5.4339252    -4.608815 0.0024007675   -5.4339252   0.82511024   439061 
 3508000   0.55127405   -5.4346493   -5.4346493   -4.6077401 -0.0030635103   -5.4346493   0.82690919   439061 
 3509000   0.55033266   -5.4326981   -5.4326981    -4.607201 0.00022812573   -5.4326981    0.8254971   439061 
 3510000    0.5508837   -5.4340313   -5.4340313   -4.6077076 0.00093948593   -5.4340313   0.82632367   439061 
 3511000   0.54860244   -5.4310665   -5.4310665   -4.6081647 0.0014782961   -5.4310665   0.82290179   439061 
 3512000   0.55073379   -5.4344551   -5.4344551   -4.6083563 -0.0089206248   -5.4344551    0.8260988   439061 
 3513000    0.5490146   -5.4319453   -5.4319453   -4.6084253 -3.1495976e-05   -5.4319453   0.82352002   439061 
 3514000   0.55057389   -5.4333657   -5.4333657   -4.6075068 -0.003570041   -5.4333657   0.82585895   439061 
 3515000   0.54987444   -5.4329372   -5.4329372   -4.6081274 0.0013303899   -5.4329372   0.82480977   439061 
 3516000   0.55030718   -5.4338139   -5.4338139    -4.608355 0.0017781391   -5.4338139   0.82545889   439061 
 3517000   0.55044081   -5.4336643   -5.4336643   -4.6080049 0.0048182515   -5.4336643   0.82565933   439061 
 3518000   0.55054897   -5.4338895   -5.4338895   -4.6080679 0.0018420521   -5.4338895   0.82582158   439061 
 3519000    0.5499692   -5.4336456   -5.4336456   -4.6086937 -0.00038240964   -5.4336456   0.82495192   439061 
 3520000   0.54977867   -5.4337321   -5.4337321    -4.609066 -5.439005e-05   -5.4337321   0.82466613   439061 
 3521000    0.5502548   -5.4336659   -5.4336659   -4.6082855 0.0011241173   -5.4336659   0.82538032   439061 
 3522000   0.55029734    -5.433036    -5.433036   -4.6075919 -0.0034026721    -5.433036   0.82544412   439061 
 3523000   0.55052726   -5.4334285   -5.4334285   -4.6076395 -0.0044174166   -5.4334285   0.82578902   439061 
 3524000   0.55062221   -5.4338005   -5.4338005   -4.6078691 -0.0014594051   -5.4338005   0.82593144   439061 
 3525000   0.54977363   -5.4337753   -5.4337753   -4.6091167 -0.0020713851   -5.4337753   0.82465857   439061 
 3526000   0.55035494   -5.4344173   -5.4344173   -4.6088868 -0.0036662334   -5.4344173   0.82553053   439061 
 3527000    0.5501402    -5.433851    -5.433851   -4.6086426 0.0014479364    -5.433851   0.82520842   439061 
 3528000   0.55048331   -5.4344534   -5.4344534   -4.6087303 0.0037325953   -5.4344534   0.82572308   439061 
 3529000   0.55039086   -5.4332335   -5.4332335    -4.607649  0.004745138   -5.4332335   0.82558441   439061 
 3530000    0.5502145   -5.4330832   -5.4330832   -4.6077633 0.0033487697   -5.4330832   0.82531987   439061 
 3531000   0.55130009   -5.4342062   -5.4342062    -4.607258 0.00074459167   -5.4342062   0.82694825   439061 
 3532000   0.55082556   -5.4320965   -5.4320965   -4.6058601 -0.0015253122   -5.4320965   0.82623646   439061 
 3533000   0.54905637   -5.4299722   -5.4299722   -4.6063895 0.0012299023   -5.4299722   0.82358268   439061 
 3534000   0.55046257   -5.4322121   -5.4322121   -4.6065201 -0.0047735373   -5.4322121   0.82569197   439061 
 3535000   0.55076151    -5.432047    -5.432047   -4.6059066 -0.010105167    -5.432047   0.82614038   439061 
 3536000   0.54901233   -5.4299977   -5.4299977   -4.6064811 -0.0082081944   -5.4299977   0.82351662   439061 
 3537000   0.54941086   -5.4309225   -5.4309225   -4.6068081 -0.0015806696   -5.4309225   0.82411441   439061 
 3538000   0.55059273   -5.4329448   -5.4329448   -4.6070576 -0.0044473408   -5.4329448   0.82588721   439061 
 3539000   0.55069594   -5.4322634   -5.4322634   -4.6062214 0.0033068165   -5.4322634   0.82604203   439061 
 3540000   0.55241635    -5.434765    -5.434765   -4.6061424 0.0034710739    -5.434765   0.82862263   439061 
 3541000   0.55089654   -5.4340644   -5.4340644   -4.6077214 0.0065834145   -5.4340644   0.82634293   439061 
 3542000   0.55092024   -5.4339026   -5.4339026   -4.6075242 0.0041263076   -5.4339026   0.82637848   439061 
 3543000   0.55121311   -5.4346025   -5.4346025   -4.6077848 0.0044649962   -5.4346025   0.82681778   439061 
 3544000   0.54930904    -5.432354    -5.432354   -4.6083923 0.0011390679    -5.432354   0.82396169   439061 
 3545000   0.54943653   -5.4330162   -5.4330162   -4.6088633 -0.008483867   -5.4330162   0.82415291   439061 
 3546000   0.54954869   -5.4338164   -5.4338164   -4.6094952 -0.0031521104   -5.4338164   0.82432115   439061 
 3547000   0.54951576   -5.4330125   -5.4330125   -4.6087407 -0.0047175839   -5.4330125   0.82427176   439061 
 3548000   0.54971419   -5.4335869   -5.4335869   -4.6090174 -0.0036659036   -5.4335869   0.82456941   439061 
 3549000   0.55068085   -5.4335326   -5.4335326   -4.6075132 2.0706549e-05   -5.4335326    0.8260194   439061 
 3550000   0.55236113   -5.4360607   -5.4360607   -4.6075209 0.0026686168   -5.4360607   0.82853981   439061 
 3551000   0.55028153    -5.432844    -5.432844   -4.6074236 0.0098897335    -5.432844   0.82542042   439061 
 3552000   0.55201884   -5.4353686   -5.4353686   -4.6073422 -0.0022241736   -5.4353686   0.82802638   439061 
 3553000   0.55234177   -5.4356677   -5.4356677   -4.6071569 0.00085812536   -5.4356677   0.82851077   439061 
 3554000   0.55048941   -5.4330772   -5.4330772    -4.607345 -0.00079011762   -5.4330772   0.82573223   439061 
 3555000   0.54969068   -5.4319648   -5.4319648   -4.6074306 -0.0049988568   -5.4319648   0.82453414   439061 
 3556000   0.54910126   -5.4310273   -5.4310273   -4.6073773 -0.0070914117   -5.4310273   0.82365001   439061 
 3557000   0.54947374   -5.4317724   -5.4317724   -4.6075637 -0.005098335   -5.4317724   0.82420874   439061 
 3558000   0.55059402   -5.4332405   -5.4332405   -4.6073514 -0.0033696717   -5.4332405   0.82588914   439061 
 3559000   0.55080328   -5.4337515   -5.4337515   -4.6075484 -0.0043464661   -5.4337515   0.82620304   439061 
 3560000   0.55129643   -5.4348779   -5.4348779   -4.6079351 0.0028532123   -5.4348779   0.82694276   439061 
 3561000   0.55067712   -5.4342615   -5.4342615   -4.6082476 0.0048741909   -5.4342615    0.8260138   439061 
 3562000   0.55109662   -5.4346002   -5.4346002   -4.6079571 0.0074172204   -5.4346002   0.82664305   439061 
 3563000   0.55095431   -5.4348071   -5.4348071   -4.6083776 0.0056587221   -5.4348071   0.82642959   439061 
 3564000   0.55119601   -5.4350873   -5.4350873   -4.6082952 0.0031022769   -5.4350873   0.82679213   439061 
 3565000   0.55097205    -5.434498    -5.434498   -4.6080418 0.00084368284    -5.434498   0.82645619   439061 
 3566000   0.54958303     -5.43173     -5.43173   -4.6073573 -0.0034112157     -5.43173   0.82437267   439061 
 3567000   0.55055751   -5.4327825   -5.4327825   -4.6069481 -0.0048673898   -5.4327825   0.82583438   439061 
 3568000   0.55096721   -5.4327503   -5.4327503   -4.6063013 -0.0030769136   -5.4327503   0.82644893   439061 
 3569000   0.55096085   -5.4317428   -5.4317428   -4.6053034 -0.0050382009   -5.4317428    0.8264394   439061 
 3570000   0.54968392   -5.4305594   -5.4305594   -4.6060354 -0.0012432239   -5.4305594   0.82452401   439061 
 3571000   0.54955968    -5.431142    -5.431142   -4.6068044 -0.0011710803    -5.431142   0.82433764   439061 
 3572000    0.5502635    -5.432981    -5.432981   -4.6075877 -0.0027611846    -5.432981   0.82539337   439061 
 3573000    0.5489126    -5.430931    -5.430931    -4.607564 -0.000561813    -5.430931   0.82336702   439061 
 3574000   0.55121046   -5.4328157   -5.4328157   -4.6060019 0.0015425213   -5.4328157   0.82681381   439061 
 3575000   0.55165957   -5.4331694   -5.4331694   -4.6056819 0.0057276894   -5.4331694   0.82748747   439061 
 3576000   0.55147418   -5.4329581   -5.4329581   -4.6057487 0.0043034887   -5.4329581   0.82720938   439061 
 3577000   0.55085117    -5.432514    -5.432514   -4.6062391 -0.00067876345    -5.432514   0.82627488   439061 
 3578000   0.54930045   -5.4312849   -5.4312849   -4.6073361 -0.0012704354   -5.4312849    0.8239488   439061 
 3579000   0.55018417   -5.4327867   -5.4327867   -4.6075124 -0.0018102731   -5.4327867   0.82527438   439061 
 3580000   0.55016306    -5.432211    -5.432211   -4.6069683 -0.0010092777    -5.432211   0.82524271   439061 
 3581000    0.5505039   -5.4327723   -5.4327723   -4.6070183 -0.0055623177   -5.4327723   0.82575398   439061 
 3582000   0.55051601   -5.4324291   -5.4324291    -4.606657 -0.0029340357   -5.4324291   0.82577213   439061 
 3583000   0.55021662   -5.4323145   -5.4323145   -4.6069915 -8.7142667e-05   -5.4323145   0.82532305   439061 
 3584000   0.55125461   -5.4329138   -5.4329138   -4.6060337 0.0022221137   -5.4329138   0.82688003   439061 
 3585000   0.55087592   -5.4331836   -5.4331836   -4.6068716 0.0025792001   -5.4331836     0.826312   439061 
 3586000   0.54972489    -5.431912    -5.431912   -4.6073265 0.00091196909    -5.431912   0.82458546   439061 
 3587000   0.55029468   -5.4339221   -5.4339221   -4.6084819 -0.0060306452   -5.4339221   0.82544014   439061 
 3588000    0.5498976    -5.433839    -5.433839   -4.6089945 6.6350424e-05    -5.433839   0.82484452   439061 
 3589000   0.55111792   -5.4351707   -5.4351707   -4.6084957 -0.0020429049   -5.4351707     0.826675   439061 
 3590000   0.55110911   -5.4352691   -5.4352691   -4.6086073 -0.0017248368   -5.4352691   0.82666178   439061 
 3591000   0.54926944   -5.4324478   -5.4324478   -4.6085456 0.0045461825   -5.4324478   0.82390228   439061 
 3592000   0.55079592   -5.4343442   -5.4343442   -4.6081522 0.0031088677   -5.4343442   0.82619199   439061 
 3593000   0.55153582   -5.4345605   -5.4345605   -4.6072586 0.0026844451   -5.4345605   0.82730185   439061 
 3594000   0.55071308   -5.4336359   -5.4336359   -4.6075681 0.0015000063   -5.4336359   0.82606775   439061 
 3595000   0.55045983   -5.4332207   -5.4332207   -4.6075328 -0.00045142631   -5.4332207   0.82568786   439061 
 3596000    0.5502044   -5.4326186   -5.4326186   -4.6073139 -0.0022589844   -5.4326186   0.82530471   439061 
 3597000   0.54954598   -5.4332049   -5.4332049   -4.6088878 -0.0032247517   -5.4332049   0.82431709   439061 
 3598000   0.54988118   -5.4325163   -5.4325163   -4.6076964 -0.0013936225   -5.4325163   0.82481989   439061 
 3599000   0.55104532   -5.4343599   -5.4343599   -4.6077937 -0.0034923336   -5.4343599    0.8265661   439061 
 3600000   0.55034985    -5.432707    -5.432707   -4.6071841 0.0016869128    -5.432707    0.8255229   439061 
 3601000   0.55129293   -5.4348149   -5.4348149   -4.6078774 -0.003225526   -5.4348149   0.82693751   439061 
 3602000   0.55080681   -5.4331317   -5.4331317   -4.6069234 -0.00060067908   -5.4331317   0.82620834   439061 
 3603000   0.55183972    -5.434503    -5.434503   -4.6067453 -0.00092833811    -5.434503   0.82775769   439061 
 3604000   0.55049557   -5.4334393   -5.4334393   -4.6076978 0.0033315718   -5.4334393   0.82574147   439061 
 3605000   0.54981252   -5.4335591   -5.4335591   -4.6088422 -0.00022162547   -5.4335591    0.8247169   439061 
 3606000   0.54993858   -5.4337444   -5.4337444   -4.6088384 -0.0039149894   -5.4337444   0.82490599   439061 
 3607000   0.54881688   -5.4319898   -5.4319898   -4.6087664 -0.0024859632   -5.4319898   0.82322344   439061 
 3608000    0.5493308   -5.4320488   -5.4320488   -4.6080545  0.002286948   -5.4320488   0.82399433   439061 
 3609000   0.55062815   -5.4334807   -5.4334807   -4.6075403 0.0012955636   -5.4334807   0.82594035   439061 
 3610000   0.55015614   -5.4336868   -5.4336868   -4.6084544 -0.0017749759   -5.4336868   0.82523233   439061 
 3611000   0.55026572   -5.4343566   -5.4343566   -4.6089599 -0.0018503278   -5.4343566    0.8253967   439061 
 3612000   0.55033058   -5.4344961   -5.4344961   -4.6090021 -0.00066177078   -5.4344961     0.825494   439061 
 3613000   0.55030069   -5.4350151   -5.4350151    -4.609566 4.6307124e-05   -5.4350151   0.82544915   439061 
 3614000   0.54950983   -5.4343279   -5.4343279    -4.610065 -0.0014537446   -5.4343279   0.82426286   439061 
 3615000   0.54963216   -5.4351168   -5.4351168   -4.6106705   0.00530009   -5.4351168   0.82444637   439061 
 3616000   0.55067909   -5.4363814   -5.4363814   -4.6103647 -0.0017511561   -5.4363814   0.82601676   439061 
 3617000    0.5504683   -5.4355246   -5.4355246   -4.6098241  0.002800525   -5.4355246   0.82570057   439061 
 3618000   0.55163619   -5.4368982   -5.4368982   -4.6094458 0.0010910296   -5.4368982    0.8274524   439061 
 3619000   0.55068595    -5.436195    -5.436195    -4.610168 0.0035983382    -5.436195   0.82602704   439061 
 3620000   0.55044212     -5.43531     -5.43531   -4.6096487 -0.00085164524     -5.43531   0.82566131   439061 
 3621000   0.55015814   -5.4348015   -5.4348015   -4.6095662 -0.0064239588   -5.4348015   0.82523533   439061 
 3622000   0.54986541   -5.4338268   -5.4338268   -4.6090305 0.0019596253   -5.4338268   0.82479624   439061 
 3623000    0.5493941    -5.432592    -5.432592   -4.6085027 -0.00041273699    -5.432592   0.82408927   439061 
 3624000    0.5498999   -5.4331692   -5.4331692   -4.6083212 -0.0059517538   -5.4331692   0.82484797   439061 
 3625000   0.54988114   -5.4329963   -5.4329963   -4.6081764 -0.0043511973   -5.4329963   0.82481983   439061 
 3626000   0.55049777   -5.4339846   -5.4339846   -4.6082398 -0.0025564019   -5.4339846   0.82574478   439061 
 3627000   0.55079684    -5.434266    -5.434266   -4.6080726 -0.0018879213    -5.434266   0.82619338   439061 
 3628000   0.55029502   -5.4337411   -5.4337411   -4.6083004 -0.0040298687   -5.4337411   0.82544065   439061 
 3629000   0.55069448   -5.4343904   -5.4343904   -4.6083506 -0.0023375994   -5.4343904   0.82603983   439061 
 3630000   0.55087823   -5.4357429   -5.4357429   -4.6094274 0.00096975108   -5.4357429   0.82631546   439061 
 3631000   0.55068641   -5.4353771   -5.4353771   -4.6093494 -0.00073061009   -5.4353771   0.82602774   439061 
 3632000   0.55031319   -5.4344194   -5.4344194   -4.6089515 -0.00011090647   -5.4344194    0.8254679   439061 
 3633000   0.55040504   -5.4343366   -5.4343366   -4.6087309 -0.0013833372   -5.4343366   0.82560567   439061 
 3634000   0.55070754   -5.4347126   -5.4347126   -4.6086531 -0.00065233682   -5.4347126   0.82605943   439061 
 3635000   0.55055047   -5.4334557   -5.4334557   -4.6076319 0.0030504177   -5.4334557   0.82582382   439061 
 3636000   0.54957176   -5.4333769   -5.4333769   -4.6090212 -0.0050110859   -5.4333769   0.82435577   439061 
 3637000   0.54860829   -5.4322043   -5.4322043   -4.6092937 -0.0021327201   -5.4322043   0.82291056   439061 
 3638000   0.55044144   -5.4349498   -5.4349498   -4.6092895 -0.0083948956   -5.4349498   0.82566028   439061 
 3639000   0.54940584   -5.4330321   -5.4330321   -4.6089253 -0.00014896809   -5.4330321   0.82410688   439061 
 3640000   0.55091648   -5.4353153   -5.4353153   -4.6089425 -0.0028922508   -5.4353153   0.82637284   439061 
 3641000   0.55108758   -5.4356757   -5.4356757   -4.6090462 -0.00067753168   -5.4356757   0.82662949   439061 
 3642000   0.54971486   -5.4333579   -5.4333579   -4.6087875 0.0039669549   -5.4333579   0.82457042   439061 
 3643000   0.55020598   -5.4342303   -5.4342303   -4.6089232 0.00016467661   -5.4342303   0.82530709   439061 
 3644000   0.55026818   -5.4351362   -5.4351362   -4.6097358 0.00091982023   -5.4351362   0.82540039   439061 
 3645000   0.54977029   -5.4342204   -5.4342204   -4.6095669 0.0019485528   -5.4342204   0.82465355   439061 
 3646000   0.54998728   -5.4346067   -5.4346067   -4.6096276 -0.00049004059   -5.4346067   0.82497904   439061 
 3647000   0.54926383   -5.4336349   -5.4336349    -4.609741 -0.0041991047   -5.4336349   0.82389387   439061 
 3648000   0.55071504   -5.4354267   -5.4354267    -4.609356 -0.0071570425   -5.4354267   0.82607068   439061 
 3649000   0.55116008   -5.4340643   -5.4340643   -4.6073261 0.0010201539   -5.4340643   0.82673823   439061 
 3650000   0.55049097   -5.4334805   -5.4334805   -4.6077459 -0.002698579   -5.4334805   0.82573458   439061 
 3651000   0.55027981   -5.4346142   -5.4346142   -4.6091963 -0.001193557   -5.4346142   0.82541784   439061 
 3652000   0.55049976   -5.4358625   -5.4358625   -4.6101148 -0.0045006653   -5.4358625   0.82574776   439061 
 3653000   0.54983591   -5.4339457   -5.4339457   -4.6091937 0.0011458369   -5.4339457   0.82475199   439061 
 3654000    0.5504293     -5.43579     -5.43579   -4.6101479 -0.0046007467     -5.43579   0.82564207   439061 
 3655000   0.54984661   -5.4350193   -5.4350193   -4.6102513  -0.00447686   -5.4350193   0.82476804   439061 
 3656000    0.5498527   -5.4359164   -5.4359164   -4.6111392 -0.0027885435   -5.4359164   0.82477717   439061 
 3657000   0.54980004   -5.4366759   -5.4366759   -4.6119777 -0.0019412701   -5.4366759   0.82469818   439061 
 3658000    0.5500855    -5.436471    -5.436471   -4.6113447  0.002160925    -5.436471   0.82512637   439061 
 3659000   0.54961007    -5.436541    -5.436541   -4.6121278 -0.0015975479    -5.436541   0.82441323   439061 
 3660000   0.54921052   -5.4367488   -5.4367488   -4.6129349 0.0015749135   -5.4367488   0.82381391   439061 
 3661000   0.54923194   -5.4365081   -5.4365081   -4.6126621 0.0032837508   -5.4365081   0.82384604   439061 
 3662000   0.54898652   -5.4369058   -5.4369058   -4.6134279 0.0016530524   -5.4369058   0.82347791   439061 
 3663000   0.54932199   -5.4375424   -5.4375424   -4.6135613 0.0036922307   -5.4375424   0.82398111   439061 
 3664000   0.55021935   -5.4383992   -5.4383992   -4.6130721 0.0002778437   -5.4383992   0.82532714   439061 
 3665000   0.54950312   -5.4372323   -5.4372323   -4.6129795  0.005133807   -5.4372323    0.8242528   439061 
 3666000    0.5490009   -5.4368217   -5.4368217   -4.6133223 0.0035063849   -5.4368217   0.82349947   439061 
 3667000   0.54986185   -5.4377894   -5.4377894   -4.6129985 -0.0046403916   -5.4377894    0.8247909   439061 
 3668000   0.54901902   -5.4362244   -5.4362244   -4.6126978 -0.0024428126   -5.4362244   0.82352665   439061 
 3669000    0.5497628   -5.4367484   -5.4367484   -4.6121061  -0.00416114   -5.4367484   0.82464232   439061 
 3670000   0.54969702   -5.4357828   -5.4357828   -4.6112391 -0.00064183508   -5.4357828   0.82454365   439061 
 3671000   0.54937043   -5.4357527   -5.4357527    -4.611699 -0.006421002   -5.4357527   0.82405377   439061 
 3672000   0.54951437   -5.4357883   -5.4357883   -4.6115186 -0.005703767   -5.4357883   0.82426968   439061 
 3673000    0.5493184   -5.4352895   -5.4352895   -4.6113138 -0.0010794039   -5.4352895   0.82397572   439061 
 3674000   0.55026284   -5.4369173   -5.4369173   -4.6115249 -0.0018190946   -5.4369173   0.82539239   439061 
 3675000   0.54904707   -5.4355689   -5.4355689   -4.6120001 0.0004564237   -5.4355689   0.82356873   439061 
 3676000   0.54908974   -5.4362133   -5.4362133   -4.6125806  0.003247486   -5.4362133   0.82363274   439061 
 3677000   0.55054693   -5.4383102   -5.4383102   -4.6124917  0.003984221   -5.4383102   0.82581851   439061 
 3678000   0.55037796   -5.4376831   -5.4376831    -4.612118 0.0060917217   -5.4376831   0.82556505   439061 
 3679000   0.55098951   -5.4383167   -5.4383167   -4.6118343 0.0019770921   -5.4383167   0.82648238   439061 
 3680000   0.55016567   -5.4379049   -5.4379049   -4.6126583 -0.0015617463   -5.4379049   0.82524663   439061 
 3681000   0.54822547   -5.4362433   -5.4362433   -4.6139069 -0.00092569672   -5.4362433   0.82233634   439061 
 3682000   0.54880927   -5.4362681   -5.4362681   -4.6130561 -0.0045729025   -5.4362681   0.82321203   439061 
 3683000   0.54961198   -5.4371705   -5.4371705   -4.6127544 -0.0083738038   -5.4371705   0.82441609   439061 
 3684000   0.54952587   -5.4364428   -5.4364428   -4.6121559 -0.0023628779   -5.4364428   0.82428693   439061 
 3685000   0.54997502   -5.4365197   -5.4365197    -4.611559 -0.0029322154   -5.4365197   0.82496065   439061 
 3686000   0.55033333   -5.4377357   -5.4377357   -4.6122375 -0.0024956556   -5.4377357   0.82549812   439061 
 3687000   0.55037073   -5.4368744   -5.4368744   -4.6113202 0.00090652158   -5.4368744   0.82555421   439061 
 3688000   0.55012446     -5.43599     -5.43599   -4.6108052 0.00076132507     -5.43599    0.8251848   439061 
 3689000   0.54988785    -5.436027    -5.436027   -4.6111971 -0.00024745699    -5.436027    0.8248299   439061 
 3690000   0.54910529   -5.4345813   -5.4345813   -4.6109252 0.0058475307   -5.4345813   0.82365606   439061 
 3691000   0.54996906   -5.4354363   -5.4354363   -4.6104846 -0.00098626872   -5.4354363   0.82495171   439061 
 3692000    0.5494011    -5.434822    -5.434822   -4.6107222 0.0021836856    -5.434822   0.82409978   439061 
 3693000   0.55056286   -5.4366432   -5.4366432   -4.6108008 -0.006061261   -5.4366432    0.8258424   439061 
 3694000   0.54928749   -5.4353364   -5.4353364   -4.6114071 -0.0052580429   -5.4353364   0.82392935   439061 
 3695000   0.54919836   -5.4341744   -5.4341744   -4.6103787 -0.0046177225   -5.4341744   0.82379567   439061 
 3696000   0.55015953   -5.4361771   -5.4361771   -4.6109397 -0.0044091567   -5.4361771   0.82523741   439061 
 3697000   0.54903729   -5.4346099   -5.4346099   -4.6110558 -0.0018840435   -5.4346099   0.82355406   439061 
 3698000   0.55026642   -5.4369719   -5.4369719   -4.6115741 -0.0017539489   -5.4369719   0.82539775   439061 
 3699000   0.54994964   -5.4365167   -5.4365167   -4.6115941  0.001601337   -5.4365167   0.82492258   439061 
 3700000    0.5502861   -5.4371641   -5.4371641   -4.6117369 0.0038515435   -5.4371641   0.82542726   439061 
 3701000   0.54993039   -5.4375911   -5.4375911   -4.6126974 0.0040994496   -5.4375911    0.8248937   439061 
 3702000   0.54976574   -5.4364237   -5.4364237    -4.611777 0.00084424176   -5.4364237   0.82464673   439061 
 3703000   0.54911246   -5.4359486   -5.4359486   -4.6122818 0.0011981759   -5.4359486   0.82366681   439061 
 3704000   0.54917565   -5.4352866   -5.4352866    -4.611525 -0.00092140262   -5.4352866    0.8237616   439061 
 3705000   0.55010229   -5.4360943   -5.4360943   -4.6109428 -0.0026112512   -5.4360943   0.82515156   439061 
 3706000   0.54999979   -5.4358105   -5.4358105   -4.6108127 -0.0017304128   -5.4358105   0.82499781   439061 
 3707000   0.54894059   -5.4356945   -5.4356945   -4.6122855 -0.0041531901   -5.4356945   0.82340902   439061 
 3708000   0.54975518   -5.4362556   -5.4362556   -4.6116247 -0.006791411   -5.4362556   0.82463089   439061 
 3709000   0.54906545   -5.4357008   -5.4357008   -4.6121045 -0.00079392933   -5.4357008    0.8235963   439061 
 3710000   0.54983794    -5.437145    -5.437145     -4.61239 -0.00080064234    -5.437145   0.82475503   439061 
 3711000   0.55061329   -5.4368942   -5.4368942   -4.6109761 -0.001357959   -5.4368942   0.82591805   439061 
 3712000   0.55029213   -5.4364731   -5.4364731   -4.6110368 0.0056191335   -5.4364731   0.82543632   439061 
 3713000   0.54965804   -5.4370401   -5.4370401   -4.6125549 0.0019889624   -5.4370401   0.82448519   439061 
 3714000   0.54976689   -5.4376815   -5.4376815    -4.613033 -0.002928534   -5.4376815   0.82464846   439061 
 3715000   0.54891859   -5.4361187   -5.4361187   -4.6127427 0.00079370546   -5.4361187   0.82337601   439061 
 3716000   0.54967411   -5.4360089   -5.4360089   -4.6114996 0.0010880263   -5.4360089   0.82450929   439061 
 3717000   0.54995175   -5.4371963   -5.4371963   -4.6122706 -0.0052786576   -5.4371963   0.82492575   439061 
 3718000   0.54932732   -5.4367366   -5.4367366   -4.6127475 0.00021380603   -5.4367366   0.82398911   439061 
 3719000   0.54883888     -5.43617     -5.43617   -4.6129136 -0.0043381005     -5.43617   0.82325645   439061 
 3720000   0.54956084   -5.4362242   -5.4362242   -4.6118848 -0.00024038832   -5.4362242   0.82433938   439061 
 3721000   0.55001736   -5.4368512   -5.4368512   -4.6118271 0.00098283733   -5.4368512   0.82502416   439061 
 3722000   0.54883879   -5.4343852   -5.4343852   -4.6111289 0.0037946548   -5.4343852   0.82325631   439061 
 3723000   0.54936061   -5.4356843   -5.4356843   -4.6116452 0.0020422268   -5.4356843   0.82403903   439061 
 3724000   0.54885287   -5.4354448   -5.4354448   -4.6121673 -0.0011926696   -5.4354448   0.82327744   439061 
 3725000   0.54878151   -5.4351159   -5.4351159   -4.6119455 0.0024029141   -5.4351159   0.82317038   439061 
 3726000   0.54977711   -5.4360804   -5.4360804   -4.6114166 -0.0019283173   -5.4360804   0.82466378   439061 
 3727000   0.54999155    -5.436713    -5.436713   -4.6117275 -0.00057864394    -5.436713   0.82498544   439061 
 3728000   0.54988827   -5.4361183   -5.4361183   -4.6112878 0.0009444485   -5.4361183   0.82483053   439061 
 3729000   0.54905376    -5.435709    -5.435709   -4.6121303 0.0034205181    -5.435709   0.82357877   439061 
 3730000   0.54866592   -5.4352746   -5.4352746   -4.6122776   0.00146205   -5.4352746     0.822997   439061 
 3731000   0.55008703   -5.4372424   -5.4372424   -4.6121137 -0.00052587749   -5.4372424   0.82512867   439061 
 3732000   0.55009098   -5.4372961   -5.4372961   -4.6121616 2.6691455e-05   -5.4372961   0.82513459   439061 
 3733000   0.54982737   -5.4366563   -5.4366563   -4.6119171 0.00025839741   -5.4366563   0.82473917   439061 
 3734000   0.55016842   -5.4375763   -5.4375763   -4.6123256 -0.006879594   -5.4375763   0.82525075   439061 
 3735000   0.55039257   -5.4375372   -5.4375372   -4.6119502 -0.00036429737   -5.4375372   0.82558697   439061 
 3736000   0.55044541   -5.4371015   -5.4371015   -4.6114353 -0.0020480834   -5.4371015   0.82566624   439061 
 3737000   0.54945712   -5.4360821   -5.4360821   -4.6118982 -0.0013235593   -5.4360821   0.82418381   439061 
 3738000   0.55022738   -5.4376059   -5.4376059   -4.6122667 -0.0042856274   -5.4376059   0.82533919   439061 
 3739000   0.55002325   -5.4368842   -5.4368842   -4.6118512 -0.00087650374   -5.4368842   0.82503299   439061 
 3740000   0.55007127   -5.4371199   -5.4371199   -4.6120149 -0.0019764693   -5.4371199   0.82510503   439061 
 3741000   0.54948945   -5.4355684   -5.4355684   -4.6113361 0.00012310655   -5.4355684    0.8242323   439061 
 3742000   0.54964458   -5.4357395   -5.4357395   -4.6112745 0.0029533374   -5.4357395   0.82446499   439061 
 3743000   0.55081791   -5.4373335   -5.4373335   -4.6111085  0.001140157   -5.4373335   0.82622498   439061 
 3744000   0.55017191   -5.4355084   -5.4355084   -4.6102524 -0.0029655483   -5.4355084   0.82525599   439061 
 3745000   0.54951661   -5.4351988   -5.4351988   -4.6109258 -0.002531817   -5.4351988   0.82427304   439061 
 3746000   0.54937856   -5.4342066   -5.4342066   -4.6101406 0.0009264657   -5.4342066   0.82406597   439061 
 3747000   0.54936562   -5.4342182   -5.4342182   -4.6101716 0.0012272072   -5.4342182   0.82404656   439061 
 3748000   0.55055271    -5.434766    -5.434766   -4.6089388 -0.00086523989    -5.434766   0.82582718   439061 
 3749000   0.55031379   -5.4351661   -5.4351661   -4.6096973 -0.00034311143   -5.4351661   0.82546881   439061 
 3750000   0.55025298   -5.4351569   -5.4351569   -4.6097793 -0.004419003   -5.4351569   0.82537759   439061 
 3751000   0.54888023   -5.4340076   -5.4340076   -4.6106891 -0.0019039602   -5.4340076   0.82331847   439061 
 3752000   0.54972488   -5.4342568   -5.4342568   -4.6096713 0.0024534304   -5.4342568   0.82458545   439061 
 3753000   0.55034004   -5.4344801   -5.4344801   -4.6089719 0.0021404195   -5.4344801   0.82550818   439061 
 3754000   0.55037491   -5.4350646   -5.4350646   -4.6095042 -0.00076380327   -5.4350646   0.82556048   439061 
 3755000   0.54942595   -5.4338215   -5.4338215   -4.6096845 0.00080947849   -5.4338215   0.82413705   439061 
 3756000   0.55009919   -5.4346956   -5.4346956   -4.6095487 -0.00010166608   -5.4346956    0.8251469   439061 
 3757000   0.55003925   -5.4348507   -5.4348507   -4.6097937 0.00046117361   -5.4348507   0.82505699   439061 
 3758000   0.55071083   -5.4366126   -5.4366126   -4.6105483 -0.008433626   -5.4366126   0.82606436   439061 
 3759000   0.55007287   -5.4347569   -5.4347569   -4.6096495 -0.0021088015   -5.4347569   0.82510742   439061 
 3760000   0.55052765   -5.4355688   -5.4355688   -4.6097792 -0.0015935536   -5.4355688   0.82578959   439061 
 3761000   0.54935414   -5.4354977   -5.4354977   -4.6114684 0.00050825267   -5.4354977   0.82402934   439061 
 3762000   0.55021842   -5.4360618   -5.4360618    -4.610736 -0.0021740038   -5.4360618   0.82532575   439061 
 3763000   0.54951267   -5.4350203   -5.4350203   -4.6107532 0.00067132802   -5.4350203   0.82426713   439061 
 3764000   0.55096591    -5.437023    -5.437023    -4.610576 0.0014997061    -5.437023   0.82644698   439061 
 3765000   0.55066785    -5.436986    -5.436986   -4.6109861 0.0032126176    -5.436986    0.8259999   439061 
 3766000   0.55046644   -5.4372575   -5.4372575   -4.6115597 -0.0010023953   -5.4372575   0.82569778   439061 
 3767000   0.54974572   -5.4375151   -5.4375151   -4.6128984 -0.0013575968   -5.4375151   0.82461671   439061 
 3768000   0.54910869   -5.4366226   -5.4366226   -4.6129614 -0.00074963125   -5.4366226   0.82366116   439061 
 3769000   0.55025507   -5.4367832   -5.4367832   -4.6114025 0.0010546251   -5.4367832   0.82538072   439061 
 3770000   0.54961494   -5.4359184   -5.4359184   -4.6114978 -0.0017730335   -5.4359184   0.82442054   439061 
 3771000   0.54993536   -5.4379524   -5.4379524   -4.6130512 -0.0023488916   -5.4379524   0.82490116   439061 
 3772000    0.5487613   -5.4352178   -5.4352178   -4.6120778  0.002723856   -5.4352178   0.82314007   439061 
 3773000   0.54977761   -5.4359849   -5.4359849   -4.6113203 -0.00091216143   -5.4359849   0.82466454   439061 
 3774000   0.54933326   -5.4364045   -5.4364045   -4.6124065 -0.002962205   -5.4364045   0.82399801   439061 
 3775000   0.54979104   -5.4372955   -5.4372955   -4.6126108 -0.00070680103   -5.4372955   0.82468469   439061 
 3776000   0.54943894   -5.4368816   -5.4368816   -4.6127251 -0.00049229874   -5.4368816   0.82415653   439061 
 3777000   0.54985898    -5.437242    -5.437242   -4.6124554 -0.00040468228    -5.437242    0.8247866   439061 
 3778000   0.54993592   -5.4371762   -5.4371762   -4.6122742   0.00374834   -5.4371762     0.824902   439061 
 3779000   0.54947745   -5.4367774   -5.4367774   -4.6125631 0.0020603527   -5.4367774    0.8242143   439061 
 3780000   0.54944333   -5.4368516   -5.4368516   -4.6126884 -0.00024985291   -5.4368516   0.82416313   439061 
 3781000   0.54912793   -5.4355998   -5.4355998   -4.6119097 0.0033862049   -5.4355998   0.82369002   439061 
 3782000   0.54930741   -5.4361883   -5.4361883    -4.612229 0.0030704215   -5.4361883   0.82395924   439061 
 3783000   0.54989007    -5.436391    -5.436391   -4.6115577 0.0011139595    -5.436391   0.82483323   439061 
 3784000   0.54947773   -5.4355079   -5.4355079   -4.6112932 -0.0012589693   -5.4355079   0.82421471   439061 
 3785000   0.54949756   -5.4357555   -5.4357555   -4.6115111 -0.002793784   -5.4357555   0.82424446   439061 
 3786000   0.54884783     -5.43529     -5.43529   -4.6120202 -0.00085671883     -5.43529   0.82326987   439061 
 3787000   0.54984085   -5.4364933   -5.4364933   -4.6117339 -0.0030758598   -5.4364933   0.82475939   439061 
 3788000    0.5496663   -5.4362249   -5.4362249   -4.6117273 -0.0024027016   -5.4362249   0.82449758   439061 
 3789000   0.54947589     -5.43596     -5.43596   -4.6117481 0.0015207966     -5.43596   0.82421196   439061 
 3790000   0.55045975   -5.4371865   -5.4371865   -4.6114988 0.0010158999   -5.4371865   0.82568774   439061 
 3791000    0.5497337   -5.4366104   -5.4366104   -4.6120118 0.0015193236   -5.4366104   0.82459867   439061 
 3792000   0.54958831   -5.4350051   -5.4350051   -4.6106245 0.0039799008   -5.4350051   0.82438058   439061 
 3793000   0.55045164   -5.4369326   -5.4369326    -4.611257 0.0038494284   -5.4369326   0.82567558   439061 
 3794000   0.55020996   -5.4364986   -5.4364986   -4.6111855 -0.0011742062   -5.4364986   0.82531305   439061 
 3795000   0.54997279   -5.4366029   -5.4366029   -4.6116456 -0.0038988281   -5.4366029   0.82495731   439061 
 3796000   0.55039293    -5.438138    -5.438138   -4.6125505 -0.0084128307    -5.438138   0.82558752   439061 
 3797000   0.54877705   -5.4360494   -5.4360494   -4.6128857 -0.00035887063   -5.4360494   0.82316371   439061 
 3798000   0.54832042   -5.4363912   -5.4363912   -4.6139125 -0.0021808438   -5.4363912   0.82247876   439061 
 3799000   0.54884708   -5.4370617   -5.4370617   -4.6137929 -0.00097211619   -5.4370617   0.82326875   439061 
 3800000    0.5490612   -5.4374442   -5.4374442   -4.6138543 0.0022889256   -5.4374442   0.82358993   439061 
 3801000   0.54957009   -5.4378377   -5.4378377   -4.6134845  0.004601968   -5.4378377   0.82435326   439061 
 3802000   0.54966605   -5.4381842   -5.4381842    -4.613687 0.0017882379   -5.4381842    0.8244972   439061 
 3803000   0.54956717   -5.4384153   -5.4384153   -4.6140664 0.0021075888   -5.4384153   0.82434888   439061 
 3804000   0.54985479   -5.4387912   -5.4387912   -4.6140109 0.00070739275   -5.4387912   0.82478031   439061 
 3805000   0.54942836   -5.4386783   -5.4386783   -4.6145377 -0.003024585   -5.4386783   0.82414066   439061 
 3806000   0.54891001   -5.4377761   -5.4377761    -4.614413 -0.0047910511   -5.4377761   0.82336313   439061 
 3807000   0.54920842   -5.4372967   -5.4372967    -4.613486 -0.003541312   -5.4372967   0.82381075   439061 
 3808000   0.54933604   -5.4373948   -5.4373948   -4.6133926 -0.0041944116   -5.4373948   0.82400218   439061 
 3809000   0.54923307   -5.4365653   -5.4365653   -4.6127176 -0.0019748042   -5.4365653   0.82384773   439061 
 3810000   0.54862363   -5.4353731   -5.4353731   -4.6124395 0.00081868354   -5.4353731   0.82293357   439061 
 3811000   0.54943251   -5.4367738   -5.4367738    -4.612627 -0.0033118974   -5.4367738   0.82414688   439061 
 3812000   0.55038313   -5.4377908   -5.4377908    -4.612218 -0.0053212007   -5.4377908   0.82557281   439061 
 3813000   0.54912707   -5.4349099   -5.4349099   -4.6112212 0.0044390082   -5.4349099   0.82368872   439061 
 3814000   0.54953204   -5.4358732   -5.4358732    -4.611577 -0.001664491   -5.4358732   0.82429618   439061 
 3815000   0.54936658   -5.4362675   -5.4362675   -4.6122195 -0.0038382409   -5.4362675     0.824048   439061 
 3816000   0.54896888   -5.4358995   -5.4358995    -4.612448 -0.0042965549   -5.4358995   0.82345144   439061 
 3817000   0.54946818   -5.4363555   -5.4363555   -4.6121552 -0.0078329986   -5.4363555   0.82420039   439061 
 3818000   0.55061341   -5.4382811   -5.4382811   -4.6123629 -0.0051189518   -5.4382811   0.82591824   439061 
 3819000      0.54877   -5.4363006   -5.4363006   -4.6131474 -0.00073015956   -5.4363006   0.82315312   439061 
 3820000   0.54929298   -5.4375434   -5.4375434   -4.6136058 -0.0027584977   -5.4375434   0.82393759   439061 
 3821000   0.54985757    -5.437679    -5.437679   -4.6128946 0.00040641095    -5.437679   0.82478448   439061 
 3822000   0.55075146   -5.4377317   -5.4377317   -4.6116064 0.0044048747   -5.4377317   0.82612531   439061 
 3823000   0.55030529   -5.4364927   -5.4364927   -4.6110366 0.0041254874   -5.4364927   0.82545606   439061 
 3824000   0.54918636   -5.4348478   -5.4348478   -4.6110701 0.0019846575   -5.4348478   0.82377766   439061 
 3825000   0.54923649   -5.4362901   -5.4362901   -4.6124373 0.0019124004   -5.4362901   0.82385286   439061 
 3826000   0.55031222    -5.437061    -5.437061   -4.6115945 -0.0070378952    -5.437061   0.82546645   439061 
 3827000   0.54924127   -5.4348223   -5.4348223   -4.6109623 -0.0065478617   -5.4348223   0.82386002   439061 
 3828000   0.54909764   -5.4351319   -5.4351319   -4.6114873 -0.006592958   -5.4351319   0.82364459   439061 
 3829000   0.54901598   -5.4356475   -5.4356475   -4.6121254 4.9715412e-05   -5.4356475   0.82352209   439061 
 3830000   0.55047879   -5.4376766   -5.4376766   -4.6119603 0.00071647799   -5.4376766   0.82571631   439061 
 3831000   0.54912743   -5.4362299   -5.4362299   -4.6125406 0.0011123999   -5.4362299   0.82368926   439061 
 3832000   0.54953064    -5.437372    -5.437372   -4.6130779 0.0044472797    -5.437372   0.82429408   439061 
 3833000    0.5493519   -5.4370598   -5.4370598   -4.6130339  0.010722612   -5.4370598   0.82402597   439061 
 3834000    0.5505926   -5.4381769   -5.4381769   -4.6122899  0.010348066   -5.4381769   0.82588702   439061 
 3835000   0.55027991    -5.437461    -5.437461    -4.612043 0.0050408084    -5.437461   0.82541799   439061 
 3836000   0.55007516   -5.4372718   -5.4372718   -4.6121609 -0.00037981107   -5.4372718   0.82511087   439061 
 3837000   0.54898627   -5.4358044   -5.4358044   -4.6123269 -0.0066765084   -5.4358044   0.82347753   439061 
 3838000   0.54745055    -5.433659    -5.433659    -4.612485 -0.0045285171    -5.433659   0.82117395   439061 
 3839000   0.54870505   -5.4350392   -5.4350392   -4.6119835 -0.011054941   -5.4350392   0.82305569   439061 
 3840000   0.54988204    -5.436617    -5.436617   -4.6117958 -0.0085515181    -5.436617   0.82482118   439061 
 3841000   0.54892563   -5.4348332   -5.4348332   -4.6114467 -0.0012955038   -5.4348332   0.82338656   439061 
 3842000   0.55054521    -5.436333    -5.436333   -4.6105171 0.0011103254    -5.436333   0.82581593   439061 
 3843000    0.5502114   -5.4374879   -5.4374879   -4.6121727 0.0072576959   -5.4374879   0.82531522   439061 
 3844000   0.55097053    -5.437912    -5.437912   -4.6114581 0.0055516522    -5.437912   0.82645391   439061 
 3845000   0.55066389   -5.4373776   -5.4373776   -4.6113836 0.0042965314   -5.4373776   0.82599395   439061 
 3846000   0.55023745   -5.4370672   -5.4370672   -4.6117129 0.0022873887   -5.4370672    0.8253543   439061 
 3847000    0.5496611   -5.4369312   -5.4369312   -4.6124414 -0.0031879303   -5.4369312   0.82448977   439061 
 3848000   0.54948069   -5.4360986   -5.4360986   -4.6118795 -0.0041492957   -5.4360986   0.82421916   439061 
 3849000   0.54933716   -5.4346122   -5.4346122   -4.6106083 -0.0029552347   -5.4346122   0.82400387   439061 
 3850000   0.54904541    -5.434457    -5.434457   -4.6108908 -0.0038887202    -5.434457   0.82356625   439061 
 3851000   0.55012018    -5.436018    -5.436018   -4.6108396 -0.0063137537    -5.436018    0.8251784   439061 
 3852000   0.54964808   -5.4346072   -5.4346072   -4.6101369 -0.0012235778   -5.4346072   0.82447024   439061 
 3853000   0.54954559   -5.4351803   -5.4351803   -4.6108638 -0.0011592746   -5.4351803   0.82431651   439061 
 3854000    0.5492921   -5.4347524   -5.4347524   -4.6108161 0.00059880898   -5.4347524   0.82393627   439061 
 3855000   0.55041777   -5.4373539   -5.4373539   -4.6117291 -0.0034102173   -5.4373539   0.82562478   439061 
 3856000   0.55001251    -5.437449    -5.437449   -4.6124322 -0.0015274922    -5.437449   0.82501688   439061 
 3857000   0.55097198    -5.437457    -5.437457   -4.6110009 0.0015288687    -5.437457   0.82645609   439061 
 3858000   0.55025232   -5.4367531   -5.4367531   -4.6113765 0.0048438622   -5.4367531    0.8253766   439061 
 3859000   0.55007753   -5.4371579   -5.4371579   -4.6120435 0.0032658678   -5.4371579   0.82511441   439061 
 3860000   0.55072796   -5.4368136   -5.4368136   -4.6107236  0.001513732   -5.4368136   0.82609005   439061 
 3861000   0.54982644   -5.4356223   -5.4356223   -4.6108845 0.00058917142   -5.4356223   0.82473778   439061 
 3862000   0.54976559   -5.4354116   -5.4354116   -4.6107651 -0.0040084514   -5.4354116    0.8246465   439061 
 3863000   0.54859054   -5.4340327   -5.4340327   -4.6111487 -0.0013432898   -5.4340327   0.82288394   439061 
 3864000   0.54935099   -5.4341573   -5.4341573   -4.6101327 0.0032442527   -5.4341573   0.82402461   439061 
 3865000   0.54991865   -5.4350963   -5.4350963   -4.6102202  0.002347147   -5.4350963   0.82487609   439061 
 3866000    0.5504291    -5.435003    -5.435003   -4.6093612 1.9376302e-05    -5.435003   0.82564177   439061 
 3867000   0.54985781   -5.4345396   -5.4345396   -4.6097547 -0.0012963745   -5.4345396   0.82478484   439061 
 3868000   0.55009038   -5.4349471   -5.4349471   -4.6098135 -0.00011701324   -5.4349471    0.8251337   439061 
 3869000   0.54986919   -5.4348364   -5.4348364   -4.6100345 -0.00077074525   -5.4348364    0.8248019   439061 
 3870000   0.54975157   -5.4346729   -5.4346729   -4.6100474 4.0438288e-05   -5.4346729   0.82462548   439061 
 3871000   0.55003728    -5.434831    -5.434831   -4.6097769 -0.0031337851    -5.434831   0.82505405   439061 
 3872000   0.54987646   -5.4343231   -5.4343231   -4.6095103  0.004751892   -5.4343231   0.82481282   439061 
 3873000   0.54942426   -5.4336722   -5.4336722   -4.6095377 0.0018541611   -5.4336722   0.82413452   439061 
 3874000   0.54920543   -5.4340506   -5.4340506   -4.6102444 -0.0014893578   -5.4340506   0.82380627   439061 
 3875000   0.54998588   -5.4345842   -5.4345842   -4.6096073  0.002240841   -5.4345842   0.82497694   439061 
 3876000   0.55035394   -5.4344689   -5.4344689   -4.6089399 0.0046760104   -5.4344689   0.82552902   439061 
 3877000   0.54969969   -5.4340555   -5.4340555   -4.6095079 0.0050829993   -5.4340555   0.82454766   439061 
 3878000   0.54996397   -5.4344935   -5.4344935   -4.6095494 -0.0046322187   -5.4344935   0.82494407   439061 
 3879000   0.55032539   -5.4349129   -5.4349129   -4.6094267 -0.0069958279   -5.4349129    0.8254862   439061 
 3880000   0.55034155   -5.4349106   -5.4349106   -4.6094002 -0.006114003   -5.4349106   0.82551044   439061 
 3881000   0.54979775   -5.4338928   -5.4338928    -4.609198 2.6038297e-05   -5.4338928   0.82469474   439061 
 3882000   0.54993979    -5.434079    -5.434079   -4.6091712 -0.0040715469    -5.434079   0.82490781   439061 
 3883000   0.54979502   -5.4330492   -5.4330492   -4.6083585 -0.0059915783   -5.4330492   0.82469065   439061 
 3884000   0.54990523   -5.4344183   -5.4344183   -4.6095623 -0.0034376881   -5.4344183   0.82485596   439061 
 3885000   0.55105612   -5.4362556   -5.4362556   -4.6096733 0.0010181304   -5.4362556   0.82658229   439061 
 3886000   0.54949203   -5.4344931   -5.4344931   -4.6102569 3.2050385e-05   -5.4344931   0.82423616   439061 
 3887000   0.55035091   -5.4357565   -5.4357565    -4.610232 -0.0038315212   -5.4357565   0.82552449   439061 
 3888000   0.55006876   -5.4352203   -5.4352203    -4.610119 0.0020819642   -5.4352203   0.82510126   439061 
 3889000   0.55052967   -5.4348131   -5.4348131   -4.6090205 0.0010378222   -5.4348131   0.82579263   439061 
 3890000   0.55004566   -5.4348327   -5.4348327   -4.6097661 -0.00083570705   -5.4348327   0.82506662   439061 
 3891000   0.54995285   -5.4350853   -5.4350853   -4.6101579 -0.0015212928   -5.4350853   0.82492739   439061 
 3892000   0.55055651   -5.4361224   -5.4361224   -4.6102895 -0.0016474063   -5.4361224   0.82583288   439061 
 3893000   0.54995929   -5.4354993   -5.4354993   -4.6105623 0.0050845567   -5.4354993   0.82493705   439061 
 3894000   0.54897173   -5.4343034   -5.4343034   -4.6108477 0.0041185801   -5.4343034   0.82345572   439061 
 3895000   0.55004613   -5.4355244   -5.4355244   -4.6104571 -0.00075333568   -5.4355244   0.82506732   439061 
 3896000   0.55011648   -5.4359801   -5.4359801   -4.6108073 -0.00042172641   -5.4359801   0.82517284   439061 
 3897000   0.55028321   -5.4359701   -5.4359701   -4.6105471 -0.00037397955   -5.4359701   0.82542293   439061 
 3898000   0.54927436   -5.4340989   -5.4340989   -4.6101892 -0.00026580285   -5.4340989   0.82390966   439061 
 3899000   0.54915911   -5.4345516   -5.4345516   -4.6108148 -0.0028140608   -5.4345516   0.82373678   439061 
 3900000   0.54966606   -5.4338086   -5.4338086   -4.6093113 -0.0010311415   -5.4338086   0.82449722   439061 
 3901000   0.55010989   -5.4343462   -5.4343462   -4.6091833 0.0014945002   -5.4343462   0.82516295   439061 
 3902000   0.55014223   -5.4346202   -5.4346202   -4.6094087 -0.00086167846   -5.4346202   0.82521146   439061 
 3903000   0.55025442   -5.4346651   -5.4346651   -4.6092853 -0.0004337388   -5.4346651   0.82537975   439061 
 3904000   0.54960103   -5.4340082   -5.4340082   -4.6096085 0.00087133135   -5.4340082   0.82439967   439061 
 3905000   0.54913834     -5.43298     -5.43298   -4.6092744 0.0018604036     -5.43298   0.82370563   439061 
 3906000    0.5503168   -5.4354669   -5.4354669   -4.6099936 -0.0055190022   -5.4354669   0.82547332   439061 
 3907000   0.54922859   -5.4337178   -5.4337178   -4.6098768 -0.0051572087   -5.4337178   0.82384101   439061 
 3908000   0.55042174   -5.4345848   -5.4345848   -4.6089541 -0.0015578367   -5.4345848   0.82563073   439061 
 3909000   0.55017726   -5.4340861   -5.4340861   -4.6088221 -0.0042945587   -5.4340861   0.82526401   439061 
 3910000   0.55044167    -5.434447    -5.434447   -4.6087864 -0.0019761947    -5.434447   0.82566063   439061 
 3911000   0.54941771    -5.433595    -5.433595   -4.6094703  0.000860251    -5.433595   0.82412468   439061 
 3912000   0.55024056   -5.4350757   -5.4350757   -4.6097167 0.0021388048   -5.4350757   0.82535897   439061 
 3913000     0.550889   -5.4359673   -5.4359673   -4.6096357  0.001924336   -5.4359673   0.82633162   439061 
 3914000   0.55171976   -5.4367986   -5.4367986   -4.6092209  0.003636135   -5.4367986   0.82757776   439061 
 3915000   0.54951518   -5.4345241   -5.4345241   -4.6102532 0.0043179926   -5.4345241   0.82427089   439061 
 3916000   0.55032186   -5.4351575   -5.4351575   -4.6096766 0.00056236173   -5.4351575   0.82548091   439061 
 3917000   0.55039658   -5.4350166   -5.4350166   -4.6094237 -0.002172924   -5.4350166   0.82559299   439061 
 3918000   0.54945768   -5.4343947   -5.4343947     -4.61021 -0.0016027874   -5.4343947   0.82418464   439061 
 3919000    0.5491628   -5.4334547   -5.4334547   -4.6097124 0.0017301311   -5.4334547   0.82374232   439061 
 3920000   0.54932534   -5.4341827   -5.4341827   -4.6101966 -0.0030892261   -5.4341827   0.82398614   439061 
 3921000   0.54995213   -5.4341452   -5.4341452   -4.6092188 -0.0040777437   -5.4341452   0.82492631   439061 
 3922000   0.54936899   -5.4334216   -5.4334216     -4.60937 0.0034264587   -5.4334216   0.82405161   439061 
 3923000   0.55061503   -5.4355231   -5.4355231   -4.6096024 -0.0028483974   -5.4355231   0.82592066   439061 
 3924000   0.55082501    -5.434929    -5.434929   -4.6086934 0.0015645179    -5.434929   0.82623564   439061 
 3925000   0.55107636   -5.4340021   -5.4340021   -4.6073894 0.0046508496   -5.4340021   0.82661265   439061 
 3926000   0.55183757   -5.4360724   -5.4360724    -4.608318 -0.0026082178   -5.4360724   0.82775448   439061 
 3927000   0.55005815   -5.4337835   -5.4337835   -4.6086982 0.00027255813   -5.4337835   0.82508534   439061 
 3928000   0.54986424   -5.4330814   -5.4330814    -4.608287 -0.0065860498   -5.4330814   0.82479448   439061 
 3929000   0.54954892   -5.4327364   -5.4327364   -4.6084149 -0.0048070506   -5.4327364    0.8243215   439061 
 3930000   0.55040808   -5.4337643   -5.4337643   -4.6081541 -0.0026448144   -5.4337643   0.82561025   439061 
 3931000   0.55016846   -5.4342424   -5.4342424   -4.6089915 -0.0090939089   -5.4342424   0.82525082   439061 
 3932000   0.54981046   -5.4330154   -5.4330154   -4.6083016 -0.0022375709   -5.4330154   0.82471381   439061 
 3933000   0.55028641   -5.4336419   -5.4336419   -4.6082142 0.0020820246   -5.4336419   0.82542773   439061 
 3934000   0.55015207   -5.4344903   -5.4344903    -4.609264 0.0046278013   -5.4344903   0.82522623   439061 
 3935000   0.55046929   -5.4361612   -5.4361612   -4.6104592 -0.0022846873   -5.4361612   0.82570206   439061 
 3936000   0.55020497   -5.4355282   -5.4355282   -4.6102226 -0.0011049094   -5.4355282   0.82530557   439061 
 3937000   0.55021225   -5.4353218   -5.4353218   -4.6100053 0.0040387013   -5.4353218    0.8253165   439061 
 3938000   0.54985174   -5.4355495   -5.4355495   -4.6107738 0.0019983661   -5.4355495   0.82477574   439061 
 3939000   0.55054023   -5.4371102   -5.4371102   -4.6113017 -0.0037079658   -5.4371102   0.82580846   439061 
 3940000   0.54918869   -5.4353162   -5.4353162    -4.611535 -0.0015146374   -5.4353162   0.82378115   439061 
 3941000   0.54999733   -5.4354694   -5.4354694   -4.6104753 -0.0001107234   -5.4354694   0.82499412   439061 
 3942000    0.5505548   -5.4359561   -5.4359561   -4.6101258 -0.00063853984   -5.4359561   0.82583032   439061 
 3943000   0.55045169   -5.4367089   -5.4367089   -4.6110333 -0.0071682447   -5.4367089   0.82567565   439061 
 3944000   0.55052852   -5.4363952   -5.4363952   -4.6106043 0.0007265651   -5.4363952   0.82579089   439061 
 3945000   0.55096747   -5.4367846   -5.4367846   -4.6103352 0.00049146907   -5.4367846   0.82644932   439061 
 3946000   0.55021289   -5.4361228   -5.4361228   -4.6108054 0.0006533665   -5.4361228   0.82531746   439061 
 3947000   0.55077074   -5.4361878   -5.4361878   -4.6100335 -0.0011160987   -5.4361878   0.82615422   439061 
 3948000   0.54988352   -5.4365792   -5.4365792   -4.6117558 -0.00042906251   -5.4365792    0.8248234   439061 
 3949000   0.55050455   -5.4372743   -5.4372743   -4.6115194 -0.004132235   -5.4372743   0.82575495   439061 
 3950000   0.54975345   -5.4360483   -5.4360483     -4.61142 -0.0048339661   -5.4360483   0.82462829   439061 
 3951000   0.54973974   -5.4360779   -5.4360779   -4.6114701 -0.0051091997   -5.4360779   0.82460773   439061 
 3952000   0.54924121   -5.4357022   -5.4357022   -4.6118423 -8.6790762e-07   -5.4357022   0.82385994   439061 
 3953000   0.54991879   -5.4363415   -5.4363415   -4.6114652 0.00035739547   -5.4363415   0.82487631   439061 
 3954000   0.55111778   -5.4371104   -5.4371104   -4.6104356 -0.0026450102   -5.4371104   0.82667479   439061 
 3955000   0.55081165   -5.4363171   -5.4363171   -4.6101015 -0.0039625755   -5.4363171   0.82621559   439061 
 3956000   0.54975209   -5.4344926   -5.4344926   -4.6098663  0.003358781   -5.4344926   0.82462626   439061 
 3957000   0.55065236   -5.4355143   -5.4355143   -4.6095377  0.001942702   -5.4355143   0.82597666   439061 
 3958000   0.54998731   -5.4349911   -5.4349911    -4.610012 0.00012859512   -5.4349911   0.82497908   439061 
 3959000   0.54959719   -5.4347488   -5.4347488   -4.6103549 -0.0041469301   -5.4347488   0.82439391   439061 
 3960000   0.54945705   -5.4351861   -5.4351861   -4.6110024 -0.0052896801   -5.4351861    0.8241837   439061 
 3961000   0.54990052   -5.4352878   -5.4352878   -4.6104389 -0.0029421249   -5.4352878    0.8248489   439061 
 3962000   0.55000769   -5.4348242   -5.4348242   -4.6098145 -0.0043303615   -5.4348242   0.82500966   439061 
 3963000   0.54871224   -5.4332741   -5.4332741   -4.6102076 -0.0021163767   -5.4332741   0.82306649   439061 
 3964000   0.54972005   -5.4356981   -5.4356981   -4.6111199 -0.0024105902   -5.4356981    0.8245782   439061 
 3965000    0.5505696   -5.4371274   -5.4371274   -4.6112749 0.00057279003   -5.4371274   0.82585252   439061 
 3966000   0.55052267   -5.4379405   -5.4379405   -4.6121584 0.0004265354   -5.4379405   0.82578213   439061 
 3967000   0.55046254   -5.4365797   -5.4365797   -4.6108878 0.0020712581   -5.4365797   0.82569193   439061 
 3968000   0.55128904   -5.4370937   -5.4370937    -4.610162 0.0050109503   -5.4370937   0.82693168   439061 
 3969000    0.5501753    -5.435548    -5.435548    -4.610287 0.0035362536    -5.435548   0.82526107   439061 
 3970000   0.54981798    -5.436353    -5.436353   -4.6116279 -0.0014361219    -5.436353   0.82472509   439061 
 3971000   0.54923832   -5.4340602   -5.4340602   -4.6102046 0.0013572773   -5.4340602   0.82385561   439061 
 3972000   0.55029991   -5.4350546   -5.4350546   -4.6096067 -0.00061450744   -5.4350546   0.82544798   439061 
 3973000   0.54971523    -5.435102    -5.435102    -4.610531 -0.0054185414    -5.435102   0.82457097   439061 
 3974000   0.54982149   -5.4355572   -5.4355572   -4.6108269 -0.0050246072   -5.4355572   0.82473035   439061 
 3975000   0.54911507   -5.4343571   -5.4343571   -4.6106864 -0.0029555062   -5.4343571   0.82367072   439061 
 3976000   0.54992818    -5.436089    -5.436089   -4.6111987 -0.003166234    -5.436089   0.82489039   439061 
 3977000   0.55011368   -5.4366616   -5.4366616    -4.611493 0.0021731311   -5.4366616   0.82516865   439061 
 3978000   0.55089044   -5.4364314   -5.4364314   -4.6100976 0.0017862777   -5.4364314   0.82633379   439061 
 3979000   0.55105494    -5.437041    -5.437041   -4.6104605 0.0027338251    -5.437041   0.82658053   439061 
 3980000   0.55070735   -5.4358244   -5.4358244   -4.6097652 0.0040897908   -5.4358244   0.82605914   439061 
 3981000   0.55009411   -5.4354551   -5.4354551   -4.6103158 0.0015048403   -5.4354551   0.82513929   439061 
 3982000   0.54998084   -5.4352713   -5.4352713   -4.6103019 5.4395679e-05   -5.4352713   0.82496938   439061 
 3983000   0.55057348   -5.4360173   -5.4360173   -4.6101589 -0.0034729995   -5.4360173   0.82585833   439061 
 3984000   0.54968906   -5.4345356   -5.4345356   -4.6100039 -0.0016680305   -5.4345356   0.82453172   439061 
 3985000   0.54956171   -5.4340351   -5.4340351   -4.6096944 -0.004177993   -5.4340351   0.82434069   439061 
 3986000   0.54908819   -5.4338664   -5.4338664    -4.610236 -0.0027085403   -5.4338664   0.82363041   439061 
 3987000   0.54902529   -5.4335972   -5.4335972   -4.6100612 -0.0017553675   -5.4335972   0.82353607   439061 
 3988000   0.54895747    -5.434285    -5.434285   -4.6108506 -0.0012079338    -5.434285   0.82343433   439061 
 3989000   0.54958785   -5.4349276   -5.4349276   -4.6105477 -0.00026032226   -5.4349276    0.8243799   439061 
 3990000   0.55107948   -5.4371361   -5.4371361   -4.6105187 0.0030092958   -5.4371361   0.82661733   439061 
 3991000   0.55086848   -5.4374032   -5.4374032   -4.6111024 0.00042132793   -5.4374032   0.82630084   439061 
 3992000   0.55060889   -5.4364763   -5.4364763   -4.6105648 -0.0001200225   -5.4364763   0.82591145   439061 
 3993000   0.55053179   -5.4365107   -5.4365107   -4.6107149 3.8554433e-05   -5.4365107    0.8257958   439061 
 3994000   0.54986133   -5.4358839   -5.4358839   -4.6110938 0.0018069441   -5.4358839   0.82479012   439061 
 3995000   0.55002496   -5.4360232   -5.4360232   -4.6109876 -0.0013006092   -5.4360232   0.82503557   439061 
 3996000   0.55019025   -5.4361943   -5.4361943   -4.6109108 -0.0025797265   -5.4361943    0.8252835   439061 
 3997000   0.54989098   -5.4356062   -5.4356062   -4.6107716 -0.0069169248   -5.4356062    0.8248346   439061 
 3998000   0.54962253   -5.4350212   -5.4350212   -4.6105893 0.0012945446   -5.4350212   0.82443191   439061 
 3999000   0.55032176   -5.4350858   -5.4350858    -4.609605 -0.00085255231   -5.4350858   0.82548076   439061 
 4000000   0.55004258   -5.4343959   -5.4343959   -4.6093339 -0.0010153125   -5.4343959   0.82506199   439061 
 4001000   0.54938326   -5.4342925   -5.4342925   -4.6102195 0.00024982283   -5.4342925   0.82407301   439061 
 4002000   0.55025672   -5.4356983   -5.4356983   -4.6103151 -0.0042161077   -5.4356983    0.8253832   439061 
 4003000   0.54931016   -5.4347442   -5.4347442   -4.6107808 -0.002887382   -5.4347442   0.82396337   439061 
 4004000   0.54941648   -5.4339721   -5.4339721   -4.6098492 0.00054587605   -5.4339721   0.82412285   439061 
 4005000   0.55003514   -5.4346975   -5.4346975   -4.6096466 -0.0020233479   -5.4346975   0.82505083   439061 
 4006000   0.55069386   -5.4368614   -5.4368614   -4.6108225 -0.00071503303   -5.4368614    0.8260389   439061 
 4007000   0.55037745     -5.43649     -5.43649   -4.6109257 0.0010407814     -5.43649   0.82556429   439061 
 4008000   0.55002432   -5.4357508   -5.4357508   -4.6107162  0.001435011   -5.4357508    0.8250346   439061 
 4009000   0.54981787    -5.435747    -5.435747   -4.6110221 -0.00097126433    -5.435747   0.82472493   439061 
 4010000   0.55113951   -5.4369228   -5.4369228   -4.6102154 -0.0028061672   -5.4369228   0.82670738   439061 
 4011000   0.55020633    -5.436002    -5.436002   -4.6106943 0.0019320034    -5.436002   0.82530762   439061 
 4012000    0.5502469   -5.4355558   -5.4355558   -4.6101873 -0.0027492303   -5.4355558   0.82536847   439061 
 4013000   0.55061041   -5.4359166   -5.4359166   -4.6100028 -0.0021648791   -5.4359166   0.82591374   439061 
 4014000   0.54910402   -5.4339529   -5.4339529   -4.6102987 -0.00084801257   -5.4339529   0.82365416   439061 
 4015000   0.55022556   -5.4356173   -5.4356173   -4.6102808 -0.0023493072   -5.4356173   0.82533645   439061 
 4016000   0.55054048   -5.4368132   -5.4368132   -4.6110043  -0.00345823   -5.4368132   0.82580884   439061 
 4017000   0.55062219   -5.4367978   -5.4367978   -4.6108664 -0.0022058152   -5.4367978   0.82593141   439061 
 4018000   0.54928752   -5.4350446   -5.4350446   -4.6111152 0.0031019455   -5.4350446   0.82392941   439061 
 4019000   0.55037474   -5.4364828   -5.4364828   -4.6109226 0.0032827051   -5.4364828   0.82556023   439061 
 4020000   0.54953649   -5.4349606   -5.4349606   -4.6106577  0.004317888   -5.4349606   0.82430286   439061 
 4021000   0.55063529   -5.4363349   -5.4363349   -4.6103838  0.001558011   -5.4363349   0.82595106   439061 
 4022000   0.55031622    -5.435195    -5.435195   -4.6097226 0.0018338996    -5.435195   0.82547245   439061 
 4023000   0.55089298   -5.4356541   -5.4356541   -4.6093165 -0.0020294797   -5.4356541   0.82633759   439061 
 4024000   0.55002247   -5.4349599   -5.4349599   -4.6099281 -0.003753182   -5.4349599   0.82503183   439061 
 4025000   0.54979417   -5.4350265   -5.4350265   -4.6103371 -0.0086243447   -5.4350265   0.82468938   439061 
 4026000   0.54928843   -5.4345268   -5.4345268    -4.610596 -0.0021364054   -5.4345268   0.82393076   439061 
 4027000   0.54993749   -5.4357132   -5.4357132   -4.6108088 -0.0032397121   -5.4357132   0.82490436   439061 
 4028000   0.55046633   -5.4358235   -5.4358235   -4.6101258 -0.0033282939   -5.4358235   0.82569761   439061 
 4029000   0.55031151   -5.4368214   -5.4368214    -4.611356 -7.5138395e-05   -5.4368214   0.82546538   439061 
 4030000   0.54909703   -5.4355786   -5.4355786    -4.611935 0.0025705835   -5.4355786   0.82364367   439061 
 4031000   0.54993117    -5.436029    -5.436029   -4.6111341 0.0044300425    -5.436029   0.82489488   439061 
 4032000   0.54982234   -5.4371292   -5.4371292   -4.6123976 0.0072575597   -5.4371292   0.82473163   439061 
 4033000   0.54997174   -5.4369324   -5.4369324   -4.6119767 0.0044893956   -5.4369324   0.82495574   439061 
 4034000   0.54883621   -5.4363992   -5.4363992   -4.6131468 -0.00020878539   -5.4363992   0.82325244   439061 
 4035000   0.55037947   -5.4369351   -5.4369351   -4.6113678 -0.0026846396   -5.4369351   0.82556732   439061 
 4036000   0.54997293   -5.4362965   -5.4362965   -4.6113389 -0.001987575   -5.4362965   0.82495752   439061 
 4037000   0.54986039   -5.4366105   -5.4366105   -4.6118218 -0.0019409629   -5.4366105    0.8247887   439061 
 4038000   0.54947636   -5.4358062   -5.4358062   -4.6115936 -0.0052812842   -5.4358062   0.82421266   439061 
 4039000   0.54965095   -5.4362275   -5.4362275   -4.6117529 -0.0041454847   -5.4362275   0.82447454   439061 
 4040000   0.54991809   -5.4368608   -5.4368608   -4.6119856 -0.0032063693   -5.4368608   0.82487526   439061 
 4041000   0.54983887   -5.4371116   -5.4371116   -4.6123552 -0.001658032   -5.4371116   0.82475642   439061 
 4042000   0.54984034   -5.4382548   -5.4382548   -4.6134962 -0.0024257812   -5.4382548   0.82475862   439061 
 4043000   0.54914098   -5.4366014   -5.4366014   -4.6128918 3.8758787e-05   -5.4366014   0.82370959   439061 
 4044000   0.54890512   -5.4376118   -5.4376118    -4.614256 -0.0013414277   -5.4376118   0.82335581   439061 
 4045000   0.54877451   -5.4365937   -5.4365937   -4.6134338 0.0020825637   -5.4365937   0.82315989   439061 
 4046000   0.54863661   -5.4361296   -5.4361296   -4.6131766 0.0029829361   -5.4361296   0.82295304   439061 
 4047000   0.55040041    -5.438392    -5.438392   -4.6127933 -0.00037620316    -5.438392   0.82559874   439061 
 4048000   0.55064301   -5.4384402   -5.4384402   -4.6124775 -0.0027649511   -5.4384402   0.82596264   439061 
 4049000   0.54999565   -5.4365483   -5.4365483   -4.6115567 -0.0011341406   -5.4365483   0.82499159   439061 
 4050000   0.54991071   -5.4368074   -5.4368074   -4.6119432 -0.0038221721   -5.4368074   0.82486419   439061 
 4051000   0.54943195   -5.4359255   -5.4359255   -4.6117795 -0.0022483776   -5.4359255   0.82414605   439061 
 4052000   0.55054074   -5.4370013   -5.4370013   -4.6111921 -0.0010707672   -5.4370013   0.82580922   439061 
 4053000   0.54964314   -5.4354001   -5.4354001   -4.6109372 0.00024055223   -5.4354001   0.82446284   439061 
 4054000   0.54868554    -5.434069    -5.434069   -4.6110425 0.0045174516    -5.434069   0.82302644   439061 
 4055000   0.54886825   -5.4345034   -5.4345034   -4.6112029 0.0035952227   -5.4345034    0.8233005   439061 
 4056000   0.54976175     -5.43678     -5.43678   -4.6121393 -0.0058994867     -5.43678   0.82464075   439061 
 4057000   0.54950374   -5.4367697   -5.4367697    -4.612516 -0.0046038076   -5.4367697   0.82425374   439061 
 4058000   0.54909102   -5.4359599   -5.4359599   -4.6123253 -0.00088433293   -5.4359599   0.82363465   439061 
 4059000     0.550379   -5.4364115   -5.4364115   -4.6108449 0.00089507246   -5.4364115   0.82556662   439061 
 4060000   0.55080247   -5.4370985   -5.4370985   -4.6108966 0.0024233245   -5.4370985   0.82620183   439061 
 4061000    0.5493637   -5.4357012   -5.4357012   -4.6116575 0.0075039599   -5.4357012   0.82404367   439061 
 4062000   0.54958596   -5.4368935   -5.4368935   -4.6125164 0.0018951301   -5.4368935   0.82437707   439061 
 4063000   0.54888535   -5.4357905   -5.4357905   -4.6124643 0.0016721618   -5.4357905   0.82332615   439061 
 4064000   0.54999439   -5.4370568   -5.4370568   -4.6120671 -0.0033696647   -5.4370568    0.8249897   439061 
 4065000   0.54961803   -5.4349986   -5.4349986   -4.6105734 -0.002200099   -5.4349986   0.82442517   439061 
 4066000   0.54951168   -5.4354493   -5.4354493   -4.6111837 0.00097819684   -5.4354493   0.82426564   439061 
 4067000   0.54995296   -5.4360714   -5.4360714   -4.6111438 -7.4326815e-05   -5.4360714   0.82492756   439061 
 4068000   0.54871181   -5.4345964   -5.4345964   -4.6115305 -0.0044383438   -5.4345964   0.82306585   439061 
 4069000   0.54890707   -5.4356356   -5.4356356   -4.6122769 -0.00088689634   -5.4356356   0.82335873   439061 
 4070000   0.54919288   -5.4363299   -5.4363299   -4.6125424 -0.0013883531   -5.4363299   0.82378745   439061 
 4071000   0.54973861   -5.4369243   -5.4369243   -4.6123183 0.00067793203   -5.4369243   0.82460604   439061 
 4072000   0.55027328   -5.4368503   -5.4368503   -4.6114422 0.0062415571   -5.4368503   0.82540804   439061 
 4073000   0.54966236   -5.4367032   -5.4367032   -4.6122116 0.0083078787   -5.4367032   0.82449166   439061 
 4074000   0.54994817    -5.436446    -5.436446   -4.6115256 0.0018078708    -5.436446   0.82492038   439061 
 4075000   0.54942687   -5.4363777   -5.4363777   -4.6122392 8.8493803e-05   -5.4363777   0.82413843   439061 
 4076000   0.54943091   -5.4368228   -5.4368228   -4.6126783 -0.0056038673   -5.4368228   0.82414449   439061 
 4077000    0.5484314   -5.4341059   -5.4341059   -4.6114607 -0.00010859882   -5.4341059   0.82264522   439061 
 4078000   0.54914059   -5.4358334   -5.4358334   -4.6121243 -0.002321727   -5.4358334   0.82370902   439061 
 4079000   0.54904456   -5.4352717   -5.4352717   -4.6117067 -0.0014301764   -5.4352717   0.82356497   439061 
 4080000   0.55024569    -5.436681    -5.436681   -4.6113143 -0.0029925948    -5.436681   0.82536665   439061 
 4081000   0.55058984   -5.4362489   -5.4362489    -4.610366 -0.0011465811   -5.4362489   0.82588288   439061 
 4082000   0.54967203   -5.4357232   -5.4357232   -4.6112171 0.00052557869   -5.4357232   0.82450617   439061 
 4083000   0.55084907   -5.4358257   -5.4358257    -4.609554 0.0012385247   -5.4358257   0.82627172   439061 
 4084000   0.55012401   -5.4354928   -5.4354928   -4.6103086 0.0039093784   -5.4354928   0.82518414   439061 
 4085000   0.54933469    -5.434238    -5.434238   -4.6102378 0.0025880702    -5.434238   0.82400015   439061 
 4086000   0.54945363    -5.434044    -5.434044   -4.6098654 -0.0020710003    -5.434044   0.82417857   439061 
 4087000   0.54943931   -5.4340661   -5.4340661   -4.6099091 -0.0036662863   -5.4340661   0.82415708   439061 
 4088000   0.54985209   -5.4347086   -5.4347086   -4.6099324 -0.0043712575   -5.4347086   0.82477625   439061 
 4089000   0.54945144   -5.4347073   -5.4347073    -4.610532 -0.0060894399   -5.4347073   0.82417528   439061 
 4090000   0.54974744   -5.4337149   -5.4337149   -4.6090956 -0.0039197572   -5.4337149   0.82461928   439061 
 4091000   0.54858491    -5.433196    -5.433196   -4.6103205 0.00054733832    -5.433196   0.82287548   439061 
 4092000   0.55067654   -5.4358968   -5.4358968   -4.6098838 -0.00078939905   -5.4358968   0.82601293   439061 
 4093000   0.54998776   -5.4351859   -5.4351859   -4.6102061 0.0017788096   -5.4351859   0.82497977   439061 
 4094000   0.55059648   -5.4369658   -5.4369658    -4.611073 0.00097426715   -5.4369658   0.82589284   439061 
 4095000   0.54894427   -5.4352361   -5.4352361   -4.6118216 0.0043297986   -5.4352361   0.82341454   439061 
 4096000   0.55026174     -5.43688     -5.43688   -4.6114893 0.0040540467     -5.43688   0.82539073   439061 
 4097000   0.54935878   -5.4352586   -5.4352586   -4.6112223 0.0024817306   -5.4352586    0.8240363   439061 
 4098000   0.55063778   -5.4370337   -5.4370337   -4.6110789 0.0016595071   -5.4370337   0.82595479   439061 
 4099000   0.54918385   -5.4357078   -5.4357078   -4.6119339 -0.0029323495   -5.4357078    0.8237739   439061 
 4100000   0.54916416   -5.4357571   -5.4357571   -4.6120127 -0.0060537504   -5.4357571   0.82374436   439061 
 4101000   0.54930894   -5.4352844   -5.4352844   -4.6113229 -0.0055622543   -5.4352844   0.82396153   439061 
 4102000   0.55062386    -5.435952    -5.435952   -4.6100181 -0.0010568328    -5.435952   0.82593391   439061 
 4103000    0.5500163   -5.4351605   -5.4351605   -4.6101379 3.9922857e-05   -5.4351605   0.82502257   439061 
 4104000   0.54944087   -5.4354062   -5.4354062   -4.6112468 0.00024146486   -5.4354062   0.82415943   439061 
 4105000    0.5496109   -5.4355516   -5.4355516   -4.6111371 -0.0041289869   -5.4355516   0.82441447   439061 
 4106000   0.55091595   -5.4363889   -5.4363889   -4.6100169  0.003282632   -5.4363889   0.82637204   439061 
 4107000   0.55138008   -5.4362951   -5.4362951   -4.6092268 0.0034217765   -5.4362951   0.82706824   439061 
 4108000   0.55070147   -5.4362533   -5.4362533    -4.610203  0.000973472   -5.4362533   0.82605033   439061 
 4109000   0.54944698   -5.4337968   -5.4337968   -4.6096282 0.0017642355   -5.4337968   0.82416859   439061 
 4110000   0.54977648   -5.4348511   -5.4348511   -4.6101883 -0.0023423976   -5.4348511   0.82466284   439061 
 4111000   0.54968604   -5.4353759   -5.4353759   -4.6108487  0.001027106   -5.4353759   0.82452718   439061 
 4112000   0.55025964      -5.4357      -5.4357   -4.6103124 -0.0062073279      -5.4357   0.82538758   439061 
 4113000   0.54994149   -5.4342508   -5.4342508   -4.6093404 -0.0011855786   -5.4342508   0.82491036   439061 
 4114000   0.55036215   -5.4350047   -5.4350047   -4.6094634 0.00012528965   -5.4350047   0.82554135   439061 
 4115000   0.54955567   -5.4338561   -5.4338561   -4.6095245 -0.0012678307   -5.4338561   0.82433163   439061 
 4116000   0.55035631    -5.436395    -5.436395   -4.6108625 -0.0017955048    -5.436395   0.82553258   439061 
 4117000    0.5502508   -5.4358223   -5.4358223   -4.6104479 -0.0015457352   -5.4358223   0.82537433   439061 
 4118000   0.55013908    -5.435633    -5.435633   -4.6104262 -0.0023088437    -5.435633   0.82520674   439061 
 4119000   0.54950877   -5.4347417   -5.4347417   -4.6104804 0.00082330922   -5.4347417   0.82426128   439061 
 4120000    0.5501173   -5.4357315   -5.4357315   -4.6105574 -3.177093e-05   -5.4357315   0.82517407   439061 
 4121000   0.55044098   -5.4361255   -5.4361255   -4.6104659  0.003374857   -5.4361255   0.82565959   439061 
 4122000   0.55050967   -5.4367403   -5.4367403   -4.6109777 -0.0030884332   -5.4367403   0.82576262   439061 
 4123000   0.54934811   -5.4351933   -5.4351933    -4.611173 0.00073579393   -5.4351933   0.82402029   439061 
 4124000   0.55005946   -5.4361637   -5.4361637   -4.6110764 -0.0047745054   -5.4361637   0.82508731   439061 
 4125000   0.54930273   -5.4345942   -5.4345942    -4.610642 -0.0013495002   -5.4345942   0.82395221   439061 
 4126000   0.54933315    -5.434626    -5.434626   -4.6106282 0.0024412404    -5.434626   0.82399784   439061 
 4127000   0.54955065   -5.4355617   -5.4355617   -4.6112376 -0.0018848622   -5.4355617    0.8243241   439061 
 4128000   0.54957274   -5.4360512   -5.4360512   -4.6116939  -0.00135153   -5.4360512   0.82435723   439061 
 4129000   0.54885576   -5.4347942   -5.4347942   -4.6115124 0.0032195281   -5.4347942   0.82328177   439061 
 4130000   0.55014595   -5.4371411   -5.4371411   -4.6119241 -0.00026979787   -5.4371411   0.82521704   439061 
 4131000    0.5503582    -5.436032    -5.436032   -4.6104966 0.0021920231    -5.436032   0.82553542   439061 
 4132000   0.55109718   -5.4367595   -5.4367595   -4.6101157 -0.00047284535   -5.4367595   0.82664388   439061 
 4133000   0.54958486    -5.435456    -5.435456   -4.6110806 0.0026068099    -5.435456   0.82437542   439061 
 4134000   0.55098885   -5.4373887   -5.4373887   -4.6109073 -0.00098388871   -5.4373887   0.82648139   439061 
 4135000   0.54993269   -5.4367573   -5.4367573   -4.6118601 -0.0030371073   -5.4367573   0.82489716   439061 
 4136000   0.55020784    -5.436148    -5.436148   -4.6108381 -0.00062175417    -5.436148   0.82530988   439061 
 4137000   0.54982928   -5.4355572   -5.4355572   -4.6108151 -0.00053865934   -5.4355572   0.82474205   439061 
 4138000    0.5497766   -5.4342344   -5.4342344   -4.6095714  0.006443371   -5.4342344   0.82466302   439061 
 4139000   0.54966072    -5.434451    -5.434451   -4.6099618 0.00032731555    -5.434451    0.8244892   439061 
 4140000    0.5500181    -5.434563    -5.434563   -4.6095377 -0.0021580925    -5.434563   0.82502527   439061 
 4141000   0.54997083   -5.4345459   -5.4345459   -4.6095916 0.0018946153   -5.4345459   0.82495437   439061 
 4142000    0.5507155   -5.4356901   -5.4356901   -4.6096188  0.001276488   -5.4356901   0.82607136   439061 
 4143000    0.5506157   -5.4358714   -5.4358714   -4.6099497 -0.0019058168   -5.4358714   0.82592167   439061 
 4144000   0.55021677   -5.4352755   -5.4352755   -4.6099522 0.00067542352   -5.4352755   0.82532328   439061 
 4145000   0.54941167   -5.4344078   -5.4344078   -4.6102922 0.0035511655   -5.4344078   0.82411563   439061 
 4146000   0.54974737   -5.4350163   -5.4350163   -4.6103971 0.0006396949   -5.4350163   0.82461917   439061 
 4147000   0.54955628    -5.434393    -5.434393   -4.6100605 0.00081256144    -5.434393   0.82433255   439061 
 4148000    0.5507509   -5.4362398   -5.4362398   -4.6101153 -0.0020893326   -5.4362398   0.82612447   439061 
 4149000   0.54963108   -5.4345091   -5.4345091   -4.6100644 0.0046019058   -5.4345091   0.82444475   439061 
 4150000   0.55014418   -5.4354125   -5.4354125   -4.6101981 -0.0028068769   -5.4354125   0.82521438   439061 
 4151000   0.54983821   -5.4350669   -5.4350669   -4.6103114 -0.0026611851   -5.4350669   0.82475543   439061 
 4152000   0.54896936   -5.4351862   -5.4351862   -4.6117341 -0.0013465064   -5.4351862   0.82345217   439061 
 4153000   0.54899837   -5.4347916   -5.4347916   -4.6112959 -0.0032950773   -5.4347916   0.82349567   439061 
 4154000   0.54825251   -5.4337049   -5.4337049    -4.611328 -0.002659723   -5.4337049   0.82237689   439061 
 4155000   0.54911483   -5.4348281   -5.4348281   -4.6111578 -0.00098134487   -5.4348281   0.82367037   439061 
 4156000   0.55042588   -5.4362418   -5.4362418   -4.6106048 0.0030860324   -5.4362418   0.82563694   439061 
 4157000   0.55095025   -5.4362934   -5.4362934   -4.6098699 0.0021139298   -5.4362934   0.82642349   439061 
 4158000    0.5507767   -5.4359869   -5.4359869   -4.6098238 0.0060505229   -5.4359869   0.82616317   439061 
 4159000     0.550056   -5.4352756   -5.4352756   -4.6101935 0.0026784368   -5.4352756   0.82508212   439061 
 4160000   0.55014655   -5.4365189   -5.4365189    -4.611301 -0.0045000098   -5.4365189   0.82521795   439061 
 4161000   0.54898305    -5.435387    -5.435387   -4.6119143 -0.0048727719    -5.435387   0.82347271   439061 
 4162000   0.54879576   -5.4339863   -5.4339863   -4.6107946 0.00075084237   -5.4339863   0.82319176   439061 
 4163000   0.55022806   -5.4359863   -5.4359863   -4.6106461 -0.007411256   -5.4359863   0.82534021   439061 
 4164000    0.5494667   -5.4343696   -5.4343696   -4.6101714 -0.003328446   -5.4343696   0.82419817   439061 
 4165000   0.54981699    -5.434979    -5.434979   -4.6102554 -0.0032719814    -5.434979    0.8247236   439061 
 4166000   0.55092025   -5.4362239   -5.4362239   -4.6098454 0.0035647368   -5.4362239   0.82637849   439061 
 4167000   0.55017624   -5.4353452   -5.4353452   -4.6100827 0.0045494746   -5.4353452   0.82526247   439061 
 4168000    0.5499337    -5.436017    -5.436017   -4.6111183 0.0021319601    -5.436017   0.82489867   439061 
 4169000   0.55039549   -5.4367141   -5.4367141   -4.6111228 0.00089074917   -5.4367141   0.82559136   439061 
 4170000   0.55057755   -5.4364268   -5.4364268   -4.6105623  0.003636764   -5.4364268   0.82586444   439061 
 4171000   0.54996024   -5.4360084   -5.4360084   -4.6110699 0.0014923519   -5.4360084   0.82493849   439061 
 4172000   0.55058114   -5.4362328   -5.4362328   -4.6103629 -0.0032048394   -5.4362328   0.82586983   439061 
 4173000   0.54977609   -5.4343676   -5.4343676   -4.6097054 -0.0011484607   -5.4343676   0.82466226   439061 
 4174000   0.54955899   -5.4337669   -5.4337669   -4.6094303 -0.0048407364   -5.4337669   0.82433661   439061 
 4175000    0.5493153    -5.433438    -5.433438   -4.6094669 -0.0026148804    -5.433438   0.82397107   439061 
 4176000   0.55016907   -5.4335008   -5.4335008   -4.6082491 -0.0046381878   -5.4335008   0.82525173   439061 
 4177000   0.55021854   -5.4351204   -5.4351204   -4.6097945 -0.0070016191   -5.4351204   0.82532594   439061 
 4178000   0.55025637   -5.4343003   -5.4343003   -4.6089176 -0.00049294455   -5.4343003   0.82538267   439061 
 4179000   0.55075186   -5.4355828   -5.4355828   -4.6094569 -0.0016061566   -5.4355828    0.8261259   439061 
 4180000   0.55012578   -5.4349114   -5.4349114   -4.6097246 0.00051296958   -5.4349114   0.82518679   439061 
 4181000   0.55117856   -5.4365689   -5.4365689    -4.609803 0.0021721855   -5.4365689   0.82676596   439061 
 4182000   0.55171329   -5.4362891   -5.4362891   -4.6087211 0.0052051395   -5.4362891   0.82756806   439061 
 4183000   0.55115152   -5.4355903   -5.4355903   -4.6088649 0.0020067965   -5.4355903    0.8267254   439061 
 4184000   0.55079987   -5.4363524   -5.4363524   -4.6101545 -0.00064406173   -5.4363524   0.82619792   439061 
 4185000   0.55062264   -5.4358087   -5.4358087   -4.6098767 -0.0065655701   -5.4358087   0.82593209   439061 
 4186000   0.54985168   -5.4347811   -5.4347811   -4.6100055 -0.0063085844   -5.4347811   0.82477564   439061 
 4187000   0.55022006     -5.43481     -5.43481   -4.6094818 -0.0075288425     -5.43481   0.82532821   439061 
 4188000   0.54970263   -5.4340585   -5.4340585   -4.6095064 -0.0041652261   -5.4340585   0.82455207   439061 
 4189000   0.55005286    -5.434893    -5.434893   -4.6098156 -0.0025116701    -5.434893   0.82507741   439061 
 4190000   0.55126067   -5.4353492   -5.4353492     -4.60846 -0.0020696121   -5.4353492   0.82688912   439061 
 4191000   0.55086333   -5.4351364   -5.4351364   -4.6088433 0.0058069561   -5.4351364   0.82629311   439061 
 4192000   0.55086679   -5.4354341   -5.4354341   -4.6091358 0.0051758972   -5.4354341   0.82629831   439061 
 4193000   0.55094142   -5.4361677   -5.4361677   -4.6097574 0.00031802517   -5.4361677   0.82641025   439061 
 4194000   0.54930373   -5.4341936   -5.4341936   -4.6102399 -0.0022286376   -5.4341936   0.82395372   439061 
 4195000   0.54981011   -5.4352504   -5.4352504   -4.6105371 -0.0012994493   -5.4352504   0.82471329   439061 
 4196000   0.54899144   -5.4344732   -5.4344732   -4.6109879 -1.3422808e-05   -5.4344732   0.82348529   439061 
 4197000   0.54931373   -5.4347756   -5.4347756   -4.6108069 -2.6409991e-05   -5.4347756   0.82396872   439061 
 4198000   0.55007085   -5.4351493   -5.4351493   -4.6100449 -0.0050336769   -5.4351493    0.8251044   439061 
 4199000   0.55004909   -5.4347259   -5.4347259   -4.6096541 -0.0016221951   -5.4347259   0.82507176   439061 
 4200000   0.55050908   -5.4351763   -5.4351763   -4.6094146 0.0015864317   -5.4351763   0.82576173   439061 
 4201000   0.55149137   -5.4363272   -5.4363272    -4.609092 -0.00058546156   -5.4363272   0.82723518   439061 
 4202000   0.55037387   -5.4343363   -5.4343363   -4.6087774 0.0028876948   -5.4343363   0.82555892   439061 
 4203000   0.55066835   -5.4353115   -5.4353115   -4.6093109 -0.0034565928   -5.4353115   0.82600064   439061 
 4204000   0.55059677   -5.4354743   -5.4354743    -4.609581 -0.0026803883   -5.4354743   0.82589328   439061 
 4205000   0.55015421   -5.4356533   -5.4356533   -4.6104238 -0.0043735361   -5.4356533   0.82522943   439061 
 4206000   0.54939442   -5.4336741   -5.4336741   -4.6095843 -0.00096368533   -5.4336741   0.82408975   439061 
 4207000   0.55030407   -5.4352288   -5.4352288   -4.6097746 -0.00049780545   -5.4352288   0.82545422   439061 
 4208000   0.54915165   -5.4347809   -5.4347809   -4.6110553 -0.0039455047   -5.4347809    0.8237256   439061 
 4209000   0.55062372   -5.4361216   -5.4361216   -4.6101879 -0.0028679235   -5.4361216   0.82593369   439061 
 4210000   0.54898368   -5.4338394   -5.4338394   -4.6103657 0.0035087963   -5.4338394   0.82347365   439061 
 4211000   0.54998617   -5.4359851   -5.4359851   -4.6110077 0.0030236464   -5.4359851   0.82497738   439061 
 4212000   0.54995783   -5.4364866   -5.4364866   -4.6115518 -9.931222e-05   -5.4364866   0.82493486   439061 
 4213000    0.5507191   -5.4367036   -5.4367036   -4.6106268 -0.004477508   -5.4367036   0.82607676   439061 
 4214000   0.55036004     -5.43509     -5.43509   -4.6095519 0.0036224427     -5.43509   0.82553818   439061 
 4215000   0.55026297   -5.4356331   -5.4356331   -4.6102405 -0.00021213939   -5.4356331   0.82539257   439061 
 4216000   0.54924132   -5.4347292   -5.4347292   -4.6108691 -0.002593078   -5.4347292    0.8238601   439061 
 4217000   0.54968672    -5.434697    -5.434697   -4.6101688 -0.0069248505    -5.434697    0.8245282   439061 
 4218000   0.55076184   -5.4367238   -5.4367238   -4.6105829 -0.0062228106   -5.4367238   0.82614088   439061 
 4219000   0.55010955   -5.4356831   -5.4356831   -4.6105207  0.001237094   -5.4356831   0.82516245   439061 
 4220000    0.5503925   -5.4360749   -5.4360749    -4.610488 0.0011121378   -5.4360749   0.82558687   439061 
 4221000   0.55019676   -5.4362143   -5.4362143    -4.610921 0.0046062144   -5.4362143   0.82529326   439061 
 4222000   0.55000771   -5.4361877   -5.4361877    -4.611178 0.0017746765   -5.4361877   0.82500969   439061 
 4223000   0.54999332   -5.4361427   -5.4361427   -4.6111546 -0.0022290129   -5.4361427    0.8249881   439061 
 4224000   0.54954791   -5.4345175   -5.4345175   -4.6101975 0.0075875341   -5.4345175   0.82431999   439061 
 4225000    0.5498612    -5.434377    -5.434377    -4.609587 0.0015031659    -5.434377   0.82478992   439061 
 4226000   0.54992054   -5.4345546   -5.4345546   -4.6096756 -0.0029900245   -5.4345546   0.82487894   439061 
 4227000    0.5500016   -5.4343619   -5.4343619   -4.6093614 -0.0018177031   -5.4343619   0.82500052   439061 
 4228000   0.54976262    -5.434175    -5.434175   -4.6095329 -0.0053963683    -5.434175   0.82464205   439061 
 4229000   0.54946536   -5.4337288   -5.4337288   -4.6095326 -0.0025881174   -5.4337288   0.82419617   439061 
 4230000   0.54974892   -5.4340562   -5.4340562   -4.6094347 -0.0075254215   -5.4340562    0.8246215   439061 
 4231000   0.55007034   -5.4352345   -5.4352345   -4.6101309 -0.0050954371   -5.4352345   0.82510364   439061 
 4232000   0.55118833    -5.436781    -5.436781   -4.6100004 -0.003046914    -5.436781   0.82678061   439061 
 4233000     0.550578     -5.43646     -5.43646   -4.6105948 -0.00047790474     -5.43646   0.82586512   439061 
 4234000   0.55164023   -5.4371575   -5.4371575    -4.609699 -0.00045739602   -5.4371575   0.82745846   439061 
 4235000   0.55071101   -5.4362587   -5.4362587   -4.6101941 0.0030563634   -5.4362587   0.82606464   439061 
 4236000   0.55089843   -5.4366699   -5.4366699   -4.6103242 0.0046365986   -5.4366699   0.82634576   439061 
 4237000   0.55033155   -5.4362625   -5.4362625   -4.6107671 0.0016820564   -5.4362625   0.82549545   439061 
 4238000   0.55027112   -5.4355911   -5.4355911   -4.6101863 -0.0031122636   -5.4355911    0.8254048   439061 
 4239000   0.55069628   -5.4352376   -5.4352376    -4.609195 -0.0034622432   -5.4352376   0.82604254   439061 
 4240000   0.55107229   -5.4353308   -5.4353308   -4.6087243 -0.0043827859   -5.4353308   0.82660656   439061 
 4241000   0.55108702   -5.4349149   -5.4349149   -4.6082862 -0.0041473956   -5.4349149   0.82662865   439061 
 4242000   0.55001702   -5.4334398   -5.4334398   -4.6084161 -0.0027823859   -5.4334398   0.82502365   439061 
 4243000   0.55122719   -5.4358387   -5.4358387   -4.6089998 -0.0046305645   -5.4358387    0.8268389   439061 
 4244000   0.55020219   -5.4345781   -5.4345781   -4.6092767 -0.0029102843   -5.4345781    0.8253014   439061 
 4245000   0.55000025   -5.4341281   -5.4341281   -4.6091296 -0.0019138294   -5.4341281    0.8249985   439061 
 4246000   0.54971072   -5.4348627   -5.4348627   -4.6102985 -0.0027153414   -5.4348627    0.8245642   439061 
 4247000   0.54962194    -5.434794    -5.434794    -4.610363 0.0016978632    -5.434794   0.82443103   439061 
 4248000    0.5506117   -5.4361801   -5.4361801   -4.6102644 0.00038576299   -5.4361801   0.82591567   439061 
 4249000   0.55043699   -5.4363987   -5.4363987   -4.6107451 0.0017254166   -5.4363987    0.8256536   439061 
 4250000   0.54952978   -5.4342972   -5.4342972   -4.6100044 0.0057027016   -5.4342972   0.82429279   439061 
 4251000   0.55029564    -5.436495    -5.436495   -4.6110535 -0.00032945014    -5.436495   0.82544158   439061 
 4252000   0.55075945   -5.4359324   -5.4359324   -4.6097951 0.0020287201   -5.4359324   0.82613729   439061 
 4253000   0.55043043   -5.4351287   -5.4351287   -4.6094849 0.0025167731   -5.4351287   0.82564376   439061 
 4254000   0.55020362   -5.4353213   -5.4353213   -4.6100178  -0.00350234   -5.4353213   0.82530355   439061 
 4255000   0.54937334   -5.4347285   -5.4347285   -4.6106704 -0.0053875027   -5.4347285   0.82405813   439061 
 4256000   0.54912568   -5.4348133   -5.4348133   -4.6111267 -0.0052122533   -5.4348133   0.82368664   439061 
 4257000   0.54994633   -5.4358715   -5.4358715   -4.6109539 -0.005677279   -5.4358715   0.82491762   439061 
 4258000   0.55079585   -5.4365991   -5.4365991   -4.6104072 -0.0014703152   -5.4365991   0.82619189   439061 
 4259000   0.55116089   -5.4360057   -5.4360057   -4.6092662 -0.00098923581   -5.4360057   0.82673944   439061 
 4260000   0.55055685   -5.4354853   -5.4354853   -4.6096519 0.0033397767   -5.4354853   0.82583339   439061 
 4261000    0.5500691   -5.4351867   -5.4351867   -4.6100849 0.0055684373   -5.4351867   0.82510177   439061 
 4262000   0.55036827   -5.4360467   -5.4360467   -4.6104961 0.0025354373   -5.4360467   0.82555053   439061 
 4263000   0.54992592   -5.4354115   -5.4354115   -4.6105245 -0.0024674368   -5.4354115   0.82488701   439061 
 4264000   0.55077929    -5.436207    -5.436207     -4.61004 -0.0043539854    -5.436207   0.82616705   439061 
 4265000   0.54993935   -5.4353233   -5.4353233   -4.6104161 -0.0039819454   -5.4353233   0.82490715   439061 
 4266000   0.54993414   -5.4344741   -5.4344741   -4.6095747 -0.0030796161   -5.4344741   0.82489933   439061 
 4267000   0.54912323    -5.432959    -5.432959    -4.609276 -0.00041827077    -5.432959   0.82368297   439061 
 4268000   0.55020576   -5.4350496   -5.4350496   -4.6097429 -0.0012566806   -5.4350496   0.82530676   439061 
 4269000   0.54897344   -5.4338921   -5.4338921   -4.6104338 0.0036405436   -5.4338921   0.82345828   439061 
 4270000   0.54990701   -5.4354719   -5.4354719   -4.6106132 -0.00066409209   -5.4354719   0.82485864   439061 
 4271000   0.54944514   -5.4355507   -5.4355507   -4.6113849 0.0016022632   -5.4355507   0.82416583   439061 
 4272000   0.55072831   -5.4370556   -5.4370556    -4.610965 0.0022786314   -5.4370556   0.82609058   439061 
 4273000   0.54965835   -5.4348445   -5.4348445   -4.6103589 0.0052531105   -5.4348445   0.82448565   439061 
 4274000   0.55067798    -5.436901    -5.436901   -4.6108859 0.0032450564    -5.436901   0.82601509   439061 
 4275000   0.54973299   -5.4354441   -5.4354441   -4.6108465 0.0012160483   -5.4354441   0.82459761   439061 
 4276000   0.55003747   -5.4349983   -5.4349983    -4.609944 0.00036831548   -5.4349983   0.82505433   439061 
 4277000   0.54901499   -5.4335245   -5.4335245   -4.6100039 -0.0031741943   -5.4335245   0.82352061   439061 
 4278000     0.548184   -5.4329744   -5.4329744   -4.6107003 -0.0074497421   -5.4329744   0.82227412   439061 
 4279000   0.54854154   -5.4332477   -5.4332477   -4.6104373 -0.0070749064   -5.4332477   0.82281043   439061 
 4280000   0.54952969   -5.4346344   -5.4346344   -4.6103417 -0.0028005438   -5.4346344   0.82429265   439061 
 4281000   0.55034666   -5.4352002   -5.4352002   -4.6096821 -0.00053599936   -5.4352002    0.8255181   439061 
 4282000   0.54984722   -5.4353884   -5.4353884   -4.6106195 0.0029245924   -5.4353884   0.82476894   439061 
 4283000   0.55034152   -5.4364359   -5.4364359   -4.6109255 0.0036064027   -5.4364359    0.8255104   439061 
 4284000     0.550882   -5.4363284   -5.4363284   -4.6100073  0.006259058   -5.4363284   0.82632111   439061 
 4285000   0.55067797   -5.4361398   -5.4361398   -4.6101247 0.0050289122   -5.4361398   0.82601508   439061 
 4286000    0.5502602   -5.4349499   -5.4349499   -4.6095614 0.0046146155   -5.4349499   0.82538842   439061 
 4287000   0.55094448   -5.4361018   -5.4361018    -4.609687 -0.0062891521   -5.4361018   0.82641484   439061 
 4288000   0.54944102   -5.4340812   -5.4340812   -4.6099215 -0.0046885619   -5.4340812   0.82415966   439061 
 4289000   0.54954588   -5.4331586   -5.4331586   -4.6088416 -0.0015168968   -5.4331586   0.82431695   439061 
 4290000   0.54917957   -5.4317248   -5.4317248   -4.6079573 -0.0025580314   -5.4317248   0.82376749   439061 
 4291000   0.54970304   -5.4323935   -5.4323935   -4.6078408 -0.0072891391   -5.4323935   0.82455268   439061 
 4292000   0.55073187   -5.4333515   -5.4333515   -4.6072556 -0.002856783   -5.4333515   0.82609593   439061 
 4293000    0.5506323   -5.4338157   -5.4338157   -4.6078691 -0.005185068   -5.4338157   0.82594657   439061 
 4294000   0.54952779   -5.4328571   -5.4328571   -4.6085673 0.00023880552   -5.4328571   0.82428981   439061 
 4295000   0.55016702   -5.4343608   -5.4343608   -4.6091121 -0.0027119736   -5.4343608   0.82524864   439061 
 4296000   0.55064282   -5.4346274   -5.4346274    -4.608665 0.0039303595   -5.4346274   0.82596235   439061 
 4297000   0.55043962    -5.434917    -5.434917   -4.6092594 0.0057718565    -5.434917   0.82565755   439061 
 4298000    0.5509403   -5.4348733   -5.4348733   -4.6084648 0.0031040831   -5.4348733   0.82640856   439061 
 4299000   0.55033793   -5.4344905   -5.4344905   -4.6089855 0.0021911619   -5.4344905   0.82550502   439061 
 4300000   0.54994907   -5.4340451   -5.4340451   -4.6091234 -0.00025410969   -5.4340451   0.82492172   439061 
 4301000   0.54964514    -5.433479    -5.433479   -4.6090132 0.00027086332    -5.433479   0.82446584   439061 
 4302000   0.54988548   -5.4338342   -5.4338342   -4.6090079 -0.00017737156   -5.4338342   0.82482635   439061 
 4303000   0.54953322    -5.433163    -5.433163   -4.6088651 -0.0046142552    -5.433163   0.82429796   439061 
 4304000    0.5486055   -5.4316142   -5.4316142   -4.6087078 -0.0028016714   -5.4316142   0.82290638   439061 
 4305000   0.55006961   -5.4351807   -5.4351807   -4.6100781 -0.0054938788   -5.4351807   0.82510253   439061 
 4306000   0.54947078   -5.4341365   -5.4341365   -4.6099322 -0.00076447399   -5.4341365   0.82420429   439061 
 4307000   0.55056934   -5.4349094   -5.4349094   -4.6090573 -0.0016607104   -5.4349094   0.82585213   439061 
 4308000    0.5492677   -5.4331629   -5.4331629   -4.6092632 0.0051321914   -5.4331629   0.82389968   439061 
 4309000   0.55056407   -5.4351499   -5.4351499   -4.6093057  0.008556387   -5.4351499   0.82584423   439061 
 4310000   0.55076374   -5.4348931   -5.4348931   -4.6087494 0.0030055619   -5.4348931   0.82614373   439061 
 4311000   0.55149423   -5.4369092   -5.4369092   -4.6096698 -0.0031351504   -5.4369092   0.82723946   439061 
 4312000   0.54934569   -5.4335097   -5.4335097    -4.609493 -0.0024526225   -5.4335097   0.82401666   439061 
 4313000    0.5496739   -5.4336868   -5.4336868   -4.6091778 -0.0013834999   -5.4336868   0.82450897   439061 
 4314000   0.55017693   -5.4347258   -5.4347258   -4.6094623 -0.0043194352   -5.4347258   0.82526351   439061 
 4315000   0.54918463   -5.4337491   -5.4337491    -4.609974 -0.0072274172   -5.4337491   0.82377507   439061 
 4316000   0.55027854   -5.4347563   -5.4347563   -4.6093404 -0.0042702923   -5.4347563   0.82541593   439061 
 4317000   0.55048166   -5.4350707   -5.4350707   -4.6093501 0.0019482093   -5.4350707   0.82572061   439061 
 4318000   0.54884137   -5.4341347   -5.4341347   -4.6108745 0.0010341843   -5.4341347   0.82326018   439061 
 4319000   0.55050255   -5.4367622   -5.4367622   -4.6110103 0.00099311872   -5.4367622   0.82575195   439061 
 4320000   0.55071578   -5.4369748   -5.4369748    -4.610903 0.0057203532   -5.4369748   0.82607179   439061 
 4321000   0.55018789   -5.4351587   -5.4351587   -4.6098787 0.0066211604   -5.4351587   0.82527995   439061 
 4322000   0.55098198   -5.4366815   -5.4366815   -4.6102104 -0.0012900083   -5.4366815   0.82647109   439061 
 4323000   0.55011916   -5.4347602   -5.4347602   -4.6095834 -0.0017715558   -5.4347602   0.82517686   439061 
 4324000   0.54955412   -5.4346799   -5.4346799   -4.6103506 -0.0032717833   -5.4346799   0.82432931   439061 
 4325000   0.55014988   -5.4344706   -5.4344706   -4.6092476 -0.0064310304   -5.4344706   0.82522294   439061 
 4326000   0.54945514   -5.4323056   -5.4323056   -4.6081247 -0.0015698479   -5.4323056   0.82418084   439061 
 4327000   0.54978254   -5.4332959   -5.4332959    -4.608624 -0.0050052859   -5.4332959   0.82467193   439061 
 4328000   0.54947544   -5.4323826   -5.4323826   -4.6081713 -0.0032863286   -5.4323826   0.82421129   439061 
 4329000   0.55012935   -5.4330972   -5.4330972   -4.6079051 -0.00011816168   -5.4330972   0.82519214   439061 
 4330000   0.55021596   -5.4337379   -5.4337379   -4.6084159 0.0011193296   -5.4337379   0.82532206   439061 
 4331000   0.54979806   -5.4322167   -5.4322167   -4.6075215 0.0046674892   -5.4322167   0.82469521   439061 
 4332000   0.55049012   -5.4338095   -5.4338095   -4.6080762 -0.0016334086   -5.4338095    0.8257333   439061 
 4333000   0.55037025   -5.4336365   -5.4336365   -4.6080831 0.0020516728   -5.4336365   0.82555349   439061 
 4334000   0.55023385   -5.4339181   -5.4339181   -4.6085692 0.00090035035   -5.4339181    0.8253489   439061 
 4335000   0.54986675   -5.4333523   -5.4333523    -4.608554 0.00055279342   -5.4333523   0.82479825   439061 
 4336000   0.55011809   -5.4336995   -5.4336995   -4.6085242 -6.8896712e-05   -5.4336995   0.82517526   439061 
 4337000   0.54969873   -5.4334608   -5.4334608   -4.6089146 -0.00037439051   -5.4334608   0.82454622   439061 
 4338000   0.55046533   -5.4349156   -5.4349156   -4.6092195 -0.00093303471   -5.4349156   0.82569611   439061 
 4339000   0.55009192   -5.4350959   -5.4350959   -4.6099599 0.0012367537   -5.4350959     0.825136   439061 
 4340000   0.55082764   -5.4357544   -5.4357544   -4.6095148 -0.0052380235   -5.4357544   0.82623958   439061 
 4341000   0.54944825   -5.4336311   -5.4336311   -4.6094606 0.00020455376   -5.4336311    0.8241705   439061 
 4342000   0.55015002   -5.4349506   -5.4349506   -4.6097274 0.0019736161   -5.4349506   0.82522315   439061 
 4343000   0.55023166   -5.4344294   -5.4344294   -4.6090838 0.0033977732   -5.4344294   0.82534561   439061 
 4344000   0.55060038   -5.4357259   -5.4357259   -4.6098272 0.00091167412   -5.4357259   0.82589869   439061 
 4345000   0.54984662   -5.4341989   -5.4341989   -4.6094309 0.0020831142   -5.4341989   0.82476805   439061 
 4346000   0.55040396   -5.4348681   -5.4348681    -4.609264 8.0125571e-05   -5.4348681   0.82560407   439061 
 4347000   0.55079254   -5.4354775   -5.4354775   -4.6092905 -0.0018755042   -5.4354775   0.82618693   439061 
 4348000   0.54986292   -5.4343143   -5.4343143   -4.6095218 -0.0044468844   -5.4343143   0.82479249   439061 
 4349000   0.54924179   -5.4335235   -5.4335235   -4.6096627 -0.00054308264   -5.4335235   0.82386081   439061 
 4350000   0.54902608   -5.4330507   -5.4330507   -4.6095135 -0.00064138214   -5.4330507   0.82353725   439061 
 4351000   0.54995615    -5.433507    -5.433507   -4.6085747 0.0010105062    -5.433507   0.82493235   439061 
 4352000   0.55043207   -5.4343252   -5.4343252    -4.608679 -0.0038597989   -5.4343252   0.82564623   439061 
 4353000   0.54958478   -5.4325723   -5.4325723    -4.608197 -3.0518036e-06   -5.4325723    0.8243753   439061 
 4354000   0.55098139   -5.4347753   -5.4347753   -4.6083051 -0.0042164036   -5.4347753   0.82647021   439061 
 4355000   0.54992019   -5.4339252   -5.4339252   -4.6090468 -0.001370957   -5.4339252    0.8248784   439061 
 4356000   0.54977642   -5.4329163   -5.4329163   -4.6082536 -0.0032214927   -5.4329163   0.82466274   439061 
 4357000   0.55036063   -5.4327986   -5.4327986   -4.6072596 -5.0470511e-05   -5.4327986   0.82553907   439061 
 4358000   0.55016275   -5.4340332   -5.4340332    -4.608791 -0.0030659589   -5.4340332   0.82524225   439061 
 4359000   0.54967434   -5.4339809   -5.4339809   -4.6094713 -0.0030239958   -5.4339809   0.82450964   439061 
 4360000   0.55022221   -5.4342044   -5.4342044    -4.608873 -0.0040901963   -5.4342044   0.82533143   439061 
 4361000   0.55040155   -5.4345537   -5.4345537   -4.6089532 -8.8360302e-05   -5.4345537   0.82560045   439061 
 4362000   0.55108561   -5.4358036   -5.4358036   -4.6091771 0.0029464467   -5.4358036   0.82662653   439061 
 4363000   0.55004936   -5.4341651   -5.4341651   -4.6090929 0.00040191731   -5.4341651   0.82507217   439061 
 4364000   0.54991601   -5.4341332   -5.4341332   -4.6092611 -0.00054139252   -5.4341332   0.82487214   439061 
 4365000   0.54995392   -5.4337938   -5.4337938   -4.6088648 -0.00079906796   -5.4337938   0.82492901   439061 
 4366000   0.54968242   -5.4336814   -5.4336814   -4.6091596 0.00083378849   -5.4336814   0.82452175   439061 
 4367000   0.55042455   -5.4347852   -5.4347852   -4.6091502 -0.0087313412   -5.4347852   0.82563495   439061 
 4368000   0.55096558    -5.434686    -5.434686   -4.6082395 -0.0037328352    -5.434686   0.82644649   439061 
 4369000   0.55100719   -5.4347342   -5.4347342   -4.6082253 -0.0016515661   -5.4347342    0.8265089   439061 
 4370000   0.55015421   -5.4328884   -5.4328884    -4.607659 0.0021603745   -5.4328884   0.82522944   439061 
 4371000   0.55118902   -5.4349091   -5.4349091   -4.6081275 -8.1316941e-05   -5.4349091   0.82678165   439061 
 4372000   0.55021409   -5.4344674   -5.4344674   -4.6091482 -0.001308602   -5.4344674   0.82531926   439061 
 4373000   0.55102706   -5.4350815   -5.4350815   -4.6085428 0.00024022934   -5.4350815    0.8265387   439061 
 4374000   0.54973719   -5.4330538   -5.4330538   -4.6084499 0.0050724243   -5.4330538   0.82460391   439061 
 4375000   0.55064335   -5.4343229   -5.4343229   -4.6083597 0.00049290902   -5.4343229   0.82596314   439061 
 4376000   0.55015963   -5.4330826   -5.4330826    -4.607845 -0.0023678899   -5.4330826   0.82523756   439061 
 4377000   0.55062181   -5.4342109   -5.4342109     -4.60828 -0.0041942022   -5.4342109   0.82593083   439061 
 4378000   0.55087391   -5.4342884   -5.4342884   -4.6079794 -0.0011037777   -5.4342884   0.82630898   439061 
 4379000   0.54978729   -5.4325263   -5.4325263   -4.6078472 -0.0016343338   -5.4325263   0.82467906   439061 
 4380000   0.55116003   -5.4345016   -5.4345016   -4.6077634 -0.0053288782   -5.4345016   0.82673816   439061 
 4381000   0.55014936   -5.4323199   -5.4323199   -4.6070977 0.0023362712   -5.4323199   0.82522216   439061 
 4382000    0.5498252   -5.4323081   -5.4323081   -4.6075722 0.0051274554   -5.4323081   0.82473593   439061 
 4383000   0.55031593   -5.4338667   -5.4338667   -4.6083947 -0.00058463288   -5.4338667   0.82547202   439061 
 4384000   0.55034022   -5.4344234   -5.4344234   -4.6089149 -0.003519543   -5.4344234   0.82550846   439061 
 4385000   0.55043718   -5.4332938   -5.4332938   -4.6076399 0.0019156181   -5.4332938   0.82565389   439061 
 4386000   0.55099185   -5.4334818   -5.4334818   -4.6069959 0.0044770003   -5.4334818   0.82648589   439061 
 4387000   0.55000533   -5.4326261   -5.4326261     -4.60762 0.0022863754   -5.4326261   0.82500611   439061 
 4388000   0.54995459   -5.4327805   -5.4327805   -4.6078505 -0.0014007489   -5.4327805      0.82493   439061 
 4389000   0.54979062    -5.433591    -5.433591   -4.6089069 -0.0025299304    -5.433591   0.82468406   439061 
 4390000   0.55050962   -5.4336388   -5.4336388   -4.6078763 -0.0018517056   -5.4336388   0.82576254   439061 
 4391000   0.54959813   -5.4322144   -5.4322144   -4.6078191 0.0033687876   -5.4322144   0.82439532   439061 
 4392000   0.55002843   -5.4332135   -5.4332135   -4.6081727 0.0027903907   -5.4332135   0.82504076   439061 
 4393000   0.55086026    -5.434501    -5.434501   -4.6082125 -0.0009023751    -5.434501   0.82628851   439061 
 4394000   0.55075132   -5.4334897   -5.4334897   -4.6073646 0.0025574538   -5.4334897    0.8261251   439061 
 4395000   0.55047578   -5.4343785   -5.4343785   -4.6086667 -0.00029615663   -5.4343785    0.8257118   439061 
 4396000   0.55035925   -5.4333842   -5.4333842   -4.6078472 0.00076917073   -5.4333842     0.825537   439061 
 4397000   0.54969235   -5.4333409   -5.4333409   -4.6088042 -0.0022771404   -5.4333409   0.82453664   439061 
 4398000   0.55012881   -5.4339108   -5.4339108   -4.6087194 -0.0010237456   -5.4339108   0.82519134   439061 
 4399000   0.54975957   -5.4339755   -5.4339755    -4.609338 9.2973645e-05   -5.4339755   0.82463747   439061 
 4400000   0.55014733   -5.4339744   -5.4339744   -4.6087553 0.00024786523   -5.4339744   0.82521911   439061 
 4401000   0.55035533   -5.4344896   -5.4344896   -4.6089585 -0.0013685854   -5.4344896   0.82553111   439061 
 4402000    0.5502708    -5.435004    -5.435004   -4.6095997 -0.00086242222    -5.435004   0.82540432   439061 
 4403000   0.55031828    -5.434633    -5.434633   -4.6091575 0.00015399482    -5.434633   0.82547555   439061 
 4404000   0.54951662   -5.4338257   -5.4338257   -4.6095527 0.0037206104   -5.4338257   0.82427305   439061 
 4405000    0.5506581    -5.436404    -5.436404   -4.6104187 0.00011929832    -5.436404   0.82598527   439061 
 4406000   0.55013609   -5.4336139   -5.4336139   -4.6084116 0.0016649812   -5.4336139   0.82520226   439061 
 4407000   0.54987448   -5.4331545   -5.4331545   -4.6083447 0.00020317648   -5.4331545   0.82480984   439061 
 4408000   0.55075977   -5.4337181   -5.4337181   -4.6075803 4.912537e-05   -5.4337181   0.82613777   439061 
 4409000   0.54996329   -5.4323943   -5.4323943   -4.6074513 0.0003652024   -5.4323943   0.82494306   439061 
 4410000   0.55057036   -5.4330463   -5.4330463   -4.6071926 -0.0047515215   -5.4330463   0.82585366   439061 
 4411000   0.54993144   -5.4318848   -5.4318848   -4.6069895 -0.0048518858   -5.4318848   0.82489528   439061 
 4412000   0.54966982   -5.4312092   -5.4312092   -4.6067064 -0.0019615882   -5.4312092   0.82450285   439061 
 4413000   0.55003126   -5.4329915   -5.4329915   -4.6079465 -0.0068138231   -5.4329915     0.825045   439061 
 4414000   0.54974319   -5.4325515   -5.4325515   -4.6079386 -0.0028901975   -5.4325515   0.82461291   439061 
 4415000   0.54969305   -5.4335385   -5.4335385   -4.6090008 -0.0014684506   -5.4335385   0.82453769   439061 
 4416000   0.55040735   -5.4353027   -5.4353027   -4.6096936 -0.00099626103   -5.4353027   0.82560915   439061 
 4417000   0.55122459   -5.4359433   -5.4359433   -4.6091083 -0.00081445486   -5.4359433     0.826835   439061 
 4418000   0.55103957   -5.4356771   -5.4356771   -4.6091197 0.0045257558   -5.4356771   0.82655747   439061 
 4419000   0.55160412   -5.4364475   -5.4364475   -4.6090432 0.0018253544   -5.4364475    0.8274043   439061 
 4420000    0.5501262   -5.4344491   -5.4344491   -4.6092617 0.00075785346   -5.4344491   0.82518742   439061 
 4421000   0.55058962   -5.4341936   -5.4341936    -4.608311 0.0027163076   -5.4341936   0.82588255   439061 
 4422000   0.55031336   -5.4346277   -5.4346277   -4.6091595 -0.0049115744   -5.4346277   0.82546816   439061 
 4423000   0.54949105   -5.4334669   -5.4334669   -4.6092322 -0.0047003033   -5.4334669    0.8242347   439061 
 4424000   0.54935179   -5.4333946   -5.4333946   -4.6093688 -0.0047079681   -5.4333946   0.82402581   439061 
 4425000   0.54948438   -5.4337116   -5.4337116   -4.6094869 -0.00012964916   -5.4337116    0.8242247   439061 
 4426000   0.55027439   -5.4346811   -5.4346811   -4.6092714 -0.0034145206   -5.4346811    0.8254097   439061 
 4427000   0.55059618   -5.4341678   -5.4341678   -4.6082754 -0.001624628   -5.4341678   0.82589239   439061 
 4428000   0.55192965   -5.4363629   -5.4363629   -4.6084704 -0.00053754994   -5.4363629   0.82789258   439061 
 4429000   0.55104175   -5.4342699   -5.4342699   -4.6077092 0.0027978314   -5.4342699   0.82656074   439061 
 4430000   0.55085248   -5.4339425   -5.4339425   -4.6076656 -0.0017973312   -5.4339425   0.82627684   439061 
 4431000   0.55068944   -5.4338052   -5.4338052    -4.607773 -0.0035321461   -5.4338052   0.82603227   439061 
 4432000   0.55016918   -5.4334521   -5.4334521   -4.6082002 0.00016826584   -5.4334521    0.8252519   439061 
 4433000   0.54893401   -5.4307271   -5.4307271   -4.6073279 0.0029996572   -5.4307271   0.82339914   439061 
 4434000   0.54945994   -5.4311838   -5.4311838   -4.6069958 -0.0030330273   -5.4311838   0.82418803   439061 
 4435000   0.54904016   -5.4311072   -5.4311072   -4.6075489 -0.0015059105   -5.4311072   0.82355836   439061 
 4436000   0.55002635   -5.4328592   -5.4328592   -4.6078216 0.0010651162   -5.4328592   0.82503764   439061 
 4437000   0.54981754   -5.4323578   -5.4323578   -4.6076333 0.0019108162   -5.4323578   0.82472443   439061 
 4438000    0.5504813   -5.4342682   -5.4342682   -4.6085481 -0.0031596629   -5.4342682   0.82572007   439061 
 4439000   0.55007902   -5.4347993   -5.4347993   -4.6096826 -0.00052421287   -5.4347993   0.82511666   439061 
 4440000    0.5499403   -5.4342348   -5.4342348   -4.6093262 0.0029768414   -5.4342348   0.82490856   439061 
 4441000   0.55085502    -5.436423    -5.436423   -4.6101424 -0.0012659899    -5.436423   0.82628065   439061 
 4442000   0.55098037    -5.436323    -5.436323   -4.6098544 -0.0049759637    -5.436323   0.82646867   439061 
 4443000   0.55005873   -5.4346314   -5.4346314   -4.6095452 0.0035014011   -5.4346314   0.82508622   439061 
 4444000   0.54992604   -5.4338847   -5.4338847   -4.6089975 0.0024830001   -5.4338847   0.82488718   439061 
 4445000   0.55088532    -5.435926    -5.435926   -4.6095999 -0.0041848113    -5.435926    0.8263261   439061 
 4446000   0.55036613   -5.4344017   -5.4344017   -4.6088544 -0.001452522   -5.4344017   0.82554731   439061 
 4447000   0.54972166   -5.4334609   -5.4334609   -4.6088803 -0.0014269452   -5.4334609   0.82458061   439061 
 4448000   0.55061197   -5.4342705   -5.4342705   -4.6083544 -0.0024238928   -5.4342705   0.82591607   439061 
 4449000   0.55007901   -5.4332321   -5.4332321   -4.6081155 0.0011112809   -5.4332321   0.82511664   439061 
 4450000   0.55092112   -5.4346733   -5.4346733   -4.6082935 -0.0020201794   -5.4346733    0.8263798   439061 
 4451000   0.55044196   -5.4338834   -5.4338834   -4.6082224 0.0012566508   -5.4338834   0.82566107   439061 
 4452000   0.54997407    -5.432708    -5.432708   -4.6077488 -0.00086949724    -5.432708   0.82495923   439061 
 4453000   0.54991224   -5.4334259   -5.4334259   -4.6085595 -0.002116994   -5.4334259   0.82486647   439061 
 4454000   0.55029942    -5.433948    -5.433948   -4.6085008 -0.0044797302    -5.433948   0.82544724   439061 
 4455000   0.55033898   -5.4336959   -5.4336959   -4.6081893 -0.003506498   -5.4336959   0.82550659   439061 
 4456000   0.54940307   -5.4325942   -5.4325942   -4.6084915 0.0048637892   -5.4325942   0.82410273   439061 
 4457000   0.55056701   -5.4336223   -5.4336223   -4.6077737 0.0038934624   -5.4336223   0.82584863   439061 
 4458000   0.55073309   -5.4339695   -5.4339695   -4.6078718 -0.00084907384   -5.4339695   0.82609776   439061 
 4459000   0.55031551    -5.433783    -5.433783   -4.6083116 -0.0024559287    -5.433783   0.82547139   439061 
 4460000   0.54950053   -5.4336242   -5.4336242   -4.6093753 -0.00046175806   -5.4336242   0.82424892   439061 
 4461000   0.54947199    -5.434738    -5.434738   -4.6105319 -0.0037895213    -5.434738   0.82420611   439061 
 4462000   0.54854548   -5.4331013   -5.4331013    -4.610285 0.00035210558   -5.4331013   0.82281635   439061 
 4463000   0.54984853   -5.4348977   -5.4348977   -4.6101268 -0.0011111096   -5.4348977   0.82477092   439061 
 4464000   0.54993369   -5.4352277   -5.4352277   -4.6103291 0.0012953633   -5.4352277   0.82489866   439061 
 4465000   0.55052026   -5.4355864   -5.4355864   -4.6098079 0.0034137931   -5.4355864    0.8257785   439061 
 4466000   0.54992632    -5.434446    -5.434446   -4.6095584 0.0075426201    -5.434446    0.8248876   439061 
 4467000   0.55053811   -5.4355781   -5.4355781   -4.6097728 0.00089334733   -5.4355781   0.82580528   439061 
 4468000   0.54953359   -5.4345597   -5.4345597   -4.6102612 0.0018750544   -5.4345597   0.82429851   439061 
 4469000   0.54987825   -5.4345445   -5.4345445    -4.609729 -0.0053660628   -5.4345445    0.8248155   439061 
 4470000   0.54871842    -5.432679    -5.432679   -4.6096033 0.00034502283    -5.432679   0.82307575   439061 
 4471000   0.55048946   -5.4354339   -5.4354339   -4.6097016 -0.012636575   -5.4354339   0.82573232   439061 
 4472000   0.55043461   -5.4346562   -5.4346562   -4.6090061 -0.005494632   -5.4346562   0.82565004   439061 
 4473000   0.55029318   -5.4330904   -5.4330904   -4.6076525 0.00057141639   -5.4330904   0.82543789   439061 
 4474000   0.55060129   -5.4339732   -5.4339732   -4.6080731 -0.00088895581   -5.4339732   0.82590005   439061 
 4475000   0.55058112   -5.4349532   -5.4349532   -4.6090834 -0.00030359122   -5.4349532    0.8258698   439061 
 4476000   0.55116038   -5.4353402   -5.4353402   -4.6086015 -0.00087890308   -5.4353402   0.82673869   439061 
 4477000   0.55011775   -5.4333934   -5.4333934   -4.6082187 0.0034123741   -5.4333934   0.82517475   439061 
 4478000   0.55050801   -5.4345549   -5.4345549   -4.6087948 -0.00068189888   -5.4345549   0.82576013   439061 
 4479000   0.55130862   -5.4361234   -5.4361234   -4.6091624 -0.0020914363   -5.4361234   0.82696104   439061 
 4480000   0.55048264   -5.4347947   -5.4347947   -4.6090726 -0.0021679494   -5.4347947   0.82572208   439061 
 4481000   0.55002761   -5.4343311   -5.4343311   -4.6092916 0.0023235483   -5.4343311   0.82503954   439061 
 4482000   0.55005501   -5.4342472   -5.4342472   -4.6091666 -0.00079177795   -5.4342472   0.82508063   439061 
 4483000   0.54929319   -5.4330747   -5.4330747   -4.6091368 0.00026840137   -5.4330747    0.8239379   439061 
 4484000    0.5490431   -5.4339583   -5.4339583   -4.6103955 -0.0062581182   -5.4339583   0.82356277   439061 
 4485000   0.55001635   -5.4351573   -5.4351573   -4.6101346 -0.00055255254   -5.4351573   0.82502264   439061 
 4486000   0.55036001   -5.4348799   -5.4348799   -4.6093418 -0.0055572999   -5.4348799   0.82553813   439061 
 4487000   0.55048336   -5.4350167   -5.4350167   -4.6092936 -0.0025056948   -5.4350167   0.82572317   439061 
 4488000   0.55040242   -5.4344736   -5.4344736   -4.6088718  0.002997097   -5.4344736   0.82560175   439061 
 4489000   0.55025671   -5.4335394   -5.4335394   -4.6081562 0.0045378997   -5.4335394   0.82538318   439061 
 4490000   0.55029274   -5.4346447   -5.4346447   -4.6092075 0.0017794839   -5.4346447   0.82543723   439061 
 4491000   0.54983378   -5.4338191   -5.4338191   -4.6090704 -0.0027368126   -5.4338191    0.8247488   439061 
 4492000   0.55001067   -5.4345138   -5.4345138   -4.6094997 -0.0024637992   -5.4345138   0.82501412   439061 
 4493000   0.55003375    -5.434619    -5.434619   -4.6095703 -0.0023649408    -5.434619   0.82504874   439061 
 4494000   0.54971648    -5.433482    -5.433482   -4.6089092 -0.0039500234    -5.433482   0.82457283   439061 
 4495000   0.55034742   -5.4344908   -5.4344908   -4.6089715 -0.00085316539   -5.4344908   0.82551925   439061 
 4496000   0.55029448   -5.4340914   -5.4340914   -4.6086515 -0.0048029608   -5.4340914   0.82543984   439061 
 4497000   0.55005567   -5.4331118   -5.4331118   -4.6080301 -0.00017512758   -5.4331118   0.82508163   439061 
 4498000   0.55105412   -5.4344683   -5.4344683    -4.607889 0.00029620361   -5.4344683    0.8265793   439061 
 4499000   0.55092503   -5.4345505   -5.4345505   -4.6081649 -0.00057505308   -5.4345505   0.82638566   439061 
 4500000   0.55059005   -5.4337388   -5.4337388   -4.6078556 0.0012425614   -5.4337388   0.82588319   439061 
 4501000   0.55022736   -5.4331817   -5.4331817   -4.6078426 0.0010193457   -5.4331817   0.82533916   439061 
 4502000   0.55132456   -5.4345114   -5.4345114   -4.6075264 -0.0067369423   -5.4345114   0.82698496   439061 
 4503000   0.55028941    -5.433055    -5.433055   -4.6076228 0.0019673642    -5.433055   0.82543223   439061 
 4504000   0.54999674   -5.4327826   -5.4327826   -4.6077894 -0.0038650192   -5.4327826   0.82499322   439061 
 4505000   0.55000728   -5.4340572   -5.4340572   -4.6090482 -0.002695507   -5.4340572   0.82500904   439061 
 4506000   0.54951562   -5.4331932   -5.4331932   -4.6089216 -0.0039250773   -5.4331932   0.82427155   439061 
 4507000   0.54985164   -5.4329613   -5.4329613   -4.6081857 -0.0025150013   -5.4329613   0.82477558   439061 
 4508000   0.54986046   -5.4323251   -5.4323251   -4.6075363  0.004857692   -5.4323251   0.82478882   439061 
 4509000   0.55029846   -5.4330317   -5.4330317   -4.6075859  0.003221549   -5.4330317   0.82544582   439061 
 4510000    0.5504601   -5.4337164   -5.4337164   -4.6080282 0.00039294075   -5.4337164   0.82568828   439061 
 4511000   0.54960008   -5.4333549   -5.4333549   -4.6089566 -0.0035907401   -5.4333549   0.82439824   439061 
 4512000   0.55037853   -5.4341723   -5.4341723   -4.6086064 -0.0011737842   -5.4341723   0.82556591   439061 
 4513000   0.55019305   -5.4336628   -5.4336628   -4.6083751 0.0012532772   -5.4336628   0.82528769   439061 
 4514000   0.54997435   -5.4343115   -5.4343115   -4.6093519 -0.003388162   -5.4343115   0.82495965   439061 
 4515000   0.54975628   -5.4341118   -5.4341118   -4.6094793 -0.0034869145   -5.4341118   0.82463255   439061 
 4516000   0.54978023   -5.4347007   -5.4347007   -4.6100322 -0.0030073402   -5.4347007   0.82466846   439061 
 4517000   0.55008062   -5.4346936   -5.4346936   -4.6095746 -0.00073805081   -5.4346936   0.82511905   439061 
 4518000   0.54957844   -5.4343246   -5.4343246   -4.6099588 0.0033434666   -5.4343246   0.82436578   439061 
 4519000   0.54953783   -5.4357092   -5.4357092   -4.6114043 0.00028562425   -5.4357092   0.82430486   439061 
 4520000   0.55058944   -5.4362281   -5.4362281   -4.6103458  0.004388701   -5.4362281   0.82588228   439061 
 4521000   0.55064719    -5.436825    -5.436825   -4.6108561 0.00043651769    -5.436825   0.82596891   439061 
 4522000   0.55039408   -5.4364338   -5.4364338   -4.6108446 0.00063645734   -5.4364338   0.82558924   439061 
 4523000   0.55088978   -5.4371942   -5.4371942   -4.6108614 -0.0010761881   -5.4371942    0.8263328   439061 
 4524000   0.54905977   -5.4347717   -5.4347717   -4.6111839 9.7292053e-05   -5.4347717   0.82358778   439061 
 4525000   0.55048411   -5.4354722   -5.4354722   -4.6097479 -0.0024665979   -5.4354722   0.82572428   439061 
 4526000   0.55104194   -5.4354391   -5.4354391   -4.6088781 0.00063841352   -5.4354391   0.82656102   439061 
 4527000   0.55017744   -5.4340203   -5.4340203    -4.608756 0.0026890789   -5.4340203   0.82526428   439061 
 4528000   0.55084862   -5.4343147   -5.4343147   -4.6080436 -0.0016954348   -5.4343147   0.82627105   439061 
 4529000   0.55096178   -5.4342488   -5.4342488    -4.607808 -0.0035000554   -5.4342488   0.82644079   439061 
 4530000   0.54977771    -5.433876    -5.433876   -4.6092113 0.00095839301    -5.433876   0.82466468   439061 
 4531000   0.54862137   -5.4334459   -5.4334459   -4.6105157 -0.0085770726   -5.4334459   0.82293017   439061 
 4532000   0.54987098   -5.4346447   -5.4346447   -4.6098401 -0.0081414856   -5.4346447   0.82480459   439061 
 4533000   0.54875883   -5.4330216   -5.4330216   -4.6098852 0.0017675766   -5.4330216   0.82313637   439061 
 4534000   0.55025695   -5.4348832   -5.4348832   -4.6094997 -0.0011823375   -5.4348832   0.82538355   439061 
 4535000    0.5501981   -5.4349304   -5.4349304   -4.6096351 -0.0025749391   -5.4349304   0.82529528   439061 
 4536000   0.54944291   -5.4352034   -5.4352034   -4.6110409 0.0038666969   -5.4352034   0.82416248   439061 
 4537000   0.55086766   -5.4351811   -5.4351811   -4.6088815 0.0075204123   -5.4351811   0.82629961   439061 
 4538000   0.54981138   -5.4344447   -5.4344447   -4.6097295 0.0072121562   -5.4344447   0.82471519   439061 
 4539000   0.55055045   -5.4351297   -5.4351297   -4.6093059 0.0027654821   -5.4351297    0.8258238   439061 
 4540000   0.55016926   -5.4354297   -5.4354297   -4.6101777 -0.0028690615   -5.4354297   0.82525201   439061 
 4541000   0.54897734   -5.4341002   -5.4341002   -4.6106361 -0.003842253   -5.4341002   0.82346414   439061 
 4542000   0.54846646    -5.432872    -5.432872   -4.6101742 -0.0069976536    -5.432872   0.82269782   439061 
 4543000   0.55014694   -5.4343546   -5.4343546   -4.6091361 -0.0055694728   -5.4343546   0.82521853   439061 
 4544000   0.55006589   -5.4338703   -5.4338703   -4.6087733 -0.0001112423   -5.4338703   0.82509696   439061 
 4545000   0.54947218   -5.4338942   -5.4338942   -4.6096878 0.0024306082   -5.4338942   0.82420639   439061 
 4546000    0.5503927    -5.434797    -5.434797   -4.6092099 0.0010244837    -5.434797   0.82558717   439061 
 4547000   0.54979653   -5.4350109   -5.4350109    -4.610318 0.0018734827   -5.4350109   0.82469291   439061 
 4548000   0.55076278   -5.4363886   -5.4363886   -4.6102463 0.0069161645   -5.4363886    0.8261423   439061 
 4549000   0.54994288   -5.4347799   -5.4347799   -4.6098675 0.0043460946   -5.4347799   0.82491244   439061 
 4550000   0.55102128   -5.4350592   -5.4350592   -4.6085292 0.0049983085   -5.4350592   0.82653004   439061 
 4551000   0.55097425   -5.4349922   -5.4349922   -4.6085327 -0.00075070407   -5.4349922   0.82645949   439061 
 4552000   0.55064685   -5.4345024   -5.4345024    -4.608534 -0.00071066792   -5.4345024   0.82596839   439061 
 4553000   0.54961475   -5.4333607   -5.4333607   -4.6089405 -0.0055573501   -5.4333607   0.82442025   439061 
 4554000   0.54945066   -5.4326874   -5.4326874   -4.6085133 -0.0068316506   -5.4326874   0.82417411   439061 
 4555000   0.54957295   -5.4332848   -5.4332848   -4.6089273 -0.002823963   -5.4332848   0.82435754   439061 
 4556000   0.54991411    -5.433886    -5.433886   -4.6090167 -0.0067609083    -5.433886   0.82486929   439061 
 4557000   0.55008942   -5.4338154   -5.4338154   -4.6086831 -0.0035976396   -5.4338154   0.82513226   439061 
 4558000   0.54961399   -5.4339089   -5.4339089   -4.6094898 -0.00030650679   -5.4339089   0.82441911   439061 
 4559000    0.5508972   -5.4360863   -5.4360863   -4.6097424 -0.0019686653   -5.4360863   0.82634392   439061 
 4560000   0.55066034   -5.4360487   -5.4360487   -4.6100601 -0.00043441663   -5.4360487   0.82598862   439061 
 4561000   0.55019272   -5.4349215   -5.4349215   -4.6096342 0.0088692955   -5.4349215   0.82528721   439061 
 4562000     0.551267   -5.4367313   -5.4367313   -4.6098327 0.0070425082   -5.4367313   0.82689862   439061 
 4563000   0.55160487   -5.4362954   -5.4362954     -4.60889 0.0095177409   -5.4362954   0.82740541   439061 
 4564000   0.55032458   -5.4350768   -5.4350768   -4.6095918 -0.0010634352   -5.4350768   0.82548499   439061 
 4565000   0.54956226   -5.4336788   -5.4336788   -4.6093373 -0.0026550595   -5.4336788   0.82434152   439061 
 4566000   0.54936023   -5.4330757   -5.4330757   -4.6090372 -0.0026884006   -5.4330757   0.82403847   439061 
 4567000    0.5494601   -5.4328132   -5.4328132   -4.6086249 -0.0036497804   -5.4328132   0.82418827   439061 
 4568000   0.54969782   -5.4326868   -5.4326868   -4.6081419 -0.0098178759   -5.4326868   0.82454486   439061 
 4569000    0.5497068   -5.4321181   -5.4321181   -4.6075598 -0.0040553881   -5.4321181   0.82455832   439061 
 4570000   0.55017633   -5.4338599   -5.4338599   -4.6085973 -0.0046561634   -5.4338599   0.82526261   439061 
 4571000   0.55055626    -5.434974    -5.434974   -4.6091415 0.00057606469    -5.434974   0.82583251   439061 
 4572000   0.55057482   -5.4352565   -5.4352565   -4.6093962 -0.00075603002   -5.4352565   0.82586035   439061 
 4573000   0.55044205   -5.4352403   -5.4352403   -4.6095791 0.0015463932   -5.4352403   0.82566119   439061 
 4574000   0.55143903   -5.4371679   -5.4371679   -4.6100112 0.0031503649   -5.4371679   0.82715666   439061 
 4575000   0.55084141     -5.43671     -5.43671   -4.6104498 0.0018090929     -5.43671   0.82626024   439061 
 4576000   0.55006984   -5.4349798   -5.4349798    -4.609877 0.0012357908   -5.4349798   0.82510288   439061 
 4577000   0.54972345   -5.4349273   -5.4349273    -4.610344 0.00019142511   -5.4349273    0.8245833   439061 
 4578000   0.55017271   -5.4352683   -5.4352683   -4.6100111 -0.0031017588   -5.4352683   0.82525719   439061 
 4579000    0.5489144   -5.4333647   -5.4333647    -4.609995 -0.0055079182   -5.4333647   0.82336972   439061 
 4580000   0.54962109   -5.4342929   -5.4342929   -4.6098631 -0.0031315971   -5.4342929   0.82442976   439061 
 4581000   0.54911933   -5.4336382   -5.4336382    -4.609961 0.0030886077   -5.4336382   0.82367712   439061 
 4582000   0.54991091   -5.4336372   -5.4336372   -4.6087727 0.00023466399   -5.4336372   0.82486449   439061 
 4583000   0.55021025   -5.4344783   -5.4344783   -4.6091648 0.0037077156   -5.4344783    0.8253135   439061 
 4584000   0.55064815   -5.4347198   -5.4347198   -4.6087494 0.0030403319   -5.4347198   0.82597035   439061 
 4585000   0.55099362   -5.4358553   -5.4358553   -4.6093668 -0.00012043234   -5.4358553   0.82648855   439061 
 4586000   0.55101864   -5.4336843   -5.4336843   -4.6071582 0.0050751988   -5.4336843   0.82652608   439061 
 4587000   0.55091833   -5.4339807   -5.4339807   -4.6076051 0.0028173554   -5.4339807   0.82637561   439061 
 4588000   0.54948133   -5.4326199   -5.4326199   -4.6083997 -0.00089955573   -5.4326199   0.82422012   439061 
 4589000   0.54969017   -5.4328848   -5.4328848   -4.6083514 -0.0062408507   -5.4328848   0.82453338   439061 
 4590000   0.54961109   -5.4326602   -5.4326602   -4.6082454 -0.005508341   -5.4326602   0.82441476   439061 
 4591000   0.54958227   -5.4321796   -5.4321796   -4.6078081 -0.0030521741   -5.4321796   0.82437152   439061 
 4592000    0.5502111   -5.4329791   -5.4329791   -4.6076643 -0.0030639926   -5.4329791   0.82531478   439061 
 4593000   0.55046634   -5.4349702   -5.4349702   -4.6092726 -0.0065132864   -5.4349702   0.82569764   439061 
 4594000   0.55029731   -5.4351692   -5.4351692   -4.6097251 -0.00011697469   -5.4351692   0.82544408   439061 
 4595000    0.5502743   -5.4353629   -5.4353629   -4.6099533 0.0032117392   -5.4353629   0.82540957   439061 
 4596000   0.55109171    -5.436505    -5.436505   -4.6098693 0.00022111125    -5.436505   0.82663568   439061 
 4597000   0.55005549   -5.4351534   -5.4351534    -4.610072 0.0052405459   -5.4351534   0.82508136   439061 
 4598000   0.54976514   -5.4351742   -5.4351742   -4.6105283 0.0064057088   -5.4351742   0.82464583   439061 
 4599000   0.55025228   -5.4362293   -5.4362293   -4.6108528 0.00089920369   -5.4362293   0.82537654   439061 
 4600000   0.55064661   -5.4366612   -5.4366612   -4.6106931 -0.0019701182   -5.4366612   0.82596804   439061 
 4601000   0.55077293   -5.4353267   -5.4353267   -4.6091692 -0.00021223829   -5.4353267   0.82615751   439061 
 4602000   0.54888657   -5.4339156   -5.4339156   -4.6105876 -0.0040398292   -5.4339156   0.82332797   439061 
 4603000   0.54834714   -5.4339512   -5.4339512   -4.6114324 -0.0042498309   -5.4339512   0.82251884   439061 
 4604000   0.54899216   -5.4352312   -5.4352312   -4.6117448 -0.0038397178   -5.4352312   0.82348636   439061 
 4605000   0.54955824   -5.4361201   -5.4361201   -4.6117846 -0.0028174981   -5.4361201   0.82433548   439061 
 4606000   0.55017549   -5.4372726   -5.4372726   -4.6120113 0.0004422076   -5.4372726   0.82526135   439061 
 4607000   0.55146852    -5.438734    -5.438734   -4.6115331 0.00055494593    -5.438734    0.8272009   439061 
 4608000   0.55060495   -5.4370691   -5.4370691   -4.6111635 0.0065144114   -5.4370691   0.82590555   439061 
 4609000   0.55086315   -5.4376579   -5.4376579    -4.611365 0.0053862742   -5.4376579   0.82629285   439061 
 4610000   0.55004645   -5.4353766   -5.4353766   -4.6103088 0.0031874345   -5.4353766   0.82506779   439061 
 4611000   0.54955832   -5.4362007   -5.4362007   -4.6118651 -0.0012438531   -5.4362007    0.8243356   439061 
 4612000   0.54985082   -5.4360135   -5.4360135   -4.6112391 -0.0058174415   -5.4360135   0.82477435   439061 
 4613000   0.54866182   -5.4340583   -5.4340583   -4.6110675 -0.0065624223   -5.4340583   0.82299085   439061 
 4614000   0.54829301   -5.4330564   -5.4330564   -4.6106187 -0.0025242523   -5.4330564   0.82243764   439061 
 4615000   0.54914243   -5.4346209   -5.4346209   -4.6109091 -0.0039662803   -5.4346209   0.82371176   439061 
 4616000   0.55006977   -5.4343886   -5.4343886   -4.6092858 -0.0021732452   -5.4343886   0.82510277   439061 
 4617000   0.55034655    -5.434464    -5.434464    -4.608946 -0.0014083265    -5.434464   0.82551794   439061 
 4618000   0.55060914   -5.4351733   -5.4351733   -4.6092615 0.0030603854   -5.4351733   0.82591184   439061 
 4619000   0.54901941   -5.4322534   -5.4322534   -4.6087262  0.011508304   -5.4322534   0.82352724   439061 
 4620000   0.54976166   -5.4336526   -5.4336526    -4.609012 0.0022903774   -5.4336526   0.82464061   439061 
 4621000   0.54983994   -5.4352264   -5.4352264   -4.6104684 -0.0045732104   -5.4352264   0.82475802   439061 
 4622000   0.54943475    -5.433684    -5.433684   -4.6095337 -0.0024115823    -5.433684   0.82415025   439061 
 4623000   0.54978757   -5.4344246   -5.4344246   -4.6097451 -0.001323364   -5.4344246   0.82467948   439061 
 4624000   0.55019281   -5.4350993   -5.4350993   -4.6098119 -0.0048775617   -5.4350993   0.82528734   439061 
 4625000   0.55030434   -5.4346087   -5.4346087   -4.6091541 -0.0018364503   -5.4346087   0.82545463   439061 
 4626000   0.55042283   -5.4343981   -5.4343981   -4.6087658 -0.0026662583   -5.4343981   0.82563237   439061 
 4627000    0.5495294   -5.4333559   -5.4333559   -4.6090636 0.0036411276   -5.4333559   0.82429223   439061 
 4628000   0.54953124   -5.4336304   -5.4336304   -4.6093354 0.0035603445   -5.4336304   0.82429498   439061 
 4629000    0.5498581   -5.4347793   -5.4347793    -4.609994 -0.0044875127   -5.4347793   0.82478527   439061 
 4630000    0.5503829   -5.4356648   -5.4356648   -4.6100923 -0.0011952647   -5.4356648   0.82557247   439061 
 4631000   0.54996454   -5.4352846   -5.4352846   -4.6103396 -0.00082746963   -5.4352846   0.82494494   439061 
 4632000   0.54970806   -5.4355223   -5.4355223   -4.6109621 -0.0013253066   -5.4355223   0.82456021   439061 
 4633000   0.55010342   -5.4356053   -5.4356053    -4.610452 0.00098638289   -5.4356053   0.82515326   439061 
 4634000   0.55104004   -5.4366116   -5.4366116   -4.6100535 0.0008214094   -5.4366116   0.82655817   439061 
 4635000   0.55068272   -5.4358248   -5.4358248   -4.6098026 0.0036100165   -5.4358248    0.8260222   439061 
 4636000   0.54908222   -5.4346238   -5.4346238   -4.6110024 -2.3953411e-05   -5.4346238   0.82362145   439061 
 4637000   0.54994043    -5.435665    -5.435665   -4.6107562 -0.0039357057    -5.435665   0.82490877   439061 
 4638000   0.55020039    -5.435936    -5.435936   -4.6106373 -0.00022859725    -5.435936    0.8252987   439061 
 4639000    0.5498218   -5.4330373   -5.4330373   -4.6083065 -5.5776853e-05   -5.4330373   0.82473082   439061 
 4640000   0.54983877   -5.4336181   -5.4336181   -4.6088618 0.00051662187   -5.4336181   0.82475628   439061 
 4641000   0.55001441   -5.4335463   -5.4335463   -4.6085266 -0.0021329313   -5.4335463   0.82501973   439061 
 4642000     0.550186   -5.4339638   -5.4339638   -4.6086867 -0.0061944254   -5.4339638   0.82527712   439061 
 4643000   0.55080173   -5.4356535   -5.4356535   -4.6094528 -0.0045776257   -5.4356535   0.82620071   439061 
 4644000    0.5496865   -5.4346866   -5.4346866   -4.6101587 -0.0063547413   -5.4346866   0.82452787   439061 
 4645000   0.54981951   -5.4347815   -5.4347815   -4.6100541 -0.002871992   -5.4347815   0.82472738   439061 
 4646000   0.55023558   -5.4362633   -5.4362633   -4.6109118 0.0024193587   -5.4362633   0.82535149   439061 
 4647000   0.55040817   -5.4360363   -5.4360363   -4.6104259 0.0043166709   -5.4360363   0.82561038   439061 
 4648000   0.54969036   -5.4355457   -5.4355457    -4.611012  0.005574329   -5.4355457   0.82453366   439061 
 4649000   0.55014653   -5.4361951   -5.4361951   -4.6109772 0.0051035461   -5.4361951   0.82521792   439061 
 4650000   0.55072211   -5.4374524   -5.4374524   -4.6113711 -0.00089806631   -5.4374524   0.82608128   439061 
 4651000   0.54999839   -5.4365601   -5.4365601   -4.6115644 -0.0035329734   -5.4365601   0.82499571   439061 
 4652000   0.54884427    -5.434524    -5.434524   -4.6112595 -0.0033819811    -5.434524   0.82326453   439061 
 4653000   0.54892347   -5.4354562   -5.4354562   -4.6120728 -0.0035571488   -5.4354562   0.82338334   439061 
 4654000   0.54931745    -5.434872    -5.434872   -4.6108977 0.0014292822    -5.434872    0.8239743   439061 
 4655000   0.54947661   -5.4345467   -5.4345467   -4.6103337 0.00022382932   -5.4345467   0.82421304   439061 
 4656000   0.55048585   -5.4363901   -5.4363901   -4.6106632 -0.0043709214   -5.4363901    0.8257269   439061 
 4657000   0.55060427   -5.4359746   -5.4359746   -4.6100701 0.0021629017   -5.4359746   0.82590452   439061 
 4658000   0.55084781   -5.4362947   -5.4362947   -4.6100248 0.0025440947   -5.4362947   0.82626983   439061 
 4659000   0.55094337   -5.4353776   -5.4353776   -4.6089645 -0.00022403093   -5.4353776   0.82641318   439061 
 4660000   0.55035647   -5.4349129   -5.4349129   -4.6093801 0.0031605276   -5.4349129   0.82553283   439061 
 4661000   0.55061263   -5.4351117   -5.4351117   -4.6091947 0.0010351375   -5.4351117   0.82591707   439061 
 4662000   0.54976924   -5.4345007   -5.4345007   -4.6098487 0.00094534223   -5.4345007   0.82465198   439061 
 4663000   0.55052614   -5.4346215   -5.4346215   -4.6088341 -0.001774848   -5.4346215   0.82578733   439061 
 4664000   0.55015528   -5.4342877   -5.4342877   -4.6090566 -0.0031457772   -5.4342877   0.82523104   439061 
 4665000   0.54974278   -5.4342396   -5.4342396   -4.6096273 -0.004655615   -5.4342396    0.8246123   439061 
 4666000    0.5484152   -5.4329312   -5.4329312   -4.6103102 -0.0034512799   -5.4329312   0.82262093   439061 
 4667000   0.55082579   -5.4352074   -5.4352074   -4.6089706 -0.0015499732   -5.4352074   0.82623681   439061 
 4668000   0.55023967    -5.434516    -5.434516   -4.6091584  0.001805298    -5.434516   0.82535763   439061 
 4669000    0.5497791   -5.4338383   -5.4338383   -4.6091715 -0.00074422853   -5.4338383   0.82466677   439061 
 4670000    0.5512685   -5.4361336   -5.4361336   -4.6092328 -0.0045177471   -5.4361336   0.82690086   439061 
 4671000   0.54967212   -5.4349572   -5.4349572   -4.6104509 0.0017735116   -5.4349572    0.8245063   439061 
 4672000    0.5496632   -5.4348194   -5.4348194   -4.6103264 0.0030608441   -5.4348194   0.82449292   439061 
 4673000   0.54997125   -5.4349251   -5.4349251   -4.6099702 0.0028827653   -5.4349251   0.82495499   439061 
 4674000   0.55090922   -5.4355966   -5.4355966   -4.6092346 0.00084407213   -5.4355966   0.82636194   439061 
 4675000    0.5499574   -5.4341462   -5.4341462    -4.609212 0.0023959383   -5.4341462   0.82493422   439061 
 4676000   0.55017304   -5.4346626   -5.4346626   -4.6094049 0.0011025539   -5.4346626   0.82525768   439061 
 4677000   0.54891459   -5.4335176   -5.4335176   -4.6101476 -0.0032940722   -5.4335176   0.82337002   439061 
 4678000   0.54855978   -5.4328285   -5.4328285   -4.6099907 -0.003782069   -5.4328285    0.8228378   439061 
 4679000   0.54949281   -5.4342297   -5.4342297   -4.6099924 -0.0019622111   -5.4342297   0.82423734   439061 
 4680000   0.54927194   -5.4334583   -5.4334583   -4.6095522 -0.0017547399   -5.4334583   0.82390604   439061 
 4681000   0.55026705   -5.4340936   -5.4340936   -4.6086949 -0.00075579192   -5.4340936    0.8253987   439061 
 4682000   0.55054799   -5.4339182   -5.4339182   -4.6080981 0.0031211218   -5.4339182    0.8258201   439061 
 4683000   0.55049248   -5.4335162   -5.4335162   -4.6077794  0.005240133   -5.4335162   0.82573684   439061 
 4684000   0.55077481   -5.4337684   -5.4337684    -4.607608 0.0022473929   -5.4337684   0.82616033   439061 
 4685000   0.54994333   -5.4343809   -5.4343809   -4.6094678 0.00020630788   -5.4343809   0.82491312   439061 
 4686000   0.54887409   -5.4332455   -5.4332455   -4.6099362 -0.0026501964   -5.4332455   0.82330926   439061 
 4687000    0.5499564   -5.4361106   -5.4361106   -4.6111778 -0.0040731615   -5.4361106   0.82493272   439061 
 4688000    0.5496266   -5.4354683   -5.4354683   -4.6110303 0.0001325597   -5.4354683   0.82443803   439061 
 4689000   0.54981532   -5.4341376   -5.4341376   -4.6094165 0.0054763885   -5.4341376    0.8247211   439061 
 4690000   0.55138262   -5.4359488   -5.4359488   -4.6088768 7.1782353e-05   -5.4359488   0.82707205   439061 
 4691000   0.55022876   -5.4347047   -5.4347047   -4.6093635 0.0041110659   -5.4347047   0.82534126   439061 
 4692000   0.54932829   -5.4342028   -5.4342028   -4.6102122 0.00025250439   -5.4342028   0.82399056   439061 
 4693000   0.55081148   -5.4359225   -5.4359225   -4.6097072 -0.0012548726   -5.4359225   0.82621533   439061 
 4694000    0.5496514   -5.4337961   -5.4337961   -4.6093209 0.00027254751   -5.4337961   0.82447522   439061 
 4695000   0.54996091   -5.4335016   -5.4335016   -4.6085621 -0.0010453994   -5.4335016   0.82493948   439061 
 4696000   0.55053162   -5.4346961   -5.4346961   -4.6089006 -0.003147317   -5.4346961   0.82579555   439061 
 4697000   0.54967917   -5.4329113   -5.4329113   -4.6083944 -0.00082002315   -5.4329113   0.82451688   439061 
 4698000   0.54997201   -5.4335752   -5.4335752   -4.6086191 -0.0017286212   -5.4335752   0.82495614   439061 
 4699000   0.55005713   -5.4337487   -5.4337487   -4.6086648 -0.001777309   -5.4337487   0.82508382   439061 
 4700000    0.5503205   -5.4343418   -5.4343418   -4.6088629 -0.0023614474   -5.4343418   0.82547887   439061 
 4701000   0.55018443   -5.4353726   -5.4353726   -4.6100979 -0.0024607235   -5.4353726   0.82527477   439061 
 4702000   0.54934279   -5.4344005   -5.4344005   -4.6103882 -0.0002586382   -5.4344005    0.8240123   439061 
 4703000   0.55018671     -5.43595     -5.43595   -4.6106719 -6.632658e-05     -5.43595   0.82527818   439061 
 4704000   0.55021082    -5.436036    -5.436036   -4.6107216 -9.8924265e-05    -5.436036   0.82531435   439061 
 4705000    0.5504074   -5.4364417   -5.4364417   -4.6108325 0.0017319204   -5.4364417   0.82560922   439061 
 4706000   0.55075046   -5.4361341   -5.4361341   -4.6100103 0.0031976662   -5.4361341   0.82612381   439061 
 4707000   0.54944781   -5.4353363   -5.4353363   -4.6111664 -0.0024080603   -5.4353363   0.82416984   439061 
 4708000    0.5500654   -5.4361605   -5.4361605   -4.6110643 -0.0016297253   -5.4361605   0.82509621   439061 
 4709000   0.54976495   -5.4353294   -5.4353294   -4.6106839 0.0016225181   -5.4353294   0.82464554   439061 
 4710000   0.54996988   -5.4356719   -5.4356719    -4.610719 -0.0015469139   -5.4356719   0.82495294   439061 
 4711000     0.550048   -5.4355815   -5.4355815   -4.6105114 -0.0056277755   -5.4355815   0.82507012   439061 
 4712000   0.55021927   -5.4350696   -5.4350696   -4.6097426 0.00014594204   -5.4350696   0.82532702   439061 
 4713000   0.55078832   -5.4366309   -5.4366309   -4.6104503 -0.004288106   -5.4366309   0.82618059   439061 
 4714000   0.55065136   -5.4361101   -5.4361101    -4.610135 -0.0038731641   -5.4361101   0.82597516   439061 
 4715000    0.5494165   -5.4344575   -5.4344575   -4.6103346 -0.002108698   -5.4344575   0.82412288   439061 
 4716000   0.55070922   -5.4357431   -5.4357431   -4.6096812 0.0021018042   -5.4357431   0.82606196   439061 
 4717000   0.55017034   -5.4333066   -5.4333066    -4.608053 0.0075542052   -5.4333066   0.82525362   439061 
 4718000   0.55153255   -5.4353085   -5.4353085   -4.6080116 0.0035785064   -5.4353085   0.82729695   439061 
 4719000   0.55043307   -5.4336579   -5.4336579   -4.6080101 0.0014077776   -5.4336579   0.82564772   439061 
 4720000   0.55074449   -5.4352328   -5.4352328    -4.609118 -0.0017218505   -5.4352328   0.82611486   439061 
 4721000   0.55059879   -5.4342797   -5.4342797   -4.6083834 -0.0029836004   -5.4342797    0.8258963   439061 
 4722000   0.55025669   -5.4334038   -5.4334038   -4.6080206 -0.0043902311   -5.4334038   0.82538315   439061 
 4723000   0.54910083   -5.4302936   -5.4302936   -4.6066442 0.0042876038   -5.4302936   0.82364937   439061 
 4724000   0.55078644   -5.4324499   -5.4324499   -4.6062721 -0.0017534605   -5.4324499   0.82617777   439061 
 4725000   0.55077332   -5.4327945   -5.4327945   -4.6066364 -0.0059998655   -5.4327945   0.82615811   439061 
 4726000   0.55082582   -5.4338153   -5.4338153   -4.6075784 -0.0047536285   -5.4338153   0.82623685   439061 
 4727000   0.55018307   -5.4326666   -5.4326666   -4.6073938 -0.0026186889   -5.4326666   0.82527272   439061 
 4728000   0.55112573   -5.4333295   -5.4333295   -4.6066428 -0.0017488103   -5.4333295   0.82668671   439061 
 4729000   0.55036595   -5.4335294   -5.4335294   -4.6079824 -0.00077506473   -5.4335294   0.82554705   439061 
 4730000   0.55122412   -5.4363964   -5.4363964   -4.6095621 -0.0028547032   -5.4363964   0.82683429   439061 
 4731000    0.5506612   -5.4343809   -5.4343809    -4.608391 0.00039422017   -5.4343809   0.82598992   439061 
 4732000   0.55059241   -5.4344407   -5.4344407    -4.608554 0.00014957877   -5.4344407   0.82588673   439061 
 4733000   0.55091229   -5.4355977   -5.4355977   -4.6092311 0.0021270208   -5.4355977   0.82636656   439061 
 4734000   0.55110356   -5.4358009   -5.4358009   -4.6091475 -0.00066580393   -5.4358009   0.82665345   439061 
 4735000   0.55107971   -5.4360176   -5.4360176   -4.6093999 -0.0010844963   -5.4360176   0.82661768   439061 
 4736000    0.5507169   -5.4356642   -5.4356642   -4.6095908 0.0024465673   -5.4356642   0.82607347   439061 
 4737000   0.54901497   -5.4330826   -5.4330826    -4.609562 -0.00047859598   -5.4330826   0.82352058   439061 
 4738000   0.54984127    -5.434409    -5.434409    -4.609649 -0.0047339901    -5.434409   0.82476003   439061 
 4739000   0.54985199   -5.4337672   -5.4337672   -4.6089911 -0.0035886599   -5.4337672   0.82477611   439061 
 4740000   0.54974517   -5.4323195   -5.4323195   -4.6077036 -0.0013777285   -5.4323195   0.82461587   439061 
 4741000   0.55026034   -5.4330559   -5.4330559   -4.6076673 -0.0034519083   -5.4330559   0.82538863   439061 
 4742000   0.55056701   -5.4336245   -5.4336245   -4.6077758 -0.0017341497   -5.4336245   0.82584864   439061 
 4743000   0.55047608   -5.4333835   -5.4333835   -4.6076712 0.0033781224   -5.4333835   0.82571224   439061 
 4744000   0.55107373   -5.4349513   -5.4349513   -4.6083426 -0.00010314134   -5.4349513   0.82660871   439061 
 4745000   0.55114802   -5.4330278   -5.4330278   -4.6063076  0.005020705   -5.4330278   0.82672014   439061 
 4746000   0.55220442    -5.434265    -5.434265   -4.6059603  0.002946042    -5.434265   0.82830475   439061 
 4747000   0.55102391   -5.4335123   -5.4335123   -4.6069783 0.00038792008   -5.4335123   0.82653398   439061 
 4748000   0.54991152   -5.4314251   -5.4314251   -4.6065597 -0.0019476359   -5.4314251    0.8248654   439061 
 4749000   0.54957445    -5.432021    -5.432021   -4.6076612 -0.0032905004    -5.432021    0.8243598   439061 
 4750000   0.55033734   -5.4335599   -5.4335599   -4.6080558 -0.0068565386   -5.4335599   0.82550413   439061 
 4751000   0.54996043   -5.4320906   -5.4320906   -4.6071518 -0.0047017432   -5.4320906   0.82493877   439061 
 4752000   0.55051595   -5.4325584   -5.4325584   -4.6067864 -0.00073364962   -5.4325584   0.82577204   439061 
 4753000   0.55072751   -5.4337535   -5.4337535   -4.6076642 0.00097429281   -5.4337535   0.82608938   439061 
 4754000    0.5512969   -5.4348113   -5.4348113   -4.6078678 0.0032578336   -5.4348113   0.82694347   439061 
 4755000   0.55060419   -5.4335406   -5.4335406   -4.6076362 0.0073301169   -5.4335406   0.82590441   439061 
 4756000    0.5503613   -5.4332716   -5.4332716   -4.6077315 0.0054243756   -5.4332716   0.82554008   439061 
 4757000   0.55045289   -5.4345385   -5.4345385   -4.6088611  0.002922596   -5.4345385   0.82567745   439061 
 4758000   0.55004941   -5.4340843   -5.4340843   -4.6090121 -0.00046284043   -5.4340843   0.82507224   439061 
 4759000   0.54957187   -5.4331403   -5.4331403   -4.6087844 -0.00019558464   -5.4331403   0.82435593   439061 
 4760000   0.55037008    -5.434226    -5.434226   -4.6086728 -0.004881411    -5.434226   0.82555324   439061 
 4761000   0.54997317   -5.4341055   -5.4341055   -4.6091476 -0.00091118252   -5.4341055   0.82495788   439061 
 4762000   0.54989313   -5.4342926   -5.4342926   -4.6094548 -0.0011029342   -5.4342926   0.82483782   439061 
 4763000   0.54932082   -5.4325666   -5.4325666   -4.6085872 0.0015101763   -5.4325666   0.82397935   439061 
 4764000   0.54965184    -5.433988    -5.433988   -4.6095121 0.0012756882    -5.433988   0.82447589   439061 
 4765000   0.54968421   -5.4337641   -5.4337641   -4.6092396 0.0013394173   -5.4337641   0.82452444   439061 
 4766000   0.55013239   -5.4342558   -5.4342558   -4.6090591 0.00013086871   -5.4342558   0.82519671   439061 
 4767000   0.55075424   -5.4355302   -5.4355302   -4.6094008 -0.0010203867   -5.4355302   0.82612947   439061 
 4768000   0.55077784   -5.4355907   -5.4355907   -4.6094259 -0.0019650152   -5.4355907   0.82616488   439061 
 4769000   0.55025632   -5.4352354   -5.4352354   -4.6098528 -0.0039132526   -5.4352354    0.8253826   439061 
 4770000   0.54837613   -5.4328459   -5.4328459   -4.6102836 -0.00047891781   -5.4328459   0.82256232   439061 
 4771000   0.55008803   -5.4350548   -5.4350548   -4.6099246 0.0015485435   -5.4350548   0.82513017   439061 
 4772000   0.55013914    -5.433939    -5.433939   -4.6087322 0.0043300245    -5.433939   0.82520683   439061 
 4773000   0.55094955   -5.4343556   -5.4343556   -4.6079331 0.0054651795   -5.4343556   0.82642244   439061 
 4774000   0.55094959   -5.4348274   -5.4348274   -4.6084049 0.0018623657   -5.4348274    0.8264225   439061 
 4775000   0.55013092   -5.4353288   -5.4353288   -4.6101343 -0.0029278983   -5.4353288    0.8251945   439061 
 4776000   0.55047535   -5.4342063   -5.4342063   -4.6084952 -0.0034978473   -5.4342063   0.82571115   439061 
 4777000   0.54977554   -5.4327907   -5.4327907   -4.6081293 -0.00088652985   -5.4327907   0.82466144   439061 
 4778000   0.55019392   -5.4336645   -5.4336645   -4.6083755 -0.00073396252   -5.4336645     0.825289   439061 
 4779000   0.55039143   -5.4331607   -5.4331607   -4.6075754 -0.0020652207   -5.4331607   0.82558527   439061 
 4780000   0.55031746   -5.4329849   -5.4329849   -4.6075106 -0.0029508234   -5.4329849   0.82547431   439061 
 4781000   0.55114625   -5.4340608   -5.4340608   -4.6073433 -0.00051565964   -5.4340608   0.82671749   439061 
 4782000   0.55126898   -5.4344479   -5.4344479   -4.6075463 -0.0049182154   -5.4344479   0.82690159   439061 
 4783000   0.54992056   -5.4324487   -5.4324487   -4.6075698 -0.0011499912   -5.4324487   0.82487896   439061 
 4784000   0.55051502   -5.4340382   -5.4340382   -4.6082675 -0.003216737   -5.4340382   0.82577065   439061 
 4785000   0.54957912    -5.433537    -5.433537   -4.6091702 -0.0022752691    -5.433537    0.8243668   439061 
 4786000   0.54954972   -5.4330737   -5.4330737    -4.608751 0.0022396779   -5.4330737    0.8243227   439061 
 4787000    0.5508909   -5.4348869   -5.4348869   -4.6085525 -0.00064630856   -5.4348869   0.82633446   439061 
 4788000   0.55106024   -5.4343659   -5.4343659   -4.6077774 0.0041936145   -5.4343659   0.82658848   439061 
 4789000   0.55096252   -5.4340231   -5.4340231   -4.6075812 0.0065897884   -5.4340231    0.8264419   439061 
 4790000   0.55036827   -5.4336828   -5.4336828   -4.6081323 0.0014206617   -5.4336828   0.82555052   439061 
 4791000   0.55081826   -5.4335353   -5.4335353   -4.6073098 0.0018023342   -5.4335353   0.82622551   439061 
 4792000   0.54992823    -5.433116    -5.433116   -4.6082256 -0.0033756381    -5.433116   0.82489046   439061 
 4793000   0.54971192     -5.43322     -5.43322    -4.608654 -0.0054134597     -5.43322     0.824566   439061 
 4794000   0.54903364    -5.432156    -5.432156   -4.6086075 -0.0057178452    -5.432156   0.82354858   439061 
 4795000   0.54896966   -5.4323396   -5.4323396    -4.608887 -0.0051749288   -5.4323396   0.82345262   439061 
 4796000   0.54956629   -5.4337492   -5.4337492   -4.6094016 -0.005794296   -5.4337492   0.82434756   439061 
 4797000    0.5500467   -5.4329306   -5.4329306   -4.6078624 0.00084955164   -5.4329306   0.82506817   439061 
 4798000   0.55012607   -5.4344632   -5.4344632    -4.609276 0.0010982946   -5.4344632   0.82518723   439061 
 4799000   0.55064323   -5.4360462   -5.4360462   -4.6100832 0.0027069142   -5.4360462   0.82596296   439061 
 4800000   0.55056153   -5.4356244   -5.4356244    -4.609784 0.0052559269   -5.4356244   0.82584042   439061 
 4801000   0.55101544   -5.4361844   -5.4361844   -4.6096632 0.0029081146   -5.4361844   0.82652127   439061 
 4802000   0.55101596   -5.4355762   -5.4355762   -4.6090541 0.0023993561   -5.4355762   0.82652206   439061 
 4803000   0.55028354   -5.4342947   -5.4342947   -4.6088713 0.0013440989   -5.4342947   0.82542344   439061 
 4804000   0.55036733   -5.4340242   -5.4340242   -4.6084751 -0.0019787098   -5.4340242   0.82554911   439061 
 4805000   0.54921953   -5.4321279   -5.4321279   -4.6083005 -0.0053343927   -5.4321279   0.82382743   439061 
 4806000   0.54954848   -5.4332081   -5.4332081   -4.6088873 -0.0069278064   -5.4332081   0.82432084   439061 
 4807000   0.54942104   -5.4315398   -5.4315398   -4.6074101 -0.0066245274   -5.4315398   0.82412968   439061 
 4808000   0.54981121   -5.4320681   -5.4320681   -4.6073532 -0.00057327377   -5.4320681   0.82471494   439061 
 4809000   0.55117071   -5.4346563   -5.4346563   -4.6079021 -0.0028249197   -5.4346563   0.82675419   439061 
 4810000    0.5504107   -5.4335188   -5.4335188   -4.6079046 0.0032144825   -5.4335188   0.82561418   439061 
 4811000   0.55140176   -5.4343335   -5.4343335   -4.6072327  0.001605696   -5.4343335   0.82710076   439061 
 4812000   0.55014186   -5.4324645   -5.4324645   -4.6072536 0.0099112075   -5.4324645   0.82521091   439061 
 4813000   0.55054011    -5.433929    -5.433929   -4.6081208 0.0054712419    -5.433929   0.82580828   439061 
 4814000   0.55019612   -5.4338497   -5.4338497   -4.6085574 0.0040961307   -5.4338497    0.8252923   439061 
 4815000   0.54951612   -5.4329321   -5.4329321   -4.6086598 0.00092445266   -5.4329321    0.8242723   439061 
 4816000   0.54933122   -5.4337525   -5.4337525   -4.6097576 -0.0064559072   -5.4337525   0.82399495   439061 
 4817000   0.54972115   -5.4336076   -5.4336076   -4.6090278 -0.0068254372   -5.4336076   0.82457985   439061 
 4818000   0.55059017   -5.4332263   -5.4332263    -4.607343 -0.0098719529   -5.4332263   0.82588337   439061 
 4819000    0.5499832   -5.4328869   -5.4328869    -4.607914 -0.0061285464   -5.4328869   0.82497291   439061 
 4820000    0.5499331   -5.4319475   -5.4319475   -4.6070497 0.0014085575   -5.4319475   0.82489778   439061 
 4821000   0.55106282    -5.432955    -5.432955   -4.6063626 0.0036873851    -5.432955   0.82659234   439061 
 4822000   0.55092463   -5.4334186   -5.4334186   -4.6070335 0.0046146826   -5.4334186   0.82638506   439061 
 4823000   0.55024481   -5.4334489   -5.4334489   -4.6080836 0.0048376624   -5.4334489   0.82536533   439061 
 4824000    0.5509579   -5.4348112   -5.4348112   -4.6083762 -0.00017045662   -5.4348112   0.82643497   439061 
 4825000   0.55038762   -5.4339986   -5.4339986    -4.608419 -0.00087315264   -5.4339986   0.82557955   439061 
 4826000   0.55052905   -5.4340161   -5.4340161   -4.6082244 0.00028961118   -5.4340161   0.82579169   439061 
 4827000   0.55035936   -5.4332126   -5.4332126   -4.6076754 0.00088620742   -5.4332126   0.82553715   439061 
 4828000   0.55057672   -5.4345442   -5.4345442    -4.608681 -0.0052168068   -5.4345442    0.8258632   439061 
 4829000   0.54923608    -5.432515    -5.432515   -4.6086628 -0.0031347778    -5.432515   0.82385224   439061 
 4830000   0.54974756   -5.4335657   -5.4335657   -4.6089463 -0.0022862198   -5.4335657   0.82461946   439061 
 4831000   0.55096695   -5.4350901   -5.4350901   -4.6086415 -0.0019083653   -5.4350901   0.82644854   439061 
 4832000   0.54976946   -5.4336774   -5.4336774   -4.6090251 -0.00072908272   -5.4336774   0.82465231   439061 
 4833000   0.55105538   -5.4351442   -5.4351442    -4.608563 0.00074477484   -5.4351442   0.82658119   439061 
 4834000    0.5506499   -5.4349096   -5.4349096   -4.6089367 0.0048835507   -5.4349096   0.82597298   439061 
 4835000   0.55007151   -5.4333402   -5.4333402   -4.6082348 0.0061392728   -5.4333402   0.82510539   439061 
 4836000   0.55140452   -5.4363628   -5.4363628   -4.6092579 -0.0018197501   -5.4363628    0.8271049   439061 
 4837000   0.54972066   -5.4332493   -5.4332493   -4.6086702 0.0026184165   -5.4332493   0.82457911   439061 
 4838000   0.54991039   -5.4335829   -5.4335829   -4.6087192 -0.0037376109   -5.4335829   0.82486371   439061 
 4839000   0.55002826   -5.4327733   -5.4327733   -4.6077328 -0.0056178862   -5.4327733   0.82504051   439061 
 4840000   0.55032849   -5.4331914   -5.4331914   -4.6077006 -0.0014262735   -5.4331914   0.82549085   439061 
 4841000   0.54930413   -5.4334188   -5.4334188   -4.6094645 -0.0064697659   -5.4334188   0.82395432   439061 
 4842000   0.54875645   -5.4331796   -5.4331796   -4.6100468 -0.0041509284   -5.4331796    0.8231328   439061 
 4843000   0.54862845   -5.4335338   -5.4335338    -4.610593 -0.0042994958   -5.4335338    0.8229408   439061 
 4844000   0.54962649   -5.4356282   -5.4356282   -4.6111903 0.0028779772   -5.4356282   0.82443785   439061 
 4845000   0.54968397   -5.4362574   -5.4362574   -4.6117333  0.002072358   -5.4362574   0.82452407   439061 
 4846000   0.55083355   -5.4373339   -5.4373339   -4.6110854 -0.0014714278   -5.4373339   0.82624844   439061 
 4847000   0.55071442   -5.4368685   -5.4368685   -4.6107988 0.0032410378   -5.4368685   0.82606974   439061 
 4848000   0.55126495   -5.4376034   -5.4376034   -4.6107079 0.0018102814   -5.4376034   0.82689554   439061 
 4849000   0.54981018    -5.435918    -5.435918   -4.6112046 -9.4281183e-06    -5.435918    0.8247134   439061 
 4850000   0.54927834   -5.4351754   -5.4351754   -4.6112598 -0.0022876826   -5.4351754   0.82391564   439061 
 4851000   0.54953461   -5.4345295   -5.4345295   -4.6102294 -0.002125629   -5.4345295   0.82430003   439061 
 4852000    0.5495121   -5.4344878   -5.4344878   -4.6102215 -0.0016246342   -5.4344878   0.82426627   439061 
 4853000   0.54965687   -5.4342018   -5.4342018   -4.6097184 -0.0062402752   -5.4342018   0.82448343   439061 
 4854000   0.54926979   -5.4336551   -5.4336551   -4.6097523 -0.0046713787   -5.4336551   0.82390281   439061 
 4855000   0.55052644   -5.4356352   -5.4356352   -4.6098474 -0.0039931161   -5.4356352   0.82578778   439061 
 4856000   0.54933376   -5.4342105   -5.4342105   -4.6102118 0.0013012186   -5.4342105   0.82399876   439061 
 4857000   0.55096974     -5.43589     -5.43589   -4.6094373 0.0024021613     -5.43589   0.82645273   439061 
 4858000   0.55150775   -5.4368982   -5.4368982   -4.6096385 0.0047500532   -5.4368982   0.82725974   439061 
 4859000   0.55035292    -5.436382    -5.436382   -4.6108545 -0.00094503547    -5.436382   0.82552749   439061 
 4860000   0.54927747   -5.4349431   -5.4349431   -4.6110288 -0.00037878423   -5.4349431   0.82391433   439061 
 4861000    0.5489116   -5.4351484   -5.4351484   -4.6117829 0.00072259725   -5.4351484   0.82336553   439061 
 4862000   0.54983288   -5.4357111   -5.4357111   -4.6109636 -0.0013450231   -5.4357111   0.82474745   439061 
 4863000   0.55003468   -5.4367299   -5.4367299   -4.6116797 -0.0052190335   -5.4367299   0.82505014   439061 
 4864000   0.54919245   -5.4356486   -5.4356486   -4.6118618 -0.0074010508   -5.4356486    0.8237868   439061 
 4865000   0.54976257     -5.43494     -5.43494   -4.6102981 -0.0027220545     -5.43494   0.82464198   439061 
 4866000   0.55003832   -5.4356107   -5.4356107   -4.6105551 0.0024485949   -5.4356107    0.8250556   439061 
 4867000   0.54999212   -5.4351745   -5.4351745   -4.6101882 0.0056151896   -5.4351745    0.8249863   439061 
 4868000   0.55022803   -5.4362226   -5.4362226   -4.6108824 0.0018584178   -5.4362226   0.82534016   439061 
 4869000   0.54873777   -5.4355778   -5.4355778    -4.612473 0.0048630418   -5.4355778   0.82310478   439061 
 4870000   0.55011356   -5.4365716   -5.4365716   -4.6114031 0.00052562793   -5.4365716   0.82516846   439061 
 4871000   0.54900423   -5.4359572   -5.4359572   -4.6124527 0.0034496013   -5.4359572   0.82350447   439061 
 4872000   0.55044488   -5.4378194   -5.4378194   -4.6121539 -0.0026174969   -5.4378194   0.82566543   439061 
 4873000   0.54948362   -5.4363034   -5.4363034   -4.6120799 -0.0050444211   -5.4363034   0.82422355   439061 
 4874000   0.54973195   -5.4375283   -5.4375283   -4.6129323 -0.0036468595   -5.4375283   0.82459605   439061 
 4875000   0.55004799   -5.4362604   -5.4362604   -4.6111903 -0.0011162097   -5.4362604   0.82507011   439061 
 4876000   0.54926943   -5.4351128   -5.4351128   -4.6112105 -0.00090686591   -5.4351128   0.82390227   439061 
 4877000   0.55002771   -5.4359809   -5.4359809   -4.6109412 0.0014882945   -5.4359809   0.82503968   439061 
 4878000   0.55010448   -5.4365227   -5.4365227   -4.6113679 -0.00085743573   -5.4365227   0.82515484   439061 
 4879000   0.54968929   -5.4358826   -5.4358826   -4.6113506 -0.0020652858   -5.4358826   0.82453206   439061 
 4880000   0.54926313   -5.4353143   -5.4353143   -4.6114215 -0.00029381465   -5.4353143   0.82389282   439061 
 4881000   0.54882596   -5.4358155   -5.4358155   -4.6125784 -0.0043299384   -5.4358155   0.82323707   439061 
 4882000   0.54919879   -5.4361972   -5.4361972   -4.6124009 -0.0042719307   -5.4361972    0.8237963   439061 
 4883000   0.55015014   -5.4374331   -5.4374331   -4.6122098 -0.0028704371   -5.4374331   0.82522334   439061 
 4884000   0.54996406   -5.4379413   -5.4379413   -4.6129971 -0.0044858298   -5.4379413   0.82494421   439061 
 4885000   0.54965474   -5.4373845   -5.4373845   -4.6129042 0.00028735429   -5.4373845   0.82448023   439061 
 4886000   0.54979386   -5.4374177   -5.4374177   -4.6127288 0.0023982755   -5.4374177   0.82468892   439061 
 4887000   0.55073669   -5.4384053   -5.4384053   -4.6123022  -0.00321131   -5.4384053   0.82610315   439061 
 4888000   0.54985999   -5.4376955   -5.4376955   -4.6129074 0.0055254496   -5.4376955    0.8247881   439061 
 4889000   0.54907876    -5.436936    -5.436936   -4.6133197 0.0028920145    -5.436936   0.82361627   439061 
 4890000   0.54957578   -5.4374182   -5.4374182   -4.6130565 -0.00021203508   -5.4374182   0.82436179   439061 
 4891000   0.54876662   -5.4360554   -5.4360554   -4.6129074 -0.0031384176   -5.4360554   0.82314805   439061 
 4892000   0.54903233   -5.4370186   -5.4370186    -4.613472 -0.0072404853   -5.4370186   0.82354661   439061 
 4893000   0.54897572   -5.4364401   -5.4364401   -4.6129783 -0.0013987719   -5.4364401   0.82346171   439061 
 4894000   0.54935529   -5.4363818   -5.4363818   -4.6123508 -0.0010154847   -5.4363818   0.82403105   439061 
 4895000   0.54974409   -5.4378299   -5.4378299   -4.6132157 -0.0021530944   -5.4378299   0.82461425   439061 
 4896000   0.54924164   -5.4369652   -5.4369652   -4.6131046 0.0016341934   -5.4369652   0.82386058   439061 
 4897000   0.54950582    -5.437432    -5.437432   -4.6131751 0.0011758633    -5.437432   0.82425685   439061 
 4898000   0.54934111   -5.4383009   -5.4383009   -4.6142911 -0.0010007459   -5.4383009   0.82400979   439061 
 4899000   0.54960334   -5.4385759   -5.4385759   -4.6141728 -0.0065376435   -5.4385759   0.82440313   439061 
 4900000   0.54943095   -5.4386269   -5.4386269   -4.6144824 0.00056752844   -5.4386269   0.82414454   439061 
 4901000    0.5489837   -5.4379869   -5.4379869   -4.6145132 0.0025133543   -5.4379869   0.82347368   439061 
 4902000   0.54875375   -5.4376727   -5.4376727   -4.6145439 0.0042324434   -5.4376727   0.82312875   439061 
 4903000   0.54880741   -5.4390143   -5.4390143   -4.6158051 -0.0010410844   -5.4390143   0.82320925   439061 
 4904000   0.54888776   -5.4390249   -5.4390249   -4.6156951 -0.00078653451   -5.4390249   0.82332976   439061 
 4905000   0.54905137   -5.4387218   -5.4387218   -4.6151467 0.00070490837   -5.4387218   0.82357517   439061 
 4906000   0.54935336   -5.4385534   -5.4385534   -4.6145252 -0.0021422394   -5.4385534   0.82402817   439061 
 4907000   0.54908887   -5.4376963   -5.4376963   -4.6140649 -0.00018534366   -5.4376963   0.82363143   439061 
 4908000   0.54914951    -5.438322    -5.438322   -4.6145996 0.0013470375    -5.438322   0.82372239   439061 
 4909000   0.54895307   -5.4381678   -5.4381678   -4.6147401 0.00076999992   -5.4381678   0.82342773   439061 
 4910000   0.54915214   -5.4380659   -5.4380659   -4.6143396 -0.0004767014   -5.4380659   0.82372633   439061 
 4911000   0.54899495   -5.4385221   -5.4385221   -4.6150316 -0.0020317769   -5.4385221   0.82349056   439061 
 4912000   0.54857901   -5.4373113   -5.4373113   -4.6144447 -0.0037614694   -5.4373113   0.82286664   439061 
 4913000    0.5496311   -5.4382192   -5.4382192   -4.6137744 0.0009442065   -5.4382192   0.82444477   439061 
 4914000   0.54937697   -5.4391376   -5.4391376   -4.6150741 -0.0028360783   -5.4391376   0.82406358   439061 
 4915000    0.5489167   -5.4375549   -5.4375549   -4.6141817 0.0020424464   -5.4375549   0.82337318   439061 
 4916000   0.54911247    -5.438955    -5.438955   -4.6152882 -0.0030599066    -5.438955   0.82366682   439061 
 4917000   0.54885673   -5.4379537   -5.4379537   -4.6146705 -0.0018279226   -5.4379537   0.82328322   439061 
 4918000   0.54893424   -5.4377415   -5.4377415    -4.614342 0.00066210464   -5.4377415   0.82339949   439061 
 4919000   0.54932654   -5.4377524   -5.4377524   -4.6137645 0.00077757651   -5.4377524   0.82398793   439061 
 4920000   0.54857944   -5.4365504   -5.4365504   -4.6136831 0.00038140738   -5.4365504   0.82286728   439061 
 4921000   0.54932085   -5.4385474   -5.4385474    -4.614568 -0.0013084815   -5.4385474   0.82397939   439061 
 4922000   0.54899337   -5.4380362   -5.4380362    -4.614548 -0.0011901612   -5.4380362   0.82348818   439061 
 4923000   0.54970503   -5.4388201   -5.4388201   -4.6142645  -0.00252271   -5.4388201   0.82455566   439061 
 4924000   0.54959252   -5.4380706   -5.4380706   -4.6136837 -0.00043668033   -5.4380706   0.82438691   439061 
 4925000   0.54945507   -5.4381768   -5.4381768   -4.6139961  0.001050343   -5.4381768   0.82418073   439061 
 4926000   0.54906894   -5.4388449   -5.4388449   -4.6152434 -0.0019132611   -5.4388449   0.82360153   439061 
 4927000   0.54879612   -5.4381778   -5.4381778   -4.6149855 -0.0031156275   -5.4381778    0.8231923   439061 
 4928000   0.54916243   -5.4384804   -5.4384804   -4.6147386 -0.0032013715   -5.4384804   0.82374178   439061 
 4929000   0.55032164   -5.4403397   -5.4403397   -4.6148591 -0.0011439252   -5.4403397   0.82548058   439061 
 4930000    0.5491863   -5.4380532   -5.4380532   -4.6142756 0.0043430785   -5.4380532   0.82377757   439061 
 4931000   0.55020458   -5.4393525   -5.4393525   -4.6140476 -0.0031013691   -5.4393525   0.82530499   439061 
 4932000   0.55002031   -5.4392286   -5.4392286   -4.6142001 -0.0019598902   -5.4392286   0.82502859   439061 
 4933000   0.54926436   -5.4372896   -5.4372896    -4.613395 0.00059431225   -5.4372896   0.82389466   439061 
 4934000   0.54971595   -5.4386808   -5.4386808   -4.6141087 -0.00077268113   -5.4386808   0.82457204   439061 
 4935000    0.5491725   -5.4375944   -5.4375944   -4.6138375 -0.0036684117   -5.4375944   0.82375688   439061 
 4936000   0.54948595    -5.438243    -5.438243    -4.614016 -0.0032529242    -5.438243   0.82422705   439061 
 4937000   0.54956143    -5.438696    -5.438696   -4.6143557 -0.0039040314    -5.438696   0.82434026   439061 
 4938000   0.54883598   -5.4357477   -5.4357477   -4.6124956 0.0028790866   -5.4357477    0.8232521   439061 
 4939000   0.54932128   -5.4372924   -5.4372924   -4.6133124 -0.00068008734   -5.4372924   0.82398005   439061 
 4940000     0.549424   -5.4373351   -5.4373351   -4.6132009 0.0029042144   -5.4373351   0.82413413   439061 
 4941000   0.54879632   -5.4367951   -5.4367951   -4.6136025 0.0038203122   -5.4367951    0.8231926   439061 
 4942000   0.55000844   -5.4389176   -5.4389176   -4.6139068 0.00079756812   -5.4389176   0.82501078   439061 
 4943000   0.54967922   -5.4391712   -5.4391712   -4.6146543 -0.0037119852   -5.4391712   0.82451695   439061 
 4944000   0.54941323   -5.4387082   -5.4387082   -4.6145902 -0.0025383798   -5.4387082   0.82411797   439061 
 4945000   0.54908504   -5.4388162   -5.4388162   -4.6151905 0.0015945933   -5.4388162   0.82362569   439061 
 4946000   0.54966677   -5.4394221   -5.4394221   -4.6149238 -0.00054907947   -5.4394221   0.82449827   439061 
 4947000   0.54887316   -5.4383817   -5.4383817   -4.6150739 0.0026642365   -5.4383817   0.82330787   439061 
 4948000   0.54890772   -5.4390404   -5.4390404   -4.6156807 -0.001651671   -5.4390404   0.82335971   439061 
 4949000   0.54924382    -5.439302    -5.439302   -4.6154382 -0.0034516343    -5.439302   0.82386386   439061 
 4950000   0.54936011   -5.4391762   -5.4391762    -4.615138 0.0015935954   -5.4391762   0.82403829   439061 
 4951000   0.54894691     -5.43833     -5.43833   -4.6149115 0.0023471231     -5.43833   0.82341849   439061 
 4952000   0.54884242   -5.4383798   -5.4383798    -4.615118 0.0021411092   -5.4383798   0.82326176   439061 
 4953000    0.5493084   -5.4390319   -5.4390319   -4.6150712 0.0011872134   -5.4390319   0.82396072   439061 
 4954000   0.54921264   -5.4398027   -5.4398027   -4.6159856 -0.0035910852   -5.4398027   0.82381708   439061 
 4955000   0.54850948   -5.4371466   -5.4371466   -4.6143843 -0.001987788   -5.4371466   0.82276235   439061 
 4956000   0.55011693   -5.4382824   -5.4382824   -4.6131089 -0.0016018306   -5.4382824   0.82517352   439061 
 4957000   0.54873316   -5.4369875   -5.4369875   -4.6138897 0.0020996446   -5.4369875   0.82309786   439061 
 4958000    0.5498461   -5.4387006   -5.4387006   -4.6139334 -0.0017757389   -5.4387006   0.82476727   439061 
 4959000   0.54855142   -5.4365692   -5.4365692   -4.6137439 -0.00031181044   -5.4365692   0.82282526   439061 
 4960000   0.54874738   -5.4355583   -5.4355583   -4.6124391 0.0028479114   -5.4355583   0.82311919   439061 
 4961000   0.55020809   -5.4374813   -5.4374813    -4.612171 0.0018009112   -5.4374813   0.82531026   439061 
 4962000   0.54892244   -5.4357734   -5.4357734   -4.6123916 0.00079305762   -5.4357734   0.82338179   439061 
 4963000   0.54908916   -5.4359246   -5.4359246   -4.6122927 0.0045247308   -5.4359246   0.82363187   439061 
 4964000   0.54938625   -5.4364574   -5.4364574   -4.6123799 0.0018060868   -5.4364574    0.8240775   439061 
 4965000   0.54946445   -5.4362676   -5.4362676   -4.6120728 0.0004565835   -5.4362676   0.82419479   439061 
 4966000   0.54893206   -5.4363133   -5.4363133   -4.6129171 0.0020012642   -5.4363133   0.82339622   439061 
 4967000   0.54887083    -5.435344    -5.435344   -4.6120396 0.0008180864    -5.435344   0.82330438   439061 
 4968000   0.54985211   -5.4369062   -5.4369062     -4.61213 -0.00056096705   -5.4369062   0.82477628   439061 
 4969000   0.54843606   -5.4353853   -5.4353853    -4.612733 -0.0019332096   -5.4353853   0.82265221   439061 
 4970000   0.55000598   -5.4373717   -5.4373717   -4.6123647 -0.0027797602   -5.4373717   0.82500709   439061 
 4971000   0.54929782   -5.4370636   -5.4370636   -4.6131187 -7.0878188e-05   -5.4370636   0.82394485   439061 
 4972000   0.54923044   -5.4373064   -5.4373064   -4.6134627 -0.0012556713   -5.4373064   0.82384378   439061 
 4973000   0.55041191   -5.4378233   -5.4378233   -4.6122073 -0.003092341   -5.4378233   0.82561599   439061 
 4974000   0.54985305   -5.4371134   -5.4371134   -4.6123357 0.0051469462   -5.4371134   0.82477769   439061 
 4975000   0.55033607   -5.4380456   -5.4380456   -4.6125434 0.0013907071   -5.4380456   0.82550222   439061 
 4976000   0.54989459   -5.4376596   -5.4376596   -4.6128196 -0.001119353   -5.4376596   0.82484001   439061 
 4977000   0.54834023   -5.4359958   -5.4359958   -4.6134873 0.0032018013   -5.4359958   0.82250848   439061 
 4978000   0.54924349    -5.436722    -5.436722   -4.6128587 0.0019360563    -5.436722   0.82386336   439061 
 4979000    0.5498456   -5.4378567   -5.4378567   -4.6130901 -0.0027051021   -5.4378567   0.82476652   439061 
 4980000   0.55010929   -5.4377162   -5.4377162   -4.6125541 -0.004005426   -5.4377162   0.82516205   439061 
 4981000   0.54935494   -5.4369081   -5.4369081   -4.6128776 -0.0003833421   -5.4369081   0.82403053   439061 
 4982000   0.55021082   -5.4372386   -5.4372386   -4.6119242 0.0035427376   -5.4372386   0.82531435   439061 
 4983000   0.54949995   -5.4361695   -5.4361695   -4.6119214  0.001565955   -5.4361695   0.82424804   439061 
 4984000   0.54978596   -5.4367873   -5.4367873   -4.6121102 -0.00066944192   -5.4367873   0.82467706   439061 
 4985000   0.54949094   -5.4354388   -5.4354388   -4.6112042 -0.0026619785   -5.4354388   0.82423453   439061 
 4986000   0.54964662   -5.4367021   -5.4367021    -4.612234 -0.0016579498   -5.4367021   0.82446806   439061 
 4987000   0.54979412    -5.436089    -5.436089   -4.6113997 -0.0025272476    -5.436089   0.82468931   439061 
 4988000      0.54971   -5.4354815   -5.4354815   -4.6109183 -0.0030134596   -5.4354815   0.82456313   439061 
 4989000     0.549285   -5.4340935   -5.4340935   -4.6101679 0.0022499642   -5.4340935   0.82392563   439061 
 4990000   0.54985753   -5.4341548   -5.4341548   -4.6093703 0.0030214474   -5.4341548   0.82478441   439061 
 4991000   0.55050965   -5.4364106   -5.4364106    -4.610648 -0.0054556141   -5.4364106   0.82576259   439061 
 4992000   0.54989433   -5.4359591   -5.4359591   -4.6111194 -0.0017931941   -5.4359591   0.82483962   439061 
 4993000   0.54943882   -5.4361002   -5.4361002   -4.6119439 -0.003816597   -5.4361002   0.82415635   439061 
 4994000   0.54903478    -5.434858    -5.434858   -4.6113077 -0.0017804308    -5.434858    0.8235503   439061 
 4995000   0.55053721   -5.4371538   -5.4371538   -4.6113499 -0.001535148   -5.4371538   0.82580394   439061 
 4996000   0.55023518   -5.4379266   -5.4379266   -4.6125757 0.0016064366   -5.4379266   0.82535089   439061 
 4997000   0.54968939   -5.4368757   -5.4368757   -4.6123435 -0.0010483398   -5.4368757   0.82453221   439061 
 4998000   0.54949956   -5.4369531   -5.4369531   -4.6127057 0.00057818449   -5.4369531   0.82424746   439061 
 4999000   0.55005247   -5.4370069   -5.4370069   -4.6119301 0.0011444493   -5.4370069   0.82507683   439061 
 5000000   0.54900867   -5.4354444   -5.4354444   -4.6119333 0.00054901928   -5.4354444   0.82351114   439061 
Loop time of 28954.2 on 64 procs for 5000000 steps with 439061 atoms

Performance: 74600.512 tau/day, 172.686 timesteps/s
98.5% CPU use with 64 MPI tasks x 1 OpenMP threads

MPI task timing breakdown:
Section |  min time  |  avg time  |  max time  |%varavg|  %CPU | %total
-----------------------------------------------------------------------
Pair    | 12455      | 16398      | 17380      |1101.1 |  98.3 | 56.63
Bond    | 2.0816     | 2.4226     | 2.9246     |  10.1 | 100.0 |  0.01
Neigh   | 4019.3     | 5381.2     | 5735.3     | 651.4 |  99.6 | 18.59
Comm    | 3564.3     | 5637.7     | 11345      |2808.7 |  97.7 | 19.47
Output  | 208.89     | 209.23     | 209.31     |   0.3 |  98.1 |  0.72
Modify  | 431.91     | 896.32     | 2213       |2392.7 |  99.0 |  3.10
Other   |            | 429.6      |            |       |       |  1.48

Nlocal:        6860.33 ave        7139 max        6139 min
Histogram: 4 1 3 0 0 0 1 29 18 8
Nghost:        8435.08 ave        9337 max        5882 min
Histogram: 15 1 0 0 0 0 0 0 0 48
Neighs:       289821.0 ave      308285 max      227872 min
Histogram: 5 3 0 0 0 0 0 1 45 10

Total # of neighbors = 18548566
Ave neighs/atom = 42.245989
Ave special neighs/atom = 0.0000000
Neighbor list builds = 478632
Dangerous builds = 243234
write_data	data.lj
System init for write_data ...
WARNING: Not all mixed pair coeffs generated from mixing. Use write_data with 'pair ij' option to store all pair coeffs. (src/write_data.cpp:312)


## Evaporation
#region          regevap block EDGE EDGE EDGE EDGE 140 EDGE units box
#fix             4 solvent evaporate ${evap} 1 regevap 156415

#run 		20000000
Total wall time: 8:02:40
